x	y	stress_xx
 1.0000000000e+000	 0.0000000000e+000	 2.9788078124e-001
 9.9995537907e-001	 9.4463922618e-003	 2.9606669154e-001
 9.9982082766e-001	 1.8928670806e-002	 2.9910372059e-001
 9.9959532214e-001	 2.8445738363e-002	 3.0720766364e-001
 9.9927785191e-001	 3.7996469419e-002	 3.2059119228e-001
 9.9886742018e-001	 4.7579710273e-002	 3.3946336001e-001
 9.9836304482e-001	 5.7194279111e-002	 3.6402908257e-001
 9.9776375910e-001	 6.6838966101e-002	 3.9448859333e-001
 9.9706861257e-001	 7.6512533521e-002	 4.3103687402e-001
 9.9627667181e-001	 8.6213715910e-002	 4.7386306148e-001
 9.9538702132e-001	 9.5941220239e-002	 5.2314983082e-001
 1.0266668589e+000	 0.0000000000e+000	 7.9246712255e-001
 1.0266210481e+000	 9.6982978697e-003	 7.9387465702e-001
 1.0264829086e+000	 1.9433438997e-002	 7.9893761530e-001
 1.0262513896e+000	 2.9204296851e-002	 8.0776961859e-001
 1.0259254534e+000	 3.9009715904e-002	 8.2048188102e-001
 1.0255040767e+000	 4.8848511690e-002	 8.3718335260e-001
 1.0249862513e+000	 5.8719470879e-002	 8.5798035467e-001
 1.0243709845e+000	 6.8621351376e-002	 8.8297619055e-001
 1.0236573006e+000	 7.8552882455e-002	 9.1227073132e-001
 1.0228442412e+000	 8.8512764906e-002	 9.4595997719e-001
 1.0219308666e+000	 9.8499671221e-002	 9.8413559468e-001
 1.0533340711e+000	 0.0000000000e+000	 1.2858709685e+000
 1.0532870704e+000	 9.9502068155e-003	 1.2888947545e+000
 1.0531453428e+000	 1.9938213876e-002	 1.2946338843e+000
 1.0529078102e+000	 2.9962865390e-002	 1.3031128193e+000
 1.0525734079e+000	 4.0022975815e-002	 1.3143547576e+000
 1.0521410862e+000	 5.0117329919e-002	 1.3283817388e+000
 1.0516098105e+000	 6.0244682856e-002	 1.3452144096e+000
 1.0509785624e+000	 7.0403760268e-002	 1.3648717632e+000
 1.0502463409e+000	 8.0593258423e-002	 1.3873708535e+000
 1.0494121627e+000	 9.0811844365e-002	 1.4127264840e+000
 1.0484750635e+000	 1.0105815610e-001	 1.4409508709e+000
 1.0800015900e+000	 0.0000000000e+000	 1.7634794771e+000
 1.0799533994e+000	 1.0202118658e-002	 1.7668020792e+000
 1.0798080836e+000	 2.0442994561e-002	 1.7721128583e+000
 1.0795645373e+000	 3.0721442652e-002	 1.7793598572e+000
 1.0792216689e+000	 4.1036247378e-002	 1.7884907645e+000
 1.0787784020e+000	 5.1386162739e-002	 1.7994529943e+000
 1.0782336758e+000	 6.1769912372e-002	 1.8121935576e+000
 1.0775864463e+000	 7.2186189658e-002	 1.8266589059e+000
 1.0768356869e+000	 8.2633657856e-002	 1.8427947474e+000
 1.0759803897e+000	 9.3110950263e-002	 1.8605458373e+000
 1.0750195657e+000	 1.0361667041e-001	 1.8798557398e+000
 1.1066693690e+000	 0.0000000000e+000	 2.2119191284e+000
 1.1066199883e+000	 1.0454032957e-002	 2.2144941024e+000
 1.1064710844e+000	 2.0947780166e-002	 2.2185043255e+000
 1.1062215244e+000	 3.1480027311e-002	 2.2238333037e+000
 1.1058701898e+000	 4.2049528821e-002	 2.2303648888e+000
 1.1054159776e+000	 5.2655007930e-002	 2.2379833478e+000
 1.1048578008e+000	 6.3295156760e-002	 2.2465733156e+000
 1.1041945896e+000	 7.3968636427e-002	 2.2560197180e+000
 1.1034252923e+000	 8.4674077182e-002	 2.2662076662e+000
 1.1025488757e+000	 9.5410078577e-002	 2.2770223215e+000
 1.1015643267e+000	 1.0617520966e-001	 2.2883487308e+000
 1.1333373612e+000	 0.0000000000e+000	 2.6189092371e+000
 1.1332867906e+000	 1.0705949271e-002	 2.6199472896e+000
 1.1331342985e+000	 2.1452569810e-002	 2.6220061340e+000
 1.1328787247e+000	 3.2238618038e-002	 2.6249158504e+000
 1.1325189238e+000	 4.3062818369e-002	 2.6285073852e+000
 1.1320537662e+000	 5.3923863272e-002	 2.6326126202e+000
 1.1314821387e+000	 6.4820413349e-002	 2.6370643840e+000
 1.1308029458e+000	 7.5751097454e-002	 2.6416964310e+000
 1.1300151103e+000	 8.6714512831e-002	 2.6463433895e+000
 1.1291175742e+000	 9.7709225283e-002	 2.6508406757e+000
 1.1281093001e+000	 1.0873376937e-001	 2.6550243771e+000
 1.1600055201e+000	 0.0000000000e+000	 2.9731362545e+000
 1.1599537596e+000	 1.0957867160e-002	 2.9720934874e+000
 1.1597976792e+000	 2.1957362609e-002	 2.9717622870e+000
 1.1595360916e+000	 3.2997213506e-002	 2.9719297284e+000
 1.1591678243e+000	 4.4076114251e-002	 2.9723841239e+000
 1.1586917213e+000	 5.5192726543e-002	 2.9729150976e+000
 1.1581066431e+000	 6.6345679470e-002	 2.9733136334e+000
 1.1574114683e+000	 7.7533569621e-002	 2.9733720876e+000
 1.1566050945e+000	 8.8754961232e-002	 2.9728841652e+000
 1.1556864388e+000	 1.0000838636e-001	 2.9716448604e+000
 1.1546544394e+000	 1.1129234508e-001	 2.9694503612e+000
 1.1866737990e+000	 0.0000000000e+000	 3.2641450123e+000
 1.1866208486e+000	 1.1209786182e-002	 3.2607129703e+000
 1.1864611799e+000	 2.2462157679e-002	 3.2577574666e+000
 1.1861935784e+000	 3.3755812387e-002	 3.2550323743e+000
 1.1858168448e+000	 4.5089414691e-002	 3.2522930568e+000
 1.1853297962e+000	 5.6461595524e-002	 3.2492964478e+000
 1.1847312672e+000	 6.7870952455e-002	 3.2458011140e+000
 1.1840201105e+000	 7.9316049809e-002	 3.2415672779e+000
 1.1831951983e+000	 9.0795418814e-002	 3.2363568009e+000
 1.1822554230e+000	 1.0230755778e-001	 3.2299331243e+000
 1.1811996981e+000	 1.1385093230e-001	 3.2220611703e+000
 1.2133421513e+000	 0.0000000000e+000	 3.4822443038e+000
 1.2132880108e+000	 1.1461705896e-002	 3.4763415872e+000
 1.2131247539e+000	 2.2966954137e-002	 3.4707254598e+000
 1.2128511386e+000	 3.4514413354e-002	 3.4651258449e+000
 1.2124659385e+000	 4.6102717918e-002	 3.4592743236e+000
 1.2119679444e+000	 5.7730467994e-002	 3.4529042128e+000
 1.2113559645e+000	 6.9396229633e-002	 3.4457506218e+000
 1.2106288259e+000	 8.1098534898e-002	 3.4375504639e+000
 1.2097853753e+000	 9.2835882007e-002	 3.4280424213e+000
 1.2088244802e+000	 1.0460673552e-001	 3.4169668642e+000
 1.2077450298e+000	 1.1640952656e-001	 3.4040657232e+000
 1.2400105302e+000	 0.0000000000e+000	 3.6184246455e+000
 1.2399551998e+000	 1.1713625863e-002	 3.6101898853e+000
 1.2397883546e+000	 2.3471751099e-002	 3.6020693957e+000
 1.2395087254e+000	 3.5273015080e-002	 3.5937779132e+000
 1.2391150589e+000	 4.7116022158e-002	 3.5850319453e+000
 1.2386061193e+000	 5.8999341732e-002	 3.5755498337e+000
 1.2379806885e+000	 7.0921508337e-002	 3.5650517848e+000
 1.2372375679e+000	 8.2881021769e-002	 3.5532598467e+000
 1.2363755789e+000	 9.4876347240e-002	 3.5398978346e+000
 1.2353935640e+000	 1.0690591556e-001	 3.5246912034e+000
 1.2342903880e+000	 1.1896812337e-001	 3.5073668667e+000
 1.2666788891e+000	 0.0000000000e+000	 3.6642864246e+000
 1.2666223687e+000	 1.1965545641e-002	 3.6540724469e+000
 1.2664519353e+000	 2.3976547683e-002	 3.6437920532e+000
 1.2661662922e+000	 3.6031616237e-002	 3.6331531234e+000
 1.2657641593e+000	 4.8129325638e-002	 3.6218653983e+000
 1.2652442741e+000	 6.0268214518e-002	 3.6096405110e+000
 1.2646053925e+000	 7.2446785896e-002	 3.5961919691e+000
 1.2638462899e+000	 8.4663507302e-002	 3.5812350774e+000
 1.2629657625e+000	 9.6916810941e-002	 3.5644868000e+000
 1.2619626278e+000	 1.0920509388e-001	 3.5456655623e+000
 1.2608357263e+000	 1.2152671826e-001	 3.5244909926e+000
 9.9538702132e-001	 9.5941220239e-002	 5.2314983082e-001
 9.9439891999e-001	 1.0569226494e-001	 5.7887982188e-001
 9.9331136502e-001	 1.1546697758e-001	 6.4078570756e-001
 9.9212350004e-001	 1.2526400575e-001	 7.0864417585e-001
 9.9083448984e-001	 1.3508197105e-001	 7.8222911243e-001
 9.8944352116e-001	 1.4491946945e-001	 8.6131167820e-001
 9.8794980354e-001	 1.5477507159e-001	 9.4566038187e-001
 9.8635257014e-001	 1.6464732318e-001	 1.0350411480e+000
 9.8465107850e-001	 1.7453474535e-001	 1.1292173815e+000
 9.8284461142e-001	 1.8443583512e-001	 1.2279500292e+000
 9.8093247774e-001	 1.9434906582e-001	 1.3309976392e+000
 1.0219308666e+000	 9.8499671221e-002	 9.8413559468e-001
 1.0209164157e+000	 1.0851074566e-001	 1.0270155814e+000
 1.0197998590e+000	 1.1854611918e-001	 1.0746360719e+000
 1.0185803174e+000	 1.2860440331e-001	 1.1267928909e+000
 1.0172569334e+000	 1.3868418291e-001	 1.1832801564e+000
 1.0158288719e+000	 1.4878401649e-001	 1.2438903175e+000
 1.0142953215e+000	 1.5890243659e-001	 1.3084141821e+000
 1.0126554949e+000	 1.6903795012e-001	 1.3766409368e+000
 1.0109086299e+000	 1.7918903878e-001	 1.4483581592e+000
 1.0090539900e+000	 1.8935415951e-001	 1.5233518238e+000
 1.0070908657e+000	 1.9953174493e-001	 1.6014063021e+000
 1.0484750635e+000	 1.0105815610e-001	 1.4409508709e+000
 1.0474342627e+000	 1.1132926372e-001	 1.4724238492e+000
 1.0462887040e+000	 1.2162530158e-001	 1.5073992135e+000
 1.0450374853e+000	 1.3194484514e-001	 1.5456840449e+000
 1.0436797270e+000	 1.4228644250e-001	 1.5870846710e+000
 1.0422145723e+000	 1.5264861474e-001	 1.6314066660e+000
 1.0406411886e+000	 1.6302985627e-001	 1.6784548383e+000
 1.0389587683e+000	 1.7342863523e-001	 1.7280332055e+000
 1.0371665291e+000	 1.8384339388e-001	 1.7799449583e+000
 1.0352637158e+000	 1.9427254907e-001	 1.8339924146e+000
 1.0332496003e+000	 2.0471449272e-001	 1.8899769646e+000
 1.0750195657e+000	 1.0361667041e-001	 1.8798557398e+000
 1.0739524147e+000	 1.1414781419e-001	 1.9012113111e+000
 1.0727778536e+000	 1.2470451939e-001	 1.9250178710e+000
 1.0714949575e+000	 1.3528532538e-001	 1.9510866668e+000
 1.0701028245e+000	 1.4588874352e-001	 1.9792290208e+000
 1.0686005761e+000	 1.5651325743e-001	 2.0092562958e+000
 1.0669873587e+000	 1.6715732342e-001	 2.0409798446e+000
 1.0652623441e+000	 1.7781937083e-001	 2.0742109427e+000
 1.0634247304e+000	 1.8849780250e-001	 2.1087607065e+000
 1.0614737431e+000	 1.9919099519e-001	 2.1444399979e+000
 1.0594086357e+000	 2.0989730011e-001	 2.1810593174e+000
 1.1015643267e+000	 1.0617520966e-001	 2.2883487308e+000
 1.1004708253e+000	 1.1696639215e-001	 2.3007428806e+000
 1.0992672615e+000	 1.2778376722e-001	 2.3147132802e+000
 1.0979526877e+000	 1.3862583819e-001	 2.3300689945e+000
 1.0965261796e+000	 1.4949107966e-001	 2.3466198852e+000
 1.0949868371e+000	 1.6037793781e-001	 2.3641765442e+000
 1.0933337856e+000	 1.7128483081e-001	 2.3825502058e+000
 1.0915661763e+000	 1.8221014925e-001	 2.4015526380e+000
 1.0896831877e+000	 1.9315225650e-001	 2.4209960173e+000
 1.0876840259e+000	 2.0410948927e-001	 2.4406927843e+000
 1.0855679261e+000	 2.1508015803e-001	 2.4604554869e+000
 1.1281093001e+000	 1.0873376937e-001	 2.6550243771e+000
 1.1269894479e+000	 1.1978499265e-001	 2.6594970776e+000
 1.1257568813e+000	 1.3086303968e-001	 2.6648382930e+000
 1.1244106295e+000	 1.4196637773e-001	 2.6708492573e+000
 1.1229497461e+000	 1.5309344462e-001	 2.6773326362e+000
 1.1213733093e+000	 1.6424264910e-001	 2.6840924268e+000
 1.1196804233e+000	 1.7541237123e-001	 2.6909338332e+000
 1.1178702190e+000	 1.8660096279e-001	 2.6976631176e+000
 1.1159418550e+000	 1.9780674774e-001	 2.7040874298e+000
 1.1138945184e+000	 2.0902802269e-001	 2.7100146163e+000
 1.1117274258e+000	 2.2026305741e-001	 2.7152530109e+000
 1.1546544394e+000	 1.1129234508e-001	 2.9694503612e+000
 1.1535082364e+000	 1.2260361077e-001	 2.9669412886e+000
 1.1522466666e+000	 1.3394233139e-001	 2.9647506784e+000
 1.1508687367e+000	 1.4530693814e-001	 2.9626669538e+000
 1.1493734777e+000	 1.5669583209e-001	 2.9604805332e+000
 1.1477599464e+000	 1.6810738454e-001	 2.9579836970e+000
 1.1460272257e+000	 1.7953993743e-001	 2.9549704251e+000
 1.1441744261e+000	 1.9099180377e-001	 2.9512362066e+000
 1.1422006864e+000	 2.0246126806e-001	 2.9465778234e+000
 1.1401051746e+000	 2.1394658685e-001	 2.9407931104e+000
 1.1378870890e+000	 2.2544598918e-001	 2.9336806938e+000
 1.1811996981e+000	 1.1385093230e-001	 3.2220611703e+000
 1.1800271441e+000	 1.2542224157e-001	 3.2134237815e+000
 1.1787365711e+000	 1.3702163695e-001	 3.2047034354e+000
 1.1773269629e+000	 1.4864751358e-001	 3.1956714033e+000
 1.1757973282e+000	 1.6029823577e-001	 3.1861014625e+000
 1.1741467021e+000	 1.7197213737e-001	 3.1757697285e+000
 1.1723741466e+000	 1.8366752221e-001	 3.1644544522e+000
 1.1704787516e+000	 1.9538266450e-001	 3.1519357860e+000
 1.1684596360e+000	 2.0711580933e-001	 3.1379955186e+000
 1.1663159489e+000	 2.1886517314e-001	 3.1224167839e+000
 1.1640468699e+000	 2.3062894428e-001	 3.1049837441e+000
 1.2077450298e+000	 1.1640952656e-001	 3.4040657232e+000
 1.2065461248e+000	 1.2824088012e-001	 3.3900799009e+000
 1.2052265485e+000	 1.4010095098e-001	 3.3757494995e+000
 1.2037852618e+000	 1.5198809821e-001	 3.3608249144e+000
 1.2022212514e+000	 1.6390064935e-001	 3.3450595231e+000
 1.2005335305e+000	 1.7583690083e-001	 3.3282094790e+000
 1.1987211399e+000	 1.8779511834e-001	 3.3100334658e+000
 1.1967831493e+000	 1.9977353732e-001	 3.2902924158e+000
 1.1947186578e+000	 2.1177036340e-001	 3.2687491929e+000
 1.1925267952e+000	 2.2378377296e-001	 3.2451682454e+000
 1.1902067228e+000	 2.3581191362e-001	 3.2193152295e+000
 1.2342903880e+000	 1.1896812337e-001	 3.5073668667e+000
 1.2330651319e+000	 1.3105952148e-001	 3.4887503078e+000
 1.2317165523e+000	 1.4318026809e-001	 3.4696586781e+000
 1.2302435872e+000	 1.5532868618e-001	 3.4498183723e+000
 1.2286452010e+000	 1.6750306654e-001	 3.4289592257e+000
 1.2269203852e+000	 1.7970166815e-001	 3.4068142663e+000
 1.2250681596e+000	 1.9192271859e-001	 3.3831194211e+000
 1.2230875734e+000	 2.0416441451e-001	 3.3576131819e+000
 1.2209777059e+000	 2.1642492212e-001	 3.3300362314e+000
 1.2187376677e+000	 2.2870237769e-001	 3.3001310340e+000
 1.2163666018e+000	 2.4099488815e-001	 3.2676413947e+000
 1.2608357263e+000	 1.2152671826e-001	 3.5244909926e+000
 1.2595841192e+000	 1.3387816074e-001	 3.5019094910e+000
 1.2582065363e+000	 1.4625958289e-001	 3.4788450132e+000
 1.2567018928e+000	 1.5866927164e-001	 3.4549974135e+000
 1.2550691308e+000	 1.7110548102e-001	 3.4300704462e+000
 1.2533072201e+000	 1.8356643257e-001	 3.4037714700e+000
 1.2514151596e+000	 1.9605031575e-001	 3.3758111010e+000
 1.2493919777e+000	 2.0855528842e-001	 3.3459028196e+000
 1.2472367342e+000	 2.2107947735e-001	 3.3137625325e+000
 1.2449485205e+000	 2.3362097874e-001	 3.2791080953e+000
 1.2425264611e+000	 2.4617785878e-001	 3.2416587987e+000
 9.8093247774e-001	 1.9434906582e-001	 1.3309976392e+000
 9.7891370242e-001	 2.0427437664e-001	 1.4385656658e+000
 9.7678792810e-001	 2.1420870614e-001	 1.5507691669e+000
 9.7455454705e-001	 2.2415045650e-001	 1.6672738080e+000
 9.7221298076e-001	 2.3409800832e-001	 1.7877416200e+000
 9.6976268070e-001	 2.4404972108e-001	 1.9118311861e+000
 9.6720312906e-001	 2.5400393389e-001	 2.0391978408e+000
 9.6453383948e-001	 2.6395896607e-001	 2.1694938791e+000
 9.6175435779e-001	 2.7391311782e-001	 2.3023687804e+000
 9.5886426270e-001	 2.8386467101e-001	 2.4374694459e+000
 9.5586316651e-001	 2.9381188981e-001	 2.5744404529e+000
 1.0070908657e+000	 1.9953174493e-001	 1.6014063021e+000
 1.0050182560e+000	 2.0972173262e-001	 1.6827573588e+000
 1.0028357939e+000	 2.1992097947e-001	 1.7675766319e+000
 1.0005428556e+000	 2.3012784510e-001	 1.8555852772e+000
 9.9813884713e-001	 2.4034066687e-001	 1.9465023825e+000
 9.9562320526e-001	 2.5055776055e-001	 2.0400450627e+000
 9.9299539842e-001	 2.6077742095e-001	 2.1359285613e+000
 9.9025492727e-001	 2.7099792256e-001	 2.2338663608e+000
 9.8740132554e-001	 2.8121752028e-001	 2.3335703021e+000
 9.8443416069e-001	 2.9143445013e-001	 2.4347507169e+000
 9.8135303469e-001	 3.0164693001e-001	 2.5371165727e+000
 1.0332496003e+000	 2.0471449272e-001	 1.8899769646e+000
 1.0311231554e+000	 2.1516916078e-001	 1.9481790314e+000
 1.0288840049e+000	 2.2563332850e-001	 2.0088381078e+000
 1.0265315086e+000	 2.3610531289e-001	 2.0717185345e+000
 1.0240650570e+000	 2.4658340814e-001	 2.1365839631e+000
 1.0214840725e+000	 2.5706588626e-001	 2.2031973657e+000
 1.0187880095e+000	 2.6755099776e-001	 2.2713210489e+000
 1.0159763559e+000	 2.7803697233e-001	 2.3407166721e+000
 1.0130486331e+000	 2.8852201952e-001	 2.4111452739e+000
 1.0100043975e+000	 2.9900432955e-001	 2.4823673074e+000
 1.0068432406e+000	 3.0948207403e-001	 2.5541426882e+000
 1.0594086357e+000	 2.0989730011e-001	 2.1810593174e+000
 1.0572283551e+000	 2.2061665158e-001	 2.2189567345e+000
 1.0549325155e+000	 2.3134574322e-001	 2.2584497362e+000
 1.0525204604e+000	 2.4208284943e-001	 2.2993346961e+000
 1.0499915651e+000	 2.5282622120e-001	 2.3414084999e+000
 1.0473452371e+000	 2.6357408681e-001	 2.3844684774e+000
 1.0445809173e+000	 2.7432465247e-001	 2.4283123337e+000
 1.0416980803e+000	 2.8507610305e-001	 2.4727380837e+000
 1.0386962356e+000	 2.9582660277e-001	 2.5175439924e+000
 1.0355749283e+000	 3.0657429603e-001	 2.5625285215e+000
 1.0323337397e+000	 3.1731730815e-001	 2.6074902886e+000
 1.0855679261e+000	 2.1508015803e-001	 2.4604554869e+000
 1.0833338093e+000	 2.2606419549e-001	 2.4806916352e+000
 1.0809812800e+000	 2.3705821364e-001	 2.5018058598e+000
 1.0785096656e+000	 2.4806044425e-001	 2.5236164925e+000
 1.0759183259e+000	 2.5906909513e-001	 2.5459434126e+000
 1.0732066539e+000	 2.7008235081e-001	 2.5686079038e+000
 1.0703740765e+000	 2.8109837322e-001	 2.5914325096e+000
 1.0674200555e+000	 2.9211530239e-001	 2.6142408883e+000
 1.0643440882e+000	 3.0313125724e-001	 2.6368576721e+000
 1.0611457085e+000	 3.1414433632e-001	 2.6591083329e+000
 1.0578244873e+000	 3.2515261867e-001	 2.6808190583e+000
 1.1117274258e+000	 2.2026305741e-001	 2.7152530109e+000
 1.1094394723e+000	 2.3151178299e-001	 2.7202903149e+000
 1.1070302529e+000	 2.4277072976e-001	 2.7256265924e+000
 1.1044990787e+000	 2.5403808688e-001	 2.7310930729e+000
 1.1018452941e+000	 2.6531201900e-001	 2.7365234112e+000
 1.0990682775e+000	 2.7659066688e-001	 2.7417534735e+000
 1.0961674420e+000	 2.8787214816e-001	 2.7466211184e+000
 1.0931422364e+000	 2.9915455805e-001	 2.7509659762e+000
 1.0899921460e+000	 3.1043597014e-001	 2.7546292318e+000
 1.0867166932e+000	 3.2171443716e-001	 2.7574534129e+000
 1.0833154388e+000	 3.3298799187e-001	 2.7592821887e+000
 1.1378870890e+000	 2.2544598918e-001	 2.9336806938e+000
 1.1355452985e+000	 2.3695940452e-001	 2.9258183069e+000
 1.1330793886e+000	 2.4848328157e-001	 2.9178089960e+000
 1.1304886542e+000	 2.6001576688e-001	 2.9094887872e+000
 1.1277724244e+000	 2.7155498189e-001	 2.9006968622e+000
 1.1249300628e+000	 2.8309902363e-001	 2.8912752730e+000
 1.1219609688e+000	 2.9464596544e-001	 2.8810686503e+000
 1.1188645781e+000	 3.0619385771e-001	 2.8699239097e+000
 1.1156403640e+000	 3.1774072869e-001	 2.8576899591e+000
 1.1122878377e+000	 3.2928458532e-001	 2.8442174126e+000
 1.1088065496e+000	 3.4082341404e-001	 2.8293583153e+000
 1.1640468699e+000	 2.3062894428e-001	 3.1049837441e+000
 1.1616512422e+000	 2.4240705058e-001	 3.0863732193e+000
 1.1591286415e+000	 2.5419585909e-001	 3.0672981516e+000
 1.1564783467e+000	 2.6599347377e-001	 3.0475921780e+000
 1.1536996713e+000	 2.7779797287e-001	 3.0270926801e+000
 1.1507919644e+000	 2.8960740966e-001	 3.0056404279e+000
 1.1477546116e+000	 3.0141981319e-001	 2.9830792143e+000
 1.1445870356e+000	 3.1323318903e-001	 2.9592554875e+000
 1.1412886975e+000	 3.2504552012e-001	 2.9340179848e+000
 1.1378590973e+000	 3.3685476754e-001	 2.9072173723e+000
 1.1342977751e+000	 3.4865887146e-001	 2.8787058961e+000
 1.1902067228e+000	 2.3581191362e-001	 3.2193152295e+000
 1.1877572576e+000	 2.4785471161e-001	 3.1919744316e+000
 1.1851779660e+000	 2.5990845232e-001	 3.1639750665e+000
 1.1824681106e+000	 2.7197119710e-001	 3.1351420733e+000
 1.1796269895e+000	 2.8404098101e-001	 3.1053045907e+000
 1.1766539372e+000	 2.9611581358e-001	 3.0742955272e+000
 1.1735483253e+000	 3.0819367957e-001	 3.0419511205e+000
 1.1703095637e+000	 3.2027253972e-001	 3.0081104939e+000
 1.1669371014e+000	 3.3235033162e-001	 2.9726152137e+000
 1.1634304272e+000	 3.4442497057e-001	 2.9353088547e+000
 1.1597890707e+000	 3.5649435043e-001	 2.8960365779e+000
 1.2163666018e+000	 2.4099488815e-001	 3.2676413947e+000
 1.2138632991e+000	 2.5330237808e-001	 3.2334668715e+000
 1.2112273166e+000	 2.6562105126e-001	 3.1985588837e+000
 1.2084579005e+000	 2.7794892640e-001	 3.1627282080e+000
 1.2055543337e+000	 2.9028399540e-001	 3.1257901497e+000
 1.2025159358e+000	 3.0262422402e-001	 3.0875640332e+000
 1.1993420648e+000	 3.1496755272e-001	 3.0478726826e+000
 1.1960321176e+000	 3.2731189744e-001	 3.0065418979e+000
 1.1925855311e+000	 3.3965515044e-001	 2.9633999338e+000
 1.1890017827e+000	 3.5199518117e-001	 2.9182769865e+000
 1.1852803918e+000	 3.6432983724e-001	 2.8710046960e+000
 1.2425264611e+000	 2.4617785878e-001	 3.2416587987e+000
 1.2399693210e+000	 2.5875004047e-001	 3.2024367987e+000
 1.2372766476e+000	 2.7133364591e-001	 3.1625212865e+000
 1.2344476710e+000	 2.8392665122e-001	 3.1217042334e+000
 1.2314816584e+000	 2.9652700510e-001	 3.0797823460e+000
 1.2283779150e+000	 3.0913262957e-001	 3.0365564719e+000
 1.2251357850e+000	 3.2174142079e-001	 2.9918309948e+000
 1.2217546522e+000	 3.3435124988e-001	 2.9454132256e+000
 1.2182339414e+000	 3.4695996377e-001	 2.8971127960e+000
 1.2145731190e+000	 3.5956538610e-001	 2.8467410627e+000
 1.2107716938e+000	 3.7216531816e-001	 2.7941105294e+000
 9.5586316651e-001	 2.9381188981e-001	 2.5744404529e+000
 9.5275071551e-001	 3.0375302140e-001	 2.7129411544e+000
 9.4952658997e-001	 3.1368629624e-001	 2.8525785081e+000
 9.4619050544e-001	 3.2360992937e-001	 2.9929203535e+000
 9.4274221361e-001	 3.3352212132e-001	 3.1335395628e+000
 9.3918150291e-001	 3.4342105900e-001	 3.2740146156e+000
 9.3550819912e-001	 3.5330491665e-001	 3.4139301918e+000
 9.3172216582e-001	 3.6317185667e-001	 3.5528777828e+000
 9.2782330500e-001	 3.7302003062e-001	 3.6904563208e+000
 9.2381155749e-001	 3.8284758015e-001	 3.8262728280e+000
 9.1968690347e-001	 3.9265263800e-001	 3.9599430843e+000
 9.8135303469e-001	 3.0164693001e-001	 2.5371165727e+000
 9.7815758441e-001	 3.1185316035e-001	 2.6405665909e+000
 9.7484748157e-001	 3.2205132444e-001	 2.7449614076e+000
 9.7142243413e-001	 3.3223958969e-001	 2.8499544803e+000
 9.6788218719e-001	 3.4241610866e-001	 2.9552029676e+000
 9.6422652353e-001	 3.5257901993e-001	 3.0603681303e+000
 9.6045526426e-001	 3.6272644901e-001	 3.1651157506e+000
 9.5656826934e-001	 3.7285650933e-001	 3.2691165738e+000
 9.5256543815e-001	 3.8296730315e-001	 3.3720467714e+000
 9.4844670994e-001	 3.9305692255e-001	 3.4735884280e+000
 9.4421206435e-001	 4.0312345050e-001	 3.5734300513e+000
 1.0068432406e+000	 3.0948207403e-001	 2.5541426882e+000
 1.0035647899e+000	 3.1995340664e-001	 2.6265433558e+000
 1.0001687087e+000	 3.3041646348e-001	 2.6996198537e+000
 9.9665469716e-001	 3.4086936436e-001	 2.7731014763e+000
 9.9302249388e-001	 3.5131021386e-001	 2.8467201479e+000
 9.8927187599e-001	 3.6173710219e-001	 2.9202106595e+000
 9.8540265995e-001	 3.7214810621e-001	 2.9933109275e+000
 9.8141470208e-001	 3.8254129032e-001	 3.0657622769e+000
 9.7730789914e-001	 3.9291470747e-001	 3.1373097498e+000
 9.7308218881e-001	 4.0326640023e-001	 3.2077024419e+000
 9.6873755019e-001	 4.1359440173e-001	 3.2766938678e+000
 1.0323337397e+000	 3.1731730815e-001	 2.6074902886e+000
 1.0289722877e+000	 3.2805374608e-001	 2.6526195470e+000
 1.0254902270e+000	 3.3878169871e-001	 2.6981040585e+000
 1.0218872503e+000	 3.4949923827e-001	 2.7437401066e+000
 1.0181630897e+000	 3.6020442133e-001	 2.7893257666e+000
 1.0143175165e+000	 3.7089528978e-001	 2.8346609878e+000
 1.0103503425e+000	 3.8156987176e-001	 2.8795477009e+000
 1.0062614206e+000	 3.9222618267e-001	 2.9237899529e+000
 1.0020506447e+000	 4.0286222620e-001	 2.9671940713e+000
 9.9771795098e-001	 4.1347599532e-001	 3.0095688605e+000
 9.9326331808e-001	 4.2406547339e-001	 3.0507258326e+000
 1.0578244873e+000	 3.2515261867e-001	 2.6808190583e+000
 1.0543800331e+000	 3.3615416449e-001	 2.7022537044e+000
 1.0508119921e+000	 3.4714701551e-001	 2.7236946066e+000
 1.0471200496e+000	 3.5812919632e-001	 2.7449970620e+000
 1.0433039306e+000	 3.6909871553e-001	 2.7660175286e+000
 1.0393634012e+000	 3.8005356666e-001	 2.7866135613e+000
 1.0352982684e+000	 3.9099172917e-001	 2.8066437757e+000
 1.0311083813e+000	 4.0191116946e-001	 2.8259678432e+000
 1.0267936314e+000	 4.1280984191e-001	 2.8444465188e+000
 1.0223539533e+000	 4.2368568994e-001	 2.8619417069e+000
 1.0177893251e+000	 4.3453664713e-001	 2.8783165660e+000
 1.0833154388e+000	 3.3298799187e-001	 2.7592821887e+000
 1.0797879818e+000	 3.4425464771e-001	 2.7604175735e+000
 1.0761339599e+000	 3.5551239922e-001	 2.7612029633e+000
 1.0723530506e+000	 3.6675922341e-001	 2.7615455127e+000
 1.0684449726e+000	 3.7799308087e-001	 2.7613530895e+000
 1.0644094862e+000	 3.8921191680e-001	 2.7605340704e+000
 1.0602463938e+000	 4.0041366195e-001	 2.7589971677e+000
 1.0559555408e+000	 4.1159623372e-001	 2.7566512898e+000
 1.0515368161e+000	 4.2275753719e-001	 2.7534054412e+000
 1.0469901528e+000	 4.3389546624e-001	 2.7491686634e+000
 1.0423155283e+000	 4.4500790464e-001	 2.7438500224e+000
 1.1088065496e+000	 3.4082341404e-001	 2.8293583153e+000
 1.1051960893e+000	 3.5235518156e-001	 2.8134258448e+000
 1.1014560858e+000	 3.6387783522e-001	 2.7967992681e+000
 1.0975862094e+000	 3.7538930443e-001	 2.7794312174e+000
 1.0935861718e+000	 3.8688750181e-001	 2.7612747492e+000
 1.0894557277e+000	 3.9837032417e-001	 2.7422830042e+000
 1.0851946751e+000	 4.0983565361e-001	 2.7224089004e+000
 1.0808028555e+000	 4.2128135850e-001	 2.7016048659e+000
 1.0762801555e+000	 4.3270529465e-001	 2.6798226138e+000
 1.0716265062e+000	 4.4410530635e-001	 2.6570129659e+000
 1.0668418848e+000	 4.5547922759e-001	 2.6331257276e+000
 1.1342977751e+000	 3.4865887146e-001	 2.8787058961e+000
 1.1306043111e+000	 3.6045575185e-001	 2.8487886272e+000
 1.1267783258e+000	 3.7224330886e-001	 2.8178631246e+000
 1.1228194817e+000	 3.8401942429e-001	 2.7859218563e+000
 1.1187274841e+000	 3.9578196276e-001	 2.7529575614e+000
 1.1145020820e+000	 4.0752877276e-001	 2.7189627756e+000
 1.1101430686e+000	 4.1925768767e-001	 2.6839293946e+000
 1.1056502821e+000	 4.3096652687e-001	 2.6478482805e+000
 1.1010236061e+000	 4.4265309687e-001	 2.6107089174e+000
 1.0962629705e+000	 4.5431519240e-001	 2.5724991203e+000
 1.0913683516e+000	 4.6595059765e-001	 2.5332048031e+000
 1.1597890707e+000	 3.5649435043e-001	 2.8960365779e+000
 1.1560126028e+000	 3.6855634442e-001	 2.8550831601e+000
 1.1521006353e+000	 3.8060880550e-001	 2.8128538497e+000
 1.1480528233e+000	 3.9264956787e-001	 2.7693760160e+000
 1.1438688655e+000	 4.0467644817e-001	 2.7246772582e+000
 1.1395485051e+000	 4.1668724653e-001	 2.6787847966e+000
 1.1350915308e+000	 4.2867974763e-001	 2.6317249071e+000
 1.1304977770e+000	 4.4065172187e-001	 2.5835224032e+000
 1.1257671249e+000	 4.5260092644e-001	 2.5342001735e+000
 1.1208995025e+000	 4.6452510652e-001	 2.4837787794e+000
 1.1158948859e+000	 4.7642199651e-001	 2.4322761188e+000
 1.1852803918e+000	 3.6432983724e-001	 2.8710046960e+000
 1.1814209198e+000	 3.7665694509e-001	 2.8218418697e+000
 1.1774229702e+000	 3.8897431050e-001	 2.7711972551e+000
 1.1732861903e+000	 4.0127972008e-001	 2.7191288703e+000
 1.1690102721e+000	 4.1357094248e-001	 2.6656950092e+000
 1.1645949533e+000	 4.2584572945e-001	 2.6109534987e+000
 1.1600400179e+000	 4.3810181702e-001	 2.5549610027e+000
 1.1553452968e+000	 4.5033692655e-001	 2.4977723798e+000
 1.1505106683e+000	 4.6254876595e-001	 2.4394401027e+000
 1.1455360592e+000	 4.7473503085e-001	 2.3800137458e+000
 1.1404214447e+000	 4.8689340584e-001	 2.3195395470e+000
 1.2107716938e+000	 3.7216531816e-001	 2.7941105294e+000
 1.2068292178e+000	 3.8475753968e-001	 2.7394543614e+000
 1.2027452861e+000	 3.9733980923e-001	 2.6831865262e+000
 1.1985195382e+000	 4.0990986582e-001	 2.6253920972e+000
 1.1941516598e+000	 4.2246543011e-001	 2.5661565348e+000
 1.1896413827e+000	 4.3500420550e-001	 2.5055648049e+000
 1.1849884863e+000	 4.4752387933e-001	 2.4437005505e+000
 1.1801927979e+000	 4.6002212396e-001	 2.3806453234e+000
 1.1752541932e+000	 4.7249659800e-001	 2.3164778839e+000
 1.1701725973e+000	 4.8494494752e-001	 2.2512735781e+000
 1.1649479851e+000	 4.9736480731e-001	 2.1851037977e+000
 9.1968690347e-001	 3.9265263800e-001	 3.9599430843e+000
 9.1545000704e-001	 4.0243186398e-001	 4.0914688787e+000
 9.1110031866e-001	 4.1218484971e-001	 4.2207721758e+000
 9.0663793965e-001	 4.2190970867e-001	 4.3472960729e+000
 9.0206301214e-001	 4.3160454958e-001	 4.4704839803e+000
 8.9737571948e-001	 4.4126747746e-001	 4.5897805727e+000
 8.9257628643e-001	 4.5089659477e-001	 4.7046327805e+000
 8.8766497944e-001	 4.6049000248e-001	 4.8144908208e+000
 8.8264210687e-001	 4.7004580118e-001	 4.9188092654e+000
 8.7750801914e-001	 4.7956209226e-001	 5.0170481457e+000
 8.7226310887e-001	 4.8903697900e-001	 5.1086740920e+000
 9.4421206435e-001	 4.0312345050e-001	 3.5734300513e+000
 9.3986218320e-001	 4.1316345771e-001	 3.6714126401e+000
 9.3539650230e-001	 4.2317652494e-001	 3.7673863308e+000
 9.3081512565e-001	 4.3316071535e-001	 3.8610135417e+000
 9.2611819920e-001	 4.4311408720e-001	 3.9519565558e+000
 9.2130591116e-001	 4.5303469502e-001	 4.0398781098e+000
 9.1637849231e-001	 4.6292059064e-001	 4.1244420231e+000
 9.1133621619e-001	 4.7276982440e-001	 4.2053138678e+000
 9.0617939939e-001	 4.8258044624e-001	 4.2821616782e+000
 9.0090840166e-001	 4.9235050691e-001	 4.3546566994e+000
 8.9552362611e-001	 5.0207805912e-001	 4.4224741742e+000
 9.6873755019e-001	 4.1359440173e-001	 3.2766938678e+000
 9.6427468282e-001	 4.2389519365e-001	 3.3439963938e+000
 9.5969300786e-001	 4.3416834581e-001	 3.4094000471e+000
 9.5499263200e-001	 4.4441187110e-001	 3.4727471250e+000
 9.5017370499e-001	 4.5462377733e-001	 3.5338793717e+000
 9.4523641993e-001	 4.6480206850e-001	 3.5926382638e+000
 9.4018101357e-001	 4.7494474584e-001	 3.6488653370e+000
 9.3500776659e-001	 4.8504980903e-001	 3.7024025568e+000
 9.2971700378e-001	 4.9511525738e-001	 3.7530927310e+000
 9.2430909425e-001	 5.0513909100e-001	 3.8007799660e+000
 9.1878445156e-001	 5.1511931203e-001	 3.8453101662e+000
 9.9326331808e-001	 4.2406547339e-001	 3.0507258326e+000
 9.8868746319e-001	 4.3462705299e-001	 3.0902757592e+000
 9.8398979283e-001	 4.4516029309e-001	 3.1279567297e+000
 9.7917041640e-001	 4.5566315623e-001	 3.1637544839e+000
 9.7422948742e-001	 4.6613359982e-001	 3.1976538038e+000
 9.6916720389e-001	 4.7656957730e-001	 3.2296385497e+000
 9.6398380856e-001	 4.8696903931e-001	 3.2596917423e+000
 9.5867958921e-001	 4.9732993488e-001	 3.2877956912e+000
 9.5325487885e-001	 5.0765021267e-001	 3.3139321709e+000
 9.4771005594e-001	 5.1792782216e-001	 3.3380826454e+000
 9.4204554451e-001	 5.2816071491e-001	 3.3602285399e+000
 1.0177893251e+000	 4.3453664713e-001	 2.8783165660e+000
 1.0131004816e+000	 4.4535901697e-001	 2.8931026961e+000
 1.0082868147e+000	 4.5615234754e-001	 2.9059912246e+000
 1.0033484365e+000	 4.6691455107e-001	 2.9170776217e+000
 9.9828550439e-001	 4.7764353453e-001	 2.9264559874e+000
 9.9309822118e-001	 4.8833720083e-001	 2.9342188918e+000
 9.8778683563e-001	 4.9899345001e-001	 2.9404572655e+000
 9.8235164262e-001	 5.0961018045e-001	 2.9452603425e+000
 9.7679298341e-001	 5.2018529017e-001	 2.9487156552e+000
 9.7111124578e-001	 5.3071667801e-001	 2.9509090848e+000
 9.6530686424e-001	 5.4120224495e-001	 2.9519249660e+000
 1.0423155283e+000	 4.4500790464e-001	 2.7438500224e+000
 1.0375136953e+000	 4.5609106680e-001	 2.7369202017e+000
 1.0325840309e+000	 4.6714448992e-001	 2.7280254583e+000
 1.0275266501e+000	 4.7816603591e-001	 2.7173397553e+000
 1.0223417138e+000	 4.8915356131e-001	 2.7050352457e+000
 1.0170294299e+000	 5.0010491850e-001	 2.6912819666e+000
 1.0115900531e+000	 5.1101795690e-001	 2.6762475897e+000
 1.0060238854e+000	 5.2189052427e-001	 2.6600972304e+000
 1.0003312763e+000	 5.3272046795e-001	 2.6429933167e+000
 9.9451262283e-001	 5.4350563617e-001	 2.6250955208e+000
 9.8856837007e-001	 5.5424387931e-001	 2.6065607524e+000
 1.0668418848e+000	 4.5547922759e-001	 2.6331257276e+000
 1.0619270615e+000	 4.6682318370e-001	 2.6075851496e+000
 1.0568813990e+000	 4.7813670099e-001	 2.5799921021e+000
 1.0517050147e+000	 4.8941759107e-001	 2.5505700581e+000
 1.0463980736e+000	 5.0066366003e-001	 2.5195401920e+000
 1.0409607882e+000	 5.1187270971e-001	 2.4871209748e+000
 1.0353934194e+000	 5.2304253894e-001	 2.4535278334e+000
 1.0296962761e+000	 5.3417094483e-001	 2.4189728762e+000
 1.0238697162e+000	 5.4525572408e-001	 2.3836646883e+000
 1.0179141461e+000	 5.5629467426e-001	 2.3478081964e+000
 1.0118300213e+000	 5.6728559518e-001	 2.3116046065e+000
 1.0913683516e+000	 4.6595059765e-001	 2.5332048031e+000
 1.0863405376e+000	 4.7755534890e-001	 2.4922148469e+000
 1.0811788764e+000	 4.8912896153e-001	 2.4490818565e+000
 1.0758834882e+000	 5.0066919685e-001	 2.4040518915e+000
 1.0704545416e+000	 5.1217381054e-001	 2.3573681537e+000
 1.0648922542e+000	 5.2364055388e-001	 2.3092705271e+000
 1.0591968927e+000	 5.3506717509e-001	 2.2599951933e+000
 1.0533687734e+000	 5.4645142066e-001	 2.2097743221e+000
 1.0474082621e+000	 5.5779103660e-001	 2.1588358410e+000
 1.0413157747e+000	 5.6908376989e-001	 2.1074032868e+000
 1.0350917771e+000	 5.8032736974e-001	 2.0556957389e+000
 1.1158948859e+000	 4.7642199651e-001	 2.4322761188e+000
 1.1107540809e+000	 4.8828754360e-001	 2.3790536607e+000
 1.1054764206e+000	 5.0012125229e-001	 2.3236107224e+000
 1.1000620281e+000	 5.1192083358e-001	 2.2661909139e+000
 1.0945110757e+000	 5.2368399270e-001	 2.2070343322e+000
 1.0888237859e+000	 5.3540843040e-001	 2.1463770914e+000
 1.0830004315e+000	 5.4709184431e-001	 2.0844509362e+000
 1.0770413357e+000	 5.5873193024e-001	 2.0214829444e+000
 1.0709468727e+000	 5.7032638360e-001	 1.9576953199e+000
 1.0647174677e+000	 5.8187290068e-001	 1.8933052779e+000
 1.0583535970e+000	 5.9336918015e-001	 1.8285250265e+000
 1.1404214447e+000	 4.8689340584e-001	 2.3195395470e+000
 1.1351676485e+000	 4.9901974903e-001	 2.2573566962e+000
 1.1297739892e+000	 5.1111355404e-001	 2.1929042537e+000
 1.1242405922e+000	 5.2317248155e-001	 2.1264000753e+000
 1.1185676339e+000	 5.3519418636e-001	 2.0580577298e+000
 1.1127553416e+000	 5.4717631868e-001	 1.9880860573e+000
 1.1068039941e+000	 5.5911652554e-001	 1.9166888262e+000
 1.1007139217e+000	 5.7101245211e-001	 1.8440644900e+000
 1.0944855069e+000	 5.8286174312e-001	 1.7704060498e+000
 1.0881191840e+000	 5.9466204427e-001	 1.6959010226e+000
 1.0816154401e+000	 6.0641100360e-001	 1.6207315184e+000
 1.1649479851e+000	 4.9736480731e-001	 2.1851037977e+000
 1.1595811979e+000	 5.0975194641e-001	 2.1172880130e+000
 1.1540715394e+000	 5.2210584754e-001	 2.0471962873e+000
 1.1484191381e+000	 5.3442412108e-001	 1.9749990122e+000
 1.1426241741e+000	 5.4670437139e-001	 1.9008613720e+000
 1.1366868794e+000	 5.5894419814e-001	 1.8249429702e+000
 1.1306075389e+000	 5.7114119775e-001	 1.7473975687e+000
 1.1243864900e+000	 5.8329296476e-001	 1.6683729429e+000
 1.1180241233e+000	 5.9539709325e-001	 1.5880108576e+000
 1.1115208828e+000	 6.0745117825e-001	 1.5064471644e+000
 1.1048772657e+000	 6.1945281727e-001	 1.4238120229e+000
 8.7226310887e-001	 4.8903697900e-001	 5.1086740920e+000
 8.6690699948e-001	 4.9846997940e-001	 5.1926113549e+000
 8.6144094757e-001	 5.0785777912e-001	 5.2682959869e+000
 8.5586547377e-001	 5.1719849384e-001	 5.3360176021e+000
 8.5018114112e-001	 5.2649024586e-001	 5.3960789649e+000
 8.4438855498e-001	 5.3573116523e-001	 5.4487958232e+000
 8.3848836297e-001	 5.4491939094e-001	 5.4944967449e+000
 8.3248125485e-001	 5.5405307210e-001	 5.5335229542e+000
 8.2636796230e-001	 5.6313036914e-001	 5.5662281697e+000
 8.2014925879e-001	 5.7214945494e-001	 5.5929784405e+000
 8.1382595926e-001	 5.8110851606e-001	 5.6141519814e+000
 8.9552362611e-001	 5.0207805912e-001	 4.4224741742e+000
 8.9002468611e-001	 5.1176260801e-001	 4.4846764433e+000
 8.8441287176e-001	 5.2140075085e-001	 4.5405326927e+000
 8.7868871760e-001	 5.3099055310e-001	 4.5900691639e+000
 8.7285280165e-001	 5.4053008696e-001	 4.6333227749e+000
 8.6690574543e-001	 5.5001743262e-001	 4.6703414425e+000
 8.6084821383e-001	 5.5945067945e-001	 4.7011844195e+000
 8.5468091501e-001	 5.6882792720e-001	 4.7259226445e+000
 8.4840460015e-001	 5.7814728723e-001	 4.7446391015e+000
 8.4202006336e-001	 5.8740688373e-001	 4.7574291883e+000
 8.3552814128e-001	 5.9660485487e-001	 4.7644010907e+000
 9.1878445156e-001	 5.1511931203e-001	 3.8453101662e+000
 9.1314267905e-001	 5.2505541274e-001	 3.8859258349e+000
 9.0738510034e-001	 5.3494390203e-001	 3.9218354464e+000
 9.0151226383e-001	 5.4478279510e-001	 3.9528607905e+000
 8.9552476258e-001	 5.5457011409e-001	 3.9788321595e+000
 8.8942323424e-001	 5.6430388931e-001	 3.9995890761e+000
 8.8320836097e-001	 5.7398216050e-001	 4.0149810484e+000
 8.7688086931e-001	 5.8360297806e-001	 4.0248683479e+000
 8.7044152999e-001	 5.9316440431e-001	 4.0291228081e+000
 8.6389115771e-001	 6.0266451468e-001	 4.0276286398e+000
 8.5723061087e-001	 6.1210139900e-001	 4.0202832595e+000
 9.4204554451e-001	 5.2816071491e-001	 3.3602285399e+000
 9.3626093785e-001	 5.3834837034e-001	 3.3798186732e+000
 9.3035759310e-001	 5.4848720896e-001	 3.3960861311e+000
 9.2433607253e-001	 5.5857519572e-001	 3.4087027412e+000
 9.1819698423e-001	 5.6861030267e-001	 3.4173469230e+000
 9.1194098199e-001	 5.7859051029e-001	 3.4217047437e+000
 9.0556876524e-001	 5.8851380866e-001	 3.4214710123e+000
 8.9908107892e-001	 5.9837819884e-001	 3.4163504075e+000
 8.9247871325e-001	 6.0818169408e-001	 3.4060586349e+000
 8.8576250357e-001	 6.1792232109e-001	 3.3903236110e+000
 8.7893333002e-001	 6.2759812135e-001	 3.3688866670e+000
 9.6530686424e-001	 5.4120224495e-001	 2.9519249660e+000
 9.5937942204e-001	 5.5164145755e-001	 2.9514301860e+000
 9.5333030983e-001	 5.6203064793e-001	 2.9487489241e+000
 9.4716010376e-001	 5.7236773080e-001	 2.9434535109e+000
 9.4086942694e-001	 5.8265062815e-001	 2.9351211874e+000
 9.3445894929e-001	 5.9287727056e-001	 2.9233354149e+000
 9.2792938752e-001	 6.0304559850e-001	 2.9076872340e+000
 9.2128150497e-001	 6.1315356367e-001	 2.8877766680e+000
 9.1451611137e-001	 6.2319913026e-001	 2.8632141658e+000
 9.0763406268e-001	 6.3318027626e-001	 2.8336220790e+000
 9.0063626078e-001	 6.4309499478e-001	 2.7986361676e+000
 9.8856837007e-001	 5.5424387931e-001	 2.6065607524e+000
 9.8249809118e-001	 5.6493465109e-001	 2.5872726623e+000
 9.7630321034e-001	 5.7557419525e-001	 2.5666959184e+000
 9.6998431758e-001	 5.8616037623e-001	 2.5443501536e+000
 9.6354205101e-001	 5.9669106594e-001	 2.5197584246e+000
 9.5697709672e-001	 6.0716414512e-001	 2.4924487061e+000
 9.5029018868e-001	 6.1757750460e-001	 2.4619554456e+000
 9.4348210862e-001	 6.2792904671e-001	 2.4278211720e+000
 9.3655368578e-001	 6.3821668658e-001	 2.3895981542e+000
 9.2950579675e-001	 6.4843835349e-001	 2.3468501024e+000
 9.2233936515e-001	 6.5859199218e-001	 2.2991539065e+000
 1.0118300213e+000	 5.6728559518e-001	 2.3116046065e+000
 1.0056169048e+000	 5.7822792772e-001	 2.2751411552e+000
 9.9927625442e-001	 5.8911782720e-001	 2.2380568584e+000
 9.9280867404e-001	 5.9995310785e-001	 2.1998621005e+000
 9.8621481679e-001	 6.1073159149e-001	 2.1600693640e+000
 9.7949538489e-001	 6.2145110897e-001	 2.1181948430e+000
 9.7265112959e-001	 6.3210950151e-001	 2.0737601268e+000
 9.6568285101e-001	 6.4270462208e-001	 2.0262939494e+000
 9.5859139792e-001	 6.5323433675e-001	 1.9753339977e+000
 9.5137766752e-001	 6.6369652607e-001	 1.9204287723e+000
 9.4404260515e-001	 6.7408908643e-001	 1.8615132424e+000
 1.0350917771e+000	 5.8032736974e-001	 2.0556957389e+000
 1.0287358225e+000	 5.9152126415e-001	 2.0039800210e+000
 1.0222494019e+000	 6.0266152010e-001	 1.9520891968e+000
 1.0156331332e+000	 6.1374590153e-001	 1.8995647794e+000
 1.0088876846e+000	 6.2477218021e-001	 1.8459491823e+000
 1.0020137744e+000	 6.3573813710e-001	 1.7907873889e+000
 9.9501217112e-001	 6.4664156381e-001	 1.7336287047e+000
 9.8788369330e-001	 6.5748026394e-001	 1.6740285846e+000
 9.8062920921e-001	 6.6825205450e-001	 1.6115662992e+000
 9.7324963670e-001	 6.7895476732e-001	 1.5467384956e+000
 9.6574594281e-001	 6.8958625042e-001	 1.4796226905e+000
 1.0583535970e+000	 5.9336918015e-001	 1.8285250265e+000
 1.0518548037e+000	 6.0481463715e-001	 1.7637670921e+000
 1.0452226125e+000	 6.1620525025e-001	 1.6990653485e+000
 1.0384576551e+000	 6.2753873314e-001	 1.6340299897e+000
 1.0315606147e+000	 6.3881280753e-001	 1.5682710061e+000
 1.0245322258e+000	 6.5002520452e-001	 1.5013998521e+000
 1.0173732741e+000	 6.6117366607e-001	 1.4330312077e+000
 1.0100845966e+000	 6.7225594642e-001	 1.3629735134e+000
 1.0026670811e+000	 6.8326981354e-001	 1.2919427375e+000
 9.9512166602e-001	 6.9421305052e-001	 1.2196868537e+000
 9.8744934015e-001	 7.0508345701e-001	 1.1457934795e+000
 1.0816154401e+000	 6.0641100360e-001	 1.6207315184e+000
 1.0749738080e+000	 6.1810802343e-001	 1.5454128284e+000
 1.0681958461e+000	 6.2974899393e-001	 1.4701745529e+000
 1.0612821999e+000	 6.4133157855e-001	 1.3947305112e+000
 1.0542335675e+000	 6.5285344890e-001	 1.3187932760e+000
 1.0470506997e+000	 6.6431228622e-001	 1.2420757832e+000
 1.0397343995e+000	 6.7570578286e-001	 1.1647516829e+000
 1.0322855222e+000	 6.8703164368e-001	 1.0874597422e+000
 1.0247049750e+000	 6.9828758759e-001	 1.0098687294e+000
 1.0169937172e+000	 7.0947134897e-001	 9.3164373271e-001
 1.0091527592e+000	 7.2058067910e-001	 8.5248007495e-001
 1.1048772657e+000	 6.1945281727e-001	 1.4238120229e+000
 1.0980927950e+000	 6.3140139974e-001	 1.3406722427e+000
 1.0911690624e+000	 6.4329272745e-001	 1.2574371929e+000
 1.0841067275e+000	 6.5512441360e-001	 1.1739568503e+000
 1.0769065033e+000	 6.6689407973e-001	 1.0900791334e+000
 1.0695691567e+000	 6.7859935721e-001	 1.0063823239e+000
 1.0620955081e+000	 6.9023788874e-001	 9.2331421835e-001
 1.0544864310e+000	 7.0180732985e-001	 8.4062030768e-001
 1.0467428524e+000	 7.1330535038e-001	 7.5807589181e-001
 1.0388657520e+000	 7.2472963597e-001	 6.7548708804e-001
 1.0308561619e+000	 7.3607788956e-001	 5.9269175224e-001
 8.1382595926e-001	 5.8110851606e-001	 5.6141519814e+000
 8.0739891962e-001	 5.9000575367e-001	 5.6302380297e+000
 8.0086903579e-001	 5.9883938412e-001	 5.6408753091e+000
 7.9423724396e-001	 6.0760764065e-001	 5.6451894281e+000
 7.8750452048e-001	 6.1630877477e-001	 5.6423266460e+000
 7.8067188138e-001	 6.2494105736e-001	 5.6314561095e+000
 7.7374038194e-001	 6.3350277976e-001	 5.6117720703e+000
 7.6671111609e-001	 6.4199225496e-001	 5.5824960779e+000
 7.5958521594e-001	 6.5040781861e-001	 5.5428791401e+000
 7.5236385116e-001	 6.5874783014e-001	 5.4922038430e+000
 7.4504822833e-001	 6.6701067379e-001	 5.4297871603e+000
 8.3552814128e-001	 5.9660485487e-001	 4.7644010907e+000
 8.2892971269e-001	 6.0573935386e-001	 4.7660786380e+000
 8.2222569736e-001	 6.1480854948e-001	 4.7624515568e+000
 8.1541705648e-001	 6.2381062787e-001	 4.7528512509e+000
 8.0850479241e-001	 6.3274379391e-001	 4.7366301345e+000
 8.0148994829e-001	 6.4160627235e-001	 4.7131636257e+000
 7.9437360752e-001	 6.5039630900e-001	 4.6818521211e+000
 7.8715689323e-001	 6.5911217184e-001	 4.6421229462e+000
 7.7984096771e-001	 6.6775215214e-001	 4.5934407538e+000
 7.7242703182e-001	 6.7631456557e-001	 4.5359690711e+000
 7.6491632430e-001	 6.8479775331e-001	 4.4696236589e+000
 8.5723061087e-001	 6.1210139900e-001	 4.0202832595e+000
 8.5046079104e-001	 6.2147316252e-001	 4.0076230770e+000
 8.4358264192e-001	 6.3077792643e-001	 3.9899125589e+000
 8.3659714963e-001	 6.4001382979e-001	 3.9666661868e+000
 8.2950534259e-001	 6.4917903082e-001	 3.9374193129e+000
 8.2230829104e-001	 6.5827170817e-001	 3.9017299502e+000
 8.1500710650e-001	 6.6729006209e-001	 3.8591832319e+000
 8.0760294129e-001	 6.7623231556e-001	 3.8100724197e+000
 8.0009698788e-001	 6.8509671548e-001	 3.7545355195e+000
 7.9249047831e-001	 6.9388153377e-001	 3.6921976714e+000
 7.8478468353e-001	 7.0258506851e-001	 3.6227169362e+000
 8.7893333002e-001	 6.2759812135e-001	 3.3688866670e+000
 8.7199211700e-001	 6.3720715211e-001	 3.3422747568e+000
 8.6493983207e-001	 6.4674748704e-001	 3.3109547958e+000
 8.5777748635e-001	 6.5621721804e-001	 3.2746030559e+000
 8.5050613428e-001	 6.6561445672e-001	 3.2329160585e+000
 8.4312687320e-001	 6.7493733563e-001	 3.1861245359e+000
 8.3564084277e-001	 6.8418400945e-001	 3.1347341145e+000
 8.2804922448e-001	 6.9335265616e-001	 3.0784802169e+000
 8.2035324099e-001	 7.0244147828e-001	 3.0171195295e+000
 8.1255415554e-001	 7.1144870399e-001	 2.9504396470e+000
 8.0465327125e-001	 7.2037258827e-001	 2.8782597676e+000
 9.0063626078e-001	 6.4309499478e-001	 2.7986361676e+000
 8.9352365288e-001	 6.5294129511e-001	 2.7587518354e+000
 8.8629723046e-001	 6.6271720334e-001	 2.7145697062e+000
 8.7895802958e-001	 6.7242076426e-001	 2.6661498078e+000
 8.7150713073e-001	 6.8205004287e-001	 2.6143385466e+000
 8.6394565833e-001	 6.9160312559e-001	 2.5590684672e+000
 8.5627478021e-001	 7.0107812152e-001	 2.5001825176e+000
 8.4849570701e-001	 7.1047316368e-001	 2.4375522204e+000
 8.4060969159e-001	 7.1978641019e-001	 2.3710782513e+000
 8.3261802838e-001	 7.2901604548e-001	 2.3006909455e+000
 8.2452205268e-001	 7.3816028145e-001	 2.2263507331e+000
 9.2233936515e-001	 6.5859199218e-001	 2.2991539065e+000
 9.1505536101e-001	 6.6867556397e-001	 2.2469792688e+000
 9.0765479969e-001	 6.7868704739e-001	 2.1919354134e+000
 9.0013874224e-001	 6.8862444011e-001	 2.1343868744e+000
 8.9250829517e-001	 6.9848576050e-001	 2.0742509025e+000
 8.8476461001e-001	 7.0826904886e-001	 2.0114714407e+000
 8.7690888272e-001	 7.1797236874e-001	 1.9460196122e+000
 8.6894235311e-001	 7.2759380816e-001	 1.8778941373e+000
 8.6086630424e-001	 7.3713148085e-001	 1.8071216774e+000
 8.5268206173e-001	 7.4658352751e-001	 1.7337571060e+000
 8.4439099306e-001	 7.5594811693e-001	 1.6578837060e+000
 9.4404260515e-001	 6.7408908643e-001	 1.8615132424e+000
 9.3658720370e-001	 6.8440993117e-001	 1.7999644454e+000
 9.2901250240e-001	 6.9465699125e-001	 1.7364675464e+000
 9.2131958727e-001	 7.0482821723e-001	 1.6710279934e+000
 9.1350959087e-001	 7.1492158085e-001	 1.6036767848e+000
 9.0558369180e-001	 7.2493507629e-001	 1.5344708236e+000
 8.9754311418e-001	 7.3486672154e-001	 1.4634931986e+000
 8.8938912699e-001	 7.4471455963e-001	 1.3908533915e+000
 8.8112304349e-001	 7.5447665992e-001	 1.3166874094e+000
 8.7274622048e-001	 7.6415111933e-001	 1.2411578421e+000
 8.6426005761e-001	 7.7373606358e-001	 1.1644538434e+000
 9.6574594281e-001	 6.8958625042e-001	 1.4796226905e+000
 9.5811914328e-001	 7.0014436917e-001	 1.4104319828e+000
 9.5037030122e-001	 7.1062700697e-001	 1.3397453974e+000
 9.4250052761e-001	 7.2103206726e-001	 1.2676684570e+000
 9.3451098106e-001	 7.3135747515e-001	 1.1943313819e+000
 9.2640286727e-001	 7.4160117871e-001	 1.1198892619e+000
 9.1817743849e-001	 7.5176115036e-001	 1.0445221505e+000
 9.0983599288e-001	 7.6183538815e-001	 9.6843508378e-001
 9.0137987388e-001	 7.7182191703e-001	 8.9185802215e-001
 8.9281046950e-001	 7.8171879020e-001	 8.1504571423e-001
 8.8412921157e-001	 7.9152409026e-001	 7.3827748445e-001
 9.8744934015e-001	 7.0508345701e-001	 1.1457934795e+000
 9.7965114206e-001	 7.1587885043e-001	 1.0703661587e+000
 9.7172815876e-001	 7.2659706660e-001	 9.9388498013e-001
 9.6368152620e-001	 7.3723596185e-001	 9.1654232671e-001
 9.5551242900e-001	 7.4779341464e-001	 8.3855418088e-001
 9.4722209999e-001	 7.5826732696e-001	 7.6016013197e-001
 9.3881181954e-001	 7.6865562564e-001	 6.8162330484e-001
 9.3028291499e-001	 7.7895626374e-001	 6.0323020952e-001
 9.2163675998e-001	 7.8916722184e-001	 5.2529051160e-001
 9.1287477370e-001	 7.9928650937e-001	 4.4813672371e-001
 9.0399842016e-001	 8.0931216586e-001	 3.7212381877e-001
 1.0091527592e+000	 7.2058067910e-001	 8.5248007495e-001
 1.0011831624e+000	 7.3161334743e-001	 7.7235202839e-001
 9.9308603765e-001	 7.4256714220e-001	 6.9158826445e-001
 9.8486254595e-001	 7.5343987263e-001	 6.1045576548e-001
 9.7651389794e-001	 7.6422937057e-001	 5.2924379052e-001
 9.6804135352e-001	 7.7493349187e-001	 4.4826373766e-001
 9.5944622121e-001	 7.8555011781e-001	 3.6784892506e-001
 9.5072985754e-001	 7.9607715645e-001	 2.8835429064e-001
 9.4189366633e-001	 8.0651254399e-001	 2.1015601040e-001
 9.3293909795e-001	 8.1685424611e-001	 1.3365103606e-001
 9.2386764861e-001	 8.2710025924e-001	 5.9256552984e-002
 1.0308561619e+000	 7.3607788956e-001	 5.9269175224e-001
 1.0227151665e+000	 7.4734783261e-001	 5.0951526490e-001
 1.0144439005e+000	 7.5853720581e-001	 4.2608457086e-001
 1.0060435498e+000	 7.6964377126e-001	 3.4272986350e-001
 9.9751535112e-001	 7.8066531416e-001	 2.5980208652e-001
 9.8886059143e-001	 7.9159964427e-001	 1.7767266937e-001
 9.8008060741e-001	 8.0244459730e-001	 9.6733178977e-002
 9.7117678475e-001	 8.1319803631e-001	 1.7394887506e-002
 9.6215055747e-001	 8.2385785312e-001	-5.9911743149e-002
 9.5300340716e-001	 8.3442196966e-001	-1.3473765954e-001
 9.4373686216e-001	 8.4488833928e-001	-2.0661589611e-001
 7.4504822833e-001	 6.6701067379e-001	 5.4297871603e+000
 7.3764070856e-001	 6.7519353820e-001	 5.3564418619e+000
 7.3014148001e-001	 6.8329610677e-001	 5.2732716830e+000
 7.2255185597e-001	 6.9131684565e-001	 5.1802185649e+000
 7.1487318379e-001	 6.9925424984e-001	 5.0772507987e+000
 7.0710684408e-001	 7.0710684408e-001	 4.9643634005e+000
 6.9925424984e-001	 7.1487318379e-001	 4.8415784307e+000
 6.9131684565e-001	 7.2255185597e-001	 4.7089452586e+000
 6.8329610677e-001	 7.3014148001e-001	 4.5665407713e+000
 6.7519353820e-001	 7.3764070856e-001	 4.4144695273e+000
 6.6701067379e-001	 7.4504822833e-001	 4.2528638552e+000
 7.6491632430e-001	 6.8479775331e-001	 4.4696236589e+000
 7.5731126925e-001	 6.9319882901e-001	 4.3944606444e+000
 7.4961205982e-001	 7.0151746763e-001	 4.3109084253e+000
 7.4182004435e-001	 7.0975209443e-001	 4.2190751195e+000
 7.3393660611e-001	 7.1790116425e-001	 4.1190905037e+000
 7.2596316251e-001	 7.2596316251e-001	 4.0111060762e+000
 7.1790116425e-001	 7.3393660611e-001	 3.8952950735e+000
 7.0975209443e-001	 7.4182004435e-001	 3.7718524373e+000
 7.0151746763e-001	 7.4961205982e-001	 3.6409947349e+000
 6.9319882901e-001	 7.5731126925e-001	 3.5029600335e+000
 6.8479775331e-001	 7.6491632430e-001	 3.3580077289e+000
 7.8478468353e-001	 7.0258506851e-001	 3.6227169362e+000
 7.7698209058e-001	 7.1120435840e-001	 3.5458964224e+000
 7.6908289763e-001	 7.1973906993e-001	 3.4618844100e+000
 7.6108848804e-001	 7.2818758747e-001	 3.3709282955e+000
 7.5300028102e-001	 7.3654832574e-001	 3.2732932240e+000
 7.4481973079e-001	 7.4481973079e-001	 3.1692618790e+000
 7.3654832574e-001	 7.5300028102e-001	 3.0591342292e+000
 7.2818758747e-001	 7.6108848804e-001	 2.9432272331e+000
 7.1973906993e-001	 7.6908289763e-001	 2.8218745038e+000
 7.1120435840e-001	 7.7698209058e-001	 2.6954259331e+000
 7.0258506851e-001	 7.8478468353e-001	 2.5642472797e+000
 8.0465327125e-001	 7.2037258827e-001	 2.8782597676e+000
 7.9665313812e-001	 7.2921009484e-001	 2.8000774023e+000
 7.8855395935e-001	 7.3796088178e-001	 2.7157058702e+000
 7.8035715332e-001	 7.4662329252e-001	 2.6255070928e+000
 7.7206417516e-001	 7.5519570166e-001	 2.5298575753e+000
 7.6367651593e-001	 7.6367651593e-001	 2.4291479571e+000
 7.5519570166e-001	 7.7206417516e-001	 2.3237825237e+000
 7.4662329252e-001	 7.8035715332e-001	 2.2141786799e+000
 7.3796088178e-001	 7.8855395935e-001	 2.1007663879e+000
 7.2921009484e-001	 7.9665313812e-001	 1.9839875712e+000
 7.2037258827e-001	 8.0465327125e-001	 1.8642954874e+000
 8.2452205268e-001	 7.3816028145e-001	 2.2263507331e+000
 8.1632437745e-001	 7.4721600684e-001	 2.1472199758e+000
 8.0802521092e-001	 7.5618287128e-001	 2.0627454378e+000
 7.9962600647e-001	 7.6505917732e-001	 1.9733807633e+000
 7.9112825518e-001	 7.7384325940e-001	 1.8795917285e+000
 7.8253348491e-001	 7.8253348491e-001	 1.7818555856e+000
 7.7384325940e-001	 7.9112825518e-001	 1.6806603703e+000
 7.6505917732e-001	 7.9962600647e-001	 1.5765041734e+000
 7.5618287128e-001	 8.0802521092e-001	 1.4698943802e+000
 7.4721600684e-001	 8.1632437745e-001	 1.3613468799e+000
 7.3816028145e-001	 8.2452205268e-001	 1.2513852487e+000
 8.4439099306e-001	 7.5594811693e-001	 1.6578837060e+000
 8.3599577415e-001	 7.6522206289e-001	 1.5783200107e+000
 8.2749661825e-001	 7.7440500656e-001	 1.4941357081e+000
 8.1889501376e-001	 7.8349520960e-001	 1.4058551442e+000
 8.1019248770e-001	 7.9249096632e-001	 1.3140130306e+000
 8.0139060475e-001	 8.0139060475e-001	 1.2191536127e+000
 7.9249096632e-001	 8.1019248770e-001	 1.1218298018e+000
 7.8349520960e-001	 8.1889501376e-001	 1.0226022722e+000
 7.7440500656e-001	 8.2749661825e-001	 9.2203852861e-001
 7.6522206289e-001	 8.3599577415e-001	 8.2071194494e-001
 7.5594811693e-001	 8.4439099306e-001	 7.1920077978e-001
 8.6426005761e-001	 7.7373606358e-001	 1.1644538434e+000
 8.5566729379e-001	 7.8322823146e-001	 1.0850604038e+000
 8.4696814727e-001	 7.9262725572e-001	 1.0016787602e+000
 8.3816414148e-001	 8.0193135710e-001	 9.1488457070e-001
 8.2925683937e-001	 8.1113878977e-001	 8.2526275372e-001
 8.2024784244e-001	 8.2024784244e-001	 7.3340650948e-001
 8.1113878977e-001	 8.2925683937e-001	 6.3991630312e-001
 8.0193135710e-001	 8.3816414148e-001	 5.4539881402e-001
 7.9262725572e-001	 8.4696814727e-001	 4.5046585417e-001
 7.8322823146e-001	 8.5566729379e-001	 3.5573325976e-001
 7.7373606358e-001	 8.6426005761e-001	 2.6181975959e-001
 8.8412921157e-001	 7.9152409026e-001	 7.3827748445e-001
 8.7533890194e-001	 8.0123448106e-001	 6.5973233814e-001
 8.6643976390e-001	 8.1084958688e-001	 5.7776912283e-001
 8.5743335591e-001	 8.2036758756e-001	 4.9299691697e-001
 8.4832127683e-001	 8.2978669714e-001	 4.0603359496e-001
 8.3910516497e-001	 8.3910516497e-001	 3.1750472779e-001
 8.2978669714e-001	 8.4832127683e-001	 2.2804244378e-001
 8.2036758756e-001	 8.5743335591e-001	 1.3828425325e-001
 8.1084958688e-001	 8.6643976390e-001	 4.8871840953e-002
 8.0123448106e-001	 8.7533890194e-001	-3.9550169371e-002
 7.9152409026e-001	 8.8412921157e-001	-1.2633547412e-001
 9.0399842016e-001	 8.0931216586e-001	 3.7212381877e-001
 8.9501056419e-001	 8.1924078017e-001	 2.9516813906e-001
 8.8591143408e-001	 8.2907196814e-001	 2.1532811992e-001
 8.7670262332e-001	 8.3880386871e-001	 1.3322974858e-001
 8.6738576670e-001	 8.4843465578e-001	 4.9507966335e-002
 8.5796253937e-001	 8.5796253937e-001	-3.5194525811e-002
 8.4843465578e-001	 8.6738576670e-001	-1.2022850510e-001
 8.3880386871e-001	 8.7670262332e-001	-2.0493950458e-001
 8.2907196814e-001	 8.8591143408e-001	-2.8866912582e-001
 8.1924078017e-001	 8.9501056419e-001	-3.7075638227e-001
 8.0931216586e-001	 9.0399842016e-001	-4.5053906825e-001
 9.2386764861e-001	 8.2710025924e-001	 5.9256552984e-002
 9.1468224610e-001	 8.3724709728e-001	-1.5316017056e-002
 9.0538312372e-001	 8.4729436762e-001	-9.2252116502e-002
 8.9597190999e-001	 8.5724016829e-001	-1.7092408646e-001
 8.8645027563e-001	 8.6708263307e-001	-2.5069454794e-001
 8.7681993261e-001	 8.7681993261e-001	-3.3091766716e-001
 8.6708263307e-001	 8.8645027563e-001	-4.1094046995e-001
 8.5724016829e-001	 8.9597190999e-001	-4.9010420057e-001
 8.4729436762e-001	 9.0538312372e-001	-5.6774572039e-001
 8.3724709728e-001	 9.1468224610e-001	-6.4319894140e-001
 8.2710025924e-001	 9.2386764861e-001	-7.1579628922e-001
 9.4373686216e-001	 8.4488833928e-001	-2.0661589611e-001
 9.3435391325e-001	 8.5525340088e-001	-2.7796899196e-001
 9.2485479875e-001	 8.6551675343e-001	-3.5115639047e-001
 9.1524118220e-001	 8.7567645404e-001	-4.2556281767e-001
 9.0551477026e-001	 8.8573059636e-001	-5.0056191758e-001
 8.9567731170e-001	 8.9567731170e-001	-5.7551756605e-001
 8.8573059636e-001	 9.0551477026e-001	-6.4978524045e-001
 8.7567645404e-001	 9.1524118220e-001	-7.2271344050e-001
 8.6551675343e-001	 9.2485479875e-001	-7.9364515501e-001
 8.5525340088e-001	 9.3435391325e-001	-8.6191936936e-001
 8.4488833928e-001	 9.4373686216e-001	-9.2687260788e-001
 6.6701067379e-001	 7.4504822833e-001	 4.2528638552e+000
 6.5874783014e-001	 7.5236385116e-001	 4.0815675886e+000
 6.5040781861e-001	 7.5958521594e-001	 3.9004751375e+000
 6.4199225496e-001	 7.6671111609e-001	 3.7096164763e+000
 6.3350277976e-001	 7.7374038194e-001	 3.5090329431e+000
 6.2494105736e-001	 7.8067188138e-001	 3.2987786245e+000
 6.1630877477e-001	 7.8750452048e-001	 3.0789208435e+000
 6.0760764065e-001	 7.9423724396e-001	 2.8495406242e+000
 5.9883938412e-001	 8.0086903579e-001	 2.6107331306e+000
 5.9000575367e-001	 8.0739891962e-001	 2.3626080778e+000
 5.8110851606e-001	 8.1382595926e-001	 2.1052901123e+000
 6.8479775331e-001	 7.6491632430e-001	 3.3580077289e+000
 6.7631456557e-001	 7.7242703182e-001	 3.2051871858e+000
 6.6775215214e-001	 7.7984096771e-001	 3.0435017326e+000
 6.5911217184e-001	 7.8715689323e-001	 2.8736475814e+000
 6.5039630900e-001	 7.9437360752e-001	 2.6966889149e+000
 6.4160627235e-001	 8.0148994829e-001	 2.5128666854e+000
 6.3274379391e-001	 8.0850479241e-001	 2.3224159333e+000
 6.2381062787e-001	 8.1541705648e-001	 2.1255765594e+000
 6.1480854948e-001	 8.2222569736e-001	 1.9225935280e+000
 6.0573935386e-001	 8.2892971269e-001	 1.7137170594e+000
 5.9660485487e-001	 8.3552814128e-001	 1.4992028073e+000
 7.0258506851e-001	 7.8478468353e-001	 2.5642472797e+000
 6.9388153377e-001	 7.9249047831e-001	 2.4271502892e+000
 6.8509671548e-001	 8.0009698788e-001	 2.2829313636e+000
 6.7623231556e-001	 8.0760294129e-001	 2.1318869915e+000
 6.6729006209e-001	 8.1500710650e-001	 1.9743162275e+000
 6.5827170817e-001	 8.2230829104e-001	 1.8112309330e+000
 6.4917903082e-001	 8.2950534259e-001	 1.6438906122e+000
 6.4001382979e-001	 8.3659714963e-001	 1.4726670420e+000
 6.3077792643e-001	 8.4358264192e-001	 1.2979261370e+000
 6.2147316252e-001	 8.5046079104e-001	 1.1200314677e+000
 6.1210139900e-001	 8.5723061087e-001	 9.3934427950e-001
 7.2037258827e-001	 8.0465327125e-001	 1.8642954874e+000
 7.1144870399e-001	 8.1255415554e-001	 1.7402614211e+000
 7.0244147828e-001	 8.2035324099e-001	 1.6104621004e+000
 6.9335265616e-001	 8.2804922448e-001	 1.4753114160e+000
 6.8418400945e-001	 8.3564084277e-001	 1.3352211533e+000
 6.7493733563e-001	 8.4312687320e-001	 1.1906003462e+000
 6.6561445672e-001	 8.5050613428e-001	 1.0418667369e+000
 6.5621721804e-001	 8.5777748635e-001	 8.9052379912e-001
 6.4674748704e-001	 8.6493983207e-001	 7.3772986850e-001
 6.3720715211e-001	 8.7199211700e-001	 5.8393706487e-001
 6.2759812135e-001	 8.7893333002e-001	 4.2958907205e-001
 7.3816028145e-001	 8.2452205268e-001	 1.2513852487e+000
 7.2901604548e-001	 8.3261802838e-001	 1.1383466564e+000
 7.1978641019e-001	 8.4060969159e-001	 1.0205852246e+000
 7.1047316368e-001	 8.4849570701e-001	 8.9860193461e-001
 7.0107812152e-001	 8.5627478021e-001	 7.7289232719e-001
 6.9160312559e-001	 8.6394565833e-001	 6.4394563863e-001
 6.8205004287e-001	 8.7150713073e-001	 5.1224394952e-001
 6.7242076426e-001	 8.7895802958e-001	 3.7826134860e-001
 6.6271720334e-001	 8.8629723046e-001	 2.4263102636e-001
 6.5294129511e-001	 8.9352365288e-001	 1.0731607983e-001
 6.4309499478e-001	 9.0063626078e-001	-2.6832228520e-002
 7.5594811693e-001	 8.4439099306e-001	 7.1920077978e-001
 7.4658352751e-001	 8.5268206173e-001	 6.1562277884e-001
 7.3713148085e-001	 8.6086630424e-001	 5.0811543737e-001
 7.2759380816e-001	 8.6894235311e-001	 3.9723906411e-001
 7.1797236874e-001	 8.7690888272e-001	 2.8354646318e-001
 7.0826904886e-001	 8.8476461001e-001	 1.6758189205e-001
 6.9848576050e-001	 8.9250829517e-001	 4.9880035390e-002
 6.8862444011e-001	 9.0013874224e-001	-6.9035001369e-002
 6.7868704739e-001	 9.0765479969e-001	-1.8865067491e-001
 6.6867556397e-001	 9.1505536101e-001	-3.0846695970e-001
 6.5859199218e-001	 9.2233936515e-001	-4.2728802237e-001
 7.7373606358e-001	 8.6426005761e-001	 2.6181975959e-001
 7.6415111933e-001	 8.7274622048e-001	 1.6664596329e-001
 7.5447665992e-001	 8.8112304349e-001	 6.8146836545e-002
 7.4471455963e-001	 8.8938912699e-001	-3.3083412081e-002
 7.3486672154e-001	 8.9754311418e-001	-1.3645892711e-001
 7.2493507629e-001	 9.0558369180e-001	-2.4140339123e-001
 7.1492158085e-001	 9.1350959087e-001	-3.4735119310e-001
 7.0482821723e-001	 9.2131958727e-001	-4.5374857354e-001
 6.9465699125e-001	 9.2901250240e-001	-5.6005474573e-001
 6.8440993117e-001	 9.3658720370e-001	-6.6574298500e-001
 6.7408908643e-001	 9.4404260515e-001	-7.7030168425e-001
 7.9152409026e-001	 8.8412921157e-001	-1.2633547412e-001
 7.8171879020e-001	 8.9281046950e-001	-2.1373137611e-001
 7.7182191703e-001	 9.0137987388e-001	-3.0398393205e-001
 7.6183538815e-001	 9.0983599288e-001	-3.9648831145e-001
 7.5176115036e-001	 9.1817743849e-001	-4.9064772099e-001
 7.4160117871e-001	 9.2640286727e-001	-5.8587469957e-001
 7.3135747515e-001	 9.3451098106e-001	-6.8159239721e-001
 7.2103206726e-001	 9.4250052761e-001	-7.7723583280e-001
 7.1062700697e-001	 9.5037030122e-001	-8.7225312584e-001
 7.0014436917e-001	 9.5811914328e-001	-9.6610669731e-001
 6.8958625042e-001	 9.6574594281e-001	-1.0582744350e+000
 8.0931216586e-001	 9.0399842016e-001	-4.5053906825e-001
 7.9928650937e-001	 9.1287477370e-001	-5.3039682795e-001
 7.8916722184e-001	 9.2163675998e-001	-6.1272845038e-001
 7.7895626374e-001	 9.3028291499e-001	-6.9693977633e-001
 7.6865562564e-001	 9.3881181954e-001	-7.8244324925e-001
 7.5826732696e-001	 9.4722209999e-001	-8.6865928960e-001
 7.4779341464e-001	 9.5551242900e-001	-9.5501765648e-001
 7.3723596185e-001	 9.6368152620e-001	-1.0409587909e+000
 7.2659706660e-001	 9.7172815876e-001	-1.1259351357e+000
 7.1587885043e-001	 9.7965114206e-001	-1.2094124262e+000
 7.0508345701e-001	 9.8744934015e-001	-1.2908709470e+000
 8.2710025924e-001	 9.2386764861e-001	-7.1579628922e-001
 8.1685424611e-001	 9.3293909795e-001	-7.8800835483e-001
 8.0651254399e-001	 9.4189366633e-001	-8.6235214539e-001
 7.9607715645e-001	 9.5072985754e-001	-9.3826362760e-001
 7.8555011781e-001	 9.5944622121e-001	-1.0151828589e+000
 7.7493349187e-001	 9.6804135352e-001	-1.0925554125e+000
 7.6422937057e-001	 9.7651389794e-001	-1.1698337956e+000
 7.5343987263e-001	 9.8486254595e-001	-1.2464788546e+000
 7.4256714220e-001	 9.9308603765e-001	-1.3219611611e+000
 7.3161334743e-001	 1.0011831624e+000	-1.3957623741e+000
 7.2058067910e-001	 1.0091527592e+000	-1.4673765710e+000
 8.4488833928e-001	 9.4373686216e-001	-9.2687260788e-001
 8.3442196966e-001	 9.5300340716e-001	-9.9101965839e-001
 8.2385785312e-001	 9.6215055747e-001	-1.0569555069e+000
 8.1319803631e-001	 9.7117678475e-001	-1.1241639917e+000
 8.0244459730e-001	 9.8008060741e-001	-1.1921294894e+000
 7.9159964427e-001	 9.8886059143e-001	-1.2603383641e+000
 7.8066531416e-001	 9.9751535112e-001	-1.3282804180e+000
 7.6964377126e-001	 1.0060435498e+000	-1.3954503369e+000
 7.5853720581e-001	 1.0144439005e+000	-1.4613491231e+000
 7.4734783261e-001	 1.0227151665e+000	-1.5254855116e+000
 7.3607788956e-001	 1.0308561619e+000	-1.5873773606e+000
 5.8110851606e-001	 8.1382595926e-001	 2.1052901123e+000
 5.7214945494e-001	 8.2014925879e-001	 1.8385404939e+000
 5.6313036914e-001	 8.2636796230e-001	 1.5629008989e+000
 5.5405307210e-001	 8.3248125485e-001	 1.2796563483e+000
 5.4491939094e-001	 8.3848836297e-001	 9.9006177269e-001
 5.3573116523e-001	 8.4438855498e-001	 6.9534055279e-001
 5.2649024586e-001	 8.5018114112e-001	 3.9668311985e-001
 5.1719849384e-001	 8.5586547377e-001	 9.5245617565e-002
 5.0785777912e-001	 8.6144094757e-001	-2.0785137296e-001
 4.9846997940e-001	 8.6690699948e-001	-5.1152404397e-001
 4.8903697900e-001	 8.7226310887e-001	-8.1472650663e-001
 5.9660485487e-001	 8.3552814128e-001	 1.4992028073e+000
 5.8740688373e-001	 8.4202006336e-001	 1.2779887811e+000
 5.7814728723e-001	 8.4840460015e-001	 1.0494558050e+000
 5.6882792720e-001	 8.5468091501e-001	 8.1451204499e-001
 5.5945067945e-001	 8.6084821383e-001	 5.7404372042e-001
 5.5001743262e-001	 8.6690574543e-001	 3.2891417460e-001
 5.4053008696e-001	 8.7285280165e-001	 7.9962984050e-002
 5.3099055310e-001	 8.7868871760e-001	-1.7199489378e-001
 5.2140075085e-001	 8.8441287176e-001	-4.2616993373e-001
 5.1176260801e-001	 8.9002468611e-001	-6.8179881664e-001
 5.0207805912e-001	 8.9552362611e-001	-9.3814516302e-001
 6.1210139900e-001	 8.5723061087e-001	 9.3934427950e-001
 6.0266451468e-001	 8.6389115771e-001	 7.5433711645e-001
 5.9316440431e-001	 8.7044152999e-001	 5.6365697588e-001
 5.8360297806e-001	 8.7688086931e-001	 3.6791356249e-001
 5.7398216050e-001	 8.8320836097e-001	 1.6770085714e-001
 5.6430388931e-001	 8.8942323424e-001	-3.6403376217e-002
 5.5457011409e-001	 8.9552476258e-001	-2.4383806363e-001
 5.4478279510e-001	 9.0151226383e-001	-4.5405927460e-001
 5.3494390203e-001	 9.0738510034e-001	-6.6654065623e-001
 5.2505541274e-001	 9.1314267905e-001	-8.8077384847e-001
 5.1511931203e-001	 9.1878445156e-001	-1.0962688803e+000
 6.2759812135e-001	 8.7893333002e-001	 4.2958907205e-001
 6.1792232109e-001	 8.8576250357e-001	 2.7296112889e-001
 6.0818169408e-001	 8.9247871325e-001	 1.1229875995e-001
 5.9837819884e-001	 8.9908107892e-001	-5.2013692868e-002
 5.8851380866e-001	 9.0556876524e-001	-2.1960319422e-001
 5.7859051029e-001	 9.1194098199e-001	-3.9010816210e-001
 5.6861030267e-001	 9.1819698423e-001	-5.6317860916e-001
 5.5857519572e-001	 9.2433607253e-001	-7.3847627970e-001
 5.4848720896e-001	 9.3035759310e-001	-9.1567478340e-001
 5.3834837034e-001	 9.3626093785e-001	-1.0944597266e+000
 5.2816071491e-001	 9.4204554451e-001	-1.2745288414e+000
 6.4309499478e-001	 9.0063626078e-001	-2.6832228520e-002
 6.3318027626e-001	 9.0763406268e-001	-1.6154880691e-001
 6.2319913026e-001	 9.1451611137e-001	-2.9874281059e-001
 6.1315356367e-001	 9.2128150497e-001	-4.3818695935e-001
 6.0304559850e-001	 9.2792938752e-001	-5.7966256332e-001
 5.9287727056e-001	 9.3445894929e-001	-7.2295940835e-001
 5.8265062815e-001	 9.4086942694e-001	-8.6787564723e-001
 5.7236773080e-001	 9.4716010376e-001	-1.0142176985e+000
 5.6203064793e-001	 9.5333030983e-001	-1.1618001542e+000
 5.5164145755e-001	 9.5937942204e-001	-1.3104456982e+000
 5.4120224495e-001	 9.6530686424e-001	-1.4599850357e+000
 6.5859199218e-001	 9.2233936515e-001	-4.2728802237e-001
 6.4843835349e-001	 9.2950579675e-001	-5.4532553939e-001
 6.3821668658e-001	 9.3655368578e-001	-6.6443190111e-001
 6.2792904671e-001	 9.4348210862e-001	-7.8447294833e-001
 6.1757750460e-001	 9.5029018868e-001	-9.0532200063e-001
 6.0716414512e-001	 9.5697709672e-001	-1.0268595612e+000
 5.9669106594e-001	 9.6354205101e-001	-1.1489730354e+000
 5.8616037623e-001	 9.6998431758e-001	-1.2715564656e+000
 5.7557419525e-001	 9.7630321034e-001	-1.3945102844e+000
 5.6493465109e-001	 9.8249809118e-001	-1.5177410870e+000
 5.5424387931e-001	 9.8856837007e-001	-1.6411614253e+000
 6.7408908643e-001	 9.4404260515e-001	-7.7030168425e-001
 6.6369652607e-001	 9.5137766752e-001	-8.7517123798e-001
 6.5323433675e-001	 9.5859139792e-001	-9.8050507476e-001
 6.4270462208e-001	 9.6568285101e-001	-1.0856070398e+000
 6.3210950151e-001	 9.7265112959e-001	-1.1903840122e+000
 6.2145110897e-001	 9.7949538489e-001	-1.2947503552e+000
 6.1073159149e-001	 9.8621481679e-001	-1.3986275357e+000
 5.9995310785e-001	 9.9280867404e-001	-1.5019437660e+000
 5.8911782720e-001	 9.9927625442e-001	-1.6046336695e+000
 5.7822792772e-001	 1.0056169048e+000	-1.7066379722e+000
 5.6728559518e-001	 1.0118300213e+000	-1.8079032224e+000
 6.8958625042e-001	 9.6574594281e-001	-1.0582744350e+000
 6.7895476732e-001	 9.7324963670e-001	-1.1501556712e+000
 6.6825205450e-001	 9.8062920921e-001	-1.2434386851e+000
 6.5748026394e-001	 9.8788369330e-001	-1.3371228992e+000
 6.4664156381e-001	 9.9501217112e-001	-1.4295280170e+000
 6.3573813710e-001	 1.0020137744e+000	-1.5205223722e+000
 6.2477218021e-001	 1.0088876846e+000	-1.6100096785e+000
 6.1374590153e-001	 1.0156331332e+000	-1.6979021465e+000
 6.0266152010e-001	 1.0222494019e+000	-1.7841201276e+000
 5.9152126415e-001	 1.0287358225e+000	-1.8685917857e+000
 5.8032736974e-001	 1.0350917771e+000	-1.9512528003e+000
 7.0508345701e-001	 9.8744934015e-001	-1.2908709470e+000
 6.9421305052e-001	 9.9512166602e-001	-1.3716378103e+000
 6.8326981354e-001	 1.0026670811e+000	-1.4532732288e+000
 6.7225594642e-001	 1.0100845966e+000	-1.5356296536e+000
 6.6117366607e-001	 1.0173732741e+000	-1.6182396763e+000
 6.5002520452e-001	 1.0245322258e+000	-1.6989360153e+000
 6.3881280753e-001	 1.0315606147e+000	-1.7772171662e+000
 6.2753873314e-001	 1.0384576551e+000	-1.8529321720e+000
 6.1620525025e-001	 1.0452226125e+000	-1.9259415638e+000
 6.0481463715e-001	 1.0518548037e+000	-1.9961170722e+000
 5.9336918015e-001	 1.0583535970e+000	-2.0633413707e+000
 7.2058067910e-001	 1.0091527592e+000	-1.4673765710e+000
 7.0947134897e-001	 1.0169937172e+000	-1.5381760019e+000
 6.9828758759e-001	 1.0247049750e+000	-1.6096678663e+000
 6.8703164368e-001	 1.0322855222e+000	-1.6815735215e+000
 6.7570578286e-001	 1.0397343995e+000	-1.7536347039e+000
 6.6431228622e-001	 1.0470506997e+000	-1.8255521800e+000
 6.5285344890e-001	 1.0542335675e+000	-1.8951989319e+000
 6.4133157855e-001	 1.0612821999e+000	-1.9614305871e+000
 6.2974899393e-001	 1.0681958461e+000	-2.0240049817e+000
 6.1810802343e-001	 1.0749738080e+000	-2.0826961287e+000
 6.0641100360e-001	 1.0816154401e+000	-2.1372940549e+000
 7.3607788956e-001	 1.0308561619e+000	-1.5873773606e+000
 7.2472963597e-001	 1.0388657520e+000	-1.6486054647e+000
 7.1330535038e-001	 1.0467428524e+000	-1.7107477199e+000
 7.0180732985e-001	 1.0544864310e+000	-1.7733449307e+000
 6.9023788874e-001	 1.0620955081e+000	-1.8359650641e+000
 6.7859935721e-001	 1.0695691567e+000	-1.8982044167e+000
 6.6689407973e-001	 1.0769065033e+000	-1.9596886997e+000
 6.5512441360e-001	 1.0841067275e+000	-2.0186182873e+000
 6.4329272745e-001	 1.0911690624e+000	-2.0730759405e+000
 6.3140139974e-001	 1.0980927950e+000	-2.1226986262e+000
 6.1945281727e-001	 1.1048772657e+000	-2.1671463755e+000
 4.8903697900e-001	 8.7226310887e-001	-8.1472650663e-001
 4.7956209226e-001	 8.7750801914e-001	-1.1180343575e+000
 4.7004580118e-001	 8.8264210687e-001	-1.4225989940e+000
 4.6049000248e-001	 8.8766497944e-001	-1.7281343553e+000
 4.5089659477e-001	 8.9257628643e-001	-2.0343587910e+000
 4.4126747746e-001	 8.9737571948e-001	-2.3409952300e+000
 4.3160454958e-001	 9.0206301214e-001	-2.6477713521e+000
 4.2190970867e-001	 9.0663793965e-001	-2.9544197626e+000
 4.1218484971e-001	 9.1110031866e-001	-3.2606781699e+000
 4.0243186398e-001	 9.1545000704e-001	-3.5662895644e+000
 3.9265263800e-001	 9.1968690347e-001	-3.8710023985e+000
 5.0207805912e-001	 8.9552362611e-001	-9.3814516302e-001
 4.9235050691e-001	 9.0090840166e-001	-1.1953588681e+000
 4.8258044624e-001	 9.0617939939e-001	-1.4539088198e+000
 4.7276982440e-001	 9.1133621619e-001	-1.7134483077e+000
 4.6292059064e-001	 9.1637849231e-001	-1.9736387719e+000
 4.5303469502e-001	 9.2130591116e-001	-2.2341500585e+000
 4.4311408720e-001	 9.2611819920e-001	-2.4946606734e+000
 4.3316071535e-001	 9.3081512565e-001	-2.7548580323e+000
 4.2317652494e-001	 9.3539650230e-001	-3.0144387082e+000
 4.1316345771e-001	 9.3986218320e-001	-3.2731086748e+000
 4.0312345050e-001	 9.4421206435e-001	-3.5305835437e+000
 5.1511931203e-001	 9.1878445156e-001	-1.0962688803e+000
 5.0513909100e-001	 9.2430909425e-001	-1.3130342679e+000
 4.9511525738e-001	 9.2971700378e-001	-1.5311912150e+000
 4.8504980903e-001	 9.3500776659e-001	-1.7503443096e+000
 4.7494474584e-001	 9.4018101357e-001	-1.9701099892e+000
 4.6480206850e-001	 9.4523641993e-001	-2.1901168654e+000
 4.5462377733e-001	 9.5017370499e-001	-2.4100060424e+000
 4.4441187110e-001	 9.5499263200e-001	-2.6294314275e+000
 4.3416834581e-001	 9.5969300786e-001	-2.8480600335e+000
 4.2389519365e-001	 9.6427468282e-001	-3.0655722712e+000
 4.1359440173e-001	 9.6873755019e-001	-3.2816622318e+000
 5.2816071491e-001	 9.4204554451e-001	-1.2745288414e+000
 5.1792782216e-001	 9.4771005594e-001	-1.4559719826e+000
 5.0765021267e-001	 9.5325487885e-001	-1.6388322182e+000
 4.9732993488e-001	 9.5867958921e-001	-1.8226764001e+000
 4.8696903931e-001	 9.6398380856e-001	-2.0070868890e+000
 4.7656957730e-001	 9.6916720389e-001	-2.1916619330e+000
 4.6613359982e-001	 9.7422948742e-001	-2.3760160349e+000
 4.5566315623e-001	 9.7917041640e-001	-2.5597803086e+000
 4.4516029309e-001	 9.8398979283e-001	-2.7426028214e+000
 4.3462705299e-001	 9.8868746319e-001	-2.9241489242e+000
 4.2406547339e-001	 9.9326331808e-001	-3.1041015647e+000
 5.4120224495e-001	 9.6530686424e-001	-1.4599850357e+000
 5.3071667801e-001	 9.7111124578e-001	-1.6107564111e+000
 5.2018529017e-001	 9.7679298341e-001	-1.7629353207e+000
 5.0961018045e-001	 9.8235164262e-001	-1.9160609540e+000
 4.9899345001e-001	 9.8778683563e-001	-2.0696916311e+000
 4.8833720083e-001	 9.9309822118e-001	-2.2234052193e+000
 4.7764353453e-001	 9.9828550439e-001	-2.3767995349e+000
 4.6691455107e-001	 1.0033484365e+000	-2.5294927305e+000
 4.5615234754e-001	 1.0082868147e+000	-2.6811236664e+000
 4.4535901697e-001	 1.0131004816e+000	-2.8313522636e+000
 4.3453664713e-001	 1.0177893251e+000	-2.9798598393e+000
 5.5424387931e-001	 9.8856837007e-001	-1.6411614253e+000
 5.4350563617e-001	 9.9451262283e-001	-1.7654745602e+000
 5.3272046795e-001	 1.0003312763e+000	-1.8911455447e+000
 5.2189052427e-001	 1.0060238854e+000	-2.0176951707e+000
 5.1101795690e-001	 1.0115900531e+000	-2.1446669439e+000
 5.0010491850e-001	 1.0170294299e+000	-2.2716275229e+000
 4.8915356131e-001	 1.0223417138e+000	-2.3981671424e+000
 4.7816603591e-001	 1.0275266501e+000	-2.5239000185e+000
 4.6714448992e-001	 1.0325840309e+000	-2.6484647360e+000
 4.5609106680e-001	 1.0375136953e+000	-2.7715246154e+000
 4.4500790464e-001	 1.0423155283e+000	-2.8927680577e+000
 5.6728559518e-001	 1.0118300213e+000	-1.8079032224e+000
 5.5629467426e-001	 1.0179141461e+000	-1.9095685401e+000
 5.4525572408e-001	 1.0238697162e+000	-2.0124971396e+000
 5.3417094483e-001	 1.0296962761e+000	-2.1161999439e+000
 5.2304253894e-001	 1.0353934194e+000	-2.2202141306e+000
 5.1187270971e-001	 1.0409607882e+000	-2.3241035801e+000
 5.0066366003e-001	 1.0463980736e+000	-2.4274593071e+000
 4.8941759107e-001	 1.0517050147e+000	-2.5298998722e+000
 4.7813670099e-001	 1.0568813990e+000	-2.6310717739e+000
 4.6682318370e-001	 1.0619270615e+000	-2.7306498189e+000
 4.5547922759e-001	 1.0668418848e+000	-2.8283374685e+000
 5.8032736974e-001	 1.0350917771e+000	-1.9512528003e+000
 5.6908376989e-001	 1.0413157747e+000	-2.0337073260e+000
 5.5779103660e-001	 1.0474082621e+000	-2.1172811820e+000
 5.4645142066e-001	 1.0533687734e+000	-2.2014832781e+000
 5.3506717509e-001	 1.0591968927e+000	-2.2858522725e+000
 5.2364055388e-001	 1.0648922542e+000	-2.3699570170e+000
 5.1217381054e-001	 1.0704545416e+000	-2.4533969832e+000
 5.0066919685e-001	 1.0758834882e+000	-2.5358026700e+000
 4.8912896153e-001	 1.0811788764e+000	-2.6168359905e+000
 4.7755534890e-001	 1.0863405376e+000	-2.6961906358e+000
 4.6595059765e-001	 1.0913683516e+000	-2.7735924152e+000
 5.9336918015e-001	 1.0583535970e+000	-2.0633413707e+000
 5.8187290068e-001	 1.0647174677e+000	-2.1296748235e+000
 5.7032638360e-001	 1.0709468727e+000	-2.1969300182e+000
 5.5873193024e-001	 1.0770413357e+000	-2.2646210911e+000
 5.4709184431e-001	 1.0830004315e+000	-2.3322953684e+000
 5.3540843040e-001	 1.0888237859e+000	-2.3995337943e+000
 5.2368399270e-001	 1.0945110757e+000	-2.4659513415e+000
 5.1192083358e-001	 1.1000620281e+000	-2.5311974039e+000
 5.0012125229e-001	 1.1054764206e+000	-2.5949561692e+000
 4.8828754360e-001	 1.1107540809e+000	-2.6569469682e+000
 4.7642199651e-001	 1.1158948859e+000	-2.7169246018e+000
 6.0641100360e-001	 1.0816154401e+000	-2.1372940549e+000
 5.9466204427e-001	 1.0881191840e+000	-2.1902717820e+000
 5.8286174312e-001	 1.0944855069e+000	-2.2439160128e+000
 5.7101245211e-001	 1.1007139217e+000	-2.2977527862e+000
 5.5911652554e-001	 1.1068039941e+000	-2.3513447104e+000
 5.4717631868e-001	 1.1127553416e+000	-2.4042913623e+000
 5.3519418636e-001	 1.1185676339e+000	-2.4562296722e+000
 5.2317248155e-001	 1.1242405922e+000	-2.5068342922e+000
 5.1111355404e-001	 1.1297739892e+000	-2.5558179453e+000
 4.9901974903e-001	 1.1351676485e+000	-2.6029317547e+000
 4.8689340584e-001	 1.1404214447e+000	-2.6479655497e+000
 6.1945281727e-001	 1.1048772657e+000	-2.1671463755e+000
 6.0745117825e-001	 1.1115208828e+000	-2.2092295162e+000
 5.9539709325e-001	 1.1180241233e+000	-2.2516624976e+000
 5.8329296476e-001	 1.1243864900e+000	-2.2939894177e+000
 5.7114119775e-001	 1.1306075389e+000	-2.3357942512e+000
 5.5894419814e-001	 1.1366868794e+000	-2.3767012099e+000
 5.4670437139e-001	 1.1426241741e+000	-2.4163750905e+000
 5.3442412108e-001	 1.1484191381e+000	-2.4545216104e+000
 5.2210584754e-001	 1.1540715394e+000	-2.4908877268e+000
 5.0975194641e-001	 1.1595811979e+000	-2.5252619387e+000
 4.9736480731e-001	 1.1649479851e+000	-2.5574745674e+000
 3.9265263800e-001	 9.1968690347e-001	-3.8710023985e+000
 3.8284758015e-001	 9.2381155749e-001	-4.1735546263e+000
 3.7302003062e-001	 9.2782330500e-001	-4.4724521163e+000
 3.6317185667e-001	 9.3172216582e-001	-4.7672633271e+000
 3.5330491665e-001	 9.3550819912e-001	-5.0575927980e+000
 3.4342105900e-001	 9.3918150291e-001	-5.3430811459e+000
 3.3352212132e-001	 9.4274221361e-001	-5.6234050105e+000
 3.2360992937e-001	 9.4619050544e-001	-5.8982769466e+000
 3.1368629624e-001	 9.4952658997e-001	-6.1674452650e+000
 3.0375302140e-001	 9.5275071551e-001	-6.4306938211e+000
 2.9381188981e-001	 9.5586316651e-001	-6.6878417538e+000
 4.0312345050e-001	 9.4421206435e-001	-3.5305835437e+000
 3.9305692255e-001	 9.4844670994e-001	-3.7862568494e+000
 3.8296730315e-001	 9.5256543815e-001	-4.0393747885e+000
 3.7285650933e-001	 9.5656826934e-001	-4.2895782053e+000
 3.6272644901e-001	 9.6045526426e-001	-4.5365390666e+000
 3.5257901993e-001	 9.6422652353e-001	-4.7799604844e+000
 3.4241610866e-001	 9.6788218719e-001	-5.0195766952e+000
 3.3223958969e-001	 9.7142243413e-001	-5.2551529947e+000
 3.2205132444e-001	 9.7484748157e-001	-5.4864856289e+000
 3.1185316035e-001	 9.7815758441e-001	-5.7134016416e+000
 3.0164693001e-001	 9.8135303469e-001	-5.9357586770e+000
 4.1359440173e-001	 9.6873755019e-001	-3.2816622318e+000
 4.0326640023e-001	 9.7308218881e-001	-3.4961674502e+000
 3.9291470747e-001	 9.7730789914e-001	-3.7088498704e+000
 3.8254129032e-001	 9.8141470208e-001	-3.9194180817e+000
 3.7214810621e-001	 9.8540265995e-001	-4.1276081614e+000
 3.6173710219e-001	 9.8927187599e-001	-4.3331837108e+000
 3.5131021386e-001	 9.9302249388e-001	-4.5359358557e+000
 3.4086936436e-001	 9.9665469716e-001	-4.7356832091e+000
 3.3041646348e-001	 1.0001687087e+000	-4.9322717962e+000
 3.1995340664e-001	 1.0035647899e+000	-5.1255749417e+000
 3.0948207403e-001	 1.0068432406e+000	-5.3154931188e+000
 4.2406547339e-001	 9.9326331808e-001	-3.1041015647e+000
 4.1347599532e-001	 9.9771795098e-001	-3.2825723441e+000
 4.0286222620e-001	 1.0020506447e+000	-3.4596569745e+000
 3.9222618267e-001	 1.0062614206e+000	-3.6351273202e+000
 3.8156987176e-001	 1.0103503425e+000	-3.8087803484e+000
 3.7089528978e-001	 1.0143175165e+000	-3.9804381703e+000
 3.6020442133e-001	 1.0181630897e+000	-4.1499480504e+000
 3.4949923827e-001	 1.0218872503e+000	-4.3171823839e+000
 3.3878169871e-001	 1.0254902270e+000	-4.4820386413e+000
 3.2805374608e-001	 1.0289722877e+000	-4.6444392792e+000
 3.1731730815e-001	 1.0323337397e+000	-4.8043316171e+000
 4.3453664713e-001	 1.0177893251e+000	-2.9798598393e+000
 4.2368568994e-001	 1.0223539533e+000	-3.1268997421e+000
 4.1280984191e-001	 1.0267936314e+000	-3.2727579561e+000
 4.0191116946e-001	 1.0311083813e+000	-3.4172652853e+000
 3.9099172917e-001	 1.0352982684e+000	-3.5602764373e+000
 3.8005356666e-001	 1.0393634012e+000	-3.7016700586e+000
 3.6909871553e-001	 1.0433039306e+000	-3.8413487433e+000
 3.5812919632e-001	 1.0471200496e+000	-3.9792390132e+000
 3.4714701551e-001	 1.0508119921e+000	-4.1152912690e+000
 3.3615416449e-001	 1.0543800331e+000	-4.2494797101e+000
 3.2515261867e-001	 1.0578244873e+000	-4.3818022234e+000
 4.4500790464e-001	 1.0423155283e+000	-2.8927680577e+000
 4.3389546624e-001	 1.0469901528e+000	-3.0124918999e+000
 4.2275753719e-001	 1.0515368161e+000	-3.1310637458e+000
 4.1159623372e-001	 1.0559555408e+000	-3.2483691107e+000
 4.0041366195e-001	 1.0602463938e+000	-3.3643173366e+000
 3.8921191680e-001	 1.0644094862e+000	-3.4788416155e+000
 3.7799308087e-001	 1.0684449726e+000	-3.5918989882e+000
 3.6675922341e-001	 1.0723530506e+000	-3.7034703170e+000
 3.5551239922e-001	 1.0761339599e+000	-3.8135602314e+000
 3.4425464771e-001	 1.0797879818e+000	-3.9221970447e+000
 3.3298799187e-001	 1.0833154388e+000	-4.0294326401e+000
 4.5547922759e-001	 1.0668418848e+000	-2.8283374685e+000
 4.4410530635e-001	 1.0716265062e+000	-2.9244076979e+000
 4.3270529465e-001	 1.0762801555e+000	-3.0192327029e+000
 4.2128135850e-001	 1.0808028555e+000	-3.1127485578e+000
 4.0983565361e-001	 1.0851946751e+000	-3.2049161537e+000
 3.9837032417e-001	 1.0894557277e+000	-3.2957212029e+000
 3.8688750181e-001	 1.0935861718e+000	-3.3851742206e+000
 3.7538930443e-001	 1.0975862094e+000	-3.4733104816e+000
 3.6387783522e-001	 1.1014560858e+000	-3.5601899503e+000
 3.5235518156e-001	 1.1051960893e+000	-3.6458971827e+000
 3.4082341404e-001	 1.1088065496e+000	-3.7305411981e+000
 4.6595059765e-001	 1.0913683516e+000	-2.7735924152e+000
 4.5431519240e-001	 1.0962629705e+000	-2.8492512054e+000
 4.4265309687e-001	 1.1010236061e+000	-2.9234955291e+000
 4.3096652687e-001	 1.1056502821e+000	-2.9963079176e+000
 4.1925768767e-001	 1.1101430686e+000	-3.0676977221e+000
 4.0752877276e-001	 1.1145020820e+000	-3.1377010953e+000
 3.9578196276e-001	 1.1187274841e+000	-3.2063809495e+000
 3.8401942429e-001	 1.1228194817e+000	-3.2738268901e+000
 3.7224330886e-001	 1.1267783258e+000	-3.3401551221e+000
 3.6045575185e-001	 1.1306043111e+000	-3.4055083272e+000
 3.4865887146e-001	 1.1342977751e+000	-3.4700555101e+000
 4.7642199651e-001	 1.1158948859e+000	-2.7169246018e+000
 4.6452510652e-001	 1.1208995025e+000	-2.7750222321e+000
 4.5260092644e-001	 1.1257671249e+000	-2.8315026609e+000
 4.4065172187e-001	 1.1304977770e+000	-2.8863907971e+000
 4.2867974763e-001	 1.1350915308e+000	-2.9397413377e+000
 4.1668724653e-001	 1.1395485051e+000	-2.9916387214e+000
 4.0467644817e-001	 1.1438688655e+000	-3.0421970593e+000
 3.9264956787e-001	 1.1480528233e+000	-3.0915600397e+000
 3.8060880550e-001	 1.1521006353e+000	-3.1399008032e+000
 3.6855634442e-001	 1.1560126028e+000	-3.1874217885e+000
 3.5649435043e-001	 1.1597890707e+000	-3.2343545428e+000
 4.8689340584e-001	 1.1404214447e+000	-2.6479655497e+000
 4.7473503085e-001	 1.1455360592e+000	-2.6909855588e+000
 4.6254876595e-001	 1.1505106683e+000	-2.7321907553e+000
 4.5033692655e-001	 1.1553452968e+000	-2.7716443460e+000
 4.3810181702e-001	 1.1600400179e+000	-2.8094432108e+000
 4.2584572945e-001	 1.1645949533e+000	-2.8457178268e+000
 4.1357094248e-001	 1.1690102721e+000	-2.8806321686e+000
 4.0127972008e-001	 1.1732861903e+000	-2.9143835794e+000
 3.8897431050e-001	 1.1774229702e+000	-2.9472026107e+000
 3.7665694509e-001	 1.1814209198e+000	-2.9793528291e+000
 3.6432983724e-001	 1.1852803918e+000	-3.0111305852e+000
 4.9736480731e-001	 1.1649479851e+000	-2.5574745674e+000
 4.8494494752e-001	 1.1701725973e+000	-2.5875560933e+000
 4.7249659800e-001	 1.1752541932e+000	-2.6156654573e+000
 4.6002212396e-001	 1.1801927979e+000	-2.6419000592e+000
 4.4752387933e-001	 1.1849884863e+000	-2.6663957294e+000
 4.3500420550e-001	 1.1896413827e+000	-2.6893266236e+000
 4.2246543011e-001	 1.1941516598e+000	-2.7109050902e+000
 4.0990986582e-001	 1.1985195382e+000	-2.7313815057e+000
 3.9733980923e-001	 1.2027452861e+000	-2.7510440754e+000
 3.8475753968e-001	 1.2068292178e+000	-2.7702185965e+000
 3.7216531816e-001	 1.2107716938e+000	-2.7892681799e+000
 2.9381188981e-001	 9.5586316651e-001	-6.6878417538e+000
 2.8386467101e-001	 9.5886426270e-001	-6.9384334814e+000
 2.7391311782e-001	 9.6175435779e-001	-7.1820692731e+000
 2.6395896607e-001	 9.6453383948e-001	-7.4186918478e+000
 2.5400393389e-001	 9.6720312906e-001	-7.6482618048e+000
 2.4404972108e-001	 9.6976268070e-001	-7.8707574124e+000
 2.3409800832e-001	 9.7221298076e-001	-8.0861743721e+000
 2.2415045650e-001	 9.7455454705e-001	-8.2945255583e+000
 2.1420870614e-001	 9.7678792810e-001	-8.4958407337e+000
 2.0427437664e-001	 9.7891370242e-001	-8.6901662399e+000
 1.9434906582e-001	 9.8093247774e-001	-8.8775646657e+000
 3.0164693001e-001	 9.8135303469e-001	-5.9357586770e+000
 2.9143445013e-001	 9.8443416069e-001	-6.1527181329e+000
 2.8121752028e-001	 9.8740132554e-001	-6.3634907178e+000
 2.7099792256e-001	 9.9025492727e-001	-6.5680449360e+000
 2.6077742095e-001	 9.9299539842e-001	-6.7663679089e+000
 2.5055776055e-001	 9.9562320526e-001	-6.9584651518e+000
 2.4034066687e-001	 9.9813884713e-001	-7.1443603252e+000
 2.3012784510e-001	 1.0005428556e+000	-7.3240949586e+000
 2.1992097947e-001	 1.0028357939e+000	-7.4977281489e+000
 2.0972173262e-001	 1.0050182560e+000	-7.6653362320e+000
 1.9953174493e-001	 1.0070908657e+000	-7.8270124295e+000
 3.0948207403e-001	 1.0068432406e+000	-5.3154931188e+000
 2.9900432955e-001	 1.0100043975e+000	-5.5009497913e+000
 2.8852201952e-001	 1.0130486331e+000	-5.6809162987e+000
 2.7803697233e-001	 1.0159763559e+000	-5.8553997524e+000
 2.6755099776e-001	 1.0187880095e+000	-6.0244265165e+000
 2.5706588626e-001	 1.0214840725e+000	-6.1880419631e+000
 2.4658340814e-001	 1.0240650570e+000	-6.3463101995e+000
 2.3610531289e-001	 1.0265315086e+000	-6.4993137672e+000
 2.2563332850e-001	 1.0288840049e+000	-6.6471533132e+000
 2.1516916078e-001	 1.0311231554e+000	-6.7899472337e+000
 2.0471449272e-001	 1.0332496003e+000	-6.9278312906e+000
 3.1731730815e-001	 1.0323337397e+000	-4.8043316171e+000
 3.0657429603e-001	 1.0355749283e+000	-4.9605084476e+000
 2.9582660277e-001	 1.0386962356e+000	-5.1118138402e+000
 2.8507610305e-001	 1.0416980803e+000	-5.2583055884e+000
 2.7432465247e-001	 1.0445809173e+000	-5.4000612859e+000
 2.6357408681e-001	 1.0473452371e+000	-5.5371780501e+000
 2.5282622120e-001	 1.0499915651e+000	-5.6697722163e+000
 2.4208284943e-001	 1.0525204604e+000	-5.7979790030e+000
 2.3134574322e-001	 1.0549325155e+000	-5.9219521483e+000
 2.2061665158e-001	 1.0572283551e+000	-6.0418635170e+000
 2.0989730011e-001	 1.0594086357e+000	-6.1579026790e+000
 3.2515261867e-001	 1.0578244873e+000	-4.3818022234e+000
 3.1414433632e-001	 1.0611457085e+000	-4.5109939925e+000
 3.0313125724e-001	 1.0643440882e+000	-4.6358494730e+000
 2.9211530239e-001	 1.0674200555e+000	-4.7564885209e+000
 2.8109837322e-001	 1.0703740765e+000	-4.8730512622e+000
 2.7008235081e-001	 1.0732066539e+000	-4.9856977760e+000
 2.5906909513e-001	 1.0759183259e+000	-5.0946077484e+000
 2.4806044425e-001	 1.0785096656e+000	-5.1999800961e+000
 2.3705821364e-001	 1.0809812800e+000	-5.3020325607e+000
 2.2606419549e-001	 1.0833338093e+000	-5.4010012721e+000
 2.1508015803e-001	 1.0855679261e+000	-5.4971402822e+000
 3.3298799187e-001	 1.0833154388e+000	-4.0294326401e+000
 3.2171443716e-001	 1.0867166932e+000	-4.1339866506e+000
 3.1043597014e-001	 1.0899921460e+000	-4.2346503502e+000
 2.9915455805e-001	 1.0931422364e+000	-4.3316163851e+000
 2.8787214816e-001	 1.0961674420e+000	-4.4250980737e+000
 2.7659066688e-001	 1.0990682775e+000	-4.5153290428e+000
 2.6531201900e-001	 1.1018452941e+000	-4.6025628337e+000
 2.5403808688e-001	 1.1044990787e+000	-4.6870724788e+000
 2.4277072976e-001	 1.1070302529e+000	-4.7691500462e+000
 2.3151178299e-001	 1.1094394723e+000	-4.8491061539e+000
 2.2026305741e-001	 1.1117274258e+000	-4.9272694537e+000
 3.4082341404e-001	 1.1088065496e+000	-3.7305411981e+000
 3.2928458532e-001	 1.1122878377e+000	-3.8128399593e+000
 3.1774072869e-001	 1.1156403640e+000	-3.8915996132e+000
 3.0619385771e-001	 1.1188645781e+000	-3.9670957069e+000
 2.9464596544e-001	 1.1219609688e+000	-4.0396248042e+000
 2.8309902363e-001	 1.1249300628e+000	-4.1095040684e+000
 2.7155498189e-001	 1.1277724244e+000	-4.1770708164e+000
 2.6001576688e-001	 1.1304886542e+000	-4.2426820414e+000
 2.4848328157e-001	 1.1330793886e+000	-4.3067139042e+000
 2.3695940452e-001	 1.1355452985e+000	-4.3695611933e+000
 2.2544598918e-001	 1.1378870890e+000	-4.4316367523e+000
 3.4865887146e-001	 1.1342977751e+000	-3.4700555101e+000
 3.3685476754e-001	 1.1378590973e+000	-3.5325011726e+000
 3.2504552012e-001	 1.1412886975e+000	-3.5916585362e+000
 3.1323318903e-001	 1.1445870356e+000	-3.6478955716e+000
 3.0141981319e-001	 1.1477546116e+000	-3.7016015612e+000
 2.8960740966e-001	 1.1507919644e+000	-3.7531866253e+000
 2.7779797287e-001	 1.1536996713e+000	-3.8030812189e+000
 2.6599347377e-001	 1.1564783467e+000	-3.8517355970e+000
 2.5419585909e-001	 1.1591286415e+000	-3.8996192487e+000
 2.4240705058e-001	 1.1616512422e+000	-3.9472202988e+000
 2.3062894428e-001	 1.1640468699e+000	-3.9950448762e+000
 3.5649435043e-001	 1.1597890707e+000	-3.2343545428e+000
 3.4442497057e-001	 1.1634304272e+000	-3.2793548735e+000
 3.3235033162e-001	 1.1669371014e+000	-3.3212116697e+000
 3.2027253972e-001	 1.1703095637e+000	-3.3603942834e+000
 3.0819367957e-001	 1.1735483253e+000	-3.3973936331e+000
 2.9611581358e-001	 1.1766539372e+000	-3.4327216697e+000
 2.8404098101e-001	 1.1796269895e+000	-3.4669108131e+000
 2.7197119710e-001	 1.1824681106e+000	-3.5005133579e+000
 2.5990845232e-001	 1.1851779660e+000	-3.5341008473e+000
 2.4785471161e-001	 1.1877572576e+000	-3.5682634135e+000
 2.3581191362e-001	 1.1902067228e+000	-3.6036090848e+000
 3.6432983724e-001	 1.1852803918e+000	-3.0111305852e+000
 3.5199518117e-001	 1.1890017827e+000	-3.0410863019e+000
 3.3965515044e-001	 1.1925855311e+000	-3.0679315214e+000
 3.2731189744e-001	 1.1960321176e+000	-3.0922453888e+000
 3.1496755272e-001	 1.1993420648e+000	-3.1146288372e+000
 3.0262422402e-001	 1.2025159358e+000	-3.1357039925e+000
 2.9028399540e-001	 1.2055543337e+000	-3.1561135479e+000
 2.7794892640e-001	 1.2084579005e+000	-3.1765201089e+000
 2.6562105126e-001	 1.2112273166e+000	-3.1976055047e+000
 2.5330237808e-001	 1.2138632991e+000	-3.2200700674e+000
 2.4099488815e-001	 1.2163666018e+000	-3.2446318750e+000
 3.7216531816e-001	 1.2107716938e+000	-2.7892681799e+000
 3.5956538610e-001	 1.2145731190e+000	-2.8065614930e+000
 3.4695996377e-001	 1.2182339414e+000	-2.8206598968e+000
 3.3435124988e-001	 1.2217546522e+000	-2.8322602084e+000
 3.2174142079e-001	 1.2251357850e+000	-2.8420812297e+000
 3.0913262957e-001	 1.2283779150e+000	-2.8508630893e+000
 2.9652700510e-001	 1.2314816584e+000	-2.8593665564e+000
 2.8392665122e-001	 1.2344476710e+000	-2.8683723238e+000
 2.7133364591e-001	 1.2372766476e+000	-2.8786802580e+000
 2.5875004047e-001	 1.2399693210e+000	-2.8911086154e+000
 2.4617785878e-001	 1.2425264611e+000	-2.9064932232e+000
 1.9434906582e-001	 9.8093247774e-001	-8.8775646657e+000
 1.8443583512e-001	 9.8284461142e-001	-9.0567081713e+000
 1.7453474535e-001	 9.8465107850e-001	-9.2263215995e+000
 1.6464732318e-001	 9.8635257014e-001	-9.3864883101e+000
 1.5477507159e-001	 9.8794980354e-001	-9.5373080698e+000
 1.4491946945e-001	 9.8944352116e-001	-9.6788966238e+000
 1.3508197105e-001	 9.9083448984e-001	-9.8113852474e+000
 1.2526400575e-001	 9.9212350004e-001	-9.9349202749e+000
 1.1546697758e-001	 9.9331136502e-001	-1.0049662611e+001
 1.0569226494e-001	 9.9439891999e-001	-1.0155787222e+001
 9.5941220239e-002	 9.9538702132e-001	-1.0253482613e+001
 1.9953174493e-001	 1.0070908657e+000	-7.8270124295e+000
 1.8935415951e-001	 1.0090539900e+000	-7.9814335618e+000
 1.7918903878e-001	 1.0109086299e+000	-8.1273345159e+000
 1.6903795012e-001	 1.0126554949e+000	-8.2648476282e+000
 1.5890243659e-001	 1.0142953215e+000	-8.3941195880e+000
 1.4878401649e-001	 1.0158288719e+000	-8.5153110142e+000
 1.3868418291e-001	 1.0172569334e+000	-8.6285960124e+000
 1.2860440331e-001	 1.0185803174e+000	-8.7341617118e+000
 1.1854611918e-001	 1.0197998590e+000	-8.8322077840e+000
 1.0851074566e-001	 1.0209164157e+000	-8.9229459440e+000
 9.8499671221e-002	 1.0219308666e+000	-9.0065994350e+000
 2.0471449272e-001	 1.0332496003e+000	-6.9278312906e+000
 1.9427254907e-001	 1.0352637158e+000	-7.0594241200e+000
 1.8384339388e-001	 1.0371665291e+000	-7.1834076261e+000
 1.7342863523e-001	 1.0389587683e+000	-7.2999737222e+000
 1.6302985627e-001	 1.0406411886e+000	-7.4093265671e+000
 1.5264861474e-001	 1.0422145723e+000	-7.5116821390e+000
 1.4228644250e-001	 1.0436797270e+000	-7.6072677882e+000
 1.3194484514e-001	 1.0450374853e+000	-7.6963217726e+000
 1.2162530158e-001	 1.0462887040e+000	-7.7790927755e+000
 1.1132926372e-001	 1.0474342627e+000	-7.8558394066e+000
 1.0105815610e-001	 1.0484750635e+000	-7.9268296877e+000
 2.0989730011e-001	 1.0594086357e+000	-6.1579026790e+000
 1.9919099519e-001	 1.0614737431e+000	-6.2685723867e+000
 1.8849780250e-001	 1.0634247304e+000	-6.3724437459e+000
 1.7781937083e-001	 1.0652623441e+000	-6.4697783228e+000
 1.6715732342e-001	 1.0669873587e+000	-6.5608477822e+000
 1.5651325743e-001	 1.0686005761e+000	-6.6459334471e+000
 1.4588874352e-001	 1.0701028245e+000	-6.7253258406e+000
 1.3528532538e-001	 1.0714949575e+000	-6.7993242109e+000
 1.2470451939e-001	 1.0727778536e+000	-6.8682360394e+000
 1.1414781419e-001	 1.0739524147e+000	-6.9323765338e+000
 1.0361667041e-001	 1.0750195657e+000	-6.9920681062e+000
 2.1508015803e-001	 1.0855679261e+000	-5.4971402822e+000
 2.0410948927e-001	 1.0876840259e+000	-5.5887833971e+000
 1.9315225650e-001	 1.0896831877e+000	-5.6743378004e+000
 1.8221014925e-001	 1.0915661763e+000	-5.7541443028e+000
 1.7128483081e-001	 1.0933337856e+000	-5.8285516370e+000
 1.6037793781e-001	 1.0949868371e+000	-5.8979159965e+000
 1.4949107966e-001	 1.0965261796e+000	-5.9626005578e+000
 1.3862583819e-001	 1.0979526877e+000	-6.0229749875e+000
 1.2778376722e-001	 1.0992672615e+000	-6.0794149331e+000
 1.1696639215e-001	 1.1004708253e+000	-6.1323015001e+000
 1.0617520966e-001	 1.1015643267e+000	-6.1820207153e+000
 2.2026305741e-001	 1.1117274258e+000	-4.9272694537e+000
 2.0902802269e-001	 1.1138945184e+000	-5.0017559290e+000
 1.9780674774e-001	 1.1159418550e+000	-5.0707599500e+000
 1.8660096279e-001	 1.1178702190e+000	-5.1347107098e+000
 1.7541237123e-001	 1.1196804233e+000	-5.1940431297e+000
 1.6424264910e-001	 1.1213733093e+000	-5.2491973704e+000
 1.5309344462e-001	 1.1229497461e+000	-5.3006183278e+000
 1.4196637773e-001	 1.1244106295e+000	-5.3487551148e+000
 1.3086303968e-001	 1.1257568813e+000	-5.3940605277e+000
 1.1978499265e-001	 1.1269894479e+000	-5.4369905008e+000
 1.0873376937e-001	 1.1281093001e+000	-5.4780035464e+000
 2.2544598918e-001	 1.1378870890e+000	-4.4316367523e+000
 2.1394658685e-001	 1.1401051746e+000	-4.4907936519e+000
 2.0246126806e-001	 1.1422006864e+000	-4.5449683809e+000
 1.9099180377e-001	 1.1441744261e+000	-4.5946872245e+000
 1.7953993743e-001	 1.1460272257e+000	-4.6404799980e+000
 1.6810738454e-001	 1.1477599464e+000	-4.6828795244e+000
 1.5669583209e-001	 1.1493734777e+000	-4.7224210974e+000
 1.4530693814e-001	 1.1508687367e+000	-4.7596419312e+000
 1.3394233139e-001	 1.1522466666e+000	-4.7950805973e+000
 1.2260361077e-001	 1.1535082364e+000	-4.8292764478e+000
 1.1129234508e-001	 1.1546544394e+000	-4.8627690278e+000
 2.3062894428e-001	 1.1640468699e+000	-3.9950448762e+000
 2.1886517314e-001	 1.1663159489e+000	-4.0406414760e+000
 2.0711580933e-001	 1.1684596360e+000	-4.0816470959e+000
 1.9538266450e-001	 1.1704787516e+000	-4.1186934156e+000
 1.8366752221e-001	 1.1723741466e+000	-4.1524134559e+000
 1.7197213737e-001	 1.1741467021e+000	-4.1834410169e+000
 1.6029823577e-001	 1.1757973282e+000	-4.2124101033e+000
 1.4864751358e-001	 1.1773269629e+000	-4.2399543362e+000
 1.3702163695e-001	 1.1787365711e+000	-4.2667063540e+000
 1.2542224157e-001	 1.1800271441e+000	-4.2932971998e+000
 1.1385093230e-001	 1.1811996981e+000	-4.3203556980e+000
 2.3581191362e-001	 1.1902067228e+000	-3.6036090848e+000
 2.2378377296e-001	 1.1925267952e+000	-3.6373432250e+000
 2.1177036340e-001	 1.1947186578e+000	-3.6667648609e+000
 1.9977353732e-001	 1.1967831493e+000	-3.6926189788e+000
 1.8779511834e-001	 1.1987211399e+000	-3.7156497394e+000
 1.7583690083e-001	 1.2005335305e+000	-3.7365998723e+000
 1.6390064935e-001	 1.2022212514e+000	-3.7562100584e+000
 1.5198809821e-001	 1.2037852618e+000	-3.7752183001e+000
 1.4010095098e-001	 1.2052265485e+000	-3.7943592800e+000
 1.2824088012e-001	 1.2065461248e+000	-3.8143637073e+000
 1.1640952656e-001	 1.2077450298e+000	-3.8359576539e+000
 2.4099488815e-001	 1.2163666018e+000	-3.2446318750e+000
 2.2870237769e-001	 1.2187376677e+000	-3.2681174231e+000
 2.1642492212e-001	 1.2209777059e+000	-3.2874521235e+000
 2.0416441451e-001	 1.2230875734e+000	-3.3035018027e+000
 1.9192271859e-001	 1.2250681596e+000	-3.3171293315e+000
 1.7970166815e-001	 1.2269203852e+000	-3.3291939721e+000
 1.6750306654e-001	 1.2286452010e+000	-3.3405507140e+000
 1.5532868618e-001	 1.2302435872e+000	-3.3520495983e+000
 1.4318026809e-001	 1.2317165523e+000	-3.3645350296e+000
 1.3105952148e-001	 1.2330651319e+000	-3.3788450774e+000
 1.1896812337e-001	 1.2342903880e+000	-3.3958107654e+000
 2.4617785878e-001	 1.2425264611e+000	-2.9064932232e+000
 2.3362097874e-001	 1.2449485205e+000	-2.9212485292e+000
 2.2107947735e-001	 1.2472367342e+000	-2.9318932554e+000
 2.0855528842e-001	 1.2493919777e+000	-2.9394212335e+000
 1.9605031575e-001	 1.2514151596e+000	-2.9448212594e+000
 1.8356643257e-001	 1.2533072201e+000	-2.9490763921e+000
 1.7110548102e-001	 1.2550691308e+000	-2.9531632392e+000
 1.5866927164e-001	 1.2567018928e+000	-2.9580512322e+000
 1.4625958289e-001	 1.2582065363e+000	-2.9647018887e+000
 1.3387816074e-001	 1.2595841192e+000	-2.9740680633e+000
 1.2152671826e-001	 1.2608357263e+000	-2.9870931867e+000
 9.5941220239e-002	 9.9538702132e-001	-1.0253482613e+001
 8.6213715910e-002	 9.9627667181e-001	-1.0343294354e+001
 7.6512533521e-002	 9.9706861257e-001	-1.0425606835e+001
 6.6838966101e-002	 9.9776375910e-001	-1.0500404525e+001
 5.7194279111e-002	 9.9836304482e-001	-1.0567653450e+001
 4.7579710273e-002	 9.9886742018e-001	-1.0627301790e+001
 3.7996469419e-002	 9.9927785191e-001	-1.0679280489e+001
 2.8445738363e-002	 9.9959532214e-001	-1.0723503853e+001
 1.8928670806e-002	 9.9982082766e-001	-1.0759870159e+001
 9.4463922618e-003	 9.9995537907e-001	-1.0788262257e+001
 0.0000000000e+000	 1.0000000000e+000	-1.0808548171e+001
 9.8499671221e-002	 1.0219308666e+000	-9.0065994350e+000
 8.8512764906e-002	 1.0228442412e+000	-9.0827254299e+000
 7.8552882455e-002	 1.0236573006e+000	-9.1507659099e+000
 6.8621351376e-002	 1.0243709845e+000	-9.2108062724e+000
 5.8719470879e-002	 1.0249862513e+000	-9.2629195224e+000
 4.8848511690e-002	 1.0255040767e+000	-9.3071665758e+000
 3.9009715904e-002	 1.0259254534e+000	-9.3435965618e+000
 2.9204296851e-002	 1.0262513896e+000	-9.3722471243e+000
 1.9433438997e-002	 1.0264829086e+000	-9.3931447231e+000
 9.6982978697e-003	 1.0266210481e+000	-9.4063049330e+000
 0.0000000000e+000	 1.0266668589e+000	-9.4117353758e+000
 1.0105815610e-001	 1.0484750635e+000	-7.9268296877e+000
 9.0811844365e-002	 1.0494121627e+000	-7.9909271617e+000
 8.0593258423e-002	 1.0502463409e+000	-8.0469174122e+000
 7.0403760268e-002	 1.0509785624e+000	-8.0949828529e+000
 6.0244682856e-002	 1.0516098105e+000	-8.1352978005e+000
 5.0117329919e-002	 1.0521410862e+000	-8.1680285304e+000
 4.0022975815e-002	 1.0525734079e+000	-8.1933333313e+000
 2.9962865390e-002	 1.0529078102e+000	-8.2113625572e+000
 1.9938213876e-002	 1.0531453428e+000	-8.2222586774e+000
 9.9502068155e-003	 1.0532870704e+000	-8.2261563256e+000
 0.0000000000e+000	 1.0533340711e+000	-8.2231848654e+000
 1.0361667041e-001	 1.0750195657e+000	-6.9920681062e+000
 9.3110950263e-002	 1.0759803897e+000	-7.0457078057e+000
 8.2633657856e-002	 1.0768356869e+000	-7.0916440287e+000
 7.2186189658e-002	 1.0775864463e+000	-7.1301531947e+000
 6.1769912372e-002	 1.0782336758e+000	-7.1615062655e+000
 5.1386162739e-002	 1.0787784020e+000	-7.1859686038e+000
 4.1036247378e-002	 1.0792216689e+000	-7.2037998282e+000
 3.0721442652e-002	 1.0795645373e+000	-7.2152536662e+000
 2.0442994561e-002	 1.0798080836e+000	-7.2205778046e+000
 1.0202118658e-002	 1.0799533994e+000	-7.2200137395e+000
 0.0000000000e+000	 1.0800015900e+000	-7.2137989057e+000
 1.0617520966e-001	 1.1015643267e+000	-6.1820207153e+000
 9.5410078577e-002	 1.1025488757e+000	-6.2266691540e+000
 8.4674077182e-002	 1.1034252923e+000	-6.2643168800e+000
 7.3968636427e-002	 1.1041945896e+000	-6.2953321266e+000
 6.3295156760e-002	 1.1048578008e+000	-6.3200787476e+000
 5.2655007930e-002	 1.1054159776e+000	-6.3389159239e+000
 4.2049528821e-002	 1.1058701898e+000	-6.3521978676e+000
 3.1480027311e-002	 1.1062215244e+000	-6.3602735225e+000
 2.0947780166e-002	 1.1064710844e+000	-6.3634862635e+000
 1.0454032957e-002	 1.1066199883e+000	-6.3621735954e+000
 0.0000000000e+000	 1.1066693690e+000	-6.3566688099e+000
 1.0873376937e-001	 1.1281093001e+000	-5.4780035464e+000
 9.7709225283e-002	 1.1291175742e+000	-5.5150064175e+000
 8.6714512831e-002	 1.1300151103e+000	-5.5458950302e+000
 7.5751097454e-002	 1.1308029458e+000	-5.5711279852e+000
 6.4820413349e-002	 1.1314821387e+000	-5.5911591071e+000
 5.3923863272e-002	 1.1320537662e+000	-5.6064370442e+000
 4.3062818369e-002	 1.1325189238e+000	-5.6174048650e+000
 3.2238618038e-002	 1.1328787247e+000	-5.6244996524e+000
 2.1452569810e-002	 1.1331342985e+000	-5.6281520975e+000
 1.0705949271e-002	 1.1332867906e+000	-5.6287860929e+000
 0.0000000000e+000	 1.1333373612e+000	-5.6268199148e+000
 1.1129234508e-001	 1.1546544394e+000	-4.8627690278e+000
 1.0000838636e-001	 1.1556864388e+000	-4.8933356373e+000
 8.8754961232e-002	 1.1566050945e+000	-4.9187525906e+000
 7.7533569621e-002	 1.1574114683e+000	-4.9395680894e+000
 6.6345679470e-002	 1.1581066431e+000	-4.9563237691e+000
 5.5192726543e-002	 1.1586917213e+000	-4.9695542338e+000
 4.4076114251e-002	 1.1591678243e+000	-4.9797865884e+000
 3.2997213506e-002	 1.1595360916e+000	-4.9875399699e+000
 2.1957362609e-002	 1.1597976792e+000	-4.9933250778e+000
 1.0957867160e-002	 1.1599537596e+000	-4.9976437061e+000
 0.0000000000e+000	 1.1600055201e+000	-5.0009894817e+000
 1.1385093230e-001	 1.1811996981e+000	-4.3203556980e+000
 1.0230755778e-001	 1.1822554230e+000	-4.3455442955e+000
 9.0795418814e-002	 1.1831951983e+000	-4.3665290787e+000
 7.9316049809e-002	 1.1840201105e+000	-4.3839477034e+000
 6.7870952455e-002	 1.1847312672e+000	-4.3984281520e+000
 5.6461595524e-002	 1.1853297962e+000	-4.4105882435e+000
 4.5089414691e-002	 1.1858168448e+000	-4.4210351423e+000
 3.3755812387e-002	 1.1861935784e+000	-4.4303648666e+000
 2.2462157679e-002	 1.1864611799e+000	-4.4391617982e+000
 1.1209786182e-002	 1.1866208486e+000	-4.4479981937e+000
 0.0000000000e+000	 1.1866737990e+000	-4.4574345418e+000
 1.1640952656e-001	 1.2077450298e+000	-3.8359576539e+000
 1.0460673552e-001	 1.2088244802e+000	-3.8566615590e+000
 9.2835882007e-002	 1.2097853753e+000	-3.8739994557e+000
 8.1098534898e-002	 1.2106288259e+000	-3.8886988737e+000
 6.9396229633e-002	 1.2113559645e+000	-3.9014733163e+000
 5.7730467994e-002	 1.2119679444e+000	-3.9130217844e+000
 4.6102717918e-002	 1.2124659385e+000	-3.9240283008e+000
 3.4514413354e-002	 1.2128511386e+000	-3.9351614350e+000
 2.2966954137e-002	 1.2131247539e+000	-3.9470738313e+000
 1.1461705896e-002	 1.2132880108e+000	-3.9604017399e+000
 0.0000000000e+000	 1.2133421513e+000	-3.9757650806e+000
 1.1896812337e-001	 1.2342903880e+000	-3.3958107654e+000
 1.0690591556e-001	 1.2353935640e+000	-3.4127452006e+000
 9.4876347240e-002	 1.2363755789e+000	-3.4269608827e+000
 8.2881021769e-002	 1.2372375679e+000	-3.4392761522e+000
 7.0921508337e-002	 1.2379806885e+000	-3.4504897919e+000
 5.8999341732e-002	 1.2386061193e+000	-3.4613806029e+000
 4.7116022158e-002	 1.2391150589e+000	-3.4727069808e+000
 3.5273015080e-002	 1.2395087254e+000	-3.4852064958e+000
 2.3471751099e-002	 1.2397883546e+000	-3.4995954755e+000
 1.1713625863e-002	 1.2399551998e+000	-3.5165685936e+000
 0.0000000000e+000	 1.2400105302e+000	-3.5367987489e+000
 1.2152671826e-001	 1.2608357263e+000	-2.9870931867e+000
 1.0920509388e-001	 1.2619626278e+000	-3.0007827416e+000
 9.6916810941e-002	 1.2629657625e+000	-3.0121337311e+000
 8.4663507302e-002	 1.2638462899e+000	-3.0220567151e+000
 7.2446785896e-002	 1.2646053925e+000	-3.0314360514e+000
 6.0268214518e-002	 1.2652442741e+000	-3.0411295585e+000
 4.8129325638e-002	 1.2657641593e+000	-3.0519681811e+000
 3.6031616237e-002	 1.2661662922e+000	-3.0647556601e+000
 2.3976547683e-002	 1.2664519353e+000	-3.0802682078e+000
 1.1965545641e-002	 1.2666223687e+000	-3.0992541886e+000
 0.0000000000e+000	 1.2666788891e+000	-3.1224339302e+000
 1.2666788891e+000	 0.0000000000e+000	 3.6642864246e+000
 1.2666223687e+000	 1.1965545641e-002	 3.6540724469e+000
 1.2664519353e+000	 2.3976547683e-002	 3.6437920532e+000
 1.2661662922e+000	 3.6031616237e-002	 3.6331531234e+000
 1.2657641593e+000	 4.8129325638e-002	 3.6218653983e+000
 1.2652442741e+000	 6.0268214518e-002	 3.6096405110e+000
 1.2646053925e+000	 7.2446785896e-002	 3.5961919691e+000
 1.2638462899e+000	 8.4663507302e-002	 3.5812350774e+000
 1.2629657625e+000	 9.6916810941e-002	 3.5644868000e+000
 1.2619626278e+000	 1.0920509388e-001	 3.5456655623e+000
 1.2608357263e+000	 1.2152671826e-001	 3.5244909926e+000
 1.2933431901e+000	 0.0000000000e+000	 3.6667590028e+000
 1.2932854800e+000	 1.2217427086e-002	 3.6564346135e+000
 1.2931114588e+000	 2.4481267458e-002	 3.6457673304e+000
 1.2928198028e+000	 3.6790101965e-002	 3.6344553176e+000
 1.2924092048e+000	 4.9142474935e-002	 3.6221989373e+000
 1.2918783757e+000	 6.1536894235e-002	 3.6087007501e+000
 1.2912260453e+000	 7.3971831370e-002	 3.5936654515e+000
 1.2904509632e+000	 8.6445721615e-002	 3.5767997402e+000
 1.2895519001e+000	 9.8956964168e-002	 3.5578121184e+000
 1.2885276489e+000	 1.1150392235e-001	 3.5364126221e+000
 1.2873770255e+000	 1.2408492384e-001	 3.5123124832e+000
 1.3200074312e+000	 0.0000000000e+000	 3.6745948406e+000
 1.3199485313e+000	 1.2469307965e-002	 3.6672806830e+000
 1.3197709224e+000	 2.4985986097e-002	 3.6591937482e+000
 1.3194732534e+000	 3.7548585987e-002	 3.6500093197e+000
 1.3190541903e+000	 5.0155621952e-002	 3.6394057217e+000
 1.3185124174e+000	 6.2805571096e-002	 3.6270643096e+000
 1.3178466382e+000	 7.5496873414e-002	 3.6126693840e+000
 1.3170555766e+000	 8.8227931917e-002	 3.5959080287e+000
 1.3161379780e+000	 1.0099711281e-001	 3.5764698697e+000
 1.3150926103e+000	 1.1380274566e-001	 3.5540467562e+000
 1.3139182650e+000	 1.2664312367e-001	 3.5283323631e+000
 1.3466716190e+000	 0.0000000000e+000	 3.6836198230e+000
 1.3466115292e+000	 1.2721188341e-002	 3.6818134311e+000
 1.3464303327e+000	 2.5490703727e-002	 3.6787024441e+000
 1.3461266508e+000	 3.8307068493e-002	 3.6739475081e+000
 1.3456991226e+000	 5.1168766943e-002	 3.6672097403e+000
 1.3451464058e+000	 6.4074245421e-002	 3.6581499661e+000
 1.3444671778e+000	 7.7021912407e-002	 3.6464280289e+000
 1.3436601368e+000	 9.0010138656e-002	 3.6317021750e+000
 1.3427240027e+000	 1.0303725736e-001	 3.6136285132e+000
 1.3416575185e+000	 1.1610156436e-001	 3.5918605505e+000
 1.3404594514e+000	 1.2920131837e-001	 3.5660488037e+000
 1.3733357600e+000	 0.0000000000e+000	 3.6954980964e+000
 1.3732744805e+000	 1.2973068276e-002	 3.6987225614e+000
 1.3730896963e+000	 2.5995420473e-002	 3.7001807547e+000
 1.3727800015e+000	 3.9065549671e-002	 3.6995304053e+000
 1.3723440082e+000	 5.2181910162e-002	 3.6964261034e+000
 1.3717803477e+000	 6.5342917526e-002	 3.6905185219e+000
 1.3710876709e+000	 7.8546948732e-002	 3.6814537325e+000
 1.3702646504e+000	 9.1792342276e-002	 3.6688726174e+000
 1.3693099808e+000	 1.0507739835e-001	 3.6524103788e+000
 1.3682223803e+000	 1.1840037905e-001	 3.6316961453e+000
 1.3670005914e+000	 1.3175950861e-001	 3.6063526752e+000
 1.3999998611e+000	 0.0000000000e+000	 3.7098365069e+000
 1.3999373918e+000	 1.3224947833e-002	 3.7167527644e+000
 1.3997490199e+000	 2.6500136463e-002	 3.7215655722e+000
 1.3994333122e+000	 3.9824029712e-002	 3.7239206318e+000
 1.3989888539e+000	 5.3195051861e-002	 3.7234565420e+000
 1.3984142495e+000	 6.6611587728e-002	 3.7198040335e+000
 1.3977081241e+000	 8.0071982770e-002	 3.7125853243e+000
 1.3968691242e+000	 9.3574543223e-002	 3.7014135954e+000
 1.3958959191e+000	 1.0711753628e-001	 3.6858925878e+000
 1.3947872022e+000	 1.2069919028e-001	 3.6656163225e+000
 1.3935416916e+000	 1.3431769500e-001	 3.6401689405e+000
 1.4266639289e+000	 0.0000000000e+000	 3.7257405477e+000
 1.4266002698e+000	 1.3476827075e-002	 3.7345972792e+000
 1.4264083102e+000	 2.7004851823e-002	 3.7411772481e+000
 1.4260865896e+000	 4.0582508805e-002	 3.7451053355e+000
 1.4256336662e+000	 5.4208192294e-002	 3.7459949404e+000
 1.4250481181e+000	 6.7880256345e-002	 3.7434472601e+000
 1.4243285440e+000	 8.1597014902e-002	 3.7370507185e+000
 1.4234735646e+000	 9.5356741943e-002	 3.7263805426e+000
 1.4224818242e+000	 1.0915767165e-001	 3.7109984898e+000
 1.4213519908e+000	 1.2299799864e-001	 3.6904527234e+000
 1.4200827586e+000	 1.3687587820e-001	 3.6642778379e+000
 1.4533279700e+000	 0.0000000000e+000	 3.7425058011e+000
 1.4532631212e+000	 1.3728706065e-002	 3.7511527235e+000
 1.4530675738e+000	 2.7509566677e-002	 3.7575521962e+000
 1.4527398403e+000	 4.1340987140e-002	 3.7612997116e+000
 1.4522784520e+000	 5.5221331714e-002	 3.7619744251e+000
 1.4516819601e+000	 6.9148923693e-002	 3.7591385127e+000
 1.4509489372e+000	 8.3122045509e-002	 3.7523367085e+000
 1.4500779785e+000	 9.7138938881e-002	 3.7410960215e+000
 1.4490677026e+000	 1.1119780499e-001	 3.7249256349e+000
 1.4479167530e+000	 1.2529680471e-001	 3.7033169852e+000
 1.4466237990e+000	 1.3943405884e-001	 3.6757440203e+000
 1.4799919911e+000	 0.0000000000e+000	 3.7596008192e+000
 1.4799259525e+000	 1.3980584867e-002	 3.7655005132e+000
 1.4797268175e+000	 2.8014281154e-002	 3.7694229859e+000
 1.4793930711e+000	 4.2099464907e-002	 3.7709259093e+000
 1.4789232177e+000	 5.6234470375e-002	 3.7695452244e+000
 1.4783157820e+000	 7.0417590090e-002	 3.7647946094e+000
 1.4775693105e+000	 8.4647074973e-002	 3.7561651632e+000
 1.4766823725e+000	 9.8921134482e-002	 3.7431253051e+000
 1.4756535611e+000	 1.1323793680e-001	 3.7251208900e+000
 1.4744814952e+000	 1.2759560905e-001	 3.7015755400e+000
 1.4731648196e+000	 1.4199223756e-001	 3.6718911885e+000
 1.5066559989e+000	 0.0000000000e+000	 3.7766518225e+000
 1.5065887705e+000	 1.4232463543e-002	 3.7768902551e+000
 1.5063860478e+000	 2.8518995379e-002	 3.7757005510e+000
 1.5060462885e+000	 4.2857942294e-002	 3.7725941802e+000
 1.5055679701e+000	 5.7247608530e-002	 3.7670548823e+000
 1.5049495907e+000	 7.1686255854e-002	 3.7585382809e+000
 1.5041896705e+000	 8.6172103675e-002	 3.7464717530e+000
 1.5032867531e+000	 1.0070332919e-001	 3.7302545535e+000
 1.5022394064e+000	 1.1527806759e-001	 3.7092581959e+000
 1.5010462241e+000	 1.2989441224e-001	 3.6828270867e+000
 1.4997058268e+000	 1.4455041500e-001	 3.6502794103e+000
 1.5333200000e+000	 0.0000000000e+000	 3.7934289964e+000
 1.5332515818e+000	 1.4484342157e-002	 3.7847248734e+000
 1.5330452715e+000	 2.9023709478e-002	 3.7754582565e+000
 1.5326994993e+000	 4.3616419493e-002	 3.7650859959e+000
 1.5322127159e+000	 5.8260746432e-002	 3.7530305391e+000
 1.5315833927e+000	 7.2954921301e-002	 3.7386797284e+000
 1.5308100238e+000	 8.7697131996e-002	 3.7213868977e+000
 1.5298911271e+000	 1.0248552346e-001	 3.7004712688e+000
 1.5288252450e+000	 1.1731819787e-001	 3.6752186463e+000
 1.5276109464e+000	 1.3219321486e-001	 3.6448824100e+000
 1.5262468275e+000	 1.4710859180e-001	 3.6086847993e+000
 1.2608357263e+000	 1.2152671826e-001	 3.5244909926e+000
 1.2595841192e+000	 1.3387816074e-001	 3.5019094910e+000
 1.2582065363e+000	 1.4625958289e-001	 3.4788450132e+000
 1.2567018928e+000	 1.5866927164e-001	 3.4549974135e+000
 1.2550691308e+000	 1.7110548102e-001	 3.4300704462e+000
 1.2533072201e+000	 1.8356643257e-001	 3.4037714700e+000
 1.2514151596e+000	 1.9605031575e-001	 3.3758111010e+000
 1.2493919777e+000	 2.0855528842e-001	 3.3459028196e+000
 1.2472367342e+000	 2.2107947735e-001	 3.3137625325e+000
 1.2449485205e+000	 2.3362097874e-001	 3.2791080953e+000
 1.2425264611e+000	 2.4617785878e-001	 3.2416587987e+000
 1.2873770255e+000	 1.2408492384e-001	 3.5123124832e+000
 1.2860990714e+000	 1.3669637111e-001	 3.4866149619e+000
 1.2846924896e+000	 1.4933842914e-001	 3.4603885067e+000
 1.2831561725e+000	 1.6200934880e-001	 3.4333079407e+000
 1.2814890399e+000	 1.7470734737e-001	 3.4050527184e+000
 1.2796900401e+000	 1.8743060893e-001	 3.3753065750e+000
 1.2777581506e+000	 2.0017728485e-001	 3.3437571181e+000
 1.2756923796e+000	 2.1294549421e-001	 3.3100953674e+000
 1.2734917670e+000	 2.2573332434e-001	 3.2740152422e+000
 1.2711553851e+000	 2.3853883137e-001	 3.2352130054e+000
 1.2686823400e+000	 2.5136004078e-001	 3.1933866655e+000
 1.3139182650e+000	 1.2664312367e-001	 3.5283323631e+000
 1.3126139639e+000	 1.3951457514e-001	 3.5006108264e+000
 1.3111783833e+000	 1.5241726847e-001	 3.4721284796e+000
 1.3096103927e+000	 1.6534941845e-001	 3.4425403777e+000
 1.3079088896e+000	 1.7830920561e-001	 3.4115074696e+000
 1.3060728006e+000	 1.9129477660e-001	 3.3786961842e+000
 1.3041010823e+000	 2.0430424467e-001	 3.3437779512e+000
 1.3019927223e+000	 2.1733569013e-001	 3.3064286605e+000
 1.2997467407e+000	 2.3038716087e-001	 3.2663280641e+000
 1.2973621908e+000	 2.4345667294e-001	 3.2231591261e+000
 1.2948381601e+000	 2.5654221113e-001	 3.1766073251e+000
 1.3404594514e+000	 1.2920131837e-001	 3.5660488037e+000
 1.3391288034e+000	 1.4233277354e-001	 3.5376513620e+000
 1.3376642240e+000	 1.5549610164e-001	 3.5080889458e+000
 1.3360645600e+000	 1.6868948142e-001	 3.4769685298e+000
 1.3343286865e+000	 1.8191105664e-001	 3.4439004688e+000
 1.3324555085e+000	 1.9515893654e-001	 3.4085124839e+000
 1.3304439613e+000	 2.0843119624e-001	 3.3705429077e+000
 1.3282930124e+000	 2.2172587726e-001	 3.3296795217e+000
 1.3260016620e+000	 2.3504098809e-001	 3.2855958968e+000
 1.3235689440e+000	 2.4837450467e-001	 3.2379701533e+000
 1.3209939278e+000	 2.6172437110e-001	 3.1864841470e+000
 1.3670005914e+000	 1.3175950861e-001	 3.6063526752e+000
 1.3656435965e+000	 1.4515096700e-001	 3.5780448354e+000
 1.3641500184e+000	 1.5857492942e-001	 3.5484092887e+000
 1.3625186809e+000	 1.7202953854e-001	 3.5170347156e+000
 1.3607484371e+000	 1.8551290138e-001	 3.4835109946e+000
 1.3588381701e+000	 1.9902308972e-001	 3.4474297056e+000
 1.3567867943e+000	 2.1255814058e-001	 3.4083847023e+000
 1.3545932565e+000	 2.2611605672e-001	 3.3659727435e+000
 1.3522565372e+000	 2.3969480716e-001	 3.3197941745e+000
 1.3497756514e+000	 2.5329232780e-001	 3.2694536472e+000
 1.3471496498e+000	 2.6690652201e-001	 3.2145608675e+000
 1.3935416916e+000	 1.3431769500e-001	 3.6401689405e+000
 1.3921583499e+000	 1.4796915623e-001	 3.6114200746e+000
 1.3906357731e+000	 1.6165375258e-001	 3.5812269995e+000
 1.3889727622e+000	 1.7536959065e-001	 3.5491593605e+000
 1.3871681481e+000	 1.8911474071e-001	 3.5147857331e+000
 1.3852207922e+000	 2.0288723710e-001	 3.4776743445e+000
 1.3831295877e+000	 2.1668507874e-001	 3.4373938807e+000
 1.3808934612e+000	 2.3050622959e-001	 3.3935143675e+000
 1.3785113731e+000	 2.4434861925e-001	 3.3456081140e+000
 1.3759823195e+000	 2.5821014355e-001	 3.2932507067e+000
 1.3733053326e+000	 2.7208866515e-001	 3.2360220395e+000
 1.4200827586e+000	 1.3687587820e-001	 3.6642778379e+000
 1.4186730700e+000	 1.5078734195e-001	 3.6345393358e+000
 1.4171214946e+000	 1.6473257189e-001	 3.6033124173e+000
 1.4154268105e+000	 1.7870963858e-001	 3.5701461245e+000
 1.4135878261e+000	 1.9271657554e-001	 3.5345860414e+000
 1.4116033813e+000	 2.0675137966e-001	 3.4961752731e+000
 1.4094723482e+000	 2.2081201173e-001	 3.4544555278e+000
 1.4071936330e+000	 2.3489639697e-001	 3.4089682890e+000
 1.4047661762e+000	 2.4900242552e-001	 3.3592560653e+000
 1.4021889548e+000	 2.6312795315e-001	 3.3048637014e+000
 1.3994609826e+000	 2.7727080181e-001	 3.2453397357e+000
 1.4466237990e+000	 1.3943405884e-001	 3.6757440203e+000
 1.4451877637e+000	 1.5360552484e-001	 3.6444527276e+000
 1.4436071897e+000	 1.6781138813e-001	 3.6117266188e+000
 1.4418808323e+000	 1.8204968318e-001	 3.5770916833e+000
 1.4400074777e+000	 1.9631840676e-001	 3.5400679101e+000
 1.4379859440e+000	 2.1061551834e-001	 3.5001705661e+000
 1.4358150824e+000	 2.2493894060e-001	 3.4569115986e+000
 1.4334937784e+000	 2.3928655996e-001	 3.4098011454e+000
 1.4310209530e+000	 2.5365622715e-001	 3.3583491372e+000
 1.4283955639e+000	 2.6804575784e-001	 3.3020669751e+000
 1.4256166065e+000	 2.8245293328e-001	 3.2404692647e+000
 1.4731648196e+000	 1.4199223756e-001	 3.6718911885e+000
 1.4717024375e+000	 1.5642370563e-001	 3.6384727865e+000
 1.4700928649e+000	 1.7089020205e-001	 3.6037959973e+000
 1.4683348342e+000	 1.8538972527e-001	 3.5673603709e+000
 1.4664271094e+000	 1.9992023529e-001	 3.5286567244e+000
 1.4643684869e+000	 2.1447965413e-001	 3.4871687688e+000
 1.4621577968e+000	 2.2906586638e-001	 3.4423748801e+000
 1.4597939042e+000	 2.4367671966e-001	 3.3937499974e+000
 1.4572757102e+000	 2.5831002528e-001	 3.3407676315e+000
 1.4546021534e+000	 2.7296355883e-001	 3.2829019616e+000
 1.4517722108e+000	 2.8763506087e-001	 3.2196300000e+000
 1.4997058268e+000	 1.4455041500e-001	 3.6502794103e+000
 1.4982170980e+000	 1.5924188500e-001	 3.6141517387e+000
 1.4965785268e+000	 1.7396901444e-001	 3.5770895210e+000
 1.4947888229e+000	 1.8872976570e-001	 3.5385614830e+000
 1.4928467280e+000	 2.0352206201e-001	 3.4980246626e+000
 1.4907510167e+000	 2.1834378799e-001	 3.4549264360e+000
 1.4885004981e+000	 2.3319279009e-001	 3.4087067110e+000
 1.4860940168e+000	 2.4806687716e-001	 3.3588002706e+000
 1.4835304542e+000	 2.6296382108e-001	 3.3046392428e+000
 1.4808087297e+000	 2.7788135737e-001	 3.2456556768e+000
 1.4779278020e+000	 2.9281718587e-001	 3.1812841967e+000
 1.5262468275e+000	 1.4710859180e-001	 3.6086847993e+000
 1.5247317519e+000	 1.6206006367e-001	 3.5692611213e+000
 1.5230641822e+000	 1.7704782606e-001	 3.5293983423e+000
 1.5212428050e+000	 1.9206980528e-001	 3.4885289196e+000
 1.5192663399e+000	 2.0712388784e-001	 3.4460704111e+000
 1.5171335398e+000	 2.2220792089e-001	 3.4014279569e+000
 1.5148431927e+000	 2.3731971277e-001	 3.3539969543e+000
 1.5123941228e+000	 2.5245703357e-001	 3.3031659066e+000
 1.5097851916e+000	 2.6761761573e-001	 3.2483194190e+000
 1.5070152995e+000	 2.8279915468e-001	 3.1888413157e+000
 1.5040833867e+000	 2.9799930958e-001	 3.1241178493e+000
 1.2425264611e+000	 2.4617785878e-001	 3.2416587987e+000
 1.2399693210e+000	 2.5875004047e-001	 3.2024367987e+000
 1.2372766476e+000	 2.7133364591e-001	 3.1625212865e+000
 1.2344476710e+000	 2.8392665122e-001	 3.1217042334e+000
 1.2314816584e+000	 2.9652700510e-001	 3.0797823460e+000
 1.2283779150e+000	 3.0913262957e-001	 3.0365564719e+000
 1.2251357850e+000	 3.2174142079e-001	 2.9918309948e+000
 1.2217546522e+000	 3.3435124988e-001	 2.9454132256e+000
 1.2182339414e+000	 3.4695996377e-001	 2.8971127960e+000
 1.2145731190e+000	 3.5956538610e-001	 2.8467410627e+000
 1.2107716938e+000	 3.7216531816e-001	 2.7941105294e+000
 1.2686823400e+000	 2.5136004078e-001	 3.1933866655e+000
 1.2660713707e+000	 2.6419687395e-001	 3.1496930120e+000
 1.2633220150e+000	 2.7704537134e-001	 3.1053512758e+000
 1.2604334868e+000	 2.8990346648e-001	 3.0601386799e+000
 1.2574050380e+000	 3.0276906487e-001	 3.0138374606e+000
 1.2542359591e+000	 3.1564004480e-001	 2.9662341719e+000
 1.2509255804e+000	 3.2851425815e-001	 2.9171189773e+000
 1.2474732729e+000	 3.4138953122e-001	 2.8662849373e+000
 1.2438784492e+000	 3.5426366561e-001	 2.8135273010e+000
 1.2401405644e+000	 3.6713443915e-001	 2.7586428091e+000
 1.2362591171e+000	 3.7999960685e-001	 2.7014290181e+000
 1.2948381601e+000	 2.5654221113e-001	 3.1766073251e+000
 1.2921733617e+000	 2.6964369517e-001	 3.1279786620e+000
 1.2893673238e+000	 2.8275708392e-001	 3.0786490258e+000
 1.2864192442e+000	 2.9588026828e-001	 3.0283930600e+000
 1.2833283593e+000	 3.0901111059e-001	 2.9769909556e+000
 1.2800939450e+000	 3.2214744540e-001	 2.9242276250e+000
 1.2767153178e+000	 3.3528708028e-001	 2.8698918622e+000
 1.2731918357e+000	 3.4842779672e-001	 2.8137754979e+000
 1.2695228992e+000	 3.6156735101e-001	 2.7556725579e+000
 1.2657079522e+000	 3.7470347516e-001	 2.6953784354e+000
 1.2617464830e+000	 3.8783387790e-001	 2.6326890861e+000
 1.3209939278e+000	 2.6172437110e-001	 3.1864841470e+000
 1.3182753004e+000	 2.7509050550e-001	 3.1326042076e+000
 1.3154125805e+000	 2.8846878507e-001	 3.0778758813e+000
 1.3124049496e+000	 3.0185705814e-001	 3.0220833757e+000
 1.3092516287e+000	 3.1525314384e-001	 2.9650172266e+000
 1.3059518792e+000	 3.2865483298e-001	 2.9064733125e+000
 1.3025050036e+000	 3.4205988886e-001	 2.8462518534e+000
 1.2989103471e+000	 3.5546604815e-001	 2.7841564015e+000
 1.2951672980e+000	 3.6887102181e-001	 2.7199928362e+000
 1.2912752890e+000	 3.8227249605e-001	 2.6535683729e+000
 1.2872337979e+000	 3.9566813330e-001	 2.5846905966e+000
 1.3471496498e+000	 2.6690652201e-001	 3.2145608675e+000
 1.3443771935e+000	 2.8053730629e-001	 3.1566744560e+000
 1.3414577916e+000	 2.9418047623e-001	 3.0974460749e+000
 1.3383906095e+000	 3.0783383753e-001	 3.0366137456e+000
 1.3351748528e+000	 3.2149516616e-001	 2.9739297697e+000
 1.3318097681e+000	 3.3516220917e-001	 2.9092061209e+000
 1.3282946443e+000	 3.4883268559e-001	 2.8425867768e+000
 1.3246288135e+000	 3.6250428726e-001	 2.7739717941e+000
 1.3208116519e+000	 3.7617467983e-001	 2.7031919557e+000
 1.3168425809e+000	 3.8984150368e-001	 2.6300794258e+000
 1.3127210682e+000	 4.0350237498e-001	 2.5544665891e+000
 1.3733053326e+000	 2.7208866515e-001	 3.2360220395e+000
 1.3704790474e+000	 2.8598409892e-001	 3.1756076041e+000
 1.3675029637e+000	 2.9989215883e-001	 3.1137958171e+000
 1.3643762305e+000	 3.1381060796e-001	 3.0503082471e+000
 1.3610980380e+000	 3.2773717911e-001	 2.9848810222e+000
 1.3576676183e+000	 3.4166957560e-001	 2.9172657422e+000
 1.3540842463e+000	 3.5560547216e-001	 2.8472303173e+000
 1.3503472413e+000	 3.6954251581e-001	 2.7745597128e+000
 1.3464559673e+000	 3.8347832689e-001	 2.6990565828e+000
 1.3424098346e+000	 3.9741049996e-001	 2.6205417753e+000
 1.3382083003e+000	 4.1133660491e-001	 2.5388546912e+000
 1.3994609826e+000	 2.7727080181e-001	 3.2453397357e+000
 1.3965808687e+000	 2.9143088474e-001	 3.1824877093e+000
 1.3935481032e+000	 3.0560383428e-001	 3.1182252947e+000
 1.3903618190e+000	 3.1978737092e-001	 3.0522583358e+000
 1.3870211908e+000	 3.3397918427e-001	 2.9843077146e+000
 1.3835254361e+000	 3.4817693390e-001	 2.9141105645e+000
 1.3798738161e+000	 3.6237825026e-001	 2.8414214011e+000
 1.3760656369e+000	 3.7658073557e-001	 2.7660131485e+000
 1.3721002507e+000	 3.9078196482e-001	 2.6876780419e+000
 1.3679770563e+000	 4.0497948679e-001	 2.6062283832e+000
 1.3636955006e+000	 4.1917082505e-001	 2.5214971318e+000
 1.4256166065e+000	 2.8245293328e-001	 3.2404692647e+000
 1.4226826639e+000	 2.9687766511e-001	 3.1754651139e+000
 1.4195932166e+000	 3.1131550402e-001	 3.1090901614e+000
 1.4163473815e+000	 3.2576412790e-001	 3.0410341112e+000
 1.4129443177e+000	 3.4022118318e-001	 2.9710023988e+000
 1.4093832281e+000	 3.5468428569e-001	 2.8987177463e+000
 1.4056633601e+000	 3.6915102159e-001	 2.8239216270e+000
 1.4017840069e+000	 3.8361894829e-001	 2.7463756130e+000
 1.3977445084e+000	 3.9808559545e-001	 2.6658625825e+000
 1.3935442524e+000	 4.1254846604e-001	 2.5821877628e+000
 1.3891826753e+000	 4.2700503735e-001	 2.4951795836e+000
 1.4517722108e+000	 2.8763506087e-001	 3.2196300000e+000
 1.4487844395e+000	 3.0232444140e-001	 3.1529504233e+000
 1.4456383106e+000	 3.1702716948e-001	 3.0850019078e+000
 1.4423329245e+000	 3.3174088040e-001	 3.0154564272e+000
 1.4388674251e+000	 3.4646317741e-001	 2.9440026104e+000
 1.4352410007e+000	 3.6119163260e-001	 2.8703476868e+000
 1.4314528847e+000	 3.7592378784e-001	 2.7942193296e+000
 1.4275023575e+000	 3.9065715573e-001	 2.7153673691e+000
 1.4233887469e+000	 4.0538922061e-001	 2.6335653473e+000
 1.4191114293e+000	 4.2011743962e-001	 2.5486118866e+000
 1.4146698310e+000	 4.3483924378e-001	 2.4603318433e+000
 1.4779278020e+000	 2.9281718587e-001	 3.1812841967e+000
 1.4748862021e+000	 3.0777121496e-001	 3.1135936583e+000
 1.4716833915e+000	 3.2273883208e-001	 3.0448073407e+000
 1.4683184545e+000	 3.3771762992e-001	 2.9745766849e+000
 1.4647905196e+000	 3.5270516852e-001	 2.9025709615e+000
 1.4610987603e+000	 3.6769897626e-001	 2.8284796580e+000
 1.4572423965e+000	 3.8269655071e-001	 2.7520147532e+000
 1.4532206953e+000	 3.9769535965e-001	 2.6729128445e+000
 1.4490329726e+000	 4.1269284211e-001	 2.5909370976e+000
 1.4446785935e+000	 4.2768640941e-001	 2.5058789842e+000
 1.4401569739e+000	 4.4267344629e-001	 2.4175597782e+000
 1.5040833867e+000	 2.9799930958e-001	 3.1241178493e+000
 1.5009879582e+000	 3.1321798717e-001	 3.0562653800e+000
 1.4977284659e+000	 3.2845049326e-001	 2.9875699645e+000
 1.4943039780e+000	 3.4369437793e-001	 2.9176584570e+000
 1.4907136076e+000	 3.5894715807e-001	 2.8461769887e+000
 1.4869565135e+000	 3.7420631829e-001	 2.7727938564e+000
 1.4830319018e+000	 3.8946931188e-001	 2.6972022831e+000
 1.4789390267e+000	 4.0473356181e-001	 2.6191230159e+000
 1.4746771918e+000	 4.1999646178e-001	 2.5383067211e+000
 1.4702457512e+000	 4.3525537731e-001	 2.4545361420e+000
 1.4656441104e+000	 4.5050764685e-001	 2.3676279819e+000
 1.2107716938e+000	 3.7216531816e-001	 2.7941105294e+000
 1.2068292178e+000	 3.8475753968e-001	 2.7394543614e+000
 1.2027452861e+000	 3.9733980923e-001	 2.6831865262e+000
 1.1985195382e+000	 4.0990986582e-001	 2.6253920972e+000
 1.1941516598e+000	 4.2246543011e-001	 2.5661565348e+000
 1.1896413827e+000	 4.3500420550e-001	 2.5055648049e+000
 1.1849884863e+000	 4.4752387933e-001	 2.4437005505e+000
 1.1801927979e+000	 4.6002212396e-001	 2.3806453234e+000
 1.1752541932e+000	 4.7249659800e-001	 2.3164778839e+000
 1.1701725973e+000	 4.8494494752e-001	 2.2512735781e+000
 1.1649479851e+000	 4.9736480731e-001	 2.1851037977e+000
 1.2362591171e+000	 3.7999960685e-001	 2.7014290181e+000
 1.2322336498e+000	 3.9285690169e-001	 2.6421058737e+000
 1.2280637489e+000	 4.0570403507e-001	 2.5811024793e+000
 1.2237490467e+000	 4.1853869841e-001	 2.5185312655e+000
 1.2192892220e+000	 4.3135856436e-001	 2.4545050284e+000
 1.2146840010e+000	 4.4416128801e-001	 2.3891358982e+000
 1.2099331586e+000	 4.5694450800e-001	 2.3225343662e+000
 1.2050365182e+000	 4.6970584769e-001	 2.2548083796e+000
 1.1999939531e+000	 4.8244291640e-001	 2.1860625128e+000
 1.1948053868e+000	 4.9515331066e-001	 2.1163972252e+000
 1.1894707936e+000	 5.0783461546e-001	 2.0459082123e+000
 1.2617464830e+000	 3.8783387790e-001	 2.6326890861e+000
 1.2576380245e+000	 4.0095624548e-001	 2.5678285697e+000
 1.2533821548e+000	 4.1406824210e-001	 2.5012523531e+000
 1.2489784985e+000	 4.2716751158e-001	 2.4331042256e+000
 1.2444267276e+000	 4.4025167860e-001	 2.3635280016e+000
 1.2397265631e+000	 4.5331834992e-001	 2.2926663174e+000
 1.2348777747e+000	 4.6636511547e-001	 2.2206594939e+000
 1.2298801827e+000	 4.7938954962e-001	 2.1476444756e+000
 1.2247336574e+000	 4.9238921242e-001	 2.0737538556e+000
 1.2194381209e+000	 5.0536165083e-001	 1.9991149980e+000
 1.2139935469e+000	 5.1830440006e-001	 1.9238492654e+000
 1.2872337979e+000	 3.9566813330e-001	 2.5846905966e+000
 1.2830423485e+000	 4.0905557307e-001	 2.5136002407e+000
 1.2787005101e+000	 4.2243243239e-001	 2.4407859158e+000
 1.2742078998e+000	 4.3579630749e-001	 2.3664271237e+000
 1.2695641830e+000	 4.4914477506e-001	 2.2907027208e+000
 1.2647690750e+000	 4.6247539351e-001	 2.2137895209e+000
 1.2598223410e+000	 4.7578570410e-001	 2.1358609720e+000
 1.2547237974e+000	 4.8907323219e-001	 2.0570859184e+000
 1.2494733122e+000	 5.0233548855e-001	 1.9776274613e+000
 1.2440708057e+000	 5.1556997059e-001	 1.8976419276e+000
 1.2385162512e+000	 5.2877416372e-001	 1.8172779588e+000
 1.3127210682e+000	 4.0350237498e-001	 2.5544665891e+000
 1.3084466280e+000	 4.1715488648e-001	 2.4766190543e+000
 1.3040188211e+000	 4.3079660805e-001	 2.3970612967e+000
 1.2994372569e+000	 4.4442508830e-001	 2.3160132501e+000
 1.2947015944e+000	 4.5803785596e-001	 2.2336931905e+000
 1.2898115431e+000	 4.7163242108e-001	 2.1503161206e+000
 1.2847668636e+000	 4.8520627624e-001	 2.0660922368e+000
 1.2795673687e+000	 4.9875689782e-001	 1.9812254938e+000
 1.2742129237e+000	 5.1228174727e-001	 1.8959122796e+000
 1.2687034474e+000	 5.2577827248e-001	 1.8103402123e+000
 1.2630389125e+000	 5.3924390905e-001	 1.7246870732e+000
 1.3382083003e+000	 4.1133660491e-001	 2.5388546912e+000
 1.3338508694e+000	 4.2525418775e-001	 2.4542790922e+000
 1.3293370941e+000	 4.3916077117e-001	 2.3676266444e+000
 1.3246665762e+000	 4.5305385617e-001	 2.2795558562e+000
 1.3198389681e+000	 4.6693092352e-001	 2.1903340812e+000
 1.3148539736e+000	 4.8078943491e-001	 2.1002188727e+000
 1.3097113488e+000	 4.9462683425e-001	 2.0094611315e+000
 1.3044109027e+000	 5.0844054892e-001	 1.9183034482e+000
 1.2989524981e+000	 5.2222799108e-001	 1.8269785711e+000
 1.2933360522e+000	 5.3598655906e-001	 1.7357080116e+000
 1.2875615371e+000	 5.4971363869e-001	 1.6447008031e+000
 1.3636955006e+000	 4.1917082505e-001	 2.5214971318e+000
 1.3592550790e+000	 4.3335347890e-001	 2.4337428216e+000
 1.3546553354e+000	 4.4752492382e-001	 2.3435139118e+000
 1.3498958639e+000	 4.6168261326e-001	 2.2511113845e+000
 1.3449763104e+000	 4.7582397996e-001	 2.1568584752e+000
 1.3398963729e+000	 4.8994643730e-001	 2.0610992924e+000
 1.3346558028e+000	 5.0404738049e-001	 1.9641971494e+000
 1.3292544057e+000	 5.1812418791e-001	 1.8666957680e+000
 1.3236920416e+000	 5.3217422245e-001	 1.7693270166e+000
 1.3179686261e+000	 5.4619483288e-001	 1.6723693489e+000
 1.3120841310e+000	 5.6018335524e-001	 1.5760654154e+000
 1.3891826753e+000	 4.2700503735e-001	 2.4951795836e+000
 1.3846592633e+000	 4.4145276194e-001	 2.4050577561e+000
 1.3799735514e+000	 4.5588906812e-001	 2.3123317434e+000
 1.3751251265e+000	 4.7031136171e-001	 2.2173015977e+000
 1.3701136275e+000	 4.8471702751e-001	 2.1202921156e+000
 1.3649387471e+000	 4.9910343053e-001	 2.0216515324e+000
 1.3596002319e+000	 5.1346791731e-001	 1.9217498883e+000
 1.3540978838e+000	 5.2780781723e-001	 1.8209770549e+000
 1.3484315603e+000	 5.4212044388e-001	 1.7197404116e+000
 1.3426011755e+000	 5.5640309649e-001	 1.6184621643e+000
 1.3366067004e+000	 5.7065306131e-001	 1.5175763030e+000
 1.4146698310e+000	 4.3483924378e-001	 2.4603318433e+000
 1.4100634284e+000	 4.4955203891e-001	 2.3688884607e+000
 1.4052917485e+000	 4.6425320614e-001	 2.2747307087e+000
 1.4003543701e+000	 4.7894010370e-001	 2.1781535432e+000
 1.3952509258e+000	 4.9361006839e-001	 2.0794795388e+000
 1.3899811025e+000	 5.0826041690e-001	 1.9790576810e+000
 1.3845446423e+000	 5.2288844706e-001	 1.8772617874e+000
 1.3789413433e+000	 5.3749143928e-001	 1.7744885414e+000
 1.3731710605e+000	 5.5206665785e-001	 1.6711551279e+000
 1.3672337064e+000	 5.6661135245e-001	 1.5676964600e+000
 1.3611292514e+000	 5.8112275954e-001	 1.4645619928e+000
 1.4401569739e+000	 4.4267344629e-001	 2.4175597782e+000
 1.4354675809e+000	 4.5765131184e-001	 2.3260647757e+000
 1.4306099329e+000	 4.7261733998e-001	 2.2317573992e+000
 1.4255836011e+000	 4.8756884137e-001	 2.1349228840e+000
 1.4203882115e+000	 5.0250310483e-001	 2.0358774134e+000
 1.4150234454e+000	 5.1741739869e-001	 1.9349670372e+000
 1.4094890402e+000	 5.3230897211e-001	 1.8325661685e+000
 1.4037847904e+000	 5.4717505649e-001	 1.7290756430e+000
 1.3979105484e+000	 5.6201286685e-001	 1.6249203244e+000
 1.3918662249e+000	 5.7681960330e-001	 1.5205462458e+000
 1.3856517902e+000	 5.9159245253e-001	 1.4164172784e+000
 1.4656441104e+000	 4.5050764685e-001	 2.3676279819e+000
 1.4608717271e+000	 4.6575058273e-001	 2.2775644735e+000
 1.4559281109e+000	 4.8098147173e-001	 2.1845950652e+000
 1.4508128258e+000	 4.9619757688e-001	 2.0889901681e+000
 1.4455254909e+000	 5.1139613904e-001	 1.9910550042e+000
 1.4400657820e+000	 5.2657437818e-001	 1.8911286803e+000
 1.4344334318e+000	 5.4172949480e-001	 1.7895827864e+000
 1.4286282313e+000	 5.5685867128e-001	 1.6868194980e+000
 1.4226500300e+000	 5.7195907336e-001	 1.5832691660e+000
 1.4164987373e+000	 5.8702785160e-001	 1.4793873783e+000
 1.4101743228e+000	 6.0206214291e-001	 1.3756514846e+000
 1.1649479851e+000	 4.9736480731e-001	 2.1851037977e+000
 1.1595811979e+000	 5.0975194641e-001	 2.1172880130e+000
 1.1540715394e+000	 5.2210584754e-001	 2.0471962873e+000
 1.1484191381e+000	 5.3442412108e-001	 1.9749990122e+000
 1.1426241741e+000	 5.4670437139e-001	 1.9008613720e+000
 1.1366868794e+000	 5.5894419814e-001	 1.8249429702e+000
 1.1306075389e+000	 5.7114119775e-001	 1.7473975687e+000
 1.1243864900e+000	 5.8329296476e-001	 1.6683729429e+000
 1.1180241233e+000	 5.9539709325e-001	 1.5880108576e+000
 1.1115208828e+000	 6.0745117825e-001	 1.5064471644e+000
 1.1048772657e+000	 6.1945281727e-001	 1.4238120229e+000
 1.1894707936e+000	 5.0783461546e-001	 2.0459082123e+000
 1.1839910325e+000	 5.2048251078e-001	 1.9739001888e+000
 1.1783653926e+000	 5.3309646847e-001	 1.8996803197e+000
 1.1725940051e+000	 5.4567404858e-001	 1.8233713341e+000
 1.1666770538e+000	 5.5821280504e-001	 1.7450894707e+000
 1.1606147757e+000	 5.7071028701e-001	 1.6649441709e+000
 1.1544074617e+000	 5.8316404031e-001	 1.5830379018e+000
 1.1480554562e+000	 5.9557160883e-001	 1.4994661122e+000
 1.1415591582e+000	 6.0793053600e-001	 1.4143173269e+000
 1.1349190208e+000	 6.2023836626e-001	 1.3276733796e+000
 1.1281355518e+000	 6.3249264651e-001	 1.2396097883e+000
 1.2139935469e+000	 5.1830440006e-001	 1.9238492654e+000
 1.2084008122e+000	 5.3121305102e-001	 1.8472525052e+000
 1.2026591912e+000	 5.4408706467e-001	 1.7685873816e+000
 1.1967688177e+000	 5.5692395076e-001	 1.6879485448e+000
 1.1907298794e+000	 5.6972121280e-001	 1.6054222974e+000
 1.1845426183e+000	 5.8247634941e-001	 1.5210863150e+000
 1.1782073310e+000	 5.9518685581e-001	 1.4350095158e+000
 1.1717243693e+000	 6.0785022527e-001	 1.3472520832e+000
 1.1650941401e+000	 6.2046395056e-001	 1.2578656446e+000
 1.1583171062e+000	 6.3302552550e-001	 1.1668936107e+000
 1.1513937857e+000	 6.4553244642e-001	 1.0743716748e+000
 1.2385162512e+000	 5.2877416372e-001	 1.8172779588e+000
 1.2328105430e+000	 5.4194356980e-001	 1.7358240995e+000
 1.2269529411e+000	 5.5507763888e-001	 1.6525118145e+000
 1.2209435820e+000	 5.6817383045e-001	 1.5674262610e+000
 1.2147826569e+000	 5.8122959754e-001	 1.4806417963e+000
 1.2084704129e+000	 5.9424238828e-001	 1.3922216891e+000
 1.2020071527e+000	 6.0720964727e-001	 1.3022179991e+000
 1.1953932349e+000	 6.2012881715e-001	 1.2106716312e+000
 1.1886290750e+000	 6.3299734006e-001	 1.1176125690e+000
 1.1817151448e+000	 6.4581265917e-001	 1.0230602890e+000
 1.1746519730e+000	 6.5857222024e-001	 9.2702435849e-001
 1.2630389125e+000	 5.3924390905e-001	 1.7246870732e+000
 1.2572202312e+000	 5.5267406980e-001	 1.6382316953e+000
 1.2512466486e+000	 5.6606819387e-001	 1.5501829599e+000
 1.2451183039e+000	 5.7942369044e-001	 1.4606342048e+000
 1.2388353924e+000	 5.9273796215e-001	 1.3696648995e+000
 1.2323981657e+000	 6.0600840655e-001	 1.2773403086e+000
 1.2258069327e+000	 6.1923241769e-001	 1.1837113464e+000
 1.2190620592e+000	 6.3240738755e-001	 1.0888146301e+000
 1.2121639687e+000	 6.4553070762e-001	 9.9267273598e-001
 1.2051131424e+000	 6.5859977046e-001	 8.9529466119e-001
 1.1979101196e+000	 6.7161197125e-001	 7.9675909323e-001
 1.2875615371e+000	 5.4971363869e-001	 1.6447008031e+000
 1.2816298827e+000	 5.6340455370e-001	 1.5532200038e+000
 1.2755403196e+000	 5.7705873237e-001	 1.4604562123e+000
 1.2692929896e+000	 5.9067353357e-001	 1.3665277876e+000
 1.2628880917e+000	 6.0424630949e-001	 1.2715355109e+000
 1.2563258826e+000	 6.1777440718e-001	 1.1755621638e+000
 1.2496066770e+000	 6.3125517008e-001	 1.0786723229e+000
 1.2427308479e+000	 6.4468593953e-001	 9.8091237979e-001
 1.2356988270e+000	 6.5806405638e-001	 8.8231078963e-001
 1.2285111049e+000	 6.7138686257e-001	 7.8294434786e-001
 1.2211682313e+000	 6.8465170270e-001	 6.8346798495e-001
 1.3120841310e+000	 5.6018335524e-001	 1.5760654154e+000
 1.3060395037e+000	 5.7413502419e-001	 1.4796530725e+000
 1.2998339602e+000	 5.8804925714e-001	 1.3823049581e+000
 1.2934676450e+000	 6.0192336263e-001	 1.2841805316e+000
 1.2869407610e+000	 6.1575464245e-001	 1.1854172970e+000
 1.2802535696e+000	 6.2954039311e-001	 1.0861302590e+000
 1.2734063916e+000	 6.4327790744e-001	 9.8641162312e-001
 1.2663996071e+000	 6.5696447616e-001	 8.8633075050e-001
 1.2592336560e+000	 6.7059738948e-001	 7.8597399315e-001
 1.2519090382e+000	 6.8417393870e-001	 6.8592586588e-001
 1.2444263139e+000	 6.9769141785e-001	 5.8606197402e-001
 1.3366067004e+000	 5.7065306131e-001	 1.5175763030e+000
 1.3304491003e+000	 5.8486548396e-001	 1.4165064589e+000
 1.3241275766e+000	 5.9903977091e-001	 1.3148132851e+000
 1.3176422763e+000	 6.1317318045e-001	 1.2127772214e+000
 1.3109934062e+000	 6.2726296390e-001	 1.1105871805e+000
 1.3041812327e+000	 6.4130636726e-001	 1.0084043415e+000
 1.2972060824e+000	 6.5530063278e-001	 9.0636172279e-001
 1.2900683426e+000	 6.6924300052e-001	 8.0457876267e-001
 1.2827684614e+000	 6.8313071005e-001	 7.0358258893e-001
 1.2753069481e+000	 6.9696100204e-001	 6.0327949391e-001
 1.2676843733e+000	 7.1073111996e-001	 5.0325819300e-001
 1.3611292514e+000	 5.8112275954e-001	 1.4645619928e+000
 1.3548586787e+000	 5.9559593567e-001	 1.3610661315e+000
 1.3484211747e+000	 6.1003027645e-001	 1.2565338190e+000
 1.3418168895e+000	 6.2442298983e-001	 1.1514835945e+000
 1.3350460334e+000	 6.3877127672e-001	 1.0464274387e+000
 1.3281088778e+000	 6.5307233260e-001	 9.4185523425e-001
 1.3210057554e+000	 6.6732334910e-001	 8.3807212332e-001
 1.3137370603e+000	 6.8152151567e-001	 7.3555980629e-001
 1.3063032492e+000	 6.9566402121e-001	 6.3430815636e-001
 1.2987048405e+000	 7.0974805580e-001	 5.3387392701e-001
 1.2909424153e+000	 7.2377081230e-001	 4.3385300223e-001
 1.3856517902e+000	 5.9159245253e-001	 1.4164172784e+000
 1.3792682448e+000	 6.0632638202e-001	 1.3117566481e+000
 1.3727147607e+000	 6.2102077649e-001	 1.2058404034e+000
 1.3659914906e+000	 6.3567279358e-001	 1.0992689290e+000
 1.3590986486e+000	 6.5027958379e-001	 9.9263720723e-001
 1.3520365110e+000	 6.6483829205e-001	 8.8652868041e-001
 1.3448054164e+000	 6.7934605941e-001	 7.8170868388e-001
 1.3374057663e+000	 6.9380002467e-001	 6.7863663921e-001
 1.3298380252e+000	 7.0819732611e-001	 5.7714122241e-001
 1.3221027211e+000	 7.2253510315e-001	 4.7665133365e-001
 1.3142004456e+000	 7.3681049811e-001	 3.7672271870e-001
 1.4101743228e+000	 6.0206214291e-001	 1.3756514846e+000
 1.4036778048e+000	 6.1705682569e-001	 1.2711698730e+000
 1.3970083406e+000	 6.3201127378e-001	 1.1651552578e+000
 1.3901660856e+000	 6.4692259452e-001	 1.0583029920e+000
 1.3831512578e+000	 6.6178788798e-001	 9.5130465089e-001
 1.3759641382e+000	 6.7660424856e-001	 8.4494780283e-001
 1.3686050715e+000	 6.9136876671e-001	 7.3986608671e-001
 1.3610744663e+000	 7.0607853061e-001	 6.3597813916e-001
 1.3533727953e+000	 7.2073062788e-001	 5.3320718313e-001
 1.3455005959e+000	 7.3532214732e-001	 4.3152317892e-001
 1.3374584701e+000	 7.4985018066e-001	 3.3094351956e-001
 1.1048772657e+000	 6.1945281727e-001	 1.4238120229e+000
 1.0980927950e+000	 6.3140139974e-001	 1.3406722427e+000
 1.0911690624e+000	 6.4329272745e-001	 1.2574371929e+000
 1.0841067275e+000	 6.5512441360e-001	 1.1739568503e+000
 1.0769065033e+000	 6.6689407973e-001	 1.0900791334e+000
 1.0695691567e+000	 6.7859935721e-001	 1.0063823239e+000
 1.0620955081e+000	 6.9023788874e-001	 9.2331421835e-001
 1.0544864310e+000	 7.0180732985e-001	 8.4062030768e-001
 1.0467428524e+000	 7.1330535038e-001	 7.5807589181e-001
 1.0388657520e+000	 7.2472963597e-001	 6.7548708804e-001
 1.0308561619e+000	 7.3607788956e-001	 5.9269175224e-001
 1.1281355518e+000	 6.3249264651e-001	 1.2396097883e+000
 1.1212082642e+000	 6.4469275334e-001	 1.1506990440e+000
 1.1141387832e+000	 6.5683440017e-001	 1.0614890384e+000
 1.1069277821e+000	 6.6891514995e-001	 9.7199432220e-001
 1.0995759892e+000	 6.8093257415e-001	 8.8307572473e-001
 1.0920841874e+000	 6.9288425429e-001	 7.9504904132e-001
 1.0844532142e+000	 7.0476778344e-001	 7.0777221169e-001
 1.0766839618e+000	 7.1658076777e-001	 6.2113405205e-001
 1.0687773766e+000	 7.2832082808e-001	 5.3505514463e-001
 1.0607344587e+000	 7.3998560129e-001	 4.4948863448e-001
 1.0525562623e+000	 7.5157274199e-001	 3.6442092953e-001
 1.1513937857e+000	 6.4553244642e-001	 1.0743716748e+000
 1.1443236814e+000	 6.5798407704e-001	 9.8084787394e-001
 1.1371084523e+000	 6.7037604242e-001	 8.8701385655e-001
 1.1297487855e+000	 6.8270585527e-001	 7.9386692899e-001
 1.1222454241e+000	 6.9497103699e-001	 7.0166932478e-001
 1.1145991674e+000	 7.0716911923e-001	 6.1036760354e-001
 1.1068108701e+000	 7.1929764545e-001	 5.1994046557e-001
 1.0988814427e+000	 7.3135417246e-001	 4.3039956846e-001
 1.0908118511e+000	 7.4333627200e-001	 3.4179024606e-001
 1.0826031163e+000	 7.5524153229e-001	 2.5419212545e-001
 1.0742563139e+000	 7.6706755955e-001	 1.6771963741e-001
 1.1746519730e+000	 6.5857222024e-001	 9.2702435849e-001
 1.1674390524e+000	 6.7127537416e-001	 8.3008663067e-001
 1.1600780755e+000	 6.8391765760e-001	 7.3375441264e-001
 1.1525697432e+000	 6.9649653302e-001	 6.3828037885e-001
 1.1449148137e+000	 7.0900947176e-001	 5.4367684479e-001
 1.1371141023e+000	 7.2145395561e-001	 4.4998962665e-001
 1.1291684812e+000	 7.3382747840e-001	 3.5729883022e-001
 1.1210788792e+000	 7.4612754760e-001	 2.6571953780e-001
 1.1128462816e+000	 7.5835168590e-001	 1.7540238794e-001
 1.1044717301e+000	 7.7049743278e-001	 8.6534043586e-002
 1.0959563221e+000	 7.8256234613e-001	-6.6245573061e-004
 1.1979101196e+000	 6.7161197125e-001	 7.9675909323e-001
 1.1905543830e+000	 6.8456664802e-001	 6.9825680404e-001
 1.1830476584e+000	 6.9745924908e-001	 6.0042649811e-001
 1.1753906609e+000	 7.1028718663e-001	 5.0332440254e-001
 1.1675841636e+000	 7.2304788196e-001	 4.0704160322e-001
 1.1596289979e+000	 7.3573876698e-001	 3.1170484972e-001
 1.1515260532e+000	 7.4835728592e-001	 2.1747725453e-001
 1.1432762768e+000	 7.6090089688e-001	 1.2455888103e-001
 1.1348806736e+000	 7.7336707351e-001	 3.3187214864e-002
 1.1263403057e+000	 7.8575330657e-001	-5.6362485887e-002
 1.1176562923e+000	 7.9805710559e-001	-1.4377696625e-001
 1.2211682313e+000	 6.8465170270e-001	 6.8346798495e-001
 1.2136696789e+000	 6.9785790195e-001	 5.8415312815e-001
 1.2060172070e+000	 7.1100082024e-001	 4.8535829937e-001
 1.1982115444e+000	 7.2407781956e-001	 3.8719899192e-001
 1.1902534795e+000	 7.3708627110e-001	 2.8982768175e-001
 1.1821438597e+000	 7.5002355694e-001	 1.9343458207e-001
 1.1738835917e+000	 7.6288707165e-001	 9.8248283472e-002
 1.1654736412e+000	 7.7567422401e-001	 4.5362735146e-003
 1.1569150325e+000	 7.8838243861e-001	-8.7394669606e-002
 1.1482088484e+000	 8.0100915748e-001	-1.7719821448e-001
 1.1393562299e+000	 8.1355184181e-001	-2.6448834950e-001
 1.2444263139e+000	 6.9769141785e-001	 5.8606197402e-001
 1.2367849459e+000	 7.1114913926e-001	 4.8631180215e-001
 1.2289867268e+000	 7.2454237448e-001	 3.8697537360e-001
 1.2210323994e+000	 7.3786843525e-001	 2.8821092865e-001
 1.2129227671e+000	 7.5112464270e-001	 1.9021571093e-001
 1.2046586934e+000	 7.6430832903e-001	 9.3226702072e-002
 1.1962411022e+000	 7.7741683922e-001	-2.4787668764e-003
 1.1876709778e+000	 7.9044753268e-001	-9.6582533653e-002
 1.1789493638e+000	 8.0339778493e-001	-1.8872525853e-001
 1.1700773638e+000	 8.1626498933e-001	-2.7850621899e-001
 1.1610561405e+000	 8.2904655867e-001	-3.6548325030e-001
 1.2676843733e+000	 7.1073111996e-001	 5.0325819300e-001
 1.2599001897e+000	 7.2444036328e-001	 4.0335620809e-001
 1.2519562236e+000	 7.3808391518e-001	 3.0379891695e-001
 1.2438532316e+000	 7.5165903715e-001	 2.0477145675e-001
 1.2355920320e+000	 7.6516300026e-001	 1.0649990172e-001
 1.2271735045e+000	 7.7859308685e-001	 9.2520081962e-003
 1.2185985904e+000	 7.9194659226e-001	-8.6662172097e-002
 1.2098682922e+000	 8.0522082657e-001	-1.8088981766e-001
 1.2009836731e+000	 8.1841311625e-001	-2.7303500794e-001
 1.1919458574e+000	 8.3152080591e-001	-3.6265854520e-001
 1.1827560293e+000	 8.4454126003e-001	-4.4927793275e-001
 1.2909424153e+000	 7.2377081230e-001	 4.3385300223e-001
 1.2830154163e+000	 7.3773157734e-001	 3.3399655890e-001
 1.2749257032e+000	 7.5162544573e-001	 2.3444494778e-001
 1.2666740467e+000	 7.6544962871e-001	 1.3539495491e-001
 1.2582612799e+000	 7.7920134729e-001	 3.7086165895e-002
 1.2496882988e+000	 7.9287783395e-001	-6.0198248054e-002
 1.2409560618e+000	 8.0647633441e-001	-1.5613088442e-001
 1.2320655899e+000	 8.1999410938e-001	-2.5033961174e-001
 1.2230179659e+000	 8.3342843630e-001	-3.4240722696e-001
 1.2138143345e+000	 8.4677661106e-001	-4.3187127434e-001
 1.2044559019e+000	 8.6003594977e-001	-5.1822403157e-001
 1.3142004456e+000	 7.3681049811e-001	 3.7672271870e-001
 1.3061306312e+000	 7.5102278475e-001	 2.7703027838e-001
 1.2978951713e+000	 7.6516696950e-001	 1.7762429155e-001
 1.2894948503e+000	 7.7924021338e-001	 7.8698484658e-002
 1.2809305164e+000	 7.9323968730e-001	-1.9508809498e-002
 1.2722030818e+000	 8.0716257390e-001	-1.1671379386e-001
 1.2633135221e+000	 8.2100606929e-001	-2.1258649815e-001
 1.2542628766e+000	 8.3476738481e-001	-3.0675022723e-001
 1.2450522477e+000	 8.4844374884e-001	-3.9878117452e-001
 1.2356828007e+000	 8.6203240858e-001	-4.8820820767e-001
 1.2261557636e+000	 8.7553063176e-001	-5.7451283282e-001
 1.3374584701e+000	 7.4985018066e-001	 3.3094351956e-001
 1.3292458404e+000	 7.6431398883e-001	 2.3134302409e-001
 1.3208646337e+000	 7.7870848989e-001	 1.3214326981e-001
 1.3123156482e+000	 7.9303079459e-001	 3.3402107775e-002
 1.3035997473e+000	 8.0727802380e-001	-6.4657649881e-002
 1.2947178591e+000	 8.2144731029e-001	-1.6176585737e-001
 1.2856709767e+000	 8.3553580053e-001	-2.5760423183e-001
 1.2764601577e+000	 8.4954065654e-001	-3.5180571661e-001
 1.2670865240e+000	 8.6345905763e-001	-4.4395402003e-001
 1.2575512615e+000	 8.7728820228e-001	-5.3358333731e-001
 1.2478556198e+000	 8.9102530988e-001	-6.2017826308e-001
 1.0308561619e+000	 7.3607788956e-001	 5.9269175224e-001
 1.0227151665e+000	 7.4734783261e-001	 5.0951526490e-001
 1.0144439005e+000	 7.5853720581e-001	 4.2608457086e-001
 1.0060435498e+000	 7.6964377126e-001	 3.4272986350e-001
 9.9751535112e-001	 7.8066531416e-001	 2.5980208652e-001
 9.8886059143e-001	 7.9159964427e-001	 1.7767266937e-001
 9.8008060741e-001	 8.0244459730e-001	 9.6733178977e-002
 9.7117678475e-001	 8.1319803631e-001	 1.7394887506e-002
 9.6215055747e-001	 8.2385785312e-001	-5.9911743149e-002
 9.5300340716e-001	 8.3442196966e-001	-1.3473765954e-001
 9.4373686216e-001	 8.4488833928e-001	-2.0661589611e-001
 1.0525562623e+000	 7.5157274199e-001	 3.6442092953e-001
 1.0442438944e+000	 7.6307992366e-001	 2.7948993500e-001
 1.0357985136e+000	 7.7450483944e-001	 1.9457149899e-001
 1.0272213308e+000	 7.8584520432e-001	 1.1004918166e-001
 1.0185136087e+000	 7.9709875688e-001	 2.6326196725e-002
 1.0096766615e+000	 8.0826326077e-001	-5.6174962319e-002
 1.0007118539e+000	 8.1933650614e-001	-1.3701298349e-001
 9.9162060078e-001	 8.3031631108e-001	-2.1572828489e-001
 9.8240436636e-001	 8.4120052302e-001	-2.9184365003e-001
 9.7306466339e-001	 8.5198702013e-001	-3.6486494888e-001
 9.6360305242e-001	 8.6267371270e-001	-4.3428194303e-001
 1.0742563139e+000	 7.6706755955e-001	 1.6771963741e-001
 1.0657725738e+000	 7.7881197931e-001	 8.1779405793e-002
 1.0571530786e+000	 7.9047243714e-001	-4.0401090509e-003
 1.0483990641e+000	 8.0204660093e-001	-8.9310443864e-002
 1.0395118191e+000	 8.1353216263e-001	-1.7358354807e-001
 1.0304926847e+000	 8.2492683979e-001	-2.5639224966e-001
 1.0213430540e+000	 8.3622837699e-001	-3.3725081440e-001
 1.0120643708e+000	 8.4743454733e-001	-4.1565559818e-001
 1.0026581297e+000	 8.5854315389e-001	-4.9108579177e-001
 9.9312587450e-001	 8.6955203108e-001	-5.6300425671e-001
 9.8346919799e-001	 8.8045904610e-001	-6.3085845073e-001
 1.0959563221e+000	 7.8256234613e-001	-6.6245573061e-004
 1.0873012102e+000	 7.9454400350e-001	-8.7036041264e-002
 1.0785076010e+000	 8.0644000291e-001	-1.7330279791e-001
 1.0695767551e+000	 8.1824796514e-001	-2.5899731282e-001
 1.0605099875e+000	 8.2996553551e-001	-3.4363364575e-001
 1.0513086664e+000	 8.4159038547e-001	-4.2670587021e-001
 1.0419742128e+000	 8.5312021405e-001	-5.0768871599e-001
 1.0325081000e+000	 8.6455274935e-001	-5.8603831301e-001
 1.0229118525e+000	 8.7588575008e-001	-6.6119303547e-001
 1.0131870455e+000	 8.8711700690e-001	-7.3257444513e-001
 1.0033353038e+000	 8.9824434394e-001	-7.9958833164e-001
 1.1176562923e+000	 7.9805710559e-001	-1.4377696625e-001
 1.1088298089e+000	 8.1027600016e-001	-2.3016697732e-001
 1.0998620859e+000	 8.2240754074e-001	-3.1655266402e-001
 1.0907544091e+000	 8.3444930100e-001	-4.0243915036e-001
 1.0815081192e+000	 8.4639887964e-001	-4.8730910736e-001
 1.0721246116e+000	 8.5825390200e-001	-5.7062335281e-001
 1.0626053355e+000	 8.7001202155e-001	-6.5182156298e-001
 1.0529517933e+000	 8.8167092142e-001	-7.3032309580e-001
 1.0431655398e+000	 8.9322831592e-001	-8.0552792494e-001
 1.0332481814e+000	 9.0468195199e-001	-8.7681768304e-001
 1.0232013749e+000	 9.1602961065e-001	-9.4355681237e-001
 1.1393562299e+000	 8.1355184181e-001	-2.6448834950e-001
 1.1303583753e+000	 8.2600797323e-001	-3.5062728037e-001
 1.1212165389e+000	 8.3837505462e-001	-4.3692243390e-001
 1.1119320312e+000	 8.5065061256e-001	-5.2285653018e-001
 1.1025062193e+000	 8.6283219912e-001	-6.0788694268e-001
 1.0929405255e+000	 8.7491739353e-001	-6.9144634050e-001
 1.0832364273e+000	 8.8690380371e-001	-7.7294345498e-001
 1.0733954560e+000	 8.9878906781e-001	-8.5176397070e-001
 1.0634191968e+000	 9.1057085575e-001	-9.2727153985e-001
 1.0533092871e+000	 9.2224687073e-001	-9.9880891875e-001
 1.0430674162e+000	 9.3381485069e-001	-1.0656992241e+000
 1.1610561405e+000	 8.2904655867e-001	-3.6548325030e-001
 1.1518869148e+000	 8.4173992663e-001	-4.5124426877e-001
 1.1425709651e+000	 8.5434254855e-001	-5.3735213660e-001
 1.1331096269e+000	 8.6685190386e-001	-6.2327383866e-001
 1.1235042932e+000	 8.7926549806e-001	-7.0844716639e-001
 1.1137564135e+000	 8.9158086424e-001	-7.9228138628e-001
 1.1038674932e+000	 9.0379556476e-001	-8.7415804753e-001
 1.0938390932e+000	 9.1590719280e-001	-9.5343192914e-001
 1.0836728285e+000	 9.2791337390e-001	-1.0294321257e+000
 1.0733703679e+000	 9.3981176752e-001	-1.1014632703e+000
 1.0629334326e+000	 9.5160006850e-001	-1.1688068920e+000
 1.1827560293e+000	 8.4454126003e-001	-4.4927793275e-001
 1.1734154328e+000	 8.5747186430e-001	-5.3466681212e-001
 1.1639253700e+000	 8.7031002650e-001	-6.2059767904e-001
 1.1542872015e+000	 8.8305317897e-001	-7.0652809576e-001
 1.1445023461e+000	 8.9569878056e-001	-7.9188164307e-001
 1.1345722806e+000	 9.0824431828e-001	-8.7604859875e-001
 1.1244985386e+000	 9.2068730893e-001	-9.5838677257e-001
 1.1142827099e+000	 9.3302530068e-001	-1.0382224981e+000
 1.1039264399e+000	 9.4525587472e-001	-1.1148517809e+000
 1.0934314285e+000	 9.5737664674e-001	-1.1875416009e+000
 1.0827994292e+000	 9.6938526853e-001	-1.2555313681e+000
 1.2044559019e+000	 8.6003594977e-001	-5.1822403157e-001
 1.1949439347e+000	 8.7320379017e-001	-6.0337167451e-001
 1.1852797589e+000	 8.8627749248e-001	-6.8923758893e-001
 1.1754647601e+000	 8.9925444193e-001	-7.7527590306e-001
 1.1655003833e+000	 9.1213205075e-001	-8.6090104367e-001
 1.1553881321e+000	 9.2490775983e-001	-9.4548840851e-001
 1.1451295685e+000	 9.3757904042e-001	-1.0283752148e+000
 1.1347263113e+000	 9.5014339572e-001	-1.1088615245e+000
 1.1241800362e+000	 9.6259836252e-001	-1.1862114456e+000
 1.1134924741e+000	 9.7494151279e-001	-1.2596545087e+000
 1.1026654109e+000	 9.8717045521e-001	-1.3283872158e+000
 1.2261557636e+000	 8.7553063176e-001	-5.7451283282e-001
 1.2164724257e+000	 8.8893570818e-001	-6.5966830906e-001
 1.2066341371e+000	 9.0224495048e-001	-7.4567815211e-001
 1.1966423081e+000	 9.1545569679e-001	-8.3199875075e-001
 1.1864984099e+000	 9.2856531271e-001	-9.1804014742e-001
 1.1762039732e+000	 9.4157119305e-001	-1.0031666884e+000
 1.1657605880e+000	 9.5447076347e-001	-1.0866978721e+000
 1.1551699025e+000	 9.6726148220e-001	-1.1679093961e+000
 1.1444336223e+000	 9.7994084166e-001	-1.2460344036e+000
 1.1335535097e+000	 9.9250637006e-001	-1.3202649268e+000
 1.1225313827e+000	 1.0049556330e+000	-1.3897535257e+000
 1.2478556198e+000	 8.9102530988e-001	-6.2017826308e-001
 1.2380009114e+000	 9.0466762225e-001	-7.0570229242e-001
 1.2279885099e+000	 9.1821240449e-001	-7.9215713975e-001
 1.2178198509e+000	 9.3165694760e-001	-8.7900688346e-001
 1.2074964313e+000	 9.4499857057e-001	-9.6566169044e-001
 1.1970198092e+000	 9.5823462210e-001	-1.0514784277e+000
 1.1863916024e+000	 9.7136248230e-001	-1.1357614965e+000
 1.1756134885e+000	 9.8437956441e-001	-1.2177638905e+000
 1.1646872033e+000	 9.9728331646e-001	-1.2966884771e+000
 1.1536145402e+000	 1.0100712229e+000	-1.3716895027e+000
 1.1423973494e+000	 1.0227408064e+000	-1.4418750930e+000
 9.4373686216e-001	 8.4488833928e-001	-2.0661589611e-001
 9.3435391325e-001	 8.5525340088e-001	-2.7796899196e-001
 9.2485479875e-001	 8.6551675343e-001	-3.5115639047e-001
 9.1524118220e-001	 8.7567645404e-001	-4.2556281767e-001
 9.0551477026e-001	 8.8573059636e-001	-5.0056191758e-001
 8.9567731170e-001	 8.9567731170e-001	-5.7551756605e-001
 8.8573059636e-001	 9.0551477026e-001	-6.4978524045e-001
 8.7567645404e-001	 9.1524118220e-001	-7.2271344050e-001
 8.6551675343e-001	 9.2485479875e-001	-7.9364515501e-001
 8.5525340088e-001	 9.3435391325e-001	-8.6191936936e-001
 8.4488833928e-001	 9.4373686216e-001	-9.2687260788e-001
 9.6360305242e-001	 8.6267371270e-001	-4.3428194303e-001
 9.5402258718e-001	 8.7325696466e-001	-5.0256764790e-001
 9.4432351099e-001	 8.8373636653e-001	-5.7217290467e-001
 9.3450752243e-001	 8.9410993455e-001	-6.4250190283e-001
 9.2457636406e-001	 9.0437572220e-001	-7.1294599128e-001
 9.1453182148e-001	 9.1453182148e-001	-7.8288502900e-001
 9.0437572220e-001	 9.2457636406e-001	-8.5168879962e-001
 8.9410993455e-001	 9.3450752243e-001	-9.1871848494e-001
 8.8373636653e-001	 9.4432351099e-001	-9.8332819175e-001
 8.7325696466e-001	 9.5402258718e-001	-1.0448665265e+000
 8.6267371270e-001	 9.6360305242e-001	-1.1026782114e+000
 9.8346919799e-001	 8.8045904610e-001	-6.3085845073e-001
 9.7369121686e-001	 8.9126048793e-001	-6.9709785892e-001
 9.6379217943e-001	 9.0195593865e-001	-7.6419140841e-001
 9.5377381930e-001	 9.1254337358e-001	-8.3156333102e-001
 9.4363791497e-001	 9.2302080609e-001	-8.9862304819e-001
 9.3338628884e-001	 9.3338628884e-001	-9.6476655728e-001
 9.2302080609e-001	 9.4363791497e-001	-1.0293778907e+000
 9.1254337358e-001	 9.5377381930e-001	-1.0918306426e+000
 9.0195593865e-001	 9.6379217943e-001	-1.1514895572e+000
 8.9126048793e-001	 9.7369121686e-001	-1.2077121726e+000
 8.8045904610e-001	 9.8346919799e-001	-1.2598505141e+000
 1.0033353038e+000	 8.9824434394e-001	-7.9958833164e-001
 9.9335980720e-001	 9.0926397520e-001	-8.6460598435e-001
 9.8326080894e-001	 9.2017547433e-001	-9.3006033875e-001
 9.7304007765e-001	 9.3097677575e-001	-9.9539585487e-001
 9.6269942776e-001	 9.4166585269e-001	-1.0600399913e+000
 9.5224071848e-001	 9.5224071848e-001	-1.1234046266e+000
 9.4166585269e-001	 9.6269942776e-001	-1.1848875632e+000
 9.3097677575e-001	 9.7304007765e-001	-1.2438741084e+000
 9.2017547433e-001	 9.8326080894e-001	-1.2997387263e+000
 9.0926397520e-001	 9.9335980720e-001	-1.3518467542e+000
 8.9824434394e-001	 1.0033353038e+000	-1.3995561764e+000
 1.0232013749e+000	 9.1602961065e-001	-9.4355681237e-001
 1.0130283631e+000	 9.2726743097e-001	-1.0080015695e+000
 1.0027294044e+000	 9.3839497813e-001	-1.0725125508e+000
 9.9230630228e-001	 9.4941014566e-001	-1.1365542546e+000
 9.8176090719e-001	 9.6031086667e-001	-1.1995717551e+000
 9.7109511514e-001	 9.7109511514e-001	-1.2609921579e+000
 9.6031086667e-001	 9.8176090719e-001	-1.3202261498e+000
 9.4941014566e-001	 9.9230630228e-001	-1.3766696365e+000
 9.3839497813e-001	 1.0027294044e+000	-1.4297054609e+000
 9.2726743097e-001	 1.0130283631e+000	-1.4787051952e+000
 9.1602961065e-001	 1.0232013749e+000	-1.5230310007e+000
 1.0430674162e+000	 9.3381485069e-001	-1.0656992241e+000
 1.0326968896e+000	 9.4527085973e-001	-1.1300633028e+000
 1.0221979706e+000	 9.5661445460e-001	-1.1941694330e+000
 1.0115724980e+000	 9.6784348792e-001	-1.2575016023e+000
 1.0008223580e+000	 9.7895585267e-001	-1.3195217066e+000
 9.8994948351e-001	 9.8994948351e-001	-1.3796710413e+000
 9.7895585267e-001	 1.0008223580e+000	-1.4373718988e+000
 9.6784348792e-001	 1.0115724980e+000	-1.4920292646e+000
 9.5661445460e-001	 1.0221979706e+000	-1.5430326055e+000
 9.4527085973e-001	 1.0326968896e+000	-1.5897577435e+000
 9.3381485069e-001	 1.0430674162e+000	-1.6315688056e+000
 1.0629334326e+000	 9.5160006850e-001	-1.1688068920e+000
 1.0523653914e+000	 9.6327426599e-001	-1.2334432708e+000
 1.0416665125e+000	 9.7483390829e-001	-1.2975435226e+000
 1.0308386697e+000	 9.8627680714e-001	-1.3606102290e+000
 1.0198837850e+000	 9.9760081538e-001	-1.4221209552e+000
 1.0088038283e+000	 1.0088038283e+000	-1.4815297789e+000
 9.9760081538e-001	 1.0198837850e+000	-1.5382689362e+000
 9.8627680714e-001	 1.0308386697e+000	-1.5917505802e+000
 9.7483390829e-001	 1.0416665125e+000	-1.6413686439e+000
 9.6327426599e-001	 1.0523653914e+000	-1.6865008002e+000
 9.5160006850e-001	 1.0629334326e+000	-1.7265105092e+000
 1.0827994292e+000	 9.6938526853e-001	-1.2555313681e+000
 1.0720338736e+000	 9.8127765425e-001	-1.3206697307e+000
 1.0611350349e+000	 9.9305334377e-001	-1.3850398128e+000
 1.0501048220e+000	 1.0047101079e+000	-1.4481615613e+000
 1.0389451930e+000	 1.0162457594e+000	-1.5095267124e+000
 1.0276581543e+000	 1.0276581543e+000	-1.5686003576e+000
 1.0162457594e+000	 1.0389451930e+000	-1.6248226425e+000
 1.0047101079e+000	 1.0501048220e+000	-1.6776105912e+000
 9.9305334377e-001	 1.0611350349e+000	-1.7263600491e+000
 9.8127765425e-001	 1.0720338736e+000	-1.7704477349e+000
 9.6938526853e-001	 1.0827994292e+000	-1.8092333937e+000
 1.1026654109e+000	 9.8717045521e-001	-1.3283872158e+000
 1.0917023410e+000	 9.9928102900e-001	-1.3941485862e+000
 1.0806035428e+000	 1.0112727656e+000	-1.4589559172e+000
 1.0693709600e+000	 1.0231433949e+000	-1.5223449712e+000
 1.0580065867e+000	 1.0348906895e+000	-1.5838198199e+000
 1.0465124661e+000	 1.0465124661e+000	-1.6428543965e+000
 1.0348906895e+000	 1.0580065867e+000	-1.6988945190e+000
 1.0231433949e+000	 1.0693709600e+000	-1.7513592477e+000
 1.0112727656e+000	 1.0806035428e+000	-1.7996434507e+000
 9.9928102900e-001	 1.0917023410e+000	-1.8431196873e+000
 9.8717045521e-001	 1.1026654109e+000	-1.8811405277e+000
 1.1225313827e+000	 1.0049556330e+000	-1.3897535257e+000
 1.1113707986e+000	 1.0172843948e+000	-1.4561644332e+000
 1.1000720409e+000	 1.0294921783e+000	-1.5214817217e+000
 1.0886370883e+000	 1.0415766726e+000	-1.5852560300e+000
 1.0770679708e+000	 1.0535356103e+000	-1.6470016033e+000
 1.0653667685e+000	 1.0653667685e+000	-1.7061988635e+000
 1.0535356103e+000	 1.0770679708e+000	-1.7622962228e+000
 1.0415766726e+000	 1.0886370883e+000	-1.8147120554e+000
 1.0294921783e+000	 1.1000720409e+000	-1.8628368171e+000
 1.0172843948e+000	 1.1113707986e+000	-1.9060353053e+000
 1.0049556330e+000	 1.1225313827e+000	-1.9436503287e+000
 1.1423973494e+000	 1.0227408064e+000	-1.4418750930e+000
 1.1310392512e+000	 1.0352877560e+000	-1.5088769500e+000
 1.1195405341e+000	 1.0477115864e+000	-1.5746955984e+000
 1.1079032118e+000	 1.0600099458e+000	-1.6388925468e+000
 1.0961293502e+000	 1.0721805264e+000	-1.7009897331e+000
 1.0842210662e+000	 1.0842210662e+000	-1.7604712186e+000
 1.0721805264e+000	 1.0961293502e+000	-1.8167850658e+000
 1.0600099458e+000	 1.1079032118e+000	-1.8693453918e+000
 1.0477115864e+000	 1.1195405341e+000	-1.9175345879e+000
 1.0352877560e+000	 1.1310392512e+000	-1.9607056952e+000
 1.0227408064e+000	 1.1423973494e+000	-1.9981849255e+000
 8.4488833928e-001	 9.4373686216e-001	-9.2687260788e-001
 8.3442196966e-001	 9.5300340716e-001	-9.9101965839e-001
 8.2385785312e-001	 9.6215055747e-001	-1.0569555069e+000
 8.1319803631e-001	 9.7117678475e-001	-1.1241639917e+000
 8.0244459730e-001	 9.8008060741e-001	-1.1921294894e+000
 7.9159964427e-001	 9.8886059143e-001	-1.2603383641e+000
 7.8066531416e-001	 9.9751535112e-001	-1.3282804180e+000
 7.6964377126e-001	 1.0060435498e+000	-1.3954503369e+000
 7.5853720581e-001	 1.0144439005e+000	-1.4613491231e+000
 7.4734783261e-001	 1.0227151665e+000	-1.5254855116e+000
 7.3607788956e-001	 1.0308561619e+000	-1.5873773606e+000
 8.6267371270e-001	 9.6360305242e-001	-1.1026782114e+000
 8.5198702013e-001	 9.7306466339e-001	-1.1592686057e+000
 8.4120052302e-001	 9.8240436636e-001	-1.2172465506e+000
 8.3031631108e-001	 9.9162060078e-001	-1.2761321802e+000
 8.1933650614e-001	 1.0007118539e+000	-1.3354428589e+000
 8.0826326077e-001	 1.0096766615e+000	-1.3946946768e+000
 7.9709875688e-001	 1.0185136087e+000	-1.4534039533e+000
 7.8584520432e-001	 1.0272213308e+000	-1.5110887431e+000
 7.7450483944e-001	 1.0357985136e+000	-1.5672703369e+000
 7.6307992366e-001	 1.0442438944e+000	-1.6214747508e+000
 7.5157274199e-001	 1.0525562623e+000	-1.6732341959e+000
 8.8045904610e-001	 9.8346919799e-001	-1.2598505141e+000
 8.6955203108e-001	 9.9312587450e-001	-1.3103648556e+000
 8.5854315389e-001	 1.0026581297e+000	-1.3618160963e+000
 8.4743454733e-001	 1.0120643708e+000	-1.4137221322e+000
 8.3622837699e-001	 1.0213430540e+000	-1.4655962415e+000
 8.2492683979e-001	 1.0304926847e+000	-1.5169486920e+000
 8.1353216263e-001	 1.0395118191e+000	-1.5672883617e+000
 8.0204660093e-001	 1.0483990641e+000	-1.6161243671e+000
 7.9047243714e-001	 1.0571530786e+000	-1.6629676892e+000
 7.7881197931e-001	 1.0657725738e+000	-1.7073327909e+000
 7.6706755955e-001	 1.0742563139e+000	-1.7487392178e+000
 8.9824434394e-001	 1.0033353038e+000	-1.3995561764e+000
 8.8711700690e-001	 1.0131870455e+000	-1.4452768165e+000
 8.7588575008e-001	 1.0229118525e+000	-1.4914917065e+000
 8.6455274935e-001	 1.0325081000e+000	-1.5376797381e+000
 8.5312021405e-001	 1.0419742128e+000	-1.5833147284e+000
 8.4159038547e-001	 1.0513086664e+000	-1.6278672054e+000
 8.2996553551e-001	 1.0605099875e+000	-1.6708062094e+000
 8.1824796514e-001	 1.0695767551e+000	-1.7116011025e+000
 8.0644000291e-001	 1.0785076010e+000	-1.7497233783e+000
 7.9454400350e-001	 1.0873012102e+000	-1.7846484624e+000
 7.8256234613e-001	 1.0959563221e+000	-1.8158574946e+000
 9.1602961065e-001	 1.0232013749e+000	-1.5230310007e+000
 9.0468195199e-001	 1.0332481814e+000	-1.5650647999e+000
 8.9322831592e-001	 1.0431655398e+000	-1.6072112025e+000
 8.8167092142e-001	 1.0529517933e+000	-1.6488749317e+000
 8.7001202155e-001	 1.0626053355e+000	-1.6894565078e+000
 8.5825390200e-001	 1.0721246116e+000	-1.7283542762e+000
 8.4639887964e-001	 1.0815081192e+000	-1.7649664521e+000
 8.3444930100e-001	 1.0907544091e+000	-1.7986931720e+000
 8.2240754074e-001	 1.0998620859e+000	-1.8289385433e+000
 8.1027600016e-001	 1.1088298089e+000	-1.8551126816e+000
 7.9805710559e-001	 1.1176562923e+000	-1.8766337275e+000
 9.3381485069e-001	 1.0430674162e+000	-1.6315688056e+000
 9.2224687073e-001	 1.0533092871e+000	-1.6708681261e+000
 9.1057085575e-001	 1.0634191968e+000	-1.7100084415e+000
 8.9878906781e-001	 1.0733954560e+000	-1.7482865939e+000
 8.8690380371e-001	 1.0832364273e+000	-1.7849973633e+000
 8.7491739353e-001	 1.0929405255e+000	-1.8194358020e+000
 8.6283219912e-001	 1.1025062193e+000	-1.8508995838e+000
 8.5065061256e-001	 1.1119320312e+000	-1.8786913579e+000
 8.3837505462e-001	 1.1212165389e+000	-1.9021210947e+000
 8.2600797323e-001	 1.1303583753e+000	-1.9205084154e+000
 8.1355184181e-001	 1.1393562299e+000	-1.9331848918e+000
 9.5160006850e-001	 1.0629334326e+000	-1.7265105092e+000
 9.3981176752e-001	 1.0733703679e+000	-1.7638926424e+000
 9.2791337390e-001	 1.0836728285e+000	-1.8009996603e+000
 9.1590719280e-001	 1.0938390932e+000	-1.8369881275e+000
 9.0379556476e-001	 1.1038674932e+000	-1.8710158978e+000
 8.9158086424e-001	 1.1137564135e+000	-1.9022448208e+000
 8.7926549806e-001	 1.1235042932e+000	-1.9298434574e+000
 8.6685190386e-001	 1.1331096269e+000	-1.9529897940e+000
 8.5434254855e-001	 1.1425709651e+000	-1.9708739427e+000
 8.4173992663e-001	 1.1518869148e+000	-1.9827008159e+000
 8.2904655867e-001	 1.1610561405e+000	-1.9876927623e+000
 9.6938526853e-001	 1.0827994292e+000	-1.8092333937e+000
 9.5737664674e-001	 1.0934314285e+000	-1.8453985985e+000
 9.4525587472e-001	 1.1039264399e+000	-1.8813703142e+000
 9.3302530068e-001	 1.1142827099e+000	-1.9161336188e+000
 9.2068730893e-001	 1.1244985386e+000	-1.9486793902e+000
 9.0824431828e-001	 1.1345722806e+000	-1.9780074473e+000
 8.9569878056e-001	 1.1445023461e+000	-2.0031296933e+000
 8.8305317897e-001	 1.1542872015e+000	-2.0230732501e+000
 8.7031002650e-001	 1.1639253700e+000	-2.0368835688e+000
 8.5747186430e-001	 1.1734154328e+000	-2.0436275043e+000
 8.4454126003e-001	 1.1827560293e+000	-2.0423963382e+000
 9.8717045521e-001	 1.1026654109e+000	-1.8811405277e+000
 9.7494151279e-001	 1.1134924741e+000	-1.9166888373e+000
 9.6259836252e-001	 1.1241800362e+000	-1.9523623461e+000
 9.5014339572e-001	 1.1347263113e+000	-1.9869445105e+000
 9.3757904042e-001	 1.1451295685e+000	-2.0192302052e+000
 9.2490775983e-001	 1.1553881321e+000	-2.0480293613e+000
 9.1213205075e-001	 1.1655003833e+000	-2.0721705996e+000
 8.9925444193e-001	 1.1754647601e+000	-2.0905048443e+000
 8.8627749248e-001	 1.1852797589e+000	-2.1019089006e+000
 8.7320379017e-001	 1.1949439347e+000	-2.1052889834e+000
 8.6003594977e-001	 1.2044559019e+000	-2.0995841798e+000
 1.0049556330e+000	 1.1225313827e+000	-1.9436503287e+000
 9.9250637006e-001	 1.1335535097e+000	-1.9790972586e+000
 9.7994084166e-001	 1.1444336223e+000	-2.0152618346e+000
 9.6726148220e-001	 1.1551699025e+000	-2.0506967235e+000
 9.5447076347e-001	 1.1657605880e+000	-2.0839726871e+000
 9.4157119305e-001	 1.1762039732e+000	-2.1136827817e+000
 9.2856531271e-001	 1.1864984099e+000	-2.1384465415e+000
 9.1545569679e-001	 1.1966423081e+000	-2.1569141314e+000
 9.0224495048e-001	 1.2066341371e+000	-2.1677704495e+000
 8.8893570818e-001	 1.2164724257e+000	-2.1697391642e+000
 8.7553063176e-001	 1.2261557636e+000	-2.1615866683e+000
 1.0227408064e+000	 1.1423973494e+000	-1.9981849255e+000
 1.0100712229e+000	 1.1536145402e+000	-2.0339775253e+000
 9.9728331646e-001	 1.1646872033e+000	-2.0713869743e+000
 9.8437956441e-001	 1.1756134885e+000	-2.1087081719e+000
 9.7136248230e-001	 1.1863916024e+000	-2.1442604797e+000
 9.5823462210e-001	 1.1970198092e+000	-2.1763938666e+000
 9.4499857057e-001	 1.2074964313e+000	-2.2034937050e+000
 9.3165694760e-001	 1.2178198509e+000	-2.2239855215e+000
 9.1821240449e-001	 1.2279885099e+000	-2.2363396817e+000
 9.0466762225e-001	 1.2380009114e+000	-2.2390759919e+000
 8.9102530988e-001	 1.2478556198e+000	-2.2307681968e+000
 7.3607788956e-001	 1.0308561619e+000	-1.5873773606e+000
 7.2472963597e-001	 1.0388657520e+000	-1.6486054647e+000
 7.1330535038e-001	 1.0467428524e+000	-1.7107477199e+000
 7.0180732985e-001	 1.0544864310e+000	-1.7733449307e+000
 6.9023788874e-001	 1.0620955081e+000	-1.8359650641e+000
 6.7859935721e-001	 1.0695691567e+000	-1.8982044167e+000
 6.6689407973e-001	 1.0769065033e+000	-1.9596886997e+000
 6.5512441360e-001	 1.0841067275e+000	-2.0186182873e+000
 6.4329272745e-001	 1.0911690624e+000	-2.0730759405e+000
 6.3140139974e-001	 1.0980927950e+000	-2.1226986262e+000
 6.1945281727e-001	 1.1048772657e+000	-2.1671463755e+000
 7.5157274199e-001	 1.0525562623e+000	-1.6732341959e+000
 7.3998560129e-001	 1.0607344587e+000	-1.7245203013e+000
 7.2832082808e-001	 1.0687773766e+000	-1.7771638517e+000
 7.1658076777e-001	 1.0766839618e+000	-1.8305160673e+000
 7.0476778344e-001	 1.0844532142e+000	-1.8839624805e+000
 6.9288425429e-001	 1.0920841874e+000	-1.9369244797e+000
 6.8093257415e-001	 1.0995759892e+000	-1.9888607494e+000
 6.6891514995e-001	 1.1069277821e+000	-2.0392686025e+000
 6.5683440017e-001	 1.1141387832e+000	-2.0866389173e+000
 6.4469275334e-001	 1.1212082642e+000	-2.1284591948e+000
 6.3249264651e-001	 1.1281355518e+000	-2.1642018860e+000
 7.6706755955e-001	 1.0742563139e+000	-1.7487392178e+000
 7.5524153229e-001	 1.0826031163e+000	-1.7896875812e+000
 7.4333627200e-001	 1.0908118511e+000	-1.8324360448e+000
 7.3135417246e-001	 1.0988814427e+000	-1.8761747139e+000
 7.1929764545e-001	 1.1068108701e+000	-1.9201345784e+000
 7.0716911923e-001	 1.1145991674e+000	-1.9635894052e+000
 6.9497103699e-001	 1.1222454241e+000	-2.0058575101e+000
 6.8270585527e-001	 1.1297487855e+000	-2.0463034037e+000
 6.7037604242e-001	 1.1371084523e+000	-2.0843393024e+000
 6.5798407704e-001	 1.1443236814e+000	-2.1186206915e+000
 6.4553244642e-001	 1.1513937857e+000	-2.1462953619e+000
 7.8256234613e-001	 1.0959563221e+000	-1.8158574946e+000
 7.7049743278e-001	 1.1044717301e+000	-1.8464696942e+000
 7.5835168590e-001	 1.1128462816e+000	-1.8792944835e+000
 7.4612754760e-001	 1.1210788792e+000	-1.9133874407e+000
 7.3382747840e-001	 1.1291684812e+000	-1.9478510595e+000
 7.2145395561e-001	 1.1371141023e+000	-1.9818369680e+000
 7.0900947176e-001	 1.1449148137e+000	-2.0145480093e+000
 6.9649653302e-001	 1.1525697432e+000	-2.0452401783e+000
 6.8391765760e-001	 1.1600780755e+000	-2.0732244067e+000
 6.7127537416e-001	 1.1674390524e+000	-2.0978681903e+000
 6.5857222024e-001	 1.1746519730e+000	-2.1179071629e+000
 7.9805710559e-001	 1.1176562923e+000	-1.8766337275e+000
 7.8575330657e-001	 1.1263403057e+000	-1.8972843474e+000
 7.7336707351e-001	 1.1348806736e+000	-1.9205023886e+000
 7.6090089688e-001	 1.1432762768e+000	-1.9452337205e+000
 7.4835728592e-001	 1.1515260532e+000	-1.9704766536e+000
 7.3573876698e-001	 1.1596289979e+000	-1.9952844617e+000
 7.2304788196e-001	 1.1675841636e+000	-2.0187677528e+000
 7.1028718663e-001	 1.1753906609e+000	-2.0400966775e+000
 6.9745924908e-001	 1.1830476584e+000	-2.0585029685e+000
 6.8456664802e-001	 1.1905543830e+000	-2.0732818041e+000
 6.7161197125e-001	 1.1979101196e+000	-2.0837934888e+000
 8.1355184181e-001	 1.1393562299e+000	-1.9331848918e+000
 8.0100915748e-001	 1.1482088484e+000	-1.9446000684e+000
 7.8838243861e-001	 1.1569150325e+000	-1.9588541953e+000
 7.7567422401e-001	 1.1654736412e+000	-1.9748065829e+000
 7.6288707165e-001	 1.1738835917e+000	-1.9913740340e+000
 7.5002355694e-001	 1.1821438597e+000	-2.0075336522e+000
 7.3708627110e-001	 1.1902534795e+000	-2.0223254826e+000
 7.2407781956e-001	 1.1982115444e+000	-2.0348549759e+000
 7.1100082024e-001	 1.2060172070e+000	-2.0442952667e+000
 6.9785790195e-001	 1.2136696789e+000	-2.0498892574e+000
 6.8465170270e-001	 1.2211682313e+000	-2.0509515017e+000
 8.2904655867e-001	 1.1610561405e+000	-1.9876927623e+000
 8.1626498933e-001	 1.1700773638e+000	-1.9909312869e+000
 8.0339778493e-001	 1.1789493638e+000	-1.9971730254e+000
 7.9044753268e-001	 1.1876709778e+000	-2.0052122997e+000
 7.7741683922e-001	 1.1962411022e+000	-2.0139055319e+000
 7.6430832903e-001	 1.2046586934e+000	-2.0221743208e+000
 7.5112464270e-001	 1.2129227671e+000	-2.0290083386e+000
 7.3786843525e-001	 1.2210323994e+000	-2.0334680345e+000
 7.2454237448e-001	 1.2289867268e+000	-2.0346871378e+000
 7.1114913926e-001	 1.2367849459e+000	-2.0318749495e+000
 6.9769141785e-001	 1.2444263139e+000	-2.0243184156e+000
 8.4454126003e-001	 1.1827560293e+000	-2.0423963382e+000
 8.3152080591e-001	 1.1919458574e+000	-2.0388330495e+000
 8.1841311625e-001	 1.2009836731e+000	-2.0383075455e+000
 8.0522082657e-001	 1.2098682922e+000	-2.0395692307e+000
 7.9194659226e-001	 1.2185985904e+000	-2.0414338009e+000
 7.7859308685e-001	 1.2271735045e+000	-2.0427865743e+000
 7.6516300026e-001	 1.2355920320e+000	-2.0425856298e+000
 7.5165903715e-001	 1.2438532316e+000	-2.0398647379e+000
 7.3808391518e-001	 1.2519562236e+000	-2.0337360761e+000
 7.2444036328e-001	 1.2599001897e+000	-2.0233927173e+000
 7.1073111996e-001	 1.2676843733e+000	-2.0081108831e+000
 8.6003594977e-001	 1.2044559019e+000	-2.0995841798e+000
 8.4677661106e-001	 1.2138143345e+000	-2.0908954130e+000
 8.3342843630e-001	 1.2230179659e+000	-2.0851282876e+000
 8.1999410938e-001	 1.2320655899e+000	-2.0810059323e+000
 8.0647633441e-001	 1.2409560618e+000	-2.0773215678e+000
 7.9287783395e-001	 1.2496882988e+000	-2.0729420806e+000
 7.7920134729e-001	 1.2582612799e+000	-2.0668113904e+000
 7.6544962871e-001	 1.2666740467e+000	-2.0579535984e+000
 7.5162544573e-001	 1.2749257032e+000	-2.0454759053e+000
 7.3773157734e-001	 1.2830154163e+000	-2.0285712868e+000
 7.2377081230e-001	 1.2909424153e+000	-2.0065209183e+000
 8.7553063176e-001	 1.2261557636e+000	-2.1615866683e+000
 8.6203240858e-001	 1.2356828007e+000	-2.1497375569e+000
 8.4844374884e-001	 1.2450522477e+000	-2.1405234987e+000
 8.3476738481e-001	 1.2542628766e+000	-2.1326586218e+000
 8.2100606929e-001	 1.2633135221e+000	-2.1249305806e+000
 8.0716257390e-001	 1.2722030818e+000	-2.1162043614e+000
 7.9323968730e-001	 1.2809305164e+000	-2.1054258707e+000
 7.7924021338e-001	 1.2894948503e+000	-2.0916252921e+000
 7.6516696950e-001	 1.2978951713e+000	-2.0739201986e+000
 7.5102278475e-001	 1.3061306312e+000	-2.0515184087e+000
 7.3681049811e-001	 1.3142004456e+000	-2.0237205750e+000
 8.9102530988e-001	 1.2478556198e+000	-2.2307681968e+000
 8.7728820228e-001	 1.2575512615e+000	-2.2180016487e+000
 8.6345905763e-001	 1.2670865240e+000	-2.2073945779e+000
 8.4954065654e-001	 1.2764601577e+000	-2.1976680763e+000
 8.3553580053e-001	 1.2856709767e+000	-2.1876198516e+000
 8.2144731029e-001	 1.2947178591e+000	-2.1761282569e+000
 8.0727802380e-001	 1.3035997473e+000	-2.1621560933e+000
 7.9303079459e-001	 1.3123156482e+000	-2.1447541689e+000
 7.7870848989e-001	 1.3208646337e+000	-2.1230645994e+000
 7.6431398883e-001	 1.3292458404e+000	-2.0963238397e+000
 7.4985018066e-001	 1.3374584701e+000	-2.0639741592e+000
 6.1945281727e-001	 1.1048772657e+000	-2.1671463755e+000
 6.0745117825e-001	 1.1115208828e+000	-2.2092295162e+000
 5.9539709325e-001	 1.1180241233e+000	-2.2516624976e+000
 5.8329296476e-001	 1.1243864900e+000	-2.2939894177e+000
 5.7114119775e-001	 1.1306075389e+000	-2.3357942512e+000
 5.5894419814e-001	 1.1366868794e+000	-2.3767012099e+000
 5.4670437139e-001	 1.1426241741e+000	-2.4163750905e+000
 5.3442412108e-001	 1.1484191381e+000	-2.4545216104e+000
 5.2210584754e-001	 1.1540715394e+000	-2.4908877268e+000
 5.0975194641e-001	 1.1595811979e+000	-2.5252619387e+000
 4.9736480731e-001	 1.1649479851e+000	-2.5574745674e+000
 6.3249264651e-001	 1.1281355518e+000	-2.1642018860e+000
 6.2023836626e-001	 1.1349190208e+000	-2.1969398695e+000
 6.0793053600e-001	 1.1415591582e+000	-2.2297460067e+000
 5.9557160883e-001	 1.1480554562e+000	-2.2621849015e+000
 5.8316404031e-001	 1.1544074617e+000	-2.2938639200e+000
 5.7071028701e-001	 1.1606147757e+000	-2.3244335117e+000
 5.5821280504e-001	 1.1666770538e+000	-2.3535875244e+000
 5.4567404858e-001	 1.1725940051e+000	-2.3810635101e+000
 5.3309646847e-001	 1.1783653926e+000	-2.4066430204e+000
 5.2048251078e-001	 1.1839910325e+000	-2.4301518884e+000
 5.0783461546e-001	 1.1894707936e+000	-2.4514604936e+000
 6.4553244642e-001	 1.1513937857e+000	-2.1462953619e+000
 6.3302552550e-001	 1.1583171062e+000	-2.1705045053e+000
 6.2046395056e-001	 1.1650941401e+000	-2.1946118762e+000
 6.0785022527e-001	 1.1717243693e+000	-2.2182017169e+000
 5.9518685581e-001	 1.1782073310e+000	-2.2409031602e+000
 5.8247634941e-001	 1.1845426183e+000	-2.2623905230e+000
 5.6972121280e-001	 1.1907298794e+000	-2.2823836014e+000
 5.5692395076e-001	 1.1967688177e+000	-2.3006479644e+000
 5.4408706467e-001	 1.2026591912e+000	-2.3169952434e+000
 5.3121305102e-001	 1.2084008122e+000	-2.3312834139e+000
 5.1830440006e-001	 1.2139935469e+000	-2.3434170678e+000
 6.5857222024e-001	 1.1746519730e+000	-2.1179071629e+000
 6.4581265917e-001	 1.1817151448e+000	-2.1343806659e+000
 6.3299734006e-001	 1.1886290750e+000	-2.1506633044e+000
 6.2012881715e-001	 1.1953932349e+000	-2.1663581813e+000
 6.0720964727e-001	 1.2020071527e+000	-2.1811146661e+000
 5.9424238828e-001	 1.2084704129e+000	-2.1946286738e+000
 5.8122959754e-001	 1.2147826569e+000	-2.2066429541e+000
 5.6817383045e-001	 1.2209435820e+000	-2.2169473886e+000
 5.5507763888e-001	 1.2269529411e+000	-2.2253792927e+000
 5.4194356980e-001	 1.2328105430e+000	-2.2318237194e+000
 5.2877416372e-001	 1.2385162512e+000	-2.2362137598e+000
 6.7161197125e-001	 1.1979101196e+000	-2.0837934888e+000
 6.5859977046e-001	 1.2051131424e+000	-2.0930492511e+000
 6.4553070762e-001	 1.2121639687e+000	-2.1023233171e+000
 6.3240738755e-001	 1.2190620592e+000	-2.1109910065e+000
 6.1923241769e-001	 1.2258069327e+000	-2.1187204789e+000
 6.0600840655e-001	 1.2323981657e+000	-2.1252270635e+000
 5.9273796215e-001	 1.2388353924e+000	-2.1302735559e+000
 5.7942369044e-001	 1.2451183039e+000	-2.1336705364e+000
 5.6606819387e-001	 1.2512466486e+000	-2.1352767028e+000
 5.5267406980e-001	 1.2572202312e+000	-2.1349992165e+000
 5.3924390905e-001	 1.2630389125e+000	-2.1327940549e+000
 6.8465170270e-001	 1.2211682313e+000	-2.0509515017e+000
 6.7138686257e-001	 1.2285111049e+000	-2.0512480439e+000
 6.5806405638e-001	 1.2356988270e+000	-2.0540487478e+000
 6.4468593953e-001	 1.2427308479e+000	-2.0564690981e+000
 6.3125517008e-001	 1.2496066770e+000	-2.0579754049e+000
 6.1777440718e-001	 1.2563258826e+000	-2.0583002974e+000
 6.0424630949e-001	 1.2628880917e+000	-2.0572237798e+000
 5.9067353357e-001	 1.2692929896e+000	-2.0545735856e+000
 5.7705873237e-001	 1.2755403196e+000	-2.0502255617e+000
 5.6340455370e-001	 1.2816298827e+000	-2.0441040779e+000
 5.4971363869e-001	 1.2875615371e+000	-2.0361824549e+000
 6.9769141785e-001	 1.2444263139e+000	-2.0243184156e+000
 6.8417393870e-001	 1.2519090382e+000	-2.0158265468e+000
 6.7059738948e-001	 1.2592336560e+000	-2.0104905063e+000
 6.5696447616e-001	 1.2663996071e+000	-2.0072052922e+000
 6.4327790744e-001	 1.2734063916e+000	-2.0031784082e+000
 6.2954039311e-001	 1.2802535696e+000	-1.9980093621e+000
 6.1575464245e-001	 1.2869407610e+000	-1.9914925809e+000
 6.0192336263e-001	 1.2934676450e+000	-1.9834694547e+000
 5.8804925714e-001	 1.2998339602e+000	-1.9738287917e+000
 5.7413502419e-001	 1.3060395037e+000	-1.9625073122e+000
 5.6018335524e-001	 1.3120841310e+000	-1.9494901772e+000
 7.1073111996e-001	 1.2676843733e+000	-2.0081108831e+000
 6.9696100204e-001	 1.2753069481e+000	-1.9917069607e+000
 6.8313071005e-001	 1.2827684614e+000	-1.9782944689e+000
 6.6924300052e-001	 1.2900683426e+000	-1.9677281322e+000
 6.5530063278e-001	 1.2972060824e+000	-1.9586822393e+000
 6.4130636726e-001	 1.3041812327e+000	-1.9485707888e+000
 6.2726296390e-001	 1.3109934062e+000	-1.9371380425e+000
 6.1317318045e-001	 1.3176422763e+000	-1.9242355799e+000
 5.9903977091e-001	 1.3241275766e+000	-1.9097610049e+000
 5.8486548396e-001	 1.3304491003e+000	-1.8936585482e+000
 5.7065306131e-001	 1.3366067004e+000	-1.8758847578e+000
 7.2377081230e-001	 1.2909424153e+000	-2.0065209183e+000
 7.0974805580e-001	 1.2987048405e+000	-1.9831155094e+000
 6.9566402121e-001	 1.3063032492e+000	-1.9624468499e+000
 6.8152151567e-001	 1.3137370603e+000	-1.9443899220e+000
 6.6732334910e-001	 1.3210057554e+000	-1.9289051839e+000
 6.5307233260e-001	 1.3281088778e+000	-1.9142643224e+000
 6.3877127672e-001	 1.3350460334e+000	-1.8982870337e+000
 6.2442298983e-001	 1.3418168895e+000	-1.8808309835e+000
 6.1003027645e-001	 1.3484211747e+000	-1.8616489755e+000
 5.9559593567e-001	 1.3548586787e+000	-1.8405141512e+000
 5.8112275954e-001	 1.3611292514e+000	-1.8172643421e+000
 7.3681049811e-001	 1.3142004456e+000	-2.0237205750e+000
 7.2253510315e-001	 1.3221027211e+000	-1.9942609945e+000
 7.0819732611e-001	 1.3298380252e+000	-1.9671685942e+000
 6.9380002467e-001	 1.3374057663e+000	-1.9424004030e+000
 6.7934605941e-001	 1.3448054164e+000	-1.9201674432e+000
 6.6483829205e-001	 1.3520365110e+000	-1.9003354676e+000
 6.5027958379e-001	 1.3590986486e+000	-1.8804013697e+000
 6.3567279358e-001	 1.3659914906e+000	-1.8585938983e+000
 6.2102077649e-001	 1.3727147607e+000	-1.8346273339e+000
 6.0632638202e-001	 1.3792682448e+000	-1.8082784389e+000
 5.9159245253e-001	 1.3856517902e+000	-1.7793905363e+000
 7.4985018066e-001	 1.3374584701e+000	-2.0639741592e+000
 7.3532214732e-001	 1.3455005959e+000	-2.0301965518e+000
 7.2073062788e-001	 1.3533727953e+000	-1.9987766925e+000
 7.0607853061e-001	 1.3610744663e+000	-1.9693776683e+000
 6.9136876671e-001	 1.3686050715e+000	-1.9417612373e+000
 6.7660424856e-001	 1.3759641382e+000	-1.9157885751e+000
 6.6178788798e-001	 1.3831512578e+000	-1.8912034498e+000
 6.4692259452e-001	 1.3901660856e+000	-1.8650762009e+000
 6.3201127378e-001	 1.3970083406e+000	-1.8362607179e+000
 6.1705682569e-001	 1.4036778048e+000	-1.8045320720e+000
 6.0206214291e-001	 1.4101743228e+000	-1.7697338273e+000
 4.9736480731e-001	 1.1649479851e+000	-2.5574745674e+000
 4.8494494752e-001	 1.1701725973e+000	-2.5875560933e+000
 4.7249659800e-001	 1.1752541932e+000	-2.6156654573e+000
 4.6002212396e-001	 1.1801927979e+000	-2.6419000592e+000
 4.4752387933e-001	 1.1849884863e+000	-2.6663957294e+000
 4.3500420550e-001	 1.1896413827e+000	-2.6893266236e+000
 4.2246543011e-001	 1.1941516598e+000	-2.7109050902e+000
 4.0990986582e-001	 1.1985195382e+000	-2.7313815057e+000
 3.9733980923e-001	 1.2027452861e+000	-2.7510440754e+000
 3.8475753968e-001	 1.2068292178e+000	-2.7702185965e+000
 3.7216531816e-001	 1.2107716938e+000	-2.7892681799e+000
 5.0783461546e-001	 1.1894707936e+000	-2.4514604936e+000
 4.9515331066e-001	 1.1948053868e+000	-2.4706060542e+000
 4.8244291640e-001	 1.1999939531e+000	-2.4877482759e+000
 4.6970584769e-001	 1.2050365182e+000	-2.5030163539e+000
 4.5694450800e-001	 1.2099331586e+000	-2.5165826631e+000
 4.4416128801e-001	 1.2146840010e+000	-2.5286626351e+000
 4.3135856436e-001	 1.2192892220e+000	-2.5395146038e+000
 4.1853869841e-001	 1.2237490467e+000	-2.5494396182e+000
 4.0570403507e-001	 1.2280637489e+000	-2.5587812157e+000
 3.9285690169e-001	 1.2322336498e+000	-2.5679251549e+000
 3.7999960685e-001	 1.2362591171e+000	-2.5772991019e+000
 5.1830440006e-001	 1.2139935469e+000	-2.3434170678e+000
 5.0536165083e-001	 1.2194381209e+000	-2.3534766484e+000
 4.9238921242e-001	 1.2247336574e+000	-2.3616626869e+000
 4.7938954962e-001	 1.2298801827e+000	-2.3681353642e+000
 4.6636511547e-001	 1.2348777747e+000	-2.3731019478e+000
 4.5331834992e-001	 1.2397265631e+000	-2.3768166728e+000
 4.4025167860e-001	 1.2444267276e+000	-2.3795805927e+000
 4.2716751158e-001	 1.2489784985e+000	-2.3817413935e+000
 4.1406824210e-001	 1.2533821548e+000	-2.3836931697e+000
 4.0095624548e-001	 1.2576380245e+000	-2.3858761539e+000
 3.8783387790e-001	 1.2617464830e+000	-2.3887764001e+000
 5.2877416372e-001	 1.2385162512e+000	-2.2362137598e+000
 5.1556997059e-001	 1.2440708057e+000	-2.2387039918e+000
 5.0233548855e-001	 1.2494733122e+000	-2.2395700851e+000
 4.8907323219e-001	 1.2547237974e+000	-2.2390021529e+000
 4.7578570410e-001	 1.2598223410e+000	-2.2372404818e+000
 4.6247539351e-001	 1.2647690750e+000	-2.2345754409e+000
 4.4914477506e-001	 1.2695641830e+000	-2.2313473625e+000
 4.3579630749e-001	 1.2742078998e+000	-2.2279463867e+000
 4.2243243239e-001	 1.2787005101e+000	-2.2248122662e+000
 4.0905557307e-001	 1.2830423485e+000	-2.2224341255e+000
 3.9566813330e-001	 1.2872337979e+000	-2.2213501696e+000
 5.3924390905e-001	 1.2630389125e+000	-2.1327940549e+000
 5.2577827248e-001	 1.2687034474e+000	-2.1289156709e+000
 5.1228174727e-001	 1.2742129237e+000	-2.1237438569e+000
 4.9875689782e-001	 1.2795673687e+000	-2.1174973518e+000
 4.8520627624e-001	 1.2847668636e+000	-2.1104473527e+000
 4.7163242108e-001	 1.2898115431e+000	-2.1029174778e+000
 4.5803785596e-001	 1.2947015944e+000	-2.0952837031e+000
 4.4442508830e-001	 1.2994372569e+000	-2.0879742661e+000
 4.3079660805e-001	 1.3040188211e+000	-2.0814695295e+000
 4.1715488648e-001	 1.3084466280e+000	-2.0763018001e+000
 4.0350237498e-001	 1.3127210682e+000	-2.0730550960e+000
 5.4971363869e-001	 1.2875615371e+000	-2.0361824549e+000
 5.3598655906e-001	 1.2933360522e+000	-2.0268359572e+000
 5.2222799108e-001	 1.2989524981e+000	-2.0165725362e+000
 5.0844054892e-001	 1.3044109027e+000	-2.0056379847e+000
 4.9462683425e-001	 1.3097113488e+000	-1.9943320521e+000
 4.8078943491e-001	 1.3148539736e+000	-1.9830084875e+000
 4.6693092352e-001	 1.3198389681e+000	-1.9720750600e+000
 4.5305385617e-001	 1.3246665762e+000	-1.9619935502e+000
 4.3916077117e-001	 1.3293370941e+000	-1.9532797048e+000
 4.2525418775e-001	 1.3338508694e+000	-1.9464995234e+000
 4.1133660491e-001	 1.3382083003e+000	-1.9419868711e+000
 5.6018335524e-001	 1.3120841310e+000	-1.9494901772e+000
 5.4619483288e-001	 1.3179686261e+000	-1.9352899281e+000
 5.3217422245e-001	 1.3236920416e+000	-1.9205621039e+000
 5.1812418791e-001	 1.3292544057e+000	-1.9055777034e+000
 5.0404738049e-001	 1.3346558028e+000	-1.8906488563e+000
 4.8994643730e-001	 1.3398963729e+000	-1.8758467784e+000
 4.7582397996e-001	 1.3449763104e+000	-1.8614314403e+000
 4.6168261326e-001	 1.3498958639e+000	-1.8478473476e+000
 4.4752492382e-001	 1.3546553354e+000	-1.8356141469e+000
 4.3335347890e-001	 1.3592550790e+000	-1.8253262254e+000
 4.1917082505e-001	 1.3636955006e+000	-1.8176520053e+000
 5.7065306131e-001	 1.3366067004e+000	-1.8758847578e+000
 5.5640309649e-001	 1.3426011755e+000	-1.8568681257e+000
 5.4212044388e-001	 1.3484315603e+000	-1.8372799797e+000
 5.2780781723e-001	 1.3540978838e+000	-1.8173087405e+000
 5.1346791731e-001	 1.3596002319e+000	-1.7972196933e+000
 4.9910343053e-001	 1.3649387471e+000	-1.7773559804e+000
 4.8471702751e-001	 1.3701136275e+000	-1.7581392207e+000
 4.7031136171e-001	 1.3751251265e+000	-1.7400697639e+000
 4.5588906812e-001	 1.3799735514e+000	-1.7237265863e+000
 4.4145276194e-001	 1.3846592633e+000	-1.7097668378e+000
 4.2700503735e-001	 1.3891826753e+000	-1.6989250518e+000
 5.8112275954e-001	 1.3611292514e+000	-1.8172643421e+000
 5.6661135245e-001	 1.3672337064e+000	-1.7925864590e+000
 5.5206665785e-001	 1.3731710605e+000	-1.7673633729e+000
 5.3749143928e-001	 1.3789413433e+000	-1.7418255972e+000
 5.2288844706e-001	 1.3845446423e+000	-1.7162836928e+000
 5.0826041690e-001	 1.3899811025e+000	-1.6911293627e+000
 4.9361006839e-001	 1.3952509258e+000	-1.6668361349e+000
 4.7894010370e-001	 1.4003543701e+000	-1.6439596415e+000
 4.6425320614e-001	 1.4052917485e+000	-1.6231375012e+000
 4.4955203891e-001	 1.4100634284e+000	-1.6050888172e+000
 4.3483924378e-001	 1.4146698310e+000	-1.5906133037e+000
 5.9159245253e-001	 1.3856517902e+000	-1.7793905363e+000
 5.7681960330e-001	 1.3918662249e+000	-1.7488277294e+000
 5.6201286685e-001	 1.3979105484e+000	-1.7176735336e+000
 5.4717505649e-001	 1.4037847904e+000	-1.6862003478e+000
 5.3230897211e-001	 1.4094890402e+000	-1.6547637057e+000
 5.1741739869e-001	 1.4150234454e+000	-1.6238034890e+000
 5.0250310483e-001	 1.4203882115e+000	-1.5938446857e+000
 4.8756884137e-001	 1.4255836011e+000	-1.5654977029e+000
 4.7261733998e-001	 1.4306099329e+000	-1.5394582409e+000
 4.5765131184e-001	 1.4354675809e+000	-1.5165067449e+000
 4.4267344629e-001	 1.4401569739e+000	-1.4975074463e+000
 6.0206214291e-001	 1.4101743228e+000	-1.7697338273e+000
 5.8702785160e-001	 1.4164987373e+000	-1.7329096955e+000
 5.7195907336e-001	 1.4226500300e+000	-1.6953495080e+000
 5.5685867128e-001	 1.4286282313e+000	-1.6573670788e+000
 5.4172949480e-001	 1.4344334318e+000	-1.6193624265e+000
 5.2657437818e-001	 1.4400657820e+000	-1.5818231212e+000
 5.1139613904e-001	 1.4455254909e+000	-1.5453251308e+000
 4.9619757688e-001	 1.4508128258e+000	-1.5105331739e+000
 4.8098147173e-001	 1.4559281109e+000	-1.4782005914e+000
 4.6575058273e-001	 1.4608717271e+000	-1.4491687516e+000
 4.5050764685e-001	 1.4656441104e+000	-1.4243660037e+000
 3.7216531816e-001	 1.2107716938e+000	-2.7892681799e+000
 3.5956538610e-001	 1.2145731190e+000	-2.8065614930e+000
 3.4695996377e-001	 1.2182339414e+000	-2.8206598968e+000
 3.3435124988e-001	 1.2217546522e+000	-2.8322602084e+000
 3.2174142079e-001	 1.2251357850e+000	-2.8420812297e+000
 3.0913262957e-001	 1.2283779150e+000	-2.8508630893e+000
 2.9652700510e-001	 1.2314816584e+000	-2.8593665564e+000
 2.8392665122e-001	 1.2344476710e+000	-2.8683723238e+000
 2.7133364591e-001	 1.2372766476e+000	-2.8786802580e+000
 2.5875004047e-001	 1.2399693210e+000	-2.8911086154e+000
 2.4617785878e-001	 1.2425264611e+000	-2.9064932232e+000
 3.7999960685e-001	 1.2362591171e+000	-2.5772991019e+000
 3.6713443915e-001	 1.2401405644e+000	-2.5849975364e+000
 3.5426366561e-001	 1.2438784492e+000	-2.5893376843e+000
 3.4138953122e-001	 1.2474732729e+000	-2.5911298320e+000
 3.2851425815e-001	 1.2509255804e+000	-2.5912067572e+000
 3.1564004480e-001	 1.2542359591e+000	-2.5904230203e+000
 3.0276906487e-001	 1.2574050380e+000	-2.5896542252e+000
 2.8990346648e-001	 1.2604334868e+000	-2.5897962510e+000
 2.7704537134e-001	 1.2633220150e+000	-2.5917644485e+000
 2.6419687395e-001	 1.2660713707e+000	-2.5964928020e+000
 2.5136004078e-001	 1.2686823400e+000	-2.6049330530e+000
 3.8783387790e-001	 1.2617464830e+000	-2.3887764001e+000
 3.7470347516e-001	 1.2657079522e+000	-2.3901368942e+000
 3.6156735101e-001	 1.2695228992e+000	-2.3879471535e+000
 3.4842779672e-001	 1.2731918357e+000	-2.3831153278e+000
 3.3528708028e-001	 1.2767153178e+000	-2.3765731939e+000
 3.2214744540e-001	 1.2800939450e+000	-2.3692754153e+000
 3.0901111059e-001	 1.2833283593e+000	-2.3621987724e+000
 2.9588026828e-001	 1.2864192442e+000	-2.3563413588e+000
 2.8275708392e-001	 1.2893673238e+000	-2.3527217416e+000
 2.6964369517e-001	 1.2921733617e+000	-2.3523780837e+000
 2.5654221113e-001	 1.2948381601e+000	-2.3563672237e+000
 3.9566813330e-001	 1.2872337979e+000	-2.2213501696e+000
 3.8227249605e-001	 1.2912752890e+000	-2.2189012921e+000
 3.6887102181e-001	 1.2951672980e+000	-2.2126927310e+000
 3.5546604815e-001	 1.2989103471e+000	-2.2037152792e+000
 3.4205988886e-001	 1.3025050036e+000	-2.1929851017e+000
 3.2865483298e-001	 1.3059518792e+000	-2.1815429870e+000
 3.1525314384e-001	 1.3092516287e+000	-2.1704535661e+000
 3.0185705814e-001	 1.3124049496e+000	-2.1608044940e+000
 2.8846878507e-001	 1.3154125805e+000	-2.1537055913e+000
 2.7509050550e-001	 1.3182753004e+000	-2.1502879426e+000
 2.6172437110e-001	 1.3209939278e+000	-2.1517029483e+000
 4.0350237498e-001	 1.3127210682e+000	-2.0730550960e+000
 3.8984150368e-001	 1.3168425809e+000	-2.0686422120e+000
 3.7617467983e-001	 1.3208116519e+000	-2.0602524035e+000
 3.6250428726e-001	 1.3246288135e+000	-2.0489442009e+000
 3.4883268559e-001	 1.3282946443e+000	-2.0358038449e+000
 3.3516220917e-001	 1.3318097681e+000	-2.0219445532e+000
 3.2149516616e-001	 1.3351748528e+000	-2.0084485160e+000
 3.0783383753e-001	 1.3383906095e+000	-1.9962252814e+000
 2.9418047623e-001	 1.3414577916e+000	-1.9864680248e+000
 2.8053730629e-001	 1.3443771935e+000	-1.9804353797e+000
 2.6690652201e-001	 1.3471496498e+000	-1.9794135486e+000
 4.1133660491e-001	 1.3382083003e+000	-1.9419868711e+000
 3.9741049996e-001	 1.3424098346e+000	-1.9360382988e+000
 3.8347832689e-001	 1.3464559673e+000	-1.9254273445e+000
 3.6954251581e-001	 1.3503472413e+000	-1.9112888261e+000
 3.5560547216e-001	 1.3540842463e+000	-1.8948011671e+000
 3.4166957560e-001	 1.3576676183e+000	-1.8771843877e+000
 3.2773717911e-001	 1.3610980380e+000	-1.8596979484e+000
 3.1381060796e-001	 1.3643762305e+000	-1.8436384600e+000
 2.9989215883e-001	 1.3675029637e+000	-1.8303372762e+000
 2.8598409892e-001	 1.3704790474e+000	-1.8211579871e+000
 2.7208866515e-001	 1.3733053326e+000	-1.8174938279e+000
 4.1917082505e-001	 1.3636955006e+000	-1.8176520053e+000
 4.0497948679e-001	 1.3679770563e+000	-1.8086893376e+000
 3.9078196482e-001	 1.3721002507e+000	-1.7948374678e+000
 3.7658073557e-001	 1.3760656369e+000	-1.7773091930e+000
 3.6237825026e-001	 1.3798738161e+000	-1.7573653901e+000
 3.4817693390e-001	 1.3835254361e+000	-1.7363127520e+000
 3.3397918427e-001	 1.3870211908e+000	-1.7155013550e+000
 3.1978737092e-001	 1.3903618190e+000	-1.6963220765e+000
 3.0560383428e-001	 1.3935481032e+000	-1.6802038803e+000
 2.9143088474e-001	 1.3965808687e+000	-1.6686109896e+000
 2.7727080181e-001	 1.3994609826e+000	-1.6630399661e+000
 4.2700503735e-001	 1.3891826753e+000	-1.6989250518e+000
 4.1254846604e-001	 1.3935442524e+000	-1.6869646828e+000
 3.9808559545e-001	 1.3977445084e+000	-1.6699489442e+000
 3.8361894829e-001	 1.4017840069e+000	-1.6491608194e+000
 3.6915102159e-001	 1.4056633601e+000	-1.6259366135e+000
 3.5468428569e-001	 1.4093832281e+000	-1.6016634153e+000
 3.4022118318e-001	 1.4129443177e+000	-1.5777763685e+000
 3.2576412790e-001	 1.4163473815e+000	-1.5557557727e+000
 3.1131550402e-001	 1.4195932166e+000	-1.5371240360e+000
 2.9687766511e-001	 1.4226826639e+000	-1.5234424994e+000
 2.8245293328e-001	 1.4256166065e+000	-1.5163081551e+000
 4.3483924378e-001	 1.4146698310e+000	-1.5906133037e+000
 4.2011743962e-001	 1.4191114293e+000	-1.5752014352e+000
 4.0538922061e-001	 1.4233887469e+000	-1.5546373640e+000
 3.9065715573e-001	 1.4275023575e+000	-1.5302671744e+000
 3.7592378784e-001	 1.4314528847e+000	-1.5034963050e+000
 3.6119163260e-001	 1.4352410007e+000	-1.4757867166e+000
 3.4646317741e-001	 1.4388674251e+000	-1.4486538431e+000
 3.3174088040e-001	 1.4423329245e+000	-1.4236633499e+000
 3.1702716948e-001	 1.4456383106e+000	-1.4024277238e+000
 3.0232444140e-001	 1.4487844395e+000	-1.3866027176e+000
 2.8763506087e-001	 1.4517722108e+000	-1.3778836759e+000
 4.4267344629e-001	 1.4401569739e+000	-1.4975074463e+000
 4.2768640941e-001	 1.4446785935e+000	-1.4777564368e+000
 4.1269284211e-001	 1.4490329726e+000	-1.4528331938e+000
 3.9769535965e-001	 1.4532206953e+000	-1.4241405075e+000
 3.8269655071e-001	 1.4572423965e+000	-1.3931473754e+000
 3.6769897626e-001	 1.4610987603e+000	-1.3613858511e+000
 3.5270516852e-001	 1.4647905196e+000	-1.3304476489e+000
 3.3771762992e-001	 1.4683184545e+000	-1.3019805301e+000
 3.2273883208e-001	 1.4716833915e+000	-1.2776844973e+000
 3.0777121496e-001	 1.4748862021e+000	-1.2593078263e+000
 2.9281718587e-001	 1.4779278020e+000	-1.2486429606e+000
 4.5050764685e-001	 1.4656441104e+000	-1.4243660037e+000
 4.3525537731e-001	 1.4702457512e+000	-1.3989886626e+000
 4.1999646178e-001	 1.4746771918e+000	-1.3685021489e+000
 4.0473356181e-001	 1.4789390267e+000	-1.3343602432e+000
 3.8946931188e-001	 1.4830319018e+000	-1.2980906370e+000
 3.7420631829e-001	 1.4869565135e+000	-1.2612914377e+000
 3.5894715807e-001	 1.4907136076e+000	-1.2256273968e+000
 3.4369437793e-001	 1.4943039780e+000	-1.1928258903e+000
 3.2845049326e-001	 1.4977284659e+000	-1.1646726836e+000
 3.1321798717e-001	 1.5009879582e+000	-1.1430075106e+000
 2.9799930958e-001	 1.5040833867e+000	-1.1297194985e+000
 2.4617785878e-001	 1.2425264611e+000	-2.9064932232e+000
 2.3362097874e-001	 1.2449485205e+000	-2.9212485292e+000
 2.2107947735e-001	 1.2472367342e+000	-2.9318932554e+000
 2.0855528842e-001	 1.2493919777e+000	-2.9394212335e+000
 1.9605031575e-001	 1.2514151596e+000	-2.9448212594e+000
 1.8356643257e-001	 1.2533072201e+000	-2.9490763921e+000
 1.7110548102e-001	 1.2550691308e+000	-2.9531632392e+000
 1.5866927164e-001	 1.2567018928e+000	-2.9580512322e+000
 1.4625958289e-001	 1.2582065363e+000	-2.9647018887e+000
 1.3387816074e-001	 1.2595841192e+000	-2.9740680633e+000
 1.2152671826e-001	 1.2608357263e+000	-2.9870931867e+000
 2.5136004078e-001	 1.2686823400e+000	-2.6049330530e+000
 2.3853883137e-001	 1.2711553851e+000	-2.6130495026e+000
 2.2573332434e-001	 1.2734917670e+000	-2.6169166593e+000
 2.1294549421e-001	 1.2756923796e+000	-2.6176551554e+000
 2.0017728485e-001	 1.2777581506e+000	-2.6163791383e+000
 1.8743060893e-001	 1.2796900401e+000	-2.6141955154e+000
 1.7470734737e-001	 1.2814890399e+000	-2.6122031862e+000
 1.6200934880e-001	 1.2831561725e+000	-2.6114922613e+000
 1.4933842914e-001	 1.2846924896e+000	-2.6131432677e+000
 1.3669637111e-001	 1.2860990714e+000	-2.6182263404e+000
 1.2408492384e-001	 1.2873770255e+000	-2.6278004015e+000
 2.5654221113e-001	 1.2948381601e+000	-2.3563672237e+000
 2.4345667294e-001	 1.2973621908e+000	-2.3601663588e+000
 2.3038716087e-001	 1.2997467407e+000	-2.3593697345e+000
 2.1733569013e-001	 1.3019927223e+000	-2.3552156815e+000
 2.0430424467e-001	 1.3041010823e+000	-2.3489357768e+000
 1.9129477660e-001	 1.3060728006e+000	-2.3417540305e+000
 1.7830920561e-001	 1.3079088896e+000	-2.3348860569e+000
 1.6534941845e-001	 1.3096103927e+000	-2.3295382287e+000
 1.5241726847e-001	 1.3111783833e+000	-2.3269068145e+000
 1.3951457514e-001	 1.3126139639e+000	-2.3281770982e+000
 1.2664312367e-001	 1.3139182650e+000	-2.3345224824e+000
 2.6172437110e-001	 1.3209939278e+000	-2.1517029483e+000
 2.4837450467e-001	 1.3235689440e+000	-2.1529146905e+000
 2.3504098809e-001	 1.3260016620e+000	-2.1490118582e+000
 2.2172587726e-001	 1.3282930124e+000	-2.1413416219e+000
 2.0843119624e-001	 1.3304439613e+000	-2.1312452858e+000
 1.9515893654e-001	 1.3324555085e+000	-2.1200574135e+000
 1.8191105664e-001	 1.3343286865e+000	-2.1090868052e+000
 1.6868948142e-001	 1.3360645600e+000	-2.0995789161e+000
 1.5549610164e-001	 1.3376642240e+000	-2.0928634457e+000
 1.4233277354e-001	 1.3391288034e+000	-2.0902696087e+000
 1.2920131837e-001	 1.3404594514e+000	-2.0931120642e+000
 2.6690652201e-001	 1.3471496498e+000	-1.9794135486e+000
 2.5329232780e-001	 1.3497756514e+000	-1.9778918799e+000
 2.3969480716e-001	 1.3522565372e+000	-1.9704942839e+000
 2.2611605672e-001	 1.3545932565e+000	-1.9587254052e+000
 2.1255814058e-001	 1.3567867943e+000	-1.9440857518e+000
 1.9902308972e-001	 1.3588381701e+000	-1.9280695650e+000
 1.8551290138e-001	 1.3607484371e+000	-1.9121627301e+000
 1.7202953854e-001	 1.3625186809e+000	-1.8978407374e+000
 1.5857492942e-001	 1.3641500184e+000	-1.8865667053e+000
 1.4515096700e-001	 1.3656435965e+000	-1.8797894738e+000
 1.3175950861e-001	 1.3670005914e+000	-1.8789417771e+000
 2.7208866515e-001	 1.3733053326e+000	-1.8174938279e+000
 2.5821014355e-001	 1.3759823195e+000	-1.8133303030e+000
 2.4434861925e-001	 1.3785113731e+000	-1.8027937563e+000
 2.3050622959e-001	 1.3808934612e+000	-1.7875086548e+000
 2.1668507874e-001	 1.3831295877e+000	-1.7690963162e+000
 2.0288723710e-001	 1.3852207922e+000	-1.7491724465e+000
 1.8911474071e-001	 1.3871681481e+000	-1.7293447217e+000
 1.7536959065e-001	 1.3889727622e+000	-1.7112104268e+000
 1.6165375258e-001	 1.3906357731e+000	-1.6963541633e+000
 1.4796915623e-001	 1.3921583499e+000	-1.6863456365e+000
 1.3431769500e-001	 1.3935416916e+000	-1.6827375323e+000
 2.7727080181e-001	 1.3994609826e+000	-1.6630399661e+000
 2.6312795315e-001	 1.4021889548e+000	-1.6569804127e+000
 2.4900242552e-001	 1.4047661762e+000	-1.6440692584e+000
 2.3489639697e-001	 1.4071936330e+000	-1.6260481715e+000
 2.2081201173e-001	 1.4094723482e+000	-1.6046575046e+000
 2.0675137966e-001	 1.4116033813e+000	-1.5816334598e+000
 1.9271657554e-001	 1.4135878261e+000	-1.5587053003e+000
 1.7870963858e-001	 1.4154268105e+000	-1.5375926254e+000
 1.6473257189e-001	 1.4171214946e+000	-1.5200027208e+000
 1.5078734195e-001	 1.4186730700e+000	-1.5076279973e+000
 1.3687587820e-001	 1.4200827586e+000	-1.5021435306e+000
 2.8245293328e-001	 1.4256166065e+000	-1.5163081551e+000
 2.6804575784e-001	 1.4283955639e+000	-1.5087312476e+000
 2.5365622715e-001	 1.4310209530e+000	-1.4938759247e+000
 2.3928655996e-001	 1.4334937784e+000	-1.4735992297e+000
 2.2493894060e-001	 1.4358150824e+000	-1.4497595494e+000
 2.1061551834e-001	 1.4379859440e+000	-1.4242133633e+000
 1.9631840676e-001	 1.4400074777e+000	-1.3988120416e+000
 1.8204968318e-001	 1.4418808323e+000	-1.3753987117e+000
 1.6781138813e-001	 1.4436071897e+000	-1.3558052064e+000
 1.5360552484e-001	 1.4451877637e+000	-1.3418491106e+000
 1.3943405884e-001	 1.4466237990e+000	-1.3353309186e+000
 2.8763506087e-001	 1.4517722108e+000	-1.3778836759e+000
 2.7296355883e-001	 1.4546021534e+000	-1.3688260743e+000
 2.5831002528e-001	 1.4572757102e+000	-1.3521458541e+000
 2.4367671966e-001	 1.4597939042e+000	-1.3298144164e+000
 2.2906586638e-001	 1.4621577968e+000	-1.3038079728e+000
 2.1447965413e-001	 1.4643684869e+000	-1.2761038316e+000
 1.9992023529e-001	 1.4664271094e+000	-1.2486767364e+000
 1.8538972527e-001	 1.4683348342e+000	-1.2234952758e+000
 1.7089020205e-001	 1.4700928649e+000	-1.2025183833e+000
 1.5642370563e-001	 1.4717024375e+000	-1.1876919436e+000
 1.4199223756e-001	 1.4731648196e+000	-1.1809455217e+000
 2.9281718587e-001	 1.4779278020e+000	-1.2486429606e+000
 2.7788135737e-001	 1.4808087297e+000	-1.2378227443e+000
 2.6296382108e-001	 1.4835304542e+000	-1.2191469375e+000
 2.4806687716e-001	 1.4860940168e+000	-1.1947011088e+000
 2.3319279009e-001	 1.4885004981e+000	-1.1665798965e+000
 2.1834378799e-001	 1.4907510167e+000	-1.1368827829e+000
 2.0352206201e-001	 1.4928467280e+000	-1.1077099230e+000
 1.8872976570e-001	 1.4947888229e+000	-1.0811580478e+000
 1.7396901444e-001	 1.4965785268e+000	-1.0593164651e+000
 1.5924188500e-001	 1.4982170980e+000	-1.0442631757e+000
 1.4455041500e-001	 1.4997058268e+000	-1.0380611240e+000
 2.9799930958e-001	 1.5040833867e+000	-1.1297194985e+000
 2.8279915468e-001	 1.5070152995e+000	-1.1165580924e+000
 2.6761761573e-001	 1.5097851916e+000	-1.0954459047e+000
 2.5245703357e-001	 1.5123941228e+000	-1.0685833276e+000
 2.3731971277e-001	 1.5148431927e+000	-1.0381848627e+000
 2.2220792089e-001	 1.5171335398e+000	-1.0064743308e+000
 2.0712388784e-001	 1.5192663399e+000	-9.7568013694e-001
 1.9206980528e-001	 1.5212428050e+000	-9.4803061427e-001
 1.7704782606e-001	 1.5230641822e+000	-9.2574947130e-001
 1.6206006367e-001	 1.5247317519e+000	-9.1105136525e-001
 1.4710859180e-001	 1.5262468275e+000	-9.0613762181e-001
 1.2152671826e-001	 1.2608357263e+000	-2.9870931867e+000
 1.0920509388e-001	 1.2619626278e+000	-3.0007827416e+000
 9.6916810941e-002	 1.2629657625e+000	-3.0121337311e+000
 8.4663507302e-002	 1.2638462899e+000	-3.0220567151e+000
 7.2446785896e-002	 1.2646053925e+000	-3.0314360514e+000
 6.0268214518e-002	 1.2652442741e+000	-3.0411295585e+000
 4.8129325638e-002	 1.2657641593e+000	-3.0519681811e+000
 3.6031616237e-002	 1.2661662922e+000	-3.0647556601e+000
 2.3976547683e-002	 1.2664519353e+000	-3.0802682078e+000
 1.1965545641e-002	 1.2666223687e+000	-3.0992541886e+000
 0.0000000000e+000	 1.2666788891e+000	-3.1224339302e+000
 1.2408492384e-001	 1.2873770255e+000	-2.6278004015e+000
 1.1150392235e-001	 1.2885276489e+000	-2.6384386170e+000
 9.8956964168e-002	 1.2895519001e+000	-2.6466997458e+000
 8.6445721615e-002	 1.2904509632e+000	-2.6535935010e+000
 7.3971831370e-002	 1.2912260453e+000	-2.6600971610e+000
 6.1536894235e-002	 1.2918783757e+000	-2.6671553063e+000
 4.9142474935e-002	 1.2924092048e+000	-2.6756795596e+000
 3.6790101965e-002	 1.2928198028e+000	-2.6865483321e+000
 2.4481267458e-002	 1.2931114588e+000	-2.7006065739e+000
 1.2217427086e-002	 1.2932854800e+000	-2.7186655325e+000
 0.0000000000e+000	 1.2933431901e+000	-2.7415025560e+000
 1.2664312367e-001	 1.3139182650e+000	-2.3345224824e+000
 1.1380274566e-001	 1.3150926103e+000	-2.3419762769e+000
 1.0099711281e-001	 1.3161379780e+000	-2.3465584276e+000
 8.8227931917e-002	 1.3170555766e+000	-2.3493895522e+000
 7.5496873414e-002	 1.3178466382e+000	-2.3515534605e+000
 6.2805571096e-002	 1.3185124174e+000	-2.3540969056e+000
 5.0155621952e-002	 1.3190541903e+000	-2.3580293375e+000
 3.7548585987e-002	 1.3194732534e+000	-2.3643226612e+000
 2.4985986097e-002	 1.3197709224e+000	-2.3739110000e+000
 1.2469307965e-002	 1.3199485313e+000	-2.3876904644e+000
 0.0000000000e+000	 1.3200074312e+000	-2.4065189410e+000
 1.2920131837e-001	 1.3404594514e+000	-2.0931120642e+000
 1.1610156436e-001	 1.3416575185e+000	-2.0968287317e+000
 1.0303725736e-001	 1.3427240027e+000	-2.0968478945e+000
 9.0010138656e-002	 1.3436601368e+000	-2.0944280552e+000
 7.7021912407e-002	 1.3444671778e+000	-2.0907839261e+000
 6.4074245421e-002	 1.3451464058e+000	-2.0870860812e+000
 5.1168766943e-002	 1.3456991226e+000	-2.0844607226e+000
 3.8307068493e-002	 1.3461266508e+000	-2.0839895599e+000
 2.5490703727e-002	 1.3464303327e+000	-2.0867098049e+000
 1.2721188341e-002	 1.3466115292e+000	-2.0936142774e+000
 0.0000000000e+000	 1.3466716190e+000	-2.1056516373e+000
 1.3175950861e-001	 1.3670005914e+000	-1.8789417771e+000
 1.1840037905e-001	 1.3682223803e+000	-1.8787904301e+000
 1.0507739835e-001	 1.3693099808e+000	-1.8741031490e+000
 9.1792342276e-002	 1.3702646504e+000	-1.8662663653e+000
 7.8546948732e-002	 1.3710876709e+000	-1.8566184419e+000
 6.5342917526e-002	 1.3717803477e+000	-1.8464491754e+000
 5.2181910162e-002	 1.3723440082e+000	-1.8369994304e+000
 3.9065549671e-002	 1.3727800015e+000	-1.8294609052e+000
 2.5995420473e-002	 1.3730896963e+000	-1.8249760298e+000
 1.2973068276e-002	 1.3732744805e+000	-1.8246379946e+000
 0.0000000000e+000	 1.3733357600e+000	-1.8294909233e+000
 1.3431769500e-001	 1.3935416916e+000	-1.6827375323e+000
 1.2069919028e-001	 1.3947872022e+000	-1.6795979465e+000
 1.0711753628e-001	 1.3958959191e+000	-1.6710113839e+000
 9.3574543223e-002	 1.3968691242e+000	-1.6585033512e+000
 8.0071982770e-002	 1.3977081241e+000	-1.6435482157e+000
 6.6611587728e-002	 1.3984142495e+000	-1.6275684889e+000
 5.3195051861e-002	 1.3989888539e+000	-1.6119342606e+000
 3.9824029712e-002	 1.3994333122e+000	-1.5979627836e+000
 2.6500136463e-002	 1.3997490199e+000	-1.5869182099e+000
 1.3224947833e-002	 1.3999373918e+000	-1.5800114765e+000
 0.0000000000e+000	 1.3999998611e+000	-1.5784003581e+000
 1.3687587820e-001	 1.4200827586e+000	-1.5021435306e+000
 1.2299799864e-001	 1.4213519908e+000	-1.4969135964e+000
 1.0915767165e-001	 1.4224818242e+000	-1.4853389739e+000
 9.5356741943e-002	 1.4234735646e+000	-1.4690952820e+000
 8.1597014902e-002	 1.4243285440e+000	-1.4498050646e+000
 6.7880256345e-002	 1.4250481181e+000	-1.4290367865e+000
 5.4208192294e-002	 1.4256336662e+000	-1.4083039989e+000
 4.0582508805e-002	 1.4260865896e+000	-1.3890646755e+000
 2.7004851823e-002	 1.4264083102e+000	-1.3727207210e+000
 1.3476827075e-002	 1.4266002698e+000	-1.3606176508e+000
 0.0000000000e+000	 1.4266639289e+000	-1.3540444588e+000
 1.3943405884e-001	 1.4466237990e+000	-1.3353309186e+000
 1.2529680471e-001	 1.4479167530e+000	-1.3289269168e+000
 1.1119780499e-001	 1.4490677026e+000	-1.3153742182e+000
 9.7138938881e-002	 1.4500779785e+000	-1.2965095557e+000
 8.3122045509e-002	 1.4509489372e+000	-1.2741157186e+000
 6.9148923693e-002	 1.4516819601e+000	-1.2499201900e+000
 5.5221331714e-002	 1.4522784520e+000	-1.2255939748e+000
 4.1340987140e-002	 1.4527398403e+000	-1.2027506197e+000
 2.7509566677e-002	 1.4530675738e+000	-1.1829454283e+000
 1.3728706065e-002	 1.4532631212e+000	-1.1676748695e+000
 0.0000000000e+000	 1.4533279700e+000	-1.1583761987e+000
 1.4199223756e-001	 1.4731648196e+000	-1.1809455217e+000
 1.2759560905e-001	 1.4744814952e+000	-1.1743027419e+000
 1.1323793680e-001	 1.4756535611e+000	-1.1598762735e+000
 9.8921134482e-002	 1.4766823725e+000	-1.1396750031e+000
 8.4647074973e-002	 1.4775693105e+000	-1.1156540051e+000
 7.0417590090e-002	 1.4783157820e+000	-1.0897127502e+000
 5.6234470375e-002	 1.4789232177e+000	-1.0636935257e+000
 4.2099464907e-002	 1.4793930711e+000	-1.0393800716e+000
 2.8014281154e-002	 1.4797268175e+000	-1.0184964347e+000
 1.3980584867e-002	 1.4799259525e+000	-1.0027060425e+000
 0.0000000000e+000	 1.4799919911e+000	-9.9361101343e-001
 1.4455041500e-001	 1.4997058268e+000	-1.0380611240e+000
 1.2989441224e-001	 1.5010462241e+000	-1.0321347934e+000
 1.1527806759e-001	 1.5022394064e+000	-1.0180295137e+000
 1.0070332919e-001	 1.5032867531e+000	-9.9793747252e-001
 8.6172103675e-002	 1.5041896705e+000	-9.7399811443e-001
 7.1686255854e-002	 1.5049495907e+000	-9.4829584676e-001
 5.7247608530e-002	 1.5055679701e+000	-9.2285798192e-001
 4.2857942294e-002	 1.5060462885e+000	-8.9965292002e-001
 2.8518995379e-002	 1.5063860478e+000	-8.8058857553e-001
 1.4232463543e-002	 1.5065887705e+000	-8.6751104995e-001
 0.0000000000e+000	 1.5066559989e+000	-8.6220357025e-001
 1.4710859180e-001	 1.5262468275e+000	-9.0613762181e-001
 1.3219321486e-001	 1.5276109464e+000	-9.0190411396e-001
 1.1731819787e-001	 1.5288252450e+000	-8.8940265241e-001
 1.0248552346e-001	 1.5298911271e+000	-8.7102005210e-001
 8.7697131996e-002	 1.5308100238e+000	-8.4909232854e-001
 7.2954921301e-002	 1.5315833927e+000	-8.2590182842e-001
 5.8260746432e-002	 1.5322127159e+000	-8.0367462118e-001
 4.3616419493e-002	 1.5326994993e+000	-7.8457815787e-001
 2.9023709478e-002	 1.5330452715e+000	-7.7071920214e-001
 1.4484342157e-002	 1.5332515818e+000	-7.6414203604e-001
 0.0000000000e+000	 1.5333200000e+000	-7.6682696229e-001
 1.5333200000e+000	 0.0000000000e+000	 3.7934289964e+000
 1.5332515818e+000	 1.4484342157e-002	 3.7847248734e+000
 1.5330452715e+000	 2.9023709478e-002	 3.7754582565e+000
 1.5326994993e+000	 4.3616419493e-002	 3.7650859959e+000
 1.5322127159e+000	 5.8260746432e-002	 3.7530305391e+000
 1.5315833927e+000	 7.2954921301e-002	 3.7386797284e+000
 1.5308100238e+000	 8.7697131996e-002	 3.7213868977e+000
 1.5298911271e+000	 1.0248552346e-001	 3.7004712688e+000
 1.5288252450e+000	 1.1731819787e-001	 3.6752186463e+000
 1.5276109464e+000	 1.3219321486e-001	 3.6448824100e+000
 1.5262468275e+000	 1.4710859180e-001	 3.6086847993e+000
 1.5599880000e+000	 0.0000000000e+000	 3.8040003592e+000
 1.5599183919e+000	 1.4736258546e-002	 3.7859959957e+000
 1.5597084933e+000	 2.9528499270e-002	 3.7683333815e+000
 1.5593567074e+000	 4.4375010443e-002	 3.7504162161e+000
 1.5588614576e+000	 5.9274036279e-002	 3.7316065010e+000
 1.5582211890e+000	 7.4223777015e-002	 3.7112245452e+000
 1.5574343695e+000	 8.9222389032e-002	 3.6885493177e+000
 1.5564994910e+000	 1.0426798501e-001	 3.6628191479e+000
 1.5554150707e+000	 1.1935863411e-001	 3.6332327721e+000
 1.5541796526e+000	 1.3449236223e-001	 3.5989507247e+000
 1.5527918086e+000	 1.4966715226e-001	 3.5590970660e+000
 1.5866560000e+000	 0.0000000000e+000	 3.8006261724e+000
 1.5865852019e+000	 1.4988174934e-002	 3.7760576415e+000
 1.5863717151e+000	 3.0033289064e-002	 3.7524913187e+000
 1.5860139154e+000	 4.5133601394e-002	 3.7292882550e+000
 1.5855101994e+000	 6.0287326125e-002	 3.7057599310e+000
 1.5848589854e+000	 7.5492632729e-002	 3.6811684823e+000
 1.5840587152e+000	 9.0747646068e-002	 3.6547273249e+000
 1.5831078549e+000	 1.0605044656e-001	 3.6256021796e+000
 1.5820048965e+000	 1.2139907035e-001	 3.5929124946e+000
 1.5807483589e+000	 1.3679150961e-001	 3.5557332623e+000
 1.5793367896e+000	 1.5222571273e-001	 3.5130972234e+000
 1.6133240000e+000	 0.0000000000e+000	 3.7806975423e+000
 1.6132520120e+000	 1.5240091324e-002	 3.7521833274e+000
 1.6130349369e+000	 3.0538078857e-002	 3.7251197400e+000
 1.6126711235e+000	 4.5892192346e-002	 3.6988342744e+000
 1.6121589411e+000	 6.1300615973e-002	 3.6725963232e+000
 1.6114967818e+000	 7.6761488443e-002	 3.6456176395e+000
 1.6106830609e+000	 9.2272903104e-002	 3.6170532547e+000
 1.6097162188e+000	 1.0783290811e-001	 3.5860028513e+000
 1.6085947222e+000	 1.2343950660e-001	 3.5515125904e+000
 1.6073170652e+000	 1.3909065698e-001	 3.5125773866e+000
 1.6058817707e+000	 1.5478427319e-001	 3.4681436246e+000
 1.6399920000e+000	 0.0000000000e+000	 3.7418855890e+000
 1.6399188220e+000	 1.5492007713e-002	 3.7119175325e+000
 1.6396981588e+000	 3.1042868651e-002	 3.6836687088e+000
 1.6393283315e+000	 4.6650783297e-002	 3.6564407256e+000
 1.6388076829e+000	 6.2313905820e-002	 3.6294678171e+000
 1.6381345781e+000	 7.8030344158e-002	 3.6019175608e+000
 1.6373074066e+000	 9.3798160140e-002	 3.5728921122e+000
 1.6363245828e+000	 1.0961536965e-001	 3.5414299553e+000
 1.6351845480e+000	 1.2547994284e-001	 3.5065081668e+000
 1.6338857715e+000	 1.4138980436e-001	 3.4670451882e+000
 1.6324267518e+000	 1.5734283365e-001	 3.4219040955e+000
 1.6666600000e+000	 0.0000000000e+000	 3.6821190444e+000
 1.6665856321e+000	 1.5743924102e-002	 3.6530537883e+000
 1.6663613806e+000	 3.1547658445e-002	 3.6258292965e+000
 1.6659855396e+000	 4.7409374249e-002	 3.5997275243e+000
 1.6654564246e+000	 6.3327195668e-002	 3.5739529541e+000
 1.6647723745e+000	 7.9299199872e-002	 3.5476335910e+000
 1.6639317522e+000	 9.5323417177e-002	 3.5198225420e+000
 1.6629329467e+000	 1.1139783120e-001	 3.4895001772e+000
 1.6617743738e+000	 1.2752037909e-001	 3.4555768693e+000
 1.6604544778e+000	 1.4368895174e-001	 3.4168963046e+000
 1.6589717329e+000	 1.5990139411e-001	 3.3722393544e+000
 1.6933280000e+000	 0.0000000000e+000	 3.5995639666e+000
 1.6932524421e+000	 1.5995840491e-002	 3.5736148376e+000
 1.6930246025e+000	 3.2052448238e-002	 3.5495142206e+000
 1.6926427476e+000	 4.8167965200e-002	 3.5265291937e+000
 1.6921051664e+000	 6.4340485515e-002	 3.5038383484e+000
 1.6914101708e+000	 8.0568055587e-002	 3.4805330907e+000
 1.6905560979e+000	 9.6848674214e-002	 3.4556195976e+000
 1.6895413106e+000	 1.1318029275e-001	 3.4280214255e+000
 1.6883641995e+000	 1.2956081534e-001	 3.3965827691e+000
 1.6870231841e+000	 1.4598809912e-001	 3.3600723599e+000
 1.6855167140e+000	 1.6245995458e-001	 3.3171879908e+000
 1.7199960000e+000	 0.0000000000e+000	 3.4926053416e+000
 1.7199192522e+000	 1.6247756880e-002	 3.4718346411e+000
 1.7196878243e+000	 3.2557238032e-002	 3.4528402847e+000
 1.7192999557e+000	 4.8926556152e-002	 3.4348777638e+000
 1.7187539081e+000	 6.5353775363e-002	 3.4171020652e+000
 1.7180479672e+000	 8.1836911302e-002	 3.3985693085e+000
 1.7171804436e+000	 9.8373931250e-002	 3.3782391159e+000
 1.7161496746e+000	 1.1496275430e-001	 3.3549777122e+000
 1.7149540253e+000	 1.3160125158e-001	 3.3275617498e+000
 1.7135918903e+000	 1.4828724649e-001	 3.2946828487e+000
 1.7120616951e+000	 1.6501851504e-001	 3.2549528351e+000
 1.7466640000e+000	 0.0000000000e+000	 3.3598303704e+000
 1.7465860622e+000	 1.6499673269e-002	 3.3461420311e+000
 1.7463510461e+000	 3.3062027826e-002	 3.3341124274e+000
 1.7459571637e+000	 4.9685147103e-002	 3.3229872383e+000
 1.7454026499e+000	 6.6367065210e-002	 3.3118985235e+000
 1.7446857636e+000	 8.3105767016e-002	 3.2998667316e+000
 1.7438047893e+000	 9.9899188287e-002	 3.2858035255e+000
 1.7427580385e+000	 1.1674521585e-001	 3.2685154207e+000
 1.7415438510e+000	 1.3364168783e-001	 3.2467082313e+000
 1.7401605966e+000	 1.5058639387e-001	 3.2189923109e+000
 1.7386066761e+000	 1.6757707550e-001	 3.1838885702e+000
 1.7733320000e+000	 0.0000000000e+000	 3.2000132640e+000
 1.7732528723e+000	 1.6751589658e-002	 3.1951458414e+000
 1.7730142680e+000	 3.3566817619e-002	 3.1918092117e+000
 1.7726143718e+000	 5.0443738054e-002	 3.1892394644e+000
 1.7720513917e+000	 6.7380355057e-002	 3.1865447623e+000
 1.7713235599e+000	 8.4374622731e-002	 3.1827077611e+000
 1.7704291350e+000	 1.0142444532e-001	 3.1765889363e+000
 1.7693664024e+000	 1.1852767740e-001	 3.1669308131e+000
 1.7681336768e+000	 1.3568212407e-001	 3.1523630927e+000
 1.7667293029e+000	 1.5288554125e-001	 3.1314086602e+000
 1.7651516572e+000	 1.7013563596e-001	 3.1024904540e+000
 1.8000000000e+000	 0.0000000000e+000	 3.0121013901e+000
 1.7999196823e+000	 1.7003506047e-002	 3.0176213582e+000
 1.7996774898e+000	 3.4071607412e-002	 3.0245696047e+000
 1.7992715798e+000	 5.1202329005e-002	 3.0321712596e+000
 1.7987001334e+000	 6.8393644903e-002	 3.0395079298e+000
 1.7979613563e+000	 8.5643478444e-002	 3.0455205734e+000
 1.7970534806e+000	 1.0294970236e-001	 3.0490133796e+000
 1.7959747663e+000	 1.2031013895e-001	 3.0486586492e+000
 1.7947235026e+000	 1.3772256032e-001	 3.0430026664e+000
 1.7932980092e+000	 1.5518468862e-001	 3.0304725471e+000
 1.7916966383e+000	 1.7269419643e-001	 3.0093840379e+000
 1.5262468275e+000	 1.4710859180e-001	 3.6086847993e+000
 1.5247317519e+000	 1.6206006367e-001	 3.5692611213e+000
 1.5230641822e+000	 1.7704782606e-001	 3.5293983423e+000
 1.5212428050e+000	 1.9206980528e-001	 3.4885289196e+000
 1.5192663399e+000	 2.0712388784e-001	 3.4460704111e+000
 1.5171335398e+000	 2.2220792089e-001	 3.4014279569e+000
 1.5148431927e+000	 2.3731971277e-001	 3.3539969543e+000
 1.5123941228e+000	 2.5245703357e-001	 3.3031659066e+000
 1.5097851916e+000	 2.6761761573e-001	 3.2483194190e+000
 1.5070152995e+000	 2.8279915468e-001	 3.1888413157e+000
 1.5040833867e+000	 2.9799930958e-001	 3.1241178493e+000
 1.5527918086e+000	 1.4966715226e-001	 3.5590970660e+000
 1.5512503823e+000	 1.6487866499e-001	 3.5163798774e+000
 1.5495538096e+000	 1.8012709942e-001	 3.4737073608e+000
 1.5477007545e+000	 1.9541034579e-001	 3.4304815879e+000
 1.5456899141e+000	 2.1072625384e-001	 3.3860864002e+000
 1.5435200196e+000	 2.2607263330e-001	 3.3398903895e+000
 1.5411898381e+000	 2.4144725438e-001	 3.2912501024e+000
 1.5386981731e+000	 2.5684784838e-001	 3.2395134405e+000
 1.5360438666e+000	 2.7227210831e-001	 3.1840232309e+000
 1.5332257996e+000	 2.8771768953e-001	 3.1241209350e+000
 1.5302428940e+000	 3.0318221046e-001	 3.0591504626e+000
 1.5793367896e+000	 1.5222571273e-001	 3.5130972234e+000
 1.5777690127e+000	 1.6769726632e-001	 3.4677712128e+000
 1.5760434371e+000	 1.8320637278e-001	 3.4227773729e+000
 1.5741587040e+000	 1.9875088630e-001	 3.3775036584e+000
 1.5721134882e+000	 2.1432861985e-001	 3.3313164751e+000
 1.5699064994e+000	 2.2993734571e-001	 3.2835641930e+000
 1.5675364834e+000	 2.4557479598e-001	 3.2335809122e+000
 1.5650022235e+000	 2.6123866319e-001	 3.1806904517e+000
 1.5623025416e+000	 2.7692660090e-001	 3.1242105292e+000
 1.5594362997e+000	 2.9263622438e-001	 3.0634570974e+000
 1.5564024013e+000	 3.0836511135e-001	 2.9977487996e+000
 1.6058817707e+000	 1.5478427319e-001	 3.4681436246e+000
 1.6042876431e+000	 1.7051586764e-001	 3.4210248613e+000
 1.6025330646e+000	 1.8628564614e-001	 3.3743515392e+000
 1.6006166535e+000	 2.0209142680e-001	 3.3275112419e+000
 1.5985370624e+000	 2.1793098585e-001	 3.2798666533e+000
 1.5962929793e+000	 2.3380205812e-001	 3.2307596436e+000
 1.5938831288e+000	 2.4970233759e-001	 3.1795156378e+000
 1.5913062738e+000	 2.6562947801e-001	 3.1254482347e+000
 1.5885612165e+000	 2.8158109349e-001	 3.0678640396e+000
 1.5856467998e+000	 2.9755475923e-001	 3.0060676717e+000
 1.5825619087e+000	 3.1354801224e-001	 2.9393669034e+000
 1.6324267518e+000	 1.5734283365e-001	 3.4219040955e+000
 1.6308062735e+000	 1.7333446896e-001	 3.3739348460e+000
 1.6290226921e+000	 1.8936491950e-001	 3.3263719392e+000
 1.6270746030e+000	 2.0543196731e-001	 3.2786138192e+000
 1.6249606366e+000	 2.2153335186e-001	 3.2300306061e+000
 1.6226794591e+000	 2.3766677053e-001	 3.1799688005e+000
 1.6202297741e+000	 2.5382987920e-001	 3.1277563032e+000
 1.6176103241e+000	 2.7002029282e-001	 3.0727077138e+000
 1.6148198915e+000	 2.8623558608e-001	 3.0141298674e+000
 1.6118572999e+000	 3.0247329409e-001	 2.9513275636e+000
 1.6087214160e+000	 3.1873091312e-001	 2.8836094425e+000
 1.6589717329e+000	 1.5990139411e-001	 3.3722393544e+000
 1.6573249039e+000	 1.7615307028e-001	 3.3244835008e+000
 1.6555123196e+000	 1.9244419286e-001	 3.2769642074e+000
 1.6535325525e+000	 2.0877250781e-001	 3.2290994983e+000
 1.6513842108e+000	 2.2513571786e-001	 3.1802755334e+000
 1.6490659389e+000	 2.4153148295e-001	 3.1298519846e+000
 1.6465764195e+000	 2.5795742081e-001	 3.0771677632e+000
 1.6439143745e+000	 2.7441110764e-001	 3.0215470553e+000
 1.6410785664e+000	 2.9089007867e-001	 2.9623056201e+000
 1.6380678000e+000	 3.0739182894e-001	 2.8987573016e+000
 1.6348809233e+000	 3.2391381401e-001	 2.8302206991e+000
 1.6855167140e+000	 1.6245995458e-001	 3.3171879908e+000
 1.6838435343e+000	 1.7897167161e-001	 3.2708269884e+000
 1.6820019470e+000	 1.9552346622e-001	 3.2244236024e+000
 1.6799905020e+000	 2.1211304832e-001	 3.1774216368e+000
 1.6778077849e+000	 2.2873808387e-001	 3.1292293337e+000
 1.6754524187e+000	 2.4539619536e-001	 3.0792254831e+000
 1.6729230649e+000	 2.6208496243e-001	 3.0267659206e+000
 1.6702184248e+000	 2.7880192246e-001	 2.9711903656e+000
 1.6673372414e+000	 2.9554457126e-001	 2.9118295488e+000
 1.6642783001e+000	 3.1231036379e-001	 2.8480125723e+000
 1.6610404306e+000	 3.2909671490e-001	 2.7790744443e+000
 1.7120616951e+000	 1.6501851504e-001	 3.2549528351e+000
 1.7103621647e+000	 1.8179027293e-001	 3.2112821540e+000
 1.7084915745e+000	 1.9860273958e-001	 3.1672023532e+000
 1.7064484515e+000	 2.1545358883e-001	 3.1221866817e+000
 1.7042313591e+000	 2.3234044987e-001	 3.0756689311e+000
 1.7018388985e+000	 2.4926090777e-001	 3.0270503479e+000
 1.6992697102e+000	 2.6621250404e-001	 2.9757069737e+000
 1.6965224752e+000	 2.8319273727e-001	 2.9209973594e+000
 1.6935959164e+000	 3.0019906385e-001	 2.8622705967e+000
 1.6904888002e+000	 3.1722889864e-001	 2.7988746044e+000
 1.6871999379e+000	 3.3427961579e-001	 2.7301646029e+000
 1.7386066761e+000	 1.6757707550e-001	 3.1838885702e+000
 1.7368807951e+000	 1.8460887425e-001	 3.1443145712e+000
 1.7349812020e+000	 2.0168201293e-001	 3.1038981458e+000
 1.7329064010e+000	 2.1879412933e-001	 3.0621430960e+000
 1.7306549333e+000	 2.3594281588e-001	 3.0185096332e+000
 1.7282253784e+000	 2.5312562018e-001	 2.9724221707e+000
 1.7256163556e+000	 2.7034004565e-001	 2.9232775854e+000
 1.7228265255e+000	 2.8758355209e-001	 2.8704538908e+000
 1.7198545913e+000	 3.0485355644e-001	 2.8133192574e+000
 1.7166993003e+000	 3.2214743349e-001	 2.7512413091e+000
 1.7133594452e+000	 3.3946251668e-001	 2.6835966246e+000
 1.7651516572e+000	 1.7013563596e-001	 3.1024904540e+000
 1.7633994255e+000	 1.8742747557e-001	 3.0685276552e+000
 1.7614708295e+000	 2.0476128629e-001	 3.0332436307e+000
 1.7593643505e+000	 2.2213466984e-001	 2.9961712579e+000
 1.7570785075e+000	 2.3954518188e-001	 2.9567954135e+000
 1.7546118582e+000	 2.5699033260e-001	 2.9145617312e+000
 1.7519630010e+000	 2.7446758726e-001	 2.8688858747e+000
 1.7491305758e+000	 2.9197436690e-001	 2.8191632604e+000
 1.7461132663e+000	 3.0950804903e-001	 2.7647791591e+000
 1.7429098004e+000	 3.2706596835e-001	 2.7051190988e+000
 1.7395189526e+000	 3.4464541757e-001	 2.6395794868e+000
 1.7916966383e+000	 1.7269419643e-001	 3.0093840379e+000
 1.7899180559e+000	 1.9024607690e-001	 2.9826527315e+000
 1.7879604570e+000	 2.0784055965e-001	 2.9540968448e+000
 1.7858223000e+000	 2.2547521035e-001	 2.9232742321e+000
 1.7835020816e+000	 2.4314754789e-001	 2.8896900206e+000
 1.7809983380e+000	 2.6085504501e-001	 2.8528064289e+000
 1.7783096463e+000	 2.7859512887e-001	 2.8120531479e+000
 1.7754346262e+000	 2.9636518172e-001	 2.7668382146e+000
 1.7723719412e+000	 3.1416254162e-001	 2.7165592981e+000
 1.7691203005e+000	 3.3198450320e-001	 2.6606153118e+000
 1.7656784599e+000	 3.4982831845e-001	 2.5984182625e+000
 1.5040833867e+000	 2.9799930958e-001	 3.1241178493e+000
 1.5009879582e+000	 3.1321798717e-001	 3.0562653800e+000
 1.4977284659e+000	 3.2845049326e-001	 2.9875699645e+000
 1.4943039780e+000	 3.4369437793e-001	 2.9176584570e+000
 1.4907136076e+000	 3.5894715807e-001	 2.8461769887e+000
 1.4869565135e+000	 3.7420631829e-001	 2.7727938564e+000
 1.4830319018e+000	 3.8946931188e-001	 2.6972022831e+000
 1.4789390267e+000	 4.0473356181e-001	 2.6191230159e+000
 1.4746771918e+000	 4.1999646178e-001	 2.5383067211e+000
 1.4702457512e+000	 4.3525537731e-001	 2.4545361420e+000
 1.4656441104e+000	 4.5050764685e-001	 2.3676279819e+000
 1.5302428940e+000	 3.0318221046e-001	 3.0591504626e+000
 1.5270936288e+000	 3.1866557624e-001	 2.9912631327e+000
 1.5237774463e+000	 3.3416301103e-001	 2.9227925140e+000
 1.5202933987e+000	 3.4967202231e-001	 2.8533432845e+000
 1.5166405834e+000	 3.6519008376e-001	 2.7825412232e+000
 1.5128181447e+000	 3.8071463625e-001	 2.7100366519e+000
 1.5088252749e+000	 3.9624308879e-001	 2.6355077343e+000
 1.5046612151e+000	 4.1177281952e-001	 2.5586635899e+000
 1.5003252571e+000	 4.2730117681e-001	 2.4792471815e+000
 1.4958167434e+000	 4.4282548035e-001	 2.3970379339e+000
 1.4911350694e+000	 4.5834302232e-001	 2.3118540414e+000
 1.5564024013e+000	 3.0836511135e-001	 2.9977487996e+000
 1.5531992994e+000	 3.2411316532e-001	 2.9292729912e+000
 1.5498264268e+000	 3.3987552881e-001	 2.8604058024e+000
 1.5462828194e+000	 3.5564966668e-001	 2.7907380514e+000
 1.5425675592e+000	 3.7143300944e-001	 2.7198839614e+000
 1.5386797759e+000	 3.8722295421e-001	 2.6474852018e+000
 1.5346186479e+000	 4.0301686569e-001	 2.5732147707e+000
 1.5303834036e+000	 4.1881207722e-001	 2.4967806674e+000
 1.5259733223e+000	 4.3460589183e-001	 2.4179293103e+000
 1.5213877356e+000	 4.5039558340e-001	 2.3364486503e+000
 1.5166260283e+000	 4.6617839780e-001	 2.2521709333e+000
 1.5825619087e+000	 3.1354801224e-001	 2.9393669034e+000
 1.5793049700e+000	 3.2956075439e-001	 2.8699880389e+000
 1.5758754073e+000	 3.4558804658e-001	 2.8003469332e+000
 1.5722722400e+000	 3.6162731105e-001	 2.7300267316e+000
 1.5684945349e+000	 3.7767593513e-001	 2.6586367940e+000
 1.5645414070e+000	 3.9373127217e-001	 2.5858173923e+000
 1.5604120209e+000	 4.0979064260e-001	 2.5112442265e+000
 1.5561055920e+000	 4.2585133493e-001	 2.4346327060e+000
 1.5516213875e+000	 4.4191060686e-001	 2.3557419417e+000
 1.5469587277e+000	 4.5796568644e-001	 2.2743783952e+000
 1.5421169872e+000	 4.7401377327e-001	 2.1903991333e+000
 1.6087214160e+000	 3.1873091312e-001	 2.8836094425e+000
 1.6054106406e+000	 3.3500834347e-001	 2.8132452342e+000
 1.6019243877e+000	 3.5130056436e-001	 2.7426895130e+000
 1.5982616607e+000	 3.6760495543e-001	 2.6715218038e+000
 1.5944215107e+000	 3.8391886081e-001	 2.5993511948e+000
 1.5904030382e+000	 4.0023959013e-001	 2.5258217516e+000
 1.5862053940e+000	 4.1656441951e-001	 2.4506177273e+000
 1.5818277804e+000	 4.3289059263e-001	 2.3734685073e+000
 1.5772694527e+000	 4.4921532188e-001	 2.2941532286e+000
 1.5725297199e+000	 4.6553578949e-001	 2.2125050125e+000
 1.5676079461e+000	 4.8184914875e-001	 2.1284147525e+000
 1.6348809233e+000	 3.2391381401e-001	 2.8302206991e+000
 1.6315163112e+000	 3.4045593255e-001	 2.7590147590e+000
 1.6279733682e+000	 3.5701308213e-001	 2.6876333297e+000
 1.6242510813e+000	 3.7358259980e-001	 2.6156542269e+000
 1.6203484865e+000	 3.9016178650e-001	 2.5426887510e+000
 1.6162646694e+000	 4.0674790810e-001	 2.4683878888e+000
 1.6119987670e+000	 4.2333819642e-001	 2.3924482833e+000
 1.6075499689e+000	 4.3992985034e-001	 2.3146179063e+000
 1.6029175179e+000	 4.5652003691e-001	 2.2347013635e+000
 1.5981007120e+000	 4.7310589253e-001	 2.1525647658e+000
 1.5930989051e+000	 4.8968452423e-001	 2.0681400991e+000
 1.6610404306e+000	 3.2909671490e-001	 2.7790744443e+000
 1.6576219818e+000	 3.4590352162e-001	 2.7073901888e+000
 1.6540223487e+000	 3.6272559991e-001	 2.6354947905e+000
 1.6502405020e+000	 3.7956024417e-001	 2.5629641095e+000
 1.6462754622e+000	 3.9640471218e-001	 2.4894120248e+000
 1.6421263005e+000	 4.1325622606e-001	 2.4144975001e+000
 1.6377921401e+000	 4.3011197333e-001	 2.3379313892e+000
 1.6332721573e+000	 4.4696910804e-001	 2.2594829064e+000
 1.6285655831e+000	 4.6382475193e-001	 2.1789856851e+000
 1.6236717042e+000	 4.8067599558e-001	 2.0963433491e+000
 1.6185898640e+000	 4.9751989970e-001	 2.0115345201e+000
 1.6871999379e+000	 3.3427961579e-001	 2.7301646029e+000
 1.6837276525e+000	 3.5135111070e-001	 2.6585793975e+000
 1.6800713291e+000	 3.6843811768e-001	 2.5866980359e+000
 1.6762299227e+000	 3.8553788855e-001	 2.5140919993e+000
 1.6722024380e+000	 4.0264763787e-001	 2.4403759767e+000
 1.6679879317e+000	 4.1976454402e-001	 2.3652158812e+000
 1.6635855131e+000	 4.3688575024e-001	 2.2883365737e+000
 1.6589943457e+000	 4.5400836575e-001	 2.2095292107e+000
 1.6542136483e+000	 4.7112946696e-001	 2.1286581304e+000
 1.6492426964e+000	 4.8824609862e-001	 2.0456671929e+000
 1.6440808229e+000	 5.0535527518e-001	 1.9605854901e+000
 1.7133594452e+000	 3.3946251668e-001	 2.6835966246e+000
 1.7098333231e+000	 3.5679869978e-001	 2.6128961171e+000
 1.7061203096e+000	 3.7415063546e-001	 2.5417666583e+000
 1.7022193433e+000	 3.9151553292e-001	 2.4697707246e+000
 1.6981294138e+000	 4.0889056356e-001	 2.3965198906e+000
 1.6938495629e+000	 4.2627286198e-001	 2.3216838903e+000
 1.6893788862e+000	 4.4365952714e-001	 2.2449993514e+000
 1.6847165342e+000	 4.6104762346e-001	 2.1662781074e+000
 1.6798617136e+000	 4.7843418198e-001	 2.0854149937e+000
 1.6748136885e+000	 4.9581620167e-001	 2.0023950339e+000
 1.6695717818e+000	 5.1319065065e-001	 1.9172999228e+000
 1.7395189526e+000	 3.4464541757e-001	 2.6395794868e+000
 1.7359389937e+000	 3.6224628886e-001	 2.5707520836e+000
 1.7321692901e+000	 3.7986315324e-001	 2.5013159612e+000
 1.7282087640e+000	 3.9749317730e-001	 2.4308177318e+000
 1.7240563896e+000	 4.1513348924e-001	 2.3588597488e+000
 1.7197111941e+000	 4.3278117994e-001	 2.2851103166e+000
 1.7151722592e+000	 4.5043330405e-001	 2.2093135349e+000
 1.7104387226e+000	 4.6808688116e-001	 2.1312986721e+000
 1.7055097788e+000	 4.8573889701e-001	 2.0509889617e+000
 1.7003846807e+000	 5.0338630472e-001	 1.9684097202e+000
 1.6950627408e+000	 5.2102602613e-001	 1.8836956810e+000
 1.7656784599e+000	 3.4982831845e-001	 2.5984182625e+000
 1.7620446643e+000	 3.6769387793e-001	 2.5326497089e+000
 1.7582182705e+000	 3.8557567101e-001	 2.4660457025e+000
 1.7541981846e+000	 4.0347082167e-001	 2.3981278652e+000
 1.7499833653e+000	 4.2137641493e-001	 2.3284810093e+000
 1.7455728252e+000	 4.3928949790e-001	 2.2567646099e+000
 1.7409656323e+000	 4.5720708096e-001	 2.1827238691e+000
 1.7361609110e+000	 4.7512613887e-001	 2.1062002542e+000
 1.7311578440e+000	 4.9304361203e-001	 2.0271413954e+000
 1.7259556728e+000	 5.1095640776e-001	 1.9456102281e+000
 1.7205536997e+000	 5.2886140161e-001	 1.8617932638e+000
 1.4656441104e+000	 4.5050764685e-001	 2.3676279819e+000
 1.4608717271e+000	 4.6575058273e-001	 2.2775644735e+000
 1.4559281109e+000	 4.8098147173e-001	 2.1845950652e+000
 1.4508128258e+000	 4.9619757688e-001	 2.0889901681e+000
 1.4455254909e+000	 5.1139613904e-001	 1.9910550042e+000
 1.4400657820e+000	 5.2657437818e-001	 1.8911286803e+000
 1.4344334318e+000	 5.4172949480e-001	 1.7895827864e+000
 1.4286282313e+000	 5.5685867128e-001	 1.6868194980e+000
 1.4226500300e+000	 5.7195907336e-001	 1.5832691660e+000
 1.4164987373e+000	 5.8702785160e-001	 1.4793873783e+000
 1.4101743228e+000	 6.0206214291e-001	 1.3756514846e+000
 1.4911350694e+000	 4.5834302232e-001	 2.3118540414e+000
 1.4862796832e+000	 4.7385106831e-001	 2.2235558029e+000
 1.4812500860e+000	 4.8934685788e-001	 2.1322607770e+000
 1.4760458342e+000	 5.0482760648e-001	 2.0382330785e+000
 1.4706665403e+000	 5.2029050697e-001	 1.9417762101e+000
 1.4651118743e+000	 5.3573273098e-001	 1.8432323019e+000
 1.4593815645e+000	 5.5115143031e-001	 1.7429808151e+000
 1.4534753980e+000	 5.6654373835e-001	 1.6414366855e+000
 1.4473932219e+000	 5.8190677153e-001	 1.5390478866e+000
 1.4411349439e+000	 5.9723763087e-001	 1.4362923961e+000
 1.4347005331e+000	 6.1253340346e-001	 1.3336745520e+000
 1.5166260283e+000	 4.6617839780e-001	 2.2521709333e+000
 1.5116876392e+000	 4.8195155388e-001	 2.1648242207e+000
 1.5065720611e+000	 4.9771224403e-001	 2.0743888322e+000
 1.5012788426e+000	 5.1345763607e-001	 1.9811438014e+000
 1.4958075896e+000	 5.2918487490e-001	 1.8854130196e+000
 1.4901579667e+000	 5.4489108379e-001	 1.7875646318e+000
 1.4843296971e+000	 5.6057336583e-001	 1.6880098306e+000
 1.4783225647e+000	 5.7622880542e-001	 1.5872010167e+000
 1.4721364138e+000	 5.9185446971e-001	 1.4856293050e+000
 1.4657711505e+000	 6.0744741014e-001	 1.3838213545e+000
 1.4592267435e+000	 6.2300466401e-001	 1.2823355092e+000
 1.5421169872e+000	 4.7401377327e-001	 2.1903991333e+000
 1.5370955953e+000	 4.9005203945e-001	 2.1033895467e+000
 1.5318940362e+000	 5.0607763017e-001	 2.0131871108e+000
 1.5265118510e+000	 5.2208766567e-001	 1.9201051278e+000
 1.5209486390e+000	 5.3807924283e-001	 1.8245082039e+000
 1.5152040590e+000	 5.5404943659e-001	 1.7268117998e+000
 1.5092778298e+000	 5.6999530135e-001	 1.6274811013e+000
 1.5031697314e+000	 5.8591387250e-001	 1.5270291783e+000
 1.4968796057e+000	 6.0180216789e-001	 1.4260144042e+000
 1.4904073571e+000	 6.1765718941e-001	 1.3250371137e+000
 1.4837529538e+000	 6.3347592456e-001	 1.2247354807e+000
 1.5676079461e+000	 4.8184914875e-001	 2.1284147525e+000
 1.5625035514e+000	 4.9815252503e-001	 2.0413145362e+000
 1.5572160113e+000	 5.1444301632e-001	 1.9508930831e+000
 1.5517448594e+000	 5.3071769527e-001	 1.8575155132e+000
 1.5460896883e+000	 5.4697361076e-001	 1.7616057657e+000
 1.5402501513e+000	 5.6320778939e-001	 1.6636463034e+000
 1.5342259625e+000	 5.7941723687e-001	 1.5641770538e+000
 1.5280168981e+000	 5.9559893957e-001	 1.4637935493e+000
 1.5216227976e+000	 6.1174986607e-001	 1.3631442362e+000
 1.5150435638e+000	 6.2786696868e-001	 1.2629269235e+000
 1.5082791642e+000	 6.4394718511e-001	 1.1638843557e+000
 1.5930989051e+000	 4.8968452423e-001	 2.0681400991e+000
 1.5879115075e+000	 5.0625301060e-001	 1.9806952504e+000
 1.5825379864e+000	 5.2280840247e-001	 1.8897639160e+000
 1.5769778678e+000	 5.3934772486e-001	 1.7957788420e+000
 1.5712307377e+000	 5.5586797869e-001	 1.6992402736e+000
 1.5652962436e+000	 5.7236614219e-001	 1.6007158203e+000
 1.5591740951e+000	 5.8883917239e-001	 1.5008394635e+000
 1.5528640649e+000	 6.0528400665e-001	 1.4003096660e+000
 1.5463659895e+000	 6.2169756424e-001	 1.2998865472e+000
 1.5396797704e+000	 6.3807674794e-001	 1.2003880929e+000
 1.5328053745e+000	 6.5441844567e-001	 1.1026853782e+000
 1.6185898640e+000	 4.9751989970e-001	 2.0115345201e+000
 1.6133194636e+000	 5.1435349618e-001	 1.9236516563e+000
 1.6078599615e+000	 5.3117378862e-001	 1.8320667622e+000
 1.6022108762e+000	 5.4797775446e-001	 1.7372943285e+000
 1.5963717870e+000	 5.6476234663e-001	 1.6399262945e+000
 1.5903423359e+000	 5.8152449499e-001	 1.5406320836e+000
 1.5841222278e+000	 5.9826110790e-001	 1.4401576794e+000
 1.5777112316e+000	 6.1496907372e-001	 1.3393236952e+000
 1.5711091814e+000	 6.3164526242e-001	 1.2390223966e+000
 1.5643159770e+000	 6.4828652721e-001	 1.1402136422e+000
 1.5573315848e+000	 6.6488970622e-001	 1.0439197173e+000
 1.6440808229e+000	 5.0535527518e-001	 1.9605854901e+000
 1.6387274197e+000	 5.2245398175e-001	 1.8723184311e+000
 1.6331819366e+000	 5.3953917476e-001	 1.7800692117e+000
 1.6274438846e+000	 5.5660778406e-001	 1.6844465435e+000
 1.6215128364e+000	 5.7365671456e-001	 1.5861479154e+000
 1.6153884283e+000	 5.9068284779e-001	 1.4859598153e+000
 1.6090703604e+000	 6.0768304342e-001	 1.3847568794e+000
 1.6025583983e+000	 6.2465414080e-001	 1.2834999178e+000
 1.5958523733e+000	 6.4159296060e-001	 1.1832327680e+000
 1.5889521836e+000	 6.5849630648e-001	 1.0850779398e+000
 1.5818577952e+000	 6.7536096677e-001	 9.9026221390e-001
 1.6695717818e+000	 5.1319065065e-001	 1.9172999228e+000
 1.6641353757e+000	 5.3055446732e-001	 1.8288359482e+000
 1.6585039117e+000	 5.4790456091e-001	 1.7360298878e+000
 1.6526768930e+000	 5.6523781365e-001	 1.6395955495e+000
 1.6466538858e+000	 5.8255108249e-001	 1.5403483432e+000
 1.6404345206e+000	 5.9984120060e-001	 1.4392057093e+000
 1.6340184931e+000	 6.1710497894e-001	 1.3371863523e+000
 1.6274055650e+000	 6.3433920787e-001	 1.2354082198e+000
 1.6205955652e+000	 6.5154065878e-001	 1.1350851760e+000
 1.6135883902e+000	 6.6870608575e-001	 1.0375254456e+000
 1.6063840055e+000	 6.8583222732e-001	 9.4408318310e-001
 1.6950627408e+000	 5.2102602613e-001	 1.8836956810e+000
 1.6895433318e+000	 5.3865495290e-001	 1.7953414271e+000
 1.6838258868e+000	 5.5626994706e-001	 1.7021891738e+000
 1.6779099014e+000	 5.7386784325e-001	 1.6050671359e+000
 1.6717949351e+000	 5.9144545042e-001	 1.5049195751e+000
 1.6654806129e+000	 6.0899955340e-001	 1.4028074613e+000
 1.6589666257e+000	 6.2652691446e-001	 1.2999078045e+000
 1.6522527317e+000	 6.4402427494e-001	 1.1975115912e+000
 1.6453387571e+000	 6.6148835695e-001	 1.0970202671e+000
 1.6382245968e+000	 6.7891586502e-001	 9.9999008808e-001
 1.6309102159e+000	 6.9630348787e-001	 9.0742638829e-001
 1.7205536997e+000	 5.2886140161e-001	 1.8617932638e+000
 1.7149512879e+000	 5.4675543847e-001	 1.7739602297e+000
 1.7091478619e+000	 5.6463533321e-001	 1.6807600553e+000
 1.7031429098e+000	 5.8249787284e-001	 1.5831431418e+000
 1.6969359845e+000	 6.0033981835e-001	 1.4821921324e+000
 1.6905267052e+000	 6.1815790620e-001	 1.3791228384e+000
 1.6839147584e+000	 6.3594884997e-001	 1.2752836885e+000
 1.6770998984e+000	 6.5370934202e-001	 1.1721536303e+000
 1.6700819490e+000	 6.7143605513e-001	 1.0713555817e+000
 1.6628608034e+000	 6.8912564429e-001	 9.7453397236e-001
 1.6554364262e+000	 7.0677474842e-001	 8.8222208304e-001
 1.4101743228e+000	 6.0206214291e-001	 1.3756514846e+000
 1.4036778048e+000	 6.1705682569e-001	 1.2711698730e+000
 1.3970083406e+000	 6.3201127378e-001	 1.1651552578e+000
 1.3901660856e+000	 6.4692259452e-001	 1.0583029920e+000
 1.3831512578e+000	 6.6178788798e-001	 9.5130465089e-001
 1.3759641382e+000	 6.7660424856e-001	 8.4494780283e-001
 1.3686050715e+000	 6.9136876671e-001	 7.3986608671e-001
 1.3610744663e+000	 7.0607853061e-001	 6.3597813916e-001
 1.3533727953e+000	 7.2073062788e-001	 5.3320718313e-001
 1.3455005959e+000	 7.3532214732e-001	 4.3152317892e-001
 1.3374584701e+000	 7.4985018066e-001	 3.3094351956e-001
 1.4347005331e+000	 6.1253340346e-001	 1.3336745520e+000
 1.4280910255e+000	 6.2778887864e-001	 1.2301743207e+000
 1.4213055639e+000	 6.4300341935e-001	 1.1249218983e+000
 1.4143443062e+000	 6.5817408263e-001	 1.0187132997e+000
 1.4072074742e+000	 6.7329791811e-001	 9.1238694785e-001
 1.3998953539e+000	 6.8837196965e-001	 8.0675689500e-001
 1.3924082959e+000	 7.0339327710e-001	 7.0182956874e-001
 1.3847467159e+000	 7.1835887800e-001	 5.9753478151e-001
 1.3769110950e+000	 7.3326580931e-001	 4.9384967202e-001
 1.3689019798e+000	 7.4811110919e-001	 3.9079937381e-001
 1.3607199827e+000	 7.6289181882e-001	 2.8845759210e-001
 1.4592267435e+000	 6.2300466401e-001	 1.2823355092e+000
 1.4525042463e+000	 6.3852093159e-001	 1.1800255073e+000
 1.4456027872e+000	 6.5399556492e-001	 1.0759217772e+000
 1.4385225267e+000	 6.6942557074e-001	 9.7092740799e-001
 1.4312636906e+000	 6.8480794824e-001	 8.6601491658e-001
 1.4238265695e+000	 7.0013969074e-001	 7.6135092312e-001
 1.4162115203e+000	 7.1541778749e-001	 6.5686652271e-001
 1.4084189656e+000	 7.3063922539e-001	 5.5254078762e-001
 1.4004493947e+000	 7.4580099073e-001	 4.4840141195e-001
 1.3923033636e+000	 7.6090007107e-001	 3.4452526567e-001
 1.3839814953e+000	 7.7593345698e-001	 2.4103885602e-001
 1.4837529538e+000	 6.3347592456e-001	 1.2247354807e+000
 1.4769174671e+000	 6.4925298454e-001	 1.1238451136e+000
 1.4699000105e+000	 6.6498771050e-001	 1.0212864556e+000
 1.4627007473e+000	 6.8067705886e-001	 9.1812177670e-001
 1.4553199070e+000	 6.9631797836e-001	 8.1479321500e-001
 1.4477577852e+000	 7.1190741183e-001	 7.1123140697e-001
 1.4400147447e+000	 7.2744229788e-001	 6.0741242842e-001
 1.4320912153e+000	 7.4291957277e-001	 5.0336165802e-001
 1.4239876944e+000	 7.5833617216e-001	 3.9915431038e-001
 1.4157047475e+000	 7.7368903295e-001	 2.9491587790e-001
 1.4072430079e+000	 7.8897509513e-001	 1.9082247937e-001
 1.5082791642e+000	 6.4394718511e-001	 1.1638843557e+000
 1.5013306879e+000	 6.5998503749e-001	 1.0646476772e+000
 1.4941972338e+000	 6.7597985607e-001	 9.6406471724e-001
 1.4868789679e+000	 6.9192854697e-001	 8.6290691112e-001
 1.4793761234e+000	 7.0782800849e-001	 7.6115057419e-001
 1.4716890009e+000	 7.2367513292e-001	 6.5876417832e-001
 1.4638179691e+000	 7.3946680827e-001	 5.5576622524e-001
 1.4557634649e+000	 7.5519992016e-001	 4.5222575916e-001
 1.4475259941e+000	 7.7087135358e-001	 3.4826278971e-001
 1.4391061313e+000	 7.8647799482e-001	 2.4404862357e-001
 1.4305045204e+000	 8.0201673329e-001	 1.3980610308e-001
 1.5328053745e+000	 6.5441844567e-001	 1.1026853782e+000
 1.5257439087e+000	 6.7071709044e-001	 1.0053349503e+000
 1.5184944571e+000	 6.8697200164e-001	 9.0694251153e-001
 1.5110571885e+000	 7.0318003508e-001	 8.0764012757e-001
 1.5034323398e+000	 7.1933803862e-001	 7.0738438633e-001
 1.4956202166e+000	 7.3544285401e-001	 6.0618267329e-001
 1.4876211935e+000	 7.5149131866e-001	 5.0409366284e-001
 1.4794357146e+000	 7.6748026755e-001	 4.0122772166e-001
 1.4710642938e+000	 7.8340653501e-001	 2.9774722280e-001
 1.4625075152e+000	 7.9926695670e-001	 1.9386676904e-001
 1.4537660330e+000	 8.1505837144e-001	 8.9853324055e-002
 1.5573315848e+000	 6.6488970622e-001	 1.0439197173e+000
 1.5501571295e+000	 6.8144914339e-001	 9.4864785802e-001
 1.5427916804e+000	 6.9796414722e-001	 8.5221063242e-001
 1.5352354090e+000	 7.1443152319e-001	 7.5455187035e-001
 1.5274885562e+000	 7.3084806875e-001	 6.5566392856e-001
 1.5195514323e+000	 7.4721057510e-001	 5.5559123553e-001
 1.5114244179e+000	 7.6351582905e-001	 4.5443067315e-001
 1.5031079643e+000	 7.7976061493e-001	 3.5233187127e-001
 1.4946025935e+000	 7.9594171644e-001	 2.4949741404e-001
 1.4859088990e+000	 8.1205591857e-001	 1.4618295678e-001
 1.4770275456e+000	 8.2810000960e-001	 4.2697252318e-002
 1.5818577952e+000	 6.7536096677e-001	 9.9026221390e-001
 1.5745703503e+000	 6.9218119634e-001	 8.9686334136e-001
 1.5670889037e+000	 7.0895629279e-001	 8.0203430197e-001
 1.5594136296e+000	 7.2568301130e-001	 7.0574883954e-001
 1.5515447726e+000	 7.4235809888e-001	 6.0803358812e-001
 1.5434826480e+000	 7.5897829619e-001	 5.0896842874e-001
 1.5352276423e+000	 7.7554033944e-001	 4.0868676104e-001
 1.5267802140e+000	 7.9204096232e-001	 3.0737568912e-001
 1.5181408932e+000	 8.0847689786e-001	 2.0527612105e-001
 1.5093102829e+000	 8.2484488045e-001	 1.0268278118e-001
 1.5002890582e+000	 8.4114164775e-001	-5.5865998056e-005
 1.6063840055e+000	 6.8583222732e-001	 9.4408318310e-001
 1.5989835711e+000	 7.0291324929e-001	 8.5208331788e-001
 1.5913861270e+000	 7.1994843836e-001	 7.5845942165e-001
 1.5835918502e+000	 7.3693449941e-001	 6.6321711398e-001
 1.5756009890e+000	 7.5386812901e-001	 5.6641608868e-001
 1.5674138637e+000	 7.7074601728e-001	 4.6817035772e-001
 1.5590308667e+000	 7.8756484983e-001	 3.6864841184e-001
 1.5504524636e+000	 8.0432130970e-001	 2.6807329793e-001
 1.5416791929e+000	 8.2101207928e-001	 1.6672261258e-001
 1.5327116667e+000	 8.3763384232e-001	 6.4928411432e-002
 1.5235505708e+000	 8.5418328591e-001	-3.6922966682e-002
 1.6309102159e+000	 6.9630348787e-001	 9.0742638829e-001
 1.6233967918e+000	 7.1364530224e-001	 8.1629482990e-001
 1.6156833503e+000	 7.3094058393e-001	 7.2341557371e-001
 1.6077700708e+000	 7.4818598752e-001	 6.2882526974e-001
 1.5996572054e+000	 7.6537815914e-001	 5.3261571785e-001
 1.5913450793e+000	 7.8251373836e-001	 4.3493399697e-001
 1.5828340911e+000	 7.9958936022e-001	 3.3598251382e-001
 1.5741247133e+000	 8.1660165709e-001	 2.3601897168e-001
 1.5652174926e+000	 8.3354726071e-001	 1.3535625887e-001
 1.5561130506e+000	 8.5042280420e-001	 3.4362256858e-002
 1.5468120834e+000	 8.6722492406e-001	-6.6540432798e-002
 1.6554364262e+000	 7.0677474842e-001	 8.8222208304e-001
 1.6478100126e+000	 7.2437735518e-001	 7.9137290933e-001
 1.6399805736e+000	 7.4193272950e-001	 6.9871901468e-001
 1.6319482913e+000	 7.5943747564e-001	 6.0432749471e-001
 1.6237134218e+000	 7.7688818926e-001	 5.0832155552e-001
 1.6152762950e+000	 7.9428145945e-001	 4.1088052610e-001
 1.6066373155e+000	 8.1161387061e-001	 3.1223979418e-001
 1.5977969630e+000	 8.2888200447e-001	 2.1269066611e-001
 1.5887557923e+000	 8.4608244213e-001	 1.1258015114e-001
 1.5795144344e+000	 8.6321176607e-001	 1.2310669962e-002
 1.5700735960e+000	 8.8026656221e-001	-8.7660312797e-002
 1.3374584701e+000	 7.4985018066e-001	 3.3094351956e-001
 1.3292458404e+000	 7.6431398883e-001	 2.3134302409e-001
 1.3208646337e+000	 7.7870848989e-001	 1.3214326981e-001
 1.3123156482e+000	 7.9303079459e-001	 3.3402107775e-002
 1.3035997473e+000	 8.0727802380e-001	-6.4657649881e-002
 1.2947178591e+000	 8.2144731029e-001	-1.6176585737e-001
 1.2856709767e+000	 8.3553580053e-001	-2.5760423183e-001
 1.2764601577e+000	 8.4954065654e-001	-3.5180571661e-001
 1.2670865240e+000	 8.6345905763e-001	-4.4395402003e-001
 1.2575512615e+000	 8.7728820228e-001	-5.3358333731e-001
 1.2478556198e+000	 8.9102530988e-001	-6.2017826308e-001
 1.3607199827e+000	 7.6289181882e-001	 2.8845759210e-001
 1.3523645163e+000	 7.7760718625e-001	 1.8680822781e-001
 1.3438375409e+000	 7.9225204115e-001	 8.6146286816e-002
 1.3351398687e+000	 8.0682344403e-001	-1.2960828096e-002
 1.3262723780e+000	 8.2131846568e-001	-1.1042746841e-001
 1.3172360131e+000	 8.3573418901e-001	-2.0694390755e-001
 1.3080317844e+000	 8.5006771085e-001	-3.0225523072e-001
 1.2986607678e+000	 8.6431614387e-001	-3.9602154863e-001
 1.2891241048e+000	 8.7847661832e-001	-4.8785133630e-001
 1.2794230019e+000	 8.9254628395e-001	-5.7730105180e-001
 1.2695587305e+000	 9.0652231179e-001	-6.6387495817e-001
 1.3839814953e+000	 7.7593345698e-001	 2.4103885602e-001
 1.3754831922e+000	 7.9090038366e-001	 1.3792177612e-001
 1.3668104481e+000	 8.0579559240e-001	 3.5415052168e-002
 1.3579640892e+000	 8.2061609346e-001	-6.5934307945e-002
 1.3489450086e+000	 8.3535890756e-001	-1.6552977658e-001
 1.3397541671e+000	 8.5002106772e-001	-2.6272575316e-001
 1.3303925920e+000	 8.6459962117e-001	-3.5693595360e-001
 1.3208613779e+000	 8.7909163119e-001	-4.4916086726e-001
 1.3111616856e+000	 8.9349417900e-001	-5.3955921639e-001
 1.3012947424e+000	 9.0780436561e-001	-6.2772935307e-001
 1.2912618412e+000	 9.2201931370e-001	-7.1321428259e-001
 1.4072430079e+000	 7.8897509513e-001	 1.9082247937e-001
 1.3986018680e+000	 8.0419358107e-001	 8.6866184121e-002
 1.3897833553e+000	 8.1933914365e-001	-1.6758794967e-002
 1.3807883096e+000	 8.3440874290e-001	-1.1954318507e-001
 1.3716176393e+000	 8.4939934944e-001	-2.2092650482e-001
 1.3622723211e+000	 8.6430794644e-001	-3.2029745714e-001
 1.3527533997e+000	 8.7913153149e-001	-4.1699442914e-001
 1.3430619880e+000	 8.9386711852e-001	-5.1030610084e-001
 1.3331992664e+000	 9.0851173969e-001	-5.9947231139e-001
 1.3231664828e+000	 9.2306244728e-001	-6.8523080560e-001
 1.3129649519e+000	 9.3751631561e-001	-7.6851595205e-001
 1.4305045204e+000	 8.0201673329e-001	 1.3980610308e-001
 1.4217205439e+000	 8.1748677848e-001	 3.5560316427e-002
 1.4127562625e+000	 8.3288269491e-001	-6.8529922913e-002
 1.4036125301e+000	 8.4820139233e-001	-1.7200942634e-001
 1.3942902700e+000	 8.6343979131e-001	-2.7436998892e-001
 1.3847904751e+000	 8.7859482515e-001	-3.7505069290e-001
 1.3751142074e+000	 8.9366344181e-001	-4.7343831808e-001
 1.3652625981e+000	 9.0864260585e-001	-5.6886786104e-001
 1.3552368472e+000	 9.2352930037e-001	-6.6062316485e-001
 1.3450382232e+000	 9.3832052895e-001	-7.4793766121e-001
 1.3346680626e+000	 9.5301331752e-001	-8.2999522660e-001
 1.4537660330e+000	 8.1505837144e-001	 8.9853324055e-002
 1.4448392197e+000	 8.3077997589e-001	-1.4210942970e-002
 1.4357291697e+000	 8.4642624616e-001	-1.1818722635e-001
 1.4264367505e+000	 8.6199404176e-001	-2.2168984265e-001
 1.4169629007e+000	 8.7748023319e-001	-3.2427817326e-001
 1.4073086290e+000	 8.9288170386e-001	-4.2545684398e-001
 1.3974750150e+000	 9.0819535213e-001	-5.2467601064e-001
 1.3874632082e+000	 9.2341809318e-001	-6.2133175327e-001
 1.3772744280e+000	 9.3854686106e-001	-7.1476658118e-001
 1.3669099637e+000	 9.5357861061e-001	-8.0427005109e-001
 1.3563711732e+000	 9.6851031942e-001	-8.8907950097e-001
 1.4770275456e+000	 8.2810000960e-001	 4.2697252318e-002
 1.4679578956e+000	 8.4407317330e-001	-6.0793088734e-002
 1.4587020769e+000	 8.5996979741e-001	-1.6415014828e-001
 1.4492609710e+000	 8.7578669120e-001	-2.6707229935e-001
 1.4396355313e+000	 8.9152067506e-001	-3.6920095809e-001
 1.4298267830e+000	 9.0716858258e-001	-4.7012060514e-001
 1.4198358227e+000	 9.2272726244e-001	-5.6935891182e-001
 1.4096638183e+000	 9.3819358050e-001	-6.6638697419e-001
 1.3993120089e+000	 9.5356442174e-001	-7.6061965780e-001
 1.3887817041e+000	 9.6883669228e-001	-8.5141605637e-001
 1.3780742839e+000	 9.8400732133e-001	-9.3808006740e-001
 1.5002890582e+000	 8.4114164775e-001	-5.5865998055e-005
 1.4910765715e+000	 8.5736637071e-001	-1.0265831415e-001
 1.4816749840e+000	 8.7351334866e-001	-2.0496491469e-001
 1.4720851914e+000	 8.8957934063e-001	-3.0677183355e-001
 1.4623081620e+000	 9.0556111694e-001	-4.0781616345e-001
 1.4523449370e+000	 9.2145546129e-001	-5.0777575334e-001
 1.4421966304e+000	 9.3725917276e-001	-6.0626914074e-001
 1.4318644284e+000	 9.5296906783e-001	-7.0285559074e-001
 1.4213495897e+000	 9.6858198243e-001	-7.9703524538e-001
 1.4106534445e+000	 9.8409477394e-001	-8.8824938731e-001
 1.3997773946e+000	 9.9950432324e-001	-9.7588082163e-001
 1.5235505708e+000	 8.5418328591e-001	-3.6922966682e-002
 1.5141952473e+000	 8.7065956811e-001	-1.3840176133e-001
 1.5046478912e+000	 8.8705689991e-001	-2.3930069119e-001
 1.4949094119e+000	 9.0337199006e-001	-3.3952668799e-001
 1.4849807927e+000	 9.1960155881e-001	-4.3892540787e-001
 1.4748630910e+000	 9.3574234000e-001	-5.3728083536e-001
 1.4645574380e+000	 9.5179108307e-001	-6.3431498778e-001
 1.4540650385e+000	 9.6774455515e-001	-7.2968772449e-001
 1.4433871705e+000	 9.8359954311e-001	-8.2299666587e-001
 1.4325251850e+000	 9.9935285560e-001	-9.1377722668e-001
 1.4214805053e+000	 1.0150013251e+000	-1.0015037089e+000
 1.5468120834e+000	 8.6722492406e-001	-6.6540432798e-002
 1.5373139232e+000	 8.8395276552e-001	-1.6673770904e-001
 1.5276207984e+000	 9.0060045116e-001	-2.6594566988e-001
 1.5177336323e+000	 9.1716463949e-001	-3.6419427048e-001
 1.5076534233e+000	 9.3364200069e-001	-4.6144991077e-001
 1.4973812450e+000	 9.5002921872e-001	-5.5761478065e-001
 1.4869182457e+000	 9.6632299339e-001	-6.5252630238e-001
 1.4762656486e+000	 9.8252004248e-001	-7.4595667573e-001
 1.4654247513e+000	 9.9861710379e-001	-8.3761253153e-001
 1.4543969254e+000	 1.0146109373e+000	-9.2713566245e-001
 1.4431836160e+000	 1.0304983271e+000	-1.0140989018e+000
 1.5700735960e+000	 8.8026656221e-001	-8.7660312797e-002
 1.5604325990e+000	 8.9724596293e-001	-1.8649570460e-001
 1.5505937056e+000	 9.1414400241e-001	-2.8380309366e-001
 1.5405578528e+000	 9.3095728892e-001	-3.7974704653e-001
 1.5303260540e+000	 9.4768244256e-001	-4.7442622658e-001
 1.5198993990e+000	 9.6431609743e-001	-5.6787244725e-001
 1.5092790533e+000	 9.8085490370e-001	-6.6004981859e-001
 1.4984662587e+000	 9.9729552980e-001	-7.5085399378e-001
 1.4874623321e+000	 1.0136346645e+000	-8.4011253458e-001
 1.4762686658e+000	 1.0298690189e+000	-9.2758015480e-001
 1.4648867267e+000	 1.0459953290e+000	-1.0129449244e+000
 1.2478556198e+000	 8.9102530988e-001	-6.2017826308e-001
 1.2380009114e+000	 9.0466762225e-001	-7.0570229242e-001
 1.2279885099e+000	 9.1821240449e-001	-7.9215713975e-001
 1.2178198509e+000	 9.3165694760e-001	-8.7900688346e-001
 1.2074964313e+000	 9.4499857057e-001	-9.6566169044e-001
 1.1970198092e+000	 9.5823462210e-001	-1.0514784277e+000
 1.1863916024e+000	 9.7136248230e-001	-1.1357614965e+000
 1.1756134885e+000	 9.8437956441e-001	-1.2177638905e+000
 1.1646872033e+000	 9.9728331646e-001	-1.2966884771e+000
 1.1536145402e+000	 1.0100712229e+000	-1.3716895027e+000
 1.1423973494e+000	 1.0227408064e+000	-1.4418750930e+000
 1.2695587305e+000	 9.0652231179e-001	-6.6387495817e-001
 1.2595326258e+000	 9.2040189569e-001	-7.4944793209e-001
 1.2493460854e+000	 9.3418225318e-001	-8.3593638715e-001
 1.2390005697e+000	 9.4786062816e-001	-9.2282126952e-001
 1.2284976019e+000	 9.6143429298e-001	-1.0095218380e+000
 1.2178387669e+000	 9.7490055022e-001	-1.0953962158e+000
 1.2070257109e+000	 9.8825673443e-001	-1.1797421911e+000
 1.1960601405e+000	 1.0015002139e+000	-1.2617982663e+000
 1.1849438218e+000	 1.0146283922e+000	-1.3407459671e+000
 1.1736785794e+000	 1.0276387101e+000	-1.4157071751e+000
 1.1622662956e+000	 1.0405286470e+000	-1.4857525250e+000
 1.2912618412e+000	 9.2201931370e-001	-7.1321428259e-001
 1.2810643402e+000	 9.3613616914e-001	-7.9774126650e-001
 1.2707036608e+000	 9.5015210188e-001	-8.8307821396e-001
 1.2601812885e+000	 9.6406430873e-001	-9.6873562301e-001
 1.2494987724e+000	 9.7787001539e-001	-1.0541549962e+000
 1.2386577246e+000	 9.9156647834e-001	-1.1387093071e+000
 1.2276598194e+000	 1.0051509866e+000	-1.2217037398e+000
 1.2165067926e+000	 1.0186208633e+000	-1.3023777217e+000
 1.2052004404e+000	 1.0319734679e+000	-1.3799019860e+000
 1.1937426186e+000	 1.0452061972e+000	-1.4533867327e+000
 1.1821352418e+000	 1.0583164877e+000	-1.5218789135e+000
 1.3129649519e+000	 9.3751631561e-001	-7.6851595205e-001
 1.3025960546e+000	 9.5187044258e-001	-8.5086930244e-001
 1.2920612363e+000	 9.6612195058e-001	-9.3386816168e-001
 1.2813620074e+000	 9.8026798929e-001	-1.0170646963e+000
 1.2704999430e+000	 9.9430573780e-001	-1.0999351908e+000
 1.2594766823e+000	 1.0082324065e+000	-1.1818804023e+000
 1.2482939279e+000	 1.0220452387e+000	-1.2622272116e+000
 1.2369534446e+000	 1.0357415128e+000	-1.3402254436e+000
 1.2254570589e+000	 1.0493185436e+000	-1.4150555521e+000
 1.2138066578e+000	 1.0627736844e+000	-1.4858257510e+000
 1.2020041879e+000	 1.0761043283e+000	-1.5515750257e+000
 1.3346680626e+000	 9.5301331752e-001	-8.2999522660e-001
 1.3241277690e+000	 9.6760471602e-001	-9.0904768018e-001
 1.3134188117e+000	 9.8209179928e-001	-9.8852182236e-001
 1.3025427262e+000	 9.9647166985e-001	-1.0680531922e+000
 1.2915011135e+000	 1.0107414602e+000	-1.1471659198e+000
 1.2802956401e+000	 1.0248983346e+000	-1.2252985536e+000
 1.2689280364e+000	 1.0389394908e+000	-1.3018115522e+000
 1.2574000967e+000	 1.0528621622e+000	-1.3759833827e+000
 1.2457136775e+000	 1.0666636193e+000	-1.4470129495e+000
 1.2338706970e+000	 1.0803411715e+000	-1.5140211274e+000
 1.2218731341e+000	 1.0938921690e+000	-1.5760526257e+000
 1.3563711732e+000	 9.6851031942e-001	-8.8907950097e-001
 1.3456594834e+000	 9.8333898946e-001	-9.6981697466e-001
 1.3347763872e+000	 9.9806164798e-001	-1.0471381897e+000
 1.3237234450e+000	 1.0126753504e+000	-1.1218678465e+000
 1.3125022841e+000	 1.0271771826e+000	-1.1960666472e+000
 1.3011145978e+000	 1.0415642627e+000	-1.2692663423e+000
 1.2895621449e+000	 1.0558337430e+000	-1.3408715480e+000
 1.2778467487e+000	 1.0699828117e+000	-1.4101995237e+000
 1.2659702960e+000	 1.0840086950e+000	-1.4764812905e+000
 1.2539347362e+000	 1.0979086586e+000	-1.5388631085e+000
 1.2417420802e+000	 1.1116800096e+000	-1.5964083150e+000
 1.3780742839e+000	 9.8400732133e-001	-9.3808006740e-001
 1.3671911978e+000	 9.9907326290e-001	-1.0210080118e+000
 1.3561339626e+000	 1.0140314967e+000	-1.1006177662e+000
 1.3449041638e+000	 1.0288790310e+000	-1.1761479766e+000
 1.3335034546e+000	 1.0436129050e+000	-1.2467702494e+000
 1.3219335555e+000	 1.0582301908e+000	-1.3139973439e+000
 1.3101962534e+000	 1.0727279951e+000	-1.3797247123e+000
 1.2982934008e+000	 1.0871034612e+000	-1.4433208524e+000
 1.2862269145e+000	 1.1013537707e+000	-1.5040607698e+000
 1.2739987753e+000	 1.1154761458e+000	-1.5611281385e+000
 1.2616110264e+000	 1.1294678503e+000	-1.6136170881e+000
 1.3997773946e+000	 9.9950432324e-001	-9.7588082163e-001
 1.3887229121e+000	 1.0148075363e+000	-1.0601312634e+000
 1.3774915381e+000	 1.0300013454e+000	-1.1412039351e+000
 1.3660848826e+000	 1.0450827115e+000	-1.2183911184e+000
 1.3545046252e+000	 1.0600486274e+000	-1.2909114253e+000
 1.3427525133e+000	 1.0748961189e+000	-1.3579115429e+000
 1.3308303620e+000	 1.0896222472e+000	-1.4185838606e+000
 1.3187400528e+000	 1.1042241106e+000	-1.4756850652e+000
 1.3064835331e+000	 1.1186988464e+000	-1.5302367998e+000
 1.2940628145e+000	 1.1330436329e+000	-1.5814715264e+000
 1.2814799725e+000	 1.1472556909e+000	-1.6285256341e+000
 1.4214805053e+000	 1.0150013251e+000	-1.0015037089e+000
 1.4102546265e+000	 1.0305418098e+000	-1.0862244950e+000
 1.3988491135e+000	 1.0459711941e+000	-1.1679765818e+000
 1.3872656015e+000	 1.0612863921e+000	-1.2461091761e+000
 1.3755057957e+000	 1.0764843498e+000	-1.3198970899e+000
 1.3635714710e+000	 1.0915620471e+000	-1.3885412324e+000
 1.3514644705e+000	 1.1065164994e+000	-1.4511692735e+000
 1.3391867049e+000	 1.1213447601e+000	-1.5068364817e+000
 1.3267401516e+000	 1.1360439222e+000	-1.5553720391e+000
 1.3141268537e+000	 1.1506111200e+000	-1.6004199506e+000
 1.3013489187e+000	 1.1650435316e+000	-1.6418454130e+000
 1.4431836160e+000	 1.0304983271e+000	-1.0140989018e+000
 1.4317863409e+000	 1.0462760832e+000	-1.0984627239e+000
 1.4202066890e+000	 1.0619410428e+000	-1.1801502666e+000
 1.4084463203e+000	 1.0774900727e+000	-1.2585758514e+000
 1.3965069663e+000	 1.0929200723e+000	-1.3330781252e+000
 1.3843904287e+000	 1.1082279752e+000	-1.4029203626e+000
 1.3720985790e+000	 1.1234107515e+000	-1.4672909425e+000
 1.3596333569e+000	 1.1384654095e+000	-1.5253040011e+000
 1.3469967702e+000	 1.1533889979e+000	-1.5760002700e+000
 1.3341908929e+000	 1.1681786072e+000	-1.6183481018e+000
 1.3212178648e+000	 1.1828313722e+000	-1.6541455284e+000
 1.4648867267e+000	 1.0459953290e+000	-1.0129449244e+000
 1.4533180553e+000	 1.0620103567e+000	-1.0961476926e+000
 1.4415642644e+000	 1.0779108915e+000	-1.1770688405e+000
 1.4296270391e+000	 1.0936937532e+000	-1.2551945068e+000
 1.4175081369e+000	 1.1093557947e+000	-1.3299343893e+000
 1.4052093865e+000	 1.1248939033e+000	-1.4006218340e+000
 1.3927326875e+000	 1.1403050036e+000	-1.4665140993e+000
 1.3800800090e+000	 1.1555860590e+000	-1.5267927992e+000
 1.3672533887e+000	 1.1707340736e+000	-1.5805645342e+000
 1.3542549321e+000	 1.1857460943e+000	-1.6268617146e+000
 1.3410868110e+000	 1.2006192129e+000	-1.6646435816e+000
 1.1423973494e+000	 1.0227408064e+000	-1.4418750930e+000
 1.1310392512e+000	 1.0352877560e+000	-1.5088769500e+000
 1.1195405341e+000	 1.0477115864e+000	-1.5746955984e+000
 1.1079032118e+000	 1.0600099458e+000	-1.6388925468e+000
 1.0961293502e+000	 1.0721805264e+000	-1.7009897331e+000
 1.0842210662e+000	 1.0842210662e+000	-1.7604712186e+000
 1.0721805264e+000	 1.0961293502e+000	-1.8167850658e+000
 1.0600099458e+000	 1.1079032118e+000	-1.8693453918e+000
 1.0477115864e+000	 1.1195405341e+000	-1.9175345879e+000
 1.0352877560e+000	 1.1310392512e+000	-1.9607056952e+000
 1.0227408064e+000	 1.1423973494e+000	-1.9981849255e+000
 1.1622662956e+000	 1.0405286470e+000	-1.4857525250e+000
 1.1507106537e+000	 1.0532938173e+000	-1.5525434094e+000
 1.1390119471e+000	 1.0659337270e+000	-1.6181269868e+000
 1.1271722247e+000	 1.0784459834e+000	-1.6820476825e+000
 1.1151935882e+000	 1.0908282387e+000	-1.7438063878e+000
 1.1030781915e+000	 1.1030781915e+000	-1.8028622546e+000
 1.0908282387e+000	 1.1151935882e+000	-1.8586346927e+000
 1.0784459834e+000	 1.1271722247e+000	-1.9105055609e+000
 1.0659337270e+000	 1.1390119471e+000	-1.9578215422e+000
 1.0532938173e+000	 1.1507106537e+000	-1.9998966924e+000
 1.0405286470e+000	 1.1622662956e+000	-2.0360151496e+000
 1.1821352418e+000	 1.0583164877e+000	-1.5218789135e+000
 1.1703820561e+000	 1.0712998786e+000	-1.5871325504e+000
 1.1584833601e+000	 1.0841558676e+000	-1.6512602408e+000
 1.1464412376e+000	 1.0968820211e+000	-1.7137356639e+000
 1.1342578263e+000	 1.1094759510e+000	-1.7739855702e+000
 1.1219353168e+000	 1.1219353168e+000	-1.8313917819e+000
 1.1094759510e+000	 1.1342578263e+000	-1.8852934126e+000
 1.0968820211e+000	 1.1464412376e+000	-1.9349893011e+000
 1.0841558676e+000	 1.1584833601e+000	-1.9797406451e+000
 1.0712998786e+000	 1.1703820561e+000	-2.0187738249e+000
 1.0583164877e+000	 1.1821352418e+000	-2.0512834037e+000
 1.2020041879e+000	 1.0761043283e+000	-1.5515750257e+000
 1.1900534585e+000	 1.0893059399e+000	-1.6142164255e+000
 1.1779547731e+000	 1.1023780082e+000	-1.6759498738e+000
 1.1657102505e+000	 1.1153180587e+000	-1.7361270987e+000
 1.1533220644e+000	 1.1281236634e+000	-1.7940500259e+000
 1.1407924421e+000	 1.1407924421e+000	-1.8489730847e+000
 1.1281236634e+000	 1.1533220644e+000	-1.9001057543e+000
 1.1153180587e+000	 1.1657102505e+000	-1.9466153405e+000
 1.1023780082e+000	 1.1779547731e+000	-1.9876299699e+000
 1.0893059399e+000	 1.1900534585e+000	-2.0222417899e+000
 1.0761043283e+000	 1.2020041879e+000	-2.0495103588e+000
 1.2218731341e+000	 1.0938921690e+000	-1.5760526257e+000
 1.2097248609e+000	 1.1073120011e+000	-1.6352475092e+000
 1.1974261861e+000	 1.1206001488e+000	-1.6939186977e+000
 1.1849792634e+000	 1.1337540964e+000	-1.7512470514e+000
 1.1723863024e+000	 1.1467713757e+000	-1.8063612252e+000
 1.1596495674e+000	 1.1596495674e+000	-1.8583403818e+000
 1.1467713757e+000	 1.1723863024e+000	-1.9062171631e+000
 1.1337540964e+000	 1.1849792634e+000	-1.9489809111e+000
 1.1206001488e+000	 1.1974261861e+000	-1.9855811216e+000
 1.1073120011e+000	 1.2097248609e+000	-2.0149311199e+000
 1.0938921690e+000	 1.2218731341e+000	-2.0359119385e+000
 1.2417420802e+000	 1.1116800096e+000	-1.5964083150e+000
 1.2293962633e+000	 1.1253180624e+000	-1.6515534590e+000
 1.2168975991e+000	 1.1388222893e+000	-1.7067536615e+000
 1.2042482763e+000	 1.1521901340e+000	-1.7609721271e+000
 1.1914505405e+000	 1.1654190881e+000	-1.8131178765e+000
 1.1785066928e+000	 1.1785066928e+000	-1.8620489636e+000
 1.1654190881e+000	 1.1914505405e+000	-1.9065759718e+000
 1.1521901340e+000	 1.2042482763e+000	-1.9454657757e+000
 1.1388222893e+000	 1.2168975991e+000	-1.9774455540e+000
 1.1253180624e+000	 1.2293962633e+000	-2.0012070371e+000
 1.1116800096e+000	 1.2417420802e+000	-2.0154109712e+000
 1.2616110264e+000	 1.1294678503e+000	-1.6136170881e+000
 1.2490676657e+000	 1.1433241237e+000	-1.6643314999e+000
 1.2363690121e+000	 1.1570444299e+000	-1.7159012060e+000
 1.2235172892e+000	 1.1706261717e+000	-1.7670269516e+000
 1.2105147786e+000	 1.1840668004e+000	-1.8163536964e+000
 1.1973638181e+000	 1.1973638181e+000	-1.8624744325e+000
 1.1840668004e+000	 1.2105147786e+000	-1.9039343003e+000
 1.1706261717e+000	 1.2235172892e+000	-1.9392349894e+000
 1.1570444299e+000	 1.2363690121e+000	-1.9668394065e+000
 1.1433241237e+000	 1.2490676657e+000	-1.9851765916e+000
 1.1294678503e+000	 1.2616110264e+000	-1.9926468645e+000
 1.2814799725e+000	 1.1472556909e+000	-1.6285256341e+000
 1.2687390682e+000	 1.1613301850e+000	-1.6746424738e+000
 1.2558404251e+000	 1.1752665705e+000	-1.7226621886e+000
 1.2427863021e+000	 1.1890622093e+000	-1.7709801118e+000
 1.2295790166e+000	 1.2027145127e+000	-1.8179345195e+000
 1.2162209434e+000	 1.2162209434e+000	-1.8618111430e+000
 1.2027145127e+000	 1.2295790166e+000	-1.9008480013e+000
 1.1890622093e+000	 1.2427863021e+000	-1.9332405346e+000
 1.1752665705e+000	 1.2558404251e+000	-1.9571470232e+000
 1.1613301850e+000	 1.2687390682e+000	-1.9706942684e+000
 1.1472556909e+000	 1.2814799725e+000	-1.9719835157e+000
 1.3013489187e+000	 1.1650435316e+000	-1.6418454130e+000
 1.2884104706e+000	 1.1793362463e+000	-1.6834045872e+000
 1.2753118380e+000	 1.1934887111e+000	-1.7281864234e+000
 1.2620553150e+000	 1.2074982469e+000	-1.7742396167e+000
 1.2486432547e+000	 1.2213622251e+000	-1.8195548170e+000
 1.2350780687e+000	 1.2350780687e+000	-1.8620699291e+000
 1.2213622251e+000	 1.2486432547e+000	-1.8996757534e+000
 1.2074982469e+000	 1.2620553150e+000	-1.9302219482e+000
 1.1934887111e+000	 1.2753118380e+000	-1.9515232927e+000
 1.1793362463e+000	 1.2884104706e+000	-1.9613662274e+000
 1.1650435316e+000	 1.3013489187e+000	-1.9575156478e+000
 1.3212178648e+000	 1.1828313722e+000	-1.6541455284e+000
 1.3080818730e+000	 1.1973423076e+000	-1.6913868919e+000
 1.2947832510e+000	 1.2117108517e+000	-1.7334668767e+000
 1.2813243279e+000	 1.2259342846e+000	-1.7780479264e+000
 1.2677074928e+000	 1.2400099374e+000	-1.8227336880e+000
 1.2539351941e+000	 1.2539351941e+000	-1.8650751917e+000
 1.2400099374e+000	 1.2677074928e+000	-1.9025773916e+000
 1.2259342846e+000	 1.2813243279e+000	-1.9327060494e+000
 1.2117108517e+000	 1.2947832510e+000	-1.9528949351e+000
 1.1973423076e+000	 1.3080818730e+000	-1.9605533204e+000
 1.1828313722e+000	 1.3212178648e+000	-1.9530737367e+000
 1.3410868110e+000	 1.2006192129e+000	-1.6646435816e+000
 1.3277532754e+000	 1.2153483688e+000	-1.6992025247e+000
 1.3142546640e+000	 1.2299329922e+000	-1.7393335552e+000
 1.3005933408e+000	 1.2443703222e+000	-1.7834765962e+000
 1.2867717309e+000	 1.2586576498e+000	-1.8288103762e+000
 1.2727923194e+000	 1.2727923194e+000	-1.8724614143e+000
 1.2586576498e+000	 1.2867717309e+000	-1.9115115541e+000
 1.2443703222e+000	 1.3005933408e+000	-1.9430058588e+000
 1.2299329922e+000	 1.3142546640e+000	-1.9639608430e+000
 1.2153483688e+000	 1.3277532754e+000	-1.9713730114e+000
 1.2006192129e+000	 1.3410868110e+000	-1.9630270791e+000
 1.0227408064e+000	 1.1423973494e+000	-1.9981849255e+000
 1.0100712229e+000	 1.1536145402e+000	-2.0339775253e+000
 9.9728331646e-001	 1.1646872033e+000	-2.0713869743e+000
 9.8437956441e-001	 1.1756134885e+000	-2.1087081719e+000
 9.7136248230e-001	 1.1863916024e+000	-2.1442604797e+000
 9.5823462210e-001	 1.1970198092e+000	-2.1763938666e+000
 9.4499857057e-001	 1.2074964313e+000	-2.2034937050e+000
 9.3165694760e-001	 1.2178198509e+000	-2.2239855215e+000
 9.1821240449e-001	 1.2279885099e+000	-2.2363396817e+000
 9.0466762225e-001	 1.2380009114e+000	-2.2390759919e+000
 8.9102530988e-001	 1.2478556198e+000	-2.2307681968e+000
 1.0405286470e+000	 1.1622662956e+000	-2.0360151496e+000
 1.0276387101e+000	 1.1736785794e+000	-2.0709113750e+000
 1.0146283922e+000	 1.1849438218e+000	-2.1084884596e+000
 1.0015002139e+000	 1.1960601405e+000	-2.1468010115e+000
 9.8825673443e-001	 1.2070257109e+000	-2.1839306711e+000
 9.7490055022e-001	 1.2178387669e+000	-2.2180030406e+000
 9.6143429298e-001	 1.2284976019e+000	-2.2471856824e+000
 9.4786062816e-001	 1.2390005697e+000	-2.2696952518e+000
 9.3418225318e-001	 1.2493460854e+000	-2.2838027605e+000
 9.2040189569e-001	 1.2595326258e+000	-2.2878387401e+000
 9.0652231179e-001	 1.2695587305e+000	-2.2801982829e+000
 1.0583164877e+000	 1.1821352418e+000	-2.0512834037e+000
 1.0452061972e+000	 1.1937426186e+000	-2.0828236478e+000
 1.0319734679e+000	 1.2052004404e+000	-2.1180572768e+000
 1.0186208633e+000	 1.2165067926e+000	-2.1548574635e+000
 1.0051509866e+000	 1.2276598194e+000	-2.1911376165e+000
 9.9156647834e-001	 1.2386577246e+000	-2.2248485660e+000
 9.7787001539e-001	 1.2494987724e+000	-2.2539972490e+000
 9.6406430873e-001	 1.2601812885e+000	-2.2766443556e+000
 9.5015210188e-001	 1.2707036608e+000	-2.2909120972e+000
 9.3613616914e-001	 1.2810643402e+000	-2.2949898746e+000
 9.2201931370e-001	 1.2912618412e+000	-2.2871398088e+000
 1.0761043283e+000	 1.2020041879e+000	-2.0495103588e+000
 1.0627736844e+000	 1.2138066578e+000	-2.0758444965e+000
 1.0493185436e+000	 1.2254570589e+000	-2.1067713328e+000
 1.0357415128e+000	 1.2369534446e+000	-2.1400429192e+000
 1.0220452387e+000	 1.2482939279e+000	-2.1734523076e+000
 1.0082324065e+000	 1.2594766823e+000	-2.2048424815e+000
 9.9430573780e-001	 1.2704999430e+000	-2.2321031521e+000
 9.8026798929e-001	 1.2813620074e+000	-2.2531910042e+000
 9.6612195058e-001	 1.2920612363e+000	-2.2661269613e+000
 9.5187044258e-001	 1.3025960546e+000	-2.2690044726e+000
 9.3751631561e-001	 1.3129649519e+000	-2.2599954867e+000
 1.0938921690e+000	 1.2218731341e+000	-2.0359119385e+000
 1.0803411715e+000	 1.2338706970e+000	-2.0557709179e+000
 1.0666636193e+000	 1.2457136775e+000	-2.0809500216e+000
 1.0528621622e+000	 1.2574000967e+000	-2.1091352555e+000
 1.0389394908e+000	 1.2689280364e+000	-2.1380547058e+000
 1.0248983346e+000	 1.2802956401e+000	-2.1654853776e+000
 1.0107414602e+000	 1.2915011135e+000	-2.1892599934e+000
 9.9647166985e-001	 1.3025427262e+000	-2.2072768293e+000
 9.8209179928e-001	 1.3134188117e+000	-2.2174943790e+000
 9.6760471602e-001	 1.3241277690e+000	-2.2179552132e+000
 9.5301331752e-001	 1.3346680626e+000	-2.2068035767e+000
 1.1116800096e+000	 1.2417420802e+000	-2.0154109712e+000
 1.0979086586e+000	 1.2539347362e+000	-2.0280796239e+000
 1.0840086950e+000	 1.2659702960e+000	-2.0465693044e+000
 1.0699828117e+000	 1.2778467487e+000	-2.0685520317e+000
 1.0558337430e+000	 1.2895621449e+000	-2.0917410726e+000
 1.0415642627e+000	 1.3011145978e+000	-2.1138981102e+000
 1.0271771826e+000	 1.3125022841e+000	-2.1328403808e+000
 1.0126753504e+000	 1.3237234450e+000	-2.1464477498e+000
 9.9806164798e-001	 1.3347763872e+000	-2.1527005886e+000
 9.8333898946e-001	 1.3456594834e+000	-2.1514187066e+000
 9.6851031942e-001	 1.3563711732e+000	-2.1415567083e+000
 1.1294678503e+000	 1.2616110264e+000	-1.9926468645e+000
 1.1154761458e+000	 1.2739987753e+000	-1.9979392337e+000
 1.1013537707e+000	 1.2862269145e+000	-2.0092761286e+000
 1.0871034612e+000	 1.2982934008e+000	-2.0243647786e+000
 1.0727279951e+000	 1.3101962534e+000	-2.0409509598e+000
 1.0582301908e+000	 1.3219335555e+000	-2.0568264298e+000
 1.0436129050e+000	 1.3335034546e+000	-2.0698368870e+000
 1.0288790310e+000	 1.3449041638e+000	-2.0796118561e+000
 1.0140314967e+000	 1.3561339626e+000	-2.0854950026e+000
 9.9907326290e-001	 1.3671911978e+000	-2.0852014078e+000
 9.8400732133e-001	 1.3780742839e+000	-2.0765325491e+000
 1.1472556909e+000	 1.2814799725e+000	-1.9719835157e+000
 1.1330436329e+000	 1.2940628145e+000	-1.9702204727e+000
 1.1186988464e+000	 1.3064835331e+000	-1.9744006515e+000
 1.1042241106e+000	 1.3187400528e+000	-1.9823129719e+000
 1.0896222472e+000	 1.3308303620e+000	-1.9917803672e+000
 1.0748961189e+000	 1.3427525133e+000	-2.0018417393e+000
 1.0600486274e+000	 1.3545046252e+000	-2.0126876284e+000
 1.0450827115e+000	 1.3660848826e+000	-2.0220191724e+000
 1.0300013454e+000	 1.3774915381e+000	-2.0275385819e+000
 1.0148075363e+000	 1.3887229121e+000	-2.0270363303e+000
 9.9950432324e-001	 1.3997773946e+000	-2.0184006611e+000
 1.1650435316e+000	 1.3013489187e+000	-1.9575156478e+000
 1.1506111200e+000	 1.3141268537e+000	-1.9495045905e+000
 1.1360439222e+000	 1.3267401516e+000	-1.9469665033e+000
 1.1213447601e+000	 1.3391867049e+000	-1.9482781292e+000
 1.1065164994e+000	 1.3514644705e+000	-1.9543187375e+000
 1.0915620471e+000	 1.3635714710e+000	-1.9632811637e+000
 1.0764843498e+000	 1.3755057957e+000	-1.9728397400e+000
 1.0612863921e+000	 1.3872656015e+000	-1.9807404206e+000
 1.0459711941e+000	 1.3988491135e+000	-1.9848063935e+000
 1.0305418098e+000	 1.4102546265e+000	-1.9829435632e+000
 1.0150013251e+000	 1.4214805053e+000	-1.9731458891e+000
 1.1828313722e+000	 1.3212178648e+000	-1.9530737367e+000
 1.1681786072e+000	 1.3341908929e+000	-1.9401008403e+000
 1.1533889979e+000	 1.3469967702e+000	-1.9341741274e+000
 1.1384654095e+000	 1.3596333569e+000	-1.9349760849e+000
 1.1234107515e+000	 1.3720985790e+000	-1.9402417500e+000
 1.1082279752e+000	 1.3843904287e+000	-1.9477591046e+000
 1.0929200723e+000	 1.3965069663e+000	-1.9553747580e+000
 1.0774900727e+000	 1.4084463203e+000	-1.9609995528e+000
 1.0619410428e+000	 1.4202066890e+000	-1.9626140772e+000
 1.0462760832e+000	 1.4317863409e+000	-1.9582740652e+000
 1.0304983271e+000	 1.4431836160e+000	-1.9461156677e+000
 1.2006192129e+000	 1.3410868110e+000	-1.9630270791e+000
 1.1857460943e+000	 1.3542549321e+000	-1.9516892473e+000
 1.1707340736e+000	 1.3672533887e+000	-1.9477267835e+000
 1.1555860590e+000	 1.3800800090e+000	-1.9490647465e+000
 1.1403050036e+000	 1.3927326875e+000	-1.9536667512e+000
 1.1248939033e+000	 1.4052093865e+000	-1.9595404890e+000
 1.1093557947e+000	 1.4175081369e+000	-1.9647432100e+000
 1.0936937532e+000	 1.4296270391e+000	-1.9673871502e+000
 1.0779108915e+000	 1.4415642644e+000	-1.9656448849e+000
 1.0620103567e+000	 1.4533180553e+000	-1.9577545899e+000
 1.0459953290e+000	 1.4648867267e+000	-1.9420251936e+000
 8.9102530988e-001	 1.2478556198e+000	-2.2307681968e+000
 8.7728820228e-001	 1.2575512615e+000	-2.2180016487e+000
 8.6345905763e-001	 1.2670865240e+000	-2.2073945779e+000
 8.4954065654e-001	 1.2764601577e+000	-2.1976680763e+000
 8.3553580053e-001	 1.2856709767e+000	-2.1876198516e+000
 8.2144731029e-001	 1.2947178591e+000	-2.1761282569e+000
 8.0727802380e-001	 1.3035997473e+000	-2.1621560933e+000
 7.9303079459e-001	 1.3123156482e+000	-2.1447541689e+000
 7.7870848989e-001	 1.3208646337e+000	-2.1230645994e+000
 7.6431398883e-001	 1.3292458404e+000	-2.0963238397e+000
 7.4985018066e-001	 1.3374584701e+000	-2.0639741592e+000
 9.0652231179e-001	 1.2695587305e+000	-2.2801982829e+000
 8.9254628395e-001	 1.2794230019e+000	-2.2674739402e+000
 8.7847661832e-001	 1.2891241048e+000	-2.2564145291e+000
 8.6431614387e-001	 1.2986607678e+000	-2.2457576881e+000
 8.5006771085e-001	 1.3080317844e+000	-2.2343203031e+000
 8.3573418901e-001	 1.3172360131e+000	-2.2210027647e+000
 8.2131846568e-001	 1.3262723780e+000	-2.2047929863e+000
 8.0682344403e-001	 1.3351398687e+000	-2.1847985318e+000
 7.9225204115e-001	 1.3438375409e+000	-2.1609883581e+000
 7.7760718625e-001	 1.3523645163e+000	-2.1327915928e+000
 7.6289181882e-001	 1.3607199827e+000	-2.0993102411e+000
 9.2201931370e-001	 1.2912618412e+000	-2.2871398088e+000
 9.0780436561e-001	 1.3012947424e+000	-2.2738575248e+000
 8.9349417900e-001	 1.3111616856e+000	-2.2618916756e+000
 8.7909163119e-001	 1.3208613779e+000	-2.2499998780e+000
 8.6459962117e-001	 1.3303925920e+000	-2.2370210593e+000
 8.5002106772e-001	 1.3397541671e+000	-2.2222841704e+000
 8.3535890756e-001	 1.3489450086e+000	-2.2058683058e+000
 8.2061609346e-001	 1.3579640892e+000	-2.1866743986e+000
 8.0579559240e-001	 1.3668104481e+000	-2.1636237361e+000
 7.9090038366e-001	 1.3754831922e+000	-2.1357459593e+000
 7.7593345698e-001	 1.3839814953e+000	-2.1021814557e+000
 9.3751631561e-001	 1.3129649519e+000	-2.2599954867e+000
 9.2306244728e-001	 1.3231664828e+000	-2.2454258782e+000
 9.0851173969e-001	 1.3331992664e+000	-2.2319459493e+000
 8.9386711852e-001	 1.3430619880e+000	-2.2193640973e+000
 8.7913153149e-001	 1.3527533997e+000	-2.2074072811e+000
 8.6430794644e-001	 1.3622723211e+000	-2.1947204030e+000
 8.4939934944e-001	 1.3716176393e+000	-2.1800490289e+000
 8.3440874290e-001	 1.3807883096e+000	-2.1622427167e+000
 8.1933914365e-001	 1.3897833553e+000	-2.1402579981e+000
 8.0419358107e-001	 1.3986018680e+000	-2.1131611167e+000
 7.8897509513e-001	 1.4072430079e+000	-2.0801305161e+000
 9.5301331752e-001	 1.3346680626e+000	-2.2068035767e+000
 9.3832052895e-001	 1.3450382232e+000	-2.1916909644e+000
 9.2352930037e-001	 1.3552368472e+000	-2.1798073089e+000
 9.0864260585e-001	 1.3652625981e+000	-2.1696402544e+000
 8.9366344181e-001	 1.3751142074e+000	-2.1597712900e+000
 8.7859482515e-001	 1.3847904751e+000	-2.1488795098e+000
 8.6343979131e-001	 1.3942902700e+000	-2.1357451586e+000
 8.4820139233e-001	 1.4036125301e+000	-2.1192529504e+000
 8.3288269491e-001	 1.4127562625e+000	-2.0983951532e+000
 8.1748677848e-001	 1.4217205439e+000	-2.0722744271e+000
 8.0201673329e-001	 1.4305045204e+000	-2.0401064113e+000
 9.6851031942e-001	 1.3563711732e+000	-2.1415567083e+000
 9.5357861061e-001	 1.3669099637e+000	-2.1286705972e+000
 9.3854686106e-001	 1.3772744280e+000	-2.1187241856e+000
 9.2341809318e-001	 1.3874632082e+000	-2.1102422802e+000
 9.0819535213e-001	 1.3974750150e+000	-2.1018430293e+000
 8.9288170386e-001	 1.4073086290e+000	-2.0922417863e+000
 8.7748023319e-001	 1.4169629007e+000	-2.0802547596e+000
 8.6199404176e-001	 1.4264367505e+000	-2.0648024361e+000
 8.4642624616e-001	 1.4357291697e+000	-2.0449127699e+000
 8.3077997589e-001	 1.4448392197e+000	-2.0197241253e+000
 8.1505837144e-001	 1.4537660330e+000	-1.9884879665e+000
 9.8400732133e-001	 1.3780742839e+000	-2.0765325491e+000
 9.6883669228e-001	 1.3887817041e+000	-2.0648440276e+000
 9.5356442174e-001	 1.3993120089e+000	-2.0558974045e+000
 9.3819358050e-001	 1.4096638183e+000	-2.0482573566e+000
 9.2272726244e-001	 1.4198358227e+000	-2.0405807436e+000
 9.0716858258e-001	 1.4298267830e+000	-2.0316205742e+000
 8.9152067506e-001	 1.4396355313e+000	-2.0202297605e+000
 8.7578669120e-001	 1.4492609710e+000	-2.0053646475e+000
 8.5996979741e-001	 1.4587020769e+000	-1.9860883093e+000
 8.4407317330e-001	 1.4679578956e+000	-1.9615735994e+000
 8.2810000960e-001	 1.4770275456e+000	-1.9311059492e+000
 9.9950432324e-001	 1.3997773946e+000	-2.0184006611e+000
 9.8409477394e-001	 1.4106534445e+000	-2.0068092886e+000
 9.6858198243e-001	 1.4213495897e+000	-1.9978404334e+000
 9.5296906783e-001	 1.4318644284e+000	-1.9901007938e+000
 9.3725917276e-001	 1.4421966304e+000	-1.9822874493e+000
 9.2145546129e-001	 1.4523449370e+000	-1.9731919283e+000
 9.0556111694e-001	 1.4623081620e+000	-1.9617040675e+000
 8.8957934063e-001	 1.4720851914e+000	-1.9468156493e+000
 8.7351334866e-001	 1.4816749840e+000	-1.9276238081e+000
 8.5736637071e-001	 1.4910765715e+000	-1.9033341927e+000
 8.4114164775e-001	 1.5002890582e+000	-1.8732638769e+000
 1.0150013251e+000	 1.4214805053e+000	-1.9731458891e+000
 9.9935285560e-001	 1.4325251850e+000	-1.9604955743e+000
 9.8359954311e-001	 1.4433871705e+000	-1.9504109865e+000
 9.6774455515e-001	 1.4540650385e+000	-1.9415463837e+000
 9.5179108307e-001	 1.4645574380e+000	-1.9326400553e+000
 9.3574234000e-001	 1.4748630910e+000	-1.9225224073e+000
 9.1960155881e-001	 1.4849807927e+000	-1.9101199275e+000
 9.0337199006e-001	 1.4949094119e+000	-1.8944589326e+000
 8.8705689991e-001	 1.5046478912e+000	-1.8746690873e+000
 8.7065956811e-001	 1.5141952473e+000	-1.8499866831e+000
 8.5418328591e-001	 1.5235505708e+000	-1.8197576669e+000
 1.0304983271e+000	 1.4431836160e+000	-1.9461156677e+000
 1.0146109373e+000	 1.4543969254e+000	-1.9311893790e+000
 9.9861710379e-001	 1.4654247513e+000	-1.9188405499e+000
 9.8252004248e-001	 1.4762656486e+000	-1.9077548747e+000
 9.6632299339e-001	 1.4869182457e+000	-1.8967166999e+000
 9.5002921872e-001	 1.4973812450e+000	-1.8845951847e+000
 9.3364200069e-001	 1.5076534233e+000	-1.8703527231e+000
 9.1716463949e-001	 1.5177336323e+000	-1.8530488030e+000
 9.0060045116e-001	 1.5276207984e+000	-1.8318436410e+000
 8.8395276552e-001	 1.5373139232e+000	-1.8060015816e+000
 8.6722492406e-001	 1.5468120834e+000	-1.7748942496e+000
 1.0459953290e+000	 1.4648867267e+000	-1.9420251936e+000
 1.0298690189e+000	 1.4762686658e+000	-1.9235808671e+000
 1.0136346645e+000	 1.4874623321e+000	-1.9077572940e+000
 9.9729552980e-001	 1.4984662587e+000	-1.8933007634e+000
 9.8085490370e-001	 1.5092790533e+000	-1.8790224906e+000
 9.6431609743e-001	 1.5198993990e+000	-1.8638346549e+000
 9.4768244256e-001	 1.5303260540e+000	-1.8467343628e+000
 9.3095728892e-001	 1.5405578528e+000	-1.8268124715e+000
 9.1414400241e-001	 1.5505937056e+000	-1.8032573438e+000
 8.9724596293e-001	 1.5604325990e+000	-1.7753583704e+000
 8.8026656221e-001	 1.5700735960e+000	-1.7425092526e+000
 7.4985018066e-001	 1.3374584701e+000	-2.0639741592e+000
 7.3532214732e-001	 1.3455005959e+000	-2.0301965518e+000
 7.2073062788e-001	 1.3533727953e+000	-1.9987766925e+000
 7.0607853061e-001	 1.3610744663e+000	-1.9693776683e+000
 6.9136876671e-001	 1.3686050715e+000	-1.9417612373e+000
 6.7660424856e-001	 1.3759641382e+000	-1.9157885751e+000
 6.6178788798e-001	 1.3831512578e+000	-1.8912034498e+000
 6.4692259452e-001	 1.3901660856e+000	-1.8650762009e+000
 6.3201127378e-001	 1.3970083406e+000	-1.8362607179e+000
 6.1705682569e-001	 1.4036778048e+000	-1.8045320720e+000
 6.0206214291e-001	 1.4101743228e+000	-1.7697338273e+000
 7.6289181882e-001	 1.3607199827e+000	-2.0993102411e+000
 7.4811110919e-001	 1.3689019798e+000	-2.0638141162e+000
 7.3326580931e-001	 1.3769110950e+000	-2.0298344075e+000
 7.1835887800e-001	 1.3847467159e+000	-1.9970391220e+000
 7.0339327710e-001	 1.3924082959e+000	-1.9651969369e+000
 6.8837196965e-001	 1.3998953539e+000	-1.9341780837e+000
 6.7329791811e-001	 1.4072074742e+000	-1.9039549876e+000
 6.5817408263e-001	 1.4143443062e+000	-1.8739561635e+000
 6.4300341935e-001	 1.4213055639e+000	-1.8411156305e+000
 6.2778887864e-001	 1.4280910255e+000	-1.8048247237e+000
 6.1253340346e-001	 1.4347005331e+000	-1.7649194068e+000
 7.7593345698e-001	 1.3839814953e+000	-2.1021814557e+000
 7.6090007107e-001	 1.3923033636e+000	-2.0660593902e+000
 7.4580099073e-001	 1.4004493947e+000	-2.0307381495e+000
 7.3063922539e-001	 1.4084189656e+000	-1.9958792473e+000
 7.1541778749e-001	 1.4162115203e+000	-1.9612470937e+000
 7.0013969074e-001	 1.4238265695e+000	-1.9267100336e+000
 6.8480794824e-001	 1.4312636906e+000	-1.8922411324e+000
 6.6942557074e-001	 1.4385225267e+000	-1.8579187086e+000
 6.5399556492e-001	 1.4456027872e+000	-1.8225047262e+000
 6.3852093159e-001	 1.4525042463e+000	-1.7832687942e+000
 6.2300466401e-001	 1.4592267435e+000	-1.7399658026e+000
 7.8897509513e-001	 1.4072430079e+000	-2.0801305161e+000
 7.7368903295e-001	 1.4157047475e+000	-2.0441462589e+000
 7.5833617216e-001	 1.4239876944e+000	-2.0083785033e+000
 7.4291957277e-001	 1.4320912153e+000	-1.9724708086e+000
 7.2744229788e-001	 1.4400147447e+000	-1.9361720736e+000
 7.1190741183e-001	 1.4477577852e+000	-1.8993377452e+000
 6.9631797836e-001	 1.4553199070e+000	-1.8619307681e+000
 6.8067705886e-001	 1.4627007473e+000	-1.8240222714e+000
 6.6498771050e-001	 1.4699000105e+000	-1.7857675063e+000
 6.4925298454e-001	 1.4769174671e+000	-1.7448630314e+000
 6.3347592456e-001	 1.4837529538e+000	-1.6995327820e+000
 8.0201673329e-001	 1.4305045204e+000	-2.0401064113e+000
 7.8647799482e-001	 1.4391061313e+000	-2.0047270626e+000
 7.7087135358e-001	 1.4475259941e+000	-1.9691165600e+000
 7.5519992016e-001	 1.4557634649e+000	-1.9328889919e+000
 7.3946680827e-001	 1.4638179691e+000	-1.8957664343e+000
 7.2367513292e-001	 1.4716890009e+000	-1.8575803477e+000
 7.0782800849e-001	 1.4793761234e+000	-1.8182727066e+000
 6.9192854697e-001	 1.4868789679e+000	-1.7778968575e+000
 6.7597985607e-001	 1.4941972338e+000	-1.7366181038e+000
 6.5998503749e-001	 1.5013306879e+000	-1.6943386125e+000
 6.4394718511e-001	 1.5082791642e+000	-1.6480533265e+000
 8.1505837144e-001	 1.4537660330e+000	-1.9884879665e+000
 7.9926695670e-001	 1.4625075152e+000	-1.9539137187e+000
 7.8340653501e-001	 1.4710642938e+000	-1.9188026218e+000
 7.6748026755e-001	 1.4794357146e+000	-1.8827277122e+000
 7.5149131866e-001	 1.4876211935e+000	-1.8453728574e+000
 7.3544285401e-001	 1.4956202166e+000	-1.8065343588e+000
 7.1933803862e-001	 1.5034323398e+000	-1.7661222771e+000
 7.0318003508e-001	 1.5110571885e+000	-1.7241614778e+000
 6.8697200164e-001	 1.5184944571e+000	-1.6807923931e+000
 6.7071709044e-001	 1.5257439087e+000	-1.6362715007e+000
 6.5441844567e-001	 1.5328053745e+000	-1.5897170959e+000
 8.2810000960e-001	 1.4770275456e+000	-1.9311059492e+000
 8.1205591857e-001	 1.4859088990e+000	-1.8972975991e+000
 7.9594171644e-001	 1.4946025935e+000	-1.8627938672e+000
 7.7976061493e-001	 1.5031079643e+000	-1.8271150859e+000
 7.6351582905e-001	 1.5114244179e+000	-1.7898954483e+000
 7.4721057510e-001	 1.5195514323e+000	-1.7508848334e+000
 7.3084806875e-001	 1.5274885562e+000	-1.7099503445e+000
 7.1443152319e-001	 1.5352354090e+000	-1.6670775576e+000
 6.9796414722e-001	 1.5427916804e+000	-1.6223714773e+000
 6.8144914339e-001	 1.5501571295e+000	-1.5760571964e+000
 6.6488970622e-001	 1.5573315848e+000	-1.5284544189e+000
 8.4114164775e-001	 1.5002890582e+000	-1.8732638769e+000
 8.2484488045e-001	 1.5093102829e+000	-1.8399682965e+000
 8.0847689786e-001	 1.5181408932e+000	-1.8059710907e+000
 7.9204096232e-001	 1.5267802140e+000	-1.7707281605e+000
 7.7554033944e-001	 1.5352276423e+000	-1.7338124732e+000
 7.5897829619e-001	 1.5434826480e+000	-1.6949161270e+000
 7.4235809888e-001	 1.5515447726e+000	-1.6538521194e+000
 7.2568301130e-001	 1.5594136296e+000	-1.6105558148e+000
 7.0895629279e-001	 1.5670889037e+000	-1.5650861089e+000
 6.9218119634e-001	 1.5745703503e+000	-1.5176262865e+000
 6.7536096677e-001	 1.5818577952e+000	-1.4684845712e+000
 8.5418328591e-001	 1.5235505708e+000	-1.8197576669e+000
 8.3763384232e-001	 1.5327116667e+000	-1.7865313990e+000
 8.2101207928e-001	 1.5416791929e+000	-1.7527546160e+000
 8.0432130970e-001	 1.5504524636e+000	-1.7178069803e+000
 7.8756484983e-001	 1.5590308667e+000	-1.6811885931e+000
 7.7074601728e-001	 1.5674138637e+000	-1.6425223149e+000
 7.5386812901e-001	 1.5756009890e+000	-1.6015557809e+000
 7.3693449941e-001	 1.5835918502e+000	-1.5581631042e+000
 7.1994843836e-001	 1.5913861270e+000	-1.5123462642e+000
 7.0291324929e-001	 1.5989835711e+000	-1.4642361774e+000
 6.8583222732e-001	 1.6063840055e+000	-1.4140934473e+000
 8.6722492406e-001	 1.5468120834e+000	-1.7748942496e+000
 8.5042280420e-001	 1.5561130506e+000	-1.7411253773e+000
 8.3354726071e-001	 1.5652174926e+000	-1.7071194687e+000
 8.1660165709e-001	 1.5741247133e+000	-1.6721680583e+000
 7.9958936022e-001	 1.5828340911e+000	-1.6356866484e+000
 7.8251373836e-001	 1.5913450793e+000	-1.5972173045e+000
 7.6537815914e-001	 1.5996572054e+000	-1.5564309327e+000
 7.4818598752e-001	 1.6077700708e+000	-1.5131292351e+000
 7.3094058393e-001	 1.6156833503e+000	-1.4672463387e+000
 7.1364530224e-001	 1.6233967918e+000	-1.4188500933e+000
 6.9630348787e-001	 1.6309102159e+000	-1.3681430367e+000
 8.8026656221e-001	 1.5700735960e+000	-1.7425092526e+000
 8.6321176607e-001	 1.5795144344e+000	-1.7074376763e+000
 8.4608244213e-001	 1.5887557923e+000	-1.6726098863e+000
 8.2888200447e-001	 1.5977969630e+000	-1.6372173147e+000
 8.1161387061e-001	 1.6066373155e+000	-1.6005790398e+000
 7.9428145945e-001	 1.6152762950e+000	-1.5621446715e+000
 7.7688818926e-001	 1.6237134218e+000	-1.5214969085e+000
 7.5943747564e-001	 1.6319482913e+000	-1.4783537622e+000
 7.4193272950e-001	 1.6399805736e+000	-1.4325704400e+000
 7.2437735518e-001	 1.6478100126e+000	-1.3841408874e+000
 7.0677474842e-001	 1.6554364262e+000	-1.3331989829e+000
 6.0206214291e-001	 1.4101743228e+000	-1.7697338273e+000
 5.8702785160e-001	 1.4164987373e+000	-1.7329096955e+000
 5.7195907336e-001	 1.4226500300e+000	-1.6953495080e+000
 5.5685867128e-001	 1.4286282313e+000	-1.6573670788e+000
 5.4172949480e-001	 1.4344334318e+000	-1.6193624265e+000
 5.2657437818e-001	 1.4400657820e+000	-1.5818231212e+000
 5.1139613904e-001	 1.4455254909e+000	-1.5453251308e+000
 4.9619757688e-001	 1.4508128258e+000	-1.5105331739e+000
 4.8098147173e-001	 1.4559281109e+000	-1.4782005914e+000
 4.6575058273e-001	 1.4608717271e+000	-1.4491687516e+000
 4.5050764685e-001	 1.4656441104e+000	-1.4243660037e+000
 6.1253340346e-001	 1.4347005331e+000	-1.7649194068e+000
 5.9723763087e-001	 1.4411349439e+000	-1.7226188310e+000
 5.8190677153e-001	 1.4473932219e+000	-1.6794085598e+000
 5.6654373835e-001	 1.4534753980e+000	-1.6356275100e+000
 5.5115143031e-001	 1.4593815645e+000	-1.5917045149e+000
 5.3573273098e-001	 1.4651118743e+000	-1.5481598360e+000
 5.2029050697e-001	 1.4706665403e+000	-1.5056061213e+000
 5.0482760648e-001	 1.4760458342e+000	-1.4647488195e+000
 4.8934685788e-001	 1.4812500860e+000	-1.4263860621e+000
 4.7385106831e-001	 1.4862796832e+000	-1.3914080308e+000
 4.5834302232e-001	 1.4911350694e+000	-1.3607958275e+000
 6.2300466401e-001	 1.4592267435e+000	-1.7399658026e+000
 6.0744741014e-001	 1.4657711505e+000	-1.6939834720e+000
 5.9185446971e-001	 1.4721364138e+000	-1.6469808182e+000
 5.7622880542e-001	 1.4783225647e+000	-1.5992905564e+000
 5.6057336583e-001	 1.4843296971e+000	-1.5513403065e+000
 5.4489108379e-001	 1.4901579667e+000	-1.5036543155e+000
 5.2918487490e-001	 1.4958075896e+000	-1.4568545658e+000
 5.1345763607e-001	 1.5012788426e+000	-1.4116612809e+000
 4.9771224403e-001	 1.5065720611e+000	-1.3688928417e+000
 4.8195155388e-001	 1.5116876392e+000	-1.3294651333e+000
 4.6617839780e-001	 1.5166260283e+000	-1.2943903413e+000
 6.3347592456e-001	 1.4837529538e+000	-1.6995327820e+000
 6.1765718941e-001	 1.4904073571e+000	-1.6513285510e+000
 6.0180216789e-001	 1.4968796057e+000	-1.6020638331e+000
 5.8591387250e-001	 1.5031697314e+000	-1.5520347711e+000
 5.6999530135e-001	 1.5092778298e+000	-1.5016387242e+000
 5.5404943659e-001	 1.5152040590e+000	-1.4513762452e+000
 5.3807924283e-001	 1.5209486390e+000	-1.4018523762e+000
 5.2208766567e-001	 1.5265118510e+000	-1.3537772749e+000
 5.0607763017e-001	 1.5318940362e+000	-1.3079661873e+000
 4.9005203945e-001	 1.5370955953e+000	-1.2653387877e+000
 4.7401377327e-001	 1.5421169872e+000	-1.2269179100e+000
 6.4394718511e-001	 1.5082791642e+000	-1.6480533265e+000
 6.2786696868e-001	 1.5150435638e+000	-1.5987919301e+000
 6.1174986607e-001	 1.5216227976e+000	-1.5485064596e+000
 5.9559893957e-001	 1.5280168981e+000	-1.4974269430e+000
 5.7941723687e-001	 1.5342259625e+000	-1.4458923125e+000
 5.6320778939e-001	 1.5402501513e+000	-1.3943526807e+000
 5.4697361076e-001	 1.5460896883e+000	-1.3433708587e+000
 5.3071769527e-001	 1.5517448594e+000	-1.2936231315e+000
 5.1444301632e-001	 1.5572160113e+000	-1.2458993066e+000
 4.9815252503e-001	 1.5625035514e+000	-1.2011020609e+000
 4.8184914875e-001	 1.5676079461e+000	-1.1602456105e+000
 6.5441844567e-001	 1.5328053745e+000	-1.5897170959e+000
 6.3807674794e-001	 1.5396797704e+000	-1.5403067213e+000
 6.2169756424e-001	 1.5463659895e+000	-1.4899900683e+000
 6.0528400665e-001	 1.5528640649e+000	-1.4389022379e+000
 5.8883917239e-001	 1.5591740951e+000	-1.3872963569e+000
 5.7236614219e-001	 1.5652962436e+000	-1.3355461971e+000
 5.5586797869e-001	 1.5712307377e+000	-1.2841479509e+000
 5.3934772486e-001	 1.5769778678e+000	-1.2337211814e+000
 5.2280840247e-001	 1.5825379864e+000	-1.1850089664e+000
 5.0625301060e-001	 1.5879115075e+000	-1.1388772611e+000
 4.8968452423e-001	 1.5930989051e+000	-1.0963135105e+000
 6.6488970622e-001	 1.5573315848e+000	-1.5284544189e+000
 6.4828652721e-001	 1.5643159770e+000	-1.4795843140e+000
 6.3164526242e-001	 1.5711091814e+000	-1.4300106402e+000
 6.1496907372e-001	 1.5777112316e+000	-1.3797453941e+000
 5.9826110790e-001	 1.5841222278e+000	-1.3289292190e+000
 5.8152449499e-001	 1.5903423359e+000	-1.2778344084e+000
 5.6476234663e-001	 1.5963717870e+000	-1.2268669744e+000
 5.4797775446e-001	 1.6022108762e+000	-1.1765677971e+000
 5.3117378862e-001	 1.6078599615e+000	-1.1276128801e+000
 5.1435349618e-001	 1.6133194636e+000	-1.0808127377e+000
 4.9751989970e-001	 1.6185898640e+000	-1.0371109492e+000
 6.7536096677e-001	 1.5818577952e+000	-1.4684845712e+000
 6.5849630648e-001	 1.5889521836e+000	-1.4200980341e+000
 6.4159296060e-001	 1.5958523733e+000	-1.3718616488e+000
 6.2465414080e-001	 1.6025583983e+000	-1.3230728568e+000
 6.0768304342e-001	 1.6090703604e+000	-1.2737337549e+000
 5.9068284779e-001	 1.6153884283e+000	-1.2239907073e+000
 5.7365671456e-001	 1.6215128364e+000	-1.1741367382e+000
 5.5660778406e-001	 1.6274438846e+000	-1.1246129057e+000
 5.3953917476e-001	 1.6331819366e+000	-1.0760086821e+000
 5.2245398175e-001	 1.6387274197e+000	-1.0290613718e+000
 5.0535527518e-001	 1.6440808229e+000	-9.8465460536e-001
 6.8583222732e-001	 1.6063840055e+000	-1.4140934473e+000
 6.6870608575e-001	 1.6135883902e+000	-1.3650979369e+000
 6.5154065878e-001	 1.6205955652e+000	-1.3186176471e+000
 6.3433920787e-001	 1.6274055650e+000	-1.2718157504e+000
 6.1710497894e-001	 1.6340184931e+000	-1.2244997015e+000
 5.9984120060e-001	 1.6404345206e+000	-1.1766660956e+000
 5.8255108249e-001	 1.6466538858e+000	-1.1284728488e+000
 5.6523781365e-001	 1.6526768930e+000	-1.0802408178e+000
 5.4790456091e-001	 1.6585039117e+000	-1.0324543183e+000
 5.3055446732e-001	 1.6641353757e+000	-9.8576057728e-001
 5.1319065065e-001	 1.6695717818e+000	-9.4096815994e-001
 6.9630348787e-001	 1.6309102159e+000	-1.3681430367e+000
 6.7891586502e-001	 1.6382245968e+000	-1.3185217414e+000
 6.6148835695e-001	 1.6453387571e+000	-1.2731184835e+000
 6.4402427494e-001	 1.6522527317e+000	-1.2287036023e+000
 6.2652691446e-001	 1.6589666257e+000	-1.1838469282e+000
 6.0899955340e-001	 1.6654806129e+000	-1.1383719902e+000
 5.9144545042e-001	 1.6717949351e+000	-1.0922800988e+000
 5.7386784325e-001	 1.6779099014e+000	-1.0457522326e+000
 5.5626994706e-001	 1.6838258868e+000	-9.9914970501e-001
 5.3865495290e-001	 1.6895433318e+000	-9.5301365233e-001
 5.2102602613e-001	 1.6950627408e+000	-9.0806338555e-001
 7.0677474842e-001	 1.6554364262e+000	-1.3331989829e+000
 6.8912564429e-001	 1.6628608034e+000	-1.2833680549e+000
 6.7143605513e-001	 1.6700819490e+000	-1.2381191756e+000
 6.5370934202e-001	 1.6770998984e+000	-1.1962487380e+000
 6.3594884997e-001	 1.6839147584e+000	-1.1542094647e+000
 6.1815790620e-001	 1.6905267052e+000	-1.1114639036e+000
 6.0033981835e-001	 1.6969359845e+000	-1.0678358246e+000
 5.8249787284e-001	 1.7031429098e+000	-1.0233472987e+000
 5.6463533321e-001	 1.7091478619e+000	-9.7821952323e-001
 5.4675543847e-001	 1.7149512879e+000	-9.3287234283e-001
 5.2886140161e-001	 1.7205536997e+000	-8.8792251568e-001
 4.5050764685e-001	 1.4656441104e+000	-1.4243660037e+000
 4.3525537731e-001	 1.4702457512e+000	-1.3989886626e+000
 4.1999646178e-001	 1.4746771918e+000	-1.3685021489e+000
 4.0473356181e-001	 1.4789390267e+000	-1.3343602432e+000
 3.8946931188e-001	 1.4830319018e+000	-1.2980906370e+000
 3.7420631829e-001	 1.4869565135e+000	-1.2612914377e+000
 3.5894715807e-001	 1.4907136076e+000	-1.2256273968e+000
 3.4369437793e-001	 1.4943039780e+000	-1.1928258903e+000
 3.2845049326e-001	 1.4977284659e+000	-1.1646726836e+000
 3.1321798717e-001	 1.5009879582e+000	-1.1430075106e+000
 2.9799930958e-001	 1.5040833867e+000	-1.1297194985e+000
 4.5834302232e-001	 1.4911350694e+000	-1.3607958275e+000
 4.4282548035e-001	 1.4958167434e+000	-1.3297412841e+000
 4.2730117681e-001	 1.5003252571e+000	-1.2936911494e+000
 4.1177281952e-001	 1.5046612151e+000	-1.2541401590e+000
 3.9624308879e-001	 1.5088252749e+000	-1.2126654991e+000
 3.8071463625e-001	 1.5128181447e+000	-1.1709229478e+000
 3.6519008376e-001	 1.5166405834e+000	-1.1306427033e+000
 3.4967202231e-001	 1.5202933987e+000	-1.0936249331e+000
 3.3416301103e-001	 1.5237774463e+000	-1.0617350789e+000
 3.1866557624e-001	 1.5270936288e+000	-1.0368989517e+000
 3.0318221046e-001	 1.5302428940e+000	-1.0210976516e+000
 4.6617839780e-001	 1.5166260283e+000	-1.2943903413e+000
 4.5039558340e-001	 1.5213877356e+000	-1.2589338821e+000
 4.3460589183e-001	 1.5259733223e+000	-1.2186058739e+000
 4.1881207722e-001	 1.5303834036e+000	-1.1749280055e+000
 4.0301686569e-001	 1.5346186479e+000	-1.1295137794e+000
 3.8722295421e-001	 1.5386797759e+000	-1.0840642766e+000
 3.7143300944e-001	 1.5425675592e+000	-1.0403635675e+000
 3.5564966668e-001	 1.5462828194e+000	-1.0002738103e+000
 3.3987552881e-001	 1.5498264268e+000	-9.6573007109e-001
 3.2411316532e-001	 1.5531992994e+000	-9.3873490819e-001
 3.0836511135e-001	 1.5564024013e+000	-9.2135275811e-001
 4.7401377327e-001	 1.5421169872e+000	-1.2269179100e+000
 4.5796568644e-001	 1.5469587277e+000	-1.1881095177e+000
 4.4191060686e-001	 1.5516213875e+000	-1.1445579637e+000
 4.2585133493e-001	 1.5561055920e+000	-1.0977990782e+000
 4.0979064260e-001	 1.5604120209e+000	-1.0494707392e+000
 3.9373127217e-001	 1.5645414070e+000	-1.0013082431e+000
 3.7767593513e-001	 1.5684945349e+000	-9.5513927939e-001
 3.6162731105e-001	 1.5722722400e+000	-9.1287855065e-001
 3.4558804658e-001	 1.5758754073e+000	-8.7652208192e-001
 3.2956075439e-001	 1.5793049700e+000	-8.4814126188e-001
 3.1354801224e-001	 1.5825619087e+000	-8.2987666030e-001
 4.8184914875e-001	 1.5676079461e+000	-1.1602456105e+000
 4.6553578949e-001	 1.5725297199e+000	-1.1189330719e+000
 4.4921532188e-001	 1.5772694527e+000	-1.0730034804e+000
 4.3289059263e-001	 1.5818277804e+000	-1.0239951489e+000
 4.1656441951e-001	 1.5862053940e+000	-9.7355959334e-001
 4.0023959013e-001	 1.5904030382e+000	-9.2345649020e-001
 3.8391886081e-001	 1.5944215107e+000	-8.7554818802e-001
 3.6760495543e-001	 1.5982616607e+000	-8.3179382165e-001
 3.5130056436e-001	 1.6019243877e+000	-7.9424307630e-001
 3.3500834347e-001	 1.6054106406e+000	-7.6502965009e-001
 3.1873091312e-001	 1.6087214160e+000	-7.4636446396e-001
 4.8968452423e-001	 1.5930989051e+000	-1.0963135105e+000
 4.7310589253e-001	 1.5981007120e+000	-1.0531649199e+000
 4.5652003691e-001	 1.6029175179e+000	-1.0055159390e+000
 4.3992985034e-001	 1.6075499689e+000	-9.5489682354e-001
 4.2333819642e-001	 1.6119987670e+000	-9.0296316586e-001
 4.0674790810e-001	 1.6162646694e+000	-8.5149041299e-001
 3.9016178650e-001	 1.6203484865e+000	-8.0236788637e-001
 3.7358259980e-001	 1.6242510813e+000	-7.5759235587e-001
 3.5701308213e-001	 1.6279733682e+000	-7.1926122120e-001
 3.4045593255e-001	 1.6315163112e+000	-6.8956535450e-001
 3.2391381401e-001	 1.6348809233e+000	-6.7078165857e-001
 4.9751989970e-001	 1.6185898640e+000	-1.0371109492e+000
 4.8067599558e-001	 1.6236717042e+000	-9.9263671102e-001
 4.6382475193e-001	 1.6285655831e+000	-9.4376154827e-001
 4.4696910804e-001	 1.6332721573e+000	-8.9199821145e-001
 4.3011197333e-001	 1.6377921401e+000	-8.3899795827e-001
 4.1325622606e-001	 1.6421263005e+000	-7.8654460319e-001
 3.9640471218e-001	 1.6462754622e+000	-7.3654801094e-001
 3.7956024417e-001	 1.6502405020e+000	-6.9103709185e-001
 3.6272559991e-001	 1.6540223487e+000	-6.5215235775e-001
 3.4590352162e-001	 1.6576219818e+000	-6.2213809855e-001
 3.2909671490e-001	 1.6610404306e+000	-6.0333423925e-001
 5.0535527518e-001	 1.6440808229e+000	-9.8465460536e-001
 4.8824609862e-001	 1.6492426964e+000	-9.3922902497e-001
 4.7112946696e-001	 1.6542136483e+000	-8.8947641944e-001
 4.5400836575e-001	 1.6589943457e+000	-8.3688365304e-001
 4.3688575024e-001	 1.6635855131e+000	-7.8309036843e-001
 4.1976454402e-001	 1.6679879317e+000	-7.2988253423e-001
 4.0264763787e-001	 1.6722024380e+000	-6.7918537327e-001
 3.8553788855e-001	 1.6762299227e+000	-6.3305573554e-001
 3.6843811768e-001	 1.6800713291e+000	-5.9367398089e-001
 3.5135111070e-001	 1.6837276525e+000	-5.6333543785e-001
 3.3427961579e-001	 1.6871999379e+000	-5.4444150477e-001
 5.1319065065e-001	 1.6695717818e+000	-9.4096815994e-001
 4.9581620167e-001	 1.6748136885e+000	-8.9485070454e-001
 4.7843418198e-001	 1.6798617136e+000	-8.4444553264e-001
 4.6104762346e-001	 1.6847165342e+000	-7.9120628747e-001
 4.4365952714e-001	 1.6893788862e+000	-7.3675483052e-001
 4.2627286198e-001	 1.6938495629e+000	-6.8287424877e-001
 4.0889056356e-001	 1.6981294138e+000	-6.3150117379e-001
 3.9151553292e-001	 1.7022193433e+000	-5.8471748353e-001
 3.7415063546e-001	 1.7061203096e+000	-5.4474145862e-001
 3.5679869978e-001	 1.7098333231e+000	-5.1391846638e-001
 3.3946251668e-001	 1.7133594452e+000	-4.9471124561e-001
 5.2102602613e-001	 1.6950627408e+000	-9.0806338555e-001
 5.0338630472e-001	 1.7003846807e+000	-8.6141968757e-001
 4.8573889701e-001	 1.7055097788e+000	-8.1048327553e-001
 4.6808688116e-001	 1.7104387226e+000	-7.5666826573e-001
 4.5043330405e-001	 1.7151722592e+000	-7.0157367364e-001
 4.3278117994e-001	 1.7197111941e+000	-6.4697583739e-001
 4.1513348924e-001	 1.7240563896e+000	-5.9482007890e-001
 3.9749317730e-001	 1.7282087640e+000	-5.4721168030e-001
 3.7986315324e-001	 1.7321692901e+000	-5.0640625516e-001
 3.6224628886e-001	 1.7359389937e+000	-4.7479959478e-001
 3.4464541757e-001	 1.7395189526e+000	-4.5491707036e-001
 5.2886140161e-001	 1.7205536997e+000	-8.8792251568e-001
 5.1095640776e-001	 1.7259556728e+000	-8.4084518334e-001
 4.9304361203e-001	 1.7311578440e+000	-7.8941539162e-001
 4.7512613887e-001	 1.7361609110e+000	-7.3500243883e-001
 4.5720708096e-001	 1.7409656323e+000	-6.7917852087e-001
 4.3928949790e-001	 1.7455728252e+000	-6.2371052288e-001
 4.2137641493e-001	 1.7499833653e+000	-5.7055096805e-001
 4.0347082167e-001	 1.7541981846e+000	-5.2182820918e-001
 3.8557567101e-001	 1.7582182705e+000	-4.7983595011e-001
 3.6769387793e-001	 1.7620446643e+000	-4.4702218571e-001
 3.4982831845e-001	 1.7656784599e+000	-4.2597764887e-001
 2.9799930958e-001	 1.5040833867e+000	-1.1297194985e+000
 2.8279915468e-001	 1.5070152995e+000	-1.1165580924e+000
 2.6761761573e-001	 1.5097851916e+000	-1.0954459047e+000
 2.5245703357e-001	 1.5123941228e+000	-1.0685833276e+000
 2.3731971277e-001	 1.5148431927e+000	-1.0381848627e+000
 2.2220792089e-001	 1.5171335398e+000	-1.0064743308e+000
 2.0712388784e-001	 1.5192663399e+000	-9.7568013694e-001
 1.9206980528e-001	 1.5212428050e+000	-9.4803061427e-001
 1.7704782606e-001	 1.5230641822e+000	-9.2574947130e-001
 1.6206006367e-001	 1.5247317519e+000	-9.1105136525e-001
 1.4710859180e-001	 1.5262468275e+000	-9.0613762181e-001
 3.0318221046e-001	 1.5302428940e+000	-1.0210976516e+000
 2.8771768953e-001	 1.5332257996e+000	-1.0057349532e+000
 2.7227210831e-001	 1.5360438666e+000	-9.8239303547e-001
 2.5684784838e-001	 1.5386981731e+000	-9.5338169753e-001
 2.4144725438e-001	 1.5411898381e+000	-9.2103036723e-001
 2.2607263330e-001	 1.5435200196e+000	-8.8768270969e-001
 2.1072625384e-001	 1.5456899141e+000	-8.5569129030e-001
 1.9541034579e-001	 1.5477007545e+000	-8.2741232095e-001
 1.8012709942e-001	 1.5495538096e+000	-8.0520051656e-001
 1.6487866499e-001	 1.5512503823e+000	-7.9140408738e-001
 1.4966715226e-001	 1.5527918086e+000	-7.8835989077e-001
 3.0836511135e-001	 1.5564024013e+000	-9.2135275811e-001
 2.9263622438e-001	 1.5594362997e+000	-9.0466800537e-001
 2.7692660090e-001	 1.5623025416e+000	-8.7994696580e-001
 2.6123866319e-001	 1.5650022235e+000	-8.4959790173e-001
 2.4557479598e-001	 1.5675364834e+000	-8.1605441683e-001
 2.2993734571e-001	 1.5699064994e+000	-7.8176944021e-001
 2.1432861985e-001	 1.5721134882e+000	-7.4920926499e-001
 1.9875088630e-001	 1.5741587040e+000	-7.2084767342e-001
 1.8320637278e-001	 1.5760434371e+000	-6.9916017931e-001
 1.6769726632e-001	 1.5777690127e+000	-6.8661841655e-001
 1.5222571273e-001	 1.5793367896e+000	-6.8568470042e-001
 3.1354801224e-001	 1.5825619087e+000	-8.2987666030e-001
 2.9755475923e-001	 1.5856467998e+000	-8.1251172761e-001
 2.8158109349e-001	 1.5885612165e+000	-7.8701376184e-001
 2.6562947801e-001	 1.5913062738e+000	-7.5588025933e-001
 2.4970233759e-001	 1.5938831288e+000	-7.2163997807e-001
 2.3380205812e-001	 1.5962929793e+000	-6.8684626971e-001
 2.1793098585e-001	 1.5985370624e+000	-6.5407046533e-001
 2.0209142680e-001	 1.6006166535e+000	-6.2589535116e-001
 1.8628564614e-001	 1.6025330646e+000	-6.0490876875e-001
 1.7051586764e-001	 1.6042876431e+000	-5.9369737178e-001
 1.5478427319e-001	 1.6058817707e+000	-5.9484056993e-001
 3.1873091312e-001	 1.6087214160e+000	-7.4636446396e-001
 3.0247329409e-001	 1.6118572999e+000	-7.2874125853e-001
 2.8623558608e-001	 1.6148198915e+000	-7.0283802477e-001
 2.7002029282e-001	 1.6176103241e+000	-6.7123395723e-001
 2.5382987920e-001	 1.6202297741e+000	-6.3654565624e-001
 2.3766677053e-001	 1.6226794591e+000	-6.0141977467e-001
 2.2153335186e-001	 1.6249606366e+000	-5.6852571738e-001
 2.0543196731e-001	 1.6270746030e+000	-5.4054843389e-001
 1.8936491950e-001	 1.6290226921e+000	-5.2018134284e-001
 1.7333446896e-001	 1.6308062735e+000	-5.1011942440e-001
 1.5734283365e-001	 1.6324267518e+000	-5.1305251449e-001
 3.2391381401e-001	 1.6348809233e+000	-6.7078165857e-001
 3.0739182894e-001	 1.6380678000e+000	-6.5311870651e-001
 2.9089007867e-001	 1.6410785664e+000	-6.2696830610e-001
 2.7441110764e-001	 1.6439143745e+000	-5.9498549291e-001
 2.5795742081e-001	 1.6465764195e+000	-5.5986909388e-001
 2.4153148295e-001	 1.6490659389e+000	-5.2435365000e-001
 2.2513571786e-001	 1.6513842108e+000	-4.9120139038e-001
 2.0877250781e-001	 1.6535325525e+000	-4.6319430281e-001
 1.9244419286e-001	 1.6555123196e+000	-4.4312634378e-001
 1.7615307028e-001	 1.6573249039e+000	-4.3379582838e-001
 1.5990139411e-001	 1.6589717329e+000	-4.3799803774e-001
 3.2909671490e-001	 1.6610404306e+000	-6.0333423925e-001
 3.1231036379e-001	 1.6642783001e+000	-5.8566255624e-001
 2.9554457126e-001	 1.6673372414e+000	-5.5922572027e-001
 2.7880192246e-001	 1.6702184248e+000	-5.2675042056e-001
 2.6208496243e-001	 1.6729230649e+000	-4.9101378373e-001
 2.4539619536e-001	 1.6754524187e+000	-4.5483452798e-001
 2.2873808387e-001	 1.6778077849e+000	-4.2106416689e-001
 2.1211304832e-001	 1.6799905020e+000	-3.9257831322e-001
 1.9552346622e-001	 1.6820019470e+000	-3.7226813020e-001
 1.7897167161e-001	 1.6838435343e+000	-3.6303197537e-001
 1.6245995458e-001	 1.6855167140e+000	-3.6776727883e-001
 3.3427961579e-001	 1.6871999379e+000	-5.4444150477e-001
 3.1722889864e-001	 1.6904888002e+000	-5.2661983586e-001
 3.0019906385e-001	 1.6935959164e+000	-4.9967540771e-001
 2.8319273727e-001	 1.6965224752e+000	-4.6640404210e-001
 2.6621250404e-001	 1.6992697102e+000	-4.2965892540e-001
 2.4926090777e-001	 1.7018388985e+000	-3.9234094368e-001
 2.3234044987e-001	 1.7042313591e+000	-3.5738906567e-001
 2.1545358883e-001	 1.7064484515e+000	-3.2777082908e-001
 1.9860273958e-001	 1.7084915745e+000	-3.0647298321e-001
 1.8179027293e-001	 1.7103621647e+000	-2.9649233761e-001
 1.6501851504e-001	 1.7120616951e+000	-3.0082686326e-001
 3.3946251668e-001	 1.7133594452e+000	-4.9471124561e-001
 3.2214743349e-001	 1.7166993003e+000	-4.7644074973e-001
 3.0485355644e-001	 1.7198545913e+000	-4.4860054360e-001
 2.8758355209e-001	 1.7228265255e+000	-4.1405472839e-001
 2.7034004565e-001	 1.7256163556e+000	-3.7573200044e-001
 2.5312562018e-001	 1.7282253784e+000	-3.3661511062e-001
 2.3594281588e-001	 1.7306549333e+000	-2.9973036961e-001
 2.1879412933e-001	 1.7329064010e+000	-2.6813726015e-001
 2.0168201293e-001	 1.7349812020e+000	-2.4491821499e-001
 1.8460887425e-001	 1.7368807951e+000	-2.3316861534e-001
 1.6757707550e-001	 1.7386066761e+000	-2.3598706146e-001
 3.4464541757e-001	 1.7395189526e+000	-4.5491707036e-001
 3.2706596835e-001	 1.7429098004e+000	-4.3575551710e-001
 3.0950804903e-001	 1.7461132663e+000	-4.0647862435e-001
 2.9197436690e-001	 1.7491305758e+000	-3.7001959371e-001
 2.7446758726e-001	 1.7519630010e+000	-3.2938377976e-001
 2.5699033260e-001	 1.7546118582e+000	-2.8763721077e-001
 2.3954518188e-001	 1.7570785075e+000	-2.4789515295e-001
 2.2213466984e-001	 1.7593643505e+000	-2.1331078585e-001
 2.0476128629e-001	 1.7614708295e+000	-1.8706405339e-001
 1.8742747557e-001	 1.7633994255e+000	-1.7235075124e-001
 1.7013563596e-001	 1.7651516572e+000	-1.7237190720e-001
 3.4982831845e-001	 1.7656784599e+000	-4.2597764887e-001
 3.3198450320e-001	 1.7691203005e+000	-4.0535318811e-001
 3.1416254162e-001	 1.7723719412e+000	-3.7395979567e-001
 2.9636518172e-001	 1.7754346262e+000	-3.3480227943e-001
 2.7859512887e-001	 1.7783096463e+000	-2.9096551103e-001
 2.6085504501e-001	 1.7809983380e+000	-2.4560193820e-001
 2.4314754789e-001	 1.7835020816e+000	-2.0191913818e-001
 2.2547521035e-001	 1.7858223000e+000	-1.6316748690e-001
 2.0784055965e-001	 1.7879604570e+000	-1.3262801459e-001
 1.9024607690e-001	 1.7899180559e+000	-1.1360051468e-001
 1.7269419643e-001	 1.7916966383e+000	-1.0939196857e-001
 1.4710859180e-001	 1.5262468275e+000	-9.0613762181e-001
 1.3219321486e-001	 1.5276109464e+000	-9.0190411396e-001
 1.1731819787e-001	 1.5288252450e+000	-8.8940265241e-001
 1.0248552346e-001	 1.5298911271e+000	-8.7102005210e-001
 8.7697131996e-002	 1.5308100238e+000	-8.4909232854e-001
 7.2954921301e-002	 1.5315833927e+000	-8.2590182842e-001
 5.8260746432e-002	 1.5322127159e+000	-8.0367462118e-001
 4.3616419493e-002	 1.5326994993e+000	-7.8457815787e-001
 2.9023709478e-002	 1.5330452715e+000	-7.7071920214e-001
 1.4484342157e-002	 1.5332515818e+000	-7.6414203604e-001
 0.0000000000e+000	 1.5333200000e+000	-7.6682696229e-001
 1.4966715226e-001	 1.5527918086e+000	-7.8835989077e-001
 1.3449236223e-001	 1.5541796526e+000	-7.8650704655e-001
 1.1935863411e-001	 1.5554150707e+000	-7.7647963090e-001
 1.0426798501e-001	 1.5564994910e+000	-7.6086252734e-001
 8.9222389032e-002	 1.5574343695e+000	-7.4219168333e-001
 7.4223777015e-002	 1.5582211890e+000	-7.2295062724e-001
 5.9274036279e-002	 1.5588614576e+000	-7.0556727379e-001
 4.4375010443e-002	 1.5593567074e+000	-6.9241102602e-001
 2.9528499270e-002	 1.5597084933e+000	-6.8579017965e-001
 1.4736258546e-002	 1.5599183919e+000	-6.8794963395e-001
 0.0000000000e+000	 1.5599880000e+000	-7.0106893205e-001
 1.5222571273e-001	 1.5793367896e+000	-6.8568470042e-001
 1.3679150961e-001	 1.5807483589e+000	-6.8639103469e-001
 1.2139907035e-001	 1.5820048965e+000	-6.7900806539e-001
 1.0605044656e-001	 1.5831078549e+000	-6.6631503833e-001
 9.0747646068e-002	 1.5840587152e+000	-6.5104313017e-001
 7.5492632729e-002	 1.5848589854e+000	-6.3587134866e-001
 6.0287326125e-002	 1.5855101994e+000	-6.2342275156e-001
 4.5133601394e-002	 1.5860139154e+000	-6.1626099392e-001
 3.0033289064e-002	 1.5863717151e+000	-6.1688721102e-001
 1.4988174934e-002	 1.5865852019e+000	-6.2773724212e-001
 0.0000000000e+000	 1.5866560000e+000	-6.5117921952e-001
 1.5478427319e-001	 1.6058817707e+000	-5.9484056993e-001
 1.3909065698e-001	 1.6073170652e+000	-5.9799456300e-001
 1.2343950660e-001	 1.6085947222e+000	-5.9310244282e-001
 1.0783290811e-001	 1.6097162188e+000	-5.8313553163e-001
 9.2272903104e-002	 1.6106830609e+000	-5.7101695305e-001
 7.6761488443e-002	 1.6114967818e+000	-5.5961690798e-001
 6.1300615973e-002	 1.6121589411e+000	-5.5174830239e-001
 4.5892192346e-002	 1.6126711235e+000	-5.5016273824e-001
 3.0538078857e-002	 1.6130349369e+000	-5.5754687636e-001
 1.5240091324e-002	 1.6132520120e+000	-5.7651917744e-001
 0.0000000000e+000	 1.6133240000e+000	-6.0962704716e-001
 1.5734283365e-001	 1.6324267518e+000	-5.1305251449e-001
 1.4138980436e-001	 1.6338857715e+000	-5.1827528400e-001
 1.2547994284e-001	 1.6351845480e+000	-5.1542201013e-001
 1.0961536965e-001	 1.6363245828e+000	-5.0765522586e-001
 9.3798160140e-002	 1.6373074066e+000	-4.9808813716e-001
 7.8030344158e-002	 1.6381345781e+000	-4.8977926263e-001
 6.2313905820e-002	 1.6388076829e+000	-4.8572746120e-001
 4.6650783297e-002	 1.6393283315e+000	-4.8886736100e-001
 3.1042868651e-002	 1.6396981588e+000	-5.0206519966e-001
 1.5492007713e-002	 1.6399188220e+000	-5.2811508338e-001
 0.0000000000e+000	 1.6399920000e+000	-5.6973569203e-001
 1.5990139411e-001	 1.6589717329e+000	-4.3799803774e-001
 1.4368895174e-001	 1.6604544778e+000	-4.4466454214e-001
 1.2752037909e-001	 1.6617743738e+000	-4.4312360136e-001
 1.1139783120e-001	 1.6629329467e+000	-4.3672951829e-001
 9.5323417177e-002	 1.6639317522e+000	-4.2878513695e-001
 7.9299199872e-002	 1.6647723745e+000	-4.2253582916e-001
 6.3327195668e-002	 1.6654564246e+000	-4.2116390888e-001
 4.7409374249e-002	 1.6659855396e+000	-4.2778348922e-001
 3.1547658445e-002	 1.6663613806e+000	-4.4543579366e-001
 1.5743924102e-002	 1.6665856321e+000	-4.7708493031e-001
 0.0000000000e+000	 1.6666600000e+000	-5.2561415762e-001
 1.6245995458e-001	 1.6855167140e+000	-3.6776727883e-001
 1.4598809912e-001	 1.6870231841e+000	-3.7502619376e-001
 1.2956081534e-001	 1.6883641995e+000	-3.7381892252e-001
 1.1318029275e-001	 1.6895413106e+000	-3.6769353179e-001
 9.6848674214e-002	 1.6905560979e+000	-3.6014348710e-001
 8.0568055587e-002	 1.6914101708e+000	-3.5460096530e-001
 6.4340485515e-002	 1.6921051664e+000	-3.5443063779e-001
 4.8167965200e-002	 1.6926427476e+000	-3.6292394138e-001
 3.2052448238e-002	 1.6930246025e+000	-3.8329385012e-001
 1.5995840491e-002	 1.6932524421e+000	-4.1867015803e-001
 0.0000000000e+000	 1.6933280000e+000	-4.7209530243e-001
 1.6501851504e-001	 1.7120616951e+000	-3.0082686326e-001
 1.4828724649e-001	 1.7135918903e+000	-3.0761925672e-001
 1.3160125158e-001	 1.7149540253e+000	-3.0553581076e-001
 1.1496275430e-001	 1.7161496746e+000	-2.9832179855e-001
 9.8373931250e-002	 1.7171804436e+000	-2.8966373070e-001
 8.1836911302e-002	 1.7180479672e+000	-2.8318196732e-001
 6.5353775363e-002	 1.7187539081e+000	-2.8242384765e-001
 4.8926556152e-002	 1.7192999557e+000	-2.9085735632e-001
 3.2557238032e-002	 1.7196878243e+000	-3.1186534115e-001
 1.6247756880e-002	 1.7199192522e+000	-3.4874029378e-001
 0.0000000000e+000	 1.7199960000e+000	-4.0467972420e-001
 1.6757707550e-001	 1.7386066761e+000	-2.3598706146e-001
 1.5058639387e-001	 1.7401605966e+000	-2.4106398037e-001
 1.3364168783e-001	 1.7415438510e+000	-2.3668304274e-001
 1.1674521585e-001	 1.7427580385e+000	-2.2679163840e-001
 9.9899188287e-002	 1.7438047893e+000	-2.1527320335e-001
 8.3105767016e-002	 1.7446857636e+000	-2.0593910007e-001
 6.6367065210e-002	 1.7454026499e+000	-2.0252106646e-001
 4.9685147103e-002	 1.7459571637e+000	-2.0866425436e-001
 3.3062027826e-002	 1.7463510461e+000	-2.2792087453e-001
 1.6499673269e-002	 1.7465860622e+000	-2.6374446069e-001
 0.0000000000e+000	 1.7466640000e+000	-3.1948478487e-001
 1.7013563596e-001	 1.7651516572e+000	-1.7237190720e-001
 1.5288554125e-001	 1.7667293029e+000	-1.7431097585e-001
 1.3568212407e-001	 1.7681336768e+000	-1.6601831881e-001
 1.1852767740e-001	 1.7693664024e+000	-1.5164984289e-001
 1.0142444532e-001	 1.7704291350e+000	-1.3529126715e-001
 8.4374622731e-002	 1.7713235599e+000	-1.2094923528e-001
 6.7380355057e-002	 1.7720513917e+000	-1.1254305156e-001
 5.0443738054e-002	 1.7726143718e+000	-1.1389706403e-001
 3.3566817619e-002	 1.7730142680e+000	-1.2873371334e-001
 1.6751589658e-002	 1.7732528723e+000	-1.6066726168e-001
 0.0000000000e+000	 1.7733320000e+000	-2.1319823491e-001
 1.7269419643e-001	 1.7916966383e+000	-1.0939196857e-001
 1.5518468862e-001	 1.7932980092e+000	-1.0661308926e-001
 1.3772256032e-001	 1.7947235026e+000	-9.2619093617e-002
 1.2031013895e-001	 1.7959747663e+000	-7.1782322191e-002
 1.0294970236e-001	 1.7970534806e+000	-4.8397636943e-002
 8.5643478444e-002	 1.7979613563e+000	-2.6672723853e-002
 6.8393644903e-002	 1.7987001334e+000	-1.0719078858e-002
 5.1202329005e-002	 1.7992715798e+000	-4.5437030199e-003
 3.4071607412e-002	 1.7996774898e+000	-1.2041527677e-002
 1.7003506047e-002	 1.7999196823e+000	-3.6988585250e-002
 0.0000000000e+000	 1.8000000000e+000	-8.3035960257e-002
 1.8000000000e+000	 0.0000000000e+000	 3.0121013901e+000
 1.7999196823e+000	 1.7003506047e-002	 3.0176213582e+000
 1.7996774898e+000	 3.4071607412e-002	 3.0245696047e+000
 1.7992715798e+000	 5.1202329005e-002	 3.0321712596e+000
 1.7987001334e+000	 6.8393644903e-002	 3.0395079298e+000
 1.7979613563e+000	 8.5643478444e-002	 3.0455205734e+000
 1.7970534806e+000	 1.0294970236e-001	 3.0490133796e+000
 1.7959747663e+000	 1.2031013895e-001	 3.0486586492e+000
 1.7947235026e+000	 1.3772256032e-001	 3.0430026664e+000
 1.7932980092e+000	 1.5518468862e-001	 3.0304725471e+000
 1.7916966383e+000	 1.7269419643e-001	 3.0093840379e+000
 1.8266680000e+000	 0.0000000000e+000	 2.8377575683e+000
 1.8265864924e+000	 1.7255422436e-002	 2.8525428261e+000
 1.8263407116e+000	 3.4576397204e-002	 2.8686106903e+000
 1.8259287879e+000	 5.1960919955e-002	 2.8851941078e+000
 1.8253488752e+000	 6.9406934749e-002	 2.9013662322e+000
 1.8245991527e+000	 8.6912334157e-002	 2.9160437865e+000
 1.8236778263e+000	 1.0447495939e-001	 2.9279915351e+000
 1.8225831303e+000	 1.2209260050e-001	 2.9358278589e+000
 1.8213133283e+000	 1.3976299656e-001	 2.9380314246e+000
 1.8198667155e+000	 1.5748383600e-001	 2.9329489281e+000
 1.8182416194e+000	 1.7525275689e-001	 2.9188038868e+000
 1.8533360000e+000	 0.0000000000e+000	 2.7195381521e+000
 1.8532533024e+000	 1.7507338824e-002	 2.7396452675e+000
 1.8530039335e+000	 3.5081186996e-002	 2.7607988912e+000
 1.8525859960e+000	 5.2719510904e-002	 2.7822774221e+000
 1.8519976169e+000	 7.0420224594e-002	 2.8031831076e+000
 1.8512369490e+000	 8.8181189870e-002	 2.8224459160e+000
 1.8503021720e+000	 1.0600021643e-001	 2.8388286273e+000
 1.8491914942e+000	 1.2387506204e-001	 2.8509331359e+000
 1.8479031541e+000	 1.4180343280e-001	 2.8572079531e+000
 1.8464354218e+000	 1.5978298338e-001	 2.8559568878e+000
 1.8447866005e+000	 1.7781131735e-001	 2.8453488760e+000
 1.8800040000e+000	 0.0000000000e+000	 2.6579077175e+000
 1.8799201125e+000	 1.7759255212e-002	 2.6790208454e+000
 1.8796671553e+000	 3.5585976788e-002	 2.7009214212e+000
 1.8792432040e+000	 5.3478101853e-002	 2.7229674173e+000
 1.8786463587e+000	 7.1433514439e-002	 2.7443240596e+000
 1.8778747454e+000	 8.9450045582e-002	 2.7639682378e+000
 1.8769265177e+000	 1.0752547346e-001	 2.7806942479e+000
 1.8757998581e+000	 1.2565752359e-001	 2.7931208621e+000
 1.8744929799e+000	 1.4384386905e-001	 2.7996997082e+000
 1.8730041281e+000	 1.6208213075e-001	 2.7987249375e+000
 1.8713315816e+000	 1.8036987781e-001	 2.7883441459e+000
 1.9066720000e+000	 0.0000000000e+000	 2.6533997397e+000
 1.9065869225e+000	 1.8011171600e-002	 2.6708350679e+000
 1.9063303771e+000	 3.6090766580e-002	 2.6888423610e+000
 1.9059004121e+000	 5.4236692802e-002	 2.7068898173e+000
 1.9052951004e+000	 7.2446804284e-002	 2.7242359074e+000
 1.9045125418e+000	 9.0718901294e-002	 2.7399343565e+000
 1.9035508634e+000	 1.0905073050e-001	 2.7528405803e+000
 1.9024082221e+000	 1.2743998514e-001	 2.7616195665e+000
 1.9010828056e+000	 1.4588430529e-001	 2.7647551853e+000
 1.8995728343e+000	 1.6438127813e-001	 2.7605609011e+000
 1.8978765627e+000	 1.8292843827e-001	 2.7471918483e+000
 1.9333400000e+000	 0.0000000000e+000	 2.7066118408e+000
 1.9332537326e+000	 1.8263087988e-002	 2.7153215304e+000
 1.9329935990e+000	 3.6595556372e-002	 2.7244970264e+000
 1.9325576201e+000	 5.4995283751e-002	 2.7337439685e+000
 1.9319438422e+000	 7.3460094129e-002	 2.7424407528e+000
 1.9311503381e+000	 9.1987757006e-002	 2.7497441259e+000
 1.9301752090e+000	 1.1057598753e-001	 2.7545963609e+000
 1.9290165860e+000	 1.2922244669e-001	 2.7557340056e+000
 1.9276726314e+000	 1.4792474153e-001	 2.7516981835e+000
 1.9261415406e+000	 1.6668042550e-001	 2.7408464162e+000
 1.9244215437e+000	 1.8548699874e-001	 2.7213659268e+000
 1.9600080000e+000	 0.0000000000e+000	 2.8182014258e+000
 1.9599205426e+000	 1.8515004376e-002	 2.8127770881e+000
 1.9596568208e+000	 3.7100346163e-002	 2.8078867958e+000
 1.9592148282e+000	 5.5753874700e-002	 2.8032974339e+000
 1.9585925840e+000	 7.4473383974e-002	 2.7985304422e+000
 1.9577881345e+000	 9.3256612718e-002	 2.7928680679e+000
 1.9567995547e+000	 1.1210124456e-001	 2.7853613365e+000
 1.9556249499e+000	 1.3100490823e-001	 2.7748397278e+000
 1.9542624571e+000	 1.4996517778e-001	 2.7599225367e+000
 1.9527102469e+000	 1.6897957288e-001	 2.7390318818e+000
 1.9509665248e+000	 1.8804555920e-001	 2.7104073182e+000
 1.9866760000e+000	 0.0000000000e+000	 2.9888816705e+000
 1.9865873527e+000	 1.8766920764e-002	 2.9635574171e+000
 1.9863200426e+000	 3.7605135955e-002	 2.9390743558e+000
 1.9858720362e+000	 5.6512465649e-002	 2.9153810242e+000
 1.9852413257e+000	 7.5486673818e-002	 2.8921614754e+000
 1.9844259308e+000	 9.4525468430e-002	 2.8688422432e+000
 1.9834239004e+000	 1.1362650160e-001	 2.8446011691e+000
 1.9822333139e+000	 1.3278736978e-001	 2.8183780769e+000
 1.9808522829e+000	 1.5200561402e-001	 2.7888872694e+000
 1.9792789532e+000	 1.7127872026e-001	 2.7546318096e+000
 1.9775115059e+000	 1.9060411966e-001	 2.7139195337e+000
 2.0133440000e+000	 0.0000000000e+000	 3.1923404231e+000
 2.0132541627e+000	 1.9018837152e-002	 3.1440707214e+000
 2.0129832645e+000	 3.8109925747e-002	 3.0976061688e+000
 2.0125292443e+000	 5.7271056599e-002	 3.0528818725e+000
 2.0118900675e+000	 7.6499963663e-002	 3.0095644983e+000
 2.0110637272e+000	 9.5794324142e-002	 2.9670692083e+000
 2.0100482461e+000	 1.1515175863e-001	 2.9245766828e+000
 2.0088416778e+000	 1.3456983133e-001	 2.8810502247e+000
 2.0074421087e+000	 1.5404605026e-001	 2.8352529602e+000
 2.0058476595e+000	 1.7357786763e-001	 2.7857651529e+000
 2.0040564870e+000	 1.9316268012e-001	 2.7310016600e+000
 2.0400120000e+000	 0.0000000000e+000	 3.2674428059e+000
 2.0399209728e+000	 1.9270753540e-002	 3.2096152641e+000
 2.0396464863e+000	 3.8614715539e-002	 3.1543642571e+000
 2.0391864523e+000	 5.8029647548e-002	 3.1014716113e+000
 2.0385388092e+000	 7.7513253509e-002	 3.0504753837e+000
 2.0377015236e+000	 9.7063179855e-002	 3.0006871553e+000
 2.0366725918e+000	 1.1667701567e-001	 2.9512092695e+000
 2.0354500417e+000	 1.3635229287e-001	 2.9009520165e+000
 2.0340319344e+000	 1.5608648651e-001	 2.8486507778e+000
 2.0324163658e+000	 1.7587701501e-001	 2.7928831519e+000
 2.0306014681e+000	 1.9572124058e-001	 2.7320860938e+000
 2.0666800000e+000	 0.0000000000e+000	 3.1887472637e+000
 2.0665877828e+000	 1.9522669929e-002	 3.1375947262e+000
 2.0663097081e+000	 3.9119505332e-002	 3.0888831097e+000
 2.0658436604e+000	 5.8788238498e-002	 3.0422588690e+000
 2.0651875510e+000	 7.8526543355e-002	 2.9971532095e+000
 2.0643393199e+000	 9.8332035568e-002	 2.9527996495e+000
 2.0632969374e+000	 1.1820227270e-001	 2.9082513717e+000
 2.0620584056e+000	 1.3813475442e-001	 2.8623983682e+000
 2.0606217602e+000	 1.5812692275e-001	 2.8139843921e+000
 2.0589850721e+000	 1.7817616239e-001	 2.7616237437e+000
 2.0571464492e+000	 1.9827980105e-001	 2.7038179271e+000
 1.7916966383e+000	 1.7269419643e-001	 3.0093840379e+000
 1.7899180559e+000	 1.9024607690e-001	 2.9826527315e+000
 1.7879604570e+000	 2.0784055965e-001	 2.9540968448e+000
 1.7858223000e+000	 2.2547521035e-001	 2.9232742321e+000
 1.7835020816e+000	 2.4314754789e-001	 2.8896900206e+000
 1.7809983380e+000	 2.6085504501e-001	 2.8528064289e+000
 1.7783096463e+000	 2.7859512887e-001	 2.8120531479e+000
 1.7754346262e+000	 2.9636518172e-001	 2.7668382146e+000
 1.7723719412e+000	 3.1416254162e-001	 2.7165592981e+000
 1.7691203005e+000	 3.3198450320e-001	 2.6606153118e+000
 1.7656784599e+000	 3.4982831845e-001	 2.5984182625e+000
 1.8182416194e+000	 1.7525275689e-001	 2.9188038868e+000
 1.8164366863e+000	 1.9306467822e-001	 2.8985249010e+000
 1.8144500845e+000	 2.1091983301e-001	 2.8760266789e+000
 1.8122802495e+000	 2.2881575086e-001	 2.8508843864e+000
 1.8099256558e+000	 2.4674991390e-001	 2.8226153919e+000
 1.8073848178e+000	 2.6471975742e-001	 2.7906902507e+000
 1.8046562917e+000	 2.8272267048e-001	 2.7545443063e+000
 1.8017386765e+000	 3.0075599654e-001	 2.7135898271e+000
 1.7986306162e+000	 3.1881703421e-001	 2.6672285926e+000
 1.7953308006e+000	 3.3690303805e-001	 2.6148648337e+000
 1.7918379672e+000	 3.5501121934e-001	 2.5559184269e+000
 1.8447866005e+000	 1.7781131735e-001	 2.8453488760e+000
 1.8429553167e+000	 1.9588327954e-001	 2.8283590268e+000
 1.8409397119e+000	 2.1399910637e-001	 2.8089986752e+000
 1.8387381990e+000	 2.3215629136e-001	 2.7868491438e+000
 1.8363492300e+000	 2.5035227990e-001	 2.7614285135e+000
 1.8337712977e+000	 2.6858446984e-001	 2.7322038937e+000
 1.8310029370e+000	 2.8685021209e-001	 2.6986043657e+000
 1.8280427269e+000	 3.0514681135e-001	 2.6600345098e+000
 1.8248892912e+000	 3.2347152681e-001	 2.6158884209e+000
 1.8215413007e+000	 3.4182157291e-001	 2.5655641077e+000
 1.8179974745e+000	 3.6019412023e-001	 2.5084781642e+000
 1.8713315816e+000	 1.8036987781e-001	 2.7883441459e+000
 1.8694739471e+000	 1.9870188086e-001	 2.7716053949e+000
 1.8674293394e+000	 2.1707837973e-001	 2.7526110445e+000
 1.8651961485e+000	 2.3549683187e-001	 2.7309348356e+000
 1.8627728042e+000	 2.5395464591e-001	 2.7060814113e+000
 1.8601577775e+000	 2.7244918225e-001	 2.6775000011e+000
 1.8573495824e+000	 2.9097775370e-001	 2.6445988399e+000
 1.8543467772e+000	 3.0953762617e-001	 2.6067602222e+000
 1.8511479661e+000	 3.2812601940e-001	 2.5633560867e+000
 1.8477518008e+000	 3.4674010776e-001	 2.5137640157e+000
 1.8441569818e+000	 3.6537702112e-001	 2.4573835273e+000
 1.8978765627e+000	 1.8292843827e-001	 2.7471918483e+000
 1.8959925775e+000	 2.0152048219e-001	 2.7277886150e+000
 1.8939189669e+000	 2.2015765309e-001	 2.7065333599e+000
 1.8916540980e+000	 2.3883737238e-001	 2.6829758535e+000
 1.8891963783e+000	 2.5755701191e-001	 2.6565904618e+000
 1.8865442573e+000	 2.7631389466e-001	 2.6267913846e+000
 1.8836962278e+000	 2.9510529531e-001	 2.5929486924e+000
 1.8806508276e+000	 3.1392844099e-001	 2.5544050552e+000
 1.8774066411e+000	 3.3278051199e-001	 2.5104930470e+000
 1.8739623009e+000	 3.5165864261e-001	 2.4605528974e+000
 1.8703164891e+000	 3.7055992201e-001	 2.4039505587e+000
 1.9244215437e+000	 1.8548699874e-001	 2.7213659268e+000
 1.9225112079e+000	 2.0433908351e-001	 2.6965027014e+000
 1.9204085944e+000	 2.2323692645e-001	 2.6705019424e+000
 1.9181120475e+000	 2.4217791288e-001	 2.6428703390e+000
 1.9156199525e+000	 2.6115937792e-001	 2.6130323828e+000
 1.9129307371e+000	 2.8017860707e-001	 2.5803473074e+000
 1.9100428731e+000	 2.9923283692e-001	 2.5441268989e+000
 1.9069548779e+000	 3.1831925580e-001	 2.5036540573e+000
 1.9036653161e+000	 3.3743500458e-001	 2.4582019815e+000
 1.9001728010e+000	 3.5657717746e-001	 2.4070538384e+000
 1.8964759965e+000	 3.7574282290e-001	 2.3495227695e+000
 1.9509665248e+000	 1.8804555920e-001	 2.7104073182e+000
 1.9490298383e+000	 2.0715768483e-001	 2.6774065455e+000
 1.9468982219e+000	 2.2631619981e-001	 2.6443156064e+000
 1.9445699970e+000	 2.4551845339e-001	 2.6105762019e+000
 1.9420435267e+000	 2.6476174392e-001	 2.5755405175e+000
 1.9393172170e+000	 2.8404331949e-001	 2.5384900255e+000
 1.9363895185e+000	 3.0336037854e-001	 2.4986552333e+000
 1.9332589282e+000	 3.2271007062e-001	 2.4552362471e+000
 1.9299239910e+000	 3.4208949717e-001	 2.4074240111e+000
 1.9263833011e+000	 3.6149571232e-001	 2.3544220693e+000
 1.9226355038e+000	 3.8092572379e-001	 2.2954686900e+000
 1.9775115059e+000	 1.9060411966e-001	 2.7139195337e+000
 1.9755484687e+000	 2.0997628615e-001	 2.6702197416e+000
 1.9733878494e+000	 2.2939547317e-001	 2.6278317318e+000
 1.9710279465e+000	 2.4885899389e-001	 2.5861074341e+000
 1.9684671009e+000	 2.6836410993e-001	 2.5443013854e+000
 1.9657036968e+000	 2.8790803190e-001	 2.5015915644e+000
 1.9627361639e+000	 3.0748792015e-001	 2.4571012551e+000
 1.9595629786e+000	 3.2710088544e-001	 2.4099217945e+000
 1.9561826660e+000	 3.4674398976e-001	 2.3591360506e+000
 1.9525938012e+000	 3.6641424717e-001	 2.3038424653e+000
 1.9487950111e+000	 3.8610862468e-001	 2.2431794863e+000
 2.0040564870e+000	 1.9316268012e-001	 2.7310016600e+000
 2.0020670991e+000	 2.1279488748e-001	 2.6746052969e+000
 1.9998774768e+000	 2.3247474653e-001	 2.6209626319e+000
 1.9974858960e+000	 2.5219953440e-001	 2.5695306948e+000
 1.9948906751e+000	 2.7196647593e-001	 2.5195514753e+000
 1.9920901766e+000	 2.9177274431e-001	 2.4700707088e+000
 1.9890828092e+000	 3.1161546176e-001	 2.4200754817e+000
 1.9858670289e+000	 3.3149170025e-001	 2.3685193561e+000
 1.9824413410e+000	 3.5139848235e-001	 2.3143482851e+000
 1.9788043013e+000	 3.7133278202e-001	 2.2565271372e+000
 1.9749545184e+000	 3.9129152557e-001	 2.1940666380e+000
 2.0306014681e+000	 1.9572124058e-001	 2.7320860938e+000
 2.0285857295e+000	 2.1561348880e-001	 2.6699647527e+000
 2.0263671043e+000	 2.3555401989e-001	 2.6108544721e+000
 2.0239438455e+000	 2.5554007491e-001	 2.5540176767e+000
 2.0213142492e+000	 2.7556884194e-001	 2.4986580809e+000
 2.0184766564e+000	 2.9563745673e-001	 2.4439364594e+000
 2.0154294546e+000	 3.1574300337e-001	 2.3889867117e+000
 2.0121710793e+000	 3.3588251507e-001	 2.3329323139e+000
 2.0087000159e+000	 3.5605297494e-001	 2.2749032563e+000
 2.0050148014e+000	 3.7625131688e-001	 2.2140535703e+000
 2.0011140257e+000	 3.9647442646e-001	 2.1495795552e+000
 2.0571464492e+000	 1.9827980105e-001	 2.7038179271e+000
 2.0551043599e+000	 2.1843209012e-001	 2.6443569995e+000
 2.0528567318e+000	 2.3863329325e-001	 2.5875297673e+000
 2.0504017950e+000	 2.5888061541e-001	 2.5325014766e+000
 2.0477378234e+000	 2.7917120795e-001	 2.4783996353e+000
 2.0448631363e+000	 2.9950216914e-001	 2.4243289631e+000
 2.0417760999e+000	 3.1987054498e-001	 2.3693865625e+000
 2.0384751296e+000	 3.4027332989e-001	 2.3126774160e+000
 2.0349586909e+000	 3.6070746753e-001	 2.2533303228e+000
 2.0312253015e+000	 3.8116985173e-001	 2.1905143956e+000
 2.0272735331e+000	 4.0165732735e-001	 2.1234562407e+000
 1.7656784599e+000	 3.4982831845e-001	 2.5984182625e+000
 1.7620446643e+000	 3.6769387793e-001	 2.5326497089e+000
 1.7582182705e+000	 3.8557567101e-001	 2.4660457025e+000
 1.7541981846e+000	 4.0347082167e-001	 2.3981278652e+000
 1.7499833653e+000	 4.2137641493e-001	 2.3284810093e+000
 1.7455728252e+000	 4.3928949790e-001	 2.2567646099e+000
 1.7409656323e+000	 4.5720708096e-001	 2.1827238691e+000
 1.7361609110e+000	 4.7512613887e-001	 2.1062002542e+000
 1.7311578440e+000	 4.9304361203e-001	 2.0271413954e+000
 1.7259556728e+000	 5.1095640776e-001	 1.9456102281e+000
 1.7205536997e+000	 5.2886140161e-001	 1.8617932638e+000
 1.7918379672e+000	 3.5501121934e-001	 2.5559184269e+000
 1.7881503349e+000	 3.7314146701e-001	 2.4931685668e+000
 1.7842672510e+000	 3.9128818879e-001	 2.4294176914e+000
 1.7801876053e+000	 4.0944846605e-001	 2.3641578245e+000
 1.7759103411e+000	 4.2761934061e-001	 2.2969523554e+000
 1.7714344564e+000	 4.4579781587e-001	 2.2274488837e+000
 1.7667590053e+000	 4.6398085787e-001	 2.1553916074e+000
 1.7618830995e+000	 4.8216539658e-001	 2.0806331280e+000
 1.7568059092e+000	 5.0034832706e-001	 2.0031455444e+000
 1.7515266650e+000	 5.1852651081e-001	 1.9230307067e+000
 1.7460446586e+000	 5.3669677708e-001	 1.8405295067e+000
 1.8179974745e+000	 3.6019412023e-001	 2.5084781642e+000
 1.8142560056e+000	 3.7858905609e-001	 2.4475082961e+000
 1.8103162315e+000	 3.9700070657e-001	 2.3855311736e+000
 1.8061770260e+000	 4.1542611042e-001	 2.3220087266e+000
 1.8018373169e+000	 4.3386226630e-001	 2.2564830782e+000
 1.7972960876e+000	 4.5230613383e-001	 2.1885908670e+000
 1.7925523784e+000	 4.7075463478e-001	 2.1180770632e+000
 1.7876052879e+000	 4.8920465428e-001	 2.0448081370e+000
 1.7824539744e+000	 5.0765304208e-001	 1.9687844386e+000
 1.7770976571e+000	 5.2609661385e-001	 1.8901516498e+000
 1.7715356175e+000	 5.4453215256e-001	 1.8092111689e+000
 1.8441569818e+000	 3.6537702112e-001	 2.4573835273e+000
 1.8403616762e+000	 3.8403664517e-001	 2.3971832274e+000
 1.8363652119e+000	 4.0271322434e-001	 2.3361130754e+000
 1.8321664466e+000	 4.2140375480e-001	 2.2736014922e+000
 1.8277642926e+000	 4.4010519199e-001	 2.2091666443e+000
 1.8231577187e+000	 4.5881445179e-001	 2.1424323613e+000
 1.8183457514e+000	 4.7752841169e-001	 2.0731434922e+000
 1.8133274763e+000	 4.9624391199e-001	 2.0011805451e+000
 1.8081020396e+000	 5.1495775711e-001	 1.9265734550e+000
 1.8026686493e+000	 5.3366671690e-001	 1.8495143269e+000
 1.7970265765e+000	 5.5236752804e-001	 1.7703690007e+000
 1.8703164891e+000	 3.7055992201e-001	 2.4039505587e+000
 1.8664673468e+000	 3.8948423424e-001	 2.3437297188e+000
 1.8624141924e+000	 4.0842574212e-001	 2.2829041926e+000
 1.8581558673e+000	 4.2738139917e-001	 2.2208625377e+000
 1.8536912684e+000	 4.4634811767e-001	 2.1570934099e+000
 1.8490193499e+000	 4.6532276975e-001	 2.0912032057e+000
 1.8441391245e+000	 4.8430218860e-001	 2.0229330827e+000
 1.8390496648e+000	 5.0328316970e-001	 1.9521751892e+000
 1.8337501048e+000	 5.2226247213e-001	 1.8789879318e+000
 1.8282396415e+000	 5.4123681994e-001	 1.8036101139e+000
 1.8225175354e+000	 5.6020290351e-001	 1.7264737755e+000
 1.8964759965e+000	 3.7574282290e-001	 2.3495227695e+000
 1.8925730174e+000	 3.9493182332e-001	 2.2887037691e+000
 1.8884631729e+000	 4.1413825989e-001	 2.2276568565e+000
 1.8841452879e+000	 4.3335904355e-001	 2.1657214046e+000
 1.8796182442e+000	 4.5259104336e-001	 2.1023481192e+000
 1.8748809811e+000	 4.7183108771e-001	 2.0371185462e+000
 1.8699324975e+000	 4.9107596551e-001	 1.9697638924e+000
 1.8647718532e+000	 5.1032242740e-001	 1.9001829740e+000
 1.8593981700e+000	 5.2956718716e-001	 1.8284591075e+000
 1.8538106336e+000	 5.4880692299e-001	 1.7548757573e+000
 1.8480084943e+000	 5.6803827899e-001	 1.6799307568e+000
 1.9226355038e+000	 3.8092572379e-001	 2.2954686900e+000
 1.9186786880e+000	 4.0037941240e-001	 2.2336786672e+000
 1.9145121533e+000	 4.1985077767e-001	 2.1721326018e+000
 1.9101347086e+000	 4.3933668792e-001	 2.1101083630e+000
 1.9055452200e+000	 4.5883396905e-001	 2.0470073542e+000
 1.9007426122e+000	 4.7833940568e-001	 1.9823760377e+000
 1.8957258705e+000	 4.9784974242e-001	 1.9159267031e+000
 1.8904940416e+000	 5.1736168511e-001	 1.8475572763e+000
 1.8850462353e+000	 5.3687190219e-001	 1.7773699669e+000
 1.8793816258e+000	 5.5637702603e-001	 1.7056885508e+000
 1.8734994532e+000	 5.7587365447e-001	 1.6330740882e+000
 1.9487950111e+000	 3.8610862468e-001	 2.2431794863e+000
 1.9447843586e+000	 4.0582700148e-001	 2.1802426750e+000
 1.9405611338e+000	 4.2556329545e-001	 2.1180998398e+000
 1.9361241293e+000	 4.4531433230e-001	 2.0559519937e+000
 1.9314721957e+000	 4.6507689473e-001	 1.9931369410e+000
 1.9266042434e+000	 4.8484772364e-001	 1.9291529848e+000
 1.9215192436e+000	 5.0462351933e-001	 1.8636818025e+000
 1.9162162300e+000	 5.2440094282e-001	 1.7966102686e+000
 1.9106943005e+000	 5.4417661721e-001	 1.7280510043e+000
 1.9049526179e+000	 5.6394712908e-001	 1.6583614311e+000
 1.8989904121e+000	 5.8370902994e-001	 1.5881611114e+000
 1.9749545184e+000	 3.9129152557e-001	 2.1940666380e+000
 1.9708900293e+000	 4.1127459056e-001	 2.1299967388e+000
 1.9666101143e+000	 4.3127581323e-001	 2.0673315330e+000
 1.9621135499e+000	 4.5129197667e-001	 2.0051767495e+000
 1.9573991715e+000	 4.7131982042e-001	 1.9427893161e+000
 1.9524658746e+000	 4.9135604160e-001	 1.8796034271e+000
 1.9473126166e+000	 5.1139729624e-001	 1.8152556982e+000
 1.9419384185e+000	 5.3144020053e-001	 1.7496091690e+000
 1.9363423657e+000	 5.5148133224e-001	 1.6827759112e+000
 1.9305236101e+000	 5.7151723213e-001	 1.6151380013e+000
 1.9244813711e+000	 5.9154440542e-001	 1.5473666211e+000
 2.0011140257e+000	 3.9647442646e-001	 2.1495795552e+000
 1.9969956999e+000	 4.1672217963e-001	 2.0845522295e+000
 1.9926590947e+000	 4.3698833100e-001	 2.0216028733e+000
 1.9881029706e+000	 4.5726962105e-001	 1.9597004979e+000
 1.9833261473e+000	 4.7756274611e-001	 1.8980008558e+000
 1.9783275057e+000	 4.9786435957e-001	 1.8358551737e+000
 1.9731059897e+000	 5.1817107315e-001	 1.7728377720e+000
 1.9676606069e+000	 5.3847945824e-001	 1.7087724244e+000
 1.9619904309e+000	 5.5878604727e-001	 1.6437571948e+000
 1.9560946022e+000	 5.7908733518e-001	 1.5781874886e+000
 1.9499723300e+000	 5.9937978090e-001	 1.5127770608e+000
 2.0272735331e+000	 4.0165732735e-001	 2.1234562407e+000
 2.0231013705e+000	 4.2216976871e-001	 2.0554368714e+000
 2.0187080752e+000	 4.4270084878e-001	 1.9897309109e+000
 2.0140923913e+000	 4.6324726543e-001	 1.9256623267e+000
 2.0092531230e+000	 4.8380567180e-001	 1.8626848378e+000
 2.0041891369e+000	 5.0437267753e-001	 1.8004046457e+000
 1.9988993627e+000	 5.2494485006e-001	 1.7385768782e+000
 1.9933827953e+000	 5.4551871594e-001	 1.6762658324e+000
 1.9876384961e+000	 5.6609076229e-001	 1.6131417346e+000
 1.9816655944e+000	 5.8665743822e-001	 1.5495996422e+000
 1.9754632889e+000	 6.0721515638e-001	 1.4863846659e+000
 1.7205536997e+000	 5.2886140161e-001	 1.8617932638e+000
 1.7149512879e+000	 5.4675543847e-001	 1.7739602297e+000
 1.7091478619e+000	 5.6463533321e-001	 1.6807600553e+000
 1.7031429098e+000	 5.8249787284e-001	 1.5831431418e+000
 1.6969359845e+000	 6.0033981835e-001	 1.4821921324e+000
 1.6905267052e+000	 6.1815790620e-001	 1.3791228384e+000
 1.6839147584e+000	 6.3594884997e-001	 1.2752836885e+000
 1.6770998984e+000	 6.5370934202e-001	 1.1721536303e+000
 1.6700819490e+000	 6.7143605513e-001	 1.0713555817e+000
 1.6628608034e+000	 6.8912564429e-001	 9.7453397236e-001
 1.6554364262e+000	 7.0677474842e-001	 8.8222208304e-001
 1.7460446586e+000	 5.3669677708e-001	 1.8405295067e+000
 1.7403592440e+000	 5.5485592404e-001	 1.7536757326e+000
 1.7344698370e+000	 5.7300071935e-001	 1.6609031139e+000
 1.7283759182e+000	 5.9112790244e-001	 1.5632728138e+000
 1.7220770338e+000	 6.0923418628e-001	 1.4619960896e+000
 1.7155727975e+000	 6.2731625900e-001	 1.3584355460e+000
 1.7088628910e+000	 6.4537078549e-001	 1.2541047559e+000
 1.7019470652e+000	 6.6339440909e-001	 1.1506661653e+000
 1.6948251409e+000	 6.8138375330e-001	 1.0500171920e+000
 1.6874970101e+000	 6.9933542355e-001	 9.5341173260e-001
 1.6799626365e+000	 7.1724600897e-001	 8.6132016504e-001
 1.7715356175e+000	 5.4453215256e-001	 1.8092111689e+000
 1.7657672001e+000	 5.6295640962e-001	 1.7237560124e+000
 1.7597918121e+000	 5.8136610550e-001	 1.6319746864e+000
 1.7536089266e+000	 5.9975793203e-001	 1.5350095253e+000
 1.7472180832e+000	 6.1812855421e-001	 1.4341723859e+000
 1.7406188898e+000	 6.3647461180e-001	 1.3309463262e+000
 1.7338110237e+000	 6.5479272100e-001	 1.2269854815e+000
 1.7267942319e+000	 6.7307947616e-001	 1.1241498125e+000
 1.7195683327e+000	 6.9133145148e-001	 1.0243969012e+000
 1.7121332167e+000	 7.0954520282e-001	 9.2852331495e-001
 1.7044888469e+000	 7.2771726952e-001	 8.3715820173e-001
 1.7970265765e+000	 5.5236752804e-001	 1.7703690007e+000
 1.7911751561e+000	 5.7105689519e-001	 1.6866902415e+000
 1.7851137872e+000	 5.8973149165e-001	 1.5963979675e+000
 1.7788419349e+000	 6.0838796163e-001	 1.5006860868e+000
 1.7723591325e+000	 6.2702292214e-001	 1.4009392015e+000
 1.7656649822e+000	 6.4563296460e-001	 1.2987348122e+000
 1.7587591563e+000	 6.6421465652e-001	 1.1958435376e+000
 1.7516413986e+000	 6.8276454324e-001	 1.0943974162e+000
 1.7443115246e+000	 7.0127914966e-001	 9.9593275922e-001
 1.7367694233e+000	 7.1975498208e-001	 9.0117540688e-001
 1.7290150572e+000	 7.3818853007e-001	 8.1091004478e-001
 1.8225175354e+000	 5.6020290351e-001	 1.7264737755e+000
 1.8165831122e+000	 5.7915738076e-001	 1.6448969105e+000
 1.8104357623e+000	 5.9809687779e-001	 1.5565136918e+000
 1.8040749433e+000	 6.1701799122e-001	 1.4625399360e+000
 1.7975001819e+000	 6.3591729007e-001	 1.3644052395e+000
 1.7907110745e+000	 6.5479131740e-001	 1.2637558154e+000
 1.7837072890e+000	 6.7363659204e-001	 1.1625112370e+000
 1.7764885653e+000	 6.9244961031e-001	 1.0629056231e+000
 1.7690547165e+000	 7.1122684783e-001	 9.6598197044e-001
 1.7614056299e+000	 7.2996476135e-001	 8.7259673346e-001
 1.7535412676e+000	 7.4865979062e-001	 7.8367461611e-001
 1.8480084943e+000	 5.6803827899e-001	 1.6799307568e+000
 1.8419910683e+000	 5.8725786634e-001	 1.6007173997e+000
 1.8357577374e+000	 6.0646226394e-001	 1.5145727413e+000
 1.8293079517e+000	 6.2564802082e-001	 1.4227047128e+000
 1.8226412312e+000	 6.4481165800e-001	 1.3265602053e+000
 1.8157571668e+000	 6.6394967020e-001	 1.2278286495e+000
 1.8086554216e+000	 6.8305852755e-001	 1.1287188631e+000
 1.8013357320e+000	 7.0213467738e-001	 1.0310757770e+000
 1.7937979084e+000	 7.2117454600e-001	 9.3582217357e-001
 1.7860418365e+000	 7.4017454062e-001	 8.4393918518e-001
 1.7780674779e+000	 7.5913105116e-001	 7.5647688697e-001
 1.8734994532e+000	 5.7587365447e-001	 1.6330740882e+000
 1.8673990244e+000	 5.9535835191e-001	 1.5564094879e+000
 1.8610797125e+000	 6.1482765009e-001	 1.4727287053e+000
 1.8545409601e+000	 6.3427805041e-001	 1.3832018065e+000
 1.8477822806e+000	 6.5370602593e-001	 1.2892652783e+000
 1.8408032591e+000	 6.7310802300e-001	 1.1926887871e+000
 1.8336035543e+000	 6.9248046307e-001	 1.0959142174e+000
 1.8261828987e+000	 7.1181974445e-001	 1.0002286084e+000
 1.8185411003e+000	 7.3112224418e-001	 9.0665280411e-001
 1.8106780431e+000	 7.5038431988e-001	 8.1627905364e-001
 1.8025936882e+000	 7.6960231171e-001	 7.3026898927e-001
 1.8989904121e+000	 5.8370902994e-001	 1.5881611114e+000
 1.8928069804e+000	 6.0345883748e-001	 1.5141408036e+000
 1.8864016876e+000	 6.2319303624e-001	 1.4330303988e+000
 1.8797739685e+000	 6.4290808001e-001	 1.3459318775e+000
 1.8729233299e+000	 6.6260039386e-001	 1.2542435767e+000
 1.8658493514e+000	 6.8226637580e-001	 1.1600269994e+000
 1.8585516869e+000	 7.0190239858e-001	 1.0654554939e+000
 1.8510300654e+000	 7.2150481152e-001	 9.7160577886e-001
 1.8432842922e+000	 7.4106994236e-001	 8.7959653287e-001
 1.8353142497e+000	 7.6059409915e-001	 7.9061836494e-001
 1.8271198986e+000	 7.8007357226e-001	 7.0593144694e-001
 1.9244813711e+000	 5.9154440542e-001	 1.5473666211e+000
 1.9182149365e+000	 6.1155932306e-001	 1.4759822240e+000
 1.9117236627e+000	 6.3155842238e-001	 1.3974143417e+000
 1.9050069769e+000	 6.5153810961e-001	 1.3126663554e+000
 1.8980643793e+000	 6.7149476179e-001	 1.2231146212e+000
 1.8908954437e+000	 6.9142472860e-001	 1.1312458099e+000
 1.8834998196e+000	 7.1132433410e-001	 1.0386214208e+000
 1.8758772322e+000	 7.3118987860e-001	 9.4637147357e-001
 1.8680274841e+000	 7.5101764053e-001	 8.5570077298e-001
 1.8599504564e+000	 7.7080387841e-001	 7.6788630178e-001
 1.8516461089e+000	 7.9054483281e-001	 6.8427451599e-001
 1.9499723300e+000	 5.9937978090e-001	 1.5127770608e+000
 1.9436228926e+000	 6.1965980863e-001	 1.4439012262e+000
 1.9370456378e+000	 6.3992380853e-001	 1.3676972036e+000
 1.9302399853e+000	 6.6016813920e-001	 1.2850389161e+000
 1.9232054286e+000	 6.8038912972e-001	 1.1975384255e+000
 1.9159415361e+000	 7.0058308140e-001	 1.1076560548e+000
 1.9084479522e+000	 7.2074626962e-001	 1.0166129637e+000
 1.9007243989e+000	 7.4087494567e-001	 9.2561403838e-001
 1.8927706760e+000	 7.6096533871e-001	 8.3593924925e-001
 1.8845866630e+000	 7.8101365768e-001	 7.4894070613e-001
 1.8761723193e+000	 8.0101609336e-001	 6.6603962346e-001
 1.9754632889e+000	 6.0721515638e-001	 1.4863846659e+000
 1.9690308487e+000	 6.2776029421e-001	 1.4197551959e+000
 1.9623676129e+000	 6.4828919468e-001	 1.3455682163e+000
 1.9554729937e+000	 6.6879816880e-001	 1.2645470692e+000
 1.9483464780e+000	 6.8928349765e-001	 1.1788854404e+000
 1.9409876284e+000	 7.0974143420e-001	 1.0904909195e+000
 1.9333960849e+000	 7.3016820514e-001	 1.0005550543e+000
 1.9255715656e+000	 7.5056001275e-001	 9.1034765744e-001
 1.9175138679e+000	 7.7091303689e-001	 8.2121362431e-001
 1.9092228696e+000	 7.9122343695e-001	 7.3456965510e-001
 1.9006985296e+000	 8.1148735391e-001	 6.5190089626e-001
 1.6554364262e+000	 7.0677474842e-001	 8.8222208304e-001
 1.6478100126e+000	 7.2437735518e-001	 7.9137290933e-001
 1.6399805736e+000	 7.4193272950e-001	 6.9871901468e-001
 1.6319482913e+000	 7.5943747564e-001	 6.0432749471e-001
 1.6237134218e+000	 7.7688818926e-001	 5.0832155552e-001
 1.6152762950e+000	 7.9428145945e-001	 4.1088052610e-001
 1.6066373155e+000	 8.1161387061e-001	 3.1223979418e-001
 1.5977969630e+000	 8.2888200447e-001	 2.1269066611e-001
 1.5887557923e+000	 8.4608244213e-001	 1.1258015114e-001
 1.5795144344e+000	 8.6321176607e-001	 1.2310669962e-002
 1.5700735960e+000	 8.8026656221e-001	-8.7660312797e-002
 1.6799626365e+000	 7.1724600897e-001	 8.6132016504e-001
 1.6722232334e+000	 7.3510940813e-001	 7.7074054243e-001
 1.6642777969e+000	 7.5292487508e-001	 6.7833737439e-001
 1.6561265119e+000	 7.7068896374e-001	 5.8419909162e-001
 1.6477696382e+000	 7.8839821939e-001	 4.8847119427e-001
 1.6392075107e+000	 8.0604918054e-001	 3.9135616201e-001
 1.6304405399e+000	 8.2363838099e-001	 2.9311329237e-001
 1.6214692126e+000	 8.4116235185e-001	 1.9405846815e-001
 1.6122940921e+000	 8.5861762355e-001	 9.4563854817e-002
 1.6029158183e+000	 8.7600072794e-001	-4.9424722197e-003
 1.5933351085e+000	 8.9330820037e-001	-1.0397697040e-001
 1.7044888469e+000	 7.2771726952e-001	 8.3715820173e-001
 1.6966364542e+000	 7.4584146108e-001	 7.4735790458e-001
 1.6885750202e+000	 7.6391702065e-001	 6.5573248375e-001
 1.6803047325e+000	 7.8194045185e-001	 5.6237454630e-001
 1.6718258546e+000	 7.9990824952e-001	 4.6743483517e-001
 1.6631387264e+000	 8.1781690162e-001	 3.7112206718e-001
 1.6542437644e+000	 8.3566289138e-001	 2.7370270522e-001
 1.6451414623e+000	 8.5344269924e-001	 1.7550066569e-001
 1.6358323918e+000	 8.7115280498e-001	 7.6896962392e-002
 1.6263172021e+000	 8.8878968982e-001	-2.1670713080e-002
 1.6165966211e+000	 9.0634983852e-001	-1.1970847431e-001
 1.7290150572e+000	 7.3818853007e-001	 8.1091004478e-001
 1.7210496750e+000	 7.5657351403e-001	 7.2226909710e-001
 1.7128722434e+000	 7.7490916622e-001	 6.3182629009e-001
 1.7044829530e+000	 7.9319193996e-001	 5.3966218172e-001
 1.6958820710e+000	 8.1141827964e-001	 4.4591662554e-001
 1.6870699421e+000	 8.2958462271e-001	 3.5078856609e-001
 1.6780469888e+000	 8.4768740177e-001	 2.5453577549e-001
 1.6688137120e+000	 8.6572304662e-001	 1.5747453257e-001
 1.6593706915e+000	 8.8368798640e-001	 5.9979245980e-002
 1.6497185860e+000	 9.0157865169e-001	-3.7517978604e-002
 1.6398581337e+000	 9.1939147667e-001	-1.3452782698e-001
 1.7535412676e+000	 7.4865979062e-001	 7.8367461611e-001
 1.7454628958e+000	 7.6730556697e-001	 6.9644622740e-001
 1.7371694667e+000	 7.8590131179e-001	 6.0747133945e-001
 1.7286611736e+000	 8.0444342807e-001	 5.1680312176e-001
 1.7199382875e+000	 8.2292830977e-001	 4.2455527794e-001
 1.7110011578e+000	 8.4135234380e-001	 3.3090182703e-001
 1.7018502132e+000	 8.5971191215e-001	 2.3607683419e-001
 1.6924859617e+000	 8.7800339400e-001	 1.4037409259e-001
 1.6829089912e+000	 8.9622316782e-001	 4.4146757720e-002
 1.6731199699e+000	 9.1436761356e-001	-5.2193065313e-002
 1.6631196463e+000	 9.3243311482e-001	-1.4817478177e-001
 1.7780674779e+000	 7.5913105116e-001	 7.5647688697e-001
 1.7698761166e+000	 7.7803761992e-001	 6.7079025882e-001
 1.7614666900e+000	 7.9689345736e-001	 5.8345153314e-001
 1.7528393942e+000	 8.1569491618e-001	 4.9447199371e-001
 1.7439945039e+000	 8.3443833989e-001	 4.0392476056e-001
 1.7349323735e+000	 8.5312006488e-001	 3.1194458501e-001
 1.7256534376e+000	 8.7173642254e-001	 2.1872760355e-001
 1.7161582113e+000	 8.9028374139e-001	 1.2453105270e-001
 1.7064472909e+000	 9.0875834925e-001	 2.9672946193e-002
 1.6965213537e+000	 9.2715657544e-001	-6.5468285119e-002
 1.6863811589e+000	 9.4547475298e-001	-1.6045419085e-001
 1.8025936882e+000	 7.6960231171e-001	 7.3026898927e-001
 1.7942893373e+000	 7.8876967287e-001	 6.4613201579e-001
 1.7857639133e+000	 8.0788560293e-001	 5.6048306044e-001
 1.7770176148e+000	 8.2694640429e-001	 4.7327782446e-001
 1.7680507203e+000	 8.4594837002e-001	 3.8453519560e-001
 1.7588635892e+000	 8.6488778597e-001	 2.9433708370e-001
 1.7494566620e+000	 8.8376093293e-001	 2.0282822623e-001
 1.7398304610e+000	 9.0256408877e-001	 1.1021596585e-001
 1.7299855906e+000	 9.2129353067e-001	 1.6770001509e-002
 1.7199227376e+000	 9.3994553731e-001	-7.7177886789e-002
 1.7096426715e+000	 9.5851639113e-001	-1.7123413976e-001
 1.8271198986e+000	 7.8007357226e-001	 7.0593144694e-001
 1.8187025581e+000	 7.9950172581e-001	 6.2323333013e-001
 1.8100611366e+000	 8.1887774850e-001	 5.3921549074e-001
 1.8011958353e+000	 8.3819789240e-001	 4.5376511215e-001
 1.7921069367e+000	 8.5745840015e-001	 3.6683394619e-001
 1.7827948048e+000	 8.7665550706e-001	 2.7843821571e-001
 1.7732598864e+000	 8.9578544332e-001	 1.8865849947e-001
 1.7635027107e+000	 9.1484443615e-001	 9.7639601715e-002
 1.7535238903e+000	 9.3382871209e-001	 5.5904076050e-003
 1.7433241214e+000	 9.5273449919e-001	-8.7216275021e-002
 1.7329041841e+000	 9.7155802928e-001	-1.8044388856e-001
 1.8516461089e+000	 7.9054483281e-001	 6.8427451599e-001
 1.8431157789e+000	 8.1023377876e-001	 6.0278831501e-001
 1.8343583599e+000	 8.2986989407e-001	 5.2023301044e-001
 1.8253740559e+000	 8.4944938051e-001	 4.3641505685e-001
 1.8161631531e+000	 8.6896843027e-001	 3.5120687419e-001
 1.8067260205e+000	 8.8842322815e-001	 2.6454684286e-001
 1.7970631108e+000	 9.0780995370e-001	 1.7643929530e-001
 1.7871749603e+000	 9.2712478354e-001	 8.6954506156e-002
 1.7770621900e+000	 9.4636389352e-001	-3.7713174812e-003
 1.7667255053e+000	 9.6552346106e-001	-9.5536045874e-002
 1.7561656967e+000	 9.8459966744e-001	-1.8807163761e-001
 1.8761723193e+000	 8.0101609336e-001	 6.6603962346e-001
 1.8675289997e+000	 8.2096583171e-001	 5.8542475521e-001
 1.8586555832e+000	 8.4086203964e-001	 5.0405579126e-001
 1.8495522765e+000	 8.6070086862e-001	 4.2164693600e-001
 1.8402193695e+000	 8.8047846040e-001	 3.3797975346e-001
 1.8306572362e+000	 9.0019094924e-001	 2.5290328008e-001
 1.8208663352e+000	 9.1983446409e-001	 1.6633414957e-001
 1.8108472100e+000	 9.3940513092e-001	 7.8256732151e-002
 1.8006004897e+000	 9.5889907494e-001	-1.1276710542e-002
 1.7901268891e+000	 9.7831242294e-001	-1.0214585538e-001
 1.7794272093e+000	 9.9764130559e-001	-1.9416213390e-001
 1.9006985296e+000	 8.1148735391e-001	 6.5190089626e-001
 1.8919422205e+000	 8.3169788466e-001	 5.7170560295e-001
 1.8829528065e+000	 8.5185418521e-001	 4.9114147824e-001
 1.8737304971e+000	 8.7195235673e-001	 4.0981961129e-001
 1.8642755859e+000	 8.9198849053e-001	 3.2741982439e-001
 1.8545884519e+000	 9.1195867032e-001	 2.4369092793e-001
 1.8446695596e+000	 9.3185897448e-001	 1.5845100476e-001
 1.8345194597e+000	 9.5168547831e-001	 7.1587726629e-002
 1.8241387894e+000	 9.7143425637e-001	-1.6941296772e-002
 1.8135282730e+000	 9.9110138481e-001	-1.0710813639e-001
 1.8026887218e+000	 1.0106829438e+000	-1.9881655556e-001
 1.5700735960e+000	 8.8026656221e-001	-8.7660312797e-002
 1.5604325990e+000	 8.9724596293e-001	-1.8649570460e-001
 1.5505937056e+000	 9.1414400241e-001	-2.8380309366e-001
 1.5405578528e+000	 9.3095728892e-001	-3.7974704653e-001
 1.5303260540e+000	 9.4768244256e-001	-4.7442622658e-001
 1.5198993990e+000	 9.6431609743e-001	-5.6787244725e-001
 1.5092790533e+000	 9.8085490370e-001	-6.6004981859e-001
 1.4984662587e+000	 9.9729552980e-001	-7.5085399378e-001
 1.4874623321e+000	 1.0136346645e+000	-8.4011253458e-001
 1.4762686658e+000	 1.0298690189e+000	-9.2758015480e-001
 1.4648867267e+000	 1.0459953290e+000	-1.0129449244e+000
 1.5933351085e+000	 8.9330820037e-001	-1.0397697040e-001
 1.5835512749e+000	 9.1053916034e-001	-2.0144438458e-001
 1.5735666128e+000	 9.2768755366e-001	-2.9679915858e-001
 1.5633820732e+000	 9.4474993835e-001	-3.9033504370e-001
 1.5529986847e+000	 9.6172288443e-001	-4.8227762314e-001
 1.5424175529e+000	 9.7860297614e-001	-5.7278307116e-001
 1.5316398610e+000	 9.9538681402e-001	-6.6193700105e-001
 1.5206668688e+000	 1.0120710171e+000	-7.4975449899e-001
 1.5094999130e+000	 1.0286522252e+000	-8.3617461856e-001
 1.4981404063e+000	 1.0451271006e+000	-9.2106669096e-001
 1.4865898373e+000	 1.0614923309e+000	-1.0042246134e+000
 1.6165966211e+000	 9.0634983852e-001	-1.1970847431e-001
 1.6066699508e+000	 9.2383235774e-001	-2.1584078906e-001
 1.5965395200e+000	 9.4123110491e-001	-3.0932211689e-001
 1.5862062937e+000	 9.5854258778e-001	-4.0055394567e-001
 1.5756713154e+000	 9.7576332631e-001	-4.8986755926e-001
 1.5649357069e+000	 9.9288985485e-001	-5.7752253075e-001
 1.5540006687e+000	 1.0099187243e+000	-6.6370529900e-001
 1.5428674789e+000	 1.0268465044e+000	-7.4852881126e-001
 1.5315374938e+000	 1.0436697858e+000	-8.3202720169e-001
 1.5200121467e+000	 1.0603851823e+000	-9.1416112811e-001
 1.5082929480e+000	 1.0769893328e+000	-9.9481223584e-001
 1.6398581337e+000	 9.1939147667e-001	-1.3452782698e-001
 1.6297886266e+000	 9.3712555515e-001	-2.2938378860e-001
 1.6195124272e+000	 9.5477465616e-001	-3.2110598686e-001
 1.6090305142e+000	 9.7233523721e-001	-4.1018301845e-001
 1.5983439460e+000	 9.8980376818e-001	-4.9703147125e-001
 1.5874538609e+000	 1.0071767336e+000	-5.8199417810e-001
 1.5763614763e+000	 1.0244506346e+000	-6.6533963022e-001
 1.5650680890e+000	 1.0416219918e+000	-7.4725584172e-001
 1.5535750746e+000	 1.0586873465e+000	-8.2785605933e-001
 1.5418838871e+000	 1.0756432639e+000	-9.0717232093e-001
 1.5299960587e+000	 1.0924863347e+000	-9.8515553564e-001
 1.6631196463e+000	 9.3243311482e-001	-1.4817478177e-001
 1.6529073025e+000	 9.5041875256e-001	-2.4184098114e-001
 1.6424853344e+000	 9.6831820741e-001	-3.3195489306e-001
 1.6318547346e+000	 9.8612788664e-001	-4.1907237625e-001
 1.6210165767e+000	 1.0038442101e+000	-5.0367570961e-001
 1.6099720149e+000	 1.0214636123e+000	-5.8617285429e-001
 1.5987222840e+000	 1.0389825450e+000	-6.6689041629e-001
 1.5872686991e+000	 1.0563974791e+000	-7.4607997670e-001
 1.5756126554e+000	 1.0737049072e+000	-8.2391063769e-001
 1.5637556276e+000	 1.0909013456e+000	-9.0046892668e-001
 1.5516991694e+000	 1.1079833366e+000	-9.7575729883e-001
 1.6863811589e+000	 9.4547475298e-001	-1.6045419085e-001
 1.6760259784e+000	 9.6371194997e-001	-2.5304672940e-001
 1.6654582416e+000	 9.8186175866e-001	-3.4174082834e-001
 1.6546789551e+000	 9.9992053607e-001	-4.2714050665e-001
 1.6436892074e+000	 1.0178846519e+000	-5.0977626851e-001
 1.6324901689e+000	 1.0357504910e+000	-5.9009706161e-001
 1.6210830917e+000	 1.0535144553e+000	-6.6847750948e-001
 1.6094693093e+000	 1.0711729664e+000	-7.4520932128e-001
 1.5976502362e+000	 1.0887224679e+000	-8.2050110281e-001
 1.5856273680e+000	 1.1061594272e+000	-8.9447652543e-001
 1.5734022801e+000	 1.1234803385e+000	-9.6717260827e-001
 1.7096426715e+000	 9.5851639113e-001	-1.7123413976e-001
 1.6991446542e+000	 9.7700514737e-001	-2.6289999592e-001
 1.6884311488e+000	 9.9540530991e-001	-3.5040122151e-001
 1.6775031755e+000	 1.0137131855e+000	-4.3437322274e-001
 1.6663618381e+000	 1.0319250938e+000	-5.1537020882e-001
 1.6550083229e+000	 1.0500373697e+000	-5.9387364964e-001
 1.6434438993e+000	 1.0680463656e+000	-6.7028240393e-001
 1.6316699194e+000	 1.0859484537e+000	-7.4491253149e-001
 1.6196878171e+000	 1.1037400286e+000	-8.1799516914e-001
 1.6074991084e+000	 1.1214175089e+000	-8.8967450055e-001
 1.5951053908e+000	 1.1389773404e+000	-9.6000583485e-001
 1.7329041841e+000	 9.7155802928e-001	-1.8044388856e-001
 1.7222633301e+000	 9.9029834478e-001	-2.7136199467e-001
 1.7114040560e+000	 1.0089488612e+000	-3.5793632909e-001
 1.7003273960e+000	 1.0275058349e+000	-4.4081422931e-001
 1.6890344687e+000	 1.0459655357e+000	-5.2056139689e-001
 1.6775264769e+000	 1.0643242484e+000	-5.9766939200e-001
 1.6658047070e+000	 1.0825782759e+000	-6.7254614359e-001
 1.6538705295e+000	 1.1007239411e+000	-7.4551546001e-001
 1.6417253979e+000	 1.1187575892e+000	-8.1681472857e-001
 1.6293708489e+000	 1.1366755906e+000	-8.8659270212e-001
 1.6168085014e+000	 1.1544743423e+000	-9.5490738947e-001
 1.7561656967e+000	 9.8459966744e-001	-1.8807163761e-001
 1.7453820060e+000	 1.0035915422e+000	-2.7845367640e-001
 1.7343769632e+000	 1.0224924124e+000	-3.6440820515e-001
 1.7231516164e+000	 1.0412984844e+000	-4.4657222510e-001
 1.7117070994e+000	 1.0600059775e+000	-5.2551136150e-001
 1.7000446309e+000	 1.0786111271e+000	-6.0170898992e-001
 1.6881655147e+000	 1.0971101862e+000	-6.7556587214e-001
 1.6760711396e+000	 1.1154994284e+000	-7.4739763285e-001
 1.6637629787e+000	 1.1337751499e+000	-8.1743229811e-001
 1.6512425893e+000	 1.1519336722e+000	-8.8580791325e-001
 1.6385116121e+000	 1.1699713442e+000	-9.5257025807e-001
 1.7794272093e+000	 9.9764130559e-001	-1.9416213390e-001
 1.7685006818e+000	 1.0168847396e+000	-2.8425511071e-001
 1.7573498703e+000	 1.0360359637e+000	-3.6993068579e-001
 1.7459758369e+000	 1.0550911338e+000	-4.5181091808e-001
 1.7343797301e+000	 1.0740464194e+000	-5.3043749100e-001
 1.7225627848e+000	 1.0928980058e+000	-6.0627159574e-001
 1.7105263223e+000	 1.1116420965e+000	-6.7969123694e-001
 1.6982717497e+000	 1.1302749157e+000	-7.5098857218e-001
 1.6858005595e+000	 1.1487927106e+000	-8.2036730321e-001
 1.6731143297e+000	 1.1671917539e+000	-8.8794013746e-001
 1.6602147228e+000	 1.1854683461e+000	-9.5372633959e-001
 1.8026887218e+000	 1.0106829438e+000	-1.9881655556e-001
 1.7916193577e+000	 1.0301779370e+000	-2.8889432440e-001
 1.7803227775e+000	 1.0495795149e+000	-3.7467722196e-001
 1.7688000574e+000	 1.0688837832e+000	-4.5674750611e-001
 1.7570523608e+000	 1.0880868613e+000	-5.3560958483e-001
 1.7450809388e+000	 1.1071848845e+000	-6.1168720758e-001
 1.7328871300e+000	 1.1261740068e+000	-6.8532066002e-001
 1.7204723598e+000	 1.1450504030e+000	-7.5676397959e-001
 1.7078381404e+000	 1.1638102713e+000	-8.2618221122e-001
 1.6949860702e+000	 1.1824498355e+000	-8.9364872320e-001
 1.6819178335e+000	 1.2009653480e+000	-9.5914260466e-001
 1.4648867267e+000	 1.0459953290e+000	-1.0129449244e+000
 1.4533180553e+000	 1.0620103567e+000	-1.0961476926e+000
 1.4415642644e+000	 1.0779108915e+000	-1.1770688405e+000
 1.4296270391e+000	 1.0936937532e+000	-1.2551945068e+000
 1.4175081369e+000	 1.1093557947e+000	-1.3299343893e+000
 1.4052093865e+000	 1.1248939033e+000	-1.4006218340e+000
 1.3927326875e+000	 1.1403050036e+000	-1.4665140993e+000
 1.3800800090e+000	 1.1555860590e+000	-1.5267927992e+000
 1.3672533887e+000	 1.1707340736e+000	-1.5805645342e+000
 1.3542549321e+000	 1.1857460943e+000	-1.6268617146e+000
 1.3410868110e+000	 1.2006192129e+000	-1.6646435816e+000
 1.4865898373e+000	 1.0614923309e+000	-1.0042246134e+000
 1.4748497697e+000	 1.0777446301e+000	-1.0856370107e+000
 1.4629218399e+000	 1.0938807402e+000	-1.1651977512e+000
 1.4508077579e+000	 1.1098974338e+000	-1.2424452104e+000
 1.4385093074e+000	 1.1257915171e+000	-1.3168410034e+000
 1.4260283442e+000	 1.1415598314e+000	-1.3877698856e+000
 1.4133667960e+000	 1.1571992558e+000	-1.4545398271e+000
 1.4005266610e+000	 1.1727067085e+000	-1.5163822685e+000
 1.3875100072e+000	 1.1880791493e+000	-1.5724525665e+000
 1.3743189713e+000	 1.2033135815e+000	-1.6218306355e+000
 1.3609557572e+000	 1.2184070535e+000	-1.6635217931e+000
 1.5082929480e+000	 1.0769893328e+000	-9.9481223584e-001
 1.4963814841e+000	 1.0934789035e+000	-1.0740674533e+000
 1.4842794153e+000	 1.1098505889e+000	-1.1518676195e+000
 1.4719884768e+000	 1.1261011144e+000	-1.2277590436e+000
 1.4595104780e+000	 1.1422272395e+000	-1.3012113413e+000
 1.4468473020e+000	 1.1582257595e+000	-1.3716172170e+000
 1.4340009045e+000	 1.1740935079e+000	-1.4382924178e+000
 1.4209733130e+000	 1.1898273579e+000	-1.5004758711e+000
 1.4077666258e+000	 1.2054242250e+000	-1.5573300129e+000
 1.3943830105e+000	 1.2208810686e+000	-1.6079413165e+000
 1.3808247033e+000	 1.2361948942e+000	-1.6513210286e+000
 1.5299960587e+000	 1.0924863347e+000	-9.8515553564e-001
 1.5179131985e+000	 1.1092131770e+000	-1.0620401002e+000
 1.5056369908e+000	 1.1258204375e+000	-1.1378466767e+000
 1.4931691956e+000	 1.1423047949e+000	-1.2120870934e+000
 1.4805116485e+000	 1.1586629619e+000	-1.2841969299e+000
 1.4676662597e+000	 1.1748916877e+000	-1.3535352463e+000
 1.4546350130e+000	 1.1909877600e+000	-1.4193844845e+000
 1.4414199651e+000	 1.2069480074e+000	-1.4809505527e+000
 1.4280232443e+000	 1.2227693007e+000	-1.5373631035e+000
 1.4144470496e+000	 1.2384485557e+000	-1.5876760135e+000
 1.4006936495e+000	 1.2539827349e+000	-1.6308680752e+000
 1.5516991694e+000	 1.1079833366e+000	-9.7575729883e-001
 1.5394449129e+000	 1.1249474504e+000	-1.0502055068e+000
 1.5269945662e+000	 1.1417902862e+000	-1.1239463042e+000
 1.5143499144e+000	 1.1585084755e+000	-1.1964164180e+000
 1.5015128191e+000	 1.1750986843e+000	-1.2669771397e+000
 1.4884852174e+000	 1.1915576158e+000	-1.3349140652e+000
 1.4752691215e+000	 1.2078820122e+000	-1.3994370075e+000
 1.4618666171e+000	 1.2240686568e+000	-1.4596800919e+000
 1.4482798629e+000	 1.2401143764e+000	-1.5147020453e+000
 1.4345110888e+000	 1.2560160429e+000	-1.5634866907e+000
 1.4205625956e+000	 1.2717705755e+000	-1.6049436560e+000
 1.5734022801e+000	 1.1234803385e+000	-9.6717260827e-001
 1.5609766273e+000	 1.1406817238e+000	-1.0392611532e+000
 1.5483521417e+000	 1.1577601349e+000	-1.1110187329e+000
 1.5355306332e+000	 1.1747121560e+000	-1.1817680600e+000
 1.5225139896e+000	 1.1915344067e+000	-1.2507575836e+000
 1.5093041752e+000	 1.2082235439e+000	-1.3171613031e+000
 1.4959032300e+000	 1.2247762643e+000	-1.3800787517e+000
 1.4823132692e+000	 1.2411893063e+000	-1.4385351631e+000
 1.4685364814e+000	 1.2574594521e+000	-1.4914818336e+000
 1.4545751280e+000	 1.2735835300e+000	-1.5377966893e+000
 1.4404315418e+000	 1.2895584161e+000	-1.5762850718e+000
 1.5951053908e+000	 1.1389773404e+000	-9.6000583485e-001
 1.5825083417e+000	 1.1564159973e+000	-1.0299485992e+000
 1.5697097171e+000	 1.1737299836e+000	-1.0999544156e+000
 1.5567113521e+000	 1.1909158366e+000	-1.1691946951e+000
 1.5435151602e+000	 1.2079701291e+000	-1.2367681095e+000
 1.5301231329e+000	 1.2248894720e+000	-1.3017005358e+000
 1.5165373385e+000	 1.2416705164e+000	-1.3629451704e+000
 1.5027599212e+000	 1.2583099557e+000	-1.4193828248e+000
 1.4887930999e+000	 1.2748045278e+000	-1.4698224169e+000
 1.4746391672e+000	 1.2911510171e+000	-1.5130016692e+000
 1.4603004879e+000	 1.3073462568e+000	-1.5475880271e+000
 1.6168085014e+000	 1.1544743423e+000	-9.5490738947e-001
 1.6040400561e+000	 1.1721502707e+000	-1.0230503758e+000
 1.5910672926e+000	 1.1896998323e+000	-1.0916791051e+000
 1.5778920709e+000	 1.2071195171e+000	-1.1597779529e+000
 1.5645163307e+000	 1.2244058515e+000	-1.2262604231e+000
 1.5509420906e+000	 1.2415554001e+000	-1.2899692795e+000
 1.5371714470e+000	 1.2585647686e+000	-1.3496768456e+000
 1.5232065733e+000	 1.2754306052e+000	-1.4040854847e+000
 1.5090497185e+000	 1.2921496035e+000	-1.4518282749e+000
 1.4947032064e+000	 1.3087185043e+000	-1.4914698930e+000
 1.4801694341e+000	 1.3251340974e+000	-1.5215077191e+000
 1.6385116121e+000	 1.1699713442e+000	-9.5257025807e-001
 1.6255717704e+000	 1.1878845441e+000	-1.0193866353e+000
 1.6124248680e+000	 1.2056696810e+000	-1.0871506644e+000
 1.5990727897e+000	 1.2233231977e+000	-1.1546254372e+000
 1.5855175013e+000	 1.2408415739e+000	-1.2205053768e+000
 1.5717610484e+000	 1.2582213282e+000	-1.2834166104e+000
 1.5578055555e+000	 1.2754590207e+000	-1.3419175065e+000
 1.5436532253e+000	 1.2925512546e+000	-1.3944993925e+000
 1.5293063370e+000	 1.3094946792e+000	-1.4395874653e+000
 1.5147672456e+000	 1.3262859914e+000	-1.4755419127e+000
 1.5000383802e+000	 1.3429219381e+000	-1.5015756909e+000
 1.6602147228e+000	 1.1854683461e+000	-9.5372633959e-001
 1.6471034848e+000	 1.2036188176e+000	-1.0198115823e+000
 1.6337824434e+000	 1.2216395297e+000	-1.0873556335e+000
 1.6202535085e+000	 1.2395268783e+000	-1.1548674758e+000
 1.6065186718e+000	 1.2572772963e+000	-1.2207899549e+000
 1.5925800061e+000	 1.2748872564e+000	-1.2835004431e+000
 1.5784396640e+000	 1.2923532728e+000	-1.3413116652e+000
 1.5640998774e+000	 1.3096719041e+000	-1.3924727018e+000
 1.5495629556e+000	 1.3268397549e+000	-1.4351701868e+000
 1.5348312848e+000	 1.3438534785e+000	-1.4685642028e+000
 1.5199073264e+000	 1.3607097787e+000	-1.4943592313e+000
 1.6819178335e+000	 1.2009653480e+000	-9.5914260466e-001
 1.6686351992e+000	 1.2193530910e+000	-1.0252097072e+000
 1.6551400189e+000	 1.2376093784e+000	-1.0933055751e+000
 1.6414342274e+000	 1.2557305588e+000	-1.1616536229e+000
 1.6275198424e+000	 1.2737130187e+000	-1.2284139812e+000
 1.6133989638e+000	 1.2915531845e+000	-1.2916844988e+000
 1.5990737725e+000	 1.3092475249e+000	-1.3495019040e+000
 1.5845465294e+000	 1.3267925536e+000	-1.3998431416e+000
 1.5698195741e+000	 1.3441848306e+000	-1.4416527796e+000
 1.5548953239e+000	 1.3614209657e+000	-1.4763038189e+000
 1.5397762725e+000	 1.3784976194e+000	-1.5012979208e+000
 1.3410868110e+000	 1.2006192129e+000	-1.6646435816e+000
 1.3277532754e+000	 1.2153483688e+000	-1.6992025247e+000
 1.3142546640e+000	 1.2299329922e+000	-1.7393335552e+000
 1.3005933408e+000	 1.2443703222e+000	-1.7834765962e+000
 1.2867717309e+000	 1.2586576498e+000	-1.8288103762e+000
 1.2727923194e+000	 1.2727923194e+000	-1.8724614143e+000
 1.2586576498e+000	 1.2867717309e+000	-1.9115115541e+000
 1.2443703222e+000	 1.3005933408e+000	-1.9430058588e+000
 1.2299329922e+000	 1.3142546640e+000	-1.9639608430e+000
 1.2153483688e+000	 1.3277532754e+000	-1.9713730114e+000
 1.2006192129e+000	 1.3410868110e+000	-1.9630270791e+000
 1.3609557572e+000	 1.2184070535e+000	-1.6635217931e+000
 1.3474246778e+000	 1.2333544301e+000	-1.7029265365e+000
 1.3337260770e+000	 1.2481551328e+000	-1.7439120818e+000
 1.3198623537e+000	 1.2628063599e+000	-1.7866353097e+000
 1.3058359689e+000	 1.2773053621e+000	-1.8318110734e+000
 1.2916494447e+000	 1.2916494447e+000	-1.8761857455e+000
 1.2773053621e+000	 1.3058359689e+000	-1.9164577915e+000
 1.2628063599e+000	 1.3198623537e+000	-1.9492901984e+000
 1.2481551328e+000	 1.3337260770e+000	-1.9713220696e+000
 1.2333544301e+000	 1.3474246778e+000	-1.9817341091e+000
 1.2184070535e+000	 1.3609557572e+000	-1.9791183706e+000
 1.3808247033e+000	 1.2361948942e+000	-1.6513210286e+000
 1.3670960803e+000	 1.2513604914e+000	-1.6936147892e+000
 1.3531974900e+000	 1.2663772734e+000	-1.7392598185e+000
 1.3391313666e+000	 1.2812423975e+000	-1.7846142677e+000
 1.3249002070e+000	 1.2959530744e+000	-1.8273766374e+000
 1.3105065700e+000	 1.3105065700e+000	-1.8697406786e+000
 1.2959530744e+000	 1.3249002070e+000	-1.9087915693e+000
 1.2812423975e+000	 1.3391313666e+000	-1.9413526291e+000
 1.2663772734e+000	 1.3531974900e+000	-1.9674353919e+000
 1.2513604914e+000	 1.3670960803e+000	-1.9838644465e+000
 1.2361948942e+000	 1.3808247033e+000	-1.9865850443e+000
 1.4006936495e+000	 1.2539827349e+000	-1.6308680752e+000
 1.3867674827e+000	 1.2693665527e+000	-1.6738226594e+000
 1.3726689030e+000	 1.2845994140e+000	-1.7216418092e+000
 1.3584003795e+000	 1.2996784352e+000	-1.7705415375e+000
 1.3439644451e+000	 1.3146007868e+000	-1.8167201059e+000
 1.3293636953e+000	 1.3293636953e+000	-1.8566550641e+000
 1.3146007868e+000	 1.3439644451e+000	-1.8935495796e+000
 1.2996784352e+000	 1.3584003795e+000	-1.9291756400e+000
 1.2845994140e+000	 1.3726689030e+000	-1.9594725062e+000
 1.2693665527e+000	 1.3867674827e+000	-1.9802127067e+000
 1.2539827349e+000	 1.4006936495e+000	-1.9872056252e+000
 1.4205625956e+000	 1.2717705755e+000	-1.6049436560e+000
 1.4064388851e+000	 1.2873726140e+000	-1.6466544381e+000
 1.3921403160e+000	 1.3028215546e+000	-1.6944442938e+000
 1.3776693924e+000	 1.3181144728e+000	-1.7444976878e+000
 1.3630286831e+000	 1.3332484991e+000	-1.7929793479e+000
 1.3482208207e+000	 1.3482208207e+000	-1.8386735045e+000
 1.3332484991e+000	 1.3630286831e+000	-1.8800619599e+000
 1.3181144728e+000	 1.3776693924e+000	-1.9169504105e+000
 1.3028215546e+000	 1.3921403160e+000	-1.9491169728e+000
 1.2873726140e+000	 1.4064388851e+000	-1.9722963718e+000
 1.2717705755e+000	 1.4205625956e+000	-1.9822581715e+000
 1.4404315418e+000	 1.2895584161e+000	-1.5762850718e+000
 1.4261102875e+000	 1.3053786752e+000	-1.6151565902e+000
 1.4116117290e+000	 1.3210436951e+000	-1.6609836946e+000
 1.3969384052e+000	 1.3365505104e+000	-1.7101477187e+000
 1.3820929212e+000	 1.3518962114e+000	-1.7624295103e+000
 1.3670779460e+000	 1.3670779460e+000	-1.8152955879e+000
 1.3518962114e+000	 1.3820929212e+000	-1.8644770046e+000
 1.3365505104e+000	 1.3969384052e+000	-1.9057590056e+000
 1.3210436951e+000	 1.4116117290e+000	-1.9375443294e+000
 1.3053786752e+000	 1.4261102875e+000	-1.9611372078e+000
 1.2895584161e+000	 1.4404315418e+000	-1.9725417088e+000
 1.4603004879e+000	 1.3073462568e+000	-1.5475880271e+000
 1.4457816899e+000	 1.3233847365e+000	-1.5823204516e+000
 1.4310831420e+000	 1.3392658357e+000	-1.6249033010e+000
 1.4162074181e+000	 1.3549865481e+000	-1.6756568205e+000
 1.4011571593e+000	 1.3705439238e+000	-1.7315439201e+000
 1.3859350713e+000	 1.3859350713e+000	-1.7884506100e+000
 1.3705439238e+000	 1.4011571593e+000	-1.8423079457e+000
 1.3549865481e+000	 1.4162074181e+000	-1.8890985583e+000
 1.3392658357e+000	 1.4310831420e+000	-1.9248630812e+000
 1.3233847365e+000	 1.4457816899e+000	-1.9472829392e+000
 1.3073462568e+000	 1.4603004879e+000	-1.9583968037e+000
 1.4801694341e+000	 1.3251340974e+000	-1.5215077191e+000
 1.4654530924e+000	 1.3413907978e+000	-1.5517705910e+000
 1.4505545550e+000	 1.3574879763e+000	-1.5941745902e+000
 1.4354764310e+000	 1.3734225857e+000	-1.6455623615e+000
 1.4202213973e+000	 1.3891916361e+000	-1.7020855983e+000
 1.4047921966e+000	 1.4047921966e+000	-1.7599309304e+000
 1.3891916361e+000	 1.4202213973e+000	-1.8153260498e+000
 1.3734225857e+000	 1.4354764310e+000	-1.8645457512e+000
 1.3574879763e+000	 1.4505545550e+000	-1.9039178741e+000
 1.3413907978e+000	 1.4654530924e+000	-1.9298291334e+000
 1.3251340974e+000	 1.4801694341e+000	-1.9397253574e+000
 1.5000383802e+000	 1.3429219381e+000	-1.5015756909e+000
 1.4851244948e+000	 1.3593968591e+000	-1.5308688847e+000
 1.4700259680e+000	 1.3757101169e+000	-1.5719488243e+000
 1.4547454439e+000	 1.3918586234e+000	-1.6213428569e+000
 1.4392856354e+000	 1.4078393485e+000	-1.6756028129e+000
 1.4236493219e+000	 1.4236493219e+000	-1.7313105233e+000
 1.4078393485e+000	 1.4392856354e+000	-1.7850832702e+000
 1.3918586234e+000	 1.4547454439e+000	-1.8335791595e+000
 1.3757101169e+000	 1.4700259680e+000	-1.8735024037e+000
 1.3593968591e+000	 1.4851244948e+000	-1.9016085019e+000
 1.3429219381e+000	 1.5000383802e+000	-1.9147093085e+000
 1.5199073264e+000	 1.3607097787e+000	-1.4943592313e+000
 1.5047958972e+000	 1.3774029203e+000	-1.5217745018e+000
 1.4894973809e+000	 1.3939322574e+000	-1.5594066723e+000
 1.4740144568e+000	 1.4102946610e+000	-1.6042811673e+000
 1.4583498735e+000	 1.4264870608e+000	-1.6534424115e+000
 1.4425064473e+000	 1.4425064473e+000	-1.7039584875e+000
 1.4264870608e+000	 1.4583498735e+000	-1.7529257351e+000
 1.4102946610e+000	 1.4740144568e+000	-1.7974732824e+000
 1.3939322574e+000	 1.4894973809e+000	-1.8347674962e+000
 1.3774029203e+000	 1.5047958972e+000	-1.8620163450e+000
 1.3607097787e+000	 1.5199073264e+000	-1.8764736628e+000
 1.5397762725e+000	 1.3784976194e+000	-1.5012979208e+000
 1.5244672996e+000	 1.3954089816e+000	-1.5253644114e+000
 1.5089687939e+000	 1.4121543980e+000	-1.5575527566e+000
 1.4932834697e+000	 1.4287306986e+000	-1.5954767208e+000
 1.4774141115e+000	 1.4451347731e+000	-1.6367623937e+000
 1.4613635726e+000	 1.4613635726e+000	-1.6790518135e+000
 1.4451347731e+000	 1.4774141115e+000	-1.7200065421e+000
 1.4287306986e+000	 1.4932834697e+000	-1.7573111824e+000
 1.4121543980e+000	 1.5089687939e+000	-1.7886768307e+000
 1.3954089816e+000	 1.5244672996e+000	-1.8118444556e+000
 1.3784976194e+000	 1.5397762725e+000	-1.8245881972e+000
 1.2006192129e+000	 1.3410868110e+000	-1.9630270791e+000
 1.1857460943e+000	 1.3542549321e+000	-1.9516892473e+000
 1.1707340736e+000	 1.3672533887e+000	-1.9477267835e+000
 1.1555860590e+000	 1.3800800090e+000	-1.9490647465e+000
 1.1403050036e+000	 1.3927326875e+000	-1.9536667512e+000
 1.1248939033e+000	 1.4052093865e+000	-1.9595404890e+000
 1.1093557947e+000	 1.4175081369e+000	-1.9647432100e+000
 1.0936937532e+000	 1.4296270391e+000	-1.9673871502e+000
 1.0779108915e+000	 1.4415642644e+000	-1.9656448849e+000
 1.0620103567e+000	 1.4533180553e+000	-1.9577545899e+000
 1.0459953290e+000	 1.4648867267e+000	-1.9420251936e+000
 1.2184070535e+000	 1.3609557572e+000	-1.9791183706e+000
 1.2033135815e+000	 1.3743189713e+000	-1.9721639132e+000
 1.1880791493e+000	 1.3875100072e+000	-1.9708464330e+000
 1.1727067085e+000	 1.4005266610e+000	-1.9733207790e+000
 1.1571992558e+000	 1.4133667960e+000	-1.9777710465e+000
 1.1415598314e+000	 1.4260283442e+000	-1.9824158895e+000
 1.1257915171e+000	 1.4385093074e+000	-1.9855138166e+000
 1.1098974338e+000	 1.4508077579e+000	-1.9853684530e+000
 1.0938807402e+000	 1.4629218399e+000	-1.9803337499e+000
 1.0777446301e+000	 1.4748497697e+000	-1.9688191225e+000
 1.0614923309e+000	 1.4865898373e+000	-1.9492945004e+000
 1.2361948942e+000	 1.3808247033e+000	-1.9865850443e+000
 1.2208810686e+000	 1.3943830105e+000	-1.9837827146e+000
 1.2054242250e+000	 1.4077666258e+000	-1.9852041700e+000
 1.1898273579e+000	 1.4209733130e+000	-1.9891783117e+000
 1.1740935079e+000	 1.4340009045e+000	-1.9940542699e+000
 1.1582257595e+000	 1.4468473020e+000	-1.9982066005e+000
 1.1422272395e+000	 1.4595104780e+000	-2.0000404855e+000
 1.1261011144e+000	 1.4719884768e+000	-1.9979969178e+000
 1.1098505889e+000	 1.4842794153e+000	-1.9905578542e+000
 1.0934789035e+000	 1.4963814841e+000	-1.9762513156e+000
 1.0769893328e+000	 1.5082929480e+000	-1.9536564182e+000
 1.2539827349e+000	 1.4006936495e+000	-1.9872056252e+000
 1.2384485557e+000	 1.4144470496e+000	-1.9880350913e+000
 1.2227693007e+000	 1.4280232443e+000	-1.9920193917e+000
 1.2069480074e+000	 1.4414199651e+000	-1.9976076963e+000
 1.1909877600e+000	 1.4546350130e+000	-2.0032606562e+000
 1.1748916877e+000	 1.4676662597e+000	-2.0074555734e+000
 1.1586629619e+000	 1.4805116485e+000	-2.0086915938e+000
 1.1423047949e+000	 1.4931691956e+000	-2.0054949034e+000
 1.1258204375e+000	 1.5056369908e+000	-1.9964239087e+000
 1.1092131770e+000	 1.5179131985e+000	-1.9800743835e+000
 1.0924863347e+000	 1.5299960587e+000	-1.9550845620e+000
 1.2717705755e+000	 1.4205625956e+000	-1.9822581715e+000
 1.2560160429e+000	 1.4345110888e+000	-1.9859300131e+000
 1.2401143764e+000	 1.4482798629e+000	-1.9920502862e+000
 1.2240686568e+000	 1.4618666171e+000	-1.9991364867e+000
 1.2078820122e+000	 1.4752691215e+000	-2.0057090885e+000
 1.1915576158e+000	 1.4884852174e+000	-2.0102967761e+000
 1.1750986843e+000	 1.5015128191e+000	-2.0114417167e+000
 1.1585084755e+000	 1.5143499144e+000	-2.0077048523e+000
 1.1417902862e+000	 1.5269945662e+000	-1.9976711928e+000
 1.1249474504e+000	 1.5394449129e+000	-1.9799550892e+000
 1.1079833366e+000	 1.5516991694e+000	-1.9532054697e+000
 1.2895584161e+000	 1.4404315418e+000	-1.9725417088e+000
 1.2735835300e+000	 1.4545751280e+000	-1.9780160611e+000
 1.2574594521e+000	 1.4685364814e+000	-1.9856126041e+000
 1.2411893063e+000	 1.4823132692e+000	-1.9938669476e+000
 1.2247762643e+000	 1.4959032300e+000	-2.0013094017e+000
 1.2082235439e+000	 1.5093041752e+000	-2.0064703577e+000
 1.1915344067e+000	 1.5225139896e+000	-2.0078857253e+000
 1.1747121560e+000	 1.5355306332e+000	-2.0041024045e+000
 1.1577601349e+000	 1.5483521417e+000	-1.9936837721e+000
 1.1406817238e+000	 1.5609766273e+000	-1.9752151628e+000
 1.1234803385e+000	 1.5734022801e+000	-1.9473093258e+000
 1.3073462568e+000	 1.4603004879e+000	-1.9583968037e+000
 1.2911510171e+000	 1.4746391672e+000	-1.9644007567e+000
 1.2748045278e+000	 1.4887930999e+000	-1.9725977777e+000
 1.2583099557e+000	 1.5027599212e+000	-1.9814930103e+000
 1.2416705164e+000	 1.5165373385e+000	-1.9895782260e+000
 1.2248894720e+000	 1.5301231329e+000	-1.9953374388e+000
 1.2079701291e+000	 1.5435151602e+000	-1.9972525915e+000
 1.1909158366e+000	 1.5567113521e+000	-1.9938092886e+000
 1.1737299836e+000	 1.5697097171e+000	-1.9835025577e+000
 1.1564159973e+000	 1.5825083417e+000	-1.9648426170e+000
 1.1389773404e+000	 1.5951053908e+000	-1.9363606274e+000
 1.3251340974e+000	 1.4801694341e+000	-1.9397253574e+000
 1.3087185043e+000	 1.4947032064e+000	-1.9447692067e+000
 1.2921496035e+000	 1.5090497185e+000	-1.9524904523e+000
 1.2754306052e+000	 1.5232065733e+000	-1.9613167288e+000
 1.2585647686e+000	 1.5371714470e+000	-1.9696544147e+000
 1.2415554001e+000	 1.5509420906e+000	-1.9758945645e+000
 1.2244058515e+000	 1.5645163307e+000	-1.9784189248e+000
 1.2071195171e+000	 1.5778920709e+000	-1.9756060110e+000
 1.1896998323e+000	 1.5910672926e+000	-1.9658372214e+000
 1.1721502707e+000	 1.6040400561e+000	-1.9475029670e+000
 1.1544743423e+000	 1.6168085014e+000	-1.9190087969e+000
 1.3429219381e+000	 1.5000383802e+000	-1.9147093085e+000
 1.3262859914e+000	 1.5147672456e+000	-1.9184021299e+000
 1.3094946792e+000	 1.5293063370e+000	-1.9243854818e+000
 1.2925512546e+000	 1.5436532253e+000	-1.9322642810e+000
 1.2754590207e+000	 1.5578055555e+000	-1.9403140933e+000
 1.2582213282e+000	 1.5717610484e+000	-1.9467878485e+000
 1.2408415739e+000	 1.5855175013e+000	-1.9499222681e+000
 1.2233231977e+000	 1.5990727897e+000	-1.9479443631e+000
 1.2056696810e+000	 1.6124248680e+000	-1.9390779794e+000
 1.1878845441e+000	 1.6255717704e+000	-1.9215503661e+000
 1.1699713442e+000	 1.6385116121e+000	-1.8935987457e+000
 1.3607097787e+000	 1.5199073264e+000	-1.8764736628e+000
 1.3438534785e+000	 1.5348312848e+000	-1.8827790578e+000
 1.3268397549e+000	 1.5495629556e+000	-1.8870044392e+000
 1.3096719041e+000	 1.5640998774e+000	-1.8929015578e+000
 1.2923532728e+000	 1.5784396640e+000	-1.8999853648e+000
 1.2748872564e+000	 1.5925800061e+000	-1.9063268402e+000
 1.2572772963e+000	 1.6065186718e+000	-1.9099741734e+000
 1.2395268783e+000	 1.6202535085e+000	-1.9089597610e+000
 1.2216395297e+000	 1.6337824434e+000	-1.9013072586e+000
 1.2036188176e+000	 1.6471034848e+000	-1.8850386623e+000
 1.1854683461e+000	 1.6602147228e+000	-1.8581813955e+000
 1.3784976194e+000	 1.5397762725e+000	-1.8245881972e+000
 1.3614209657e+000	 1.5548953239e+000	-1.8314290293e+000
 1.3441848306e+000	 1.5698195741e+000	-1.8373823897e+000
 1.3267925536e+000	 1.5845465294e+000	-1.8414493774e+000
 1.3092475249e+000	 1.5990737725e+000	-1.8467627037e+000
 1.2915531845e+000	 1.6133989638e+000	-1.8524981359e+000
 1.2737130187e+000	 1.6275198424e+000	-1.8564730770e+000
 1.2557305588e+000	 1.6414342274e+000	-1.8564834345e+000
 1.2376093784e+000	 1.6551400189e+000	-1.8503112539e+000
 1.2193530910e+000	 1.6686351992e+000	-1.8357323853e+000
 1.2009653480e+000	 1.6819178335e+000	-1.8105241584e+000
 1.0459953290e+000	 1.4648867267e+000	-1.9420251936e+000
 1.0298690189e+000	 1.4762686658e+000	-1.9235808671e+000
 1.0136346645e+000	 1.4874623321e+000	-1.9077572940e+000
 9.9729552980e-001	 1.4984662587e+000	-1.8933007634e+000
 9.8085490370e-001	 1.5092790533e+000	-1.8790224906e+000
 9.6431609743e-001	 1.5198993990e+000	-1.8638346549e+000
 9.4768244256e-001	 1.5303260540e+000	-1.8467343628e+000
 9.3095728892e-001	 1.5405578528e+000	-1.8268124715e+000
 9.1414400241e-001	 1.5505937056e+000	-1.8032573438e+000
 8.9724596293e-001	 1.5604325990e+000	-1.7753583704e+000
 8.8026656221e-001	 1.5700735960e+000	-1.7425092526e+000
 1.0614923309e+000	 1.4865898373e+000	-1.9492945004e+000
 1.0451271006e+000	 1.4981404063e+000	-1.9270375286e+000
 1.0286522252e+000	 1.5094999130e+000	-1.9074599221e+000
 1.0120710171e+000	 1.5206668688e+000	-1.8893363815e+000
 9.9538681402e-001	 1.5316398610e+000	-1.8715255661e+000
 9.7860297614e-001	 1.5424175529e+000	-1.8529497930e+000
 9.6172288443e-001	 1.5529986847e+000	-1.8326348354e+000
 9.4474993835e-001	 1.5633820732e+000	-1.8096913891e+000
 9.2768755366e-001	 1.5735666128e+000	-1.7833243877e+000
 9.1053916034e-001	 1.5835512749e+000	-1.7528366669e+000
 8.9330820037e-001	 1.5933351085e+000	-1.7176323909e+000
 1.0769893328e+000	 1.5082929480e+000	-1.9536564182e+000
 1.0603851823e+000	 1.5200121467e+000	-1.9282446307e+000
 1.0436697858e+000	 1.5315374938e+000	-1.9055630633e+000
 1.0268465044e+000	 1.5428674789e+000	-1.8843982553e+000
 1.0099187243e+000	 1.5540006687e+000	-1.8636168779e+000
 9.9288985485e-001	 1.5649357069e+000	-1.8421472748e+000
 9.7576332631e-001	 1.5756713154e+000	-1.8190169021e+000
 9.5854258778e-001	 1.5862062937e+000	-1.7933356122e+000
 9.4123110491e-001	 1.5965395200e+000	-1.7643047252e+000
 9.2383235774e-001	 1.6066699508e+000	-1.7312208607e+000
 9.0634983852e-001	 1.6165966211e+000	-1.6934795363e+000
 1.0924863347e+000	 1.5299960587e+000	-1.9550845620e+000
 1.0756432639e+000	 1.5418838871e+000	-1.9271519098e+000
 1.0586873465e+000	 1.5535750746e+000	-1.9020093172e+000
 1.0416219918e+000	 1.5650680890e+000	-1.8784332953e+000
 1.0244506346e+000	 1.5763614763e+000	-1.8552713543e+000
 1.0071767336e+000	 1.5874538609e+000	-1.8314536775e+000
 9.8980376818e-001	 1.5983439460e+000	-1.8059718024e+000
 9.7233523721e-001	 1.6090305142e+000	-1.7779201058e+000
 9.5477465616e-001	 1.6195124272e+000	-1.7464765140e+000
 9.3712555515e-001	 1.6297886266e+000	-1.7109121537e+000
 9.1939147667e-001	 1.6398581337e+000	-1.6705951469e+000
 1.1079833366e+000	 1.5516991694e+000	-1.9532054697e+000
 1.0909013456e+000	 1.5637556276e+000	-1.9233702477e+000
 1.0737049072e+000	 1.5756126554e+000	-1.8964099996e+000
 1.0563974791e+000	 1.5872686991e+000	-1.8710698122e+000
 1.0389825450e+000	 1.5987222840e+000	-1.8461630658e+000
 1.0214636123e+000	 1.6099720149e+000	-1.8205764722e+000
 1.0038442101e+000	 1.6210165767e+000	-1.7932826645e+000
 9.8612788664e-001	 1.6318547346e+000	-1.7633156009e+000
 9.6831820741e-001	 1.6424853344e+000	-1.7298167385e+000
 9.5041875256e-001	 1.6529073025e+000	-1.6920127941e+000
 9.3243311482e-001	 1.6631196463e+000	-1.6492260857e+000
 1.1234803385e+000	 1.5734022801e+000	-1.9473093258e+000
 1.1061594272e+000	 1.5856273680e+000	-1.9161817748e+000
 1.0887224679e+000	 1.5976502362e+000	-1.8880546645e+000
 1.0711729664e+000	 1.6094693093e+000	-1.8616207046e+000
 1.0535144553e+000	 1.6210830917e+000	-1.8356385171e+000
 1.0357504910e+000	 1.6324901689e+000	-1.8089379175e+000
 1.0178846519e+000	 1.6436892074e+000	-1.7804250218e+000
 9.9992053607e-001	 1.6546789551e+000	-1.7490959062e+000
 9.8186175866e-001	 1.6654582416e+000	-1.7140082380e+000
 9.6371194997e-001	 1.6760259784e+000	-1.6743328814e+000
 9.4547475298e-001	 1.6863811589e+000	-1.6293282614e+000
 1.1389773404e+000	 1.5951053908e+000	-1.9363606274e+000
 1.1214175089e+000	 1.6074991084e+000	-1.9045499531e+000
 1.1037400286e+000	 1.6196878171e+000	-1.8759206405e+000
 1.0859484537e+000	 1.6316699194e+000	-1.8490924875e+000
 1.0680463656e+000	 1.6434438993e+000	-1.8227491332e+000
 1.0500373697e+000	 1.6550083229e+000	-1.7956436112e+000
 1.0319250938e+000	 1.6663618381e+000	-1.7666037305e+000
 1.0137131855e+000	 1.6775031755e+000	-1.7345372668e+000
 9.9540530991e-001	 1.6884311488e+000	-1.6984468627e+000
 9.7700514737e-001	 1.6991446542e+000	-1.6573972990e+000
 9.5851639113e-001	 1.7096426715e+000	-1.6105733950e+000
 1.1544743423e+000	 1.6168085014e+000	-1.9190087969e+000
 1.1366755906e+000	 1.6293708489e+000	-1.8871296414e+000
 1.1187575892e+000	 1.6417253979e+000	-1.8586825805e+000
 1.1007239411e+000	 1.6538705295e+000	-1.8321943613e+000
 1.0825782759e+000	 1.6658047070e+000	-1.8062537975e+000
 1.0643242484e+000	 1.6775264769e+000	-1.7795176242e+000
 1.0459655357e+000	 1.6890344687e+000	-1.7507161793e+000
 1.0275058349e+000	 1.7003273960e+000	-1.7186588947e+000
 1.0089488612e+000	 1.7114040560e+000	-1.6822487449e+000
 9.9029834478e-001	 1.7222633301e+000	-1.6404527633e+000
 9.7155802928e-001	 1.7329041841e+000	-1.5923558975e+000
 1.1699713442e+000	 1.6385116121e+000	-1.8935987457e+000
 1.1519336722e+000	 1.6512425893e+000	-1.8622771441e+000
 1.1337751499e+000	 1.6637629787e+000	-1.8347220241e+000
 1.1154994284e+000	 1.6760711396e+000	-1.8093473187e+000
 1.0971101862e+000	 1.6881655147e+000	-1.7846275370e+000
 1.0786111271e+000	 1.7000446309e+000	-1.7591039493e+000
 1.0600059775e+000	 1.7117070994e+000	-1.7313905953e+000
 1.0412984844e+000	 1.7231516164e+000	-1.7001801010e+000
 1.0224924124e+000	 1.7343769632e+000	-1.6642492863e+000
 1.0035915422e+000	 1.7453820060e+000	-1.6224749787e+000
 9.8459966744e-001	 1.7561656967e+000	-1.5737998505e+000
 1.1854683461e+000	 1.6602147228e+000	-1.8581813955e+000
 1.1671917539e+000	 1.6731143297e+000	-1.8280602450e+000
 1.1487927106e+000	 1.6858005595e+000	-1.8021369705e+000
 1.1302749157e+000	 1.6982717497e+000	-1.7786932846e+000
 1.1116420965e+000	 1.7105263223e+000	-1.7560702596e+000
 1.0928980058e+000	 1.7225627848e+000	-1.7326748687e+000
 1.0740464194e+000	 1.7343797301e+000	-1.7069863485e+000
 1.0550911338e+000	 1.7459758369e+000	-1.6775623654e+000
 1.0360359637e+000	 1.7573498703e+000	-1.6430449701e+000
 1.0168847396e+000	 1.7685006818e+000	-1.6021663225e+000
 9.9764130559e-001	 1.7794272093e+000	-1.5537660791e+000
 1.2009653480e+000	 1.6819178335e+000	-1.8105241584e+000
 1.1824498355e+000	 1.6949860702e+000	-1.7822682276e+000
 1.1638102713e+000	 1.7078381404e+000	-1.7587514616e+000
 1.1450504030e+000	 1.7204723598e+000	-1.7381042876e+000
 1.1261740068e+000	 1.7328871300e+000	-1.7185155403e+000
 1.1071848845e+000	 1.7450809388e+000	-1.6982393846e+000
 1.0880868613e+000	 1.7570523608e+000	-1.6756020578e+000
 1.0688837832e+000	 1.7688000574e+000	-1.6490084098e+000
 1.0495795149e+000	 1.7803227775e+000	-1.6169482270e+000
 1.0301779370e+000	 1.7916193577e+000	-1.5780023209e+000
 1.0106829438e+000	 1.8026887218e+000	-1.5308483684e+000
 8.8026656221e-001	 1.5700735960e+000	-1.7425092526e+000
 8.6321176607e-001	 1.5795144344e+000	-1.7074376763e+000
 8.4608244213e-001	 1.5887557923e+000	-1.6726098863e+000
 8.2888200447e-001	 1.5977969630e+000	-1.6372173147e+000
 8.1161387061e-001	 1.6066373155e+000	-1.6005790398e+000
 7.9428145945e-001	 1.6152762950e+000	-1.5621446715e+000
 7.7688818926e-001	 1.6237134218e+000	-1.5214969085e+000
 7.5943747564e-001	 1.6319482913e+000	-1.4783537622e+000
 7.4193272950e-001	 1.6399805736e+000	-1.4325704400e+000
 7.2437735518e-001	 1.6478100126e+000	-1.3841408874e+000
 7.0677474842e-001	 1.6554364262e+000	-1.3331989829e+000
 8.9330820037e-001	 1.5933351085e+000	-1.7176323909e+000
 8.7600072794e-001	 1.6029158183e+000	-1.6806337486e+000
 8.5861762355e-001	 1.6122940921e+000	-1.6444238688e+000
 8.4116235185e-001	 1.6214692126e+000	-1.6080896971e+000
 8.2363838099e-001	 1.6304405399e+000	-1.5708495622e+000
 8.0604918054e-001	 1.6392075107e+000	-1.5320563588e+000
 7.8839821939e-001	 1.6477696382e+000	-1.4912003913e+000
 7.7068896374e-001	 1.6561265119e+000	-1.4479118705e+000
 7.5292487508e-001	 1.6642777969e+000	-1.4019630602e+000
 7.3510940813e-001	 1.6722232334e+000	-1.3532700676e+000
 7.1724600897e-001	 1.6799626365e+000	-1.3018942748e+000
 9.0634983852e-001	 1.6165966211e+000	-1.6934795363e+000
 8.8878968982e-001	 1.6263172021e+000	-1.6542573213e+000
 8.7115280498e-001	 1.6358323918e+000	-1.6163284063e+000
 8.5344269924e-001	 1.6451414623e+000	-1.5786781243e+000
 8.3566289138e-001	 1.6542437644e+000	-1.5404269034e+000
 8.1781690162e-001	 1.6631387264e+000	-1.5008337429e+000
 7.9990824952e-001	 1.6718258546e+000	-1.4592993387e+000
 7.8194045185e-001	 1.6803047325e+000	-1.4153688521e+000
 7.6391702065e-001	 1.6885750202e+000	-1.3687343143e+000
 7.4584146108e-001	 1.6966364542e+000	-1.3192366637e+000
 7.2771726952e-001	 1.7044888469e+000	-1.2668674114e+000
 9.1939147667e-001	 1.6398581337e+000	-1.6705951469e+000
 9.0157865169e-001	 1.6497185860e+000	-1.6290079553e+000
 8.8368798640e-001	 1.6593706915e+000	-1.5891810856e+000
 8.6572304662e-001	 1.6688137120e+000	-1.5500005735e+000
 8.4768740177e-001	 1.6780469888e+000	-1.5104912335e+000
 8.2958462271e-001	 1.6870699421e+000	-1.4698204250e+000
 8.1141827964e-001	 1.6958820710e+000	-1.4273014570e+000
 7.9319193996e-001	 1.7044829530e+000	-1.3823966241e+000
 7.7490916622e-001	 1.7128722434e+000	-1.3347198674e+000
 7.5657351403e-001	 1.7210496750e+000	-1.2840390565e+000
 7.3818853007e-001	 1.7290150572e+000	-1.2302778859e+000
 9.3243311482e-001	 1.6631196463e+000	-1.6492260857e+000
 9.1436761356e-001	 1.6731199699e+000	-1.6052885757e+000
 8.9622316782e-001	 1.6829089912e+000	-1.5635439179e+000
 8.7800339400e-001	 1.6924859617e+000	-1.5227806346e+000
 8.5971191215e-001	 1.7018502132e+000	-1.4819296810e+000
 8.4135234380e-001	 1.7110011578e+000	-1.4400684969e+000
 8.2292830977e-001	 1.7199382875e+000	-1.3964246877e+000
 8.0444342807e-001	 1.7286611736e+000	-1.3503793247e+000
 7.8590131179e-001	 1.7371694667e+000	-1.3014698603e+000
 7.6730556697e-001	 1.7454628958e+000	-1.2493926507e+000
 7.4865979062e-001	 1.7535412676e+000	-1.1940050836e+000
 9.4547475298e-001	 1.6863811589e+000	-1.6293282614e+000
 9.2715657544e-001	 1.6965213537e+000	-1.5832119812e+000
 9.0875834925e-001	 1.7064472909e+000	-1.5396897128e+000
 8.9028374139e-001	 1.7161582113e+000	-1.4974537466e+000
 8.7173642254e-001	 1.7256534376e+000	-1.4553424265e+000
 8.5312006488e-001	 1.7349323735e+000	-1.4123444853e+000
 8.3443833989e-001	 1.7439945039e+000	-1.3676029971e+000
 8.1569491618e-001	 1.7528393942e+000	-1.3204189405e+000
 7.9689345736e-001	 1.7614666900e+000	-1.2702543643e+000
 7.7803761992e-001	 1.7698761166e+000	-1.2167351500e+000
 7.5913105116e-001	 1.7780674779e+000	-1.1596533675e+000
 9.5851639113e-001	 1.7096426715e+000	-1.6105733950e+000
 9.3994553731e-001	 1.7199227376e+000	-1.5626074710e+000
 9.2129353067e-001	 1.7299855906e+000	-1.5176085633e+000
 9.0256408877e-001	 1.7398304610e+000	-1.4741735356e+000
 8.8376093293e-001	 1.7494566620e+000	-1.4310488902e+000
 8.6488778597e-001	 1.7588635892e+000	-1.3871353830e+000
 8.4594837002e-001	 1.7680507203e+000	-1.3414922454e+000
 8.2694640429e-001	 1.7770176148e+000	-1.2933410061e+000
 8.0788560293e-001	 1.7857639133e+000	-1.2420689053e+000
 7.8876967287e-001	 1.7942893373e+000	-1.1872318951e+000
 7.6960231171e-001	 1.8025936882e+000	-1.1285572212e+000
 9.7155802928e-001	 1.7329041841e+000	-1.5923558975e+000
 9.5273449919e-001	 1.7433241214e+000	-1.5430275766e+000
 9.3382871209e-001	 1.7535238903e+000	-1.4970144285e+000
 9.1484443615e-001	 1.7635027107e+000	-1.4528182453e+000
 8.9578544332e-001	 1.7732598864e+000	-1.4090940046e+000
 8.7665550706e-001	 1.7827948048e+000	-1.3646547599e+000
 8.5745840015e-001	 1.7921069367e+000	-1.3184761289e+000
 8.3819789240e-001	 1.8011958353e+000	-1.2697003710e+000
 8.1887774850e-001	 1.8100611366e+000	-1.2176400478e+000
 7.9950172581e-001	 1.8187025581e+000	-1.1617812580e+000
 7.8007357226e-001	 1.8271198986e+000	-1.1017864448e+000
 9.8459966744e-001	 1.7561656967e+000	-1.5737998505e+000
 9.6552346106e-001	 1.7667255053e+000	-1.5237548904e+000
 9.4636389352e-001	 1.7770621900e+000	-1.4773518069e+000
 9.2712478354e-001	 1.7871749603e+000	-1.4329972512e+000
 9.0780995370e-001	 1.7970631108e+000	-1.3892545653e+000
 8.8842322815e-001	 1.8067260205e+000	-1.3448489445e+000
 8.6896843027e-001	 1.8161631531e+000	-1.2986721876e+000
 8.4944938051e-001	 1.8253740559e+000	-1.2497870277e+000
 8.2986989407e-001	 1.8343583599e+000	-1.1974310356e+000
 8.1023377876e-001	 1.8431157789e+000	-1.1410200883e+000
 7.9054483281e-001	 1.8516461089e+000	-1.0801513984e+000
 9.9764130559e-001	 1.7794272093e+000	-1.5537660791e+000
 9.7831242294e-001	 1.7901268891e+000	-1.5038089813e+000
 9.5889907494e-001	 1.8006004897e+000	-1.4578024910e+000
 9.3940513092e-001	 1.8108472100e+000	-1.4140576502e+000
 9.1983446409e-001	 1.8208663352e+000	-1.3710456522e+000
 9.0019094924e-001	 1.8306572362e+000	-1.3274032714e+000
 8.8047846040e-001	 1.8402193695e+000	-1.2819378731e+000
 8.6070086862e-001	 1.8495522765e+000	-1.2336319933e+000
 8.4086203964e-001	 1.8586555832e+000	-1.1816474826e+000
 8.2096583171e-001	 1.8675289997e+000	-1.1253292051e+000
 8.0101609336e-001	 1.8761723193e+000	-1.0642082886e+000
 1.0106829438e+000	 1.8026887218e+000	-1.5308483684e+000
 9.9110138481e-001	 1.8135282730e+000	-1.4819533891e+000
 9.7143425637e-001	 1.8241387894e+000	-1.4372923963e+000
 9.5168547831e-001	 1.8345194597e+000	-1.3950909202e+000
 9.3185897448e-001	 1.8446695596e+000	-1.3537271139e+000
 9.1195867032e-001	 1.8545884519e+000	-1.3117483872e+000
 8.9198849053e-001	 1.8642755859e+000	-1.2678766709e+000
 8.7195235673e-001	 1.8737304971e+000	-1.2210132433e+000
 8.5185418521e-001	 1.8829528065e+000	-1.1702431101e+000
 8.3169788466e-001	 1.8919422205e+000	-1.1148389324e+000
 8.1148735391e-001	 1.9006985296e+000	-1.0542644950e+000
 7.0677474842e-001	 1.6554364262e+000	-1.3331989829e+000
 6.8912564429e-001	 1.6628608034e+000	-1.2833680549e+000
 6.7143605513e-001	 1.6700819490e+000	-1.2381191756e+000
 6.5370934202e-001	 1.6770998984e+000	-1.1962487380e+000
 6.3594884997e-001	 1.6839147584e+000	-1.1542094647e+000
 6.1815790620e-001	 1.6905267052e+000	-1.1114639036e+000
 6.0033981835e-001	 1.6969359845e+000	-1.0678358246e+000
 5.8249787284e-001	 1.7031429098e+000	-1.0233472987e+000
 5.6463533321e-001	 1.7091478619e+000	-9.7821952323e-001
 5.4675543847e-001	 1.7149512879e+000	-9.3287234283e-001
 5.2886140161e-001	 1.7205536997e+000	-8.8792251568e-001
 7.1724600897e-001	 1.6799626365e+000	-1.3018942748e+000
 6.9933542355e-001	 1.6874970101e+000	-1.2517048657e+000
 6.8138375330e-001	 1.6948251409e+000	-1.2063213797e+000
 6.6339440909e-001	 1.7019470652e+000	-1.1655631583e+000
 6.4537078549e-001	 1.7088628910e+000	-1.1261502832e+000
 6.2731625900e-001	 1.7155727975e+000	-1.0859844252e+000
 6.0923418628e-001	 1.7220770338e+000	-1.0447088743e+000
 5.9112790244e-001	 1.7283759182e+000	-1.0021852323e+000
 5.7300071935e-001	 1.7344698370e+000	-9.5849438428e-001
 5.5485592404e-001	 1.7403592440e+000	-9.1393603123e-001
 5.3669677708e-001	 1.7460446586e+000	-8.6902684181e-001
 7.2771726952e-001	 1.7044888469e+000	-1.2668674114e+000
 7.0954520282e-001	 1.7121332167e+000	-1.2157641075e+000
 6.9133145148e-001	 1.7195683327e+000	-1.1697244975e+000
 6.7307947616e-001	 1.7267942319e+000	-1.1284545138e+000
 6.5479272100e-001	 1.7338110237e+000	-1.0907551153e+000
 6.3647461180e-001	 1.7406188898e+000	-1.0526017028e+000
 6.1812855421e-001	 1.7472180832e+000	-1.0131756160e+000
 5.9975793203e-001	 1.7536089266e+000	-9.7219293742e-001
 5.8136610550e-001	 1.7597918121e+000	-9.2961003577e-001
 5.6295640962e-001	 1.7657672001e+000	-8.8562307249e-001
 5.4453215256e-001	 1.7715356175e+000	-8.4066598967e-001
 7.3818853007e-001	 1.7290150572e+000	-1.2302778859e+000
 7.1975498208e-001	 1.7367694233e+000	-1.1778581216e+000
 7.0127914966e-001	 1.7443115246e+000	-1.1307784553e+000
 6.8276454324e-001	 1.7516413986e+000	-1.0885614234e+000
 6.6421465652e-001	 1.7587591563e+000	-1.0508719049e+000
 6.4563296460e-001	 1.7656649822e+000	-1.0142789999e+000
 6.2702292214e-001	 1.7723591325e+000	-9.7628276933e-001
 6.0838796163e-001	 1.7788419349e+000	-9.3646792475e-001
 5.8973149165e-001	 1.7851137872e+000	-8.9468145174e-001
 5.7105689519e-001	 1.7911751561e+000	-8.5103204730e-001
 5.5236752804e-001	 1.7970265765e+000	-8.0588789442e-001
 7.4865979062e-001	 1.7535412676e+000	-1.1940050836e+000
 7.2996476135e-001	 1.7614056299e+000	-1.1400226985e+000
 7.1122684783e-001	 1.7690547165e+000	-1.0916612556e+000
 6.9244961031e-001	 1.7764885653e+000	-1.0482707459e+000
 6.7363659204e-001	 1.7837072890e+000	-1.0093971553e+000
 6.5479131740e-001	 1.7907110745e+000	-9.7370027050e-001
 6.3591729007e-001	 1.7975001819e+000	-9.3682132145e-001
 6.1701799122e-001	 1.8040749433e+000	-8.9787570124e-001
 5.9809687779e-001	 1.8104357623e+000	-8.5661551474e-001
 5.7915738076e-001	 1.8165831122e+000	-8.1307757899e-001
 5.6020290351e-001	 1.8225175354e+000	-7.6758093127e-001
 7.5913105116e-001	 1.7780674779e+000	-1.1596533675e+000
 7.4017454062e-001	 1.7860418365e+000	-1.1040219379e+000
 7.2117454600e-001	 1.7937979084e+000	-1.0542835528e+000
 7.0213467738e-001	 1.8013357320e+000	-1.0096256026e+000
 6.8305852755e-001	 1.8086554216e+000	-9.6943874353e-001
 6.6394967020e-001	 1.8157571668e+000	-9.3326155671e-001
 6.4481165800e-001	 1.8226412312e+000	-8.9731824299e-001
 6.2564802082e-001	 1.8293079517e+000	-8.5904169688e-001
 6.0646226394e-001	 1.8357577374e+000	-8.1810304531e-001
 5.8725786634e-001	 1.8419910683e+000	-7.7448235401e-001
 5.6803827899e-001	 1.8480084943e+000	-7.2846581294e-001
 7.6960231171e-001	 1.8025936882e+000	-1.1285572212e+000
 7.5038431988e-001	 1.8106780431e+000	-1.0713531662e+000
 7.3112224418e-001	 1.8185411003e+000	-1.0202932882e+000
 7.1181974445e-001	 1.8261828987e+000	-9.7441146088e-001
 6.9248046307e-001	 1.8336035543e+000	-9.3295162965e-001
 6.7310802300e-001	 1.8408032591e+000	-8.9536964471e-001
 6.5370602593e-001	 1.8477822806e+000	-8.6002833021e-001
 6.3427805041e-001	 1.8545409601e+000	-8.2234335029e-001
 6.1482765009e-001	 1.8610797125e+000	-7.8161102813e-001
 5.9535835191e-001	 1.8673990244e+000	-7.3776938345e-001
 5.7587365447e-001	 1.8734994532e+000	-6.9108777950e-001
 7.8007357226e-001	 1.8271198986e+000	-1.1017864448e+000
 7.6059409915e-001	 1.8353142497e+000	-1.0432519035e+000
 7.4106994236e-001	 1.8432842922e+000	-9.9108037976e-001
 7.2150481152e-001	 1.8510300654e+000	-9.4416049240e-001
 7.0190239858e-001	 1.8585516869e+000	-9.0159728286e-001
 6.8226637580e-001	 1.8658493514e+000	-8.6271440800e-001
 6.6260039386e-001	 1.8729233299e+000	-8.2692616254e-001
 6.4290808001e-001	 1.8797739685e+000	-7.8990233815e-001
 6.2319303624e-001	 1.8864016876e+000	-7.4937501625e-001
 6.0345883748e-001	 1.8928069804e+000	-7.0525448317e-001
 5.8370902994e-001	 1.8989904121e+000	-6.5780905315e-001
 7.9054483281e-001	 1.8516461089e+000	-1.0801513984e+000
 7.7080387841e-001	 1.8599504564e+000	-1.0206968785e+000
 7.5101764053e-001	 1.8680274841e+000	-9.6778146021e-001
 7.3118987860e-001	 1.8758772322e+000	-9.2015598745e-001
 7.1132433410e-001	 1.8834998196e+000	-8.7679362957e-001
 6.9142472860e-001	 1.8908954437e+000	-8.3689243078e-001
 6.7149476179e-001	 1.8980643793e+000	-7.9987731521e-001
 6.5153810961e-001	 1.9050069769e+000	-7.6357693490e-001
 6.3155842238e-001	 1.9117236627e+000	-7.2339169698e-001
 6.1155932306e-001	 1.9182149365e+000	-6.7903895196e-001
 5.9154440542e-001	 1.9244813711e+000	-6.3080153325e-001
 8.0101609336e-001	 1.8761723193e+000	-1.0642082886e+000
 7.8101365768e-001	 1.8845866630e+000	-1.0044150846e+000
 7.6096533871e-001	 1.8927706760e+000	-9.5128466024e-001
 7.4087494567e-001	 1.9007243989e+000	-9.0343682020e-001
 7.2074626962e-001	 1.9084479522e+000	-8.5971915485e-001
 7.0058308140e-001	 1.9159415361e+000	-8.1920994384e-001
 6.8038912972e-001	 1.9232054286e+000	-7.8122050067e-001
 6.6016813920e-001	 1.9302399853e+000	-7.4495449101e-001
 6.3992380853e-001	 1.9370456378e+000	-7.0541160461e-001
 6.1965980863e-001	 1.9436228926e+000	-6.6100242984e-001
 5.9937978090e-001	 1.9499723300e+000	-6.1203970957e-001
 8.1148735391e-001	 1.9006985296e+000	-1.0542644950e+000
 7.9122343695e-001	 1.9092228696e+000	-9.9488687421e-001
 7.7091303689e-001	 1.9175138679e+000	-9.4223443200e-001
 7.5056001275e-001	 1.9255715656e+000	-8.9480196029e-001
 7.3016820514e-001	 1.9333960849e+000	-8.5131705964e-001
 7.0974143420e-001	 1.9409876284e+000	-8.1074339405e-001
 6.8928349765e-001	 1.9483464780e+000	-7.7228337383e-001
 6.6879816880e-001	 1.9554729937e+000	-7.3538026631e-001
 6.4828919468e-001	 1.9623676129e+000	-6.9693196658e-001
 6.2776029421e-001	 1.9690308487e+000	-6.5279592011e-001
 6.0721515638e-001	 1.9754632889e+000	-6.0329377432e-001
 5.2886140161e-001	 1.7205536997e+000	-8.8792251568e-001
 5.1095640776e-001	 1.7259556728e+000	-8.4084518334e-001
 4.9304361203e-001	 1.7311578440e+000	-7.8941539162e-001
 4.7512613887e-001	 1.7361609110e+000	-7.3500243883e-001
 4.5720708096e-001	 1.7409656323e+000	-6.7917852087e-001
 4.3928949790e-001	 1.7455728252e+000	-6.2371052288e-001
 4.2137641493e-001	 1.7499833653e+000	-5.7055096805e-001
 4.0347082167e-001	 1.7541981846e+000	-5.2182820918e-001
 3.8557567101e-001	 1.7582182705e+000	-4.7983595011e-001
 3.6769387793e-001	 1.7620446643e+000	-4.4702218571e-001
 3.4982831845e-001	 1.7656784599e+000	-4.2597764887e-001
 5.3669677708e-001	 1.7460446586e+000	-8.6902684181e-001
 5.1852651081e-001	 1.7515266650e+000	-8.2160970226e-001
 5.0034832706e-001	 1.7568059092e+000	-7.6983946379e-001
 4.8216539658e-001	 1.7618830995e+000	-7.1503302485e-001
 4.6398085787e-001	 1.7667590053e+000	-6.5872928940e-001
 4.4579781587e-001	 1.7714344564e+000	-6.0268028369e-001
 4.2761934061e-001	 1.7759103411e+000	-5.4884134358e-001
 4.0944846605e-001	 1.7801876053e+000	-4.9936046651e-001
 3.9128818879e-001	 1.7842672510e+000	-4.5656692375e-001
 3.7314146701e-001	 1.7881503349e+000	-4.2295923006e-001
 3.5501121934e-001	 1.7918379672e+000	-4.0119256812e-001
 5.4453215256e-001	 1.7715356175e+000	-8.4066598967e-001
 5.2609661385e-001	 1.7770976571e+000	-7.9297347994e-001
 5.0765304208e-001	 1.7824539744e+000	-7.4108537624e-001
 4.8920465428e-001	 1.7876052879e+000	-6.8625645541e-001
 4.7075463478e-001	 1.7925523784e+000	-6.2998352328e-001
 4.5230613383e-001	 1.7972960876e+000	-5.7399581796e-001
 4.3386226630e-001	 1.8018373169e+000	-5.2024439129e-001
 4.1542611042e-001	 1.8061770260e+000	-4.7089057094e-001
 3.9700070657e-001	 1.8103162315e+000	-4.2829360839e-001
 3.7858905609e-001	 1.8142560056e+000	-3.9499761877e-001
 3.6019412023e-001	 1.8179974745e+000	-3.7371791953e-001
 5.5236752804e-001	 1.7970265765e+000	-8.0588789442e-001
 5.3366671690e-001	 1.8026686493e+000	-7.5789972095e-001
 5.1495775711e-001	 1.8081020396e+000	-7.0599864098e-001
 4.9624391199e-001	 1.8133274763e+000	-6.5136880580e-001
 4.7752841169e-001	 1.8183457514e+000	-5.9545743842e-001
 4.5881445179e-001	 1.8231577187e+000	-5.3996447924e-001
 4.4010519199e-001	 1.8277642926e+000	-4.8683111045e-001
 4.2140375480e-001	 1.8321664466e+000	-4.3822727168e-001
 4.0271322434e-001	 1.8363652119e+000	-3.9653828152e-001
 3.8403664517e-001	 1.8403616762e+000	-3.6435068106e-001
 3.6537702112e-001	 1.8441569818e+000	-3.4443741616e-001
 5.6020290351e-001	 1.8225175354e+000	-7.6758093127e-001
 5.4123681994e-001	 1.8282396415e+000	-7.1921675154e-001
 5.2226247213e-001	 1.8337501048e+000	-6.6731483604e-001
 5.0328316970e-001	 1.8390496648e+000	-6.1298140745e-001
 4.8430218860e-001	 1.8441391245e+000	-5.5760793025e-001
 4.6532276975e-001	 1.8490193499e+000	-5.0285994804e-001
 4.4634811767e-001	 1.8536912684e+000	-4.5066469360e-001
 4.2738139917e-001	 1.8581558673e+000	-4.0319759438e-001
 4.0842574212e-001	 1.8624141924e+000	-3.6286779841e-001
 3.8948423424e-001	 1.8664673468e+000	-3.3230284761e-001
 3.7055992201e-001	 1.8703164891e+000	-3.1433262564e-001
 5.6803827899e-001	 1.8480084943e+000	-7.2846581294e-001
 5.4880692299e-001	 1.8538106336e+000	-6.7960967988e-001
 5.2956718716e-001	 1.8593981700e+000	-6.2765091690e-001
 5.1032242740e-001	 1.8647718532e+000	-5.7361170235e-001
 4.9107596551e-001	 1.8699324975e+000	-5.1882286568e-001
 4.7183108771e-001	 1.8748809811e+000	-4.6491185958e-001
 4.5259104336e-001	 1.8796182442e+000	-4.1378939156e-001
 4.3335904355e-001	 1.8841452879e+000	-3.6763484847e-001
 4.1413825989e-001	 1.8884631729e+000	-3.2888065049e-001
 3.9493182332e-001	 1.8925730174e+000	-3.0019567251e-001
 3.7574282290e-001	 1.8964759965e+000	-2.8446787188e-001
 5.7587365447e-001	 1.8734994532e+000	-6.9108777950e-001
 5.5637702603e-001	 1.8793816258e+000	-6.4161240656e-001
 5.3687190219e-001	 1.8850462353e+000	-5.8949694288e-001
 5.1736168511e-001	 1.8904940416e+000	-5.3567458316e-001
 4.9784974242e-001	 1.8957258705e+000	-4.8141193799e-001
 4.7833940568e-001	 1.9007426122e+000	-4.2829607743e-001
 4.5883396905e-001	 1.9055452200e+000	-3.7822011298e-001
 4.3933668792e-001	 1.9101347086e+000	-3.3336746323e-001
 4.1985077767e-001	 1.9145121533e+000	-2.9619495180e-001
 4.0037941240e-001	 1.9186786880e+000	-2.6941488763e-001
 3.8092572379e-001	 1.9226355038e+000	-2.5597627863e-001
 5.8370902994e-001	 1.8989904121e+000	-6.5780905315e-001
 5.6394712908e-001	 1.9049526179e+000	-6.0759995260e-001
 5.4417661721e-001	 1.9106943005e+000	-5.5520817949e-001
 5.2440094282e-001	 1.9162162300e+000	-5.0147417365e-001
 5.0462351933e-001	 1.9215192436e+000	-4.4759803180e-001
 4.8484772364e-001	 1.9266042434e+000	-3.9512555234e-001
 4.6507689473e-001	 1.9314721957e+000	-3.4593268947e-001
 4.4531433230e-001	 1.9361241293e+000	-3.0220857461e-001
 4.2556329545e-001	 1.9405611338e+000	-2.6643726644e-001
 4.0582700148e-001	 1.9447843586e+000	-2.4137839263e-001
 3.8610862468e-001	 1.9487950111e+000	-2.3004684738e-001
 5.9154440542e-001	 1.9244813711e+000	-6.3080153325e-001
 5.7151723213e-001	 1.9305236101e+000	-5.7978107539e-001
 5.5148133224e-001	 1.9363423657e+000	-5.2699754175e-001
 5.3144020053e-001	 1.9419384185e+000	-4.7319600842e-001
 5.1139729624e-001	 1.9473126166e+000	-4.1950905068e-001
 4.9135604160e-001	 1.9524658746e+000	-3.6744171196e-001
 4.7131982042e-001	 1.9573991715e+000	-3.1885474451e-001
 4.5129197667e-001	 1.9621135499e+000	-2.7594629342e-001
 4.3127581323e-001	 1.9666101143e+000	-2.4123219886e-001
 4.1127459056e-001	 1.9708900293e+000	-2.1752509364e-001
 3.9129152557e-001	 1.9749545184e+000	-2.0791247391e-001
 5.9937978090e-001	 1.9499723300e+000	-6.1203970957e-001
 5.7908733518e-001	 1.9560946022e+000	-5.6019114631e-001
 5.5878604727e-001	 1.9619904309e+000	-5.0692834749e-001
 5.3847945824e-001	 1.9676606069e+000	-4.5289957543e-001
 5.1817107315e-001	 1.9731059897e+000	-3.9917016512e-001
 4.9786435957e-001	 1.9783275057e+000	-3.4720633296e-001
 4.7756274611e-001	 1.9833261473e+000	-2.9885711098e-001
 4.5726962105e-001	 1.9881029706e+000	-2.5633459226e-001
 4.3698833100e-001	 1.9926590947e+000	-2.2219267730e-001
 4.1672217963e-001	 1.9969956999e+000	-1.9930451306e-001
 3.9647442646e-001	 2.0011140257e+000	-1.9085705759e-001
 6.0721515638e-001	 1.9754632889e+000	-6.0329377432e-001
 5.8665743822e-001	 1.9816655944e+000	-5.5068526624e-001
 5.6609076229e-001	 1.9876384961e+000	-4.9690735236e-001
 5.4551871594e-001	 1.9933827953e+000	-4.4251118866e-001
 5.2494485006e-001	 1.9988993627e+000	-3.8849644295e-001
 5.0437267753e-001	 2.0041891369e+000	-3.3662749766e-001
 4.8380567180e-001	 2.0092531230e+000	-2.8934551437e-001
 4.6324726543e-001	 2.0140923913e+000	-2.4868938928e-001
 4.4270084878e-001	 2.0187080752e+000	-2.1699654499e-001
 4.2216976871e-001	 2.0231013705e+000	-1.9690541578e-001
 4.0165732735e-001	 2.0272735331e+000	-1.9133533779e-001
 3.4982831845e-001	 1.7656784599e+000	-4.2597764887e-001
 3.3198450320e-001	 1.7691203005e+000	-4.0535318811e-001
 3.1416254162e-001	 1.7723719412e+000	-3.7395979567e-001
 2.9636518172e-001	 1.7754346262e+000	-3.3480227943e-001
 2.7859512887e-001	 1.7783096463e+000	-2.9096551103e-001
 2.6085504501e-001	 1.7809983380e+000	-2.4560193820e-001
 2.4314754789e-001	 1.7835020816e+000	-2.0191913818e-001
 2.2547521035e-001	 1.7858223000e+000	-1.6316748690e-001
 2.0784055965e-001	 1.7879604570e+000	-1.3262801459e-001
 1.9024607690e-001	 1.7899180559e+000	-1.1360051468e-001
 1.7269419643e-001	 1.7916966383e+000	-1.0939196857e-001
 3.5501121934e-001	 1.7918379672e+000	-4.0119256812e-001
 3.3690303805e-001	 1.7953308006e+000	-3.7954473668e-001
 3.1881703421e-001	 1.7986306162e+000	-3.4644736946e-001
 3.0075599654e-001	 1.8017386765e+000	-3.0497758417e-001
 2.8272267048e-001	 1.8046562917e+000	-2.5830131350e-001
 2.6471975742e-001	 1.8073848178e+000	-2.0965972475e-001
 2.4674991390e-001	 1.8099256558e+000	-1.6235567774e-001
 2.2881575086e-001	 1.8122802495e+000	-1.1974030279e-001
 2.1091983301e-001	 1.8144500845e+000	-8.5199776491e-002
 1.9306467822e-001	 1.8164366863e+000	-6.2142368811e-002
 1.7525275689e-001	 1.8182416194e+000	-5.3985830098e-002
 3.6019412023e-001	 1.8179974745e+000	-3.7371791953e-001
 3.4182157291e-001	 1.8215413007e+000	-3.5234367586e-001
 3.2347152681e-001	 1.8248892912e+000	-3.1891316499e-001
 3.0514681135e-001	 1.8280427269e+000	-2.7657476775e-001
 2.8685021209e-001	 1.8310029370e+000	-2.2857574321e-001
 2.6858446984e-001	 1.8337712977e+000	-1.7824745704e-001
 2.5035227990e-001	 1.8363492300e+000	-1.2899064401e-001
 2.3215629136e-001	 1.8387381990e+000	-8.4260794539e-002
 2.1399910637e-001	 1.8409397119e+000	-4.7553750550e-002
 1.9588327954e-001	 1.8429553167e+000	-2.2391591166e-002
 1.7781131735e-001	 1.8447866005e+000	-1.2308883777e-002
 3.6537702112e-001	 1.8441569818e+000	-3.4443741616e-001
 3.4674010776e-001	 1.8477518008e+000	-3.2430346710e-001
 3.2812601940e-001	 1.8511479661e+000	-2.9159963925e-001
 3.0953762617e-001	 1.8543467772e+000	-2.4954631837e-001
 2.9097775370e-001	 1.8573495824e+000	-2.0147414960e-001
 2.7244918225e-001	 1.8601577775e+000	-1.5080796885e-001
 2.5395464591e-001	 1.8627728042e+000	-1.0105076339e-001
 2.3549683187e-001	 1.8651961485e+000	-5.5767759887e-002
 2.1707837973e-001	 1.8674293394e+000	-1.8570733544e-002
 1.9870188086e-001	 1.8694739471e+000	 6.8973734935e-003
 1.8036987781e-001	 1.8713315816e+000	 1.6977441632e-002
 3.7055992201e-001	 1.8703164891e+000	-3.1433262564e-001
 3.5165864261e-001	 1.8739623009e+000	-2.9610140086e-001
 3.3278051199e-001	 1.8774066411e+000	-2.6489728186e-001
 3.1392844099e-001	 1.8806508276e+000	-2.2401521263e-001
 2.9510529531e-001	 1.8836962278e+000	-1.7687310471e-001
 2.7631389466e-001	 1.8865442573e+000	-1.2699435872e-001
 2.5755701191e-001	 1.8891963783e+000	-7.7990409230e-002
 2.3883737238e-001	 1.8916540980e+000	-3.3543400327e-002
 2.2015765309e-001	 1.8939189669e+000	 2.6109057333e-003
 2.0152048219e-001	 1.8959925775e+000	 2.6699890066e-002
 1.8292843827e-001	 1.8978765627e+000	 3.4930418336e-002
 3.7574282290e-001	 1.8964759965e+000	-2.8446787188e-001
 3.5657717746e-001	 1.9001728010e+000	-2.6852236859e-001
 3.3743500458e-001	 1.9036653161e+000	-2.3932732088e-001
 3.1831925580e-001	 1.9069548779e+000	-2.0025662237e-001
 2.9923283692e-001	 1.9100428731e+000	-1.5482118167e-001
 2.8017860707e-001	 1.9129307371e+000	-1.0664991385e-001
 2.6115937792e-001	 1.9156199525e+000	-5.9470748337e-002
 2.4217791288e-001	 1.9181120475e+000	-1.7091770586e-002
 2.2323692645e-001	 1.9204085944e+000	 1.6617390578e-002
 2.0433908351e-001	 1.9225112079e+000	 3.7743824220e-002
 1.8548699874e-001	 1.9244215437e+000	 4.2349148095e-002
 3.8092572379e-001	 1.9226355038e+000	-2.5597627863e-001
 3.6149571232e-001	 1.9263833011e+000	-2.4244388443e-001
 3.4208949717e-001	 1.9299239910e+000	-2.1552577950e-001
 3.2271007062e-001	 1.9332589282e+000	-1.7868106613e-001
 3.0336037854e-001	 1.9363895185e+000	-1.3552126407e-001
 2.8404331949e-001	 1.9393172170e+000	-8.9789643745e-002
 2.6476174392e-001	 1.9420435267e+000	-4.5340568240e-002
 2.4551845339e-001	 1.9445699970e+000	-6.1189720238e-003
 2.2631619981e-001	 1.9468982219e+000	 2.3859901370e-002
 2.0715768483e-001	 1.9490298383e+000	 4.0530387380e-002
 1.8804555920e-001	 1.9509665248e+000	 3.9795805946e-002
 3.8610862468e-001	 1.9487950111e+000	-2.3004684738e-001
 3.6641424717e-001	 1.9525938012e+000	-2.1882223938e-001
 3.4674398976e-001	 1.9561826660e+000	-1.9422875650e-001
 3.2710088544e-001	 1.9595629786e+000	-1.5981886940e-001
 3.0748792015e-001	 1.9627361639e+000	-1.1931424240e-001
 2.8790803190e-001	 1.9657036968e+000	-7.6583272272e-002
 2.6836410993e-001	 1.9684671009e+000	-3.5618627295e-002
 2.4885899389e-001	 1.9710279465e+000	-5.1492610159e-004
 2.2939547317e-001	 1.9733878494e+000	 2.4553310510e-002
 2.0997628615e-001	 1.9755484687e+000	 3.5353309070e-002
 1.9060411966e-001	 1.9775115059e+000	 2.7615176180e-002
 3.9129152557e-001	 1.9749545184e+000	-2.0791247391e-001
 3.7133278202e-001	 1.9788043013e+000	-1.9867968266e-001
 3.5139848235e-001	 1.9824413410e+000	-1.7625881715e-001
 3.3149170025e-001	 1.9858670289e+000	-1.4430581237e-001
 3.1161546176e-001	 1.9890828092e+000	-1.0666396896e-001
 2.9177274431e-001	 1.9920901766e+000	-6.7339552933e-002
 2.7196647593e-001	 1.9948906751e+000	-3.0477386416e-002
 2.5219953440e-001	 1.9974858960e+000	-3.3658143150e-004
 2.3247474653e-001	 1.9998774768e+000	 1.8733438453e-002
 2.1279488748e-001	 2.0020670991e+000	 2.2379282742e-002
 1.9316268012e-001	 2.0040564870e+000	 6.2816948000e-003
 3.9647442646e-001	 2.0011140257e+000	-1.9085705759e-001
 3.7625131688e-001	 2.0050148014e+000	-1.8341988139e-001
 3.5605297494e-001	 2.0087000159e+000	-1.6334642796e-001
 3.3588251507e-001	 2.0121710793e+000	-1.3415622613e-001
 3.1574300337e-001	 2.0154294546e+000	-9.9569426086e-002
 2.9563745673e-001	 2.0184766564e+000	-6.3487995828e-002
 2.7556884194e-001	 2.0213142492e+000	-2.9977128810e-002
 2.5554007491e-001	 2.0239438455e+000	-3.2468081749e-003
 2.3555401989e-001	 2.0263671043e+000	 1.2366524563e-002
 2.1561348880e-001	 2.0285857295e+000	 1.2418245267e-002
 1.9572124058e-001	 2.0306014681e+000	-7.6261876206e-003
 4.0165732735e-001	 2.0272735331e+000	-1.9133533779e-001
 3.8116985173e-001	 2.0312253015e+000	-1.8634410076e-001
 3.6070746753e-001	 2.0349586909e+000	-1.6812257129e-001
 3.4027332989e-001	 2.0384751296e+000	-1.4016791417e-001
 3.1987054498e-001	 2.0417760999e+000	-1.0620324037e-001
 2.9950216914e-001	 2.0448631363e+000	-7.0159325154e-002
 2.7917120795e-001	 2.0477378234e+000	-3.6156515323e-002
 2.5888061541e-001	 2.0504017950e+000	-8.4867601430e-003
 2.3863329325e-001	 2.0528567318e+000	 8.4042960793e-003
 2.1843209012e-001	 2.0551043599e+000	 9.9352182976e-003
 1.9827980105e-001	 2.0571464492e+000	-8.5932641906e-003
 1.7269419643e-001	 1.7916966383e+000	-1.0939196857e-001
 1.5518468862e-001	 1.7932980092e+000	-1.0661308926e-001
 1.3772256032e-001	 1.7947235026e+000	-9.2619093617e-002
 1.2031013895e-001	 1.7959747663e+000	-7.1782322191e-002
 1.0294970236e-001	 1.7970534806e+000	-4.8397636943e-002
 8.5643478444e-002	 1.7979613563e+000	-2.6672723853e-002
 6.8393644903e-002	 1.7987001334e+000	-1.0719078858e-002
 5.1202329005e-002	 1.7992715798e+000	-4.5437030199e-003
 3.4071607412e-002	 1.7996774898e+000	-1.2041527677e-002
 1.7003506047e-002	 1.7999196823e+000	-3.6988585250e-002
 0.0000000000e+000	 1.8000000000e+000	-8.3035960257e-002
 1.7525275689e-001	 1.8182416194e+000	-5.3985830098e-002
 1.5748383600e-001	 1.8198667155e+000	-4.6694910863e-002
 1.3976299656e-001	 1.8213133283e+000	-2.7046676737e-002
 1.2209260050e-001	 1.8225831303e+000	 3.7919072926e-004
 1.0447495939e-001	 1.8236778263e+000	 3.1087245501e-002
 8.6912334157e-002	 1.8245991527e+000	 6.0676846579e-002
 6.9406934749e-002	 1.8253488752e+000	 8.4851981794e-002
 5.1960919955e-002	 1.8259287879e+000	 9.9430317239e-002
 3.4576397204e-002	 1.8263407116e+000	 1.0035144935e-001
 1.7255422436e-002	 1.8265864924e+000	 8.3684342190e-002
 0.0000000000e+000	 1.8266680000e+000	 4.5633914102e-002
 1.7781131735e-001	 1.8447866005e+000	-1.2308883777e-002
 1.5978298338e-001	 1.8464354218e+000	-2.5681769596e-003
 1.4180343280e-001	 1.8479031541e+000	 2.0710705205e-002
 1.2387506204e-001	 1.8491914942e+000	 5.2765961788e-002
 1.0600021643e-001	 1.8503021720e+000	 8.8924723401e-002
 8.8181189870e-002	 1.8512369490e+000	 1.2461457641e-001
 7.0420224594e-002	 1.8519976169e+000	 1.5537427807e-001
 5.2719510904e-002	 1.8525859960e+000	 1.7686363080e-001
 3.5081186996e-002	 1.8530039335e+000	 1.8487249004e-001
 1.7507338824e-002	 1.8532533024e+000	 1.7532888625e-001
 0.0000000000e+000	 1.8533360000e+000	 1.4430622349e-001
 1.8036987781e-001	 1.8713315816e+000	 1.6977441632e-002
 1.6208213075e-001	 1.8730041281e+000	 2.7140209965e-002
 1.4384386905e-001	 1.8744929799e+000	 5.1976173995e-002
 1.2565752359e-001	 1.8757998581e+000	 8.6563801809e-002
 1.0752547346e-001	 1.8769265177e+000	 1.2607323683e-001
 8.9450045582e-002	 1.8778747454e+000	 1.6577886431e-001
 7.1433514439e-002	 1.8786463587e+000	 2.0107100402e-001
 5.3478101853e-002	 1.8792432040e+000	 2.2746669388e-001
 3.5585976788e-002	 1.8796671553e+000	 2.4061953602e-001
 1.7759255212e-002	 1.8799201125e+000	 2.3632858335e-001
 0.0000000000e+000	 1.8800040000e+000	 2.1054622768e-001
 1.8292843827e-001	 1.8978765627e+000	 3.4930418336e-002
 1.6438127813e-001	 1.8995728343e+000	 4.3513721841e-002
 1.4588430529e-001	 1.9010828056e+000	 6.7779005288e-002
 1.2743998514e-001	 1.9024082221e+000	 1.0266458922e-001
 1.0905073050e-001	 1.9035508634e+000	 1.4320136631e-001
 9.0718901294e-002	 1.9045125418e+000	 1.8452650303e-001
 7.2446804284e-002	 1.9052951004e+000	 2.2189620089e-001
 5.4236692802e-002	 1.9059004121e+000	 2.5069747844e-001
 3.6090766580e-002	 1.9063303771e+000	 2.6645894198e-001
 1.8011171600e-002	 1.9065869225e+000	 2.6486052045e-001
 0.0000000000e+000	 1.9066720000e+000	 2.4174212362e-001
 1.8548699874e-001	 1.9244215437e+000	 4.2349148095e-002
 1.6668042550e-001	 1.9261415406e+000	 4.7369587971e-002
 1.4792474153e-001	 1.9276726314e+000	 6.8877985815e-002
 1.2922244669e-001	 1.9290165860e+000	 1.0168931373e-001
 1.1057598753e-001	 1.9301752090e+000	 1.4071026791e-001
 9.1987757006e-002	 1.9311503381e+000	 1.8095420366e-001
 7.3460094129e-002	 1.9319438422e+000	 2.1755506158e-001
 5.4995283751e-002	 1.9325576201e+000	 2.4578024144e-001
 3.6595556372e-002	 1.9329935990e+000	 2.6104238837e-001
 1.8263087988e-002	 1.9332537326e+000	 2.5891006371e-001
 0.0000000000e+000	 1.9333400000e+000	 2.3511725722e-001
 1.8804555920e-001	 1.9509665248e+000	 3.9795805946e-002
 1.6897957288e-001	 1.9527102469e+000	 3.9280270182e-002
 1.4996517778e-001	 1.9542624571e+000	 5.5782863445e-002
 1.3100490823e-001	 1.9556249499e+000	 8.4009237673e-002
 1.1210124456e-001	 1.9567995547e+000	 1.1875427519e-001
 9.3256612718e-002	 1.9577881345e+000	 1.5491836117e-001
 7.4473383974e-002	 1.9585925840e+000	 1.8752257626e-001
 5.5753874700e-002	 1.9592148282e+000	 2.1172276102e-001
 3.7100346163e-002	 1.9596568208e+000	 2.2282241289e-001
 1.8515004376e-002	 1.9599205426e+000	 2.1628438457e-001
 0.0000000000e+000	 1.9600080000e+000	 1.8774133821e-001
 1.9060411966e-001	 1.9775115059e+000	 2.7615176180e-002
 1.7127872026e-001	 1.9792789532e+000	 1.9593209430e-002
 1.5200561402e-001	 1.9808522829e+000	 2.8774069286e-002
 1.3278736978e-001	 1.9822333139e+000	 4.9765351733e-002
 1.1362650160e-001	 1.9834239004e+000	 7.7259840366e-002
 9.4525468430e-002	 1.9844259308e+000	 1.0605322642e-001
 7.5486673818e-002	 1.9852413257e+000	 1.3106067492e-001
 5.6512465649e-002	 1.9858720362e+000	 1.4733218357e-001
 3.7605135955e-002	 1.9863200426e+000	 1.5006669054e-001
 1.8766920764e-002	 1.9865873527e+000	 1.3462489639e-001
 0.0000000000e+000	 1.9866760000e+000	 9.6540751800e-002
 1.9316268012e-001	 2.0040564870e+000	 6.2816948000e-003
 1.7357786763e-001	 2.0058476595e+000	-1.0669388835e-002
 1.5404605026e-001	 2.0074421087e+000	-1.0303263970e-002
 1.3456983133e-001	 2.0088416778e+000	 1.9241680678e-003
 1.1515175863e-001	 2.0100482461e+000	 2.0606098202e-002
 9.5794324142e-002	 2.0110637272e+000	 4.0403990903e-002
 7.6499963663e-002	 2.0118900675e+000	 5.6066726125e-002
 5.7271056599e-002	 2.0125292443e+000	 6.2449708076e-002
 3.8109925747e-002	 2.0129832645e+000	 5.4533941906e-002
 1.9018837152e-002	 2.0132541627e+000	 2.7445074278e-002
 0.0000000000e+000	 2.0133440000e+000	-2.3527634093e-002
 1.9572124058e-001	 2.0306014681e+000	-7.6261876206e-003
 1.7587701501e-001	 2.0324163658e+000	-2.8412375727e-002
 1.5608648651e-001	 2.0340319344e+000	-3.1236467125e-002
 1.3635229287e-001	 2.0354500417e+000	-2.1679294207e-002
 1.1667701567e-001	 2.0366725918e+000	-5.3059119855e-003
 9.7063179855e-002	 2.0377015236e+000	 1.2353786284e-002
 7.7513253509e-002	 2.0385388092e+000	 2.5824514911e-002
 5.8029647548e-002	 2.0391864523e+000	 2.9705111869e-002
 3.8614715539e-002	 2.0396464863e+000	 1.8688128145e-002
 1.9270753540e-002	 2.0399209728e+000	-1.2420512619e-002
 0.0000000000e+000	 2.0400120000e+000	-6.8681816362e-002
 1.9827980105e-001	 2.0571464492e+000	-8.5932641906e-003
 1.7817616239e-001	 2.0589850721e+000	-2.7439407305e-002
 1.5812692275e-001	 2.0606217602e+000	-2.7430356829e-002
 1.3813475442e-001	 2.0620584056e+000	-1.4237367316e-002
 1.1820227270e-001	 2.0632969374e+000	 6.4471002788e-003
 9.8332035568e-002	 2.0643393199e+000	 2.8928873879e-002
 7.8526543355e-002	 2.0651875510e+000	 4.7531738940e-002
 5.8788238498e-002	 2.0658436604e+000	 5.6617292368e-002
 3.9119505332e-002	 2.0663097081e+000	 5.0604986829e-002
 1.9522669929e-002	 2.0665877828e+000	 2.3992363823e-002
 0.0000000000e+000	 2.0666800000e+000	-2.8624556665e-002
 2.0666800000e+000	 0.0000000000e+000	 3.1887472637e+000
 2.0665877828e+000	 1.9522669929e-002	 3.1375947262e+000
 2.0663097081e+000	 3.9119505332e-002	 3.0888831097e+000
 2.0658436604e+000	 5.8788238498e-002	 3.0422588690e+000
 2.0651875510e+000	 7.8526543355e-002	 2.9971532095e+000
 2.0643393199e+000	 9.8332035568e-002	 2.9527996495e+000
 2.0632969374e+000	 1.1820227270e-001	 2.9082513717e+000
 2.0620584056e+000	 1.3813475442e-001	 2.8623983682e+000
 2.0606217602e+000	 1.5812692275e-001	 2.8139843921e+000
 2.0589850721e+000	 1.7817616239e-001	 2.7616237437e+000
 2.0571464492e+000	 1.9827980105e-001	 2.7038179271e+000
 2.0933440000e+000	 0.0000000000e+000	 3.0383003431e+000
 2.0932505931e+000	 1.9774548532e-002	 2.9995947774e+000
 2.0929689307e+000	 3.9624219410e-002	 2.9629679251e+000
 2.0924968700e+000	 5.9546715666e-002	 2.9279298608e+000
 2.0918322956e+000	 7.9539681215e-002	 2.8938066359e+000
 2.0909731208e+000	 9.9600700963e-002	 2.8597580192e+000
 2.0899172897e+000	 1.1972730096e-001	 2.8247948595e+000
 2.0886627785e+000	 1.3991694861e-001	 2.7877960695e+000
 2.0872075977e+000	 1.6016705295e-001	 2.7475252529e+000
 2.0855497932e+000	 1.8047496491e-001	 2.7026470029e+000
 2.0836874487e+000	 2.0083797774e-001	 2.6517429149e+000
 2.1200080000e+000	 0.0000000000e+000	 2.8957636502e+000
 2.1199134033e+000	 2.0026427135e-002	 2.8652947765e+000
 2.1196281532e+000	 4.0128933488e-002	 2.8369504689e+000
 2.1191500797e+000	 6.0305192834e-002	 2.8100859391e+000
 2.1184770403e+000	 8.0552819076e-002	 2.7839052225e+000
 2.1176069217e+000	 1.0086936636e-001	 2.7574790056e+000
 2.1165376419e+000	 1.2125232922e-001	 2.7297618920e+000
 2.1152671514e+000	 1.4169914281e-001	 2.6996091082e+000
 2.1137934352e+000	 1.6220718314e-001	 2.6657926728e+000
 2.1121145144e+000	 1.8277376743e-001	 2.6270170624e+000
 2.1102284483e+000	 2.0339615444e-001	 2.5819344244e+000
 2.1466720000e+000	 0.0000000000e+000	 2.7594074932e+000
 2.1465762135e+000	 2.0278305739e-002	 2.7341107230e+000
 2.1462873758e+000	 4.0633647567e-002	 2.7112846328e+000
 2.1458032894e+000	 6.1063670002e-002	 2.6901134079e+000
 2.1451217849e+000	 8.1565956938e-002	 2.6696647313e+000
 2.1442407226e+000	 1.0213803175e-001	 2.6489075976e+000
 2.1431579941e+000	 1.2277735748e-001	 2.6267293666e+000
 2.1418715243e+000	 1.4348133700e-001	 2.6019520602e+000
 2.1403792726e+000	 1.6424731334e-001	 2.5733479293e+000
 2.1386792356e+000	 1.8507256995e-001	 2.5396543305e+000
 2.1367694478e+000	 2.0595433114e-001	 2.4995879681e+000
 2.1733360000e+000	 0.0000000000e+000	 2.6277058481e+000
 2.1732390237e+000	 2.0530184342e-002	 2.6056264663e+000
 2.1729465983e+000	 4.1138361646e-002	 2.5865568186e+000
 2.1724564990e+000	 6.1822147171e-002	 2.5694963329e+000
 2.1717665295e+000	 8.2579094799e-002	 2.5533646474e+000
 2.1708745235e+000	 1.0340669715e-001	 2.5370192993e+000
 2.1697783463e+000	 1.2430238574e-001	 2.5192724405e+000
 2.1684758971e+000	 1.4526353119e-001	 2.4989065832e+000
 2.1669651101e+000	 1.6628744353e-001	 2.4746894085e+000
 2.1652439568e+000	 1.8737137247e-001	 2.4453876819e+000
 2.1633104473e+000	 2.0851250784e-001	 2.4097803413e+000
 2.2000000000e+000	 0.0000000000e+000	 2.4993240168e+000
 2.1999018340e+000	 2.0782062946e-002	 2.4795831825e+000
 2.1996058209e+000	 4.1643075725e-002	 2.4634771145e+000
 2.1991097087e+000	 6.2580624339e-002	 2.4498093047e+000
 2.1984112742e+000	 8.3592232661e-002	 2.4373424193e+000
 2.1975083244e+000	 1.0467536255e-001	 2.4248157438e+000
 2.1963986986e+000	 1.2582741400e-001	 2.4109614209e+000
 2.1950802700e+000	 1.4704572539e-001	 2.3945194926e+000
 2.1935509476e+000	 1.6832757373e-001	 2.3742517794e+000
 2.1918086779e+000	 1.8967017500e-001	 2.3489546507e+000
 2.1898514469e+000	 2.1107068453e-001	 2.3174707587e+000
 2.2266640000e+000	 0.0000000000e+000	 2.3731071714e+000
 2.2265646442e+000	 2.1033941550e-002	 2.3558696076e+000
 2.2262650434e+000	 4.2147789804e-002	 2.3428711073e+000
 2.2257629184e+000	 6.3339101508e-002	 2.3327107234e+000
 2.2250560188e+000	 8.4605370523e-002	 2.3239881183e+000
 2.2241421253e+000	 1.0594402794e-001	 2.3153206319e+000
 2.2230190508e+000	 1.2735244226e-001	 2.3053588948e+000
 2.2216846429e+000	 1.4882791958e-001	 2.2928009979e+000
 2.2201367851e+000	 1.7036770392e-001	 2.2764052599e+000
 2.2183733991e+000	 1.9196897752e-001	 2.2550016528e+000
 2.2163924464e+000	 2.1362886123e-001	 2.2275019670e+000
 2.2533280000e+000	 0.0000000000e+000	 2.2480697121e+000
 2.2532274544e+000	 2.1285820153e-002	 2.2345129641e+000
 2.2529242659e+000	 4.2652503883e-002	 2.2256722759e+000
 2.2524161280e+000	 6.4097578677e-002	 2.2199365640e+000
 2.2517007635e+000	 8.5618508384e-002	 2.2157394819e+000
 2.2507759262e+000	 1.0721269334e-001	 2.2115759690e+000
 2.2496394030e+000	 1.2887747052e-001	 2.2060170765e+000
 2.2482890157e+000	 1.5061011377e-001	 2.1977230856e+000
 2.2467226226e+000	 1.7240783412e-001	 2.1854549647e+000
 2.2449381203e+000	 1.9426778004e-001	 2.1680842350e+000
 2.2429334459e+000	 2.1618703793e-001	 2.1446013367e+000
 2.2799920000e+000	 0.0000000000e+000	 2.1233853716e+000
 2.2798902646e+000	 2.1537698757e-002	 2.1156705246e+000
 2.2795834885e+000	 4.3157217962e-002	 2.1129149203e+000
 2.2790693377e+000	 6.4856055845e-002	 2.1132945805e+000
 2.2783455081e+000	 8.6631646245e-002	 2.1150773105e+000
 2.2774097270e+000	 1.0848135873e-001	 2.1166385738e+000
 2.2762597552e+000	 1.3040249878e-001	 2.1164753562e+000
 2.2748933886e+000	 1.5239230797e-001	 2.1132180388e+000
 2.2733084601e+000	 1.7444796431e-001	 2.1056403319e+000
 2.2715028415e+000	 1.9656658256e-001	 2.0926673506e+000
 2.2694744455e+000	 2.1874521463e-001	 2.0733819333e+000
 2.3066560000e+000	 0.0000000000e+000	 1.9983780062e+000
 2.3065530749e+000	 2.1789577360e-002	 1.9996217607e+000
 2.3062427110e+000	 4.3661932041e-002	 2.0057275813e+000
 2.3057225474e+000	 6.5614533013e-002	 2.0146589153e+000
 2.3049902527e+000	 8.7644784106e-002	 2.0245211885e+000
 2.3040435279e+000	 1.0975002413e-001	 2.0335768391e+000
 2.3028801075e+000	 1.3192752703e-001	 2.0402580322e+000
 2.3014977615e+000	 1.5417450216e-001	 2.0431770788e+000
 2.2998942975e+000	 1.7648809451e-001	 2.0411346185e+000
 2.2980675626e+000	 1.9886538508e-001	 2.0331256567e+000
 2.2960154450e+000	 2.2130339132e-001	 2.0183435711e+000
 2.3333200000e+000	 0.0000000000e+000	 1.8725130179e+000
 2.3332158851e+000	 2.2041455963e-002	 1.8867610307e+000
 2.3329019336e+000	 4.4166646119e-002	 1.9053269132e+000
 2.3323757570e+000	 6.6373010180e-002	 1.9259650805e+000
 2.3316349974e+000	 8.8657921967e-002	 1.9466255035e+000
 2.3306773288e+000	 1.1101868952e-001	 1.9654677231e+000
 2.3295004597e+000	 1.3345255529e-001	 1.9808722138e+000
 2.3281021343e+000	 1.5595669635e-001	 1.9914491236e+000
 2.3264801350e+000	 1.7852822470e-001	 1.9960444620e+000
 2.3246322838e+000	 2.0116418761e-001	 1.9937438337e+000
 2.3225564445e+000	 2.2386156802e-001	 1.9838738496e+000
 2.0571464492e+000	 1.9827980105e-001	 2.7038179271e+000
 2.0551043599e+000	 2.1843209012e-001	 2.6443569995e+000
 2.0528567318e+000	 2.3863329325e-001	 2.5875297673e+000
 2.0504017950e+000	 2.5888061541e-001	 2.5325014766e+000
 2.0477378234e+000	 2.7917120795e-001	 2.4783996353e+000
 2.0448631363e+000	 2.9950216914e-001	 2.4243289631e+000
 2.0417760999e+000	 3.1987054498e-001	 2.3693865625e+000
 2.0384751296e+000	 3.4027332989e-001	 2.3126774160e+000
 2.0349586909e+000	 3.6070746753e-001	 2.2533303228e+000
 2.0312253015e+000	 3.8116985173e-001	 2.1905143956e+000
 2.0272735331e+000	 4.0165732735e-001	 2.1234562407e+000
 2.0836874487e+000	 2.0083797774e-001	 2.6517429149e+000
 2.0816190127e+000	 2.2125026867e-001	 2.5986853804e+000
 2.0793423861e+000	 2.4171210474e-001	 2.5477075796e+000
 2.0768557760e+000	 2.6222065487e-001	 2.4978838418e+000
 2.0741574342e+000	 2.8277303362e-001	 2.4482727255e+000
 2.0712456583e+000	 3.0336630188e-001	 2.3979309578e+000
 2.0681187935e+000	 3.2399746749e-001	 2.3459275158e+000
 2.0647752345e+000	 3.4466348611e-001	 2.2913579674e+000
 2.0612134272e+000	 3.6536126199e-001	 2.2333592034e+000
 2.0574318702e+000	 3.8608764884e-001	 2.1711246947e+000
 2.0534291166e+000	 4.0683945084e-001	 2.1039204206e+000
 2.1102284483e+000	 2.0339615444e-001	 2.5819344244e+000
 2.1081336655e+000	 2.2406844723e-001	 2.5344756852e+000
 2.1058280403e+000	 2.4479091623e-001	 2.4887990765e+000
 2.1033097570e+000	 2.6556069432e-001	 2.4438864865e+000
 2.1005770451e+000	 2.8637485930e-001	 2.3987262788e+000
 2.0976281804e+000	 3.0723043461e-001	 2.3523260212e+000
 2.0944614871e+000	 3.2812439000e-001	 2.3037252688e+000
 2.0910753395e+000	 3.4905364234e-001	 2.2520085389e+000
 2.0874681636e+000	 3.7001505644e-001	 2.1963186231e+000
 2.0836384389e+000	 3.9100544595e-001	 2.1358703924e+000
 2.0795847002e+000	 4.1202157433e-001	 2.0699652572e+000
 2.1367694478e+000	 2.0595433114e-001	 2.4995879681e+000
 2.1346483183e+000	 2.2688662578e-001	 2.4571195358e+000
 2.1323136945e+000	 2.4786972772e-001	 2.4163180496e+000
 2.1297637380e+000	 2.6890073377e-001	 2.3760750675e+000
 2.1269966559e+000	 2.8997668498e-001	 2.3353112220e+000
 2.1240107024e+000	 3.1109456735e-001	 2.2929875184e+000
 2.1208041806e+000	 3.3225131251e-001	 2.2481165969e+000
 2.1173754444e+000	 3.5344379857e-001	 2.1997741124e+000
 2.1137229000e+000	 3.7466885089e-001	 2.1471103959e+000
 2.1098450077e+000	 3.9592324306e-001	 2.0893625742e+000
 2.1057402838e+000	 4.1720369783e-001	 2.0258673310e+000
 2.1633104473e+000	 2.0851250784e-001	 2.4097803413e+000
 2.1611629711e+000	 2.2970480434e-001	 2.3718641728e+000
 2.1587993488e+000	 2.5094853921e-001	 2.3356098258e+000
 2.1562177190e+000	 2.7224077322e-001	 2.2998244097e+000
 2.1534162668e+000	 2.9357851066e-001	 2.2633671289e+000
 2.1503932245e+000	 3.1495870008e-001	 2.2251589164e+000
 2.1471468742e+000	 3.3637823502e-001	 2.1841919330e+000
 2.1436755493e+000	 3.5783395480e-001	 2.1395391042e+000
 2.1399776363e+000	 3.7932264534e-001	 2.0903638826e+000
 2.1360515764e+000	 4.0084104017e-001	 2.0359304306e+000
 2.1318958674e+000	 4.2238582132e-001	 1.9756144314e+000
 2.1898514469e+000	 2.1107068453e-001	 2.3174707587e+000
 2.1876776239e+000	 2.3252298289e-001	 2.2838144723e+000
 2.1852850030e+000	 2.5402735071e-001	 2.2518541097e+000
 2.1826717000e+000	 2.7558081267e-001	 2.2203221229e+000
 2.1798358776e+000	 2.9718033633e-001	 2.1880265694e+000
 2.1767757465e+000	 3.1882283282e-001	 2.1538588278e+000
 2.1734895678e+000	 3.4050515753e-001	 2.1168010726e+000
 2.1699756543e+000	 3.6222411102e-001	 2.0759337044e+000
 2.1662323727e+000	 3.8397643979e-001	 2.0304429429e+000
 2.1622581451e+000	 4.0575883728e-001	 1.9796288030e+000
 2.1580514510e+000	 4.2756794481e-001	 1.9229136862e+000
 2.2163924464e+000	 2.1362886123e-001	 2.2275019670e+000
 2.2141922767e+000	 2.3534116144e-001	 2.1979348919e+000
 2.2117706572e+000	 2.5710616220e-001	 2.1700677157e+000
 2.2091256810e+000	 2.7892085212e-001	 2.1425720791e+000
 2.2062554884e+000	 3.0078216201e-001	 2.1142192949e+000
 2.2031582686e+000	 3.2268696555e-001	 2.0838858713e+000
 2.1998322613e+000	 3.4463208005e-001	 2.0505586842e+000
 2.1962757592e+000	 3.6661426725e-001	 2.0133400147e+000
 2.1924871090e+000	 3.8863023425e-001	 1.9714526844e+000
 2.1884647138e+000	 4.1067663439e-001	 1.9242455345e+000
 2.1842070346e+000	 4.3275006830e-001	 1.8711995069e+000
 2.2429334459e+000	 2.1618703793e-001	 2.1446013367e+000
 2.2407069295e+000	 2.3815934000e-001	 2.1190513544e+000
 2.2382563115e+000	 2.6018497369e-001	 2.0951072021e+000
 2.2355796621e+000	 2.8226089157e-001	 2.0713977617e+000
 2.2326750993e+000	 3.0438398769e-001	 2.0466762706e+000
 2.2295407906e+000	 3.2655109828e-001	 2.0198233628e+000
 2.2261749549e+000	 3.4875900256e-001	 1.9898496379e+000
 2.2225758641e+000	 3.7100442348e-001	 1.9558980003e+000
 2.2187418454e+000	 3.9328402870e-001	 1.9172460275e+000
 2.2146712825e+000	 4.1559443150e-001	 1.8733086408e+000
 2.2103626182e+000	 4.3793219180e-001	 1.8236413654e+000
 2.2694744455e+000	 2.1874521463e-001	 2.0733819333e+000
 2.2672215823e+000	 2.4097751855e-001	 2.0518530720e+000
 2.2647419657e+000	 2.6326378518e-001	 2.0316714143e+000
 2.2620336431e+000	 2.8560093102e-001	 2.0114454956e+000
 2.2590947101e+000	 3.0798581336e-001	 1.9899335695e+000
 2.2559233126e+000	 3.3041523102e-001	 1.9660438527e+000
 2.2525176484e+000	 3.5288592506e-001	 1.9388341707e+000
 2.2488759691e+000	 3.7539457970e-001	 1.9075112721e+000
 2.2449965817e+000	 3.9793782315e-001	 1.8714300989e+000
 2.2408778513e+000	 4.2051222860e-001	 1.8300933154e+000
 2.2365182018e+000	 4.4311431529e-001	 1.7831514152e+000
 2.2960154450e+000	 2.2130339132e-001	 2.0183435711e+000
 2.2937362351e+000	 2.4379569710e-001	 2.0008943179e+000
 2.2912276199e+000	 2.6634259667e-001	 1.9843039434e+000
 2.2884876241e+000	 2.8894097047e-001	 1.9671875704e+000
 2.2855143209e+000	 3.1158763904e-001	 1.9483361384e+000
 2.2823058347e+000	 3.3427936375e-001	 1.9267135197e+000
 2.2788603420e+000	 3.5701284757e-001	 1.9014528986e+000
 2.2751760740e+000	 3.7978473593e-001	 1.8718527124e+000
 2.2712513181e+000	 4.0259161760e-001	 1.8373724701e+000
 2.2670844200e+000	 4.2543002571e-001	 1.7976287844e+000
 2.2626737853e+000	 4.4829643878e-001	 1.7523919704e+000
 2.3225564445e+000	 2.2386156802e-001	 1.9838738496e+000
 2.3202508879e+000	 2.4661387566e-001	 1.9705961475e+000
 2.3177132742e+000	 2.6942140816e-001	 1.9573955084e+000
 2.3149416051e+000	 2.9228100992e-001	 1.9429252622e+000
 2.3119339318e+000	 3.1518946472e-001	 1.9260414460e+000
 2.3086883567e+000	 3.3814349649e-001	 1.9057964347e+000
 2.3052030356e+000	 3.6113977008e-001	 1.8814316902e+000
 2.3014761789e+000	 3.8417489215e-001	 1.8523699567e+000
 2.2975060545e+000	 4.0724541205e-001	 1.8182072513e+000
 2.2932909887e+000	 4.3034782282e-001	 1.7787050210e+000
 2.2888293689e+000	 4.5347856227e-001	 1.7337828532e+000
 2.0272735331e+000	 4.0165732735e-001	 2.1234562407e+000
 2.0231013705e+000	 4.2216976871e-001	 2.0554368714e+000
 2.0187080752e+000	 4.4270084878e-001	 1.9897309109e+000
 2.0140923913e+000	 4.6324726543e-001	 1.9256623267e+000
 2.0092531230e+000	 4.8380567180e-001	 1.8626848378e+000
 2.0041891369e+000	 5.0437267753e-001	 1.8004046457e+000
 1.9988993627e+000	 5.2494485006e-001	 1.7385768782e+000
 1.9933827953e+000	 5.4551871594e-001	 1.6762658324e+000
 1.9876384961e+000	 5.6609076229e-001	 1.6131417346e+000
 1.9816655944e+000	 5.8665743822e-001	 1.5495996422e+000
 1.9754632889e+000	 6.0721515638e-001	 1.4863846659e+000
 2.0534291166e+000	 4.0683945084e-001	 2.1039204206e+000
 2.0492031255e+000	 4.2761654069e-001	 2.0350508252e+000
 2.0447531485e+000	 4.4841250972e-001	 1.9678284206e+000
 2.0400779137e+000	 4.6922401320e-001	 1.9016554690e+000
 2.0351762100e+000	 4.9004766109e-001	 1.8360723253e+000
 2.0300468890e+000	 5.1088001930e-001	 1.7707790891e+000
 2.0246888670e+000	 5.3171761096e-001	 1.7056588465e+000
 2.0191011256e+000	 5.5255691782e-001	 1.6408026456e+000
 2.0132827143e+000	 5.7339438167e-001	 1.5765363385e+000
 2.0072327511e+000	 5.9422640581e-001	 1.5134494180e+000
 2.0009504244e+000	 6.1504935661e-001	 1.4524259599e+000
 2.0795847002e+000	 4.1202157433e-001	 2.0699652572e+000
 2.0753048804e+000	 4.3306331268e-001	 2.0018959626e+000
 2.0707982218e+000	 4.5412417067e-001	 1.9349579747e+000
 2.0660634361e+000	 4.7520076098e-001	 1.8685968956e+000
 2.0610992969e+000	 4.9628965039e-001	 1.8024031184e+000
 2.0559046411e+000	 5.1738736106e-001	 1.7361322635e+000
 2.0504783712e+000	 5.3849037185e-001	 1.6697273235e+000
 2.0448194559e+000	 5.5959511969e-001	 1.6033426814e+000
 2.0389269325e+000	 5.8069800105e-001	 1.5373701587e+000
 2.0327999078e+000	 6.0179537340e-001	 1.4724672417e+000
 2.0264375598e+000	 6.2288355684e-001	 1.4095876174e+000
 2.1057402838e+000	 4.1720369783e-001	 2.0258673310e+000
 2.1014066354e+000	 4.3851008466e-001	 1.9598806856e+000
 2.0968432952e+000	 4.5983583161e-001	 1.8946369580e+000
 2.0920489586e+000	 4.8117750875e-001	 1.8295947545e+000
 2.0870223838e+000	 5.0253163969e-001	 1.7643624235e+000
 2.0817623933e+000	 5.2389470283e-001	 1.6987171231e+000
 2.0762678754e+000	 5.4526313275e-001	 1.6326257277e+000
 2.0705377862e+000	 5.6663332157e-001	 1.5662677634e+000
 2.0645711507e+000	 5.8800162042e-001	 1.5000605528e+000
 2.0583670645e+000	 6.0936434100e-001	 1.4346867398e+000
 2.0519246953e+000	 6.3071775708e-001	 1.3711243486e+000
 2.1318958674e+000	 4.2238582132e-001	 1.9756144314e+000
 2.1275083903e+000	 4.4395685664e-001	 1.9126200338e+000
 2.1228883685e+000	 4.6554749255e-001	 1.8500868841e+000
 2.1180344810e+000	 4.8715425653e-001	 1.7874609021e+000
 2.1129454707e+000	 5.0877362898e-001	 1.7243408402e+000
 2.1076201454e+000	 5.3040204460e-001	 1.6604958105e+000
 2.1020573797e+000	 5.5203589365e-001	 1.5958847944e+000
 2.0962561165e+000	 5.7367152344e-001	 1.5306783529e+000
 2.0902153689e+000	 5.9530523980e-001	 1.4652827417e+000
 2.0839342212e+000	 6.1693330859e-001	 1.4003666281e+000
 2.0774118308e+000	 6.3855195731e-001	 1.3368905883e+000
 2.1580514510e+000	 4.2756794481e-001	 1.9229136862e+000
 2.1536101453e+000	 4.4940362862e-001	 1.8634444096e+000
 2.1489334418e+000	 4.7125915350e-001	 1.8042427550e+000
 2.1440200035e+000	 4.9313100430e-001	 1.7447209438e+000
 2.1388685576e+000	 5.1501561828e-001	 1.6844451368e+000
 2.1334778975e+000	 5.3690938636e-001	 1.6231512294e+000
 2.1278468839e+000	 5.5880865454e-001	 1.5607627887e+000
 2.1219744468e+000	 5.8070972532e-001	 1.4974113763e+000
 2.1158595871e+000	 6.0260885918e-001	 1.4334594923e+000
 2.1095013779e+000	 6.2450227618e-001	 1.3695263617e+000
 2.1028989663e+000	 6.4638615754e-001	 1.3065167702e+000
 2.1842070346e+000	 4.3275006830e-001	 1.8711995069e+000
 2.1797119003e+000	 4.5485040060e-001	 1.8154081355e+000
 2.1749785151e+000	 4.7697081444e-001	 1.7597622711e+000
 2.1700055259e+000	 4.9910775208e-001	 1.7036241452e+000
 2.1647916446e+000	 5.2125760758e-001	 1.6465089185e+000
 2.1593356496e+000	 5.4341672813e-001	 1.5880985339e+000
 2.1536363881e+000	 5.6558141544e-001	 1.5282578844e+000
 2.1476927771e+000	 5.8774792719e-001	 1.4670535710e+000
 2.1415038053e+000	 6.0991247856e-001	 1.4047755145e+000
 2.1350685346e+000	 6.3207124377e-001	 1.3419616731e+000
 2.1283861017e+000	 6.5422035778e-001	 1.2794261013e+000
 2.2103626182e+000	 4.3793219180e-001	 1.8236413654e+000
 2.2058136552e+000	 4.6029717258e-001	 1.7712978567e+000
 2.2010235884e+000	 4.8268247538e-001	 1.7190349033e+000
 2.1959910484e+000	 5.0508449985e-001	 1.6661532241e+000
 2.1907147315e+000	 5.2749959687e-001	 1.6121031970e+000
 2.1851934017e+000	 5.4992406989e-001	 1.5564965384e+000
 2.1794258924e+000	 5.7235417633e-001	 1.4991204870e+000
 2.1734111074e+000	 5.9478612907e-001	 1.4399547983e+000
 2.1671480235e+000	 6.1721609793e-001	 1.3791918470e+000
 2.1606356913e+000	 6.3964021136e-001	 1.3172601203e+000
 2.1538732372e+000	 6.6205455801e-001	 1.2548513680e+000
 2.2365182018e+000	 4.4311431529e-001	 1.7831514152e+000
 2.2319154102e+000	 4.6574394456e-001	 1.7336408021e+000
 2.2270686617e+000	 4.8839413632e-001	 1.6841908387e+000
 2.2219765708e+000	 5.1106124762e-001	 1.6340340335e+000
 2.2166378184e+000	 5.3374158617e-001	 1.5825468691e+000
 2.2110511539e+000	 5.5643141166e-001	 1.5292590579e+000
 2.2052153966e+000	 5.7912693723e-001	 1.4738655055e+000
 2.1991294377e+000	 6.0182433094e-001	 1.4162413245e+000
 2.1927922417e+000	 6.2451971731e-001	 1.3564602314e+000
 2.1862028480e+000	 6.4720917895e-001	 1.2948166426e+000
 2.1793603727e+000	 6.6988875825e-001	 1.2318884089e+000
 2.2626737853e+000	 4.4829643878e-001	 1.7523919704e+000
 2.2580171652e+000	 4.7119071654e-001	 1.7047129148e+000
 2.2531137351e+000	 4.9410579726e-001	 1.6571098107e+000
 2.2479620932e+000	 5.1703799540e-001	 1.6087451438e+000
 2.2425609053e+000	 5.3998357546e-001	 1.5589171116e+000
 2.2369089060e+000	 5.6293875342e-001	 1.5070661813e+000
 2.2310049008e+000	 5.8589969813e-001	 1.4527845765e+000
 2.2248477680e+000	 6.0886253281e-001	 1.3958290736e+000
 2.2184364599e+000	 6.3182333669e-001	 1.3361374765e+000
 2.2117700047e+000	 6.5477814654e-001	 1.2738491248e+000
 2.2048475082e+000	 6.7772295848e-001	 1.2098244368e+000
 2.2888293689e+000	 4.5347856227e-001	 1.7337828532e+000
 2.2841189201e+000	 4.7663748852e-001	 1.6865468635e+000
 2.2791588084e+000	 4.9981745820e-001	 1.6394298220e+000
 2.2739476157e+000	 5.2301474317e-001	 1.5915273335e+000
 2.2684839922e+000	 5.4622556476e-001	 1.5420597000e+000
 2.2627666581e+000	 5.6944609519e-001	 1.4903754850e+000
 2.2567944051e+000	 5.9267245902e-001	 1.4359582460e+000
 2.2505660983e+000	 6.1590073469e-001	 1.3784368541e+000
 2.2440806781e+000	 6.3912695606e-001	 1.3175998130e+000
 2.2373371614e+000	 6.6234711413e-001	 1.2534139686e+000
 2.2303346436e+000	 6.8555715871e-001	 1.1876752057e+000
 1.9754632889e+000	 6.0721515638e-001	 1.4863846659e+000
 1.9690308487e+000	 6.2776029421e-001	 1.4197551959e+000
 1.9623676129e+000	 6.4828919468e-001	 1.3455682163e+000
 1.9554729937e+000	 6.6879816880e-001	 1.2645470692e+000
 1.9483464780e+000	 6.8928349765e-001	 1.1788854404e+000
 1.9409876284e+000	 7.0974143420e-001	 1.0904909195e+000
 1.9333960849e+000	 7.3016820514e-001	 1.0005550543e+000
 1.9255715656e+000	 7.5056001275e-001	 9.1034765744e-001
 1.9175138679e+000	 7.7091303689e-001	 8.2121362431e-001
 1.9092228696e+000	 7.9122343695e-001	 7.3456965510e-001
 1.9006985296e+000	 8.1148735391e-001	 6.5190089626e-001
 2.0009504244e+000	 6.1504935661e-001	 1.4524259599e+000
 1.9944349938e+000	 6.3585956478e-001	 1.3890365075e+000
 1.9876857899e+000	 6.5665332609e-001	 1.3177552222e+000
 1.9807022174e+000	 6.7742690396e-001	 1.2393540700e+000
 1.9734837563e+000	 6.9817653150e-001	 1.1563610672e+000
 1.9660299640e+000	 7.1889841332e-001	 1.0701723937e+000
 1.9583404755e+000	 7.3958872744e-001	 9.8202122535e-001
 1.9504150054e+000	 7.6024362714e-001	 8.9321923591e-001
 1.9422533485e+000	 7.8085924298e-001	 8.0515310295e-001
 1.9338553809e+000	 8.0143168483e-001	 7.1928092728e-001
 1.9252210612e+000	 8.2195704385e-001	 6.3712858432e-001
 2.0264375598e+000	 6.2288355684e-001	 1.4095876174e+000
 2.0198391388e+000	 6.4395883534e-001	 1.3449324611e+000
 2.0130039669e+000	 6.6501745749e-001	 1.2738873713e+000
 2.0059314410e+000	 6.8605563912e-001	 1.1977584544e+000
 1.9986210347e+000	 7.0706956534e-001	 1.1187552288e+000
 1.9910722996e+000	 7.2805539244e-001	 1.0367031392e+000
 1.9832848661e+000	 7.4900924974e-001	 9.5217430379e-001
 1.9752584453e+000	 7.6992724152e-001	 8.6648676466e-001
 1.9669928291e+000	 7.9080544908e-001	 7.8103362653e-001
 1.9584878923e+000	 8.1163993271e-001	 6.9727923111e-001
 1.9497435928e+000	 8.3242673380e-001	 6.1675527715e-001
 2.0519246953e+000	 6.3071775708e-001	 1.3711243486e+000
 2.0452432839e+000	 6.5205810591e-001	 1.3055608115e+000
 2.0383221439e+000	 6.7338158890e-001	 1.2333176974e+000
 2.0311606646e+000	 6.9468437428e-001	 1.1564986977e+000
 2.0237583131e+000	 7.1596259919e-001	 1.0766882207e+000
 2.0161146352e+000	 7.3721237157e-001	 9.9498254524e-001
 2.0082292568e+000	 7.5842977204e-001	 9.1252447340e-001
 2.0001018851e+000	 7.7961085591e-001	 8.3049828398e-001
 1.9917323097e+000	 8.0075165518e-001	 7.4914510759e-001
 1.9831204037e+000	 8.2184818059e-001	 6.6881684051e-001
 1.9742661244e+000	 8.4289642374e-001	 5.9101754640e-001
 2.0774118308e+000	 6.3855195731e-001	 1.3368905883e+000
 2.0706474290e+000	 6.6015737647e-001	 1.2710344856e+000
 2.0636403209e+000	 6.8174572031e-001	 1.1985428717e+000
 2.0563898883e+000	 7.0331310944e-001	 1.1218101196e+000
 2.0488955915e+000	 7.2485563304e-001	 1.0419701595e+000
 2.0411569708e+000	 7.4636935069e-001	 9.6008815561e-001
 2.0331736474e+000	 7.6785029434e-001	 8.7727334470e-001
 2.0249453249e+000	 7.8929447030e-001	 7.9467373105e-001
 2.0164717903e+000	 8.1069786128e-001	 7.1347095229e-001
 2.0077529150e+000	 8.3205642847e-001	 6.3487534765e-001
 1.9987886560e+000	 8.5336611368e-001	 5.6010360844e-001
 2.1028989663e+000	 6.4638615754e-001	 1.3065167702e+000
 2.0960515741e+000	 6.6825664704e-001	 1.2406203189e+000
 2.0889584979e+000	 6.9010985172e-001	 1.1686677157e+000
 2.0816191119e+000	 7.1194184460e-001	 1.0925918244e+000
 2.0740328699e+000	 7.3374866688e-001	 1.0133513921e+000
 2.0661993063e+000	 7.5552632981e-001	 9.3195217227e-001
 2.0581180380e+000	 7.7727081664e-001	 8.4944122682e-001
 2.0497887647e+000	 7.9897808469e-001	 7.6690140647e-001
 2.0412112709e+000	 8.2064406738e-001	 6.8544604658e-001
 2.0323854264e+000	 8.4226467635e-001	 6.0621390917e-001
 2.0233111876e+000	 8.6383580362e-001	 5.3036440074e-001
 2.1283861017e+000	 6.5422035778e-001	 1.2794261013e+000
 2.1214557192e+000	 6.7635591761e-001	 1.2136919896e+000
 2.1142766749e+000	 6.9847398312e-001	 1.1426732665e+000
 2.1068483355e+000	 7.2057057976e-001	 1.0676305545e+000
 2.0991701483e+000	 7.4264170073e-001	 9.8943929689e-001
 2.0912416419e+000	 7.6468330893e-001	 9.0901903863e-001
 2.0830624286e+000	 7.8669133894e-001	 8.2732751339e-001
 2.0746322046e+000	 8.0866169908e-001	 7.4535495477e-001
 2.0659507515e+000	 8.3059027348e-001	 6.6411866959e-001
 2.0570179378e+000	 8.5247292423e-001	 5.8465790707e-001
 2.0478337192e+000	 8.7430549357e-001	 5.0802905468e-001
 2.1538732372e+000	 6.6205455801e-001	 1.2548513680e+000
 2.1468598642e+000	 6.8445518817e-001	 1.1894397713e+000
 2.1395948519e+000	 7.0683811453e-001	 1.1194281168e+000
 2.1320775592e+000	 7.2919931492e-001	 1.0456048435e+000
 2.1243074266e+000	 7.5153473458e-001	 9.6873715681e-001
 2.1162839775e+000	 7.7384028805e-001	 8.8963302496e-001
 2.1080068192e+000	 7.9611186124e-001	 8.0913508853e-001
 2.0994756444e+000	 8.1834531347e-001	 7.2811484455e-001
 2.0906902321e+000	 8.4053647958e-001	 6.4746714442e-001
 2.0816504492e+000	 8.6268117211e-001	 5.6810504200e-001
 2.0723562508e+000	 8.8477518351e-001	 4.9095502441e-001
 2.1793603727e+000	 6.6988875825e-001	 1.2318884089e+000
 2.1722640093e+000	 6.9255445874e-001	 1.1668228670e+000
 2.1649130289e+000	 7.1520224594e-001	 1.0976924851e+000
 2.1573067828e+000	 7.3782805008e-001	 1.0250892424e+000
 2.1494447050e+000	 7.6042776842e-001	 9.4964858056e-001
 2.1413263131e+000	 7.8299726717e-001	 8.7204288866e-001
 2.1329512099e+000	 8.0553238355e-001	 7.9297527143e-001
 2.1243190842e+000	 8.2802892786e-001	 7.1317364651e-001
 2.1154297127e+000	 8.5048268568e-001	 6.3338521276e-001
 2.1062829605e+000	 8.7288941999e-001	 5.5437132815e-001
 2.0968787823e+000	 8.9524487345e-001	 4.7690283137e-001
 2.2048475082e+000	 6.7772295848e-001	 1.2098244368e+000
 2.1976681544e+000	 7.0065372930e-001	 1.1446916862e+000
 2.1902312059e+000	 7.2356637734e-001	 1.0761223420e+000
 2.1825360065e+000	 7.4645678524e-001	 1.0045586139e+000
 2.1745819834e+000	 7.6932080227e-001	 9.3048200236e-001
 2.1663686487e+000	 7.9215424629e-001	 8.5440661999e-001
 2.1578956005e+000	 8.1495290585e-001	 7.7687285177e-001
 2.1491625241e+000	 8.3771254225e-001	 6.9844140465e-001
 2.1401691933e+000	 8.6042889178e-001	 6.1968779083e-001
 2.1309154719e+000	 8.8309766787e-001	 5.4119728524e-001
 2.1214013139e+000	 9.0571456340e-001	 4.6356039324e-001
 2.2303346436e+000	 6.8555715871e-001	 1.1876752057e+000
 2.2230722995e+000	 7.0875299987e-001	 1.1217918761e+000
 2.2155493829e+000	 7.3193050875e-001	 1.0532735874e+000
 2.2077652301e+000	 7.5508552040e-001	 9.8239248797e-001
 2.1997192618e+000	 7.7821383611e-001	 9.0945525281e-001
 2.1914109843e+000	 8.0131122541e-001	 8.3479626656e-001
 2.1828399911e+000	 8.2437342815e-001	 7.5877120872e-001
 2.1740059639e+000	 8.4739615664e-001	 6.8175109332e-001
 2.1649086739e+000	 8.7037509788e-001	 6.0411681036e-001
 2.1555479833e+000	 8.9330591575e-001	 5.2625421191e-001
 2.1459238455e+000	 9.1618425334e-001	 4.4854978053e-001
 1.9006985296e+000	 8.1148735391e-001	 6.5190089626e-001
 1.8919422205e+000	 8.3169788466e-001	 5.7170560295e-001
 1.8829528065e+000	 8.5185418521e-001	 4.9114147824e-001
 1.8737304971e+000	 8.7195235673e-001	 4.0981961129e-001
 1.8642755859e+000	 8.9198849053e-001	 3.2741982439e-001
 1.8545884519e+000	 9.1195867032e-001	 2.4369092793e-001
 1.8446695596e+000	 9.3185897448e-001	 1.5845100476e-001
 1.8345194597e+000	 9.5168547831e-001	 7.1587726629e-002
 1.8241387894e+000	 9.7143425637e-001	-1.6941296772e-002
 1.8135282730e+000	 9.9110138481e-001	-1.0710813639e-001
 1.8026887218e+000	 1.0106829438e+000	-1.9881655556e-001
 1.9252210612e+000	 8.2195704385e-001	 6.3712858432e-001
 1.9163517795e+000	 8.4242832788e-001	 5.5754005619e-001
 1.9072463854e+000	 8.6284468205e-001	 4.7792910834e-001
 1.8979050911e+000	 8.8320215720e-001	 3.9781308794e-001
 1.8883281941e+000	 9.0349679424e-001	 3.1677933795e-001
 1.8785160781e+000	 9.2372462635e-001	 2.3448558213e-001
 1.8684692137e+000	 9.4388168129e-001	 1.5066035861e-001
 1.8581881587e+000	 9.6396398374e-001	 6.5103504334e-002
 1.8476735586e+000	 9.8396755761e-001	-2.2313308813e-002
 1.8369261468e+000	 1.0038884284e+000	-1.1164598723e-001
 1.8259467454e+000	 1.0237226258e+000	-2.0287962000e-001
 1.9497435928e+000	 8.3242673380e-001	 6.1675527715e-001
 1.9407613385e+000	 8.5315877110e-001	 5.3866940899e-001
 1.9315399643e+000	 8.7383517888e-001	 4.6075192081e-001
 1.9220796851e+000	 8.9445195768e-001	 3.8245497316e-001
 1.9123808022e+000	 9.1500509795e-001	 3.0330178592e-001
 1.9024437043e+000	 9.3549058237e-001	 2.2288710592e-001
 1.8922688678e+000	 9.5590438809e-001	 1.4087774354e-001
 1.8818568577e+000	 9.7624248917e-001	 5.7013180465e-002
 1.8712083277e+000	 9.9650085886e-001	-2.8893750388e-002
 1.8603240206e+000	 1.0166754721e+000	-1.1695878643e-001
 1.8492047689e+000	 1.0367623078e+000	-2.0721410418e-001
 1.9742661244e+000	 8.4289642374e-001	 5.9101754640e-001
 1.9651708975e+000	 8.6388921433e-001	 5.1532354017e-001
 1.9558335432e+000	 8.8482567572e-001	 4.3982755571e-001
 1.9462542791e+000	 9.0570175815e-001	 3.6394425365e-001
 1.9364334104e+000	 9.2651340167e-001	 2.8716020112e-001
 1.9263713305e+000	 9.4725653839e-001	 2.0903437565e-001
 1.9160685219e+000	 9.6792709490e-001	 1.2919875975e-001
 1.9055255567e+000	 9.8852099460e-001	 4.7359028598e-002
 1.8947430968e+000	 1.0090341601e+000	-3.6704668149e-002
 1.8837218945e+000	 1.0294625157e+000	-1.2313929094e-001
 1.8724627925e+000	 1.0498019898e+000	-2.1200750502e-001
 1.9987886560e+000	 8.5336611368e-001	 5.6010360844e-001
 1.9895804564e+000	 8.7461965755e-001	 4.8768167398e-001
 1.9801271221e+000	 8.9581617255e-001	 4.1532116550e-001
 1.9704288732e+000	 9.1695155863e-001	 3.4242610470e-001
 1.9604860185e+000	 9.3802170538e-001	 2.6847303258e-001
 1.9502989566e+000	 9.5902249441e-001	 1.9301150415e-001
 1.9398681760e+000	 9.7994980170e-001	 1.1566469707e-001
 1.9291942557e+000	 1.0007995000e+000	 3.6130137141e-002
 1.9182778660e+000	 1.0215674613e+000	-4.5822415388e-002
 1.9071197683e+000	 1.0422495593e+000	-1.3033746188e-001
 1.8957208160e+000	 1.0628416718e+000	-2.1749271903e-001
 2.0233111876e+000	 8.6383580362e-001	 5.3036440074e-001
 2.0139900154e+000	 8.8535010078e-001	 4.5793507272e-001
 2.0044207010e+000	 9.0680666939e-001	 3.8753549483e-001
 1.9946034672e+000	 9.2820135910e-001	 3.1799393250e-001
 1.9845386267e+000	 9.4953000909e-001	 2.4730645014e-001
 1.9742265828e+000	 9.7078845043e-001	 1.7485038338e-001
 1.9636678301e+000	 9.9197250851e-001	 1.0026528829e-001
 1.9528629547e+000	 1.0130780055e+000	 2.3261783463e-002
 1.9418126351e+000	 1.0341007626e+000	-5.6362498915e-002
 1.9305176421e+000	 1.0550366030e+000	-1.3874596107e-001
 1.9189788395e+000	 1.0758813538e+000	-2.2394478259e-001
 2.0478337192e+000	 8.7430549357e-001	 5.0802905468e-001
 2.0383995744e+000	 8.9608054400e-001	 4.3459444782e-001
 2.0287142799e+000	 9.1779716623e-001	 3.6339020399e-001
 2.0187780612e+000	 9.3945115958e-001	 2.9354408556e-001
 2.0085912348e+000	 9.6103831281e-001	 2.2420708332e-001
 1.9981542090e+000	 9.8255440646e-001	 1.5453328892e-001
 1.9874674842e+000	 1.0039952153e+000	 8.2941521407e-002
 1.9765316538e+000	 1.0253565109e+000	 8.6529380956e-003
 1.9653474042e+000	 1.0466340638e+000	-6.8494912891e-002
 1.9539155159e+000	 1.0678236466e+000	-1.4859977208e-001
 1.9422368631e+000	 1.0889210358e+000	-2.3167754000e-001
 2.0723562508e+000	 8.8477518351e-001	 4.9095502441e-001
 2.0628091334e+000	 9.0681098723e-001	 4.1666399552e-001
 2.0530078588e+000	 9.2878766306e-001	 3.4468899996e-001
 2.0429526552e+000	 9.5070096006e-001	 2.7422705472e-001
 2.0326438430e+000	 9.7254661652e-001	 2.0449430661e-001
 2.0220818352e+000	 9.9432036248e-001	 1.3472732484e-001
 2.0112671383e+000	 1.0160179221e+000	 6.4180914715e-002
 2.0002003528e+000	 1.0376350163e+000	-7.8527133286e-003
 1.9888821734e+000	 1.0591673651e+000	-8.2428390554e-002
 1.9773133897e+000	 1.0806106902e+000	-1.6017288648e-001
 1.9654948866e+000	 1.1019607178e+000	-2.4104024550e-001
 2.0968787823e+000	 8.9524487345e-001	 4.7690283137e-001
 2.0872186924e+000	 9.1754143045e-001	 4.0186072085e-001
 2.0773014377e+000	 9.3977815990e-001	 3.2910577565e-001
 2.0671272492e+000	 9.6195076053e-001	 2.5792777433e-001
 2.0566964511e+000	 9.8405492023e-001	 1.8763091829e-001
 2.0460094614e+000	 1.0060863185e+000	 1.1753510319e-001
 2.0350667924e+000	 1.0280406289e+000	 4.6974097439e-002
 2.0238690518e+000	 1.0499135217e+000	-2.4686545541e-002
 2.0124169425e+000	 1.0717006663e+000	-9.8071462062e-002
 2.0007112636e+000	 1.0933977339e+000	-1.7377427149e-001
 1.9887529101e+000	 1.1150003998e+000	-2.5241410457e-001
 2.1214013139e+000	 9.0571456340e-001	 4.6356039324e-001
 2.1116282514e+000	 9.2827187367e-001	 3.8783192820e-001
 2.1015950166e+000	 9.5076865673e-001	 3.1424814882e-001
 2.0913018433e+000	 9.7320056100e-001	 2.4221423013e-001
 2.0807490593e+000	 9.9556322394e-001	 1.7114441465e-001
 2.0699370875e+000	 1.0178522745e+000	 1.0045883750e-001
 2.0588664465e+000	 1.0400633357e+000	 2.9604088561e-002
 2.0475377508e+000	 1.0621920272e+000	-4.1974243609e-002
 2.0359517116e+000	 1.0842339676e+000	-1.1480717491e-001
 2.0241091374e+000	 1.1061847775e+000	-1.8940444311e-001
 2.0120109336e+000	 1.1280400818e+000	-2.6625035390e-001
 2.1459238455e+000	 9.1618425334e-001	 4.4854978053e-001
 2.1360378104e+000	 9.3900231690e-001	 3.7216248408e-001
 2.1258885955e+000	 9.6175915357e-001	 2.9766522304e-001
 2.1154764373e+000	 9.8445036148e-001	 2.2460034124e-001
 2.1048016674e+000	 1.0070715277e+000	 1.5251320467e-001
 2.0938647137e+000	 1.0296182305e+000	 8.0949364064e-002
 2.0826661006e+000	 1.0520860425e+000	 9.4734814073e-003
 2.0712064498e+000	 1.0744705326e+000	-6.2355502940e-002
 2.0594864808e+000	 1.0967672688e+000	-1.3496158792e-001
 2.0475070112e+000	 1.1189718211e+000	-2.0875317662e-001
 2.0352689572e+000	 1.1410797639e+000	-2.8411866053e-001
 1.8026887218e+000	 1.0106829438e+000	-1.9881655556e-001
 1.7916193577e+000	 1.0301779370e+000	-2.8889432440e-001
 1.7803227775e+000	 1.0495795149e+000	-3.7467722196e-001
 1.7688000574e+000	 1.0688837832e+000	-4.5674750611e-001
 1.7570523608e+000	 1.0880868613e+000	-5.3560958483e-001
 1.7450809388e+000	 1.1071848845e+000	-6.1168720758e-001
 1.7328871300e+000	 1.1261740068e+000	-6.8532066002e-001
 1.7204723598e+000	 1.1450504030e+000	-7.5676397959e-001
 1.7078381404e+000	 1.1638102713e+000	-8.2618221122e-001
 1.6949860702e+000	 1.1824498355e+000	-8.9364872320e-001
 1.6819178335e+000	 1.2009653480e+000	-9.5914260466e-001
 1.8259467454e+000	 1.0237226258e+000	-2.0287962000e-001
 1.8147345659e+000	 1.0434691405e+000	-2.9279244976e-001
 1.8032922390e+000	 1.0631210347e+000	-3.7858275031e-001
 1.7916208544e+000	 1.0826743639e+000	-4.6078143956e-001
 1.7797215907e+000	 1.1021251972e+000	-5.3984189231e-001
 1.7675957153e+000	 1.1214696203e+000	-6.1613704855e-001
 1.7552445837e+000	 1.1407037375e+000	-6.8995650923e-001
 1.7426696400e+000	 1.1598236741e+000	-7.6150363849e-001
 1.7298724157e+000	 1.1788255794e+000	-8.3089269289e-001
 1.7168545300e+000	 1.1977056286e+000	-8.9814599940e-001
 1.7036176889e+000	 1.2164600255e+000	-9.6319120509e-001
 1.8492047689e+000	 1.0367623078e+000	-2.0721410418e-001
 1.8378497742e+000	 1.0567603441e+000	-2.9642543021e-001
 1.8262617004e+000	 1.0766625546e+000	-3.8168862978e-001
 1.8144416513e+000	 1.0964649445e+000	-4.6347076235e-001
 1.8023908206e+000	 1.1161635331e+000	-5.4216213615e-001
 1.7901104917e+000	 1.1357543561e+000	-6.1807334494e-001
 1.7776020374e+000	 1.1552334681e+000	-6.9143227456e-001
 1.7648669201e+000	 1.1745969453e+000	-7.6238109978e-001
 1.7519066910e+000	 1.1938408876e+000	-8.3097329327e-001
 1.7387229899e+000	 1.2129614217e+000	-8.9717067032e-001
 1.7253175442e+000	 1.2319547029e+000	-9.6084049383e-001
 1.8724627925e+000	 1.0498019898e+000	-2.1200750502e-001
 1.8609649824e+000	 1.0700515476e+000	-3.0008112869e-001
 1.8492311618e+000	 1.0902040744e+000	-3.8439222859e-001
 1.8372624483e+000	 1.1102555251e+000	-4.6533201376e-001
 1.8250600506e+000	 1.1302018690e+000	-5.4321622430e-001
 1.8126252681e+000	 1.1500390919e+000	-6.1828210635e-001
 1.7999594911e+000	 1.1697631988e+000	-6.9068533751e-001
 1.7870642003e+000	 1.1893702164e+000	-7.6049692441e-001
 1.7739409664e+000	 1.2088561958e+000	-8.2770009587e-001
 1.7605914497e+000	 1.2282172147e+000	-8.9218721697e-001
 1.7470173996e+000	 1.2474493804e+000	-9.5375675051e-001
 1.8957208160e+000	 1.0628416718e+000	-2.1749271903e-001
 1.8840801906e+000	 1.0833427511e+000	-3.0408875470e-001
 1.8722006232e+000	 1.1037455942e+000	-3.8712763623e-001
 1.8600832453e+000	 1.1240461058e+000	-4.6691324618e-001
 1.8477292805e+000	 1.1442402050e+000	-5.4367577682e-001
 1.8351400445e+000	 1.1643238277e+000	-6.1756865164e-001
 1.8223169448e+000	 1.1842929294e+000	-6.8866537588e-001
 1.8092614805e+000	 1.2041434875e+000	-7.5695633909e-001
 1.7959752417e+000	 1.2238715039e+000	-8.2234559499e-001
 1.7824599095e+000	 1.2434730078e+000	-8.8464764565e-001
 1.7687172550e+000	 1.2629440579e+000	-9.4358425860e-001
 1.9189788395e+000	 1.0758813538e+000	-2.2394478259e-001
 1.9071953989e+000	 1.0966339547e+000	-3.0881556967e-001
 1.8951700847e+000	 1.1172871140e+000	-3.9036236328e-001
 1.8829040423e+000	 1.1378366864e+000	-4.6879075021e-001
 1.8703985105e+000	 1.1582785409e+000	-5.4423490901e-001
 1.8576548210e+000	 1.1786085635e+000	-6.1675448450e-001
 1.8446743986e+000	 1.1988226600e+000	-6.8633136783e-001
 1.8314587607e+000	 1.2189167586e+000	-7.5286640652e-001
 1.8180095171e+000	 1.2388868121e+000	-8.1617607157e-001
 1.8043283694e+000	 1.2587288009e+000	-8.7598911050e-001
 1.7904171104e+000	 1.2784387354e+000	-9.3194321714e-001
 1.9422368631e+000	 1.0889210358e+000	-2.3167754000e-001
 1.9303106071e+000	 1.1099251582e+000	-3.1466351022e-001
 1.9181395461e+000	 1.1308286339e+000	-3.9459394685e-001
 1.9057248393e+000	 1.1516272671e+000	-4.7156567111e-001
 1.8930677404e+000	 1.1723168768e+000	-5.4560688916e-001
 1.8801695974e+000	 1.1928932993e+000	-6.1667402443e-001
 1.8670318523e+000	 1.2133523907e+000	-6.8464842973e-001
 1.8536560409e+000	 1.2336900297e+000	-7.4933300535e-001
 1.8400437924e+000	 1.2539021203e+000	-8.1044875195e-001
 1.8261968292e+000	 1.2739845939e+000	-8.6763128925e-001
 1.8121169658e+000	 1.2939334128e+000	-9.2042737340e-001
 1.9654948866e+000	 1.1019607178e+000	-2.4104024550e-001
 1.9534258153e+000	 1.1232163617e+000	-3.2206573605e-001
 1.9411090075e+000	 1.1443701537e+000	-4.0034646949e-001
 1.9285456363e+000	 1.1654178477e+000	-4.7586052539e-001
 1.9157369704e+000	 1.1863552127e+000	-5.4852068115e-001
 1.9026843738e+000	 1.2071780351e+000	-6.1817120515e-001
 1.8893893060e+000	 1.2278821213e+000	-6.8458450165e-001
 1.8758533210e+000	 1.2484633008e+000	-7.4745763552e-001
 1.8620780678e+000	 1.2689174284e+000	-8.0640876743e-001
 1.8480652890e+000	 1.2892403870e+000	-8.6097353275e-001
 1.8338168211e+000	 1.3094280903e+000	-9.1060139948e-001
 1.9887529101e+000	 1.1150003998e+000	-2.5241410457e-001
 1.9765410235e+000	 1.1365075653e+000	-3.3148310857e-001
 1.9640784689e+000	 1.1579116735e+000	-4.0816699865e-001
 1.9513664333e+000	 1.1792084284e+000	-4.8231562591e-001
 1.9384062003e+000	 1.2003935486e+000	-5.5371738143e-001
 1.9251991503e+000	 1.2214627709e+000	-6.2209595128e-001
 1.9117467597e+000	 1.2424118520e+000	-6.8710689298e-001
 1.8980506012e+000	 1.2632365720e+000	-7.4833406345e-001
 1.8841123431e+000	 1.2839327366e+000	-8.0528593096e-001
 1.8699337489e+000	 1.3044961801e+000	-8.5739180669e-001
 1.8555166765e+000	 1.3249227678e+000	-9.0399803383e-001
 2.0120109336e+000	 1.1280400818e+000	-2.6625035390e-001
 1.9996562318e+000	 1.1497987688e+000	-3.4340060608e-001
 1.9870479304e+000	 1.1714531933e+000	-4.1862195304e-001
 1.9741872303e+000	 1.1929990090e+000	-4.9158542270e-001
 1.9610754303e+000	 1.2144318846e+000	-5.6194655890e-001
 1.9477139267e+000	 1.2357475067e+000	-6.2930054310e-001
 1.9341042134e+000	 1.2569415826e+000	-6.9317869937e-001
 1.9202478814e+000	 1.2780098431e+000	-7.5304481984e-001
 1.9061466185e+000	 1.2989480448e+000	-8.0829134585e-001
 1.8918022087e+000	 1.3197519731e+000	-8.5823544241e-001
 1.8772165319e+000	 1.3404174452e+000	-9.0222160569e-001
 2.0352689572e+000	 1.1410797639e+000	-2.8411866053e-001
 2.0227714400e+000	 1.1630899723e+000	-3.5929953289e-001
 2.0100173918e+000	 1.1849947132e+000	-4.3256788130e-001
 1.9970080273e+000	 1.2067895896e+000	-5.0433476646e-001
 1.9837446602e+000	 1.2284702205e+000	-5.7396250543e-001
 1.9702287031e+000	 1.2500322424e+000	-6.4063587847e-001
 1.9564616671e+000	 1.2714713133e+000	-7.0375510145e-001
 1.9424451616e+000	 1.2927831142e+000	-7.6265756202e-001
 1.9281808938e+000	 1.3139633529e+000	-8.1661385982e-001
 1.9136706685e+000	 1.3350077662e+000	-8.6482778520e-001
 1.8989163873e+000	 1.3559121227e+000	-9.0690637160e-001
 1.6819178335e+000	 1.2009653480e+000	-9.5914260466e-001
 1.6686351992e+000	 1.2193530910e+000	-1.0252097072e+000
 1.6551400189e+000	 1.2376093784e+000	-1.0933055751e+000
 1.6414342274e+000	 1.2557305588e+000	-1.1616536229e+000
 1.6275198424e+000	 1.2737130187e+000	-1.2284139812e+000
 1.6133989638e+000	 1.2915531845e+000	-1.2916844988e+000
 1.5990737725e+000	 1.3092475249e+000	-1.3495019040e+000
 1.5845465294e+000	 1.3267925536e+000	-1.3998431416e+000
 1.5698195741e+000	 1.3441848306e+000	-1.4416527796e+000
 1.5548953239e+000	 1.3614209657e+000	-1.4763038189e+000
 1.5397762725e+000	 1.3784976194e+000	-1.5012979208e+000
 1.7036176889e+000	 1.2164600255e+000	-9.6319120509e-001
 1.6901636840e+000	 1.2350850044e+000	-1.0290827426e+000
 1.6764943909e+000	 1.2535768317e+000	-1.0976470198e+000
 1.6626117692e+000	 1.2719318089e+000	-1.1668506289e+000
 1.6485178629e+000	 1.2901462759e+000	-1.2345992158e+000
 1.6342147989e+000	 1.3082166128e+000	-1.2987387559e+000
 1.6197047861e+000	 1.3261392431e+000	-1.3570569852e+000
 1.6049901146e+000	 1.3439106350e+000	-1.4081871493e+000
 1.5900731543e+000	 1.3615273047e+000	-1.4532128786e+000
 1.5749563537e+000	 1.3789858178e+000	-1.4894589187e+000
 1.5596422385e+000	 1.3962827920e+000	-1.5138454148e+000
 1.7253175442e+000	 1.2319547029e+000	-9.6084049383e-001
 1.7116921688e+000	 1.2508169178e+000	-1.0255846596e+000
 1.6978487628e+000	 1.2695442851e+000	-1.0937028434e+000
 1.6837893111e+000	 1.2881330591e+000	-1.1629906660e+000
 1.6695158835e+000	 1.3065795330e+000	-1.2311838165e+000
 1.6550306339e+000	 1.3248800412e+000	-1.2959594236e+000
 1.6403357996e+000	 1.3430309612e+000	-1.3556339083e+000
 1.6254336998e+000	 1.3610287165e+000	-1.4110660461e+000
 1.6103267345e+000	 1.3788697788e+000	-1.4595426818e+000
 1.5950173834e+000	 1.3965506700e+000	-1.4978290406e+000
 1.5795082045e+000	 1.4140679646e+000	-1.5227206165e+000
 1.7470173996e+000	 1.2474493804e+000	-9.5375675051e-001
 1.7332206536e+000	 1.2665488313e+000	-1.0165727071e+000
 1.7192031348e+000	 1.2855117384e+000	-1.0834838083e+000
 1.7049668530e+000	 1.3043343092e+000	-1.1521975035e+000
 1.6905139040e+000	 1.3230127902e+000	-1.2203610308e+000
 1.6758464690e+000	 1.3415434695e+000	-1.2860168606e+000
 1.6609668132e+000	 1.3599226793e+000	-1.3498113551e+000
 1.6458772850e+000	 1.3781467980e+000	-1.4091477048e+000
 1.6305803147e+000	 1.3962122529e+000	-1.4607062978e+000
 1.6150784131e+000	 1.4141155221e+000	-1.5011967957e+000
 1.5993741704e+000	 1.4318531372e+000	-1.5273629012e+000
 1.7687172550e+000	 1.2629440579e+000	-9.4358425860e-001
 1.7547491384e+000	 1.2822807447e+000	-1.0038731899e+000
 1.7405575068e+000	 1.3014791917e+000	-1.0689626859e+000
 1.7261443948e+000	 1.3205355593e+000	-1.1365519441e+000
 1.7115119245e+000	 1.3394460474e+000	-1.2045051898e+000
 1.6966623040e+000	 1.3582068979e+000	-1.2732090448e+000
 1.6815978267e+000	 1.3768143974e+000	-1.3403531022e+000
 1.6663208702e+000	 1.3952648795e+000	-1.4026064968e+000
 1.6508338949e+000	 1.4135547269e+000	-1.4566644966e+000
 1.6351394428e+000	 1.4316803742e+000	-1.4992533533e+000
 1.6192401364e+000	 1.4496383098e+000	-1.5271351007e+000
 1.7904171104e+000	 1.2784387354e+000	-9.3194321714e-001
 1.7762776232e+000	 1.2980126581e+000	-9.8927964044e-001
 1.7619118787e+000	 1.3174466451e+000	-1.0520725798e+000
 1.7473219367e+000	 1.3367368095e+000	-1.1181529884e+000
 1.7325099451e+000	 1.3558793046e+000	-1.1875484743e+000
 1.7174781390e+000	 1.3748703262e+000	-1.2584138769e+000
 1.7022288403e+000	 1.3937061155e+000	-1.3274833032e+000
 1.6867644554e+000	 1.4123829610e+000	-1.3915121573e+000
 1.6710874751e+000	 1.4308972010e+000	-1.4472819342e+000
 1.6552004726e+000	 1.4492452264e+000	-1.4916049727e+000
 1.6391061023e+000	 1.4674234824e+000	-1.5213291540e+000
 1.8121169658e+000	 1.2939334128e+000	-9.2042737340e-001
 1.7978061080e+000	 1.3137445715e+000	-9.7455068098e-001
 1.7832662507e+000	 1.3334140984e+000	-1.0347049771e+000
 1.7684994786e+000	 1.3529380596e+000	-1.1004312842e+000
 1.7535079656e+000	 1.3723125617e+000	-1.1705224999e+000
 1.7382939741e+000	 1.3915337546e+000	-1.2418557201e+000
 1.7228598538e+000	 1.4105978337e+000	-1.3113232561e+000
 1.7072080406e+000	 1.4295010425e+000	-1.3758372259e+000
 1.6913410553e+000	 1.4482396751e+000	-1.4323341211e+000
 1.6752615023e+000	 1.4668100785e+000	-1.4777793330e+000
 1.6589720683e+000	 1.4852086550e+000	-1.5091716224e+000
 1.8338168211e+000	 1.3094280903e+000	-9.1060139948e-001
 1.8193345928e+000	 1.3294764849e+000	-9.6140760272e-001
 1.8046206227e+000	 1.3493815518e+000	-1.0196173366e+000
 1.7896770205e+000	 1.3691393097e+000	-1.0846332038e+000
 1.7745059861e+000	 1.3887458189e+000	-1.1536117244e+000
 1.7591098091e+000	 1.4081971829e+000	-1.2236602873e+000
 1.7434908673e+000	 1.4274895518e+000	-1.2918988585e+000
 1.7276516258e+000	 1.4466191240e+000	-1.3554642152e+000
 1.7115946355e+000	 1.4655821492e+000	-1.4115141572e+000
 1.6953225320e+000	 1.4843749307e+000	-1.4572316776e+000
 1.6788380342e+000	 1.5029938276e+000	-1.4898290801e+000
 1.8555166765e+000	 1.3249227678e+000	-9.0399803383e-001
 1.8408630775e+000	 1.3452083983e+000	-9.5193047702e-001
 1.8259749946e+000	 1.3653490051e+000	-1.0083459222e+000
 1.8108545623e+000	 1.3853405599e+000	-1.0708713713e+000
 1.7955040066e+000	 1.4051790761e+000	-1.1369080317e+000
 1.7799256442e+000	 1.4248606113e+000	-1.2038619548e+000
 1.7641218809e+000	 1.4443812699e+000	-1.2691477893e+000
 1.7480952110e+000	 1.4637372054e+000	-1.3301925310e+000
 1.7318482157e+000	 1.4829246232e+000	-1.3844392509e+000
 1.7153835617e+000	 1.5019397828e+000	-1.4293507880e+000
 1.6987040002e+000	 1.5207790002e+000	-1.4624133907e+000
 1.8772165319e+000	 1.3404174452e+000	-9.0222160569e-001
 1.8623915623e+000	 1.3609403118e+000	-9.4784727071e-001
 1.8473293666e+000	 1.3813164584e+000	-1.0009066658e+000
 1.8320321042e+000	 1.4015418100e+000	-1.0591733145e+000
 1.8165020272e+000	 1.4216123332e+000	-1.1204177840e+000
 1.8007414792e+000	 1.4415240397e+000	-1.1824108108e+000
 1.7847528944e+000	 1.4612729880e+000	-1.2429264395e+000
 1.7685387962e+000	 1.4808552869e+000	-1.2997451620e+000
 1.7521017959e+000	 1.5002670973e+000	-1.3506570408e+000
 1.7354445915e+000	 1.5195046350e+000	-1.3934648013e+000
 1.7185699662e+000	 1.5385641728e+000	-1.4259868787e+000
 1.8989163873e+000	 1.3559121227e+000	-9.0690637160e-001
 1.8839200471e+000	 1.3766722252e+000	-9.4911592266e-001
 1.8686837386e+000	 1.3972839118e+000	-9.9723888660e-001
 1.8532096461e+000	 1.4177430601e+000	-1.0494881678e+000
 1.8375000477e+000	 1.4380455904e+000	-1.1040686269e+000
 1.8215573143e+000	 1.4581874680e+000	-1.1591794621e+000
 1.8053839080e+000	 1.4781647061e+000	-1.2130166116e+000
 1.7889823814e+000	 1.4979733684e+000	-1.2637751599e+000
 1.7723553761e+000	 1.5176095714e+000	-1.3096517353e+000
 1.7555056212e+000	 1.5370694871e+000	-1.3488468835e+000
 1.7384359321e+000	 1.5563493455e+000	-1.3795674040e+000
 1.5397762725e+000	 1.3784976194e+000	-1.5012979208e+000
 1.5244672996e+000	 1.3954089816e+000	-1.5253644114e+000
 1.5089687939e+000	 1.4121543980e+000	-1.5575527566e+000
 1.4932834697e+000	 1.4287306986e+000	-1.5954767208e+000
 1.4774141115e+000	 1.4451347731e+000	-1.6367623937e+000
 1.4613635726e+000	 1.4613635726e+000	-1.6790518135e+000
 1.4451347731e+000	 1.4774141115e+000	-1.7200065421e+000
 1.4287306986e+000	 1.4932834697e+000	-1.7573111824e+000
 1.4121543980e+000	 1.5089687939e+000	-1.7886768307e+000
 1.3954089816e+000	 1.5244672996e+000	-1.8118444556e+000
 1.3784976194e+000	 1.5397762725e+000	-1.8245881972e+000
 1.5596422385e+000	 1.3962827920e+000	-1.5138454148e+000
 1.5441357515e+000	 1.4134123421e+000	-1.5348307989e+000
 1.5284372864e+000	 1.4303738054e+000	-1.5617084242e+000
 1.5125495924e+000	 1.4471639710e+000	-1.5926664869e+000
 1.4964754901e+000	 1.4637796884e+000	-1.6258988087e+000
 1.4802178695e+000	 1.4802178695e+000	-1.6596074358e+000
 1.4637796884e+000	 1.4964754901e+000	-1.6920051977e+000
 1.4471639710e+000	 1.5125495924e+000	-1.7213182206e+000
 1.4303738054e+000	 1.5284372864e+000	-1.7457883892e+000
 1.4134123421e+000	 1.5441357515e+000	-1.7636757504e+000
 1.3962827920e+000	 1.5596422385e+000	-1.7732608537e+000
 1.5795082045e+000	 1.4140679646e+000	-1.5227206165e+000
 1.5638042033e+000	 1.4314157026e+000	-1.5422807592e+000
 1.5479057788e+000	 1.4485932128e+000	-1.5657979071e+000
 1.5318157151e+000	 1.4655972434e+000	-1.5919218632e+000
 1.5155368687e+000	 1.4824246038e+000	-1.6193024552e+000
 1.4990721664e+000	 1.4990721664e+000	-1.6465912975e+000
 1.4824246038e+000	 1.5155368687e+000	-1.6724435200e+000
 1.4655972434e+000	 1.5318157151e+000	-1.6955194602e+000
 1.4485932128e+000	 1.5479057788e+000	-1.7144863135e+000
 1.4314157026e+000	 1.5638042033e+000	-1.7280197364e+000
 1.4140679646e+000	 1.5795082045e+000	-1.7348054012e+000
 1.5993741704e+000	 1.4318531372e+000	-1.5273629012e+000
 1.5834726552e+000	 1.4494190631e+000	-1.5467918348e+000
 1.5673742712e+000	 1.4668126202e+000	-1.5685660118e+000
 1.5510818378e+000	 1.4840305158e+000	-1.5916881652e+000
 1.5345982472e+000	 1.5010695191e+000	-1.6151565232e+000
 1.5179264632e+000	 1.5179264632e+000	-1.6379659179e+000
 1.5010695191e+000	 1.5345982472e+000	-1.6591088670e+000
 1.4840305158e+000	 1.5510818378e+000	-1.6775766226e+000
 1.4668126202e+000	 1.5673742712e+000	-1.6923601853e+000
 1.4494190631e+000	 1.5834726552e+000	-1.7024512793e+000
 1.4318531372e+000	 1.5993741704e+000	-1.7068432875e+000
 1.6192401364e+000	 1.4496383098e+000	-1.5271351007e+000
 1.6031411070e+000	 1.4674224236e+000	-1.5473808063e+000
 1.5868427636e+000	 1.4850320276e+000	-1.5687111071e+000
 1.5703479605e+000	 1.5024637881e+000	-1.5903769330e+000
 1.5536596258e+000	 1.5197144344e+000	-1.6116212254e+000
 1.5367807601e+000	 1.5367807601e+000	-1.6316795742e+000
 1.5197144344e+000	 1.5536596258e+000	-1.6497808289e+000
 1.5024637881e+000	 1.5703479605e+000	-1.6651476804e+000
 1.4850320276e+000	 1.5868427636e+000	-1.6769972097e+000
 1.4674224236e+000	 1.6031411070e+000	-1.6845414033e+000
 1.4496383098e+000	 1.6192401364e+000	-1.6869876319e+000
 1.6391061023e+000	 1.4674234824e+000	-1.5213291540e+000
 1.6228095589e+000	 1.4854257841e+000	-1.5430084013e+000
 1.6063112560e+000	 1.5032514350e+000	-1.5648889714e+000
 1.5896140832e+000	 1.5208970605e+000	-1.5863690099e+000
 1.5727210044e+000	 1.5383593497e+000	-1.6068362133e+000
 1.5556350570e+000	 1.5556350570e+000	-1.6256681709e+000
 1.5383593497e+000	 1.5727210044e+000	-1.6422326803e+000
 1.5208970605e+000	 1.5896140832e+000	-1.6558880325e+000
 1.5032514350e+000	 1.6063112560e+000	-1.6659832647e+000
 1.4854257841e+000	 1.6228095589e+000	-1.6718583793e+000
 1.4674234824e+000	 1.6391061023e+000	-1.6728445269e+000
 1.6589720683e+000	 1.4852086550e+000	-1.5091716224e+000
 1.6424780107e+000	 1.5034291446e+000	-1.5325839385e+000
 1.6257797485e+000	 1.5214708424e+000	-1.5557166397e+000
 1.6088802058e+000	 1.5393303329e+000	-1.5780176789e+000
 1.5917823829e+000	 1.5570042650e+000	-1.5989230996e+000
 1.5744893539e+000	 1.5744893539e+000	-1.6178572576e+000
 1.5570042650e+000	 1.5917823829e+000	-1.6342330113e+000
 1.5393303329e+000	 1.6088802058e+000	-1.6474518793e+000
 1.5214708424e+000	 1.6257797485e+000	-1.6569041613e+000
 1.5034291446e+000	 1.6424780107e+000	-1.6619690214e+000
 1.4852086550e+000	 1.6589720683e+000	-1.6620145328e+000
 1.6788380342e+000	 1.5029938276e+000	-1.4898290801e+000
 1.6621464626e+000	 1.5214325051e+000	-1.5149699109e+000
 1.6452482409e+000	 1.5396902497e+000	-1.5397762506e+000
 1.6281463285e+000	 1.5577636052e+000	-1.5636518518e+000
 1.6108437615e+000	 1.5756491803e+000	-1.5859880795e+000
 1.5933436508e+000	 1.5933436508e+000	-1.6061641817e+000
 1.5756491803e+000	 1.6108437615e+000	-1.6235475238e+000
 1.5577636052e+000	 1.6281463285e+000	-1.6374937827e+000
 1.5396902497e+000	 1.6452482409e+000	-1.6473470972e+000
 1.5214325051e+000	 1.6621464626e+000	-1.6524401744e+000
 1.5029938276e+000	 1.6788380342e+000	-1.6520943492e+000
 1.6987040002e+000	 1.5207790002e+000	-1.4624133907e+000
 1.6818149144e+000	 1.5394358656e+000	-1.4889865160e+000
 1.6647167333e+000	 1.5579096571e+000	-1.5156188920e+000
 1.6474124512e+000	 1.5761968776e+000	-1.5415793058e+000
 1.6299051401e+000	 1.5942940957e+000	-1.5661246412e+000
 1.6121979477e+000	 1.6121979477e+000	-1.5885003669e+000
 1.5942940957e+000	 1.6299051401e+000	-1.6079409790e+000
 1.5761968776e+000	 1.6474124512e+000	-1.6236703937e+000
 1.5579096571e+000	 1.6647167333e+000	-1.6349022869e+000
 1.5394358656e+000	 1.6818149144e+000	-1.6408403770e+000
 1.5207790002e+000	 1.6987040002e+000	-1.6406786506e+000
 1.7185699662e+000	 1.5385641728e+000	-1.4259868787e+000
 1.7014833663e+000	 1.5574392261e+000	-1.4534161345e+000
 1.6841852257e+000	 1.5761290645e+000	-1.4817684478e+000
 1.6666785739e+000	 1.5946301500e+000	-1.5100899652e+000
 1.6489665187e+000	 1.6129390110e+000	-1.5374163606e+000
 1.6310522446e+000	 1.6310522446e+000	-1.5627737058e+000
 1.6129390110e+000	 1.6489665187e+000	-1.5851792833e+000
 1.5946301500e+000	 1.6666785739e+000	-1.6036423371e+000
 1.5761290645e+000	 1.6841852257e+000	-1.6171647559e+000
 1.5574392261e+000	 1.7014833663e+000	-1.6247416859e+000
 1.5385641728e+000	 1.7185699662e+000	-1.6253620694e+000
 1.7384359321e+000	 1.5563493455e+000	-1.3795674040e+000
 1.7211518181e+000	 1.5754425866e+000	-1.4070077630e+000
 1.7036537181e+000	 1.5943484719e+000	-1.4367254431e+000
 1.6859446966e+000	 1.6130634224e+000	-1.4674592230e+000
 1.6680278972e+000	 1.6315839263e+000	-1.4979397705e+000
 1.6499065415e+000	 1.6499065415e+000	-1.5268910576e+000
 1.6315839263e+000	 1.6680278972e+000	-1.5530317031e+000
 1.6130634224e+000	 1.6859446966e+000	-1.5750762375e+000
 1.5943484719e+000	 1.7036537181e+000	-1.5917362839e+000
 1.5754425866e+000	 1.7211518181e+000	-1.6017216485e+000
 1.5563493455e+000	 1.7384359321e+000	-1.6037413188e+000
 1.3784976194e+000	 1.5397762725e+000	-1.8245881972e+000
 1.3614209657e+000	 1.5548953239e+000	-1.8314290293e+000
 1.3441848306e+000	 1.5698195741e+000	-1.8373823897e+000
 1.3267925536e+000	 1.5845465294e+000	-1.8414493774e+000
 1.3092475249e+000	 1.5990737725e+000	-1.8467627037e+000
 1.2915531845e+000	 1.6133989638e+000	-1.8524981359e+000
 1.2737130187e+000	 1.6275198424e+000	-1.8564730770e+000
 1.2557305588e+000	 1.6414342274e+000	-1.8564834345e+000
 1.2376093784e+000	 1.6551400189e+000	-1.8503112539e+000
 1.2193530910e+000	 1.6686351992e+000	-1.8357323853e+000
 1.2009653480e+000	 1.6819178335e+000	-1.8105241584e+000
 1.3962827920e+000	 1.5596422385e+000	-1.7732608537e+000
 1.3789858178e+000	 1.5749563537e+000	-1.7790677147e+000
 1.3615273047e+000	 1.5900731543e+000	-1.7857000928e+000
 1.3439106350e+000	 1.6049901146e+000	-1.7915742855e+000
 1.3261392431e+000	 1.6197047861e+000	-1.7955716492e+000
 1.3082166128e+000	 1.6342147989e+000	-1.8001221053e+000
 1.2901462759e+000	 1.6485178629e+000	-1.8038919670e+000
 1.2719318089e+000	 1.6626117692e+000	-1.8044382914e+000
 1.2535768317e+000	 1.6764943909e+000	-1.7992994412e+000
 1.2350850044e+000	 1.6901636840e+000	-1.7860033433e+000
 1.2164600255e+000	 1.7036176889e+000	-1.7620757554e+000
 1.4140679646e+000	 1.5795082045e+000	-1.7348054012e+000
 1.3965506700e+000	 1.5950173834e+000	-1.7394127181e+000
 1.3788697788e+000	 1.6103267345e+000	-1.7461688251e+000
 1.3610287165e+000	 1.6254336998e+000	-1.7534006271e+000
 1.3430309612e+000	 1.6403357996e+000	-1.7594298304e+000
 1.3248800412e+000	 1.6550306339e+000	-1.7630958399e+000
 1.3065795330e+000	 1.6695158835e+000	-1.7660175387e+000
 1.2881330591e+000	 1.6837893111e+000	-1.7662947898e+000
 1.2695442851e+000	 1.6978487628e+000	-1.7612576366e+000
 1.2508169178e+000	 1.7116921688e+000	-1.7482215183e+000
 1.2319547029e+000	 1.7253175442e+000	-1.7244960700e+000
 1.4318531372e+000	 1.5993741704e+000	-1.7068432875e+000
 1.4141155221e+000	 1.6150784131e+000	-1.7101736473e+000
 1.3962122529e+000	 1.6305803147e+000	-1.7166047656e+000
 1.3781467980e+000	 1.6458772850e+000	-1.7244128221e+000
 1.3599226793e+000	 1.6609668132e+000	-1.7318663303e+000
 1.3415434695e+000	 1.6758464690e+000	-1.7372281711e+000
 1.3230127902e+000	 1.6905139040e+000	-1.7393356830e+000
 1.3043343092e+000	 1.7049668530e+000	-1.7388208523e+000
 1.2855117384e+000	 1.7192031348e+000	-1.7332490491e+000
 1.2665488313e+000	 1.7332206536e+000	-1.7197571416e+000
 1.2474493804e+000	 1.7470173996e+000	-1.6954725735e+000
 1.4496383098e+000	 1.6192401364e+000	-1.6869876319e+000
 1.4316803742e+000	 1.6351394428e+000	-1.6890452449e+000
 1.4135547269e+000	 1.6508338949e+000	-1.6948017849e+000
 1.3952648795e+000	 1.6663208702e+000	-1.7025201394e+000
 1.3768143974e+000	 1.6815978267e+000	-1.7104535895e+000
 1.3582068979e+000	 1.6966623040e+000	-1.7168478010e+000
 1.3394460474e+000	 1.7115119245e+000	-1.7199427829e+000
 1.3205355593e+000	 1.7261443948e+000	-1.7185388517e+000
 1.3014791917e+000	 1.7405575068e+000	-1.7120814265e+000
 1.2822807447e+000	 1.7547491384e+000	-1.6977146556e+000
 1.2629440579e+000	 1.7687172550e+000	-1.6724162834e+000
 1.4674234824e+000	 1.6391061023e+000	-1.6728445269e+000
 1.4492452264e+000	 1.6552004726e+000	-1.6737090192e+000
 1.4308972010e+000	 1.6710874751e+000	-1.6785334515e+000
 1.4123829610e+000	 1.6867644554e+000	-1.6856036845e+000
 1.3937061155e+000	 1.7022288403e+000	-1.6931945555e+000
 1.3748703262e+000	 1.7174781390e+000	-1.6995717562e+000
 1.3558793046e+000	 1.7325099451e+000	-1.7029936758e+000
 1.3367368095e+000	 1.7473219367e+000	-1.7017132084e+000
 1.3174466451e+000	 1.7619118787e+000	-1.6943184766e+000
 1.2980126581e+000	 1.7762776232e+000	-1.6789446324e+000
 1.2784387354e+000	 1.7904171104e+000	-1.6524741848e+000
 1.4852086550e+000	 1.6589720683e+000	-1.6620145328e+000
 1.4668100785e+000	 1.6752615023e+000	-1.6618350440e+000
 1.4482396751e+000	 1.6913410553e+000	-1.6655551804e+000
 1.4295010425e+000	 1.7072080406e+000	-1.6715189360e+000
 1.4105978337e+000	 1.7228598538e+000	-1.6780583838e+000
 1.3915337546e+000	 1.7382939741e+000	-1.6834953718e+000
 1.3723125617e+000	 1.7535079656e+000	-1.6861431799e+000
 1.3529380596e+000	 1.7684994786e+000	-1.6843081381e+000
 1.3334140984e+000	 1.7832662507e+000	-1.6762912075e+000
 1.3137445715e+000	 1.7978061080e+000	-1.6600555628e+000
 1.2939334128e+000	 1.8121169658e+000	-1.6325414792e+000
 1.5029938276e+000	 1.6788380342e+000	-1.6520943492e+000
 1.4843749307e+000	 1.6953225320e+000	-1.6510839147e+000
 1.4655821492e+000	 1.7115946355e+000	-1.6536065125e+000
 1.4466191240e+000	 1.7276516258e+000	-1.6580983841e+000
 1.4274895518e+000	 1.7434908673e+000	-1.6629834689e+000
 1.4081971829e+000	 1.7591098091e+000	-1.6666748507e+000
 1.3887458189e+000	 1.7745059861e+000	-1.6675761600e+000
 1.3691393097e+000	 1.7896770205e+000	-1.6640829317e+000
 1.3493815518e+000	 1.8046206227e+000	-1.6545839229e+000
 1.3294764849e+000	 1.8193345928e+000	-1.6374255295e+000
 1.3094280903e+000	 1.8338168211e+000	-1.6092736729e+000
 1.5207790002e+000	 1.6987040002e+000	-1.6406786506e+000
 1.5019397828e+000	 1.7153835617e+000	-1.6391088460e+000
 1.4829246232e+000	 1.7318482157e+000	-1.6404135126e+000
 1.4637372054e+000	 1.7480952110e+000	-1.6431542625e+000
 1.4443812699e+000	 1.7641218809e+000	-1.6458805396e+000
 1.4248606113e+000	 1.7799256442e+000	-1.6471307500e+000
 1.4051790761e+000	 1.7955040066e+000	-1.6454333409e+000
 1.3853405599e+000	 1.8108545623e+000	-1.6393078292e+000
 1.3653490051e+000	 1.8259749946e+000	-1.6272657857e+000
 1.3452083983e+000	 1.8408630775e+000	-1.6078117777e+000
 1.3249227678e+000	 1.8555166765e+000	-1.5790985183e+000
 1.5385641728e+000	 1.7185699662e+000	-1.6253620694e+000
 1.5195046350e+000	 1.7354445915e+000	-1.6235579018e+000
 1.5002670973e+000	 1.7521017959e+000	-1.6236912786e+000
 1.4808552869e+000	 1.7685387962e+000	-1.6244813670e+000
 1.4612729880e+000	 1.7847528944e+000	-1.6246358148e+000
 1.4415240397e+000	 1.8007414792e+000	-1.6228514977e+000
 1.4216123332e+000	 1.8165020272e+000	-1.6178152078e+000
 1.4015418100e+000	 1.8320321042e+000	-1.6082042843e+000
 1.3813164584e+000	 1.8473293666e+000	-1.5926871944e+000
 1.3609403118e+000	 1.8623915623e+000	-1.5699240686e+000
 1.3404174452e+000	 1.8772165319e+000	-1.5385671979e+000
 1.5563493455e+000	 1.7384359321e+000	-1.6037413188e+000
 1.5370694871e+000	 1.7555056212e+000	-1.6020763456e+000
 1.5176095714e+000	 1.7723553761e+000	-1.6011465505e+000
 1.4979733684e+000	 1.7889823814e+000	-1.5998599526e+000
 1.4781647061e+000	 1.8053839080e+000	-1.5971142138e+000
 1.4581874680e+000	 1.8215573143e+000	-1.5917969392e+000
 1.4380455904e+000	 1.8375000477e+000	-1.5827859076e+000
 1.4177430601e+000	 1.8532096461e+000	-1.5689492369e+000
 1.3972839118e+000	 1.8686837386e+000	-1.5491454929e+000
 1.3766722252e+000	 1.8839200471e+000	-1.5222237468e+000
 1.3559121227e+000	 1.8989163873e+000	-1.4870235924e+000
 1.2009653480e+000	 1.6819178335e+000	-1.8105241584e+000
 1.1824498355e+000	 1.6949860702e+000	-1.7822682276e+000
 1.1638102713e+000	 1.7078381404e+000	-1.7587514616e+000
 1.1450504030e+000	 1.7204723598e+000	-1.7381042876e+000
 1.1261740068e+000	 1.7328871300e+000	-1.7185155403e+000
 1.1071848845e+000	 1.7450809388e+000	-1.6982393846e+000
 1.0880868613e+000	 1.7570523608e+000	-1.6756020578e+000
 1.0688837832e+000	 1.7688000574e+000	-1.6490084098e+000
 1.0495795149e+000	 1.7803227775e+000	-1.6169482270e+000
 1.0301779370e+000	 1.7916193577e+000	-1.5780023209e+000
 1.0106829438e+000	 1.8026887218e+000	-1.5308483684e+000
 1.2164600255e+000	 1.7036176889e+000	-1.7620757554e+000
 1.1977056286e+000	 1.7168545300e+000	-1.7353682399e+000
 1.1788255794e+000	 1.7298724157e+000	-1.7140049306e+000
 1.1598236741e+000	 1.7426696400e+000	-1.6959620155e+000
 1.1407037375e+000	 1.7552445837e+000	-1.6792726406e+000
 1.1214696203e+000	 1.7675957153e+000	-1.6620342218e+000
 1.1021251972e+000	 1.7797215907e+000	-1.6424155725e+000
 1.0826743639e+000	 1.7916208544e+000	-1.6186638258e+000
 1.0631210347e+000	 1.8032922390e+000	-1.5891111339e+000
 1.0434691405e+000	 1.8147345659e+000	-1.5521811299e+000
 1.0237226258e+000	 1.8259467454e+000	-1.5063951333e+000
 1.2319547029e+000	 1.7253175442e+000	-1.7244960700e+000
 1.2129614217e+000	 1.7387229899e+000	-1.6982349935e+000
 1.1938408876e+000	 1.7519066910e+000	-1.6779172013e+000
 1.1745969453e+000	 1.7648669201e+000	-1.6613770744e+000
 1.1552334681e+000	 1.7776020374e+000	-1.6465032720e+000
 1.1357543561e+000	 1.7901104917e+000	-1.6312464205e+000
 1.1161635331e+000	 1.8023908206e+000	-1.6136266143e+000
 1.0964649445e+000	 1.8144416513e+000	-1.5917407103e+000
 1.0766625546e+000	 1.8262617004e+000	-1.5637693970e+000
 1.0567603441e+000	 1.8378497742e+000	-1.5279840217e+000
 1.0367623078e+000	 1.8492047689e+000	-1.4827531610e+000
 1.2474493804e+000	 1.7470173996e+000	-1.6954725735e+000
 1.2282172147e+000	 1.7605914497e+000	-1.6688669869e+000
 1.2088561958e+000	 1.7739409664e+000	-1.6487757147e+000
 1.1893702164e+000	 1.7870642003e+000	-1.6329031097e+000
 1.1697631988e+000	 1.7999594911e+000	-1.6190039238e+000
 1.1500390919e+000	 1.8126252681e+000	-1.6048913597e+000
 1.1302018690e+000	 1.8250600506e+000	-1.5884449343e+000
 1.1102555251e+000	 1.8372624483e+000	-1.5676181354e+000
 1.0902040744e+000	 1.8492311618e+000	-1.5404458523e+000
 1.0700515476e+000	 1.8609649824e+000	-1.5050515640e+000
 1.0498019898e+000	 1.8724627925e+000	-1.4596542678e+000
 1.2629440579e+000	 1.7687172550e+000	-1.6724162834e+000
 1.2434730078e+000	 1.7824599095e+000	-1.6449760717e+000
 1.2238715039e+000	 1.7959752417e+000	-1.6245723288e+000
 1.2041434875e+000	 1.8092614805e+000	-1.6087905428e+000
 1.1842929294e+000	 1.8223169448e+000	-1.5952615517e+000
 1.1643238277e+000	 1.8351400445e+000	-1.5816699436e+000
 1.1442402050e+000	 1.8477292805e+000	-1.5657622715e+000
 1.1240461058e+000	 1.8600832453e+000	-1.5453550615e+000
 1.1037455942e+000	 1.8722006232e+000	-1.5183425968e+000
 1.0833427511e+000	 1.8840801906e+000	-1.4827044596e+000
 1.0628416718e+000	 1.8957208160e+000	-1.4365128154e+000
 1.2784387354e+000	 1.7904171104e+000	-1.6524741848e+000
 1.2587288009e+000	 1.8043283694e+000	-1.6240003378e+000
 1.2388868121e+000	 1.8180095171e+000	-1.6030165800e+000
 1.2189167586e+000	 1.8314587607e+000	-1.5870001193e+000
 1.1988226600e+000	 1.8446743986e+000	-1.5734673230e+000
 1.1786085635e+000	 1.8576548210e+000	-1.5599824527e+000
 1.1582785409e+000	 1.8703985105e+000	-1.5441662172e+000
 1.1378366864e+000	 1.8829040423e+000	-1.5237041221e+000
 1.1172871140e+000	 1.8951700847e+000	-1.4963545981e+000
 1.0966339547e+000	 1.9071953989e+000	-1.4599568897e+000
 1.0758813538e+000	 1.9189788395e+000	-1.4124386891e+000
 1.2939334128e+000	 1.8121169658e+000	-1.6325414792e+000
 1.2739845939e+000	 1.8261968292e+000	-1.6031167819e+000
 1.2539021203e+000	 1.8400437924e+000	-1.5815486884e+000
 1.2336900297e+000	 1.8536560409e+000	-1.5652161686e+000
 1.2133523907e+000	 1.8670318523e+000	-1.5515300469e+000
 1.1928932993e+000	 1.8801695974e+000	-1.5379420587e+000
 1.1723168768e+000	 1.8930677404e+000	-1.5219537286e+000
 1.1516272671e+000	 1.9057248393e+000	-1.5011250493e+000
 1.1308286339e+000	 1.9181395461e+000	-1.4730829450e+000
 1.1099251582e+000	 1.9303106071e+000	-1.4355294987e+000
 1.0889210358e+000	 1.9422368631e+000	-1.3862499300e+000
 1.3094280903e+000	 1.8338168211e+000	-1.6092736729e+000
 1.2892403870e+000	 1.8480652890e+000	-1.5792537744e+000
 1.2689174284e+000	 1.8620780678e+000	-1.5573523284e+000
 1.2484633008e+000	 1.8758533210e+000	-1.5408595990e+000
 1.2278821213e+000	 1.8893893060e+000	-1.5270893148e+000
 1.2071780351e+000	 1.9026843738e+000	-1.5133880315e+000
 1.1863552127e+000	 1.9157369704e+000	-1.4971443212e+000
 1.1654178477e+000	 1.9285456363e+000	-1.4757977701e+000
 1.1443701537e+000	 1.9411090075e+000	-1.4468477650e+000
 1.1232163617e+000	 1.9534258153e+000	-1.4078620516e+000
 1.1019607178e+000	 1.9654948866e+000	-1.3564850489e+000
 1.3249227678e+000	 1.8555166765e+000	-1.5790985183e+000
 1.3044961801e+000	 1.8699337489e+000	-1.5491033440e+000
 1.2839327366e+000	 1.8841123431e+000	-1.5273671829e+000
 1.2632365720e+000	 1.8980506012e+000	-1.5111006497e+000
 1.2424118520e+000	 1.9117467597e+000	-1.4975283762e+000
 1.2214627709e+000	 1.9251991503e+000	-1.4838986628e+000
 1.2003935486e+000	 1.9384062003e+000	-1.4674929658e+000
 1.1792084284e+000	 1.9513664333e+000	-1.4456352001e+000
 1.1579116735e+000	 1.9640784689e+000	-1.4157008387e+000
 1.1365075653e+000	 1.9765410235e+000	-1.3751257917e+000
 1.1150003998e+000	 1.9887529101e+000	-1.3214150493e+000
 1.3404174452e+000	 1.8772165319e+000	-1.5385671979e+000
 1.3197519731e+000	 1.8918022087e+000	-1.5091332936e+000
 1.2989480448e+000	 1.9061466185e+000	-1.4883012995e+000
 1.2780098431e+000	 1.9202478814e+000	-1.4728714191e+000
 1.2569415826e+000	 1.9341042134e+000	-1.4599867693e+000
 1.2357475067e+000	 1.9477139267e+000	-1.4468039298e+000
 1.2144318846e+000	 1.9610754303e+000	-1.4305027133e+000
 1.1929990090e+000	 1.9741872303e+000	-1.4082957593e+000
 1.1714531933e+000	 1.9870479304e+000	-1.3774379343e+000
 1.1497987688e+000	 1.9996562318e+000	-1.3352355207e+000
 1.1280400818e+000	 2.0120109336e+000	-1.2792252599e+000
 1.3559121227e+000	 1.8989163873e+000	-1.4870235924e+000
 1.3350077662e+000	 1.9136706685e+000	-1.4556262214e+000
 1.3139633529e+000	 1.9281808938e+000	-1.4366432649e+000
 1.2927831142e+000	 1.9424451616e+000	-1.4228781878e+000
 1.2714713133e+000	 1.9564616671e+000	-1.4113727279e+000
 1.2500322424e+000	 1.9702287031e+000	-1.3991979202e+000
 1.2284702205e+000	 1.9837446602e+000	-1.3834370717e+000
 1.2067895896e+000	 1.9970080273e+000	-1.3611956328e+000
 1.1849947132e+000	 2.0100173918e+000	-1.3295690968e+000
 1.1630899723e+000	 2.0227714400e+000	-1.2858378675e+000
 1.1410797639e+000	 2.0352689572e+000	-1.2276028114e+000
 1.0106829438e+000	 1.8026887218e+000	-1.5308483684e+000
 9.9110138481e-001	 1.8135282730e+000	-1.4819533891e+000
 9.7143425637e-001	 1.8241387894e+000	-1.4372923963e+000
 9.5168547831e-001	 1.8345194597e+000	-1.3950909202e+000
 9.3185897448e-001	 1.8446695596e+000	-1.3537271139e+000
 9.1195867032e-001	 1.8545884519e+000	-1.3117483872e+000
 8.9198849053e-001	 1.8642755859e+000	-1.2678766709e+000
 8.7195235673e-001	 1.8737304971e+000	-1.2210132433e+000
 8.5185418521e-001	 1.8829528065e+000	-1.1702431101e+000
 8.3169788466e-001	 1.8919422205e+000	-1.1148389324e+000
 8.1148735391e-001	 1.9006985296e+000	-1.0542644950e+000
 1.0237226258e+000	 1.8259467454e+000	-1.5063951333e+000
 1.0038884284e+000	 1.8369261468e+000	-1.4586952900e+000
 9.8396755761e-001	 1.8476735586e+000	-1.4155632467e+000
 9.6396398374e-001	 1.8581881587e+000	-1.3751126427e+000
 9.4388168129e-001	 1.8684692137e+000	-1.3356142501e+000
 9.2372462635e-001	 1.8785160781e+000	-1.2955119140e+000
 9.0349679424e-001	 1.8883281941e+000	-1.2534280871e+000
 8.8320215720e-001	 1.8979050911e+000	-1.2081689176e+000
 8.6284468205e-001	 1.9072463854e+000	-1.1587288812e+000
 8.4242832788e-001	 1.9163517795e+000	-1.1042949525e+000
 8.2195704385e-001	 1.9252210612e+000	-1.0442503067e+000
 1.0367623078e+000	 1.8492047689e+000	-1.4827531610e+000
 1.0166754721e+000	 1.8603240206e+000	-1.4355108324e+000
 9.9650085886e-001	 1.8712083277e+000	-1.3932874949e+000
 9.7624248917e-001	 1.8818568577e+000	-1.3540230524e+000
 9.5590438809e-001	 1.8922688678e+000	-1.3158651990e+000
 9.3549058237e-001	 1.9024437043e+000	-1.2771273795e+000
 9.1500509795e-001	 1.9123808022e+000	-1.2363060949e+000
 8.9445195768e-001	 1.9220796851e+000	-1.1920862857e+000
 8.7383517888e-001	 1.9315399643e+000	-1.1433462494e+000
 8.5315877110e-001	 1.9407613385e+000	-1.0891620865e+000
 8.3242673380e-001	 1.9497435928e+000	-1.0288116685e+000
 1.0498019898e+000	 1.8724627925e+000	-1.4596542678e+000
 1.0294625157e+000	 1.8837218945e+000	-1.4122374409e+000
 1.0090341601e+000	 1.8947430968e+000	-1.3703680300e+000
 9.8852099460e-001	 1.9055255567e+000	-1.3318230143e+000
 9.6792709490e-001	 1.9160685219e+000	-1.2945879097e+000
 9.4725653839e-001	 1.9263713305e+000	-1.2568195156e+000
 9.2651340167e-001	 1.9364334104e+000	-1.2168624821e+000
 9.0570175815e-001	 1.9462542791e+000	-1.1732550204e+000
 8.8482567572e-001	 1.9558335432e+000	-1.1247341389e+000
 8.6388921433e-001	 1.9651708975e+000	-1.0702403948e+000
 8.4289642374e-001	 1.9742661244e+000	-1.0089221580e+000
 1.0628416718e+000	 1.8957208160e+000	-1.4365128154e+000
 1.0422495593e+000	 1.9071197683e+000	-1.3883616411e+000
 1.0215674613e+000	 1.9182778660e+000	-1.3463843757e+000
 1.0007995000e+000	 1.9291942557e+000	-1.3082048903e+000
 9.7994980170e-001	 1.9398681760e+000	-1.2715844859e+000
 9.5902249441e-001	 1.9502989566e+000	-1.2345096683e+000
 9.3802170538e-001	 1.9604860185e+000	-1.1951478896e+000
 9.1695155863e-001	 1.9704288732e+000	-1.1518656471e+000
 8.9581617255e-001	 1.9801271221e+000	-1.1032340662e+000
 8.7461965755e-001	 1.9895804564e+000	-1.0480339893e+000
 8.5336611368e-001	 1.9987886560e+000	-9.8526056379e-001
 1.0758813538e+000	 1.9189788395e+000	-1.4124386891e+000
 1.0550366030e+000	 1.9305176421e+000	-1.3630807486e+000
 1.0341007626e+000	 1.9418126351e+000	-1.3206541488e+000
 1.0130780055e+000	 1.9528629547e+000	-1.2825503566e+000
 9.9197250851e-001	 1.9636678301e+000	-1.2463625921e+000
 9.7078845043e-001	 1.9742265828e+000	-1.2098268429e+000
 9.4953000909e-001	 1.9845386267e+000	-1.1709225166e+000
 9.2820135910e-001	 1.9946034672e+000	-1.1278199292e+000
 9.0680666939e-001	 2.0044207010e+000	-1.0790660606e+000
 8.8535010078e-001	 2.0139900154e+000	-1.0245266331e+000
 8.6383580362e-001	 2.0233111876e+000	-9.6342133995e-001
 1.0889210358e+000	 1.9422368631e+000	-1.3862499300e+000
 1.0678236466e+000	 1.9539155159e+000	-1.3353025577e+000
 1.0466340638e+000	 1.9653474042e+000	-1.2921691753e+000
 1.0253565109e+000	 1.9765316538e+000	-1.2539990448e+000
 1.0039952153e+000	 1.9874674842e+000	-1.2181465590e+000
 9.8255440646e-001	 1.9981542090e+000	-1.1821184602e+000
 9.6103831281e-001	 2.0085912348e+000	-1.1441519321e+000
 9.3945115958e-001	 2.0187780612e+000	-1.1032424059e+000
 9.1779716623e-001	 2.0287142799e+000	-1.0577971048e+000
 8.9608054400e-001	 2.0383995744e+000	-1.0064132104e+000
 8.7430549357e-001	 2.0478337192e+000	-9.4790241704e-001
 1.1019607178e+000	 1.9654948866e+000	-1.3564850489e+000
 1.0806106902e+000	 1.9773133897e+000	-1.3036572729e+000
 1.0591673651e+000	 1.9888821734e+000	-1.2596587454e+000
 1.0376350163e+000	 2.0002003528e+000	-1.2213721424e+000
 1.0160179221e+000	 2.0112671383e+000	-1.1864704035e+000
 9.9432036248e-001	 2.0220818352e+000	-1.1529931663e+000
 9.7254661652e-001	 2.0326438430e+000	-1.1186645305e+000
 9.5070096006e-001	 2.0429526552e+000	-1.0814644353e+000
 9.2878766306e-001	 2.0530078588e+000	-1.0395713340e+000
 9.0681098723e-001	 2.0628091334e+000	-9.9138149096e-001
 8.8477518351e-001	 2.0723562508e+000	-9.3551279298e-001
 1.1150003998e+000	 1.9887529101e+000	-1.3214150493e+000
 1.0933977339e+000	 2.0007112636e+000	-1.2665104014e+000
 1.0717006663e+000	 2.0124169425e+000	-1.2220338742e+000
 1.0499135217e+000	 2.0238690518e+000	-1.1851513442e+000
 1.0280406289e+000	 2.0350667924e+000	-1.1529669397e+000
 1.0060863185e+000	 2.0460094614e+000	-1.1228048532e+000
 9.8405492023e-001	 2.0566964511e+000	-1.0921517973e+000
 9.6195076053e-001	 2.0671272492e+000	-1.0587534220e+000
 9.3977815990e-001	 2.0773014377e+000	-1.0205628858e+000
 9.1754143045e-001	 2.0872186924e+000	-9.7575864631e-001
 8.9524487345e-001	 2.0968787823e+000	-9.2274818497e-001
 1.1280400818e+000	 2.0120109336e+000	-1.2792252599e+000
 1.1061847775e+000	 2.0241091374e+000	-1.2228952113e+000
 1.0842339676e+000	 2.0359517116e+000	-1.1787899322e+000
 1.0621920272e+000	 2.0475377508e+000	-1.1435371679e+000
 1.0400633357e+000	 2.0588664465e+000	-1.1139676889e+000
 1.0178522745e+000	 2.0699370875e+000	-1.0871230978e+000
 9.9556322394e-001	 2.0807490593e+000	-1.0602829459e+000
 9.7320056100e-001	 2.0913018433e+000	-1.0308951773e+000
 9.5076865673e-001	 2.1015950166e+000	-9.9668729925e-001
 9.2827187367e-001	 2.1116282514e+000	-9.5560422001e-001
 9.0571456340e-001	 2.1214013139e+000	-9.0582753985e-001
 1.1410797639e+000	 2.0352689572e+000	-1.2276028114e+000
 1.1189718211e+000	 2.0475070112e+000	-1.1695904470e+000
 1.0967672688e+000	 2.0594864808e+000	-1.1255217872e+000
 1.0744705326e+000	 2.0712064498e+000	-1.0917262431e+000
 1.0520860425e+000	 2.0826661006e+000	-1.0647448113e+000
 1.0296182305e+000	 2.0938647137e+000	-1.0413378550e+000
 1.0070715277e+000	 2.1048016674e+000	-1.0185103349e+000
 9.8445036148e-001	 2.1154764373e+000	-9.9344916466e-001
 9.6175915357e-001	 2.1258885955e+000	-9.6362409813e-001
 9.3900231690e-001	 2.1360378104e+000	-9.2673193919e-001
 9.1618425334e-001	 2.1459238455e+000	-8.8071409018e-001
 8.1148735391e-001	 1.9006985296e+000	-1.0542644950e+000
 7.9122343695e-001	 1.9092228696e+000	-9.9488687421e-001
 7.7091303689e-001	 1.9175138679e+000	-9.4223443200e-001
 7.5056001275e-001	 1.9255715656e+000	-8.9480196029e-001
 7.3016820514e-001	 1.9333960849e+000	-8.5131705964e-001
 7.0974143420e-001	 1.9409876284e+000	-8.1074339405e-001
 6.8928349765e-001	 1.9483464780e+000	-7.7228337383e-001
 6.6879816880e-001	 1.9554729937e+000	-7.3538026631e-001
 6.4828919468e-001	 1.9623676129e+000	-6.9693196658e-001
 6.2776029421e-001	 1.9690308487e+000	-6.5279592011e-001
 6.0721515638e-001	 1.9754632889e+000	-6.0329377432e-001
 8.2195704385e-001	 1.9252210612e+000	-1.0442503067e+000
 8.0143168483e-001	 1.9338553809e+000	-9.8516470103e-001
 7.8085924298e-001	 1.9422533485e+000	-9.3274317411e-001
 7.6024362714e-001	 1.9504150054e+000	-8.8536838510e-001
 7.3958872744e-001	 1.9583404755e+000	-8.4166062370e-001
 7.1889841332e-001	 1.9660299640e+000	-8.0048139707e-001
 6.9817653150e-001	 1.9734837563e+000	-7.6093643329e-001
 6.7742690396e-001	 1.9807022174e+000	-7.2237810055e-001
 6.5665332609e-001	 1.9876857899e+000	-6.8355626516e-001
 6.3585956478e-001	 1.9944349938e+000	-6.3893837405e-001
 6.1504935661e-001	 2.0009504244e+000	-5.8799106352e-001
 8.3242673380e-001	 1.9497435928e+000	-1.0288116685e+000
 8.1163993271e-001	 1.9584878923e+000	-9.6902349654e-001
 7.9080544908e-001	 1.9669928291e+000	-9.1566469770e-001
 7.6992724152e-001	 1.9752584453e+000	-8.6702515251e-001
 7.4900924974e-001	 1.9832848661e+000	-8.2163722329e-001
 7.2805539244e-001	 1.9910722996e+000	-7.7827963778e-001
 7.0706956534e-001	 1.9986210347e+000	-7.3598077934e-001
 6.8605563912e-001	 2.0059314410e+000	-6.9457528559e-001
 6.6501745749e-001	 2.0130039669e+000	-6.5466700708e-001
 6.4395883534e-001	 2.0198391388e+000	-6.1171007113e-001
 6.2288355684e-001	 2.0264375598e+000	-5.6287871857e-001
 8.4289642374e-001	 1.9742661244e+000	-1.0089221580e+000
 8.2184818059e-001	 1.9831204037e+000	-9.4762196732e-001
 8.0075165518e-001	 1.9917323097e+000	-8.9235254392e-001
 7.7961085591e-001	 2.0001018851e+000	-8.4132932673e-001
 7.5842977204e-001	 2.0082292568e+000	-7.9392129637e-001
 7.3721237157e-001	 2.0161146352e+000	-7.4974538334e-001
 7.1596259919e-001	 2.0237583131e+000	-7.0781734899e-001
 6.9468437428e-001	 2.0311606646e+000	-6.6739417345e-001
 6.7338158890e-001	 2.0383221439e+000	-6.2797592863e-001
 6.5205810591e-001	 2.0452432839e+000	-5.8739661647e-001
 6.3071775708e-001	 2.0519246953e+000	-5.4017302256e-001
 8.5336611368e-001	 1.9987886560e+000	-9.8526056379e-001
 8.3205642847e-001	 2.0077529150e+000	-9.2248288654e-001
 8.1069786128e-001	 2.0164717903e+000	-8.6698797987e-001
 7.8929447030e-001	 2.0249453249e+000	-8.1705483969e-001
 7.6785029434e-001	 2.0331736474e+000	-7.7118284629e-001
 7.4636935069e-001	 2.0411569708e+000	-7.2811048910e-001
 7.2485563304e-001	 2.0488955915e+000	-6.8681827441e-001
 7.0331310944e-001	 2.0563898883e+000	-6.4653110228e-001
 6.8174572031e-001	 2.0636403209e+000	-6.0672013633e-001
 6.6015737647e-001	 2.0706474290e+000	-5.6670466413e-001
 6.3855195731e-001	 2.0774118308e+000	-5.2050160554e-001
 8.6383580362e-001	 2.0233111876e+000	-9.6342133995e-001
 8.4226467635e-001	 2.0323854264e+000	-9.0283926813e-001
 8.2064406738e-001	 2.0412112709e+000	-8.4916595995e-001
 7.9897808469e-001	 2.0497887647e+000	-8.0063933668e-001
 7.7727081664e-001	 2.0581180380e+000	-7.5573600083e-001
 7.5552632981e-001	 2.0661993063e+000	-7.1317458565e-001
 7.3374866688e-001	 2.0740328699e+000	-6.7191856274e-001
 7.1194184460e-001	 2.0816191119e+000	-6.3117853602e-001
 6.9010985172e-001	 2.0889584979e+000	-5.9041404840e-001
 6.6825664704e-001	 2.0960515741e+000	-5.4933492556e-001
 6.4638615754e-001	 2.1028989663e+000	-5.0399030755e-001
 8.7430549357e-001	 2.0478337192e+000	-9.4790241704e-001
 8.5247292423e-001	 2.0570179378e+000	-8.8935252430e-001
 8.3059027348e-001	 2.0659507515e+000	-8.3725492488e-001
 8.0866169908e-001	 2.0746322046e+000	-7.8984041396e-001
 7.8669133894e-001	 2.0830624286e+000	-7.4558124233e-001
 7.6468330893e-001	 2.0912416419e+000	-7.0319427631e-001
 7.4264170073e-001	 2.0991701483e+000	-6.6164363432e-001
 7.2057057976e-001	 2.1068483355e+000	-6.2014283145e-001
 6.9847398312e-001	 2.1142766749e+000	-5.7815646102e-001
 6.7635591761e-001	 2.1214557192e+000	-5.3540144000e-001
 6.5422035778e-001	 2.1283861017e+000	-4.9028788026e-001
 8.8477518351e-001	 2.0723562508e+000	-9.3551279298e-001
 8.6268117211e-001	 2.0816504492e+000	-8.7900897815e-001
 8.4053647958e-001	 2.0906902321e+000	-8.2844848375e-001
 8.1834531347e-001	 2.0994756444e+000	-7.8207331849e-001
 7.9611186124e-001	 2.1080068192e+000	-7.3836942735e-001
 7.7384028805e-001	 2.1162839775e+000	-6.9606958403e-001
 7.5153473458e-001	 2.1243074266e+000	-6.5415578282e-001
 7.2919931492e-001	 2.1320775592e+000	-6.1186116463e-001
 7.0683811453e-001	 2.1395948519e+000	-5.6867150939e-001
 6.8445518817e-001	 2.1468598642e+000	-5.2432632401e-001
 6.6205455801e-001	 2.1538732372e+000	-4.7859037793e-001
 8.9524487345e-001	 2.0968787823e+000	-9.2274818497e-001
 8.7288941999e-001	 2.1062829605e+000	-8.6848849264e-001
 8.5048268568e-001	 2.1154297127e+000	-8.1962541494e-001
 8.2802892786e-001	 2.1243190842e+000	-7.7443025641e-001
 8.0553238355e-001	 2.1329512099e+000	-7.3142041142e-001
 7.8299726717e-001	 2.1413263131e+000	-6.8936190795e-001
 7.6042776842e-001	 2.1494447050e+000	-6.4727147815e-001
 7.3782805008e-001	 2.1573067828e+000	-6.0441819407e-001
 7.1520224594e-001	 2.1649130289e+000	-5.6032470422e-001
 6.9255445874e-001	 2.1722640093e+000	-5.1476810303e-001
 6.6988875825e-001	 2.1793603727e+000	-4.6778046195e-001
 9.0571456340e-001	 2.1214013139e+000	-9.0582753985e-001
 8.8309766787e-001	 2.1309154719e+000	-8.5418498386e-001
 8.6042889178e-001	 2.1401691933e+000	-8.0736945951e-001
 8.3771254225e-001	 2.1491625241e+000	-7.6369948257e-001
 8.1495290585e-001	 2.1578956005e+000	-7.2174145002e-001
 7.9215424629e-001	 2.1663686487e+000	-6.8031175060e-001
 7.6932080227e-001	 2.1745819834e+000	-6.3847843410e-001
 7.4645678524e-001	 2.1825360065e+000	-5.9556248218e-001
 7.2356637734e-001	 2.1902312059e+000	-5.5113871980e-001
 7.0065372930e-001	 2.1976681544e+000	-5.0503640269e-001
 6.7772295848e-001	 2.2048475082e+000	-4.5733951208e-001
 9.1618425334e-001	 2.1459238455e+000	-8.8071409018e-001
 8.9330591575e-001	 2.1555479833e+000	-8.3222673924e-001
 8.7037509788e-001	 2.1649086739e+000	-7.8798891686e-001
 8.4739615664e-001	 2.1740059639e+000	-7.4638418860e-001
 8.2437342815e-001	 2.1828399911e+000	-7.0604539373e-001
 8.0131122541e-001	 2.1914109843e+000	-6.6585623416e-001
 7.7821383611e-001	 2.1997192618e+000	-6.2495245936e-001
 7.5508552040e-001	 2.2077652301e+000	-5.8272269420e-001
 7.3193050875e-001	 2.2155493829e+000	-5.3880895331e-001
 7.0875299987e-001	 2.2230722995e+000	-4.9310688052e-001
 6.8555715871e-001	 2.2303346436e+000	-4.4576574752e-001
 6.0721515638e-001	 1.9754632889e+000	-6.0329377432e-001
 5.8665743822e-001	 1.9816655944e+000	-5.5068526624e-001
 5.6609076229e-001	 1.9876384961e+000	-4.9690735236e-001
 5.4551871594e-001	 1.9933827953e+000	-4.4251118866e-001
 5.2494485006e-001	 1.9988993627e+000	-3.8849644295e-001
 5.0437267753e-001	 2.0041891369e+000	-3.3662749766e-001
 4.8380567180e-001	 2.0092531230e+000	-2.8934551437e-001
 4.6324726543e-001	 2.0140923913e+000	-2.4868938928e-001
 4.4270084878e-001	 2.0187080752e+000	-2.1699654499e-001
 4.2216976871e-001	 2.0231013705e+000	-1.9690541578e-001
 4.0165732735e-001	 2.0272735331e+000	-1.9133533779e-001
 6.1504935661e-001	 2.0009504244e+000	-5.8799106352e-001
 5.9422640581e-001	 2.0072327511e+000	-5.3451179512e-001
 5.7339438167e-001	 2.0132827143e+000	-4.8140566401e-001
 5.5255691782e-001	 2.0191011256e+000	-4.2903088227e-001
 5.3171761096e-001	 2.0246888670e+000	-3.7816894944e-001
 5.1088001930e-001	 2.0300468890e+000	-3.3000118069e-001
 4.9004766109e-001	 2.0351762100e+000	-2.8608616206e-001
 4.6922401320e-001	 2.0400779137e+000	-2.4833808227e-001
 4.4841250972e-001	 2.0447531485e+000	-2.1900588224e-001
 4.2761654069e-001	 2.0492031255e+000	-2.0065315577e-001
 4.0683945084e-001	 2.0534291166e+000	-1.9613872917e-001
 6.2288355684e-001	 2.0264375598e+000	-5.6287871857e-001
 6.0179537340e-001	 2.0327999078e+000	-5.1164427011e-001
 5.8069800105e-001	 2.0389269325e+000	-4.6085520590e-001
 5.5959511969e-001	 2.0448194559e+000	-4.1075414855e-001
 5.3849037185e-001	 2.0504783712e+000	-3.6201610319e-001
 5.1738736106e-001	 2.0559046411e+000	-3.1572525341e-001
 4.9628965039e-001	 2.0610992969e+000	-2.7335281620e-001
 4.7520076098e-001	 2.0660634361e+000	-2.3673589275e-001
 4.5412417067e-001	 2.0707982218e+000	-2.0805724273e-001
 4.3306331268e-001	 2.0753048804e+000	-1.8982590177e-001
 4.1202157433e-001	 2.0795847002e+000	-1.8485855557e-001
 6.3071775708e-001	 2.0519246953e+000	-5.4017302256e-001
 6.0936434100e-001	 2.0583670645e+000	-4.9000359875e-001
 5.8800162042e-001	 2.0645711507e+000	-4.4024626717e-001
 5.6663332157e-001	 2.0705377862e+000	-3.9105906124e-001
 5.4526313275e-001	 2.0762678754e+000	-3.4303899844e-001
 5.2389470283e-001	 2.0817623933e+000	-2.9719918940e-001
 5.0253163969e-001	 2.0870223838e+000	-2.5494715432e-001
 4.8117750875e-001	 2.0920489586e+000	-2.1806427011e-001
 4.5983583161e-001	 2.0968432952e+000	-1.8868626115e-001
 4.3851008466e-001	 2.1014066354e+000	-1.6928463822e-001
 4.1720369783e-001	 2.1057402838e+000	-1.6264898341e-001
 6.3855195731e-001	 2.0774118308e+000	-5.2050160554e-001
 6.1693330859e-001	 2.0839342212e+000	-4.7068143730e-001
 5.9530523980e-001	 2.0902153689e+000	-4.2112899340e-001
 5.7367152344e-001	 2.0962561165e+000	-3.7194625664e-001
 5.5203589365e-001	 2.1020573797e+000	-3.2367814930e-001
 5.3040204460e-001	 2.1076201454e+000	-2.7729000841e-001
 5.0877362898e-001	 2.1129454707e+000	-2.3414643467e-001
 4.8715425653e-001	 2.1180344810e+000	-1.9599142302e-001
 4.6554749255e-001	 2.1228883685e+000	-1.6492967195e-001
 4.4395685664e-001	 2.1275083903e+000	-1.4340895965e-001
 4.2238582132e-001	 2.1318958674e+000	-1.3420346781e-001
 6.4638615754e-001	 2.1028989663e+000	-5.0399030755e-001
 6.2450227618e-001	 2.1095013779e+000	-4.5425915395e-001
 6.0260885918e-001	 2.1158595871e+000	-4.0453764717e-001
 5.8070972532e-001	 2.1219744468e+000	-3.5489786460e-001
 5.5880865454e-001	 2.1278468839e+000	-3.0585596787e-001
 5.3690938636e-001	 2.1334778975e+000	-2.5835010606e-001
 5.1501561828e-001	 2.1388685576e+000	-2.1371987710e-001
 4.9313100430e-001	 2.1440200035e+000	-1.7368723893e-001
 4.7125915350e-001	 2.1489334418e+000	-1.4033875032e-001
 4.4940362862e-001	 2.1536101453e+000	-1.1610901147e-001
 4.2756794481e-001	 2.1580514510e+000	-1.0376516675e-001
 6.5422035778e-001	 2.1283861017e+000	-4.9028788026e-001
 6.3207124377e-001	 2.1350685346e+000	-4.4083107221e-001
 6.0991247856e-001	 2.1415038053e+000	-3.9101240611e-001
 5.8774792719e-001	 2.1476927771e+000	-3.4089787011e-001
 5.6558141544e-001	 2.1536363881e+000	-2.9099569486e-001
 5.4341672813e-001	 2.1593356496e+000	-2.4223475484e-001
 5.2125760758e-001	 2.1647916446e+000	-1.9594473171e-001
 4.9910775208e-001	 2.1700055259e+000	-1.5383791363e-001
 4.7697081444e-001	 2.1749785151e+000	-1.1799249163e-001
 4.5485040060e-001	 2.1797119003e+000	-9.0837203723e-002
 4.3275006830e-001	 2.1842070346e+000	-7.5137169124e-002
 6.6205455801e-001	 2.1538732372e+000	-4.7859037793e-001
 6.3964021136e-001	 2.1606356913e+000	-4.3002739766e-001
 6.1721609793e-001	 2.1671480235e+000	-3.8062084167e-001
 5.9478612907e-001	 2.1734111074e+000	-3.3045215728e-001
 5.7235417633e-001	 2.1794258924e+000	-2.8004001831e-001
 5.4992406989e-001	 2.1851934017e+000	-2.3031930350e-001
 5.2749959687e-001	 2.1907147315e+000	-1.8262206120e-001
 5.0508449985e-001	 2.1959910484e+000	-1.3866031489e-001
 4.8268247538e-001	 2.2010235884e+000	-1.0051055068e-001
 4.6029717258e-001	 2.2058136552e+000	-7.0599716209e-002
 4.3793219180e-001	 2.2103626182e+000	-5.1692551827e-002
 6.6988875825e-001	 2.1793603727e+000	-4.6778046195e-001
 6.4720917895e-001	 2.1862028480e+000	-4.2103685379e-001
 6.2451971731e-001	 2.1927922417e+000	-3.7297910489e-001
 6.0182433094e-001	 2.1991294377e+000	-3.2360826163e-001
 5.7912693723e-001	 2.2052153966e+000	-2.7346940587e-001
 5.5643141166e-001	 2.2110511539e+000	-2.2351609965e-001
 5.3374158617e-001	 2.2166378184e+000	-1.7509226040e-001
 5.1106124762e-001	 2.2219765708e+000	-1.2991610200e-001
 4.8839413632e-001	 2.2270686617e+000	-9.0065960625e-002
 4.6574394456e-001	 2.2319154102e+000	-5.7967812386e-002
 4.4311431529e-001	 2.2365182018e+000	-3.6384280143e-002
 6.7772295848e-001	 2.2048475082e+000	-4.5733951208e-001
 6.5477814654e-001	 2.2117700047e+000	-4.1262905067e-001
 6.3182333669e-001	 2.2184364599e+000	-3.6727284273e-001
 6.0886253281e-001	 2.2248477680e+000	-3.1997485424e-001
 5.8589969813e-001	 2.2310049008e+000	-2.7132017396e-001
 5.6293875342e-001	 2.2369089060e+000	-2.2229115775e-001
 5.3998357546e-001	 2.2425609053e+000	-1.7425033408e-001
 5.1703799540e-001	 2.2479620932e+000	-1.2892562087e-001
 4.9410579726e-001	 2.2531137351e+000	-8.8397649347e-002
 4.7119071654e-001	 2.2580171652e+000	-5.5088977295e-002
 4.4829643878e-001	 2.2626737853e+000	-3.1754963928e-002
 6.8555715871e-001	 2.2303346436e+000	-4.4576574752e-001
 6.6234711413e-001	 2.2373371614e+000	-4.0317660767e-001
 6.3912695606e-001	 2.2440806781e+000	-3.6227786670e-001
 6.1590073469e-001	 2.2505660983e+000	-3.1874097933e-001
 5.9267245902e-001	 2.2567944051e+000	-2.7320231466e-001
 5.6944609519e-001	 2.2627666581e+000	-2.2668059314e-001
 5.4622556476e-001	 2.2684839922e+000	-1.8056095253e-001
 5.2301474317e-001	 2.2739476157e+000	-1.3658159268e-001
 4.9981745820e-001	 2.2791588084e+000	-9.6822769404e-002
 4.7663748852e-001	 2.2841189201e+000	-6.3697893686e-002
 4.5347856227e-001	 2.2888293689e+000	-3.9946481192e-002
 4.0165732735e-001	 2.0272735331e+000	-1.9133533779e-001
 3.8116985173e-001	 2.0312253015e+000	-1.8634410076e-001
 3.6070746753e-001	 2.0349586909e+000	-1.6812257129e-001
 3.4027332989e-001	 2.0384751296e+000	-1.4016791417e-001
 3.1987054498e-001	 2.0417760999e+000	-1.0620324037e-001
 2.9950216914e-001	 2.0448631363e+000	-7.0159325154e-002
 2.7917120795e-001	 2.0477378234e+000	-3.6156515323e-002
 2.5888061541e-001	 2.0504017950e+000	-8.4867601430e-003
 2.3863329325e-001	 2.0528567318e+000	 8.4042960793e-003
 2.1843209012e-001	 2.0551043599e+000	 9.9352182976e-003
 1.9827980105e-001	 2.0571464492e+000	-8.5932641906e-003
 4.0683945084e-001	 2.0534291166e+000	-1.9613872917e-001
 3.8608764884e-001	 2.0574318702e+000	-1.9160944756e-001
 3.6536126199e-001	 2.0612134272e+000	-1.7334145458e-001
 3.4466348611e-001	 2.0647752345e+000	-1.4479480853e-001
 3.2399746749e-001	 2.0681187935e+000	-1.0968032840e-001
 3.0336630188e-001	 2.0712456583e+000	-7.1941995179e-002
 2.8277303362e-001	 2.0741574342e+000	-3.5739521049e-002
 2.6222065487e-001	 2.0768557760e+000	-5.4310097621e-003
 2.4171210474e-001	 2.0793423861e+000	 1.4444365446e-002
 2.2125026867e-001	 2.0816190127e+000	 1.9183735286e-002
 2.0083797774e-001	 2.0836874487e+000	 3.9380231275e-003
 4.1202157433e-001	 2.0795847002e+000	-1.8485855557e-001
 3.9100544595e-001	 2.0836384389e+000	-1.7950971737e-001
 3.7001505644e-001	 2.0874681636e+000	-1.6024636246e-001
 3.4905364234e-001	 2.0910753395e+000	-1.3048788089e-001
 3.2812439000e-001	 2.0944614871e+000	-9.3927210286e-002
 3.0723043461e-001	 2.0976281804e+000	-5.4514104539e-002
 2.8637485930e-001	 2.1005770451e+000	-1.6438552825e-002
 2.6556069432e-001	 2.1033097570e+000	 1.5885740967e-002
 2.4479091623e-001	 2.1058280403e+000	 3.7837904275e-002
 2.2406844723e-001	 2.1081336655e+000	 4.4606548216e-002
 2.0339615444e-001	 2.1102284483e+000	 3.1206601213e-002
 4.1720369783e-001	 2.1057402838e+000	-1.6264898341e-001
 3.9592324306e-001	 2.1098450077e+000	-1.5544177508e-001
 3.7466885089e-001	 2.1137229000e+000	-1.3440853315e-001
 3.5344379857e-001	 2.1173754444e+000	-1.0292159632e-001
 3.3225131251e-001	 2.1208041806e+000	-6.4647592274e-002
 3.1109456735e-001	 2.1240107024e+000	-2.3531769894e-002
 2.8997668498e-001	 2.1269966559e+000	 1.6217532213e-002
 2.6890073377e-001	 2.1297637380e+000	 5.0144385404e-002
 2.4786972772e-001	 2.1323136945e+000	 7.3560838444e-002
 2.2688662578e-001	 2.1346483183e+000	 8.1562646667e-002
 2.0595433114e-001	 2.1367694478e+000	 6.9045250113e-002
 4.2238582132e-001	 2.1318958674e+000	-1.3420346781e-001
 4.0084104017e-001	 2.1360515764e+000	-1.2436633683e-001
 3.7932264534e-001	 2.1399776363e+000	-1.0099219405e-001
 3.5783395480e-001	 2.1436755493e+000	-6.7397061130e-002
 3.3637823502e-001	 2.1471468742e+000	-2.7209918094e-002
 3.1495870008e-001	 2.1503932245e+000	 1.5641692117e-002
 2.9357851066e-001	 2.1534162668e+000	 5.6945933539e-002
 2.7224077322e-001	 2.1562177190e+000	 9.2220941573e-002
 2.5094853921e-001	 2.1587993488e+000	 1.1672919673e-001
 2.2970480434e-001	 2.1611629711e+000	 1.2549211603e-001
 2.0851250784e-001	 2.1633104473e+000	 1.1330496307e-001
 4.2756794481e-001	 2.1580514510e+000	-1.0376516675e-001
 4.0575883728e-001	 2.1622581451e+000	-9.0816782128e-002
 3.8397643979e-001	 2.1662323727e+000	-6.4761648389e-002
 3.6222411102e-001	 2.1699756543e+000	-2.8847257538e-002
 3.4050515753e-001	 2.1734895678e+000	 1.3349377547e-002
 3.1882283282e-001	 2.1767757465e+000	 5.7934624761e-002
 2.9718033633e-001	 2.1798358776e+000	 1.0071101567e-001
 2.7558081267e-001	 2.1826717000e+000	 1.3719004716e-001
 2.5402735071e-001	 2.1852850030e+000	 1.6260513321e-001
 2.3252298289e-001	 2.1876776239e+000	 1.7192483105e-001
 2.1107068453e-001	 2.1898514469e+000	 1.5986645759e-001
 4.3275006830e-001	 2.1842070346e+000	-7.5137169124e-002
 4.1067663439e-001	 2.1884647138e+000	-5.8907830787e-002
 3.8863023425e-001	 2.1924871090e+000	-3.0088291010e-002
 3.6661426725e-001	 2.1962757592e+000	 8.1577143606e-003
 3.4463208005e-001	 2.1998322613e+000	 5.2322516641e-002
 3.2268696555e-001	 2.2031582686e+000	 9.8565686983e-002
 3.0078216201e-001	 2.2062554884e+000	 1.4272509334e-001
 2.7892085212e-001	 2.2091256810e+000	 1.8032799816e-001
 2.5710616220e-001	 2.2117706572e+000	 2.0660234629e-001
 2.3534116144e-001	 2.2141922767e+000	 2.1648838481e-001
 2.1362886123e-001	 2.2163924464e+000	 2.0465074676e-001
 4.3793219180e-001	 2.2103626182e+000	-5.1692551827e-002
 4.1559443150e-001	 2.2146712825e+000	-3.2344095862e-002
 3.9328402870e-001	 2.2187418454e+000	-9.5755938109e-004
 3.7100442348e-001	 2.2225758641e+000	 3.9405388097e-002
 3.4875900256e-001	 2.2261749549e+000	 8.5326934959e-002
 3.2655109828e-001	 2.2295407906e+000	 1.3304232197e-001
 3.0438398769e-001	 2.2326750993e+000	 1.7844892015e-001
 2.8226089157e-001	 2.2355796621e+000	 2.1711536897e-001
 2.6018497369e-001	 2.2382563115e+000	 2.4429094433e-001
 2.3815934000e-001	 2.2407069295e+000	 2.5491531656e-001
 2.1618703793e-001	 2.2429334459e+000	 2.4362884878e-001
 4.4311431529e-001	 2.2365182018e+000	-3.6384280143e-002
 4.2051222860e-001	 2.2408778513e+000	-1.4428522756e-002
 3.9793782315e-001	 2.2449965817e+000	 1.9024175049e-002
 3.7539457970e-001	 2.2488759691e+000	 6.1035676246e-002
 3.5288592506e-001	 2.2525176484e+000	 1.0830175594e-001
 3.3041523102e-001	 2.2559233126e+000	 1.5715905384e-001
 3.0798581336e-001	 2.2590947101e+000	 2.0359190499e-001
 2.8560093102e-001	 2.2620336431e+000	 2.4323924823e-001
 2.6326378518e-001	 2.2647419657e+000	 2.7140180304e-001
 2.4097751855e-001	 2.2672215823e+000	 2.8304969581e-001
 2.1874521463e-001	 2.2694744455e+000	 2.7283070513e-001
 4.4829643878e-001	 2.2626737853e+000	-3.1754963928e-002
 4.2543002571e-001	 2.2670844200e+000	-8.0707236892e-003
 4.0259161760e-001	 2.2712513181e+000	 2.6622770242e-002
 3.7978473593e-001	 2.2751760740e+000	 6.9535610275e-002
 3.5701284757e-001	 2.2788603420e+000	 1.1750418817e-001
 3.3427936375e-001	 2.2823058347e+000	 1.6699562636e-001
 3.1158763904e-001	 2.2855143209e+000	 2.1411207836e-001
 2.8894097047e-001	 2.2884876241e+000	 2.5459512145e-001
 2.6634259667e-001	 2.2912276199e+000	 2.8383045604e-001
 2.4379569710e-001	 2.2937362351e+000	 2.9685311466e-001
 2.2130339132e-001	 2.2960154450e+000	 2.8835337142e-001
 4.5347856227e-001	 2.2888293689e+000	-3.9946481192e-002
 4.3034782282e-001	 2.2932909887e+000	-1.5795215885e-002
 4.0724541205e-001	 2.2975060545e+000	 1.8969527354e-002
 3.8417489215e-001	 2.3014761789e+000	 6.1734075297e-002
 3.6113977008e-001	 2.3052030356e+000	 1.0950585243e-001
 3.3814349649e-001	 2.3086883567e+000	 1.5891499637e-001
 3.1518946472e-001	 2.3119339318e+000	 2.0621582840e-001
 2.9228100992e-001	 2.3149416051e+000	 2.4728842874e-001
 2.6942140816e-001	 2.3177132742e+000	 2.7764055566e-001
 2.4661387566e-001	 2.3202508879e+000	 2.9241013584e-001
 2.2386156802e-001	 2.3225564445e+000	 2.8636853926e-001
 1.9827980105e-001	 2.0571464492e+000	-8.5932641906e-003
 1.7817616239e-001	 2.0589850721e+000	-2.7439407305e-002
 1.5812692275e-001	 2.0606217602e+000	-2.7430356829e-002
 1.3813475442e-001	 2.0620584056e+000	-1.4237367316e-002
 1.1820227270e-001	 2.0632969374e+000	 6.4471002788e-003
 9.8332035568e-002	 2.0643393199e+000	 2.8928873879e-002
 7.8526543355e-002	 2.0651875510e+000	 4.7531738940e-002
 5.8788238498e-002	 2.0658436604e+000	 5.6617292368e-002
 3.9119505332e-002	 2.0663097081e+000	 5.0604986829e-002
 1.9522669929e-002	 2.0665877828e+000	 2.3992363823e-002
 0.0000000000e+000	 2.0666800000e+000	-2.8624556665e-002
 2.0083797774e-001	 2.0836874487e+000	 3.9380231275e-003
 1.8047496491e-001	 2.0855497932e+000	-1.1255910118e-002
 1.6016705295e-001	 2.0872075977e+000	-6.8425094011e-003
 1.3991694861e-001	 2.0886627785e+000	 1.1439642841e-002
 1.1972730096e-001	 2.0899172897e+000	 3.7792204085e-002
 9.9600700963e-002	 2.0909731208e+000	 6.6376545968e-002
 7.9539681215e-002	 2.0918322956e+000	 9.1333522910e-002
 5.9546715666e-002	 2.0924968700e+000	 1.0680355060e-001
 3.9624219410e-002	 2.0929689307e+000	 1.0694700211e-001
 1.9774548532e-002	 2.0932505931e+000	 8.5964921712e-002
 0.0000000000e+000	 2.0933440000e+000	 3.8120024619e-002
 2.0339615444e-001	 2.1102284483e+000	 3.1206601213e-002
 1.8277376743e-001	 2.1121145144e+000	 1.7877468205e-002
 1.6220718314e-001	 2.1137934352e+000	 2.4463828776e-002
 1.4169914281e-001	 2.1152671514e+000	 4.5172376606e-002
 1.2125232922e-001	 2.1165376419e+000	 7.4111937703e-002
 1.0086936636e-001	 2.1176069217e+000	 1.0531275227e-001
 8.0552819076e-002	 2.1184770403e+000	 1.3274617910e-001
 6.0305192834e-002	 2.1191500797e+000	 1.5034484224e-001
 4.0128933488e-002	 2.1196281532e+000	 1.5202323100e-001
 2.0026427135e-002	 2.1199134033e+000	 1.3169875557e-001
 0.0000000000e+000	 2.1200080000e+000	 8.3313227614e-002
 2.0595433114e-001	 2.1367694478e+000	 6.9045250113e-002
 1.8507256995e-001	 2.1386792356e+000	 5.6366220807e-002
 1.6424731334e-001	 2.1403792726e+000	 6.3573822134e-002
 1.4348133700e-001	 2.1418715243e+000	 8.4835196232e-002
 1.2277735748e-001	 2.1431579941e+000	 1.1418184942e-001
 1.0213803175e-001	 2.1442407226e+000	 1.4552856043e-001
 8.1565956938e-002	 2.1451217849e+000	 1.7269284689e-001
 6.1063670002e-002	 2.1458032894e+000	 1.8941501485e-001
 4.0633647567e-002	 2.1462873758e+000	 1.8937880639e-001
 2.0278305739e-002	 2.1465762135e+000	 1.6623265037e-001
 0.0000000000e+000	 2.1466720000e+000	 1.1361148730e-001
 2.0851250784e-001	 2.1633104473e+000	 1.1330496307e-001
 1.8737137247e-001	 2.1652439568e+000	 1.0056713143e-001
 1.6628744353e-001	 2.1669651101e+000	 1.0745281883e-001
 1.4526353119e-001	 2.1684758971e+000	 1.2810747383e-001
 1.2430238574e-001	 2.1697783463e+000	 1.5650337720e-001
 1.0340669715e-001	 2.1708745235e+000	 1.8645798483e-001
 8.2579094799e-002	 2.1717665295e+000	 2.1165297255e-001
 6.1822147171e-002	 2.1724564990e+000	 2.2565401382e-001
 4.1138361646e-002	 2.1729465983e+000	 2.2193130966e-001
 2.0530184342e-002	 2.1732390237e+000	 1.9388087962e-001
 0.0000000000e+000	 2.1733360000e+000	 1.3484658669e-001
 2.1107068453e-001	 2.1898514469e+000	 1.5986645759e-001
 1.8967017500e-001	 2.1918086779e+000	 1.4680276888e-001
 1.6832757373e-001	 2.1935509476e+000	 1.5296401325e-001
 1.4704572539e-001	 2.1950802700e+000	 1.7249460933e-001
 1.2582741400e-001	 2.1963986986e+000	 1.9932841240e-001
 1.0467536255e-001	 2.1975083244e+000	 2.2720628893e-001
 8.3592232661e-002	 2.1984112742e+000	 2.4969454572e-001
 6.2580624339e-002	 2.1991097087e+000	 2.6020425082e-001
 4.1643075725e-002	 2.1996058209e+000	 2.5201147129e-001
 2.0782062946e-002	 2.1999018340e+000	 2.1827844046e-001
 0.0000000000e+000	 2.2000000000e+000	 1.5207563074e-001
 2.1362886123e-001	 2.2163924464e+000	 2.0465074676e-001
 1.9196897752e-001	 2.2183733991e+000	 1.9137485128e-001
 1.7036770392e-001	 2.2201367851e+000	 1.9688477118e-001
 1.4882791958e-001	 2.2216846429e+000	 2.1534748762e-001
 1.2735244226e-001	 2.2230190508e+000	 2.4068206239e-001
 1.0594402794e-001	 2.2241421253e+000	 2.6657622978e-001
 8.4605370523e-002	 2.2250560188e+000	 2.8650400457e-001
 6.3339101508e-002	 2.2257629184e+000	 2.9374435097e-001
 4.2147789804e-002	 2.2262650434e+000	 2.8140094352e-001
 2.1033941550e-002	 2.2265646442e+000	 2.4242303774e-001
 0.0000000000e+000	 2.2266640000e+000	 1.6962742969e-001
 2.1618703793e-001	 2.2429334459e+000	 2.4362884878e-001
 1.9426778004e-001	 2.2449381203e+000	 2.3057657371e-001
 1.7240783412e-001	 2.2467226226e+000	 2.3592172855e-001
 1.5061011377e-001	 2.2482890157e+000	 2.5388050398e-001
 1.2887747052e-001	 2.2496394030e+000	 2.7838376132e-001
 1.0721269334e-001	 2.2507759262e+000	 3.0309241508e-001
 8.5618508384e-002	 2.2517007635e+000	 3.2141400287e-001
 6.4097578677e-002	 2.2524161280e+000	 3.2652049584e-001
 4.2652503883e-002	 2.2529242659e+000	 3.1136738787e-001
 2.1285820153e-002	 2.2532274544e+000	 2.6871408648e-001
 0.0000000000e+000	 2.2533280000e+000	 1.9114558921e-001
 2.1874521463e-001	 2.2694744455e+000	 2.7283070513e-001
 1.9656658256e-001	 2.2715028415e+000	 2.6070398402e-001
 1.7444796431e-001	 2.2733084601e+000	 2.6672476399e-001
 1.5239230797e-001	 2.2748933886e+000	 2.8518827524e-001
 1.3040249878e-001	 2.2762597552e+000	 3.1006686421e-001
 1.0848135873e-001	 2.2774097270e+000	 3.3502392736e-001
 8.6631646245e-002	 2.2783455081e+000	 3.5342921381e-001
 6.4856055845e-002	 2.2790693377e+000	 3.5837555919e-001
 4.3157217962e-002	 2.2795834885e+000	 3.4269709699e-001
 2.1537698757e-002	 2.2798902646e+000	 2.9898897669e-001
 0.0000000000e+000	 2.2799920000e+000	 2.1962857695e-001
 2.2130339132e-001	 2.2960154450e+000	 2.8835337142e-001
 1.9886538508e-001	 2.2980675626e+000	 2.7806648407e-001
 1.7648809451e-001	 2.2998942975e+000	 2.8589993649e-001
 1.5417450216e-001	 2.3014977615e+000	 3.0626114280e-001
 1.3192752703e-001	 2.3028801075e+000	 3.3319684705e-001
 1.0975002413e-001	 2.3040435279e+000	 3.6040535547e-001
 8.7644784106e-002	 2.3049902527e+000	 3.8125032969e-001
 6.5614533013e-002	 2.3057225474e+000	 3.8877621390e-001
 4.3661932041e-002	 2.3062427110e+000	 3.7572535070e-001
 2.1789577360e-002	 2.3065530749e+000	 3.3455682219e-001
 0.0000000000e+000	 2.3066560000e+000	 2.5746701025e-001
 2.2386156802e-001	 2.3225564445e+000	 2.8636853926e-001
 2.0116418761e-001	 2.3246322838e+000	 2.7899652599e-001
 1.7852822470e-001	 2.3264801350e+000	 2.9002147074e-001
 1.5595669635e-001	 2.3281021343e+000	 3.1399956429e-001
 1.3345255529e-001	 2.3295004597e+000	 3.4508822459e-001
 1.1101868952e-001	 2.3306773288e+000	 3.7705636078e-001
 8.8657921967e-002	 2.3316349974e+000	 4.0329640158e-001
 6.6373010180e-002	 2.3323757570e+000	 4.1683817263e-001
 4.4166646119e-002	 2.3329019336e+000	 4.1036468716e-001
 2.2041455963e-002	 2.3332158851e+000	 3.7622989458e-001
 0.0000000000e+000	 2.3333200000e+000	 3.0647838715e-001
 2.3333200000e+000	 0.0000000000e+000	 1.8725130179e+000
 2.3332158851e+000	 2.2041455963e-002	 1.8867610307e+000
 2.3329019336e+000	 4.4166646119e-002	 1.9053269132e+000
 2.3323757570e+000	 6.6373010180e-002	 1.9259650805e+000
 2.3316349974e+000	 8.8657921967e-002	 1.9466255035e+000
 2.3306773288e+000	 1.1101868952e-001	 1.9654677231e+000
 2.3295004597e+000	 1.3345255529e-001	 1.9808722138e+000
 2.3281021343e+000	 1.5595669635e-001	 1.9914491236e+000
 2.3264801350e+000	 1.7852822470e-001	 1.9960444620e+000
 2.3246322838e+000	 2.0116418761e-001	 1.9937438337e+000
 2.3225564445e+000	 2.2386156802e-001	 1.9838738496e+000
 2.3599880000e+000	 0.0000000000e+000	 1.7672338220e+000
 2.3598826951e+000	 2.2293372352e-002	 1.7927911371e+000
 2.3595651554e+000	 4.4671435911e-002	 1.8222504232e+000
 2.3590329651e+000	 6.7131601130e-002	 1.8531423040e+000
 2.3582837391e+000	 8.9671211813e-002	 1.8832495672e+000
 2.3573151252e+000	 1.1228754524e-001	 1.9106199899e+000
 2.3561248054e+000	 1.3497781233e-001	 1.9335761585e+000
 2.3547104983e+000	 1.5773915790e-001	 1.9507223193e+000
 2.3530699608e+000	 1.8056866094e-001	 1.9609483369e+000
 2.3512009901e+000	 2.0346333498e-001	 1.9634308729e+000
 2.3491014256e+000	 2.2642012848e-001	 1.9576319291e+000
 2.3866560000e+000	 0.0000000000e+000	 1.7043085784e+000
 2.3865495052e+000	 2.2545288740e-002	 1.7336966381e+000
 2.3862283772e+000	 4.5176225704e-002	 1.7672659226e+000
 2.3856901731e+000	 6.7890192080e-002	 1.8022915775e+000
 2.3849324809e+000	 9.0684501658e-002	 1.8363602026e+000
 2.3839529215e+000	 1.1355640095e-001	 1.8673813285e+000
 2.3827491510e+000	 1.3650306936e-001	 1.8935955133e+000
 2.3813188622e+000	 1.5952161945e-001	 1.9135791002e+000
 2.3796597865e+000	 1.8260909719e-001	 1.9262457247e+000
 2.3777696964e+000	 2.0576248236e-001	 1.9308446968e+000
 2.3756464067e+000	 2.2897868894e-001	 1.9269564177e+000
 2.4133240000e+000	 0.0000000000e+000	 1.6838145890e+000
 2.4132163152e+000	 2.2797205128e-002	 1.7103902642e+000
 2.4128915991e+000	 4.5681015496e-002	 1.7420018953e+000
 2.4123473812e+000	 6.8648783029e-002	 1.7756428205e+000
 2.4115812226e+000	 9.1697791503e-002	 1.8086800768e+000
 2.4105907179e+000	 1.1482525666e-001	 1.8388643523e+000
 2.4093734967e+000	 1.3802832640e-001	 1.8643361620e+000
 2.4079272261e+000	 1.6130408099e-001	 1.8836282915e+000
 2.4062496123e+000	 1.8464953343e-001	 1.8956646124e+000
 2.4043384027e+000	 2.0806162973e-001	 1.8997554051e+000
 2.4021913878e+000	 2.3153724940e-001	 1.8955893680e+000
 2.4399920000e+000	 0.0000000000e+000	 1.7059316422e+000
 2.4398831253e+000	 2.3049121516e-002	 1.7238657333e+000
 2.4395548209e+000	 4.6185805287e-002	 1.7481464666e+000
 2.4390045892e+000	 6.9407373978e-002	 1.7754644898e+000
 2.4382299644e+000	 9.2711081348e-002	 1.8029496232e+000
 2.4372285143e+000	 1.1609411237e-001	 1.8281790976e+000
 2.4359978424e+000	 1.3955358343e-001	 1.8491815925e+000
 2.4345355900e+000	 1.6308654254e-001	 1.8644371282e+000
 2.4328394381e+000	 1.8668996967e-001	 1.8728729264e+000
 2.4309071089e+000	 2.1036077711e-001	 1.8738553910e+000
 2.4287363689e+000	 2.3409580986e-001	 1.8671784067e+000
 2.4666600000e+000	 0.0000000000e+000	 1.7709364727e+000
 2.4665499353e+000	 2.3301037904e-002	 1.7751930610e+000
 2.4662180427e+000	 4.6690595079e-002	 1.7874434807e+000
 2.4656617973e+000	 7.0165964927e-002	 1.8040603480e+000
 2.4648787062e+000	 9.3724371192e-002	 1.8219244342e+000
 2.4638663106e+000	 1.1736296808e-001	 1.8384309821e+000
 2.4626221881e+000	 1.4107884046e-001	 1.8514913724e+000
 2.4611439540e+000	 1.6486900409e-001	 1.8595302060e+000
 2.4594292638e+000	 1.8873040592e-001	 1.8614779272e+000
 2.4574758152e+000	 2.1265992448e-001	 1.8567591576e+000
 2.4552813499e+000	 2.3665437032e-001	 1.8452769572e+000
 2.4933280000e+000	 0.0000000000e+000	 1.8791975770e+000
 2.4932167454e+000	 2.3552954292e-002	 1.8655141715e+000
 2.4928812646e+000	 4.7195384870e-002	 1.8616888298e+000
 2.4923190053e+000	 7.0924555876e-002	 1.8637664413e+000
 2.4915274479e+000	 9.4737661037e-002	 1.8683728262e+000
 2.4905041070e+000	 1.1863182380e-001	 1.8727189038e+000
 2.4892465338e+000	 1.4260409750e-001	 1.8745997358e+000
 2.4877523179e+000	 1.6665146563e-001	 1.8723885200e+000
 2.4860190896e+000	 1.9077084216e-001	 1.8650256720e+000
 2.4840445215e+000	 2.1495907186e-001	 1.8520031845e+000
 2.4818263310e+000	 2.3921293079e-001	 1.8333445002e+000
 2.5199960000e+000	 0.0000000000e+000	 2.0311703578e+000
 2.5198835554e+000	 2.3804870680e-002	 1.9960387883e+000
 2.5195444864e+000	 4.7700174662e-002	 1.9727270177e+000
 2.5189762134e+000	 7.1683146825e-002	 1.9569482721e+000
 2.5181761897e+000	 9.5750950882e-002	 1.9450735636e+000
 2.5171419034e+000	 1.1990067951e-001	 1.9341334678e+000
 2.5158708794e+000	 1.4412935453e-001	 1.9218142728e+000
 2.5143606818e+000	 1.6843392718e-001	 1.9064485838e+000
 2.5126089153e+000	 1.9281127840e-001	 1.8870005390e+000
 2.5106132278e+000	 2.1725821923e-001	 1.8630458414e+000
 2.5083713121e+000	 2.4177149125e-001	 1.8347468692e+000
 2.5466640000e+000	 0.0000000000e+000	 2.2273925738e+000
 2.5465503655e+000	 2.4056787068e-002	 2.1680405824e+000
 2.5462077083e+000	 4.8204964454e-002	 2.1224479401e+000
 2.5456334215e+000	 7.2441737774e-002	 2.0859981509e+000
 2.5448249314e+000	 9.6764240726e-002	 2.0548137306e+000
 2.5437796997e+000	 1.2116953522e-001	 2.0257553334e+000
 2.5424952251e+000	 1.4565461156e-001	 1.9964147141e+000
 2.5409690458e+000	 1.7021638873e-001	 1.9651016239e+000
 2.5391987411e+000	 1.9485171464e-001	 1.9308248099e+000
 2.5371819341e+000	 2.1955736661e-001	 1.8932673458e+000
 2.5349162932e+000	 2.4433005171e-001	 1.8527565785e+000
 2.5733320000e+000	 0.0000000000e+000	 2.4684800728e+000
 2.5732171755e+000	 2.4308703457e-002	 2.3828535606e+000
 2.5728709301e+000	 4.8709754246e-002	 2.3127838658e+000
 2.5722906295e+000	 7.3200328724e-002	 2.2533327149e+000
 2.5714736732e+000	 9.7777530572e-002	 2.2003867396e+000
 2.5704174961e+000	 1.2243839093e-001	 2.1506536713e+000
 2.5691195708e+000	 1.4717986860e-001	 2.1016518050e+000
 2.5675774097e+000	 1.7199885027e-001	 2.0516928428e+000
 2.5657885669e+000	 1.9689215089e-001	 1.9998583055e+000
 2.5637506404e+000	 2.2185651398e-001	 1.9459697611e+000
 2.5614612743e+000	 2.4688861217e-001	 1.8905531802e+000
 2.6000000000e+000	 0.0000000000e+000	 2.7551227860e+000
 2.5998839856e+000	 2.4560619845e-002	 2.6418686762e+000
 2.5995341519e+000	 4.9214544039e-002	 2.5457066047e+000
 2.5989478376e+000	 7.3958919674e-002	 2.4613906026e+000
 2.5981224149e+000	 9.8790820418e-002	 2.3845904672e+000
 2.5970552924e+000	 1.2370724665e-001	 2.3118847241e+000
 2.5957439165e+000	 1.4870512563e-001	 2.2407462599e+000
 2.5941857736e+000	 1.7378131182e-001	 2.1695207471e+000
 2.5923783926e+000	 1.9893258713e-001	 2.0973980716e+000
 2.5903193466e+000	 2.2415566136e-001	 2.0243770319e+000
 2.5880062554e+000	 2.4944717263e-001	 1.9512236507e+000
 2.3225564445e+000	 2.2386156802e-001	 1.9838738496e+000
 2.3202508879e+000	 2.4661387566e-001	 1.9705961475e+000
 2.3177132742e+000	 2.6942140816e-001	 1.9573955084e+000
 2.3149416051e+000	 2.9228100992e-001	 1.9429252622e+000
 2.3119339318e+000	 3.1518946472e-001	 1.9260414460e+000
 2.3086883567e+000	 3.3814349649e-001	 1.9057964347e+000
 2.3052030356e+000	 3.6113977008e-001	 1.8814316902e+000
 2.3014761789e+000	 3.8417489215e-001	 1.8523699567e+000
 2.2975060545e+000	 4.0724541205e-001	 1.8182072513e+000
 2.2932909887e+000	 4.3034782282e-001	 1.7787050210e+000
 2.2888293689e+000	 4.5347856227e-001	 1.7337828532e+000
 2.3491014256e+000	 2.2642012848e-001	 1.9576319291e+000
 2.3467695183e+000	 2.4943247698e-001	 1.9477648919e+000
 2.3442029017e+000	 2.7250068152e-001	 1.9372629895e+000
 2.3413995546e+000	 2.9562155042e-001	 1.9248122759e+000
 2.3383575059e+000	 3.1879183072e-001	 1.9093287222e+000
 2.3350748366e+000	 3.4200820890e-001	 1.8899480425e+000
 2.3315496809e+000	 3.6526731169e-001	 1.8660144855e+000
 2.3277802293e+000	 3.8856570697e-001	 1.8370689529e+000
 2.3237647294e+000	 4.1189990463e-001	 1.8028368271e+000
 2.3195014888e+000	 4.3526635767e-001	 1.7632159174e+000
 2.3149888762e+000	 4.5866146316e-001	 1.7182649509e+000
 2.3756464067e+000	 2.2897868894e-001	 1.9269564177e+000
 2.3732881487e+000	 2.5225107830e-001	 1.9188196931e+000
 2.3706925291e+000	 2.7557995488e-001	 1.9097730170e+000
 2.3678575041e+000	 2.9896209093e-001	 1.8984947148e+000
 2.3647810801e+000	 3.2239419672e-001	 1.8839200926e+000
 2.3614613164e+000	 3.4587292131e-001	 1.8652271739e+000
 2.3578963263e+000	 3.6939485330e-001	 1.8418212438e+000
 2.3540842796e+000	 3.9295652178e-001	 1.8133185963e+000
 2.3500234044e+000	 4.1655439722e-001	 1.7795299053e+000
 2.3457119889e+000	 4.4018489252e-001	 1.7404436680e+000
 2.3411483836e+000	 4.6384436404e-001	 1.6962101863e+000
 2.4021913878e+000	 2.3153724940e-001	 1.8955893680e+000
 2.3998067791e+000	 2.5506967962e-001	 1.8874106595e+000
 2.3971821566e+000	 2.7865922823e-001	 1.8784267739e+000
 2.3943154536e+000	 3.0230263143e-001	 1.8672759290e+000
 2.3912046543e+000	 3.2599656273e-001	 1.8528803138e+000
 2.3878477962e+000	 3.4973763372e-001	 1.8344274244e+000
 2.3842429716e+000	 3.7352239491e-001	 1.8113500436e+000
 2.3803883299e+000	 3.9734733659e-001	 1.7833052961e+000
 2.3762820793e+000	 4.2120888981e-001	 1.7501532403e+000
 2.3719224890e+000	 4.4510342737e-001	 1.7119354872e+000
 2.3673078909e+000	 4.6902726493e-001	 1.6688543574e+000
 2.4287363689e+000	 2.3409580986e-001	 1.8671784067e+000
 2.4263254095e+000	 2.5788828094e-001	 1.8570778157e+000
 2.4236717841e+000	 2.8173850159e-001	 1.8466008681e+000
 2.4207734031e+000	 3.0564317194e-001	 1.8343214274e+000
 2.4176282285e+000	 3.2959892873e-001	 1.8191243145e+000
 2.4142342760e+000	 3.5360234613e-001	 1.8001819047e+000
 2.4105896170e+000	 3.7764993651e-001	 1.7769291968e+000
 2.4066923803e+000	 4.0173815140e-001	 1.7490378265e+000
 2.4025407543e+000	 4.2586338240e-001	 1.7163895283e+000
 2.3981329891e+000	 4.5002196221e-001	 1.6790495792e+000
 2.3934673982e+000	 4.7421016581e-001	 1.6372407853e+000
 2.4552813499e+000	 2.3665437032e-001	 1.8452769572e+000
 2.4528440399e+000	 2.6070688226e-001	 1.8312517252e+000
 2.4501614116e+000	 2.8481777495e-001	 1.8175483573e+000
 2.4472313525e+000	 3.0898371244e-001	 1.8026603176e+000
 2.4440518026e+000	 3.3320129473e-001	 1.7854190753e+000
 2.4406207558e+000	 3.5746705854e-001	 1.7649655959e+000
 2.4369362624e+000	 3.8177747812e-001	 1.7407201254e+000
 2.4329964306e+000	 4.0612896622e-001	 1.7123507833e+000
 2.4287994293e+000	 4.3051787498e-001	 1.6797415129e+000
 2.4243434892e+000	 4.5494049706e-001	 1.6429599712e+000
 2.4196269055e+000	 4.7939306669e-001	 1.6022259673e+000
 2.4818263310e+000	 2.3921293079e-001	 1.8333445002e+000
 2.4793626703e+000	 2.6352548358e-001	 1.8132541410e+000
 2.4766510391e+000	 2.8789704831e-001	 1.7943997944e+000
 2.4736893020e+000	 3.1232425294e-001	 1.7751867616e+000
 2.4704753768e+000	 3.3680366073e-001	 1.7543855201e+000
 2.4670072357e+000	 3.6133177094e-001	 1.7310977132e+000
 2.4632829077e+000	 3.8590501973e-001	 1.7047202452e+000
 2.4593004810e+000	 4.1051978103e-001	 1.6749080448e+000
 2.4550581042e+000	 4.3517236757e-001	 1.6415360929e+000
 2.4505539893e+000	 4.5985903191e-001	 1.6046613468e+000
 2.4457864128e+000	 4.8457596758e-001	 1.5644852250e+000
 2.5083713121e+000	 2.4177149125e-001	 1.8347468692e+000
 2.5058813007e+000	 2.6634408490e-001	 1.8062986818e+000
 2.5031406665e+000	 2.9097632166e-001	 1.7801642911e+000
 2.5001472515e+000	 3.1566479345e-001	 1.7546614439e+000
 2.4968989510e+000	 3.4040602674e-001	 1.7285004168e+000
 2.4933937155e+000	 3.6519648335e-001	 1.7007440769e+000
 2.4896295531e+000	 3.9003256133e-001	 1.6707658548e+000
 2.4856045313e+000	 4.1491059584e-001	 1.6382062378e+000
 2.4813167792e+000	 4.3982686015e-001	 1.6029284318e+000
 2.4767644894e+000	 4.6477756676e-001	 1.5649738784e+000
 2.4719459201e+000	 4.8975886846e-001	 1.5245183474e+000
 2.5349162932e+000	 2.4433005171e-001	 1.8527565785e+000
 2.5323999311e+000	 2.6916268622e-001	 1.8134915315e+000
 2.5296302940e+000	 2.9405559502e-001	 1.7777305986e+000
 2.5266052010e+000	 3.1900533395e-001	 1.7437130533e+000
 2.5233225252e+000	 3.4400839274e-001	 1.7100982882e+000
 2.5197801953e+000	 3.6906119576e-001	 1.6759194915e+000
 2.5159761984e+000	 3.9416010294e-001	 1.6405350314e+000
 2.5119085816e+000	 4.1930141065e-001	 1.6035782070e+000
 2.5075754541e+000	 4.4448135274e-001	 1.5649060698e+000
 2.5029749895e+000	 4.6969610161e-001	 1.5245480589e+000
 2.4981054275e+000	 4.9494176935e-001	 1.4826552290e+000
 2.5614612743e+000	 2.4688861217e-001	 1.8905531802e+000
 2.5589185615e+000	 2.7198128754e-001	 1.8378321608e+000
 2.5561199215e+000	 2.9713486838e-001	 1.7898682049e+000
 2.5530631505e+000	 3.2234587446e-001	 1.7448397753e+000
 2.5497460993e+000	 3.4761075874e-001	 1.7013733308e+000
 2.5461666751e+000	 3.7292590817e-001	 1.6584901303e+000
 2.5423228438e+000	 3.9828764455e-001	 1.6155505300e+000
 2.5382126320e+000	 4.2369222546e-001	 1.5721964885e+000
 2.5338341291e+000	 4.4913584533e-001	 1.5282930386e+000
 2.5291854896e+000	 4.7461463645e-001	 1.4838695329e+000
 2.5242649348e+000	 5.0012467023e-001	 1.4390615039e+000
 2.5880062554e+000	 2.4944717263e-001	 1.9512236507e+000
 2.5854371919e+000	 2.7479988887e-001	 1.8822140690e+000
 2.5826095490e+000	 3.0021414174e-001	 1.8192284458e+000
 2.5795211000e+000	 3.2568641496e-001	 1.7604107963e+000
 2.5761696735e+000	 3.5121312474e-001	 1.7043813431e+000
 2.5725531550e+000	 3.7679062058e-001	 1.6501759275e+000
 2.5686694892e+000	 4.0241518616e-001	 1.5971826894e+000
 2.5645166823e+000	 4.2808304028e-001	 1.5450767866e+000
 2.5600928041e+000	 4.5379033791e-001	 1.4937539763e+000
 2.5553959897e+000	 4.7953317130e-001	 1.4432639279e+000
 2.5504244421e+000	 5.0530757112e-001	 1.3937441765e+000
 2.2888293689e+000	 4.5347856227e-001	 1.7337828532e+000
 2.2841189201e+000	 4.7663748852e-001	 1.6865468635e+000
 2.2791588084e+000	 4.9981745820e-001	 1.6394298220e+000
 2.2739476157e+000	 5.2301474317e-001	 1.5915273335e+000
 2.2684839922e+000	 5.4622556476e-001	 1.5420597000e+000
 2.2627666581e+000	 5.6944609519e-001	 1.4903754850e+000
 2.2567944051e+000	 5.9267245902e-001	 1.4359582460e+000
 2.2505660983e+000	 6.1590073469e-001	 1.3784368541e+000
 2.2440806781e+000	 6.3912695606e-001	 1.3175998130e+000
 2.2373371614e+000	 6.6234711413e-001	 1.2534139686e+000
 2.2303346436e+000	 6.8555715871e-001	 1.1876752057e+000
 2.3149888762e+000	 4.5866146316e-001	 1.7182649509e+000
 2.3102245907e+000	 4.8208507759e-001	 1.6711526794e+000
 2.3052077888e+000	 5.0552997598e-001	 1.6242365120e+000
 2.2999370364e+000	 5.2899238754e-001	 1.5765352859e+000
 2.2944109680e+000	 5.5246849044e-001	 1.5271784268e+000
 2.2886282893e+000	 5.7595441315e-001	 1.4754062287e+000
 2.2825877781e+000	 5.9944623593e-001	 1.4205735583e+000
 2.2762882867e+000	 6.2293999239e-001	 1.3621574500e+000
 2.2697287433e+000	 6.4643167109e-001	 1.2997690422e+000
 2.2629081536e+000	 6.6991721718e-001	 1.2332122299e+000
 2.2558256026e+000	 6.9339253419e-001	 1.1659329161e+000
 2.3411483836e+000	 4.6384436404e-001	 1.6962101863e+000
 2.3363302614e+000	 4.8753266667e-001	 1.6500268071e+000
 2.3312567693e+000	 5.1124249375e-001	 1.6041610112e+000
 2.3259264570e+000	 5.3497003191e-001	 1.5575328831e+000
 2.3203379438e+000	 5.5871141613e-001	 1.5091555490e+000
 2.3144899205e+000	 5.8246273111e-001	 1.4581318852e+000
 2.3083811512e+000	 6.0622001284e-001	 1.4036549296e+000
 2.3020104752e+000	 6.2997925010e-001	 1.3450125070e+000
 2.2953768085e+000	 6.5373638611e-001	 1.2815965686e+000
 2.2884791457e+000	 6.7748732023e-001	 1.2134470625e+000
 2.2813165615e+000	 7.0122790966e-001	 1.1453564364e+000
 2.3673078909e+000	 4.6902726493e-001	 1.6688543574e+000
 2.3624359320e+000	 4.9298025574e-001	 1.6240989306e+000
 2.3573057498e+000	 5.1695501152e-001	 1.5798285365e+000
 2.3519158777e+000	 5.4094767629e-001	 1.5348489168e+000
 2.3462649196e+000	 5.6495434181e-001	 1.4880376733e+000
 2.3403515516e+000	 5.8897104907e-001	 1.4383370919e+000
 2.3341745242e+000	 6.1299378974e-001	 1.3847509691e+000
 2.3277326636e+000	 6.3701850780e-001	 1.3263460029e+000
 2.3210248737e+000	 6.6104110114e-001	 1.2622582950e+000
 2.3140501379e+000	 6.8505742327e-001	 1.1934109143e+000
 2.3068075204e+000	 7.0906328514e-001	 1.1251128448e+000
 2.3934673982e+000	 4.7421016581e-001	 1.6372407853e+000
 2.3885416026e+000	 4.9842784481e-001	 1.5941047500e+000
 2.3833547302e+000	 5.2266752930e-001	 1.5516712704e+000
 2.3779052983e+000	 5.4692532066e-001	 1.5086225890e+000
 2.3721918953e+000	 5.7119726749e-001	 1.4636877819e+000
 2.3662131828e+000	 5.9547936703e-001	 1.4156313598e+000
 2.3599678973e+000	 6.1976756665e-001	 1.3632461930e+000
 2.3534548520e+000	 6.4405776551e-001	 1.3053513757e+000
 2.3466729389e+000	 6.6834581616e-001	 1.2408076409e+000
 2.3396211300e+000	 6.9262752632e-001	 1.1722135288e+000
 2.3322984793e+000	 7.1689866062e-001	 1.1042527347e+000
 2.4196269055e+000	 4.7939306669e-001	 1.6022259673e+000
 2.4146472732e+000	 5.0387543389e-001	 1.5605925309e+000
 2.4094037107e+000	 5.2838004707e-001	 1.5199358675e+000
 2.4038947190e+000	 5.5290296503e-001	 1.4788120425e+000
 2.3981188711e+000	 5.7744019317e-001	 1.4357948629e+000
 2.3920748140e+000	 6.0198768499e-001	 1.3894598880e+000
 2.3857612703e+000	 6.2654134356e-001	 1.3383731112e+000
 2.3791770405e+000	 6.5109702321e-001	 1.2810849815e+000
 2.3723210042e+000	 6.7565053119e-001	 1.2165245442e+000
 2.3651921222e+000	 7.0019762936e-001	 1.1488541566e+000
 2.3577894383e+000	 7.2473403609e-001	 1.0817154636e+000
 2.4457864128e+000	 4.8457596758e-001	 1.5644852250e+000
 2.4407529438e+000	 5.0932302296e-001	 1.5239296430e+000
 2.4354526912e+000	 5.3409256484e-001	 1.4846909450e+000
 2.4298841397e+000	 5.5888060940e-001	 1.4452028727e+000
 2.4240458469e+000	 5.8368311886e-001	 1.4038835180e+000
 2.4179364451e+000	 6.0849600294e-001	 1.3591143501e+000
 2.4115546434e+000	 6.3331512046e-001	 1.3092242835e+000
 2.4048992289e+000	 6.5813628092e-001	 1.2524795161e+000
 2.3979690694e+000	 6.8295524621e-001	 1.1885083151e+000
 2.3907631144e+000	 7.0776773240e-001	 1.1222262684e+000
 2.3832803972e+000	 7.3256941157e-001	 1.0563343366e+000
 2.4719459201e+000	 4.8975886846e-001	 1.5245183474e+000
 2.4668586144e+000	 5.1477061203e-001	 1.4843090899e+000
 2.4615016716e+000	 5.3980508261e-001	 1.4458345608e+000
 2.4558735603e+000	 5.6485825377e-001	 1.4074166222e+000
 2.4499728226e+000	 5.8992604454e-001	 1.3673235504e+000
 2.4437980763e+000	 6.1500432090e-001	 1.3237436573e+000
 2.4373480164e+000	 6.4008889737e-001	 1.2747643469e+000
 2.4306214173e+000	 6.6517553862e-001	 1.2183574014e+000
 2.4236171346e+000	 6.9025996123e-001	 1.1556314663e+000
 2.4163341065e+000	 7.1533783545e-001	 1.0911222178e+000
 2.4087713561e+000	 7.4040478704e-001	 1.0268417303e+000
 2.4981054275e+000	 4.9494176935e-001	 1.4826552290e+000
 2.4929642851e+000	 5.2021820111e-001	 1.4417560296e+000
 2.4875506521e+000	 5.4551760038e-001	 1.4031016783e+000
 2.4818629810e+000	 5.7083589814e-001	 1.3649192595e+000
 2.4758997984e+000	 5.9616897022e-001	 1.3253395330e+000
 2.4696597075e+000	 6.2151263886e-001	 1.2823646984e+000
 2.4631413894e+000	 6.4686267428e-001	 1.2338420151e+000
 2.4563436058e+000	 6.7221479633e-001	 1.1776031377e+000
 2.4492651998e+000	 6.9756467626e-001	 1.1166693771e+000
 2.4419050987e+000	 7.2290793849e-001	 1.0542378585e+000
 2.4342623150e+000	 7.4824016252e-001	 9.9187415950e-001
 2.5242649348e+000	 5.0012467023e-001	 1.4390615039e+000
 2.5190699557e+000	 5.2566579018e-001	 1.3961342866e+000
 2.5135996326e+000	 5.5123011816e-001	 1.3560716203e+000
 2.5078524016e+000	 5.7681354251e-001	 1.3170296432e+000
 2.5018267742e+000	 6.0241189591e-001	 1.2770203586e+000
 2.4955213386e+000	 6.2802095682e-001	 1.2338730589e+000
 2.4889347625e+000	 6.5363645118e-001	 1.1852020548e+000
 2.4820657942e+000	 6.7925405403e-001	 1.1292748729e+000
 2.4749132650e+000	 7.0486939128e-001	 1.0703044645e+000
 2.4674760908e+000	 7.3047804154e-001	 1.0101771177e+000
 2.4597532740e+000	 7.5607553799e-001	 9.4997729258e-001
 2.5504244421e+000	 5.0530757112e-001	 1.3937441765e+000
 2.5451756263e+000	 5.3111337925e-001	 1.3471528566e+000
 2.5396486130e+000	 5.5694263593e-001	 1.3041755106e+000
 2.5338418223e+000	 5.8279118688e-001	 1.2629279725e+000
 2.5277537500e+000	 6.0865482159e-001	 1.2213287745e+000
 2.5213829698e+000	 6.3452927478e-001	 1.1770537204e+000
 2.5147281355e+000	 6.6041022809e-001	 1.1274972371e+000
 2.5077879826e+000	 6.8629331174e-001	 1.0720722589e+000
 2.5005613302e+000	 7.1217410630e-001	 1.0151303207e+000
 2.4930470830e+000	 7.3804814458e-001	 9.5745653085e-001
 2.4852442329e+000	 7.6391091347e-001	 8.9961091869e-001
 2.2303346436e+000	 6.8555715871e-001	 1.1876752057e+000
 2.2230722995e+000	 7.0875299987e-001	 1.1217918761e+000
 2.2155493829e+000	 7.3193050875e-001	 1.0532735874e+000
 2.2077652301e+000	 7.5508552040e-001	 9.8239248797e-001
 2.1997192618e+000	 7.7821383611e-001	 9.0945525281e-001
 2.1914109843e+000	 8.0131122541e-001	 8.3479626656e-001
 2.1828399911e+000	 8.2437342815e-001	 7.5877120872e-001
 2.1740059639e+000	 8.4739615664e-001	 6.8175109332e-001
 2.1649086739e+000	 8.7037509788e-001	 6.0411681036e-001
 2.1555479833e+000	 8.9330591575e-001	 5.2625421191e-001
 2.1459238455e+000	 9.1618425334e-001	 4.4854978053e-001
 2.2558256026e+000	 6.9339253419e-001	 1.1659329161e+000
 2.2484802556e+000	 7.1685348544e-001	 1.0991706041e+000
 2.2408713580e+000	 7.4029589490e-001	 1.0306252056e+000
 2.2329982385e+000	 7.6371555000e-001	 9.6040356508e-001
 2.2248603111e+000	 7.8710820405e-001	 8.8864147122e-001
 2.2164570766e+000	 8.1046957821e-001	 8.1549668206e-001
 2.2077881238e+000	 8.3379536366e-001	 7.4114242059e-001
 2.1988531306e+000	 8.5708122372e-001	 6.6576139537e-001
 2.1896518658e+000	 8.8032279606e-001	 5.8954039663e-001
 2.1801841899e+000	 9.0351569502e-001	 5.1266551316e-001
 2.1704500559e+000	 9.2665551389e-001	 4.3531800931e-001
 2.2813165615e+000	 7.0122790966e-001	 1.1453564364e+000
 2.2738882116e+000	 7.2495397102e-001	 1.0782414862e+000
 2.2661933331e+000	 7.4866128104e-001	 1.0101088331e+000
 2.2582312469e+000	 7.7234557960e-001	 9.4092874333e-001
 2.2500013605e+000	 7.9600257198e-001	 8.7069380563e-001
 2.2415031690e+000	 8.1962793101e-001	 7.9941173413e-001
 2.2327362564e+000	 8.4321729918e-001	 7.2709871380e-001
 2.2237002973e+000	 8.6676629079e-001	 6.5377334731e-001
 2.2143950577e+000	 8.9027049423e-001	 5.7945125662e-001
 2.2048203965e+000	 9.1372547428e-001	 5.0414038697e-001
 2.1949762662e+000	 9.3712677444e-001	 4.2783705506e-001
 2.3068075204e+000	 7.0906328514e-001	 1.1251128448e+000
 2.2992961677e+000	 7.3305445659e-001	 1.0581215595e+000
 2.2915153082e+000	 7.5702666719e-001	 9.9078444932e-001
 2.2834642553e+000	 7.8097560919e-001	 9.2296354222e-001
 2.2751424099e+000	 8.0489693991e-001	 8.5453548359e-001
 2.2665492613e+000	 8.2878628382e-001	 7.8538405170e-001
 2.2576843891e+000	 8.5263923470e-001	 7.1539329337e-001
 2.2485474640e+000	 8.7645135786e-001	 6.4444134260e-001
 2.2391382496e+000	 9.0021819241e-001	 5.7239497900e-001
 2.2294566031e+000	 9.2393525355e-001	 4.9910497660e-001
 2.2195024766e+000	 9.4759803499e-001	 4.2440228678e-001
 2.3322984793e+000	 7.1689866062e-001	 1.1042527347e+000
 2.3247041238e+000	 7.4115494217e-001	 1.0378105540e+000
 2.3168372833e+000	 7.6539205334e-001	 9.7159497084e-001
 2.3086972637e+000	 7.8960563879e-001	 9.0538775127e-001
 2.3002834592e+000	 8.1379130784e-001	 8.3897644429e-001
 2.2915953536e+000	 8.3794463662e-001	 7.7214654395e-001
 2.2826325217e+000	 8.6206117021e-001	 7.0467435543e-001
 2.2733946308e+000	 8.8613642494e-001	 6.3632063155e-001
 2.2638814415e+000	 9.1016589059e-001	 5.6682504027e-001
 2.2540928097e+000	 9.3414503282e-001	 4.9590151679e-001
 2.2440286869e+000	 9.5806929554e-001	 4.2323454640e-001
 2.3577894383e+000	 7.2473403609e-001	 1.0817154636e+000
 2.3501120799e+000	 7.4925542774e-001	 1.0161966400e+000
 2.3421592584e+000	 7.7375743949e-001	 9.5137247388e-001
 2.3339302721e+000	 7.9823566838e-001	 8.8697210462e-001
 2.3254245086e+000	 8.2268567577e-001	 8.2272044033e-001
 2.3166414459e+000	 8.4710298942e-001	 7.5832990176e-001
 2.3075806544e+000	 8.7148310573e-001	 6.9349295896e-001
 2.2982417975e+000	 8.9582149201e-001	 6.2787553214e-001
 2.2886246334e+000	 9.2011358876e-001	 5.6111132115e-001
 2.2787290163e+000	 9.4435481208e-001	 4.9279712042e-001
 2.2685548972e+000	 9.6854055608e-001	 4.2248916815e-001
 2.3832803972e+000	 7.3256941157e-001	 1.0563343366e+000
 2.3755200360e+000	 7.5735591331e-001	 9.9206209627e-001
 2.3674812335e+000	 7.8212282563e-001	 9.2884432965e-001
 2.3591632805e+000	 8.0686569798e-001	 8.6638486130e-001
 2.3505655579e+000	 8.3158004370e-001	 8.0437203960e-001
 2.3416875382e+000	 8.5626134222e-001	 7.4246999627e-001
 2.3325287870e+000	 8.8090504125e-001	 6.8031079414e-001
 2.3230889642e+000	 9.0550655908e-001	 6.1748753927e-001
 2.3133678253e+000	 9.3006128694e-001	 5.5354852597e-001
 2.3033652229e+000	 9.5456459135e-001	 4.8799247522e-001
 2.2930811076e+000	 9.7901181663e-001	 4.2026491807e-001
 2.4087713561e+000	 7.4040478704e-001	 1.0268417303e+000
 2.4009279921e+000	 7.6545639888e-001	 9.6408890887e-001
 2.3928032086e+000	 7.9048821178e-001	 9.0263925928e-001
 2.3843962889e+000	 8.1549572757e-001	 8.4219829795e-001
 2.3757066073e+000	 8.4047441163e-001	 7.8244353472e-001
 2.3667336306e+000	 8.6541969502e-001	 7.2301518214e-001
 2.3574769197e+000	 8.9032697676e-001	 6.6350785478e-001
 2.3479361309e+000	 9.1519162615e-001	 6.0346333983e-001
 2.3381110172e+000	 9.4000898511e-001	 5.4236451204e-001
 2.3280014296e+000	 9.6477437061e-001	 4.7963045733e-001
 2.3176073179e+000	 9.8948307718e-001	 4.1461285959e-001
 2.4342623150e+000	 7.4824016252e-001	 9.9187415950e-001
 2.4263359481e+000	 7.7355688446e-001	 9.3086430239e-001
 2.4181251837e+000	 7.9885359793e-001	 8.7129331431e-001
 2.4096292973e+000	 8.2412575717e-001	 8.1289512046e-001
 2.4008476566e+000	 8.4936877956e-001	 7.5536176677e-001
 2.3917797229e+000	 8.7457804782e-001	 6.9833351255e-001
 2.3824250523e+000	 8.9974891228e-001	 6.4139002195e-001
 2.3727832976e+000	 9.2487669322e-001	 5.8404274064e-001
 2.3628542091e+000	 9.4995668329e-001	 5.2572853582e-001
 2.3526376362e+000	 9.7498414988e-001	 4.6580466774e-001
 2.3421335283e+000	 9.9995433773e-001	 4.0354515062e-001
 2.4597532740e+000	 7.5607553799e-001	 9.4997729258e-001
 2.4517439042e+000	 7.8165737003e-001	 8.9088621044e-001
 2.4434471588e+000	 8.0721898407e-001	 8.3325578792e-001
 2.4348623057e+000	 8.3275578676e-001	 7.7687480048e-001
 2.4259887060e+000	 8.5826314749e-001	 7.2147486960e-001
 2.4168258152e+000	 8.8373640062e-001	 6.6671987229e-001
 2.4073731850e+000	 9.0917084779e-001	 6.1219656518e-001
 2.3976304643e+000	 9.3456176030e-001	 5.5740651547e-001
 2.3875974010e+000	 9.5990438146e-001	 5.0175942173e-001
 2.3772738428e+000	 9.8519392915e-001	 4.4456789720e-001
 2.3666597386e+000	 1.0104255983e+000	 3.8503706035e-001
 2.4852442329e+000	 7.6391091347e-001	 8.9961091869e-001
 2.4771518603e+000	 7.8975785560e-001	 8.4256868912e-001
 2.4687691339e+000	 8.1558437022e-001	 7.8689506214e-001
 2.4600953141e+000	 8.4138581636e-001	 7.3245984211e-001
 2.4511297553e+000	 8.6715751542e-001	 6.7905894035e-001
 2.4418719075e+000	 8.9289475342e-001	 6.2640303480e-001
 2.4323213176e+000	 9.1859278331e-001	 5.7410756728e-001
 2.4224776311e+000	 9.4424682737e-001	 5.2168417709e-001
 2.4123405929e+000	 9.6985207964e-001	 4.6853365927e-001
 2.4019100494e+000	 9.9540370841e-001	 4.1394052471e-001
 2.3911859489e+000	 1.0208968588e+000	 3.5706321897e-001
 2.1459238455e+000	 9.1618425334e-001	 4.4854978053e-001
 2.1360378104e+000	 9.3900231690e-001	 3.7216248408e-001
 2.1258885955e+000	 9.6175915357e-001	 2.9766522304e-001
 2.1154764373e+000	 9.8445036148e-001	 2.2460034124e-001
 2.1048016674e+000	 1.0070715277e+000	 1.5251320467e-001
 2.0938647137e+000	 1.0296182305e+000	 8.0949364064e-002
 2.0826661006e+000	 1.0520860425e+000	 9.4734814073e-003
 2.0712064498e+000	 1.0744705326e+000	-6.2355502940e-002
 2.0594864808e+000	 1.0967672688e+000	-1.3496158792e-001
 2.0475070112e+000	 1.1189718211e+000	-2.0875317662e-001
 2.0352689572e+000	 1.1410797639e+000	-2.8411866053e-001
 2.1704500559e+000	 9.2665551389e-001	 4.3531800931e-001
 2.1604510311e+000	 9.4973436985e-001	 3.5869995247e-001
 2.1501858188e+000	 9.7275129914e-001	 2.8366373439e-001
 2.1396546578e+000	 9.9570184959e-001	 2.0989205889e-001
 2.1288578838e+000	 1.0185815578e+000	 1.3705894831e-001
 2.1177959294e+000	 1.0413859516e+000	 6.4851381181e-002
 2.1064693250e+000	 1.0641105529e+000	-7.0616541845e-003
 2.0948786995e+000	 1.0867508800e+000	-7.9003069788e-002
 2.0830247805e+000	 1.1093024502e+000	-1.5129063138e-001
 2.0709083951e+000	 1.1317607830e+000	-2.2423290146e-001
 2.0585304698e+000	 1.1541214020e+000	-2.9812452199e-001
 2.1949762662e+000	 9.3712677444e-001	 4.2783705506e-001
 2.1848642519e+000	 9.6046642279e-001	 3.5174511758e-001
 2.1744830421e+000	 9.8374344471e-001	 2.7693326916e-001
 2.1638328784e+000	 1.0069533377e+000	 2.0320990328e-001
 2.1529141003e+000	 1.0300915879e+000	 1.3036733985e-001
 2.1417271451e+000	 1.0531536727e+000	 5.8201547674e-002
 2.1302725494e+000	 1.0761350633e+000	-1.3515744241e-002
 2.1185509491e+000	 1.0990312274e+000	-8.5012854885e-002
 2.1065630802e+000	 1.1218376317e+000	-1.5652034141e-001
 2.0943097789e+000	 1.1445497449e+000	-2.2826663591e-001
 2.0817919823e+000	 1.1671630402e+000	-3.0047295186e-001
 2.2195024766e+000	 9.4759803499e-001	 4.2440228678e-001
 2.2092774727e+000	 9.7119847574e-001	 3.4945863069e-001
 2.1987802654e+000	 9.9473559028e-001	 2.7550383000e-001
 2.1880110990e+000	 1.0182048258e+000	 2.0245229763e-001
 2.1769703167e+000	 1.0416016180e+000	 1.3021496647e-001
 2.1656583608e+000	 1.0649213938e+000	 5.8664643775e-002
 2.1540757738e+000	 1.0881595737e+000	-1.2336266830e-002
 2.1422231988e+000	 1.1113115748e+000	-8.2939665261e-002
 2.1301013799e+000	 1.1343728131e+000	-1.5330786281e-001
 2.1177111628e+000	 1.1573387067e+000	-2.2360884057e-001
 2.1050534949e+000	 1.1802046783e+000	-2.9401070210e-001
 2.2440286869e+000	 9.5806929554e-001	 4.2323454640e-001
 2.2336906935e+000	 9.8193052869e-001	 3.4993682235e-001
 2.2230774887e+000	 1.0057277359e+000	 2.7735174693e-001
 2.2121893196e+000	 1.0294563139e+000	 2.0549131398e-001
 2.2010265331e+000	 1.0531116482e+000	 1.3435245486e-001
 2.1895895765e+000	 1.0766891149e+000	 6.3885879427e-002
 2.1778789982e+000	 1.1001840841e+000	-5.9783581751e-003
 2.1658954485e+000	 1.1235919221e+000	-7.5333872612e-002
 2.1536396796e+000	 1.1469079945e+000	-1.4429368713e-001
 2.1411125466e+000	 1.1701276686e+000	-2.1298503877e-001
 2.1283150075e+000	 1.1932463165e+000	-2.8154329652e-001
 2.2685548972e+000	 9.6854055608e-001	 4.2248916815e-001
 2.2581039143e+000	 9.9266258164e-001	 3.5122093410e-001
 2.2473747120e+000	 1.0167198814e+000	 2.8040341786e-001
 2.2363675401e+000	 1.0407078020e+000	 2.1014922735e-001
 2.2250827495e+000	 1.0646216783e+000	 1.4050904687e-001
 2.2135207922e+000	 1.0884568360e+000	 7.1500963404e-002
 2.2016822226e+000	 1.1122085945e+000	 3.1054649741e-003
 2.1895676981e+000	 1.1358722695e+000	-6.4730926693e-002
 2.1771779793e+000	 1.1594431759e+000	-1.3209095631e-001
 2.1645139305e+000	 1.1829166305e+000	-1.9908090912e-001
 2.1515765201e+000	 1.2062879546e+000	-2.6582391076e-001
 2.2930811076e+000	 9.7901181663e-001	 4.2026491807e-001
 2.2825171351e+000	 1.0033946346e+000	 3.5130628199e-001
 2.2716719353e+000	 1.0277120270e+000	 2.8256808648e-001
 2.2605457607e+000	 1.0519592901e+000	 2.1423072592e-001
 2.2491389659e+000	 1.0761317084e+000	 1.4640242911e-001
 2.2374520078e+000	 1.1002245571e+000	 7.9146154243e-002
 2.2254854470e+000	 1.1242331049e+000	 1.2475577714e-002
 2.2132399478e+000	 1.1481526169e+000	-5.3640861031e-002
 2.2007162790e+000	 1.1719783574e+000	-1.1927474561e-001
 2.1879153143e+000	 1.1957055924e+000	-1.8453134471e-001
 2.1748380327e+000	 1.2193295928e+000	-2.4954220633e-001
 2.3176073179e+000	 9.8948307718e-001	 4.1461285959e-001
 2.3069303559e+000	 1.0141266875e+000	 3.4814517086e-001
 2.2959691586e+000	 1.0387041726e+000	 2.8171119185e-001
 2.2847239813e+000	 1.0632107782e+000	 2.1552669580e-001
 2.2731951823e+000	 1.0876417385e+000	 1.4974853392e-001
 2.2613832235e+000	 1.1119922782e+000	 8.4468294323e-002
 2.2492886714e+000	 1.1362576153e+000	 1.9715514483e-002
 2.2369121975e+000	 1.1604329643e+000	-4.4537791508e-002
 2.2242545787e+000	 1.1845135388e+000	-1.0837132760e-001
 2.2113166982e+000	 1.2084945542e+000	-1.7190948146e-001
 2.1980995453e+000	 1.2323712309e+000	-2.3531312230e-001
 2.3421335283e+000	 9.9995433773e-001	 4.0354515062e-001
 2.3313435766e+000	 1.0248587405e+000	 3.3968132577e-001
 2.3202663819e+000	 1.0496963181e+000	 2.7568825187e-001
 2.3089022019e+000	 1.0744622664e+000	 2.1182375123e-001
 2.2972513987e+000	 1.0991517687e+000	 1.4827131363e-001
 2.2853144392e+000	 1.1237599992e+000	 8.5134828328e-002
 2.2730918958e+000	 1.1482821256e+000	 2.2442232038e-002
 2.2605844471e+000	 1.1727133117e+000	-3.9849408365e-002
 2.2477928784e+000	 1.1970487202e+000	-1.0184741848e-001
 2.2347180820e+000	 1.2212835161e+000	-1.6371569798e-001
 2.2213610579e+000	 1.2454128691e+000	-2.2566562760e-001
 2.3666597386e+000	 1.0104255983e+000	 3.8503706035e-001
 2.3557567974e+000	 1.0355907934e+000	 3.2381979976e-001
 2.3445636051e+000	 1.0606884637e+000	 2.6234780375e-001
 2.3330804224e+000	 1.0857137545e+000	 2.0091373014e-001
 2.3213076151e+000	 1.1106617988e+000	 1.3971249016e-001
 2.3092456549e+000	 1.1355277203e+000	 7.8843807232e-002
 2.2968951202e+000	 1.1603066360e+000	 1.8316368245e-002
 2.2842566968e+000	 1.1849936591e+000	-4.1946462079e-002
 2.2713311781e+000	 1.2095839016e+000	-1.0209940797e-001
 2.2581194659e+000	 1.2340724780e+000	-1.6236658880e-001
 2.2446225705e+000	 1.2584545072e+000	-2.2303143689e-001
 2.3911859489e+000	 1.0208968588e+000	 3.5706321897e-001
 2.3801700182e+000	 1.0463228464e+000	 2.9846264213e-001
 2.3688608284e+000	 1.0716806093e+000	 2.3954060417e-001
 2.3572586430e+000	 1.0969652426e+000	 1.8060315732e-001
 2.3453638315e+000	 1.1221718289e+000	 1.2184128173e-001
 2.3331768706e+000	 1.1472954414e+000	 6.3333878842e-002
 2.3206983446e+000	 1.1723311464e+000	 5.0524969753e-003
 2.3079289465e+000	 1.1972740064e+000	-5.3132243578e-002
 2.2948694778e+000	 1.2221190831e+000	-1.1144257409e-001
 2.2815208497e+000	 1.2468614399e+000	-1.7018391309e-001
 2.2678840830e+000	 1.2714961454e+000	-2.2973369259e-001
 2.0352689572e+000	 1.1410797639e+000	-2.8411866053e-001
 2.0227714400e+000	 1.1630899723e+000	-3.5929953289e-001
 2.0100173918e+000	 1.1849947132e+000	-4.3256788130e-001
 1.9970080273e+000	 1.2067895896e+000	-5.0433476646e-001
 1.9837446602e+000	 1.2284702205e+000	-5.7396250543e-001
 1.9702287031e+000	 1.2500322424e+000	-6.4063587847e-001
 1.9564616671e+000	 1.2714713133e+000	-7.0375510145e-001
 1.9424451616e+000	 1.2927831142e+000	-7.6265756202e-001
 1.9281808938e+000	 1.3139633529e+000	-8.1661385982e-001
 1.9136706685e+000	 1.3350077662e+000	-8.6482778520e-001
 1.8989163873e+000	 1.3559121227e+000	-9.0690637160e-001
 2.0585304698e+000	 1.1541214020e+000	-2.9812452199e-001
 2.0458901159e+000	 1.1763831698e+000	-3.7142886461e-001
 2.0329902990e+000	 1.1985382644e+000	-4.4263198340e-001
 2.0198322477e+000	 1.2205822391e+000	-5.1208003535e-001
 2.0064172909e+000	 1.2425106623e+000	-5.8010966278e-001
 1.9927468571e+000	 1.2643191212e+000	-6.4672853505e-001
 1.9788224748e+000	 1.2860032236e+000	-7.1015910506e-001
 1.9646457717e+000	 1.3075586015e+000	-7.6941283846e-001
 1.9502184746e+000	 1.3289809136e+000	-8.2364940473e-001
 1.9355424090e+000	 1.3502658479e+000	-8.7203457449e-001
 1.9206194979e+000	 1.3714091246e+000	-9.1311563240e-001
 2.0817919823e+000	 1.1671630402e+000	-3.0047295186e-001
 2.0690087917e+000	 1.1896763672e+000	-3.7186910667e-001
 2.0559632062e+000	 1.2120818157e+000	-4.4120942005e-001
 2.0426564682e+000	 1.2343748885e+000	-5.0877801785e-001
 2.0290899215e+000	 1.2565511042e+000	-5.7485538786e-001
 2.0152650111e+000	 1.2786059999e+000	-6.3970953451e-001
 2.0011832824e+000	 1.3005351339e+000	-7.0358673439e-001
 1.9868463818e+000	 1.3223340888e+000	-7.6528995766e-001
 1.9722560554e+000	 1.3439984743e+000	-8.2232899008e-001
 1.9574141494e+000	 1.3655239295e+000	-8.7293410247e-001
 1.9423226086e+000	 1.3869061265e+000	-9.1487286021e-001
 2.1050534949e+000	 1.1802046783e+000	-2.9401070210e-001
 2.0921274676e+000	 1.2029695646e+000	-3.6354292019e-001
 2.0789361133e+000	 1.2256253669e+000	-4.3127068436e-001
 2.0654806886e+000	 1.2481675379e+000	-4.9745051952e-001
 2.0517625522e+000	 1.2705915461e+000	-5.6234056699e-001
 2.0377831651e+000	 1.2928928786e+000	-6.2619094994e-001
 2.0235440901e+000	 1.3150670442e+000	-6.8923369672e-001
 2.0090469919e+000	 1.3371095762e+000	-7.5165537497e-001
 1.9942936363e+000	 1.3590160350e+000	-8.1229582000e-001
 1.9792858898e+000	 1.3807820112e+000	-8.6632579931e-001
 1.9640257193e+000	 1.4024031284e+000	-9.1074751323e-001
 2.1283150075e+000	 1.1932463165e+000	-2.8154329652e-001
 2.1152461435e+000	 1.2162627620e+000	-3.4931999711e-001
 2.1019090205e+000	 1.2391689182e+000	-4.1572268461e-001
 2.0883049091e+000	 1.2619601874e+000	-4.8101437510e-001
 2.0744351829e+000	 1.2846319880e+000	-5.4546436781e-001
 2.0603013190e+000	 1.3071797573e+000	-6.0933768720e-001
 2.0459048977e+000	 1.3295989545e+000	-6.7288403821e-001
 2.0312476020e+000	 1.3518850635e+000	-7.3552595961e-001
 2.0163312171e+000	 1.3740335957e+000	-7.9527326441e-001
 2.0011576303e+000	 1.3960400929e+000	-8.5101474474e-001
 1.9857288300e+000	 1.4179001304e+000	-8.9930939396e-001
 2.1515765201e+000	 1.2062879546e+000	-2.6582391076e-001
 2.1383648193e+000	 1.2295559594e+000	-3.3200569864e-001
 2.1248819277e+000	 1.2527124694e+000	-3.9739708424e-001
 2.1111291295e+000	 1.2757528368e+000	-4.6230141022e-001
 2.0971078136e+000	 1.2986724299e+000	-5.2703241545e-001
 2.0828194730e+000	 1.3214666360e+000	-5.9190261587e-001
 2.0682657054e+000	 1.3441308648e+000	-6.5685698470e-001
 2.0534482121e+000	 1.3666605508e+000	-7.1937805124e-001
 2.0383687979e+000	 1.3890511563e+000	-7.7806505431e-001
 2.0230293707e+000	 1.4112981745e+000	-8.3188335264e-001
 2.0074319407e+000	 1.4333971323e+000	-8.7980796968e-001
 2.1748380327e+000	 1.2193295928e+000	-2.4954220633e-001
 2.1614834952e+000	 1.2428491568e+000	-3.1432963732e-001
 2.1478548349e+000	 1.2662560207e+000	-3.7903857885e-001
 2.1339533500e+000	 1.2895454862e+000	-4.4404635904e-001
 2.1197804442e+000	 1.3127128717e+000	-5.0974429507e-001
 2.1053376270e+000	 1.3357535147e+000	-5.7650252266e-001
 2.0906265131e+000	 1.3586627752e+000	-6.4209564059e-001
 2.0756488222e+000	 1.3814360382e+000	-7.0417510888e-001
 2.0604063787e+000	 1.4040687170e+000	-7.6177792759e-001
 2.0449011111e+000	 1.4265562562e+000	-8.1394354893e-001
 2.0291350514e+000	 1.4488941342e+000	-8.5971828834e-001
 2.1980995453e+000	 1.2323712309e+000	-2.3531312230e-001
 2.1846021710e+000	 1.2561423542e+000	-2.9893420693e-001
 2.1708277421e+000	 1.2797995719e+000	-3.6329311504e-001
 2.1567775704e+000	 1.3033381357e+000	-4.2887472131e-001
 2.1424530749e+000	 1.3267533136e+000	-4.9618099544e-001
 2.1278557810e+000	 1.3500403934e+000	-5.6436182266e-001
 2.1129873207e+000	 1.3731946855e+000	-6.2957696545e-001
 2.0978494323e+000	 1.3962115255e+000	-6.9078187010e-001
 2.0824439595e+000	 1.4190862777e+000	-7.4711440657e-001
 2.0667728516e+000	 1.4418143379e+000	-7.9771045910e-001
 2.0508381620e+000	 1.4643911361e+000	-8.4170852177e-001
 2.2213610579e+000	 1.2454128691e+000	-2.2566562760e-001
 2.2077208469e+000	 1.2694355516e+000	-2.8836306420e-001
 2.1938006493e+000	 1.2933431232e+000	-3.5269605530e-001
 2.1796017909e+000	 1.3171307851e+000	-4.1929056332e-001
 2.1651257056e+000	 1.3407937555e+000	-4.8848326539e-001
 2.1503739350e+000	 1.3643272722e+000	-5.5613349282e-001
 2.1353481284e+000	 1.3877265958e+000	-6.2020400988e-001
 2.1200500424e+000	 1.4109870128e+000	-6.7996850322e-001
 2.1044815404e+000	 1.4341038384e+000	-7.3468864105e-001
 2.0886445920e+000	 1.4570724195e+000	-7.8361824284e-001
 2.0725412727e+000	 1.4798881380e+000	-8.2600803768e-001
 2.2446225705e+000	 1.2584545072e+000	-2.2303143689e-001
 2.2308395228e+000	 1.2827287490e+000	-2.8504956553e-001
 2.2167735565e+000	 1.3068866744e+000	-3.4966029270e-001
 2.2024260114e+000	 1.3309234345e+000	-4.1766426667e-001
 2.1877983362e+000	 1.3548341974e+000	-4.8683025070e-001
 2.1728920890e+000	 1.3786141509e+000	-5.5273191583e-001
 2.1577089361e+000	 1.4022585061e+000	-6.1478441994e-001
 2.1422506525e+000	 1.4257625001e+000	-6.7241473410e-001
 2.1265191212e+000	 1.4491213991e+000	-7.2503043354e-001
 2.1105163324e+000	 1.4723305012e+000	-7.7202395776e-001
 2.0942443834e+000	 1.4953851399e+000	-8.1277751254e-001
 2.2678840830e+000	 1.2714961454e+000	-2.2973369259e-001
 2.2539581986e+000	 1.2960219464e+000	-2.9130516233e-001
 2.2397464637e+000	 1.3204302257e+000	-3.5646431932e-001
 2.2252502318e+000	 1.3447160840e+000	-4.2527967369e-001
 2.2104709669e+000	 1.3688746392e+000	-4.9193628083e-001
 2.1954102429e+000	 1.3929010296e+000	-5.5497633763e-001
 2.1800697437e+000	 1.4167904164e+000	-6.1403457240e-001
 2.1644512626e+000	 1.4405379875e+000	-6.6871394910e-001
 2.1485567020e+000	 1.4641389598e+000	-7.1858925541e-001
 2.1323880729e+000	 1.4875885829e+000	-7.6321143239e-001
 2.1159474941e+000	 1.5108821418e+000	-8.0211260330e-001
 1.8989163873e+000	 1.3559121227e+000	-9.0690637160e-001
 1.8839200471e+000	 1.3766722252e+000	-9.4911592266e-001
 1.8686837386e+000	 1.3972839118e+000	-9.9723888660e-001
 1.8532096461e+000	 1.4177430601e+000	-1.0494881678e+000
 1.8375000477e+000	 1.4380455904e+000	-1.1040686269e+000
 1.8215573143e+000	 1.4581874680e+000	-1.1591794621e+000
 1.8053839080e+000	 1.4781647061e+000	-1.2130166116e+000
 1.7889823814e+000	 1.4979733684e+000	-1.2637751599e+000
 1.7723553761e+000	 1.5176095714e+000	-1.3096517353e+000
 1.7555056212e+000	 1.5370694871e+000	-1.3488468835e+000
 1.7384359321e+000	 1.5563493455e+000	-1.3795674040e+000
 1.9206194979e+000	 1.3714091246e+000	-9.1311563240e-001
 1.9054517615e+000	 1.3924064986e+000	-9.5244437757e-001
 1.8900413140e+000	 1.4132537605e+000	-9.9610138962e-001
 1.8743903649e+000	 1.4339467407e+000	-1.0427198629e+000
 1.8585012183e+000	 1.4544813128e+000	-1.0909198628e+000
 1.8423762720e+000	 1.4748533961e+000	-1.1393099973e+000
 1.8260180165e+000	 1.4950589583e+000	-1.1864891123e+000
 1.8094290334e+000	 1.5150940179e+000	-1.2310479986e+000
 1.7926119946e+000	 1.5349546471e+000	-1.2715710948e+000
 1.7755696604e+000	 1.5546369742e+000	-1.3066381736e+000
 1.7583048783e+000	 1.5741371861e+000	-1.3348259977e+000
 1.9423226086e+000	 1.3869061265e+000	-9.1487286021e-001
 1.9269834759e+000	 1.4081407721e+000	-9.5352657663e-001
 1.9113988895e+000	 1.4292236092e+000	-9.9507539707e-001
 1.8955710837e+000	 1.4501504213e+000	-1.0384722492e+000
 1.8795023888e+000	 1.4709170352e+000	-1.0826528558e+000
 1.8631952297e+000	 1.4915193242e+000	-1.1265368807e+000
 1.8466521250e+000	 1.5119532104e+000	-1.1690291027e+000
 1.8298756855e+000	 1.5322146673e+000	-1.2090206043e+000
 1.8128686131e+000	 1.5522997228e+000	-1.2453899604e+000
 1.7956336995e+000	 1.5722044614e+000	-1.2770044147e+000
 1.7781738244e+000	 1.5919250267e+000	-1.3027210294e+000
 1.9640257193e+000	 1.4024031284e+000	-9.1074751323e-001
 1.9485151903e+000	 1.4238750455e+000	-9.5069840745e-001
 1.9327564649e+000	 1.4451934579e+000	-9.9229186267e-001
 1.9167518025e+000	 1.4663541018e+000	-1.0347032394e+000
 1.9005035594e+000	 1.4873527576e+000	-1.0770876054e+000
 1.8840141875e+000	 1.5081852524e+000	-1.1185805389e+000
 1.8672862335e+000	 1.5288474625e+000	-1.1582989623e+000
 1.8503223375e+000	 1.5493353168e+000	-1.1953419921e+000
 1.8331252317e+000	 1.5696447985e+000	-1.2287917913e+000
 1.8156977387e+000	 1.5897719485e+000	-1.2577144100e+000
 1.7980427706e+000	 1.6097128674e+000	-1.2811606005e+000
 1.9857288300e+000	 1.4179001304e+000	-8.9930939396e-001
 1.9700469047e+000	 1.4396093189e+000	-9.4230557709e-001
 1.9541140404e+000	 1.4611633066e+000	-9.8589973757e-001
 1.9379325214e+000	 1.4825577824e+000	-1.0293954738e+000
 1.9215047299e+000	 1.5037884800e+000	-1.0720739722e+000
 1.9048331452e+000	 1.5248511805e+000	-1.1131946478e+000
 1.8879203420e+000	 1.5457417147e+000	-1.1519958166e+000
 1.8707689896e+000	 1.5664559662e+000	-1.1876953839e+000
 1.8533818502e+000	 1.5869898742e+000	-1.2194915352e+000
 1.8357617779e+000	 1.6073394356e+000	-1.2465634134e+000
 1.8179117167e+000	 1.6275007080e+000	-1.2680717682e+000
 2.0074319407e+000	 1.4333971323e+000	-8.7980796968e-001
 1.9915786191e+000	 1.4553435924e+000	-9.2670571154e-001
 1.9754716158e+000	 1.4771331553e+000	-9.7406773383e-001
 1.9591132402e+000	 1.4987614629e+000	-1.0205578206e+000
 1.9425059005e+000	 1.5202242024e+000	-1.0654929948e+000
 1.9256521029e+000	 1.5415171086e+000	-1.1081673542e+000
 1.9085544505e+000	 1.5626359668e+000	-1.1478527587e+000
 1.8912156416e+000	 1.5835766157e+000	-1.1837995324e+000
 1.8736384687e+000	 1.6043349499e+000	-1.2152371653e+000
 1.8558258171e+000	 1.6249069228e+000	-1.2413749966e+000
 1.8377806629e+000	 1.6452885487e+000	-1.2614028660e+000
 2.0291350514e+000	 1.4488941342e+000	-8.5971828834e-001
 2.0131103335e+000	 1.4710778658e+000	-9.0459451711e-001
 1.9968291913e+000	 1.4931030040e+000	-9.5498618695e-001
 1.9802939590e+000	 1.5149651435e+000	-1.0062269965e+000
 1.9635070710e+000	 1.5366599249e+000	-1.0552583436e+000
 1.9464710607e+000	 1.5581830367e+000	-1.1013226446e+000
 1.9291885590e+000	 1.5795302189e+000	-1.1436402223e+000
 1.9116622936e+000	 1.6006972652e+000	-1.1814101942e+000
 1.8938950873e+000	 1.6216800256e+000	-1.2138113552e+000
 1.8758898563e+000	 1.6424744099e+000	-1.2400030356e+000
 1.8576496090e+000	 1.6630763893e+000	-1.2591259177e+000
 2.0508381620e+000	 1.4643911361e+000	-8.4170852177e-001
 2.0346420479e+000	 1.4868121393e+000	-8.8433117097e-001
 2.0181867667e+000	 1.5090728527e+000	-9.3174542116e-001
 2.0014746778e+000	 1.5311688241e+000	-9.8450268711e-001
 1.9845082416e+000	 1.5530956473e+000	-1.0393179001e+000
 1.9672900184e+000	 1.5748489648e+000	-1.0905218489e+000
 1.9498226675e+000	 1.5964244711e+000	-1.1371674924e+000
 1.9321089457e+000	 1.6178179146e+000	-1.1783217369e+000
 1.9141517058e+000	 1.6390251014e+000	-1.2130332795e+000
 1.8959538955e+000	 1.6600418970e+000	-1.2403338062e+000
 1.8775185552e+000	 1.6808642300e+000	-1.2592391373e+000
 2.0725412727e+000	 1.4798881380e+000	-8.2600803768e-001
 2.0561737623e+000	 1.5025464127e+000	-8.6685448525e-001
 2.0395443422e+000	 1.5250427014e+000	-9.1191089379e-001
 2.0226553967e+000	 1.5473725046e+000	-9.6155509104e-001
 2.0055094121e+000	 1.5695313697e+000	-1.0161567090e+000
 1.9881089761e+000	 1.5915148930e+000	-1.0736652702e+000
 1.9704567760e+000	 1.6133187232e+000	-1.1262843461e+000
 1.9525555977e+000	 1.6349385641e+000	-1.1723688748e+000
 1.9344083244e+000	 1.6563701771e+000	-1.2107605329e+000
 1.9160179347e+000	 1.6776093842e+000	-1.2402881829e+000
 1.8973875014e+000	 1.6986520706e+000	-1.2597695077e+000
 2.0942443834e+000	 1.4953851399e+000	-8.1277751254e-001
 2.0777054766e+000	 1.5182806861e+000	-8.5212768430e-001
 2.0609019176e+000	 1.5410125501e+000	-8.9541428368e-001
 2.0438361155e+000	 1.5635761852e+000	-9.4276103482e-001
 2.0265105827e+000	 1.5859670921e+000	-9.9428441716e-001
 2.0089279339e+000	 1.6081808211e+000	-1.0500997316e+000
 1.9910908845e+000	 1.6302129753e+000	-1.1088828118e+000
 1.9730022498e+000	 1.6520592135e+000	-1.1614285196e+000
 1.9546649429e+000	 1.6737152528e+000	-1.2048911572e+000
 1.9360819738e+000	 1.6951768713e+000	-1.2378239311e+000
 1.9172564475e+000	 1.7164399113e+000	-1.2587754338e+000
 2.1159474941e+000	 1.5108821418e+000	-8.0211260330e-001
 2.0992371910e+000	 1.5340149596e+000	-8.4005734359e-001
 2.0822594931e+000	 1.5569823987e+000	-8.8199582845e-001
 2.0650168343e+000	 1.5797798658e+000	-9.2771939714e-001
 2.0475117532e+000	 1.6024028145e+000	-9.7701373738e-001
 2.0297468916e+000	 1.6248467492e+000	-1.0296661844e+000
 2.0117249930e+000	 1.6471072275e+000	-1.0854733581e+000
 1.9934489018e+000	 1.6691798630e+000	-1.1434217415e+000
 1.9749215615e+000	 1.6910603285e+000	-1.1933657703e+000
 1.9561460130e+000	 1.7127443585e+000	-1.2309380879e+000
 1.9371253937e+000	 1.7342277519e+000	-1.2543494639e+000
 1.7384359321e+000	 1.5563493455e+000	-1.3795674040e+000
 1.7211518181e+000	 1.5754425866e+000	-1.4070077630e+000
 1.7036537181e+000	 1.5943484719e+000	-1.4367254431e+000
 1.6859446966e+000	 1.6130634224e+000	-1.4674592230e+000
 1.6680278972e+000	 1.6315839263e+000	-1.4979397705e+000
 1.6499065415e+000	 1.6499065415e+000	-1.5268910576e+000
 1.6315839263e+000	 1.6680278972e+000	-1.5530317031e+000
 1.6130634224e+000	 1.6859446966e+000	-1.5750762375e+000
 1.5943484719e+000	 1.7036537181e+000	-1.5917362839e+000
 1.5754425866e+000	 1.7211518181e+000	-1.6017216485e+000
 1.5563493455e+000	 1.7384359321e+000	-1.6037413188e+000
 1.7583048783e+000	 1.5741371861e+000	-1.3348259977e+000
 1.7408232205e+000	 1.5934486479e+000	-1.3614730111e+000
 1.7231251311e+000	 1.6125706125e+000	-1.3918388107e+000
 1.7052137095e+000	 1.6314994600e+000	-1.4243641861e+000
 1.6870921353e+000	 1.6502316386e+000	-1.4574842157e+000
 1.6687636668e+000	 1.6687636668e+000	-1.4896302201e+000
 1.6502316386e+000	 1.6870921353e+000	-1.5192316309e+000
 1.6314994600e+000	 1.7052137095e+000	-1.5447177632e+000
 1.6125706125e+000	 1.7231251311e+000	-1.5645194867e+000
 1.5934486479e+000	 1.7408232205e+000	-1.5770707867e+000
 1.5741371861e+000	 1.7583048783e+000	-1.5808102122e+000
 1.7781738244e+000	 1.5919250267e+000	-1.3027210294e+000
 1.7604946229e+000	 1.6114547092e+000	-1.3280947550e+000
 1.7425965441e+000	 1.6307927531e+000	-1.3582850952e+000
 1.7244827224e+000	 1.6499354976e+000	-1.3915343572e+000
 1.7061563734e+000	 1.6688793510e+000	-1.4260807088e+000
 1.6876207921e+000	 1.6876207921e+000	-1.4601605052e+000
 1.6688793510e+000	 1.7061563734e+000	-1.4920105160e+000
 1.6499354976e+000	 1.7244827224e+000	-1.5198700419e+000
 1.6307927531e+000	 1.7425965441e+000	-1.5419829121e+000
 1.6114547092e+000	 1.7604946229e+000	-1.5565993550e+000
 1.5919250267e+000	 1.7781738244e+000	-1.5619777363e+000
 1.7980427706e+000	 1.6097128674e+000	-1.2811606005e+000
 1.7801660254e+000	 1.6294607705e+000	-1.3049392211e+000
 1.7620679571e+000	 1.6490148936e+000	-1.3342682493e+000
 1.7437517353e+000	 1.6683715353e+000	-1.3672878437e+000
 1.7252206114e+000	 1.6875270633e+000	-1.4021347992e+000
 1.7064779174e+000	 1.7064779174e+000	-1.4369450845e+000
 1.6875270633e+000	 1.7252206114e+000	-1.4698562650e+000
 1.6683715353e+000	 1.7437517353e+000	-1.4990098016e+000
 1.6490148936e+000	 1.7620679571e+000	-1.5225532156e+000
 1.6294607705e+000	 1.7801660254e+000	-1.5386421098e+000
 1.6097128674e+000	 1.7980427706e+000	-1.5454420416e+000
 1.8179117167e+000	 1.6275007080e+000	-1.2680717682e+000
 1.7998374278e+000	 1.6474668317e+000	-1.2900831699e+000
 1.7815393701e+000	 1.6672370342e+000	-1.3179951242e+000
 1.7630207482e+000	 1.6868075729e+000	-1.3499389374e+000
 1.7442848495e+000	 1.7061747756e+000	-1.3840425639e+000
 1.7253350427e+000	 1.7253350427e+000	-1.4184331929e+000
 1.7061747756e+000	 1.7442848495e+000	-1.4512397094e+000
 1.6868075729e+000	 1.7630207482e+000	-1.4805950171e+000
 1.6672370342e+000	 1.7815393701e+000	-1.5046382133e+000
 1.6474668317e+000	 1.7998374278e+000	-1.5215166059e+000
 1.6275007080e+000	 1.8179117167e+000	-1.5293875682e+000
 1.8377806629e+000	 1.6452885487e+000	-1.2614028660e+000
 1.8195088302e+000	 1.6654728930e+000	-1.2816167123e+000
 1.8010107831e+000	 1.6854591748e+000	-1.3076787288e+000
 1.7822897611e+000	 1.7052436106e+000	-1.3378017580e+000
 1.7633490876e+000	 1.7248224880e+000	-1.3701945674e+000
 1.7441921681e+000	 1.7441921681e+000	-1.4030643305e+000
 1.7248224880e+000	 1.7633490876e+000	-1.4346189689e+000
 1.7052436106e+000	 1.7822897611e+000	-1.4630693448e+000
 1.6854591748e+000	 1.8010107831e+000	-1.4866312922e+000
 1.6654728930e+000	 1.8195088302e+000	-1.5035274783e+000
 1.6452885487e+000	 1.8377806629e+000	-1.5119890883e+000
 1.8576496090e+000	 1.6630763893e+000	-1.2591259177e+000
 1.8391802326e+000	 1.6834789543e+000	-1.2776461894e+000
 1.8204821961e+000	 1.7036813154e+000	-1.3015415270e+000
 1.8015587740e+000	 1.7236796482e+000	-1.3291939107e+000
 1.7824133256e+000	 1.7434702003e+000	-1.3589798188e+000
 1.7630492934e+000	 1.7630492934e+000	-1.3892724487e+000
 1.7434702003e+000	 1.7824133256e+000	-1.4184437888e+000
 1.7236796482e+000	 1.8015587740e+000	-1.4448665280e+000
 1.7036813154e+000	 1.8204821961e+000	-1.4669157933e+000
 1.6834789543e+000	 1.8391802326e+000	-1.4829707052e+000
 1.6630763893e+000	 1.8576496090e+000	-1.4914157459e+000
 1.8775185552e+000	 1.6808642300e+000	-1.2592391373e+000
 1.8588516350e+000	 1.7014850156e+000	-1.2762971108e+000
 1.8399536091e+000	 1.7219034560e+000	-1.2978187690e+000
 1.8208277868e+000	 1.7421156858e+000	-1.3224401593e+000
 1.8014775637e+000	 1.7621179126e+000	-1.3487897254e+000
 1.7819064187e+000	 1.7819064187e+000	-1.3754901194e+000
 1.7621179126e+000	 1.8014775637e+000	-1.4011598527e+000
 1.7421156858e+000	 1.8208277868e+000	-1.4244147748e+000
 1.7219034560e+000	 1.8399536091e+000	-1.4438693685e+000
 1.7014850156e+000	 1.8588516350e+000	-1.4581378536e+000
 1.6808642300e+000	 1.8775185552e+000	-1.4658350934e+000
 1.8973875014e+000	 1.6986520706e+000	-1.2597695077e+000
 1.8785230374e+000	 1.7194910769e+000	-1.2757171479e+000
 1.8594250221e+000	 1.7401255965e+000	-1.2947618556e+000
 1.8400967997e+000	 1.7605517235e+000	-1.3158761110e+000
 1.8205418018e+000	 1.7807656250e+000	-1.3380220441e+000
 1.8007635440e+000	 1.8007635440e+000	-1.3601526899e+000
 1.7807656250e+000	 1.8205418018e+000	-1.3812130732e+000
 1.7605517235e+000	 1.8400967997e+000	-1.4001411097e+000
 1.7401255965e+000	 1.8594250221e+000	-1.4158683144e+000
 1.7194910769e+000	 1.8785230374e+000	-1.4273203093e+000
 1.6986520706e+000	 1.8973875014e+000	-1.4334171254e+000
 1.9172564475e+000	 1.7164399113e+000	-1.2587754338e+000
 1.8981944399e+000	 1.7374971381e+000	-1.2740791776e+000
 1.8788964350e+000	 1.7583477371e+000	-1.2906417318e+000
 1.8593658126e+000	 1.7789877611e+000	-1.3078519140e+000
 1.8396060398e+000	 1.7994133373e+000	-1.3250848289e+000
 1.8196206693e+000	 1.8196206693e+000	-1.3417024234e+000
 1.7994133373e+000	 1.8396060398e+000	-1.3570538611e+000
 1.7789877611e+000	 1.8593658126e+000	-1.3704757025e+000
 1.7583477371e+000	 1.8788964350e+000	-1.3812918847e+000
 1.7374971381e+000	 1.8981944399e+000	-1.3888134913e+000
 1.7164399113e+000	 1.9172564475e+000	-1.3923383104e+000
 1.9371253937e+000	 1.7342277519e+000	-1.2543494639e+000
 1.9178658423e+000	 1.7555031994e+000	-1.2695843731e+000
 1.8983678480e+000	 1.7765698777e+000	-1.2837523086e+000
 1.8786348255e+000	 1.7974237988e+000	-1.2967359658e+000
 1.8586702779e+000	 1.8180610496e+000	-1.3084003773e+000
 1.8384777946e+000	 1.8384777946e+000	-1.3185926276e+000
 1.8180610496e+000	 1.8586702779e+000	-1.3271413755e+000
 1.7974237988e+000	 1.8786348255e+000	-1.3338561742e+000
 1.7765698777e+000	 1.8983678480e+000	-1.3385265814e+000
 1.7555031994e+000	 1.9178658423e+000	-1.3409210533e+000
 1.7342277519e+000	 1.9371253937e+000	-1.3407856199e+000
 1.5563493455e+000	 1.7384359321e+000	-1.6037413188e+000
 1.5370694871e+000	 1.7555056212e+000	-1.6020763456e+000
 1.5176095714e+000	 1.7723553761e+000	-1.6011465505e+000
 1.4979733684e+000	 1.7889823814e+000	-1.5998599526e+000
 1.4781647061e+000	 1.8053839080e+000	-1.5971142138e+000
 1.4581874680e+000	 1.8215573143e+000	-1.5917969392e+000
 1.4380455904e+000	 1.8375000477e+000	-1.5827859076e+000
 1.4177430601e+000	 1.8532096461e+000	-1.5689492369e+000
 1.3972839118e+000	 1.8686837386e+000	-1.5491454929e+000
 1.3766722252e+000	 1.8839200471e+000	-1.5222237468e+000
 1.3559121227e+000	 1.8989163873e+000	-1.4870235924e+000
 1.5741371861e+000	 1.7583048783e+000	-1.5808102122e+000
 1.5546369742e+000	 1.7755696604e+000	-1.5797288068e+000
 1.5349546471e+000	 1.7926119946e+000	-1.5782471088e+000
 1.5150940179e+000	 1.8094290334e+000	-1.5754450557e+000
 1.4950589583e+000	 1.8260180165e+000	-1.5703938032e+000
 1.4748533961e+000	 1.8423762720e+000	-1.5621555978e+000
 1.4544813128e+000	 1.8585012183e+000	-1.5497835672e+000
 1.4339467407e+000	 1.8743903649e+000	-1.5323214382e+000
 1.4132537605e+000	 1.8900413140e+000	-1.5088031865e+000
 1.3924064986e+000	 1.9054517615e+000	-1.4782526312e+000
 1.3714091246e+000	 1.9206194979e+000	-1.4396829813e+000
 1.5919250267e+000	 1.7781738244e+000	-1.5619777363e+000
 1.5722044614e+000	 1.7956336995e+000	-1.5618560065e+000
 1.5522997228e+000	 1.8128686131e+000	-1.5605908726e+000
 1.5322146673e+000	 1.8298756855e+000	-1.5573710433e+000
 1.5119532104e+000	 1.8466521250e+000	-1.5513783312e+000
 1.4915193242e+000	 1.8631952297e+000	-1.5417872006e+000
 1.4709170352e+000	 1.8795023888e+000	-1.5277642212e+000
 1.4501504213e+000	 1.8955710837e+000	-1.5084674345e+000
 1.4292236092e+000	 1.9113988895e+000	-1.4830456437e+000
 1.4081407721e+000	 1.9269834759e+000	-1.4506376369e+000
 1.3869061265e+000	 1.9423226086e+000	-1.4103713555e+000
 1.6097128674e+000	 1.7980427706e+000	-1.5454420416e+000
 1.5897719485e+000	 1.8156977387e+000	-1.5464961456e+000
 1.5696447985e+000	 1.8331252317e+000	-1.5460575127e+000
 1.5493353168e+000	 1.8503223375e+000	-1.5433626664e+000
 1.5288474625e+000	 1.8672862335e+000	-1.5376434328e+000
 1.5081852524e+000	 1.8840141875e+000	-1.5281262642e+000
 1.4873527576e+000	 1.9005035594e+000	-1.5140314546e+000
 1.4663541018e+000	 1.9167518025e+000	-1.4945722523e+000
 1.4451934579e+000	 1.9327564649e+000	-1.4689538826e+000
 1.4238750455e+000	 1.9485151903e+000	-1.4363724921e+000
 1.4024031284e+000	 1.9640257193e+000	-1.3960140261e+000
 1.6275007080e+000	 1.8179117167e+000	-1.5293875682e+000
 1.6073394356e+000	 1.8357617779e+000	-1.5316781296e+000
 1.5869898742e+000	 1.8533818502e+000	-1.5325216670e+000
 1.5664559662e+000	 1.8707689896e+000	-1.5311436651e+000
 1.5457417147e+000	 1.8879203420e+000	-1.5267674248e+000
 1.5248511805e+000	 1.9048331452e+000	-1.5186132630e+000
 1.5037884800e+000	 1.9215047299e+000	-1.5058975850e+000
 1.4825577824e+000	 1.9379325214e+000	-1.4878318381e+000
 1.4611633066e+000	 1.9541140404e+000	-1.4636213589e+000
 1.4396093189e+000	 1.9700469047e+000	-1.4324641264e+000
 1.4179001304e+000	 1.9857288300e+000	-1.3935494358e+000
 1.6452885487e+000	 1.8377806629e+000	-1.5119890883e+000
 1.6249069228e+000	 1.8558258171e+000	-1.5154253120e+000
 1.6043349499e+000	 1.8736384687e+000	-1.5178563829e+000
 1.5835766157e+000	 1.8912156416e+000	-1.5184399118e+000
 1.5626359668e+000	 1.9085544505e+000	-1.5163341586e+000
 1.5415171086e+000	 1.9256521029e+000	-1.5106972048e+000
 1.5202242024e+000	 1.9425059005e+000	-1.5006859777e+000
 1.4987614629e+000	 1.9591132402e+000	-1.4854551364e+000
 1.4771331553e+000	 1.9754716158e+000	-1.4641558327e+000
 1.4553435924e+000	 1.9915786191e+000	-1.4359343604e+000
 1.4333971323e+000	 2.0074319407e+000	-1.3996181767e+000
 1.6630763893e+000	 1.8576496090e+000	-1.4914157459e+000
 1.6424744099e+000	 1.8758898563e+000	-1.4957592533e+000
 1.6216800256e+000	 1.8938950873e+000	-1.4999365941e+000
 1.6006972652e+000	 1.9116622936e+000	-1.5029826088e+000
 1.5795302189e+000	 1.9291885590e+000	-1.5039359446e+000
 1.5581830367e+000	 1.9464710607e+000	-1.5018382941e+000
 1.5366599249e+000	 1.9635070710e+000	-1.4957334641e+000
 1.5149651435e+000	 1.9802939590e+000	-1.4846662833e+000
 1.4931030040e+000	 1.9968291913e+000	-1.4676813643e+000
 1.4710778658e+000	 2.0131103335e+000	-1.4427521776e+000
 1.4488941342e+000	 2.0291350514e+000	-1.4069495406e+000
 1.6808642300e+000	 1.8775185552e+000	-1.4658350934e+000
 1.6600418970e+000	 1.8959538955e+000	-1.4707034957e+000
 1.6390251014e+000	 1.9141517058e+000	-1.4766426302e+000
 1.6178179146e+000	 1.9321089457e+000	-1.4825115350e+000
 1.5964244711e+000	 1.9498226675e+000	-1.4871765424e+000
 1.5748489648e+000	 1.9672900184e+000	-1.4895106761e+000
 1.5530956473e+000	 1.9845082416e+000	-1.4883928546e+000
 1.5311688241e+000	 2.0014746778e+000	-1.4826921147e+000
 1.5090728527e+000	 2.0181867667e+000	-1.4691228693e+000
 1.4868121393e+000	 2.0346420479e+000	-1.4452556762e+000
 1.4643911361e+000	 2.0508381620e+000	-1.4103116620e+000
 1.6986520706e+000	 1.8973875014e+000	-1.4334171254e+000
 1.6776093842e+000	 1.9160179347e+000	-1.4382873508e+000
 1.6563701771e+000	 1.9344083244e+000	-1.4458637558e+000
 1.6349385641e+000	 1.9525555977e+000	-1.4547783379e+000
 1.6133187232e+000	 1.9704567760e+000	-1.4636742115e+000
 1.5915148930e+000	 1.9881089761e+000	-1.4712052561e+000
 1.5695313697e+000	 2.0055094121e+000	-1.4758172815e+000
 1.5473725046e+000	 2.0226553967e+000	-1.4731891559e+000
 1.5250427014e+000	 2.0395443422e+000	-1.4612995282e+000
 1.5025464127e+000	 2.0561737623e+000	-1.4391498470e+000
 1.4798881380e+000	 2.0725412727e+000	-1.4057427816e+000
 1.7164399113e+000	 1.9172564475e+000	-1.3923383104e+000
 1.6951768713e+000	 1.9360819738e+000	-1.3965496999e+000
 1.6737152528e+000	 1.9546649429e+000	-1.4055017380e+000
 1.6520592135e+000	 1.9730022498e+000	-1.4175498686e+000
 1.6302129753e+000	 1.9910908845e+000	-1.4310648195e+000
 1.6081808211e+000	 2.0089279339e+000	-1.4438337455e+000
 1.5859670921e+000	 2.0265105827e+000	-1.4508208973e+000
 1.5635761852e+000	 2.0438361155e+000	-1.4501548398e+000
 1.5410125501e+000	 2.0609019176e+000	-1.4405594811e+000
 1.5182806861e+000	 2.0777054766e+000	-1.4207602483e+000
 1.4953851399e+000	 2.0942443834e+000	-1.3894920149e+000
 1.7342277519e+000	 1.9371253937e+000	-1.3407856199e+000
 1.7127443585e+000	 1.9561460130e+000	-1.3435428071e+000
 1.6910603285e+000	 1.9749215615e+000	-1.3534744391e+000
 1.6691798630e+000	 1.9934489018e+000	-1.3686115564e+000
 1.6471072275e+000	 2.0117249930e+000	-1.3859358467e+000
 1.6248467492e+000	 2.0297468916e+000	-1.3998948084e+000
 1.6024028145e+000	 2.0475117532e+000	-1.4085511726e+000
 1.5797798658e+000	 2.0650168343e+000	-1.4102950518e+000
 1.5569823987e+000	 2.0822594931e+000	-1.4035170229e+000
 1.5340149596e+000	 2.0992371910e+000	-1.3866174635e+000
 1.5108821418e+000	 2.1159474941e+000	-1.3580154657e+000
 1.3559121227e+000	 1.8989163873e+000	-1.4870235924e+000
 1.3350077662e+000	 1.9136706685e+000	-1.4556262214e+000
 1.3139633529e+000	 1.9281808938e+000	-1.4366432649e+000
 1.2927831142e+000	 1.9424451616e+000	-1.4228781878e+000
 1.2714713133e+000	 1.9564616671e+000	-1.4113727279e+000
 1.2500322424e+000	 1.9702287031e+000	-1.3991979202e+000
 1.2284702205e+000	 1.9837446602e+000	-1.3834370717e+000
 1.2067895896e+000	 1.9970080273e+000	-1.3611956328e+000
 1.1849947132e+000	 2.0100173918e+000	-1.3295690968e+000
 1.1630899723e+000	 2.0227714400e+000	-1.2858378675e+000
 1.1410797639e+000	 2.0352689572e+000	-1.2276028114e+000
 1.3714091246e+000	 1.9206194979e+000	-1.4396829813e+000
 1.3502658479e+000	 1.9355424090e+000	-1.4052569491e+000
 1.3289809136e+000	 1.9502184746e+000	-1.3871580644e+000
 1.3075586015e+000	 1.9646457717e+000	-1.3769678347e+000
 1.2860032236e+000	 1.9788224748e+000	-1.3684584306e+000
 1.2643191212e+000	 1.9927468571e+000	-1.3586087047e+000
 1.2425106623e+000	 2.0064172909e+000	-1.3443223952e+000
 1.2205822391e+000	 2.0198322477e+000	-1.3222147796e+000
 1.1985382644e+000	 2.0329902990e+000	-1.2895793685e+000
 1.1763831698e+000	 2.0458901159e+000	-1.2438643941e+000
 1.1541214020e+000	 2.0585304698e+000	-1.1825686249e+000
 1.3869061265e+000	 1.9423226086e+000	-1.4103713555e+000
 1.3655239295e+000	 1.9574141494e+000	-1.3743416005e+000
 1.3439984743e+000	 1.9722560554e+000	-1.3548779570e+000
 1.3223340888e+000	 1.9868463818e+000	-1.3496472503e+000
 1.3005351339e+000	 2.0011832824e+000	-1.3467021993e+000
 1.2786059999e+000	 2.0152650111e+000	-1.3406592071e+000
 1.2565511042e+000	 2.0290899215e+000	-1.3281833342e+000
 1.2343748885e+000	 2.0426564682e+000	-1.3065454476e+000
 1.2120818157e+000	 2.0559632062e+000	-1.2730442907e+000
 1.1896763672e+000	 2.0690087917e+000	-1.2250177064e+000
 1.1671630402e+000	 2.0817919823e+000	-1.1598527054e+000
 1.4024031284e+000	 1.9640257193e+000	-1.3960140261e+000
 1.3807820112e+000	 1.9792858898e+000	-1.3597709973e+000
 1.3590160350e+000	 1.9942936363e+000	-1.3397890396e+000
 1.3371095762e+000	 2.0090469919e+000	-1.3352540702e+000
 1.3150670442e+000	 2.0235440901e+000	-1.3386704619e+000
 1.2928928786e+000	 2.0377831651e+000	-1.3372342878e+000
 1.2705915461e+000	 2.0517625522e+000	-1.3278383588e+000
 1.2481675379e+000	 2.0654806886e+000	-1.3076357028e+000
 1.2256253669e+000	 2.0789361133e+000	-1.2738088711e+000
 1.2029695646e+000	 2.0921274676e+000	-1.2235809948e+000
 1.1802046783e+000	 2.1050534949e+000	-1.1542256089e+000
 1.4179001304e+000	 1.9857288300e+000	-1.3935494358e+000
 1.3960400929e+000	 2.0011576303e+000	-1.3584408369e+000
 1.3740335957e+000	 2.0163312171e+000	-1.3377405432e+000
 1.3518850635e+000	 2.0312476020e+000	-1.3303506297e+000
 1.3295989545e+000	 2.0459048977e+000	-1.3359076334e+000
 1.3071797573e+000	 2.0603013190e+000	-1.3411055812e+000
 1.2846319880e+000	 2.0744351829e+000	-1.3364505024e+000
 1.2619601874e+000	 2.0883049091e+000	-1.3189688927e+000
 1.2391689182e+000	 2.1019090205e+000	-1.2857211844e+000
 1.2162627620e+000	 2.1152461435e+000	-1.2338125608e+000
 1.1932463165e+000	 2.1283150075e+000	-1.1604024521e+000
 1.4333971323e+000	 2.0074319407e+000	-1.3996181767e+000
 1.4112981745e+000	 2.0230293707e+000	-1.3643660501e+000
 1.3890511563e+000	 2.0383687979e+000	-1.3416378994e+000
 1.3666605508e+000	 2.0534482121e+000	-1.3314420431e+000
 1.3441308648e+000	 2.0682657054e+000	-1.3337350294e+000
 1.3214666360e+000	 2.0828194730e+000	-1.3452574943e+000
 1.2986724299e+000	 2.0971078136e+000	-1.3472612405e+000
 1.2757528368e+000	 2.1111291295e+000	-1.3340842509e+000
 1.2527124694e+000	 2.1248819277e+000	-1.3026600348e+000
 1.2295559594e+000	 2.1383648193e+000	-1.2499737281e+000
 1.2062879546e+000	 2.1515765201e+000	-1.1730711690e+000
 1.4488941342e+000	 2.0291350514e+000	-1.4069495406e+000
 1.4265562562e+000	 2.0449011111e+000	-1.3711769533e+000
 1.4040687170e+000	 2.0604063787e+000	-1.3468697254e+000
 1.3814360382e+000	 2.0756488222e+000	-1.3340733674e+000
 1.3586627752e+000	 2.0906265131e+000	-1.3327835619e+000
 1.3357535147e+000	 2.1053376270e+000	-1.3429494970e+000
 1.3127128717e+000	 2.1197804442e+000	-1.3536179824e+000
 1.2895454862e+000	 2.1339533500e+000	-1.3466044086e+000
 1.2662560207e+000	 2.1478548349e+000	-1.3185625735e+000
 1.2428491568e+000	 2.1614834952e+000	-1.2663566524e+000
 1.2193295928e+000	 2.1748380327e+000	-1.1869206025e+000
 1.4643911361e+000	 2.0508381620e+000	-1.4103116620e+000
 1.4418143379e+000	 2.0667728516e+000	-1.3746403425e+000
 1.4190862777e+000	 2.0824439595e+000	-1.3491816434e+000
 1.3962115255e+000	 2.0978494323e+000	-1.3340048655e+000
 1.3731946855e+000	 2.1129873207e+000	-1.3291335571e+000
 1.3500403934e+000	 2.1278557810e+000	-1.3345489787e+000
 1.3267533136e+000	 2.1424530749e+000	-1.3490016050e+000
 1.3033381357e+000	 2.1567775704e+000	-1.3502629106e+000
 1.2797995719e+000	 2.1708277421e+000	-1.3274518736e+000
 1.2561423542e+000	 2.1846021710e+000	-1.2773120366e+000
 1.2323712309e+000	 2.1980995453e+000	-1.1966684419e+000
 1.4798881380e+000	 2.0725412727e+000	-1.4057427816e+000
 1.4570724195e+000	 2.0886445920e+000	-1.3707385563e+000
 1.4341038384e+000	 2.1044815404e+000	-1.3445337254e+000
 1.4109870128e+000	 2.1200500424e+000	-1.3272083613e+000
 1.3877265958e+000	 2.1353481284e+000	-1.3188029758e+000
 1.3643272722e+000	 2.1503739350e+000	-1.3193221374e+000
 1.3407937555e+000	 2.1651257056e+000	-1.3287376414e+000
 1.3171307851e+000	 2.1796017909e+000	-1.3389317342e+000
 1.2933431232e+000	 2.1938006493e+000	-1.3234644671e+000
 1.2694355516e+000	 2.2077208469e+000	-1.2772767597e+000
 1.2454128691e+000	 2.2213610579e+000	-1.1970890188e+000
 1.4953851399e+000	 2.0942443834e+000	-1.3894920149e+000
 1.4723305012e+000	 2.1105163324e+000	-1.3556655484e+000
 1.4491213991e+000	 2.1265191212e+000	-1.3290967139e+000
 1.4257625001e+000	 2.1422506525e+000	-1.3098636959e+000
 1.4022585061e+000	 2.1577089361e+000	-1.2980134095e+000
 1.3786141509e+000	 2.1728920890e+000	-1.2935652952e+000
 1.3548341974e+000	 2.1877983362e+000	-1.2965146133e+000
 1.3309234345e+000	 2.2024260114e+000	-1.3066488111e+000
 1.3068866744e+000	 2.2167735565e+000	-1.3008778460e+000
 1.2827287490e+000	 2.2308395228e+000	-1.2608014236e+000
 1.2584545072e+000	 2.2446225705e+000	-1.1830409714e+000
 1.5108821418e+000	 2.1159474941e+000	-1.3580154657e+000
 1.4875885829e+000	 2.1323880729e+000	-1.3258230669e+000
 1.4641389598e+000	 2.1485567020e+000	-1.2992483470e+000
 1.4405379875e+000	 2.1644512626e+000	-1.2783552768e+000
 1.4167904164e+000	 2.1800697437e+000	-1.2631869361e+000
 1.3929010296e+000	 2.1954102429e+000	-1.2537695085e+000
 1.3688746392e+000	 2.2104709669e+000	-1.2501157185e+000
 1.3447160840e+000	 2.2252502318e+000	-1.2522276859e+000
 1.3204302257e+000	 2.2397464637e+000	-1.2541379290e+000
 1.2960219464e+000	 2.2539581986e+000	-1.2225778260e+000
 1.2714961454e+000	 2.2678840830e+000	-1.1494947858e+000
 1.1410797639e+000	 2.0352689572e+000	-1.2276028114e+000
 1.1189718211e+000	 2.0475070112e+000	-1.1695904470e+000
 1.0967672688e+000	 2.0594864808e+000	-1.1255217872e+000
 1.0744705326e+000	 2.0712064498e+000	-1.0917262431e+000
 1.0520860425e+000	 2.0826661006e+000	-1.0647448113e+000
 1.0296182305e+000	 2.0938647137e+000	-1.0413378550e+000
 1.0070715277e+000	 2.1048016674e+000	-1.0185103349e+000
 9.8445036148e-001	 2.1154764373e+000	-9.9344916466e-001
 9.6175915357e-001	 2.1258885955e+000	-9.6362409813e-001
 9.3900231690e-001	 2.1360378104e+000	-9.2673193919e-001
 9.1618425334e-001	 2.1459238455e+000	-8.8071409018e-001
 1.1541214020e+000	 2.0585304698e+000	-1.1825686249e+000
 1.1317607830e+000	 2.0709083951e+000	-1.1218775153e+000
 1.1093024502e+000	 2.0830247805e+000	-1.0768511779e+000
 1.0867508800e+000	 2.0948786995e+000	-1.0435351044e+000
 1.0641105529e+000	 2.1064693250e+000	-1.0181946693e+000
 1.0413859516e+000	 2.1177959294e+000	-9.9732279988e-001
 1.0185815578e+000	 2.1288578838e+000	-9.7764660653e-001
 9.9570184959e-001	 2.1396546578e+000	-9.5615473961e-001
 9.7275129914e-001	 2.1501858188e+000	-9.3002148151e-001
 9.4973436985e-001	 2.1604510311e+000	-8.9672377252e-001
 9.2665551389e-001	 2.1704500559e+000	-8.5397362242e-001
 1.1671630402e+000	 2.0817919823e+000	-1.1598527054e+000
 1.1445497449e+000	 2.0943097789e+000	-1.0953220183e+000
 1.1218376317e+000	 2.1065630802e+000	-1.0479837324e+000
 1.0990312274e+000	 2.1185509491e+000	-1.0136441726e+000
 1.0761350633e+000	 2.1302725494e+000	-9.8833684064e-001
 1.0531536727e+000	 2.1417271451e+000	-9.6832984430e-001
 1.0300915879e+000	 2.1529141003e+000	-9.5013224595e-001
 1.0069533377e+000	 2.1638328784e+000	-9.3051911643e-001
 9.8374344471e-001	 2.1744830421e+000	-9.0646295511e-001
 9.6046642279e-001	 2.1848642519e+000	-8.7523929828e-001
 9.3712677444e-001	 2.1949762662e+000	-8.3436587265e-001
 1.1802046783e+000	 2.1050534949e+000	-1.1542256089e+000
 1.1573387067e+000	 2.1177111628e+000	-1.0851961618e+000
 1.1343728131e+000	 2.1301013799e+000	-1.0346719377e+000
 1.1113115748e+000	 2.1422231988e+000	-9.9826455681e-001
 1.0881595737e+000	 2.1540757738e+000	-9.7181915713e-001
 1.0649213938e+000	 2.1656583608e+000	-9.5142144653e-001
 1.0416016180e+000	 2.1769703167e+000	-9.3340363681e-001
 1.0182048258e+000	 2.1880110990e+000	-9.1434934727e-001
 9.9473559028e-001	 2.1987802654e+000	-8.9112086083e-001
 9.7119847574e-001	 2.2092774727e+000	-8.6077580343e-001
 9.4759803499e-001	 2.2195024766e+000	-8.2069044453e-001
 1.1932463165e+000	 2.1283150075e+000	-1.1604024521e+000
 1.1701276686e+000	 2.1411125466e+000	-1.0866851951e+000
 1.1469079945e+000	 2.1536396796e+000	-1.0325504997e+000
 1.1235919221e+000	 2.1658954485e+000	-9.9345957228e-001
 1.1001840841e+000	 2.1778789982e+000	-9.6511257257e-001
 1.0766891149e+000	 2.1895895765e+000	-9.4345514830e-001
 1.0531116482e+000	 2.2010265331e+000	-9.2468381495e-001
 1.0294563139e+000	 2.2121893196e+000	-9.0525027911e-001
 1.0057277359e+000	 2.2230774887e+000	-8.8188593278e-001
 9.8193052869e-001	 2.2336906935e+000	-8.5152625570e-001
 9.5806929554e-001	 2.2440286869e+000	-8.1142151991e-001
 1.2062879546e+000	 2.1515765201e+000	-1.1730711690e+000
 1.1829166305e+000	 2.1645139305e+000	-1.0949160270e+000
 1.1594431759e+000	 2.1771779793e+000	-1.0371652483e+000
 1.1358722695e+000	 2.1895676981e+000	-9.9517386130e-001
 1.1122085945e+000	 2.2016822226e+000	-9.6454042675e-001
 1.0884568360e+000	 2.2135207922e+000	-9.4111290768e-001
 1.0646216783e+000	 2.2250827495e+000	-9.2099334932e-001
 1.0407078020e+000	 2.2363675401e+000	-9.0054147928e-001
 1.0167198814e+000	 2.2473747120e+000	-8.7637733859e-001
 9.9266258164e-001	 2.2581039143e+000	-8.4540815214e-001
 9.6854055608e-001	 2.2685548972e+000	-8.0473639294e-001
 1.2193295928e+000	 2.1748380327e+000	-1.1869206025e+000
 1.1957055924e+000	 2.1879153143e+000	-1.1049856101e+000
 1.1719783574e+000	 2.2007162790e+000	-1.0440017477e+000
 1.1481526169e+000	 2.2132399478e+000	-9.9926216131e-001
 1.1242331049e+000	 2.2254854470e+000	-9.6630730153e-001
 1.1002245571e+000	 2.2374520078e+000	-9.4092997304e-001
 1.0761317084e+000	 2.2491389659e+000	-9.1917916282e-001
 1.0519592901e+000	 2.2605457607e+000	-8.9736276763e-001
 1.0277120270e+000	 2.2716719353e+000	-8.7204934351e-001
 1.0033946346e+000	 2.2825171351e+000	-8.4009174848e-001
 9.7901181663e-001	 2.2930811076e+000	-7.9854335641e-001
 1.2323712309e+000	 2.1980995453e+000	-1.1966684419e+000
 1.2084945542e+000	 2.2113166982e+000	-1.1119891116e+000
 1.1845135388e+000	 2.2242545787e+000	-1.0485136344e+000
 1.1604329643e+000	 2.2369121975e+000	-1.0015177461e+000
 1.1362576153e+000	 2.2492886714e+000	-9.6652749923e-001
 1.1119922782e+000	 2.2613832235e+000	-9.3932333200e-001
 1.0876417385e+000	 2.2731951823e+000	-9.1594288484e-001
 1.0632107782e+000	 2.2847239813e+000	-8.9268269865e-001
 1.0387041726e+000	 2.2959691586e+000	-8.6609892993e-001
 1.0141266875e+000	 2.3069303559e+000	-8.3300721751e-001
 9.8948307718e-001	 2.3176073179e+000	-7.9050898835e-001
 1.2454128691e+000	 2.2213610579e+000	-1.1970890188e+000
 1.2212835161e+000	 2.2347180820e+000	-1.1110478843e+000
 1.1970487202e+000	 2.2477928784e+000	-1.0461507036e+000
 1.1727133117e+000	 2.2605844471e+000	-9.9770056407e-001
 1.1482821256e+000	 2.2730918958e+000	-9.6125317090e-001
 1.1237599992e+000	 2.2853144392e+000	-9.3261976667e-001
 1.0991517687e+000	 2.2972513987e+000	-9.0786876983e-001
 1.0744622664e+000	 2.3089022019e+000	-8.8332627957e-001
 1.0496963181e+000	 2.3202663819e+000	-8.5557559629e-001
 1.0248587405e+000	 2.3313435766e+000	-8.2145590570e-001
 9.9995433773e-001	 2.3421335283e+000	-7.7808488265e-001
 1.2584545072e+000	 2.2446225705e+000	-1.1830409714e+000
 1.2340724780e+000	 2.2581194659e+000	-1.0973372539e+000
 1.2095839016e+000	 2.2713311781e+000	-1.0323867606e+000
 1.1849936591e+000	 2.2842566968e+000	-9.8356509591e-001
 1.1603066360e+000	 2.2968951202e+000	-9.4650211998e-001
 1.1355277203e+000	 2.3092456549e+000	-9.1708354357e-001
 1.1106617988e+000	 2.3213076151e+000	-8.9145121346e-001
 1.0857137545e+000	 2.3330804224e+000	-8.6600225227e-001
 1.0606884637e+000	 2.3445636051e+000	-8.3738721643e-001
 1.0355907934e+000	 2.3557567974e+000	-8.0250743445e-001
 1.0104255983e+000	 2.3666597386e+000	-7.5851168523e-001
 1.2714961454e+000	 2.2678840830e+000	-1.1494947858e+000
 1.2468614399e+000	 2.2815208497e+000	-1.0661141351e+000
 1.2221190831e+000	 2.2948694778e+000	-1.0027472558e+000
 1.1972740064e+000	 2.3079289465e+000	-9.5488795116e-001
 1.1723311464e+000	 2.3206983446e+000	-9.1828530462e-001
 1.1472954414e+000	 2.3331768706e+000	-8.8894376468e-001
 1.1221718289e+000	 2.3453638315e+000	-8.6312189516e-001
 1.0969652426e+000	 2.3572586430e+000	-8.3732997021e-001
 1.0716806093e+000	 2.3688608284e+000	-8.0832659367e-001
 1.0463228464e+000	 2.3801700182e+000	-7.7311452058e-001
 1.0208968588e+000	 2.3911859489e+000	-7.2893585507e-001
 9.1618425334e-001	 2.1459238455e+000	-8.8071409018e-001
 8.9330591575e-001	 2.1555479833e+000	-8.3222673924e-001
 8.7037509788e-001	 2.1649086739e+000	-7.8798891686e-001
 8.4739615664e-001	 2.1740059639e+000	-7.4638418860e-001
 8.2437342815e-001	 2.1828399911e+000	-7.0604539373e-001
 8.0131122541e-001	 2.1914109843e+000	-6.6585623416e-001
 7.7821383611e-001	 2.1997192618e+000	-6.2495245936e-001
 7.5508552040e-001	 2.2077652301e+000	-5.8272269420e-001
 7.3193050875e-001	 2.2155493829e+000	-5.3880895331e-001
 7.0875299987e-001	 2.2230722995e+000	-4.9310688052e-001
 6.8555715871e-001	 2.2303346436e+000	-4.4576574752e-001
 9.2665551389e-001	 2.1704500559e+000	-8.5397362242e-001
 9.0351569502e-001	 2.1801841899e+000	-8.0823120988e-001
 8.8032279606e-001	 2.1896518658e+000	-7.6621714358e-001
 8.5708122372e-001	 2.1988531306e+000	-7.2638904572e-001
 8.3379536366e-001	 2.2077881238e+000	-6.8745398025e-001
 8.1046957821e-001	 2.2164570766e+000	-6.4836945823e-001
 7.8710820405e-001	 2.2248603111e+000	-6.0834408205e-001
 7.6371555000e-001	 2.2329982385e+000	-5.6683788092e-001
 7.4029589490e-001	 2.2408713580e+000	-5.2356238508e-001
 7.1685348544e-001	 2.2484802556e+000	-4.7848048130e-001
 6.9339253419e-001	 2.2558256026e+000	-4.3180608666e-001
 9.3712677444e-001	 2.1949762662e+000	-8.3436587265e-001
 9.1372547428e-001	 2.2048203965e+000	-7.9009852159e-001
 8.9027049423e-001	 2.2143950577e+000	-7.4913049233e-001
 8.6676629079e-001	 2.2237002973e+000	-7.0999419855e-001
 8.4321729918e-001	 2.2327362564e+000	-6.7146963372e-001
 8.1962793101e-001	 2.2415031690e+000	-6.3258475577e-001
 7.9600257198e-001	 2.2500013605e+000	-5.9261556114e-001
 7.7234557960e-001	 2.2582312469e+000	-5.5108590542e-001
 7.4866128104e-001	 2.2661933331e+000	-5.0776712296e-001
 7.2495397102e-001	 2.2738882116e+000	-4.6267749151e-001
 7.0122790966e-001	 2.2813165615e+000	-4.1608158230e-001
 9.4759803499e-001	 2.2195024766e+000	-8.2069044453e-001
 9.2393525355e-001	 2.2294566031e+000	-7.7690585815e-001
 9.0021819241e-001	 2.2391382496e+000	-7.3605743989e-001
 8.7645135786e-001	 2.2485474640e+000	-6.9675403602e-001
 8.5263923470e-001	 2.2576843891e+000	-6.5784817025e-001
 8.2878628382e-001	 2.2665492613e+000	-6.1843576539e-001
 8.0489693991e-001	 2.2751424099e+000	-5.7785561210e-001
 7.8097560919e-001	 2.2834642553e+000	-5.3568864763e-001
 7.5702666719e-001	 2.2915153082e+000	-4.9175710135e-001
 7.3305445659e-001	 2.2992961677e+000	-4.4612355754e-001
 7.0906328514e-001	 2.3068075204e+000	-3.9908997887e-001
 9.5806929554e-001	 2.2440286869e+000	-8.1142151991e-001
 9.3414503282e-001	 2.2540928097e+000	-7.6738568277e-001
 9.1016589059e-001	 2.2638814415e+000	-7.2596441782e-001
 8.8613642494e-001	 2.2733946308e+000	-6.8584560971e-001
 8.6206117021e-001	 2.2826325217e+000	-6.4595486445e-001
 8.3794463662e-001	 2.2915953536e+000	-6.0545451994e-001
 8.1379130784e-001	 2.3002834592e+000	-5.6374246902e-001
 7.8960563879e-001	 2.3086972637e+000	-5.2045086370e-001
 7.6539205334e-001	 2.3168372833e+000	-4.7544476275e-001
 7.4115494217e-001	 2.3247041238e+000	-4.2882077691e-001
 7.1689866062e-001	 2.3322984793e+000	-3.8090575903e-001
 9.6854055608e-001	 2.2685548972e+000	-8.0473639294e-001
 9.4435481208e-001	 2.2787290163e+000	-7.5995387422e-001
 9.2011358876e-001	 2.2886246334e+000	-7.1748346320e-001
 8.9582149201e-001	 2.2982417975e+000	-6.7609571373e-001
 8.7148310573e-001	 2.3075806544e+000	-6.3479087488e-001
 8.4710298942e-001	 2.3166414459e+000	-5.9279713609e-001
 8.2268567577e-001	 2.3254245086e+000	-5.4956875842e-001
 7.9823566838e-001	 2.3339302721e+000	-5.0478416666e-001
 7.7375743949e-001	 2.3421592584e+000	-4.5834406971e-001
 7.4925542774e-001	 2.3501120799e+000	-4.1036966825e-001
 7.2473403609e-001	 2.3577894383e+000	-3.6120100028e-001
 9.7901181663e-001	 2.2930811076e+000	-7.9854335641e-001
 9.5456459135e-001	 2.3033652229e+000	-7.5273719199e-001
 9.3006128694e-001	 2.3133678253e+000	-7.0893918087e-001
 9.0550655908e-001	 2.3230889642e+000	-6.6600726422e-001
 8.8090504125e-001	 2.3325287870e+000	-6.2301896272e-001
 8.5626134222e-001	 2.3416875382e+000	-5.7926879604e-001
 8.3158004370e-001	 2.3505655579e+000	-5.3426567020e-001
 8.0686569798e-001	 2.3591632805e+000	-4.8773031438e-001
 7.8212282563e-001	 2.3674812335e+000	-4.3959283991e-001
 7.5735591331e-001	 2.3755200360e+000	-3.8999048537e-001
 7.3256941157e-001	 2.3832803972e+000	-3.3926560222e-001
 9.8948307718e-001	 2.3176073179e+000	-7.9050898835e-001
 9.6477437061e-001	 2.3280014296e+000	-7.4360012017e-001
 9.4000898511e-001	 2.3381110172e+000	-6.9837506807e-001
 9.1519162615e-001	 2.3479361309e+000	-6.5378503005e-001
 8.9032697676e-001	 2.3574769197e+000	-6.0898855587e-001
 8.6541969502e-001	 2.3667336306e+000	-5.6334807411e-001
 8.4047441163e-001	 2.3757066073e+000	-5.1642647770e-001
 8.1549572757e-001	 2.3843962889e+000	-4.6798385627e-001
 7.9048821178e-001	 2.3928032086e+000	-4.1797445436e-001
 7.6545639888e-001	 2.4009279921e+000	-3.6654392415e-001
 7.4040478704e-001	 2.4087713561e+000	-3.1402693111e-001
 9.9995433773e-001	 2.3421335283e+000	-7.7808488265e-001
 9.7498414988e-001	 2.3526376362e+000	-7.3017113557e-001
 9.4995668329e-001	 2.3628542091e+000	-6.8357924835e-001
 9.2487669322e-001	 2.3727832976e+000	-6.3736076259e-001
 8.9974891228e-001	 2.3824250523e+000	-5.9076020649e-001
 8.7457804782e-001	 2.3917797229e+000	-5.4321065610e-001
 8.4936877956e-001	 2.4008476566e+000	-4.9432945459e-001
 8.2412575717e-001	 2.4096292973e+000	-4.4391418545e-001
 7.9885359793e-001	 2.4181251837e+000	-3.9193898476e-001
 7.7355688446e-001	 2.4263359481e+000	-3.3855126661e-001
 7.4824016252e-001	 2.4342623150e+000	-2.8406892440e-001
 1.0104255983e+000	 2.3666597386e+000	-7.5851168523e-001
 9.8519392915e-001	 2.3772738428e+000	-7.0986844191e-001
 9.5990438146e-001	 2.3875974010e+000	-6.6210965746e-001
 9.3456176030e-001	 2.3976304643e+000	-6.1441776796e-001
 9.0917084779e-001	 2.4073731850e+000	-5.6612948611e-001
 8.8373640062e-001	 2.4168258152e+000	-5.1675249541e-001
 8.5826314749e-001	 2.4259887060e+000	-4.6596023245e-001
 8.3275578676e-001	 2.4348623057e+000	-4.1358703988e-001
 8.0721898407e-001	 2.4434471588e+000	-3.5962378207e-001
 7.8165737003e-001	 2.4517439042e+000	-3.0421400316e-001
 7.5607553799e-001	 2.4597532740e+000	-2.4765069447e-001
 1.0208968588e+000	 2.3911859489e+000	-7.2893585507e-001
 9.9540370841e-001	 2.4019100494e+000	-6.7992520832e-001
 9.6985207964e-001	 2.4123405929e+000	-6.3131872061e-001
 9.4424682737e-001	 2.4224776311e+000	-5.8241496182e-001
 9.1859278331e-001	 2.4323213176e+000	-5.3265035847e-001
 8.9289475342e-001	 2.4418719075e+000	-4.8161244652e-001
 8.6715751542e-001	 2.4511297553e+000	-4.2903363902e-001
 8.4138581636e-001	 2.4600953141e+000	-3.7478549164e-001
 8.1558437022e-001	 2.4687691339e+000	-3.1887356513e-001
 7.8975785560e-001	 2.4771518603e+000	-2.6143297034e-001
 7.6391091347e-001	 2.4852442329e+000	-2.0272466752e-001
 6.8555715871e-001	 2.2303346436e+000	-4.4576574752e-001
 6.6234711413e-001	 2.2373371614e+000	-4.0317660767e-001
 6.3912695606e-001	 2.2440806781e+000	-3.6227786670e-001
 6.1590073469e-001	 2.2505660983e+000	-3.1874097933e-001
 5.9267245902e-001	 2.2567944051e+000	-2.7320231466e-001
 5.6944609519e-001	 2.2627666581e+000	-2.2668059314e-001
 5.4622556476e-001	 2.2684839922e+000	-1.8056095253e-001
 5.2301474317e-001	 2.2739476157e+000	-1.3658159268e-001
 4.9981745820e-001	 2.2791588084e+000	-9.6822769404e-002
 4.7663748852e-001	 2.2841189201e+000	-6.3697893686e-002
 4.5347856227e-001	 2.2888293689e+000	-3.9946481192e-002
 6.9339253419e-001	 2.2558256026e+000	-4.3180608666e-001
 6.6991721718e-001	 2.2629081536e+000	-3.9052529894e-001
 6.4643167109e-001	 2.2697287433e+000	-3.5496398911e-001
 6.2293999239e-001	 2.2762882867e+000	-3.1612286244e-001
 5.9944623593e-001	 2.2825877781e+000	-2.7457598908e-001
 5.7595441315e-001	 2.2886282893e+000	-2.3139582088e-001
 5.5246849044e-001	 2.2944109680e+000	-1.8800313055e-001
 5.2899238754e-001	 2.2999370364e+000	-1.4615523789e-001
 5.0552997598e-001	 2.3052077888e+000	-1.0793684963e-001
 4.8208507759e-001	 2.3102245907e+000	-7.5753240532e-002
 4.5866146316e-001	 2.3149888762e+000	-5.2325492092e-002
 7.0122790966e-001	 2.2813165615e+000	-4.1608158230e-001
 6.7748732023e-001	 2.2884791457e+000	-3.7527495298e-001
 6.5373638611e-001	 2.2953768085e+000	-3.4379096571e-001
 6.2997925010e-001	 2.3020104752e+000	-3.0963037915e-001
 6.0622001284e-001	 2.3083811512e+000	-2.7198793037e-001
 5.8246273111e-001	 2.3144899205e+000	-2.3201637790e-001
 5.5871141613e-001	 2.3203379438e+000	-1.9119360546e-001
 5.3497003191e-001	 2.3259264570e+000	-1.5131258482e-001
 5.1124249375e-001	 2.3312567693e+000	-1.1447424108e-001
 4.8753266667e-001	 2.3363302614e+000	-8.3082917830e-002
 4.6384436404e-001	 2.3411483836e+000	-5.9844127077e-002
 7.0906328514e-001	 2.3068075204e+000	-3.9908997887e-001
 6.8505742327e-001	 2.3140501379e+000	-3.5821135616e-001
 6.6104110114e-001	 2.3210248737e+000	-3.2912071076e-001
 6.3701850780e-001	 2.3277326636e+000	-2.9973645534e-001
 6.1299378974e-001	 2.3341745242e+000	-2.6601873516e-001
 5.8897104907e-001	 2.3403515516e+000	-2.2922385278e-001
 5.6495434181e-001	 2.3462649196e+000	-1.9090472701e-001
 5.4094767629e-001	 2.3519158777e+000	-1.5290276068e-001
 5.1695501152e-001	 2.3573057498e+000	-1.1734292506e-001
 4.9298025574e-001	 2.3624359320e+000	-8.6631725861e-002
 4.6902726493e-001	 2.3673078909e+000	-6.3457702440e-002
 7.1689866062e-001	 2.3322984793e+000	-3.8090575903e-001
 6.9262752632e-001	 2.3396211300e+000	-3.3946773079e-001
 6.6834581616e-001	 2.3466729389e+000	-3.1090885882e-001
 6.4405776551e-001	 2.3534548520e+000	-2.8646278121e-001
 6.1976756665e-001	 2.3599678973e+000	-2.5679791180e-001
 5.9547936703e-001	 2.3662131828e+000	-2.2325305249e-001
 5.7119726749e-001	 2.3721918953e+000	-1.8747057311e-001
 5.4692532066e-001	 2.3779052983e+000	-1.5134936445e-001
 5.2266752930e-001	 2.3833547302e+000	-1.1704234983e-001
 4.9842784481e-001	 2.3885416026e+000	-8.6957184266e-002
 4.7421016581e-001	 2.3934673982e+000	-6.3759757130e-002
 7.2473403609e-001	 2.3577894383e+000	-3.6120100028e-001
 7.0019762936e-001	 2.3651921222e+000	-3.1877624541e-001
 6.7565053119e-001	 2.3723210042e+000	-2.8981057233e-001
 6.5109702321e-001	 2.3791770405e+000	-2.6940383345e-001
 6.2654134356e-001	 2.3857612703e+000	-2.4402583509e-001
 6.0198768499e-001	 2.3920748140e+000	-2.1391187090e-001
 5.7744019317e-001	 2.3981188711e+000	-1.8080470929e-001
 5.5290296503e-001	 2.4038947190e+000	-1.4666609012e-001
 5.2838004707e-001	 2.4094037107e+000	-1.1367688640e-001
 5.0387543389e-001	 2.4146472732e+000	-8.4240784760e-002
 4.7939306669e-001	 2.4196269055e+000	-6.0991062293e-002
 7.3256941157e-001	 2.3832803972e+000	-3.3926560222e-001
 7.0776773240e-001	 2.3907631144e+000	-2.9548709798e-001
 6.8295524621e-001	 2.3979690694e+000	-2.6568237176e-001
 6.5813628092e-001	 2.4048992289e+000	-2.4775037602e-001
 6.3331512046e-001	 2.4115546434e+000	-2.2699522570e-001
 6.0849600294e-001	 2.4179364451e+000	-2.0060073349e-001
 5.8368311886e-001	 2.4240458469e+000	-1.7041758138e-001
 5.5888060940e-001	 2.4298841397e+000	-1.3847204632e-001
 5.3409256484e-001	 2.4354526912e+000	-1.0696905010e-001
 5.0932302296e-001	 2.4407529438e+000	-7.8299085407e-002
 4.8457596758e-001	 2.4457864128e+000	-5.5048554962e-002
 7.4040478704e-001	 2.4087713561e+000	-3.1402693111e-001
 7.1533783545e-001	 2.4163341065e+000	-2.6858704560e-001
 6.9025996123e-001	 2.4236171346e+000	-2.3756511901e-001
 6.6517553862e-001	 2.4306214173e+000	-2.2031247831e-001
 6.4008889737e-001	 2.4373480164e+000	-2.0461218955e-001
 6.1500432090e-001	 2.4437980763e+000	-1.8233164948e-001
 5.8992604454e-001	 2.4499728226e+000	-1.5543356863e-001
 5.6485825377e-001	 2.4558735603e+000	-1.2600679488e-001
 5.3980508261e-001	 2.4615016716e+000	-9.6272505175e-002
 5.1477061203e-001	 2.4668586144e+000	-6.8594658197e-002
 4.8975886846e-001	 2.4719459201e+000	-4.5494201504e-002
 7.4824016252e-001	 2.4342623150e+000	-2.8406892440e-001
 7.2290793849e-001	 2.4419050987e+000	-2.3671742094e-001
 6.9756467626e-001	 2.4492651998e+000	-2.0415425573e-001
 6.7221479633e-001	 2.4563436058e+000	-1.8610262706e-001
 6.4686267428e-001	 2.4631413894e+000	-1.7541684925e-001
 6.2151263886e-001	 2.4696597075e+000	-1.5774690025e-001
 5.9616897022e-001	 2.4758997984e+000	-1.3460772212e-001
 5.7083589814e-001	 2.4818629810e+000	-1.0814512878e-001
 5.4551760038e-001	 2.4875506521e+000	-8.0584868377e-002
 5.2021820111e-001	 2.4929642851e+000	-5.4246900681e-002
 4.9494176935e-001	 2.4981054275e+000	-3.1563795974e-002
 7.5607553799e-001	 2.4597532740e+000	-2.4765069447e-001
 7.3047804154e-001	 2.4674760908e+000	-1.9819167305e-001
 7.0486939128e-001	 2.4749132650e+000	-1.6381624104e-001
 6.7925405403e-001	 2.4820657942e+000	-1.4461891672e-001
 6.5363645118e-001	 2.4889347625e+000	-1.3760359742e-001
 6.2802095682e-001	 2.4955213386e+000	-1.2513739053e-001
 6.0241189591e-001	 2.5018267742e+000	-1.0634221128e-001
 5.7681354251e-001	 2.5078524016e+000	-8.3411608475e-002
 5.5123011816e-001	 2.5135996326e+000	-5.8560326134e-002
 5.2566579018e-001	 2.5190699557e+000	-3.4042721510e-002
 5.0012467023e-001	 2.5242649348e+000	-1.2175698085e-002
 7.6391091347e-001	 2.4852442329e+000	-2.0272466752e-001
 7.3804814458e-001	 2.4930470830e+000	-1.5101246624e-001
 7.1217410630e-001	 2.5005613302e+000	-1.1460457409e-001
 6.8629331174e-001	 2.5077879826e+000	-9.4005620890e-002
 6.6041022809e-001	 2.5147281355e+000	-8.9040998777e-002
 6.3452927478e-001	 2.5213829698e+000	-8.2460686344e-002
 6.0865482159e-001	 2.5277537500e+000	-6.8702499597e-002
 5.8279118688e-001	 2.5338418223e+000	-4.9994873960e-002
 5.5694263593e-001	 2.5396486130e+000	-2.8522078624e-002
 5.3111337925e-001	 2.5451756263e+000	-6.4471089450e-003
 5.0530757112e-001	 2.5504244421e+000	 1.4060484851e-002
 4.5347856227e-001	 2.2888293689e+000	-3.9946481192e-002
 4.3034782282e-001	 2.2932909887e+000	-1.5795215885e-002
 4.0724541205e-001	 2.2975060545e+000	 1.8969527354e-002
 3.8417489215e-001	 2.3014761789e+000	 6.1734075297e-002
 3.6113977008e-001	 2.3052030356e+000	 1.0950585243e-001
 3.3814349649e-001	 2.3086883567e+000	 1.5891499637e-001
 3.1518946472e-001	 2.3119339318e+000	 2.0621582840e-001
 2.9228100992e-001	 2.3149416051e+000	 2.4728842874e-001
 2.6942140816e-001	 2.3177132742e+000	 2.7764055566e-001
 2.4661387566e-001	 2.3202508879e+000	 2.9241013584e-001
 2.2386156802e-001	 2.3225564445e+000	 2.8636853926e-001
 4.5866146316e-001	 2.3149888762e+000	-5.2325492092e-002
 4.3526635767e-001	 2.3195014888e+000	-2.8426237917e-002
 4.1189990463e-001	 2.3237647294e+000	 5.7190952247e-003
 3.8856570697e-001	 2.3277802293e+000	 4.7681177235e-002
 3.6526731169e-001	 2.3315496809e+000	 9.4648416010e-002
 3.4200820890e-001	 2.3350748366e+000	 1.4342550322e-001
 3.1879183072e-001	 2.3383575059e+000	 1.9043179631e-001
 2.9562155042e-001	 2.3413995546e+000	 2.3169981407e-001
 2.7250068152e-001	 2.3442029017e+000	 2.6287411221e-001
 2.4943247698e-001	 2.3467695183e+000	 2.7921079194e-001
 2.2642012848e-001	 2.3491014256e+000	 2.7557787952e-001
 4.6384436404e-001	 2.3411483836e+000	-5.9844127077e-002
 4.4018489252e-001	 2.3457119889e+000	-3.6103173631e-002
 4.1655439722e-001	 2.3500234044e+000	-2.5590991691e-003
 3.9295652178e-001	 2.3540842796e+000	 3.8532636465e-002
 3.6939485330e-001	 2.3578963263e+000	 8.4532250740e-002
 3.4587292131e-001	 2.3614613164e+000	 1.3241090097e-001
 3.2239419672e-001	 2.3647810801e+000	 1.7874575814e-001
 2.9896209093e-001	 2.3678575041e+000	 2.1971519951e-001
 2.7557995488e-001	 2.3706925291e+000	 2.5109441497e-001
 2.5225107830e-001	 2.3732881487e+000	 2.6825170810e-001
 2.2897868894e-001	 2.3756464067e+000	 2.6614575618e-001
 4.6902726493e-001	 2.3673078909e+000	-6.3457702440e-002
 4.4510342737e-001	 2.3719224890e+000	-3.9792191718e-002
 4.2120888981e-001	 2.3762820793e+000	-6.8684239885e-003
 3.9734733659e-001	 2.3803883299e+000	 3.3226962610e-002
 3.7352239491e-001	 2.3842429716e+000	 7.8022374095e-002
 3.4973763372e-001	 2.3878477962e+000	 1.2465300648e-001
 3.2599656273e-001	 2.3912046543e+000	 1.6985237204e-001
 3.0230263143e-001	 2.3943154536e+000	 2.0994394530e-001
 2.7865922823e-001	 2.3971821566e+000	 2.4083325475e-001
 2.5506967962e-001	 2.3998067791e+000	 2.5800073057e-001
 2.3153724940e-001	 2.4021913878e+000	 2.5649560095e-001
 4.7421016581e-001	 2.3934673982e+000	-6.3759757130e-002
 4.5002196221e-001	 2.3981329891e+000	-4.0126058118e-002
 4.2586338240e-001	 2.4025407543e+000	-7.9087305406e-003
 4.0173815140e-001	 2.4066923803e+000	 3.0974789266e-002
 3.7764993651e-001	 2.4105896170e+000	 7.4223039881e-002
 3.5360234613e-001	 2.4142342760e+000	 1.1913851029e-001
 3.2959892873e-001	 2.4176282285e+000	 1.6261535862e-001
 3.0564317194e-001	 2.4207734031e+000	 2.0112724742e-001
 2.8173850159e-001	 2.4236717841e+000	 2.3071565454e-001
 2.5788828094e-001	 2.4263254095e+000	 2.4697900129e-001
 2.3409580986e-001	 2.4287363689e+000	 2.4506292056e-001
 4.7939306669e-001	 2.4196269055e+000	-6.0991062293e-002
 4.5494049706e-001	 2.4243434892e+000	-3.7410931574e-002
 4.3051787498e-001	 2.4287994293e+000	-6.0810313026e-003
 4.0612896622e-001	 2.4329964306e+000	 3.1256223486e-002
 3.8177747812e-001	 2.4369362624e+000	 7.2477031840e-002
 3.5746705854e-001	 2.4406207558e+000	 1.1506013757e-001
 3.3320129473e-001	 2.4440518026e+000	 1.5607045945e-001
 3.0898371244e-001	 2.4472313525e+000	 1.9214283061e-001
 2.8481777495e-001	 2.4501614116e+000	 2.1946624110e-001
 2.6070688226e-001	 2.4528440399e+000	 2.3376895918e-001
 2.3665437032e-001	 2.4552813499e+000	 2.3030488589e-001
 4.8457596758e-001	 2.4457864128e+000	-5.5048554962e-002
 4.5985903191e-001	 2.4505539893e+000	-3.1633168149e-002
 4.3517236757e-001	 2.4550581042e+000	-1.4922695771e-003
 4.1051978103e-001	 2.4593004810e+000	 3.3818022786e-002
 3.8590501973e-001	 2.4632829077e+000	 7.2364705345e-002
 3.6133177094e-001	 2.4670072357e+000	 1.1181747894e-001
 3.3680366073e-001	 2.4704753768e+000	 1.4942798794e-001
 3.1232425294e-001	 2.4736893020e+000	 1.8200915678e-001
 2.8789704831e-001	 2.4766510391e+000	 2.0591505504e-001
 2.6352548358e-001	 2.4793626703e+000	 2.1702170286e-001
 2.3921293079e-001	 2.4818263310e+000	 2.1070920506e-001
 4.8975886846e-001	 2.4719459201e+000	-4.5494201504e-002
 4.6477756676e-001	 2.4767644894e+000	-2.2466134027e-002
 4.3982686015e-001	 2.4813167792e+000	 6.0398260104e-003
 4.1491059584e-001	 2.4856045313e+000	 3.8670612425e-002
 3.9003256133e-001	 2.4896295531e+000	 7.3702795880e-002
 3.6519648335e-001	 2.4933937155e+000	 1.0901751563e-001
 3.4040602674e-001	 2.4968989510e+000	 1.4207500282e-001
 3.1566479345e-001	 2.5001472515e+000	 1.6988918475e-001
 2.9097632166e-001	 2.5031406665e+000	 1.8900284117e-001
 2.6634408490e-001	 2.5058813007e+000	 1.9546376228e-001
 2.4177149125e-001	 2.5083713121e+000	 1.8480233351e-001
 4.9494176935e-001	 2.4981054275e+000	-3.1563795974e-002
 4.6969610161e-001	 2.5029749895e+000	-9.2770260120e-003
 4.4448135274e-001	 2.5075754541e+000	 1.6981808397e-002
 4.1930141065e-001	 2.5119085816e+000	 4.6084954691e-002
 3.9416010294e-001	 2.5159761984e+000	 7.6543011393e-002
 3.6906119576e-001	 2.5197801953e+000	 1.0647486137e-001
 3.4400839274e-001	 2.5233225252e+000	 1.3357713182e-001
 3.1900533395e-001	 2.5266052010e+000	 1.5509371416e-001
 2.9405559502e-001	 2.5296302940e+000	 1.6778585694e-001
 2.6916268622e-001	 2.5323999311e+000	 1.6790332231e-001
 2.4433005171e-001	 2.5349162932e+000	 1.5115706973e-001
 5.0012467023e-001	 2.5242649348e+000	-1.2175698085e-002
 4.7461463645e-001	 2.5291854896e+000	 8.8663008657e-003
 4.4913584533e-001	 2.5338341291e+000	 3.2079506052e-002
 4.2369222546e-001	 2.5382126320e+000	 5.6589280918e-002
 3.9828764455e-001	 2.5423228438e+000	 8.1170424197e-002
 3.7292590817e-001	 2.5461666751e+000	 1.0421174147e-001
 3.4761075874e-001	 2.5497460993e+000	 1.2368007106e-001
 3.2234587446e-001	 2.5530631505e+000	 1.3708434370e-001
 2.9713486838e-001	 2.5561199215e+000	 1.4144023419e-001
 2.7198128754e-001	 2.5589185615e+000	 1.3323593845e-001
 2.4688861217e-001	 2.5614612743e+000	 1.0839958104e-001
 5.0530757112e-001	 2.5504244421e+000	 1.4060484851e-002
 4.7953317130e-001	 2.5553959897e+000	 3.3188499122e-002
 4.5379033791e-001	 2.5600928041e+000	 5.2352949275e-002
 4.2808304028e-001	 2.5645166823e+000	 7.0965696096e-002
 4.0241518616e-001	 2.5686694892e+000	 8.8101676827e-002
 3.7679062058e-001	 2.5725531550e+000	 1.0245772817e-001
 3.5121312474e-001	 2.5761696735e+000	 1.1231078331e-001
 3.2568641496e-001	 2.5795211000e+000	 1.1547607149e-001
 3.0021414174e-001	 2.5826095490e+000	 1.0926592615e-001
 2.7479988887e-001	 2.5854371919e+000	 9.0449780658e-002
 2.4944717263e-001	 2.5880062554e+000	 5.5215900562e-002
 2.2386156802e-001	 2.3225564445e+000	 2.8636853926e-001
 2.0116418761e-001	 2.3246322838e+000	 2.7899652599e-001
 1.7852822470e-001	 2.3264801350e+000	 2.9002147074e-001
 1.5595669635e-001	 2.3281021343e+000	 3.1399956429e-001
 1.3345255529e-001	 2.3295004597e+000	 3.4508822459e-001
 1.1101868952e-001	 2.3306773288e+000	 3.7705636078e-001
 8.8657921967e-002	 2.3316349974e+000	 4.0329640158e-001
 6.6373010180e-002	 2.3323757570e+000	 4.1683817263e-001
 4.4166646119e-002	 2.3329019336e+000	 4.1036468716e-001
 2.2041455963e-002	 2.3332158851e+000	 3.7622989458e-001
 0.0000000000e+000	 2.3333200000e+000	 3.0647838715e-001
 2.2642012848e-001	 2.3491014256e+000	 2.7557787952e-001
 2.0346333498e-001	 2.3512009901e+000	 2.7115142860e-001
 1.8056866094e-001	 2.3530699608e+000	 2.8543415017e-001
 1.5773915790e-001	 2.3547104983e+000	 3.1315450703e-001
 1.3497781233e-001	 2.3561248054e+000	 3.4860307619e-001
 1.1228754524e-001	 2.3573151252e+000	 3.8564060897e-001
 8.9671211813e-002	 2.3582837391e+000	 4.1770807045e-001
 6.7131601130e-002	 2.3590329651e+000	 4.3783875540e-001
 4.4671435911e-002	 2.3595651554e+000	 4.3867255584e-001
 2.2293372352e-002	 2.3598826951e+000	 4.1247243335e-001
 0.0000000000e+000	 2.3599880000e+000	 3.5114310354e-001
 2.2897868894e-001	 2.3756464067e+000	 2.6614575618e-001
 2.0576248236e-001	 2.3777696964e+000	 2.6357306003e-001
 1.8260909719e-001	 2.3796597865e+000	 2.7974958886e-001
 1.5952161945e-001	 2.3813188622e+000	 3.0958751300e-001
 1.3650306936e-001	 2.3827491510e+000	 3.4752033184e-001
 1.1355640095e-001	 2.3839529215e+000	 3.8750852413e-001
 9.0684501658e-002	 2.3849324809e+000	 4.2304740453e-001
 6.7890192080e-002	 2.3856901731e+000	 4.4717729688e-001
 4.5176225704e-002	 2.3862283772e+000	 4.5249611095e-001
 2.2545288740e-002	 2.3865495052e+000	 4.3117438527e-001
 0.0000000000e+000	 2.3866560000e+000	 3.7497281152e-001
 2.3153724940e-001	 2.4021913878e+000	 2.5649560095e-001
 2.0806162973e-001	 2.4043384027e+000	 2.5465990758e-001
 1.8464953343e-001	 2.4062496123e+000	 2.7136032904e-001
 1.6130408099e-001	 2.4079272261e+000	 3.0170942101e-001
 1.3802832640e-001	 2.4093734967e+000	 3.4029856011e-001
 1.1482525666e-001	 2.4105907179e+000	 3.8120096132e-001
 9.1697791503e-002	 2.4115812226e+000	 4.1797714053e-001
 6.8648783029e-002	 2.4123473812e+000	 4.4368294772e-001
 4.5681015496e-002	 2.4128915991e+000	 4.5088026969e-001
 2.2797205128e-002	 2.4132163152e+000	 4.3165047558e-001
 0.0000000000e+000	 2.4133240000e+000	 3.7761062921e-001
 2.3409580986e-001	 2.4287363689e+000	 2.4506292056e-001
 2.1036077711e-001	 2.4309071089e+000	 2.4278033516e-001
 1.8668996967e-001	 2.4328394381e+000	 2.5858595348e-001
 1.6308654254e-001	 2.4345355900e+000	 2.8781472111e-001
 1.3955358343e-001	 2.4359978424e+000	 3.2523612479e-001
 1.1609411237e-001	 2.4372285143e+000	 3.6505433543e-001
 9.2711081348e-002	 2.4382299644e+000	 4.0091104841e-001
 6.9407373978e-002	 2.4390045892e+000	 4.2589116223e-001
 4.6185805287e-002	 2.4395548209e+000	 4.3253140818e-001
 2.3049121516e-002	 2.4398831253e+000	 4.1283201541e-001
 0.0000000000e+000	 2.4399920000e+000	 3.5827144498e-001
 2.3665437032e-001	 2.4552813499e+000	 2.3030488589e-001
 2.1265992448e-001	 2.4574758152e+000	 2.2628371193e-001
 1.8873040592e-001	 2.4594292638e+000	 2.3968569700e-001
 1.6486900409e-001	 2.4611439540e+000	 2.6609559850e-001
 1.4107884046e-001	 2.4626221881e+000	 3.0048661628e-001
 1.1736296808e-001	 2.4638663106e+000	 3.3721740132e-001
 9.3724371192e-002	 2.4648787062e+000	 3.7003202729e-001
 7.0165964927e-002	 2.4656617973e+000	 3.9206308315e-001
 4.6690595079e-002	 2.4662180427e+000	 3.9583801404e-001
 2.3301037904e-002	 2.4665499353e+000	 3.7328880713e-001
 0.0000000000e+000	 2.4666600000e+000	 3.1576506616e-001
 2.3921293079e-001	 2.4818263310e+000	 2.1070920506e-001
 2.1495907186e-001	 2.4840445215e+000	 2.0351074730e-001
 1.9077084216e-001	 2.4860190896e+000	 2.1287018773e-001
 1.6665146563e-001	 2.4877523179e+000	 2.3465503075e-001
 1.4260409750e-001	 2.4892465338e+000	 2.6407326039e-001
 1.1863182380e-001	 2.4905041070e+000	 2.9566693530e-001
 9.4737661037e-002	 2.4915274479e+000	 3.2330902661e-001
 7.0924555876e-002	 2.4923190053e+000	 3.4020367508e-001
 4.7195384870e-002	 2.4928812646e+000	 3.3889001047e-001
 2.3552954292e-002	 2.4932167454e+000	 3.1124964306e-001
 0.0000000000e+000	 2.4933280000e+000	 2.4851788234e-001
 2.4177149125e-001	 2.5083713121e+000	 1.8480233351e-001
 2.1725821923e-001	 2.5106132278e+000	 1.7280309124e-001
 1.9281127840e-001	 2.5126089153e+000	 1.7631238243e-001
 1.6843392718e-001	 2.5143606818e+000	 1.9151900856e-001
 1.4412935453e-001	 2.5158708794e+000	 2.1390238020e-001
 1.1990067951e-001	 2.5171419034e+000	 2.3822239937e-001
 9.5750950882e-002	 2.5181761897e+000	 2.5851287950e-001
 7.1683146825e-002	 2.5189762134e+000	 2.6807869927e-001
 4.7700174662e-002	 2.5195444864e+000	 2.5949685018e-001
 2.3804870680e-002	 2.5198835554e+000	 2.2462150195e-001
 0.0000000000e+000	 2.5199960000e+000	 1.5459315299e-001
 2.4433005171e-001	 2.5349162932e+000	 1.5115706973e-001
 2.1955736661e-001	 2.5371819341e+000	 1.3251225364e-001
 1.9485171464e-001	 2.5391987411e+000	 1.2815775508e-001
 1.7021638873e-001	 2.5409690458e+000	 1.3464794418e-001
 1.4565461156e-001	 2.5424952251e+000	 1.4777598041e-001
 1.2116953522e-001	 2.5437796997e+000	 1.6255966277e-001
 9.6764240726e-002	 2.5448249314e+000	 1.7323112807e-001
 7.2441737774e-002	 2.5456334215e+000	 1.7323061461e-001
 4.8204964454e-002	 2.5462077083e+000	 1.5520446942e-001
 2.4056787068e-002	 2.5465503655e+000	 1.1100753854e-001
 0.0000000000e+000	 2.5466640000e+000	 3.1710020522e-002
 2.4688861217e-001	 2.5614612743e+000	 1.0839958104e-001
 2.2185651398e-001	 2.5637506404e+000	 8.1007892175e-002
 1.9689215089e-001	 2.5657885669e+000	 6.6533792848e-002
 1.7199885027e-001	 2.5675774097e+000	 6.1947326629e-002
 1.4717986860e-001	 2.5691195708e+000	 6.3403517903e-002
 1.2243839093e-001	 2.5704174961e+000	 6.6223849245e-002
 9.7777530572e-002	 2.5714736732e+000	 6.4881913887e-002
 7.3200328724e-002	 2.5722906295e+000	 5.2993482882e-002
 4.8709754246e-002	 2.5728709301e+000	 2.3311184780e-002
 2.4308703457e-002	 2.5732171755e+000	-3.2276046169e-002
 0.0000000000e+000	 2.5733320000e+000	-1.2273865894e-001
 2.4944717263e-001	 2.5880062554e+000	 5.5215900562e-002
 2.2415566136e-001	 2.5903193466e+000	 1.6685514028e-002
 1.9893258713e-001	 2.5923783926e+000	-1.0441150872e-002
 1.7378131182e-001	 2.5941857736e+000	-2.8722322412e-002
 1.4870512563e-001	 2.5957439165e+000	-4.1587083105e-002
 1.2370724665e-001	 2.5970552924e+000	-5.3358627236e-002
 9.8790820418e-002	 2.5981224149e+000	-6.9272999401e-002
 7.3958919674e-002	 2.5989478376e+000	-9.5493050358e-002
 4.9214544039e-002	 2.5995341519e+000	-1.3911739143e-001
 2.4560619845e-002	 2.5998839856e+000	-2.0818417364e-001
 0.0000000000e+000	 2.6000000000e+000	-3.1166958208e-001
 2.6000000000e+000	 0.0000000000e+000	 2.7551227860e+000
 2.5998839856e+000	 2.4560619845e-002	 2.6418686762e+000
 2.5995341519e+000	 4.9214544039e-002	 2.5457066047e+000
 2.5989478376e+000	 7.3958919674e-002	 2.4613906026e+000
 2.5981224149e+000	 9.8790820418e-002	 2.3845904672e+000
 2.5970552924e+000	 1.2370724665e-001	 2.3118847241e+000
 2.5957439165e+000	 1.4870512563e-001	 2.2407462599e+000
 2.5941857736e+000	 1.7378131182e-001	 2.1695207471e+000
 2.5923783926e+000	 1.9893258713e-001	 2.0973980716e+000
 2.5903193466e+000	 2.2415566136e-001	 2.0243770319e+000
 2.5880062554e+000	 2.4944717263e-001	 1.9512236507e+000
 2.6266680000e+000	 0.0000000000e+000	 2.8807300472e+000
 2.6265507956e+000	 2.4812536234e-002	 2.7572215523e+000
 2.6261973738e+000	 4.9719333832e-002	 2.6513462086e+000
 2.6256050456e+000	 7.4717510624e-002	 2.5575355602e+000
 2.6247711567e+000	 9.9804110264e-002	 2.4712326398e+000
 2.6236930888e+000	 1.2497610236e-001	 2.3888814140e+000
 2.6223682622e+000	 1.5023038267e-001	 2.3079082666e+000
 2.6207941375e+000	 1.7556377337e-001	 2.2266956562e+000
 2.6189682184e+000	 2.0097302338e-001	 2.1445481783e+000
 2.6168880529e+000	 2.2645480873e-001	 2.0616513273e+000
 2.6145512364e+000	 2.5200573309e-001	 1.9790233260e+000
 2.6533360000e+000	 0.0000000000e+000	 2.6399242922e+000
 2.6532176057e+000	 2.5064452623e-002	 2.5420948392e+000
 2.6528605956e+000	 5.0224123625e-002	 2.4607146670e+000
 2.6522622537e+000	 7.5476101575e-002	 2.3898504191e+000
 2.6514198985e+000	 1.0081740011e-001	 2.3246807256e+000
 2.6503308852e+000	 1.2624495807e-001	 2.2614818618e+000
 2.6489926079e+000	 1.5175563971e-001	 2.1976047785e+000
 2.6474025015e+000	 1.7734623492e-001	 2.1314436587e+000
 2.6455580441e+000	 2.0301345962e-001	 2.0623962486e+000
 2.6434567592e+000	 2.2875395611e-001	 1.9908162869e+000
 2.6410962175e+000	 2.5456429355e-001	 1.9179584329e+000
 2.6800040000e+000	 0.0000000000e+000	 2.0957138472e+000
 2.6798844157e+000	 2.5316369012e-002	 2.0530471190e+000
 2.6795238174e+000	 5.0728913418e-002	 2.0226496628e+000
 2.6789194617e+000	 7.6234692526e-002	 1.9988182511e+000
 2.6780686402e+000	 1.0183068996e-001	 1.9770250860e+000
 2.6769686815e+000	 1.2751381379e-001	 1.9538675951e+000
 2.6756169535e+000	 1.5328089674e-001	 1.9270170292e+000
 2.6740108654e+000	 1.7912869647e-001	 1.8951657189e+000
 2.6721478699e+000	 2.0505389587e-001	 1.8579728386e+000
 2.6700254655e+000	 2.3105310349e-001	 1.8160084930e+000
 2.6676411986e+000	 2.5712285401e-001	 1.7706959148e+000
 2.7066720000e+000	 0.0000000000e+000	 1.6134598745e+000
 2.7065512258e+000	 2.5568285401e-002	 1.6197817715e+000
 2.7061870393e+000	 5.1233703212e-002	 1.6332401827e+000
 2.7055766698e+000	 7.6993283478e-002	 1.6487119746e+000
 2.7047173820e+000	 1.0284397981e-001	 1.6622149095e+000
 2.7036064779e+000	 1.2878266950e-001	 1.6708570025e+000
 2.7022412992e+000	 1.5480615378e-001	 1.6727849838e+000
 2.7006192293e+000	 1.8091115802e-001	 1.6671317198e+000
 2.6987376957e+000	 2.0709433211e-001	 1.6539624249e+000
 2.6965941718e+000	 2.3335225087e-001	 1.6342194660e+000
 2.6941861797e+000	 2.5968141448e-001	 1.6096655291e+000
 2.7333400000e+000	 0.0000000000e+000	 1.2527988980e+000
 2.7332180358e+000	 2.5820201790e-002	 1.2962424773e+000
 2.7328502611e+000	 5.1738493006e-002	 1.3427962027e+000
 2.7322338778e+000	 7.7751874430e-002	 1.3878513517e+000
 2.7313661237e+000	 1.0385726965e-001	 1.4278988012e+000
 2.7302442743e+000	 1.3005152522e-001	 1.4604781938e+000
 2.7288656449e+000	 1.5633141081e-001	 1.4841265490e+000
 2.7272275933e+000	 1.8269361957e-001	 1.4983261620e+000
 2.7253275214e+000	 2.0913476836e-001	 1.5034516115e+000
 2.7231628781e+000	 2.3565139824e-001	 1.5007156611e+000
 2.7207311608e+000	 2.6223997494e-001	 1.4921138014e+000
 2.7600080000e+000	 0.0000000000e+000	 1.0121956944e+000
 2.7598848459e+000	 2.6072118180e-002	 1.0801318793e+000
 2.7595134829e+000	 5.2243282800e-002	 1.1483218806e+000
 2.7588910859e+000	 7.8510465381e-002	 1.2126058181e+000
 2.7580148655e+000	 1.0487055950e-001	 1.2698751566e+000
 2.7568820706e+000	 1.3132038093e-001	 1.3180219430e+000
 2.7554899906e+000	 1.5785666785e-001	 1.3558878632e+000
 2.7538359572e+000	 1.8447608112e-001	 1.3832129500e+000
 2.7519173472e+000	 2.1117520460e-001	 1.4005837518e+000
 2.7497315844e+000	 2.3795054562e-001	 1.4093807264e+000
 2.7472761419e+000	 2.6479853540e-001	 1.4117245851e+000
 2.7866760000e+000	 0.0000000000e+000	 8.9011038323e-001
 2.7865516559e+000	 2.6324034569e-002	 9.6915048052e-001
 2.7861767048e+000	 5.2748072593e-002	 1.0468244087e+000
 2.7855482939e+000	 7.9269056333e-002	 1.1193554114e+000
 2.7846636072e+000	 1.0588384935e-001	 1.1839626600e+000
 2.7835198670e+000	 1.3258923665e-001	 1.2388108388e+000
 2.7821143363e+000	 1.5938192489e-001	 1.2829599584e+000
 2.7804443211e+000	 1.8625854267e-001	 1.3163152218e+000
 2.7785071730e+000	 2.1321564085e-001	 1.3395767350e+000
 2.7763002906e+000	 2.4024969300e-001	 1.3541888080e+000
 2.7738211230e+000	 2.6735709587e-001	 1.3622885495e+000
 2.8133440000e+000	 0.0000000000e+000	 8.8499864774e-001
 2.8132184660e+000	 2.6575950958e-002	 9.6099688970e-001
 2.8128399266e+000	 5.3252862387e-002	 1.0353142447e+000
 2.8122055020e+000	 8.0027647284e-002	 1.1044909474e+000
 2.8113123490e+000	 1.0689713920e-001	 1.1660003699e+000
 2.8101576634e+000	 1.3385809236e-001	 1.2181992436e+000
 2.8087386819e+000	 1.6090718192e-001	 1.2602785592e+000
 2.8070526851e+000	 1.8804100421e-001	 1.2922149542e+000
 2.8050969987e+000	 2.1525607709e-001	 1.3147223666e+000
 2.8028689969e+000	 2.4254884037e-001	 1.3292036784e+000
 2.8003661041e+000	 2.6991565633e-001	 1.3377020270e+000
 2.8400120000e+000	 0.0000000000e+000	 9.9531194289e-001
 2.8398852760e+000	 2.6827867347e-002	 1.0533680536e+000
 2.8395031484e+000	 5.3757652180e-002	 1.1108053293e+000
 2.8388627100e+000	 8.0786238235e-002	 1.1644141872e+000
 2.8379610907e+000	 1.0791042904e-001	 1.2118477980e+000
 2.8367954597e+000	 1.3512694807e-001	 1.2515732515e+000
 2.8353630276e+000	 1.6243243896e-001	 1.2828238854e+000
 2.8336610490e+000	 1.8982346576e-001	 1.3055525792e+000
 2.8316868245e+000	 2.1729651334e-001	 1.3203857697e+000
 2.8294377032e+000	 2.4484798775e-001	 1.3285778920e+000
 2.8269110851e+000	 2.7247421679e-001	 1.3319658977e+000
 2.8666800000e+000	 0.0000000000e+000	 1.2194976922e+000
 2.8665520861e+000	 2.7079783735e-002	 1.2439594760e+000
 2.8661663703e+000	 5.4262441973e-002	 1.2703152913e+000
 2.8655199181e+000	 8.1544829185e-002	 1.2955379927e+000
 2.8646098325e+000	 1.0892371889e-001	 1.3173849831e+000
 2.8634332561e+000	 1.3639580379e-001	 1.3343506450e+000
 2.8619873733e+000	 1.6395769600e-001	 1.3456204610e+000
 2.8602694129e+000	 1.9160592731e-001	 1.3510266139e+000
 2.8582766502e+000	 2.1933694958e-001	 1.3510048045e+000
 2.8560064095e+000	 2.4714713513e-001	 1.3465519671e+000
 2.8534560662e+000	 2.7503277725e-001	 1.3391845053e+000
 2.5880062554e+000	 2.4944717263e-001	 1.9512236507e+000
 2.5854371919e+000	 2.7479988887e-001	 1.8822140690e+000
 2.5826095490e+000	 3.0021414174e-001	 1.8192284458e+000
 2.5795211000e+000	 3.2568641496e-001	 1.7604107963e+000
 2.5761696735e+000	 3.5121312474e-001	 1.7043813431e+000
 2.5725531550e+000	 3.7679062058e-001	 1.6501759275e+000
 2.5686694892e+000	 4.0241518616e-001	 1.5971826894e+000
 2.5645166823e+000	 4.2808304028e-001	 1.5450767866e+000
 2.5600928041e+000	 4.5379033791e-001	 1.4937539763e+000
 2.5553959897e+000	 4.7953317130e-001	 1.4432639279e+000
 2.5504244421e+000	 5.0530757112e-001	 1.3937441765e+000
 2.6145512364e+000	 2.5200573309e-001	 1.9790233260e+000
 2.6119558223e+000	 2.7761849019e-001	 1.9010008714e+000
 2.6090991765e+000	 3.0329341510e-001	 1.8293260433e+000
 2.6059790495e+000	 3.2902695547e-001	 1.7621729521e+000
 2.6025932477e+000	 3.5481549075e-001	 1.6982213706e+000
 2.5989396348e+000	 3.8065533300e-001	 1.6365881615e+000
 2.5950161345e+000	 4.0654272777e-001	 1.5767557355e+000
 2.5908207327e+000	 4.3247385509e-001	 1.5184983722e+000
 2.5863514790e+000	 4.5844483050e-001	 1.4618072896e+000
 2.5816064898e+000	 4.8445170615e-001	 1.4068154016e+000
 2.5765839494e+000	 5.1049047200e-001	 1.3537227434e+000
 2.6410962175e+000	 2.5456429355e-001	 1.9179584329e+000
 2.6384744527e+000	 2.8043709151e-001	 1.8482104497e+000
 2.6355888040e+000	 3.0637268845e-001	 1.7832479680e+000
 2.6324369990e+000	 3.3236749597e-001	 1.7213766221e+000
 2.6290168219e+000	 3.5841785675e-001	 1.6614392899e+000
 2.6253261146e+000	 3.8452004541e-001	 1.6027388772e+000
 2.6213627799e+000	 4.1067026938e-001	 1.5449578768e+000
 2.6171247830e+000	 4.3686466991e-001	 1.4880756006e+000
 2.6126101540e+000	 4.6309932309e-001	 1.4322840398e+000
 2.6078169899e+000	 4.8937024100e-001	 1.3779033628e+000
 2.6027434567e+000	 5.1567337289e-001	 1.3252981088e+000
 2.6676411986e+000	 2.5712285401e-001	 1.7706959148e+000
 2.6649930831e+000	 2.8325569283e-001	 1.7260718754e+000
 2.6620784314e+000	 3.0945196181e-001	 1.6828440725e+000
 2.6588949485e+000	 3.3570803648e-001	 1.6394739628e+000
 2.6554403960e+000	 3.6202022276e-001	 1.5950781157e+000
 2.6517125944e+000	 3.8838475782e-001	 1.5492575042e+000
 2.6477094252e+000	 4.1479781099e-001	 1.5020074547e+000
 2.6434288333e+000	 4.4125548472e-001	 1.4536250656e+000
 2.6388688289e+000	 4.6775381568e-001	 1.4046151238e+000
 2.6340274900e+000	 4.9428877585e-001	 1.3555956041e+000
 2.6289029640e+000	 5.2085627378e-001	 1.3072038914e+000
 2.6941861797e+000	 2.5968141448e-001	 1.6096655291e+000
 2.6915117135e+000	 2.8607429415e-001	 1.5846461331e+000
 2.6885680589e+000	 3.1253123517e-001	 1.5606059354e+000
 2.6853528980e+000	 3.3904857699e-001	 1.5359499418e+000
 2.6818639702e+000	 3.6562258876e-001	 1.5095707019e+000
 2.6780990742e+000	 3.9224947023e-001	 1.4807858784e+000
 2.6740560706e+000	 4.1892535260e-001	 1.4492724791e+000
 2.6697328837e+000	 4.4564629954e-001	 1.4149973199e+000
 2.6651275039e+000	 4.7240830827e-001	 1.3781192757e+000
 2.6602379901e+000	 4.9920731071e-001	 1.3388510140e+000
 2.6550624713e+000	 5.2603917466e-001	 1.2980703265e+000
 2.7207311608e+000	 2.6223997494e-001	 1.4921138014e+000
 2.7180303439e+000	 2.8889289548e-001	 1.4819665246e+000
 2.7150576864e+000	 3.1561050853e-001	 1.4716997420e+000
 2.7118108475e+000	 3.4238911749e-001	 1.4599025874e+000
 2.7082875444e+000	 3.6922495477e-001	 1.4456217096e+000
 2.7044855541e+000	 3.9611418264e-001	 1.4283012198e+000
 2.7004027160e+000	 4.2305289421e-001	 1.4077193904e+000
 2.6960369340e+000	 4.5003711435e-001	 1.3839216299e+000
 2.6913861789e+000	 4.7706280086e-001	 1.3571492382e+000
 2.6864484902e+000	 5.0412584556e-001	 1.3277634325e+000
 2.6812219787e+000	 5.3122207555e-001	 1.2961641194e+000
 2.7472761419e+000	 2.6479853540e-001	 1.4117245851e+000
 2.7445489743e+000	 2.9171149680e-001	 1.4118096991e+000
 2.7415473139e+000	 3.1868978189e-001	 1.4110023487e+000
 2.7382687970e+000	 3.4572965800e-001	 1.4080558011e+000
 2.7347111186e+000	 3.7282732077e-001	 1.4021491306e+000
 2.7308720339e+000	 3.9997889506e-001	 1.3928299582e+000
 2.7267493613e+000	 4.2718043582e-001	 1.3799540419e+000
 2.7223409843e+000	 4.5442792917e-001	 1.3636211969e+000
 2.7176448538e+000	 4.8171729345e-001	 1.3441070017e+000
 2.7126589902e+000	 5.0904438041e-001	 1.3217897265e+000
 2.7073814860e+000	 5.3640497644e-001	 1.2970719094e+000
 2.7738211230e+000	 2.6735709587e-001	 1.3622885495e+000
 2.7710676047e+000	 2.9453009812e-001	 1.3678426599e+000
 2.7680369414e+000	 3.2176905525e-001	 1.3721144717e+000
 2.7647267465e+000	 3.4907019851e-001	 1.3739971402e+000
 2.7611346927e+000	 3.7642968678e-001	 1.3727761979e+000
 2.7572585137e+000	 4.0384360747e-001	 1.3680755257e+000
 2.7530960067e+000	 4.3130797743e-001	 1.3598002866e+000
 2.7486450347e+000	 4.5881874398e-001	 1.3480762513e+000
 2.7439035288e+000	 4.8637178604e-001	 1.3331849202e+000
 2.7388694903e+000	 5.1396291526e-001	 1.3154938232e+000
 2.7335409933e+000	 5.4158787733e-001	 1.2953813662e+000
 2.8003661041e+000	 2.6991565633e-001	 1.3377020270e+000
 2.7975862351e+000	 2.9734869945e-001	 1.3438540981e+000
 2.7945265689e+000	 3.2484832861e-001	 1.3487742589e+000
 2.7911846960e+000	 3.5241073901e-001	 1.3514668563e+000
 2.7875582669e+000	 3.8003205278e-001	 1.3512934204e+000
 2.7836449935e+000	 4.0770831988e-001	 1.3479223336e+000
 2.7794426520e+000	 4.3543551904e-001	 1.3412755867e+000
 2.7749490850e+000	 4.6320955880e-001	 1.3314719982e+000
 2.7701622037e+000	 4.9102627863e-001	 1.3187662460e+000
 2.7650799904e+000	 5.1888145011e-001	 1.3034830347e+000
 2.7597005006e+000	 5.4677077822e-001	 1.2859457066e+000
 2.8269110851e+000	 2.7247421679e-001	 1.3319658977e+000
 2.8241048655e+000	 3.0016730077e-001	 1.3337529797e+000
 2.8210161963e+000	 3.2792760197e-001	 1.3348555567e+000
 2.8176426455e+000	 3.5575127952e-001	 1.3343558148e+000
 2.8139818411e+000	 3.8363441879e-001	 1.3316561243e+000
 2.8100314733e+000	 4.1157303229e-001	 1.3264329015e+000
 2.8057892974e+000	 4.3956306065e-001	 1.3185876941e+000
 2.8012531354e+000	 4.6760037362e-001	 1.3081948110e+000
 2.7964208787e+000	 4.9568077122e-001	 1.2954447866e+000
 2.7912904905e+000	 5.2379998497e-001	 1.2805829410e+000
 2.7858600079e+000	 5.5195367911e-001	 1.2638422794e+000
 2.8534560662e+000	 2.7503277725e-001	 1.3391845053e+000
 2.8506234959e+000	 3.0298590209e-001	 1.3315671727e+000
 2.8475058238e+000	 3.3100687533e-001	 1.3243662230e+000
 2.8441005950e+000	 3.5909182003e-001	 1.3167034651e+000
 2.8404054153e+000	 3.8723678479e-001	 1.3079820497e+000
 2.8364179532e+000	 4.1543774471e-001	 1.2978450464e+000
 2.8321359428e+000	 4.4369060226e-001	 1.2861313944e+000
 2.8275571857e+000	 4.7199118843e-001	 1.2728284898e+000
 2.8226795537e+000	 5.0033526381e-001	 1.2580206347e+000
 2.8175009906e+000	 5.2871851982e-001	 1.2418325466e+000
 2.8120195152e+000	 5.5713657999e-001	 1.2243670998e+000
 2.5504244421e+000	 5.0530757112e-001	 1.3937441765e+000
 2.5451756263e+000	 5.3111337925e-001	 1.3471528566e+000
 2.5396486130e+000	 5.5694263593e-001	 1.3041755106e+000
 2.5338418223e+000	 5.8279118688e-001	 1.2629279725e+000
 2.5277537500e+000	 6.0865482159e-001	 1.2213287745e+000
 2.5213829698e+000	 6.3452927478e-001	 1.1770537204e+000
 2.5147281355e+000	 6.6041022809e-001	 1.1274972371e+000
 2.5077879826e+000	 6.8629331174e-001	 1.0720722589e+000
 2.5005613302e+000	 7.1217410630e-001	 1.0151303207e+000
 2.4930470830e+000	 7.3804814458e-001	 9.5745653085e-001
 2.4852442329e+000	 7.6391091347e-001	 8.9961091869e-001
 2.5765839494e+000	 5.1049047200e-001	 1.3537227434e+000
 2.5712812969e+000	 5.3656096833e-001	 1.3041769984e+000
 2.5656975935e+000	 5.6265515370e-001	 1.2585880111e+000
 2.5598312430e+000	 5.8876883126e-001	 1.2151255222e+000
 2.5536807257e+000	 6.1489774727e-001	 1.1717040988e+000
 2.5472446010e+000	 6.4103759274e-001	 1.1259302283e+000
 2.5405215086e+000	 6.6718400500e-001	 1.0750580120e+000
 2.5335101711e+000	 6.9333256944e-001	 1.0205045653e+000
 2.5262093954e+000	 7.1947882133e-001	 9.6550648902e-001
 2.5186180751e+000	 7.4561824762e-001	 9.1015832151e-001
 2.5107351918e+000	 7.7174628894e-001	 8.5451604756e-001
 2.6027434567e+000	 5.1567337289e-001	 1.3252981088e+000
 2.5973869675e+000	 5.4200855740e-001	 1.2758474031e+000
 2.5917465740e+000	 5.6836767148e-001	 1.2297649068e+000
 2.5858206636e+000	 5.9474647563e-001	 1.1854297615e+000
 2.5796077015e+000	 6.2114067296e-001	 1.1409039662e+000
 2.5731062321e+000	 6.4754591070e-001	 1.0938712552e+000
 2.5663148816e+000	 6.7395778190e-001	 1.0418972524e+000
 2.5592323595e+000	 7.0037182715e-001	 9.8844537704e-001
 2.5518574606e+000	 7.2678353635e-001	 9.3515745767e-001
 2.5441890673e+000	 7.5318835067e-001	 8.8172208363e-001
 2.5362261507e+000	 7.7958166442e-001	 8.2777268548e-001
 2.6289029640e+000	 5.2085627378e-001	 1.3072038914e+000
 2.6234926381e+000	 5.4745614648e-001	 1.2605995408e+000
 2.6177955544e+000	 5.7408018925e-001	 1.2158852038e+000
 2.6118100843e+000	 6.0072412000e-001	 1.1718085377e+000
 2.6055346773e+000	 6.2738359864e-001	 1.1267336315e+000
 2.5989678633e+000	 6.5405422866e-001	 1.0785708987e+000
 2.5921082547e+000	 6.8073155881e-001	 1.0259524603e+000
 2.5849545479e+000	 7.0741108485e-001	 9.7353062337e-001
 2.5775055259e+000	 7.3408825138e-001	 9.2162807727e-001
 2.5697600595e+000	 7.6075845371e-001	 8.6960799311e-001
 2.5617171096e+000	 7.8741703990e-001	 8.1676115471e-001
 2.6550624713e+000	 5.2603917466e-001	 1.2980703265e+000
 2.6495983087e+000	 5.5290373556e-001	 1.2567734244e+000
 2.6438445349e+000	 5.7979270703e-001	 1.2150429673e+000
 2.6377995049e+000	 6.0670176438e-001	 1.1721581009e+000
 2.6314616530e+000	 6.3362652433e-001	 1.1269431492e+000
 2.6248294945e+000	 6.6056254662e-001	 1.0776877206e+000
 2.6179016277e+000	 6.8750533572e-001	 1.0249129531e+000
 2.6106767363e+000	 7.1445034256e-001	 9.7335271327e-001
 2.6031535911e+000	 7.4139296640e-001	 9.2242243682e-001
 2.5953310516e+000	 7.6832855676e-001	 8.7123898446e-001
 2.5872080686e+000	 7.9525241537e-001	 8.1882889469e-001
 2.6812219787e+000	 5.3122207555e-001	 1.2961641194e+000
 2.6757039793e+000	 5.5835132463e-001	 1.2622169253e+000
 2.6698935154e+000	 5.8550522480e-001	 1.2251713754e+000
 2.6637889256e+000	 6.1267940875e-001	 1.1843098710e+000
 2.6573886288e+000	 6.3986945001e-001	 1.1392352342e+000
 2.6506911256e+000	 6.6707086458e-001	 1.0888546791e+000
 2.6436950007e+000	 6.9427911263e-001	 1.0364242367e+000
 2.6363989248e+000	 7.2148960026e-001	 9.8546265113e-001
 2.6288016563e+000	 7.4869768143e-001	 9.3500631753e-001
 2.6209020438e+000	 7.7589865980e-001	 8.8400354602e-001
 2.6126990275e+000	 8.0308779085e-001	 8.3129359762e-001
 2.7073814860e+000	 5.3640497644e-001	 1.2970719094e+000
 2.7018096500e+000	 5.6379891371e-001	 1.2691885103e+000
 2.6959424958e+000	 5.9121774258e-001	 1.2370164831e+000
 2.6897783462e+000	 6.1865705312e-001	 1.2001267346e+000
 2.6833156046e+000	 6.4611237570e-001	 1.1576694156e+000
 2.6765527568e+000	 6.7357918254e-001	 1.1085759408e+000
 2.6694883738e+000	 7.0105288954e-001	 1.0579653750e+000
 2.6621211132e+000	 7.2852885797e-001	 1.0073722240e+000
 2.6544497215e+000	 7.5600239645e-001	 9.5680971520e-001
 2.6464730359e+000	 7.8346876285e-001	 9.0525858087e-001
 2.6381899864e+000	 8.1092316632e-001	 8.5144640756e-001
 2.7335409933e+000	 5.4158787733e-001	 1.2953813662e+000
 2.7279153206e+000	 5.6924650279e-001	 1.2713732476e+000
 2.7219914763e+000	 5.9693026035e-001	 1.2419341010e+000
 2.7157677669e+000	 6.2463469750e-001	 1.2070464073e+000
 2.7092425803e+000	 6.5235530138e-001	 1.1662682100e+000
 2.7024143880e+000	 6.8008750051e-001	 1.1198532291e+000
 2.6952817468e+000	 7.0782666644e-001	 1.0741682251e+000
 2.6878433016e+000	 7.3556811568e-001	 1.0288211037e+000
 2.6800977867e+000	 7.6330711148e-001	 9.8198275473e-001
 2.6720440281e+000	 7.9103886589e-001	 9.3179954967e-001
 2.6636809453e+000	 8.1875854180e-001	 8.7655517883e-001
 2.7597005006e+000	 5.4677077822e-001	 1.2859457066e+000
 2.7540209912e+000	 5.7469409187e-001	 1.2638889806e+000
 2.7480404567e+000	 6.0264277813e-001	 1.2353213692e+000
 2.7417571876e+000	 6.3061234187e-001	 1.2006656309e+000
 2.7351695561e+000	 6.5859822707e-001	 1.1599199943e+000
 2.7282760191e+000	 6.8659581847e-001	 1.1153265091e+000
 2.7210751199e+000	 7.1460044335e-001	 1.0732180640e+000
 2.7135654900e+000	 7.4260737338e-001	 1.0320855150e+000
 2.7057458519e+000	 7.7061182650e-001	 9.8992214408e-001
 2.6976150202e+000	 7.9860896894e-001	 9.4468670556e-001
 2.6891719043e+000	 8.2659391728e-001	 8.9429276795e-001
 2.7858600079e+000	 5.5195367911e-001	 1.2638422794e+000
 2.7801266618e+000	 5.8014168094e-001	 1.2420815010e+000
 2.7740894372e+000	 6.0835529590e-001	 1.2128049902e+000
 2.7677466082e+000	 6.3658998625e-001	 1.1768992084e+000
 2.7610965319e+000	 6.6484115276e-001	 1.1348298126e+000
 2.7541376503e+000	 6.9310413643e-001	 1.0914898139e+000
 2.7468684929e+000	 7.2137422026e-001	 1.0518093654e+000
 2.7392876785e+000	 7.4964663109e-001	 1.0137064075e+000
 2.7313939171e+000	 7.7791654153e-001	 9.7503819715e-001
 2.7231860124e+000	 8.0617907199e-001	 9.3361828235e-001
 2.7146628632e+000	 8.3442929275e-001	 8.8720675557e-001
 2.8120195152e+000	 5.5713657999e-001	 1.2243670998e+000
 2.8062323324e+000	 5.8558927002e-001	 1.2015184110e+000
 2.8001384177e+000	 6.1406781368e-001	 1.1702343688e+000
 2.7937360289e+000	 6.4256763062e-001	 1.1318831883e+000
 2.7870235076e+000	 6.7108407844e-001	 1.0875663102e+000
 2.7799992815e+000	 6.9961245439e-001	 1.0450266812e+000
 2.7726618660e+000	 7.2814799717e-001	 1.0068291023e+000
 2.7650098669e+000	 7.5668588880e-001	 9.7077837795e-001
 2.7570419823e+000	 7.8522125655e-001	 9.3463492643e-001
 2.7487570045e+000	 8.1374917503e-001	 8.9610715723e-001
 2.7401538221e+000	 8.4226466823e-001	 8.5284264482e-001
 2.4852442329e+000	 7.6391091347e-001	 8.9961091869e-001
 2.4771518603e+000	 7.8975785560e-001	 8.4256868912e-001
 2.4687691339e+000	 8.1558437022e-001	 7.8689506214e-001
 2.4600953141e+000	 8.4138581636e-001	 7.3245984211e-001
 2.4511297553e+000	 8.6715751542e-001	 6.7905894035e-001
 2.4418719075e+000	 8.9289475342e-001	 6.2640303480e-001
 2.4323213176e+000	 9.1859278331e-001	 5.7410756728e-001
 2.4224776311e+000	 9.4424682737e-001	 5.2168417709e-001
 2.4123405929e+000	 9.6985207964e-001	 4.6853365927e-001
 2.4019100494e+000	 9.9540370841e-001	 4.1394052471e-001
 2.3911859489e+000	 1.0208968588e+000	 3.5706321897e-001
 2.5107351918e+000	 7.7174628894e-001	 8.5451604756e-001
 2.5025598164e+000	 7.9785834117e-001	 7.9929373941e-001
 2.4940911090e+000	 8.2394975636e-001	 7.4522085889e-001
 2.4853283225e+000	 8.5001584595e-001	 6.9227623078e-001
 2.4762708047e+000	 8.7605188335e-001	 6.4034694698e-001
 2.4669179998e+000	 9.0205310622e-001	 5.8921621252e-001
 2.4572694503e+000	 9.2801471883e-001	 5.3855265968e-001
 2.4473247978e+000	 9.5393189444e-001	 4.8790123525e-001
 2.4370837848e+000	 9.7979977781e-001	 4.3667575513e-001
 2.4265462560e+000	 1.0056134877e+000	 3.8415320807e-001
 2.4157121593e+000	 1.0313681194e+000	 3.2946454390e-001
 2.5362261507e+000	 7.7958166442e-001	 8.2777268548e-001
 2.5279677725e+000	 8.0595882675e-001	 7.7376437027e-001
 2.5194130841e+000	 8.3231514251e-001	 7.2055920368e-001
 2.5105613309e+000	 8.5864587555e-001	 6.6827478779e-001
 2.5014118540e+000	 8.8494625128e-001	 6.1691840035e-001
 2.4919640921e+000	 9.1121145902e-001	 5.6637396681e-001
 2.4822175829e+000	 9.3743665434e-001	 5.1639063763e-001
 2.4721719645e+000	 9.6361696152e-001	 4.6657308289e-001
 2.4618269767e+000	 9.8974747599e-001	 4.1637360421e-001
 2.4511824626e+000	 1.0158232669e+000	 3.6507962184e-001
 2.4402383696e+000	 1.0418393799e+000	 3.1183761652e-001
 2.5617171096e+000	 7.8741703990e-001	 8.1676115471e-001
 2.5533757285e+000	 8.1405931232e-001	 7.6329342144e-001
 2.5447350592e+000	 8.4068052866e-001	 7.1017630276e-001
 2.5357943393e+000	 8.6727590514e-001	 6.5769561784e-001
 2.5265529034e+000	 8.9384061921e-001	 6.0600743164e-001
 2.5170101845e+000	 9.2036981182e-001	 5.5512409207e-001
 2.5071657156e+000	 9.4685858986e-001	 5.0490201677e-001
 2.4970191312e+000	 9.7330202859e-001	 4.5503134896e-001
 2.4865701686e+000	 9.9969517417e-001	 4.0502758851e-001
 2.4758186692e+000	 1.0260330462e+000	 3.5421949749e-001
 2.4647645800e+000	 1.0523106405e+000	 3.0176980641e-001
 2.5872080686e+000	 7.9525241537e-001	 8.1882889469e-001
 2.5787836846e+000	 8.2215979789e-001	 7.6516575819e-001
 2.5700570343e+000	 8.4904591481e-001	 7.1131551538e-001
 2.5610273477e+000	 8.7590593474e-001	 6.5776133576e-001
 2.5516939527e+000	 9.0273498714e-001	 6.0483627746e-001
 2.5420562768e+000	 9.2952816462e-001	 5.5270832789e-001
 2.5321138482e+000	 9.5628052538e-001	 5.0136734629e-001
 2.5218662979e+000	 9.8298709567e-001	 4.5061403501e-001
 2.5113133605e+000	 1.0096428723e+000	 4.0005105230e-001
 2.5004548758e+000	 1.0362428255e+000	 3.4907126366e-001
 2.4892907903e+000	 1.0627819010e+000	 2.9687536729e-001
 2.6126990275e+000	 8.0308779085e-001	 8.3129359762e-001
 2.6041916407e+000	 8.3026028347e-001	 7.7664175970e-001
 2.5953790094e+000	 8.5741130095e-001	 7.2120122294e-001
 2.5862603561e+000	 8.8453596434e-001	 6.6568134313e-001
 2.5768350021e+000	 9.1162935507e-001	 6.1061998896e-001
 2.5671023691e+000	 9.3868651742e-001	 5.5636752425e-001
 2.5570619809e+000	 9.6570246090e-001	 5.0307285231e-001
 2.5467134646e+000	 9.9267216274e-001	 4.5067165722e-001
 2.5360565524e+000	 1.0195905705e+000	 3.9887065219e-001
 2.5250910825e+000	 1.0464526048e+000	 3.4716764969e-001
 2.5138170006e+000	 1.0732531616e+000	 2.9480318084e-001
 2.6381899864e+000	 8.1092316632e-001	 8.5144640756e-001
 2.6295995968e+000	 8.3836076904e-001	 7.9496086880e-001
 2.6207009845e+000	 8.6577668710e-001	 7.3704275626e-001
 2.6114933645e+000	 8.9316599393e-001	 6.7865615851e-001
 2.6019760514e+000	 9.2052372300e-001	 6.2057118938e-001
 2.5921484614e+000	 9.4784487023e-001	 5.6334684916e-001
 2.5820101135e+000	 9.7512439641e-001	 5.0731611692e-001
 2.5715606314e+000	 1.0023572298e+000	 4.5257341655e-001
 2.5607997443e+000	 1.0295382687e+000	 3.9895902886e-001
 2.5497272891e+000	 1.0566623840e+000	 3.4607558547e-001
 2.5383432110e+000	 1.0837244221e+000	 2.9324450220e-001
 2.6636809453e+000	 8.1875854180e-001	 8.7655517883e-001
 2.6550075528e+000	 8.4646125462e-001	 8.1734519874e-001
 2.6460229596e+000	 8.7414207325e-001	 7.5603837676e-001
 2.6367263729e+000	 9.0179602353e-001	 6.9388179781e-001
 2.6271171008e+000	 9.2941809093e-001	 6.3190487684e-001
 2.6171945537e+000	 9.5700322303e-001	 5.7090103597e-001
 2.6069582462e+000	 9.8454633193e-001	 5.1141179051e-001
 2.5964077981e+000	 1.0120422969e+000	 4.5370650551e-001
 2.5855429362e+000	 1.0394859669e+000	 3.9780133301e-001
 2.5743634957e+000	 1.0668721633e+000	 3.4340341690e-001
 2.5628694213e+000	 1.0941956827e+000	 2.8994070722e-001
 2.6891719043e+000	 8.2659391728e-001	 8.9429276795e-001
 2.6804155089e+000	 8.5456174019e-001	 8.3741507713e-001
 2.6713449347e+000	 8.8250745940e-001	 7.7496888584e-001
 2.6619593813e+000	 9.1042605312e-001	 7.0855420137e-001
 2.6522581501e+000	 9.3831245886e-001	 6.4184326949e-001
 2.6422406460e+000	 9.6616157583e-001	 5.7629966765e-001
 2.6319063788e+000	 9.9396826745e-001	 5.1269733512e-001
 2.6212549648e+000	 1.0217273640e+000	 4.5151071232e-001
 2.6102861281e+000	 1.0494336651e+000	 3.9292954395e-001
 2.5989997023e+000	 1.0770819426e+000	 3.3680813106e-001
 2.5873956317e+000	 1.1046669432e+000	 2.8269104129e-001
 2.7146628632e+000	 8.3442929275e-001	 8.8720675557e-001
 2.7058234650e+000	 8.6266222576e-001	 8.3418646697e-001
 2.6966669098e+000	 8.9087284554e-001	 7.7537828694e-001
 2.6871923897e+000	 9.1905608272e-001	 7.1209303371e-001
 2.6773991995e+000	 9.4720682680e-001	 6.4554452609e-001
 2.6672867384e+000	 9.7531992863e-001	 5.7682642482e-001
 2.6568545115e+000	 1.0033902030e+000	 5.0853879692e-001
 2.6461021315e+000	 1.0314124310e+000	 4.4344079590e-001
 2.6350293200e+000	 1.0593813632e+000	 3.8192208791e-001
 2.6236359089e+000	 1.0872917218e+000	 3.2400259044e-001
 2.6119218420e+000	 1.1151382038e+000	 2.6936036960e-001
 2.7401538221e+000	 8.4226466823e-001	 8.5284264482e-001
 2.7312314211e+000	 8.7076271134e-001	 8.0296004140e-001
 2.7219888849e+000	 8.9923823169e-001	 7.4718852537e-001
 2.7124253981e+000	 9.2768611232e-001	 6.8697773333e-001
 2.7025402488e+000	 9.5610119473e-001	 6.2367705736e-001
 2.6923328307e+000	 9.8447828143e-001	 5.5851228900e-001
 2.6818026442e+000	 1.0128121385e+000	 4.9255363143e-001
 2.6709492982e+000	 1.0410974981e+000	 4.2671691270e-001
 2.6597725119e+000	 1.0693290614e+000	 3.6241058482e-001
 2.6482721155e+000	 1.0975015011e+000	 3.0276277567e-001
 2.6364480523e+000	 1.1256094643e+000	 2.4788692882e-001
 2.3911859489e+000	 1.0208968588e+000	 3.5706321897e-001
 2.3801700182e+000	 1.0463228464e+000	 2.9846264213e-001
 2.3688608284e+000	 1.0716806093e+000	 2.3954060417e-001
 2.3572586430e+000	 1.0969652426e+000	 1.8060315732e-001
 2.3453638315e+000	 1.1221718289e+000	 1.2184128173e-001
 2.3331768706e+000	 1.1472954414e+000	 6.3333878842e-002
 2.3206983446e+000	 1.1723311464e+000	 5.0524969753e-003
 2.3079289465e+000	 1.1972740064e+000	-5.3132243578e-002
 2.2948694778e+000	 1.2221190831e+000	-1.1144257409e-001
 2.2815208497e+000	 1.2468614399e+000	-1.7018391309e-001
 2.2678840830e+000	 1.2714961454e+000	-2.2973369259e-001
 2.4157121593e+000	 1.0313681194e+000	 3.2946454390e-001
 2.4045832390e+000	 1.0570548993e+000	 2.7309325726e-001
 2.3931580517e+000	 1.0826727548e+000	 2.1639711573e-001
 2.3814368636e+000	 1.1082167307e+000	 1.5966970393e-001
 2.3694200479e+000	 1.1336818591e+000	 1.0307060227e-001
 2.3571080863e+000	 1.1590631625e+000	 4.6628899697e-002
 2.3445015691e+000	 1.1843556568e+000	-9.7514121877e-003
 2.3316011962e+000	 1.2095543538e+000	-6.6284199445e-002
 2.3184077775e+000	 1.2346542645e+000	-1.2329215343e-001
 2.3049222336e+000	 1.2596504017e+000	-1.8119603469e-001
 2.2911455956e+000	 1.2845377836e+000	-2.4050227829e-001
 2.4402383696e+000	 1.0418393799e+000	 3.1183761652e-001
 2.4289964598e+000	 1.0677869523e+000	 2.5704652832e-001
 2.4174552750e+000	 1.0936649004e+000	 2.0199970203e-001
 2.4056150842e+000	 1.1194682188e+000	 1.4694098500e-001
 2.3934762643e+000	 1.1451918892e+000	 9.1959444302e-002
 2.3810393020e+000	 1.1708308836e+000	 3.6993505816e-002
 2.3683047935e+000	 1.1963801672e+000	-1.8162865378e-002
 2.3552734458e+000	 1.2218347012e+000	-7.3851982922e-002
 2.3419460772e+000	 1.2471894459e+000	-1.3054231311e-001
 2.3283236174e+000	 1.2724393636e+000	-1.8881647986e-001
 2.3144071082e+000	 1.2975794217e+000	-2.4935749319e-001
 2.4647645800e+000	 1.0523106405e+000	 3.0176980641e-001
 2.4534096806e+000	 1.0785190052e+000	 2.4802050602e-001
 2.4417524983e+000	 1.1046570460e+000	 1.9416077036e-001
 2.4297933047e+000	 1.1307197069e+000	 1.4034796830e-001
 2.4175324807e+000	 1.1567019193e+000	 8.6562014637e-002
 2.4049705176e+000	 1.1825986047e+000	 3.2610244666e-002
 2.3921080179e+000	 1.2084046776e+000	-2.1865498939e-002
 2.3789456955e+000	 1.2341150486e+000	-7.7379610832e-002
 2.3654843769e+000	 1.2597246273e+000	-1.3459136224e-001
 2.3517250013e+000	 1.2852283255e+000	-1.9429151635e-001
 2.3376686208e+000	 1.3106210599e+000	-2.5738702010e-001
 2.4892907903e+000	 1.0627819010e+000	 2.9687536729e-001
 2.4778229014e+000	 1.0892510582e+000	 2.4374766644e-001
 2.4660497216e+000	 1.1156491916e+000	 1.9073532357e-001
 2.4539715253e+000	 1.1419711950e+000	 1.3787294018e-001
 2.4415886971e+000	 1.1682119494e+000	 8.4993035727e-002
 2.4289017333e+000	 1.1943663258e+000	 3.1731769366e-002
 2.4159112423e+000	 1.2204291880e+000	-2.2462943783e-002
 2.4026179452e+000	 1.2463953960e+000	-7.8320970247e-002
 2.3890226766e+000	 1.2722598088e+000	-1.3673721834e-001
 2.3751263852e+000	 1.2980172874e+000	-1.9875670958e-001
 2.3609301334e+000	 1.3236626980e+000	-2.6555756988e-001
 2.5138170006e+000	 1.0732531616e+000	 2.9480318084e-001
 2.5022361221e+000	 1.0999831111e+000	 2.4200320716e-001
 2.4903469449e+000	 1.1266413371e+000	 1.8962980082e-001
 2.4781497459e+000	 1.1532226831e+000	 1.3755888430e-001
 2.4656449135e+000	 1.1797219796e+000	 8.5437657190e-002
 2.4528329490e+000	 1.2061340469e+000	 3.2691279168e-002
 2.4397144667e+000	 1.2324536984e+000	-2.1467858549e-002
 2.4262901949e+000	 1.2586757434e+000	-7.8028326558e-002
 2.4125609764e+000	 1.2847949902e+000	-1.3816539030e-001
 2.3985277690e+000	 1.3108062492e+000	-2.0322437911e-001
 2.3841916460e+000	 1.3367043362e+000	-2.7457625310e-001
 2.5383432110e+000	 1.0837244221e+000	 2.9324450220e-001
 2.5266493429e+000	 1.1107151641e+000	 2.4061333610e-001
 2.5146441682e+000	 1.1376334827e+000	 1.8881090244e-001
 2.5023279664e+000	 1.1644741712e+000	 1.3751883670e-001
 2.4897011299e+000	 1.1912320097e+000	 8.6161336368e-002
 2.4767641647e+000	 1.2179017679e+000	 3.3912921956e-002
 2.4635176911e+000	 1.2444782088e+000	-2.0291007487e-002
 2.4499624445e+000	 1.2709560908e+000	-7.7740882891e-002
 2.4360992761e+000	 1.2973301716e+000	-1.3993701927e-001
 2.4219291529e+000	 1.3235952111e+000	-2.0857111992e-001
 2.4074531586e+000	 1.3497459743e+000	-2.8235402545e-001
 2.5628694213e+000	 1.0941956827e+000	 2.8994070722e-001
 2.5510625637e+000	 1.1214472170e+000	 2.3746355338e-001
 2.5389413915e+000	 1.1486256283e+000	 1.8631440008e-001
 2.5265061870e+000	 1.1757256594e+000	 1.3594521884e-001
 2.5137573464e+000	 1.2027420398e+000	 8.5519689970e-002
 2.5006953804e+000	 1.2296694890e+000	 3.3922161331e-002
 2.4873209155e+000	 1.2565027191e+000	-2.0230380050e-002
 2.4736346942e+000	 1.2832364381e+000	-7.8573387424e-002
 2.4596375758e+000	 1.3098653530e+000	-1.4297697371e-001
 2.4453305367e+000	 1.3363841730e+000	-2.1541012763e-001
 2.4307146712e+000	 1.3627876125e+000	-2.8770241942e-001
 2.5873956317e+000	 1.1046669432e+000	 2.8269104129e-001
 2.5754757845e+000	 1.1321792700e+000	 2.3050692681e-001
 2.5632386148e+000	 1.1596177739e+000	 1.8025393309e-001
 2.5506844076e+000	 1.1869771475e+000	 1.3111915001e-001
 2.5378135628e+000	 1.2142520700e+000	 8.1968318723e-002
 2.5246265961e+000	 1.2414372101e+000	 3.1356110602e-002
 2.5111241399e+000	 1.2685272295e+000	-2.2460349457e-002
 2.4973069439e+000	 1.2955167855e+000	-8.1504785448e-002
 2.4831758755e+000	 1.3224005345e+000	-1.4806199493e-001
 2.4687319206e+000	 1.3491731349e+000	-2.2142384029e-001
 2.4539761837e+000	 1.3758292506e+000	-2.9031160871e-001
 2.6119218420e+000	 1.1151382038e+000	 2.6936036960e-001
 2.5998890053e+000	 1.1429113229e+000	 2.1777236148e-001
 2.5875358381e+000	 1.1706099194e+000	 1.6882979203e-001
 2.5748626282e+000	 1.1982286356e+000	 1.2141974055e-001
 2.5618697792e+000	 1.2257621001e+000	 7.4072606797e-002
 2.5485578118e+000	 1.2532049312e+000	 2.4973835883e-002
 2.5349273643e+000	 1.2805517399e+000	-2.8020867640e-002
 2.5209791935e+000	 1.3077971329e+000	-8.7366913205e-002
 2.5067141752e+000	 1.3349357159e+000	-1.5577348153e-001
 2.4921333044e+000	 1.3619620967e+000	-2.2529298184e-001
 2.4772376963e+000	 1.3888708888e+000	-2.8982697124e-001
 2.6364480523e+000	 1.1256094643e+000	 2.4788692882e-001
 2.6243022261e+000	 1.1536433759e+000	 1.9737286355e-001
 2.6118330614e+000	 1.1816020650e+000	 1.5033769014e-001
 2.5990408487e+000	 1.2094801237e+000	 1.0533336704e-001
 2.5859259956e+000	 1.2372721302e+000	 6.0517497650e-002
 2.5724890275e+000	 1.2649726523e+000	 1.3666630286e-002
 2.5587305887e+000	 1.2925762503e+000	-3.7806694225e-002
 2.5446514432e+000	 1.3200774803e+000	-9.6833230809e-002
 2.5302524749e+000	 1.3474708973e+000	-1.6388783151e-001
 2.5155346883e+000	 1.3747510586e+000	-2.2671989185e-001
 2.5004992089e+000	 1.4019125270e+000	-2.8585094190e-001
 2.2678840830e+000	 1.2714961454e+000	-2.2973369259e-001
 2.2539581986e+000	 1.2960219464e+000	-2.9130516233e-001
 2.2397464637e+000	 1.3204302257e+000	-3.5646431932e-001
 2.2252502318e+000	 1.3447160840e+000	-4.2527967369e-001
 2.2104709669e+000	 1.3688746392e+000	-4.9193628083e-001
 2.1954102429e+000	 1.3929010296e+000	-5.5497633763e-001
 2.1800697437e+000	 1.4167904164e+000	-6.1403457240e-001
 2.1644512626e+000	 1.4405379875e+000	-6.6871394910e-001
 2.1485567020e+000	 1.4641389598e+000	-7.1858925541e-001
 2.1323880729e+000	 1.4875885829e+000	-7.6321143239e-001
 2.1159474941e+000	 1.5108821418e+000	-8.0211260330e-001
 2.2911455956e+000	 1.2845377836e+000	-2.4050227829e-001
 2.2770768745e+000	 1.3093151438e+000	-3.0264891271e-001
 2.2627193709e+000	 1.3339737769e+000	-3.6946727314e-001
 2.2480744523e+000	 1.3585087334e+000	-4.3694640691e-001
 2.2331435976e+000	 1.3829150811e+000	-5.0070432713e-001
 2.2179283969e+000	 1.4071879083e+000	-5.6059433436e-001
 2.2024305514e+000	 1.4313223268e+000	-6.1642563176e-001
 2.1866518727e+000	 1.4553134748e+000	-6.6796612250e-001
 2.1705942828e+000	 1.4791565204e+000	-7.1494604990e-001
 2.1542598133e+000	 1.5028466645e+000	-7.5706244319e-001
 2.1376506048e+000	 1.5263791437e+000	-7.9398432341e-001
 2.3144071082e+000	 1.2975794217e+000	-2.4935749319e-001
 2.3001955503e+000	 1.3226083413e+000	-3.1380304653e-001
 2.2856922780e+000	 1.3475173282e+000	-3.8239133997e-001
 2.2708986727e+000	 1.3723013828e+000	-4.4782224900e-001
 2.2558162283e+000	 1.3969555230e+000	-5.0918080844e-001
 2.2404465509e+000	 1.4214747870e+000	-5.6646123288e-001
 2.2247913591e+000	 1.4458542371e+000	-6.1960388171e-001
 2.2088524828e+000	 1.4700889621e+000	-6.6849814801e-001
 2.1926318636e+000	 1.4941740811e+000	-7.1298626033e-001
 2.1761315537e+000	 1.5181047462e+000	-7.5286795705e-001
 2.1593537155e+000	 1.5418761456e+000	-7.8790598527e-001
 2.3376686208e+000	 1.3106210599e+000	-2.5738702010e-001
 2.3233142262e+000	 1.3359015387e+000	-3.2563145565e-001
 2.3086651852e+000	 1.3610608794e+000	-3.9381419538e-001
 2.2937228932e+000	 1.3860940323e+000	-4.5751161507e-001
 2.2784888589e+000	 1.4109959649e+000	-5.1688297803e-001
 2.2629647049e+000	 1.4357616657e+000	-5.7202160219e-001
 2.2471521667e+000	 1.4603861474e+000	-6.2295692515e-001
 2.2310530929e+000	 1.4848644494e+000	-6.6965759050e-001
 2.2146694445e+000	 1.5091916418e+000	-7.1203552072e-001
 2.1980032942e+000	 1.5333628279e+000	-7.4995093347e-001
 2.1810568261e+000	 1.5573731475e+000	-7.8321824952e-001
 2.3609301334e+000	 1.3236626980e+000	-2.6555756988e-001
 2.3464329021e+000	 1.3491947361e+000	-3.3651566180e-001
 2.3316380924e+000	 1.3746044307e+000	-4.0339532789e-001
 2.3165471136e+000	 1.3998866817e+000	-4.6557729137e-001
 2.3011614896e+000	 1.4250364067e+000	-5.2328986052e-001
 2.2854828589e+000	 1.4500485444e+000	-5.7668485165e-001
 2.2695129744e+000	 1.4749180577e+000	-6.2583987696e-001
 2.2532537030e+000	 1.4996399368e+000	-6.7076173416e-001
 2.2367070253e+000	 1.5242092025e+000	-7.1139086061e-001
 2.2198750346e+000	 1.5486209095e+000	-7.4760680526e-001
 2.2027599368e+000	 1.5728701494e+000	-7.7923466266e-001
 2.3841916460e+000	 1.3367043362e+000	-2.7457625310e-001
 2.3695515779e+000	 1.3624879335e+000	-3.4521097638e-001
 2.3546109996e+000	 1.3881479819e+000	-4.1075052026e-001
 2.3393713341e+000	 1.4136793311e+000	-4.7154207402e-001
 2.3238341203e+000	 1.4390768486e+000	-5.2784396081e-001
 2.3080010129e+000	 1.4643354232e+000	-5.7982703265e-001
 2.2918737821e+000	 1.4894499680e+000	-6.2757728286e-001
 2.2754543131e+000	 1.5144154241e+000	-6.7109964548e-001
 2.2587446061e+000	 1.5392267632e+000	-7.1032294122e-001
 2.2417467750e+000	 1.5638789912e+000	-7.4510591946e-001
 2.2244630475e+000	 1.5883671513e+000	-7.7524433605e-001
 2.4074531586e+000	 1.3497459743e+000	-2.8235402545e-001
 2.3926702538e+000	 1.3757811309e+000	-3.5139172068e-001
 2.3775839068e+000	 1.4016915332e+000	-4.1545352257e-001
 2.3621955545e+000	 1.4274719806e+000	-4.7489049744e-001
 2.3465067509e+000	 1.4531172905e+000	-5.2995306684e-001
 2.3305191669e+000	 1.4786223019e+000	-5.8079273656e-001
 2.3142345897e+000	 1.5039818783e+000	-6.2746513584e-001
 2.2976549232e+000	 1.5291909114e+000	-6.6993433349e-001
 2.2807821869e+000	 1.5542443239e+000	-7.0807838693e-001
 2.2636185155e+000	 1.5791370729e+000	-7.4169606941e-001
 2.2461661582e+000	 1.6038641532e+000	-7.7051471034e-001
 2.4307146712e+000	 1.3627876125e+000	-2.8770241942e-001
 2.4157889297e+000	 1.3890743283e+000	-3.5468795463e-001
 2.4005568140e+000	 1.4152350845e+000	-4.1703780433e-001
 2.3850197750e+000	 1.4412646300e+000	-4.7507064660e-001
 2.3691793816e+000	 1.4671577324e+000	-5.2899213974e-001
 2.3530373208e+000	 1.4929091806e+000	-5.7889708271e-001
 2.3365953974e+000	 1.5185137887e+000	-6.2477298377e-001
 2.3198555333e+000	 1.5439663988e+000	-6.6650500081e-001
 2.3028197677e+000	 1.5692618846e+000	-7.0388220554e-001
 2.2854902559e+000	 1.5943951545e+000	-7.3660511201e-001
 2.2678692689e+000	 1.6193611551e+000	-7.6429439933e-001
 2.4539761837e+000	 1.3758292506e+000	-2.9031160871e-001
 2.4389076055e+000	 1.4023675257e+000	-3.5468725315e-001
 2.4235297212e+000	 1.4287786357e+000	-4.1499838038e-001
 2.4078439955e+000	 1.4550572794e+000	-4.7149604743e-001
 2.3918520123e+000	 1.4811981742e+000	-5.2430528562e-001
 2.3755554748e+000	 1.5071960593e+000	-5.7342779028e-001
 2.3589562050e+000	 1.5330456990e+000	-6.1874612197e-001
 2.3420561434e+000	 1.5587418861e+000	-6.6002937938e-001
 2.3248573486e+000	 1.5842794452e+000	-6.9694029149e-001
 2.3073619963e+000	 1.6096532362e+000	-7.2904366456e-001
 2.2895723795e+000	 1.6348581571e+000	-7.5581610820e-001
 2.4772376963e+000	 1.3888708888e+000	-2.8982697124e-001
 2.4620262814e+000	 1.4156607231e+000	-3.5093654642e-001
 2.4465026284e+000	 1.4423221870e+000	-4.0879370571e-001
 2.4306682159e+000	 1.4688499289e+000	-4.6354763031e-001
 2.4145246430e+000	 1.4952386161e+000	-5.1520780365e-001
 2.3980736288e+000	 1.5214829380e+000	-5.6364732861e-001
 2.3813170127e+000	 1.5475776093e+000	-6.0860786529e-001
 2.3642567535e+000	 1.5735173734e+000	-6.4970614544e-001
 2.3468949294e+000	 1.5992970059e+000	-6.8644200654e-001
 2.3292337368e+000	 1.6249113179e+000	-7.1820787569e-001
 2.3112754902e+000	 1.6503551590e+000	-7.4429962115e-001
 2.5004992089e+000	 1.4019125270e+000	-2.8585094190e-001
 2.4851449573e+000	 1.4289539205e+000	-3.4294402011e-001
 2.4694755356e+000	 1.4558657382e+000	-3.9784763476e-001
 2.4534924364e+000	 1.4826425783e+000	-4.5057576188e-001
 2.4371972736e+000	 1.5092790580e+000	-5.0098830544e-001
 2.4205917828e+000	 1.5357698167e+000	-5.4879514095e-001
 2.4036778204e+000	 1.5621095196e+000	-5.9356189443e-001
 2.3864573637e+000	 1.5882928607e+000	-6.3471740842e-001
 2.3689325102e+000	 1.6143145666e+000	-6.7156283297e-001
 2.3511054772e+000	 1.6401693995e+000	-7.0328226595e-001
 2.3329786009e+000	 1.6658521609e+000	-7.2895485388e-001
 2.1159474941e+000	 1.5108821418e+000	-8.0211260330e-001
 2.0992371910e+000	 1.5340149596e+000	-8.4005734359e-001
 2.0822594931e+000	 1.5569823987e+000	-8.8199582845e-001
 2.0650168343e+000	 1.5797798658e+000	-9.2771939714e-001
 2.0475117532e+000	 1.6024028145e+000	-9.7701373738e-001
 2.0297468916e+000	 1.6248467492e+000	-1.0296661844e+000
 2.0117249930e+000	 1.6471072275e+000	-1.0854733581e+000
 1.9934489018e+000	 1.6691798630e+000	-1.1434217415e+000
 1.9749215615e+000	 1.6910603285e+000	-1.1933657703e+000
 1.9561460130e+000	 1.7127443585e+000	-1.2309380879e+000
 1.9371253937e+000	 1.7342277519e+000	-1.2543494639e+000
 2.1376506048e+000	 1.5263791437e+000	-7.9398432341e-001
 2.1207689054e+000	 1.5497492330e+000	-8.3049258671e-001
 2.1036170685e+000	 1.5729522474e+000	-8.7123708613e-001
 2.0861975531e+000	 1.5959835463e+000	-9.1566472600e-001
 2.0685129238e+000	 1.6188385369e+000	-9.6321830371e-001
 2.0505658493e+000	 1.6415126773e+000	-1.0133451151e+000
 2.0323591015e+000	 1.6640014796e+000	-1.0655059207e+000
 2.0138955539e+000	 1.6863005124e+000	-1.1191841861e+000
 1.9951781800e+000	 1.7084054042e+000	-1.1734229546e+000
 1.9762100522e+000	 1.7303118456e+000	-1.2173904180e+000
 1.9569943398e+000	 1.7520155926e+000	-1.2451299620e+000
 2.1593537155e+000	 1.5418761456e+000	-7.8790598527e-001
 2.1423006198e+000	 1.5654835065e+000	-8.2296217290e-001
 2.1249746440e+000	 1.5889220961e+000	-8.6251398748e-001
 2.1073782719e+000	 1.6121872269e+000	-9.0571542676e-001
 2.0895140944e+000	 1.6352742593e+000	-9.5171720478e-001
 2.0713848071e+000	 1.6581786054e+000	-9.9967662092e-001
 2.0529932100e+000	 1.6808957317e+000	-1.0487678141e+000
 2.0343422059e+000	 1.7034211619e+000	-1.0981923087e+000
 2.0154347985e+000	 1.7257504799e+000	-1.1471897559e+000
 1.9962740914e+000	 1.7478793327e+000	-1.1947524054e+000
 1.9768632860e+000	 1.7698034332e+000	-1.2294057524e+000
 2.1810568261e+000	 1.5573731475e+000	-7.8321824952e-001
 2.1638323342e+000	 1.5812177799e+000	-8.1682993296e-001
 2.1463322194e+000	 1.6048919448e+000	-8.5520216913e-001
 2.1285589908e+000	 1.6283909074e+000	-8.9724578358e-001
 2.1105152649e+000	 1.6517099817e+000	-9.4186842094e-001
 2.0922037648e+000	 1.6748445336e+000	-9.8798563900e-001
 2.0736273186e+000	 1.6977899839e+000	-1.0345324142e+000
 2.0547888580e+000	 1.7205418114e+000	-1.0804749579e+000
 2.0356914171e+000	 1.7430955556e+000	-1.1248227388e+000
 2.0163381306e+000	 1.7654468199e+000	-1.1666406045e+000
 1.9967322321e+000	 1.7875912739e+000	-1.2048222198e+000
 2.2027599368e+000	 1.5728701494e+000	-7.7923466266e-001
 2.1853640486e+000	 1.5969520533e+000	-8.1143289423e-001
 2.1676897948e+000	 1.6208617935e+000	-8.4865131175e-001
 2.1497397096e+000	 1.6445945880e+000	-8.8960555427e-001
 2.1315164355e+000	 1.6681457041e+000	-9.3300746275e-001
 2.1130227225e+000	 1.6915104617e+000	-9.7757736445e-001
 2.0942614271e+000	 1.7146842360e+000	-1.0220567972e+000
 2.0752355100e+000	 1.7376624608e+000	-1.0652215651e+000
 2.0559480356e+000	 1.7604406313e+000	-1.1058950128e+000
 2.0364021698e+000	 1.7830143070e+000	-1.1429614039e+000
 2.0166011783e+000	 1.8053791145e+000	-1.1753792848e+000
 2.2244630475e+000	 1.5883671513e+000	-7.7524433605e-001
 2.2068957630e+000	 1.6126863268e+000	-8.0608420281e-001
 2.1890473703e+000	 1.6368316422e+000	-8.4218827827e-001
 2.1709204284e+000	 1.6607982686e+000	-8.8212329394e-001
 2.1525176060e+000	 1.6845814265e+000	-9.2445084604e-001
 2.1338416803e+000	 1.7081763898e+000	-9.6774083957e-001
 2.1148955356e+000	 1.7315784881e+000	-1.0105854029e+000
 2.0956821621e+000	 1.7547831103e+000	-1.0516131561e+000
 2.0762046542e+000	 1.7777857070e+000	-1.0895037123e+000
 2.0564662089e+000	 1.8005817941e+000	-1.1230022890e+000
 2.0364701244e+000	 1.8231669552e+000	-1.1509343017e+000
 2.2461661582e+000	 1.6038641532e+000	-7.7051471034e-001
 2.2284274774e+000	 1.6284206002e+000	-8.0007612481e-001
 2.2104049457e+000	 1.6528014909e+000	-8.3512032613e-001
 2.1921011472e+000	 1.6770019491e+000	-8.7410974932e-001
 2.1735187766e+000	 1.7010171489e+000	-9.1549963630e-001
 2.1546606380e+000	 1.7248423179e+000	-9.5775261322e-001
 2.1355296441e+000	 1.7484727403e+000	-9.9935377079e-001
 2.1161288141e+000	 1.7719037597e+000	-1.0388261229e+000
 2.0964612727e+000	 1.7951307827e+000	-1.0747463143e+000
 2.0765302481e+000	 1.8181492813e+000	-1.1057604447e+000
 2.0563390706e+000	 1.8409547958e+000	-1.1305998748e+000
 2.2678692689e+000	 1.6193611551e+000	-7.6429439933e-001
 2.2499591918e+000	 1.6441548737e+000	-7.9268312113e-001
 2.2317625212e+000	 1.6687713396e+000	-8.2673838854e-001
 2.2132818661e+000	 1.6932056297e+000	-8.6486131906e-001
 2.1945199471e+000	 1.7174528713e+000	-9.0544305769e-001
 2.1754795957e+000	 1.7415082460e+000	-9.4688046504e-001
 2.1561637526e+000	 1.7653669924e+000	-9.8759234334e-001
 2.1365754661e+000	 1.7890244092e+000	-1.0260360669e+000
 2.1167178912e+000	 1.8124758584e+000	-1.0607244793e+000
 2.0965942873e+000	 1.8357167684e+000	-1.0902429152e+000
 2.0762080167e+000	 1.8587426365e+000	-1.1132662045e+000
 2.2895723795e+000	 1.6348581571e+000	-7.5581610820e-001
 2.2714909061e+000	 1.6598891471e+000	-7.8316499103e-001
 2.2531200966e+000	 1.6847411883e+000	-8.1632042027e-001
 2.2344625849e+000	 1.7094093102e+000	-8.5366357574e-001
 2.2155211177e+000	 1.7338885937e+000	-8.9356216232e-001
 2.1962985535e+000	 1.7581741742e+000	-9.3438719060e-001
 2.1767978611e+000	 1.7822612445e+000	-9.7453033246e-001
 2.1570221182e+000	 1.8061450586e+000	-1.0124217094e+000
 2.1369745098e+000	 1.8298209341e+000	-1.0465479663e+000
 2.1166583265e+000	 1.8532842555e+000	-1.0754704810e+000
 2.0960769629e+000	 1.8765304771e+000	-1.0978435552e+000
 2.3112754902e+000	 1.6503551590e+000	-7.4429962115e-001
 2.2930226205e+000	 1.6756234205e+000	-7.7077007993e-001
 2.2744776721e+000	 1.7007110370e+000	-8.0313480357e-001
 2.2556433037e+000	 1.7256129908e+000	-8.3979484528e-001
 2.2365222882e+000	 1.7503243161e+000	-8.7913355592e-001
 2.2171175112e+000	 1.7748401023e+000	-9.1953444315e-001
 2.1974319696e+000	 1.7991554966e+000	-9.5939964483e-001
 2.1774687702e+000	 1.8232657081e+000	-9.9716886515e-001
 2.1572311283e+000	 1.8471660099e+000	-1.0313386175e+000
 2.1367223657e+000	 1.8708517427e+000	-1.0604816136e+000
 2.1159459091e+000	 1.8943183178e+000	-1.0832661365e+000
 2.3329786009e+000	 1.6658521609e+000	-7.2895485388e-001
 2.3145543349e+000	 1.6913576940e+000	-7.5473854723e-001
 2.2958352475e+000	 1.7166808857e+000	-7.8644381052e-001
 2.2768240225e+000	 1.7418166714e+000	-8.2252984032e-001
 2.2575234588e+000	 1.7667600385e+000	-8.6143317621e-001
 2.2379364689e+000	 1.7915060304e+000	-9.0158662860e-001
 2.2180660781e+000	 1.8160497488e+000	-9.4143886236e-001
 2.1979154223e+000	 1.8403863575e+000	-9.7947447539e-001
 2.1774877469e+000	 1.8645110856e+000	-1.0142344063e+000
 2.1567864049e+000	 1.8884192298e+000	-1.0443365010e+000
 2.1358148552e+000	 1.9121061584e+000	-1.0684960663e+000
 1.9371253937e+000	 1.7342277519e+000	-1.2543494639e+000
 1.9178658423e+000	 1.7555031994e+000	-1.2695843731e+000
 1.8983678480e+000	 1.7765698777e+000	-1.2837523086e+000
 1.8786348255e+000	 1.7974237988e+000	-1.2967359658e+000
 1.8586702779e+000	 1.8180610496e+000	-1.3084003773e+000
 1.8384777946e+000	 1.8384777946e+000	-1.3185926276e+000
 1.8180610496e+000	 1.8586702779e+000	-1.3271413755e+000
 1.7974237988e+000	 1.8786348255e+000	-1.3338561742e+000
 1.7765698777e+000	 1.8983678480e+000	-1.3385265814e+000
 1.7555031994e+000	 1.9178658423e+000	-1.3409210533e+000
 1.7342277519e+000	 1.9371253937e+000	-1.3407856199e+000
 1.9569943398e+000	 1.7520155926e+000	-1.2451299620e+000
 1.9375372447e+000	 1.7735092607e+000	-1.2621228069e+000
 1.9178392610e+000	 1.7947920183e+000	-1.2755300002e+000
 1.8979038384e+000	 1.8158598364e+000	-1.2857224830e+000
 1.8777345160e+000	 1.8367087620e+000	-1.2930498581e+000
 1.8573349200e+000	 1.8573349200e+000	-1.2978392711e+000
 1.8367087620e+000	 1.8777345160e+000	-1.3003940877e+000
 1.8158598364e+000	 1.8979038384e+000	-1.3009923571e+000
 1.7947920183e+000	 1.9178392610e+000	-1.2998850553e+000
 1.7735092607e+000	 1.9375372447e+000	-1.2972941036e+000
 1.7520155926e+000	 1.9569943398e+000	-1.2934101610e+000
 1.9768632860e+000	 1.7698034332e+000	-1.2294057524e+000
 1.9572086471e+000	 1.7915153220e+000	-1.2510614874e+000
 1.9373106740e+000	 1.8130141588e+000	-1.2667370391e+000
 1.9171728513e+000	 1.8342958741e+000	-1.2772060466e+000
 1.8967987540e+000	 1.8553564743e+000	-1.2832182456e+000
 1.8761920453e+000	 1.8761920453e+000	-1.2854976695e+000
 1.8553564743e+000	 1.8967987540e+000	-1.2847406307e+000
 1.8342958741e+000	 1.9171728513e+000	-1.2816134734e+000
 1.8130141588e+000	 1.9373106740e+000	-1.2767500917e+000
 1.7915153220e+000	 1.9572086471e+000	-1.2707492097e+000
 1.7698034332e+000	 1.9768632860e+000	-1.2641714221e+000
 1.9967322321e+000	 1.7875912739e+000	-1.2048222198e+000
 1.9768800495e+000	 1.8095213832e+000	-1.2338939087e+000
 1.9567820870e+000	 1.8312362994e+000	-1.2547324401e+000
 1.9364418642e+000	 1.8527319117e+000	-1.2684311115e+000
 1.9158629921e+000	 1.8740041867e+000	-1.2760578567e+000
 1.8950491706e+000	 1.8950491706e+000	-1.2786529177e+000
 1.8740041867e+000	 1.9158629921e+000	-1.2772262772e+000
 1.8527319117e+000	 1.9364418642e+000	-1.2727548445e+000
 1.8312362994e+000	 1.9567820870e+000	-1.2661793885e+000
 1.8095213832e+000	 1.9768800495e+000	-1.2584012130e+000
 1.7875912739e+000	 1.9967322321e+000	-1.2502785774e+000
 2.0166011783e+000	 1.8053791145e+000	-1.1753792848e+000
 1.9965514519e+000	 1.8275274445e+000	-1.2081866143e+000
 1.9762535000e+000	 1.8494584400e+000	-1.2369524898e+000
 1.9557108771e+000	 1.8711679493e+000	-1.2567226462e+000
 1.9349272302e+000	 1.8926518990e+000	-1.2688036804e+000
 1.9139062959e+000	 1.9139062959e+000	-1.2744737564e+000
 1.8926518990e+000	 1.9349272302e+000	-1.2749796352e+000
 1.8711679493e+000	 1.9557108771e+000	-1.2715334354e+000
 1.8494584400e+000	 1.9762535000e+000	-1.2653091174e+000
 1.8275274445e+000	 1.9965514519e+000	-1.2574386885e+000
 1.8053791145e+000	 2.0166011783e+000	-1.2466930814e+000
 2.0364701244e+000	 1.8231669552e+000	-1.1509343017e+000
 2.0162228544e+000	 1.8455335058e+000	-1.1778405668e+000
 1.9957249130e+000	 1.8676805806e+000	-1.2109123108e+000
 1.9749798900e+000	 1.8896039870e+000	-1.2394875773e+000
 1.9539914682e+000	 1.9112996113e+000	-1.2587747439e+000
 1.9327634212e+000	 1.9327634212e+000	-1.2702139068e+000
 1.9112996113e+000	 1.9539914682e+000	-1.2752140027e+000
 1.8896039870e+000	 1.9749798900e+000	-1.2751492835e+000
 1.8676805806e+000	 1.9957249130e+000	-1.2713554884e+000
 1.8455335058e+000	 2.0162228544e+000	-1.2628921194e+000
 1.8231669552e+000	 2.0364701244e+000	-1.2465196187e+000
 2.0563390706e+000	 1.8409547958e+000	-1.1305998748e+000
 2.0358942568e+000	 1.8635395671e+000	-1.1529984442e+000
 2.0151963260e+000	 1.8859027211e+000	-1.1799227163e+000
 1.9942489029e+000	 1.9080400246e+000	-1.2142163752e+000
 1.9730557063e+000	 1.9299473237e+000	-1.2433756270e+000
 1.9516205466e+000	 1.9516205466e+000	-1.2632135563e+000
 1.9299473237e+000	 1.9730557063e+000	-1.2752288719e+000
 1.9080400246e+000	 1.9942489029e+000	-1.2808870757e+000
 1.8859027211e+000	 2.0151963260e+000	-1.2796391004e+000
 1.8635395671e+000	 2.0358942568e+000	-1.2678927345e+000
 1.8409547958e+000	 2.0563390706e+000	-1.2471360262e+000
 2.0762080167e+000	 1.8587426365e+000	-1.1132662045e+000
 2.0555656592e+000	 1.8815456284e+000	-1.1327062043e+000
 2.0346677390e+000	 1.9041248617e+000	-1.1547697603e+000
 2.0135179158e+000	 1.9264760623e+000	-1.1831824317e+000
 1.9921199444e+000	 1.9485950360e+000	-1.2200981128e+000
 1.9704776719e+000	 1.9704776719e+000	-1.2509009842e+000
 1.9485950360e+000	 1.9921199444e+000	-1.2724115757e+000
 1.9264760623e+000	 2.0135179158e+000	-1.2845398070e+000
 1.9041248617e+000	 2.0346677390e+000	-1.2832339233e+000
 1.8815456284e+000	 2.0555656592e+000	-1.2698697696e+000
 1.8587426365e+000	 2.0762080167e+000	-1.2461890883e+000
 2.0960769629e+000	 1.8765304771e+000	-1.0978435552e+000
 2.0752370616e+000	 1.8995516896e+000	-1.1157586559e+000
 2.0541391520e+000	 1.9223470023e+000	-1.1345909638e+000
 2.0327869287e+000	 1.9449120999e+000	-1.1580369724e+000
 2.0111841824e+000	 1.9672427483e+000	-1.1898585980e+000
 1.9893347972e+000	 1.9893347972e+000	-1.2307943196e+000
 1.9672427483e+000	 2.0111841824e+000	-1.2631489329e+000
 1.9449120999e+000	 2.0327869287e+000	-1.2790854611e+000
 1.9223470023e+000	 2.0541391520e+000	-1.2796056573e+000
 1.8995516896e+000	 2.0752370616e+000	-1.2665307396e+000
 1.8765304771e+000	 2.0960769629e+000	-1.2415005366e+000
 2.1159459091e+000	 1.8943183178e+000	-1.0832661365e+000
 2.0949084640e+000	 1.9175577509e+000	-1.1009808025e+000
 2.0736105650e+000	 1.9405691429e+000	-1.1181151982e+000
 2.0520559416e+000	 1.9633481375e+000	-1.1382636926e+000
 2.0302484205e+000	 1.9858904607e+000	-1.1650944461e+000
 2.0081919225e+000	 2.0081919225e+000	-1.2017665180e+000
 1.9858904607e+000	 2.0302484205e+000	-1.2403783669e+000
 1.9633481375e+000	 2.0520559416e+000	-1.2619756919e+000
 1.9405691429e+000	 2.0736105650e+000	-1.2665504333e+000
 1.9175577509e+000	 2.0949084640e+000	-1.2557557096e+000
 1.8943183178e+000	 2.1159459091e+000	-1.2310624723e+000
 2.1358148552e+000	 1.9121061584e+000	-1.0684960663e+000
 2.1145798665e+000	 1.9355638122e+000	-1.0872317310e+000
 2.0930819779e+000	 1.9587912834e+000	-1.1041108793e+000
 2.0713249545e+000	 1.9817841752e+000	-1.1225542957e+000
 2.0493126586e+000	 2.0045381730e+000	-1.1458822955e+000
 2.0270490478e+000	 2.0270490478e+000	-1.1718646568e+000
 2.0045381730e+000	 2.0493126586e+000	-1.2020173200e+000
 1.9817841752e+000	 2.0713249545e+000	-1.2311175505e+000
 1.9587912834e+000	 2.0930819779e+000	-1.2420329629e+000
 1.9355638122e+000	 2.1145798665e+000	-1.2355925407e+000
 1.9121061584e+000	 2.1358148552e+000	-1.2130328733e+000
 1.7342277519e+000	 1.9371253937e+000	-1.3407856199e+000
 1.7127443585e+000	 1.9561460130e+000	-1.3435428071e+000
 1.6910603285e+000	 1.9749215615e+000	-1.3534744391e+000
 1.6691798630e+000	 1.9934489018e+000	-1.3686115564e+000
 1.6471072275e+000	 2.0117249930e+000	-1.3859358467e+000
 1.6248467492e+000	 2.0297468916e+000	-1.3998948084e+000
 1.6024028145e+000	 2.0475117532e+000	-1.4085511726e+000
 1.5797798658e+000	 2.0650168343e+000	-1.4102950518e+000
 1.5569823987e+000	 2.0822594931e+000	-1.4035170229e+000
 1.5340149596e+000	 2.0992371910e+000	-1.3866174635e+000
 1.5108821418e+000	 2.1159474941e+000	-1.3580154657e+000
 1.7520155926e+000	 1.9569943398e+000	-1.2934101610e+000
 1.7303118456e+000	 1.9762100522e+000	-1.2945382414e+000
 1.7084054042e+000	 1.9951781800e+000	-1.3053388142e+000
 1.6863005124e+000	 2.0138955539e+000	-1.3219836626e+000
 1.6640014796e+000	 2.0323591015e+000	-1.3385282393e+000
 1.6415126773e+000	 2.0505658493e+000	-1.3528548066e+000
 1.6188385369e+000	 2.0685129238e+000	-1.3630187988e+000
 1.5959835463e+000	 2.0861975531e+000	-1.3670727020e+000
 1.5729522474e+000	 2.1036170685e+000	-1.3630768550e+000
 1.5497492330e+000	 2.1207689054e+000	-1.3491098479e+000
 1.5263791437e+000	 2.1376506048e+000	-1.3232784517e+000
 1.7698034332e+000	 1.9768632860e+000	-1.2641714221e+000
 1.7478793327e+000	 1.9962740914e+000	-1.2642820850e+000
 1.7257504799e+000	 2.0154347985e+000	-1.2743438834e+000
 1.7034211619e+000	 2.0343422059e+000	-1.2880855812e+000
 1.6808957317e+000	 2.0529932100e+000	-1.3031907246e+000
 1.6581786054e+000	 2.0713848071e+000	-1.3174352033e+000
 1.6352742593e+000	 2.0895140944e+000	-1.3285855700e+000
 1.6121872269e+000	 2.1073782719e+000	-1.3344112584e+000
 1.5889220961e+000	 2.1249746440e+000	-1.3326964337e+000
 1.5654835065e+000	 2.1423006198e+000	-1.3212513989e+000
 1.5418761456e+000	 2.1593537155e+000	-1.2979234836e+000
 1.7875912739e+000	 1.9967322321e+000	-1.2502785774e+000
 1.7654468199e+000	 2.0163381306e+000	-1.2478805250e+000
 1.7430955556e+000	 2.0356914171e+000	-1.2532510208e+000
 1.7205418114e+000	 2.0547888580e+000	-1.2638874507e+000
 1.6977899839e+000	 2.0736273186e+000	-1.2773441898e+000
 1.6748445336e+000	 2.0922037648e+000	-1.2911570746e+000
 1.6517099817e+000	 2.1105152649e+000	-1.3028569748e+000
 1.6283909074e+000	 2.1285589908e+000	-1.3099830448e+000
 1.6048919448e+000	 2.1463322194e+000	-1.3100955717e+000
 1.5812177799e+000	 2.1638323342e+000	-1.3007883353e+000
 1.5573731475e+000	 2.1810568261e+000	-1.2797004037e+000
 1.8053791145e+000	 2.0166011783e+000	-1.2466930814e+000
 1.7830143070e+000	 2.0364021698e+000	-1.2383087370e+000
 1.7604406313e+000	 2.0559480356e+000	-1.2392391030e+000
 1.7376624608e+000	 2.0752355100e+000	-1.2468776442e+000
 1.7146842360e+000	 2.0942614271e+000	-1.2585874503e+000
 1.6915104617e+000	 2.1130227225e+000	-1.2717160784e+000
 1.6681457041e+000	 2.1315164355e+000	-1.2836101399e+000
 1.6445945880e+000	 2.1497397096e+000	-1.2916295368e+000
 1.6208617935e+000	 2.1676897948e+000	-1.2931612567e+000
 1.5969520533e+000	 2.1853640486e+000	-1.2856326368e+000
 1.5728701494e+000	 2.2027599368e+000	-1.2665240171e+000
 1.8231669552e+000	 2.0364701244e+000	-1.2465196187e+000
 1.8005817941e+000	 2.0564662089e+000	-1.2328716487e+000
 1.7777857070e+000	 2.0762046542e+000	-1.2298556038e+000
 1.7547831103e+000	 2.0956821621e+000	-1.2347222369e+000
 1.7315784881e+000	 2.1148955356e+000	-1.2446936587e+000
 1.7081763898e+000	 2.1338416803e+000	-1.2569791742e+000
 1.6845814265e+000	 2.1525176060e+000	-1.2687908393e+000
 1.6607982686e+000	 2.1709204284e+000	-1.2773586341e+000
 1.6368316422e+000	 2.1890473703e+000	-1.2799451586e+000
 1.6126863268e+000	 2.2068957630e+000	-1.2738597547e+000
 1.5883671513e+000	 2.2244630475e+000	-1.2564719684e+000
 1.8409547958e+000	 2.0563390706e+000	-1.2471360262e+000
 1.8181492813e+000	 2.0765302481e+000	-1.2291690649e+000
 1.7951307827e+000	 2.0964612727e+000	-1.2228251573e+000
 1.7719037597e+000	 2.1161288141e+000	-1.2252611493e+000
 1.7484727403e+000	 2.1355296441e+000	-1.2336067618e+000
 1.7248423179e+000	 2.1546606380e+000	-1.2449813781e+000
 1.7010171489e+000	 2.1735187766e+000	-1.2565105258e+000
 1.6770019491e+000	 2.1921011472e+000	-1.2653419449e+000
 1.6528014909e+000	 2.2104049457e+000	-1.2686611401e+000
 1.6284206002e+000	 2.2284274774e+000	-1.2637063172e+000
 1.6038641532e+000	 2.2461661582e+000	-1.2477826109e+000
 1.8587426365e+000	 2.0762080167e+000	-1.2461890883e+000
 1.8357167684e+000	 2.0965942873e+000	-1.2249770432e+000
 1.8124758584e+000	 2.1167178912e+000	-1.2160454445e+000
 1.7890244092e+000	 2.1365754661e+000	-1.2165043486e+000
 1.7653669924e+000	 2.1561637526e+000	-1.2234380044e+000
 1.7415082460e+000	 2.1754795957e+000	-1.2339225508e+000
 1.7174528713e+000	 2.1945199471e+000	-1.2450433843e+000
 1.6932056297e+000	 2.2132818661e+000	-1.2539120820e+000
 1.6687713396e+000	 2.2317625212e+000	-1.2576827696e+000
 1.6441548737e+000	 2.2499591918e+000	-1.2535678322e+000
 1.6193611551e+000	 2.2678692689e+000	-1.2388528668e+000
 1.8765304771e+000	 2.0960769629e+000	-1.2415005366e+000
 1.8532842555e+000	 2.1166583265e+000	-1.2182435410e+000
 1.8298209341e+000	 2.1369745098e+000	-1.2075831508e+000
 1.8061450586e+000	 2.1570221182e+000	-1.2066281070e+000
 1.7822612445e+000	 2.1767978611e+000	-1.2124624747e+000
 1.7581741742e+000	 2.1962985535e+000	-1.2221642158e+000
 1.7338885937e+000	 2.2155211177e+000	-1.2328234046e+000
 1.7094093102e+000	 2.2344625849e+000	-1.2415599689e+000
 1.6847411883e+000	 2.2531200966e+000	-1.2455408374e+000
 1.6598891471e+000	 2.2714909061e+000	-1.2419963865e+000
 1.6348581571e+000	 2.2895723795e+000	-1.2282360798e+000
 1.8943183178e+000	 2.1159459091e+000	-1.2310624723e+000
 1.8708517427e+000	 2.1367223657e+000	-1.2070841394e+000
 1.8471660099e+000	 2.1572311283e+000	-1.1956699873e+000
 1.8232657081e+000	 2.1774687702e+000	-1.1939713104e+000
 1.7991554966e+000	 2.1974319696e+000	-1.1991156901e+000
 1.7748401023e+000	 2.2171175112e+000	-1.2082264070e+000
 1.7503243161e+000	 2.2365222882e+000	-1.2184414734e+000
 1.7256129908e+000	 2.2556433037e+000	-1.2269321569e+000
 1.7007110370e+000	 2.2744776721e+000	-1.2309208746e+000
 1.6756234205e+000	 2.2930226205e+000	-1.2276983414e+000
 1.6503551590e+000	 2.3112754902e+000	-1.2146398611e+000
 1.9121061584e+000	 2.1358148552e+000	-1.2130328733e+000
 1.8884192298e+000	 2.1567864049e+000	-1.1897778419e+000
 1.8645110856e+000	 2.1774877469e+000	-1.1786987726e+000
 1.8403863575e+000	 2.1979154223e+000	-1.1770318168e+000
 1.8160497488e+000	 2.2180660781e+000	-1.1819902194e+000
 1.7915060304e+000	 2.2379364689e+000	-1.1907845426e+000
 1.7667600385e+000	 2.2575234588e+000	-1.2006424832e+000
 1.7418166714e+000	 2.2768240225e+000	-1.2088281503e+000
 1.7166808857e+000	 2.2958352475e+000	-1.2126606745e+000
 1.6913576940e+000	 2.3145543349e+000	-1.2095320265e+000
 1.6658521609e+000	 2.3329786009e+000	-1.1969239282e+000
 1.5108821418e+000	 2.1159474941e+000	-1.3580154657e+000
 1.4875885829e+000	 2.1323880729e+000	-1.3258230669e+000
 1.4641389598e+000	 2.1485567020e+000	-1.2992483470e+000
 1.4405379875e+000	 2.1644512626e+000	-1.2783552768e+000
 1.4167904164e+000	 2.1800697437e+000	-1.2631869361e+000
 1.3929010296e+000	 2.1954102429e+000	-1.2537695085e+000
 1.3688746392e+000	 2.2104709669e+000	-1.2501157185e+000
 1.3447160840e+000	 2.2252502318e+000	-1.2522276859e+000
 1.3204302257e+000	 2.2397464637e+000	-1.2541379290e+000
 1.2960219464e+000	 2.2539581986e+000	-1.2225778260e+000
 1.2714961454e+000	 2.2678840830e+000	-1.1494947858e+000
 1.5263791437e+000	 2.1376506048e+000	-1.3232784517e+000
 1.5028466645e+000	 2.1542598133e+000	-1.2928968321e+000
 1.4791565204e+000	 2.1705942828e+000	-1.2665436138e+000
 1.4553134748e+000	 2.1866518727e+000	-1.2442396470e+000
 1.4313223268e+000	 2.2024305514e+000	-1.2259969941e+000
 1.4071879083e+000	 2.2179283969e+000	-1.2118231858e+000
 1.3829150811e+000	 2.2331435976e+000	-1.2017248530e+000
 1.3585087334e+000	 2.2480744523e+000	-1.1957107121e+000
 1.3339737769e+000	 2.2627193709e+000	-1.1937938829e+000
 1.3093151438e+000	 2.2770768745e+000	-1.1736006375e+000
 1.2845377836e+000	 2.2911455956e+000	-1.1079157742e+000
 1.5418761456e+000	 2.1593537155e+000	-1.2979234836e+000
 1.5181047462e+000	 2.1761315537e+000	-1.2692830473e+000
 1.4941740811e+000	 2.1926318636e+000	-1.2432678777e+000
 1.4700889621e+000	 2.2088524828e+000	-1.2198108854e+000
 1.4458542371e+000	 2.2247913591e+000	-1.1988496739e+000
 1.4214747870e+000	 2.2404465509e+000	-1.1803311476e+000
 1.3969555230e+000	 2.2558162283e+000	-1.1642154270e+000
 1.3723013828e+000	 2.2708986727e+000	-1.1504790461e+000
 1.3475173282e+000	 2.2856922780e+000	-1.1391174103e+000
 1.3226083413e+000	 2.3001955503e+000	-1.1254587409e+000
 1.2975794217e+000	 2.3144071082e+000	-1.0702845936e+000
 1.5573731475e+000	 2.1810568261e+000	-1.2797004037e+000
 1.5333628279e+000	 2.1980032942e+000	-1.2527270985e+000
 1.5091916418e+000	 2.2146694445e+000	-1.2271706526e+000
 1.4848644494e+000	 2.2310530929e+000	-1.2028324961e+000
 1.4603861474e+000	 2.2471521667e+000	-1.1795336118e+000
 1.4357616657e+000	 2.2629647049e+000	-1.1571195869e+000
 1.4109959649e+000	 2.2784888589e+000	-1.1354648995e+000
 1.3860940323e+000	 2.2937228932e+000	-1.1144764086e+000
 1.3610608794e+000	 2.3086651852e+000	-1.0940960274e+000
 1.3359015387e+000	 2.3233142262e+000	-1.0743025649e+000
 1.3106210599e+000	 2.3376686208e+000	-1.0325789318e+000
 1.5728701494e+000	 2.2027599368e+000	-1.2665240171e+000
 1.5486209095e+000	 2.2198750346e+000	-1.2411385568e+000
 1.5242092025e+000	 2.2367070253e+000	-1.2161642131e+000
 1.4996399368e+000	 2.2532537030e+000	-1.1912286102e+000
 1.4749180577e+000	 2.2695129744e+000	-1.1659951672e+000
 1.4500485444e+000	 2.2854828589e+000	-1.1401686874e+000
 1.4250364067e+000	 2.3011614896e+000	-1.1135001009e+000
 1.3998866817e+000	 2.3165471136e+000	-1.0857903296e+000
 1.3746044307e+000	 2.3316380924e+000	-1.0568932499e+000
 1.3491947361e+000	 2.3464329021e+000	-1.0267177393e+000
 1.3236626980e+000	 2.3609301334e+000	-9.9097743129e-001
 1.5883671513e+000	 2.2244630475e+000	-1.2564719684e+000
 1.5638789912e+000	 2.2417467750e+000	-1.2325892170e+000
 1.5392267632e+000	 2.2587446061e+000	-1.2083218185e+000
 1.5144154241e+000	 2.2754543131e+000	-1.1830824225e+000
 1.4894499680e+000	 2.2918737821e+000	-1.1563371033e+000
 1.4643354232e+000	 2.3080010129e+000	-1.1276115794e+000
 1.4390768486e+000	 2.3238341203e+000	-1.0964964993e+000
 1.4136793311e+000	 2.3393713341e+000	-1.0626517615e+000
 1.3881479819e+000	 2.3546109996e+000	-1.0258098418e+000
 1.3624879335e+000	 2.3695515779e+000	-9.8577811234e-001
 1.3367043362e+000	 2.3841916460e+000	-9.4244014220e-001
 1.6038641532e+000	 2.2461661582e+000	-1.2477826109e+000
 1.5791370729e+000	 2.2636185155e+000	-1.2253111218e+000
 1.5542443239e+000	 2.2807821869e+000	-1.2018759173e+000
 1.5291909114e+000	 2.2976549232e+000	-1.1766346025e+000
 1.5039818783e+000	 2.3142345897e+000	-1.1488172315e+000
 1.4786223019e+000	 2.3305191669e+000	-1.1177332489e+000
 1.4531172905e+000	 2.3465067509e+000	-1.0827774061e+000
 1.4274719806e+000	 2.3621955545e+000	-1.0434346162e+000
 1.4016915332e+000	 2.3775839068e+000	-9.9928372081e-001
 1.3757811309e+000	 2.3926702538e+000	-9.5000014911e-001
 1.3497459743e+000	 2.4074531586e+000	-8.9535746003e-001
 1.6193611551e+000	 2.2678692689e+000	-1.2388528668e+000
 1.5943951545e+000	 2.2854902559e+000	-1.2176945746e+000
 1.5692618846e+000	 2.3028197677e+000	-1.1952163337e+000
 1.5439663988e+000	 2.3198555333e+000	-1.1702816794e+000
 1.5185137887e+000	 2.3365953974e+000	-1.1418470217e+000
 1.4929091806e+000	 2.3530373208e+000	-1.1089694019e+000
 1.4671577324e+000	 2.3691793816e+000	-1.0708131251e+000
 1.4412646300e+000	 2.3850197750e+000	-1.0266552318e+000
 1.4152350845e+000	 2.4005568140e+000	-9.7588977735e-001
 1.3890743283e+000	 2.4157889297e+000	-9.1803089895e-001
 1.3627876125e+000	 2.4307146712e+000	-8.5271466038e-001
 1.6348581571e+000	 2.2895723795e+000	-1.2282360798e+000
 1.6096532362e+000	 2.3073619963e+000	-1.2082861402e+000
 1.5842794452e+000	 2.3248573486e+000	-1.1868884379e+000
 1.5587418861e+000	 2.3420561434e+000	-1.1625744045e+000
 1.5330456990e+000	 2.3589562050e+000	-1.1339901822e+000
 1.5071960593e+000	 2.3755554748e+000	-1.0999052879e+000
 1.4811981742e+000	 2.3918520123e+000	-1.0592200493e+000
 1.4550572794e+000	 2.4078439955e+000	-1.0109717732e+000
 1.4287786357e+000	 2.4235297212e+000	-9.5433961137e-001
 1.4023675257e+000	 2.4389076055e+000	-8.8864810388e-001
 1.3758292506e+000	 2.4539761837e+000	-8.1336938621e-001
 1.6503551590e+000	 2.3112754902e+000	-1.2146398611e+000
 1.6249113179e+000	 2.3292337368e+000	-1.1957866345e+000
 1.5992970059e+000	 2.3468949294e+000	-1.1755912997e+000
 1.5735173734e+000	 2.3642567535e+000	-1.1522160911e+000
 1.5475776093e+000	 2.3813170127e+000	-1.1239612093e+000
 1.5214829380e+000	 2.3980736288e+000	-1.0892744857e+000
 1.4952386161e+000	 2.4145246430e+000	-1.0467597091e+000
 1.4688499289e+000	 2.4306682159e+000	-9.9518357126e-001
 1.4423221870e+000	 2.4465026284e+000	-9.3348119383e-001
 1.4156607231e+000	 2.4620262814e+000	-8.6076021448e-001
 1.3888708888e+000	 2.4772376963e+000	-7.7630341721e-001
 1.6658521609e+000	 2.3329786009e+000	-1.1969239282e+000
 1.6401693995e+000	 2.3511054772e+000	-1.1790491050e+000
 1.6143145666e+000	 2.3689325102e+000	-1.1601758288e+000
 1.5882928607e+000	 2.3864573637e+000	-1.1380609349e+000
 1.5621095196e+000	 2.4036778204e+000	-1.1106239104e+000
 1.5357698167e+000	 2.4205917828e+000	-1.0759576524e+000
 1.5092790580e+000	 2.4371972736e+000	-1.0323377735e+000
 1.4826425783e+000	 2.4534924364e+000	-9.7823040447e-001
 1.4558657382e+000	 2.4694755356e+000	-9.1229845707e-001
 1.4289539205e+000	 2.4851449573e+000	-8.3340631964e-001
 1.4019125270e+000	 2.5004992089e+000	-7.4062297100e-001
 1.2714961454e+000	 2.2678840830e+000	-1.1494947858e+000
 1.2468614399e+000	 2.2815208497e+000	-1.0661141351e+000
 1.2221190831e+000	 2.2948694778e+000	-1.0027472558e+000
 1.1972740064e+000	 2.3079289465e+000	-9.5488795116e-001
 1.1723311464e+000	 2.3206983446e+000	-9.1828530462e-001
 1.1472954414e+000	 2.3331768706e+000	-8.8894376468e-001
 1.1221718289e+000	 2.3453638315e+000	-8.6312189516e-001
 1.0969652426e+000	 2.3572586430e+000	-8.3732997021e-001
 1.0716806093e+000	 2.3688608284e+000	-8.0832659367e-001
 1.0463228464e+000	 2.3801700182e+000	-7.7311452058e-001
 1.0208968588e+000	 2.3911859489e+000	-7.2893585507e-001
 1.2845377836e+000	 2.2911455956e+000	-1.1079157742e+000
 1.2596504017e+000	 2.3049222336e+000	-1.0292828974e+000
 1.2346542645e+000	 2.3184077775e+000	-9.6952633901e-001
 1.2095543538e+000	 2.3316011962e+000	-9.2431830531e-001
 1.1843556568e+000	 2.3445015691e+000	-8.8958577088e-001
 1.1590631625e+000	 2.3571080863e+000	-8.6150884820e-001
 1.1336818591e+000	 2.3694200479e+000	-8.3651780051e-001
 1.1082167307e+000	 2.3814368636e+000	-8.1128889476e-001
 1.0826727548e+000	 2.3931580517e+000	-7.8273929102e-001
 1.0570548993e+000	 2.4045832390e+000	-7.4802116250e-001
 1.0313681194e+000	 2.4157121593e+000	-7.0451523648e-001
 1.2975794217e+000	 2.3144071082e+000	-1.0702845936e+000
 1.2724393636e+000	 2.3283236174e+000	-9.9916839773e-001
 1.2471894459e+000	 2.3419460772e+000	-9.4531913847e-001
 1.2218347012e+000	 2.3552734458e+000	-9.0466169900e-001
 1.1963801672e+000	 2.3683047935e+000	-8.7337278766e-001
 1.1708308836e+000	 2.3810393020e+000	-8.4787736520e-001
 1.1451918892e+000	 2.3934762643e+000	-8.2484369879e-001
 1.1194682188e+000	 2.4056150842e+000	-8.0117725794e-001
 1.0936649004e+000	 2.4174552750e+000	-7.7401366683e-001
 1.0677869523e+000	 2.4289964598e+000	-7.4071092463e-001
 1.0418393799e+000	 2.4402383696e+000	-6.9884110094e-001
 1.3106210599e+000	 2.3376686208e+000	-1.0325789318e+000
 1.2852283255e+000	 2.3517250013e+000	-9.7184995520e-001
 1.2597246273e+000	 2.3654843769e+000	-9.2625316505e-001
 1.2341150486e+000	 2.3789456955e+000	-8.9204042825e-001
 1.2084046776e+000	 2.3921080179e+000	-8.6571015076e-001
 1.1825986047e+000	 2.4049705176e+000	-8.4400152688e-001
 1.1567019193e+000	 2.4175324807e+000	-8.2388740414e-001
 1.1307197069e+000	 2.4297933047e+000	-8.0256599852e-001
 1.1046570460e+000	 2.4417524983e+000	-7.7745169364e-001
 1.0785190052e+000	 2.4534096806e+000	-7.4616515439e-001
 1.0523106405e+000	 2.4647645800e+000	-7.0652297992e-001
 1.3236626980e+000	 2.3609301334e+000	-9.9097743129e-001
 1.2980172874e+000	 2.3751263852e+000	-9.4358116529e-001
 1.2722598088e+000	 2.3890226766e+000	-9.0860506735e-001
 1.2463953960e+000	 2.4026179452e+000	-8.8270247293e-001
 1.2204291880e+000	 2.4159112423e+000	-8.6276571488e-001
 1.1943663258e+000	 2.4289017333e+000	-8.4591795002e-001
 1.1682119494e+000	 2.4415886971e+000	-8.2950359549e-001
 1.1419711950e+000	 2.4539715253e+000	-8.1107763020e-001
 1.1156491916e+000	 2.4660497216e+000	-7.8839401597e-001
 1.0892510582e+000	 2.4778229014e+000	-7.5939348826e-001
 1.0627819010e+000	 2.4892907903e+000	-7.2219096070e-001
 1.3367043362e+000	 2.3841916460e+000	-9.4244014220e-001
 1.3108062492e+000	 2.3985277690e+000	-9.1081761972e-001
 1.2847949902e+000	 2.4125609764e+000	-8.8882793298e-001
 1.2586757434e+000	 2.4262901949e+000	-8.7304826304e-001
 1.2324536984e+000	 2.4397144667e+000	-8.6083750720e-001
 1.2061340469e+000	 2.4528329490e+000	-8.4977299897e-001
 1.1797219796e+000	 2.4656449135e+000	-8.3763826671e-001
 1.1532226831e+000	 2.4781497459e+000	-8.2240967916e-001
 1.1266413371e+000	 2.4903469449e+000	-8.0224225363e-001
 1.0999831111e+000	 2.5022361221e+000	-7.7545489837e-001
 1.0732531616e+000	 2.5138170006e+000	-7.4051535337e-001
 1.3497459743e+000	 2.4074531586e+000	-8.9535746003e-001
 1.3235952111e+000	 2.4219291529e+000	-8.7024446881e-001
 1.2973301716e+000	 2.4360992761e+000	-8.6357841701e-001
 1.2709560908e+000	 2.4499624445e+000	-8.5965726264e-001
 1.2444782088e+000	 2.4635176911e+000	-8.5637965505e-001
 1.2179017679e+000	 2.4767641647e+000	-8.5184794417e-001
 1.1912320097e+000	 2.4897011299e+000	-8.4435300271e-001
 1.1644741712e+000	 2.5023279664e+000	-8.3235796316e-001
 1.1376334827e+000	 2.5146441682e+000	-8.1448116874e-001
 1.1107151641e+000	 2.5266493429e+000	-7.8947863195e-001
 1.0837244221e+000	 2.5383432110e+000	-7.5622628663e-001
 1.3627876125e+000	 2.4307146712e+000	-8.5271466038e-001
 1.3363841730e+000	 2.4453305367e+000	-8.1929739796e-001
 1.3098653530e+000	 2.4596375758e+000	-8.2974370934e-001
 1.2832364381e+000	 2.4736346942e+000	-8.3931438367e-001
 1.2565027191e+000	 2.4873209155e+000	-8.4602814008e-001
 1.2296694890e+000	 2.5006953804e+000	-8.4858394993e-001
 1.2027420398e+000	 2.5137573464e+000	-8.4584909283e-001
 1.1757256594e+000	 2.5265061870e+000	-8.3683972249e-001
 1.1486256283e+000	 2.5389413915e+000	-8.2070070551e-001
 1.1214472170e+000	 2.5510625637e+000	-7.9668505065e-001
 1.0941956827e+000	 2.5628694213e+000	-7.6413323722e-001
 1.3758292506e+000	 2.4539761837e+000	-8.1336938621e-001
 1.3491731349e+000	 2.4687319206e+000	-7.6720091738e-001
 1.3224005345e+000	 2.4831758755e+000	-7.8446835146e-001
 1.2955167855e+000	 2.4973069439e+000	-8.0903624087e-001
 1.2685272295e+000	 2.5111241399e+000	-8.2662639050e-001
 1.2414372101e+000	 2.5246265961e+000	-8.3660690240e-001
 1.2142520700e+000	 2.5378135628e+000	-8.3849149271e-001
 1.1869771475e+000	 2.5506844076e+000	-8.3191661294e-001
 1.1596177739e+000	 2.5632386148e+000	-8.1661791130e-001
 1.1321792700e+000	 2.5754757845e+000	-7.9240637654e-001
 1.1046669432e+000	 2.5873956317e+000	-7.5914449735e-001
 1.3888708888e+000	 2.4772376963e+000	-7.7630341721e-001
 1.3619620967e+000	 2.4921333044e+000	-7.1772062673e-001
 1.3349357159e+000	 2.5067141752e+000	-7.2532967166e-001
 1.3077971329e+000	 2.5209791935e+000	-7.6609725821e-001
 1.2805517399e+000	 2.5349273643e+000	-7.9525072199e-001
 1.2532049312e+000	 2.5485578118e+000	-8.1275208855e-001
 1.2257621001e+000	 2.5618697792e+000	-8.1883264422e-001
 1.1982286356e+000	 2.5748626282e+000	-8.1381756961e-001
 1.1706099194e+000	 2.5875358381e+000	-7.9809874677e-001
 1.1429113229e+000	 2.5998890053e+000	-7.7210735083e-001
 1.1151382038e+000	 2.6119218420e+000	-7.3628658418e-001
 1.4019125270e+000	 2.5004992089e+000	-7.4062297100e-001
 1.3747510586e+000	 2.5155346883e+000	-6.7001434385e-001
 1.3474708973e+000	 2.5302524749e+000	-6.6105803476e-001
 1.3200774803e+000	 2.5446514432e+000	-7.0805563670e-001
 1.2925762503e+000	 2.5587305887e+000	-7.4923563719e-001
 1.2649726523e+000	 2.5724890275e+000	-7.7408873556e-001
 1.2372721302e+000	 2.5859259956e+000	-7.8363616298e-001
 1.2094801237e+000	 2.5990408487e+000	-7.7896155006e-001
 1.1816020650e+000	 2.6118330614e+000	-7.6117979228e-001
 1.1536433759e+000	 2.6243022261e+000	-7.3140581098e-001
 1.1256094643e+000	 2.6364480523e+000	-6.9072359518e-001
 1.0208968588e+000	 2.3911859489e+000	-7.2893585507e-001
 9.9540370841e-001	 2.4019100494e+000	-6.7992520832e-001
 9.6985207964e-001	 2.4123405929e+000	-6.3131872061e-001
 9.4424682737e-001	 2.4224776311e+000	-5.8241496182e-001
 9.1859278331e-001	 2.4323213176e+000	-5.3265035847e-001
 8.9289475342e-001	 2.4418719075e+000	-4.8161244652e-001
 8.6715751542e-001	 2.4511297553e+000	-4.2903363902e-001
 8.4138581636e-001	 2.4600953141e+000	-3.7478549164e-001
 8.1558437022e-001	 2.4687691339e+000	-3.1887356513e-001
 7.8975785560e-001	 2.4771518603e+000	-2.6143297034e-001
 7.6391091347e-001	 2.4852442329e+000	-2.0272466752e-001
 1.0313681194e+000	 2.4157121593e+000	-7.0451523648e-001
 1.0056134877e+000	 2.4265462560e+000	-6.5601214285e-001
 9.7979977781e-001	 2.4370837848e+000	-6.0740779883e-001
 9.5393189444e-001	 2.4473247978e+000	-5.5810932106e-001
 9.2801471883e-001	 2.4572694503e+000	-5.0764446024e-001
 9.0205310622e-001	 2.4669179998e+000	-4.5567145063e-001
 8.7605188335e-001	 2.4762708047e+000	-4.0197167741e-001
 8.5001584595e-001	 2.4853283225e+000	-3.4644297707e-001
 8.2394975636e-001	 2.4940911090e+000	-2.8909367757e-001
 7.9785834117e-001	 2.5025598164e+000	-2.3003747008e-001
 7.7174628894e-001	 2.5107351918e+000	-1.6948918930e-001
 1.0418393799e+000	 2.4402383696e+000	-6.9884110094e-001
 1.0158232669e+000	 2.4511824626e+000	-6.5186340107e-001
 9.8974747599e-001	 2.4618269767e+000	-6.0438186116e-001
 9.6361696152e-001	 2.4721719645e+000	-5.5582280789e-001
 9.3743665434e-001	 2.4822175829e+000	-5.0580320386e-001
 9.1121145902e-001	 2.4919640921e+000	-4.5402894206e-001
 8.8494625128e-001	 2.5014118540e+000	-4.0030795700e-001
 8.5864587555e-001	 2.5105613309e+000	-3.4454247184e-001
 8.3231514251e-001	 2.5194130841e+000	-2.8672213449e-001
 8.0595882675e-001	 2.5279677725e+000	-2.2691814144e-001
 7.7958166442e-001	 2.5362261507e+000	-1.6527843166e-001
 1.0523106405e+000	 2.4647645800e+000	-7.0652297992e-001
 1.0260330462e+000	 2.4758186692e+000	-6.6176080483e-001
 9.9969517417e-001	 2.4865701686e+000	-6.1615332249e-001
 9.7330202859e-001	 2.4970191312e+000	-5.6919594593e-001
 9.4685858986e-001	 2.5071657156e+000	-5.2054936059e-001
 9.2036981182e-001	 2.5170101845e+000	-4.6994621499e-001
 8.9384061921e-001	 2.5265529034e+000	-4.1720059110e-001
 8.6727590514e-001	 2.5357943393e+000	-3.6219910333e-001
 8.4068052866e-001	 2.5447350592e+000	-3.0489304276e-001
 8.1405931232e-001	 2.5533757285e+000	-2.4529167271e-001
 7.8741703990e-001	 2.5617171096e+000	-1.8345676388e-001
 1.0627819010e+000	 2.4892907903e+000	-7.2219096070e-001
 1.0362428255e+000	 2.5004548758e+000	-6.7993007673e-001
 1.0096428723e+000	 2.5113133605e+000	-6.3664032217e-001
 9.8298709567e-001	 2.5218662979e+000	-5.9186606666e-001
 9.5628052538e-001	 2.5321138482e+000	-5.4529265308e-001
 9.2952816462e-001	 2.5420562768e+000	-4.9666076382e-001
 9.0273498714e-001	 2.5516939527e+000	-4.4577229156e-001
 8.7590593474e-001	 2.5610273477e+000	-3.9248018841e-001
 8.4904591481e-001	 2.5700570343e+000	-3.3667952399e-001
 8.2215979789e-001	 2.5787836846e+000	-2.7829986654e-001
 7.9525241537e-001	 2.5872080686e+000	-2.1729908185e-001
 1.0732531616e+000	 2.5138170006e+000	-7.4051535337e-001
 1.0464526048e+000	 2.5250910825e+000	-7.0065298291e-001
 1.0195905705e+000	 2.5360565524e+000	-6.5976248597e-001
 9.9267216274e-001	 2.5467134646e+000	-6.1748295788e-001
 9.6570246090e-001	 2.5570619809e+000	-5.7344420880e-001
 9.3868651742e-001	 2.5671023691e+000	-5.2739961894e-001
 9.1162935507e-001	 2.5768350021e+000	-4.7912266733e-001
 8.8453596434e-001	 2.5862603561e+000	-4.2841657793e-001
 8.5741130095e-001	 2.5953790094e+000	-3.7510419071e-001
 8.3026028347e-001	 2.6041916407e+000	-3.1901933621e-001
 8.0308779085e-001	 2.6126990275e+000	-2.5999981524e-001
 1.0837244221e+000	 2.5383432110e+000	-7.5622628663e-001
 1.0566623840e+000	 2.5497272891e+000	-7.1826143003e-001
 1.0295382687e+000	 2.5607997443e+000	-6.7954483900e-001
 1.0023572298e+000	 2.5715606314e+000	-6.3972454204e-001
 9.7512439641e-001	 2.5820101135e+000	-5.9843106893e-001
 9.4784487023e-001	 2.5921484614e+000	-5.5539275947e-001
 9.2052372300e-001	 2.6019760514e+000	-5.1034061704e-001
 8.9316599393e-001	 2.6114933645e+000	-4.6301410792e-001
 8.6577668710e-001	 2.6207009845e+000	-4.1314973773e-001
 8.3836076904e-001	 2.6295995968e+000	-3.6047132105e-001
 8.1092316632e-001	 2.6381899864e+000	-3.0468205334e-001
 1.0941956827e+000	 2.5628694213e+000	-7.6413323722e-001
 1.0668721633e+000	 2.5743634957e+000	-7.2715565884e-001
 1.0394859669e+000	 2.5855429362e+000	-6.9000050930e-001
 1.0120422969e+000	 2.5964077981e+000	-6.5228926850e-001
 9.8454633193e-001	 2.6069582462e+000	-6.1371074912e-001
 9.5700322303e-001	 2.6171945537e+000	-5.7388659778e-001
 9.2941809093e-001	 2.6271171008e+000	-5.3251680936e-001
 9.0179602353e-001	 2.6367263729e+000	-4.8926515061e-001
 8.7414207325e-001	 2.6460229596e+000	-4.4376964106e-001
 8.4646125462e-001	 2.6550075528e+000	-3.9563161296e-001
 8.1875854180e-001	 2.6636809453e+000	-3.4440678114e-001
 1.1046669432e+000	 2.5873956317e+000	-7.5914449735e-001
 1.0770819426e+000	 2.5989997023e+000	-7.2182240861e-001
 1.0494336651e+000	 2.6102861281e+000	-6.8523971351e-001
 1.0217273640e+000	 2.6212549648e+000	-6.4900767286e-001
 9.9396826745e-001	 2.6319063788e+000	-6.1278584850e-001
 9.6616157583e-001	 2.6422406460e+000	-5.7615753087e-001
 9.3831245886e-001	 2.6522581501e+000	-5.3875624524e-001
 9.1042605312e-001	 2.6619593813e+000	-5.0016025837e-001
 8.8250745940e-001	 2.6713449347e+000	-4.5956547285e-001
 8.5456174019e-001	 2.6804155089e+000	-4.1456192199e-001
 8.2659391728e-001	 2.6891719043e+000	-3.6457478190e-001
 1.1151382038e+000	 2.6119218420e+000	-7.3628658418e-001
 1.0872917218e+000	 2.6236359089e+000	-6.9685305414e-001
 1.0593813632e+000	 2.6350293200e+000	-6.5946298553e-001
 1.0314124310e+000	 2.6461021315e+000	-6.2371035882e-001
 1.0033902030e+000	 2.6568545115e+000	-5.8921870391e-001
 9.7531992863e-001	 2.6672867384e+000	-5.5552053472e-001
 9.4720682680e-001	 2.6773991995e+000	-5.2050749207e-001
 9.1905608272e-001	 2.6871923897e+000	-4.8249281110e-001
 8.9087284554e-001	 2.6966669098e+000	-4.4117622095e-001
 8.6266222576e-001	 2.7058234650e+000	-3.9623931798e-001
 8.3442929275e-001	 2.7146628632e+000	-3.4733912101e-001
 1.1256094643e+000	 2.6364480523e+000	-6.9072359518e-001
 1.0975015011e+000	 2.6482721155e+000	-6.4696171740e-001
 1.0693290614e+000	 2.6597725119e+000	-6.0697809511e-001
 1.0410974981e+000	 2.6709492982e+000	-5.7010830724e-001
 1.0128121385e+000	 2.6818026442e+000	-5.3357244621e-001
 9.8447828143e-001	 2.6923328307e+000	-4.9642506641e-001
 9.5610119473e-001	 2.7025402488e+000	-4.5824789307e-001
 9.2768611232e-001	 2.7124253981e+000	-4.1868509433e-001
 8.9923823169e-001	 2.7219888849e+000	-3.7733617795e-001
 8.7076271134e-001	 2.7312314211e+000	-3.3377145207e-001
 8.4226466823e-001	 2.7401538221e+000	-2.8752520495e-001
 7.6391091347e-001	 2.4852442329e+000	-2.0272466752e-001
 7.3804814458e-001	 2.4930470830e+000	-1.5101246624e-001
 7.1217410630e-001	 2.5005613302e+000	-1.1460457409e-001
 6.8629331174e-001	 2.5077879826e+000	-9.4005620890e-002
 6.6041022809e-001	 2.5147281355e+000	-8.9040998777e-002
 6.3452927478e-001	 2.5213829698e+000	-8.2460686344e-002
 6.0865482159e-001	 2.5277537500e+000	-6.8702499597e-002
 5.8279118688e-001	 2.5338418223e+000	-4.9994873960e-002
 5.5694263593e-001	 2.5396486130e+000	-2.8522078624e-002
 5.3111337925e-001	 2.5451756263e+000	-6.4471089450e-003
 5.0530757112e-001	 2.5504244421e+000	 1.4060484851e-002
 7.7174628894e-001	 2.5107351918e+000	-1.6948918930e-001
 7.4561824762e-001	 2.5186180751e+000	-1.1567877991e-001
 7.1947882133e-001	 2.5262093954e+000	-7.7206698866e-002
 6.9333256944e-001	 2.5335101711e+000	-5.4976209265e-002
 6.6718400500e-001	 2.5405215086e+000	-4.9969141378e-002
 6.4103759274e-001	 2.5472446010e+000	-4.9537770179e-002
 6.1489774727e-001	 2.5536807257e+000	-4.0815153204e-002
 5.8876883126e-001	 2.5598312430e+000	-2.5999896667e-002
 5.6265515370e-001	 2.5656975935e+000	-7.1808344804e-003
 5.3656096833e-001	 2.5712812969e+000	 1.3640217216e-002
 5.1049047200e-001	 2.5765839494e+000	 3.4515317513e-002
 7.7958166442e-001	 2.5362261507e+000	-1.6527843166e-001
 7.5318835067e-001	 2.5441890673e+000	-1.0993645663e-001
 7.2678353635e-001	 2.5518574606e+000	-6.9696493622e-002
 7.0037182715e-001	 2.5592323595e+000	-4.5800804730e-002
 6.7395778190e-001	 2.5663148816e+000	-3.9535126765e-002
 6.4754591070e-001	 2.5731062321e+000	-4.4171429879e-002
 6.2114067296e-001	 2.5796077015e+000	-4.0051791211e-002
 5.9474647563e-001	 2.5858206636e+000	-2.8080418292e-002
 5.6836767148e-001	 2.5917465740e+000	-1.0142042412e-002
 5.4200855740e-001	 2.5973869675e+000	 1.2034852010e-002
 5.1567337289e-001	 2.6027434567e+000	 3.6839096650e-002
 7.8741703990e-001	 2.5617171096e+000	-1.8345676388e-001
 7.6075845371e-001	 2.5697600595e+000	-1.2735225947e-001
 7.3408825138e-001	 2.5775055259e+000	-8.5888110001e-002
 7.0741108485e-001	 2.5849545479e+000	-6.0588229721e-002
 6.8073155881e-001	 2.5921082547e+000	-5.2984324696e-002
 6.5405422866e-001	 2.5989678633e+000	-6.0921538088e-002
 6.2738359864e-001	 2.6055346773e+000	-6.1452523021e-002
 6.0072412000e-001	 2.6118100843e+000	-5.1837389973e-002
 5.7408018925e-001	 2.6177955544e+000	-3.3646784130e-002
 5.4745614648e-001	 2.6234926381e+000	-8.2220214342e-003
 5.2085627378e-001	 2.6289029640e+000	 2.3279698474e-002
 7.9525241537e-001	 2.5872080686e+000	-2.1729908185e-001
 7.6832855676e-001	 2.5953310516e+000	-1.6138870195e-001
 7.4139296640e-001	 2.6031535911e+000	-1.1947695032e-001
 7.1445034256e-001	 2.6106767363e+000	-9.3314317328e-002
 6.8750533572e-001	 2.6179016277e+000	-8.4622664173e-002
 6.6056254662e-001	 2.6248294945e+000	-9.4182717904e-002
 6.3362652433e-001	 2.6314616530e+000	-9.9866259454e-002
 6.0670176438e-001	 2.6377995049e+000	-9.2656719134e-002
 5.7979270703e-001	 2.6438445349e+000	-7.3699238561e-002
 5.5290373556e-001	 2.6495983087e+000	-4.3832315582e-002
 5.2603917466e-001	 2.6550624713e+000	-3.6398134242e-003
 8.0308779085e-001	 2.6126990275e+000	-2.5999981524e-001
 7.7589865980e-001	 2.6209020438e+000	-2.0541243683e-001
 7.4869768143e-001	 2.6288016563e+000	-1.6404748964e-001
 7.2148960026e-001	 2.6363989248e+000	-1.3782922273e-001
 6.9427911263e-001	 2.6436950007e+000	-1.2861594643e-001
 6.6707086458e-001	 2.6506911256e+000	-1.3819984458e-001
 6.3986945001e-001	 2.6573886288e+000	-1.4996173736e-001
 6.1267940875e-001	 2.6637889256e+000	-1.4571947647e-001
 5.8550522480e-001	 2.6698935154e+000	-1.2601245346e-001
 5.5835132463e-001	 2.6757039793e+000	-9.0930730842e-002
 5.3122207555e-001	 2.6812219787e+000	-4.0878912607e-002
 8.1092316632e-001	 2.6381899864e+000	-3.0468205334e-001
 7.8346876285e-001	 2.6464730359e+000	-2.5270275939e-001
 7.5600239645e-001	 2.6544497215e+000	-2.1308120621e-001
 7.2852885797e-001	 2.6621211132e+000	-1.8786483469e-001
 7.0105288954e-001	 2.6694883738e+000	-1.7889765968e-001
 6.7357918254e-001	 2.6765527568e+000	-1.8718447135e-001
 6.4611237570e-001	 2.6833156046e+000	-2.0337048423e-001
 6.1865705312e-001	 2.6897783462e+000	-2.0126654958e-001
 5.9121774258e-001	 2.6959424958e+000	-1.8022758970e-001
 5.6379891371e-001	 2.7018096500e+000	-1.4050240113e-001
 5.3640497644e-001	 2.7073814860e+000	-8.2060399723e-002
 8.1875854180e-001	 2.6636809453e+000	-3.4440678114e-001
 7.9103886589e-001	 2.6720440281e+000	-2.9603185858e-001
 7.6330711148e-001	 2.6800977867e+000	-2.5737303010e-001
 7.3556811568e-001	 2.6878433016e+000	-2.3089310824e-001
 7.0782666644e-001	 2.6952817468e+000	-2.1909965513e-001
 6.8008750051e-001	 2.7024143880e+000	-2.2439982492e-001
 6.5235530138e-001	 2.7092425803e+000	-2.4336008070e-001
 6.2463469750e-001	 2.7157677669e+000	-2.4532308845e-001
 5.9693026035e-001	 2.7219914763e+000	-2.2546664631e-001
 5.6924650279e-001	 2.7279153206e+000	-1.8353020654e-001
 5.4158787733e-001	 2.7335409933e+000	-1.1895789056e-001
 8.2659391728e-001	 2.6891719043e+000	-3.6457478190e-001
 7.9860896894e-001	 2.6976150202e+000	-3.1573478272e-001
 7.7061182650e-001	 2.7057458519e+000	-2.7620145752e-001
 7.4260737338e-001	 2.7135654900e+000	-2.4868986571e-001
 7.1460044335e-001	 2.7210751199e+000	-2.3578969002e-001
 6.8659581847e-001	 2.7282760191e+000	-2.3996029331e-001
 6.5859822707e-001	 2.7351695561e+000	-2.6162188854e-001
 6.3061234187e-001	 2.7417571876e+000	-2.7019572969e-001
 6.0264277813e-001	 2.7480404567e+000	-2.5396624546e-001
 5.7469409187e-001	 2.7540209912e+000	-2.1214448744e-001
 5.4677077822e-001	 2.7597005006e+000	-1.4363309325e-001
 8.3442929275e-001	 2.7146628632e+000	-3.4733912101e-001
 8.0617907199e-001	 2.7231860124e+000	-2.9987180692e-001
 7.7791654153e-001	 2.7313939171e+000	-2.6141313634e-001
 7.4964663109e-001	 2.7392876785e+000	-2.3475612899e-001
 7.2137422026e-001	 2.7468684929e+000	-2.2254005167e-001
 6.9310413643e-001	 2.7541376503e+000	-2.2724487802e-001
 6.6484115276e-001	 2.7610965319e+000	-2.5108296438e-001
 6.3658998625e-001	 2.7677466082e+000	-2.6862789277e-001
 6.0835529590e-001	 2.7740894372e+000	-2.5831259555e-001
 5.8014168094e-001	 2.7801266618e+000	-2.1880510736e-001
 5.5195367911e-001	 2.7858600079e+000	-1.4845495711e-001
 8.4226466823e-001	 2.7401538221e+000	-2.8752520495e-001
 8.1374917503e-001	 2.7487570045e+000	-2.4313094068e-001
 7.8522125655e-001	 2.7570419823e+000	-2.0743377272e-001
 7.5668588880e-001	 2.7650098669e+000	-1.8327300060e-001
 7.2814799717e-001	 2.7726618660e+000	-1.7330674833e-001
 6.9961245439e-001	 2.7799992815e+000	-1.8000583897e-001
 6.7108407844e-001	 2.7870235076e+000	-2.0564879224e-001
 6.4256763062e-001	 2.7937360289e+000	-2.3372579449e-001
 6.1406781368e-001	 2.8001384177e+000	-2.3143776254e-001
 5.8558927002e-001	 2.8062323324e+000	-1.9629854275e-001
 5.5713657999e-001	 2.8120195152e+000	-1.2609758091e-001
 5.0530757112e-001	 2.5504244421e+000	 1.4060484851e-002
 4.7953317130e-001	 2.5553959897e+000	 3.3188499122e-002
 4.5379033791e-001	 2.5600928041e+000	 5.2352949275e-002
 4.2808304028e-001	 2.5645166823e+000	 7.0965696096e-002
 4.0241518616e-001	 2.5686694892e+000	 8.8101676827e-002
 3.7679062058e-001	 2.5725531550e+000	 1.0245772817e-001
 3.5121312474e-001	 2.5761696735e+000	 1.1231078331e-001
 3.2568641496e-001	 2.5795211000e+000	 1.1547607149e-001
 3.0021414174e-001	 2.5826095490e+000	 1.0926592615e-001
 2.7479988887e-001	 2.5854371919e+000	 9.0449780658e-002
 2.4944717263e-001	 2.5880062554e+000	 5.5215900562e-002
 5.1049047200e-001	 2.5765839494e+000	 3.4515317513e-002
 4.8445170615e-001	 2.5816064898e+000	 5.3812278499e-002
 4.5844483050e-001	 2.5863514790e+000	 7.1166126778e-002
 4.3247385509e-001	 2.5908207327e+000	 8.6326365635e-002
 4.0654272777e-001	 2.5950161345e+000	 9.8722272804e-002
 3.8065533300e-001	 2.5989396348e+000	 1.0741552689e-001
 3.5481549075e-001	 2.6025932477e+000	 1.1105211965e-001
 3.2902695547e-001	 2.6059790495e+000	 1.0781423497e-001
 3.0329341510e-001	 2.6090991765e+000	 9.5372750937e-002
 2.7761849019e-001	 2.6119558223e+000	 7.0840992812e-002
 2.5200573309e-001	 2.6145512364e+000	 3.0730332199e-002
 5.1567337289e-001	 2.6027434567e+000	 3.6839096650e-002
 4.8937024100e-001	 2.6078169899e+000	 6.0689203034e-002
 4.6309932309e-001	 2.6126101540e+000	 8.1276442214e-002
 4.3686466991e-001	 2.6171247830e+000	 9.8756045057e-002
 4.1067026938e-001	 2.6213627799e+000	 1.1298327248e-001
 3.8452004541e-001	 2.6253261146e+000	 1.2345933640e-001
 3.5841785675e-001	 2.6290168219e+000	 1.2927651072e-001
 3.3236749597e-001	 2.6324369990e+000	 1.2906316865e-001
 3.0637268845e-001	 2.6355888040e+000	 1.2092945629e-001
 2.8043709151e-001	 2.6384744527e+000	 1.0241428207e-001
 2.5456429355e-001	 2.6410962175e+000	 7.0434266580e-002
 5.2085627378e-001	 2.6289029640e+000	 2.3279698474e-002
 4.9428877585e-001	 2.6340274900e+000	 5.5225581815e-002
 4.6775381568e-001	 2.6388688289e+000	 8.3228776817e-002
 4.4125548472e-001	 2.6434288333e+000	 1.0792278049e-001
 4.1479781099e-001	 2.6477094252e+000	 1.2966513545e-001
 3.8838475782e-001	 2.6517125944e+000	 1.4847611240e-001
 3.6202022276e-001	 2.6554403960e+000	 1.6397647877e-001
 3.3570803648e-001	 2.6588949485e+000	 1.7532514858e-001
 3.0945196181e-001	 2.6620784314e+000	 1.8115748026e-001
 2.8325569283e-001	 2.6649930831e+000	 1.7952495696e-001
 2.5712285401e-001	 2.6676411986e+000	 1.6777367262e-001
 5.2603917466e-001	 2.6550624713e+000	-3.6398134241e-003
 4.9920731071e-001	 2.6602379901e+000	 3.9118643606e-002
 4.7240830827e-001	 2.6651275039e+000	 7.7871254546e-002
 4.4564629954e-001	 2.6697328837e+000	 1.1369369228e-001
 4.1892535260e-001	 2.6740560706e+000	 1.4690989949e-001
 3.9224947023e-001	 2.6780990742e+000	 1.7757922287e-001
 3.6562258876e-001	 2.6818639702e+000	 2.0538724640e-001
 3.3904857699e-001	 2.6853528980e+000	 2.2957720385e-001
 3.1253123517e-001	 2.6885680589e+000	 2.4890309457e-001
 2.8607429415e-001	 2.6915117135e+000	 2.6158527939e-001
 2.5968141448e-001	 2.6941861797e+000	 2.6526823604e-001
 5.3122207555e-001	 2.6812219787e+000	-4.0878912607e-002
 5.0412584556e-001	 2.6864484902e+000	 1.3543515515e-002
 4.7706280086e-001	 2.6913861789e+000	 6.2758854843e-002
 4.5003711435e-001	 2.6960369340e+000	 1.0778387243e-001
 4.2305289421e-001	 2.7004027160e+000	 1.4936801724e-001
 3.9611418264e-001	 2.7044855541e+000	 1.8793879570e-001
 3.6922495477e-001	 2.7082875444e+000	 2.2355070167e-001
 3.4238911749e-001	 2.7118108475e+000	 2.5583730071e-001
 3.1561050853e-001	 2.7150576864e+000	 2.8396608154e-001
 2.8889289548e-001	 2.7180303439e+000	 3.0659570438e-001
 2.6223997494e-001	 2.7207311608e+000	 3.2183529558e-001
 5.3640497644e-001	 2.7073814860e+000	-8.2060399723e-002
 5.0904438041e-001	 2.7126589902e+000	-1.8067285325e-002
 4.8171729345e-001	 2.7176448538e+000	 3.9173601811e-002
 4.5442792917e-001	 2.7223409843e+000	 9.0965890868e-002
 4.2718043582e-001	 2.7267493613e+000	 1.3836284487e-001
 3.9997889506e-001	 2.7308720339e+000	 1.8211485002e-001
 3.7282732077e-001	 2.7347111186e+000	 2.2262047567e-001
 3.4572965800e-001	 2.7382687970e+000	 2.5988066598e-001
 3.1868978189e-001	 2.7415473139e+000	 2.9345563961e-001
 2.9171149680e-001	 2.7445489743e+000	 3.2242409251e-001
 2.6479853540e-001	 2.7472761419e+000	 3.4534432102e-001
 5.4158787733e-001	 2.7335409933e+000	-1.1895789056e-001
 5.1396291526e-001	 2.7388694903e+000	-4.7594555215e-002
 4.8637178604e-001	 2.7439035288e+000	 1.5383198759e-002
 4.5881874398e-001	 2.7486450347e+000	 7.1534018186e-002
 4.3130797743e-001	 2.7530960067e+000	 1.2218396445e-001
 4.0384360747e-001	 2.7572585137e+000	 1.6837646909e-001
 3.7642968678e-001	 2.7611346927e+000	 2.1082587216e-001
 3.4907019851e-001	 2.7647267465e+000	 2.4987406328e-001
 3.2176905525e-001	 2.7680369414e+000	 2.8544976267e-001
 2.9453009812e-001	 2.7710676047e+000	 3.1703000033e-001
 2.6735709587e-001	 2.7738211230e+000	 3.4360337650e-001
 5.4677077822e-001	 2.7597005006e+000	-1.4363309325e-001
 5.1888145011e-001	 2.7650799904e+000	-6.7053221297e-002
 4.9102627863e-001	 2.7701622037e+000	-5.8576315161e-004
 4.6320955880e-001	 2.7749490850e+000	 5.7547637986e-002
 4.3543551904e-001	 2.7794426520e+000	 1.0891128692e-001
 4.0770831988e-001	 2.7836449935e+000	 1.5480823252e-001
 3.8003205278e-001	 2.7875582669e+000	 1.9623665473e-001
 3.5241073901e-001	 2.7911846960e+000	 2.3384931839e-001
 3.2484832861e-001	 2.7945265689e+000	 2.6791558988e-001
 2.9734869945e-001	 2.7975862351e+000	 2.9828553548e-001
 2.6991565633e-001	 2.8003661041e+000	 3.2435564802e-001
 5.5195367911e-001	 2.7858600079e+000	-1.4845495711e-001
 5.2379998497e-001	 2.7912904905e+000	-6.8741809886e-002
 4.9568077122e-001	 2.7964208787e+000	-9.6618025002e-004
 4.6760037362e-001	 2.8012531354e+000	 5.6831078881e-002
 4.3956306065e-001	 2.8057892974e+000	 1.0641426897e-001
 4.1157303229e-001	 2.8100314733e+000	 1.4930887929e-001
 3.8363441879e-001	 2.8139818411e+000	 1.8676121501e-001
 3.5575127952e-001	 2.8176426455e+000	 2.1970104960e-001
 3.2792760197e-001	 2.8210161963e+000	 2.4870675306e-001
 3.0016730077e-001	 2.8241048655e+000	 2.7397237358e-001
 2.7247421679e-001	 2.8269110851e+000	 2.9527618021e-001
 5.5713657999e-001	 2.8120195152e+000	-1.2609758091e-001
 5.2871851982e-001	 2.8175009906e+000	-4.5241141189e-002
 5.0033526381e-001	 2.8226795537e+000	 2.1750147652e-002
 4.7199118843e-001	 2.8275571857e+000	 7.6973540648e-002
 4.4369060226e-001	 2.8321359428e+000	 1.2235124306e-001
 4.1543774471e-001	 2.8364179532e+000	 1.5959010118e-001
 3.8723678479e-001	 2.8404054153e+000	 1.9014488727e-001
 3.5909182003e-001	 2.8441005950e+000	 2.1518455903e-001
 3.3100687533e-001	 2.8475058238e+000	 2.3556089804e-001
 3.0298590209e-001	 2.8506234959e+000	 2.5177896077e-001
 2.7503277725e-001	 2.8534560662e+000	 2.6396880871e-001
 2.4944717263e-001	 2.5880062554e+000	 5.5215900562e-002
 2.2415566136e-001	 2.5903193466e+000	 1.6685514028e-002
 1.9893258713e-001	 2.5923783926e+000	-1.0441150872e-002
 1.7378131182e-001	 2.5941857736e+000	-2.8722322412e-002
 1.4870512563e-001	 2.5957439165e+000	-4.1587083105e-002
 1.2370724665e-001	 2.5970552924e+000	-5.3358627236e-002
 9.8790820418e-002	 2.5981224149e+000	-6.9272999401e-002
 7.3958919674e-002	 2.5989478376e+000	-9.5493050358e-002
 4.9214544039e-002	 2.5995341519e+000	-1.3911739143e-001
 2.4560619845e-002	 2.5998839856e+000	-2.0818417364e-001
 0.0000000000e+000	 2.6000000000e+000	-3.1166958208e-001
 2.5200573309e-001	 2.6145512364e+000	 3.0730332199e-002
 2.2645480873e-001	 2.6168880529e+000	-1.2847341604e-002
 2.0097302338e-001	 2.6189682184e+000	-4.6043161698e-002
 1.7556377337e-001	 2.6207941375e+000	-7.0915342923e-002
 1.5023038267e-001	 2.6223682622e+000	-9.0449145739e-002
 1.2497610236e-001	 2.6236930888e+000	-1.0858525528e-001
 9.9804110264e-002	 2.6247711567e+000	-1.3024328237e-001
 7.4717510624e-002	 2.6256050456e+000	-1.6134009704e-001
 4.9719333832e-002	 2.6261973738e+000	-2.0880275313e-001
 2.4812536234e-002	 2.6265507956e+000	-2.8057581121e-001
 0.0000000000e+000	 2.6266680000e+000	-3.8562293356e-001
 2.5456429355e-001	 2.6410962175e+000	 7.0434266580e-002
 2.2875395611e-001	 2.6434567592e+000	 3.6067970349e-002
 2.0301345962e-001	 2.6455580441e+000	 1.2230250704e-002
 1.7734623492e-001	 2.6474025015e+000	-2.6355498827e-003
 1.5175563971e-001	 2.6489926079e+000	-1.1068058684e-002
 1.2624495807e-001	 2.6503308852e+000	-1.6621784718e-002
 1.0081740011e-001	 2.6514198985e+000	-2.3895780410e-002
 7.5476101575e-002	 2.6522622537e+000	-3.8556735639e-002
 5.0224123625e-002	 2.6528605956e+000	-6.7356238671e-002
 2.5064452623e-002	 2.6532176057e+000	-1.1814199029e-001
 0.0000000000e+000	 2.6533360000e+000	-1.9986282725e-001
 2.5712285401e-001	 2.6676411986e+000	 1.6777367262e-001
 2.3105310349e-001	 2.6700254655e+000	 1.5521709383e-001
 2.0505389587e-001	 2.6721478699e+000	 1.5348944165e-001
 1.7912869647e-001	 2.6740108654e+000	 1.6150748625e-001
 1.5328089674e-001	 2.6756169535e+000	 1.7723804786e-001
 1.2751381379e-001	 2.6769686815e+000	 1.9766114314e-001
 1.0183068996e-001	 2.6780686402e+000	 2.1873440265e-001
 7.6234692526e-002	 2.6789194617e+000	 2.3535861198e-001
 5.0728913418e-002	 2.6795238174e+000	 2.4134425337e-001
 2.5316369012e-002	 2.6798844157e+000	 2.2937894829e-001
 0.0000000000e+000	 2.6800040000e+000	 1.9099570837e-001
 2.5968141448e-001	 2.6941861797e+000	 2.6526823604e-001
 2.3335225087e-001	 2.6965941718e+000	 2.6875162120e-001
 2.0709433211e-001	 2.6987376957e+000	 2.8283554655e-001
 1.8091115802e-001	 2.7006192293e+000	 3.0703504554e-001
 1.5480615378e-001	 2.7022412992e+000	 3.3993781573e-001
 1.2878266950e-001	 2.7036064779e+000	 3.7916777469e-001
 1.0284397981e-001	 2.7047173820e+000	 4.2134967425e-001
 7.6993283478e-002	 2.7055766698e+000	 4.6207461422e-001
 5.1233703212e-002	 2.7061870393e+000	 4.9586632321e-001
 2.5568285401e-002	 2.7065512258e+000	 5.1614810065e-001
 0.0000000000e+000	 2.7066720000e+000	 5.1521032535e-001
 2.6223997494e-001	 2.7207311608e+000	 3.2183529558e-001
 2.3565139824e-001	 2.7231628781e+000	 3.3736494646e-001
 2.0913476836e-001	 2.7253275214e+000	 3.6287268623e-001
 1.8269361957e-001	 2.7272275933e+000	 3.9839685306e-001
 1.5633141081e-001	 2.7288656449e+000	 4.4307735020e-001
 1.3005152522e-001	 2.7302442743e+000	 4.9511984121e-001
 1.0385726965e-001	 2.7313661237e+000	 5.5176076505e-001
 7.7751874430e-002	 2.7322338778e+000	 6.0923299985e-001
 5.1738493006e-002	 2.7328502611e+000	 6.6273203341e-001
 2.5820201790e-002	 2.7332180358e+000	 7.0638252764e-001
 0.0000000000e+000	 2.7333400000e+000	 7.3320518016e-001
 2.6479853540e-001	 2.7472761419e+000	 3.4534432102e-001
 2.3795054562e-001	 2.7497315844e+000	 3.6873570189e-001
 2.1117520460e-001	 2.7519173472e+000	 4.0108936591e-001
 1.8447608112e-001	 2.7538359572e+000	 4.4289103035e-001
 1.5785666785e-001	 2.7554899906e+000	 4.9376323072e-001
 1.3132038093e-001	 2.7568820706e+000	 5.5243039970e-001
 1.0487055950e-001	 2.7580148655e+000	 6.1668450098e-001
 7.8510465381e-002	 2.7588910859e+000	 6.8335103346e-001
 5.2243282800e-002	 2.7595134829e+000	 7.4825525387e-001
 2.6072118180e-002	 2.7598848459e+000	 8.0618849756e-001
 0.0000000000e+000	 2.7600080000e+000	 8.5087449855e-001
 2.6735709587e-001	 2.7738211230e+000	 3.4360337650e-001
 2.4024969300e-001	 2.7763002906e+000	 3.7050221530e-001
 2.1321564085e-001	 2.7785071730e+000	 4.0495219573e-001
 1.8625854267e-001	 2.7804443211e+000	 4.4780929450e-001
 1.5938192489e-001	 2.7821143363e+000	 4.9910798197e-001
 1.3258923665e-001	 2.7835198670e+000	 5.5802744467e-001
 1.0588384935e-001	 2.7846636072e+000	 6.2285806986e-001
 7.9269056333e-002	 2.7855482939e+000	 6.9096799409e-001
 5.2748072593e-002	 2.7861767048e+000	 7.5876955271e-001
 2.6324034569e-002	 2.7865516559e+000	 8.2168550252e-001
 0.0000000000e+000	 2.7866760000e+000	 8.7411491579e-001
 2.6991565633e-001	 2.8003661041e+000	 3.2435564802e-001
 2.4254884037e-001	 2.8028689969e+000	 3.5025883022e-001
 2.1525607709e-001	 2.8050969987e+000	 3.8190212171e-001
 1.8804100421e-001	 2.8070526851e+000	 4.2043321903e-001
 1.6090718192e-001	 2.8087386819e+000	 4.6622648515e-001
 1.3385809236e-001	 2.8101576634e+000	 5.1885059100e-001
 1.0689713920e-001	 2.8113123490e+000	 5.7703609795e-001
 8.0027647284e-002	 2.8122055020e+000	 6.3864276825e-001
 5.3252862387e-002	 2.8128399266e+000	 7.0062642934e-001
 2.6575950958e-002	 2.8132184660e+000	 7.5900525552e-001
 0.0000000000e+000	 2.8133440000e+000	 8.0882536249e-001
 2.7247421679e-001	 2.8269110851e+000	 2.9527618021e-001
 2.4484798775e-001	 2.8294377032e+000	 3.1555244260e-001
 2.1729651334e-001	 2.8316868245e+000	 3.3935087489e-001
 1.8982346576e-001	 2.8336610490e+000	 3.6803070896e-001
 1.6243243896e-001	 2.8353630276e+000	 4.0223259306e-001
 1.3512694807e-001	 2.8367954597e+000	 4.4184794426e-001
 1.0791042904e-001	 2.8379610907e+000	 4.8598789112e-001
 8.0786238235e-002	 2.8388627100e+000	 5.3295157836e-001
 5.3757652180e-002	 2.8395031484e+000	 5.8019364688e-001
 2.6827867347e-002	 2.8398852760e+000	 6.2429074413e-001
 0.0000000000e+000	 2.8400120000e+000	 6.6090695682e-001
 2.7503277725e-001	 2.8534560662e+000	 2.6396880871e-001
 2.4714713513e-001	 2.8560064095e+000	 2.7387924002e-001
 2.1933694958e-001	 2.8582766502e+000	 2.8467762442e-001
 1.9160592731e-001	 2.8602694129e+000	 2.9785267578e-001
 1.6395769600e-001	 2.8619873733e+000	 3.1423593582e-001
 1.3639580379e-001	 2.8634332561e+000	 3.3397314626e-001
 1.0892371889e-001	 2.8646098325e+000	 3.5649483016e-001
 8.1544829185e-002	 2.8655199181e+000	 3.8048583781e-001
 5.4262441973e-002	 2.8661663703e+000	 4.0385365745e-001
 2.7079783735e-002	 2.8665520861e+000	 4.2369533672e-001
 0.0000000000e+000	 2.8666800000e+000	 4.3626290278e-001
 2.8666800000e+000	 0.0000000000e+000	 1.2194976922e+000
 2.8665520861e+000	 2.7079783735e-002	 1.2439594760e+000
 2.8661663703e+000	 5.4262441973e-002	 1.2703152913e+000
 2.8655199181e+000	 8.1544829185e-002	 1.2955379927e+000
 2.8646098325e+000	 1.0892371889e-001	 1.3173849831e+000
 2.8634332561e+000	 1.3639580379e-001	 1.3343506450e+000
 2.8619873733e+000	 1.6395769600e-001	 1.3456204610e+000
 2.8602694129e+000	 1.9160592731e-001	 1.3510266139e+000
 2.8582766502e+000	 2.1933694958e-001	 1.3510048045e+000
 2.8560064095e+000	 2.4714713513e-001	 1.3465519671e+000
 2.8534560662e+000	 2.7503277725e-001	 1.3391845053e+000
 2.8933440000e+000	 0.0000000000e+000	 1.4693613250e+000
 2.8932148963e+000	 2.7331662338e-002	 1.4581251972e+000
 2.8928255928e+000	 5.4767156051e-002	 1.4513968699e+000
 2.8921731278e+000	 8.2303306352e-002	 1.4463387876e+000
 2.8912545771e+000	 1.0993685675e-001	 1.4408142072e+000
 2.8900670570e+000	 1.3766446918e-001	 1.4333411637e+000
 2.8886077255e+000	 1.6548272425e-001	 1.4230486891e+000
 2.8868737858e+000	 1.9338812150e-001	 1.4096350600e+000
 2.8848624877e+000	 2.2137707978e-001	 1.3933277923e+000
 2.8825711307e+000	 2.4944593765e-001	 1.3748450379e+000
 2.8799970658e+000	 2.7759095395e-001	 1.3553579756e+000
 2.9200080000e+000	 0.0000000000e+000	 1.6581900621e+000
 2.9198777065e+000	 2.7583540941e-002	 1.6224506204e+000
 2.9194848154e+000	 5.5271870128e-002	 1.5926292815e+000
 2.9188263374e+000	 8.3061783519e-002	 1.5661568203e+000
 2.9178993218e+000	 1.1094999461e-001	 1.5410777508e+000
 2.9167008579e+000	 1.3893313458e-001	 1.5160060480e+000
 2.9152280777e+000	 1.6700775251e-001	 1.4900837184e+000
 2.9134781587e+000	 1.9517031570e-001	 1.4629419790e+000
 2.9114483252e+000	 2.2341720997e-001	 1.4346647421e+000
 2.9091358519e+000	 2.5174474017e-001	 1.4057540341e+000
 2.9065380653e+000	 2.8014913065e-001	 1.3770969082e+000
 2.9466720000e+000	 0.0000000000e+000	 1.7864651951e+000
 2.9465405168e+000	 2.7835419544e-002	 1.7363219716e+000
 2.9461440379e+000	 5.5776584205e-002	 1.6924465781e+000
 2.9454795471e+000	 8.3820260685e-002	 1.6526106254e+000
 2.9445440664e+000	 1.1196313247e-001	 1.6151087119e+000
 2.9433346587e+000	 1.4020179997e-001	 1.5787161433e+000
 2.9418484300e+000	 1.6853278077e-001	 1.5426501289e+000
 2.9400825315e+000	 1.9695250989e-001	 1.5065341995e+000
 2.9380341627e+000	 2.2545734016e-001	 1.4703655203e+000
 2.9357005730e+000	 2.5404354269e-001	 1.4344846993e+000
 2.9330790648e+000	 2.8270730734e-001	 1.3995476152e+000
 2.9733360000e+000	 0.0000000000e+000	 1.8545913441e+000
 2.9732033270e+000	 2.8087298146e-002	 1.7990640738e+000
 2.9728032604e+000	 5.6281298282e-002	 1.7492368869e+000
 2.9721327568e+000	 8.4578737851e-002	 1.7032884033e+000
 2.9711888111e+000	 1.1297627033e-001	 1.6598254556e+000
 2.9699684596e+000	 1.4147046536e-001	 1.6178430680e+000
 2.9684687822e+000	 1.7005780903e-001	 1.5766885755e+000
 2.9666869044e+000	 1.9873470408e-001	 1.5360296114e+000
 2.9646200002e+000	 2.2749747036e-001	 1.4958256123e+000
 2.9622652942e+000	 2.5634234521e-001	 1.4563024094e+000
 2.9596200644e+000	 2.8526548404e-001	 1.4179293959e+000
 3.0000000000e+000	 0.0000000000e+000	 1.8628998651e+000
 2.9998661372e+000	 2.8339176748e-002	 1.8099432113e+000
 2.9994624830e+000	 5.6786012359e-002	 1.7613448012e+000
 2.9987859664e+000	 8.5337215017e-002	 1.7157500002e+000
 2.9978335557e+000	 1.1398940818e-001	 1.6721332384e+000
 2.9966022605e+000	 1.4273913076e-001	 1.6297605307e+000
 2.9950891344e+000	 1.7158283728e-001	 1.5881568382e+000
 2.9932912773e+000	 2.0051689827e-001	 1.5470779815e+000
 2.9912058377e+000	 2.2953760055e-001	 1.5064867270e+000
 2.9888300154e+000	 2.5864114773e-001	 1.4665325842e+000
 2.9861610639e+000	 2.8782366074e-001	 1.4275347641e+000
 3.0266640000e+000	 0.0000000000e+000	 1.8116520771e+000
 3.0265289474e+000	 2.8591055351e-002	 1.7681698420e+000
 3.0261217055e+000	 5.7290726436e-002	 1.7270736440e+000
 3.0254391761e+000	 8.6095692183e-002	 1.6875287828e+000
 3.0244783003e+000	 1.1500254604e-001	 1.6489257462e+000
 3.0232360614e+000	 1.4400779615e-001	 1.6108455750e+000
 3.0217094866e+000	 1.7310786554e-001	 1.5730308112e+000
 3.0198956501e+000	 2.0229909246e-001	 1.5353617162e+000
 3.0177916751e+000	 2.3157773074e-001	 1.4978373565e+000
 3.0153947365e+000	 2.6093995025e-001	 1.4605610571e+000
 3.0127020634e+000	 2.9038183743e-001	 1.4237296341e+000
 3.0533280000e+000	 0.0000000000e+000	 1.7010423203e+000
 3.0531917577e+000	 2.8842933953e-002	 1.6729011681e+000
 3.0527809281e+000	 5.7795440513e-002	 1.6446876141e+000
 3.0520923857e+000	 8.6854169349e-002	 1.6161334148e+000
 3.0511230450e+000	 1.1601568390e-001	 1.5870865490e+000
 3.0498698623e+000	 1.4527646154e-001	 1.5574797556e+000
 3.0483298389e+000	 1.7463289379e-001	 1.5273054339e+000
 3.0465000230e+000	 2.0408128665e-001	 1.4965965754e+000
 3.0443775126e+000	 2.3361786093e-001	 1.4654132916e+000
 3.0419594577e+000	 2.6323875277e-001	 1.4338344055e+000
 3.0392430630e+000	 2.9294001413e-001	 1.4019534708e+000
 3.0799920000e+000	 0.0000000000e+000	 1.5312008552e+000
 3.0798545679e+000	 2.9094812556e-002	 1.5232435729e+000
 3.0794401506e+000	 5.8300154590e-002	 1.5124138196e+000
 3.0787455954e+000	 8.7612646515e-002	 1.4990495390e+000
 3.0777677896e+000	 1.1702882176e-001	 1.4834904791e+000
 3.0765036632e+000	 1.4654512693e-001	 1.4660502498e+000
 3.0749501911e+000	 1.7615792205e-001	 1.4469955690e+000
 3.0731043959e+000	 2.0586348084e-001	 1.4265323403e+000
 3.0709633501e+000	 2.3565799112e-001	 1.4047980979e+000
 3.0685241789e+000	 2.6553755529e-001	 1.3818602445e+000
 3.0657840625e+000	 2.9549819082e-001	 1.3577194048e+000
 3.1066560000e+000	 0.0000000000e+000	 1.3021966125e+000
 3.1065173781e+000	 2.9346691158e-002	 1.3182549325e+000
 3.1060993732e+000	 5.8804868668e-002	 1.3284442064e+000
 3.1053988051e+000	 8.8371123681e-002	 1.3337413741e+000
 3.1044125343e+000	 1.1804195962e-001	 1.3350049368e+000
 3.1031374641e+000	 1.4781379233e-001	 1.3329509094e+000
 3.1015705433e+000	 1.7768295031e-001	 1.3281368284e+000
 3.0997087687e+000	 2.0764567503e-001	 1.3209534381e+000
 3.0975491876e+000	 2.3769812132e-001	 1.3116235530e+000
 3.0950889001e+000	 2.6783635781e-001	 1.3002074863e+000
 3.0923250620e+000	 2.9805636752e-001	 1.2866143139e+000
 3.1333200000e+000	 0.0000000000e+000	 1.0140398030e+000
 3.1331801883e+000	 2.9598569761e-002	 1.0569468085e+000
 3.1327585957e+000	 5.9309582745e-002	 1.0909373888e+000
 3.1320520147e+000	 8.9129600848e-002	 1.1176532274e+000
 3.1310572789e+000	 1.1905509748e-001	 1.1384911275e+000
 3.1297712650e+000	 1.4908245772e-001	 1.1545832549e+000
 3.1281908955e+000	 1.7920797856e-001	 1.1667863531e+000
 3.1263131416e+000	 2.0942786922e-001	 1.1756795251e+000
 3.1241350251e+000	 2.3973825151e-001	 1.1815700487e+000
 3.1216536212e+000	 2.7013516033e-001	 1.1845065666e+000
 3.1188660616e+000	 3.0061454421e-001	 1.1842988747e+000
 2.8534560662e+000	 2.7503277725e-001	 1.3391845053e+000
 2.8506234959e+000	 3.0298590209e-001	 1.3315671727e+000
 2.8475058238e+000	 3.3100687533e-001	 1.3243662230e+000
 2.8441005950e+000	 3.5909182003e-001	 1.3167034651e+000
 2.8404054153e+000	 3.8723678479e-001	 1.3079820497e+000
 2.8364179532e+000	 4.1543774471e-001	 1.2978450464e+000
 2.8321359428e+000	 4.4369060226e-001	 1.2861313944e+000
 2.8275571857e+000	 4.7199118843e-001	 1.2728284898e+000
 2.8226795537e+000	 5.0033526381e-001	 1.2580206347e+000
 2.8175009906e+000	 5.2871851982e-001	 1.2418325466e+000
 2.8120195152e+000	 5.5713657999e-001	 1.2243670998e+000
 2.8799970658e+000	 2.7759095395e-001	 1.3553579756e+000
 2.8771381487e+000	 3.0580408065e-001	 1.3369720093e+000
 2.8739914781e+000	 3.3408568682e-001	 1.3201089391e+000
 2.8705545760e+000	 3.6243185948e-001	 1.3039427557e+000
 2.8668250261e+000	 3.9083861047e-001	 1.2878889306e+000
 2.8628004752e+000	 4.1930187744e-001	 1.2715681844e+000
 2.8584786363e+000	 4.4781752477e-001	 1.2547677895e+000
 2.8538572906e+000	 4.7638134466e-001	 1.2373996076e+000
 2.8489342900e+000	 5.0498905826e-001	 1.2194540215e+000
 2.8437075593e+000	 5.3363631693e-001	 1.2009488899e+000
 2.8381750988e+000	 5.6231870349e-001	 1.1818726231e+000
 2.9065380653e+000	 2.8014913065e-001	 1.3770969082e+000
 2.9036528015e+000	 3.0862225920e-001	 1.3502949877e+000
 2.9004771323e+000	 3.3716449831e-001	 1.3255828005e+000
 2.8970085570e+000	 3.6577189893e-001	 1.3022474881e+000
 2.8932446369e+000	 3.9444043615e-001	 1.2797775868e+000
 2.8891829973e+000	 4.2316601018e-001	 1.2578324190e+000
 2.8848213299e+000	 4.5194444728e-001	 1.2362091878e+000
 2.8801573956e+000	 4.8077150089e-001	 1.2148069100e+000
 2.8751890264e+000	 5.0964285272e-001	 1.1935862760e+000
 2.8699141281e+000	 5.3855411404e-001	 1.1725244921e+000
 2.8643306824e+000	 5.6750082698e-001	 1.1515641258e+000
 2.9330790648e+000	 2.8270730734e-001	 1.3995476152e+000
 2.9301674543e+000	 3.1144043775e-001	 1.3666949357e+000
 2.9269627865e+000	 3.4024330980e-001	 1.3360181468e+000
 2.9234625380e+000	 3.6911193838e-001	 1.3069698580e+000
 2.9196642478e+000	 3.9804226183e-001	 1.2791636962e+000
 2.9155655193e+000	 4.2703014291e-001	 1.2523497839e+000
 2.9111640234e+000	 4.5607136979e-001	 1.2263881017e+000
 2.9064575005e+000	 4.8516165711e-001	 1.2012187958e+000
 2.9014437627e+000	 5.1429664717e-001	 1.1768284473e+000
 2.8961206968e+000	 5.4347191115e-001	 1.1532112793e+000
 2.8904862660e+000	 5.7268295047e-001	 1.1303242430e+000
 2.9596200644e+000	 2.8526548404e-001	 1.4179293959e+000
 2.9566821071e+000	 3.1425861630e-001	 1.3814164078e+000
 2.9534484408e+000	 3.4332212130e-001	 1.3467432163e+000
 2.9499165190e+000	 3.7245197783e-001	 1.3135714587e+000
 2.9460838586e+000	 4.0164408750e-001	 1.2816830540e+000
 2.9419480414e+000	 4.3089427565e-001	 1.2509622714e+000
 2.9375067170e+000	 4.6019829230e-001	 1.2213758678e+000
 2.9327576054e+000	 4.8955181334e-001	 1.1929502871e+000
 2.9276984991e+000	 5.1895044162e-001	 1.1657448559e+000
 2.9223272655e+000	 5.4838970826e-001	 1.1398198697e+000
 2.9166418496e+000	 5.7786507396e-001	 1.1151984268e+000
 2.9861610639e+000	 2.8782366074e-001	 1.4275347641e+000
 2.9831967599e+000	 3.1707679486e-001	 1.3897897196e+000
 2.9799340950e+000	 3.4640093279e-001	 1.3531839686e+000
 2.9763705001e+000	 3.7579201728e-001	 1.3176228599e+000
 2.9725034694e+000	 4.0524591318e-001	 1.2830908717e+000
 2.9683305634e+000	 4.3475840838e-001	 1.2496408030e+000
 2.9638494106e+000	 4.6432521481e-001	 1.2173812350e+000
 2.9590577103e+000	 4.9394196957e-001	 1.1864611727e+000
 2.9539532354e+000	 5.2360423607e-001	 1.1570507220e+000
 2.9485338342e+000	 5.5330750536e-001	 1.1293166079e+000
 2.9427974332e+000	 5.8304719746e-001	 1.1033912991e+000
 3.0127020634e+000	 2.9038183743e-001	 1.4237296341e+000
 3.0097114127e+000	 3.1989497341e-001	 1.3872309448e+000
 3.0064197492e+000	 3.4947974428e-001	 1.3508638670e+000
 3.0028244811e+000	 3.7913205673e-001	 1.3148031478e+000
 2.9989230803e+000	 4.0884773886e-001	 1.2792610339e+000
 2.9947130855e+000	 4.3862254111e-001	 1.2444841591e+000
 2.9901921041e+000	 4.6845213732e-001	 1.2107489119e+000
 2.9853578153e+000	 4.9833212579e-001	 1.1783541104e+000
 2.9802079718e+000	 5.2825803052e-001	 1.1476097534e+000
 2.9747404029e+000	 5.5822530247e-001	 1.1188205599e+000
 2.9689530167e+000	 5.8822932095e-001	 1.0922629694e+000
 3.0392430630e+000	 2.9294001413e-001	 1.4019534708e+000
 3.0362260655e+000	 3.2271315196e-001	 1.3692418742e+000
 3.0329054035e+000	 3.5255855577e-001	 1.3354036257e+000
 3.0292784621e+000	 3.8247209617e-001	 1.3008994276e+000
 3.0253426911e+000	 4.1244956453e-001	 1.2661853192e+000
 3.0210956075e+000	 4.4248667385e-001	 1.2317178700e+000
 3.0165347977e+000	 4.7257905983e-001	 1.1979580750e+000
 3.0116579202e+000	 5.0272228202e-001	 1.1653726914e+000
 3.0064627082e+000	 5.3291182497e-001	 1.1344316954e+000
 3.0009469717e+000	 5.6314309958e-001	 1.1056004738e+000
 2.9951086003e+000	 5.9341144444e-001	 1.0793253211e+000
 3.0657840625e+000	 2.9549819082e-001	 1.3577194048e+000
 3.0627407183e+000	 3.2553133051e-001	 1.3314099419e+000
 3.0593910577e+000	 3.5563736725e-001	 1.3025209224e+000
 3.0557324431e+000	 3.8581213562e-001	 1.2718062918e+000
 3.0517623019e+000	 4.1605139021e-001	 1.2399725849e+000
 3.0474781295e+000	 4.4635080658e-001	 1.2076930718e+000
 3.0428774912e+000	 4.7670598234e-001	 1.1756208410e+000
 3.0379580251e+000	 5.0711243824e-001	 1.1443994673e+000
 3.0327174445e+000	 5.3756561942e-001	 1.1146698458e+000
 3.0271535404e+000	 5.6806089669e-001	 1.0870717054e+000
 3.0212641839e+000	 5.9859356793e-001	 1.0622382659e+000
 3.0923250620e+000	 2.9805636752e-001	 1.2866143139e+000
 3.0892553711e+000	 3.2834950906e-001	 1.2694081185e+000
 3.0858767119e+000	 3.5871617874e-001	 1.2480300784e+000
 3.0821864241e+000	 3.8915217507e-001	 1.2235252557e+000
 3.0781819128e+000	 4.1965321588e-001	 1.1968479187e+000
 3.0738606516e+000	 4.5021493931e-001	 1.1688853272e+000
 3.0692201848e+000	 4.8083290485e-001	 1.1404807042e+000
 3.0642581301e+000	 5.1150259447e-001	 1.1124539439e+000
 3.0589721809e+000	 5.4221941387e-001	 1.0856185361e+000
 3.0533601091e+000	 5.7297869379e-001	 1.0607931130e+000
 3.0474197675e+000	 6.0377569142e-001	 1.0388059707e+000
 3.1188660616e+000	 3.0061454421e-001	 1.1842988747e+000
 3.1157700239e+000	 3.3116768761e-001	 1.1789947744e+000
 3.1123623662e+000	 3.6179499023e-001	 1.1678417089e+000
 3.1086404051e+000	 3.9249221452e-001	 1.1521641623e+000
 3.1046015236e+000	 4.2325504155e-001	 1.1331517590e+000
 3.1002431736e+000	 4.5407907204e-001	 1.1118934158e+000
 3.0955628784e+000	 4.8495982735e-001	 1.0894109427e+000
 3.0905582350e+000	 5.1589275069e-001	 1.0666905428e+000
 3.0852269172e+000	 5.4687320832e-001	 1.0447105820e+000
 3.0795666778e+000	 5.7789649090e-001	 1.0244639229e+000
 3.0735753511e+000	 6.0895781491e-001	 1.0069730570e+000
 2.8120195152e+000	 5.5713657999e-001	 1.2243670998e+000
 2.8062323324e+000	 5.8558927002e-001	 1.2015184110e+000
 2.8001384177e+000	 6.1406781368e-001	 1.1702343688e+000
 2.7937360289e+000	 6.4256763062e-001	 1.1318831883e+000
 2.7870235076e+000	 6.7108407844e-001	 1.0875663102e+000
 2.7799992815e+000	 6.9961245439e-001	 1.0450266812e+000
 2.7726618660e+000	 7.2814799717e-001	 1.0068291023e+000
 2.7650098669e+000	 7.5668588880e-001	 9.7077837795e-001
 2.7570419823e+000	 7.8522125655e-001	 9.3463492643e-001
 2.7487570045e+000	 8.1374917503e-001	 8.9610715723e-001
 2.7401538221e+000	 8.4226466823e-001	 8.5284264482e-001
 2.8381750988e+000	 5.6231870349e-001	 1.1818726231e+000
 2.8323340874e+000	 5.9103604200e-001	 1.1571160928e+000
 2.8261834910e+000	 6.1977947462e-001	 1.1230309173e+000
 2.8197215513e+000	 6.4854437840e-001	 1.0814854233e+000
 2.8129465945e+000	 6.7732606774e-001	 1.0348188524e+000
 2.8058570336e+000	 7.0611979615e-001	 9.9248776922e-001
 2.7984513702e+000	 7.3492075806e-001	 9.5504773616e-001
 2.7907281972e+000	 7.6372409067e-001	 9.2025788243e-001
 2.7826862005e+000	 7.9252487593e-001	 8.8582455606e-001
 2.7743241612e+000	 8.2131814262e-001	 8.4939471659e-001
 2.7656409576e+000	 8.5009886846e-001	 8.0854803330e-001
 2.8643306824e+000	 5.6750082698e-001	 1.1515641258e+000
 2.8584358423e+000	 5.9648281398e-001	 1.1246100369e+000
 2.8522285643e+000	 6.2549113556e-001	 1.0873979299e+000
 2.8457070738e+000	 6.5452112617e-001	 1.0423147064e+000
 2.8388696815e+000	 6.8356805703e-001	 9.9358023833e-001
 2.8317147857e+000	 7.1262713792e-001	 9.5106053336e-001
 2.8242408744e+000	 7.4169351896e-001	 9.1383334767e-001
 2.8164465275e+000	 7.7076229254e-001	 8.7965729392e-001
 2.8083304187e+000	 7.9982849530e-001	 8.4623076065e-001
 2.7998913179e+000	 8.2888711020e-001	 8.1118632938e-001
 2.7911280930e+000	 8.5793306869e-001	 7.7208379593e-001
 2.8904862660e+000	 5.7268295047e-001	 1.1303242430e+000
 2.8845375973e+000	 6.0192958596e-001	 1.1011087779e+000
 2.8782736376e+000	 6.3120279650e-001	 1.0606716793e+000
 2.8716925962e+000	 6.6049787394e-001	 1.0119308413e+000
 2.8647927684e+000	 6.8981004632e-001	 9.6162058028e-001
 2.8575725378e+000	 7.1913447968e-001	 9.1866247380e-001
 2.8500303787e+000	 7.4846627985e-001	 8.8125294219e-001
 2.8421648578e+000	 7.7780049441e-001	 8.4719252511e-001
 2.8339746369e+000	 8.0713211467e-001	 8.1421510371e-001
 2.8254584746e+000	 8.3645607779e-001	 7.7998335751e-001
 2.8166152285e+000	 8.6576726892e-001	 7.4208271380e-001
 2.9166418496e+000	 5.7786507396e-001	 1.1151984268e+000
 2.9106393523e+000	 6.0737635794e-001	 1.0838859508e+000
 2.9043187109e+000	 6.3691445745e-001	 1.0403534024e+000
 2.8976781186e+000	 6.6647462171e-001	 9.8805594210e-001
 2.8907158553e+000	 6.9605203562e-001	 9.3685339292e-001
 2.8834302899e+000	 7.2564182144e-001	 8.9335902919e-001
 2.8758198829e+000	 7.5523904074e-001	 8.5552547790e-001
 2.8678831881e+000	 7.8483869628e-001	 8.2123497251e-001
 2.8596188551e+000	 8.1443573404e-001	 7.8829772197e-001
 2.8510256313e+000	 8.4402504538e-001	 7.5444842963e-001
 2.8421023640e+000	 8.7360146914e-001	 7.1734118203e-001
 2.9427974332e+000	 5.8304719746e-001	 1.1033912991e+000
 2.9367411072e+000	 6.1282312992e-001	 1.0703758893e+000
 2.9303637842e+000	 6.4262611839e-001	 1.0241040888e+000
 2.9236636411e+000	 6.7245136949e-001	 9.6885922509e-001
 2.9166389422e+000	 7.0229402491e-001	 9.1733300370e-001
 2.9092880420e+000	 7.3214916321e-001	 8.7336061287e-001
 2.9016093871e+000	 7.6201180164e-001	 8.3501850697e-001
 2.8936015184e+000	 7.9187689815e-001	 8.0030773880e-001
 2.8852630733e+000	 8.2173935342e-001	 7.6715310258e-001
 2.8765927880e+000	 8.5159401296e-001	 7.3340074417e-001
 2.8675894995e+000	 8.8143566937e-001	 6.9681400690e-001
 2.9689530167e+000	 5.8822932095e-001	 1.0922629694e+000
 2.9628428622e+000	 6.1826990190e-001	 1.0581691943e+000
 2.9564088576e+000	 6.4833777933e-001	 1.0097392415e+000
 2.9496491635e+000	 6.7842811726e-001	 9.5270765625e-001
 2.9425620291e+000	 7.0853601420e-001	 9.0125194245e-001
 2.9351457942e+000	 7.3865650497e-001	 8.5701963153e-001
 2.9273988914e+000	 7.6878456253e-001	 8.1824480254e-001
 2.9193198487e+000	 7.9891510002e-001	 7.8308184461e-001
 2.9109072915e+000	 8.2904297279e-001	 7.4960585374e-001
 2.9021599447e+000	 8.5916298055e-001	 7.1581137027e-001
 2.8930766349e+000	 8.8926986960e-001	 6.7960920609e-001
 2.9951086003e+000	 5.9341144444e-001	 1.0793253211e+000
 2.9889446171e+000	 6.2371667388e-001	 1.0450082738e+000
 2.9824539309e+000	 6.5404944027e-001	 9.9522361272e-001
 2.9756346860e+000	 6.8440486503e-001	 9.3776901832e-001
 2.9684851161e+000	 7.1477800350e-001	 8.8693831161e-001
 2.9610035463e+000	 7.4516384673e-001	 8.4282748759e-001
 2.9531883956e+000	 7.7555732342e-001	 8.0385897238e-001
 2.9450381790e+000	 8.0595330189e-001	 7.6837243038e-001
 2.9365515097e+000	 8.3634659216e-001	 7.3462646907e-001
 2.9277271014e+000	 8.6673194813e-001	 7.0079854675e-001
 2.9185637704e+000	 8.9710406983e-001	 6.6498281210e-001
 3.0212641839e+000	 5.9859356793e-001	 1.0622382659e+000
 3.0150463721e+000	 6.2916344586e-001	 1.0287828548e+000
 3.0084990042e+000	 6.5976110121e-001	 9.7866591518e-001
 3.0016202084e+000	 6.9038161280e-001	 9.2233989889e-001
 2.9944082030e+000	 7.2101999279e-001	 8.7285313837e-001
 2.9868612984e+000	 7.5167118849e-001	 8.2941156611e-001
 2.9789778998e+000	 7.8233008431e-001	 7.9065406003e-001
 2.9707565093e+000	 8.1299150376e-001	 7.5513494879e-001
 2.9621957279e+000	 8.4365021153e-001	 7.2132708617e-001
 2.9532942581e+000	 8.7430091572e-001	 6.8762297932e-001
 2.9440509059e+000	 9.0493827006e-001	 6.5233367826e-001
 3.0474197675e+000	 6.0377569142e-001	 1.0388059707e+000
 3.0411481271e+000	 6.3461021783e-001	 1.0075254710e+000
 3.0345440775e+000	 6.6547276215e-001	 9.5831351198e-001
 3.0276057309e+000	 6.9635836057e-001	 9.0484380266e-001
 3.0203312899e+000	 7.2726198208e-001	 8.5758770966e-001
 3.0127190505e+000	 7.5817853025e-001	 8.1553220719e-001
 3.0047674041e+000	 7.8910284520e-001	 7.7755813423e-001
 2.9964748396e+000	 8.2002970563e-001	 7.4246134845e-001
 2.9878399461e+000	 8.5095383090e-001	 7.0895723967e-001
 2.9788614148e+000	 8.8186988331e-001	 6.7568313598e-001
 2.9695380413e+000	 9.1277247028e-001	 6.4119828761e-001
 3.0735753511e+000	 6.0895781491e-001	 1.0069730570e+000
 3.0672498820e+000	 6.4005698981e-001	 9.7940692563e-001
 3.0605891508e+000	 6.7118442308e-001	 9.3274575190e-001
 3.0535912533e+000	 7.0233510834e-001	 8.8382881231e-001
 3.0462543768e+000	 7.3350397137e-001	 8.3986089106e-001
 3.0385768026e+000	 7.6468587201e-001	 8.0007966488e-001
 3.0305569083e+000	 7.9587560609e-001	 7.6363086727e-001
 3.0221931699e+000	 8.2706790750e-001	 7.2957624929e-001
 3.0134841643e+000	 8.5825745028e-001	 6.9689960913e-001
 3.0044285715e+000	 8.8943885089e-001	 6.6451054089e-001
 2.9950251768e+000	 9.2060667051e-001	 6.3124556407e-001
 2.7401538221e+000	 8.4226466823e-001	 8.5284264482e-001
 2.7312314211e+000	 8.7076271134e-001	 8.0296004140e-001
 2.7219888849e+000	 8.9923823169e-001	 7.4718852537e-001
 2.7124253981e+000	 9.2768611232e-001	 6.8697773333e-001
 2.7025402488e+000	 9.5610119473e-001	 6.2367705736e-001
 2.6923328307e+000	 9.8447828143e-001	 5.5851228900e-001
 2.6818026442e+000	 1.0128121385e+000	 4.9255363143e-001
 2.6709492982e+000	 1.0410974981e+000	 4.2671691270e-001
 2.6597725119e+000	 1.0693290614e+000	 3.6241058482e-001
 2.6482721155e+000	 1.0975015011e+000	 3.0276277567e-001
 2.6364480523e+000	 1.1256094643e+000	 2.4788692882e-001
 2.7656409576e+000	 8.5009886846e-001	 8.0854803330e-001
 2.7566355662e+000	 8.7886198190e-001	 7.6117275275e-001
 2.7473070619e+000	 9.0760236309e-001	 7.0789853555e-001
 2.7376546217e+000	 9.3631484747e-001	 6.5029740912e-001
 2.7276775272e+000	 9.6499422857e-001	 5.8983889005e-001
 2.7173751663e+000	 9.9363526055e-001	 5.2786648409e-001
 2.7067470348e+000	 1.0222326608e+000	 4.6556621005e-001
 2.6957927380e+000	 1.0507811125e+000	 4.0396379929e-001
 2.6845119925e+000	 1.0792752675e+000	 3.4385364125e-001
 2.6729046269e+000	 1.1077097490e+000	 2.8579633422e-001
 2.6609705839e+000	 1.1360791543e+000	 2.3049557413e-001
 2.7911280930e+000	 8.5793306869e-001	 7.7208379593e-001
 2.7820397112e+000	 8.8696125246e-001	 7.2662032879e-001
 2.7726252389e+000	 9.1596649450e-001	 6.7530782745e-001
 2.7628838453e+000	 9.4494358263e-001	 6.1980363521e-001
 2.7528148056e+000	 9.7388726241e-001	 5.6166110851e-001
 2.7424175019e+000	 1.0027922397e+000	 5.0230605842e-001
 2.7316914254e+000	 1.0316531831e+000	 4.4300578811e-001
 2.7206361779e+000	 1.0604647269e+000	 3.8486263670e-001
 2.7092514731e+000	 1.0892214736e+000	 3.2874740259e-001
 2.6975371383e+000	 1.1179179968e+000	 2.7529241118e-001
 2.6854931155e+000	 1.1465488442e+000	 2.2484855512e-001
 2.8166152285e+000	 8.6576726892e-001	 7.4208271380e-001
 2.8074438563e+000	 8.9506052302e-001	 6.9806235967e-001
 2.7979434159e+000	 9.2433062590e-001	 6.4830364927e-001
 2.7881130690e+000	 9.5357231778e-001	 5.9451230145e-001
 2.7779520840e+000	 9.8278029625e-001	 5.3828945867e-001
 2.7674598375e+000	 1.0119492188e+000	 4.8110172578e-001
 2.7566358160e+000	 1.0410737054e+000	 4.2428288191e-001
 2.7454796177e+000	 1.0701483413e+000	 3.6895980994e-001
 2.7339909537e+000	 1.0991676797e+000	 3.1605431206e-001
 2.7221696496e+000	 1.1281262447e+000	 2.6623987902e-001
 2.7100156471e+000	 1.1570185342e+000	 2.1990501404e-001
 2.8421023640e+000	 8.7360146914e-001	 7.1734118203e-001
 2.8328480014e+000	 9.0315979358e-001	 6.7442388087e-001
 2.8232615929e+000	 9.3269475730e-001	 6.2593978632e-001
 2.8133422926e+000	 9.6220105294e-001	 5.7360616174e-001
 2.8030893623e+000	 9.9167333009e-001	 5.1903609096e-001
 2.7925021731e+000	 1.0211061979e+000	 4.6370944884e-001
 2.7815802066e+000	 1.0504942277e+000	 4.0897106712e-001
 2.7703230575e+000	 1.0798319557e+000	 3.5596185286e-001
 2.7587304343e+000	 1.1091138858e+000	 3.0561615071e-001
 2.7468021610e+000	 1.1383344926e+000	 2.5861877711e-001
 2.7345381787e+000	 1.1674882241e+000	 2.1536732638e-001
 2.8675894995e+000	 8.8143566937e-001	 6.9681400690e-001
 2.8582521465e+000	 9.1125906414e-001	 6.5478964005e-001
 2.8485797698e+000	 9.4105888870e-001	 6.0743028345e-001
 2.8385715162e+000	 9.7082978809e-001	 5.5642799911e-001
 2.8282266407e+000	 1.0005663639e+000	 5.0337215666e-001
 2.8175445086e+000	 1.0302631770e+000	 4.4972135131e-001
 2.8065245973e+000	 1.0599147500e+000	 3.9679840986e-001
 2.7951664974e+000	 1.0895155700e+000	 3.4572628620e-001
 2.7834699149e+000	 1.1190600919e+000	 2.9742134402e-001
 2.7714346724e+000	 1.1485427405e+000	 2.5255060785e-001
 2.7590607103e+000	 1.1779579140e+000	 2.1149307006e-001
 2.8930766349e+000	 8.8926986960e-001	 6.7960920609e-001
 2.8836562915e+000	 9.1935833470e-001	 6.3839837284e-001
 2.8738979468e+000	 9.4942302010e-001	 5.9214318172e-001
 2.8638007399e+000	 9.7945852325e-001	 5.4247381024e-001
 2.8533639191e+000	 1.0094593978e+000	 4.9092042858e-001
 2.8425868442e+000	 1.0394201561e+000	 4.3888608509e-001
 2.8314689879e+000	 1.0693352723e+000	 3.8763893074e-001
 2.8200099372e+000	 1.0991991844e+000	 3.3825249213e-001
 2.8082093955e+000	 1.1290062980e+000	 2.9159524195e-001
 2.7960671837e+000	 1.1587509884e+000	 2.4828801870e-001
 2.7835832419e+000	 1.1884276040e+000	 2.0866435184e-001
 2.9185637704e+000	 8.9710406983e-001	 6.6498281210e-001
 2.9090604366e+000	 9.2745760526e-001	 6.2463708680e-001
 2.8992161238e+000	 9.5778715150e-001	 5.7959426842e-001
 2.8890299635e+000	 9.8808725840e-001	 5.3138600815e-001
 2.8785011975e+000	 1.0183524316e+000	 4.8144242874e-001
 2.8676291798e+000	 1.0485771352e+000	 4.3109358159e-001
 2.8564133785e+000	 1.0787557946e+000	 3.8150409967e-001
 2.8448533770e+000	 1.1088827988e+000	 3.3367262319e-001
 2.8329488761e+000	 1.1389525041e+000	 2.8839043622e-001
 2.8206996951e+000	 1.1689592362e+000	 2.4620452391e-001
 2.8081057735e+000	 1.1988972939e+000	 2.0737693145e-001
 2.9440509059e+000	 9.0493827006e-001	 6.5233367826e-001
 2.9344645817e+000	 9.3555687582e-001	 6.1303535315e-001
 2.9245343008e+000	 9.6615128290e-001	 5.6944083958e-001
 2.9142591871e+000	 9.9671599356e-001	 5.2294664195e-001
 2.9036384759e+000	 1.0272454655e+000	 4.7485388011e-001
 2.8926715154e+000	 1.0577341144e+000	 4.2636715071e-001
 2.8813577691e+000	 1.0881763169e+000	 3.7853435987e-001
 2.8696968168e+000	 1.1185664132e+000	 3.3224254348e-001
 2.8576883567e+000	 1.1488987102e+000	 2.8817711256e-001
 2.8453322065e+000	 1.1791674841e+000	 2.4678426348e-001
 2.8326283051e+000	 1.2093669839e+000	 2.0822938448e-001
 2.9695380413e+000	 9.1277247028e-001	 6.4119828761e-001
 2.9598687268e+000	 9.4365614638e-001	 6.0325960579e-001
 2.9498524778e+000	 9.7451541430e-001	 5.6147547429e-001
 2.9394884108e+000	 1.0053447287e+000	 5.1707063273e-001
 2.9287757543e+000	 1.0361384993e+000	 4.7118205229e-001
 2.9177138510e+000	 1.0668910935e+000	 4.2485560367e-001
 2.9063021597e+000	 1.0975968391e+000	 3.7899067911e-001
 2.8945402567e+000	 1.1282500276e+000	 3.3433280012e-001
 2.8824278373e+000	 1.1588449163e+000	 2.9143343591e-001
 2.8699647178e+000	 1.1893757320e+000	 2.5061179710e-001
 2.8571508367e+000	 1.2198366738e+000	 2.1191230188e-001
 2.9950251768e+000	 9.2060667051e-001	 6.3124556407e-001
 2.9852728719e+000	 9.5175541694e-001	 5.9510744719e-001
 2.9751706548e+000	 9.8287954570e-001	 5.5561982009e-001
 2.9647176344e+000	 1.0139734639e+000	 5.1379352266e-001
 2.9539130326e+000	 1.0450315331e+000	 4.7058285013e-001
 2.9427561866e+000	 1.0760480726e+000	 4.2682539833e-001
 2.9312465504e+000	 1.1070173614e+000	 3.8324612658e-001
 2.9193836965e+000	 1.1379336420e+000	 3.4041962329e-001
 2.9071673179e+000	 1.1687911224e+000	 2.9873596655e-001
 2.8945972292e+000	 1.1995839799e+000	 2.5836193098e-001
 2.8816733683e+000	 1.2303063637e+000	 2.1919752382e-001
 2.6364480523e+000	 1.1256094643e+000	 2.4788692882e-001
 2.6243022261e+000	 1.1536433759e+000	 1.9737286355e-001
 2.6118330614e+000	 1.1816020650e+000	 1.5033769014e-001
 2.5990408487e+000	 1.2094801237e+000	 1.0533336704e-001
 2.5859259956e+000	 1.2372721302e+000	 6.0517497650e-002
 2.5724890275e+000	 1.2649726523e+000	 1.3666630286e-002
 2.5587305887e+000	 1.2925762503e+000	-3.7806694225e-002
 2.5446514432e+000	 1.3200774803e+000	-9.6833230809e-002
 2.5302524749e+000	 1.3474708973e+000	-1.6388783151e-001
 2.5155346883e+000	 1.3747510586e+000	-2.2671989185e-001
 2.5004992089e+000	 1.4019125270e+000	-2.8585094190e-001
 2.6609705839e+000	 1.1360791543e+000	 2.3049557413e-001
 2.6487117851e+000	 1.1643738191e+000	 1.8032535187e-001
 2.6361266403e+000	 1.1925925618e+000	 1.3441812813e-001
 2.6232154428e+000	 1.2207299242e+000	 9.1001871870e-002
 2.6099786037e+000	 1.2487804339e+000	 4.7870990880e-002
 2.5964166536e+000	 1.2767386083e+000	 2.4012667913e-003
 2.5825302428e+000	 1.3045989571e+000	-4.8431192019e-002
 2.5683201422e+000	 1.3323559857e+000	-1.0802707052e-001
 2.5537872440e+000	 1.3600041986e+000	-1.6991994004e-001
 2.5389325621e+000	 1.3875381023e+000	-2.2608611974e-001
 2.5237572325e+000	 1.4149522090e+000	-2.7992656688e-001
 2.6854931155e+000	 1.1465488442e+000	 2.2484855512e-001
 2.6731213441e+000	 1.1751042623e+000	 1.7687945054e-001
 2.6604202192e+000	 1.2035830587e+000	 1.3039302052e-001
 2.6473900368e+000	 1.2319797246e+000	 8.6245846034e-002
 2.6340312119e+000	 1.2602887376e+000	 4.2389214253e-002
 2.6203442798e+000	 1.2885045643e+000	-4.1478604068e-003
 2.6063298969e+000	 1.3166216639e+000	-5.6772459834e-002
 2.5919888412e+000	 1.3446344912e+000	-1.1742441497e-001
 2.5773220132e+000	 1.3725374998e+000	-1.7321851454e-001
 2.5623304359e+000	 1.4003251459e+000	-2.2408768393e-001
 2.5470152560e+000	 1.4279918910e+000	-2.7388609418e-001
 2.7100156471e+000	 1.1570185342e+000	 2.1990501404e-001
 2.6975309030e+000	 1.1858347055e+000	 1.7615436488e-001
 2.6847137981e+000	 1.2145735555e+000	 1.3309881022e-001
 2.6715646308e+000	 1.2432295251e+000	 8.9072377605e-002
 2.6580838200e+000	 1.2717970413e+000	 4.2523508171e-002
 2.6442719060e+000	 1.3002705204e+000	-7.2747750223e-003
 2.6301295510e+000	 1.3286443707e+000	-6.3849616089e-002
 2.6156575402e+000	 1.3569129966e+000	-1.2303195161e-001
 2.6008567823e+000	 1.3850708010e+000	-1.7400796222e-001
 2.5857283097e+000	 1.4131121895e+000	-2.2081918856e-001
 2.5702732795e+000	 1.4410315730e+000	-2.6769639693e-001
 2.7345381787e+000	 1.1674882241e+000	 2.1536732638e-001
 2.7219404620e+000	 1.1965651487e+000	 1.7456424685e-001
 2.7090073770e+000	 1.2255640523e+000	 1.3384912804e-001
 2.6957392248e+000	 1.2544793256e+000	 9.1449694197e-002
 2.6821364282e+000	 1.2833053451e+000	 4.5083035546e-002
 2.6681995322e+000	 1.3120364764e+000	-8.0932500122e-003
 2.6539292051e+000	 1.3406670775e+000	-6.9645355039e-002
 2.6393262393e+000	 1.3691915020e+000	-1.2512294886e-001
 2.6243915514e+000	 1.3976041023e+000	-1.7244920323e-001
 2.6091261836e+000	 1.4258992331e+000	-2.1631719606e-001
 2.5935313031e+000	 1.4540712550e+000	-2.6127204764e-001
 2.7590607103e+000	 1.1779579140e+000	 2.1149307006e-001
 2.7463500210e+000	 1.2072955920e+000	 1.7251126254e-001
 2.7333009559e+000	 1.2365545492e+000	 1.3279179994e-001
 2.7199138188e+000	 1.2657291261e+000	 9.0515752579e-002
 2.7061890363e+000	 1.2948136488e+000	 4.3343752998e-002
 2.6921271584e+000	 1.3238024324e+000	-1.1635097897e-002
 2.6777288592e+000	 1.3526897843e+000	-7.2155145619e-002
 2.6629949383e+000	 1.3814700074e+000	-1.2391757446e-001
 2.6479263206e+000	 1.4101374035e+000	-1.6864250922e-001
 2.6325240574e+000	 1.4386862768e+000	-2.1056306975e-001
 2.6167893266e+000	 1.4671109370e+000	-2.5447816197e-001
 2.7835832419e+000	 1.1884276040e+000	 2.0866435184e-001
 2.7707595800e+000	 1.2180260352e+000	 1.7051450239e-001
 2.7575945348e+000	 1.2475450460e+000	 1.3059449202e-001
 2.7440884129e+000	 1.2769789265e+000	 8.7097355126e-002
 2.7302416445e+000	 1.3063219525e+000	 3.7688182129e-002
 2.7160547845e+000	 1.3355683884e+000	-2.0469015161e-002
 2.7015285133e+000	 1.3647124911e+000	-7.5825099602e-002
 2.6866636373e+000	 1.3937485129e+000	-1.2164011477e-001
 2.6714610897e+000	 1.4226707048e+000	-1.6274282452e-001
 2.6559219312e+000	 1.4514733204e+000	-2.0348580584e-001
 2.6400473501e+000	 1.4801506190e+000	-2.4713323891e-001
 2.8081057735e+000	 1.1988972939e+000	 2.0737693145e-001
 2.7951691390e+000	 1.2287564784e+000	 1.6919851454e-001
 2.7818881137e+000	 1.2585355428e+000	 1.2802106083e-001
 2.7682630069e+000	 1.2882287270e+000	 8.2107250662e-002
 2.7542942527e+000	 1.3178302562e+000	 2.9186690843e-002
 2.7399824107e+000	 1.3473343444e+000	-3.0510734682e-002
 2.7253281674e+000	 1.3767351979e+000	-8.0354650643e-002
 2.7103323363e+000	 1.4060270183e+000	-1.2126970796e-001
 2.6949958588e+000	 1.4352040060e+000	-1.5807625131e-001
 2.6793198050e+000	 1.4642603640e+000	-1.9568209018e-001
 2.6633053737e+000	 1.4931903010e+000	-2.3901199744e-001
 2.8326283051e+000	 1.2093669839e+000	 2.0822938448e-001
 2.8195786980e+000	 1.2394869216e+000	 1.6928187770e-001
 2.8061816926e+000	 1.2695260397e+000	 1.2591954846e-001
 2.7924376009e+000	 1.2994785275e+000	 7.6531562691e-002
 2.7783468608e+000	 1.3293385599e+000	 1.8971343414e-002
 2.7639100369e+000	 1.3591003005e+000	-3.9071688112e-002
 2.7491278215e+000	 1.3887579047e+000	-8.4473552607e-002
 2.7340010353e+000	 1.4183055237e+000	-1.2162739890e-001
 2.7185306280e+000	 1.4477373073e+000	-1.5528212394e-001
 2.7027176788e+000	 1.4770474077e+000	-1.9027603849e-001
 2.6865633972e+000	 1.5062299830e+000	-2.3151784889e-001
 2.8571508367e+000	 1.2198366738e+000	 2.1191230188e-001
 2.8439882570e+000	 1.2502173649e+000	 1.7156581117e-001
 2.8304752715e+000	 1.2805165365e+000	 1.2521021420e-001
 2.8166121949e+000	 1.3107283279e+000	 7.1417252535e-002
 2.8023994690e+000	 1.3408468636e+000	 9.1216708547e-003
 2.7878376631e+000	 1.3708662565e+000	-4.4945900384e-002
 2.7729274756e+000	 1.4007806115e+000	-8.7000055005e-002
 2.7576697343e+000	 1.4305840291e+000	-1.2154771050e-001
 2.7420653971e+000	 1.4602706085e+000	-1.5320471623e-001
 2.7261155527e+000	 1.4898344513e+000	-1.8667802108e-001
 2.7098214207e+000	 1.5192696650e+000	-2.2674636847e-001
 2.8816733683e+000	 1.2303063637e+000	 2.1919752382e-001
 2.8683978159e+000	 1.2609478081e+000	 1.7692281985e-001
 2.8547688504e+000	 1.2915070333e+000	 1.2687360064e-001
 2.8407867890e+000	 1.3219781284e+000	 6.7859615313e-002
 2.8264520771e+000	 1.3523551673e+000	 3.8392699774e-003
 2.8117652893e+000	 1.3826322125e+000	-4.7011858695e-002
 2.7967271297e+000	 1.4128033184e+000	-8.6838748742e-002
 2.7813384333e+000	 1.4428625346e+000	-1.1995346934e-001
 2.7656001662e+000	 1.4728039098e+000	-1.5077860837e-001
 2.7495134265e+000	 1.5026214949e+000	-1.8382931866e-001
 2.7330794442e+000	 1.5323093471e+000	-2.2369380118e-001
 2.5004992089e+000	 1.4019125270e+000	-2.8585094190e-001
 2.4851449573e+000	 1.4289539205e+000	-3.4294402011e-001
 2.4694755356e+000	 1.4558657382e+000	-3.9784763476e-001
 2.4534924364e+000	 1.4826425783e+000	-4.5057576188e-001
 2.4371972736e+000	 1.5092790580e+000	-5.0098830544e-001
 2.4205917828e+000	 1.5357698167e+000	-5.4879514095e-001
 2.4036778204e+000	 1.5621095196e+000	-5.9356189443e-001
 2.3864573637e+000	 1.5882928607e+000	-6.3471740842e-001
 2.3689325102e+000	 1.6143145666e+000	-6.7156283297e-001
 2.3511054772e+000	 1.6401693995e+000	-7.0328226595e-001
 2.3329786009e+000	 1.6658521609e+000	-7.2895485388e-001
 2.5237572325e+000	 1.4149522090e+000	-2.7992656688e-001
 2.5082601655e+000	 1.4422451241e+000	-3.3316866516e-001
 2.4924449970e+000	 1.4694072580e+000	-3.8530760658e-001
 2.4763132334e+000	 1.4964331589e+000	-4.3621661637e-001
 2.4598665036e+000	 1.5233173939e+000	-4.8560001272e-001
 2.4431065592e+000	 1.5500545525e+000	-5.3299802850e-001
 2.4260352741e+000	 1.5766392503e+000	-5.7779348803e-001
 2.4086546438e+000	 1.6030661319e+000	-6.1922028626e-001
 2.3909667855e+000	 1.6293298748e+000	-6.5637360268e-001
 2.3729739370e+000	 1.6554251926e+000	-6.8822176820e-001
 2.3546784563e+000	 1.6813468383e+000	-7.1361968904e-001
 2.5470152560e+000	 1.4279918910e+000	-2.7388609418e-001
 2.5313753737e+000	 1.4555363276e+000	-3.2433628743e-001
 2.5154144584e+000	 1.4829487779e+000	-3.7456942929e-001
 2.4991340303e+000	 1.5102237396e+000	-4.2433912365e-001
 2.4825357335e+000	 1.5373557298e+000	-4.7321500208e-001
 2.4656213356e+000	 1.5643392883e+000	-5.2058832943e-001
 2.4483927278e+000	 1.5911689809e+000	-5.6567958872e-001
 2.4308519240e+000	 1.6178394030e+000	-6.0754798775e-001
 2.4130010609e+000	 1.6443451829e+000	-6.4510281448e-001
 2.3948423969e+000	 1.6706809857e+000	-6.7711655255e-001
 2.3763783116e+000	 1.6968415158e+000	-7.0223965408e-001
 2.5702732795e+000	 1.4410315730e+000	-2.6769639693e-001
 2.5544905819e+000	 1.4688275311e+000	-3.1629541787e-001
 2.5383839198e+000	 1.4964902977e+000	-3.6537838812e-001
 2.5219548273e+000	 1.5240143202e+000	-4.1459971693e-001
 2.5052049635e+000	 1.5513940657e+000	-4.6341449869e-001
 2.4881361121e+000	 1.5786240241e+000	-5.1108491041e-001
 2.4707501815e+000	 1.6056987115e+000	-5.5668871736e-001
 2.4530492042e+000	 1.6326126741e+000	-5.9912982440e-001
 2.4350353362e+000	 1.6593604911e+000	-6.3715079409e-001
 2.4167108567e+000	 1.6859367787e+000	-6.6934723628e-001
 2.3980781670e+000	 1.7123361933e+000	-6.9418395862e-001
 2.5935313031e+000	 1.4540712550e+000	-2.6127204764e-001
 2.5776057902e+000	 1.4821187347e+000	-3.0884804716e-001
 2.5613533813e+000	 1.5100318175e+000	-3.5743878579e-001
 2.5447756243e+000	 1.5378049009e+000	-4.0661920835e-001
 2.5278741934e+000	 1.5654324017e+000	-4.5574927727e-001
 2.5106508885e+000	 1.5929087599e+000	-5.0398117243e-001
 2.4931076352e+000	 1.6202284422e+000	-5.5026873285e-001
 2.4752464844e+000	 1.6473859452e+000	-5.9337907269e-001
 2.4570696116e+000	 1.6743757993e+000	-6.3190628636e-001
 2.4385793165e+000	 1.7011925718e+000	-6.6428714074e-001
 2.4197780224e+000	 1.7278308708e+000	-6.8881863571e-001
 2.6167893266e+000	 1.4671109370e+000	-2.5447816197e-001
 2.6007209984e+000	 1.4954099382e+000	-3.0175247914e-001
 2.5843228427e+000	 1.5235733373e+000	-3.5041682340e-001
 2.5675964213e+000	 1.5515954815e+000	-3.9998571358e-001
 2.5505434234e+000	 1.5794707376e+000	-4.4974264561e-001
 2.5331656649e+000	 1.6071934957e+000	-4.9874810740e-001
 2.5154650889e+000	 1.6347581728e+000	-5.4584997458e-001
 2.4974437645e+000	 1.6621592163e+000	-5.8969621380e-001
 2.4791038869e+000	 1.6893911074e+000	-6.2874980243e-001
 2.4604477764e+000	 1.7164483649e+000	-6.6130575503e-001
 2.4414778778e+000	 1.7433255482e+000	-6.8551012967e-001
 2.6400473501e+000	 1.4801506190e+000	-2.4713323891e-001
 2.6238362066e+000	 1.5087011417e+000	-2.9472618746e-001
 2.6072923041e+000	 1.5371148572e+000	-3.4394349007e-001
 2.5904172183e+000	 1.5653860622e+000	-3.9425759023e-001
 2.5732126533e+000	 1.5935090735e+000	-4.4489344618e-001
 2.5556804414e+000	 1.6214782315e+000	-4.9483737623e-001
 2.5378225426e+000	 1.6492879035e+000	-5.4284842895e-001
 2.5196410447e+000	 1.6769324874e+000	-5.8747219961e-001
 2.5011381623e+000	 1.7044064156e+000	-6.2705699491e-001
 2.4823162362e+000	 1.7317041579e+000	-6.5977222872e-001
 2.4631777331e+000	 1.7588202257e+000	-6.8362891345e-001
 2.6633053737e+000	 1.4931903010e+000	-2.3901199744e-001
 2.6469514149e+000	 1.5219923453e+000	-2.8744867487e-001
 2.6302617655e+000	 1.5506563770e+000	-3.3761746089e-001
 2.6132380153e+000	 1.5791766428e+000	-3.8896638911e-001
 2.5958818832e+000	 1.6075474094e+000	-4.4067907452e-001
 2.5781952178e+000	 1.6357629673e+000	-4.9168440686e-001
 2.5601799963e+000	 1.6638176341e+000	-5.4066891869e-001
 2.5418383249e+000	 1.6917057586e+000	-5.8609174351e-001
 2.5231724376e+000	 1.7194217238e+000	-6.2620205927e-001
 2.5041846960e+000	 1.7469599510e+000	-6.5905889175e-001
 2.4848775885e+000	 1.7743149032e+000	-6.8255313379e-001
 2.6865633972e+000	 1.5062299830e+000	-2.3151784889e-001
 2.6700666231e+000	 1.5352835488e+000	-2.7961354037e-001
 2.6532312270e+000	 1.5641978968e+000	-3.3100800255e-001
 2.6360588123e+000	 1.5929672234e+000	-3.8361981769e-001
 2.6185511132e+000	 1.6215857453e+000	-4.3655851344e-001
 2.6007099942e+000	 1.6500477031e+000	-4.8871151132e-001
 2.5825374500e+000	 1.6783473647e+000	-5.3870831350e-001
 2.5640356051e+000	 1.7064790297e+000	-5.8493663442e-001
 2.5452067129e+000	 1.7344370319e+000	-6.2556115983e-001
 2.5260531559e+000	 1.7622157441e+000	-6.5854479988e-001
 2.5065774439e+000	 1.7898095807e+000	-6.8167228246e-001
 2.7098214207e+000	 1.5192696650e+000	-2.2674636847e-001
 2.6931818313e+000	 1.5485747523e+000	-2.7358278970e-001
 2.6762006884e+000	 1.5777394166e+000	-3.2404984013e-001
 2.6588796093e+000	 1.6067578041e+000	-3.7770471487e-001
 2.6412203431e+000	 1.6356240813e+000	-4.3197538217e-001
 2.6232247706e+000	 1.6643324389e+000	-4.8533102046e-001
 2.6048949037e+000	 1.6928770954e+000	-5.3635876078e-001
 2.5862328852e+000	 1.7212523008e+000	-5.8338907263e-001
 2.5672409883e+000	 1.7494523401e+000	-6.2451587899e-001
 2.5479216157e+000	 1.7774715371e+000	-6.5761930424e-001
 2.5282772993e+000	 1.8053042581e+000	-6.8039089190e-001
 2.7330794442e+000	 1.5323093471e+000	-2.2369380118e-001
 2.7162970396e+000	 1.5618659559e+000	-2.7008873875e-001
 2.6991701498e+000	 1.5912809365e+000	-3.1950005950e-001
 2.6817004063e+000	 1.6205483847e+000	-3.7169915252e-001
 2.6638895731e+000	 1.6496624172e+000	-4.2636099940e-001
 2.6457395471e+000	 1.6786171747e+000	-4.8094843538e-001
 2.6272523575e+000	 1.7074068260e+000	-5.3301093510e-001
 2.6084301654e+000	 1.7360255719e+000	-5.8083502627e-001
 2.5892752636e+000	 1.7644676483e+000	-6.2245668813e-001
 2.5697900756e+000	 1.7927273302e+000	-6.5568564339e-001
 2.5499771547e+000	 1.8207989356e+000	-6.7813225409e-001
 2.3329786009e+000	 1.6658521609e+000	-7.2895485388e-001
 2.3145543349e+000	 1.6913576940e+000	-7.5473854723e-001
 2.2958352475e+000	 1.7166808857e+000	-7.8644381052e-001
 2.2768240225e+000	 1.7418166714e+000	-8.2252984032e-001
 2.2575234588e+000	 1.7667600385e+000	-8.6143317621e-001
 2.2379364689e+000	 1.7915060304e+000	-9.0158662860e-001
 2.2180660781e+000	 1.8160497488e+000	-9.4143886236e-001
 2.1979154223e+000	 1.8403863575e+000	-9.7947447539e-001
 2.1774877469e+000	 1.8645110856e+000	-1.0142344063e+000
 2.1567864049e+000	 1.8884192298e+000	-1.0443365010e+000
 2.1358148552e+000	 1.9121061584e+000	-1.0684960663e+000
 2.3546784563e+000	 1.6813468383e+000	-7.1361968904e-001
 2.3360828197e+000	 1.7070896074e+000	-7.3880280606e-001
 2.3171896195e+000	 1.7326483391e+000	-7.6987825778e-001
 2.2980015644e+000	 1.7580179215e+000	-8.0539941830e-001
 2.2785214793e+000	 1.7831932957e+000	-8.4389136576e-001
 2.2587523040e+000	 1.8081694587e+000	-8.8387087425e-001
 2.2386970916e+000	 1.8329414669e+000	-9.2386710507e-001
 2.2183590075e+000	 1.8575044390e+000	-9.6244282715e-001
 2.1977413270e+000	 1.8818535596e+000	-9.9821599065e-001
 2.1768474346e+000	 1.9059840820e+000	-1.0298814735e+000
 2.1556808212e+000	 1.9298913311e+000	-1.0562328177e+000
 2.3763783116e+000	 1.6968415158e+000	-7.0223965408e-001
 2.3576113045e+000	 1.7228215208e+000	-7.2677311821e-001
 2.3385439915e+000	 1.7486157924e+000	-7.5711858250e-001
 2.3191791063e+000	 1.7742191716e+000	-7.9195745459e-001
 2.2995194998e+000	 1.7996265529e+000	-8.2993656284e-001
 2.2795681390e+000	 1.8248328871e+000	-8.6968921278e-001
 2.2593281052e+000	 1.8498331850e+000	-9.0985698919e-001
 2.2388025927e+000	 1.8746225205e+000	-9.4911212305e-001
 2.2179949072e+000	 1.8991960337e+000	-9.8618023736e-001
 2.1969084643e+000	 1.9235489341e+000	-1.0198632809e+000
 2.1755467871e+000	 1.9476765037e+000	-1.0490624560e+000
 2.3980781670e+000	 1.7123361933e+000	-6.9418395862e-001
 2.3791397893e+000	 1.7385534342e+000	-7.1800893989e-001
 2.3598983634e+000	 1.7645832457e+000	-7.4750919419e-001
 2.3403566481e+000	 1.7904204218e+000	-7.8152656387e-001
 2.3205175204e+000	 1.8160598101e+000	-8.1886137890e-001
 2.3003839741e+000	 1.8414963155e+000	-8.5829458314e-001
 2.2799591187e+000	 1.8667249031e+000	-8.9861065440e-001
 2.2592461779e+000	 1.8917406020e+000	-9.3862112725e-001
 2.2382484874e+000	 1.9165385078e+000	-9.7718852181e-001
 2.2169694940e+000	 1.9411137862e+000	-1.0132504765e+000
 2.1954127531e+000	 1.9654616763e+000	-1.0458438799e+000
 2.4197780224e+000	 1.7278308708e+000	-6.8881863571e-001
 2.4006682741e+000	 1.7542853477e+000	-7.1187071033e-001
 2.3812527354e+000	 1.7805506991e+000	-7.4039990097e-001
 2.3615341900e+000	 1.8066216719e+000	-7.7343944890e-001
 2.3415155409e+000	 1.8324930672e+000	-8.0997349474e-001
 2.3211998091e+000	 1.8581597438e+000	-8.4896028406e-001
 2.3005901323e+000	 1.8836166213e+000	-8.8935621713e-001
 2.2796897631e+000	 1.9088586835e+000	-9.3014054139e-001
 2.2585020676e+000	 1.9338809819e+000	-9.7034047837e-001
 2.2370305238e+000	 1.9586786384e+000	-1.0090565719e+000
 2.2152787191e+000	 1.9832468489e+000	-1.0454880411e+000
 2.4414778778e+000	 1.7433255482e+000	-6.8551012967e-001
 2.4221967589e+000	 1.7700172611e+000	-7.0772356103e-001
 2.4026071074e+000	 1.7965181524e+000	-7.3514972675e-001
 2.3827117319e+000	 1.8228229220e+000	-7.6704281030e-001
 2.3625135614e+000	 1.8489263244e+000	-8.0259964537e-001
 2.3420156442e+000	 1.8748231722e+000	-8.4098401460e-001
 2.3212211458e+000	 1.9005083394e+000	-8.8135184539e-001
 2.3001333483e+000	 1.9259767650e+000	-9.2287709030e-001
 2.2787556478e+000	 1.9512234559e+000	-9.6477807192e-001
 2.2570915535e+000	 1.9762434905e+000	-1.0063440674e+000
 2.2351446850e+000	 2.0010320215e+000	-1.0469518360e+000
 2.4631777331e+000	 1.7588202257e+000	-6.8362891345e-001
 2.4437252437e+000	 1.7857491745e+000	-7.0494105528e-001
 2.4239614793e+000	 1.8124856058e+000	-7.3113075993e-001
 2.4038892737e+000	 1.8390241722e+000	-7.6170128967e-001
 2.3835115820e+000	 1.8653595816e+000	-7.9608964087e-001
 2.3628314792e+000	 1.8914866005e+000	-8.3369195420e-001
 2.3418521594e+000	 1.9174000575e+000	-8.7388987764e-001
 2.3205769335e+000	 1.9430948465e+000	-9.1607765745e-001
 2.2990092280e+000	 1.9685659300e+000	-9.5968972560e-001
 2.2771525832e+000	 1.9938083427e+000	-1.0042285460e+000
 2.2550106510e+000	 2.0188171941e+000	-1.0459910201e+000
 2.4848775885e+000	 1.7743149032e+000	-6.8255313379e-001
 2.4652537285e+000	 1.8014810879e+000	-7.0290895584e-001
 2.4453158513e+000	 1.8284530591e+000	-7.2773203152e-001
 2.4250668156e+000	 1.8552254223e+000	-7.5680144398e-001
 2.4045096025e+000	 1.8817928388e+000	-7.8982042102e-001
 2.3836473142e+000	 1.9081500289e+000	-8.2644287994e-001
 2.3624831729e+000	 1.9342917756e+000	-8.6630098300e-001
 2.3410205187e+000	 1.9602129280e+000	-9.0903346687e-001
 2.3192628082e+000	 1.9859084041e+000	-9.5431450143e-001
 2.2972136130e+000	 2.0113731948e+000	-1.0006521435e+000
 2.2748766169e+000	 2.0366023667e+000	-1.0392589391e+000
 2.5065774439e+000	 1.7898095807e+000	-6.8167228246e-001
 2.4867822132e+000	 1.8172130013e+000	-7.0102901946e-001
 2.4666702233e+000	 1.8444205124e+000	-7.2436342099e-001
 2.4462443575e+000	 1.8714266724e+000	-7.5175574928e-001
 2.4255076230e+000	 1.8982260959e+000	-7.8320014182e-001
 2.4044631493e+000	 1.9248134572e+000	-8.1863231860e-001
 2.3831141864e+000	 1.9511834937e+000	-8.5795836040e-001
 2.3614641039e+000	 1.9773310094e+000	-9.0108430878e-001
 2.3395163884e+000	 2.0032508782e+000	-9.4784369676e-001
 2.3172746427e+000	 2.0289380470e+000	-9.9068648616e-001
 2.2947425829e+000	 2.0543875393e+000	-1.0261805635e+000
 2.5282772993e+000	 1.8053042581e+000	-6.8039089190e-001
 2.5083106980e+000	 1.8329449147e+000	-6.9872281622e-001
 2.4880245952e+000	 1.8603879658e+000	-7.2045958816e-001
 2.4674218994e+000	 1.8876279226e+000	-7.4600663212e-001
 2.4465056436e+000	 1.9146593531e+000	-7.7567229167e-001
 2.4252789843e+000	 1.9414768856e+000	-8.0969673163e-001
 2.4037452000e+000	 1.9680752119e+000	-8.4828197413e-001
 2.3819076891e+000	 1.9944490909e+000	-8.9162280644e-001
 2.3597699686e+000	 2.0205933522e+000	-9.3587702996e-001
 2.3373356724e+000	 2.0465028991e+000	-9.7351608129e-001
 2.3146085489e+000	 2.0721727119e+000	-1.0062612095e+000
 2.5499771547e+000	 1.8207989356e+000	-6.7813225409e-001
 2.5298391828e+000	 1.8486768282e+000	-6.9543557257e-001
 2.5093789672e+000	 1.8763554191e+000	-7.1548392959e-001
 2.4885994412e+000	 1.9038291727e+000	-7.3903052695e-001
 2.4675036641e+000	 1.9310926103e+000	-7.6671983585e-001
 2.4460948194e+000	 1.9581403139e+000	-7.9911773086e-001
 2.4243762135e+000	 1.9849669300e+000	-8.3674282385e-001
 2.4023512743e+000	 2.0115671724e+000	-8.7879088144e-001
 2.3800235488e+000	 2.0379358263e+000	-9.1612097100e-001
 2.3573967021e+000	 2.0640677512e+000	-9.4876890808e-001
 2.3344745148e+000	 2.0899578845e+000	-9.7908283280e-001
 2.1358148552e+000	 1.9121061584e+000	-1.0684960663e+000
 2.1145798665e+000	 1.9355638122e+000	-1.0872317310e+000
 2.0930819779e+000	 1.9587912834e+000	-1.1041108793e+000
 2.0713249545e+000	 1.9817841752e+000	-1.1225542957e+000
 2.0493126586e+000	 2.0045381730e+000	-1.1458822955e+000
 2.0270490478e+000	 2.0270490478e+000	-1.1718646568e+000
 2.0045381730e+000	 2.0493126586e+000	-1.2020173200e+000
 1.9817841752e+000	 2.0713249545e+000	-1.2311175505e+000
 1.9587912834e+000	 2.0930819779e+000	-1.2420329629e+000
 1.9355638122e+000	 2.1145798665e+000	-1.2355925407e+000
 1.9121061584e+000	 2.1358148552e+000	-1.2130328733e+000
 2.1556808212e+000	 1.9298913311e+000	-1.0562328177e+000
 2.1342483183e+000	 1.9535671727e+000	-1.0770666951e+000
 2.1125504704e+000	 1.9770106908e+000	-1.0950092125e+000
 2.0905910772e+000	 2.0002174476e+000	-1.1132377048e+000
 2.0683740371e+000	 2.0231830883e+000	-1.1302825945e+000
 2.0459033447e+000	 2.0459033447e+000	-1.1455994196e+000
 2.0231830883e+000	 2.0683740371e+000	-1.1634904031e+000
 2.0002174476e+000	 2.0905910772e+000	-1.1881657325e+000
 1.9770106908e+000	 2.1125504704e+000	-1.2077926255e+000
 1.9535671727e+000	 2.1342483183e+000	-1.2079079327e+000
 1.9298913311e+000	 2.1556808212e+000	-1.1894504882e+000
 2.1755467871e+000	 1.9476765037e+000	-1.0490624560e+000
 2.1539167702e+000	 1.9715705332e+000	-1.0729171236e+000
 2.1320189628e+000	 1.9952300982e+000	-1.0931118783e+000
 2.1098571999e+000	 2.0186507199e+000	-1.1093992787e+000
 2.0874354157e+000	 2.0418280036e+000	-1.1188539597e+000
 2.0647576416e+000	 2.0647576416e+000	-1.1253279653e+000
 2.0418280036e+000	 2.0874354157e+000	-1.1328087673e+000
 2.0186507199e+000	 2.1098571999e+000	-1.1451966612e+000
 1.9952300982e+000	 2.1320189628e+000	-1.1655971956e+000
 1.9715705332e+000	 2.1539167702e+000	-1.1746262332e+000
 1.9476765037e+000	 2.1755467871e+000	-1.1624446391e+000
 2.1954127531e+000	 1.9654616763e+000	-1.0458438799e+000
 2.1735852220e+000	 1.9895738937e+000	-1.0735323172e+000
 2.1514874552e+000	 2.0134495056e+000	-1.0954305638e+000
 2.1291233226e+000	 2.0370839923e+000	-1.1068179988e+000
 2.1064967943e+000	 2.0604729190e+000	-1.1104089936e+000
 2.0836119385e+000	 2.0836119385e+000	-1.1098833408e+000
 2.0604729190e+000	 2.1064967943e+000	-1.1088526366e+000
 2.0370839923e+000	 2.1291233226e+000	-1.1108476079e+000
 2.0134495056e+000	 2.1514874552e+000	-1.1193058075e+000
 1.9895738937e+000	 2.1735852220e+000	-1.1341349010e+000
 1.9654616763e+000	 2.1954127531e+000	-1.1305573977e+000
 2.2152787191e+000	 1.9832468489e+000	-1.0454880411e+000
 2.1932536739e+000	 2.0075772542e+000	-1.0771881944e+000
 2.1709559476e+000	 2.0316689130e+000	-1.0966216918e+000
 2.1483894453e+000	 2.0555172647e+000	-1.1044214171e+000
 2.1255581729e+000	 2.0791178343e+000	-1.1038724584e+000
 2.1024662354e+000	 2.1024662354e+000	-1.0982117560e+000
 2.0791178343e+000	 2.1255581729e+000	-1.0906154604e+000
 2.0555172647e+000	 2.1483894453e+000	-1.0841865758e+000
 2.0316689130e+000	 2.1709559476e+000	-1.0819429737e+000
 2.0075772542e+000	 2.1932536739e+000	-1.0868058630e+000
 1.9832468489e+000	 2.2152787191e+000	-1.0924825717e+000
 2.2351446850e+000	 2.0010320215e+000	-1.0469518360e+000
 2.2129221257e+000	 2.0255806147e+000	-1.0783686567e+000
 2.1904244401e+000	 2.0498883204e+000	-1.0955316216e+000
 2.1676555679e+000	 2.0739505371e+000	-1.1012427177e+000
 2.1446195514e+000	 2.0977627496e+000	-1.0982765169e+000
 2.1213205323e+000	 2.1213205323e+000	-1.0893677462e+000
 2.0977627496e+000	 2.1446195514e+000	-1.0771990473e+000
 2.0739505371e+000	 2.1676555679e+000	-1.0643890187e+000
 2.0498883204e+000	 2.1904244401e+000	-1.0534806332e+000
 2.0255806147e+000	 2.2129221257e+000	-1.0469301149e+000
 2.0010320215e+000	 2.2351446850e+000	-1.0470963628e+000
 2.2550106510e+000	 2.0188171941e+000	-1.0459910201e+000
 2.2325905776e+000	 2.0435839752e+000	-1.0752478604e+000
 2.2098929325e+000	 2.0681077278e+000	-1.0913151060e+000
 2.1869216906e+000	 2.0923838094e+000	-1.0964161758e+000
 2.1636809300e+000	 2.1164076649e+000	-1.0927560713e+000
 2.1401748292e+000	 2.1401748292e+000	-1.0825094352e+000
 2.1164076649e+000	 2.1636809300e+000	-1.0678087952e+000
 2.0923838094e+000	 2.1869216906e+000	-1.0507330882e+000
 2.0681077278e+000	 2.2098929325e+000	-1.0332965600e+000
 2.0435839752e+000	 2.2325905776e+000	-1.0174381306e+000
 2.0188171941e+000	 2.2550106510e+000	-1.0050113108e+000
 2.2748766169e+000	 2.0366023667e+000	-1.0392589391e+000
 2.2522590294e+000	 2.0615873357e+000	-1.0671120967e+000
 2.2293614249e+000	 2.0863271352e+000	-1.0832212872e+000
 2.2061878133e+000	 2.1108170818e+000	-1.0891727038e+000
 2.1827423086e+000	 2.1350525802e+000	-1.0865441939e+000
 2.1590291261e+000	 2.1590291261e+000	-1.0768938895e+000
 2.1350525802e+000	 2.1827423086e+000	-1.0617490142e+000
 2.1108170818e+000	 2.2061878133e+000	-1.0425949686e+000
 2.0863271352e+000	 2.2293614249e+000	-1.0208647906e+000
 2.0615873357e+000	 2.2522590294e+000	-9.9792908410e-001
 2.0366023667e+000	 2.2748766169e+000	-9.7508650595e-001
 2.2947425829e+000	 2.0543875393e+000	-1.0261805635e+000
 2.2719274813e+000	 2.0795906962e+000	-1.0533350914e+000
 2.2488299173e+000	 2.1045465426e+000	-1.0705894770e+000
 2.2254539360e+000	 2.1292503542e+000	-1.0788354813e+000
 2.2018036872e+000	 2.1536974956e+000	-1.0789676437e+000
 2.1778834230e+000	 2.1778834230e+000	-1.0718725605e+000
 2.1536974956e+000	 2.2018036872e+000	-1.0584183340e+000
 2.1292503542e+000	 2.2254539360e+000	-1.0394442943e+000
 2.1045465426e+000	 2.2488299173e+000	-1.0157510953e+000
 2.0795906962e+000	 2.2719274813e+000	-9.8809128113e-001
 2.0543875393e+000	 2.2947425829e+000	-9.5716041526e-001
 2.3146085489e+000	 2.0721727119e+000	-1.0062612095e+000
 2.2915959331e+000	 2.0975940567e+000	-1.0333740363e+000
 2.2682984098e+000	 2.1227659500e+000	-1.0528450098e+000
 2.2447200587e+000	 2.1476836265e+000	-1.0648156642e+000
 2.2208650657e+000	 2.1723424109e+000	-1.0694424643e+000
 2.1967377199e+000	 2.1967377199e+000	-1.0668868084e+000
 2.1723424109e+000	 2.2208650657e+000	-1.0573051930e+000
 2.1476836265e+000	 2.2447200587e+000	-1.0408396445e+000
 2.1227659500e+000	 2.2682984098e+000	-1.0176085233e+000
 2.0975940567e+000	 2.2915959331e+000	-9.8769779840e-001
 2.0721727119e+000	 2.3146085489e+000	-9.5115288965e-001
 2.3344745148e+000	 2.0899578845e+000	-9.7908283280e-001
 2.3112643850e+000	 2.1155974172e+000	-1.0067656837e+000
 2.2877669022e+000	 2.1409853574e+000	-1.0294951663e+000
 2.2639861814e+000	 2.1661168989e+000	-1.0466081663e+000
 2.2399264443e+000	 2.1909873262e+000	-1.0574696576e+000
 2.2155920168e+000	 2.2155920168e+000	-1.0614635025e+000
 2.1909873262e+000	 2.2399264443e+000	-1.0579834025e+000
 2.1661168989e+000	 2.2639861814e+000	-1.0464241112e+000
 2.1409853574e+000	 2.2877669022e+000	-1.0261730146e+000
 2.1155974172e+000	 2.3112643850e+000	-9.9660218386e-001
 2.0899578845e+000	 2.3344745148e+000	-9.5706099715e-001
 1.9121061584e+000	 2.1358148552e+000	-1.2130328733e+000
 1.8884192298e+000	 2.1567864049e+000	-1.1897778419e+000
 1.8645110856e+000	 2.1774877469e+000	-1.1786987726e+000
 1.8403863575e+000	 2.1979154223e+000	-1.1770318168e+000
 1.8160497488e+000	 2.2180660781e+000	-1.1819902194e+000
 1.7915060304e+000	 2.2379364689e+000	-1.1907845426e+000
 1.7667600385e+000	 2.2575234588e+000	-1.2006424832e+000
 1.7418166714e+000	 2.2768240225e+000	-1.2088281503e+000
 1.7166808857e+000	 2.2958352475e+000	-1.2126606745e+000
 1.6913576940e+000	 2.3145543349e+000	-1.2095320265e+000
 1.6658521609e+000	 2.3329786009e+000	-1.1969239282e+000
 1.9298913311e+000	 2.1556808212e+000	-1.1894504882e+000
 1.9059840820e+000	 2.1768474346e+000	-1.1685638307e+000
 1.8818535596e+000	 2.1977413270e+000	-1.1591154986e+000
 1.8575044390e+000	 2.2183590075e+000	-1.1584636966e+000
 1.8329414669e+000	 2.2386970916e+000	-1.1639439520e+000
 1.8081694587e+000	 2.2587523040e+000	-1.1728901322e+000
 1.7831932957e+000	 2.2785214793e+000	-1.1826550297e+000
 1.7580179215e+000	 2.2980015644e+000	-1.1906303770e+000
 1.7326483391e+000	 2.3171896195e+000	-1.1942661549e+000
 1.7070896074e+000	 2.3360828197e+000	-1.1910890641e+000
 1.6813468383e+000	 2.3546784563e+000	-1.1787200406e+000
 1.9476765037e+000	 2.1755467871e+000	-1.1624446391e+000
 1.9235489341e+000	 2.1969084643e+000	-1.1458008962e+000
 1.8991960337e+000	 2.2179949072e+000	-1.1395036117e+000
 1.8746225205e+000	 2.2388025927e+000	-1.1410653419e+000
 1.8498331850e+000	 2.2593281052e+000	-1.1479752063e+000
 1.8248328871e+000	 2.2795681390e+000	-1.1577206915e+000
 1.7996265529e+000	 2.2995194998e+000	-1.1678090012e+000
 1.7742191716e+000	 2.3191791063e+000	-1.1757878049e+000
 1.7486157924e+000	 2.3385439915e+000	-1.1792652419e+000
 1.7228215208e+000	 2.3576113045e+000	-1.1759290463e+000
 1.6968415158e+000	 2.3763783116e+000	-1.1635646631e+000
 1.9654616763e+000	 2.1954127531e+000	-1.1305573977e+000
 1.9411137862e+000	 2.2169694940e+000	-1.1201908977e+000
 1.9165385078e+000	 2.2382484874e+000	-1.1187016724e+000
 1.8917406020e+000	 2.2592461779e+000	-1.1237876721e+000
 1.8667249031e+000	 2.2799591187e+000	-1.1331216892e+000
 1.8414963155e+000	 2.3003839741e+000	-1.1443739478e+000
 1.8160598101e+000	 2.3205175204e+000	-1.1552342172e+000
 1.7904204218e+000	 2.3403566481e+000	-1.1634332936e+000
 1.7645832457e+000	 2.3598983634e+000	-1.1667637016e+000
 1.7385534342e+000	 2.3791397893e+000	-1.1630994725e+000
 1.7123361933e+000	 2.3980781670e+000	-1.1504148637e+000
 1.9832468489e+000	 2.2152787191e+000	-1.0924825717e+000
 1.9586786384e+000	 2.2370305238e+000	-1.0905844211e+000
 1.9338809819e+000	 2.2585020676e+000	-1.0956946648e+000
 1.9088586835e+000	 2.2796897631e+000	-1.1057264528e+000
 1.8836166213e+000	 2.3005901323e+000	-1.1185651237e+000
 1.8581597438e+000	 2.3211998091e+000	-1.1320915803e+000
 1.8324930672e+000	 2.3415155409e+000	-1.1442051686e+000
 1.8066216719e+000	 2.3615341900e+000	-1.1528458962e+000
 1.7805506991e+000	 2.3812527354e+000	-1.1560158343e+000
 1.7542853477e+000	 2.4006682741e+000	-1.1517995528e+000
 1.7278308708e+000	 2.4197780224e+000	-1.1383834483e+000
 2.0010320215e+000	 2.2351446850e+000	-1.0470963628e+000
 1.9762434905e+000	 2.2570915535e+000	-1.0559768130e+000
 1.9512234559e+000	 2.2787556478e+000	-1.0696103065e+000
 1.9259767650e+000	 2.3001333483e+000	-1.0861188515e+000
 1.9005083394e+000	 2.3212211458e+000	-1.1036280165e+000
 1.8748231722e+000	 2.3420156442e+000	-1.1202561650e+000
 1.8489263244e+000	 2.3625135614e+000	-1.1341381050e+000
 1.8228229220e+000	 2.3827117319e+000	-1.1434480504e+000
 1.7965181524e+000	 2.4026071074e+000	-1.1464217302e+000
 1.7700172611e+000	 2.4221967589e+000	-1.1413774875e+000
 1.7433255482e+000	 2.4414778778e+000	-1.1267362217e+000
 2.0188171941e+000	 2.2550106510e+000	-1.0050113108e+000
 1.9938083427e+000	 2.2771525832e+000	-1.0155042676e+000
 1.9685659300e+000	 2.2990092280e+000	-1.0397154012e+000
 1.9430948465e+000	 2.3205769335e+000	-1.0643400264e+000
 1.9174000575e+000	 2.3418521594e+000	-1.0877704520e+000
 1.8914866005e+000	 2.3628314792e+000	-1.1083881410e+000
 1.8653595816e+000	 2.3835115820e+000	-1.1245881383e+000
 1.8390241722e+000	 2.4038892737e+000	-1.1348027845e+000
 1.8124856058e+000	 2.4239614793e+000	-1.1375245414e+000
 1.7857491745e+000	 2.4437252437e+000	-1.1313277656e+000
 1.7588202257e+000	 2.4631777331e+000	-1.1148892734e+000
 2.0366023667e+000	 2.2748766169e+000	-9.7508650595e-001
 2.0113731948e+000	 2.2972136130e+000	-9.7283897903e-001
 1.9859084041e+000	 2.3192628082e+000	-1.0054122310e+000
 1.9602129280e+000	 2.3410205187e+000	-1.0398997454e+000
 1.9342917756e+000	 2.3624831729e+000	-1.0705869094e+000
 1.9081500289e+000	 2.3836473142e+000	-1.0961427951e+000
 1.8817928388e+000	 2.4045096025e+000	-1.1152463629e+000
 1.8552254223e+000	 2.4250668156e+000	-1.1266109386e+000
 1.8284530591e+000	 2.4453158513e+000	-1.1290077690e+000
 1.8014810879e+000	 2.4652537285e+000	-1.1212884818e+000
 1.7743149032e+000	 2.4848775885e+000	-1.1024062869e+000
 2.0543875393e+000	 2.2947425829e+000	-9.5716041526e-001
 2.0289380470e+000	 2.3172746427e+000	-9.4292557854e-001
 2.0032508782e+000	 2.3395163884e+000	-9.6660317630e-001
 1.9773310094e+000	 2.3614641039e+000	-1.0124390358e+000
 1.9511834937e+000	 2.3831141864e+000	-1.0518031034e+000
 1.9248134572e+000	 2.4044631493e+000	-1.0833072649e+000
 1.8982260959e+000	 2.4255076230e+000	-1.1059369900e+000
 1.8714266724e+000	 2.4462443575e+000	-1.1187083993e+000
 1.8444205124e+000	 2.4666702233e+000	-1.1206925644e+000
 1.8172130013e+000	 2.4867822132e+000	-1.1110386708e+000
 1.7898095807e+000	 2.5065774439e+000	-1.0889958703e+000
 2.0721727119e+000	 2.3146085489e+000	-9.5115288965e-001
 2.0465028991e+000	 2.3373356724e+000	-9.2712773268e-001
 2.0205933522e+000	 2.3597699686e+000	-9.3674091812e-001
 1.9944490909e+000	 2.3819076891e+000	-9.8172685943e-001
 1.9680752119e+000	 2.4037452000e+000	-1.0312728456e+000
 1.9414768856e+000	 2.4252789843e+000	-1.0697975577e+000
 1.9146593531e+000	 2.4465056436e+000	-1.0966144963e+000
 1.8876279226e+000	 2.4674218994e+000	-1.1110633470e+000
 1.8603879658e+000	 2.4880245952e+000	-1.1125350446e+000
 1.8329449147e+000	 2.5083106980e+000	-1.1004956570e+000
 1.8053042581e+000	 2.5282772993e+000	-1.0745089077e+000
 2.0899578845e+000	 2.3344745148e+000	-9.5706099715e-001
 2.0640677512e+000	 2.3573967021e+000	-9.2559143682e-001
 2.0379358263e+000	 2.3800235488e+000	-9.2296310413e-001
 2.0115671724e+000	 2.4023512743e+000	-9.5245671048e-001
 1.9849669300e+000	 2.4243762135e+000	-1.0089749261e+000
 1.9581403139e+000	 2.4460948194e+000	-1.0556555863e+000
 1.9310926103e+000	 2.4675036641e+000	-1.0873607858e+000
 1.9038291727e+000	 2.4885994412e+000	-1.1037735158e+000
 1.8763554191e+000	 2.5093789672e+000	-1.1046236199e+000
 1.8486768282e+000	 2.5298391828e+000	-1.0897124198e+000
 1.8207989356e+000	 2.5499771547e+000	-1.0589359294e+000
 1.6658521609e+000	 2.3329786009e+000	-1.1969239282e+000
 1.6401693995e+000	 2.3511054772e+000	-1.1790491050e+000
 1.6143145666e+000	 2.3689325102e+000	-1.1601758288e+000
 1.5882928607e+000	 2.3864573637e+000	-1.1380609349e+000
 1.5621095196e+000	 2.4036778204e+000	-1.1106239104e+000
 1.5357698167e+000	 2.4205917828e+000	-1.0759576524e+000
 1.5092790580e+000	 2.4371972736e+000	-1.0323377735e+000
 1.4826425783e+000	 2.4534924364e+000	-9.7823040447e-001
 1.4558657382e+000	 2.4694755356e+000	-9.1229845707e-001
 1.4289539205e+000	 2.4851449573e+000	-8.3340631964e-001
 1.4019125270e+000	 2.5004992089e+000	-7.4062297100e-001
 1.6813468383e+000	 2.3546784563e+000	-1.1787200406e+000
 1.6554251926e+000	 2.3729739370e+000	-1.1617097554e+000
 1.6293298748e+000	 2.3909667855e+000	-1.1442943252e+000
 1.6030661319e+000	 2.4086546438e+000	-1.1238359502e+000
 1.5766392503e+000	 2.4260352741e+000	-1.0978839267e+000
 1.5500545525e+000	 2.4431065592e+000	-1.0641865232e+000
 1.5233173939e+000	 2.4598665036e+000	-1.0207012845e+000
 1.4964331589e+000	 2.4763132334e+000	-9.6560371039e-001
 1.4694072580e+000	 2.4924449970e+000	-8.9729426928e-001
 1.4422451241e+000	 2.5082601655e+000	-8.1440371607e-001
 1.4149522090e+000	 2.5237572325e+000	-7.1579669866e-001
 1.6968415158e+000	 2.3763783116e+000	-1.1635646631e+000
 1.6706809857e+000	 2.3948423969e+000	-1.1472241962e+000
 1.6443451829e+000	 2.4130010609e+000	-1.1312968771e+000
 1.6178394030e+000	 2.4308519240e+000	-1.1128061136e+000
 1.5911689809e+000	 2.4483927278e+000	-1.0889849921e+000
 1.5643392883e+000	 2.4656213356e+000	-1.0572892262e+000
 1.5373557298e+000	 2.4825357335e+000	-1.0154084155e+000
 1.5102237396e+000	 2.4991340303e+000	-9.6127555847e-001
 1.4829487779e+000	 2.5154144584e+000	-8.9307477390e-001
 1.4555363276e+000	 2.5313753737e+000	-8.0924720066e-001
 1.4279918910e+000	 2.5470152560e+000	-7.0849505630e-001
 1.7123361933e+000	 2.3980781670e+000	-1.1504148637e+000
 1.6859367787e+000	 2.4167108567e+000	-1.1344185576e+000
 1.6593604911e+000	 2.4350353362e+000	-1.1198292627e+000
 1.6326126741e+000	 2.4530492042e+000	-1.1033856888e+000
 1.6056987115e+000	 2.4707501815e+000	-1.0820570178e+000
 1.5786240241e+000	 2.4881361121e+000	-1.0530568837e+000
 1.5513940657e+000	 2.5052049635e+000	-1.0138555454e+000
 1.5240143202e+000	 2.5219548273e+000	-9.6219019200e-001
 1.4964902977e+000	 2.5383839198e+000	-8.9607333340e-001
 1.4688275311e+000	 2.5544905819e+000	-8.1379924183e-001
 1.4410315730e+000	 2.5702732795e+000	-7.1394842420e-001
 1.7278308708e+000	 2.4197780224e+000	-1.1383834483e+000
 1.7011925718e+000	 2.4385793165e+000	-1.1222798653e+000
 1.6743757993e+000	 2.4570696116e+000	-1.1087047474e+000
 1.6473859452e+000	 2.4752464844e+000	-1.0941644967e+000
 1.6202284422e+000	 2.4931076352e+000	-1.0754150669e+000
 1.5929087599e+000	 2.5106508885e+000	-1.0494769336e+000
 1.5654324017e+000	 2.5278741934e+000	-1.0136481432e+000
 1.5378049009e+000	 2.5447756243e+000	-9.6551537242e-001
 1.5100318175e+000	 2.5613533813e+000	-9.0296294974e-001
 1.4821187347e+000	 2.5776057902e+000	-8.2417980153e-001
 1.4540712550e+000	 2.5935313031e+000	-7.2766430094e-001
 1.7433255482e+000	 2.4414778778e+000	-1.1267362217e+000
 1.7164483649e+000	 2.4604477764e+000	-1.1099532289e+000
 1.6893911074e+000	 2.4791038869e+000	-1.0969011281e+000
 1.6621592163e+000	 2.4974437645e+000	-1.0839047458e+000
 1.6347581728e+000	 2.5154650889e+000	-1.0675558954e+000
 1.6071934957e+000	 2.5331656649e+000	-1.0447293035e+000
 1.5794707376e+000	 2.5505434234e+000	-1.0125964964e+000
 1.5515954815e+000	 2.5675964213e+000	-9.6863757905e-001
 1.5235733373e+000	 2.5843228427e+000	-9.1065085126e-001
 1.4954099382e+000	 2.6007209984e+000	-8.3676022274e-001
 1.4671109370e+000	 2.6167893266e+000	-7.4542040285e-001
 1.7588202257e+000	 2.4631777331e+000	-1.1148892734e+000
 1.7317041579e+000	 2.4823162362e+000	-1.0967390623e+000
 1.7044064156e+000	 2.5011381623e+000	-1.0835578240e+000
 1.6769324874e+000	 2.5196410447e+000	-1.0715379229e+000
 1.6492879035e+000	 2.5378225426e+000	-1.0571545740e+000
 1.6214782315e+000	 2.5556804414e+000	-1.0371826895e+000
 1.5935090735e+000	 2.5732126533e+000	-1.0087115710e+000
 1.5653860622e+000	 2.5904172183e+000	-9.6915737307e-001
 1.5371148572e+000	 2.6072923041e+000	-9.1627328067e-001
 1.5087011417e+000	 2.6238362066e+000	-8.4815735934e-001
 1.4801506190e+000	 2.6400473501e+000	-7.6325805169e-001
 1.7743149032e+000	 2.4848775885e+000	-1.1024062869e+000
 1.7469599510e+000	 2.5041846960e+000	-1.0820903354e+000
 1.7194217238e+000	 2.5231724376e+000	-1.0679730080e+000
 1.6917057586e+000	 2.5418383249e+000	-1.0561617416e+000
 1.6638176341e+000	 2.5601799963e+000	-1.0430611843e+000
 1.6357629673e+000	 2.5781952178e+000	-1.0253909324e+000
 1.6075474094e+000	 2.5958818832e+000	-1.0002009959e+000
 1.5791766428e+000	 2.6132380153e+000	-9.6488491597e-001
 1.5506563770e+000	 2.6302617655e+000	-9.1719047179e-001
 1.5219923453e+000	 2.6469514149e+000	-8.5522793344e-001
 1.4931903010e+000	 2.6633053737e+000	-7.7747583280e-001
 1.7898095807e+000	 2.5065774439e+000	-1.0889958703e+000
 1.7622157441e+000	 2.5260531559e+000	-1.0656098551e+000
 1.7344370319e+000	 2.5452067129e+000	-1.0496007793e+000
 1.7064790297e+000	 2.5640356051e+000	-1.0370371436e+000
 1.6783473647e+000	 2.5825374500e+000	-1.0242975870e+000
 1.6500477031e+000	 2.6007099942e+000	-1.0080894856e+000
 1.6215857453e+000	 2.6185511132e+000	-9.8546516319e-001
 1.5929672234e+000	 2.6360588123e+000	-9.5383563284e-001
 1.5641978968e+000	 2.6532312270e+000	-9.1098180369e-001
 1.5352835488e+000	 2.6700666231e+000	-8.5503834928e-001
 1.5062299830e+000	 2.6865633972e+000	-7.8388667695e-001
 1.8053042581e+000	 2.5282772993e+000	-1.0745089077e+000
 1.7774715371e+000	 2.5479216157e+000	-1.0470475728e+000
 1.7494523401e+000	 2.5672409883e+000	-1.0280483715e+000
 1.7212523008e+000	 2.5862328852e+000	-1.0135853499e+000
 1.6928770954e+000	 2.6048949037e+000	-1.0000542554e+000
 1.6643324389e+000	 2.6232247706e+000	-9.8419196968e-001
 1.6356240813e+000	 2.6412203431e+000	-9.6309343874e-001
 1.6067578041e+000	 2.6588796093e+000	-9.3422601203e-001
 1.5777394166e+000	 2.6762006884e+000	-8.9528946924e-001
 1.5485747523e+000	 2.6931818313e+000	-8.4407573726e-001
 1.5192696650e+000	 2.7098214207e+000	-7.7975122134e-001
 1.8207989356e+000	 2.5499771547e+000	-1.0589359294e+000
 1.7927273302e+000	 2.5697900756e+000	-1.0262979187e+000
 1.7644676483e+000	 2.5892752636e+000	-1.0030733965e+000
 1.7360255719e+000	 2.6084301654e+000	-9.8538496060e-001
 1.7074068260e+000	 2.6272523575e+000	-9.6968717323e-001
 1.6786171747e+000	 2.6457395471e+000	-9.5278680805e-001
 1.6496624172e+000	 2.6638895731e+000	-9.3186047513e-001
 1.6205483847e+000	 2.6817004063e+000	-9.0417649370e-001
 1.5912809365e+000	 2.6991701498e+000	-8.6767022295e-001
 1.5618659559e+000	 2.7162970396e+000	-8.2147025700e-001
 1.5323093471e+000	 2.7330794442e+000	-7.6496387956e-001
 1.4019125270e+000	 2.5004992089e+000	-7.4062297100e-001
 1.3747510586e+000	 2.5155346883e+000	-6.7001434385e-001
 1.3474708973e+000	 2.5302524749e+000	-6.6105803476e-001
 1.3200774803e+000	 2.5446514432e+000	-7.0805563670e-001
 1.2925762503e+000	 2.5587305887e+000	-7.4923563719e-001
 1.2649726523e+000	 2.5724890275e+000	-7.7408873556e-001
 1.2372721302e+000	 2.5859259956e+000	-7.8363616298e-001
 1.2094801237e+000	 2.5990408487e+000	-7.7896155006e-001
 1.1816020650e+000	 2.6118330614e+000	-7.6117979228e-001
 1.1536433759e+000	 2.6243022261e+000	-7.3140581098e-001
 1.1256094643e+000	 2.6364480523e+000	-6.9072359518e-001
 1.4149522090e+000	 2.5237572325e+000	-7.1579669866e-001
 1.3875381023e+000	 2.5389325621e+000	-6.3553995968e-001
 1.3600041986e+000	 2.5537872440e+000	-6.1178508259e-001
 1.3323559857e+000	 2.5683201422e+000	-6.4964903989e-001
 1.3045989571e+000	 2.5825302428e+000	-7.0563119801e-001
 1.2767386083e+000	 2.5964166536e+000	-7.3997715055e-001
 1.2487804339e+000	 2.6099786037e+000	-7.5449370888e-001
 1.2207299242e+000	 2.6232154428e+000	-7.5102038987e-001
 1.1925925618e+000	 2.6361266403e+000	-7.3139411214e-001
 1.1643738191e+000	 2.6487117851e+000	-6.9741389996e-001
 1.1360791543e+000	 2.6609705839e+000	-6.5080600858e-001
 1.4279918910e+000	 2.5470152560e+000	-7.0849505630e-001
 1.4003251459e+000	 2.5623304359e+000	-6.2249971283e-001
 1.3725374998e+000	 2.5773220132e+000	-5.8758878870e-001
 1.3446344912e+000	 2.5919888412e+000	-6.0962154287e-001
 1.3166216639e+000	 2.6063298969e+000	-6.7762364643e-001
 1.2885045643e+000	 2.6203442798e+000	-7.2581800953e-001
 1.2602887376e+000	 2.6340312119e+000	-7.4904245433e-001
 1.2319797246e+000	 2.6473900368e+000	-7.4982042322e-001
 1.2035830587e+000	 2.6604202192e+000	-7.3064486269e-001
 1.1751042623e+000	 2.6731213441e+000	-6.9355222115e-001
 1.1465488442e+000	 2.6854931155e+000	-6.3858754162e-001
 1.4410315730e+000	 2.5702732795e+000	-7.1394842420e-001
 1.4131121895e+000	 2.5857283097e+000	-6.2550493344e-001
 1.3850708010e+000	 2.6008567823e+000	-5.8255150630e-001
 1.3569129966e+000	 2.6156575402e+000	-5.9151631069e-001
 1.3286443707e+000	 2.6301295510e+000	-6.5740770120e-001
 1.3002705204e+000	 2.6442719060e+000	-7.2335812803e-001
 1.2717970413e+000	 2.6580838200e+000	-7.5869214683e-001
 1.2432295251e+000	 2.6715646308e+000	-7.6637380986e-001
 1.2145735555e+000	 2.6847137981e+000	-7.4750892896e-001
 1.1858347055e+000	 2.6975309030e+000	-7.0443737204e-001
 1.1570185342e+000	 2.7100156471e+000	-6.3985373949e-001
 1.4540712550e+000	 2.5935313031e+000	-7.2766430094e-001
 1.4258992331e+000	 2.6091261836e+000	-6.3946280085e-001
 1.3976041023e+000	 2.6243915514e+000	-5.9106651097e-001
 1.3691915020e+000	 2.6393262393e+000	-5.8935465184e-001
 1.3406670775e+000	 2.6539292051e+000	-6.4110685895e-001
 1.3120364764e+000	 2.6681995322e+000	-7.2488334587e-001
 1.2833053451e+000	 2.6821364282e+000	-7.7396141592e-001
 1.2544793256e+000	 2.6957392248e+000	-7.8770258900e-001
 1.2255640523e+000	 2.7090073770e+000	-7.6957732825e-001
 1.1965651487e+000	 2.7219404620e+000	-7.2286477852e-001
 1.1674882241e+000	 2.7345381787e+000	-6.5063468401e-001
 1.4671109370e+000	 2.6167893266e+000	-7.4542040285e-001
 1.4386862768e+000	 2.6325240574e+000	-6.5956868444e-001
 1.4101374035e+000	 2.6479263206e+000	-6.0782973449e-001
 1.3814700074e+000	 2.6629949383e+000	-5.9741907079e-001
 1.3526897843e+000	 2.6777288592e+000	-6.3491023891e-001
 1.3238024324e+000	 2.6921271584e+000	-7.2036439476e-001
 1.2948136488e+000	 2.7061890363e+000	-7.8430195477e-001
 1.2657291261e+000	 2.7199138188e+000	-8.0730029149e-001
 1.2365545492e+000	 2.7333009559e+000	-7.9317798694e-001
 1.2072955920e+000	 2.7463500210e+000	-7.4554161351e-001
 1.1779579140e+000	 2.7590607103e+000	-6.6776740809e-001
 1.4801506190e+000	 2.6400473501e+000	-7.6325805169e-001
 1.4514733204e+000	 2.6559219312e+000	-6.8129881675e-001
 1.4226707048e+000	 2.6714610897e+000	-6.2775352579e-001
 1.3937485129e+000	 2.6866636373e+000	-6.0896144413e-001
 1.3647124911e+000	 2.7015285133e+000	-6.3204029594e-001
 1.3355683884e+000	 2.7160547845e+000	-7.0425524944e-001
 1.3063219525e+000	 2.7302416445e+000	-7.8657015981e-001
 1.2769789265e+000	 2.7440884129e+000	-8.2237491605e-001
 1.2475450460e+000	 2.7575945348e+000	-8.1543364916e-001
 1.2180260352e+000	 2.7707595800e+000	-7.6960754334e-001
 1.1884276040e+000	 2.7835832419e+000	-6.8851241785e-001
 1.4931903010e+000	 2.6633053737e+000	-7.7747583280e-001
 1.4642603640e+000	 2.6793198050e+000	-6.9999154549e-001
 1.4352040060e+000	 2.6949958588e+000	-6.4443744191e-001
 1.4060270183e+000	 2.7103323363e+000	-6.1860281982e-001
 1.3767351979e+000	 2.7253281674e+000	-6.3005777299e-001
 1.3473343444e+000	 2.7399824107e+000	-6.8609856666e-001
 1.3178302562e+000	 2.7542942527e+000	-7.7856794882e-001
 1.2882287270e+000	 2.7682630069e+000	-8.3054667222e-001
 1.2585355428e+000	 2.7818881137e+000	-8.3387946671e-001
 1.2287564784e+000	 2.7951691390e+000	-7.9261098958e-001
 1.1988972939e+000	 2.8081057735e+000	-7.1053133934e-001
 1.5062299830e+000	 2.6865633972e+000	-7.8388667695e-001
 1.4770474077e+000	 2.7027176788e+000	-7.1083916441e-001
 1.4477373073e+000	 2.7185306280e+000	-6.5531405812e-001
 1.4183055237e+000	 2.7340010353e+000	-6.2505590851e-001
 1.3887579047e+000	 2.7491278215e+000	-6.2756113413e-001
 1.3591003005e+000	 2.7639100369e+000	-6.7005545121e-001
 1.3293385599e+000	 2.7783468608e+000	-7.5847902246e-001
 1.2994785275e+000	 2.7924376009e+000	-8.2982234135e-001
 1.2695260397e+000	 2.8061816926e+000	-8.4643839664e-001
 1.2394869216e+000	 2.8195786980e+000	-8.1248571996e-001
 1.2093669839e+000	 2.8326283051e+000	-7.3186486146e-001
 1.5192696650e+000	 2.7098214207e+000	-7.7975122134e-001
 1.4898344513e+000	 2.7261155527e+000	-7.1288021288e-001
 1.4602706085e+000	 2.7420653971e+000	-6.5950779185e-001
 1.4305840291e+000	 2.7576697343e+000	-6.2719240303e-001
 1.4007806115e+000	 2.7729274756e+000	-6.2325271915e-001
 1.3708662565e+000	 2.7878376631e+000	-6.5474467856e-001
 1.3408468636e+000	 2.8023994690e+000	-7.2844001859e-001
 1.3107283279e+000	 2.8166121949e+000	-8.1856998460e-001
 1.2805165365e+000	 2.8304752715e+000	-8.5139693117e-001
 1.2502173649e+000	 2.8439882570e+000	-8.2752774884e-001
 1.2198366738e+000	 2.8571508367e+000	-7.5091095710e-001
 1.5323093471e+000	 2.7330794442e+000	-7.6496387956e-001
 1.5026214949e+000	 2.7495134265e+000	-7.0564393642e-001
 1.4728039098e+000	 2.7656001662e+000	-6.5622583816e-001
 1.4428625346e+000	 2.7813384333e+000	-6.2397566740e-001
 1.4128033184e+000	 2.7967271297e+000	-6.1593272488e-001
 1.3826322125e+000	 2.8117652893e+000	-6.3888627874e-001
 1.3523551673e+000	 2.8264520771e+000	-6.9935384870e-001
 1.3219781284e+000	 2.8407867890e+000	-7.9549397744e-001
 1.2915070333e+000	 2.8547688504e+000	-8.4738114013e-001
 1.2609478081e+000	 2.8683978159e+000	-8.3637252874e-001
 1.2303063637e+000	 2.8816733683e+000	-7.6640336611e-001
 1.1256094643e+000	 2.6364480523e+000	-6.9072359518e-001
 1.0975015011e+000	 2.6482721155e+000	-6.4696171740e-001
 1.0693290614e+000	 2.6597725119e+000	-6.0697809511e-001
 1.0410974981e+000	 2.6709492982e+000	-5.7010830724e-001
 1.0128121385e+000	 2.6818026442e+000	-5.3357244621e-001
 9.8447828143e-001	 2.6923328307e+000	-4.9642506641e-001
 9.5610119473e-001	 2.7025402488e+000	-4.5824789307e-001
 9.2768611232e-001	 2.7124253981e+000	-4.1868509433e-001
 8.9923823169e-001	 2.7219888849e+000	-3.7733617795e-001
 8.7076271134e-001	 2.7312314211e+000	-3.3377145207e-001
 8.4226466823e-001	 2.7401538221e+000	-2.8752520495e-001
 1.1360791543e+000	 2.6609705839e+000	-6.5080600858e-001
 1.1077097490e+000	 2.6729046269e+000	-6.0094043476e-001
 1.0792752675e+000	 2.6845119925e+000	-5.5387737038e-001
 1.0507811125e+000	 2.6957927380e+000	-5.0884612118e-001
 1.0222326608e+000	 2.7067470348e+000	-4.6544304355e-001
 9.9363526055e-001	 2.7173751663e+000	-4.2328870539e-001
 9.6499422857e-001	 2.7276775272e+000	-3.8191392527e-001
 9.3631484747e-001	 2.7376546217e+000	-3.4089340389e-001
 9.0760236309e-001	 2.7473070619e+000	-2.9974923586e-001
 8.7886198190e-001	 2.7566355662e+000	-2.5796340542e-001
 8.5009886846e-001	 2.7656409576e+000	-2.1497056675e-001
 1.1465488442e+000	 2.6854931155e+000	-6.3858754162e-001
 1.1179179968e+000	 2.6975371383e+000	-5.7736835117e-001
 1.0892214736e+000	 2.7092514731e+000	-5.2021555769e-001
 1.0604647269e+000	 2.7206361779e+000	-4.6675040852e-001
 1.0316531831e+000	 2.7316914254e+000	-4.1658994246e-001
 1.0027922397e+000	 2.7424175019e+000	-3.6936165691e-001
 9.7388726241e-001	 2.7528148056e+000	-3.2460063970e-001
 9.4494358263e-001	 2.7628838453e+000	-2.8186676209e-001
 9.1596649450e-001	 2.7726252389e+000	-2.4065795476e-001
 8.8696125246e-001	 2.7820397112e+000	-2.0041990102e-001
 8.5793306869e-001	 2.7911280930e+000	-1.6053837661e-001
 1.1570185342e+000	 2.7100156471e+000	-6.3985373949e-001
 1.1281262447e+000	 2.7221696496e+000	-5.6810920727e-001
 1.0991676797e+000	 2.7339909537e+000	-5.0168872197e-001
 1.0701483413e+000	 2.7454796177e+000	-4.4030251165e-001
 1.0410737054e+000	 2.7566358160e+000	-3.8364513973e-001
 1.0119492188e+000	 2.7674598375e+000	-3.3138427214e-001
 9.8278029625e-001	 2.7779520840e+000	-2.8318200170e-001
 9.5357231778e-001	 2.7881130690e+000	-2.3856887899e-001
 9.2433062590e-001	 2.7979434159e+000	-1.9709405496e-001
 8.9506052302e-001	 2.8074438563e+000	-1.5821836210e-001
 8.6576726892e-001	 2.8166152285e+000	-1.2132896903e-001
 1.1674882241e+000	 2.7345381787e+000	-6.5063468401e-001
 1.1383344926e+000	 2.7468021610e+000	-5.6974323504e-001
 1.1091138858e+000	 2.7587304343e+000	-4.9505001931e-001
 1.0798319557e+000	 2.7703230575e+000	-4.2641103117e-001
 1.0504942277e+000	 2.7815802066e+000	-3.6365420963e-001
 1.0211061979e+000	 2.7925021731e+000	-3.0656789914e-001
 9.9167333009e-001	 2.8030893623e+000	-2.5491854303e-001
 9.6220105294e-001	 2.8133422926e+000	-2.0833668708e-001
 9.3269475730e-001	 2.8232615929e+000	-1.6644923470e-001
 9.0315979358e-001	 2.8328480014e+000	-1.2878304232e-001
 8.7360146914e-001	 2.8421023640e+000	-9.4776457995e-002
 1.1779579140e+000	 2.7590607103e+000	-6.6776740809e-001
 1.1485427405e+000	 2.7714346724e+000	-5.7928422970e-001
 1.1190600919e+000	 2.7834699149e+000	-4.9747372155e-001
 1.0895155700e+000	 2.7951664974e+000	-4.2239334925e-001
 1.0599147500e+000	 2.8065245973e+000	-3.5405927151e-001
 1.0302631770e+000	 2.8175445086e+000	-2.9243448482e-001
 1.0005663639e+000	 2.8282266407e+000	-2.3744310435e-001
 9.7082978809e-001	 2.8385715162e+000	-1.8886740848e-001
 9.4105888870e-001	 2.8485797698e+000	-1.4646351735e-001
 9.1125906414e-001	 2.8582521465e+000	-1.0987460551e-001
 8.8143566937e-001	 2.8675894995e+000	-7.8639499726e-002
 1.1884276040e+000	 2.7835832419e+000	-6.8851241785e-001
 1.1587509884e+000	 2.7960671837e+000	-5.9415837801e-001
 1.1290062980e+000	 2.8082093955e+000	-5.0653551388e-001
 1.0991991844e+000	 2.8200099372e+000	-4.2595736648e-001
 1.0693352723e+000	 2.8314689879e+000	-3.5268213282e-001
 1.0394201561e+000	 2.8425868442e+000	-2.8690048961e-001
 1.0094593978e+000	 2.8533639191e+000	-2.2874668112e-001
 9.7945852325e-001	 2.8638007399e+000	-1.7820569227e-001
 9.4942302010e-001	 2.8738979468e+000	-1.3521363682e-001
 9.1935833470e-001	 2.8836562915e+000	-9.9579713644e-002
 8.8926986960e-001	 2.8930766349e+000	-7.0992035378e-002
 1.1988972939e+000	 2.8081057735e+000	-7.1053133934e-001
 1.1689592362e+000	 2.8206996951e+000	-6.1218336234e-001
 1.1389525041e+000	 2.8329488761e+000	-5.2019303003e-001
 1.1088827988e+000	 2.8448533770e+000	-4.3518343907e-001
 1.0787557946e+000	 2.8564133785e+000	-3.5770759666e-001
 1.0485771352e+000	 2.8676291798e+000	-2.8823592333e-001
 1.0183524316e+000	 2.8785011975e+000	-2.2714421608e-001
 9.8808725840e-001	 2.8890299635e+000	-1.7473081748e-001
 9.5778715150e-001	 2.8992161238e+000	-1.3110145871e-001
 9.2745760526e-001	 2.9090604366e+000	-9.6300622287e-002
 8.9710406983e-001	 2.9185637704e+000	-7.0214014697e-002
 1.2093669839e+000	 2.8326283051e+000	-7.3186486146e-001
 1.1791674841e+000	 2.8453322065e+000	-6.3154772369e-001
 1.1488987102e+000	 2.8576883567e+000	-5.3676661037e-001
 1.1185664132e+000	 2.8696968168e+000	-4.4850650422e-001
 1.0881763169e+000	 2.8813577691e+000	-3.6766692394e-001
 1.0577341144e+000	 2.8926715154e+000	-2.9504911117e-001
 1.0272454655e+000	 2.9036384759e+000	-2.3134361749e-001
 9.9671599356e-001	 2.9142591871e+000	-1.7714395789e-001
 9.6615128290e-001	 2.9245343008e+000	-1.3284243530e-001
 9.3555687582e-001	 2.9344645817e+000	-9.8744783277e-002
 9.0493827006e-001	 2.9440509059e+000	-7.4982101898e-002
 1.2198366738e+000	 2.8571508367e+000	-7.5091095710e-001
 1.1893757320e+000	 2.8699647178e+000	-6.5079046832e-001
 1.1588449163e+000	 2.8824278373e+000	-5.5492026977e-001
 1.1282500276e+000	 2.8945402567e+000	-4.6469838251e-001
 1.0975968391e+000	 2.9063021597e+000	-3.8142144094e-001
 1.0668910935e+000	 2.9177138510e+000	-3.0627157449e-001
 1.0361384993e+000	 2.9287757543e+000	-2.4030362191e-001
 1.0053447287e+000	 2.9394884108e+000	-1.8445550483e-001
 9.7451541430e-001	 2.9498524778e+000	-1.3945409211e-001
 9.4365614638e-001	 2.9598687268e+000	-1.0591445408e-001
 9.1277247028e-001	 2.9695380413e+000	-8.4260364797e-002
 1.2303063637e+000	 2.8816733683e+000	-7.6640336611e-001
 1.1995839799e+000	 2.8945972292e+000	-6.6878090321e-001
 1.1687911224e+000	 2.9071673179e+000	-5.7364286258e-001
 1.1379336420e+000	 2.9193836965e+000	-4.8285024654e-001
 1.1070173614e+000	 2.9312465504e+000	-3.9814628342e-001
 1.0760480726e+000	 2.9427561866e+000	-3.2114301983e-001
 1.0450315331e+000	 2.9539130326e+000	-2.5330817052e-001
 1.0139734639e+000	 2.9647176344e+000	-1.9595217741e-001
 9.8287954570e-001	 2.9751706548e+000	-1.5024454421e-001
 9.5175541694e-001	 2.9852728719e+000	-1.1709631345e-001
 9.2060667051e-001	 2.9950251768e+000	-9.7290948199e-002
 8.4226466823e-001	 2.7401538221e+000	-2.8752520495e-001
 8.1374917503e-001	 2.7487570045e+000	-2.4313094068e-001
 7.8522125655e-001	 2.7570419823e+000	-2.0743377272e-001
 7.5668588880e-001	 2.7650098669e+000	-1.8327300060e-001
 7.2814799717e-001	 2.7726618660e+000	-1.7330674833e-001
 6.9961245439e-001	 2.7799992815e+000	-1.8000583897e-001
 6.7108407844e-001	 2.7870235076e+000	-2.0564879224e-001
 6.4256763062e-001	 2.7937360289e+000	-2.3372579449e-001
 6.1406781368e-001	 2.8001384177e+000	-2.3143776254e-001
 5.8558927002e-001	 2.8062323324e+000	-1.9629854275e-001
 5.5713657999e-001	 2.8120195152e+000	-1.2609758091e-001
 8.5009886846e-001	 2.7656409576e+000	-2.1497056675e-001
 8.2131814262e-001	 2.7743241612e+000	-1.7433256091e-001
 7.9252487593e-001	 2.7826862005e+000	-1.4202127148e-001
 7.6372409067e-001	 2.7907281972e+000	-1.2089571936e-001
 7.3492075806e-001	 2.7984513702e+000	-1.1360721000e-001
 7.0611979615e-001	 2.8058570336e+000	-1.2259263293e-001
 6.7732606774e-001	 2.8129465945e+000	-1.5006889424e-001
 6.4854437840e-001	 2.8197215513e+000	-1.8713728559e-001
 6.1977947462e-001	 2.8261834910e+000	-1.9371122878e-001
 5.9103604200e-001	 2.8323340874e+000	-1.6370419102e-001
 5.6231870349e-001	 2.8381750988e+000	-9.4346037110e-002
 8.5793306869e-001	 2.7911280930e+000	-1.6053837661e-001
 8.2888711020e-001	 2.7998913179e+000	-1.2352932618e-001
 7.9982849530e-001	 2.8083304187e+000	-9.4369257853e-002
 7.7076229254e-001	 2.8164465275e+000	-7.5915422637e-002
 7.4169351896e-001	 2.8242408744e+000	-7.0791626235e-002
 7.1262713792e-001	 2.8317147857e+000	-8.1380961940e-002
 6.8356805703e-001	 2.8388696815e+000	-1.0981967817e-001
 6.5452112617e-001	 2.8457070738e+000	-1.5293363707e-001
 6.2549113556e-001	 2.8522285643e+000	-1.6810924405e-001
 5.9648281398e-001	 2.8584358423e+000	-1.4288624045e-001
 5.6750082698e-001	 2.8643306824e+000	-7.3942823080e-002
 8.6576726892e-001	 2.8166152285e+000	-1.2132896903e-001
 8.3645607779e-001	 2.8254584746e+000	-8.7837197083e-002
 8.0713211467e-001	 2.8339746369e+000	-6.1618857929e-002
 7.7780049441e-001	 2.8421648578e+000	-4.5509535921e-002
 7.4846627985e-001	 2.8500303787e+000	-4.2086495103e-002
 7.1913447968e-001	 2.8575725378e+000	-5.3660852119e-002
 6.8981004632e-001	 2.8647927684e+000	-8.2270877053e-002
 6.6049787394e-001	 2.8716925962e+000	-1.2832607280e-001
 6.3120279650e-001	 2.8782736376e+000	-1.5190884306e-001
 6.0192958596e-001	 2.8845375973e+000	-1.3120636523e-001
 5.7268295047e-001	 2.8904862660e+000	-6.2358024907e-002
 8.7360146914e-001	 2.8421023640e+000	-9.4776457995e-002
 8.4402504538e-001	 2.8510256313e+000	-6.4692390985e-002
 8.1443573404e-001	 2.8596188551e+000	-4.1216850414e-002
 7.8483869628e-001	 2.8678831881e+000	-2.7145393868e-002
 7.5523904074e-001	 2.8758198829e+000	-2.4991287503e-002
 7.2564182144e-001	 2.8834302899e+000	-3.6977123910e-002
 6.9605203562e-001	 2.8907158553e+000	-6.5027552387e-002
 6.6647462171e-001	 2.8976781186e+000	-1.1076138445e-001
 6.3691445745e-001	 2.9043187109e+000	-1.4259857890e-001
 6.0737635794e-001	 2.9106393523e+000	-1.2621146691e-001
 5.7786507396e-001	 2.9166418496e+000	-5.7218522373e-002
 8.8143566937e-001	 2.8675894995e+000	-7.8639499726e-002
 8.5159401296e-001	 2.8765927880e+000	-5.1843301491e-002
 8.2173935342e-001	 2.8852630733e+000	-3.0908741455e-002
 7.9187689815e-001	 2.8936015184e+000	-1.8574470231e-002
 7.6201180164e-001	 2.9016093871e+000	-1.7273832916e-002
 7.3214916321e-001	 2.9092880420e+000	-2.9125935288e-002
 7.0229402491e-001	 2.9166389422e+000	-5.5927797578e-002
 6.7245136949e-001	 2.9236636411e+000	-9.9147653252e-002
 6.4262611839e-001	 2.9303637842e+000	-1.3788015475e-001
 6.1282312992e-001	 2.9367411072e+000	-1.2563649400e-001
 5.8304719746e-001	 2.9427974332e+000	-5.6311981027e-002
 8.8926986960e-001	 2.8930766349e+000	-7.0992035378e-002
 8.5916298055e-001	 2.9021599447e+000	-4.7342369893e-002
 8.2904297279e-001	 2.9109072915e+000	-2.8731762884e-002
 7.9891510002e-001	 2.9193198487e+000	-1.7826501646e-002
 7.6878456253e-001	 2.9273988914e+000	-1.6965568364e-002
 7.3865650497e-001	 2.9351457942e+000	-2.8151156433e-002
 7.0853601420e-001	 2.9425620291e+000	-5.3040239790e-002
 6.7842811726e-001	 2.9496491635e+000	-9.2937258854e-002
 6.4833777933e-001	 2.9564088576e+000	-1.3566978428e-001
 6.1826990190e-001	 2.9628428622e+000	-1.2740695294e-001
 5.8822932095e-001	 2.9689530167e+000	-5.7590496814e-002
 8.9710406983e-001	 2.9185637704e+000	-7.0214014697e-002
 8.6673194813e-001	 2.9277271014e+000	-4.9537911624e-002
 8.3634659216e-001	 2.9365515097e+000	-3.3007798571e-002
 8.0595330189e-001	 2.9450381790e+000	-2.3203511759e-002
 7.7555732342e-001	 2.9531883956e+000	-2.2356658958e-002
 7.4516384673e-001	 2.9610035463e+000	-3.2340586177e-002
 7.1477800350e-001	 2.9684851161e+000	-5.4661352603e-002
 6.8440486503e-001	 2.9756346860e+000	-9.0449783978e-002
 6.5404944027e-001	 2.9824539309e+000	-1.3409929704e-001
 6.2371667388e-001	 2.9889446171e+000	-1.2964112927e-001
 5.9341144444e-001	 2.9951086003e+000	-5.9173914488e-002
 9.0493827006e-001	 2.9440509059e+000	-7.4982101898e-002
 8.7430091572e-001	 2.9532942581e+000	-5.7065900408e-002
 8.4365021153e-001	 2.9621957279e+000	-4.2336243227e-002
 8.1299150376e-001	 2.9707565093e+000	-3.3273741729e-002
 7.8233008431e-001	 2.9789778998e+000	-3.1990997822e-002
 7.5167118849e-001	 2.9868612984e+000	-4.0222019796e-002
 7.2101999279e-001	 2.9944082030e+000	-5.9312590931e-002
 6.9038161280e-001	 3.0016202084e+000	-9.0211668135e-002
 6.5976110121e-001	 3.0084990042e+000	-1.3151700459e-001
 6.2916344586e-001	 3.0150463721e+000	-1.3065203654e-001
 5.9859356793e-001	 3.0212641839e+000	-5.9352839590e-002
 9.1277247028e-001	 2.9695380413e+000	-8.4260364797e-002
 8.8186988331e-001	 2.9788614148e+000	-6.8841712652e-002
 8.5095383090e-001	 2.9878399461e+000	-5.5586797738e-002
 8.2002970563e-001	 2.9964748396e+000	-4.6865492721e-002
 7.8910284520e-001	 3.0047674041e+000	-4.4661092617e-002
 7.5817853025e-001	 3.0127190505e+000	-5.0559177089e-002
 7.2726198208e-001	 3.0203312899e+000	-6.5737358865e-002
 6.9635836057e-001	 3.0276057309e+000	-9.0956003010e-002
 6.6547276215e-001	 3.0345440775e+000	-1.2648834149e-001
 6.3461021783e-001	 3.0411481271e+000	-1.2894910947e-001
 6.0377569142e-001	 3.0474197675e+000	-5.6591362409e-002
 9.2060667051e-001	 2.9950251768e+000	-9.7290948199e-002
 8.8943885089e-001	 3.0044285715e+000	-8.4051834450e-002
 8.5825745028e-001	 3.0134841643e+000	-7.1892204778e-002
 8.2706790750e-001	 3.0221931699e+000	-6.3060885652e-002
 7.9587560609e-001	 3.0305569083e+000	-5.9402845439e-002
 7.6468587201e-001	 3.0385768026e+000	-6.2347499063e-002
 7.3350397137e-001	 3.0462543768e+000	-7.2897820410e-002
 7.0233510834e-001	 3.0535912533e+000	-9.1620355187e-002
 6.7118442308e-001	 3.0605891508e+000	-1.1863623461e-001
 6.4005698981e-001	 3.0672498820e+000	-1.2323965628e-001
 6.0895781491e-001	 3.0735753511e+000	-4.9529511071e-002
 5.5713657999e-001	 2.8120195152e+000	-1.2609758091e-001
 5.2871851982e-001	 2.8175009906e+000	-4.5241141189e-002
 5.0033526381e-001	 2.8226795537e+000	 2.1750147652e-002
 4.7199118843e-001	 2.8275571857e+000	 7.6973540648e-002
 4.4369060226e-001	 2.8321359428e+000	 1.2235124306e-001
 4.1543774471e-001	 2.8364179532e+000	 1.5959010118e-001
 3.8723678479e-001	 2.8404054153e+000	 1.9014488727e-001
 3.5909182003e-001	 2.8441005950e+000	 2.1518455903e-001
 3.3100687533e-001	 2.8475058238e+000	 2.3556089804e-001
 3.0298590209e-001	 2.8506234959e+000	 2.5177896077e-001
 2.7503277725e-001	 2.8534560662e+000	 2.6396880871e-001
 5.6231870349e-001	 2.8381750988e+000	-9.4346037110e-002
 5.3363631693e-001	 2.8437075593e+000	-1.3016466861e-002
 5.0498905826e-001	 2.8489342900e+000	 5.2493183311e-002
 4.7638134466e-001	 2.8538572906e+000	 1.0441070632e-001
 4.4781752477e-001	 2.8584786363e+000	 1.4480948293e-001
 4.1930187744e-001	 2.8628004752e+000	 1.7557219761e-001
 3.9083861047e-001	 2.8668250261e+000	 1.9835814501e-001
 3.6243185948e-001	 2.8705545760e+000	 2.1457345529e-001
 3.3408568682e-001	 2.8739914781e+000	 2.2534359297e-001
 3.0580408065e-001	 2.8771381487e+000	 2.3148751647e-001
 2.7759095395e-001	 2.8799970658e+000	 2.3349292100e-001
 5.6750082698e-001	 2.8643306824e+000	-7.3942823080e-002
 5.3855411404e-001	 2.8699141281e+000	 8.3536968279e-003
 5.0964285272e-001	 2.8751890264e+000	 7.2950750857e-002
 4.8077150089e-001	 2.8801573956e+000	 1.2223249376e-001
 4.5194444728e-001	 2.8848213299e+000	 1.5845039717e-001
 4.2316601018e-001	 2.8891829973e+000	 1.8369130914e-001
 3.9444043615e-001	 2.8932446369e+000	 1.9984909934e-001
 3.6577189893e-001	 2.8970085570e+000	 2.0859916250e-001
 3.3716449831e-001	 2.9004771323e+000	 2.1137508295e-001
 3.0862225920e-001	 2.9036528015e+000	 2.0934679771e-001
 2.8014913065e-001	 2.9065380653e+000	 2.0339963505e-001
 5.7268295047e-001	 2.8904862660e+000	-6.2358024907e-002
 5.4347191115e-001	 2.8961206968e+000	 2.1297944070e-002
 5.1429664717e-001	 2.9014437627e+000	 8.5487101378e-002
 4.8516165711e-001	 2.9064575005e+000	 1.3276922982e-001
 4.5607136979e-001	 2.9111640234e+000	 1.6559414706e-001
 4.2703014291e-001	 2.9155655193e+000	 1.8627445534e-001
 3.9804226183e-001	 2.9196642478e+000	 1.9696186970e-001
 3.6911193838e-001	 2.9234625380e+000	 1.9962633939e-001
 3.4024330980e-001	 2.9269627865e+000	 1.9603720984e-001
 3.1144043775e-001	 2.9301674543e+000	 1.8774571064e-001
 2.8270730734e-001	 2.9330790648e+000	 1.7606809809e-001
 5.7786507396e-001	 2.9166418496e+000	-5.7218522373e-002
 5.4838970826e-001	 2.9223272655e+000	 2.8117251760e-002
 5.1895044162e-001	 2.9276984991e+000	 9.2367419794e-002
 4.8955181334e-001	 2.9327576054e+000	 1.3828002734e-001
 4.6019829230e-001	 2.9375067170e+000	 1.6851675548e-001
 4.3089427565e-001	 2.9419480414e+000	 1.8563073530e-001
 4.0164408750e-001	 2.9460838586e+000	 1.9204793190e-001
 3.7245197783e-001	 2.9499165190e+000	 1.9005125113e-001
 3.4332212130e-001	 2.9534484408e+000	 1.8176655825e-001
 3.1425861630e-001	 2.9566821071e+000	 1.6914983906e-001
 2.8526548404e-001	 2.9596200644e+000	 1.5397478084e-001
 5.8304719746e-001	 2.9427974332e+000	-5.6311981027e-002
 5.5330750536e-001	 2.9485338342e+000	 3.0979884517e-002
 5.2360423607e-001	 2.9539532354e+000	 9.5751748903e-002
 4.9394196957e-001	 2.9590577103e+000	 1.4094584467e-001
 4.6432521481e-001	 2.9638494106e+000	 1.6944241263e-001
 4.3475840838e-001	 2.9683305634e+000	 1.8404298485e-001
 4.0524591318e-001	 2.9725034694e+000	 1.8745722593e-001
 3.7579201728e-001	 2.9763705001e+000	 1.8229242106e-001
 3.4640093279e-001	 2.9799340950e+000	 1.7104473865e-001
 3.1707679486e-001	 2.9831967599e+000	 1.5609144030e-001
 2.8782366074e-001	 2.9861610639e+000	 1.3968326139e-001
 5.8822932095e-001	 2.9689530167e+000	-5.7590496814e-002
 5.5822530247e-001	 2.9747404029e+000	 3.1916684566e-002
 5.2825803052e-001	 2.9802079718e+000	 9.7689331438e-002
 4.9833212579e-001	 2.9853578153e+000	 1.4286299229e-001
 4.6845213732e-001	 2.9901921041e+000	 1.7053625417e-001
 4.3862254111e-001	 2.9947130855e+000	 1.8375992749e-001
 4.0884773886e-001	 2.9989230803e+000	 1.8552977556e-001
 3.7913205673e-001	 3.0028244811e+000	 1.7878180904e-001
 3.4947974428e-001	 3.0064197492e+000	 1.6638920870e-001
 3.1989497341e-001	 3.0097114127e+000	 1.5115998795e-001
 2.9038183743e-001	 3.0127020634e+000	 1.3583456188e-001
 5.9341144444e-001	 2.9951086003e+000	-5.9173914488e-002
 5.6314309958e-001	 3.0009469717e+000	 3.2816722942e-002
 5.3291182497e-001	 3.0064627082e+000	 1.0011334458e-001
 5.0272228202e-001	 3.0116579202e+000	 1.4603705915e-001
 4.7257905983e-001	 3.0165347977e+000	 1.7389758270e-001
 4.4248667385e-001	 3.0210956075e+000	 1.8698878903e-001
 4.1244956453e-001	 3.0253426911e+000	 1.8858778852e-001
 3.8247209617e-001	 3.0292784621e+000	 1.8195648417e-001
 3.5255855577e-001	 3.0329054035e+000	 1.7034459979e-001
 3.2271315196e-001	 3.0362260655e+000	 1.5699322794e-001
 2.9294001413e-001	 3.0392430630e+000	 1.4513800406e-001
 5.9859356793e-001	 3.0212641839e+000	-5.9352839590e-002
 5.6806089669e-001	 3.0271535404e+000	 3.5423290133e-002
 5.3756561942e-001	 3.0327174445e+000	 1.0483600314e-001
 5.0711243824e-001	 3.0379580251e+000	 1.5237723336e-001
 4.7670598234e-001	 3.0428774912e+000	 1.8155350589e-001
 4.4635080658e-001	 3.0474781295e+000	 1.9588834773e-001
 4.1605139021e-001	 3.0517623019e+000	 1.9892820817e-001
 3.8581213562e-001	 3.0557324431e+000	 1.9425076189e-001
 3.5563736725e-001	 3.0593910577e+000	 1.8547451831e-001
 3.2553133051e-001	 3.0627407183e+000	 1.7626871694e-001
 2.9549819082e-001	 3.0657840625e+000	 1.7036255248e-001
 6.0377569142e-001	 3.0474197675e+000	-5.6591362409e-002
 5.7297869379e-001	 3.0533601091e+000	 4.1330205748e-002
 5.4221941387e-001	 3.0589721809e+000	 1.1354400927e-001
 5.1150259447e-001	 3.0642581301e+000	 1.6369099357e-001
 4.8083290485e-001	 3.0692201848e+000	 1.9545296606e-001
 4.5021493931e-001	 3.0738606516e+000	 2.1256239387e-001
 4.1965321588e-001	 3.0781819128e+000	 2.1881568943e-001
 3.8915217507e-001	 3.0821864241e+000	 2.1808877770e-001
 3.5871617874e-001	 3.0858767119e+000	 2.1435379296e-001
 3.2834950906e-001	 3.0892553711e+000	 2.1169581413e-001
 2.9805636752e-001	 3.0923250620e+000	 2.1432861584e-001
 6.0895781491e-001	 3.0735753511e+000	-4.9529511071e-002
 5.7789649090e-001	 3.0795666778e+000	 5.1978428212e-002
 5.4687320832e-001	 3.0852269172e+000	 1.2779432805e-001
 5.1589275069e-001	 3.0905582350e+000	 1.8167914884e-001
 4.8495982735e-001	 3.0955628784e+000	 2.1746113808e-001
 4.5407907204e-001	 3.1002431736e+000	 2.3905357427e-001
 4.2325504155e-001	 3.1046015236e+000	 2.5047597379e-001
 3.9249221452e-001	 3.1086404051e+000	 2.5587747124e-001
 3.6179499023e-001	 3.1123623662e+000	 2.5956114165e-001
 3.3116768761e-001	 3.1157700239e+000	 2.6600809916e-001
 3.0061454421e-001	 3.1188660616e+000	 2.7990027936e-001
 2.7503277725e-001	 2.8534560662e+000	 2.6396880871e-001
 2.4714713513e-001	 2.8560064095e+000	 2.7387924002e-001
 2.1933694958e-001	 2.8582766502e+000	 2.8467762442e-001
 1.9160592731e-001	 2.8602694129e+000	 2.9785267578e-001
 1.6395769600e-001	 2.8619873733e+000	 3.1423593582e-001
 1.3639580379e-001	 2.8634332561e+000	 3.3397314626e-001
 1.0892371889e-001	 2.8646098325e+000	 3.5649483016e-001
 8.1544829185e-002	 2.8655199181e+000	 3.8048583781e-001
 5.4262441973e-002	 2.8661663703e+000	 4.0385365745e-001
 2.7079783735e-002	 2.8665520861e+000	 4.2369533672e-001
 0.0000000000e+000	 2.8666800000e+000	 4.3626290278e-001
 2.7759095395e-001	 2.8799970658e+000	 2.3349292100e-001
 2.4944593765e-001	 2.8825711307e+000	 2.3198802171e-001
 2.2137707978e-001	 2.8848624877e+000	 2.2880430422e-001
 1.9338812150e-001	 2.8868737858e+000	 2.2554334958e-001
 1.6548272425e-001	 2.8886077255e+000	 2.2321558464e-001
 1.3766446918e-001	 2.8900670570e+000	 2.2221394665e-001
 1.0993685675e-001	 2.8912545771e+000	 2.2228634997e-001
 8.2303306352e-002	 2.8921731278e+000	 2.2250669213e-001
 5.4767156051e-002	 2.8928255928e+000	 2.2124418603e-001
 2.7331662338e-002	 2.8932148963e+000	 2.1613085405e-001
 0.0000000000e+000	 2.8933440000e+000	 2.0402706775e-001
 2.8014913065e-001	 2.9065380653e+000	 2.0339963505e-001
 2.5174474017e-001	 2.9091358519e+000	 1.9313343644e-001
 2.2341720997e-001	 2.9114483252e+000	 1.7913659887e-001
 1.9517031570e-001	 2.9134781587e+000	 1.6316970589e-001
 1.6700775251e-001	 2.9152280777e+000	 1.4647083343e-001
 1.3893313458e-001	 2.9167008579e+000	 1.2973174648e-001
 1.1094999461e-001	 2.9178993218e+000	 1.1307246776e-001
 8.3061783519e-002	 2.9188263374e+000	 9.6013936726e-002
 5.5271870128e-002	 2.9194848154e+000	 7.7448531208e-002
 2.7583540941e-002	 2.9198777065e+000	 5.5608276378e-002
 0.0000000000e+000	 2.9200080000e+000	 2.8030619968e-002
 2.8270730734e-001	 2.9330790648e+000	 1.7606809809e-001
 2.5404354269e-001	 2.9357005730e+000	 1.5964419152e-001
 2.2545734016e-001	 2.9380341627e+000	 1.3788847751e-001
 1.9695250989e-001	 2.9400825315e+000	 1.1276050284e-001
 1.6853278077e-001	 2.9418484300e+000	 8.5768758276e-002
 1.4020179997e-001	 2.9433346587e+000	 5.7949666820e-002
 1.1196313247e-001	 2.9445440664e+000	 2.9844489941e-002
 8.3820260685e-002	 2.9454795471e+000	 1.4738501712e-003
 5.5776584205e-002	 2.9461440379e+000	-2.7690373637e-002
 2.7835419544e-002	 2.9465405168e+000	-5.8755965095e-002
 0.0000000000e+000	 2.9466720000e+000	-9.3444229900e-002
 2.8526548404e-001	 2.9596200644e+000	 1.5397478084e-001
 2.5634234521e-001	 2.9622652942e+000	 1.3396620814e-001
 2.2749747036e-001	 2.9646200002e+000	 1.0741078220e-001
 1.9873470408e-001	 2.9666869044e+000	 7.6500707220e-002
 1.7005780903e-001	 2.9684687822e+000	 4.3051565678e-002
 1.4147046536e-001	 2.9699684596e+000	 8.4843783413e-003
 1.1297627033e-001	 2.9711888111e+000	-2.6194896817e-002
 8.4578737851e-002	 2.9721327568e+000	-6.0418749733e-002
 5.6281298282e-002	 2.9728032604e+000	-9.4084648116e-002
 2.8087298146e-002	 2.9732033270e+000	-1.2758491117e-001
 0.0000000000e+000	 2.9733360000e+000	-1.6184006023e-001
 2.8782366074e-001	 2.9861610639e+000	 1.3968326139e-001
 2.5864114773e-001	 2.9888300154e+000	 1.1865223498e-001
 2.2953760055e-001	 2.9912058377e+000	 9.0180679476e-002
 2.0051689827e-001	 2.9932912773e+000	 5.6720786456e-002
 1.7158283728e-001	 2.9950891344e+000	 2.0425721784e-002
 1.4273913076e-001	 2.9966022605e+000	-1.6864941100e-002
 1.1398940818e-001	 2.9978335557e+000	-5.3642854371e-002
 8.5337215017e-002	 2.9987859664e+000	-8.8751941233e-002
 5.6786012359e-002	 2.9994624830e+000	-1.2141313229e-001
 2.8339176748e-002	 2.9998661372e+000	-1.5125300536e-001
 0.0000000000e+000	 3.0000000000e+000	-1.7833646880e-001
 2.9038183743e-001	 3.0127020634e+000	 1.3583456188e-001
 2.6093995025e-001	 3.0153947365e+000	 1.1635201930e-001
 2.3157773074e-001	 3.0177916751e+000	 8.8791674890e-002
 2.0229909246e-001	 3.0198956501e+000	 5.5886569799e-002
 1.7310786554e-001	 3.0217094866e+000	 2.0151657809e-002
 1.4400779615e-001	 3.0232360614e+000	-1.6127064702e-002
 1.1500254604e-001	 3.0244783003e+000	-5.0907028328e-002
 8.6095692183e-002	 3.0254391761e+000	-8.2407529639e-002
 5.7290726436e-002	 3.0261217055e+000	-1.0913243758e-001
 2.8591055351e-002	 3.0265289474e+000	-1.2989739410e-001
 0.0000000000e+000	 3.0266640000e+000	-1.4386165671e-001
 2.9294001413e-001	 3.0392430630e+000	 1.4513800406e-001
 2.6323875277e-001	 3.0419594577e+000	 1.2980300165e-001
 2.3361786093e-001	 3.0443775126e+000	 1.0594415615e-001
 2.0408128665e-001	 3.0465000230e+000	 7.6589643804e-002
 1.7463289379e-001	 3.0483298389e+000	 4.4634016385e-002
 1.4527646154e-001	 3.0498698623e+000	 1.2831373588e-002
 1.1601568390e-001	 3.0511230450e+000	-1.6215625998e-002
 8.6854169349e-002	 3.0520923857e+000	-4.0071310994e-002
 5.7795440513e-002	 3.0527809281e+000	-5.6487418804e-002
 2.8842933953e-002	 3.0531917577e+000	-6.3428634795e-002
 0.0000000000e+000	 3.0533280000e+000	-5.9103405335e-002
 2.9549819082e-001	 3.0657840625e+000	 1.7036255248e-001
 2.6553755529e-001	 3.0685241789e+000	 1.6182150238e-001
 2.3565799112e-001	 3.0709633501e+000	 1.4443643281e-001
 2.0586348084e-001	 3.0731043959e+000	 1.2153824980e-001
 1.7615792205e-001	 3.0749501911e+000	 9.6412406059e-002
 1.4654512693e-001	 3.0765036632e+000	 7.2296484660e-002
 1.1702882176e-001	 3.0777677896e+000	 5.2373029155e-002
 8.7612646515e-002	 3.0787455954e+000	 3.9757197206e-002
 5.8300154590e-002	 3.0794401506e+000	 3.7478897598e-002
 2.9094812556e-002	 3.0798545679e+000	 4.8459152147e-002
 0.0000000000e+000	 3.0799920000e+000	 7.5480516929e-002
 2.9805636752e-001	 3.0923250620e+000	 2.1432861584e-001
 2.6783635781e-001	 3.0950889001e+000	 2.1529437039e-001
 2.3769812132e-001	 3.0975491876e+000	 2.0715624273e-001
 2.0764567503e-001	 3.0997087687e+000	 1.9354865317e-001
 1.7768295031e-001	 3.1015705433e+000	 1.7815263342e-001
 1.4781379233e-001	 3.1031374641e+000	 1.6469821415e-001
 1.1804195962e-001	 3.1044125343e+000	 1.5696143511e-001
 8.8371123681e-002	 3.1053988051e+000	 1.5875552624e-001
 5.8804868668e-002	 3.1060993732e+000	 1.7391589643e-001
 2.9346691158e-002	 3.1065173781e+000	 2.0627865411e-001
 0.0000000000e+000	 3.1066560000e+000	 2.5965248379e-001
 3.0061454421e-001	 3.1188660616e+000	 2.7990027936e-001
 2.7013516033e-001	 3.1216536212e+000	 2.9317106661e-001
 2.3973825151e-001	 3.1241350251e+000	 2.9707269745e-001
 2.0942786922e-001	 3.1263131416e+000	 2.9553695630e-001
 1.7920797856e-001	 3.1281908955e+000	 2.9263838438e-001
 1.4908245772e-001	 3.1297712650e+000	 2.9260188781e-001
 1.1905509748e-001	 3.1310572789e+000	 2.9980431162e-001
 8.9129600848e-002	 3.1320520147e+000	 3.1876949746e-001
 5.9309582745e-002	 3.1327585957e+000	 3.5415643732e-001
 2.9598569761e-002	 3.1331801883e+000	 4.1074022866e-001
 0.0000000000e+000	 3.1333200000e+000	 4.9338564423e-001
 3.1333200000e+000	 0.0000000000e+000	 1.0140398030e+000
 3.1331801883e+000	 2.9598569761e-002	 1.0569468085e+000
 3.1327585957e+000	 5.9309582745e-002	 1.0909373888e+000
 3.1320520147e+000	 8.9129600848e-002	 1.1176532274e+000
 3.1310572789e+000	 1.1905509748e-001	 1.1384911275e+000
 3.1297712650e+000	 1.4908245772e-001	 1.1545832549e+000
 3.1281908955e+000	 1.7920797856e-001	 1.1667863531e+000
 3.1263131416e+000	 2.0942786922e-001	 1.1756795251e+000
 3.1241350251e+000	 2.3973825151e-001	 1.1815700487e+000
 3.1216536212e+000	 2.7013516033e-001	 1.1845065666e+000
 3.1188660616e+000	 3.0061454421e-001	 1.1842988747e+000
 3.1599880000e+000	 0.0000000000e+000	 7.4817593160e-001
 3.1598469984e+000	 2.9850486150e-002	 8.1542062772e-001
 3.1594218175e+000	 5.9814372538e-002	 8.7071973465e-001
 3.1587092228e+000	 8.9888191798e-002	 9.1642756462e-001
 3.1577060207e+000	 1.2006838732e-001	 9.5452108424e-001
 3.1564090613e+000	 1.5035131343e-001	 9.8658483933e-001
 3.1548152412e+000	 1.8073323560e-001	 1.0138058156e+000
 3.1529215055e+000	 2.1121033076e-001	 1.0369778014e+000
 3.1507248508e+000	 2.4177868775e-001	 1.0565146821e+000
 3.1482223275e+000	 2.7243430770e-001	 1.0724719622e+000
 3.1454110426e+000	 3.0317310467e-001	 1.0845756845e+000
 3.1866560000e+000	 0.0000000000e+000	 5.8679801675e-001
 3.1865138084e+000	 3.0102402539e-002	 6.7047606162e-001
 3.1860850394e+000	 6.0319162331e-002	 7.3927279918e-001
 3.1853664308e+000	 9.0646782748e-002	 7.9632386129e-001
 3.1843547624e+000	 1.2108167717e-001	 8.4424923904e-001
 3.1830468577e+000	 1.5162016914e-001	 8.8514327532e-001
 3.1814395869e+000	 1.8225849263e-001	 9.2057560386e-001
 3.1795298695e+000	 2.1299279231e-001	 9.5160257188e-001
 3.1773146766e+000	 2.4381912399e-001	 9.7878853553e-001
 3.1747910338e+000	 2.7473345507e-001	 1.0022362781e+000
 3.1719560237e+000	 3.0573166513e-001	 1.0216256615e+000
 3.2133240000e+000	 0.0000000000e+000	 5.3078719544e-001
 3.2131806185e+000	 3.0354318928e-002	 6.2195369541e-001
 3.2127482612e+000	 6.0823952124e-002	 6.9555111020e-001
 3.2120236389e+000	 9.1405373698e-002	 7.5555614031e-001
 3.2110035042e+000	 1.2209496702e-001	 8.0528530614e-001
 3.2096846540e+000	 1.5288902486e-001	 8.4739042104e-001
 3.2080639326e+000	 1.8378374966e-001	 8.8386607094e-001
 3.2061382334e+000	 2.1477525386e-001	 9.1606860702e-001
 3.2039045023e+000	 2.4585956023e-001	 9.4474599857e-001
 3.2013597401e+000	 2.7703260245e-001	 9.7007774563e-001
 3.1985010048e+000	 3.0829022558e-001	 9.9172390212e-001
 3.2399920000e+000	 0.0000000000e+000	 5.8094104393e-001
 3.2398474285e+000	 3.0606235317e-002	 6.6962401552e-001
 3.2394114830e+000	 6.1328741917e-002	 7.3845309967e-001
 3.2386808470e+000	 9.2163964649e-002	 7.9229675812e-001
 3.2376522459e+000	 1.2310825686e-001	 8.3521206956e-001
 3.2363224504e+000	 1.5415788057e-001	 8.7044612344e-001
 3.2346882783e+000	 1.8530900670e-001	 9.0045053282e-001
 3.2327465973e+000	 2.1655771540e-001	 9.2690853929e-001
 3.2304943281e+000	 2.4789999647e-001	 9.5077401354e-001
 3.2279284464e+000	 2.7933174982e-001	 9.7232149776e-001
 3.2250459859e+000	 3.1084878604e-001	 9.9120627768e-001
 3.2666600000e+000	 0.0000000000e+000	 7.3797698856e-001
 3.2665142386e+000	 3.0858151706e-002	 8.1319039516e-001
 3.2660747049e+000	 6.1833531710e-002	 8.6682371337e-001
 3.2653380550e+000	 9.2922555600e-002	 9.0467868040e-001
 3.2643009877e+000	 1.2412154671e-001	 9.3158735896e-001
 3.2629602468e+000	 1.5542673628e-001	 9.5141992090e-001
 3.2613126239e+000	 1.8683426373e-001	 9.6710671639e-001
 3.2593549612e+000	 2.1834017695e-001	 9.8067406661e-001
 3.2570841539e+000	 2.4994043271e-001	 9.9329303739e-001
 3.2544971527e+000	 2.8163089719e-001	 1.0053402838e+000
 3.2515909670e+000	 3.1340734650e-001	 1.0164698877e+000
 3.2933280000e+000	 0.0000000000e+000	 1.0025355509e+000
 3.2931810486e+000	 3.1110068095e-002	 1.0522919347e+000
 3.2927379267e+000	 6.2338321504e-002	 1.0794568935e+000
 3.2919952631e+000	 9.3681146551e-002	 1.0907976465e+000
 3.2909497294e+000	 1.2513483655e-001	 1.0919459281e+000
 3.2895980431e+000	 1.5669559199e-001	 1.0874126601e+000
 3.2879369696e+000	 1.8835952077e-001	 1.0806181317e+000
 3.2859633252e+000	 2.2012263849e-001	 1.0739370891e+000
 3.2836739796e+000	 2.5198086895e-001	 1.0687579440e+000
 3.2810658589e+000	 2.8393004456e-001	 1.0655551306e+000
 3.2781359481e+000	 3.1596590696e-001	 1.0639734652e+000
 3.3199960000e+000	 0.0000000000e+000	 1.3751834365e+000
 3.3198478587e+000	 3.1361984484e-002	 1.3865061651e+000
 3.3194011485e+000	 6.2843111297e-002	 1.3750979417e+000
 3.3186524711e+000	 9.4439737501e-002	 1.3487142290e+000
 3.3175984712e+000	 1.2614812640e-001	 1.3138012414e+000
 3.3162358395e+000	 1.5796444771e-001	 1.2755180323e+000
 3.3145613153e+000	 1.8988477780e-001	 1.2377753729e+000
 3.3125716891e+000	 2.2190510004e-001	 1.2032907827e+000
 3.3102638054e+000	 2.5402130520e-001	 1.1736588704e+000
 3.3076345652e+000	 2.8622919194e-001	 1.1494359535e+000
 3.3046809291e+000	 3.1852446741e-001	 1.1302377373e+000
 3.3466640000e+000	 0.0000000000e+000	 1.8033996859e+000
 3.3465146687e+000	 3.1613900873e-002	 1.7692703214e+000
 3.3460643704e+000	 6.3347901090e-002	 1.7144192782e+000
 3.3453096792e+000	 9.5198328452e-002	 1.6468447705e+000
 3.3442472129e+000	 1.2716141625e-001	 1.5731327205e+000
 3.3428736359e+000	 1.5923330342e-001	 1.4985280777e+000
 3.3411856610e+000	 1.9141003483e-001	 1.4270094508e+000
 3.3391800530e+000	 2.2368756159e-001	 1.3613674425e+000
 3.3368536311e+000	 2.5606174144e-001	 1.3032871116e+000
 3.3342032715e+000	 2.8852833931e-001	 1.2534350364e+000
 3.3312259102e+000	 3.2108302787e-001	 1.2118457439e+000
 3.3733320000e+000	 0.0000000000e+000	 1.9704814103e+000
 3.3731814788e+000	 3.1865817262e-002	 1.9185811475e+000
 3.3727275922e+000	 6.3852690883e-002	 1.8477280020e+000
 3.3719668872e+000	 9.5956919402e-002	 1.7657533070e+000
 3.3708959547e+000	 1.2817470609e-001	 1.6790994797e+000
 3.3695114322e+000	 1.6050215913e-001	 1.5928903541e+000
 3.3678100066e+000	 1.9293529187e-001	 1.5110044961e+000
 3.3657884170e+000	 2.2547002313e-001	 1.4361519103e+000
 3.3634434569e+000	 2.5810217768e-001	 1.3699545849e+000
 3.3607719778e+000	 2.9082748668e-001	 1.3130313784e+000
 3.3577708913e+000	 3.2364158833e-001	 1.2650878004e+000
 3.4000000000e+000	 0.0000000000e+000	 1.8230827871e+000
 3.3998482888e+000	 3.2117733651e-002	 1.7861113134e+000
 3.3993908141e+000	 6.4357480676e-002	 1.7295744212e+000
 3.3986240953e+000	 9.6715510352e-002	 1.6612172433e+000
 3.3975446965e+000	 1.2918799594e-001	 1.5874258891e+000
 3.3961492286e+000	 1.6177101484e-001	 1.5132964993e+000
 3.3944343523e+000	 1.9446054890e-001	 1.4427069191e+000
 3.3923967809e+000	 2.2725248468e-001	 1.3783914169e+000
 3.3900332827e+000	 2.6014261392e-001	 1.3220189220e+000
 3.3873406841e+000	 2.9312663406e-001	 1.2742753107e+000
 3.3843158724e+000	 3.2620014879e-001	 1.2349503284e+000
 3.1188660616e+000	 3.0061454421e-001	 1.1842988747e+000
 3.1157700239e+000	 3.3116768761e-001	 1.1789947744e+000
 3.1123623662e+000	 3.6179499023e-001	 1.1678417089e+000
 3.1086404051e+000	 3.9249221452e-001	 1.1521641623e+000
 3.1046015236e+000	 4.2325504155e-001	 1.1331517590e+000
 3.1002431736e+000	 4.5407907204e-001	 1.1118934158e+000
 3.0955628784e+000	 4.8495982735e-001	 1.0894109427e+000
 3.0905582350e+000	 5.1589275069e-001	 1.0666905428e+000
 3.0852269172e+000	 5.4687320832e-001	 1.0447105820e+000
 3.0795666778e+000	 5.7789649090e-001	 1.0244639229e+000
 3.0735753511e+000	 6.0895781491e-001	 1.0069730570e+000
 3.1454110426e+000	 3.0317310467e-001	 1.0845756845e+000
 3.1422886543e+000	 3.3398628893e-001	 1.0903275389e+000
 3.1388519936e+000	 3.6487426358e-001	 1.0887285135e+000
 3.1350983546e+000	 3.9583275502e-001	 1.0813613507e+000
 3.1310250978e+000	 4.2685740756e-001	 1.0696292609e+000
 3.1266296535e+000	 4.5794378445e-001	 1.0548012169e+000
 3.1219095237e+000	 4.8908736896e-001	 1.0380569728e+000
 3.1168622853e+000	 5.2028356550e-001	 1.0205301554e+000
 3.1114855922e+000	 5.5152770090e-001	 1.0033476831e+000
 3.1057771779e+000	 5.8281502575e-001	 9.8766368913e-001
 3.0997348584e+000	 6.1414071579e-001	 9.7468606101e-001
 3.1719560237e+000	 3.0573166513e-001	 1.0216256615e+000
 3.1688072847e+000	 3.3680489025e-001	 1.0339022900e+000
 3.1653416211e+000	 3.6795353694e-001	 1.0377654352e+000
 3.1615563041e+000	 3.9917329552e-001	 1.0350252580e+000
 3.1574486720e+000	 4.3045977356e-001	 1.0272671997e+000
 3.1530161333e+000	 4.6180849686e-001	 1.0159092362e+000
 3.1482561691e+000	 4.9321491056e-001	 1.0022591519e+000
 3.1431663357e+000	 5.2467438031e-001	 9.8757006662e-001
 3.1377442671e+000	 5.5618219349e-001	 9.7309235506e-001
 3.1319876780e+000	 5.8773356059e-001	 9.6012000877e-001
 3.1258943657e+000	 6.1932361667e-001	 9.5002942319e-001
 3.1985010048e+000	 3.0829022558e-001	 9.9172390212e-001
 3.1953259151e+000	 3.3962349156e-001	 1.0060563249e+000
 3.1918312486e+000	 3.7103281029e-001	 1.0114105573e+000
 3.1880142536e+000	 4.0251383602e-001	 1.0097833322e+000
 3.1838722461e+000	 4.3406213955e-001	 1.0029009150e+000
 3.1794026131e+000	 4.6567320926e-001	 9.9228918035e-001
 3.1746028144e+000	 4.9734245217e-001	 9.7934401934e-001
 3.1694703860e+000	 5.2906519512e-001	 9.6540019361e-001
 3.1640029421e+000	 5.6083668607e-001	 9.5179664941e-001
 3.1581981781e+000	 5.9265209544e-001	 9.3993621348e-001
 3.1520538730e+000	 6.2450651756e-001	 9.3133751483e-001
 3.2250459859e+000	 3.1084878604e-001	 9.9120627768e-001
 3.2218445455e+000	 3.4244209288e-001	 1.0032008561e+000
 3.2183208761e+000	 3.7411208365e-001	 1.0062079989e+000
 3.2144722031e+000	 4.0585437652e-001	 1.0023599748e+000
 3.2102958203e+000	 4.3766450555e-001	 9.9347223655e-001
 3.2057890929e+000	 4.6953792167e-001	 9.8112722622e-001
 3.2009494598e+000	 5.0146999377e-001	 9.6675884010e-001
 3.1957744364e+000	 5.3345600993e-001	 9.5173554535e-001
 3.1902616171e+000	 5.6549117866e-001	 9.3744003115e-001
 3.1844086782e+000	 5.9757063029e-001	 9.2534317884e-001
 3.1782133803e+000	 6.2968941844e-001	 9.1707005212e-001
 3.2515909670e+000	 3.1340734650e-001	 1.0164698877e+000
 3.2483631759e+000	 3.4526069420e-001	 1.0218211856e+000
 3.2448105036e+000	 3.7719135700e-001	 1.0187877904e+000
 3.2409301526e+000	 4.0919491702e-001	 1.0095760932e+000
 3.2367193945e+000	 4.4126687155e-001	 9.9602868206e-001
 3.2321755727e+000	 4.7340263408e-001	 9.7972282736e-001
 3.2272961052e+000	 5.0559753538e-001	 9.6206997487e-001
 3.2220784867e+000	 5.3784682474e-001	 9.4441410764e-001
 3.2165202920e+000	 5.7014567124e-001	 9.2812672323e-001
 3.2106191783e+000	 6.0248916513e-001	 9.1469606645e-001
 3.2043728877e+000	 6.3487231932e-001	 9.0580816909e-001
 3.2781359481e+000	 3.1596590696e-001	 1.0639734652e+000
 3.2748818063e+000	 3.4807929552e-001	 1.0584768361e+000
 3.2713001311e+000	 3.8027063035e-001	 1.0458657115e+000
 3.2673881021e+000	 4.1253545752e-001	 1.0283486192e+000
 3.2631429687e+000	 4.4486923755e-001	 1.0077226238e+000
 3.2585620526e+000	 4.7726734648e-001	 9.8548749048e-001
 3.2536427505e+000	 5.0972507698e-001	 9.6296122326e-001
 3.2483825370e+000	 5.4223763955e-001	 9.4139470289e-001
 3.2427789670e+000	 5.7480016382e-001	 9.2208302748e-001
 3.2368296784e+000	 6.0740769998e-001	 9.0647104501e-001
 3.2305323950e+000	 6.4005522020e-001	 8.9625047208e-001
 3.3046809291e+000	 3.1852446741e-001	 1.1302377373e+000
 3.3014004367e+000	 3.5089789683e-001	 1.1098016433e+000
 3.2977897585e+000	 3.8334990371e-001	 1.0842430931e+000
 3.2938460516e+000	 4.1587599802e-001	 1.0556899938e+000
 3.2895665428e+000	 4.4847160355e-001	 1.0258104244e+000
 3.2849485324e+000	 4.8113205889e-001	 9.9594352407e-001
 3.2799893959e+000	 5.1385261859e-001	 9.6723214089e-001
 3.2746865874e+000	 5.4662845436e-001	 9.4075482588e-001
 3.2690376420e+000	 5.7945465641e-001	 9.1765462369e-001
 3.2630401785e+000	 6.1232623482e-001	 8.9926199166e-001
 3.2566919023e+000	 6.4523812109e-001	 8.8720907701e-001
 3.3312259102e+000	 3.2108302787e-001	 1.2118457439e+000
 3.3279190671e+000	 3.5371649815e-001	 1.1725038088e+000
 3.3242793860e+000	 3.8642917706e-001	 1.1308065847e+000
 3.3203040011e+000	 4.1921653852e-001	 1.0887076216e+000
 3.3159901170e+000	 4.5207396955e-001	 1.0476515448e+000
 3.3113350122e+000	 4.8499677130e-001	 1.0087227608e+000
 3.3063360413e+000	 5.1798016019e-001	 9.7279633212e-001
 3.3009906377e+000	 5.5101926917e-001	 9.4068845708e-001
 3.2952963169e+000	 5.8410914899e-001	 9.1330384796e-001
 3.2892506786e+000	 6.1724476967e-001	 8.9177717461e-001
 3.2828514096e+000	 6.5042102197e-001	 8.7760563012e-001
 3.3577708913e+000	 3.2364158833e-001	 1.2650878004e+000
 3.3544376975e+000	 3.5653509947e-001	 1.2186891868e+000
 3.3507690135e+000	 3.8950845042e-001	 1.1689130509e+000
 3.3467619505e+000	 4.2255707902e-001	 1.1181823840e+000
 3.3424136912e+000	 4.5567633555e-001	 1.0684183967e+000
 3.3377214920e+000	 4.8886148370e-001	 1.0211569337e+000
 3.3326826866e+000	 5.2210770180e-001	 9.7767971973e-001
 3.3272946881e+000	 5.5541008398e-001	 9.3950385449e-001
 3.3215549919e+000	 5.8876364158e-001	 9.0760695146e-001
 3.3154611787e+000	 6.2216330452e-001	 8.8283591809e-001
 3.3090109169e+000	 6.5560392285e-001	 8.6646731339e-001
 3.3843158724e+000	 3.2620014879e-001	 1.2349503284e+000
 3.3809563279e+000	 3.5935370079e-001	 1.1960365592e+000
 3.3772586410e+000	 3.9258772377e-001	 1.1520731541e+000
 3.3732199000e+000	 4.2589761953e-001	 1.1056311578e+000
 3.3688372654e+000	 4.5927870155e-001	 1.0587834779e+000
 3.3641079719e+000	 4.9272619611e-001	 1.0132176490e+000
 3.3590293320e+000	 5.2623524340e-001	 9.7035763380e-001
 3.3535987384e+000	 5.5980089879e-001	 9.3149557494e-001
 3.3478136668e+000	 5.9341813416e-001	 8.9793443480e-001
 3.3416716788e+000	 6.2708183937e-001	 8.7114247372e-001
 3.3351704242e+000	 6.6078682374e-001	 8.5292052376e-001
 3.0735753511e+000	 6.0895781491e-001	 1.0069730570e+000
 3.0672498820e+000	 6.4005698981e-001	 9.7940692563e-001
 3.0605891508e+000	 6.7118442308e-001	 9.3274575190e-001
 3.0535912533e+000	 7.0233510834e-001	 8.8382881231e-001
 3.0462543768e+000	 7.3350397137e-001	 8.3986089106e-001
 3.0385768026e+000	 7.6468587201e-001	 8.0007966488e-001
 3.0305569083e+000	 7.9587560609e-001	 7.6363086727e-001
 3.0221931699e+000	 8.2706790750e-001	 7.2957624929e-001
 3.0134841643e+000	 8.5825745028e-001	 6.9689960913e-001
 3.0044285715e+000	 8.8943885089e-001	 6.6451054089e-001
 2.9950251768e+000	 9.2060667051e-001	 6.3124556407e-001
 3.0997348584e+000	 6.1414071579e-001	 9.7468606101e-001
 3.0933555526e+000	 6.4550457888e-001	 9.5092792459e-001
 3.0866381313e+000	 6.7689694086e-001	 9.0761241367e-001
 3.0795806740e+000	 7.0831275271e-001	 8.6337059322e-001
 3.0721813526e+000	 7.3974689706e-001	 8.2275375927e-001
 3.0644384338e+000	 7.7119418997e-001	 7.8526091601e-001
 3.0563502813e+000	 8.0264938300e-001	 7.5029980438e-001
 3.0479153583e+000	 8.3410716520e-001	 7.1719666474e-001
 3.0391322295e+000	 8.6556216530e-001	 6.8520390854e-001
 3.0299995637e+000	 8.9700895394e-001	 6.5350532400e-001
 3.0205161357e+000	 9.2844204599e-001	 6.2121845210e-001
 3.1258943657e+000	 6.1932361667e-001	 9.5002942319e-001
 3.1194612233e+000	 6.5095216796e-001	 9.2871841011e-001
 3.1126871118e+000	 6.8260945863e-001	 8.8826034415e-001
 3.1055700946e+000	 7.1429039708e-001	 8.4766537434e-001
 3.0981083284e+000	 7.4598982274e-001	 8.0947769827e-001
 3.0903000650e+000	 7.7770250793e-001	 7.7342834343e-001
 3.0821436544e+000	 8.0942315991e-001	 7.3915911045e-001
 3.0736375467e+000	 8.4114642290e-001	 7.0623432154e-001
 3.0647802947e+000	 8.7286688032e-001	 6.7415030822e-001
 3.0555705559e+000	 9.0457905698e-001	 6.4234223620e-001
 3.0460070947e+000	 9.3627742146e-001	 6.1018787750e-001
 3.1520538730e+000	 6.2450651756e-001	 9.3133751483e-001
 3.1455668939e+000	 6.5639975703e-001	 9.1132265240e-001
 3.1387360922e+000	 6.8832197640e-001	 8.7340601265e-001
 3.1315595153e+000	 7.2026804145e-001	 8.3561166012e-001
 3.1240353041e+000	 7.5223274842e-001	 7.9912152483e-001
 3.1161616961e+000	 7.8421082589e-001	 7.6386795254e-001
 3.1079370274e+000	 8.1619693681e-001	 7.2969753716e-001
 3.0993597352e+000	 8.4818568061e-001	 6.9638504633e-001
 3.0904283599e+000	 8.8017159535e-001	 6.6364490604e-001
 3.0811415480e+000	 9.1214916002e-001	 6.3113981380e-001
 3.0714980536e+000	 9.4411279694e-001	 5.9848606247e-001
 3.1782133803e+000	 6.2968941844e-001	 9.1707005212e-001
 3.1716725645e+000	 6.6184734610e-001	 8.9740534078e-001
 3.1647850727e+000	 6.9403449417e-001	 8.6187906958e-001
 3.1575489359e+000	 7.2624568582e-001	 8.2622336470e-001
 3.1499622799e+000	 7.5847567410e-001	 7.9089071056e-001
 3.1420233273e+000	 7.9071914385e-001	 7.5598263408e-001
 3.1337304005e+000	 8.2297071372e-001	 7.2151990980e-001
 3.1250819236e+000	 8.5522493831e-001	 6.8745886165e-001
 3.1160764251e+000	 8.8747631037e-001	 6.5370503269e-001
 3.1067125402e+000	 9.1971926307e-001	 6.2012376219e-001
 3.0969890125e+000	 9.5194817241e-001	 5.8654722300e-001
 3.2043728877e+000	 6.3487231932e-001	 9.0580816909e-001
 3.1977782351e+000	 6.6729493517e-001	 8.8575070178e-001
 3.1908340532e+000	 6.9974701194e-001	 8.5262022440e-001
 3.1835383566e+000	 7.3222333019e-001	 8.1862738163e-001
 3.1758892557e+000	 7.6471859979e-001	 7.8410463664e-001
 3.1678849585e+000	 7.9722746181e-001	 7.4928909680e-001
 3.1595237735e+000	 8.2974449062e-001	 7.1434373076e-001
 3.1508041120e+000	 8.6226419602e-001	 6.7937625330e-001
 3.1417244903e+000	 8.9478102539e-001	 6.4445517578e-001
 3.1322835323e+000	 9.2728936611e-001	 6.0962252972e-001
 3.1224799714e+000	 9.5978354789e-001	 5.7490278585e-001
 3.2305323950e+000	 6.4005522020e-001	 8.9625047208e-001
 3.2238839057e+000	 6.7274252424e-001	 8.7562013754e-001
 3.2168830336e+000	 7.0545952971e-001	 8.4467910977e-001
 3.2095277773e+000	 7.3820097456e-001	 8.1206114132e-001
 3.2018162314e+000	 7.7096152547e-001	 7.7819383707e-001
 3.1937465896e+000	 8.0373577976e-001	 7.4341478900e-001
 3.1853171466e+000	 8.3651826753e-001	 7.0799577175e-001
 3.1765263004e+000	 8.6930345372e-001	 6.7216442559e-001
 3.1673725556e+000	 9.0208574042e-001	 6.3612289058e-001
 3.1578545245e+000	 9.3485946916e-001	 6.0006286646e-001
 3.1479709303e+000	 9.6761892336e-001	 5.6417658791e-001
 3.2566919023e+000	 6.4523812109e-001	 8.8720907701e-001
 3.2499895763e+000	 6.7819011332e-001	 8.6623860601e-001
 3.2429320141e+000	 7.1117204748e-001	 8.3721213252e-001
 3.2355171979e+000	 7.4417861893e-001	 8.0587015668e-001
 3.2277432072e+000	 7.7720445115e-001	 7.7269723103e-001
 3.2196082208e+000	 8.1024409772e-001	 7.3809480951e-001
 3.2111105196e+000	 8.4329204444e-001	 7.0240865534e-001
 3.2022484889e+000	 8.7634271142e-001	 6.6595354520e-001
 3.1930206208e+000	 9.0939045544e-001	 6.2903469814e-001
 3.1834255166e+000	 9.4242957220e-001	 5.9196536852e-001
 3.1734618893e+000	 9.7545429884e-001	 5.5508005884e-001
 3.2828514096e+000	 6.5042102197e-001	 8.7760563012e-001
 3.2760952470e+000	 6.8363770239e-001	 8.5668195384e-001
 3.2689809945e+000	 7.1688456525e-001	 8.2948031239e-001
 3.2615066186e+000	 7.5015626330e-001	 7.9950555774e-001
 3.2536701830e+000	 7.8344737683e-001	 7.6725934498e-001
 3.2454698520e+000	 8.1675241568e-001	 7.3316880881e-001
 3.2369038926e+000	 8.5006582134e-001	 6.9761742635e-001
 3.2279706773e+000	 8.8338196913e-001	 6.6097297432e-001
 3.2186686860e+000	 9.1669517046e-001	 6.2361197145e-001
 3.2089965088e+000	 9.4999967524e-001	 5.8594000877e-001
 3.1989528482e+000	 9.8328967431e-001	 5.4840738799e-001
 3.3090109169e+000	 6.5560392285e-001	 8.6646731339e-001
 3.3022009176e+000	 6.8908529146e-001	 8.4612677886e-001
 3.2950299750e+000	 7.2259708303e-001	 8.2084710897e-001
 3.2874960392e+000	 7.5613390767e-001	 7.9252161585e-001
 3.2795971588e+000	 7.8969030251e-001	 7.6162752518e-001
 3.2713314832e+000	 8.2326073364e-001	 7.2857788067e-001
 3.2626972657e+000	 8.5683959825e-001	 6.9375611368e-001
 3.2536928657e+000	 8.9042122683e-001	 6.5754749351e-001
 3.2443167512e+000	 9.2399988549e-001	 6.2036681034e-001
 3.2345675009e+000	 9.5756977829e-001	 5.8268165474e-001
 3.2244438071e+000	 9.9112504979e-001	 5.4503067652e-001
 3.3351704242e+000	 6.6078682374e-001	 8.5292052376e-001
 3.3283065882e+000	 6.9453288053e-001	 8.3384853860e-001
 3.3210789555e+000	 7.2830960080e-001	 8.1077623776e-001
 3.3134854599e+000	 7.6211155205e-001	 7.8457325798e-001
 3.3055241345e+000	 7.9593322820e-001	 7.5564914090e-001
 3.2971931143e+000	 8.2976905160e-001	 7.2436144506e-001
 3.2884906387e+000	 8.6361337515e-001	 6.9105428321e-001
 3.2794150542e+000	 8.9746048454e-001	 6.5609351504e-001
 3.2699648164e+000	 9.3130460051e-001	 6.1989790573e-001
 3.2601384931e+000	 9.6513988133e-001	 5.8296557440e-001
 3.2499347660e+000	 9.9896042527e-001	 5.4589507536e-001
 2.9950251768e+000	 9.2060667051e-001	 6.3124556407e-001
 2.9852728719e+000	 9.5175541694e-001	 5.9510744719e-001
 2.9751706548e+000	 9.8287954570e-001	 5.5561982009e-001
 2.9647176344e+000	 1.0139734639e+000	 5.1379352266e-001
 2.9539130326e+000	 1.0450315331e+000	 4.7058285013e-001
 2.9427561866e+000	 1.0760480726e+000	 4.2682539833e-001
 2.9312465504e+000	 1.1070173614e+000	 3.8324612658e-001
 2.9193836965e+000	 1.1379336420e+000	 3.4041962329e-001
 2.9071673179e+000	 1.1687911224e+000	 2.9873596655e-001
 2.8945972292e+000	 1.1995839799e+000	 2.5836193098e-001
 2.8816733683e+000	 1.2303063637e+000	 2.1919752382e-001
 3.0205161357e+000	 9.2844204599e-001	 6.2121845210e-001
 3.0106808279e+000	 9.5985590252e-001	 5.8664198096e-001
 3.0004926299e+000	 9.9124493185e-001	 5.4925041622e-001
 2.9899506428e+000	 1.0226034935e+000	 5.0983169149e-001
 2.9790540820e+000	 1.0539259011e+000	 4.6912522808e-001
 2.9678022789e+000	 1.0852064254e+000	 4.2776744804e-001
 2.9561946830e+000	 1.1164392970e+000	 3.8629274539e-001
 2.9442308632e+000	 1.1476187090e+000	 3.4509681205e-001
 2.9319105098e+000	 1.1787388205e+000	 3.0440225682e-001
 2.9192334358e+000	 1.2097937591e+000	 2.6421921436e-001
 2.9061995786e+000	 1.2407776243e+000	 2.2430091956e-001
 3.0460070947e+000	 9.3627742146e-001	 6.1018787750e-001
 3.0360887840e+000	 9.6795638809e-001	 5.7630904447e-001
 3.0258146050e+000	 9.9961031800e-001	 5.4017392439e-001
 3.0151836512e+000	 1.0312335231e+000	 5.0235300887e-001
 3.0041951313e+000	 1.0628202690e+000	 4.6337834493e-001
 2.9928483712e+000	 1.0943647782e+000	 4.2369426626e-001
 2.9811428157e+000	 1.1258612325e+000	 3.8365561761e-001
 2.9690780299e+000	 1.1573037761e+000	 3.4349204542e-001
 2.9566537017e+000	 1.1886865187e+000	 3.0327334569e-001
 2.9438696424e+000	 1.2200035384e+000	 2.6286942417e-001
 2.9307257889e+000	 1.2512488848e+000	 2.2190483667e-001
 3.0714980536e+000	 9.4411279694e-001	 5.9848606247e-001
 3.0614967401e+000	 9.7605687366e-001	 5.6464704002e-001
 3.0511365801e+000	 1.0079757041e+000	 5.2911842959e-001
 3.0404166596e+000	 1.0398635527e+000	 4.9225765823e-001
 3.0293361807e+000	 1.0717146369e+000	 4.5439593585e-001
 3.0178944636e+000	 1.1035231310e+000	 4.1579378443e-001
 3.0060909483e+000	 1.1352831680e+000	 3.7663684624e-001
 2.9939251966e+000	 1.1669888432e+000	 3.3700104932e-001
 2.9813968936e+000	 1.1986342169e+000	 2.9681765557e-001
 2.9685058490e+000	 1.2302133177e+000	 2.5583252139e-001
 2.9552519993e+000	 1.2617201454e+000	 2.1355953056e-001
 3.0969890125e+000	 9.5194817241e-001	 5.8654722300e-001
 3.0869046962e+000	 9.8415735924e-001	 5.5229033237e-001
 3.0764585552e+000	 1.0163410903e+000	 5.1689649755e-001
 3.0656496680e+000	 1.0484935822e+000	 4.8052799089e-001
 3.0544772300e+000	 1.0806090049e+000	 4.4330618593e-001
 3.0429405559e+000	 1.1126814838e+000	 4.0532015693e-001
 3.0310390810e+000	 1.1447051035e+000	 3.6659605535e-001
 3.0187723634e+000	 1.1766739103e+000	 3.2706793264e-001
 3.0061400855e+000	 1.2085819151e+000	 2.8654246065e-001
 2.9931420557e+000	 1.2404230969e+000	 2.4465744199e-001
 2.9797782096e+000	 1.2721914059e+000	 2.0083406126e-001
 3.1224799714e+000	 9.5978354789e-001	 5.7490278585e-001
 3.1123126523e+000	 9.9225784481e-001	 5.3996409148e-001
 3.1017805303e+000	 1.0247064764e+000	 5.0441971387e-001
 3.0908826764e+000	 1.0571236118e+000	 4.6822253530e-001
 3.0796182794e+000	 1.0895033728e+000	 4.3130527949e-001
 3.0679866482e+000	 1.1218398366e+000	 3.9358682137e-001
 3.0559872136e+000	 1.1541270390e+000	 3.5494293209e-001
 3.0436195301e+000	 1.1863589773e+000	 3.1517718146e-001
 3.0308832774e+000	 1.2185296133e+000	 2.7398530383e-001
 3.0177782623e+000	 1.2506328762e+000	 2.3091290719e-001
 3.0043044200e+000	 1.2826626665e+000	 1.8530646762e-001
 3.1479709303e+000	 9.6761892336e-001	 5.6417658791e-001
 3.1377206083e+000	 1.0003583304e+000	 5.2847911516e-001
 3.1271025054e+000	 1.0330718626e+000	 4.9266193395e-001
 3.1161156848e+000	 1.0657536414e+000	 4.5646998280e-001
 3.1047593287e+000	 1.0983977407e+000	 4.1965092522e-001
 3.0930327405e+000	 1.1309981894e+000	 3.8195953449e-001
 3.0809353463e+000	 1.1635489746e+000	 3.4312974456e-001
 3.0684666968e+000	 1.1960440444e+000	 3.0284563030e-001
 3.0556264693e+000	 1.2284773114e+000	 2.6070539259e-001
 3.0424144689e+000	 1.2608426555e+000	 2.1617821528e-001
 3.0288306303e+000	 1.2931339270e+000	 1.6855392655e-001
 3.1734618893e+000	 9.7545429884e-001	 5.5508005884e-001
 3.1631285644e+000	 1.0084588160e+000	 5.1872663271e-001
 3.1524244805e+000	 1.0414372487e+000	 4.8267519032e-001
 3.1413486932e+000	 1.0743836710e+000	 4.4646315135e-001
 3.1299003781e+000	 1.1072921087e+000	 4.0965585838e-001
 3.1180788328e+000	 1.1401565422e+000	 3.7184938494e-001
 3.1058834789e+000	 1.1729709101e+000	 3.3264383721e-001
 3.0933138635e+000	 1.2057291115e+000	 2.9161441184e-001
 3.0803696612e+000	 1.2384250096e+000	 2.4827497502e-001
 3.0670506755e+000	 1.2710524347e+000	 2.0203401603e-001
 3.0533568406e+000	 1.3036051876e+000	 1.5214289808e-001
 3.1989528482e+000	 9.8328967431e-001	 5.4840738799e-001
 3.1885365205e+000	 1.0165593015e+000	 5.1166869990e-001
 3.1777464556e+000	 1.0498026349e+000	 4.7557849634e-001
 3.1665817016e+000	 1.0830137006e+000	 4.3945292833e-001
 3.1550414274e+000	 1.1161864766e+000	 4.0268132143e-001
 3.1431249251e+000	 1.1493148950e+000	 3.6470578430e-001
 3.1308316116e+000	 1.1823928456e+000	 3.2500010468e-001
 3.1181610302e+000	 1.2154141786e+000	 2.8304088629e-001
 3.1051128531e+000	 1.2483727078e+000	 2.3827069721e-001
 3.0916868821e+000	 1.2812622140e+000	 1.9005306874e-001
 3.0778830510e+000	 1.3140764481e+000	 1.3761925704e-001
 3.2244438071e+000	 9.9112504979e-001	 5.4503067652e-001
 3.2139444766e+000	 1.0246597871e+000	 5.0835109440e-001
 3.2030684307e+000	 1.0581680210e+000	 4.7255220538e-001
 3.1918147100e+000	 1.0916437302e+000	 4.3674219362e-001
 3.1801824768e+000	 1.1250808445e+000	 4.0013052420e-001
 3.1681710175e+000	 1.1584732478e+000	 3.6200943750e-001
 3.1557797442e+000	 1.1918147811e+000	 3.2173344557e-001
 3.1430081969e+000	 1.2250992456e+000	 2.7869055143e-001
 3.1298560450e+000	 1.2583204060e+000	 2.3226494284e-001
 3.1163230887e+000	 1.2914719933e+000	 1.8179098480e-001
 3.1024092613e+000	 1.3245477087e+000	 1.2649841204e-001
 3.2499347660e+000	 9.9896042527e-001	 5.4589507536e-001
 3.2393524327e+000	 1.0327602727e+000	 5.0986996974e-001
 3.2283904058e+000	 1.0665334072e+000	 4.7483235253e-001
 3.2170477184e+000	 1.1002737598e+000	 4.3967972405e-001
 3.2053235261e+000	 1.1339752124e+000	 4.0344208487e-001
 3.1932171098e+000	 1.1676316006e+000	 3.6526529383e-001
 3.1807278769e+000	 1.2012367166e+000	 3.2439119708e-001
 3.1678553637e+000	 1.2347843127e+000	 2.8012893457e-001
 3.1545992369e+000	 1.2682681041e+000	 2.3181715612e-001
 3.1409592953e+000	 1.3016817725e+000	 1.7877695555e-001
 3.1269354717e+000	 1.3350189692e+000	 1.2029522830e-001
 2.8816733683e+000	 1.2303063637e+000	 2.1919752382e-001
 2.8683978159e+000	 1.2609478081e+000	 1.7692281985e-001
 2.8547688504e+000	 1.2915070333e+000	 1.2687360064e-001
 2.8407867890e+000	 1.3219781284e+000	 6.7859615313e-002
 2.8264520771e+000	 1.3523551673e+000	 3.8392699774e-003
 2.8117652893e+000	 1.3826322125e+000	-4.7011858695e-002
 2.7967271297e+000	 1.4128033184e+000	-8.6838748742e-002
 2.7813384333e+000	 1.4428625346e+000	-1.1995346934e-001
 2.7656001662e+000	 1.4728039098e+000	-1.5077860837e-001
 2.7495134265e+000	 1.5026214949e+000	-1.8382931866e-001
 2.7330794442e+000	 1.5323093471e+000	-2.2369380118e-001
 2.9061995786e+000	 1.2407776243e+000	 2.2430091956e-001
 2.8928110367e+000	 1.2716798610e+000	 1.7978241409e-001
 2.8790660737e+000	 1.3024991789e+000	 1.2572249617e-001
 2.8649650095e+000	 1.3332296165e+000	 6.1198958318e-002
 2.8505082935e+000	 1.3638651974e+000	-8.0200136725e-004
 2.8356965050e+000	 1.3943999336e+000	-4.8853561147e-002
 2.8205303541e+000	 1.4248278287e+000	-8.6912022914e-002
 2.8050106830e+000	 1.4551428820e+000	-1.1906219215e-001
 2.7891384659e+000	 1.4853390912e+000	-1.4950096530e-001
 2.7729148103e+000	 1.5154104568e+000	-1.8251928678e-001
 2.7563409568e+000	 1.5453509852e+000	-2.2248244813e-001
 2.9307257889e+000	 1.2512488848e+000	 2.2190483667e-001
 2.9172242575e+000	 1.2824119140e+000	 1.7499621476e-001
 2.9033632970e+000	 1.3134913245e+000	 1.1694163233e-001
 2.8891432301e+000	 1.3444811046e+000	 4.9030786754e-002
 2.8745645099e+000	 1.3753752276e+000	-8.8102158299e-003
 2.8596277206e+000	 1.4061676547e+000	-5.3940708524e-002
 2.8443335785e+000	 1.4368523391e+000	-9.0082235532e-002
 2.8286829326e+000	 1.4674232293e+000	-1.2108660360e-001
 2.8126767656e+000	 1.4978742726e+000	-1.5091954616e-001
 2.7963161942e+000	 1.5281994187e+000	-1.8364257808e-001
 2.7796024694e+000	 1.5583926234e+000	-2.2339309255e-001
 2.9552519993e+000	 1.2617201454e+000	 2.1355953056e-001
 2.9416374783e+000	 1.2931439669e+000	 1.6413216900e-001
 2.9276605203e+000	 1.3244834701e+000	 1.0211315420e-001
 2.9133214507e+000	 1.3557325927e+000	 3.4791968204e-002
 2.8986207263e+000	 1.3868852577e+000	-1.8907400676e-002
 2.8835589363e+000	 1.4179353758e+000	-6.1108301921e-002
 2.8681368029e+000	 1.4488768495e+000	-9.5291382186e-002
 2.8523551823e+000	 1.4797035767e+000	-1.2506969783e-001
 2.8362150654e+000	 1.5104094540e+000	-1.5417236957e-001
 2.8197175780e+000	 1.5409883806e+000	-1.8642632101e-001
 2.8028639820e+000	 1.5714342615e+000	-2.2573615382e-001
 2.9797782096e+000	 1.2721914059e+000	 2.0083406126e-001
 2.9660506991e+000	 1.3038760199e+000	 1.4876633960e-001
 2.9519577435e+000	 1.3354756156e+000	 8.2888075528e-002
 2.9374996712e+000	 1.3669840809e+000	 1.9790715841e-002
 2.9226769427e+000	 1.3983952878e+000	-2.9902909295e-002
 2.9074901520e+000	 1.4297030969e+000	-6.9277227569e-002
 2.8919400273e+000	 1.4609013599e+000	-1.0156587572e-001
 2.8760274320e+000	 1.4919839241e+000	-1.3013739788e-001
 2.8597533651e+000	 1.5229446355e+000	-1.5847888157e-001
 2.8431189619e+000	 1.5537773424e+000	-1.9017756527e-001
 2.8261254946e+000	 1.5844758997e+000	-2.2890047079e-001
 3.0043044200e+000	 1.2826626665e+000	 1.8530646762e-001
 2.9904639199e+000	 1.3146080728e+000	 1.3047242583e-001
 2.9762549668e+000	 1.3464677612e+000	 6.3195957627e-002
 2.9616778918e+000	 1.3782355690e+000	 5.2486989345e-003
 2.9467331591e+000	 1.4099053180e+000	-4.0691073520e-002
 2.9314213677e+000	 1.4414708180e+000	-7.7451821241e-002
 2.9157432517e+000	 1.4729258703e+000	-1.0801401389e-001
 2.8996996817e+000	 1.5042642715e+000	-1.3549591797e-001
 2.8832916648e+000	 1.5354798169e+000	-1.6313720447e-001
 2.8665203457e+000	 1.5665663043e+000	-1.9428040915e-001
 2.8493870072e+000	 1.5975175378e+000	-2.3235030037e-001
 3.0288306303e+000	 1.2931339270e+000	 1.6855392655e-001
 3.0148771406e+000	 1.3253401258e+000	 1.1081127281e-001
 3.0005521901e+000	 1.3574599068e+000	 4.5505157196e-002
 2.9858561124e+000	 1.3894870571e+000	-7.6966152223e-003
 2.9707893755e+000	 1.4214153481e+000	-5.0248858093e-002
 2.9553525834e+000	 1.4532385390e+000	-8.4717432293e-002
 2.9395464761e+000	 1.4849503807e+000	-1.1382344438e-001
 2.9233719313e+000	 1.5165446189e+000	-1.4042912140e-001
 2.9068299645e+000	 1.5480149983e+000	-1.6752137941e-001
 2.8899217296e+000	 1.5793552662e+000	-1.9819311947e-001
 2.8726485198e+000	 1.6105591760e+000	-2.3562230729e-001
 3.0533568406e+000	 1.3036051876e+000	 1.5214289808e-001
 3.0392903614e+000	 1.3360721787e+000	 9.1431599258e-002
 3.0248494134e+000	 1.3684520523e+000	 3.0990007201e-002
 3.0100343330e+000	 1.4007385452e+000	-1.7989702001e-002
 2.9948455920e+000	 1.4329253782e+000	-5.7633517152e-002
 2.9792837991e+000	 1.4650062601e+000	-9.0237987381e-002
 2.9633497005e+000	 1.4969748911e+000	-1.1825862749e-001
 2.9470441810e+000	 1.5288249663e+000	-1.4429587407e-001
 2.9303682642e+000	 1.5605501797e+000	-1.7107860325e-001
 2.9133231134e+000	 1.5921442281e+000	-2.0144524425e-001
 2.8959100323e+000	 1.6236008141e+000	-2.3832254586e-001
 3.0778830510e+000	 1.3140764481e+000	 1.3761925704e-001
 3.0637035822e+000	 1.3468042317e+000	 7.6060237884e-002
 3.0491466367e+000	 1.3794441979e+000	 2.0743485405e-002
 3.0342125535e+000	 1.4119900333e+000	-2.4654724526e-002
 3.0189018084e+000	 1.4444354083e+000	-6.1980252623e-002
 3.0032150148e+000	 1.4767739812e+000	-9.3253553840e-002
 2.9871529249e+000	 1.5089994015e+000	-1.2065829646e-001
 2.9707164307e+000	 1.5411053137e+000	-1.4652739399e-001
 2.9539065639e+000	 1.5730853612e+000	-1.7332645984e-001
 2.9367244973e+000	 1.6049331899e+000	-2.0363471873e-001
 2.9191715449e+000	 1.6366424523e+000	-2.4012343380e-001
 3.1024092613e+000	 1.3245477087e+000	 1.2649841204e-001
 3.0881168030e+000	 1.3575362846e+000	 6.6776439271e-002
 3.0734438600e+000	 1.3904363435e+000	 1.5779384445e-002
 3.0583907741e+000	 1.4232415214e+000	-2.6793282904e-002
 3.0429580248e+000	 1.4559454385e+000	-6.2499874429e-002
 3.0271462304e+000	 1.4885417023e+000	-9.3077902786e-002
 3.0109561493e+000	 1.5210239119e+000	-1.2043291560e-001
 2.9943886803e+000	 1.5533856610e+000	-1.4662459711e-001
 2.9774448636e+000	 1.5856205426e+000	-1.7385014614e-001
 2.9601258812e+000	 1.6177221518e+000	-2.0442496497e-001
 2.9424330575e+000	 1.6496840905e+000	-2.4076071896e-001
 3.1269354717e+000	 1.3350189692e+000	 1.2029522830e-001
 3.1125300238e+000	 1.3682683376e+000	 6.4636700198e-002
 3.0977410833e+000	 1.4014284891e+000	 1.7034475518e-002
 3.0825689947e+000	 1.4344930095e+000	-2.3582167382e-002
 3.0670142412e+000	 1.4674554686e+000	-5.8476462391e-002
 3.0510774461e+000	 1.5003094234e+000	-8.9096071912e-002
 3.0347593738e+000	 1.5330484222e+000	-1.1706213650e-001
 3.0180609300e+000	 1.5656660084e+000	-1.4415543936e-001
 3.0009831633e+000	 1.5981557240e+000	-1.7229969344e-001
 2.9835272650e+000	 1.6305111137e+000	-2.0354198550e-001
 2.9656945701e+000	 1.6627257286e+000	-2.4003043901e-001
 2.7330794442e+000	 1.5323093471e+000	-2.2369380118e-001
 2.7162970396e+000	 1.5618659559e+000	-2.7008873875e-001
 2.6991701498e+000	 1.5912809365e+000	-3.1950005950e-001
 2.6817004063e+000	 1.6205483847e+000	-3.7169915252e-001
 2.6638895731e+000	 1.6496624172e+000	-4.2636099940e-001
 2.6457395471e+000	 1.6786171747e+000	-4.8094843538e-001
 2.6272523575e+000	 1.7074068260e+000	-5.3301093510e-001
 2.6084301654e+000	 1.7360255719e+000	-5.8083502627e-001
 2.5892752636e+000	 1.7644676483e+000	-6.2245668813e-001
 2.5697900756e+000	 1.7927273302e+000	-6.5568564339e-001
 2.5499771547e+000	 1.8207989356e+000	-6.7813225409e-001
 2.7563409568e+000	 1.5453509852e+000	-2.2248244813e-001
 2.7394157154e+000	 1.5751591533e+000	-2.6865643048e-001
 2.7221430570e+000	 1.6048244877e+000	-3.1719301837e-001
 2.7045246267e+000	 1.6343410342e+000	-3.6781944750e-001
 2.6865622037e+000	 1.6637028591e+000	-4.2020816686e-001
 2.6682577011e+000	 1.6929040534e+000	-4.7395771618e-001
 2.6496131651e+000	 1.7219387363e+000	-5.2694133977e-001
 2.6306307755e+000	 1.7508010592e+000	-5.7558717107e-001
 2.6113128445e+000	 1.7794852089e+000	-6.1788155785e-001
 2.5916618160e+000	 1.8079854119e+000	-6.5158374769e-001
 2.5716802653e+000	 1.8362959375e+000	-6.7424199154e-001
 2.7796024694e+000	 1.5583926234e+000	-2.2339309255e-001
 2.7625343913e+000	 1.5884523507e+000	-2.6901740304e-001
 2.7451159642e+000	 1.6183680390e+000	-3.1638976149e-001
 2.7273488472e+000	 1.6481336836e+000	-3.6522687349e-001
 2.7092348344e+000	 1.6777433009e+000	-4.1519437567e-001
 2.6907758550e+000	 1.7071909321e+000	-4.6588678738e-001
 2.6719739728e+000	 1.7364706467e+000	-5.1680651139e-001
 2.6528313856e+000	 1.7655765466e+000	-5.6618033076e-001
 2.6333504253e+000	 1.7945027696e+000	-6.0949738704e-001
 2.6135335564e+000	 1.8232434935e+000	-6.4433868960e-001
 2.5933833760e+000	 1.8517929394e+000	-6.6821624325e-001
 2.8028639820e+000	 1.5714342615e+000	-2.2573615382e-001
 2.7856530671e+000	 1.6017455481e+000	-2.7055955247e-001
 2.7680888714e+000	 1.6319115902e+000	-3.1654923346e-001
 2.7501730676e+000	 1.6619263330e+000	-3.6344424628e-001
 2.7319074651e+000	 1.6917837428e+000	-4.1093654542e-001
 2.7132940090e+000	 1.7214778108e+000	-4.5864990171e-001
 2.6943347804e+000	 1.7510025570e+000	-5.0611777401e-001
 2.6750319957e+000	 1.7803520339e+000	-5.5276030782e-001
 2.6553880061e+000	 1.8095203303e+000	-5.9702347432e-001
 2.6354052969e+000	 1.8385015752e+000	-6.3365586646e-001
 2.6150864867e+000	 1.8672899413e+000	-6.5973756684e-001
 2.8261254946e+000	 1.5844758997e+000	-2.2890047079e-001
 2.8087717430e+000	 1.6150387455e+000	-2.7274771147e-001
 2.7910617786e+000	 1.6454551415e+000	-3.1720588786e-001
 2.7729972881e+000	 1.6757189825e+000	-3.6206856079e-001
 2.7545800958e+000	 1.7058241847e+000	-4.0708645321e-001
 2.7358121630e+000	 1.7357646895e+000	-4.5194520488e-001
 2.7166955881e+000	 1.7655344673e+000	-4.9624199368e-001
 2.6972326058e+000	 1.7951275212e+000	-5.3946119883e-001
 2.6774255869e+000	 1.8245378910e+000	-5.8094929703e-001
 2.6572770373e+000	 1.8537596569e+000	-6.1926128243e-001
 2.6367895974e+000	 1.8827869432e+000	-6.4851643180e-001
 2.8493870072e+000	 1.5975175378e+000	-2.3235030037e-001
 2.8318904189e+000	 1.6283319429e+000	-2.7512051170e-001
 2.8140346857e+000	 1.6589986927e+000	-3.1796640541e-001
 2.7958215085e+000	 1.6895116319e+000	-3.6076755640e-001
 2.7772527264e+000	 1.7198646266e+000	-4.0336526955e-001
 2.7583303170e+000	 1.7500515682e+000	-4.4553906003e-001
 2.7390563958e+000	 1.7800663776e+000	-4.8698190076e-001
 2.7194332159e+000	 1.8099030085e+000	-5.2727442192e-001
 2.6994631677e+000	 1.8395554517e+000	-5.6585826404e-001
 2.6791487777e+000	 1.8690177385e+000	-6.0200880153e-001
 2.6584927081e+000	 1.8982839451e+000	-6.3429528049e-001
 2.8726485198e+000	 1.6105591760e+000	-2.3562230729e-001
 2.8550090947e+000	 1.6416251403e+000	-2.7728723658e-001
 2.8370075929e+000	 1.6725422440e+000	-3.1850640211e-001
 2.8186457290e+000	 1.7033042813e+000	-3.5927627193e-001
 2.7999253571e+000	 1.7339050684e+000	-3.9955995122e-001
 2.7808484710e+000	 1.7643384469e+000	-4.3926226847e-001
 2.7614172034e+000	 1.7945982879e+000	-4.7820352390e-001
 2.7416338260e+000	 1.8246784959e+000	-5.1609209468e-001
 2.7215007486e+000	 1.8545730124e+000	-5.5249610996e-001
 2.7010205182e+000	 1.8842758202e+000	-5.8681442438e-001
 2.6801958187e+000	 1.9137809471e+000	-6.1824713383e-001
 2.8959100323e+000	 1.6236008141e+000	-2.3832254586e-001
 2.8781277706e+000	 1.6549183377e+000	-2.7892466508e-001
 2.8599805001e+000	 1.6860857952e+000	-3.1856712786e-001
 2.8414699494e+000	 1.7170969308e+000	-3.5739359122e-001
 2.8225979878e+000	 1.7479455103e+000	-3.9551962482e-001
 2.8033666250e+000	 1.7786253257e+000	-4.3300628181e-001
 2.7837780111e+000	 1.8091301983e+000	-4.6983222056e-001
 2.7638344362e+000	 1.8394539832e+000	-5.0586458304e-001
 2.7435383294e+000	 1.8695905731e+000	-5.4082885411e-001
 2.7228922586e+000	 1.8995339019e+000	-5.7427794350e-001
 2.7018989294e+000	 1.9292779490e+000	-6.0556074766e-001
 2.9191715449e+000	 1.6366424523e+000	-2.4012343380e-001
 2.9012464465e+000	 1.6682115351e+000	-2.7977390705e-001
 2.8829534073e+000	 1.6996293465e+000	-3.1795215624e-001
 2.8642941699e+000	 1.7308895802e+000	-3.5497877947e-001
 2.8452706184e+000	 1.7619859522e+000	-3.9115196158e-001
 2.8258847789e+000	 1.7929122044e+000	-4.2671940609e-001
 2.8061388188e+000	 1.8236621086e+000	-4.6184870086e-001
 2.7860350463e+000	 1.8542294705e+000	-4.9659633438e-001
 2.7655759102e+000	 1.8846081337e+000	-5.3087559934e-001
 2.7447639990e+000	 1.9147919835e+000	-5.6442363872e-001
 2.7236020401e+000	 1.9447749509e+000	-5.9676790583e-001
 2.9424330575e+000	 1.6496840905e+000	-2.4076071896e-001
 2.9243651223e+000	 1.6815047326e+000	-2.7963723061e-001
 2.9059263145e+000	 1.7131728977e+000	-3.1652406579e-001
 2.8871183903e+000	 1.7446822296e+000	-3.5194801122e-001
 2.8679432491e+000	 1.7760263941e+000	-3.8641954380e-001
 2.8484029329e+000	 1.8071990831e+000	-4.2040299823e-001
 2.8284996264e+000	 1.8381940189e+000	-4.5428504477e-001
 2.8082356564e+000	 1.8690049578e+000	-4.8834170577e-001
 2.7876134910e+000	 1.8996256944e+000	-5.2270416095e-001
 2.7666357395e+000	 1.9300500652e+000	-5.5732361023e-001
 2.7453051508e+000	 1.9602719528e+000	-5.9193548135e-001
 2.9656945701e+000	 1.6627257286e+000	-2.4003043901e-001
 2.9474837982e+000	 1.6947979300e+000	-2.7837488185e-001
 2.9288992217e+000	 1.7267164490e+000	-3.1420111332e-001
 2.9099426108e+000	 1.7584748791e+000	-3.4827089010e-001
 2.8906158798e+000	 1.7900668359e+000	-3.8133622352e-001
 2.8709210869e+000	 1.8214859618e+000	-4.1410765533e-001
 2.8508604341e+000	 1.8527259292e+000	-4.4722071326e-001
 2.8304362665e+000	 1.8837804452e+000	-4.8120078771e-001
 2.8096510718e+000	 1.9146432551e+000	-5.1642669306e-001
 2.7885074799e+000	 1.9453081468e+000	-5.5309319739e-001
 2.7670082615e+000	 1.9757689547e+000	-5.9117282347e-001
 2.5499771547e+000	 1.8207989356e+000	-6.7813225409e-001
 2.5298391828e+000	 1.8486768282e+000	-6.9543557257e-001
 2.5093789672e+000	 1.8763554191e+000	-7.1548392959e-001
 2.4885994412e+000	 1.9038291727e+000	-7.3903052695e-001
 2.4675036641e+000	 1.9310926103e+000	-7.6671983585e-001
 2.4460948194e+000	 1.9581403139e+000	-7.9911773086e-001
 2.4243762135e+000	 1.9849669300e+000	-8.3674282385e-001
 2.4023512743e+000	 2.0115671724e+000	-8.7879088144e-001
 2.3800235488e+000	 2.0379358263e+000	-9.1612097100e-001
 2.3573967021e+000	 2.0640677512e+000	-9.4876890808e-001
 2.3344745148e+000	 2.0899578845e+000	-9.7908283280e-001
 2.5716802653e+000	 1.8362959375e+000	-6.7424199154e-001
 2.5513708972e+000	 1.8644111016e+000	-6.9117625392e-001
 2.5307365427e+000	 1.8923252678e+000	-7.1021575179e-001
 2.5097801601e+000	 1.9200328533e+000	-7.3242415693e-001
 2.4885048347e+000	 1.9475283327e+000	-7.5874446514e-001
 2.4669137771e+000	 1.9748062421e+000	-7.9003051334e-001
 2.4450103220e+000	 2.0018611821e+000	-8.2704523523e-001
 2.4227979263e+000	 2.0286878219e+000	-8.6273388528e-001
 2.4002801674e+000	 2.0552809020e+000	-8.9314463162e-001
 2.3774607413e+000	 2.0816352384e+000	-9.2089369453e-001
 2.3543434610e+000	 2.1077457252e+000	-9.4862112021e-001
 2.5933833760e+000	 1.8517929394e+000	-6.6821624325e-001
 2.5729026116e+000	 1.8801453750e+000	-6.8606969564e-001
 2.5520941181e+000	 1.9082951165e+000	-7.0552779567e-001
 2.5309608789e+000	 1.9362365338e+000	-7.2786930743e-001
 2.5095060052e+000	 1.9639640551e+000	-7.5424047158e-001
 2.4877327348e+000	 1.9914721702e+000	-7.8568816760e-001
 2.4656444305e+000	 2.0187554343e+000	-8.1973532864e-001
 2.4432445784e+000	 2.0458084713e+000	-8.4776477055e-001
 2.4205367859e+000	 2.0726259777e+000	-8.7183184590e-001
 2.3975247805e+000	 2.0992027255e+000	-8.9476624105e-001
 2.3742124071e+000	 2.1255335658e+000	-9.1941795134e-001
 2.6150864867e+000	 1.8672899413e+000	-6.5973756684e-001
 2.5944343260e+000	 1.8958796485e+000	-6.7977718088e-001
 2.5734516935e+000	 1.9242649652e+000	-7.0107410794e-001
 2.5521415977e+000	 1.9524402144e+000	-7.2502833269e-001
 2.5305071758e+000	 1.9803997775e+000	-7.5289554662e-001
 2.5085516926e+000	 2.0081380983e+000	-7.8515890443e-001
 2.4862785390e+000	 2.0356496864e+000	-8.1255222791e-001
 2.4636912304e+000	 2.0629291208e+000	-8.3398819830e-001
 2.4407934044e+000	 2.0899710534e+000	-8.5239333452e-001
 2.4175888197e+000	 2.1167702127e+000	-8.7072943430e-001
 2.3940813533e+000	 2.1433214065e+000	-8.9197659934e-001
 2.6367895974e+000	 1.8827869432e+000	-6.4851643180e-001
 2.6159660404e+000	 1.9116139219e+000	-6.7199523746e-001
 2.5948092690e+000	 1.9402348139e+000	-6.9655088733e-001
 2.5733223165e+000	 1.9686438949e+000	-7.2361212806e-001
 2.5515083463e+000	 1.9968354999e+000	-7.5445170112e-001
 2.5293706503e+000	 2.0248040264e+000	-7.8414199856e-001
 2.5069126475e+000	 2.0525439385e+000	-8.0556954337e-001
 2.4841378824e+000	 2.0800497702e+000	-8.2155808896e-001
 2.4610500230e+000	 2.1073161292e+000	-8.3508649735e-001
 2.4376528589e+000	 2.1343376998e+000	-8.4916939973e-001
 2.4139502994e+000	 2.1611092471e+000	-8.6683921846e-001
 2.6584927081e+000	 1.8982839451e+000	-6.3429528049e-001
 2.6374977548e+000	 1.9273481954e+000	-6.6245974634e-001
 2.6161668444e+000	 1.9562046626e+000	-6.9170065500e-001
 2.5945030353e+000	 1.9848475755e+000	-7.2338437928e-001
 2.5725095169e+000	 2.0132712223e+000	-7.5693995346e-001
 2.5501896080e+000	 2.0414699545e+000	-7.8196315625e-001
 2.5275467561e+000	 2.0694381906e+000	-7.9890927830e-001
 2.5045845345e+000	 2.0971704197e+000	-8.1067495593e-001
 2.4813066415e+000	 2.1246612049e+000	-8.2021275998e-001
 2.4577168980e+000	 2.1519051869e+000	-8.3051289920e-001
 2.4338192456e+000	 2.1788970878e+000	-8.4458433372e-001
 2.6801958187e+000	 1.9137809471e+000	-6.1824713383e-001
 2.6590294692e+000	 1.9430824688e+000	-6.5095005864e-001
 2.6375244199e+000	 1.9721745113e+000	-6.8631643681e-001
 2.6156837542e+000	 2.0010512561e+000	-7.2415457378e-001
 2.5935106874e+000	 2.0297069447e+000	-7.5677540646e-001
 2.5710085658e+000	 2.0581358826e+000	-7.7873314259e-001
 2.5481808646e+000	 2.0863324428e+000	-7.9273919924e-001
 2.5250311865e+000	 2.1142910692e+000	-8.0158325092e-001
 2.5015632601e+000	 2.1420062806e+000	-8.0811492767e-001
 2.4777809372e+000	 2.1694726741e+000	-8.1522472992e-001
 2.4536881917e+000	 2.1966849284e+000	-8.2582432387e-001
 2.7018989294e+000	 1.9292779490e+000	-6.0556074766e-001
 2.6805611835e+000	 1.9588167422e+000	-6.3886142413e-001
 2.6588819953e+000	 1.9881443600e+000	-6.8024595674e-001
 2.6368644730e+000	 2.0172549366e+000	-7.2284407342e-001
 2.6145118580e+000	 2.0461426671e+000	-7.5397253451e-001
 2.5918275235e+000	 2.0748018108e+000	-7.7460707022e-001
 2.5688149731e+000	 2.1032266949e+000	-7.8727021986e-001
 2.5454778386e+000	 2.1314117186e+000	-7.9456872052e-001
 2.5218198786e+000	 2.1593513563e+000	-7.9917454651e-001
 2.4978449764e+000	 2.1870401612e+000	-8.0380512467e-001
 2.4735571379e+000	 2.2144727691e+000	-8.1120289825e-001
 2.7236020401e+000	 1.9447749509e+000	-5.9676790583e-001
 2.7020928979e+000	 1.9745510157e+000	-6.3165296177e-001
 2.6802395708e+000	 2.0041142087e+000	-6.7480246834e-001
 2.6580451918e+000	 2.0334586172e+000	-7.1722047752e-001
 2.6355130285e+000	 2.0625783895e+000	-7.4869022019e-001
 2.6126464812e+000	 2.0914677389e+000	-7.6978185388e-001
 2.5894490816e+000	 2.1201209470e+000	-7.8275379791e-001
 2.5659244906e+000	 2.1485323681e+000	-7.8995577326e-001
 2.5420764971e+000	 2.1766964320e+000	-7.9380927106e-001
 2.5179090156e+000	 2.2046076483e+000	-7.9678715333e-001
 2.4934260840e+000	 2.2322606097e+000	-8.0139256755e-001
 2.7453051508e+000	 1.9602719528e+000	-5.9193548135e-001
 2.7236246123e+000	 1.9902852891e+000	-6.2986364150e-001
 2.7015971462e+000	 2.0200840574e+000	-6.7221328092e-001
 2.6792259106e+000	 2.0496622977e+000	-7.0886832500e-001
 2.6565141991e+000	 2.0790141119e+000	-7.4112738066e-001
 2.6334654390e+000	 2.1081336670e+000	-7.6449367837e-001
 2.6100831901e+000	 2.1370151992e+000	-7.7947934439e-001
 2.5863711426e+000	 2.1656530175e+000	-7.8810485667e-001
 2.5623331157e+000	 2.1940415077e+000	-7.9247023846e-001
 2.5379730548e+000	 2.2221751355e+000	-7.9473412546e-001
 2.5132950302e+000	 2.2500484504e+000	-7.9709210921e-001
 2.7670082615e+000	 1.9757689547e+000	-5.9117282347e-001
 2.7451563267e+000	 2.0060195626e+000	-6.3323162177e-001
 2.7229547217e+000	 2.0360539061e+000	-6.7183700301e-001
 2.7004066295e+000	 2.0658659783e+000	-7.0399240911e-001
 2.6775153696e+000	 2.0954498343e+000	-7.3260454453e-001
 2.6542843967e+000	 2.1247995951e+000	-7.5901547896e-001
 2.6307172986e+000	 2.1539094513e+000	-7.7777164431e-001
 2.6068177947e+000	 2.1827736670e+000	-7.8940984370e-001
 2.5825897342e+000	 2.2113865834e+000	-7.9563944839e-001
 2.5580370939e+000	 2.2397426226e+000	-7.9823699407e-001
 2.5331639763e+000	 2.2678362910e+000	-7.9902402735e-001
 2.3344745148e+000	 2.0899578845e+000	-9.7908283280e-001
 2.3112643850e+000	 2.1155974172e+000	-1.0067656837e+000
 2.2877669022e+000	 2.1409853574e+000	-1.0294951663e+000
 2.2639861814e+000	 2.1661168989e+000	-1.0466081663e+000
 2.2399264443e+000	 2.1909873262e+000	-1.0574696576e+000
 2.2155920168e+000	 2.2155920168e+000	-1.0614635025e+000
 2.1909873262e+000	 2.2399264443e+000	-1.0579834025e+000
 2.1661168989e+000	 2.2639861814e+000	-1.0464241112e+000
 2.1409853574e+000	 2.2877669022e+000	-1.0261730146e+000
 2.1155974172e+000	 2.3112643850e+000	-9.9660218386e-001
 2.0899578845e+000	 2.3344745148e+000	-9.5706099715e-001
 2.3543434610e+000	 2.1077457252e+000	-9.4862112021e-001
 2.3309357874e+000	 2.1336034785e+000	-9.7663747385e-001
 2.3072383152e+000	 2.1592074979e+000	-1.0025204165e+000
 2.2832551943e+000	 2.1845529366e+000	-1.0248421950e+000
 2.2589906824e+000	 2.2096350385e+000	-1.0422156297e+000
 2.2344491421e+000	 2.2344491421e+000	-1.0532856119e+000
 2.2096350385e+000	 2.2589906824e+000	-1.0567207454e+000
 2.1845529366e+000	 2.2832551943e+000	-1.0512052440e+000
 2.1592074979e+000	 2.3072383152e+000	-1.0354311983e+000
 2.1336034785e+000	 2.3309357874e+000	-1.0080913178e+000
 2.1077457252e+000	 2.3543434610e+000	-9.6787224935e-001
 2.3742124071e+000	 2.1255335658e+000	-9.1941795134e-001
 2.3506071898e+000	 2.1516095398e+000	-9.4681796681e-001
 2.3267097282e+000	 2.1774296385e+000	-9.7469906355e-001
 2.3025242072e+000	 2.2029889742e+000	-1.0010004340e+000
 2.2780549204e+000	 2.2282827509e+000	-1.0237120132e+000
 2.2533062674e+000	 2.2533062674e+000	-1.0408664061e+000
 2.2282827509e+000	 2.2780549204e+000	-1.0505309555e+000
 2.2029889742e+000	 2.3025242072e+000	-1.0508000698e+000
 2.1774296385e+000	 2.3267097282e+000	-1.0397879256e+000
 2.1516095398e+000	 2.3506071898e+000	-1.0156216582e+000
 2.1255335658e+000	 2.3742124071e+000	-9.7643514378e-001
 2.3940813533e+000	 2.1433214065e+000	-8.9197659934e-001
 2.3702785922e+000	 2.1696156011e+000	-9.1796687359e-001
 2.3461811411e+000	 2.1956517791e+000	-9.4680762843e-001
 2.3217932201e+000	 2.2214250118e+000	-9.7593336353e-001
 2.2971191585e+000	 2.2469304632e+000	-1.0028372081e+000
 2.2721633927e+000	 2.2721633927e+000	-1.0250630111e+000
 2.2469304632e+000	 2.2971191585e+000	-1.0401975754e+000
 2.2214250118e+000	 2.3217932201e+000	-1.0458631590e+000
 2.1956517791e+000	 2.3461811411e+000	-1.0397103676e+000
 2.1696156011e+000	 2.3702785922e+000	-1.0194115522e+000
 2.1433214065e+000	 2.3940813533e+000	-9.8265482405e-001
 2.4139502994e+000	 2.1611092471e+000	-8.6683921846e-001
 2.3899499946e+000	 2.1876216623e+000	-8.9077858242e-001
 2.3656525541e+000	 2.2138739197e+000	-9.1965444605e-001
 2.3410622330e+000	 2.2398610495e+000	-9.5052187263e-001
 2.3161833966e+000	 2.2655781755e+000	-9.8050019204e-001
 2.2910205180e+000	 2.2910205180e+000	-1.0067649886e+000
 2.2655781755e+000	 2.3161833966e+000	-1.0265402405e+000
 2.2398610495e+000	 2.3410622330e+000	-1.0370907430e+000
 2.2138739197e+000	 2.3656525541e+000	-1.0357149423e+000
 2.1876216623e+000	 2.3899499946e+000	-1.0197383029e+000
 2.1611092471e+000	 2.4139502994e+000	-9.8650732492e-001
 2.4338192456e+000	 2.1788970878e+000	-8.4458433372e-001
 2.4096213971e+000	 2.2056277236e+000	-8.6597973840e-001
 2.3851239671e+000	 2.2320960602e+000	-8.9407728492e-001
 2.3603312458e+000	 2.2582970871e+000	-9.2567486476e-001
 2.3352476346e+000	 2.2842258879e+000	-9.5763805371e-001
 2.3098776433e+000	 2.3098776433e+000	-9.8689173287e-001
 2.2842258879e+000	 2.3352476346e+000	-1.0104118754e+000
 2.2582970871e+000	 2.3603312458e+000	-1.0252176380e+000
 2.2320960602e+000	 2.3851239671e+000	-1.0283638915e+000
 2.2056277236e+000	 2.4096213971e+000	-1.0169343209e+000
 2.1788970878e+000	 2.4338192456e+000	-9.8803521578e-001
 2.4536881917e+000	 2.1966849284e+000	-8.2582432387e-001
 2.4292927995e+000	 2.2236337849e+000	-8.4432680866e-001
 2.4045953801e+000	 2.2503182008e+000	-8.7094094712e-001
 2.3796002587e+000	 2.2767331247e+000	-9.0232684097e-001
 2.3543118727e+000	 2.3028736002e+000	-9.3521350367e-001
 2.3287347687e+000	 2.3287347687e+000	-9.6638985130e-001
 2.3028736002e+000	 2.3543118727e+000	-9.9269587869e-001
 2.2767331247e+000	 2.3796002587e+000	-1.0110141679e+000
 2.2503182008e+000	 2.4045953801e+000	-1.0182618715e+000
 2.2236337849e+000	 2.4292927995e+000	-1.0113833082e+000
 2.1966849284e+000	 2.4536881917e+000	-9.8734329970e-001
 2.4735571379e+000	 2.2144727691e+000	-8.1120289825e-001
 2.4489642019e+000	 2.2416398462e+000	-8.2660363403e-001
 2.4240667931e+000	 2.2685403414e+000	-8.5113484969e-001
 2.3988692716e+000	 2.2951691624e+000	-8.8143546231e-001
 2.3733761107e+000	 2.3215213125e+000	-9.1421236528e-001
 2.3475918940e+000	 2.3475918940e+000	-9.4623052668e-001
 2.3215213125e+000	 2.3733761107e+000	-9.7430329781e-001
 2.2951691624e+000	 2.3988692716e+000	-9.9528308810e-001
 2.2685403414e+000	 2.4240667931e+000	-1.0060525577e+000
 2.2416398462e+000	 2.4489642019e+000	-1.0035164733e+000
 2.2144727691e+000	 2.4735571379e+000	-9.8459436476e-001
 2.4934260840e+000	 2.2322606097e+000	-8.0139256755e-001
 2.4686356043e+000	 2.2596459074e+000	-8.1361896774e-001
 2.4435382061e+000	 2.2867624820e+000	-8.3557058858e-001
 2.4181382845e+000	 2.3136052000e+000	-8.6397909253e-001
 2.3924403488e+000	 2.3401690249e+000	-8.9564104616e-001
 2.3664490193e+000	 2.3664490193e+000	-9.2740686425e-001
 2.3401690249e+000	 2.3924403488e+000	-9.5616999441e-001
 2.3136052000e+000	 2.4181382845e+000	-9.7885650855e-001
 2.2867624820e+000	 2.4435382061e+000	-9.9241526210e-001
 2.2596459074e+000	 2.4686356043e+000	-9.9380877554e-001
 2.2322606097e+000	 2.4934260840e+000	-9.8000498483e-001
 2.5132950302e+000	 2.2500484504e+000	-7.9709210921e-001
 2.4883070067e+000	 2.2776519687e+000	-8.0620400209e-001
 2.4630096191e+000	 2.3049846225e+000	-8.2517948598e-001
 2.4374072974e+000	 2.3320412377e+000	-8.5095432212e-001
 2.4115045869e+000	 2.3588167372e+000	-8.8052399155e-001
 2.3853061446e+000	 2.3853061446e+000	-9.1093122346e-001
 2.3588167372e+000	 2.4115045869e+000	-9.3925380033e-001
 2.3320412377e+000	 2.4374072974e+000	-9.6259281655e-001
 2.3049846225e+000	 2.4630096191e+000	-9.7806156223e-001
 2.2776519687e+000	 2.4883070067e+000	-9.8277519660e-001
 2.2500484504e+000	 2.5132950302e+000	-9.7384136709e-001
 2.5331639763e+000	 2.2678362910e+000	-7.9902402735e-001
 2.5079784091e+000	 2.2956580300e+000	-8.0520988361e-001
 2.4824810320e+000	 2.3232067631e+000	-8.2091012208e-001
 2.4566763103e+000	 2.3504772753e+000	-8.4337347486e-001
 2.4305688249e+000	 2.3774644495e+000	-8.6990112042e-001
 2.4041632699e+000	 2.4041632699e+000	-8.9783253548e-001
 2.3774644495e+000	 2.4305688249e+000	-9.2453166512e-001
 2.3504772753e+000	 2.4566763103e+000	-9.4737359981e-001
 2.3232067631e+000	 2.4824810320e+000	-9.6373194215e-001
 2.2956580300e+000	 2.5079784091e+000	-9.7096703878e-001
 2.2678362910e+000	 2.5331639763e+000	-9.6641524364e-001
 2.0899578845e+000	 2.3344745148e+000	-9.5706099715e-001
 2.0640677512e+000	 2.3573967021e+000	-9.2559143682e-001
 2.0379358263e+000	 2.3800235488e+000	-9.2296310413e-001
 2.0115671724e+000	 2.4023512743e+000	-9.5245671048e-001
 1.9849669300e+000	 2.4243762135e+000	-1.0089749261e+000
 1.9581403139e+000	 2.4460948194e+000	-1.0556555863e+000
 1.9310926103e+000	 2.4675036641e+000	-1.0873607858e+000
 1.9038291727e+000	 2.4885994412e+000	-1.1037735158e+000
 1.8763554191e+000	 2.5093789672e+000	-1.1046236199e+000
 1.8486768282e+000	 2.5298391828e+000	-1.0897124198e+000
 1.8207989356e+000	 2.5499771547e+000	-1.0589359294e+000
 2.1077457252e+000	 2.3543434610e+000	-9.6787224935e-001
 2.0816352384e+000	 2.3774607413e+000	-9.3144867622e-001
 2.0552809020e+000	 2.4002801674e+000	-9.1893309585e-001
 2.0286878219e+000	 2.4227979263e+000	-9.3400970893e-001
 2.0018611821e+000	 2.4450103220e+000	-9.8018091065e-001
 1.9748062421e+000	 2.4669137771e+000	-1.0372837771e+000
 1.9475283327e+000	 2.4885048347e+000	-1.0759415998e+000
 1.9200328533e+000	 2.5097801601e+000	-1.0960093233e+000
 1.8923252678e+000	 2.5307365427e+000	-1.0975126080e+000
 1.8644111016e+000	 2.5513708972e+000	-1.0805466761e+000
 1.8362959375e+000	 2.5716802653e+000	-1.0453003346e+000
 2.1255335658e+000	 2.3742124071e+000	-9.7643514378e-001
 2.0992027255e+000	 2.3975247805e+000	-9.3737225476e-001
 2.0726259777e+000	 2.4205367859e+000	-9.1757490306e-001
 2.0458084713e+000	 2.4432445784e+000	-9.2101536037e-001
 2.0187554343e+000	 2.4656444305e+000	-9.5147097539e-001
 1.9914721702e+000	 2.4877327348e+000	-1.0098100534e+000
 1.9639640551e+000	 2.5095060052e+000	-1.0587403628e+000
 1.9362365338e+000	 2.5309608789e+000	-1.0855010024e+000
 1.9082951165e+000	 2.5520941181e+000	-1.0903100953e+000
 1.8801453750e+000	 2.5729026116e+000	-1.0734575078e+000
 1.8517929394e+000	 2.5933833760e+000	-1.0353298926e+000
 2.1433214065e+000	 2.3940813533e+000	-9.8265482405e-001
 2.1167702127e+000	 2.4175888197e+000	-9.4294045023e-001
 2.0899710534e+000	 2.4407934044e+000	-9.1818075886e-001
 2.0629291208e+000	 2.4636912304e+000	-9.1252319700e-001
 2.0356496864e+000	 2.4862785390e+000	-9.2990939498e-001
 2.0081380983e+000	 2.5085516926e+000	-9.7406368231e-001
 1.9803997775e+000	 2.5305071758e+000	-1.0340004048e+000
 1.9524402144e+000	 2.5521415977e+000	-1.0704275663e+000
 1.9242649652e+000	 2.5734516935e+000	-1.0811810557e+000
 1.8958796485e+000	 2.5944343260e+000	-1.0666479983e+000
 1.8672899413e+000	 2.6150864867e+000	-1.0273197778e+000
 2.1611092471e+000	 2.4139502994e+000	-9.8650732492e-001
 2.1343376998e+000	 2.4376528589e+000	-9.4781492676e-001
 2.1073161292e+000	 2.4610500230e+000	-9.2013754691e-001
 2.0800497702e+000	 2.4841378824e+000	-9.0768735296e-001
 2.0525439385e+000	 2.5069126475e+000	-9.1446195696e-001
 2.0248040264e+000	 2.5293706503e+000	-9.4423239694e-001
 1.9968354999e+000	 2.5515083463e+000	-1.0001538848e+000
 1.9686438949e+000	 2.5733223165e+000	-1.0491622358e+000
 1.9402348139e+000	 2.5948092690e+000	-1.0684881301e+000
 1.9116139219e+000	 2.6159660404e+000	-1.0585203505e+000
 1.8827869432e+000	 2.6367895974e+000	-1.0197636437e+000
 2.1788970878e+000	 2.4338192456e+000	-9.8803521578e-001
 2.1519051869e+000	 2.4577168980e+000	-9.5173585672e-001
 2.1246612049e+000	 2.4813066415e+000	-9.2292146104e-001
 2.0971704197e+000	 2.5045845345e+000	-9.0576082464e-001
 2.0694381906e+000	 2.5275467561e+000	-9.0420153592e-001
 2.0414699545e+000	 2.5501896080e+000	-9.2195757296e-001
 2.0132712223e+000	 2.5725095169e+000	-9.6249859047e-001
 1.9848475755e+000	 2.5945030353e+000	-1.0202666683e+000
 1.9562046626e+000	 2.6161668444e+000	-1.0507859085e+000
 1.9273481954e+000	 2.6374977548e+000	-1.0476703012e+000
 1.8982839451e+000	 2.6584927081e+000	-1.0113482513e+000
 2.1966849284e+000	 2.4536881917e+000	-9.8734329970e-001
 2.1694726741e+000	 2.4777809372e+000	-9.5451712152e-001
 2.1420062806e+000	 2.5015632601e+000	-9.2609276468e-001
 2.1142910692e+000	 2.5250311865e+000	-9.0608984889e-001
 2.0863324428e+000	 2.5481808646e+000	-8.9830215390e-001
 2.0581358826e+000	 2.5710085658e+000	-9.0628497923e-001
 2.0297069447e+000	 2.5935106874e+000	-9.3334428012e-001
 2.0010512561e+000	 2.6156837542e+000	-9.8252765146e-001
 1.9721745113e+000	 2.6375244199e+000	-1.0268153717e+000
 1.9430824688e+000	 2.6590294692e+000	-1.0328816925e+000
 1.9137809471e+000	 2.6801958187e+000	-1.0006539933e+000
 2.2144727691e+000	 2.4735571379e+000	-9.8459436476e-001
 2.1870401612e+000	 2.4978449764e+000	-9.5604158707e-001
 2.1593513563e+000	 2.5218198786e+000	-9.2929064453e-001
 2.1314117186e+000	 2.5454778386e+000	-9.0810839243e-001
 2.1032266949e+000	 2.5688149731e+000	-8.9603316624e-001
 2.0748018108e+000	 2.5918275235e+000	-8.9636204773e-001
 2.0461426671e+000	 2.6145118580e+000	-9.1213999308e-001
 2.0172549366e+000	 2.6368644730e+000	-9.4615089739e-001
 1.9881443600e+000	 2.6588819953e+000	-9.9549848300e-001
 1.9588167422e+000	 2.6805611835e+000	-1.0127828447e+000
 1.9292779490e+000	 2.7018989294e+000	-9.8613377163e-001
 2.2322606097e+000	 2.4934260840e+000	-9.8000498483e-001
 2.2046076483e+000	 2.5179090156e+000	-9.5625644964e-001
 2.1766964320e+000	 2.5420764971e+000	-9.3222815331e-001
 2.1485323681e+000	 2.5659244906e+000	-9.1133274636e-001
 2.1201209470e+000	 2.5894490816e+000	-8.9675356574e-001
 2.0914677389e+000	 2.6126464812e+000	-8.9143194842e-001
 2.0625783895e+000	 2.6355130285e+000	-8.9805649182e-001
 2.0334586172e+000	 2.6580451918e+000	-9.1905433855e-001
 2.0041142087e+000	 2.6802395708e+000	-9.5623362953e-001
 1.9745510157e+000	 2.7020928979e+000	-9.8579901343e-001
 1.9447749509e+000	 2.7236020401e+000	-9.6798150245e-001
 2.2500484504e+000	 2.5132950302e+000	-9.7384136709e-001
 2.2221751355e+000	 2.5379730548e+000	-9.5516864814e-001
 2.1940415077e+000	 2.5623331157e+000	-9.3468723650e-001
 2.1656530175e+000	 2.5863711426e+000	-9.1535621981e-001
 2.1370151992e+000	 2.6100831901e+000	-8.9990639872e-001
 2.1081336670e+000	 2.6334654390e+000	-8.9082778584e-001
 2.0790141119e+000	 2.6565141991e+000	-8.9035913603e-001
 2.0496622977e+000	 2.6792259106e+000	-9.0015626011e-001
 2.0200840574e+000	 2.7015971462e+000	-9.2098915374e-001
 1.9902852891e+000	 2.7236246123e+000	-9.5209447574e-001
 1.9602719528e+000	 2.7453051508e+000	-9.4656865570e-001
 2.2678362910e+000	 2.5331639763e+000	-9.6641524364e-001
 2.2397426226e+000	 2.5580370939e+000	-9.5284033941e-001
 2.2113865834e+000	 2.5825897342e+000	-9.3651383859e-001
 2.1827736670e+000	 2.6068177947e+000	-9.1984392746e-001
 2.1539094513e+000	 2.6307172986e+000	-9.0501328677e-001
 2.1247995951e+000	 2.6542843967e+000	-8.9396691080e-001
 2.0954498343e+000	 2.6775153696e+000	-8.8814519629e-001
 2.0658659783e+000	 2.7004066295e+000	-8.8777481859e-001
 2.0360539061e+000	 2.7229547217e+000	-8.9526760124e-001
 2.0060195626e+000	 2.7451563267e+000	-9.1339569042e-001
 1.9757689547e+000	 2.7670082615e+000	-9.2230404017e-001
 1.8207989356e+000	 2.5499771547e+000	-1.0589359294e+000
 1.7927273302e+000	 2.5697900756e+000	-1.0262979187e+000
 1.7644676483e+000	 2.5892752636e+000	-1.0030733965e+000
 1.7360255719e+000	 2.6084301654e+000	-9.8538496060e-001
 1.7074068260e+000	 2.6272523575e+000	-9.6968717323e-001
 1.6786171747e+000	 2.6457395471e+000	-9.5278680805e-001
 1.6496624172e+000	 2.6638895731e+000	-9.3186047513e-001
 1.6205483847e+000	 2.6817004063e+000	-9.0417649370e-001
 1.5912809365e+000	 2.6991701498e+000	-8.6767022295e-001
 1.5618659559e+000	 2.7162970396e+000	-8.2147025700e-001
 1.5323093471e+000	 2.7330794442e+000	-7.6496387956e-001
 1.8362959375e+000	 2.5716802653e+000	-1.0453003346e+000
 1.8079854119e+000	 2.5916618160e+000	-1.0073549080e+000
 1.7794852089e+000	 2.6113128445e+000	-9.7942013094e-001
 1.7508010592e+000	 2.6306307755e+000	-9.5770360420e-001
 1.7219387363e+000	 2.6496131651e+000	-9.3875471777e-001
 1.6929040534e+000	 2.6682577011e+000	-9.1948193673e-001
 1.6637028591e+000	 2.6865622037e+000	-8.9677956197e-001
 1.6343410342e+000	 2.7045246267e+000	-8.6878253386e-001
 1.6048244877e+000	 2.7221430570e+000	-8.3450607562e-001
 1.5751591533e+000	 2.7394157154e+000	-7.9322351210e-001
 1.5453509852e+000	 2.7563409568e+000	-7.4444666558e-001
 1.8517929394e+000	 2.5933833760e+000	-1.0353298926e+000
 1.8232434935e+000	 2.6135335564e+000	-9.9305702666e-001
 1.7945027696e+000	 2.6333504253e+000	-9.6083522718e-001
 1.7655765466e+000	 2.6528313856e+000	-9.3498724586e-001
 1.7364706467e+000	 2.6719739728e+000	-9.1214818353e-001
 1.7071909321e+000	 2.6907758550e+000	-8.8897430660e-001
 1.6777433009e+000	 2.7092348344e+000	-8.6370485889e-001
 1.6481336836e+000	 2.7273488472e+000	-8.3525159401e-001
 1.6183680390e+000	 2.7451159642e+000	-8.0279916326e-001
 1.5884523507e+000	 2.7625343913e+000	-7.6578409189e-001
 1.5583926234e+000	 2.7796024694e+000	-7.2387410789e-001
 1.8672899413e+000	 2.6150864867e+000	-1.0273197778e+000
 1.8385015752e+000	 2.6354052969e+000	-9.8181308883e-001
 1.8095203303e+000	 2.6553880061e+000	-9.4582834139e-001
 1.7803520339e+000	 2.6750319957e+000	-9.1573640677e-001
 1.7510025570e+000	 2.6943347804e+000	-8.8803210908e-001
 1.7214778108e+000	 2.7132940090e+000	-8.6098521581e-001
 1.6917837428e+000	 2.7319074651e+000	-8.3342630398e-001
 1.6619263330e+000	 2.7501730676e+000	-8.0447540534e-001
 1.6319115902e+000	 2.7680888714e+000	-7.7351946363e-001
 1.6017455481e+000	 2.7856530671e+000	-7.4019008691e-001
 1.5714342615e+000	 2.8028639820e+000	-7.0434172883e-001
 1.8827869432e+000	 2.6367895974e+000	-1.0197636437e+000
 1.8537596569e+000	 2.6572770373e+000	-9.7222869791e-001
 1.8245378910e+000	 2.6774255869e+000	-9.3294181986e-001
 1.7951275212e+000	 2.6972326058e+000	-8.9825682941e-001
 1.7655344673e+000	 2.7166955881e+000	-8.6643534255e-001
 1.7357646895e+000	 2.7358121630e+000	-8.3624686483e-001
 1.7058241847e+000	 2.7545800958e+000	-8.0676900637e-001
 1.6757189825e+000	 2.7729972881e+000	-7.7736333208e-001
 1.6454551415e+000	 2.7910617786e+000	-7.4765143268e-001
 1.6150387455e+000	 2.8087717430e+000	-7.1749136663e-001
 1.5844758997e+000	 2.8261254946e+000	-6.8695461271e-001
 1.8982839451e+000	 2.6584927081e+000	-1.0113482513e+000
 1.8690177385e+000	 2.6791487777e+000	-9.6286957669e-001
 1.8395554517e+000	 2.6994631677e+000	-9.2058427794e-001
 1.8099030085e+000	 2.7194332159e+000	-8.8272469066e-001
 1.7800663776e+000	 2.7390563958e+000	-8.4801653092e-001
 1.7500515682e+000	 2.7583303170e+000	-8.1551468944e-001
 1.7198646266e+000	 2.7772527264e+000	-7.8457740135e-001
 1.6895116319e+000	 2.7958215085e+000	-7.5484054335e-001
 1.6589986927e+000	 2.8140346857e+000	-7.2619222588e-001
 1.6283319429e+000	 2.8318904189e+000	-6.9874783743e-001
 1.5975175378e+000	 2.8493870072e+000	-6.7282568673e-001
 1.9137809471e+000	 2.6801958187e+000	-1.0006539933e+000
 1.8842758202e+000	 2.7010205182e+000	-9.5219390438e-001
 1.8545730124e+000	 2.7215007486e+000	-9.0898553235e-001
 1.8246784959e+000	 2.7416338260e+000	-8.6972462135e-001
 1.7945982879e+000	 2.7614172034e+000	-8.3345989947e-001
 1.7643384469e+000	 2.7808484710e+000	-7.9956551207e-001
 1.7339050684e+000	 2.7999253571e+000	-7.6771346847e-001
 1.7033042813e+000	 2.8186457290e+000	-7.3784628748e-001
 1.6725422440e+000	 2.8370075929e+000	-7.1015001733e-001
 1.6416251403e+000	 2.8550090947e+000	-6.8502779436e-001
 1.6105591760e+000	 2.8726485198e+000	-6.6307409256e-001
 1.9292779490e+000	 2.7018989294e+000	-9.8613377163e-001
 1.8995339019e+000	 2.7228922586e+000	-9.4043018929e-001
 1.8695905731e+000	 2.7435383294e+000	-8.9865697546e-001
 1.8394539832e+000	 2.7638344362e+000	-8.5986945170e-001
 1.8091301983e+000	 2.7837780111e+000	-8.2347343980e-001
 1.7786253257e+000	 2.8033666250e+000	-7.8919580021e-001
 1.7479455103e+000	 2.8225979878e+000	-7.5705505112e-001
 1.7170969308e+000	 2.8414699494e+000	-7.2733226283e-001
 1.6860857952e+000	 2.8599805001e+000	-7.0054241113e-001
 1.6549183377e+000	 2.8781277706e+000	-6.7740636159e-001
 1.6236008141e+000	 2.8959100323e+000	-6.5882364358e-001
 1.9447749509e+000	 2.7236020401e+000	-9.6798150245e-001
 1.9147919835e+000	 2.7447639990e+000	-9.2801845385e-001
 1.8846081337e+000	 2.7655759102e+000	-8.9014105714e-001
 1.8542294705e+000	 2.7860350463e+000	-8.5379843357e-001
 1.8236621086e+000	 2.8061388188e+000	-8.1878720476e-001
 1.7929122044e+000	 2.8258847789e+000	-7.8522002601e-001
 1.7619859522e+000	 2.8452706184e+000	-7.5349427210e-001
 1.7308895802e+000	 2.8642941699e+000	-7.2426107986e-001
 1.6996293465e+000	 2.8829534073e+000	-6.9839493980e-001
 1.6682115351e+000	 2.9012464465e+000	-6.7696401638e-001
 1.6366424523e+000	 2.9191715449e+000	-6.6120136296e-001
 1.9602719528e+000	 2.7453051508e+000	-9.4656865570e-001
 1.9300500652e+000	 2.7666357395e+000	-9.1543283585e-001
 1.8996256944e+000	 2.7876134910e+000	-8.8400954025e-001
 1.8690049578e+000	 2.8082356564e+000	-8.5217556954e-001
 1.8381940189e+000	 2.8284996264e+000	-8.2015170429e-001
 1.8071990831e+000	 2.8484029329e+000	-7.8846912136e-001
 1.7760263941e+000	 2.8679432491e+000	-7.5793603970e-001
 1.7446822296e+000	 2.8871183903e+000	-7.2960480935e-001
 1.7131728977e+000	 2.9059263145e+000	-7.0473964505e-001
 1.6815047326e+000	 2.9243651223e+000	-6.8478519215e-001
 1.6496840905e+000	 2.9424330575e+000	-6.7133609812e-001
 1.9757689547e+000	 2.7670082615e+000	-9.2230404017e-001
 1.9453081468e+000	 2.7885074799e+000	-9.0317987728e-001
 1.9146432551e+000	 2.8096510718e+000	-8.8086186293e-001
 1.8837804452e+000	 2.8304362665e+000	-8.5568804300e-001
 1.8527259292e+000	 2.8508604341e+000	-8.2833639670e-001
 1.8214859618e+000	 2.8709210869e+000	-7.9978902326e-001
 1.7900668359e+000	 2.8906158798e+000	-7.7129663942e-001
 1.7584748791e+000	 2.9099426108e+000	-7.4434361201e-001
 1.7267164490e+000	 2.9288992217e+000	-7.2061373631e-001
 1.6947979300e+000	 2.9474837982e+000	-7.0195695622e-001
 1.6627257286e+000	 2.9656945701e+000	-6.9035720733e-001
 1.5323093471e+000	 2.7330794442e+000	-7.6496387956e-001
 1.5026214949e+000	 2.7495134265e+000	-7.0564393642e-001
 1.4728039098e+000	 2.7656001662e+000	-6.5622583816e-001
 1.4428625346e+000	 2.7813384333e+000	-6.2397566740e-001
 1.4128033184e+000	 2.7967271297e+000	-6.1593272488e-001
 1.3826322125e+000	 2.8117652893e+000	-6.3888627874e-001
 1.3523551673e+000	 2.8264520771e+000	-6.9935384870e-001
 1.3219781284e+000	 2.8407867890e+000	-7.9549397744e-001
 1.2915070333e+000	 2.8547688504e+000	-8.4738114013e-001
 1.2609478081e+000	 2.8683978159e+000	-8.3637252874e-001
 1.2303063637e+000	 2.8816733683e+000	-7.6640336611e-001
 1.5453509852e+000	 2.7563409568e+000	-7.4444666558e-001
 1.5154104568e+000	 2.7729148103e+000	-6.9279150762e-001
 1.4853390912e+000	 2.7891384659e+000	-6.4778140475e-001
 1.4551428820e+000	 2.8050106830e+000	-6.1633668380e-001
 1.4248278287e+000	 2.8205303541e+000	-6.0516643566e-001
 1.3943999336e+000	 2.8356965050e+000	-6.2074501990e-001
 1.3638651974e+000	 2.8505082935e+000	-6.6929014093e-001
 1.3332296165e+000	 2.8649650095e+000	-7.5674223923e-001
 1.3024991789e+000	 2.8790660737e+000	-8.2945956985e-001
 1.2716798610e+000	 2.8928110367e+000	-8.3324268890e-001
 1.2407776243e+000	 2.9061995786e+000	-7.7198891093e-001
 1.5583926234e+000	 2.7796024694e+000	-7.2387410789e-001
 1.5281994187e+000	 2.7963161942e+000	-6.7903257670e-001
 1.4978742726e+000	 2.8126767656e+000	-6.3779285770e-001
 1.4674232293e+000	 2.8286829326e+000	-6.0672753818e-001
 1.4368523391e+000	 2.8443335785e+000	-5.9221403978e-001
 1.4061676547e+000	 2.8596277206e+000	-6.0041086335e-001
 1.3753752276e+000	 2.8745645099e+000	-6.3723544426e-001
 1.3444811046e+000	 2.8891432301e+000	-7.0834367158e-001
 1.3134913245e+000	 2.9033632970e+000	-7.9483479300e-001
 1.2824119140e+000	 2.9172242575e+000	-8.1443568741e-001
 1.2512488848e+000	 2.9307257889e+000	-7.6328017761e-001
 1.5714342615e+000	 2.8028639820e+000	-7.0434172883e-001
 1.5409883806e+000	 2.8197175780e+000	-6.6552109138e-001
 1.5104094540e+000	 2.8362150654e+000	-6.2748573968e-001
 1.4797035767e+000	 2.8523551823e+000	-5.9645869144e-001
 1.4488768495e+000	 2.8681368029e+000	-5.7848436038e-001
 1.4179353758e+000	 2.8835589363e+000	-5.7940452615e-001
 1.3868852577e+000	 2.8986207263e+000	-6.0483595549e-001
 1.3557325927e+000	 2.9133214507e+000	-6.6014972925e-001
 1.3244834701e+000	 2.9276605203e+000	-7.4570040928e-001
 1.2931439669e+000	 2.9416374783e+000	-7.8207738683e-001
 1.2617201454e+000	 2.9552519993e+000	-7.4234348207e-001
 1.5844758997e+000	 2.8261254946e+000	-6.8695461271e-001
 1.5537773424e+000	 2.8431189619e+000	-6.5341844969e-001
 1.5229446355e+000	 2.8597533651e+000	-6.1809064256e-001
 1.4919839241e+000	 2.8760274320e+000	-5.8684296274e-001
 1.4609013599e+000	 2.8919400273e+000	-5.6538559763e-001
 1.4297030969e+000	 2.9074901520e+000	-5.5924282981e-001
 1.3983952878e+000	 2.9226769427e+000	-5.7373041096e-001
 1.3669840809e+000	 2.9374996712e+000	-6.1393468569e-001
 1.3354756156e+000	 2.9519577435e+000	-6.8469350639e-001
 1.3038760199e+000	 2.9660506991e+000	-7.3845876763e-001
 1.2721914059e+000	 2.9797782096e+000	-7.1141657555e-001
 1.5975175378e+000	 2.8493870072e+000	-6.7282568673e-001
 1.5665663043e+000	 2.8665203457e+000	-6.4389180586e-001
 1.5354798169e+000	 2.8832916648e+000	-6.1084155647e-001
 1.5042642715e+000	 2.8996996817e+000	-5.7919394026e-001
 1.4729258703e+000	 2.9157432517e+000	-5.5432381962e-001
 1.4414708180e+000	 2.9314213677e+000	-5.4143729024e-001
 1.4099053180e+000	 2.9467331591e+000	-5.4554879428e-001
 1.3782355690e+000	 2.9616778918e+000	-5.7146003018e-001
 1.3464677612e+000	 2.9762549668e+000	-6.2374070042e-001
 1.3146080728e+000	 2.9904639199e+000	-6.8601782533e-001
 1.2826626665e+000	 3.0043044200e+000	-6.7289150402e-001
 1.6105591760e+000	 2.8726485198e+000	-6.6307409256e-001
 1.5793552662e+000	 2.8899217296e+000	-6.3811246366e-001
 1.5480149983e+000	 2.9068299645e+000	-6.0697430243e-001
 1.5165446189e+000	 2.9233719313e+000	-5.7482447069e-001
 1.4849503807e+000	 2.9395464761e+000	-5.4670152669e-001
 1.4532385390e+000	 2.9553525834e+000	-5.2749277476e-001
 1.4214153481e+000	 2.9707893755e+000	-5.2191110414e-001
 1.3894870571e+000	 2.9858561124e+000	-5.3447367389e-001
 1.3574599068e+000	 3.0005521901e+000	-5.6948248539e-001
 1.3253401258e+000	 3.0148771406e+000	-6.2732150126e-001
 1.2931339270e+000	 3.0288306303e+000	-6.2929749072e-001
 1.6236008141e+000	 2.8959100323e+000	-6.5882364358e-001
 1.5921442281e+000	 2.9133231134e+000	-6.3725435244e-001
 1.5605501797e+000	 2.9303682642e+000	-6.0772504392e-001
 1.5288249663e+000	 2.9470441810e+000	-5.7504522333e-001
 1.4969748911e+000	 2.9633497005e+000	-5.4391628503e-001
 1.4650062601e+000	 2.9792837991e+000	-5.1890622238e-001
 1.4329253782e+000	 2.9948455920e+000	-5.0442617851e-001
 1.4007385452e+000	 3.0100343330e+000	-5.0470889540e-001
 1.3684520523e+000	 3.0248494134e+000	-5.2378910319e-001
 1.3360721787e+000	 3.0392903614e+000	-5.6548587565e-001
 1.3036051876e+000	 3.0533568406e+000	-5.8328384051e-001
 1.6366424523e+000	 2.9191715449e+000	-6.6120136296e-001
 1.6049331899e+000	 2.9367244973e+000	-6.4249258125e-001
 1.5730853612e+000	 2.9539065639e+000	-6.1432887306e-001
 1.5411053137e+000	 2.9707164307e+000	-5.8116332451e-001
 1.5089994015e+000	 2.9871529249e+000	-5.4735942565e-001
 1.4767739812e+000	 3.0032150148e+000	-5.1716542381e-001
 1.4444354083e+000	 3.0189018084e+000	-4.9469057225e-001
 1.4119900333e+000	 3.0342125535e+000	-4.8388333257e-001
 1.3794441979e+000	 3.0491466367e+000	-4.8851157292e-001
 1.3468042317e+000	 3.0637035822e+000	-5.1214478743e-001
 1.3140764481e+000	 3.0778830510e+000	-5.3760286488e-001
 1.6496840905e+000	 2.9424330575e+000	-6.7133609812e-001
 1.6177221518e+000	 2.9601258812e+000	-6.5500206661e-001
 1.5856205426e+000	 2.9774448636e+000	-6.2801846715e-001
 1.5533856610e+000	 2.9943886803e+000	-5.9448105835e-001
 1.5210239119e+000	 3.0109561493e+000	-5.5841480514e-001
 1.4885417023e+000	 3.0271462304e+000	-5.2374785796e-001
 1.4559454385e+000	 3.0429580248e+000	-4.9428748518e-001
 1.4232415214e+000	 3.0583907741e+000	-4.7369801807e-001
 1.3904363435e+000	 3.0734438600e+000	-4.6548085003e-001
 1.3575362846e+000	 3.0881168030e+000	-4.7295651550e-001
 1.3245477087e+000	 3.1024092613e+000	-4.9509282627e-001
 1.6627257286e+000	 2.9656945701e+000	-6.9035720733e-001
 1.6305111137e+000	 2.9835272650e+000	-6.7595623007e-001
 1.5981557240e+000	 3.0009831633e+000	-6.5002281177e-001
 1.5656660084e+000	 3.0180609300e+000	-6.1629463046e-001
 1.5330484222e+000	 3.0347593738e+000	-5.7845762483e-001
 1.5003094234e+000	 3.0510774461e+000	-5.4011958168e-001
 1.4674554686e+000	 3.0670142412e+000	-5.0478573778e-001
 1.4344930095e+000	 3.0825689947e+000	-4.7583645625e-001
 1.4014284891e+000	 3.0977410833e+000	-4.5650701958e-001
 1.3682683376e+000	 3.1125300238e+000	-4.4986956362e-001
 1.3350189692e+000	 3.1269354717e+000	-4.5881716011e-001
 1.2303063637e+000	 2.8816733683e+000	-7.6640336611e-001
 1.1995839799e+000	 2.8945972292e+000	-6.6878090321e-001
 1.1687911224e+000	 2.9071673179e+000	-5.7364286258e-001
 1.1379336420e+000	 2.9193836965e+000	-4.8285024654e-001
 1.1070173614e+000	 2.9312465504e+000	-3.9814628342e-001
 1.0760480726e+000	 2.9427561866e+000	-3.2114301983e-001
 1.0450315331e+000	 2.9539130326e+000	-2.5330817052e-001
 1.0139734639e+000	 2.9647176344e+000	-1.9595217741e-001
 9.8287954570e-001	 2.9751706548e+000	-1.5024454421e-001
 9.5175541694e-001	 2.9852728719e+000	-1.1709631345e-001
 9.2060667051e-001	 2.9950251768e+000	-9.7290948199e-002
 1.2407776243e+000	 2.9061995786e+000	-7.7198891093e-001
 1.2097937591e+000	 2.9192334358e+000	-6.7884023927e-001
 1.1787388205e+000	 2.9319105098e+000	-5.8612290644e-001
 1.1476187090e+000	 2.9442308632e+000	-4.9618943022e-001
 1.1164392970e+000	 2.9561946830e+000	-4.1125762176e-001
 1.0852064254e+000	 2.9678022789e+000	-3.3339694459e-001
 1.0539259011e+000	 2.9790540820e+000	-2.6451504774e-001
 1.0226034935e+000	 2.9899506428e+000	-2.0634441916e-001
 9.9124493185e-001	 3.0004926299e+000	-1.6045512338e-001
 9.5985590252e-001	 3.0106808279e+000	-1.2814823513e-001
 9.2844204599e-001	 3.0205161357e+000	-1.1056984243e-001
 1.2512488848e+000	 2.9307257889e+000	-7.6328017761e-001
 1.2200035384e+000	 2.9438696424e+000	-6.7611693060e-001
 1.1886865187e+000	 2.9566537017e+000	-5.8722972196e-001
 1.1573037761e+000	 2.9690780299e+000	-4.9947012534e-001
 1.1258612325e+000	 2.9811428157e+000	-4.1553745810e-001
 1.0943647782e+000	 2.9928483712e+000	-3.3796500343e-001
 1.0628202690e+000	 3.0041951313e+000	-2.6910631327e-001
 1.0312335231e+000	 3.0151836512e+000	-2.1112153270e-001
 9.9961031800e-001	 3.0258146050e+000	-1.6598685398e-001
 9.6795638809e-001	 3.0360887840e+000	-1.3539800629e-001
 9.3627742146e-001	 3.0460070947e+000	-1.2086880685e-001
 1.2617201454e+000	 2.9552519993e+000	-7.4234348207e-001
 1.2302133177e+000	 2.9685058490e+000	-6.6260746302e-001
 1.1986342169e+000	 2.9813968936e+000	-5.7886141964e-001
 1.1669888432e+000	 2.9939251966e+000	-4.9446307787e-001
 1.1352831680e+000	 3.0060909483e+000	-4.1259983338e-001
 1.1035231310e+000	 3.0178944636e+000	-3.3627493809e-001
 1.0717146369e+000	 3.0293361807e+000	-2.6829366420e-001
 1.0398635527e+000	 3.0404166596e+000	-2.1124937987e-001
 1.0079757041e+000	 3.0511365801e+000	-1.6753002688e-001
 9.7605687366e-001	 3.0614967401e+000	-1.3923080828e-001
 9.4411279694e-001	 3.0714980536e+000	-1.2823865467e-001
 1.2721914059e+000	 2.9797782096e+000	-7.1141657555e-001
 1.2404230969e+000	 2.9931420557e+000	-6.4048589281e-001
 1.2085819151e+000	 3.0061400855e+000	-5.6310014474e-001
 1.1766739103e+000	 3.0187723634e+000	-4.8312979241e-001
 1.1447051035e+000	 3.0310390810e+000	-4.0425646307e-001
 1.1126814838e+000	 3.0429405559e+000	-3.2995920798e-001
 1.0806090049e+000	 3.0544772300e+000	-2.6350062340e-001
 1.0484935822e+000	 3.0656496680e+000	-2.0791276220e-001
 1.0163410903e+000	 3.0764585552e+000	-1.6598278835e-001
 9.8415735924e-001	 3.0869046962e+000	-1.4026478452e-001
 9.5194817241e-001	 3.0969890125e+000	-1.3296996803e-001
 1.2826626665e+000	 3.0043044200e+000	-6.7289150402e-001
 1.2506328762e+000	 3.0177782623e+000	-6.1208765785e-001
 1.2185296133e+000	 3.0308832774e+000	-5.4219680431e-001
 1.1863589773e+000	 3.0436195301e+000	-4.6760813805e-001
 1.1541270390e+000	 3.0559872136e+000	-3.9250318391e-001
 1.1218398366e+000	 3.0679866482e+000	-3.2084223863e-001
 1.0895033728e+000	 3.0796182794e+000	-2.5635054976e-001
 1.0571236118e+000	 3.0908826764e+000	-2.0250415202e-001
 1.0247064764e+000	 3.1017805303e+000	-1.6251530821e-001
 9.9225784481e-001	 3.1123126523e+000	-1.3934108788e-001
 9.5978354789e-001	 3.1224799714e+000	-1.3558373937e-001
 1.2931339270e+000	 3.0288306303e+000	-6.2929749072e-001
 1.2608426555e+000	 3.0424144689e+000	-5.7989340166e-001
 1.2284773114e+000	 3.0556264693e+000	-5.1855579855e-001
 1.1960440444e+000	 3.0684666968e+000	-4.5019795149e-001
 1.1635489746e+000	 3.0809353463e+000	-3.7950639213e-001
 1.1309981894e+000	 3.0930327405e+000	-3.1092765748e-001
 1.0983977407e+000	 3.1047593287e+000	-2.4865463292e-001
 1.0657536414e+000	 3.1161156848e+000	-1.9661240666e-001
 1.0330718626e+000	 3.1271025054e+000	-1.5844357722e-001
 1.0003583304e+000	 3.1377206083e+000	-1.3751391248e-001
 9.6761892336e-001	 3.1479709303e+000	-1.3682199968e-001
 1.3036051876e+000	 3.0533568406e+000	-5.8328384051e-001
 1.2710524347e+000	 3.0670506755e+000	-5.4651280991e-001
 1.2384250096e+000	 3.0803696612e+000	-4.9471975629e-001
 1.2057291115e+000	 3.0933138635e+000	-4.3334663758e-001
 1.1729709101e+000	 3.1058834789e+000	-3.6758947384e-001
 1.1401565422e+000	 3.1180788328e+000	-3.0238551779e-001
 1.1072921087e+000	 3.1299003781e+000	-2.4239987342e-001
 1.0743836710e+000	 3.1413486932e+000	-1.9201146667e-001
 1.0414372487e+000	 3.1524244805e+000	-1.5529830361e-001
 1.0084588160e+000	 3.1631285644e+000	-1.3604051061e-001
 9.7545429884e-001	 3.1734618893e+000	-1.3763843457e-001
 1.3140764481e+000	 3.0778830510e+000	-5.3760286488e-001
 1.2812622140e+000	 3.0916868821e+000	-5.1466845835e-001
 1.2483727078e+000	 3.1051128531e+000	-4.7335427455e-001
 1.2154141786e+000	 3.1181610302e+000	-4.1963476751e-001
 1.1823928456e+000	 3.1308316116e+000	-3.5921922793e-001
 1.1493148950e+000	 3.1431249251e+000	-2.9753951123e-001
 1.1161864766e+000	 3.1550414274e+000	-2.3973704901e-001
 1.0830137006e+000	 3.1665817016e+000	-1.9064903900e-001
 1.0498026349e+000	 3.1777464556e+000	-1.5479374212e-001
 1.0165593015e+000	 3.1885365205e+000	-1.3635484958e-001
 9.8328967431e-001	 3.1989528482e+000	-1.3918898866e-001
 1.3245477087e+000	 3.1024092613e+000	-4.9509282627e-001
 1.2914719933e+000	 3.1163230887e+000	-4.8717967186e-001
 1.2583204060e+000	 3.1298560450e+000	-4.5723266172e-001
 1.2250992456e+000	 3.1430081969e+000	-4.1176167466e-001
 1.1918147811e+000	 3.1557797442e+000	-3.5699228183e-001
 1.1584732478e+000	 3.1681710175e+000	-2.9885416981e-001
 1.1250808445e+000	 3.1801824768e+000	-2.4296866803e-001
 1.0916437302e+000	 3.1918147100e+000	-1.9463526600e-001
 1.0581680210e+000	 3.2030684307e+000	-1.5881704203e-001
 1.0246597871e+000	 3.2139444766e+000	-1.4012496194e-001
 9.9112504979e-001	 3.2244438071e+000	-1.4282245905e-001
 1.3350189692e+000	 3.1269354717e+000	-4.5881716011e-001
 1.3016817725e+000	 3.1409592953e+000	-4.6694639376e-001
 1.2682681041e+000	 3.1545992369e+000	-4.4922068428e-001
 1.2347843127e+000	 3.1678553637e+000	-4.1253104829e-001
 1.2012367166e+000	 3.1807278769e+000	-3.6362150069e-001
 1.1676316006e+000	 3.1932171098e+000	-3.0892205787e-001
 1.1339752124e+000	 3.2053235261e+000	-2.5453691038e-001
 1.1002737598e+000	 3.2170477184e+000	-2.0623138086e-001
 1.0665334072e+000	 3.2283904058e+000	-1.6941758163e-001
 1.0327602727e+000	 3.2393524327e+000	-1.4913872552e-001
 9.9896042527e-001	 3.2499347660e+000	-1.5007107842e-001
 9.2060667051e-001	 2.9950251768e+000	-9.7290948199e-002
 8.8943885089e-001	 3.0044285715e+000	-8.4051834450e-002
 8.5825745028e-001	 3.0134841643e+000	-7.1892204778e-002
 8.2706790750e-001	 3.0221931699e+000	-6.3060885652e-002
 7.9587560609e-001	 3.0305569083e+000	-5.9402845439e-002
 7.6468587201e-001	 3.0385768026e+000	-6.2347499063e-002
 7.3350397137e-001	 3.0462543768e+000	-7.2897820410e-002
 7.0233510834e-001	 3.0535912533e+000	-9.1620355187e-002
 6.7118442308e-001	 3.0605891508e+000	-1.1863623461e-001
 6.4005698981e-001	 3.0672498820e+000	-1.2323965628e-001
 6.0895781491e-001	 3.0735753511e+000	-4.9529511071e-002
 9.2844204599e-001	 3.0205161357e+000	-1.1056984243e-001
 8.9700895394e-001	 3.0299995637e+000	-9.9850016733e-002
 8.6556216530e-001	 3.0391322295e+000	-8.9103251793e-002
 8.3410716520e-001	 3.0479153583e+000	-8.0458703155e-002
 8.0264938300e-001	 3.0563502813e+000	-7.5626151199e-002
 7.7119418997e-001	 3.0644384338e+000	-7.5883713074e-002
 7.3974689706e-001	 3.0721813526e+000	-8.2066271765e-002
 7.0831275271e-001	 3.0795806740e+000	-9.4554723529e-002
 6.7689694086e-001	 3.0866381313e+000	-1.1326615358e-001
 6.4550457888e-001	 3.0933555526e+000	-1.1820651065e-001
 6.1414071579e-001	 3.0997348584e+000	-4.4238057992e-002
 9.3627742146e-001	 3.0460070947e+000	-1.2086880685e-001
 9.0457905698e-001	 3.0555705559e+000	-1.1347626379e-001
 8.7286688032e-001	 3.0647802947e+000	-1.0498043596e-001
 8.4114642290e-001	 3.0736375467e+000	-9.7403368272e-002
 8.0942315991e-001	 3.0821436544e+000	-9.2334454406e-002
 7.7770250793e-001	 3.0903000650e+000	-9.0917490744e-002
 7.4598982274e-001	 3.0981083284e+000	-9.3838344048e-002
 7.1429039708e-001	 3.1055700946e+000	-1.0131334329e-001
 6.8260945863e-001	 3.1126871118e+000	-1.1307851575e-001
 6.5095216796e-001	 3.1194612233e+000	-1.1755378602e-001
 6.1932361667e-001	 3.1258943657e+000	-4.5711324703e-002
 9.4411279694e-001	 3.0714980536e+000	-1.2823865467e-001
 9.1214916002e-001	 3.0811415480e+000	-1.2464176658e-001
 8.8017159535e-001	 3.0904283599e+000	-1.1891401450e-001
 8.4818568061e-001	 3.0993597352e+000	-1.1298323491e-001
 8.1619693681e-001	 3.1079370274e+000	-1.0833365545e-001
 7.8421082589e-001	 3.1161616961e+000	-1.0599222515e-001
 7.5223274842e-001	 3.1240353041e+000	-1.0651544166e-001
 7.2026804145e-001	 3.1315595153e+000	-1.0997679564e-001
 6.8832197640e-001	 3.1387360922e+000	-1.1595496358e-001
 6.5639975703e-001	 3.1455668939e+000	-1.1886123318e-001
 6.2450651756e-001	 3.1520538730e+000	-5.1287355926e-002
 9.5194817241e-001	 3.0969890125e+000	-1.3296996803e-001
 9.1971926307e-001	 3.1067125402e+000	-1.3330331606e-001
 8.8747631037e-001	 3.1160764251e+000	-1.3054388630e-001
 8.5522493831e-001	 3.1250819236e+000	-1.2653852191e-001
 8.2297071372e-001	 3.1337304005e+000	-1.2268190061e-001
 7.9071914385e-001	 3.1420233273e+000	-1.1990207491e-001
 7.5847567410e-001	 3.1499622799e+000	-1.1864637878e-001
 7.2624568582e-001	 3.1575489359e+000	-1.1886783141e-001
 6.9403449417e-001	 3.1647850727e+000	-1.2001218064e-001
 6.6184734610e-001	 3.1716725645e+000	-1.1996714466e-001
 6.2968941844e-001	 3.1782133803e+000	-5.8548288557e-002
 9.5978354789e-001	 3.1224799714e+000	-1.3558373937e-001
 9.2728936611e-001	 3.1322835323e+000	-1.3965452659e-001
 8.9478102539e-001	 3.1417244903e+000	-1.3975141661e-001
 8.6226419602e-001	 3.1508041120e+000	-1.3765375765e-001
 8.2974449062e-001	 3.1595237735e+000	-1.3468266416e-001
 7.9722746181e-001	 3.1678849585e+000	-1.3168570071e-001
 7.6471859979e-001	 3.1758892557e+000	-1.2902178689e-001
 7.3222333019e-001	 3.1835383566e+000	-1.2654646534e-001
 6.9974701194e-001	 3.1908340532e+000	-1.2359768780e-001
 6.6729493517e-001	 3.1977782351e+000	-1.1898228570e-001
 6.3487231932e-001	 3.2043728877e+000	-6.5319196067e-002
 9.6761892336e-001	 3.1479709303e+000	-1.3682199968e-001
 9.3485946916e-001	 3.1578545245e+000	-1.4411704876e-001
 9.0208574042e-001	 3.1673725556e+000	-1.4665125191e-001
 8.6930345372e-001	 3.1765263004e+000	-1.4615021336e-001
 8.3651826753e-001	 3.1853171466e+000	-1.4387781628e-001
 8.0373577976e-001	 3.1937465896e+000	-1.4061998317e-001
 7.7096152547e-001	 3.2018162314e+000	-1.3666849700e-001
 7.3820097456e-001	 3.2095277773e+000	-1.3180503669e-001
 7.0545952971e-001	 3.2168830336e+000	-1.2528559555e-001
 6.7274252424e-001	 3.2238839057e+000	-1.1582546317e-001
 6.4005522020e-001	 3.2305323950e+000	-6.9666863573e-002
 9.7545429884e-001	 3.1734618893e+000	-1.3763843457e-001
 9.4242957220e-001	 3.1834255166e+000	-1.4733177223e-001
 9.0939045544e-001	 3.1930206208e+000	-1.5158312520e-001
 8.7634271142e-001	 3.2022484889e+000	-1.5207832611e-001
 8.4329204444e-001	 3.2111105196e+000	-1.5004067779e-001
 8.1024409772e-001	 3.2196082208e+000	-1.4621372288e-001
 7.7720445115e-001	 3.2277432072e+000	-1.4084389791e-001
 7.4417861893e-001	 3.2355171979e+000	-1.3366323805e-001
 7.1117204748e-001	 3.2429320141e+000	-1.2387231509e-001
 6.7819011332e-001	 3.2499895763e+000	-1.1012360469e-001
 6.4523812109e-001	 3.2566919023e+000	-6.9898497481e-002
 9.8328967431e-001	 3.1989528482e+000	-1.3918898866e-001
 9.4999967524e-001	 3.2089965088e+000	-1.5015001907e-001
 9.1669517046e-001	 3.2186686860e+000	-1.5510365255e-001
 8.8338196913e-001	 3.2279706773e+000	-1.5571011180e-001
 8.5006582134e-001	 3.2369038926e+000	-1.5316906232e-001
 8.1675241568e-001	 3.2454698520e+000	-1.4820132361e-001
 7.8344737683e-001	 3.2536701830e+000	-1.4103027191e-001
 7.5015626330e-001	 3.2615066186e+000	-1.3136311411e-001
 7.1688456525e-001	 3.2689809945e+000	-1.1837223034e-001
 6.8363770239e-001	 3.2760952470e+000	-1.0067679756e-001
 6.5042102197e-001	 3.2828514096e+000	-6.4560373353e-002
 9.9112504979e-001	 3.2244438071e+000	-1.4282245905e-001
 9.5756977829e-001	 3.2345675009e+000	-1.5362472822e-001
 9.2399988549e-001	 3.2443167512e+000	-1.5797812117e-001
 8.9042122683e-001	 3.2536928657e+000	-1.5753156875e-001
 8.5683959825e-001	 3.2626972657e+000	-1.5347830662e-001
 8.2326073364e-001	 3.2713314832e+000	-1.4653645987e-001
 7.8969030251e-001	 3.2795971588e+000	-1.3692910918e-001
 7.5613390767e-001	 3.2874960392e+000	-1.2436403215e-001
 7.2259708303e-001	 3.2950299750e+000	-1.0801333311e-001
 6.8908529146e-001	 3.3022009176e+000	-8.6493190977e-002
 6.5560392285e-001	 3.3090109169e+000	-5.2436425418e-002
 9.9896042527e-001	 3.2499347660e+000	-1.5007107842e-001
 9.6513988133e-001	 3.2601384931e+000	-1.5900163150e-001
 9.3130460051e-001	 3.2699648164e+000	-1.6117226957e-001
 8.9746048454e-001	 3.2794150542e+000	-1.5823507257e-001
 8.6361337515e-001	 3.2884906387e+000	-1.5139428971e-001
 8.2976905160e-001	 3.2971931143e+000	-1.4138572933e-001
 7.9593322820e-001	 3.3055241345e+000	-1.2845540196e-001
 7.6211155205e-001	 3.3134854599e+000	-1.1233762571e-001
 7.2830960080e-001	 3.3210789555e+000	-9.2232823411e-002
 6.9453288053e-001	 3.3283065882e+000	-6.6785259663e-002
 6.6078682374e-001	 3.3351704242e+000	-3.2540125002e-002
 6.0895781491e-001	 3.0735753511e+000	-4.9529511071e-002
 5.7789649090e-001	 3.0795666778e+000	 5.1978428212e-002
 5.4687320832e-001	 3.0852269172e+000	 1.2779432805e-001
 5.1589275069e-001	 3.0905582350e+000	 1.8167914884e-001
 4.8495982735e-001	 3.0955628784e+000	 2.1746113808e-001
 4.5407907204e-001	 3.1002431736e+000	 2.3905357427e-001
 4.2325504155e-001	 3.1046015236e+000	 2.5047597379e-001
 3.9249221452e-001	 3.1086404051e+000	 2.5587747124e-001
 3.6179499023e-001	 3.1123623662e+000	 2.5956114165e-001
 3.3116768761e-001	 3.1157700239e+000	 2.6600809916e-001
 3.0061454421e-001	 3.1188660616e+000	 2.7990027936e-001
 6.1414071579e-001	 3.0997348584e+000	-4.4238057992e-002
 5.8281502575e-001	 3.1057771779e+000	 5.9779550051e-002
 5.5152770090e-001	 3.1114855922e+000	 1.3837135355e-001
 5.2028356550e-001	 3.1168622853e+000	 1.9538776372e-001
 4.8908736896e-001	 3.1219095237e+000	 2.3477163281e-001
 4.5794378445e-001	 3.1266296535e+000	 2.6058456230e-001
 4.2685740756e-001	 3.1310250978e+000	 2.7703664745e-001
 3.9583275502e-001	 3.1350983546e+000	 2.8851828085e-001
 3.6487426358e-001	 3.1388519936e+000	 2.9963270027e-001
 3.3398628893e-001	 3.1422886543e+000	 3.1522803658e-001
 3.0317310467e-001	 3.1454110426e+000	 3.4042769554e-001
 6.1932361667e-001	 3.1258943657e+000	-4.5711324703e-002
 5.8773356059e-001	 3.1319876780e+000	 5.8298180674e-002
 5.5618219349e-001	 3.1377442671e+000	 1.3725510837e-001
 5.2467438031e-001	 3.1431663357e+000	 1.9506700029e-001
 4.9321491056e-001	 3.1482561691e+000	 2.3575631300e-001
 4.6180849686e-001	 3.1530161333e+000	 2.6349596491e-001
 4.3045977356e-001	 3.1574486720e+000	 2.8264829279e-001
 3.9917329552e-001	 3.1615563041e+000	 2.9780594788e-001
 3.6795353694e-001	 3.1653416211e+000	 3.1383332927e-001
 3.3680489025e-001	 3.1688072847e+000	 3.3590722739e-001
 3.0573166513e-001	 3.1719560237e+000	 3.6955543444e-001
 6.2450651756e-001	 3.1520538730e+000	-5.1287355926e-002
 5.9265209544e-001	 3.1581981781e+000	 5.0423690467e-002
 5.6083668607e-001	 3.1640029421e+000	 1.2754819927e-001
 5.2906519512e-001	 3.1694703860e+000	 1.8401093639e-001
 4.9734245217e-001	 3.1746028144e+000	 2.2387127065e-001
 4.6567320926e-001	 3.1794026131e+000	 2.5136866887e-001
 4.3406213955e-001	 3.1838722461e+000	 2.7097157249e-001
 4.0251383602e-001	 3.1880142536e+000	 2.8742808911e-001
 3.7103281029e-001	 3.1918312486e+000	 3.0581700410e-001
 3.3962349156e-001	 3.1953259151e+000	 3.3159769859e-001
 3.0829022558e-001	 3.1985010048e+000	 3.7065764890e-001
 6.2968941844e-001	 3.1782133803e+000	-5.8548288557e-002
 5.9757063029e-001	 3.1844086782e+000	 3.8818240122e-002
 5.6549117866e-001	 3.1902616171e+000	 1.1214498087e-001
 5.3345600993e-001	 3.1957744364e+000	 1.6532631081e-001
 5.0146999377e-001	 3.2009494598e+000	 2.0240800135e-001
 4.6953792167e-001	 3.2057890929e+000	 2.2764340490e-001
 4.3766450555e-001	 3.2102958203e+000	 2.4555299454e-001
 4.0585437652e-001	 3.2144722031e+000	 2.6098558804e-001
 3.7411208365e-001	 3.2183208761e+000	 2.7917966444e-001
 3.4244209288e-001	 3.2218445455e+000	 3.0582326822e-001
 3.1084878604e-001	 3.2250459859e+000	 3.4711109053e-001
 6.3487231932e-001	 3.2043728877e+000	-6.5319196067e-002
 6.0248916513e-001	 3.2106191783e+000	 2.5917231438e-002
 5.7014567124e-001	 3.2165202920e+000	 9.3731323823e-002
 5.3784682474e-001	 3.2220784867e+000	 1.4193162688e-001
 5.0559753538e-001	 3.2272961052e+000	 1.7449185701e-001
 4.7340263408e-001	 3.2321755727e+000	 1.9561855908e-001
 4.4126687155e-001	 3.2367193945e+000	 2.0982208759e-001
 4.0919491702e-001	 3.2409301526e+000	 2.2198913531e-001
 3.7719135700e-001	 3.2448105036e+000	 2.3745511618e-001
 3.4526069420e-001	 3.2483631759e+000	 2.6207480129e-001
 3.1340734650e-001	 3.2515909670e+000	 3.0228970769e-001
 6.4005522020e-001	 3.2305323950e+000	-6.9666863573e-002
 6.0740769998e-001	 3.2368296784e+000	 1.3929842482e-002
 5.7480016382e-001	 3.2427789670e+000	 7.4784483283e-002
 5.4223763955e-001	 3.2483825370e+000	 1.1655637329e-001
 5.0972507698e-001	 3.2536427505e+000	 1.4308063403e-001
 4.7726734648e-001	 3.2585620526e+000	 1.5844813922e-001
 4.4486923755e-001	 3.2631429687e+000	 1.6708875210e-001
 4.1253545752e-001	 3.2673881021e+000	 1.7385596699e-001
 3.8027063035e-001	 3.2713001311e+000	 1.8411115515e-001
 3.4807929552e-001	 3.2748818063e+000	 2.0380571289e-001
 3.1596590696e-001	 3.2781359481e+000	 2.3955951771e-001
 6.4523812109e-001	 3.2566919023e+000	-6.9898497481e-002
 6.1232623482e-001	 3.2630401785e+000	 4.8396423632e-003
 5.7945465641e-001	 3.2690376420e+000	 5.7573062094e-002
 5.4662845436e-001	 3.2746865874e+000	 9.1740355731e-002
 5.1385261859e-001	 3.2799893959e+000	 1.1096328944e-001
 4.8113205889e-001	 3.2849485324e+000	 1.1913988740e-001
 4.4847160355e-001	 3.2895665428e+000	 1.2054077725e-001
 4.1587599802e-001	 3.2938460516e+000	 1.1990678967e-001
 3.8334990371e-001	 3.2977897585e+000	 1.2254589999e-001
 3.5089789683e-001	 3.3014004367e+000	 1.3442770444e-001
 3.1852446741e-001	 3.3046809291e+000	 1.6227373785e-001
 6.5042102197e-001	 3.2828514096e+000	-6.4560373353e-002
 6.1724476967e-001	 3.2892506786e+000	 4.0528117599e-004
 5.8410914899e-001	 3.2952963169e+000	 4.4157063365e-002
 5.5101926917e-001	 3.3009906377e+000	 6.9833133084e-002
 5.1798016019e-001	 3.3063360413e+000	 8.0758777736e-002
 4.8499677130e-001	 3.3113350122e+000	 8.0553530607e-002
 4.5207396955e-001	 3.3159901170e+000	 7.3241514492e-002
 4.1921653852e-001	 3.3203040011e+000	 6.3362881917e-002
 3.8642917706e-001	 3.3242793860e+000	 5.6084322613e-002
 3.5371649815e-001	 3.3279190671e+000	 5.7306720081e-002
 3.2108302787e-001	 3.3312259102e+000	 7.3768160669e-002
 6.5560392285e-001	 3.3090109169e+000	-5.2436425418e-002
 6.2216330452e-001	 3.3154611787e+000	 2.1612509535e-003
 5.8876364158e-001	 3.3215549919e+000	 3.6388027503e-002
 5.5541008398e-001	 3.3272946881e+000	 5.2993552383e-002
 5.2210770180e-001	 3.3326826866e+000	 5.4915001811e-002
 4.8886148370e-001	 3.3377214920e+000	 4.5748783374e-002
 4.5567633555e-001	 3.3424136912e+000	 3.0038723075e-002
 4.2255707902e-001	 3.3467619505e+000	 1.2604063711e-002
 3.8950845042e-001	 3.3507690135e+000	-1.0280395587e-003
 3.5653509947e-001	 3.3544376975e+000	-4.5291090411e-003
 3.2364158833e-001	 3.3577708913e+000	 9.3087499536e-003
 6.6078682374e-001	 3.3351704242e+000	-3.2540125002e-002
 6.2708183937e-001	 3.3416716788e+000	 1.1693605933e-002
 5.9341813416e-001	 3.3478136668e+000	 3.7248370171e-002
 5.5980089879e-001	 3.3535987384e+000	 4.7025564360e-002
 5.2623524340e-001	 3.3590293320e+000	 4.4236070560e-002
 4.9272619611e-001	 3.3641079719e+000	 3.2535119390e-002
 4.5927870155e-001	 3.3688372654e+000	 1.6142765113e-002
 4.2589761953e-001	 3.3732199000e+000	-4.8908173359e-005
 3.9258772377e-001	 3.3772586410e+000	-1.0380758981e-002
 3.5935370079e-001	 3.3809563279e+000	-8.3426853363e-003
 3.2620014879e-001	 3.3843158724e+000	 1.3500165869e-002
 3.0061454421e-001	 3.1188660616e+000	 2.7990027936e-001
 2.7013516033e-001	 3.1216536212e+000	 2.9317106661e-001
 2.3973825151e-001	 3.1241350251e+000	 2.9707269745e-001
 2.0942786922e-001	 3.1263131416e+000	 2.9553695630e-001
 1.7920797856e-001	 3.1281908955e+000	 2.9263838438e-001
 1.4908245772e-001	 3.1297712650e+000	 2.9260188781e-001
 1.1905509748e-001	 3.1310572789e+000	 2.9980431162e-001
 8.9129600848e-002	 3.1320520147e+000	 3.1876949746e-001
 5.9309582745e-002	 3.1327585957e+000	 3.5415643732e-001
 2.9598569761e-002	 3.1331801883e+000	 4.1074022866e-001
 0.0000000000e+000	 3.1333200000e+000	 4.9338564423e-001
 3.0317310467e-001	 3.1454110426e+000	 3.4042769554e-001
 2.7243430770e-001	 3.1482223275e+000	 3.6595326716e-001
 2.4177868775e-001	 3.1507248508e+000	 3.8166258466e-001
 2.1121033076e-001	 3.1529215055e+000	 3.9179198178e-001
 1.8073323560e-001	 3.1548152412e+000	 4.0082036623e-001
 1.5035131343e-001	 3.1564090613e+000	 4.1348247327e-001
 1.2006838732e-001	 3.1577060207e+000	 4.3477539570e-001
 8.9888191798e-002	 3.1587092228e+000	 4.6995787560e-001
 5.9814372538e-002	 3.1594218175e+000	 5.2454194412e-001
 2.9850486150e-002	 3.1598469984e+000	 6.0427659512e-001
 0.0000000000e+000	 3.1599880000e+000	 7.1512329366e-001
 3.0573166513e-001	 3.1719560237e+000	 3.6955543444e-001
 2.7473345507e-001	 3.1747910338e+000	 4.0418016922e-001
 2.4381912399e-001	 3.1773146766e+000	 4.2817361342e-001
 2.1299279231e-001	 3.1795298695e+000	 4.4609621068e-001
 1.8225849263e-001	 3.1814395869e+000	 4.6285404754e-001
 1.5162016914e-001	 3.1830468577e+000	 4.8371818502e-001
 1.2108167717e-001	 3.1843547624e+000	 5.1433654435e-001
 9.0646782748e-002	 3.1853664308e+000	 5.6073779794e-001
 6.0319162331e-002	 3.1860850394e+000	 6.2932682432e-001
 3.0102402539e-002	 3.1865138084e+000	 7.2687139182e-001
 0.0000000000e+000	 3.1866560000e+000	 8.6047985895e-001
 3.0829022558e-001	 3.1985010048e+000	 3.7065764890e-001
 2.7703260245e-001	 3.2013597401e+000	 4.1097026114e-001
 2.4585956023e-001	 3.2039045023e+000	 4.3938832988e-001
 2.1477525386e-001	 3.2061382334e+000	 4.6080755243e-001
 1.8378374966e-001	 3.2080639326e+000	 4.8057580619e-001
 1.5288902486e-001	 3.2096846540e+000	 5.0451901743e-001
 1.2209496702e-001	 3.2110035042e+000	 5.3895882755e-001
 9.1405373698e-002	 3.2120236389e+000	 5.9072147204e-001
 6.0823952124e-002	 3.2127482612e+000	 6.6713740150e-001
 3.0354318928e-002	 3.2131806185e+000	 7.7603128725e-001
 0.0000000000e+000	 3.2133240000e+000	 9.2570218511e-001
 3.1084878604e-001	 3.2250459859e+000	 3.4711109053e-001
 2.7933174982e-001	 3.2279284464e+000	 3.8947608725e-001
 2.4789999647e-001	 3.2304943281e+000	 4.1815512933e-001
 2.1655771540e-001	 3.2327465973e+000	 4.3838178682e-001
 1.8530900670e-001	 3.2346882783e+000	 4.5595203280e-001
 1.5415788057e-001	 3.2363224504e+000	 4.7725713573e-001
 1.2310825686e-001	 3.2376522459e+000	 5.0930755689e-001
 9.2163964649e-002	 3.2386808470e+000	 5.5974723010e-001
 6.1328741917e-002	 3.2394114830e+000	 6.3685772235e-001
 3.0606235317e-002	 3.2398474285e+000	 7.4955189374e-001
 0.0000000000e+000	 3.2399920000e+000	 9.0735681548e-001
 3.1340734650e-001	 3.2515909670e+000	 3.0228970769e-001
 2.8163089719e-001	 3.2544971527e+000	 3.4287817912e-001
 2.4994043271e-001	 3.2570841539e+000	 3.6738151446e-001
 2.1834017695e-001	 3.2593549612e+000	 3.8136513696e-001
 1.8683426373e-001	 3.2613126239e+000	 3.9107100017e-001
 1.5542673628e-001	 3.2629602468e+000	 4.0345801805e-001
 1.2412154671e-001	 3.2643009877e+000	 4.2623267058e-001
 9.2922555600e-002	 3.2653380550e+000	 4.6786912184e-001
 6.1833531710e-002	 3.2660747049e+000	 5.3761831658e-001
 3.0858151706e-002	 3.2665142386e+000	 6.4550564843e-001
 0.0000000000e+000	 3.2666600000e+000	 8.0231694213e-001
 3.1596590696e-001	 3.2781359481e+000	 2.3955951771e-001
 2.8393004456e-001	 3.2810658589e+000	 2.7437928968e-001
 2.5198086895e-001	 3.2836739796e+000	 2.9002768613e-001
 2.2012263849e-001	 3.2859633252e+000	 2.9238720585e-001
 1.8835952077e-001	 3.2879369696e+000	 2.8813512911e-001
 1.5669559199e-001	 3.2895980431e+000	 2.8479202831e-001
 1.2513483655e-001	 3.2909497294e+000	 2.9075958573e-001
 9.3681146551e-002	 3.2919952631e+000	 3.1534701286e-001
 6.2338321504e-002	 3.2927379267e+000	 3.6878550285e-001
 3.1110068095e-002	 3.2931810486e+000	 4.6223028284e-001
 0.0000000000e+000	 3.2933280000e+000	 6.0774999030e-001
 3.1852446741e-001	 3.3046809291e+000	 1.6227373785e-001
 2.8622919194e-001	 3.3076345652e+000	 1.8719891304e-001
 2.5402130520e-001	 3.3102638054e+000	 1.8910044804e-001
 2.2190510004e-001	 3.3125716891e+000	 1.7415425629e-001
 1.8988477780e-001	 3.3145613153e+000	 1.4945362846e-001
 1.5796444771e-001	 3.3162358395e+000	 1.2306639580e-001
 1.2614812640e-001	 3.3175984712e+000	 1.0408049147e-001
 9.4439737501e-002	 3.3186524711e+000	 1.0263716001e-001
 6.2843111297e-002	 3.3194011485e+000	 1.2995120999e-001
 3.1361984484e-002	 3.3198478587e+000	 1.9831784827e-001
 0.0000000000e+000	 3.3199960000e+000	 3.2110580124e-001
 3.2108302787e-001	 3.3312259102e+000	 7.3768160669e-002
 2.8852833931e-001	 3.3342032715e+000	 8.4620634089e-002
 2.5606174144e-001	 3.3368536311e+000	 6.8608820529e-002
 2.2368756159e-001	 3.3391800530e+000	 3.2527474293e-002
 1.9141003483e-001	 3.3411856610e+000	-1.6113199247e-002
 1.5923330342e-001	 3.3428736359e+000	-6.8803118542e-002
 1.2716141625e-001	 3.3442472129e+000	-1.1598594850e-001
 9.5198328452e-002	 3.3453096792e+000	-1.4701789030e-001
 6.3347901090e-002	 3.3460643704e+000	-1.5013113340e-001
 3.1613900873e-002	 3.3465146687e+000	-1.1240151607e-001
 0.0000000000e+000	 3.3466640000e+000	-1.9719964336e-002
 3.2364158833e-001	 3.3577708913e+000	 9.3087499536e-003
 2.9082748668e-001	 3.3607719778e+000	 1.7905964463e-002
 2.5810217768e-001	 3.3634434569e+000	-2.5144947918e-003
 2.2547002313e-001	 3.3657884170e+000	-4.5126607418e-002
 1.9293529187e-001	 3.3678100066e+000	-1.0212604672e-001
 1.6050215913e-001	 3.3695114322e+000	-1.6468107848e-001
 1.2817470609e-001	 3.3708959547e+000	-2.2288895203e-001
 9.5956919402e-002	 3.3719668872e+000	-2.6573720556e-001
 6.3852690883e-002	 3.3727275922e+000	-2.8106936354e-001
 3.1865817262e-002	 3.3731814788e+000	-2.5555455987e-001
 0.0000000000e+000	 3.3733320000e+000	-1.7466064799e-001
 3.2620014879e-001	 3.3843158724e+000	 1.3500165869e-002
 2.9312663406e-001	 3.3873406841e+000	 3.0643400964e-002
 2.6014261392e-001	 3.3900332827e+000	 1.7420893152e-002
 2.2725248468e-001	 3.3923967809e+000	-1.9003066288e-002
 1.9446054890e-001	 3.3944343523e+000	-7.0459252394e-002
 1.6177101484e-001	 3.3961492286e+000	-1.2772770916e-001
 1.2918799594e-001	 3.3975446965e+000	-1.8049717982e-001
 9.6715510352e-002	 3.3986240953e+000	-2.1732916501e-001
 6.4357480676e-002	 3.3993908141e+000	-2.2562606958e-001
 3.2117733651e-002	 3.3998482888e+000	-1.9160295897e-001
 0.0000000000e+000	 3.4000000000e+000	-1.0026247787e-001
 3.4000000000e+000	 0.0000000000e+000	 1.8230827871e+000
 3.3998482888e+000	 3.2117733651e-002	 1.7861113134e+000
 3.3993908141e+000	 6.4357480676e-002	 1.7295744212e+000
 3.3986240953e+000	 9.6715510352e-002	 1.6612172433e+000
 3.3975446965e+000	 1.2918799594e-001	 1.5874258891e+000
 3.3961492286e+000	 1.6177101484e-001	 1.5132964993e+000
 3.3944343523e+000	 1.9446054890e-001	 1.4427069191e+000
 3.3923967809e+000	 2.2725248468e-001	 1.3783914169e+000
 3.3900332827e+000	 2.6014261392e-001	 1.3220189220e+000
 3.3873406841e+000	 2.9312663406e-001	 1.2742753107e+000
 3.3843158724e+000	 3.2620014879e-001	 1.2349503284e+000
 3.4266680000e+000	 0.0000000000e+000	 1.5374894198e+000
 3.4265150989e+000	 3.2369650039e-002	 1.5288609310e+000
 3.4260540359e+000	 6.4862270468e-002	 1.4990984752e+000
 3.4252813033e+000	 9.7474101301e-002	 1.4558963716e+000
 3.4241934382e+000	 1.3020128578e-001	 1.4056243087e+000
 3.4227870249e+000	 1.6303987056e-001	 1.3533948481e+000
 3.4210586980e+000	 1.9598580593e-001	 1.3031331500e+000
 3.4190051448e+000	 2.2903494622e-001	 1.2576493698e+000
 3.4166231084e+000	 2.6218305016e-001	 1.2187142227e+000
 3.4139093904e+000	 2.9542578143e-001	 1.1871382770e+000
 3.4108608535e+000	 3.2875870925e-001	 1.1628555994e+000
 3.4533360000e+000	 0.0000000000e+000	 1.2903140693e+000
 3.4531819089e+000	 3.2621566427e-002	 1.3043746975e+000
 3.4527172577e+000	 6.5367060260e-002	 1.2961616635e+000
 3.4519385114e+000	 9.8232692251e-002	 1.2733104101e+000
 3.4508421800e+000	 1.3121457563e-001	 1.2421686760e+000
 3.4494248213e+000	 1.6430872627e-001	 1.2078621908e+000
 3.4476830437e+000	 1.9751106297e-001	 1.1743621688e+000
 3.4456135087e+000	 2.3081740777e-001	 1.1445550701e+000
 3.4432129342e+000	 2.6422348640e-001	 1.1203151532e+000
 3.4404780966e+000	 2.9772492880e-001	 1.1025804124e+000
 3.4374058346e+000	 3.3131726971e-001	 1.0914325593e+000
 3.4800040000e+000	 0.0000000000e+000	 1.0810888532e+000
 3.4798487190e+000	 3.2873482815e-002	 1.1128050180e+000
 3.4793804796e+000	 6.5871850052e-002	 1.1214532010e+000
 3.4785957194e+000	 9.8991283199e-002	 1.1146042029e+000
 3.4774909217e+000	 1.3222786547e-001	 1.0985807942e+000
 3.4760626177e+000	 1.6557758198e-001	 1.0785213340e+000
 3.4743073894e+000	 1.9903632000e-001	 1.0584447324e+000
 3.4722218727e+000	 2.3259986931e-001	 1.0413172490e+000
 3.4698027599e+000	 2.6626392265e-001	 1.0291216798e+000
 3.4670468029e+000	 3.0002407618e-001	 1.0229295581e+000
 3.4639508156e+000	 3.3387583017e-001	 1.0229770678e+000
 3.5066720000e+000	 0.0000000000e+000	 9.0927270397e-001
 3.5065155291e+000	 3.3125399203e-002	 9.5423546315e-001
 3.5060437014e+000	 6.6376639843e-002	 9.7559731850e-001
 3.5052529275e+000	 9.9749874148e-002	 9.8086105822e-001
 3.5041396635e+000	 1.3324115532e-001	 9.7632408168e-001
 3.5027004140e+000	 1.6684643769e-001	 9.6713965949e-001
 3.5009317350e+000	 2.0056157703e-001	 9.5737905293e-001
 3.4988302366e+000	 2.3438233086e-001	 9.5009500819e-001
 3.4963925857e+000	 2.6830435889e-001	 9.4738720662e-001
 3.4936155092e+000	 3.0232322355e-001	 9.5047033158e-001
 3.4904957967e+000	 3.3643439063e-001	 9.5974549099e-001
 3.5333400000e+000	 0.0000000000e+000	 7.7425413077e-001
 3.5331823391e+000	 3.3377315591e-002	 8.2868360577e-001
 3.5327069232e+000	 6.6881429635e-002	 8.5915613256e-001
 3.5319101355e+000	 1.0050846510e-001	 8.7310561365e-001
 3.5307884052e+000	 1.3425444516e-001	 8.7680639392e-001
 3.5293382104e+000	 1.6811529340e-001	 8.7543186822e-001
 3.5275560807e+000	 2.0208683407e-001	 8.7311343160e-001
 3.5254386005e+000	 2.3616479241e-001	 8.7300031178e-001
 3.5229824115e+000	 2.7034479513e-001	 8.7732089582e-001
 3.5201842155e+000	 3.0462237093e-001	 8.8744624784e-001
 3.5170407778e+000	 3.3899295109e-001	 9.0395659933e-001
 3.5600080000e+000	 0.0000000000e+000	 6.7535385691e-001
 3.5598491492e+000	 3.3629231979e-002	 7.3610372919e-001
 3.5593701451e+000	 6.7386219427e-002	 7.7263238579e-001
 3.5585673436e+000	 1.0126705605e-001	 7.9230656990e-001
 3.5574371470e+000	 1.3526773500e-001	 8.0138271597e-001
 3.5559760068e+000	 1.6938414911e-001	 8.0506259763e-001
 3.5541804264e+000	 2.0361209110e-001	 8.0754876810e-001
 3.5520469645e+000	 2.3794725395e-001	 8.1210035800e-001
 3.5495722372e+000	 2.7238523137e-001	 8.2108987431e-001
 3.5467529218e+000	 3.0692151830e-001	 8.3606173564e-001
 3.5435857589e+000	 3.4155151155e-001	 8.5779336962e-001
 3.5866760000e+000	 0.0000000000e+000	 6.1182734009e-001
 3.5865159592e+000	 3.3881148367e-002	 6.7638941484e-001
 3.5860333669e+000	 6.7891009218e-002	 7.1647206384e-001
 3.5852245516e+000	 1.0202564699e-001	 7.3937930142e-001
 3.5840858887e+000	 1.3628102485e-001	 7.5135773191e-001
 3.5826138031e+000	 1.7065300483e-001	 7.5764891730e-001
 3.5808047721e+000	 2.0513734813e-001	 7.6254095235e-001
 3.5786553284e+000	 2.3972971550e-001	 7.6941983854e-001
 3.5761620630e+000	 2.7442566762e-001	 7.8082133395e-001
 3.5733216281e+000	 3.0922066568e-001	 7.9848405414e-001
 3.5701307400e+000	 3.4411007201e-001	 8.2340469585e-001
 3.6133440000e+000	 0.0000000000e+000	 5.8286718072e-001
 3.6131827693e+000	 3.4133064755e-002	 6.4937601505e-001
 3.6126965887e+000	 6.8395799010e-002	 6.9106689586e-001
 3.6118817597e+000	 1.0278423794e-001	 7.1518834946e-001
 3.6107346305e+000	 1.3729431469e-001	 7.2798827756e-001
 3.6092515995e+000	 1.7192186054e-001	 7.3476271016e-001
 3.6074291178e+000	 2.0666260517e-001	 7.3990314473e-001
 3.6052636923e+000	 2.4151217705e-001	 7.4694309055e-001
 3.6027518887e+000	 2.7646610386e-001	 7.5860453024e-001
 3.5998903343e+000	 3.1151981305e-001	 7.7684511498e-001
 3.5966757211e+000	 3.4666863247e-001	 8.0290701375e-001
 3.6400120000e+000	 0.0000000000e+000	 5.8760542459e-001
 3.6398495793e+000	 3.4384981144e-002	 6.5484301682e-001
 3.6393598106e+000	 6.8900588802e-002	 6.9675674410e-001
 3.6385389677e+000	 1.0354282889e-001	 7.2054980384e-001
 3.6373833723e+000	 1.3830760454e-001	 7.3248568245e-001
 3.6358893958e+000	 1.7319071625e-001	 7.3793294465e-001
 3.6340534634e+000	 2.0818786220e-001	 7.4140795044e-001
 3.6318720562e+000	 2.4329463859e-001	 7.4661614710e-001
 3.6293417145e+000	 2.7850654010e-001	 7.5649268464e-001
 3.6264590406e+000	 3.1381896043e-001	 7.7324321469e-001
 3.6232207021e+000	 3.4922719293e-001	 7.9838584341e-001
 3.6666800000e+000	 0.0000000000e+000	 6.2511576489e-001
 3.6665163894e+000	 3.4636897532e-002	 6.9251630230e-001
 3.6660230324e+000	 6.9405378595e-002	 7.3383188846e-001
 3.6651961758e+000	 1.0430141984e-001	 7.5623357908e-001
 3.6640321140e+000	 1.3932089439e-001	 7.6601800680e-001
 3.6625271922e+000	 1.7445957196e-001	 7.6864784366e-001
 3.6606778091e+000	 2.0971311924e-001	 7.6878949344e-001
 3.6584804202e+000	 2.4507710014e-001	 7.7034869111e-001
 3.6559315402e+000	 2.8054697635e-001	 7.7650479572e-001
 3.6530277469e+000	 3.1611810781e-001	 7.8974468209e-001
 3.6497656832e+000	 3.5178575339e-001	 8.1189725416e-001
 3.3843158724e+000	 3.2620014879e-001	 1.2349503284e+000
 3.3809563279e+000	 3.5935370079e-001	 1.1960365592e+000
 3.3772586410e+000	 3.9258772377e-001	 1.1520731541e+000
 3.3732199000e+000	 4.2589761953e-001	 1.1056311578e+000
 3.3688372654e+000	 4.5927870155e-001	 1.0587834779e+000
 3.3641079719e+000	 4.9272619611e-001	 1.0132176490e+000
 3.3590293320e+000	 5.2623524340e-001	 9.7035763380e-001
 3.3535987384e+000	 5.5980089879e-001	 9.3149557494e-001
 3.3478136668e+000	 5.9341813416e-001	 8.9793443480e-001
 3.3416716788e+000	 6.2708183937e-001	 8.7114247372e-001
 3.3351704242e+000	 6.6078682374e-001	 8.5292052376e-001
 3.4108608535e+000	 3.2875870925e-001	 1.1628555994e+000
 3.4074749583e+000	 3.6217230211e-001	 1.1373318944e+000
 3.4037482685e+000	 3.9566699713e-001	 1.1045808230e+000
 3.3996778495e+000	 4.2923816003e-001	 1.0673316513e+000
 3.3952608395e+000	 4.6288106755e-001	 1.0278199039e+000
 3.3904944517e+000	 4.9659090852e-001	 9.8789605421e-001
 3.3853759773e+000	 5.3036278501e-001	 9.4914327406e-001
 3.3799027887e+000	 5.6419171360e-001	 9.1300522165e-001
 3.3740723418e+000	 5.9807262675e-001	 8.8092487487e-001
 3.3678821789e+000	 6.3200037421e-001	 8.5449543321e-001
 3.3613299316e+000	 6.6596972462e-001	 8.3562432063e-001
 3.4374058346e+000	 3.3131726971e-001	 1.0914325593e+000
 3.4339935887e+000	 3.6499090342e-001	 1.0778105621e+000
 3.4302378959e+000	 3.9874627048e-001	 1.0551640885e+000
 3.4261357990e+000	 4.3257870053e-001	 1.0263268883e+000
 3.4216844137e+000	 4.6648343355e-001	 9.9364301542e-001
 3.4168809315e+000	 5.0045562093e-001	 9.5907109193e-001
 3.4117226227e+000	 5.3449032662e-001	 9.2429764656e-001
 3.4062068391e+000	 5.6858252842e-001	 8.9086057713e-001
 3.4003310168e+000	 6.0272711934e-001	 8.6028381566e-001
 3.3940926790e+000	 6.3691890906e-001	 8.3422429622e-001
 3.3874894389e+000	 6.7115262551e-001	 8.1482998044e-001
 3.4639508156e+000	 3.3387583017e-001	 1.0229770678e+000
 3.4605122191e+000	 3.6780950474e-001	 1.0196942011e+000
 3.4567275234e+000	 4.0182554384e-001	 1.0059467546e+000
 3.4525937485e+000	 4.3591924104e-001	 9.8462439088e-001
 3.4481079879e+000	 4.7008579956e-001	 9.5813080828e-001
 3.4432674113e+000	 5.0432033334e-001	 9.2848320271e-001
 3.4380692681e+000	 5.3861786822e-001	 8.9742081219e-001
 3.4325108894e+000	 5.7297334323e-001	 8.6652366684e-001
 3.4265896917e+000	 6.0738161193e-001	 8.3734269949e-001
 3.4203031791e+000	 6.4183744391e-001	 8.1154239644e-001
 3.4136489462e+000	 6.7633552640e-001	 7.9196041552e-001
 3.4904957967e+000	 3.3643439063e-001	 9.5974549099e-001
 3.4870308495e+000	 3.7062810607e-001	 9.6516877472e-001
 3.4832171509e+000	 4.0490481720e-001	 9.5902052548e-001
 3.4790516980e+000	 4.3925978154e-001	 9.4420299369e-001
 3.4745315620e+000	 4.7368816556e-001	 9.2313592053e-001
 3.4696538911e+000	 5.0818504575e-001	 8.9785079595e-001
 3.4644159134e+000	 5.4274540983e-001	 8.7009420189e-001
 3.4588149398e+000	 5.7736415804e-001	 8.4144143830e-001
 3.4528483667e+000	 6.1203610452e-001	 8.1342166712e-001
 3.4465136792e+000	 6.4675597877e-001	 7.8765583750e-001
 3.4398084535e+000	 6.8151842728e-001	 7.6809388495e-001
 3.5170407778e+000	 3.3899295109e-001	 9.0395659933e-001
 3.5135494799e+000	 3.7344670739e-001	 9.1638623895e-001
 3.5097067784e+000	 4.0798409055e-001	 9.1644645559e-001
 3.5055096475e+000	 4.4260032205e-001	 9.0701409411e-001
 3.5009551362e+000	 4.7729053156e-001	 8.9048670321e-001
 3.4960403710e+000	 5.1204975816e-001	 8.6887116520e-001
 3.4907625588e+000	 5.4687295144e-001	 8.4388140490e-001
 3.4851189901e+000	 5.8175497286e-001	 8.1704645442e-001
 3.4791070416e+000	 6.1669059710e-001	 7.8983019242e-001
 3.4727241793e+000	 6.5167451362e-001	 7.6376410871e-001
 3.4659679608e+000	 6.8670132817e-001	 7.4430170085e-001
 3.5435857589e+000	 3.4155151155e-001	 8.5779336962e-001
 3.5400681103e+000	 3.7626530871e-001	 8.7546612401e-001
 3.5361964059e+000	 4.1106336391e-001	 8.8025632442e-001
 3.5319675970e+000	 4.4594086255e-001	 8.7498283533e-001
 3.5273787104e+000	 4.8089289757e-001	 8.6198823221e-001
 3.5224268508e+000	 5.1591447057e-001	 8.4322135314e-001
 3.5171092041e+000	 5.5100049305e-001	 8.2032891473e-001
 3.5114230404e+000	 5.8614578767e-001	 7.9475755207e-001
 3.5053657166e+000	 6.2134508969e-001	 7.6786768870e-001
 3.4989346794e+000	 6.5659304847e-001	 7.4106067854e-001
 3.4921274681e+000	 6.9188422906e-001	 7.2165367514e-001
 3.5701307400e+000	 3.4411007201e-001	 8.2340469585e-001
 3.5665867407e+000	 3.7908391003e-001	 8.4449703425e-001
 3.5626860333e+000	 4.1414263727e-001	 8.5245393750e-001
 3.5584255465e+000	 4.4928140306e-001	 8.5000922519e-001
 3.5538022846e+000	 4.8449526357e-001	 8.3942326476e-001
 3.5488133306e+000	 5.1977918299e-001	 8.2255896917e-001
 3.5434558495e+000	 5.5512803466e-001	 8.0096683509e-001
 3.5377270908e+000	 5.9053660249e-001	 7.7598046752e-001
 3.5316243916e+000	 6.2599958229e-001	 7.4882408848e-001
 3.5251451795e+000	 6.6151158332e-001	 7.2073356683e-001
 3.5182869755e+000	 6.9706712995e-001	 7.0121815431e-001
 3.5966757211e+000	 3.4666863247e-001	 8.0290701375e-001
 3.5931053711e+000	 3.8190251135e-001	 8.2553807034e-001
 3.5891756608e+000	 4.1722191063e-001	 8.3501635861e-001
 3.5848834960e+000	 4.5262194356e-001	 8.3396919430e-001
 3.5802258587e+000	 4.8809762958e-001	 8.2455314295e-001
 3.5751998104e+000	 5.2364389540e-001	 8.0852296173e-001
 3.5698024949e+000	 5.5925557627e-001	 7.8730954791e-001
 3.5640311411e+000	 5.9492741731e-001	 7.6210843053e-001
 3.5578830665e+000	 6.3065407488e-001	 7.3398039770e-001
 3.5513556796e+000	 6.6643011817e-001	 7.0396589687e-001
 3.5444464828e+000	 7.0225003084e-001	 6.8406203858e-001
 3.6232207021e+000	 3.4922719293e-001	 7.9838584341e-001
 3.6196240015e+000	 3.8472111267e-001	 8.2062017783e-001
 3.6156652883e+000	 4.2030118399e-001	 8.2989507639e-001
 3.6113414455e+000	 4.5596248407e-001	 8.2871559646e-001
 3.6066494329e+000	 4.9169999558e-001	 8.1911864740e-001
 3.6015862902e+000	 5.2750860781e-001	 8.0273434788e-001
 3.5961491402e+000	 5.6338311789e-001	 7.8085634538e-001
 3.5903351915e+000	 5.9931823212e-001	 7.5452272875e-001
 3.5841417415e+000	 6.3530856747e-001	 7.2460922599e-001
 3.5775661797e+000	 6.7134865303e-001	 6.9210497943e-001
 3.5706059901e+000	 7.0743293173e-001	 6.7125078611e-001
 3.6497656832e+000	 3.5178575339e-001	 8.1189725416e-001
 3.6461426319e+000	 3.8753971400e-001	 8.3174742568e-001
 3.6421549158e+000	 4.2338045735e-001	 8.3901710876e-001
 3.6377993950e+000	 4.5930302458e-001	 8.3607915440e-001
 3.6330730071e+000	 4.9530236159e-001	 8.2484080330e-001
 3.6279727701e+000	 5.3137332022e-001	 8.0679690236e-001
 3.6224957856e+000	 5.6751065950e-001	 7.8309202775e-001
 3.6166392418e+000	 6.0370904694e-001	 7.5459324389e-001
 3.6104004164e+000	 6.3996306006e-001	 7.2197529401e-001
 3.6037766798e+000	 6.7626718788e-001	 6.8650502774e-001
 3.5967654974e+000	 7.1261583262e-001	 6.6384840318e-001
 3.3351704242e+000	 6.6078682374e-001	 8.5292052376e-001
 3.3283065882e+000	 6.9453288053e-001	 8.3384853860e-001
 3.3210789555e+000	 7.2830960080e-001	 8.1077623776e-001
 3.3134854599e+000	 7.6211155205e-001	 7.8457325798e-001
 3.3055241345e+000	 7.9593322820e-001	 7.5564914090e-001
 3.2971931143e+000	 8.2976905160e-001	 7.2436144506e-001
 3.2884906387e+000	 8.6361337515e-001	 6.9105428321e-001
 3.2794150542e+000	 8.9746048454e-001	 6.5609351504e-001
 3.2699648164e+000	 9.3130460051e-001	 6.1989790573e-001
 3.2601384931e+000	 9.6513988133e-001	 5.8296557440e-001
 3.2499347660e+000	 9.9896042527e-001	 5.4589507536e-001
 3.3613299316e+000	 6.6596972462e-001	 8.3562432063e-001
 3.3544122588e+000	 6.9998046961e-001	 8.1818965995e-001
 3.3471279360e+000	 7.3402211857e-001	 7.9645132701e-001
 3.3394748806e+000	 7.6808919642e-001	 7.7156416313e-001
 3.3314511103e+000	 8.0217615388e-001	 7.4444021684e-001
 3.3230547455e+000	 8.3627736956e-001	 7.1520143726e-001
 3.3142840118e+000	 8.7038715206e-001	 6.8390818844e-001
 3.3051372426e+000	 9.0449974224e-001	 6.5084595807e-001
 3.2956128816e+000	 9.3860931553e-001	 6.1637896592e-001
 3.2857094853e+000	 9.7270998438e-001	 5.8098004191e-001
 3.2754257250e+000	 1.0067958007e+000	 5.4525477387e-001
 3.3874894389e+000	 6.7115262551e-001	 8.1482998044e-001
 3.3805179294e+000	 7.0542805868e-001	 7.9921459985e-001
 3.3731769164e+000	 7.3973463634e-001	 7.7847644850e-001
 3.3654643012e+000	 7.7406684079e-001	 7.5390139443e-001
 3.3573780861e+000	 8.0841907956e-001	 7.2656024862e-001
 3.3489163767e+000	 8.4278568752e-001	 6.9733156946e-001
 3.3400773848e+000	 8.7716092897e-001	 6.6692685517e-001
 3.3308594310e+000	 9.1153899995e-001	 6.3587630834e-001
 3.3212609468e+000	 9.4591403056e-001	 6.0376127944e-001
 3.3112804774e+000	 9.8028008742e-001	 5.7063163839e-001
 3.3009166839e+000	 1.0146311762e+000	 5.3701935354e-001
 3.4136489462e+000	 6.7633552640e-001	 7.9196041552e-001
 3.4066236000e+000	 7.1087564776e-001	 7.7796168531e-001
 3.3992258969e+000	 7.4544715412e-001	 7.5824529589e-001
 3.3914537219e+000	 7.8004448516e-001	 7.3419398938e-001
 3.3833050618e+000	 8.1466200525e-001	 7.0697767830e-001
 3.3747780078e+000	 8.4929400548e-001	 6.7757562429e-001
 3.3658707579e+000	 8.8393470588e-001	 6.4680105737e-001
 3.3565816195e+000	 9.1857825765e-001	 6.1532841436e-001
 3.3469090120e+000	 9.5321874558e-001	 5.8372336917e-001
 3.3368514696e+000	 9.8785019047e-001	 5.5247581961e-001
 3.3264076428e+000	 1.0224665517e+000	 5.2174059525e-001
 3.4398084535e+000	 6.8151842728e-001	 7.6809388495e-001
 3.4327292707e+000	 7.1632323683e-001	 7.5543330932e-001
 3.4252748774e+000	 7.5115967189e-001	 7.3668376756e-001
 3.4174431425e+000	 7.8602212954e-001	 7.1328688121e-001
 3.4092320376e+000	 8.2090493093e-001	 6.8647317251e-001
 3.4006396390e+000	 8.5580232344e-001	 6.5728360037e-001
 3.3916641309e+000	 8.9070848278e-001	 6.2659359285e-001
 3.3823038079e+000	 9.2561751536e-001	 5.9513976883e-001
 3.3725570773e+000	 9.6052346061e-001	 5.6354953569e-001
 3.3624224617e+000	 9.9542029351e-001	 5.3237374179e-001
 3.3518986017e+000	 1.0303019272e+000	 5.0211943880e-001
 3.4659679608e+000	 6.8670132817e-001	 7.4430170085e-001
 3.4588349413e+000	 7.2177082591e-001	 7.3263146529e-001
 3.4513238578e+000	 7.5687218967e-001	 7.1471849363e-001
 3.4434325632e+000	 7.9199977391e-001	 6.9202683837e-001
 3.4351590134e+000	 8.2714785662e-001	 6.6581068514e-001
 3.4265012702e+000	 8.6231064140e-001	 6.3713522427e-001
 3.4174575040e+000	 8.9748225969e-001	 6.0690007817e-001
 3.4080259963e+000	 9.3265677307e-001	 5.7586549182e-001
 3.3982051425e+000	 9.6782817563e-001	 5.4468148796e-001
 3.3879934539e+000	 1.0029903966e+000	 5.1392018072e-001
 3.3773895607e+000	 1.0381373026e+000	 4.8410871196e-001
 3.4921274681e+000	 6.9188422906e-001	 7.2165367514e-001
 3.4849406119e+000	 7.2721841499e-001	 7.1055769282e-001
 3.4773728383e+000	 7.6258470745e-001	 6.9327667948e-001
 3.4694219839e+000	 7.9797741829e-001	 6.7126221025e-001
 3.4610859892e+000	 8.3339078231e-001	 6.4575672672e-001
 3.4523629013e+000	 8.6881895936e-001	 6.1781371765e-001
 3.4432508770e+000	 9.0425603660e-001	 5.8832051799e-001
 3.4337481848e+000	 9.3969603077e-001	 5.5802394893e-001
 3.4238532077e+000	 9.7513289066e-001	 5.2755901615e-001
 3.4135644460e+000	 1.0105604996e+000	 4.9747705967e-001
 3.4028805196e+000	 1.0459726781e+000	 4.6829789509e-001
 3.5182869755e+000	 6.9706712995e-001	 7.0121815431e-001
 3.5110462825e+000	 7.3266600407e-001	 6.9021301122e-001
 3.5034218188e+000	 7.6829722522e-001	 6.7328594107e-001
 3.4954114045e+000	 8.0395506266e-001	 6.5184266891e-001
 3.4870129649e+000	 8.3963370799e-001	 6.2708001853e-001
 3.4782245325e+000	 8.7532727733e-001	 6.0000537093e-001
 3.4690442501e+000	 9.1102981351e-001	 5.7145880682e-001
 3.4594703732e+000	 9.4673528848e-001	 5.4213817220e-001
 3.4495012729e+000	 9.8243760569e-001	 5.1262730007e-001
 3.4391354382e+000	 1.0181306026e+000	 4.8342426137e-001
 3.4283714785e+000	 1.0538080536e+000	 4.5499127011e-001
 3.5444464828e+000	 7.0225003084e-001	 6.8406203858e-001
 3.5371519531e+000	 7.3811359314e-001	 6.7259784134e-001
 3.5294707992e+000	 7.7400974300e-001	 6.5567413269e-001
 3.5214008252e+000	 8.0993270704e-001	 6.3461894719e-001
 3.5129399407e+000	 8.4587663368e-001	 6.1055114683e-001
 3.5040861637e+000	 8.8183559529e-001	 5.8439912076e-001
 3.4948376231e+000	 9.1780359042e-001	 5.5692223829e-001
 3.4851925616e+000	 9.5377454619e-001	 5.2873531068e-001
 3.4751493381e+000	 9.8974232071e-001	 5.0033631215e-001
 3.4647064304e+000	 1.0257007057e+000	 4.7213466404e-001
 3.4538624374e+000	 1.0616434291e+000	 4.4449910020e-001
 3.5706059901e+000	 7.0743293173e-001	 6.7125078611e-001
 3.5632576237e+000	 7.4356118222e-001	 6.5871191638e-001
 3.5555197797e+000	 7.7972226078e-001	 6.4136916747e-001
 3.5473902459e+000	 8.1591035141e-001	 6.2044257334e-001
 3.5388669165e+000	 8.5211955937e-001	 5.9694221727e-001
 3.5299477948e+000	 8.8834391325e-001	 5.7168613125e-001
 3.5206309962e+000	 9.2457736733e-001	 5.4532102123e-001
 3.5109147501e+000	 9.6081380390e-001	 5.1834609106e-001
 3.5007974033e+000	 9.9704703574e-001	 4.9114023332e-001
 3.4902774225e+000	 1.0332708087e+000	 4.6399027840e-001
 3.4793533964e+000	 1.0694788046e+000	 4.3713699317e-001
 3.5967654974e+000	 7.1261583262e-001	 6.6384840318e-001
 3.5893632944e+000	 7.4900877130e-001	 6.4955418217e-001
 3.5815687602e+000	 7.8543477855e-001	 6.3129883093e-001
 3.5733796665e+000	 8.2188799579e-001	 6.1016560229e-001
 3.5647938922e+000	 8.5836248506e-001	 5.8702650948e-001
 3.5558094260e+000	 8.9485223122e-001	 5.6255937859e-001
 3.5464243692e+000	 9.3135114424e-001	 5.3726780255e-001
 3.5366369385e+000	 9.6785306161e-001	 5.1150428790e-001
 3.5264454685e+000	 1.0043517508e+000	 4.8549688100e-001
 3.5158484147e+000	 1.0408409118e+000	 4.5937731280e-001
 3.5048443553e+000	 1.0773141800e+000	 4.3322528145e-001
 3.2499347660e+000	 9.9896042527e-001	 5.4589507536e-001
 3.2393524327e+000	 1.0327602727e+000	 5.0986996974e-001
 3.2283904058e+000	 1.0665334072e+000	 4.7483235253e-001
 3.2170477184e+000	 1.1002737598e+000	 4.3967972405e-001
 3.2053235261e+000	 1.1339752124e+000	 4.0344208487e-001
 3.1932171098e+000	 1.1676316006e+000	 3.6526529383e-001
 3.1807278769e+000	 1.2012367166e+000	 3.2439119708e-001
 3.1678553637e+000	 1.2347843127e+000	 2.8012893457e-001
 3.1545992369e+000	 1.2682681041e+000	 2.3181715612e-001
 3.1409592953e+000	 1.3016817725e+000	 1.7877695555e-001
 3.1269354717e+000	 1.3350189692e+000	 1.2029522830e-001
 3.2754257250e+000	 1.0067958007e+000	 5.4525477387e-001
 3.2647603887e+000	 1.0408607582e+000	 5.1057131556e-001
 3.2537123809e+000	 1.0748987933e+000	 4.7687354384e-001
 3.2422807268e+000	 1.1089037894e+000	 4.4284617631e-001
 3.2304645755e+000	 1.1428695804e+000	 4.0734137613e-001
 3.2182632021e+000	 1.1767899534e+000	 3.6936396519e-001
 3.2056760095e+000	 1.2106586521e+000	 3.2805222443e-001
 3.1927025304e+000	 1.2444693798e+000	 2.8264929733e-001
 3.1793424288e+000	 1.2782158023e+000	 2.3246490802e-001
 3.1655955019e+000	 1.3118915518e+000	 1.7682718630e-001
 3.1514616820e+000	 1.3454902298e+000	 1.1695132349e-001
 3.3009166839e+000	 1.0146311762e+000	 5.3701935354e-001
 3.2901683448e+000	 1.0489612438e+000	 5.0440683872e-001
 3.2790343560e+000	 1.0832641795e+000	 4.7269172963e-001
 3.2675137352e+000	 1.1175338190e+000	 4.4034852009e-001
 3.2556056248e+000	 1.1517639483e+000	 4.0605437306e-001
 3.2433092944e+000	 1.1859483062e+000	 3.6868025038e-001
 3.2306241422e+000	 1.2200805877e+000	 3.2727242950e-001
 3.2175496971e+000	 1.2541544469e+000	 2.8102401835e-001
 3.2040856206e+000	 1.2881635005e+000	 2.2923615842e-001
 3.1902317086e+000	 1.3221013311e+000	 1.7126869073e-001
 3.1759878923e+000	 1.3559614903e+000	 1.1287421931e-001
 3.3264076428e+000	 1.0224665517e+000	 5.2174059525e-001
 3.3155763009e+000	 1.0570617294e+000	 4.9198304385e-001
 3.3043563311e+000	 1.0916295656e+000	 4.6294807589e-001
 3.2927467436e+000	 1.1261638486e+000	 4.3289296224e-001
 3.2807466742e+000	 1.1606583162e+000	 4.0032192398e-001
 3.2683553867e+000	 1.1951066590e+000	 3.6397863635e-001
 3.2555722748e+000	 1.2295025232e+000	 3.2282850964e-001
 3.2423968638e+000	 1.2638395139e+000	 2.7603033144e-001
 3.2288288125e+000	 1.2981111987e+000	 2.2289693789e-001
 3.2148679152e+000	 1.3323111103e+000	 1.6284467041e-001
 3.2005141027e+000	 1.3664327509e+000	 1.0843150657e-001
 3.3518986017e+000	 1.0303019272e+000	 5.0211943880e-001
 3.3409842570e+000	 1.0651622150e+000	 4.7428954252e-001
 3.3296783062e+000	 1.0999949518e+000	 4.4835817120e-001
 3.3179797520e+000	 1.1347938782e+000	 4.2122967495e-001
 3.3058877235e+000	 1.1695526842e+000	 3.9091713112e-001
 3.2934014791e+000	 1.2042650118e+000	 3.5604292926e-001
 3.2805204075e+000	 1.2389244587e+000	 3.1550235990e-001
 3.2672440305e+000	 1.2735245810e+000	 2.6843540193e-001
 3.2535720044e+000	 1.3080588968e+000	 2.1418684563e-001
 3.2395041218e+000	 1.3425208896e+000	 1.5325622305e-001
 3.2250403130e+000	 1.3769040114e+000	 1.0393616944e-001
 3.3773895607e+000	 1.0381373026e+000	 4.8410871196e-001
 3.3663922131e+000	 1.0732627005e+000	 4.5687227145e-001
 3.3550002813e+000	 1.1083603379e+000	 4.3181656431e-001
 3.3432127604e+000	 1.1434239078e+000	 4.0651131302e-001
 3.3310287729e+000	 1.1784470521e+000	 3.7863783212e-001
 3.3184475714e+000	 1.2134233646e+000	 3.4566823808e-001
 3.3054685401e+000	 1.2483463942e+000	 3.0607255134e-001
 3.2920911972e+000	 1.2832096481e+000	 2.5898729231e-001
 3.2783151963e+000	 1.3180065950e+000	 2.0380949510e-001
 3.2641403284e+000	 1.3527306689e+000	 1.4439347726e-001
 3.2495665234e+000	 1.3873752720e+000	 9.9647885202e-002
 3.4028805196e+000	 1.0459726781e+000	 4.6829789509e-001
 3.3918001691e+000	 1.0813631861e+000	 4.4170858830e-001
 3.3803222564e+000	 1.1167257241e+000	 4.1737839051e-001
 3.3684457688e+000	 1.1520539374e+000	 3.9283053856e-001
 3.3561698223e+000	 1.1873414200e+000	 3.6571078301e-001
 3.3434936637e+000	 1.2225817174e+000	 3.3384727650e-001
 3.3304166728e+000	 1.2577683297e+000	 2.9530583503e-001
 3.3169383640e+000	 1.2928947151e+000	 2.4840595301e-001
 3.3030583882e+000	 1.3279542932e+000	 1.9242298387e-001
 3.2887765350e+000	 1.3629404481e+000	 1.3653180671e-001
 3.2740927337e+000	 1.3978465325e+000	 9.5774345691e-002
 3.4283714785e+000	 1.0538080536e+000	 4.5499127011e-001
 3.4172081252e+000	 1.0894636717e+000	 4.2904237875e-001
 3.4056442315e+000	 1.1250911102e+000	 4.0529603491e-001
 3.3936787772e+000	 1.1606839670e+000	 3.8124772219e-001
 3.3813108716e+000	 1.1962357880e+000	 3.5451127880e-001
 3.3685397560e+000	 1.2317400702e+000	 3.2287937576e-001
 3.3553648054e+000	 1.2671902652e+000	 2.8438857955e-001
 3.3417855307e+000	 1.3025797822e+000	 2.3738904230e-001
 3.3278015801e+000	 1.3379019914e+000	 1.8085287174e-001
 3.3134127416e+000	 1.3731502274e+000	 1.2988382317e-001
 3.2986189440e+000	 1.4083177931e+000	 9.2472599149e-002
 3.4538624374e+000	 1.0616434291e+000	 4.4449910020e-001
 3.4426160813e+000	 1.0975641573e+000	 4.1912400691e-001
 3.4309662066e+000	 1.1334564964e+000	 3.9576734697e-001
 3.4189117856e+000	 1.1693139966e+000	 3.7191558591e-001
 3.4064519210e+000	 1.2051301559e+000	 3.4516914619e-001
 3.3935858483e+000	 1.2408984230e+000	 3.1330341159e-001
 3.3803129381e+000	 1.2766122007e+000	 2.7433454146e-001
 3.3666326974e+000	 1.3122648493e+000	 2.2659014975e-001
 3.3525447720e+000	 1.3478496895e+000	 1.7090138332e-001
 3.3380489483e+000	 1.3833600067e+000	 1.2459178269e-001
 3.3231451544e+000	 1.4187890536e+000	 8.9850411571e-002
 3.4793533964e+000	 1.0694788046e+000	 4.3713699317e-001
 3.4680240374e+000	 1.1056646428e+000	 4.1220967333e-001
 3.4562881817e+000	 1.1418218825e+000	 3.8899646969e-001
 3.4441447940e+000	 1.1779440262e+000	 3.6499359281e-001
 3.4315929703e+000	 1.2140245238e+000	 3.3780651454e-001
 3.4186319407e+000	 1.2500567758e+000	 3.0521143205e-001
 3.4052610708e+000	 1.2860341363e+000	 2.6522177541e-001
 3.3914798641e+000	 1.3219499164e+000	 2.1615982594e-001
 3.3772879639e+000	 1.3577973877e+000	 1.6244066923e-001
 3.3626851549e+000	 1.3935697859e+000	 1.1997121996e-001
 3.3476713647e+000	 1.4292603142e+000	 8.7706917535e-002
 3.5048443553e+000	 1.0773141800e+000	 4.3322528145e-001
 3.4934319935e+000	 1.1137651284e+000	 4.0856079113e-001
 3.4816101568e+000	 1.1501872686e+000	 3.8519322589e-001
 3.4693778024e+000	 1.1865740558e+000	 3.6064735723e-001
 3.4567340197e+000	 1.2229188917e+000	 3.3255216376e-001
 3.4436780330e+000	 1.2592151286e+000	 2.9870268539e-001
 3.4302092034e+000	 1.2954560718e+000	 2.5712716349e-001
 3.4163270308e+000	 1.3316349834e+000	 2.0615954697e-001
 3.4020311558e+000	 1.3677450859e+000	 1.5524403333e-001
 3.3873213615e+000	 1.4037795652e+000	 1.1551572366e-001
 3.3721975751e+000	 1.4397315747e+000	 8.4882356580e-002
 3.1269354717e+000	 1.3350189692e+000	 1.2029522830e-001
 3.1125300238e+000	 1.3682683376e+000	 6.4636700198e-002
 3.0977410833e+000	 1.4014284891e+000	 1.7034475518e-002
 3.0825689947e+000	 1.4344930095e+000	-2.3582167382e-002
 3.0670142412e+000	 1.4674554686e+000	-5.8476462391e-002
 3.0510774461e+000	 1.5003094234e+000	-8.9096071912e-002
 3.0347593738e+000	 1.5330484222e+000	-1.1706213650e-001
 3.0180609300e+000	 1.5656660084e+000	-1.4415543936e-001
 3.0009831633e+000	 1.5981557240e+000	-1.7229969344e-001
 2.9835272650e+000	 1.6305111137e+000	-2.0354198550e-001
 2.9656945701e+000	 1.6627257286e+000	-2.4003043901e-001
 3.1514616820e+000	 1.3454902298e+000	 1.1695132349e-001
 3.1369432446e+000	 1.3790003905e+000	 6.5780509618e-002
 3.1220383066e+000	 1.4124206346e+000	 2.1030756500e-002
 3.1067472152e+000	 1.4457444976e+000	-1.8075508766e-002
 3.0910704576e+000	 1.4789654987e+000	-5.2514242720e-002
 3.0750086618e+000	 1.5120771445e+000	-8.3452052622e-002
 3.0585625982e+000	 1.5450729326e+000	-1.1223543786e-001
 3.0417331797e+000	 1.5779463558e+000	-1.4037698469e-001
 3.0245214630e+000	 1.6106909054e+000	-1.6953852092e-001
 3.0069286489e+000	 1.6433000755e+000	-2.0151126513e-001
 2.9889560827e+000	 1.6757673668e+000	-2.3819303420e-001
 3.1759878923e+000	 1.3559614903e+000	 1.1287421931e-001
 3.1613564654e+000	 1.3897324435e+000	 6.5919763041e-002
 3.1463355299e+000	 1.4234127802e+000	 2.3905464144e-002
 3.1309254358e+000	 1.4569959857e+000	-1.3674349489e-002
 3.1151266740e+000	 1.4904755289e+000	-4.7531005882e-002
 3.0989398775e+000	 1.5238448656e+000	-7.8574068674e-002
 3.0823658226e+000	 1.5570974430e+000	-1.0790072212e-001
 3.0654054293e+000	 1.5902267032e+000	-1.3678193795e-001
 3.0480597627e+000	 1.6232260869e+000	-1.6664542953e-001
 3.0303300327e+000	 1.6560890374e+000	-1.9905542850e-001
 3.0122175953e+000	 1.6888090049e+000	-2.3568934924e-001
 3.2005141027e+000	 1.3664327509e+000	 1.0843150657e-001
 3.1857696862e+000	 1.4004644964e+000	 6.5369822188e-002
 3.1706327532e+000	 1.4344049258e+000	 2.5919915779e-002
 3.1551036564e+000	 1.4682474739e+000	-1.0172386860e-002
 3.1391828904e+000	 1.5019855590e+000	-4.3375629706e-002
 3.1228710932e+000	 1.5356125867e+000	-7.4365581031e-002
 3.1061690470e+000	 1.5691219534e+000	-1.0401471397e-001
 3.0890776790e+000	 1.6025070506e+000	-1.3337828719e-001
 3.0715980624e+000	 1.6357612683e+000	-1.6367703005e-001
 3.0537314166e+000	 1.6688779993e+000	-1.9627646797e-001
 3.0354791079e+000	 1.7018506431e+000	-2.3266295541e-001
 3.2250403130e+000	 1.3769040114e+000	 1.0393616944e-001
 3.2101829069e+000	 1.4111965494e+000	 6.4391300556e-002
 3.1949299765e+000	 1.4453970713e+000	 2.7280916411e-002
 3.1792818770e+000	 1.4794989620e+000	-7.4172427280e-003
 3.1632391068e+000	 1.5134955891e+000	-3.9950004107e-002
 3.1468023089e+000	 1.5473803077e+000	-7.0781854441e-002
 3.1299722714e+000	 1.5811464638e+000	-1.0058446813e-001
 3.1127499287e+000	 1.6147873980e+000	-1.3022264320e-001
 3.0951363621e+000	 1.6482964497e+000	-1.6073664850e-001
 3.0771328004e+000	 1.6816669612e+000	-1.9332101831e-001
 3.0587406205e+000	 1.7148922812e+000	-2.2929986424e-001
 3.2495665234e+000	 1.3873752720e+000	 9.9647885202e-002
 3.2345961277e+000	 1.4219286023e+000	 6.3191520068e-002
 3.2192271998e+000	 1.4563892169e+000	 2.8142370404e-002
 3.2034600975e+000	 1.4907504501e+000	-5.3086979728e-003
 3.1872953232e+000	 1.5250056192e+000	-3.7207112356e-002
 3.1707335246e+000	 1.5591480288e+000	-6.7827885521e-002
 3.1537754958e+000	 1.5931709742e+000	-9.7665143690e-002
 3.1364221784e+000	 1.6270677453e+000	-1.2741785903e-001
 3.1186746618e+000	 1.6608316311e+000	-1.5797178921e-001
 3.1005341843e+000	 1.6944559230e+000	-1.9037766103e-001
 3.0820021331e+000	 1.7279339194e+000	-2.2582567030e-001
 3.2740927337e+000	 1.3978465325e+000	 9.5774345691e-002
 3.2590093485e+000	 1.4326606553e+000	 6.1925987903e-002
 3.2435244231e+000	 1.4673813625e+000	 2.8606912182e-002
 3.2276383181e+000	 1.5020019382e+000	-3.7969089180e-003
 3.2113515396e+000	 1.5365156494e+000	-3.5149095055e-002
 3.1946647403e+000	 1.5709157499e+000	-6.5556314172e-002
 3.1775787202e+000	 1.6051954846e+000	-9.5357762353e-002
 3.1600944280e+000	 1.6393480927e+000	-1.2511063379e-001
 3.1422129615e+000	 1.6733668126e+000	-1.5557158250e-001
 3.1239355681e+000	 1.7072448849e+000	-1.8767421366e-001
 3.1052636456e+000	 1.7409755575e+000	-2.2250267948e-001
 3.2986189440e+000	 1.4083177931e+000	 9.2472599149e-002
 3.2834225693e+000	 1.4433927082e+000	 6.0699892466e-002
 3.2678216464e+000	 1.4783735081e+000	 2.8727554967e-002
 3.2518165387e+000	 1.5132534263e+000	-2.8806066279e-003
 3.2354077560e+000	 1.5480256795e+000	-3.3825297713e-002
 3.2185959559e+000	 1.5826834710e+000	-6.4065319180e-002
 3.2013819446e+000	 1.6172199950e+000	-9.3806951253e-002
 3.1837666777e+000	 1.6516284401e+000	-1.2348910148e-001
 3.1657512612e+000	 1.6859019940e+000	-1.5376421772e-001
 3.1473369520e+000	 1.7200338468e+000	-1.8547500493e-001
 3.1285251582e+000	 1.7540171957e+000	-2.1962702350e-001
 3.3231451544e+000	 1.4187890536e+000	 8.9850411571e-002
 3.3078357901e+000	 1.4541247611e+000	 5.9569617510e-002
 3.2921188697e+000	 1.4893656536e+000	 2.8509356595e-002
 3.2759947593e+000	 1.5245049144e+000	-2.6052799608e-003
 3.2594639724e+000	 1.5595357096e+000	-3.3330302776e-002
 3.2425271716e+000	 1.5944511921e+000	-6.3496498832e-002
 3.2251851690e+000	 1.6292445053e+000	-9.3198671306e-002
 3.2074389274e+000	 1.6639087875e+000	-1.2278040576e-001
 3.1892895609e+000	 1.6984371754e+000	-1.5281436271e-001
 3.1707383359e+000	 1.7328228087e+000	-1.8407813652e-001
 3.1517866708e+000	 1.7670588338e+000	-2.1752576139e-001
 3.3476713647e+000	 1.4292603142e+000	 8.7706917535e-002
 3.3322490109e+000	 1.4648568141e+000	 5.8544273479e-002
 3.3164160930e+000	 1.5003577992e+000	 2.7911101573e-002
 3.3001729799e+000	 1.5357564025e+000	-3.0613432167e-003
 3.2835201888e+000	 1.5710457397e+000	-3.3801946902e-002
 3.2664583873e+000	 1.6062189132e+000	-6.4032737298e-002
 3.2489883934e+000	 1.6412690157e+000	-9.3757931750e-002
 3.2311111771e+000	 1.6761891349e+000	-1.2324826122e-001
 3.2128278607e+000	 1.7109723568e+000	-1.5302056995e-001
 3.1941397197e+000	 1.7456117705e+000	-1.8381273203e-001
 3.1750481834e+000	 1.7801004720e+000	-2.1655396864e-001
 3.3721975751e+000	 1.4397315747e+000	 8.4882356580e-002
 3.3566622317e+000	 1.4755888670e+000	 5.6818723750e-002
 3.3407133163e+000	 1.5113499448e+000	 2.6769097672e-002
 3.3243512004e+000	 1.5470078906e+000	-4.3822891606e-003
 3.3075764053e+000	 1.5825557699e+000	-3.5419324237e-002
 3.2903896030e+000	 1.6179866343e+000	-6.5896057525e-002
 3.2727916178e+000	 1.6532935261e+000	-9.5746491602e-002
 3.2547834267e+000	 1.6884694823e+000	-1.2519050196e-001
 3.2363661604e+000	 1.7235075382e+000	-1.5471267050e-001
 3.2175411036e+000	 1.7584007324e+000	-1.8503617392e-001
 3.1983096960e+000	 1.7931421101e+000	-2.1709181451e-001
 2.9656945701e+000	 1.6627257286e+000	-2.4003043901e-001
 2.9474837982e+000	 1.6947979300e+000	-2.7837488185e-001
 2.9288992217e+000	 1.7267164490e+000	-3.1420111332e-001
 2.9099426108e+000	 1.7584748791e+000	-3.4827089010e-001
 2.8906158798e+000	 1.7900668359e+000	-3.8133622352e-001
 2.8709210869e+000	 1.8214859618e+000	-4.1410765533e-001
 2.8508604341e+000	 1.8527259292e+000	-4.4722071326e-001
 2.8304362665e+000	 1.8837804452e+000	-4.8120078771e-001
 2.8096510718e+000	 1.9146432551e+000	-5.1642669306e-001
 2.7885074799e+000	 1.9453081468e+000	-5.5309319739e-001
 2.7670082615e+000	 1.9757689547e+000	-5.9117282347e-001
 2.9889560827e+000	 1.6757673668e+000	-2.3819303420e-001
 2.9706024740e+000	 1.7080911274e+000	-2.7606555542e-001
 2.9518721289e+000	 1.7402600002e+000	-3.1094682096e-001
 2.9327668313e+000	 1.7722675285e+000	-3.4383882026e-001
 2.9132885105e+000	 1.8041072778e+000	-3.7574077932e-001
 2.8934392409e+000	 1.8357728405e+000	-4.0761545582e-001
 2.8732212418e+000	 1.8672578395e+000	-4.4035347756e-001
 2.8526368766e+000	 1.8985559325e+000	-4.7473597862e-001
 2.8316886526e+000	 1.9296608158e+000	-5.1139581067e-001
 2.8103792203e+000	 1.9605662285e+000	-5.5077762922e-001
 2.7887113722e+000	 1.9912659566e+000	-5.9309717364e-001
 3.0122175953e+000	 1.6888090049e+000	-2.3568934924e-001
 2.9937211499e+000	 1.7213843248e+000	-2.7295222330e-001
 2.9748450361e+000	 1.7538035515e+000	-3.0687341622e-001
 2.9555910517e+000	 1.7860601779e+000	-3.3867764508e-001
 2.9359611411e+000	 1.8181477197e+000	-3.6959422169e-001
 2.9159573949e+000	 1.8500597192e+000	-4.0082131661e-001
 2.8955820494e+000	 1.8817897498e+000	-4.3348812403e-001
 2.8748374867e+000	 1.9133314198e+000	-4.6861519509e-001
 2.8537262335e+000	 1.9446783765e+000	-5.0707323227e-001
 2.8322509608e+000	 1.9758243102e+000	-5.4954066023e-001
 2.8104144828e+000	 2.0067629585e+000	-5.9600477368e-001
 3.0354791079e+000	 1.7018506431e+000	-2.3266295541e-001
 3.0168398258e+000	 1.7346775222e+000	-2.6921505012e-001
 2.9978179433e+000	 1.7673471027e+000	-3.0219227318e-001
 2.9784152722e+000	 1.7998528273e+000	-3.3302525512e-001
 2.9586337718e+000	 1.8321881615e+000	-3.6315699265e-001
 2.9384755489e+000	 1.8643465979e+000	-3.9400502768e-001
 2.9179428571e+000	 1.8963216601e+000	-4.2692137824e-001
 2.8970380968e+000	 1.9281069071e+000	-4.6315050299e-001
 2.8757638143e+000	 1.9596959371e+000	-5.0378560712e-001
 2.8541227012e+000	 1.9910823918e+000	-5.4972362192e-001
 2.8321175935e+000	 2.0222599604e+000	-5.9674053228e-001
 3.0587406205e+000	 1.7148922812e+000	-2.2929986424e-001
 3.0399585016e+000	 1.7479707196e+000	-2.6507436646e-001
 3.0207908505e+000	 1.7808906540e+000	-2.9715262123e-001
 3.0012394926e+000	 1.8136454768e+000	-3.2715505404e-001
 2.9813064025e+000	 1.8462286034e+000	-3.5672267908e-001
 2.9609937029e+000	 1.8786334766e+000	-3.8747713573e-001
 2.9403036647e+000	 1.9108535705e+000	-4.2097832144e-001
 2.9192387069e+000	 1.9428823945e+000	-4.5867991715e-001
 2.8978013951e+000	 1.9747134978e+000	-5.0188312922e-001
 2.8759944416e+000	 2.0063404735e+000	-5.5129542206e-001
 2.8538207042e+000	 2.0377569623e+000	-5.9506946515e-001
 3.0820021331e+000	 1.7279339194e+000	-2.2582567030e-001
 3.0630771775e+000	 1.7612639170e+000	-2.6078764605e-001
 3.0437637577e+000	 1.7944342052e+000	-2.9203835230e-001
 3.0240637131e+000	 1.8274381262e+000	-3.2137259218e-001
 3.0039790332e+000	 1.8602690453e+000	-3.5061446975e-001
 2.9835118568e+000	 1.8929203553e+000	-3.8157522275e-001
 2.9626644724e+000	 1.9253854808e+000	-4.1600848936e-001
 2.9414393170e+000	 1.9576578818e+000	-4.5556332038e-001
 2.9198389759e+000	 1.9897310585e+000	-5.0173527688e-001
 2.8978661821e+000	 2.0215985551e+000	-5.5130328857e-001
 2.8755238149e+000	 2.0532539642e+000	-5.9152865869e-001
 3.1052636456e+000	 1.7409755575e+000	-2.2250267948e-001
 3.0861958534e+000	 1.7745571144e+000	-2.5664646900e-001
 3.0667366648e+000	 1.8079777565e+000	-2.8716481474e-001
 3.0468879335e+000	 1.8412307756e+000	-3.1601218759e-001
 3.0266516638e+000	 1.8743094872e+000	-3.4518160078e-001
 3.0060300108e+000	 1.9072072340e+000	-3.7666017389e-001
 2.9850252801e+000	 1.9399173911e+000	-4.1238196160e-001
 2.9636399271e+000	 1.9724333691e+000	-4.5417837383e-001
 2.9418765567e+000	 2.0047486192e+000	-5.0351076069e-001
 2.9197379225e+000	 2.0368566368e+000	-5.4950953593e-001
 2.8972269256e+000	 2.0687509661e+000	-5.8665733866e-001
 3.1285251582e+000	 1.7540171957e+000	-2.1962702350e-001
 3.1093145292e+000	 1.7878503118e+000	-2.5297347187e-001
 3.0897095720e+000	 1.8215213077e+000	-2.8287559469e-001
 3.0697121540e+000	 1.8550234251e+000	-3.1143353528e-001
 3.0493242945e+000	 1.8883499290e+000	-3.4079579013e-001
 3.0285481648e+000	 1.9214941128e+000	-3.7311243548e-001
 3.0073860877e+000	 1.9544493014e+000	-4.1048544190e-001
 2.9858405372e+000	 1.9872088564e+000	-4.5491641956e-001
 2.9639141376e+000	 2.0197661799e+000	-5.0456086701e-001
 2.9416096629e+000	 2.0521147185e+000	-5.4646602164e-001
 2.9189300362e+000	 2.0842479680e+000	-5.8099578917e-001
 3.1517866708e+000	 1.7670588338e+000	-2.1752576139e-001
 3.1324332051e+000	 1.8011435092e+000	-2.5011928510e-001
 3.1126824792e+000	 1.8350648590e+000	-2.7953928545e-001
 3.0925363745e+000	 1.8688160745e+000	-3.0801830522e-001
 3.0719969252e+000	 1.9023903709e+000	-3.3784766171e-001
 3.0510663188e+000	 1.9357809915e+000	-3.7132826338e-001
 3.0297468954e+000	 1.9689812117e+000	-4.1071832989e-001
 3.0080411473e+000	 2.0019843437e+000	-4.5814176302e-001
 2.9859517184e+000	 2.0347837405e+000	-5.0442801517e-001
 2.9634814034e+000	 2.0673728001e+000	-5.4272501568e-001
 2.9406331469e+000	 2.0997449699e+000	-5.7508426696e-001
 3.1750481834e+000	 1.7801004720e+000	-2.1655396864e-001
 3.1555518810e+000	 1.8144367066e+000	-2.4845945857e-001
 3.1356553864e+000	 1.8486084102e+000	-2.7754624560e-001
 3.1153605949e+000	 1.8826087239e+000	-3.0616672976e-001
 3.0946695558e+000	 1.9164308128e+000	-3.3674315966e-001
 3.0735844728e+000	 1.9500678702e+000	-3.7171596241e-001
 3.0521077031e+000	 1.9835131220e+000	-4.1348878476e-001
 3.0302417574e+000	 2.0167598311e+000	-4.6179503626e-001
 3.0079892992e+000	 2.0498013012e+000	-5.0367664752e-001
 2.9853531438e+000	 2.0826308818e+000	-5.3883816167e-001
 2.9623362576e+000	 2.1152419718e+000	-5.6946191133e-001
 3.1983096960e+000	 1.7931421101e+000	-2.1709181451e-001
 3.1786705568e+000	 1.8277299040e+000	-2.4839137591e-001
 3.1586282936e+000	 1.8621519615e+000	-2.7730534630e-001
 3.1381848154e+000	 1.8964013734e+000	-3.0629418096e-001
 3.1173421865e+000	 1.9304712547e+000	-3.3789995323e-001
 3.0961026268e+000	 1.9643547489e+000	-3.7469211721e-001
 3.0744685107e+000	 1.9980450323e+000	-4.1920978108e-001
 3.0524423675e+000	 2.0315353184e+000	-4.6491021193e-001
 3.0300268800e+000	 2.0648188619e+000	-5.0287008190e-001
 3.0072248842e+000	 2.0978889635e+000	-5.3535543303e-001
 2.9840393683e+000	 2.1307389737e+000	-5.6466564973e-001
 2.7670082615e+000	 1.9757689547e+000	-5.9117282347e-001
 2.7451563267e+000	 2.0060195626e+000	-6.3323162177e-001
 2.7229547217e+000	 2.0360539061e+000	-6.7183700301e-001
 2.7004066295e+000	 2.0658659783e+000	-7.0399240911e-001
 2.6775153696e+000	 2.0954498343e+000	-7.3260454453e-001
 2.6542843967e+000	 2.1247995951e+000	-7.5901547896e-001
 2.6307172986e+000	 2.1539094513e+000	-7.7777164431e-001
 2.6068177947e+000	 2.1827736670e+000	-7.8940984370e-001
 2.5825897342e+000	 2.2113865834e+000	-7.9563944839e-001
 2.5580370939e+000	 2.2397426226e+000	-7.9823699407e-001
 2.5331639763e+000	 2.2678362910e+000	-7.9902402735e-001
 2.7887113722e+000	 1.9912659566e+000	-5.9309717364e-001
 2.7666880411e+000	 2.0217538360e+000	-6.3620084269e-001
 2.7443122971e+000	 2.0520237548e+000	-6.7124923526e-001
 2.7215873483e+000	 2.0820696589e+000	-7.0012716160e-001
 2.6985165402e+000	 2.1118855567e+000	-7.2539883990e-001
 2.6751033544e+000	 2.1414655232e+000	-7.4952638218e-001
 2.6513514071e+000	 2.1708037034e+000	-7.7258361732e-001
 2.6272644467e+000	 2.1998943164e+000	-7.8839427386e-001
 2.6028463527e+000	 2.2287316591e+000	-7.9758015179e-001
 2.5781011331e+000	 2.2573101097e+000	-8.0150878392e-001
 2.5530329225e+000	 2.2856241316e+000	-8.0160142209e-001
 2.8104144828e+000	 2.0067629585e+000	-5.9600477368e-001
 2.7882197555e+000	 2.0374881094e+000	-6.3618536612e-001
 2.7656698726e+000	 2.0679936035e+000	-6.6816766226e-001
 2.7427680671e+000	 2.0982733394e+000	-6.9428010505e-001
 2.7195177107e+000	 2.1283212791e+000	-7.1676008351e-001
 2.6959223122e+000	 2.1581314513e+000	-7.3774135734e-001
 2.6719855156e+000	 2.1876979556e+000	-7.5924183472e-001
 2.6477110988e+000	 2.2170149659e+000	-7.7964043071e-001
 2.6231029713e+000	 2.2460767348e+000	-7.9255281693e-001
 2.5981651723e+000	 2.2748775969e+000	-7.9868163385e-001
 2.5729018686e+000	 2.3034119723e+000	-7.9906055849e-001
 2.8321175935e+000	 2.0222599604e+000	-5.9674053228e-001
 2.8097514699e+000	 2.0532223829e+000	-6.3370408654e-001
 2.7870274480e+000	 2.0839634522e+000	-6.6309898432e-001
 2.7639487859e+000	 2.1144770200e+000	-6.8694400397e-001
 2.7405188813e+000	 2.1447570015e+000	-7.0716512323e-001
 2.7167412699e+000	 2.1747973795e+000	-7.2558298017e-001
 2.6926196241e+000	 2.2045922077e+000	-7.4390069976e-001
 2.6681577508e+000	 2.2341356153e+000	-7.6369218041e-001
 2.6433595898e+000	 2.2634218105e+000	-7.8107471328e-001
 2.6182292115e+000	 2.2924450840e+000	-7.9026241346e-001
 2.5927708148e+000	 2.3211998129e+000	-7.9189337234e-001
 2.8538207042e+000	 2.0377569623e+000	-5.9506946515e-001
 2.8312831843e+000	 2.0689566563e+000	-6.2927998449e-001
 2.8083850235e+000	 2.0999333008e+000	-6.5655385593e-001
 2.7851295047e+000	 2.1306807005e+000	-6.7861552938e-001
 2.7615200518e+000	 2.1611927239e+000	-6.9709476525e-001
 2.7375602276e+000	 2.1914633076e+000	-7.1351408453e-001
 2.7132537326e+000	 2.2214864598e+000	-7.2927659664e-001
 2.6886044029e+000	 2.2512562648e+000	-7.4565430370e-001
 2.6636162084e+000	 2.2807668862e+000	-7.6368481323e-001
 2.6382932507e+000	 2.3100125711e+000	-7.7677986749e-001
 2.6126397609e+000	 2.3389876536e+000	-7.8061403311e-001
 2.8755238149e+000	 2.0532539642e+000	-5.9152865869e-001
 2.8528148987e+000	 2.0846909297e+000	-6.2343900090e-001
 2.8297425989e+000	 2.1159031495e+000	-6.4904570463e-001
 2.8063102236e+000	 2.1468843811e+000	-6.6979402076e-001
 2.7825212224e+000	 2.1776284463e+000	-6.8703247785e-001
 2.7583791854e+000	 2.2081292357e+000	-7.0200027293e-001
 2.7338878411e+000	 2.2383807119e+000	-7.1581505314e-001
 2.7090510549e+000	 2.2683769142e+000	-7.2946119030e-001
 2.6838728269e+000	 2.2981119619e+000	-7.4377864892e-001
 2.6583572899e+000	 2.3275800583e+000	-7.5878185034e-001
 2.6325087071e+000	 2.3567754942e+000	-7.6575605272e-001
 2.8972269256e+000	 2.0687509661e+000	-5.8665733866e-001
 2.8743466130e+000	 2.1004252032e+000	-6.1670890739e-001
 2.8511001744e+000	 2.1318729982e+000	-6.4108954676e-001
 2.8274909424e+000	 2.1630880617e+000	-6.6098024639e-001
 2.8035223929e+000	 2.1940641687e+000	-6.7746309462e-001
 2.7791981431e+000	 2.2247951638e+000	-6.9150856121e-001
 2.7545219496e+000	 2.2552749641e+000	-7.0396318417e-001
 2.7294977070e+000	 2.2854975637e+000	-7.1553776692e-001
 2.7041294454e+000	 2.3154570376e+000	-7.2679619003e-001
 2.6784213290e+000	 2.3451475454e+000	-7.3814493947e-001
 2.6523776532e+000	 2.3745633349e+000	-7.4786940532e-001
 2.9189300362e+000	 2.0842479680e+000	-5.8099578917e-001
 2.8958783274e+000	 2.1161594766e+000	-6.0961817264e-001
 2.8724577498e+000	 2.1478428469e+000	-6.3320080049e-001
 2.8486716612e+000	 2.1792917422e+000	-6.5267516187e-001
 2.8245235635e+000	 2.2104998912e+000	-6.6887151739e-001
 2.8000171008e+000	 2.2414610919e+000	-6.8250602405e-001
 2.7751560581e+000	 2.2721692162e+000	-6.9416827818e-001
 2.7499443590e+000	 2.3026182132e+000	-7.0430938651e-001
 2.7243860640e+000	 2.3328021133e+000	-7.1323067407e-001
 2.6984853682e+000	 2.3627150325e+000	-7.2107313492e-001
 2.6722465994e+000	 2.3923511755e+000	-7.2780772796e-001
 2.9406331469e+000	 2.0997449699e+000	-5.7508426696e-001
 2.9174100418e+000	 2.1318937500e+000	-6.0269482495e-001
 2.8938153252e+000	 2.1638126956e+000	-6.2589409608e-001
 2.8698523800e+000	 2.1954954228e+000	-6.4537866717e-001
 2.8455247340e+000	 2.2269356136e+000	-6.6174141870e-001
 2.8208360586e+000	 2.2581270200e+000	-6.7545844157e-001
 2.7957901666e+000	 2.2890634683e+000	-6.8687638600e-001
 2.7703910110e+000	 2.3197388626e+000	-6.9620035736e-001
 2.7446426825e+000	 2.3501471890e+000	-7.0348247187e-001
 2.7185494074e+000	 2.3802825197e+000	-7.0861118253e-001
 2.6921155456e+000	 2.4101390162e+000	-7.1130148189e-001
 2.9623362576e+000	 2.1152419718e+000	-5.6946191133e-001
 2.9389417562e+000	 2.1476280235e+000	-5.9646531139e-001
 2.9151729007e+000	 2.1797825443e+000	-6.1968208354e-001
 2.8910330989e+000	 2.2116991033e+000	-6.3958836204e-001
 2.8665259046e+000	 2.2433713360e+000	-6.5655394399e-001
 2.8416550163e+000	 2.2747929482e+000	-6.7082894671e-001
 2.8164242751e+000	 2.3059577205e+000	-6.8253091189e-001
 2.7908376631e+000	 2.3368595121e+000	-6.9163247595e-001
 2.7648993011e+000	 2.3674922647e+000	-6.9794972452e-001
 2.7386134466e+000	 2.3978500068e+000	-7.0113134572e-001
 2.7119844917e+000	 2.4279268568e+000	-7.0064869334e-001
 2.9840393683e+000	 2.1307389737e+000	-5.6466564973e-001
 2.9604734706e+000	 2.1633622969e+000	-5.9145335350e-001
 2.9365304761e+000	 2.1957523930e+000	-6.1507423801e-001
 2.9122138177e+000	 2.2279027839e+000	-6.3579830014e-001
 2.8875270751e+000	 2.2598070584e+000	-6.5378641337e-001
 2.8624739740e+000	 2.2914588763e+000	-6.6907667358e-001
 2.8370583836e+000	 2.3228519726e+000	-6.8157120682e-001
 2.8112843151e+000	 2.3539801615e+000	-6.9102356340e-001
 2.7851559196e+000	 2.3848373405e+000	-6.9702682113e-001
 2.7586774858e+000	 2.4154174939e+000	-6.9900251731e-001
 2.7318534379e+000	 2.4457146975e+000	-6.9619052529e-001
 2.5331639763e+000	 2.2678362910e+000	-7.9902402735e-001
 2.5079784091e+000	 2.2956580300e+000	-8.0520988361e-001
 2.4824810320e+000	 2.3232067631e+000	-8.2091012208e-001
 2.4566763103e+000	 2.3504772753e+000	-8.4337347486e-001
 2.4305688249e+000	 2.3774644495e+000	-8.6990112042e-001
 2.4041632699e+000	 2.4041632699e+000	-8.9783253548e-001
 2.3774644495e+000	 2.4305688249e+000	-9.2453166512e-001
 2.3504772753e+000	 2.4566763103e+000	-9.4737359981e-001
 2.3232067631e+000	 2.4824810320e+000	-9.6373194215e-001
 2.2956580300e+000	 2.5079784091e+000	-9.7096703878e-001
 2.2678362910e+000	 2.5331639763e+000	-9.6641524364e-001
 2.5530329225e+000	 2.2856241316e+000	-8.0160142209e-001
 2.5276498115e+000	 2.3136640913e+000	-8.0550132022e-001
 2.5019524450e+000	 2.3414289037e+000	-8.1826227072e-001
 2.4759453232e+000	 2.3689133129e+000	-8.3749113011e-001
 2.4496330630e+000	 2.3961121619e+000	-8.6083892647e-001
 2.4230203952e+000	 2.4230203952e+000	-8.8598488488e-001
 2.3961121619e+000	 2.4496330630e+000	-9.1062081617e-001
 2.3689133129e+000	 2.4759453232e+000	-9.3243607010e-001
 2.3414289037e+000	 2.5019524450e+000	-9.4910324778e-001
 2.3136640913e+000	 2.5276498115e+000	-9.5826486001e-001
 2.2856241316e+000	 2.5530329225e+000	-9.5752110905e-001
 2.5729018686e+000	 2.3034119723e+000	-7.9906055849e-001
 2.5473212140e+000	 2.3316701525e+000	-8.0167170322e-001
 2.5214238580e+000	 2.3596510443e+000	-8.1239280705e-001
 2.4952143361e+000	 2.3873493506e+000	-8.2917223527e-001
 2.4686973011e+000	 2.4147598742e+000	-8.4999431202e-001
 2.4418775206e+000	 2.4418775206e+000	-8.7286147837e-001
 2.4147598742e+000	 2.4686973011e+000	-8.9577686026e-001
 2.3873493506e+000	 2.4952143361e+000	-9.1672746044e-001
 2.3596510443e+000	 2.5214238580e+000	-9.3366818132e-001
 2.3316701525e+000	 2.5473212140e+000	-9.4450687772e-001
 2.3034119723e+000	 2.5729018686e+000	-9.4709062777e-001
 2.5927708148e+000	 2.3211998129e+000	-7.9189337234e-001
 2.5669926164e+000	 2.3496762138e+000	-7.9419749535e-001
 2.5408952710e+000	 2.3778731848e+000	-8.0376661507e-001
 2.5144833490e+000	 2.4057853882e+000	-8.1887450211e-001
 2.4877615391e+000	 2.4334075865e+000	-8.3782272119e-001
 2.4607346459e+000	 2.4607346459e+000	-8.5892087787e-001
 2.4334075865e+000	 2.4877615391e+000	-8.8046732370e-001
 2.4057853882e+000	 2.5144833490e+000	-9.0073054662e-001
 2.3778731848e+000	 2.5408952710e+000	-9.1793146682e-001
 2.3496762138e+000	 2.5669926164e+000	-9.3022684901e-001
 2.3211998129e+000	 2.5927708148e+000	-9.3569403138e-001
 2.6126397609e+000	 2.3389876536e+000	-7.8061403311e-001
 2.5866640188e+000	 2.3676822751e+000	-7.8357783361e-001
 2.5603666840e+000	 2.3960953254e+000	-7.9287165766e-001
 2.5337523619e+000	 2.4242214259e+000	-8.0707909081e-001
 2.5068257772e+000	 2.4520552989e+000	-8.2480338121e-001
 2.4795917712e+000	 2.4795917712e+000	-8.4464572855e-001
 2.4520552989e+000	 2.5068257772e+000	-8.6518408127e-001
 2.4242214259e+000	 2.5337523619e+000	-8.8495268269e-001
 2.3960953254e+000	 2.5603666840e+000	-9.0242259964e-001
 2.3676822751e+000	 2.5866640188e+000	-9.1598345719e-001
 2.3389876536e+000	 2.6126397609e+000	-9.2392659188e-001
 2.6325087071e+000	 2.3567754942e+000	-7.6575605272e-001
 2.6063354212e+000	 2.3856883364e+000	-7.7033151413e-001
 2.5798380970e+000	 2.4143174660e+000	-7.8021584449e-001
 2.5530213748e+000	 2.4426574635e+000	-7.9428736813e-001
 2.5258900153e+000	 2.4707030112e+000	-8.1143595907e-001
 2.4984488965e+000	 2.4984488965e+000	-8.3053932249e-001
 2.4707030112e+000	 2.5258900153e+000	-8.5043983615e-001
 2.4426574635e+000	 2.5530213748e+000	-8.6992220676e-001
 2.4143174660e+000	 2.5798380970e+000	-8.8769218848e-001
 2.3856883364e+000	 2.6063354212e+000	-9.0235660050e-001
 2.3567754942e+000	 2.6325087071e+000	-9.1240486862e-001
 2.6523776532e+000	 2.3745633349e+000	-7.4786940532e-001
 2.6260068236e+000	 2.4036943977e+000	-7.5499399047e-001
 2.5993095100e+000	 2.4325396066e+000	-7.6632391541e-001
 2.5722903877e+000	 2.4610935011e+000	-7.8101768333e-001
 2.5449542533e+000	 2.4893507235e+000	-7.9823723764e-001
 2.5173060218e+000	 2.5173060218e+000	-8.1712218336e-001
 2.4893507235e+000	 2.5449542533e+000	-8.3676462206e-001
 2.4610935011e+000	 2.5722903877e+000	-8.5618487002e-001
 2.4325396066e+000	 2.5993095100e+000	-8.7430832112e-001
 2.4036943977e+000	 2.6260068236e+000	-8.8994370517e-001
 2.3745633349e+000	 2.6523776532e+000	-9.0176297931e-001
 2.6722465994e+000	 2.3923511755e+000	-7.2780772796e-001
 2.6456782260e+000	 2.4217004589e+000	-7.3811438456e-001
 2.6187809230e+000	 2.4507617471e+000	-7.5173433870e-001
 2.5915594006e+000	 2.4795295388e+000	-7.6780216070e-001
 2.5640184914e+000	 2.5079984359e+000	-7.8573781008e-001
 2.5361631471e+000	 2.5361631471e+000	-8.0492867090e-001
 2.5079984359e+000	 2.5640184914e+000	-8.2470232636e-001
 2.4795295388e+000	 2.5915594006e+000	-8.4430028762e-001
 2.4507617471e+000	 2.6187809230e+000	-8.6285295281e-001
 2.4217004589e+000	 2.6456782260e+000	-8.7935606123e-001
 2.3923511755e+000	 2.6722465994e+000	-8.9257164227e-001
 2.6921155456e+000	 2.4101390162e+000	-7.1130148189e-001
 2.6653496285e+000	 2.4397065202e+000	-7.2025250981e-001
 2.6382523360e+000	 2.4689838877e+000	-7.3699622341e-001
 2.6108284135e+000	 2.4979655764e+000	-7.5518350792e-001
 2.5830827295e+000	 2.5266461482e+000	-7.7447879173e-001
 2.5550202725e+000	 2.5550202725e+000	-7.9450360412e-001
 2.5266461482e+000	 2.5830827295e+000	-8.1480723309e-001
 2.4979655764e+000	 2.6108284135e+000	-8.3483841042e-001
 2.4689838877e+000	 2.6382523360e+000	-8.5391831594e-001
 2.4397065202e+000	 2.6653496285e+000	-8.7121518022e-001
 2.4101390162e+000	 2.6921155456e+000	-8.8419325715e-001
 2.7119844917e+000	 2.4279268568e+000	-7.0064869334e-001
 2.6850210309e+000	 2.4577125815e+000	-7.0504581443e-001
 2.6577237489e+000	 2.4872060283e+000	-7.2266624487e-001
 2.6300974264e+000	 2.5164016141e+000	-7.4371183955e-001
 2.6021469675e+000	 2.5452938605e+000	-7.6500854849e-001
 2.5738773978e+000	 2.5738773978e+000	-7.8639890245e-001
 2.5452938605e+000	 2.6021469675e+000	-8.0764058487e-001
 2.5164016141e+000	 2.6300974264e+000	-8.2837601637e-001
 2.4872060283e+000	 2.6577237489e+000	-8.4810335018e-001
 2.4577125815e+000	 2.6850210309e+000	-8.6534080321e-001
 2.4279268568e+000	 2.7119844917e+000	-8.7706668659e-001
 2.7318534379e+000	 2.4457146975e+000	-6.9619052529e-001
 2.7046924333e+000	 2.4757186428e+000	-6.9689678858e-001
 2.6771951619e+000	 2.5054281689e+000	-7.1028817541e-001
 2.6493664393e+000	 2.5348376517e+000	-7.3394151460e-001
 2.6212112056e+000	 2.5639415729e+000	-7.5787944095e-001
 2.5927345231e+000	 2.5927345231e+000	-7.8117024365e-001
 2.5639415729e+000	 2.6212112056e+000	-8.0376716280e-001
 2.5348376517e+000	 2.6493664393e+000	-8.2549322069e-001
 2.5054281689e+000	 2.6771951619e+000	-8.4574244757e-001
 2.4757186428e+000	 2.7046924333e+000	-8.6148648957e-001
 2.4457146975e+000	 2.7318534379e+000	-8.7212114614e-001
 2.2678362910e+000	 2.5331639763e+000	-9.6641524364e-001
 2.2397426226e+000	 2.5580370939e+000	-9.5284033941e-001
 2.2113865834e+000	 2.5825897342e+000	-9.3651383859e-001
 2.1827736670e+000	 2.6068177947e+000	-9.1984392746e-001
 2.1539094513e+000	 2.6307172986e+000	-9.0501328677e-001
 2.1247995951e+000	 2.6542843967e+000	-8.9396691080e-001
 2.0954498343e+000	 2.6775153696e+000	-8.8814519629e-001
 2.0658659783e+000	 2.7004066295e+000	-8.8777481859e-001
 2.0360539061e+000	 2.7229547217e+000	-8.9526760124e-001
 2.0060195626e+000	 2.7451563267e+000	-9.1339569042e-001
 1.9757689547e+000	 2.7670082615e+000	-9.2230404017e-001
 2.2856241316e+000	 2.5530329225e+000	-9.5752110905e-001
 2.2573101097e+000	 2.5781011331e+000	-9.4868872694e-001
 2.2287316591e+000	 2.6028463527e+000	-9.3652659290e-001
 2.1998943164e+000	 2.6272644467e+000	-9.2284819029e-001
 2.1708037034e+000	 2.6513514071e+000	-9.0924469972e-001
 2.1414655232e+000	 2.6751033544e+000	-8.9690954925e-001
 2.1118855567e+000	 2.6985165402e+000	-8.8551311110e-001
 2.0820696589e+000	 2.7215873483e+000	-8.7684479133e-001
 2.0520237548e+000	 2.7443122971e+000	-8.7330634467e-001
 2.0217538360e+000	 2.7666880411e+000	-8.7727695726e-001
 1.9912659566e+000	 2.7887113722e+000	-8.8818569045e-001
 2.3034119723e+000	 2.5729018686e+000	-9.4709062777e-001
 2.2748775969e+000	 2.5981651723e+000	-9.4245531422e-001
 2.2460767348e+000	 2.6231029713e+000	-9.3403084852e-001
 2.2170149659e+000	 2.6477110988e+000	-9.2304419756e-001
 2.1876979556e+000	 2.6719855156e+000	-9.1043464250e-001
 2.1581314513e+000	 2.6959223122e+000	-8.9542378001e-001
 2.1283212791e+000	 2.7195177107e+000	-8.7902611165e-001
 2.0982733394e+000	 2.7427680671e+000	-8.6324714745e-001
 2.0679936035e+000	 2.7656698726e+000	-8.5009032431e-001
 2.0374881094e+000	 2.7882197555e+000	-8.4155347818e-001
 2.0067629585e+000	 2.8104144828e+000	-8.3962523306e-001
 2.3211998129e+000	 2.5927708148e+000	-9.3569403138e-001
 2.2924450840e+000	 2.6182292115e+000	-9.3474869134e-001
 2.2634218105e+000	 2.6433595898e+000	-9.2966943294e-001
 2.2341356153e+000	 2.6681577508e+000	-9.2109921503e-001
 2.2045922077e+000	 2.6926196241e+000	-9.0801427842e-001
 2.1747973795e+000	 2.7167412699e+000	-8.9045807307e-001
 2.1447570015e+000	 2.7405188813e+000	-8.7001652803e-001
 2.1144770200e+000	 2.7639487859e+000	-8.4829247537e-001
 2.0839634522e+000	 2.7870274480e+000	-8.2690277755e-001
 2.0532223829e+000	 2.8097514699e+000	-8.0747531231e-001
 2.0222599604e+000	 2.8321175935e+000	-7.9164583554e-001
 2.3389876536e+000	 2.6126397609e+000	-9.2392659188e-001
 2.3100125711e+000	 2.6382932507e+000	-9.2620273896e-001
 2.2807668862e+000	 2.6636162084e+000	-9.2411103805e-001
 2.2512562648e+000	 2.6886044029e+000	-9.1662586903e-001
 2.2214864598e+000	 2.7132537326e+000	-9.0264716563e-001
 2.1914633076e+000	 2.7375602276e+000	-8.8329591108e-001
 2.1611927239e+000	 2.7615200518e+000	-8.5975195778e-001
 2.1306807005e+000	 2.7851295047e+000	-8.3322731016e-001
 2.0999333008e+000	 2.8083850235e+000	-8.0496378383e-001
 2.0689566563e+000	 2.8312831843e+000	-7.7623048334e-001
 2.0377569623e+000	 2.8538207042e+000	-7.4832111898e-001
 2.3567754942e+000	 2.6325087071e+000	-9.1240486862e-001
 2.3275800583e+000	 2.6583572899e+000	-9.1747283813e-001
 2.2981119619e+000	 2.6838728269e+000	-9.1734164494e-001
 2.2683769142e+000	 2.7090510549e+000	-9.0987066594e-001
 2.2383807119e+000	 2.7338878411e+000	-8.9556332141e-001
 2.2081292357e+000	 2.7583791854e+000	-8.7515662025e-001
 2.1776284463e+000	 2.7825212224e+000	-8.4943626843e-001
 2.1468843811e+000	 2.8063102236e+000	-8.1923507909e-001
 2.1159031495e+000	 2.8297425989e+000	-7.8543114349e-001
 2.0846909297e+000	 2.8528148987e+000	-7.4894578165e-001
 2.0532539642e+000	 2.8755238149e+000	-7.1074129300e-001
 2.3745633349e+000	 2.6523776532e+000	-9.0176297931e-001
 2.3451475454e+000	 2.6784213290e+000	-9.0889402881e-001
 2.3154570376e+000	 2.7041294454e+000	-9.0908691055e-001
 2.2854975637e+000	 2.7294977070e+000	-9.0200644738e-001
 2.2552749641e+000	 2.7545219496e+000	-8.8792947933e-001
 2.2247951638e+000	 2.7791981431e+000	-8.6719644728e-001
 2.1940641687e+000	 2.8035223929e+000	-8.4021062849e-001
 2.1630880617e+000	 2.8274909424e+000	-8.0743707758e-001
 2.1318729982e+000	 2.8511001744e+000	-7.6940128930e-001
 2.1004252032e+000	 2.8743466130e+000	-7.2668760171e-001
 2.0687509661e+000	 2.8972269256e+000	-6.7993736070e-001
 2.3923511755e+000	 2.6722465994e+000	-8.9257164227e-001
 2.3627150325e+000	 2.6984853682e+000	-8.9984491646e-001
 2.3328021133e+000	 2.7243860640e+000	-9.0043503225e-001
 2.3026182132e+000	 2.7499443590e+000	-8.9414389926e-001
 2.2721692162e+000	 2.7751560581e+000	-8.8085022778e-001
 2.2414610919e+000	 2.8000171008e+000	-8.6050966195e-001
 2.2104998912e+000	 2.8245235635e+000	-8.3315456555e-001
 2.1792917422e+000	 2.8486716612e+000	-7.9889347403e-001
 2.1478428469e+000	 2.8724577498e+000	-7.5791022882e-001
 2.1161594766e+000	 2.8958783274e+000	-7.1046281280e-001
 2.0842479680e+000	 2.9189300362e+000	-6.5688190818e-001
 2.4101390162e+000	 2.6921155456e+000	-8.8419325715e-001
 2.3802825197e+000	 2.7185494074e+000	-8.9119249229e-001
 2.3501471890e+000	 2.7446426825e+000	-8.9243797308e-001
 2.3197388626e+000	 2.7703910110e+000	-8.8733274049e-001
 2.2890634683e+000	 2.7957901666e+000	-8.7536917183e-001
 2.2581270200e+000	 2.8208360586e+000	-8.5612968401e-001
 2.2269356136e+000	 2.8455247340e+000	-8.2928705003e-001
 2.1954954228e+000	 2.8698523800e+000	-7.9460434188e-001
 2.1638126956e+000	 2.8938153252e+000	-7.5193451617e-001
 2.1318937500e+000	 2.9174100418e+000	-7.0121966138e-001
 2.0997449699e+000	 2.9406331469e+000	-6.4248992842e-001
 2.4279268568e+000	 2.7119844917e+000	-8.7706668659e-001
 2.3978500068e+000	 2.7386134466e+000	-8.8392802085e-001
 2.3674922647e+000	 2.7648993011e+000	-8.8608811422e-001
 2.3368595121e+000	 2.7908376631e+000	-8.8256293307e-001
 2.3059577205e+000	 2.8164242751e+000	-8.7247011704e-001
 2.2747929482e+000	 2.8416550163e+000	-8.5503023316e-001
 2.2433713360e+000	 2.8665259046e+000	-8.2956760324e-001
 2.2116991033e+000	 2.8910330989e+000	-7.9551071763e-001
 2.1797825443e+000	 2.9151729007e+000	-7.5239225155e-001
 2.1476280235e+000	 2.9389417562e+000	-6.9984870348e-001
 2.1152419718e+000	 2.9623362576e+000	-6.3761967761e-001
 2.4457146975e+000	 2.7318534379e+000	-8.7212114614e-001
 2.4154174939e+000	 2.7586774858e+000	-8.7898474296e-001
 2.3848373405e+000	 2.7851559196e+000	-8.8231950361e-001
 2.3539801615e+000	 2.8112843151e+000	-8.8076591237e-001
 2.3228519726e+000	 2.8370583836e+000	-8.7307827426e-001
 2.2914588763e+000	 2.8624739740e+000	-8.5812650082e-001
 2.2598070584e+000	 2.8875270751e+000	-8.3489742861e-001
 2.2279027839e+000	 2.9122138177e+000	-8.0249568349e-001
 2.1957523930e+000	 2.9365304761e+000	-7.6014410714e-001
 2.1633622969e+000	 2.9604734706e+000	-7.0718376558e-001
 2.1307389737e+000	 2.9840393683e+000	-6.4307356253e-001
 1.9757689547e+000	 2.7670082615e+000	-9.2230404017e-001
 1.9453081468e+000	 2.7885074799e+000	-9.0317987728e-001
 1.9146432551e+000	 2.8096510718e+000	-8.8086186293e-001
 1.8837804452e+000	 2.8304362665e+000	-8.5568804300e-001
 1.8527259292e+000	 2.8508604341e+000	-8.2833639670e-001
 1.8214859618e+000	 2.8709210869e+000	-7.9978902326e-001
 1.7900668359e+000	 2.8906158798e+000	-7.7129663942e-001
 1.7584748791e+000	 2.9099426108e+000	-7.4434361201e-001
 1.7267164490e+000	 2.9288992217e+000	-7.2061373631e-001
 1.6947979300e+000	 2.9474837982e+000	-7.0195695622e-001
 1.6627257286e+000	 2.9656945701e+000	-6.9035720733e-001
 1.9912659566e+000	 2.7887113722e+000	-8.8818569045e-001
 1.9605662285e+000	 2.8103792203e+000	-8.8382263398e-001
 1.9296608158e+000	 2.8316886526e+000	-8.7296519149e-001
 1.8985559325e+000	 2.8526368766e+000	-8.5642035184e-001
 1.8672578395e+000	 2.8732212418e+000	-8.3533106567e-001
 1.8357728405e+000	 2.8934392409e+000	-8.1113812629e-001
 1.8041072778e+000	 2.9132885105e+000	-7.8554244660e-001
 1.7722675285e+000	 2.9327668313e+000	-7.6046796653e-001
 1.7402600002e+000	 2.9518721289e+000	-7.3802541148e-001
 1.7080911274e+000	 2.9706024740e+000	-7.2047710676e-001
 1.6757673668e+000	 2.9889560827e+000	-7.1020303657e-001
 2.0067629585e+000	 2.8104144828e+000	-8.3962523306e-001
 1.9758243102e+000	 2.8322509608e+000	-8.5048653080e-001
 1.9446783765e+000	 2.8537262335e+000	-8.5305385117e-001
 1.9133314198e+000	 2.8748374867e+000	-8.4684023641e-001
 1.8817897498e+000	 2.8955820494e+000	-8.3343685246e-001
 1.8500597192e+000	 2.9159573949e+000	-8.1472705270e-001
 1.8181477197e+000	 2.9359611411e+000	-7.9284639667e-001
 1.7860601779e+000	 2.9555910517e+000	-7.7014339738e-001
 1.7538035515e+000	 2.9748450361e+000	-7.4914122744e-001
 1.7213843248e+000	 2.9937211499e+000	-7.3250059806e-001
 1.6888090049e+000	 3.0122175953e+000	-7.2298400752e-001
 2.0222599604e+000	 2.8321175935e+000	-7.9164583554e-001
 1.9910823918e+000	 2.8541227012e+000	-8.0454732188e-001
 1.9596959371e+000	 2.8757638143e+000	-8.2244989768e-001
 1.9281069071e+000	 2.8970380968e+000	-8.2822779729e-001
 1.8963216601e+000	 2.9179428571e+000	-8.2390444928e-001
 1.8643465979e+000	 2.9384755489e+000	-8.1179040646e-001
 1.8321881615e+000	 2.9586337718e+000	-7.9444106672e-001
 1.7998528273e+000	 2.9784152722e+000	-7.7461522288e-001
 1.7673471027e+000	 2.9978179433e+000	-7.5523468212e-001
 1.7346775222e+000	 3.0168398258e+000	-7.3934517814e-001
 1.7018506431e+000	 3.0354791079e+000	-7.3007878101e-001
 2.0377569623e+000	 2.8538207042e+000	-7.4832111898e-001
 2.0063404735e+000	 2.8759944416e+000	-7.4889627305e-001
 1.9747134978e+000	 2.8978013951e+000	-7.8247774403e-001
 1.9428823945e+000	 2.9192387069e+000	-8.0186476154e-001
 1.9108535705e+000	 2.9403036647e+000	-8.0798515833e-001
 1.8786334766e+000	 2.9609937029e+000	-8.0356209316e-001
 1.8462286034e+000	 2.9813064025e+000	-7.9155672866e-001
 1.8136454768e+000	 3.0012394926e+000	-7.7512454432e-001
 1.7808906540e+000	 3.0207908505e+000	-7.5757283269e-001
 1.7479707196e+000	 3.0399585016e+000	-7.4231961154e-001
 1.7148922812e+000	 3.0587406205e+000	-7.3285416531e-001
 2.0532539642e+000	 2.8755238149e+000	-7.1074129300e-001
 2.0215985551e+000	 2.8978661821e+000	-6.9781031892e-001
 1.9897310585e+000	 2.9198389759e+000	-7.3446372125e-001
 1.9576578818e+000	 2.9414393170e+000	-7.6903395212e-001
 1.9253854808e+000	 2.9626644724e+000	-7.8693028491e-001
 1.8929203553e+000	 2.9835118568e+000	-7.9127465239e-001
 1.8602690453e+000	 3.0039790332e+000	-7.8542063724e-001
 1.8274381262e+000	 3.0240637131e+000	-7.7290750651e-001
 1.7944342052e+000	 3.0437637577e+000	-7.5741554616e-001
 1.7612639170e+000	 3.0630771775e+000	-7.4272293814e-001
 1.7279339194e+000	 3.0820021331e+000	-7.3266440208e-001
 2.0687509661e+000	 2.8972269256e+000	-6.7993736070e-001
 2.0368566368e+000	 2.9197379225e+000	-6.5529893140e-001
 2.0047486192e+000	 2.9418765567e+000	-6.8056689361e-001
 1.9724333691e+000	 2.9636399271e+000	-7.3101880246e-001
 1.9399173911e+000	 2.9850252801e+000	-7.6199057681e-001
 1.9072072340e+000	 3.0060300108e+000	-7.7615863695e-001
 1.8743094872e+000	 3.0266516638e+000	-7.7725636462e-001
 1.8412307756e+000	 3.0468879335e+000	-7.6919460405e-001
 1.8079777565e+000	 3.0667366648e+000	-7.5601479422e-001
 1.7745571144e+000	 3.0861958534e+000	-7.4184377398e-001
 1.7409755575e+000	 3.1052636456e+000	-7.3085049095e-001
 2.0842479680e+000	 2.9189300362e+000	-6.5688190818e-001
 2.0521147185e+000	 2.9416096629e+000	-6.2230330382e-001
 2.0197661799e+000	 2.9639141376e+000	-6.3389711659e-001
 1.9872088564e+000	 2.9858405372e+000	-6.8910291389e-001
 1.9544493014e+000	 3.0073860877e+000	-7.3441570762e-001
 1.9214941128e+000	 3.0285481648e+000	-7.5944203638e-001
 1.8883499290e+000	 3.0493242945e+000	-7.6828317923e-001
 1.8550234251e+000	 3.0697121540e+000	-7.6521003102e-001
 1.8215213077e+000	 3.0897095720e+000	-7.5461398990e-001
 1.7878503118e+000	 3.1093145292e+000	-7.4095965164e-001
 1.7540171957e+000	 3.1285251582e+000	-7.2873955090e-001
 2.0997449699e+000	 2.9406331469e+000	-6.4248992842e-001
 2.0673728001e+000	 2.9634814034e+000	-5.9970803298e-001
 2.0347837405e+000	 2.9859517184e+000	-5.9923902443e-001
 2.0019843437e+000	 3.0080411473e+000	-6.4471092072e-001
 1.9689812117e+000	 3.0297468954e+000	-7.0545380164e-001
 1.9357809915e+000	 3.0510663188e+000	-7.4234974261e-001
 1.9023903709e+000	 3.0719969252e+000	-7.5971546644e-001
 1.8688160745e+000	 3.0925363745e+000	-7.6217107175e-001
 1.8350648590e+000	 3.1126824792e+000	-7.5444736398e-001
 1.8011435092e+000	 3.1324332051e+000	-7.4133639824e-001
 1.7670588338e+000	 3.1517866708e+000	-7.2764421652e-001
 2.1152419718e+000	 2.9623362576e+000	-6.3761967761e-001
 2.0826308818e+000	 2.9853531438e+000	-5.8834189936e-001
 2.0498013012e+000	 3.0079892992e+000	-5.7740276479e-001
 2.0167598311e+000	 3.0302417574e+000	-6.0866839690e-001
 1.9835131220e+000	 3.0521077031e+000	-6.7635099830e-001
 1.9500678702e+000	 3.0735844728e+000	-7.2610305547e-001
 1.9164308128e+000	 3.0946695558e+000	-7.5276218906e-001
 1.8826087239e+000	 3.1153605949e+000	-7.6128753061e-001
 1.8486084102e+000	 3.1356553864e+000	-7.5673937900e-001
 1.8144367066e+000	 3.1555518810e+000	-7.4422754918e-001
 1.7801004720e+000	 3.1750481834e+000	-7.2886206721e-001
 2.1307389737e+000	 2.9840393683e+000	-6.4307356253e-001
 2.0978889635e+000	 3.0072248842e+000	-5.8897868063e-001
 2.0648188619e+000	 3.0300268800e+000	-5.6914406791e-001
 2.0315353184e+000	 3.0524423675e+000	-5.8765512125e-001
 1.9980450323e+000	 3.0744685107e+000	-6.4835105412e-001
 1.9643547489e+000	 3.0961026268e+000	-7.1191922612e-001
 1.9304712547e+000	 3.1173421865e+000	-7.4862638556e-001
 1.8964013734e+000	 3.1381848154e+000	-7.6376119889e-001
 1.8621519615e+000	 3.1586282936e+000	-7.6270417906e-001
 1.8277299040e+000	 3.1786705568e+000	-7.5087379567e-001
 1.7931421101e+000	 3.1983096960e+000	-7.3367508787e-001
 1.6627257286e+000	 2.9656945701e+000	-6.9035720733e-001
 1.6305111137e+000	 2.9835272650e+000	-6.7595623007e-001
 1.5981557240e+000	 3.0009831633e+000	-6.5002281177e-001
 1.5656660084e+000	 3.0180609300e+000	-6.1629463046e-001
 1.5330484222e+000	 3.0347593738e+000	-5.7845762483e-001
 1.5003094234e+000	 3.0510774461e+000	-5.4011958168e-001
 1.4674554686e+000	 3.0670142412e+000	-5.0478573778e-001
 1.4344930095e+000	 3.0825689947e+000	-4.7583645625e-001
 1.4014284891e+000	 3.0977410833e+000	-4.5650701958e-001
 1.3682683376e+000	 3.1125300238e+000	-4.4986956362e-001
 1.3350189692e+000	 3.1269354717e+000	-4.5881716011e-001
 1.6757673668e+000	 2.9889560827e+000	-7.1020303657e-001
 1.6433000755e+000	 3.0069286489e+000	-6.9717623580e-001
 1.6106909054e+000	 3.0245214630e+000	-6.7201048519e-001
 1.5779463558e+000	 3.0417331797e+000	-6.3810971541e-001
 1.5450729326e+000	 3.0585625982e+000	-5.9884387886e-001
 1.5120771445e+000	 3.0750086618e+000	-5.5752210293e-001
 1.4789654987e+000	 3.0910704576e+000	-5.1736792564e-001
 1.4457444976e+000	 3.1067472152e+000	-4.8149667450e-001
 1.4124206346e+000	 3.1220383066e+000	-4.5289503073e-001
 1.3790003905e+000	 3.1369432446e+000	-4.3440280263e-001
 1.3454902298e+000	 3.1514616820e+000	-4.2869691392e-001
 1.6888090049e+000	 3.0122175953e+000	-7.2298400752e-001
 1.6560890374e+000	 3.0303300327e+000	-7.1066412965e-001
 1.6232260869e+000	 3.0480597627e+000	-6.8581049254e-001
 1.5902267032e+000	 3.0654054293e+000	-6.5154197036e-001
 1.5570974430e+000	 3.0823658226e+000	-6.1095841269e-001
 1.5238448656e+000	 3.0989398775e+000	-5.6711329707e-001
 1.4904755289e+000	 3.1151266740e+000	-5.2298854176e-001
 1.4569959857e+000	 3.1309254358e+000	-4.8147154020e-001
 1.4234127802e+000	 3.1463355299e+000	-4.4533445942e-001
 1.3897324435e+000	 3.1613564654e+000	-4.1721582530e-001
 1.3559614903e+000	 3.1759878923e+000	-3.9960439904e-001
 1.7018506431e+000	 3.0354791079e+000	-7.3007878101e-001
 1.6688779993e+000	 3.0537314166e+000	-7.1785248353e-001
 1.6357612683e+000	 3.0715980624e+000	-6.9287768475e-001
 1.6025070506e+000	 3.0890776790e+000	-6.5803598176e-001
 1.5691219534e+000	 3.1061690470e+000	-6.1620210328e-001
 1.5356125867e+000	 3.1228710932e+000	-5.7021599524e-001
 1.5019855590e+000	 3.1391828904e+000	-5.2285715417e-001
 1.4682474739e+000	 3.1551036564e+000	-4.7682127093e-001
 1.4344049258e+000	 3.1706327532e+000	-4.3469922668e-001
 1.4004644964e+000	 3.1857696862e+000	-3.9895846331e-001
 1.3664327509e+000	 3.2005141027e+000	-3.7192673098e-001
 1.7148922812e+000	 3.0587406205e+000	-7.3285416531e-001
 1.6816669612e+000	 3.0771328004e+000	-7.2015955073e-001
 1.6482964497e+000	 3.0951363621e+000	-6.9465128771e-001
 1.6147873980e+000	 3.1127499287e+000	-6.5902059803e-001
 1.5811464638e+000	 3.1299722714e+000	-6.1596120193e-001
 1.5473803077e+000	 3.1468023089e+000	-5.6814077052e-001
 1.5134955891e+000	 3.1632391068e+000	-5.1817472375e-001
 1.4794989620e+000	 3.1792818770e+000	-4.6860243722e-001
 1.4453970713e+000	 3.1949299765e+000	-4.2186589984e-001
 1.4111965494e+000	 3.2101829069e+000	-3.8029084327e-001
 1.3769040114e+000	 3.2250403130e+000	-3.4607034415e-001
 1.7279339194e+000	 3.0820021331e+000	-7.3266440208e-001
 1.6944559230e+000	 3.1005341843e+000	-7.1898857027e-001
 1.6608316311e+000	 3.1186746618e+000	-6.9255418813e-001
 1.6270677453e+000	 3.1364221784e+000	-6.5590815897e-001
 1.5931709742e+000	 3.1537754958e+000	-6.1160646817e-001
 1.5591480288e+000	 3.1707335246e+000	-5.6218493633e-001
 1.5250056192e+000	 3.1872953232e+000	-5.1013242591e-001
 1.4907504501e+000	 3.2034600975e+000	-4.5786656560e-001
 1.4563892169e+000	 3.2192271998e+000	-4.0771203404e-001
 1.4219286023e+000	 3.2345961277e+000	-3.6188142288e-001
 1.3873752720e+000	 3.2495665234e+000	-3.2245867800e-001
 1.7409755575e+000	 3.1052636456e+000	-7.3085049095e-001
 1.7072448849e+000	 3.1239355681e+000	-7.1572710728e-001
 1.6733668126e+000	 3.1422129615e+000	-6.8799225464e-001
 1.6393480927e+000	 3.1600944280e+000	-6.5009376138e-001
 1.6051954846e+000	 3.1775787202e+000	-6.0449234270e-001
 1.5709157499e+000	 3.1946647403e+000	-5.5363158838e-001
 1.5365156494e+000	 3.2113515396e+000	-4.9991052261e-001
 1.5020019382e+000	 3.2276383181e+000	-4.4565880059e-001
 1.4673813625e+000	 3.2435244231e+000	-3.9311458329e-001
 1.4326606553e+000	 3.2590093485e+000	-3.4440510928e-001
 1.3978465325e+000	 3.2740927337e+000	-3.0152996021e-001
 1.7540171957e+000	 3.1285251582e+000	-7.2873955090e-001
 1.7200338468e+000	 3.1473369520e+000	-7.1174642780e-001
 1.6859019940e+000	 3.1657512612e+000	-6.8235369235e-001
 1.6516284401e+000	 3.1837666777e+000	-6.4295455899e-001
 1.6172199950e+000	 3.2013819446e+000	-5.9595615719e-001
 1.5826834710e+000	 3.2185959559e+000	-5.4374868810e-001
 1.5480256795e+000	 3.2354077560e+000	-4.8867728206e-001
 1.5132534263e+000	 3.2518165387e+000	-4.3301662252e-001
 1.4783735081e+000	 3.2678216464e+000	-3.7894837741e-001
 1.4433927082e+000	 3.2834225693e+000	-3.2854145544e-001
 1.4083177931e+000	 3.2986189440e+000	-2.8373508182e-001
 1.7670588338e+000	 3.1517866708e+000	-7.2764421652e-001
 1.7328228087e+000	 3.1707383359e+000	-7.0840090590e-001
 1.6984371754e+000	 3.1892895609e+000	-6.7700842919e-001
 1.6639087875e+000	 3.2074389274e+000	-6.3584909495e-001
 1.6292445053e+000	 3.2251851690e+000	-5.8731737924e-001
 1.5944511921e+000	 3.2425271716e+000	-5.3378818530e-001
 1.5595357096e+000	 3.2594639724e+000	-4.7758794354e-001
 1.5245049144e+000	 3.2759947593e+000	-4.2096861824e-001
 1.4893656536e+000	 3.2921188697e+000	-3.6608466146e-001
 1.4541247611e+000	 3.3078357901e+000	-3.1497293037e-001
 1.4187890536e+000	 3.3231451544e+000	-2.6953555964e-001
 1.7801004720e+000	 3.1750481834e+000	-7.2886206721e-001
 1.7456117705e+000	 3.1941397197e+000	-7.0702746177e-001
 1.7109723568e+000	 3.2128278607e+000	-6.7330753220e-001
 1.6761891349e+000	 3.2311111771e+000	-6.3011666518e-001
 1.6412690157e+000	 3.2489883934e+000	-5.7987689053e-001
 1.6062189132e+000	 3.2664583873e+000	-5.2498517809e-001
 1.5710457397e+000	 3.2835201888e+000	-4.6778372525e-001
 1.5357564025e+000	 3.3001729799e+000	-4.1053330211e-001
 1.5003577992e+000	 3.3164160930e+000	-3.5538969456e-001
 1.4648568141e+000	 3.3322490109e+000	-3.0438325946e-001
 1.4292603142e+000	 3.3476713647e+000	-2.5922039330e-001
 1.7931421101e+000	 3.1983096960e+000	-7.3367508787e-001
 1.7584007324e+000	 3.2175411036e+000	-7.0894502899e-001
 1.7235075382e+000	 3.2363661604e+000	-6.7258265250e-001
 1.6884694823e+000	 3.2547834267e+000	-6.2707671107e-001
 1.6532935261e+000	 3.2727916178e+000	-5.7491629653e-001
 1.6179866343e+000	 3.2903896030e+000	-5.1855710811e-001
 1.5825557699e+000	 3.3075764053e+000	-4.6039087271e-001
 1.5470078906e+000	 3.3243512004e+000	-4.0271798468e-001
 1.5113499448e+000	 3.3407133163e+000	-3.4764154276e-001
 1.4755888670e+000	 3.3566622317e+000	-2.9679599302e-001
 1.4397315747e+000	 3.3721975751e+000	-2.5248579857e-001
 1.3350189692e+000	 3.1269354717e+000	-4.5881716011e-001
 1.3016817725e+000	 3.1409592953e+000	-4.6694639376e-001
 1.2682681041e+000	 3.1545992369e+000	-4.4922068428e-001
 1.2347843127e+000	 3.1678553637e+000	-4.1253104829e-001
 1.2012367166e+000	 3.1807278769e+000	-3.6362150069e-001
 1.1676316006e+000	 3.1932171098e+000	-3.0892205787e-001
 1.1339752124e+000	 3.2053235261e+000	-2.5453691038e-001
 1.1002737598e+000	 3.2170477184e+000	-2.0623138086e-001
 1.0665334072e+000	 3.2283904058e+000	-1.6941758163e-001
 1.0327602727e+000	 3.2393524327e+000	-1.4913872552e-001
 9.9896042527e-001	 3.2499347660e+000	-1.5007107842e-001
 1.3454902298e+000	 3.1514616820e+000	-4.2869691392e-001
 1.3118915518e+000	 3.1655955019e+000	-4.4703016517e-001
 1.2782158023e+000	 3.1793424288e+000	-4.4278626715e-001
 1.2444693798e+000	 3.1927025304e+000	-4.1587809265e-001
 1.2106586521e+000	 3.2056760095e+000	-3.7354596599e-001
 1.1767899534e+000	 3.2182632021e+000	-3.2270080433e-001
 1.1428695804e+000	 3.2304645755e+000	-2.6991306755e-001
 1.1089037894e+000	 3.2422807268e+000	-2.2140026853e-001
 1.0748987933e+000	 3.2537123809e+000	-1.8301295040e-001
 1.0408607582e+000	 3.2647603887e+000	-1.6021907932e-001
 1.0067958007e+000	 3.2754257250e+000	-1.5810363936e-001
 1.3559614903e+000	 3.1759878923e+000	-3.9960439904e-001
 1.3221013311e+000	 3.1902317086e+000	-4.1916356943e-001
 1.2881635005e+000	 3.2040856206e+000	-4.2985872063e-001
 1.2541544469e+000	 3.2175496971e+000	-4.1403618728e-001
 1.2200805877e+000	 3.2306241422e+000	-3.7938661442e-001
 1.1859483062e+000	 3.2433092944e+000	-3.3326086303e-001
 1.1517639483e+000	 3.2556056248e+000	-2.8265987214e-001
 1.1175338190e+000	 3.2675137352e+000	-2.3422283178e-001
 1.0832641795e+000	 3.2790343560e+000	-1.9421356479e-001
 1.0489612438e+000	 3.2901683448e+000	-1.6850506088e-001
 1.0146311762e+000	 3.3009166839e+000	-1.6256215045e-001
 1.3664327509e+000	 3.2005141027e+000	-3.7192673098e-001
 1.3323111103e+000	 3.2148679152e+000	-3.8437319793e-001
 1.2981111987e+000	 3.2288288125e+000	-4.1114402923e-001
 1.2638395139e+000	 3.2423968638e+000	-4.0743087980e-001
 1.2295025232e+000	 3.2555722748e+000	-3.8132841242e-001
 1.1951066590e+000	 3.2683553867e+000	-3.4058621823e-001
 1.1606583162e+000	 3.2807466742e+000	-2.9259973350e-001
 1.1261638486e+000	 3.2927467436e+000	-2.4439919156e-001
 1.0916295656e+000	 3.3043563311e+000	-2.0263649967e-001
 1.0570617294e+000	 3.3155763009e+000	-1.7356997854e-001
 1.0224665517e+000	 3.3264076428e+000	-1.6304694985e-001
 1.3769040114e+000	 3.2250403130e+000	-3.4607034415e-001
 1.3425208896e+000	 3.2395041218e+000	-3.4771893554e-001
 1.3080588968e+000	 3.2535720044e+000	-3.8745100862e-001
 1.2735245810e+000	 3.2672440305e+000	-3.9661366510e-001
 1.2389244587e+000	 3.2805204075e+000	-3.7970316408e-001
 1.2042650118e+000	 3.2934014791e+000	-3.4482625990e-001
 1.1695526842e+000	 3.3058877235e+000	-2.9973662092e-001
 1.1347938782e+000	 3.3179797520e+000	-2.5182468365e-001
 1.0999949518e+000	 3.3296783062e+000	-2.0810512062e-001
 1.0651622150e+000	 3.3409842570e+000	-1.7546470247e-001
 1.0303019272e+000	 3.3518986017e+000	-1.6101214078e-001
 1.3873752720e+000	 3.2495665234e+000	-3.2245867800e-001
 1.3527306689e+000	 3.2641403284e+000	-3.1546677117e-001
 1.3180065950e+000	 3.2783151963e+000	-3.5967337457e-001
 1.2832096481e+000	 3.2920911972e+000	-3.8224457969e-001
 1.2483463942e+000	 3.3054685401e+000	-3.7497268342e-001
 1.2134233646e+000	 3.3184475714e+000	-3.4627958571e-001
 1.1784470521e+000	 3.3310287729e+000	-3.0424054717e-001
 1.1434239078e+000	 3.3432127604e+000	-2.5690328834e-001
 1.1083603379e+000	 3.3550002813e+000	-2.1248097999e-001
 1.0732627005e+000	 3.3663922131e+000	-1.7825134641e-001
 1.0381373026e+000	 3.3773895607e+000	-1.6089212382e-001
 1.3978465325e+000	 3.2740927337e+000	-3.0152996021e-001
 1.3629404481e+000	 3.2887765350e+000	-2.8787171230e-001
 1.3279542932e+000	 3.3030583882e+000	-3.2877193545e-001
 1.2928947151e+000	 3.3169383640e+000	-3.6507492894e-001
 1.2577683297e+000	 3.3304166728e+000	-3.6771210593e-001
 1.2225817174e+000	 3.3434936637e+000	-3.4558538829e-001
 1.1873414200e+000	 3.3561698223e+000	-3.0781625560e-001
 1.1520539374e+000	 3.3684457688e+000	-2.6294354358e-001
 1.1167257241e+000	 3.3803222564e+000	-2.1899527662e-001
 1.0813631861e+000	 3.3918001691e+000	-1.8344084312e-001
 1.0459726781e+000	 3.4028805196e+000	-1.6313902412e-001
 1.4083177931e+000	 3.2986189440e+000	-2.8373508182e-001
 1.3731502274e+000	 3.3134127416e+000	-2.6516244639e-001
 1.3379019914e+000	 3.3278015801e+000	-2.9662968719e-001
 1.3025797822e+000	 3.3417855307e+000	-3.4597732515e-001
 1.2671902652e+000	 3.3553648054e+000	-3.5921230746e-001
 1.2317400702e+000	 3.3685397560e+000	-3.4505069770e-001
 1.1962357880e+000	 3.3813108716e+000	-3.1269628532e-001
 1.1606839670e+000	 3.3936787772e+000	-2.7089623460e-001
 1.1250911102e+000	 3.4056442315e+000	-2.2787480134e-001
 1.0894636717e+000	 3.4172081252e+000	-1.9127468563e-001
 1.0538080536e+000	 3.4283714785e+000	-1.6810568754e-001
 1.4187890536e+000	 3.3231451544e+000	-2.6953555964e-001
 1.3833600067e+000	 3.3380489483e+000	-2.4757594165e-001
 1.3478496895e+000	 3.3525447720e+000	-2.7006601051e-001
 1.3122648493e+000	 3.3666326974e+000	-3.2634834370e-001
 1.2766122007e+000	 3.3803129381e+000	-3.5101230930e-001
 1.2408984230e+000	 3.3935858483e+000	-3.4548886936e-001
 1.2051301559e+000	 3.4064519210e+000	-3.1918591685e-001
 1.1693139966e+000	 3.4189117856e+000	-2.8103314244e-001
 1.1334564964e+000	 3.4309662066e+000	-2.3941603057e-001
 1.0975641573e+000	 3.4426160813e+000	-2.0211774530e-001
 1.0616434291e+000	 3.4538624374e+000	-1.7626854574e-001
 1.4292603142e+000	 3.3476713647e+000	-2.5922039330e-001
 1.3935697859e+000	 3.3626851549e+000	-2.3500014640e-001
 1.3577973877e+000	 3.3772879639e+000	-2.5035974461e-001
 1.3219499164e+000	 3.3914798641e+000	-3.0708293082e-001
 1.2860341363e+000	 3.4052610708e+000	-3.4367876379e-001
 1.2500567758e+000	 3.4186319407e+000	-3.4735408289e-001
 1.2140245238e+000	 3.4315929703e+000	-3.2768167856e-001
 1.1779440262e+000	 3.4441447940e+000	-2.9373636481e-001
 1.1418218825e+000	 3.4562881817e+000	-2.5402939404e-001
 1.1056646428e+000	 3.4680240374e+000	-2.1645101629e-001
 1.0694788046e+000	 3.4793533964e+000	-1.8822079475e-001
 1.4397315747e+000	 3.3721975751e+000	-2.5248579857e-001
 1.4037795652e+000	 3.3873213615e+000	-2.2748273471e-001
 1.3677450859e+000	 3.4020311558e+000	-2.3751889038e-001
 1.3316349834e+000	 3.4163270308e+000	-2.8895543774e-001
 1.2954560718e+000	 3.4302092034e+000	-3.3784986015e-001
 1.2592151286e+000	 3.4436780330e+000	-3.5119109552e-001
 1.2229188917e+000	 3.4567340197e+000	-3.3867727004e-001
 1.1865740558e+000	 3.4693778024e+000	-3.0949047614e-001
 1.1501872686e+000	 3.4816101568e+000	-2.7223175258e-001
 1.1137651284e+000	 3.4934319935e+000	-2.3486446515e-001
 1.0773141800e+000	 3.5048443553e+000	-2.0466567009e-001
 9.9896042527e-001	 3.2499347660e+000	-1.5007107842e-001
 9.6513988133e-001	 3.2601384931e+000	-1.5900163150e-001
 9.3130460051e-001	 3.2699648164e+000	-1.6117226957e-001
 8.9746048454e-001	 3.2794150542e+000	-1.5823507257e-001
 8.6361337515e-001	 3.2884906387e+000	-1.5139428971e-001
 8.2976905160e-001	 3.2971931143e+000	-1.4138572933e-001
 7.9593322820e-001	 3.3055241345e+000	-1.2845540196e-001
 7.6211155205e-001	 3.3134854599e+000	-1.1233762571e-001
 7.2830960080e-001	 3.3210789555e+000	-9.2232823411e-002
 6.9453288053e-001	 3.3283065882e+000	-6.6785259663e-002
 6.6078682374e-001	 3.3351704242e+000	-3.2540125002e-002
 1.0067958007e+000	 3.2754257250e+000	-1.5810363936e-001
 9.7270998438e-001	 3.2857094853e+000	-1.6374408840e-001
 9.3860931553e-001	 3.2956128816e+000	-1.6242394803e-001
 9.0449974224e-001	 3.3051372426e+000	-1.5583857217e-001
 8.7038715206e-001	 3.3142840118e+000	-1.4524567583e-001
 8.3627736956e-001	 3.3230547455e+000	-1.3144343761e-001
 8.0217615388e-001	 3.3314511103e+000	-1.1474761068e-001
 7.6808919642e-001	 3.3394748806e+000	-9.5072207503e-002
 7.3402211857e-001	 3.3471279360e+000	-7.1693685890e-002
 6.9998046961e-001	 3.3544122588e+000	-4.2829332828e-002
 6.6596972462e-001	 3.3613299316e+000	-5.9931407491e-003
 1.0146311762e+000	 3.3009166839e+000	-1.6256215045e-001
 9.8028008742e-001	 3.3112804774e+000	-1.6399332970e-001
 9.4591403056e-001	 3.3212609468e+000	-1.5832533985e-001
 9.1153899995e-001	 3.3308594310e+000	-1.4737671215e-001
 8.7716092897e-001	 3.3400773848e+000	-1.3275035725e-001
 8.4278568752e-001	 3.3489163767e+000	-1.1579805305e-001
 8.0841907956e-001	 3.3573780861e+000	-9.6617832934e-002
 7.7406684079e-001	 3.3654643012e+000	-7.4632255540e-002
 7.3973463634e-001	 3.3731769164e+000	-4.8606611574e-002
 7.0542805868e-001	 3.3805179294e+000	-1.6640144409e-002
 6.7115262551e-001	 3.3874894389e+000	 2.3839592204e-002
 1.0224665517e+000	 3.3264076428e+000	-1.6304694985e-001
 9.8785019047e-001	 3.3368514696e+000	-1.5939064099e-001
 9.5321874558e-001	 3.3469090120e+000	-1.4941855815e-001
 9.1857825765e-001	 3.3565816195e+000	-1.3524116108e-001
 8.8393470588e-001	 3.3658707579e+000	-1.1813148790e-001
 8.4929400548e-001	 3.3747780078e+000	-9.8744549305e-002
 8.1466200525e-001	 3.3833050618e+000	-7.7098342019e-002
 7.8004448516e-001	 3.3914537219e+000	-5.2558952695e-002
 7.4544715412e-001	 3.3992258969e+000	-2.3829427917e-002
 7.1087564776e-001	 3.4066236000e+000	 1.1057910171e-002
 6.7633552640e-001	 3.4136489462e+000	 5.4746016436e-002
 1.0303019272e+000	 3.3518986017e+000	-1.6101214078e-001
 9.9542029351e-001	 3.3624224617e+000	-1.5392580289e-001
 9.6052346061e-001	 3.3725570773e+000	-1.4082336807e-001
 9.2561751536e-001	 3.3823038079e+000	-1.2360082116e-001
 8.9070848278e-001	 3.3916641309e+000	-1.0353767533e-001
 8.5580232344e-001	 3.4006396390e+000	-8.1285962686e-002
 8.2090493093e-001	 3.4092320376e+000	-5.6852315505e-002
 7.8602212954e-001	 3.4174431425e+000	-2.9584184980e-002
 7.5115967189e-001	 3.4252748774e+000	 1.8401464287e-003
 7.1632323683e-001	 3.4327292707e+000	 3.9418097741e-002
 6.8151842728e-001	 3.4398084535e+000	 8.5826198470e-002
 1.0381373026e+000	 3.3773895607e+000	-1.6089212382e-001
 1.0029903966e+000	 3.3879934539e+000	-1.5026264862e-001
 9.6782817563e-001	 3.3982051425e+000	-1.3363431034e-001
 9.3265677307e-001	 3.4080259963e+000	-1.1295662499e-001
 8.9748225969e-001	 3.4174575040e+000	-8.9553052248e-002
 8.6231064140e-001	 3.4265012702e+000	-6.4109603174e-002
 8.2714785662e-001	 3.4351590134e+000	-3.6658056475e-002
 7.9199977391e-001	 3.4434325632e+000	-6.5633584370e-003
 7.5687218967e-001	 3.4513238578e+000	 2.7485157428e-002
 7.2177082591e-001	 3.4588349413e+000	 6.7479088969e-002
 6.8670132817e-001	 3.4659679608e+000	 1.1609317135e-001
 1.0459726781e+000	 3.4028805196e+000	-1.6313902412e-001
 1.0105604996e+000	 3.4135644460e+000	-1.4874263306e-001
 9.7513289066e-001	 3.4238532077e+000	-1.2833352581e-001
 9.3969603077e-001	 3.4337481848e+000	-1.0391080200e-001
 9.0425603660e-001	 3.4432508770e+000	-7.6890974736e-002
 8.6881895936e-001	 3.4523629013e+000	-4.8029205873e-002
 8.3339078231e-001	 3.4610859892e+000	-1.7417174565e-002
 7.9797741829e-001	 3.4694219839e+000	 1.5528268481e-002
 7.6258470745e-001	 3.4773728383e+000	 5.2072602819e-002
 7.2721841499e-001	 3.4849406119e+000	 9.4167674037e-002
 6.9188422906e-001	 3.4921274681e+000	 1.4445263136e-001
 1.0538080536e+000	 3.4283714785e+000	-1.6810568754e-001
 1.0181306026e+000	 3.4391354382e+000	-1.4987849769e-001
 9.8243760569e-001	 3.4495012729e+000	-1.2553102139e-001
 9.4673528848e-001	 3.4594703732e+000	-9.7191730469e-002
 9.1102981351e-001	 3.4690442501e+000	-6.6388942014e-002
 8.7532727733e-001	 3.4782245325e+000	-3.3980336578e-002
 8.3963370799e-001	 3.4870129649e+000	-1.5047337156e-004
 8.0395506266e-001	 3.4954114045e+000	 3.5599221304e-002
 7.6829722522e-001	 3.5034218188e+000	 7.4456599539e-002
 7.3266600407e-001	 3.5110462825e+000	 1.1830146989e-001
 6.9706712995e-001	 3.5182869755e+000	 1.6970519548e-001
 1.0616434291e+000	 3.4538624374e+000	-1.7626854574e-001
 1.0257007057e+000	 3.4647064304e+000	-1.5426206569e-001
 9.8974232071e-001	 3.4751493381e+000	-1.2595869802e-001
 9.5377454619e-001	 3.4851925616e+000	-9.3648443208e-002
 9.1780359042e-001	 3.4948376231e+000	-5.9003579090e-002
 8.8183559529e-001	 3.5040861637e+000	-2.3015849111e-002
 8.4587663368e-001	 3.5129399407e+000	 1.4006121505e-002
 8.0993270704e-001	 3.5214008252e+000	 5.2445416334e-002
 7.7400974300e-001	 3.5294707992e+000	 9.3381532441e-002
 7.3811359314e-001	 3.5371519531e+000	 1.3859161953e-001
 7.0225003084e-001	 3.5444464828e+000	 1.9054866130e-001
 1.0694788046e+000	 3.4793533964e+000	-1.8822079475e-001
 1.0332708087e+000	 3.4902774225e+000	-1.6261693258e-001
 9.9704703574e-001	 3.5007974033e+000	-1.3046445941e-001
 9.6081380390e-001	 3.5109147501e+000	-9.4245203499e-002
 9.2457736733e-001	 3.5206309962e+000	-5.5805679145e-002
 8.8834391325e-001	 3.5299477948e+000	-1.6301391770e-002
 8.5211955937e-001	 3.5388669165e+000	 2.3805595861e-002
 8.1591035141e-001	 3.5473902459e+000	 6.4753739338e-002
 7.7972226078e-001	 3.5555197797e+000	 1.0748518525e-001
 7.4356118222e-001	 3.5632576237e+000	 1.5364548369e-001
 7.0743293173e-001	 3.5706059901e+000	 2.0558026944e-001
 1.0773141800e+000	 3.5048443553e+000	-2.0466567009e-001
 1.0408409118e+000	 3.5158484147e+000	-1.7577692944e-001
 1.0043517508e+000	 3.5264454685e+000	-1.4000639757e-001
 9.6785306161e-001	 3.5366369385e+000	-1.0005614780e-001
 9.3135114424e-001	 3.5464243692e+000	-5.7975302572e-002
 8.9485223122e-001	 3.5558094260e+000	-1.5110960379e-002
 8.5836248506e-001	 3.5647938922e+000	 2.7893843687e-002
 8.2188799579e-001	 3.5733796665e+000	 7.1105597585e-002
 7.8543477855e-001	 3.5815687602e+000	 1.1530185471e-001
 7.4900877130e-001	 3.5893632944e+000	 1.6196932537e-001
 7.1261583262e-001	 3.5967654974e+000	 2.1329896818e-001
 6.6078682374e-001	 3.3351704242e+000	-3.2540125002e-002
 6.2708183937e-001	 3.3416716788e+000	 1.1693605933e-002
 5.9341813416e-001	 3.3478136668e+000	 3.7248370171e-002
 5.5980089879e-001	 3.3535987384e+000	 4.7025564360e-002
 5.2623524340e-001	 3.3590293320e+000	 4.4236070560e-002
 4.9272619611e-001	 3.3641079719e+000	 3.2535119390e-002
 4.5927870155e-001	 3.3688372654e+000	 1.6142765113e-002
 4.2589761953e-001	 3.3732199000e+000	-4.8908173359e-005
 3.9258772377e-001	 3.3772586410e+000	-1.0380758981e-002
 3.5935370079e-001	 3.3809563279e+000	-8.3426853363e-003
 3.2620014879e-001	 3.3843158724e+000	 1.3500165869e-002
 6.6596972462e-001	 3.3613299316e+000	-5.9931407491e-003
 6.3200037421e-001	 3.3678821789e+000	 2.8967918286e-002
 5.9807262675e-001	 3.3740723418e+000	 4.7776193411e-002
 5.6419171360e-001	 3.3799027887e+000	 5.3154871311e-002
 5.3036278501e-001	 3.3853759773e+000	 4.8206879238e-002
 4.9659090852e-001	 3.3904944517e+000	 3.6545461336e-002
 4.6288106755e-001	 3.3952608395e+000	 2.2410168212e-002
 4.2923816003e-001	 3.3996778495e+000	 1.0769449485e-002
 3.9566699713e-001	 3.4037482685e+000	 7.4110058102e-003
 3.6217230211e-001	 3.4074749583e+000	 1.9021016284e-002
 3.2875870925e-001	 3.4108608535e+000	 5.3253310225e-002
 6.7115262551e-001	 3.3874894389e+000	 2.3839592204e-002
 6.3691890906e-001	 3.3940926790e+000	 5.0159213549e-002
 6.0272711934e-001	 3.4003310168e+000	 6.2121070028e-002
 5.6858252842e-001	 3.4062068391e+000	 6.3053648410e-002
 5.3449032662e-001	 3.4117226227e+000	 5.5905325916e-002
 5.0045562093e-001	 3.4168809315e+000	 4.4199662586e-002
 4.6648343355e-001	 3.4216844137e+000	 3.2146587776e-002
 4.3257870053e-001	 3.4261357990e+000	 2.4740076393e-002
 3.9874627048e-001	 3.4302378959e+000	 2.7843540059e-002
 3.6499090342e-001	 3.4339935887e+000	 4.8264113084e-002
 3.3131726971e-001	 3.4374058346e+000	 9.3816961112e-002
 6.7633552640e-001	 3.4136489462e+000	 5.4746016436e-002
 6.4183744391e-001	 3.4203031791e+000	 7.4424813980e-002
 6.0738161193e-001	 3.4265896917e+000	 7.9461884768e-002
 5.7297334323e-001	 3.4325108894e+000	 7.5883539885e-002
 5.3861786822e-001	 3.4380692681e+000	 6.6441674709e-002
 5.0432033334e-001	 3.4432674113e+000	 5.4527098677e-002
 4.7008579956e-001	 3.4481079879e+000	 4.4275577932e-002
 4.3591924104e-001	 3.4525937485e+000	 4.0660270384e-002
 4.0182554384e-001	 3.4567275234e+000	 4.9571849634e-002
 3.6780950474e-001	 3.4605122191e+000	 7.7887563819e-002
 3.3387583017e-001	 3.4639508156e+000	 1.3353041824e-001
 6.8151842728e-001	 3.4398084535e+000	 8.5826198470e-002
 6.4675597877e-001	 3.4465136792e+000	 1.0077672008e-001
 6.1203610452e-001	 3.4528483667e+000	 9.8835753334e-002
 5.7736415804e-001	 3.4588149398e+000	 9.0670533584e-002
 5.4274540983e-001	 3.4644159134e+000	 7.8799312849e-002
 5.0818504575e-001	 3.4696538911e+000	 6.6441817035e-002
 4.7368816556e-001	 3.4745315620e+000	 5.7619780258e-002
 4.3925978154e-001	 3.4790516980e+000	 5.7243791222e-002
 4.0490481720e-001	 3.4832171509e+000	 7.1187821980e-002
 3.7062810607e-001	 3.4870308495e+000	 1.0635275369e-001
 3.3643439063e-001	 3.4904957967e+000	 1.7072015124e-001
 6.8670132817e-001	 3.4659679608e+000	 1.1609317135e-001
 6.5167451362e-001	 3.4727241793e+000	 1.2808736540e-001
 6.1669059710e-001	 3.4791070416e+000	 1.1914288634e-001
 5.8175497286e-001	 3.4851189901e+000	 1.0630888075e-001
 5.4687295144e-001	 3.4907625588e+000	 9.1837676869e-002
 5.1204975816e-001	 3.4960403710e+000	 7.8744424069e-002
 4.7729053156e-001	 3.5009551362e+000	 7.0901730160e-002
 4.4260032205e-001	 3.5055096475e+000	 7.3120548447e-002
 4.0798409055e-001	 3.5097067784e+000	 9.1218761445e-002
 3.7344670739e-001	 3.5135494799e+000	 1.3207884685e-001
 3.3899295109e-001	 3.5170407778e+000	 2.0369594280e-001
 6.9188422906e-001	 3.4921274681e+000	 1.4445263136e-001
 6.5659304847e-001	 3.4989346794e+000	 1.5509538723e-001
 6.2134508969e-001	 3.5053657166e+000	 1.3915148522e-001
 5.8614578767e-001	 3.5114230404e+000	 1.2156506673e-001
 5.5100049305e-001	 3.5171092041e+000	 1.0429525158e-001
 5.1591447057e-001	 3.5224268508e+000	 9.0124069683e-002
 4.8089289757e-001	 3.5273787104e+000	 8.2744787997e-002
 4.4594086255e-001	 3.5319675970e+000	 8.6836443957e-002
 4.1106336391e-001	 3.5361964059e+000	 1.0812611187e-001
 3.7626530871e-001	 3.5400681103e+000	 1.5344036123e-001
 3.4155151155e-001	 3.5435857589e+000	 2.3074729151e-001
 6.9706712995e-001	 3.5182869755e+000	 1.6970519548e-001
 6.6151158332e-001	 3.5251451795e+000	 1.8041141231e-001
 6.2599958229e-001	 3.5316243916e+000	 1.5750266835e-001
 5.9053660249e-001	 3.5377270908e+000	 1.3508182996e-001
 5.5512803466e-001	 3.5434558495e+000	 1.1479263800e-001
 5.1977918299e-001	 3.5488133306e+000	 9.9160524116e-002
 4.8449526357e-001	 3.5538022846e+000	 9.1674188461e-002
 4.4928140306e-001	 3.5584255465e+000	 9.6853361267e-002
 4.1414263727e-001	 3.5626860333e+000	 1.2030435669e-001
 3.7908391003e-001	 3.5665867407e+000	 1.6876495410e-001
 3.4411007201e-001	 3.5701307400e+000	 2.5014006094e-001
 7.0225003084e-001	 3.5444464828e+000	 1.9054866130e-001
 6.6643011817e-001	 3.5513556796e+000	 2.0252385685e-001
 6.3065407488e-001	 3.5578830665e+000	 1.7271542600e-001
 5.9492741731e-001	 3.5640311411e+000	 1.4538222671e-001
 5.5925557627e-001	 3.5698024949e+000	 1.2183568679e-001
 5.2364389540e-001	 3.5751998104e+000	 1.0432634236e-001
 4.8809762958e-001	 3.5802258587e+000	 9.6118202111e-002
 4.5262194356e-001	 3.5848834960e+000	 1.0154929386e-001
 4.1722191063e-001	 3.5891756608e+000	 1.2608008741e-001
 3.8190251135e-001	 3.5931053711e+000	 1.7633140737e-001
 3.4666863247e-001	 3.5966757211e+000	 2.6011336214e-001
 7.0743293173e-001	 3.5706059901e+000	 2.0558026944e-001
 6.7134865303e-001	 3.5775661797e+000	 2.1910370949e-001
 6.3530856747e-001	 3.5841417415e+000	 1.8319160242e-001
 5.9931823212e-001	 3.5903351915e+000	 1.5087373936e-001
 5.6338311789e-001	 3.5961491402e+000	 1.2381869364e-001
 5.2750860781e-001	 3.6015862902e+000	 1.0398911166e-001
 4.9169999558e-001	 3.6066494329e+000	 9.4409403292e-002
 4.5596248407e-001	 3.6113414455e+000	 9.9218605502e-002
 4.2030118399e-001	 3.6156652883e+000	 1.2371123177e-001
 3.8472111267e-001	 3.6196240015e+000	 1.7436780261e-001
 3.4922719293e-001	 3.6232207021e+000	 2.5887665773e-001
 7.1261583262e-001	 3.5967654974e+000	 2.1329896818e-001
 6.7626718788e-001	 3.6037766798e+000	 2.2769343907e-001
 6.3996306006e-001	 3.6104004164e+000	 1.8722090382e-001
 6.0370904694e-001	 3.6166392418e+000	 1.4985242577e-001
 5.6751065950e-001	 3.6224957856e+000	 1.1902765370e-001
 5.3137332022e-001	 3.6279727701e+000	 9.6413777825e-002
 4.9530236159e-001	 3.6330730071e+000	 8.4786039042e-002
 4.5930302458e-001	 3.6377993950e+000	 8.8072415803e-002
 4.2338045735e-001	 3.6421549158e+000	 1.1138643351e-001
 3.8753971400e-001	 3.6461426319e+000	 1.6104987593e-001
 3.5178575339e-001	 3.6497656832e+000	 2.4460707619e-001
 3.2620014879e-001	 3.3843158724e+000	 1.3500165869e-002
 2.9312663406e-001	 3.3873406841e+000	 3.0643400964e-002
 2.6014261392e-001	 3.3900332827e+000	 1.7420893152e-002
 2.2725248468e-001	 3.3923967809e+000	-1.9003066288e-002
 1.9446054890e-001	 3.3944343523e+000	-7.0459252394e-002
 1.6177101484e-001	 3.3961492286e+000	-1.2772770916e-001
 1.2918799594e-001	 3.3975446965e+000	-1.8049717982e-001
 9.6715510352e-002	 3.3986240953e+000	-2.1732916501e-001
 6.4357480676e-002	 3.3993908141e+000	-2.2562606958e-001
 3.2117733651e-002	 3.3998482888e+000	-1.9160295897e-001
 0.0000000000e+000	 3.4000000000e+000	-1.0026247787e-001
 3.2875870925e-001	 3.4108608535e+000	 5.3253310225e-002
 2.9542578143e-001	 3.4139093904e+000	 8.3649023587e-002
 2.6218305016e-001	 3.4166231084e+000	 8.2643648869e-002
 2.2903494622e-001	 3.4190051448e+000	 5.7761473002e-002
 1.9598580593e-001	 3.4210586980e+000	 1.7556899338e-002
 1.6303987056e-001	 3.4227870249e+000	-2.8343356444e-002
 1.3020128578e-001	 3.4241934382e+000	-6.9203003652e-002
 9.7474101301e-002	 3.4252813033e+000	-9.3143225193e-002
 6.4862270468e-002	 3.4260540359e+000	-8.7113480879e-002
 3.2369650039e-002	 3.4265150989e+000	-3.6865573327e-002
 0.0000000000e+000	 3.4266680000e+000	 7.3069478632e-002
 3.3131726971e-001	 3.4374058346e+000	 9.3816961112e-002
 2.9772492880e-001	 3.4404780966e+000	 1.3605090181e-001
 2.6422348640e-001	 3.4432129342e+000	 1.4548505369e-001
 2.3081740777e-001	 3.4456135087e+000	 1.2997416317e-001
 1.9751106297e-001	 3.4476830437e+000	 9.8429230847e-002
 1.6430872627e-001	 3.4494248213e+000	 6.0855813945e-002
 1.3121457563e-001	 3.4508421800e+000	 2.8387716603e-002
 9.8232692251e-002	 3.4519385114e+000	 1.3316712821e-002
 6.5367060260e-002	 3.4527172577e+000	 2.9118876391e-002
 3.2621566427e-002	 3.4531819089e+000	 9.0478022993e-002
 0.0000000000e+000	 3.4533360000e+000	 2.1330672742e-001
 3.3387583017e-001	 3.4639508156e+000	 1.3353041824e-001
 3.0002407618e-001	 3.4670468029e+000	 1.8607248371e-001
 2.6626392265e-001	 3.4698027599e+000	 2.0415107567e-001
 2.3259986931e-001	 3.4722218727e+000	 1.9592434872e-001
 1.9903632000e-001	 3.4743073894e+000	 1.7063354506e-001
 1.6557758198e-001	 3.4760626177e+000	 1.3863710174e-001
 1.3222786547e-001	 3.4774909217e+000	 1.1144049523e-001
 9.8991283199e-002	 3.4785957194e+000	 1.0172249115e-001
 6.5871850052e-002	 3.4793804796e+000	 1.2335839189e-001
 3.2873482815e-002	 3.4798487190e+000	 1.9144080048e-001
 0.0000000000e+000	 3.4800040000e+000	 3.2229837130e-001
 3.3643439063e-001	 3.4904957967e+000	 1.7072015124e-001
 3.0232322355e-001	 3.4936155092e+000	 2.3195289618e-001
 2.6830435889e-001	 3.4963925857e+000	 2.5689220923e-001
 2.3438233086e-001	 3.4988302366e+000	 2.5397517337e-001
 2.0056157703e-001	 3.5009317350e+000	 2.3274922273e-001
 1.6684643769e-001	 3.5027004140e+000	 2.0390174341e-001
 1.3324115532e-001	 3.5041396635e+000	 1.7928579027e-001
 9.9749874148e-002	 3.5052529275e+000	 1.7194261205e-001
 6.6376639843e-002	 3.5060437014e+000	 1.9612159567e-001
 3.3125399203e-002	 3.5065155291e+000	 2.6729816152e-001
 0.0000000000e+000	 3.5066720000e+000	 4.0219008815e-001
 3.3899295109e-001	 3.5170407778e+000	 2.0369594280e-001
 3.0462237093e-001	 3.5201842155e+000	 2.7194191223e-001
 2.7034479513e-001	 3.5229824115e+000	 3.0199735998e-001
 2.3616479241e-001	 3.5254386005e+000	 3.0255647771e-001
 2.0208683407e-001	 3.5275560807e+000	 2.8345123054e-001
 1.6811529340e-001	 3.5293382104e+000	 2.5567612976e-001
 1.3425444516e-001	 3.5307884052e+000	 2.3140953164e-001
 1.0050846510e-001	 3.5319101355e+000	 2.2403217909e-001
 6.6881429635e-002	 3.5327069232e+000	 2.4814361611e-001
 3.3377315591e-002	 3.5331823391e+000	 3.1957702027e-001
 0.0000000000e+000	 3.5333400000e+000	 4.5541293890e-001
 3.4155151155e-001	 3.5435857589e+000	 2.3074729151e-001
 3.0692151830e-001	 3.5467529218e+000	 3.0429521530e-001
 2.7238523137e-001	 3.5495722372e+000	 3.3778806088e-001
 2.3794725395e-001	 3.5520469645e+000	 3.4015805988e-001
 2.0361209110e-001	 3.5541804264e+000	 3.2150252065e-001
 1.6938414911e-001	 3.5559760068e+000	 2.9310344098e-001
 1.3526773500e-001	 3.5574371470e+000	 2.6744408964e-001
 1.0126705605e-001	 3.5585673436e+000	 2.5822329862e-001
 6.7386219427e-002	 3.5593701451e+000	 2.8036811548e-001
 3.3629231979e-002	 3.5598491492e+000	 3.5004537433e-001
 0.0000000000e+000	 3.5600080000e+000	 4.8467267851e-001
 3.4411007201e-001	 3.5701307400e+000	 2.5014006094e-001
 3.0922066568e-001	 3.5733216281e+000	 3.2726994504e-001
 2.7442566762e-001	 3.5761620630e+000	 3.6261300252e-001
 2.3972971550e-001	 3.5786553284e+000	 3.6532328018e-001
 2.0513734813e-001	 3.5808047721e+000	 3.4574680163e-001
 1.7065300483e-001	 3.5826138031e+000	 3.1543567741e-001
 1.3628102485e-001	 3.5840858887e+000	 2.8715966090e-001
 1.0202564699e-001	 3.5852245516e+000	 2.7491591783e-001
 6.7891009218e-002	 3.5860333669e+000	 2.9393767813e-001
 3.3881148367e-002	 3.5865159592e+000	 3.6070234254e-001
 0.0000000000e+000	 3.5866760000e+000	 4.9293954382e-001
 3.4666863247e-001	 3.5966757211e+000	 2.6011336214e-001
 3.1151981305e-001	 3.5998903343e+000	 3.3912050995e-001
 2.7646610386e-001	 3.6027518887e+000	 3.7484286119e-001
 2.4151217705e-001	 3.6052636923e+000	 3.7664299194e-001
 2.0666260517e-001	 3.6074291178e+000	 3.5510166132e-001
 1.7192186054e-001	 3.6092515995e+000	 3.2202606547e-001
 1.3729431469e-001	 3.6107346305e+000	 2.9045605022e-001
 1.0278423794e-001	 3.6118817597e+000	 2.7466907659e-001
 6.8395799010e-002	 3.6126965887e+000	 2.9018462801e-001
 3.4133064755e-002	 3.6131827693e+000	 3.5376864487e-001
 0.0000000000e+000	 3.6133440000e+000	 4.8343849358e-001
 3.4922719293e-001	 3.6232207021e+000	 2.5887665773e-001
 3.1381896043e-001	 3.6264590406e+000	 3.3809465341e-001
 2.7850654010e-001	 3.6293417145e+000	 3.7286540962e-001
 2.4329463859e-001	 3.6318720562e+000	 3.7274978189e-001
 2.0818786220e-001	 3.6340534634e+000	 3.4855202373e-001
 1.7319071625e-001	 3.6358893958e+000	 3.1232181977e-001
 1.3830760454e-001	 3.6373833723e+000	 2.7735482794e-001
 1.0354282889e-001	 3.6385389677e+000	 2.5819255202e-001
 6.8900588802e-002	 3.6393598106e+000	 2.7062225339e-001
 3.4384981144e-002	 3.6398495793e+000	 3.3167750169e-001
 0.0000000000e+000	 3.6400120000e+000	 4.5963987757e-001
 3.5178575339e-001	 3.6497656832e+000	 2.4460707619e-001
 3.1611810781e-001	 3.6530277469e+000	 3.2242975998e-001
 2.8054697635e-001	 3.6559315402e+000	 3.5508089590e-001
 2.4507710014e-001	 3.6584804202e+000	 3.5231250426e-001
 2.0971311924e-001	 3.6606778091e+000	 3.2514392286e-001
 1.7445957196e-001	 3.6625271922e+000	 2.8585724292e-001
 1.3932089439e-001	 3.6640321140e+000	 2.4799184387e-001
 1.0430141984e-001	 3.6651961758e+000	 2.2633887569e-001
 6.9405378595e-002	 3.6660230324e+000	 2.3693641827e-001
 3.4636897532e-002	 3.6665163894e+000	 2.9706593111e-001
 0.0000000000e+000	 3.6666800000e+000	 4.2525051287e-001
 3.6666800000e+000	 0.0000000000e+000	 6.2511576489e-001
 3.6665163894e+000	 3.4636897532e-002	 6.9251630230e-001
 3.6660230324e+000	 6.9405378595e-002	 7.3383188846e-001
 3.6651961758e+000	 1.0430141984e-001	 7.5623357908e-001
 3.6640321140e+000	 1.3932089439e-001	 7.6601800680e-001
 3.6625271922e+000	 1.7445957196e-001	 7.6864784366e-001
 3.6606778091e+000	 2.0971311924e-001	 7.6878949344e-001
 3.6584804202e+000	 2.4507710014e-001	 7.7034869111e-001
 3.6559315402e+000	 2.8054697635e-001	 7.7650479572e-001
 3.6530277469e+000	 3.1611810781e-001	 7.8974468209e-001
 3.6497656832e+000	 3.5178575339e-001	 8.1189725416e-001
 3.6933440000e+000	 0.0000000000e+000	 6.7590212369e-001
 3.6931791996e+000	 3.4888776135e-002	 7.4222385543e-001
 3.6926822549e+000	 6.9910092673e-002	 7.8186376378e-001
 3.6918493855e+000	 1.0505989701e-001	 8.0192353293e-001
 3.6906768587e+000	 1.4033403225e-001	 8.0870017673e-001
 3.6891609931e+000	 1.7572823736e-001	 8.0772187854e-001
 3.6872981613e+000	 2.1123814750e-001	 8.0378032514e-001
 3.6850847930e+000	 2.4685929434e-001	 8.0096024312e-001
 3.6825173777e+000	 2.8258710654e-001	 8.0266696379e-001
 3.6795924681e+000	 3.1841691033e-001	 8.1165296847e-001
 3.6763066828e+000	 3.5434393009e-001	 8.3004449233e-001
 3.7200080000e+000	 0.0000000000e+000	 7.2224721873e-001
 3.7198420098e+000	 3.5140654739e-002	 7.8526793098e-001
 3.7193414775e+000	 7.0414806752e-002	 8.2161088963e-001
 3.7185025951e+000	 1.0581837418e-001	 8.3822244481e-001
 3.7173216033e+000	 1.4134717011e-001	 8.4131861397e-001
 3.7157947940e+000	 1.7699690275e-001	 8.3641606758e-001
 3.7139185136e+000	 2.1276317576e-001	 8.2835883613e-001
 3.7116891659e+000	 2.4864148853e-001	 8.2134147937e-001
 3.7091032152e+000	 2.8462723674e-001	 8.1892958451e-001
 3.7061571893e+000	 3.2071571285e-001	 8.2407859431e-001
 3.7028476823e+000	 3.5690210679e-001	 8.3915209962e-001
 3.7466720000e+000	 0.0000000000e+000	 7.6572924402e-001
 3.7465048200e+000	 3.5392533342e-002	 8.2343926268e-001
 3.7460007000e+000	 7.0919520830e-002	 8.5501339661e-001
 3.7451558048e+000	 1.0657685135e-001	 8.6716238406e-001
 3.7439663479e+000	 1.4236030797e-001	 8.6594582045e-001
 3.7424285949e+000	 1.7826556815e-001	 8.5679804069e-001
 3.7405388658e+000	 2.1428820401e-001	 8.4454891174e-001
 3.7382935388e+000	 2.5042368272e-001	 8.3344030962e-001
 3.7356890527e+000	 2.8666736693e-001	 8.2713919011e-001
 3.7327219104e+000	 3.2301451537e-001	 8.2874830474e-001
 3.7293886818e+000	 3.5946028349e-001	 8.4081575563e-001
 3.7733360000e+000	 0.0000000000e+000	 8.0780059324e-001
 3.7731676302e+000	 3.5644411946e-002	 8.5842056636e-001
 3.7726599226e+000	 7.1424234909e-002	 8.8391956599e-001
 3.7718090145e+000	 1.0733532852e-001	 8.9069817643e-001
 3.7706110926e+000	 1.4337344583e-001	 8.8459015318e-001
 3.7690623958e+000	 1.7953423355e-001	 8.7088293490e-001
 3.7671592180e+000	 2.1581323227e-001	 8.5433221412e-001
 3.7648979116e+000	 2.5220587691e-001	 8.3917137589e-001
 3.7622748902e+000	 2.8870749713e-001	 8.2911675748e-001
 3.7592866316e+000	 3.2531331789e-001	 8.2736983327e-001
 3.7559296814e+000	 3.6201846019e-001	 8.3661757962e-001
 3.8000000000e+000	 0.0000000000e+000	 8.4979227345e-001
 3.7998304405e+000	 3.5896290549e-002	 8.9179054931e-001
 3.7993191451e+000	 7.1928948989e-002	 9.1008943236e-001
 3.7984622241e+000	 1.0809380568e-001	 9.1071060155e-001
 3.7972558372e+000	 1.4438658369e-001	 8.9919862227e-001
 3.7956961966e+000	 1.8080289894e-001	 8.8063580249e-001
 3.7937795703e+000	 2.1733826053e-001	 8.5965021440e-001
 3.7915022845e+000	 2.5398807111e-001	 8.4041772690e-001
 3.7888607277e+000	 2.9074762732e-001	 8.2665904752e-001
 3.7858513528e+000	 3.2761212042e-001	 8.2163293270e-001
 3.7824706809e+000	 3.6457663688e-001	 8.2812688431e-001
 3.8266640000e+000	 0.0000000000e+000	 8.9291813405e-001
 3.8264932507e+000	 3.6148169153e-002	 9.2502775187e-001
 3.8259783677e+000	 7.2433663068e-002	 9.3519823498e-001
 3.8251154338e+000	 1.0885228285e-001	 9.2900945515e-001
 3.8239005819e+000	 1.4539972155e-001	 9.1165956906e-001
 3.8223299975e+000	 1.8207156434e-001	 8.8797391436e-001
 3.8203999225e+000	 2.1886328879e-001	 8.6240613463e-001
 3.8181066574e+000	 2.5577026530e-001	 8.3903241588e-001
 3.8154465652e+000	 2.9278775752e-001	 8.2153988049e-001
 3.8124160740e+000	 3.2991092294e-001	 8.1321035394e-001
 3.8090116804e+000	 3.6713481358e-001	 8.1690088827e-001
 3.8533280000e+000	 0.0000000000e+000	 9.3827892039e-001
 3.8531560609e+000	 3.6400047757e-002	 9.5951422931e-001
 3.8526375902e+000	 7.2938377147e-002	 9.6083972493e-001
 3.8517686435e+000	 1.0961076002e-001	 9.4733648245e-001
 3.8505453265e+000	 1.4641285941e-001	 9.2380523045e-001
 3.8489637984e+000	 1.8334022973e-001	 8.9476896385e-001
 3.8470202747e+000	 2.2038831705e-001	 8.6446680371e-001
 3.8447110303e+000	 2.5755245950e-001	 8.3684002544e-001
 3.8420324026e+000	 2.9482788771e-001	 8.1551135050e-001
 3.8389807951e+000	 3.3220972546e-001	 8.0375877512e-001
 3.8355526800e+000	 3.6969299028e-001	 8.0448538871e-001
 3.8799920000e+000	 0.0000000000e+000	 9.8686616005e-001
 3.8798188711e+000	 3.6651926360e-002	 9.9653908162e-001
 3.8792968128e+000	 7.3443091225e-002	 9.8852933530e-001
 3.8784218531e+000	 1.1036923719e-001	 9.6736818900e-001
 3.8771900711e+000	 1.4742599728e-001	 9.3741419474e-001
 3.8755975993e+000	 1.8460889513e-001	 9.0284917575e-001
 3.8736406269e+000	 2.2191334531e-001	 8.6766443159e-001
 3.8713154031e+000	 2.5933465369e-001	 8.3563812295e-001
 3.8686182401e+000	 2.9686801791e-001	 8.1030498214e-001
 3.8655455163e+000	 3.3450852798e-001	 7.9491968344e-001
 3.8620936795e+000	 3.7225116698e-001	 7.9241539672e-001
 3.9066560000e+000	 0.0000000000e+000	 1.0395658901e+000
 3.9064816814e+000	 3.6903804964e-002	 1.0373018387e+000
 3.9059560353e+000	 7.3947805304e-002	 1.0197072207e+000
 3.9050750628e+000	 1.1112771436e-001	 9.9071853482e-001
 3.9038348158e+000	 1.4843913514e-001	 9.5421375421e-001
 3.9022314002e+000	 1.8587756052e-001	 9.1400132500e-001
 3.9002609792e+000	 2.2343837357e-001	 8.7379830558e-001
 3.8979197760e+000	 2.6111684788e-001	 8.3719864975e-001
 3.8952040776e+000	 2.9890814810e-001	 8.0763283190e-001
 3.8921102375e+000	 3.3680733051e-001	 7.8832021201e-001
 3.8886346791e+000	 3.7480934368e-001	 7.8221573674e-001
 3.9333200000e+000	 0.0000000000e+000	 1.0971622326e+000
 3.9331444916e+000	 3.7155683567e-002	 1.0829157074e+000
 3.9326152578e+000	 7.4452519382e-002	 1.0557411722e+000
 3.9317282725e+000	 1.1188619153e-001	 1.0189415173e+000
 3.9304795604e+000	 1.4945227300e-001	 9.7588215938e-001
 3.9288652011e+000	 1.8714622592e-001	 9.2997266938e-001
 3.9268813314e+000	 2.2496340183e-001	 8.8463641250e-001
 3.9245241489e+000	 2.6289904207e-001	 8.4326924741e-001
 3.9217899151e+000	 3.0094827830e-001	 8.0918853705e-001
 3.9186749587e+000	 3.3910613303e-001	 7.8557393382e-001
 3.9151756786e+000	 3.7736752037e-001	 7.7540161187e-001
 3.6497656832e+000	 3.5178575339e-001	 8.1189725416e-001
 3.6461426319e+000	 3.8753971400e-001	 8.3174742568e-001
 3.6421549158e+000	 4.2338045735e-001	 8.3901710876e-001
 3.6377993950e+000	 4.5930302458e-001	 8.3607915440e-001
 3.6330730071e+000	 4.9530236159e-001	 8.2484080330e-001
 3.6279727701e+000	 5.3137332022e-001	 8.0679690236e-001
 3.6224957856e+000	 5.6751065950e-001	 7.8309202775e-001
 3.6166392418e+000	 6.0370904694e-001	 7.5459324389e-001
 3.6104004164e+000	 6.3996306006e-001	 7.2197529401e-001
 3.6037766798e+000	 6.7626718788e-001	 6.8650502774e-001
 3.5967654974e+000	 7.1261583262e-001	 6.6384840318e-001
 3.6763066828e+000	 3.5434393009e-001	 8.3004449233e-001
 3.6726572847e+000	 3.9035789255e-001	 8.4681066758e-001
 3.6686405700e+000	 4.2645926884e-001	 8.5153874183e-001
 3.6642533760e+000	 4.6264306403e-001	 8.4644793341e-001
 3.6594926179e+000	 4.9890418727e-001	 8.3329437306e-001
 3.6543552921e+000	 5.3523745296e-001	 8.1341562475e-001
 3.6488384791e+000	 5.7163758201e-001	 7.8778404633e-001
 3.6429393467e+000	 6.0809920317e-001	 7.5707082156e-001
 3.6366551528e+000	 6.4461685451e-001	 7.2172256768e-001
 3.6299832485e+000	 6.8118498499e-001	 6.8355763017e-001
 3.6229210810e+000	 7.1779795611e-001	 6.5892443281e-001
 3.7028476823e+000	 3.5690210679e-001	 8.3915209962e-001
 3.6991719375e+000	 3.9317607110e-001	 8.5335534353e-001
 3.6951262243e+000	 4.2953808033e-001	 8.5620994728e-001
 3.6907073570e+000	 4.6598310348e-001	 8.4974914405e-001
 3.6859122288e+000	 5.0250601294e-001	 8.3554563796e-001
 3.6807378142e+000	 5.3910158569e-001	 8.1474687234e-001
 3.6751811727e+000	 5.7576450452e-001	 7.8811905946e-001
 3.6692394517e+000	 6.1248935939e-001	 7.5610191031e-001
 3.6629098892e+000	 6.4927064896e-001	 7.1887608121e-001
 3.6561898172e+000	 6.8610278210e-001	 6.7903076443e-001
 3.6490766646e+000	 7.2298007960e-001	 6.5292725697e-001
 3.7293886818e+000	 3.5946028349e-001	 8.4081575563e-001
 3.7256865903e+000	 3.9599424966e-001	 8.5283211354e-001
 3.7216118785e+000	 4.3261689182e-001	 8.5431941568e-001
 3.7171613380e+000	 4.6932314293e-001	 8.4709940118e-001
 3.7123318396e+000	 5.0610783862e-001	 8.3253591028e-001
 3.7071203362e+000	 5.4296571843e-001	 8.1156031308e-001
 3.7015238663e+000	 5.7989142703e-001	 7.8470560955e-001
 3.6955395566e+000	 6.1687951562e-001	 7.5215125030e-001
 3.6891646255e+000	 6.5392444342e-001	 7.1378081256e-001
 3.6823963859e+000	 6.9102057921e-001	 6.7313666468e-001
 3.6752322482e+000	 7.2816220310e-001	 6.4600860915e-001
 3.7559296814e+000	 3.6201846019e-001	 8.3661757962e-001
 3.7522012431e+000	 3.9881242821e-001	 8.4668279478e-001
 3.7480975327e+000	 4.3569570332e-001	 8.4715135001e-001
 3.7436153190e+000	 4.7266318238e-001	 8.3961492039e-001
 3.7387514504e+000	 5.0970966430e-001	 8.2521001950e-001
 3.7335028583e+000	 5.4682985117e-001	 8.0463297138e-001
 3.7278665598e+000	 5.8401834954e-001	 7.7816345046e-001
 3.7218396615e+000	 6.2126967185e-001	 7.4569875493e-001
 3.7154193619e+000	 6.5857823787e-001	 7.0680106989e-001
 3.7086029546e+000	 6.9593837632e-001	 6.6611112696e-001
 3.7013878317e+000	 7.3334432659e-001	 6.3834424898e-001
 3.7824706809e+000	 3.6457663688e-001	 8.2812688431e-001
 3.7787158959e+000	 4.0163060677e-001	 8.3634086405e-001
 3.7745831870e+000	 4.3877451481e-001	 8.3598573670e-001
 3.7700693001e+000	 4.7600322183e-001	 8.2841158140e-001
 3.7651710613e+000	 5.1331148998e-001	 8.1451619591e-001
 3.7598853803e+000	 5.5069398390e-001	 7.9474896330e-001
 3.7542092534e+000	 5.8814527205e-001	 7.6912316975e-001
 3.7481397664e+000	 6.2565982808e-001	 7.3723905938e-001
 3.7416740982e+000	 6.6323203232e-001	 6.9832000962e-001
 3.7348095233e+000	 7.0085617343e-001	 6.5821261984e-001
 3.7275434153e+000	 7.3852645008e-001	 6.3013299204e-001
 3.8090116804e+000	 3.6713481358e-001	 8.1690088827e-001
 3.8052305487e+000	 4.0444878532e-001	 8.2323192870e-001
 3.8010688412e+000	 4.4185332630e-001	 8.2209859457e-001
 3.7965232811e+000	 4.7934326128e-001	 8.1460497831e-001
 3.7915906721e+000	 5.1691331566e-001	 8.0140594916e-001
 3.7862679023e+000	 5.5455811664e-001	 7.8269923438e-001
 3.7805519469e+000	 5.9227219456e-001	 7.5822582036e-001
 3.7744398714e+000	 6.3004998430e-001	 7.2728108467e-001
 3.7679288346e+000	 6.6788582677e-001	 6.8874582912e-001
 3.7610160921e+000	 7.0577397054e-001	 6.4972141929e-001
 3.7536989989e+000	 7.4370857358e-001	 6.2159576687e-001
 3.8355526800e+000	 3.6969299028e-001	 8.0448538871e-001
 3.8317452015e+000	 4.0726696387e-001	 8.0877416744e-001
 3.8275544954e+000	 4.4493213779e-001	 8.0676220270e-001
 3.8229772621e+000	 4.8268330073e-001	 7.9931045726e-001
 3.8180102829e+000	 5.2051514133e-001	 7.8683394218e-001
 3.8126504244e+000	 5.5842224937e-001	 7.6928129999e-001
 3.8068946405e+000	 5.9639911707e-001	 7.4612256137e-001
 3.8007399763e+000	 6.3444014053e-001	 7.1634761630e-001
 3.7941835709e+000	 6.7253962123e-001	 6.7862783709e-001
 3.7872226608e+000	 7.1069176765e-001	 6.4093876689e-001
 3.7798545825e+000	 7.4889069707e-001	 6.1297469792e-001
 3.8620936795e+000	 3.7225116698e-001	 7.9241539672e-001
 3.8582598543e+000	 4.1008514243e-001	 7.9437874251e-001
 3.8540401497e+000	 4.4801094928e-001	 7.9124530817e-001
 3.8494312431e+000	 4.8602334018e-001	 7.8364314205e-001
 3.8444298938e+000	 5.2411696701e-001	 7.7175786061e-001
 3.8390329464e+000	 5.6228638211e-001	 7.5529898814e-001
 3.8332373341e+000	 6.0052603959e-001	 7.3347430731e-001
 3.8270400812e+000	 6.3883029676e-001	 7.0497489696e-001
 3.8204383073e+000	 6.7719341568e-001	 6.6842232161e-001
 3.8134292295e+000	 7.1560956476e-001	 6.3218605009e-001
 3.8060101661e+000	 7.5407282056e-001	 6.0453221313e-001
 3.8886346791e+000	 3.7480934368e-001	 7.8221573674e-001
 3.8847745071e+000	 4.1290332098e-001	 7.8145018467e-001
 3.8805258039e+000	 4.5108976078e-001	 7.7681331479e-001
 3.8758852241e+000	 4.8936337964e-001	 7.6871794838e-001
 3.8708495046e+000	 5.2771879269e-001	 7.5713827798e-001
 3.8654154685e+000	 5.6615051484e-001	 7.4156218452e-001
 3.8595800276e+000	 6.0465296210e-001	 7.2095138569e-001
 3.8533401861e+000	 6.4322045299e-001	 6.9371223247e-001
 3.8466930436e+000	 6.8184721013e-001	 6.5854365787e-001
 3.8396357982e+000	 7.2052736187e-001	 6.2380400341e-001
 3.8321657497e+000	 7.5925494406e-001	 5.9655017499e-001
 3.9151756786e+000	 3.7736752037e-001	 7.7540161187e-001
 3.9112891599e+000	 4.1572149954e-001	 7.7138675209e-001
 3.9070114582e+000	 4.5416857227e-001	 7.6472845352e-001
 3.9023392051e+000	 4.9270341909e-001	 7.5564958721e-001
 3.8972691155e+000	 5.3132061837e-001	 7.4393851686e-001
 3.8917979905e+000	 5.7001464758e-001	 7.2888657986e-001
 3.8859227212e+000	 6.0877988461e-001	 7.0923320226e-001
 3.8796402911e+000	 6.4761060921e-001	 6.8312161048e-001
 3.8729477800e+000	 6.8650100458e-001	 6.4942412672e-001
 3.8658423669e+000	 7.2544515898e-001	 6.1615192985e-001
 3.8583213333e+000	 7.6443706755e-001	 5.8932903399e-001
 3.5967654974e+000	 7.1261583262e-001	 6.6384840318e-001
 3.5893632944e+000	 7.4900877130e-001	 6.4955418217e-001
 3.5815687602e+000	 7.8543477855e-001	 6.3129883093e-001
 3.5733796665e+000	 8.2188799579e-001	 6.1016560229e-001
 3.5647938922e+000	 8.5836248506e-001	 5.8702650948e-001
 3.5558094260e+000	 8.9485223122e-001	 5.6255937859e-001
 3.5464243692e+000	 9.3135114424e-001	 5.3726780255e-001
 3.5366369385e+000	 9.6785306161e-001	 5.1150428790e-001
 3.5264454685e+000	 1.0043517508e+000	 4.8549688100e-001
 3.5158484147e+000	 1.0408409118e+000	 4.5937731280e-001
 3.5048443553e+000	 1.0773141800e+000	 4.3322528145e-001
 3.6229210810e+000	 7.1779795611e-001	 6.5892443281e-001
 3.6154650493e+000	 7.5445554328e-001	 6.4272732205e-001
 3.6076138335e+000	 7.9114643950e-001	 6.2345901818e-001
 3.5993651890e+000	 8.2786474356e-001	 6.0205737775e-001
 3.5907169792e+000	 8.6460447435e-001	 5.7924764816e-001
 3.5816671781e+000	 9.0135957298e-001	 5.5555859796e-001
 3.5722138734e+000	 9.3812390514e-001	 5.3134162630e-001
 3.5623552688e+000	 9.7489126348e-001	 5.0679316226e-001
 3.5520896867e+000	 1.0116553701e+000	 4.8197752799e-001
 3.5414155714e+000	 1.0484098794e+000	 4.5687053936e-001
 3.5303314908e+000	 1.0851483803e+000	 4.3137085538e-001
 3.6490766646e+000	 7.2298007960e-001	 6.5292725697e-001
 3.6415668043e+000	 7.5990231526e-001	 6.3522221163e-001
 3.6336589068e+000	 7.9685810044e-001	 6.1524842155e-001
 3.6253507114e+000	 8.3384149134e-001	 5.9380931983e-001
 3.6166400661e+000	 8.7084646365e-001	 5.7149470068e-001
 3.6075249303e+000	 9.0786691475e-001	 5.4869582360e-001
 3.5980033777e+000	 9.4489666604e-001	 5.2562357554e-001
 3.5880735991e+000	 9.8192946535e-001	 5.0233002136e-001
 3.5777339049e+000	 1.0189589895e+000	 4.7873092510e-001
 3.5669827281e+000	 1.0559788470e+000	 4.5464708007e-001
 3.5558186262e+000	 1.0929825805e+000	 4.2981797300e-001
 3.6752322482e+000	 7.2816220310e-001	 6.4600860915e-001
 3.6676685592e+000	 7.6534908725e-001	 6.2714094883e-001
 3.6597039801e+000	 8.0256976138e-001	 6.0672070363e-001
 3.6513362338e+000	 8.3981823911e-001	 5.8542860672e-001
 3.6425631530e+000	 8.7708845295e-001	 5.6373104376e-001
 3.6333826824e+000	 9.1437425652e-001	 5.4189402234e-001
 3.6237928819e+000	 9.5166942693e-001	 5.2000027880e-001
 3.6137919294e+000	 9.8896766723e-001	 4.9796987393e-001
 3.6033781231e+000	 1.0262626089e+000	 4.7558222746e-001
 3.5925498848e+000	 1.0635478146e+000	 4.5251525493e-001
 3.5813057617e+000	 1.1008167807e+000	 4.2836096616e-001
 3.7013878317e+000	 7.3334432659e-001	 6.3834424898e-001
 3.6937703142e+000	 7.7079585923e-001	 6.1860960243e-001
 3.6857490534e+000	 8.0828142233e-001	 5.9795324414e-001
 3.6773217563e+000	 8.4579498689e-001	 5.7694570738e-001
 3.6684862399e+000	 8.8333044224e-001	 5.5594277161e-001
 3.6592404345e+000	 9.2088159828e-001	 5.3509818333e-001
 3.6495823861e+000	 9.5844218783e-001	 5.1437959465e-001
 3.6395102597e+000	 9.9600586910e-001	 4.9358809319e-001
 3.6290223413e+000	 1.0335662283e+000	 4.7237960391e-001
 3.6181170415e+000	 1.0711167822e+000	 4.5030188932e-001
 3.6067928972e+000	 1.1086509810e+000	 4.2681172261e-001
 3.7275434153e+000	 7.3852645008e-001	 6.3013299204e-001
 3.7198720691e+000	 7.7624263121e-001	 6.0977718147e-001
 3.7117941267e+000	 8.1399308327e-001	 5.8904605923e-001
 3.7033072787e+000	 8.5177173467e-001	 5.6841326142e-001
 3.6944093268e+000	 8.8957243154e-001	 5.4813754715e-001
 3.6850981866e+000	 9.2738894005e-001	 5.2827415174e-001
 3.6753718904e+000	 9.6521494873e-001	 5.0868943912e-001
 3.6652285900e+000	 1.0030440710e+000	 4.8907924955e-001
 3.6546665595e+000	 1.0408698477e+000	 4.6898952164e-001
 3.6436841982e+000	 1.0786857497e+000	 4.4785119261e-001
 3.6322800327e+000	 1.1164851812e+000	 4.2499860541e-001
 3.7536989989e+000	 7.4370857358e-001	 6.2159576687e-001
 3.7459738241e+000	 7.8168940319e-001	 6.0081463400e-001
 3.7378392000e+000	 8.1970474421e-001	 5.8012075194e-001
 3.7292928012e+000	 8.5774848244e-001	 5.5990499151e-001
 3.7203324137e+000	 8.9581442084e-001	 5.4034348693e-001
 3.7109559387e+000	 9.3389628182e-001	 5.2140749708e-001
 3.7011613946e+000	 9.7198770963e-001	 5.0287664831e-001
 3.6909469203e+000	 1.0100822729e+000	 4.8435597879e-001
 3.6803107777e+000	 1.0481734670e+000	 4.6529563127e-001
 3.6692513549e+000	 1.0862547173e+000	 4.4502367183e-001
 3.6577671681e+000	 1.1243193814e+000	 4.2276540682e-001
 3.7798545825e+000	 7.4889069707e-001	 6.1297469792e-001
 3.7720755791e+000	 7.8713617517e-001	 5.9191387369e-001
 3.7638842733e+000	 8.2541640516e-001	 5.7131949224e-001
 3.7552783236e+000	 8.6372523022e-001	 5.5151464685e-001
 3.7462555007e+000	 9.0205641013e-001	 5.3260807826e-001
 3.7368136908e+000	 9.4040362358e-001	 5.1450241433e-001
 3.7269508988e+000	 9.7876047052e-001	 4.9690587445e-001
 3.7166652506e+000	 1.0171204747e+000	 4.7934570270e-001
 3.7059549959e+000	 1.0554770864e+000	 4.6119768568e-001
 3.6948185116e+000	 1.0938236849e+000	 4.4169507859e-001
 3.6832543036e+000	 1.1321535817e+000	 4.1997033493e-001
 3.8060101661e+000	 7.5407282056e-001	 6.0453221313e-001
 3.7981773340e+000	 7.9258294715e-001	 5.8328683300e-001
 3.7899293467e+000	 8.3112806610e-001	 5.6280402520e-001
 3.7812638460e+000	 8.6970197799e-001	 5.4335497603e-001
 3.7721785876e+000	 9.0829839943e-001	 5.2499712680e-001
 3.7626714430e+000	 9.4691096535e-001	 5.0758065652e-001
 3.7527404031e+000	 9.8553323142e-001	 4.9075851380e-001
 3.7423835808e+000	 1.0241586766e+000	 4.7399857603e-001
 3.7315992141e+000	 1.0627807058e+000	 4.5661049075e-001
 3.7203856683e+000	 1.1013926525e+000	 4.3775538783e-001
 3.7087414391e+000	 1.1399877819e+000	 4.1648503142e-001
 3.8321657497e+000	 7.5925494406e-001	 5.9655017499e-001
 3.8242790890e+000	 7.9802971914e-001	 5.7516454167e-001
 3.8159744200e+000	 8.3683972704e-001	 5.5475470603e-001
 3.8072493685e+000	 8.7567872577e-001	 5.3555672811e-001
 3.7981016745e+000	 9.1454038873e-001	 5.1759373328e-001
 3.7885291951e+000	 9.5341830711e-001	 5.0068049711e-001
 3.7785299073e+000	 9.9230599232e-001	 4.8443166484e-001
 3.7681019111e+000	 1.0311968785e+000	 4.6827246706e-001
 3.7572434323e+000	 1.0700843252e+000	 4.5146288674e-001
 3.7459528250e+000	 1.1089616201e+000	 4.3310780677e-001
 3.7342285745e+000	 1.1478219821e+000	 4.1219361910e-001
 3.8583213333e+000	 7.6443706755e-001	 5.8932903399e-001
 3.8503808439e+000	 8.0347649112e-001	 5.6779622924e-001
 3.8420194933e+000	 8.4255138799e-001	 5.4736956066e-001
 3.8332348909e+000	 8.8165547354e-001	 5.2826768035e-001
 3.8240247614e+000	 9.2078237802e-001	 5.1049729793e-001
 3.8143869472e+000	 9.5992564888e-001	 4.9385572078e-001
 3.8043194115e+000	 9.9907875321e-001	 4.7793711545e-001
 3.7938202414e+000	 1.0382350804e+000	 4.6214160760e-001
 3.7828876505e+000	 1.0773879445e+000	 4.4569675868e-001
 3.7715199817e+000	 1.1165305877e+000	 4.2766781260e-001
 3.7597157100e+000	 1.1556561824e+000	 4.0699177761e-001
 3.5048443553e+000	 1.0773141800e+000	 4.3322528145e-001
 3.4934319935e+000	 1.1137651284e+000	 4.0856079113e-001
 3.4816101568e+000	 1.1501872686e+000	 3.8519322589e-001
 3.4693778024e+000	 1.1865740558e+000	 3.6064735723e-001
 3.4567340197e+000	 1.2229188917e+000	 3.3255216376e-001
 3.4436780330e+000	 1.2592151286e+000	 2.9870268539e-001
 3.4302092034e+000	 1.2954560718e+000	 2.5712716349e-001
 3.4163270308e+000	 1.3316349834e+000	 2.0615954697e-001
 3.4020311558e+000	 1.3677450859e+000	 1.5524403333e-001
 3.3873213615e+000	 1.4037795652e+000	 1.1551572366e-001
 3.3721975751e+000	 1.4397315747e+000	 8.4882356580e-002
 3.5303314908e+000	 1.0851483803e+000	 4.3137085538e-001
 3.5188361386e+000	 1.1218643990e+000	 4.0686574403e-001
 3.5069283338e+000	 1.1585514001e+000	 3.8317502458e-001
 3.4946070260e+000	 1.1952027909e+000	 3.5786417085e-001
 3.4818712981e+000	 1.2318119256e+000	 3.2859722263e-001
 3.4687203686e+000	 1.2683721077e+000	 2.9319896753e-001
 3.4551535940e+000	 1.3048765941e+000	 2.4972266039e-001
 3.4411704707e+000	 1.3413185978e+000	 1.9708125843e-001
 3.4267706364e+000	 1.3776912920e+000	 1.4926411204e-001
 3.4119538729e+000	 1.4139878131e+000	 1.1148122051e-001
 3.3967201067e+000	 1.4502012647e+000	 8.1796410286e-002
 3.5558186262e+000	 1.0929825805e+000	 4.2981797300e-001
 3.5442402836e+000	 1.1299636695e+000	 4.0548395254e-001
 3.5322465108e+000	 1.1669155315e+000	 3.8146151566e-001
 3.5198362497e+000	 1.2038315261e+000	 3.5536254749e-001
 3.5070085764e+000	 1.2407049594e+000	 3.2489104333e-001
 3.4937627042e+000	 1.2775290868e+000	 2.8790556234e-001
 3.4800979847e+000	 1.3142971164e+000	 2.4248748027e-001
 3.4660139105e+000	 1.3510022122e+000	 1.8958884703e-001
 3.4515101171e+000	 1.3876374981e+000	 1.4432664237e-001
 3.4365863842e+000	 1.4241960610e+000	 1.0801691499e-001
 3.4212426383e+000	 1.4606709546e+000	 7.8907184313e-002
 3.5813057617e+000	 1.1008167807e+000	 4.2836096616e-001
 3.5696444287e+000	 1.1380629401e+000	 4.0420093279e-001
 3.5575646878e+000	 1.1752796629e+000	 3.7983332617e-001
 3.5450654733e+000	 1.2124602613e+000	 3.5292258108e-001
 3.5321458548e+000	 1.2495979933e+000	 3.2121791260e-001
 3.5188050398e+000	 1.2866860660e+000	 2.8261598231e-001
 3.5050423753e+000	 1.3237176387e+000	 2.3522963551e-001
 3.4908573503e+000	 1.3606858266e+000	 1.8328847683e-001
 3.4762495977e+000	 1.3975837042e+000	 1.4007740092e-001
 3.4612188956e+000	 1.4344043088e+000	 1.0483674609e-001
 3.4457651699e+000	 1.4711406446e+000	 7.5999888124e-002
 3.6067928972e+000	 1.1086509810e+000	 4.2681172261e-001
 3.5950485738e+000	 1.1461622107e+000	 4.0281886940e-001
 3.5828828648e+000	 1.1836437943e+000	 3.7808699235e-001
 3.5702946969e+000	 1.2210889964e+000	 3.5033965917e-001
 3.5572831332e+000	 1.2584910271e+000	 3.1737695292e-001
 3.5438473754e+000	 1.2958430451e+000	 2.7713828803e-001
 3.5299867659e+000	 1.3331381610e+000	 2.2777158022e-001
 3.5157007902e+000	 1.3703694410e+000	 1.7779523413e-001
 3.5009890783e+000	 1.4075299103e+000	 1.3619476249e-001
 3.4858514070e+000	 1.4446125567e+000	 1.0168540188e-001
 3.4702877015e+000	 1.4816103345e+000	 7.2888502233e-002
 3.6322800327e+000	 1.1164851812e+000	 4.2499860541e-001
 3.6204527189e+000	 1.1542614812e+000	 4.0115558626e-001
 3.6082010418e+000	 1.1920079257e+000	 3.7603399058e-001
 3.5955239206e+000	 1.2297177316e+000	 3.4742356300e-001
 3.5824204116e+000	 1.2673840610e+000	 3.1318130090e-001
 3.5688897110e+000	 1.3050000242e+000	 2.7129435429e-001
 3.5549311565e+000	 1.3425586833e+000	 2.2053886498e-001
 3.5405442300e+000	 1.3800530554e+000	 1.7275699219e-001
 3.5257285589e+000	 1.4174761164e+000	 1.3238816605e-001
 3.5104839184e+000	 1.4548208046e+000	 9.8336779959e-002
 3.4948102331e+000	 1.4920800244e+000	 6.9414235389e-002
 3.6577671681e+000	 1.1243193814e+000	 4.2276540682e-001
 3.6458568640e+000	 1.1623607518e+000	 3.9904355085e-001
 3.6335192188e+000	 1.2003720571e+000	 3.7349980092e-001
 3.6207531442e+000	 1.2383464667e+000	 3.4399759911e-001
 3.6075576900e+000	 1.2762770948e+000	 3.0845731606e-001
 3.5939320466e+000	 1.3141570033e+000	 2.6491916489e-001
 3.5798755472e+000	 1.3519792056e+000	 2.1386593756e-001
 3.5653876698e+000	 1.3897366698e+000	 1.6785291055e-001
 3.5504680395e+000	 1.4274223225e+000	 1.2839660445e-001
 3.5351164297e+000	 1.4650290525e+000	 9.4592469634e-002
 3.5193327647e+000	 1.5025497144e+000	 6.5444001543e-002
 3.6832543036e+000	 1.1321535817e+000	 4.1997033493e-001
 3.6712610090e+000	 1.1704600224e+000	 3.9632891047e-001
 3.6588373958e+000	 1.2087361885e+000	 3.7032300160e-001
 3.6459823679e+000	 1.2469752019e+000	 3.3989776090e-001
 3.6326949684e+000	 1.2851701287e+000	 3.0304381816e-001
 3.6189743822e+000	 1.3233139825e+000	 2.5786013501e-001
 3.6048199378e+000	 1.3613997279e+000	 2.0740654168e-001
 3.5902311097e+000	 1.3994202842e+000	 1.6279195877e-001
 3.5752075201e+000	 1.4373685286e+000	 1.2398713677e-001
 3.5597489411e+000	 1.4752373004e+000	 9.0280255034e-002
 3.5438552963e+000	 1.5130194043e+000	 6.0868915647e-002
 3.7087414391e+000	 1.1399877819e+000	 4.1648503142e-001
 3.6966651541e+000	 1.1785592929e+000	 3.9287055901e-001
 3.6841555728e+000	 1.2171003199e+000	 3.6635439312e-001
 3.6712115915e+000	 1.2556039371e+000	 3.3497191867e-001
 3.6578322468e+000	 1.2940631625e+000	 2.9679135209e-001
 3.6440167178e+000	 1.3324709616e+000	 2.4997645955e-001
 3.6297643284e+000	 1.3708202502e+000	 2.0084421242e-001
 3.6150745495e+000	 1.4091038986e+000	 1.5731146329e-001
 3.5999470007e+000	 1.4473147347e+000	 1.1895342229e-001
 3.5843814525e+000	 1.4854455482e+000	 8.5252637936e-002
 3.5683778279e+000	 1.5234890943e+000	 5.5602807376e-002
 3.7342285745e+000	 1.1478219821e+000	 4.1219361910e-001
 3.7220692992e+000	 1.1866585635e+000	 3.8853923256e-001
 3.7094737498e+000	 1.2254644513e+000	 3.6145615042e-001
 3.6964408151e+000	 1.2642326722e+000	 3.2907903685e-001
 3.6829695251e+000	 1.3029561964e+000	 2.8956147867e-001
 3.6690590534e+000	 1.3416279407e+000	 2.4149542259e-001
 3.6547087190e+000	 1.3802407725e+000	 1.9389105299e-001
 3.6399179893e+000	 1.4187875129e+000	 1.5117567639e-001
 3.6246864813e+000	 1.4572609408e+000	 1.1311427487e-001
 3.6090139638e+000	 1.4956537961e+000	 7.9385379464e-002
 3.5929003595e+000	 1.5339587842e+000	 4.9580751927e-002
 3.7597157100e+000	 1.1556561824e+000	 4.0699177761e-001
 3.7474734443e+000	 1.1947578341e+000	 3.8321663266e-001
 3.7347919268e+000	 1.2338285827e+000	 3.5550100187e-001
 3.7216700388e+000	 1.2728614074e+000	 3.2208841706e-001
 3.7081068035e+000	 1.3118492302e+000	 2.8122609038e-001
 3.6941013890e+000	 1.3507849198e+000	 2.3268839104e-001
 3.6796531097e+000	 1.3896612948e+000	 1.8628634236e-001
 3.6647614292e+000	 1.4284711273e+000	 1.4417436623e-001
 3.6494259619e+000	 1.4672071469e+000	 1.0631223696e-001
 3.6336464752e+000	 1.5058620440e+000	 7.2576059748e-002
 3.6174228910e+000	 1.5444284742e+000	 4.2757617063e-002
 3.3721975751e+000	 1.4397315747e+000	 8.4882356580e-002
 3.3566622317e+000	 1.4755888670e+000	 5.6818723750e-002
 3.3407133163e+000	 1.5113499448e+000	 2.6769097672e-002
 3.3243512004e+000	 1.5470078906e+000	-4.3822891606e-003
 3.3075764053e+000	 1.5825557699e+000	-3.5419324237e-002
 3.2903896030e+000	 1.6179866343e+000	-6.5896057525e-002
 3.2727916178e+000	 1.6532935261e+000	-9.5746491602e-002
 3.2547834267e+000	 1.6884694823e+000	-1.2519050196e-001
 3.2363661604e+000	 1.7235075382e+000	-1.5471267050e-001
 3.2175411036e+000	 1.7584007324e+000	-1.8503617392e-001
 3.1983096960e+000	 1.7931421101e+000	-2.1709181451e-001
 3.3967201067e+000	 1.4502012647e+000	 8.1796410286e-002
 3.3810717907e+000	 1.4863193103e+000	 5.4298829217e-002
 3.3650068952e+000	 1.5223404416e+000	 2.4869763086e-002
 3.3485257945e+000	 1.5582576911e+000	-5.7982247987e-003
 3.3316290134e+000	 1.5940640736e+000	-3.7014178530e-002
 3.3143172292e+000	 1.6297525903e+000	-6.7829158943e-002
 3.2965912719e+000	 1.6653162329e+000	-9.7834558399e-002
 3.2784521257e+000	 1.7007479877e+000	-1.2722010120e-001
 3.2599009295e+000	 1.7360408395e+000	-1.5646056493e-001
 3.2409389774e+000	 1.7711877760e+000	-1.8628855729e-001
 3.2215677195e+000	 1.8061817922e+000	-2.1766216405e-001
 3.4212426383e+000	 1.4606709546e+000	 7.8907184313e-002
 3.4054813497e+000	 1.4970497535e+000	 5.1723593019e-002
 3.3893004741e+000	 1.5333309384e+000	 2.2790769833e-002
 3.3727003885e+000	 1.5695074916e+000	-7.3062705041e-003
 3.3556816216e+000	 1.6055723773e+000	-3.7987390940e-002
 3.3382448554e+000	 1.6415185463e+000	-6.8679487408e-002
 3.3203909260e+000	 1.6773389397e+000	-9.8776521064e-002
 3.3021208248e+000	 1.7130264931e+000	-1.2803203529e-001
 3.2834356986e+000	 1.7485741407e+000	-1.5691696535e-001
 3.2643368512e+000	 1.7839748197e+000	-1.8619663963e-001
 3.2448257431e+000	 1.8192214742e+000	-2.1688149752e-001
 3.4457651699e+000	 1.4711406446e+000	 7.5999888124e-002
 3.4298909086e+000	 1.5077801967e+000	 4.8946809678e-002
 3.4135940530e+000	 1.5443214353e+000	 2.0446380101e-002
 3.3968749825e+000	 1.5807572920e+000	-9.0457911928e-003
 3.3797342297e+000	 1.6170806810e+000	-3.9079881887e-002
 3.3621724816e+000	 1.6532845023e+000	-6.9213922276e-002
 3.3441905801e+000	 1.6893616465e+000	-9.9016064474e-002
 3.3257895238e+000	 1.7253049986e+000	-1.2808796977e-001
 3.3069704678e+000	 1.7611074420e+000	-1.5657200047e-001
 3.2877347250e+000	 1.7967618633e+000	-1.8527885204e-001
 3.2680837666e+000	 1.8322611562e+000	-2.1529619947e-001
 3.4702877015e+000	 1.4816103345e+000	 7.2888502233e-002
 3.4543004676e+000	 1.5185106399e+000	 4.5849105925e-002
 3.4378876319e+000	 1.5553119321e+000	 1.7775947057e-002
 3.4210495765e+000	 1.5920070925e+000	-1.1026159314e-002
 3.4037868379e+000	 1.6285889847e+000	-4.0259651816e-002
 3.3861001078e+000	 1.6650504584e+000	-6.9636178702e-002
 3.3679902342e+000	 1.7013843533e+000	-9.8878777179e-002
 3.3494582228e+000	 1.7375835040e+000	-1.2772424679e-001
 3.3305052369e+000	 1.7736407432e+000	-1.5593420004e-001
 3.3111325989e+000	 1.8095489069e+000	-1.8406808027e-001
 3.2913417901e+000	 1.8453008382e+000	-2.1346286988e-001
 3.4948102331e+000	 1.4920800244e+000	 6.9414235389e-002
 3.4787100266e+000	 1.5292410832e+000	 4.2336391317e-002
 3.4621812108e+000	 1.5663024289e+000	 1.4742350240e-002
 3.4452241706e+000	 1.6032568930e+000	-1.3234795972e-002
 3.4278394461e+000	 1.6400972884e+000	-4.1471215891e-002
 3.4100277339e+000	 1.6768164144e+000	-6.9854166041e-002
 3.3917898883e+000	 1.7134070602e+000	-9.8284061601e-002
 3.3731269218e+000	 1.7498620094e+000	-1.2667675955e-001
 3.3540400061e+000	 1.7861740445e+000	-1.5496601794e-001
 3.3345304727e+000	 1.8223359506e+000	-1.8310608967e-001
 3.3145998137e+000	 1.8583405202e+000	-2.1194546122e-001
 3.5193327647e+000	 1.5025497144e+000	 6.5444001543e-002
 3.5031195856e+000	 1.5399715264e+000	 3.8338326693e-002
 3.4864747897e+000	 1.5772929258e+000	 1.1330447182e-002
 3.4693987646e+000	 1.6145066935e+000	-1.5638743949e-002
 3.4518920542e+000	 1.6516055921e+000	-4.2640143990e-002
 3.4339553601e+000	 1.6885823704e+000	-6.9758121768e-002
 3.4155895424e+000	 1.7254297670e+000	-9.7092462018e-002
 3.3967956208e+000	 1.7621405148e+000	-1.2476054070e-001
 3.3775747752e+000	 1.7987073457e+000	-1.5289969316e-001
 3.3579283465e+000	 1.8351229942e+000	-1.8166973150e-001
 3.3378578372e+000	 1.8713802022e+000	-2.1125556202e-001
 3.5438552963e+000	 1.5130194043e+000	 6.0868915647e-002
 3.5275291446e+000	 1.5507019696e+000	 3.3806809597e-002
 3.5107683686e+000	 1.5882834226e+000	 7.5455404566e-003
 3.4935733586e+000	 1.6257564939e+000	-1.8186226514e-002
 3.4759446624e+000	 1.6631138959e+000	-4.3674652354e-002
 3.4578829863e+000	 1.7003483264e+000	-6.9222242407e-002
 3.4393891965e+000	 1.7374524738e+000	-9.5149647717e-002
 3.4204643198e+000	 1.7744190203e+000	-1.2179771607e-001
 3.4011095443e+000	 1.8112406470e+000	-1.4952975276e-001
 3.3813262203e+000	 1.8479100378e+000	-1.7873394517e-001
 3.3611158607e+000	 1.8844198842e+000	-2.0982589978e-001
 3.5683778279e+000	 1.5234890943e+000	 5.5602807376e-002
 3.5519387036e+000	 1.5614324128e+000	 2.8714475859e-002
 3.5350619475e+000	 1.5992739195e+000	 3.4118594145e-003
 3.5177479526e+000	 1.6370062944e+000	-2.0808192736e-002
 3.4999972705e+000	 1.6746221996e+000	-4.4467182636e-002
 3.4818106125e+000	 1.7121142824e+000	-6.8106302495e-002
 3.4631888507e+000	 1.7494751806e+000	-9.2288077529e-002
 3.4441330188e+000	 1.7866975257e+000	-1.1759827745e-001
 3.4246443135e+000	 1.8237739482e+000	-1.4464805473e-001
 3.4047240942e+000	 1.8606970815e+000	-1.7407626151e-001
 3.3843738843e+000	 1.8974595662e+000	-2.0655189110e-001
 3.5929003595e+000	 1.5339587842e+000	 4.9580751927e-002
 3.5763482626e+000	 1.5721628561e+000	 2.3053216553e-002
 3.5593555264e+000	 1.6102644163e+000	-1.0289440847e-003
 3.5419225467e+000	 1.6482560949e+000	-2.3419849907e-002
 3.5240498787e+000	 1.6861305033e+000	-4.4895968929e-002
 3.5057382387e+000	 1.7238802385e+000	-6.6257262147e-002
 3.4869885048e+000	 1.7614978874e+000	-8.8328653362e-002
 3.4678017179e+000	 1.7989760311e+000	-1.1196178699e-001
 3.4481790826e+000	 1.8363072495e+000	-1.3803702999e-001
 3.4281219680e+000	 1.8734841251e+000	-1.6746566746e-001
 3.4076319078e+000	 1.9104992482e+000	-2.0119223511e-001
 3.6174228910e+000	 1.5444284742e+000	 4.2757617063e-002
 3.6007578216e+000	 1.5828932993e+000	 1.6832709617e-002
 3.5836491053e+000	 1.6212549131e+000	-5.7192866220e-003
 3.5660971407e+000	 1.6595058954e+000	-2.5922183723e-002
 3.5481024868e+000	 1.6976388070e+000	-4.4826593355e-002
 3.5296658649e+000	 1.7356461945e+000	-6.3510863776e-002
 3.5107881589e+000	 1.7735205942e+000	-8.3082363256e-002
 3.4914704169e+000	 1.8112545366e+000	-1.0467907129e-001
 3.4717138517e+000	 1.8488405507e+000	-1.2947143163e-001
 3.4515198418e+000	 1.8862711687e+000	-1.5866441427e-001
 3.4308899314e+000	 1.9235389302e+000	-1.9349972673e-001
 3.1983096960e+000	 1.7931421101e+000	-2.1709181451e-001
 3.1786705568e+000	 1.8277299040e+000	-2.4839137591e-001
 3.1586282936e+000	 1.8621519615e+000	-2.7730534630e-001
 3.1381848154e+000	 1.8964013734e+000	-3.0629418096e-001
 3.1173421865e+000	 1.9304712547e+000	-3.3789995323e-001
 3.0961026268e+000	 1.9643547489e+000	-3.7469211721e-001
 3.0744685107e+000	 1.9980450323e+000	-4.1920978108e-001
 3.0524423675e+000	 2.0315353184e+000	-4.6491021193e-001
 3.0300268800e+000	 2.0648188619e+000	-5.0287008190e-001
 3.0072248842e+000	 2.0978889635e+000	-5.3535543303e-001
 2.9840393683e+000	 2.1307389737e+000	-5.6466564973e-001
 3.2215677195e+000	 1.8061817922e+000	-2.1766216405e-001
 3.2017857650e+000	 1.8410211076e+000	-2.4843060231e-001
 3.1815977550e+000	 1.8756934813e+000	-2.7732963435e-001
 3.1610056124e+000	 1.9101919540e+000	-3.0691157900e-001
 3.1400114165e+000	 1.9445095906e+000	-3.3982272128e-001
 3.1186174032e+000	 1.9786394847e+000	-3.7874643159e-001
 3.0968259644e+000	 2.0125747630e+000	-4.2494480947e-001
 3.0746396477e+000	 2.0463085895e+000	-4.6607361995e-001
 3.0520611554e+000	 2.0798341701e+000	-5.0052189016e-001
 3.0290933441e+000	 2.1131447565e+000	-5.3068900643e-001
 3.0057392237e+000	 2.1462336512e+000	-5.5897205201e-001
 3.2448257431e+000	 1.8192214742e+000	-2.1688149752e-001
 3.2249009733e+000	 1.8543123111e+000	-2.4719344361e-001
 3.2045672165e+000	 1.8892350011e+000	-2.7623734392e-001
 3.1838264094e+000	 1.9239825346e+000	-3.0663698891e-001
 3.1626806464e+000	 1.9585479265e+000	-3.4112295274e-001
 3.1411321796e+000	 1.9929242205e+000	-3.8247299616e-001
 3.1191834182e+000	 2.0271044936e+000	-4.2705664006e-001
 3.0968369279e+000	 2.0610818606e+000	-4.6396760888e-001
 3.0740954307e+000	 2.0948494782e+000	-4.9523473228e-001
 3.0509618039e+000	 2.1284005496e+000	-5.2333194232e-001
 3.0274390790e+000	 2.1617283286e+000	-5.5072929000e-001
 3.2680837666e+000	 1.8322611562e+000	-2.1529619947e-001
 3.2480161815e+000	 1.8676035146e+000	-2.4524871472e-001
 3.2275366779e+000	 1.9027765210e+000	-2.7460974976e-001
 3.2066472063e+000	 1.9377731153e+000	-3.0605516396e-001
 3.1853498764e+000	 1.9725862624e+000	-3.4238093750e-001
 3.1636469561e+000	 2.0072089563e+000	-3.8600100494e-001
 3.1415408719e+000	 2.0416342243e+000	-4.2624262188e-001
 3.1190342081e+000	 2.0758551317e+000	-4.5930446366e-001
 3.0961297061e+000	 2.1098647864e+000	-4.8769819308e-001
 3.0728302637e+000	 2.1436563427e+000	-5.1394852753e-001
 3.0491389344e+000	 2.1772230061e+000	-5.4057448717e-001
 3.2913417901e+000	 1.8453008382e+000	-2.1346286988e-001
 3.2711313898e+000	 1.8808947182e+000	-2.4317108835e-001
 3.2505061393e+000	 1.9163180408e+000	-2.7302966583e-001
 3.2294680033e+000	 1.9515636959e+000	-3.0574812282e-001
 3.2080191063e+000	 1.9866245983e+000	-3.4417000842e-001
 3.1861617325e+000	 2.0214936921e+000	-3.8736802062e-001
 3.1638983256e+000	 2.0561639549e+000	-4.2322660238e-001
 3.1412314882e+000	 2.0906284029e+000	-4.5278802512e-001
 3.1181639814e+000	 2.1248800946e+000	-4.7859287240e-001
 3.0946987236e+000	 2.1589121357e+000	-5.0319360331e-001
 3.0708387898e+000	 2.1927176836e+000	-5.2913493106e-001
 3.3145998137e+000	 1.8583405202e+000	-2.1194546122e-001
 3.2942465980e+000	 1.8941859217e+000	-2.4153808679e-001
 3.2734756007e+000	 1.9298595606e+000	-2.7207828447e-001
 3.2522888003e+000	 1.9653542766e+000	-3.0629182971e-001
 3.2306883363e+000	 2.0006629342e+000	-3.4704952277e-001
 3.2086765089e+000	 2.0357784278e+000	-3.8687504156e-001
 3.1862557793e+000	 2.0706936855e+000	-4.1872384346e-001
 3.1634287684e+000	 2.1054016740e+000	-4.4511286374e-001
 3.1401982568e+000	 2.1398954027e+000	-4.6858950279e-001
 3.1165671834e+000	 2.1741679288e+000	-4.9171162531e-001
 3.0925386452e+000	 2.2082123611e+000	-5.1702707437e-001
 3.3378578372e+000	 1.8713802022e+000	-2.1125556202e-001
 3.3173618062e+000	 1.9074771252e+000	-2.4092706018e-001
 3.2964450622e+000	 1.9434010804e+000	-2.7233200203e-001
 3.2751095973e+000	 1.9791448572e+000	-3.0825286107e-001
 3.2533575662e+000	 2.0147012702e+000	-3.4987650391e-001
 3.2311912853e+000	 2.0500631636e+000	-3.8524563643e-001
 3.2086132330e+000	 2.0852234162e+000	-4.1344023712e-001
 3.1856260486e+000	 2.1201749451e+000	-4.3696344241e-001
 3.1622325321e+000	 2.1549107109e+000	-4.5834805726e-001
 3.1384356433e+000	 2.1894237219e+000	-4.8013571456e-001
 3.1142385006e+000	 2.2237070385e+000	-5.0485552825e-001
 3.3611158607e+000	 1.8844198842e+000	-2.0982589978e-001
 3.3404770145e+000	 1.9207683288e+000	-2.4172554741e-001
 3.3194145236e+000	 1.9569426003e+000	-2.7435923152e-001
 3.2979303943e+000	 1.9929354379e+000	-3.1218505951e-001
 3.2760267961e+000	 2.0287396061e+000	-3.5191217935e-001
 3.2537060618e+000	 2.0643478994e+000	-3.8319408944e-001
 3.2309706867e+000	 2.0997531468e+000	-4.0807150972e-001
 3.2078233288e+000	 2.1349482162e+000	-4.2901326881e-001
 3.1842668075e+000	 2.1699260190e+000	-4.4851684746e-001
 3.1603041031e+000	 2.2046795149e+000	-4.6908670003e-001
 3.1359383559e+000	 2.2392017160e+000	-4.9321204820e-001
 3.3843738843e+000	 1.8974595662e+000	-2.0655189110e-001
 3.3635922227e+000	 1.9340595323e+000	-2.4150403631e-001
 3.3423839850e+000	 1.9704841201e+000	-2.7834391314e-001
 3.3207511913e+000	 2.0067260185e+000	-3.1829115673e-001
 3.2986960261e+000	 2.0427779420e+000	-3.5387603966e-001
 3.2762208382e+000	 2.0786326352e+000	-3.8142464269e-001
 3.2533281404e+000	 2.1142828775e+000	-4.0330241562e-001
 3.2300206090e+000	 2.1497214873e+000	-4.2192403773e-001
 3.2063010828e+000	 2.1849413272e+000	-4.3973161282e-001
 3.1821725629e+000	 2.2199353080e+000	-4.5917215297e-001
 3.1576382113e+000	 2.2546963935e+000	-4.8267451278e-001
 3.4076319078e+000	 1.9104992482e+000	-2.0119223511e-001
 3.3867074309e+000	 1.9473507358e+000	-2.3915358928e-001
 3.3653534464e+000	 1.9840256399e+000	-2.8103891743e-001
 3.3435719883e+000	 2.0205165991e+000	-3.2448291722e-001
 3.3213652560e+000	 2.0568162779e+000	-3.5647783591e-001
 3.2987356146e+000	 2.0929173710e+000	-3.8063072749e-001
 3.2756855941e+000	 2.1288126081e+000	-3.9980592062e-001
 3.2522178891e+000	 2.1644947584e+000	-4.1634476403e-001
 3.2283353582e+000	 2.1999566354e+000	-4.3261460102e-001
 3.2040410228e+000	 2.2351911011e+000	-4.5098541364e-001
 3.1793380667e+000	 2.2701910710e+000	-4.7380589570e-001
 3.4308899314e+000	 1.9235389302e+000	-1.9349972673e-001
 3.4098226392e+000	 1.9606419394e+000	-2.3441591771e-001
 3.3883229079e+000	 1.9975671597e+000	-2.8134650715e-001
 3.3663927853e+000	 2.0343071798e+000	-3.2660153895e-001
 3.3440344860e+000	 2.0708546138e+000	-3.5969223870e-001
 3.3212503911e+000	 2.1072021068e+000	-3.8149418555e-001
 3.2980430479e+000	 2.1433423388e+000	-3.9824237559e-001
 3.2744151693e+000	 2.1792680296e+000	-4.1291090656e-001
 3.2503696335e+000	 2.2149719435e+000	-4.2777364028e-001
 3.2259094826e+000	 2.2504468941e+000	-4.4510461063e-001
 3.2010379221e+000	 2.2856857484e+000	-4.6715323140e-001
 2.9840393683e+000	 2.1307389737e+000	-5.6466564973e-001
 2.9604734706e+000	 2.1633622969e+000	-5.9145335350e-001
 2.9365304761e+000	 2.1957523930e+000	-6.1507423801e-001
 2.9122138177e+000	 2.2279027839e+000	-6.3579830014e-001
 2.8875270751e+000	 2.2598070584e+000	-6.5378641337e-001
 2.8624739740e+000	 2.2914588763e+000	-6.6907667358e-001
 2.8370583836e+000	 2.3228519726e+000	-6.8157120682e-001
 2.8112843151e+000	 2.3539801615e+000	-6.9102356340e-001
 2.7851559196e+000	 2.3848373405e+000	-6.9702682113e-001
 2.7586774858e+000	 2.4154174939e+000	-6.9900251731e-001
 2.7318534379e+000	 2.4457146975e+000	-6.9619052529e-001
 3.0057392237e+000	 2.1462336512e+000	-5.5897205201e-001
 2.9820019554e+000	 2.1790942103e+000	-5.8576212470e-001
 2.9578848481e+000	 2.2117198463e+000	-6.0996914823e-001
 2.9333913595e+000	 2.2441040340e+000	-6.3168097900e-001
 2.9085250957e+000	 2.2762403155e+000	-6.5087347171e-001
 2.8832898091e+000	 2.3081223046e+000	-6.6739644301e-001
 2.8576893972e+000	 2.3397436907e+000	-6.8096011236e-001
 2.8317279003e+000	 2.3710982430e+000	-6.9112215008e-001
 2.8054094998e+000	 2.4021798145e+000	-6.9727546034e-001
 2.7787385155e+000	 2.4329823461e+000	-6.9863682418e-001
 2.7517194038e+000	 2.4634998701e+000	-6.9423652320e-001
 3.0274390790e+000	 2.1617283286e+000	-5.5072929000e-001
 3.0035304402e+000	 2.1948261237e+000	-5.7755734267e-001
 2.9792392201e+000	 2.2276872997e+000	-6.0232006458e-001
 2.9545689014e+000	 2.2603052841e+000	-6.2495652021e-001
 2.9295231162e+000	 2.2926735727e+000	-6.4529086336e-001
 2.9041056441e+000	 2.3247857330e+000	-6.6301782942e-001
 2.8783204107e+000	 2.3566354088e+000	-6.7768872030e-001
 2.8521714855e+000	 2.3882163245e+000	-6.8869801771e-001
 2.8256630800e+000	 2.4195222886e+000	-6.9527075823e-001
 2.7987995452e+000	 2.4505471982e+000	-6.9645080069e-001
 2.7715853698e+000	 2.4812850427e+000	-6.9109011186e-001
 3.0491389344e+000	 2.1772230061e+000	-5.4057448717e-001
 3.0250589250e+000	 2.2105580372e+000	-5.6744870412e-001
 3.0005935921e+000	 2.2436547530e+000	-5.9270976691e-001
 2.9757464433e+000	 2.2765065343e+000	-6.1618078608e-001
 2.9505211367e+000	 2.3091068299e+000	-6.3756701712e-001
 2.9249214792e+000	 2.3414491613e+000	-6.5644079156e-001
 2.8989514243e+000	 2.3735271269e+000	-6.7222695645e-001
 2.8726150707e+000	 2.4053344060e+000	-6.8418896371e-001
 2.8459166602e+000	 2.4368647627e+000	-6.9141574903e-001
 2.8188605750e+000	 2.4681120504e+000	-6.9280953652e-001
 2.7914513357e+000	 2.4990702153e+000	-6.8707470098e-001
 3.0708387898e+000	 2.1927176836e+000	-5.2913493106e-001
 3.0465874098e+000	 2.2262899506e+000	-5.5603571508e-001
 3.0219479640e+000	 2.2596222063e+000	-5.8171051383e-001
 2.9969239852e+000	 2.2927077844e+000	-6.0589883619e-001
 2.9715191573e+000	 2.3255400870e+000	-6.2821935137e-001
 2.9457373142e+000	 2.3581125897e+000	-6.4815416860e-001
 2.9195824378e+000	 2.3904188451e+000	-6.6503364091e-001
 2.8930586559e+000	 2.4224524875e+000	-6.7802184097e-001
 2.8661702404e+000	 2.4542072368e+000	-6.8610285496e-001
 2.8389216047e+000	 2.4856769025e+000	-6.8806803707e-001
 2.8113173017e+000	 2.5168553879e+000	-6.8250436227e-001
 3.0925386452e+000	 2.2082123611e+000	-5.1702707437e-001
 3.0681158946e+000	 2.2420218640e+000	-5.4390663344e-001
 3.0433023360e+000	 2.2755896597e+000	-5.6988292789e-001
 3.0181015271e+000	 2.3089090345e+000	-5.9464375566e-001
 2.9925171778e+000	 2.3419733442e+000	-6.1775304539e-001
 2.9665531493e+000	 2.3747760180e+000	-6.3863439373e-001
 2.9402134514e+000	 2.4073105632e+000	-6.5655514263e-001
 2.9135022411e+000	 2.4395705690e+000	-6.7061115140e-001
 2.8864238206e+000	 2.4715497108e+000	-6.7971241636e-001
 2.8589826344e+000	 2.5032417546e+000	-6.8256968690e-001
 2.8311832677e+000	 2.5346405605e+000	-6.7768222257e-001
 3.1142385006e+000	 2.2237070385e+000	-5.0485552825e-001
 3.0896443794e+000	 2.2577537774e+000	-5.3163740500e-001
 3.0646567080e+000	 2.2915571130e+000	-5.5777487532e-001
 3.0392790689e+000	 2.3251102847e+000	-5.8293547914e-001
 3.0135151984e+000	 2.3584066014e+000	-6.0665980749e-001
 2.9873689843e+000	 2.3914394464e+000	-6.2834420580e-001
 2.9608444649e+000	 2.4242022813e+000	-6.4722403331e-001
 2.9339458263e+000	 2.4566886504e+000	-6.6235764048e-001
 2.9066774008e+000	 2.4888921849e+000	-6.7261122435e-001
 2.8790436642e+000	 2.5208066068e+000	-6.7664471775e-001
 2.8510492336e+000	 2.5524257331e+000	-6.7289886359e-001
 3.1359383559e+000	 2.2392017160e+000	-4.9321204820e-001
 3.1111728642e+000	 2.2734856908e+000	-5.1979059307e-001
 3.0860110799e+000	 2.3075245664e+000	-5.4592034047e-001
 3.0604566108e+000	 2.3413115348e+000	-5.7127961057e-001
 3.0345132189e+000	 2.3748398586e+000	-5.9541664006e-001
 3.0081848194e+000	 2.4081028747e+000	-6.1773135916e-001
 2.9814754785e+000	 2.4410939994e+000	-6.3745774095e-001
 2.9543894115e+000	 2.4738067319e+000	-6.5364689266e-001
 2.9269309810e+000	 2.5062346590e+000	-6.6515105608e-001
 2.8991046939e+000	 2.5383714589e+000	-6.7060868071e-001
 2.8709151996e+000	 2.5702109057e+000	-6.6843072779e-001
 3.1576382113e+000	 2.2546963935e+000	-4.8267451278e-001
 3.1327013490e+000	 2.2892176042e+000	-5.0891430204e-001
 3.1073654519e+000	 2.3234920197e+000	-5.3483829527e-001
 3.0816341527e+000	 2.3575127849e+000	-5.6016623904e-001
 3.0555112394e+000	 2.3912731157e+000	-5.8448460185e-001
 3.0290006544e+000	 2.4247663031e+000	-6.0722733178e-001
 3.0021064920e+000	 2.4579857176e+000	-6.2765720282e-001
 2.9748329967e+000	 2.4909248134e+000	-6.4484792771e-001
 2.9471845612e+000	 2.5235771331e+000	-6.5766721227e-001
 2.9191657236e+000	 2.5559363111e+000	-6.6476092249e-001
 2.8907811656e+000	 2.5879960783e+000	-6.6453853025e-001
 3.1793380667e+000	 2.2701910710e+000	-4.7380589570e-001
 3.1542298338e+000	 2.3049495177e+000	-4.9954109523e-001
 3.1287198239e+000	 2.3394594730e+000	-5.2503156388e-001
 3.1028116945e+000	 2.3737140351e+000	-5.5006875081e-001
 3.0765092600e+000	 2.4077063729e+000	-5.7430756745e-001
 3.0498164895e+000	 2.4414297315e+000	-5.9724603175e-001
 3.0227375055e+000	 2.4748774357e+000	-6.1820551795e-001
 2.9952765819e+000	 2.5080428949e+000	-6.3631179785e-001
 2.9674381414e+000	 2.5409196071e+000	-6.5047705708e-001
 2.9392267533e+000	 2.5735011632e+000	-6.5938306554e-001
 2.9106471315e+000	 2.6057812509e+000	-6.6146567605e-001
 3.2010379221e+000	 2.2856857484e+000	-4.6715323140e-001
 3.1757583185e+000	 2.3206814311e+000	-4.9218690729e-001
 3.1500741959e+000	 2.3554269264e+000	-5.1698568284e-001
 3.1239892364e+000	 2.3899152852e+000	-5.4144263779e-001
 3.0975072805e+000	 2.4241396301e+000	-5.6531098411e-001
 3.0706323245e+000	 2.4580931598e+000	-5.8818250215e-001
 3.0433685191e+000	 2.4917691538e+000	-6.0946659925e-001
 3.0157201671e+000	 2.5251609764e+000	-6.2837018571e-001
 2.9876917216e+000	 2.5582620812e+000	-6.4387856008e-001
 2.9592877831e+000	 2.5910660154e+000	-6.5473749178e-001
 2.9305130975e+000	 2.6235664236e+000	-6.5943668314e-001
 2.7318534379e+000	 2.4457146975e+000	-6.9619052529e-001
 2.7046924333e+000	 2.4757186428e+000	-6.9689678858e-001
 2.6771951619e+000	 2.5054281689e+000	-7.1028817541e-001
 2.6493664393e+000	 2.5348376517e+000	-7.3394151460e-001
 2.6212112056e+000	 2.5639415729e+000	-7.5787944095e-001
 2.5927345231e+000	 2.5927345231e+000	-7.8117024365e-001
 2.5639415729e+000	 2.6212112056e+000	-8.0376716280e-001
 2.5348376517e+000	 2.6493664393e+000	-8.2549322069e-001
 2.5054281689e+000	 2.6771951619e+000	-8.4574244757e-001
 2.4757186428e+000	 2.7046924333e+000	-8.6148648957e-001
 2.4457146975e+000	 2.7318534379e+000	-8.7212114614e-001
 2.7517194038e+000	 2.4634998701e+000	-6.9423652320e-001
 2.7243608852e+000	 2.4937220033e+000	-6.9208566108e-001
 2.6966636544e+000	 2.5236475763e+000	-7.0135508011e-001
 2.6686325620e+000	 2.5532709241e+000	-7.2248689717e-001
 2.6402725842e+000	 2.5825864882e+000	-7.4972956890e-001
 2.6115888200e+000	 2.6115888200e+000	-7.7551061205e-001
 2.5825864882e+000	 2.6402725842e+000	-7.9991820188e-001
 2.5532709241e+000	 2.6686325620e+000	-8.2291876868e-001
 2.5236475763e+000	 2.6966636544e+000	-8.4225258747e-001
 2.4937220033e+000	 2.7243608852e+000	-8.5648680954e-001
 2.4634998701e+000	 2.7517194038e+000	-8.6598793347e-001
 2.7715853698e+000	 2.4812850427e+000	-6.9109011186e-001
 2.7440293370e+000	 2.5117253638e+000	-6.8686120175e-001
 2.7161321468e+000	 2.5418669837e+000	-6.9284379529e-001
 2.6878986846e+000	 2.5717041965e+000	-7.0965858827e-001
 2.6593339627e+000	 2.6012314035e+000	-7.3720297118e-001
 2.6304431169e+000	 2.6304431169e+000	-7.6614070255e-001
 2.6012314035e+000	 2.6593339627e+000	-7.9288283850e-001
 2.5717041965e+000	 2.6878986846e+000	-8.1646626449e-001
 2.5418669837e+000	 2.7161321468e+000	-8.3449451110e-001
 2.5117253638e+000	 2.7440293370e+000	-8.4733351517e-001
 2.4812850427e+000	 2.7715853698e+000	-8.5551908729e-001
 2.7914513357e+000	 2.4990702153e+000	-6.8707470098e-001
 2.7636977889e+000	 2.5297287243e+000	-6.8150984012e-001
 2.7356006392e+000	 2.5600863910e+000	-6.8501797590e-001
 2.7071648073e+000	 2.5901374688e+000	-6.9835319178e-001
 2.6783953413e+000	 2.6198763188e+000	-7.2198576876e-001
 2.6492974138e+000	 2.6492974138e+000	-7.5365406211e-001
 2.6198763188e+000	 2.6783953413e+000	-7.8298881980e-001
 2.5901374688e+000	 2.7071648073e+000	-8.0629697454e-001
 2.5600863910e+000	 2.7356006392e+000	-8.2345476367e-001
 2.5297287243e+000	 2.7636977889e+000	-8.3509477699e-001
 2.4990702153e+000	 2.7914513357e+000	-8.4188516982e-001
 2.8113173017e+000	 2.5168553879e+000	-6.8250436227e-001
 2.7833662407e+000	 2.5477320848e+000	-6.7630940127e-001
 2.7550691316e+000	 2.5783057984e+000	-6.7813313122e-001
 2.7264309300e+000	 2.6085707412e+000	-6.8881885471e-001
 2.6974567199e+000	 2.6385212342e+000	-7.0891186161e-001
 2.6681517107e+000	 2.6681517107e+000	-7.3864530760e-001
 2.6385212342e+000	 2.6974567199e+000	-7.6970104674e-001
 2.6085707412e+000	 2.7264309300e+000	-7.9327984453e-001
 2.5783057984e+000	 2.7550691316e+000	-8.1006195850e-001
 2.5477320848e+000	 2.7833662407e+000	-8.2077817748e-001
 2.5168553879e+000	 2.8113173017e+000	-8.2619290666e-001
 2.8311832677e+000	 2.5346405605e+000	-6.7768222257e-001
 2.8030346926e+000	 2.5657354453e+000	-6.7152743339e-001
 2.7745376241e+000	 2.5965252058e+000	-6.7243490065e-001
 2.7456970527e+000	 2.6270040136e+000	-6.8129397755e-001
 2.7165180985e+000	 2.6571661495e+000	-6.9868214621e-001
 2.6870060076e+000	 2.6870060076e+000	-7.2393834376e-001
 2.6571661495e+000	 2.7165180985e+000	-7.5366336645e-001
 2.6270040136e+000	 2.7456970527e+000	-7.7822948894e-001
 2.5965252058e+000	 2.7745376241e+000	-7.9518835245e-001
 2.5657354453e+000	 2.8030346926e+000	-8.0533236553e-001
 2.5346405605e+000	 2.8311832677e+000	-8.0948693806e-001
 2.8510492336e+000	 2.5524257331e+000	-6.7289886359e-001
 2.8227031444e+000	 2.5837388058e+000	-6.6741954365e-001
 2.7940061165e+000	 2.6147446132e+000	-6.6815733929e-001
 2.7649631754e+000	 2.6454372859e+000	-6.7600546405e-001
 2.7355794770e+000	 2.6758110648e+000	-6.9135023324e-001
 2.7058603045e+000	 2.7058603045e+000	-7.1166112775e-001
 2.6758110648e+000	 2.7355794770e+000	-7.3621710548e-001
 2.6454372859e+000	 2.7649631754e+000	-7.6190771220e-001
 2.6147446132e+000	 2.7940061165e+000	-7.7965142648e-001
 2.5837388058e+000	 2.8227031444e+000	-7.8964871260e-001
 2.5524257331e+000	 2.8510492336e+000	-7.9275156777e-001
 2.8709151996e+000	 2.5702109057e+000	-6.6843072779e-001
 2.8423715963e+000	 2.6017421663e+000	-6.6422774220e-001
 2.8134746089e+000	 2.6329640206e+000	-6.6552121299e-001
 2.7842292981e+000	 2.6638705583e+000	-6.7316698115e-001
 2.7546408556e+000	 2.6944559801e+000	-6.8604517478e-001
 2.7247146013e+000	 2.7247146013e+000	-7.0217834593e-001
 2.6944559801e+000	 2.7546408556e+000	-7.2180881502e-001
 2.6638705583e+000	 2.7842292981e+000	-7.4502503713e-001
 2.6329640206e+000	 2.8134746089e+000	-7.6421547107e-001
 2.6017421663e+000	 2.8423715963e+000	-7.7456297054e-001
 2.5702109057e+000	 2.8709151996e+000	-7.7691250953e-001
 2.8907811656e+000	 2.5879960783e+000	-6.6453853025e-001
 2.8620400481e+000	 2.6197455268e+000	-6.6217879376e-001
 2.8329431013e+000	 2.6511834280e+000	-6.6473230218e-001
 2.8034954208e+000	 2.6823038307e+000	-6.7247155073e-001
 2.7737022342e+000	 2.7131008954e+000	-6.8288325526e-001
 2.7435688982e+000	 2.7435688982e+000	-6.9581123975e-001
 2.7131008954e+000	 2.7737022342e+000	-7.1146436088e-001
 2.6823038307e+000	 2.8034954208e+000	-7.2993484498e-001
 2.6511834280e+000	 2.8329431013e+000	-7.4959317613e-001
 2.6197455268e+000	 2.8620400481e+000	-7.6085693098e-001
 2.5879960783e+000	 2.8907811656e+000	-7.6283863136e-001
 2.9106471315e+000	 2.6057812509e+000	-6.6146567605e-001
 2.8817085000e+000	 2.6377488873e+000	-6.6148257652e-001
 2.8524115938e+000	 2.6694028354e+000	-6.6596500678e-001
 2.8227615435e+000	 2.7007371031e+000	-6.7327086051e-001
 2.7927636128e+000	 2.7317458107e+000	-6.8214349958e-001
 2.7624231951e+000	 2.7624231951e+000	-6.9283867270e-001
 2.7317458107e+000	 2.7927636128e+000	-7.0547738079e-001
 2.7007371031e+000	 2.8227615435e+000	-7.2006244373e-001
 2.6694028354e+000	 2.8524115938e+000	-7.3649536039e-001
 2.6377488873e+000	 2.8817085000e+000	-7.4926008617e-001
 2.6057812509e+000	 2.9106471315e+000	-7.5134369779e-001
 2.9305130975e+000	 2.6235664236e+000	-6.5943668314e-001
 2.9013769518e+000	 2.6557522478e+000	-6.6233044800e-001
 2.8718800862e+000	 2.6876222428e+000	-6.6857355624e-001
 2.8420276662e+000	 2.7191703754e+000	-6.7579987155e-001
 2.8118249913e+000	 2.7503907261e+000	-6.8406378756e-001
 2.7812774920e+000	 2.7812774920e+000	-6.9349820576e-001
 2.7503907261e+000	 2.8118249913e+000	-7.0409965682e-001
 2.7191703754e+000	 2.8420276662e+000	-7.1574585349e-001
 2.6876222428e+000	 2.8718800862e+000	-7.2821353077e-001
 2.6557522478e+000	 2.9013769518e+000	-7.4045129132e-001
 2.6235664236e+000	 2.9305130975e+000	-7.4318810997e-001
 2.4457146975e+000	 2.7318534379e+000	-8.7212114614e-001
 2.4154174939e+000	 2.7586774858e+000	-8.7898474296e-001
 2.3848373405e+000	 2.7851559196e+000	-8.8231950361e-001
 2.3539801615e+000	 2.8112843151e+000	-8.8076591237e-001
 2.3228519726e+000	 2.8370583836e+000	-8.7307827426e-001
 2.2914588763e+000	 2.8624739740e+000	-8.5812650082e-001
 2.2598070584e+000	 2.8875270751e+000	-8.3489742861e-001
 2.2279027839e+000	 2.9122138177e+000	-8.0249568349e-001
 2.1957523930e+000	 2.9365304761e+000	-7.6014410714e-001
 2.1633622969e+000	 2.9604734706e+000	-7.0718376558e-001
 2.1307389737e+000	 2.9840393683e+000	-6.4307356253e-001
 2.4634998701e+000	 2.7517194038e+000	-8.6598793347e-001
 2.4329823461e+000	 2.7787385155e+000	-8.7269590165e-001
 2.4021798145e+000	 2.8054094998e+000	-8.7708940171e-001
 2.3710982430e+000	 2.8317279003e+000	-8.7747116665e-001
 2.3397436907e+000	 2.8576893972e+000	-8.7226877788e-001
 2.3081223046e+000	 2.8832898091e+000	-8.6003692093e-001
 2.2762403155e+000	 2.9085250957e+000	-8.3945913485e-001
 2.2441040340e+000	 2.9333913595e+000	-8.0934906830e-001
 2.2117198463e+000	 2.9578848481e+000	-7.6865125923e-001
 2.1790942103e+000	 2.9820019554e+000	-7.1644145840e-001
 2.1462336512e+000	 3.0057392237e+000	-6.5192652038e-001
 2.4812850427e+000	 2.7715853698e+000	-8.5551908729e-001
 2.4505471982e+000	 2.7987995452e+000	-8.6168109106e-001
 2.4195222886e+000	 2.8256630800e+000	-8.6669062202e-001
 2.3882163245e+000	 2.8521714855e+000	-8.6857571238e-001
 2.3566354088e+000	 2.8783204107e+000	-8.6549824220e-001
 2.3247857330e+000	 2.9041056441e+000	-8.5575656183e-001
 2.2926735727e+000	 2.9295231162e+000	-8.3778757230e-001
 2.2603052841e+000	 2.9545689014e+000	-8.1016827678e-001
 2.2276872997e+000	 2.9792392201e+000	-7.7161682066e-001
 2.1948261237e+000	 3.0035304402e+000	-7.2099304125e-001
 2.1617283286e+000	 3.0274390790e+000	-6.5729855180e-001
 2.4990702153e+000	 2.7914513357e+000	-8.4188516982e-001
 2.4681120504e+000	 2.8188605750e+000	-8.4721052754e-001
 2.4368647627e+000	 2.8459166602e+000	-8.5246533278e-001
 2.4053344060e+000	 2.8726150707e+000	-8.5546473993e-001
 2.3735271269e+000	 2.8989514243e+000	-8.5416475905e-001
 2.3414491613e+000	 2.9249214792e+000	-8.4666514287e-001
 2.3091068299e+000	 2.9505211367e+000	-8.3121169888e-001
 2.2765065343e+000	 2.9757464433e+000	-8.0619804062e-001
 2.2436547530e+000	 3.0005935921e+000	-7.7016679590e-001
 2.2105580372e+000	 3.0250589250e+000	-7.2181029455e-001
 2.1772230061e+000	 3.0491389344e+000	-6.5997076115e-001
 2.5168553879e+000	 2.8113173017e+000	-8.2619290666e-001
 2.4856769025e+000	 2.8389216047e+000	-8.3048741632e-001
 2.4542072368e+000	 2.8661702404e+000	-8.3568629909e-001
 2.4224524875e+000	 2.8930586559e+000	-8.3945246479e-001
 2.3904188451e+000	 2.9195824378e+000	-8.3959473116e-001
 2.3581125897e+000	 2.9457373142e+000	-8.3407087398e-001
 2.3255400870e+000	 2.9715191573e+000	-8.2099007267e-001
 2.2927077844e+000	 2.9969239852e+000	-7.9861476612e-001
 2.2596222063e+000	 3.0219479640e+000	-7.6536193783e-001
 2.2262899506e+000	 3.0465874098e+000	-7.1980385365e-001
 2.1927176836e+000	 3.0708387898e+000	-6.6066827957e-001
 2.5346405605e+000	 2.8311832677e+000	-8.0948693806e-001
 2.5032417546e+000	 2.8589826344e+000	-8.1264979417e-001
 2.4715497108e+000	 2.8864238206e+000	-8.1755878663e-001
 2.4395705690e+000	 2.9135022411e+000	-8.2178406083e-001
 2.4073105632e+000	 2.9402134514e+000	-8.2304480212e-001
 2.3747760180e+000	 2.9665531493e+000	-8.1921234857e-001
 2.3419733442e+000	 2.9925171778e+000	-8.0831267249e-001
 2.3089090345e+000	 3.0181015271e+000	-7.8852824645e-001
 2.2755896597e+000	 3.0433023360e+000	-7.5819931416e-001
 2.2420218640e+000	 3.0681158946e+000	-7.1582459117e-001
 2.2082123611e+000	 3.0925386452e+000	-6.6006142404e-001
 2.5524257331e+000	 2.8510492336e+000	-7.9275156777e-001
 2.5208066068e+000	 2.8790436642e+000	-7.9477236551e-001
 2.4888921849e+000	 2.9066774008e+000	-7.9922245608e-001
 2.4566886504e+000	 2.9339458263e+000	-8.0363758264e-001
 2.4242022813e+000	 2.9608444649e+000	-8.0570377522e-001
 2.3914394464e+000	 2.9873689843e+000	-8.0326042620e-001
 2.3584066014e+000	 3.0135151984e+000	-7.9430271086e-001
 2.3251102847e+000	 3.0392790689e+000	-7.7698336984e-001
 2.2915571130e+000	 3.0646567080e+000	-7.4961387537e-001
 2.2577537774e+000	 3.0896443794e+000	-7.1066500782e-001
 2.2237070385e+000	 3.1142385006e+000	-6.5876687337e-001
 2.5702109057e+000	 2.8709151996e+000	-7.7691250953e-001
 2.5383714589e+000	 2.8991046939e+000	-7.7786833250e-001
 2.5062346590e+000	 2.9269309810e+000	-7.8175324863e-001
 2.4738067319e+000	 2.9543894115e+000	-7.8612587755e-001
 2.4410939994e+000	 2.9814754785e+000	-7.8869452170e-001
 2.4081028747e+000	 3.0081848194e+000	-7.8732010565e-001
 2.3748398586e+000	 3.0345132189e+000	-7.8001843946e-001
 2.3413115348e+000	 3.0604566108e+000	-7.6496182431e-001
 2.3075245664e+000	 3.0860110799e+000	-7.4048002407e-001
 2.2734856908e+000	 3.1111728642e+000	-7.0506063127e-001
 2.2392017160e+000	 3.1359383559e+000	-6.5734886026e-001
 2.5879960783e+000	 2.8907811656e+000	-7.6283863136e-001
 2.5559363111e+000	 2.9191657236e+000	-7.6289121912e-001
 2.5235771331e+000	 2.9471845612e+000	-7.6616526316e-001
 2.4909248134e+000	 2.9748329967e+000	-7.7029848769e-001
 2.4579857176e+000	 3.0021064920e+000	-7.7307587868e-001
 2.4247663031e+000	 3.0290006544e+000	-7.7243238877e-001
 2.3912731157e+000	 3.0555112394e+000	-7.6645494776e-001
 2.3575127849e+000	 3.0816341527e+000	-7.5338379883e-001
 2.3234920197e+000	 3.1073654519e+000	-7.3161318585e-001
 2.2892176042e+000	 3.1327013490e+000	-6.9969142255e-001
 2.2546963935e+000	 3.1576382113e+000	-6.5632037863e-001
 2.6057812509e+000	 2.9106471315e+000	-7.5134369779e-001
 2.5735011632e+000	 2.9392267533e+000	-7.5073668979e-001
 2.5409196071e+000	 2.9674381414e+000	-7.5341262533e-001
 2.5080428949e+000	 2.9952765819e+000	-7.5714354278e-001
 2.4748774357e+000	 3.0227375055e+000	-7.5984453767e-001
 2.4414297315e+000	 3.0498164895e+000	-7.5957613560e-001
 2.4077063729e+000	 3.0765092600e+000	-7.5454595491e-001
 2.3737140351e+000	 3.1028116945e+000	-7.4310968122e-001
 2.3394594730e+000	 3.1287198239e+000	-7.2377138135e-001
 2.3049495177e+000	 3.1542298338e+000	-6.9518318984e-001
 2.2701910710e+000	 3.1793380667e+000	-6.5614440563e-001
 2.6235664236e+000	 2.9305130975e+000	-7.4318810997e-001
 2.5910660154e+000	 2.9592877831e+000	-7.4224436264e-001
 2.5582620812e+000	 2.9876917216e+000	-7.4439134907e-001
 2.5251609764e+000	 3.0157201671e+000	-7.4758964388e-001
 2.4917691538e+000	 3.0433685191e+000	-7.4993692370e-001
 2.4580931598e+000	 3.0706323245e+000	-7.4966991116e-001
 2.4241396301e+000	 3.0975072805e+000	-7.4516559536e-001
 2.3899152852e+000	 3.1239892364e+000	-7.3494175287e-001
 2.3554269264e+000	 3.1500741959e+000	-7.1765679965e-001
 2.3206814311e+000	 3.1757583185e+000	-6.9210900913e-001
 2.2856857484e+000	 3.2010379221e+000	-6.5723513741e-001
 2.1307389737e+000	 2.9840393683e+000	-6.4307356253e-001
 2.0978889635e+000	 3.0072248842e+000	-5.8897868063e-001
 2.0648188619e+000	 3.0300268800e+000	-5.6914406791e-001
 2.0315353184e+000	 3.0524423675e+000	-5.8765512125e-001
 1.9980450323e+000	 3.0744685107e+000	-6.4835105412e-001
 1.9643547489e+000	 3.0961026268e+000	-7.1191922612e-001
 1.9304712547e+000	 3.1173421865e+000	-7.4862638556e-001
 1.8964013734e+000	 3.1381848154e+000	-7.6376119889e-001
 1.8621519615e+000	 3.1586282936e+000	-7.6270417906e-001
 1.8277299040e+000	 3.1786705568e+000	-7.5087379567e-001
 1.7931421101e+000	 3.1983096960e+000	-7.3367508787e-001
 2.1462336512e+000	 3.0057392237e+000	-6.5192652038e-001
 2.1131447565e+000	 3.0290933441e+000	-5.9467800128e-001
 2.0798341701e+000	 3.0520611554e+000	-5.6763169957e-001
 2.0463085895e+000	 3.0746396477e+000	-5.7505391411e-001
 2.0125747630e+000	 3.0968259644e+000	-6.2109177183e-001
 1.9786394847e+000	 3.1186174032e+000	-6.9434319642e-001
 1.9445095906e+000	 3.1400114165e+000	-7.4222325506e-001
 1.9101919540e+000	 3.1610056124e+000	-7.6491290307e-001
 1.8756934813e+000	 3.1815977550e+000	-7.6808857103e-001
 1.8410211076e+000	 3.2017857650e+000	-7.5745416539e-001
 1.8061817922e+000	 3.2215677195e+000	-7.3868757476e-001
 2.1617283286e+000	 3.0274390790e+000	-6.5729855180e-001
 2.1284005496e+000	 3.0509618039e+000	-5.9842997941e-001
 2.0948494782e+000	 3.0740954307e+000	-5.6586347430e-001
 2.0610818606e+000	 3.0968369279e+000	-5.6398887857e-001
 2.0271044936e+000	 3.1191834182e+000	-5.9707352978e-001
 1.9929242205e+000	 3.1411321796e+000	-6.6758744124e-001
 1.9585479265e+000	 3.1626806464e+000	-7.2810048557e-001
 1.9239825346e+000	 3.1838264094e+000	-7.5967659723e-001
 1.8892350011e+000	 3.2045672165e+000	-7.6824931482e-001
 1.8543123111e+000	 3.2249009733e+000	-7.5977113334e-001
 1.8192214742e+000	 3.2448257431e+000	-7.4015789366e-001
 2.1772230061e+000	 3.0491389344e+000	-6.5997076115e-001
 2.1436563427e+000	 3.0728302637e+000	-6.0082174327e-001
 2.1098647864e+000	 3.0961297061e+000	-5.6426383432e-001
 2.0758551317e+000	 3.1190342081e+000	-5.5475426927e-001
 2.0416342243e+000	 3.1415408719e+000	-5.7662662836e-001
 2.0072089563e+000	 3.1636469561e+000	-6.3408287443e-001
 1.9725862624e+000	 3.1853498764e+000	-7.0691221611e-001
 1.9377731153e+000	 3.2066472063e+000	-7.4867042336e-001
 1.9027765210e+000	 3.2275366779e+000	-7.6380704700e-001
 1.8676035146e+000	 3.2480161815e+000	-7.5848748568e-001
 1.8322611562e+000	 3.2680837666e+000	-7.3883172816e-001
 2.1927176836e+000	 3.0708387898e+000	-6.6066827957e-001
 2.1589121357e+000	 3.0946987236e+000	-6.0238975404e-001
 2.1248800946e+000	 3.1181639814e+000	-5.6321102348e-001
 2.0906284029e+000	 3.1412314882e+000	-5.4760174608e-001
 2.0561639549e+000	 3.1638983256e+000	-5.5990892526e-001
 2.0214936921e+000	 3.1861617325e+000	-6.0434864165e-001
 1.9866245983e+000	 3.2080191063e+000	-6.7931992212e-001
 1.9515636959e+000	 3.2294680033e+000	-7.3251844035e-001
 1.9163180408e+000	 3.2505061393e+000	-7.5538601727e-001
 1.8808947182e+000	 3.2711313898e+000	-7.5426641528e-001
 1.8453008382e+000	 3.2913417901e+000	-7.3545104160e-001
 2.2082123611e+000	 3.0925386452e+000	-6.6006142404e-001
 2.1741679288e+000	 3.1165671834e+000	-6.0362073506e-001
 2.1398954027e+000	 3.1401982568e+000	-5.6303781465e-001
 2.1054016740e+000	 3.1634287684e+000	-5.4274092855e-001
 2.0706936855e+000	 3.1862557793e+000	-5.4703880675e-001
 2.0357784278e+000	 3.2086765089e+000	-5.8011212824e-001
 2.0006629342e+000	 3.2306883363e+000	-6.4600524703e-001
 1.9653542766e+000	 3.2522888003e+000	-7.1184969856e-001
 1.9298595606e+000	 3.2734756007e+000	-7.4361313767e-001
 1.8941859217e+000	 3.2942465980e+000	-7.4777058376e-001
 1.8583405202e+000	 3.3145998137e+000	-7.3075319080e-001
 2.2237070385e+000	 3.1142385006e+000	-6.5876687337e-001
 2.1894237219e+000	 3.1384356433e+000	-6.0495262678e-001
 2.1549107109e+000	 3.1622325321e+000	-5.6403227015e-001
 2.1201749451e+000	 3.1856260486e+000	-5.4033998958e-001
 2.0852234162e+000	 3.2086132330e+000	-5.3809564341e-001
 2.0500631636e+000	 3.2311912853e+000	-5.6139605647e-001
 2.0147012702e+000	 3.2533575662e+000	-6.1420654458e-001
 1.9791448572e+000	 3.2751095973e+000	-6.8729736483e-001
 1.9434010804e+000	 3.2964450622e+000	-7.2911708140e-001
 1.9074771252e+000	 3.3173618062e+000	-7.3966123067e-001
 1.8713802022e+000	 3.3378578372e+000	-7.2544146486e-001
 2.2392017160e+000	 3.1359383559e+000	-6.5734886026e-001
 2.2046795149e+000	 3.1603041031e+000	-6.0677556597e-001
 2.1699260190e+000	 3.1842668075e+000	-5.6643853358e-001
 2.1349482162e+000	 3.2078233288e+000	-5.4052628633e-001
 2.0997531468e+000	 3.2309706867e+000	-5.3312028774e-001
 2.0643478994e+000	 3.2537060618e+000	-5.4818610039e-001
 2.0287396061e+000	 3.2760267961e+000	-5.8956475918e-001
 1.9929354379e+000	 3.2979303943e+000	-6.5949789530e-001
 1.9569426003e+000	 3.3194145236e+000	-7.1252742869e-001
 1.9207683288e+000	 3.3404770145e+000	-7.3053832942e-001
 1.8844198842e+000	 3.3611158607e+000	-7.1937103178e-001
 2.2546963935e+000	 3.1576382113e+000	-6.5632037863e-001
 2.2199353080e+000	 3.1821725629e+000	-6.0943288816e-001
 2.1849413272e+000	 3.2063010828e+000	-5.7045765159e-001
 2.1497214873e+000	 3.2300206090e+000	-5.4338702677e-001
 2.1142828775e+000	 3.2533281404e+000	-5.3211561175e-001
 2.0786326352e+000	 3.2762208382e+000	-5.4043132179e-001
 2.0427779420e+000	 3.2986960261e+000	-5.7200666031e-001
 2.0067260185e+000	 3.3207511913e+000	-6.3039024568e-001
 1.9704841201e+000	 3.3423839850e+000	-6.9439992062e-001
 1.9340595323e+000	 3.3635922227e+000	-7.2031553077e-001
 1.8974595662e+000	 3.3843738843e+000	-7.1318778511e-001
 2.2701910710e+000	 3.1793380667e+000	-6.5614440563e-001
 2.2351911011e+000	 3.2040410228e+000	-6.1322215206e-001
 2.1999566354e+000	 3.2283353582e+000	-5.7624842416e-001
 2.1644947584e+000	 3.2522178891e+000	-5.4896996993e-001
 2.1288126081e+000	 3.2756855941e+000	-5.3504708247e-001
 2.0929173710e+000	 3.2987356146e+000	-5.3804464724e-001
 2.0568162779e+000	 3.3213652560e+000	-5.6142335812e-001
 2.0205165991e+000	 3.3435719883e+000	-6.0846374535e-001
 1.9840256399e+000	 3.3653534464e+000	-6.7481104039e-001
 1.9473507358e+000	 3.3867074309e+000	-7.0977355041e-001
 1.9104992482e+000	 3.4076319078e+000	-7.0805681869e-001
 2.2856857484e+000	 3.2010379221e+000	-6.5723513741e-001
 2.2504468941e+000	 3.2259094826e+000	-6.1839618507e-001
 2.2149719435e+000	 3.2503696335e+000	-5.8392828194e-001
 2.1792680296e+000	 3.2744151693e+000	-5.5728415846e-001
 2.1433423388e+000	 3.2980430479e+000	-5.4184337379e-001
 2.1072021068e+000	 3.3212503911e+000	-5.4090338414e-001
 2.0708546138e+000	 3.3440344860e+000	-5.5762694262e-001
 2.0343071798e+000	 3.3663927853e+000	-5.9470415173e-001
 1.9975671597e+000	 3.3883229079e+000	-6.5463056784e-001
 1.9606419394e+000	 3.4098226392e+000	-7.0000451023e-001
 1.9235389302e+000	 3.4308899314e+000	-7.0512664563e-001
 1.7931421101e+000	 3.1983096960e+000	-7.3367508787e-001
 1.7584007324e+000	 3.2175411036e+000	-7.0894502899e-001
 1.7235075382e+000	 3.2363661604e+000	-6.7258265250e-001
 1.6884694823e+000	 3.2547834267e+000	-6.2707671107e-001
 1.6532935261e+000	 3.2727916178e+000	-5.7491629653e-001
 1.6179866343e+000	 3.2903896030e+000	-5.1855710811e-001
 1.5825557699e+000	 3.3075764053e+000	-4.6039087271e-001
 1.5470078906e+000	 3.3243512004e+000	-4.0271798468e-001
 1.5113499448e+000	 3.3407133163e+000	-3.4764154276e-001
 1.4755888670e+000	 3.3566622317e+000	-2.9679599302e-001
 1.4397315747e+000	 3.3721975751e+000	-2.5248579857e-001
 1.8061817922e+000	 3.2215677195e+000	-7.3868757476e-001
 1.7711877760e+000	 3.2409389774e+000	-7.1114390953e-001
 1.7360408395e+000	 3.2599009295e+000	-6.7214646742e-001
 1.7007479877e+000	 3.2784521257e+000	-6.2429976689e-001
 1.6653162329e+000	 3.2965912719e+000	-5.7019842325e-001
 1.6297525903e+000	 3.3143172292e+000	-5.1239232615e-001
 1.5940640736e+000	 3.3316290134e+000	-4.5335514162e-001
 1.5582576911e+000	 3.3485257945e+000	-3.9507036631e-001
 1.5223404416e+000	 3.3650068952e+000	-3.3947960678e-001
 1.4863193103e+000	 3.3810717907e+000	-2.8918261272e-001
 1.4502012647e+000	 3.3967201067e+000	-2.4673730914e-001
 1.8192214742e+000	 3.2448257431e+000	-7.4015789366e-001
 1.7839748197e+000	 3.2643368512e+000	-7.1030659674e-001
 1.7485741407e+000	 3.2834356986e+000	-6.6903961611e-001
 1.7130264931e+000	 3.3021208248e+000	-6.1911783560e-001
 1.6773389397e+000	 3.3203909260e+000	-5.6327889557e-001
 1.6415185463e+000	 3.3382448554e+000	-5.0415538990e-001
 1.6055723773e+000	 3.3556816216e+000	-4.4359026670e-001
 1.5695074916e+000	 3.3727003885e+000	-3.8406779800e-001
 1.5333309384e+000	 3.3893004741e+000	-3.2837912823e-001
 1.4970497535e+000	 3.4054813497e+000	-2.7927666942e-001
 1.4606709546e+000	 3.4212426383e+000	-2.3945566014e-001
 1.8322611562e+000	 3.2680837666e+000	-7.3883172816e-001
 1.7967618633e+000	 3.2877347250e+000	-7.0726936735e-001
 1.7611074420e+000	 3.3069704678e+000	-6.6416257287e-001
 1.7253049986e+000	 3.3257895238e+000	-6.1246862508e-001
 1.6893616465e+000	 3.3441905801e+000	-5.5488603005e-001
 1.6532845023e+000	 3.3621724816e+000	-4.9342745962e-001
 1.6170806810e+000	 3.3797342297e+000	-4.3100135619e-001
 1.5807572920e+000	 3.3968749825e+000	-3.7061387367e-001
 1.5443214353e+000	 3.4135940530e+000	-3.1524017360e-001
 1.5077801967e+000	 3.4298909086e+000	-2.6780383254e-001
 1.4711406446e+000	 3.4457651699e+000	-2.3115832182e-001
 1.8453008382e+000	 3.2913417901e+000	-7.3545104160e-001
 1.8095489069e+000	 3.3111325989e+000	-7.0286067572e-001
 1.7736407432e+000	 3.3305052369e+000	-6.5840488506e-001
 1.7375835040e+000	 3.3494582228e+000	-6.0481697795e-001
 1.7013843533e+000	 3.3679902342e+000	-5.4451688573e-001
 1.6650504584e+000	 3.3861001078e+000	-4.8074371850e-001
 1.6285889847e+000	 3.4037868379e+000	-4.1675209733e-001
 1.5920070925e+000	 3.4210495765e+000	-3.5577320372e-001
 1.5553119321e+000	 3.4378876319e+000	-3.0099181170e-001
 1.5185106399e+000	 3.4543004676e+000	-2.5552555119e-001
 1.4816103345e+000	 3.4702877015e+000	-2.2240633378e-001
 1.8583405202e+000	 3.3145998137e+000	-7.3075319080e-001
 1.8223359506e+000	 3.3345304727e+000	-6.9789792828e-001
 1.7861740445e+000	 3.3540400061e+000	-6.5194540818e-001
 1.7498620094e+000	 3.3731269218e+000	-5.9585005829e-001
 1.7134070602e+000	 3.3917898883e+000	-5.3314040572e-001
 1.6768164144e+000	 3.4100277339e+000	-4.6735728057e-001
 1.6400972884e+000	 3.4278394461e+000	-4.0202577179e-001
 1.6032568930e+000	 3.4452241706e+000	-3.4062963341e-001
 1.5663024289e+000	 3.4621812108e+000	-2.8658809004e-001
 1.5292410832e+000	 3.4787100266e+000	-2.4323497734e-001
 1.4920800244e+000	 3.4948102331e+000	-2.1380014135e-001
 1.8713802022e+000	 3.3378578372e+000	-7.2544146486e-001
 1.8351229942e+000	 3.3579283465e+000	-6.9232108516e-001
 1.7987073457e+000	 3.3775747752e+000	-6.4481588362e-001
 1.7621405148e+000	 3.3967956208e+000	-5.8677083143e-001
 1.7254297670e+000	 3.4155895424e+000	-5.2205449619e-001
 1.6885823704e+000	 3.4339553601e+000	-4.5452792672e-001
 1.6516055921e+000	 3.4518920542e+000	-3.8801615633e-001
 1.6145066935e+000	 3.4693987646e+000	-3.2628228160e-001
 1.5772929258e+000	 3.4864747897e+000	-2.7300405827e-001
 1.5399715264e+000	 3.5031195856e+000	-2.3175294248e-001
 1.5025497144e+000	 3.5193327647e+000	-2.0597549342e-001
 1.8844198842e+000	 3.3611158607e+000	-7.1937103178e-001
 1.8479100378e+000	 3.3813262203e+000	-6.8653493693e-001
 1.8112406470e+000	 3.4011095443e+000	-6.3829288338e-001
 1.7744190203e+000	 3.4204643198e+000	-5.7888593008e-001
 1.7374524738e+000	 3.4393891965e+000	-5.1255678777e-001
 1.7003483264e+000	 3.4578829863e+000	-4.4351811672e-001
 1.6631138959e+000	 3.4759446624e+000	-3.7592358240e-001
 1.6257564939e+000	 3.4935733586e+000	-3.1384161920e-001
 1.5882834226e+000	 3.5107683686e+000	-2.6123183623e-001
 1.5507019696e+000	 3.5275291446e+000	-2.2192398534e-001
 1.5130194043e+000	 3.5438552963e+000	-1.9959939906e-001
 1.8974595662e+000	 3.3843738843e+000	-7.1318778511e-001
 1.8606970815e+000	 3.4047240942e+000	-6.8178078071e-001
 1.8237739482e+000	 3.4246443135e+000	-6.3365898502e-001
 1.7866975257e+000	 3.4441330188e+000	-5.7349554251e-001
 1.7494751806e+000	 3.4631888507e+000	-5.0594060331e-001
 1.7121142824e+000	 3.4818106125e+000	-4.3558903337e-001
 1.6746221996e+000	 3.4999972705e+000	-3.6695103000e-001
 1.6370062944e+000	 3.5177479526e+000	-3.0442558550e-001
 1.5992739195e+000	 3.5350619475e+000	-2.5227672466e-001
 1.5614324128e+000	 3.5519387036e+000	-2.1461242805e-001
 1.5234890943e+000	 3.5683778279e+000	-1.9536613985e-001
 1.9104992482e+000	 3.4076319078e+000	-7.0805681869e-001
 1.8734841251e+000	 3.4281219680e+000	-6.7928749013e-001
 1.8363072495e+000	 3.4481790826e+000	-6.3218484685e-001
 1.7989760311e+000	 3.4678017179e+000	-5.7188930812e-001
 1.7614978874e+000	 3.4869885048e+000	-5.0349095548e-001
 1.7238802385e+000	 3.5057382387e+000	-4.3199665736e-001
 1.6861305033e+000	 3.5240498787e+000	-3.6230025446e-001
 1.6482560949e+000	 3.5419225467e+000	-2.9915574056e-001
 1.6102644163e+000	 3.5593555264e+000	-2.4715335628e-001
 1.5721628561e+000	 3.5763482626e+000	-2.1069849856e-001
 1.5339587842e+000	 3.5929003595e+000	-1.9399333537e-001
 1.9235389302e+000	 3.4308899314e+000	-7.0512664563e-001
 1.8862711687e+000	 3.4515198418e+000	-6.8026716795e-001
 1.8488405507e+000	 3.4717138517e+000	-6.3512500741e-001
 1.8112545366e+000	 3.4914704169e+000	-5.7534224154e-001
 1.7735205942e+000	 3.5107881589e+000	-5.0648057267e-001
 1.7356461945e+000	 3.5296658649e+000	-4.3398787141e-001
 1.6976388070e+000	 3.5481024868e+000	-3.6316794430e-001
 1.6595058954e+000	 3.5660971407e+000	-2.9915345187e-001
 1.6212549131e+000	 3.5836491053e+000	-2.4688188557e-001
 1.5828932993e+000	 3.6007578216e+000	-2.1107449706e-001
 1.5444284742e+000	 3.6174228910e+000	-1.9621805935e-001
 1.4397315747e+000	 3.3721975751e+000	-2.5248579857e-001
 1.4037795652e+000	 3.3873213615e+000	-2.2748273471e-001
 1.3677450859e+000	 3.4020311558e+000	-2.3751889038e-001
 1.3316349834e+000	 3.4163270308e+000	-2.8895543774e-001
 1.2954560718e+000	 3.4302092034e+000	-3.3784986015e-001
 1.2592151286e+000	 3.4436780330e+000	-3.5119109552e-001
 1.2229188917e+000	 3.4567340197e+000	-3.3867727004e-001
 1.1865740558e+000	 3.4693778024e+000	-3.0949047614e-001
 1.1501872686e+000	 3.4816101568e+000	-2.7223175258e-001
 1.1137651284e+000	 3.4934319935e+000	-2.3486446515e-001
 1.0773141800e+000	 3.5048443553e+000	-2.0466567009e-001
 1.4502012647e+000	 3.3967201067e+000	-2.4673730914e-001
 1.4139878131e+000	 3.4119538729e+000	-2.2220117650e-001
 1.3776912920e+000	 3.4267706364e+000	-2.2841023326e-001
 1.3413185978e+000	 3.4411704707e+000	-2.7166345505e-001
 1.3048765941e+000	 3.4551535940e+000	-3.3077371513e-001
 1.2683721077e+000	 3.4687203686e+000	-3.5404675814e-001
 1.2318119256e+000	 3.4818712981e+000	-3.4908769458e-001
 1.1952027909e+000	 3.4946070260e+000	-3.2516013323e-001
 1.1585514001e+000	 3.5069283338e+000	-2.9092981201e-001
 1.1218643990e+000	 3.5188361386e+000	-2.5440895299e-001
 1.0851483803e+000	 3.5303314908e+000	-2.2290882873e-001
 1.4606709546e+000	 3.4212426383e+000	-2.3945566014e-001
 1.4241960610e+000	 3.4365863842e+000	-2.1632843498e-001
 1.3876374981e+000	 3.4515101171e+000	-2.1988430722e-001
 1.3510022122e+000	 3.4660139105e+000	-2.5625168650e-001
 1.3142971164e+000	 3.4800979847e+000	-3.1958836945e-001
 1.2775290868e+000	 3.4937627042e+000	-3.5278996185e-001
 1.2407049594e+000	 3.5070085764e+000	-3.5555903500e-001
 1.2038315261e+000	 3.5198362497e+000	-3.3722663305e-001
 1.1669155315e+000	 3.5322465108e+000	-3.0650861557e-001
 1.1299636695e+000	 3.5442402836e+000	-2.7145114526e-001
 1.0929825805e+000	 3.5558186262e+000	-2.3938462003e-001
 1.4711406446e+000	 3.4457651699e+000	-2.3115832182e-001
 1.4344043088e+000	 3.4612188956e+000	-2.1016134081e-001
 1.3975837042e+000	 3.4762495977e+000	-2.1202662916e-001
 1.3606858266e+000	 3.4908573503e+000	-2.4270247424e-001
 1.3237176387e+000	 3.5050423753e+000	-3.0487394600e-001
 1.2866860660e+000	 3.5188050398e+000	-3.4781586624e-001
 1.2495979933e+000	 3.5321458548e+000	-3.5830934853e-001
 1.2124602613e+000	 3.5450654733e+000	-3.4573762323e-001
 1.1752796629e+000	 3.5575646878e+000	-3.1885088017e-001
 1.1380629401e+000	 3.5696444287e+000	-2.8571305608e-001
 1.1008167807e+000	 3.5813057617e+000	-2.5365730296e-001
 1.4816103345e+000	 3.4702877015e+000	-2.2240633378e-001
 1.4446125567e+000	 3.4858514070e+000	-2.0404847123e-001
 1.4075299103e+000	 3.5009890783e+000	-2.0498239047e-001
 1.3703694410e+000	 3.5157007902e+000	-2.3096649054e-001
 1.3331381610e+000	 3.5299867659e+000	-2.8726768416e-001
 1.2958430451e+000	 3.5438473754e+000	-3.3958848851e-001
 1.2584910271e+000	 3.5572831332e+000	-3.5763714299e-001
 1.2210889964e+000	 3.5702946969e+000	-3.5083259797e-001
 1.1836437943e+000	 3.5828828648e+000	-3.2794231936e-001
 1.1461622107e+000	 3.5950485738e+000	-2.9703055063e-001
 1.1086509810e+000	 3.6067928972e+000	-2.6541549699e-001
 1.4920800244e+000	 3.4948102331e+000	-2.1380014135e-001
 1.4548208046e+000	 3.5104839184e+000	-1.9838588725e-001
 1.4174761164e+000	 3.5257285589e+000	-1.9895210439e-001
 1.3800530554e+000	 3.5405442300e+000	-2.2105731157e-001
 1.3425586833e+000	 3.5549311565e+000	-2.6977188396e-001
 1.3050000242e+000	 3.5688897110e+000	-3.2863252495e-001
 1.2673840610e+000	 3.5824204116e+000	-3.5391326524e-001
 1.2297177316e+000	 3.5955239206e+000	-3.5273486647e-001
 1.1920079257e+000	 3.6082010418e+000	-3.3386370359e-001
 1.1542614812e+000	 3.6204527189e+000	-3.0534550887e-001
 1.1164851812e+000	 3.6322800327e+000	-2.7446445984e-001
 1.5025497144e+000	 3.5193327647e+000	-2.0597549342e-001
 1.4650290525e+000	 3.5351164297e+000	-1.9361294104e-001
 1.4274223225e+000	 3.5504680395e+000	-1.9418733180e-001
 1.3897366698e+000	 3.5653876698e+000	-2.1304707033e-001
 1.3519792056e+000	 3.5798755472e+000	-2.5505546495e-001
 1.3141570033e+000	 3.5939320466e+000	-3.1552527318e-001
 1.2762770948e+000	 3.6075576900e+000	-3.4757289719e-001
 1.2383464667e+000	 3.6207531442e+000	-3.5174363505e-001
 1.2003720571e+000	 3.6335192188e+000	-3.3678304026e-001
 1.1623607518e+000	 3.6458568640e+000	-3.1069811436e-001
 1.1243193814e+000	 3.6577671681e+000	-2.8071849540e-001
 1.5130194043e+000	 3.5438552963e+000	-1.9959939906e-001
 1.4752373004e+000	 3.5597489411e+000	-1.9020815013e-001
 1.4373685286e+000	 3.5752075201e+000	-1.9098648155e-001
 1.3994202842e+000	 3.5902311097e+000	-2.0706219158e-001
 1.3613997279e+000	 3.6048199378e+000	-2.4308147405e-001
 1.3233139825e+000	 3.6189743822e+000	-3.0088865022e-001
 1.2851701287e+000	 3.6326949684e+000	-3.3910765404e-001
 1.2469752019e+000	 3.6459823679e+000	-3.4822619748e-001
 1.2087361885e+000	 3.6588373958e+000	-3.3694786753e-001
 1.1704600224e+000	 3.6712610090e+000	-3.1321926226e-001
 1.1321535817e+000	 3.6832543036e+000	-2.8419348577e-001
 1.5234890943e+000	 3.5683778279e+000	-1.9536613985e-001
 1.4854455482e+000	 3.5843814525e+000	-1.8868513512e-001
 1.4473147347e+000	 3.5999470007e+000	-1.8969068192e-001
 1.4091038986e+000	 3.6150745495e+000	-2.0327920488e-001
 1.3708202502e+000	 3.6297643284e+000	-2.3386945272e-001
 1.3324709616e+000	 3.6440167178e+000	-2.8538130190e-001
 1.2940631625e+000	 3.6578322468e+000	-3.2905777975e-001
 1.2556039371e+000	 3.6712115915e+000	-3.4261022844e-001
 1.2171003199e+000	 3.6841555728e+000	-3.3467765663e-001
 1.1785592929e+000	 3.6966651541e+000	-3.1312308075e-001
 1.1399877819e+000	 3.7087414391e+000	-2.8499954141e-001
 1.5339587842e+000	 3.5929003595e+000	-1.9399333537e-001
 1.4956537961e+000	 3.6090139638e+000	-1.8958861807e-001
 1.4572609408e+000	 3.6246864813e+000	-1.9067971958e-001
 1.4187875129e+000	 3.6399179893e+000	-2.0192063209e-001
 1.3802407725e+000	 3.6547087190e+000	-2.2749202901e-001
 1.3416279407e+000	 3.6690590534e+000	-2.7109574822e-001
 1.3029561964e+000	 3.6829695251e+000	-3.1800443534e-001
 1.2642326722e+000	 3.6964408151e+000	-3.3537617498e-001
 1.2254644513e+000	 3.7094737498e+000	-3.3035631735e-001
 1.1866585635e+000	 3.7220692992e+000	-3.1069956041e-001
 1.1478219821e+000	 3.7342285745e+000	-2.8333376362e-001
 1.5444284742e+000	 3.6174228910e+000	-1.9621805935e-001
 1.5058620440e+000	 3.6336464752e+000	-1.9349047841e-001
 1.4672071469e+000	 3.6494259619e+000	-1.9436804307e-001
 1.4284711273e+000	 3.6647614292e+000	-2.0325094558e-001
 1.3896612948e+000	 3.6796531097e+000	-2.2407083788e-001
 1.3507849198e+000	 3.6941013890e+000	-2.6028612728e-001
 1.3118492302e+000	 3.7081068035e+000	-3.0656207529e-001
 1.2728614074e+000	 3.7216700388e+000	-3.2704974156e-001
 1.2338285827e+000	 3.7347919268e+000	-3.2442480180e-001
 1.1947578341e+000	 3.7474734443e+000	-3.0630728652e-001
 1.1556561824e+000	 3.7597157100e+000	-2.7947311422e-001
 1.0773141800e+000	 3.5048443553e+000	-2.0466567009e-001
 1.0408409118e+000	 3.5158484147e+000	-1.7577692944e-001
 1.0043517508e+000	 3.5264454685e+000	-1.4000639757e-001
 9.6785306161e-001	 3.5366369385e+000	-1.0005614780e-001
 9.3135114424e-001	 3.5464243692e+000	-5.7975302572e-002
 8.9485223122e-001	 3.5558094260e+000	-1.5110960379e-002
 8.5836248506e-001	 3.5647938922e+000	 2.7893843687e-002
 8.2188799579e-001	 3.5733796665e+000	 7.1105597585e-002
 7.8543477855e-001	 3.5815687602e+000	 1.1530185471e-001
 7.4900877130e-001	 3.5893632944e+000	 1.6196932537e-001
 7.1261583262e-001	 3.5967654974e+000	 2.1329896818e-001
 1.0851483803e+000	 3.5303314908e+000	-2.2290882873e-001
 1.0484098794e+000	 3.5414155714e+000	-1.9139790161e-001
 1.0116553701e+000	 3.5520896867e+000	-1.5263344307e-001
 9.7489126348e-001	 3.5623552688e+000	-1.0956682588e-001
 9.3812390514e-001	 3.5722138734e+000	-6.4416195733e-002
 9.0135957298e-001	 3.5816671781e+000	-1.8729981304e-002
 8.6460447435e-001	 3.5907169792e+000	 2.6667684154e-002
 8.2786474356e-001	 3.5993651890e+000	 7.1670045316e-002
 7.9114643950e-001	 3.6076138335e+000	 1.1688751966e-001
 7.5445554328e-001	 3.6154650493e+000	 1.6364405729e-001
 7.1779795611e-001	 3.6229210810e+000	 2.1397053938e-001
 1.0929825805e+000	 3.5558186262e+000	-2.3938462003e-001
 1.0559788470e+000	 3.5669827281e+000	-2.0607449589e-001
 1.0189589895e+000	 3.5777339049e+000	-1.6519645312e-001
 9.8192946535e-001	 3.5880735991e+000	-1.1988180443e-001
 9.4489666604e-001	 3.5980033777e+000	-7.2522681553e-002
 9.0786691475e-001	 3.6075249303e+000	-2.4827907222e-002
 8.7084646365e-001	 3.6166400661e+000	 2.2223913351e-002
 8.3384149134e-001	 3.6253507114e+000	 6.8376940013e-002
 7.9685810044e-001	 3.6336589068e+000	 1.1409600828e-001
 7.5990231526e-001	 3.6415668043e+000	 1.6056113008e-001
 7.2298007960e-001	 3.6490766646e+000	 2.0965908204e-001
 1.1008167807e+000	 3.5813057617e+000	-2.5365730296e-001
 1.0635478146e+000	 3.5925498848e+000	-2.1922580884e-001
 1.0262626089e+000	 3.6033781231e+000	-1.7697969288e-001
 9.8896766723e-001	 3.6137919294e+000	-1.3019629815e-001
 9.5166942693e-001	 3.6237928819e+000	-8.1409322476e-002
 9.1437425652e-001	 3.6333826824e+000	-3.2458183576e-002
 8.7708845295e-001	 3.6425631530e+000	 1.5551664010e-002
 8.3981823911e-001	 3.6513362338e+000	 6.2240446195e-002
 8.0256976138e-001	 3.6597039801e+000	 1.0794995168e-001
 7.6534908725e-001	 3.6676685592e+000	 1.5373603933e-001
 7.2816220310e-001	 3.6752322482e+000	 2.0135829245e-001
 1.1086509810e+000	 3.6067928972e+000	-2.6541549699e-001
 1.0711167822e+000	 3.6181170415e+000	-2.3040510324e-001
 1.0335662283e+000	 3.6290223413e+000	-1.8742247240e-001
 9.9600586910e-001	 3.6395102597e+000	-1.3985603342e-001
 9.5844218783e-001	 3.6495823861e+000	-9.0347616023e-002
 9.2088159828e-001	 3.6592404345e+000	-4.0836373626e-002
 8.8333044224e-001	 3.6684862399e+000	 7.4740629481e-003
 8.4579498689e-001	 3.6773217563e+000	 5.4106181035e-002
 8.0828142233e-001	 3.6857490534e+000	 9.9302288857e-002
 7.7079585923e-001	 3.6937703142e+000	 1.4401488814e-001
 7.3334432659e-001	 3.7013878317e+000	 1.8989426386e-001
 1.1164851812e+000	 3.6322800327e+000	-2.7446445984e-001
 1.0786857497e+000	 3.6436841982e+000	-2.3929222045e-001
 1.0408698477e+000	 3.6546665595e+000	-1.9609958255e-001
 1.0030440710e+000	 3.6652285900e+000	-1.4835002319e-001
 9.6521494873e-001	 3.6753718904e+000	-9.8758996763e-002
 9.2738894005e-001	 3.6850981866e+000	-4.9333417300e-002
 8.8957243154e-001	 3.6944093268e+000	-1.3453141024e-003
 8.5177173467e-001	 3.7033072787e+000	 4.4657353912e-002
 8.1399308327e-001	 3.7117941267e+000	 8.8842062467e-002
 7.7624263121e-001	 3.7198720691e+000	 1.3207981116e-001
 7.3852645008e-001	 3.7275434153e+000	 1.7593051129e-001
 1.1243193814e+000	 3.6577671681e+000	-2.8071849540e-001
 1.0862547173e+000	 3.6692513549e+000	-2.4568612751e-001
 1.0481734670e+000	 3.6803107777e+000	-2.0271401110e-001
 1.0100822729e+000	 3.6909469203e+000	-1.5530348138e-001
 9.7198770963e-001	 3.7011613946e+000	-1.0620797799e-001
 9.3389628182e-001	 3.7109559387e+000	-5.7469028767e-002
 8.9581442084e-001	 3.7203324137e+000	-1.0396124057e-002
 8.5774848244e-001	 3.7292928012e+000	 3.4420773262e-002
 8.1970474421e-001	 3.7378392000e+000	 7.7100086992e-002
 7.8168940319e-001	 3.7459738241e+000	 1.1845427750e-001
 7.4370857358e-001	 3.7536989989e+000	 1.5997288308e-001
 1.1321535817e+000	 3.6832543036e+000	-2.8419348577e-001
 1.0938236849e+000	 3.6948185116e+000	-2.4949759237e-001
 1.0554770864e+000	 3.7059549959e+000	-2.0708978965e-001
 1.0171204747e+000	 3.7166652506e+000	-1.6046373557e-001
 9.7876047052e-001	 3.7269508988e+000	-1.1239542633e-001
 9.4040362358e-001	 3.7368136908e+000	-6.4905226027e-002
 9.0205641013e-001	 3.7462555007e+000	-1.9315067828e-002
 8.6372523022e-001	 3.7552783236e+000	 2.3772727157e-002
 8.2541640516e-001	 3.7638842733e+000	 6.4454495447e-002
 7.8713617517e-001	 3.7720755791e+000	 1.0350827819e-001
 7.4889069707e-001	 3.7798545825e+000	 1.4237436446e-001
 1.1399877819e+000	 3.7087414391e+000	-2.8499954141e-001
 1.1013926525e+000	 3.7203856683e+000	-2.5074198101e-001
 1.0627807058e+000	 3.7315992141e+000	-2.0916496528e-001
 1.0241586766e+000	 3.7423835808e+000	-1.6372290838e-001
 9.8553323142e-001	 3.7527404031e+000	-1.1715196295e-001
 9.4691096535e-001	 3.7626714430e+000	-7.1439986153e-002
 9.0829839943e-001	 3.7721785876e+000	-2.7879825212e-002
 8.6970197799e-001	 3.7812638460e+000	 1.2944743692e-002
 8.3112806610e-001	 3.7899293467e+000	 5.1136170476e-002
 7.9258294715e-001	 3.7981773340e+000	 8.7463404044e-002
 7.5407282056e-001	 3.8060101661e+000	 1.2333977850e-001
 1.1478219821e+000	 3.7342285745e+000	-2.8333376362e-001
 1.1089616201e+000	 3.7459528250e+000	-2.4953217084e-001
 1.0700843252e+000	 3.7572434323e+000	-2.0898469102e-001
 1.0311968785e+000	 3.7681019111e+000	-1.6506538009e-001
 9.9230599232e-001	 3.7785299073e+000	-1.2043148517e-001
 9.5341830711e-001	 3.7885291951e+000	-7.7001020179e-002
 9.1454038873e-001	 3.7981016745e+000	-3.6003107420e-002
 8.7567872577e-001	 3.8072493685e+000	 2.0292369231e-003
 8.3683972704e-001	 3.8159744200e+000	 3.7234065370e-002
 7.9802971914e-001	 3.8242790890e+000	 7.0397818825e-002
 7.5925494406e-001	 3.8321657497e+000	 1.0293038922e-001
 1.1556561824e+000	 3.7597157100e+000	-2.7947311422e-001
 1.1165305877e+000	 3.7715199817e+000	-2.4607157460e-001
 1.0773879445e+000	 3.7828876505e+000	-2.0669442933e-001
 1.0382350804e+000	 3.7938202414e+000	-1.6459288001e-001
 9.9907875321e-001	 3.8043194115e+000	-1.2230480295e-001
 9.5992564888e-001	 3.8143869472e+000	-8.1639661978e-002
 9.2078237802e-001	 3.8240247614e+000	-4.3726821665e-002
 8.8165547354e-001	 3.8332348909e+000	-9.0149562235e-003
 8.4255138799e-001	 3.8420194933e+000	 2.2700420218e-002
 8.0347649112e-001	 3.8503808439e+000	 5.2251132936e-002
 7.6443706755e-001	 3.8583213333e+000	 8.1068411569e-002
 7.1261583262e-001	 3.5967654974e+000	 2.1329896818e-001
 6.7626718788e-001	 3.6037766798e+000	 2.2769343907e-001
 6.3996306006e-001	 3.6104004164e+000	 1.8722090382e-001
 6.0370904694e-001	 3.6166392418e+000	 1.4985242577e-001
 5.6751065950e-001	 3.6224957856e+000	 1.1902765370e-001
 5.3137332022e-001	 3.6279727701e+000	 9.6413777825e-002
 4.9530236159e-001	 3.6330730071e+000	 8.4786039042e-002
 4.5930302458e-001	 3.6377993950e+000	 8.8072415803e-002
 4.2338045735e-001	 3.6421549158e+000	 1.1138643351e-001
 3.8753971400e-001	 3.6461426319e+000	 1.6104987593e-001
 3.5178575339e-001	 3.6497656832e+000	 2.4460707619e-001
 7.1779795611e-001	 3.6229210810e+000	 2.1397053938e-001
 6.8118498499e-001	 3.6299832485e+000	 2.2889133696e-001
 6.4461685451e-001	 3.6366551528e+000	 1.8567978723e-001
 6.0809920317e-001	 3.6429393467e+000	 1.4382194424e-001
 5.7163758201e-001	 3.6488384791e+000	 1.0969698874e-001
 5.3523745296e-001	 3.6543552921e+000	 8.4659694501e-002
 4.9890418727e-001	 3.6594926179e+000	 7.1216438254e-002
 4.6264306403e-001	 3.6642533760e+000	 7.3061229439e-002
 4.2645926884e-001	 3.6686405700e+000	 9.5100027444e-002
 3.9035789255e-001	 3.6726572847e+000	 1.4346521312e-001
 3.5434393009e-001	 3.6763066828e+000	 2.2552197137e-001
 7.2298007960e-001	 3.6490766646e+000	 2.0965908204e-001
 6.8610278210e-001	 3.6561898172e+000	 2.2506262550e-001
 6.4927064896e-001	 3.6629098892e+000	 1.8113870521e-001
 6.1248935939e-001	 3.6692394517e+000	 1.3589908821e-001
 5.7576450452e-001	 3.6751811727e+000	 9.9576095243e-002
 5.3910158569e-001	 3.6807378142e+000	 7.3186196472e-002
 5.0250601294e-001	 3.6859122288e+000	 5.8937570497e-002
 4.6598310348e-001	 3.6907073570e+000	 6.0257006002e-002
 4.2953808033e-001	 3.6951262243e+000	 8.1805285841e-002
 3.9317607110e-001	 3.6991719375e+000	 1.2948301020e-001
 3.5690210679e-001	 3.7028476823e+000	 2.1042869755e-001
 7.2816220310e-001	 3.6752322482e+000	 2.0135829245e-001
 6.9102057921e-001	 3.6823963859e+000	 2.1714488290e-001
 6.5392444342e-001	 3.6891646255e+000	 1.7421775561e-001
 6.1687951562e-001	 3.6955395566e+000	 1.2659238657e-001
 5.7989142703e-001	 3.7015238663e+000	 8.9023195474e-002
 5.4296571843e-001	 3.7071203362e+000	 6.2168907953e-002
 5.0610783862e-001	 3.7123318396e+000	 4.7916526149e-002
 4.6932314293e-001	 3.7171613380e+000	 4.9398603372e-002
 4.3261689182e-001	 3.7216118785e+000	 7.0999227303e-002
 3.9599424966e-001	 3.7256865903e+000	 1.1835076124e-001
 3.5946028349e-001	 3.7293886818e+000	 1.9832326657e-001
 7.3334432659e-001	 3.7013878317e+000	 1.8989426386e-001
 6.9593837632e-001	 3.7086029546e+000	 2.0591198724e-001
 6.5857823787e-001	 3.7154193619e+000	 1.6537072054e-001
 6.2126967185e-001	 3.7218396615e+000	 1.1624472438e-001
 5.8401834954e-001	 3.7278665598e+000	 7.8234653535e-002
 5.4682985117e-001	 3.7335028583e+000	 5.1628615154e-002
 5.0970966430e-001	 3.7387514504e+000	 3.7975927455e-002
 4.7266318238e-001	 3.7436153190e+000	 4.0094239795e-002
 4.3569570332e-001	 3.7480975327e+000	 6.2065620109e-002
 3.9881242821e-001	 3.7522012431e+000	 1.0922375511e-001
 3.6201846019e-001	 3.7559296814e+000	 1.8813427347e-001
 7.3852645008e-001	 3.7275434153e+000	 1.7593051129e-001
 7.0085617343e-001	 3.7348095233e+000	 1.9197869488e-001
 6.6323203232e-001	 3.7416740982e+000	 1.5489279520e-001
 6.2565982808e-001	 3.7481397664e+000	 1.0504016583e-001
 5.8814527205e-001	 3.7542092534e+000	 6.7250836571e-002
 5.5069398390e-001	 3.7598853803e+000	 4.1436114057e-002
 5.1331148998e-001	 3.7651710613e+000	 2.8797715047e-002
 4.7600322183e-001	 3.7700693001e+000	 3.1824175203e-002
 4.3877451481e-001	 3.7745831870e+000	 5.4276518261e-002
 4.0163060677e-001	 3.7787158959e+000	 1.0116542998e-001
 3.6457663688e-001	 3.7824706809e+000	 1.7872203684e-001
 7.4370857358e-001	 3.7536989989e+000	 1.5997288308e-001
 7.0577397054e-001	 3.7610160921e+000	 1.7580511552e-001
 6.6788582677e-001	 3.7679288346e+000	 1.4290047888e-001
 6.3004998430e-001	 3.7744398714e+000	 9.3010702968e-002
 5.9227219456e-001	 3.7805519469e+000	 5.5961920837e-002
 5.5455811664e-001	 3.7862679023e+000	 3.1317024901e-002
 5.1691331566e-001	 3.7915906721e+000	 1.9926925792e-002
 4.7934326128e-001	 3.7965232811e+000	 2.3943411212e-002
 4.4185332630e-001	 3.8010688412e+000	 4.6793846173e-002
 4.0444878532e-001	 3.8052305487e+000	 9.3147808973e-002
 3.6713481358e-001	 3.8090116804e+000	 1.6887785547e-001
 7.4889069707e-001	 3.7798545825e+000	 1.4237436446e-001
 7.1069176765e-001	 3.7872226608e+000	 1.5770108897e-001
 6.7253962123e-001	 3.7941835709e+000	 1.2886544445e-001
 6.3444014053e-001	 3.8007399763e+000	 8.0042933932e-002
 5.9639911707e-001	 3.8068946405e+000	 4.4113645296e-002
 5.5842224937e-001	 3.8126504244e+000	 2.0856574966e-002
 5.2051514133e-001	 3.8180102829e+000	 1.0775462385e-002
 4.8268330073e-001	 3.8229772621e+000	 1.5684408876e-002
 4.4493213779e-001	 3.8275544954e+000	 3.8671029659e-002
 4.0726696387e-001	 3.8317452015e+000	 8.4052013131e-002
 3.6969299028e-001	 3.8355526800e+000	 1.5732337549e-001
 7.5407282056e-001	 3.8060101661e+000	 1.2333977850e-001
 7.1560956476e-001	 3.8134292295e+000	 1.3783046834e-001
 6.7719341568e-001	 3.8204383073e+000	 1.1261404738e-001
 6.3883029676e-001	 3.8270400812e+000	 6.5884673980e-002
 6.0052603959e-001	 3.8332373341e+000	 3.1313015249e-002
 5.6228638211e-001	 3.8390329464e+000	 9.5043512095e-003
 5.2411696701e-001	 3.8444298938e+000	 6.2585509816e-004
 4.8602334018e-001	 3.8494312431e+000	 6.1598233662e-003
 4.4801094928e-001	 3.8540401497e+000	 2.8854670980e-002
 4.1008514243e-001	 3.8582598543e+000	 7.2668847855e-002
 3.7225116698e-001	 3.8620936795e+000	 1.4271006288e-001
 7.5925494406e-001	 3.8321657497e+000	 1.0293038922e-001
 7.2052736187e-001	 3.8396357982e+000	 1.1621531410e-001
 6.8184721013e-001	 3.8466930436e+000	 9.4091485319e-002
 6.4322045299e-001	 3.8533401861e+000	 5.0151502582e-002
 6.0465296210e-001	 3.8595800276e+000	 1.7033958404e-002
 5.6615051484e-001	 3.8654154685e+000	-3.4209758330e-003
 5.2771879269e-001	 3.8708495046e+000	-1.1364983953e-002
 4.8936337964e-001	 3.8758852241e+000	-5.6347452617e-003
 4.5108976078e-001	 3.8805258039e+000	 1.6186265860e-002
 4.1290332098e-001	 3.8847745071e+000	 5.7699459408e-002
 3.7480934368e-001	 3.8886346791e+000	 1.2361877614e-001
 7.6443706755e-001	 3.8583213333e+000	 8.1068411569e-002
 7.2544515898e-001	 3.8658423669e+000	 9.2740003247e-002
 6.8650100458e-001	 3.8729477800e+000	 7.3108989305e-002
 6.4761060921e-001	 3.8796402911e+000	 3.2333249588e-002
 6.0877988461e-001	 3.8859227212e+000	 6.2293563381e-004
 5.7001464758e-001	 3.8917979905e+000	-1.8726955501e-002
 5.3132061837e-001	 3.8972691155e+000	-2.6162013667e-002
 4.9270341909e-001	 3.9023392051e+000	-2.0817985946e-002
 4.5416857227e-001	 3.9070114582e+000	-5.9603953974e-004
 4.1572149954e-001	 3.9112891599e+000	 3.7756058117e-002
 3.7736752037e-001	 3.9151756786e+000	 9.8559434481e-002
 3.5178575339e-001	 3.6497656832e+000	 2.4460707619e-001
 3.1611810781e-001	 3.6530277469e+000	 3.2242975998e-001
 2.8054697635e-001	 3.6559315402e+000	 3.5508089590e-001
 2.4507710014e-001	 3.6584804202e+000	 3.5231250426e-001
 2.0971311924e-001	 3.6606778091e+000	 3.2514392286e-001
 1.7445957196e-001	 3.6625271922e+000	 2.8585724292e-001
 1.3932089439e-001	 3.6640321140e+000	 2.4799184387e-001
 1.0430141984e-001	 3.6651961758e+000	 2.2633887569e-001
 6.9405378595e-002	 3.6660230324e+000	 2.3693641827e-001
 3.4636897532e-002	 3.6665163894e+000	 2.9706593111e-001
 0.0000000000e+000	 3.6666800000e+000	 4.2525051287e-001
 3.5434393009e-001	 3.6763066828e+000	 2.2552197137e-001
 3.1841691033e-001	 3.6795924681e+000	 3.0151913619e-001
 2.8258710654e-001	 3.6825173777e+000	 3.3210090697e-001
 2.4685929434e-001	 3.6850847930e+000	 3.2716684889e-001
 2.1123814750e-001	 3.6872981613e+000	 2.9790214354e-001
 1.7572823736e-001	 3.6891609931e+000	 2.5676621119e-001
 1.4033403225e-001	 3.6906768587e+000	 2.1748106355e-001
 1.0505989701e-001	 3.6918493855e+000	 1.9502026374e-001
 6.9910092673e-002	 3.6926822549e+000	 2.0559924324e-001
 3.4888776135e-002	 3.6931791996e+000	 2.6666760263e-001
 0.0000000000e+000	 3.6933440000e+000	 3.9690392109e-001
 3.5690210679e-001	 3.7028476823e+000	 2.1042869755e-001
 3.2071571285e-001	 3.7061571893e+000	 2.8508793437e-001
 2.8462723674e-001	 3.7091032152e+000	 3.1449261772e-001
 2.4864148853e-001	 3.7116891659e+000	 3.0861128462e-001
 2.1276317576e-001	 3.7139185136e+000	 2.7870651393e-001
 1.7699690275e-001	 3.7157947940e+000	 2.3731667276e-001
 1.4134717011e-001	 3.7173216033e+000	 1.9823807031e-001
 1.0581837418e-001	 3.7185025951e+000	 1.7650842349e-001
 7.0414806752e-002	 3.7193414775e+000	 1.8839240425e-001
 3.5140654739e-002	 3.7198420098e+000	 2.5136990786e-001
 0.0000000000e+000	 3.7200080000e+000	 3.8412757202e-001
 3.5946028349e-001	 3.7293886818e+000	 1.9832326657e-001
 3.2301451537e-001	 3.7327219104e+000	 2.7184513883e-001
 2.8666736693e-001	 3.7356890527e+000	 3.0060897637e-001
 2.5042368272e-001	 3.7382935388e+000	 2.9457920400e-001
 2.1428820401e-001	 3.7405388658e+000	 2.6501262040e-001
 1.7826556815e-001	 3.7424285949e+000	 2.2443319025e-001
 1.4236030797e-001	 3.7439663479e+000	 1.8660796765e-001
 1.0657685135e-001	 3.7451558048e+000	 1.6652508258e-001
 7.0919520830e-002	 3.7460007000e+000	 1.8037458021e-001
 3.5392533342e-002	 3.7465048200e+000	 2.4553276418e-001
 0.0000000000e+000	 3.7466720000e+000	 3.8055057716e-001
 3.6201846019e-001	 3.7559296814e+000	 1.8813427347e-001
 3.2531331789e-001	 3.7592866316e+000	 2.6046203679e-001
 2.8870749713e-001	 3.7622748902e+000	 2.8880104909e-001
 2.5220587691e-001	 3.7648979116e+000	 2.8304407700e-001
 2.1581323227e-001	 3.7671592180e+000	 2.5436426968e-001
 1.7953423355e-001	 3.7690623958e+000	 2.1518290153e-001
 1.4337344583e-001	 3.7706110926e+000	 1.7913901886e-001
 1.0733532852e-001	 3.7718090145e+000	 1.6106194955e-001
 7.1424234909e-002	 3.7726599226e+000	 1.7694748485e-001
 3.5644411946e-002	 3.7731676302e+000	 2.4393839562e-001
 0.0000000000e+000	 3.7733360000e+000	 3.8030981904e-001
 3.6457663688e-001	 3.7824706809e+000	 1.7872203684e-001
 3.2761212042e-001	 3.7858513528e+000	 2.4957007695e-001
 2.9074762732e-001	 3.7888607277e+000	 2.7741449416e-001
 2.5398807111e-001	 3.7915022845e+000	 2.7201444246e-001
 2.1733826053e-001	 3.7937795703e+000	 2.4438690315e-001
 1.8080289894e-001	 3.7956961966e+000	 2.0676726629e-001
 1.4438658369e-001	 3.7972558372e+000	 1.7257263927e-001
 1.0809380568e-001	 3.7984622241e+000	 1.5636886907e-001
 7.1928948989e-002	 3.7993191451e+000	 1.7384210585e-001
 3.5896290549e-002	 3.7998304405e+000	 2.4177558089e-001
 0.0000000000e+000	 3.8000000000e+000	 3.7803213645e-001
 3.6713481358e-001	 3.8090116804e+000	 1.6887785547e-001
 3.2991092294e-001	 3.8124160740e+000	 2.3775888326e-001
 2.9278775752e-001	 3.8154465652e+000	 2.6478623608e-001
 2.5577026530e-001	 3.8181066574e+000	 2.5952914955e-001
 2.1886328879e-001	 3.8203999225e+000	 2.3278131659e-001
 1.8207156434e-001	 3.8223299975e+000	 1.9651417876e-001
 1.4539972155e-001	 3.8239005819e+000	 1.6383382050e-001
 1.0885228285e-001	 3.8251154338e+000	 1.4894248001e-001
 7.2433663068e-002	 3.8259783677e+000	 1.6710552279e-001
 3.6148169153e-002	 3.8264932507e+000	 2.3462456072e-001
 0.0000000000e+000	 3.8266640000e+000	 3.6881725448e-001
 3.6969299028e-001	 3.8355526800e+000	 1.5732337549e-001
 3.3220972546e-001	 3.8389807951e+000	 2.2357441651e-001
 2.9482788771e-001	 3.8420324026e+000	 2.4924132994e-001
 2.5755245950e-001	 3.8447110303e+000	 2.4365283712e-001
 2.2038831705e-001	 3.8470202747e+000	 2.1731767048e-001
 1.8334022973e-001	 3.8489637984e+000	 1.8187042887e-001
 1.4641285941e-001	 3.8505453265e+000	 1.5002196586e-001
 1.0961076002e-001	 3.8517686435e+000	 1.3551535214e-001
 7.2938377147e-002	 3.8526375902e+000	 1.5308827589e-001
 3.6400047757e-002	 3.8531560609e+000	 2.1844257280e-001
 0.0000000000e+000	 3.8533280000e+000	 3.4822142335e-001
 3.7225116698e-001	 3.8620936795e+000	 1.4271006288e-001
 3.3450852798e-001	 3.8655455163e+000	 2.0551727649e-001
 2.9686801791e-001	 3.8686182401e+000	 2.2909000681e-001
 2.5933465369e-001	 3.8713154031e+000	 2.2247163946e-001
 2.2191334531e-001	 3.8736406269e+000	 1.9582977707e-001
 1.8460889513e-001	 3.8755975993e+000	 1.6039449501e-001
 1.4742599728e-001	 3.8771900711e+000	 1.2840211697e-001
 1.1036923719e-001	 3.8784218531e+000	 1.1304557836e-001
 7.3443091225e-002	 3.8792968128e+000	 1.2843225882e-001
 3.6651926360e-002	 3.8798188711e+000	 1.8954998393e-001
 0.0000000000e+000	 3.8799920000e+000	 3.1224173172e-001
 3.7480934368e-001	 3.8886346791e+000	 1.2361877614e-001
 3.3680733051e-001	 3.8921102375e+000	 1.8204113815e-001
 2.9890814810e-001	 3.8952040776e+000	 2.0262489152e-001
 2.6111684788e-001	 3.8979197760e+000	 1.9408910774e-001
 2.2343837357e-001	 3.9002609792e+000	 1.6620965085e-001
 1.8587756052e-001	 3.9022314002e+000	 1.2974965266e-001
 1.4843913514e-001	 3.9038348158e+000	 9.6396553107e-002
 1.1112771436e-001	 3.9050750628e+000	 7.8706800635e-002
 7.3947805304e-002	 3.9059560353e+000	 9.0059110874e-002
 3.6903804964e-002	 3.9064816814e+000	 1.4461699097e-001
 0.0000000000e+000	 3.9066560000e+000	 2.5730106251e-001
 3.7736752037e-001	 3.9151756786e+000	 9.8559434481e-002
 3.3910613303e-001	 3.9186749587e+000	 1.5155131531e-001
 3.0094827830e-001	 3.9217899151e+000	 1.6811838477e-001
 2.6289904207e-001	 3.9245241489e+000	 1.5662233674e-001
 2.2496340183e-001	 3.9268813314e+000	 1.2640230993e-001
 1.8714622592e-001	 3.9288652011e+000	 8.7697383766e-002
 1.4945227300e-001	 3.9304795604e+000	 5.1576745367e-002
 1.1188619153e-001	 3.9317282725e+000	 2.9878649253e-002
 7.4452519382e-002	 3.9326152578e+000	 3.5159084556e-002
 3.7155683567e-002	 3.9331444916e+000	 8.0650863554e-002
 0.0000000000e+000	 3.9333200000e+000	 1.8023366059e-001
 3.9333200000e+000	 0.0000000000e+000	 1.0971622326e+000
 3.9331444916e+000	 3.7155683567e-002	 1.0829157074e+000
 3.9326152578e+000	 7.4452519382e-002	 1.0557411722e+000
 3.9317282725e+000	 1.1188619153e-001	 1.0189415173e+000
 3.9304795604e+000	 1.4945227300e-001	 9.7588215938e-001
 3.9288652011e+000	 1.8714622592e-001	 9.2997266938e-001
 3.9268813314e+000	 2.2496340183e-001	 8.8463641250e-001
 3.9245241489e+000	 2.6289904207e-001	 8.4326924741e-001
 3.9217899151e+000	 3.0094827830e-001	 8.0918853705e-001
 3.9186749587e+000	 3.3910613303e-001	 7.8557393382e-001
 3.9151756786e+000	 3.7736752037e-001	 7.7540161187e-001
 3.9599880000e+000	 0.0000000000e+000	 1.1109039107e+000
 3.9598113016e+000	 3.7407599955e-002	 1.0916285176e+000
 3.9592784797e+000	 7.4957309175e-002	 1.0612183504e+000
 3.9583854805e+000	 1.1264478248e-001	 1.0223280210e+000
 3.9571283022e+000	 1.5046556284e-001	 9.7780288891e-001
 3.9555029975e+000	 1.8841508163e-001	 9.3065288324e-001
 3.9535056771e+000	 2.2648865886e-001	 8.8401315583e-001
 3.9511325128e+000	 2.6468150362e-001	 8.4109265633e-001
 3.9483797409e+000	 3.0298871454e-001	 8.0511193909e-001
 3.9452436650e+000	 3.4140528040e-001	 7.7923173161e-001
 3.9417206597e+000	 3.7992608084e-001	 7.6647401649e-001
 3.9866560000e+000	 0.0000000000e+000	 1.0286260967e+000
 3.9864781117e+000	 3.7659516343e-002	 1.0186155135e+000
 3.9859417015e+000	 7.5462098967e-002	 9.9798263727e-001
 3.9850426886e+000	 1.1340337343e-001	 9.6874306598e-001
 3.9837770439e+000	 1.5147885269e-001	 9.3323881333e-001
 3.9821407938e+000	 1.8968393734e-001	 8.9410384026e-001
 3.9801300227e+000	 2.2801391590e-001	 8.5421518004e-001
 3.9777408767e+000	 2.6646396517e-001	 8.1663079517e-001
 3.9749695666e+000	 3.0502915079e-001	 7.8451553351e-001
 3.9718123712e+000	 3.4370442778e-001	 7.6105678405e-001
 3.9682656408e+000	 3.8248464130e-001	 7.4937166570e-001
 4.0133240000e+000	 0.0000000000e+000	 8.6278691228e-001
 4.0131449217e+000	 3.7911432732e-002	 8.7419974165e-001
 4.0126049233e+000	 7.5966888759e-002	 8.7390180787e-001
 4.0116998966e+000	 1.1416196437e-001	 8.6363675548e-001
 4.0104257857e+000	 1.5249214253e-001	 8.4553724939e-001
 4.0087785902e+000	 1.9095279306e-001	 8.2206485442e-001
 4.0067543684e+000	 2.2953917293e-001	 7.9594637673e-001
 4.0043492407e+000	 2.6824642672e-001	 7.7010629711e-001
 4.0015593924e+000	 3.0706958703e-001	 7.4759489011e-001
 3.9983810775e+000	 3.4600357516e-001	 7.3148600729e-001
 3.9948106218e+000	 3.8504320176e-001	 7.2476796337e-001
 4.0399920000e+000	 0.0000000000e+000	 7.1192213860e-001
 4.0398117318e+000	 3.8163349120e-002	 7.4178381270e-001
 4.0392681452e+000	 7.6471678551e-002	 7.5866529429e-001
 4.0383571047e+000	 1.1492055532e-001	 7.6426199731e-001
 4.0370745274e+000	 1.5350543238e-001	 7.6065848961e-001
 4.0354163865e+000	 1.9222164877e-001	 7.5026966375e-001
 4.0333787141e+000	 2.3106442997e-001	 7.3577851029e-001
 4.0309576046e+000	 2.7002888826e-001	 7.2007010741e-001
 4.0281492181e+000	 3.0911002327e-001	 7.0616140248e-001
 4.0249497838e+000	 3.4830272253e-001	 6.9712632454e-001
 4.0213556029e+000	 3.8760176222e-001	 6.9601573160e-001
 4.0666600000e+000	 0.0000000000e+000	 5.9329550171e-001
 4.0664785418e+000	 3.8415265508e-002	 6.3645093162e-001
 4.0659313670e+000	 7.6976468342e-002	 6.6597476413e-001
 4.0650143127e+000	 1.1567914627e-001	 6.8346613347e-001
 4.0637232692e+000	 1.5451872222e-001	 6.9091119024e-001
 4.0620541829e+000	 1.9349050448e-001	 6.9062573252e-001
 4.0600030598e+000	 2.3258968700e-001	 6.8519459552e-001
 4.0575659685e+000	 2.7181134981e-001	 6.7740739740e-001
 4.0547390439e+000	 3.1115045952e-001	 6.7019019785e-001
 4.0515184901e+000	 3.5060186991e-001	 6.6653258676e-001
 4.0479005840e+000	 3.9016032268e-001	 6.6940968249e-001
 4.0933280000e+000	 0.0000000000e+000	 5.0754903115e-001
 4.0931453519e+000	 3.8667181896e-002	 5.5885349567e-001
 4.0925945888e+000	 7.7481258134e-002	 5.9649883560e-001
 4.0916715208e+000	 1.1643773722e-001	 6.2194003503e-001
 4.0903720110e+000	 1.5553201207e-001	 6.3701463490e-001
 4.0886919793e+000	 1.9475936019e-001	 6.4388699741e-001
 4.0866274055e+000	 2.3411494403e-001	 6.4498950140e-001
 4.0841743324e+000	 2.7359381136e-001	 6.4296024928e-001
 4.0813288697e+000	 3.1319089576e-001	 6.4057682259e-001
 4.0780871964e+000	 3.5290101728e-001	 6.4068558126e-001
 4.0744455651e+000	 3.9271888314e-001	 6.4612596087e-001
 4.1199960000e+000	 0.0000000000e+000	 4.5536012921e-001
 4.1198121619e+000	 3.8919098284e-002	 5.0967096323e-001
 4.1192578107e+000	 7.7986047926e-002	 5.5092554618e-001
 4.1183287288e+000	 1.1719632817e-001	 5.8038696360e-001
 4.1170207527e+000	 1.5654530191e-001	 5.9969402305e-001
 4.1153297756e+000	 1.9602821590e-001	 6.1080732929e-001
 4.1132517511e+000	 2.3564020107e-001	 6.1595247931e-001
 4.1107826964e+000	 2.7537627290e-001	 6.1755994054e-001
 4.1079186954e+000	 3.1523133200e-001	 6.1820112910e-001
 4.1046559027e+000	 3.5520016466e-001	 6.2052016012e-001
 4.1009905462e+000	 3.9527744361e-001	 6.2716069843e-001
 4.1466640000e+000	 0.0000000000e+000	 4.3744043342e-001
 4.1464789720e+000	 3.9171014672e-002	 4.8960884894e-001
 4.1459210325e+000	 7.8490837717e-002	 5.2996147898e-001
 4.1449859369e+000	 1.1795491912e-001	 5.5952182794e-001
 4.1436694945e+000	 1.5755859176e-001	 5.7967985643e-001
 4.1419675720e+000	 1.9729707162e-001	 5.9214004920e-001
 4.1398760968e+000	 2.3716545810e-001	 5.9886680869e-001
 4.1373910603e+000	 2.7715873445e-001	 6.0202672002e-001
 4.1345085212e+000	 3.1727176825e-001	 6.0392718338e-001
 4.1312246089e+000	 3.5749931203e-001	 6.0695086215e-001
 4.1275355273e+000	 3.9783600407e-001	 6.1348534806e-001
 4.1733320000e+000	 0.0000000000e+000	 4.5453472275e-001
 4.1731457820e+000	 3.9422931060e-002	 4.9939775739e-001
 4.1725842543e+000	 7.8995627510e-002	 5.3433092302e-001
 4.1716431449e+000	 1.1871351007e-001	 5.6007047001e-001
 4.1703182362e+000	 1.5857188160e-001	 5.7770735050e-001
 4.1686053684e+000	 1.9856592733e-001	 5.8863746527e-001
 4.1665004425e+000	 2.3869071514e-001	 5.9450945985e-001
 4.1639994242e+000	 2.7894119600e-001	 5.9716959725e-001
 4.1610983469e+000	 3.1931220449e-001	 5.9860318190e-001
 4.1577933152e+000	 3.5979845941e-001	 6.0087195866e-001
 4.1540805083e+000	 4.0039456453e-001	 6.0604686040e-001
 4.2000000000e+000	 0.0000000000e+000	 5.0741986545e-001
 4.1998125921e+000	 3.9674847448e-002	 5.3979245389e-001
 4.1992474762e+000	 7.9500417302e-002	 5.6477506589e-001
 4.1983003530e+000	 1.1947210102e-001	 5.8276897922e-001
 4.1969669780e+000	 1.5958517145e-001	 5.9451587003e-001
 4.1952431647e+000	 1.9983478304e-001	 6.0105042978e-001
 4.1931247882e+000	 2.4021597217e-001	 6.0365077302e-001
 4.1906077882e+000	 2.8072365755e-001	 6.0378614431e-001
 4.1876881727e+000	 3.2135264073e-001	 6.0306137741e-001
 4.1843620215e+000	 3.6209760679e-001	 6.0315750470e-001
 4.1806254894e+000	 4.0295312499e-001	 6.0576786212e-001
 3.9151756786e+000	 3.7736752037e-001	 7.7540161187e-001
 3.9112891599e+000	 4.1572149954e-001	 7.7138675209e-001
 3.9070114582e+000	 4.5416857227e-001	 7.6472845352e-001
 3.9023392051e+000	 4.9270341909e-001	 7.5564958721e-001
 3.8972691155e+000	 5.3132061837e-001	 7.4393851686e-001
 3.8917979905e+000	 5.7001464758e-001	 7.2888657986e-001
 3.8859227212e+000	 6.0877988461e-001	 7.0923320226e-001
 3.8796402911e+000	 6.4761060921e-001	 6.8312161048e-001
 3.8729477800e+000	 6.8650100458e-001	 6.4942412672e-001
 3.8658423669e+000	 7.2544515898e-001	 6.1615192985e-001
 3.8583213333e+000	 7.6443706755e-001	 5.8932903399e-001
 3.9417206597e+000	 3.7992608084e-001	 7.6647401649e-001
 3.9378077903e+000	 4.1854010086e-001	 7.6020081299e-001
 3.9335010856e+000	 4.5724784563e-001	 7.5211800927e-001
 3.9287971546e+000	 4.9604395959e-001	 7.4233836443e-001
 3.9236926896e+000	 5.3492298437e-001	 7.3054468111e-001
 3.9181844704e+000	 5.7387935999e-001	 7.1591152407e-001
 3.9122693665e+000	 6.1290742622e-001	 6.9703435462e-001
 3.9059443414e+000	 6.5200142403e-001	 6.7186919527e-001
 3.8992064550e+000	 6.9115549717e-001	 6.3957413337e-001
 3.8920528670e+000	 7.3036369383e-001	 6.0758650228e-001
 3.8844808406e+000	 7.6961996844e-001	 5.8108050495e-001
 3.9682656408e+000	 3.8248464130e-001	 7.4937166570e-001
 3.9643264207e+000	 4.2135870218e-001	 7.4355415196e-001
 3.9599907131e+000	 4.6032711899e-001	 7.3595673637e-001
 3.9552551041e+000	 4.9938450010e-001	 7.2671537034e-001
 3.9501162638e+000	 5.3852535038e-001	 7.1554113685e-001
 3.9445709502e+000	 5.7774407240e-001	 7.0162517221e-001
 3.9386160119e+000	 6.1703496783e-001	 6.8355076199e-001
 3.9322483918e+000	 6.5639223885e-001	 6.5921588304e-001
 3.9254651299e+000	 6.9580998976e-001	 6.2819247375e-001
 3.9182633671e+000	 7.3528222869e-001	 5.9722034883e-001
 3.9106403479e+000	 7.7480286933e-001	 5.7081627773e-001
 3.9948106218e+000	 3.8504320176e-001	 7.2476796337e-001
 3.9908450511e+000	 4.2417730350e-001	 7.2231741070e-001
 3.9864803406e+000	 4.6340639235e-001	 7.1727358688e-001
 3.9817130536e+000	 5.0272504061e-001	 7.0993503202e-001
 3.9765398380e+000	 5.4212771638e-001	 7.0018107419e-001
 3.9709574300e+000	 5.8160878482e-001	 6.8735888526e-001
 3.9649626573e+000	 6.2116250944e-001	 6.7017744486e-001
 3.9585524421e+000	 6.6078305366e-001	 6.4661184778e-001
 3.9517238049e+000	 7.0046448236e-001	 6.1674503155e-001
 3.9444738672e+000	 7.4020076354e-001	 5.8654708119e-001
 3.9367998552e+000	 7.7998577022e-001	 5.6003584685e-001
 4.0213556029e+000	 3.8760176222e-001	 6.9601573160e-001
 4.0173636815e+000	 4.2699590482e-001	 6.9815790539e-001
 4.0129699681e+000	 4.6648566571e-001	 6.9711780157e-001
 4.0081710031e+000	 5.0606558111e-001	 6.9303119283e-001
 4.0029634122e+000	 5.4573008239e-001	 6.8568482657e-001
 3.9973439098e+000	 5.8547349723e-001	 6.7443565556e-001
 3.9913093026e+000	 6.2529005105e-001	 6.5829901994e-001
 3.9848564924e+000	 6.6517386848e-001	 6.3549604469e-001
 3.9779824798e+000	 7.0511897495e-001	 6.0668703868e-001
 3.9706843673e+000	 7.4511929839e-001	 5.7704736320e-001
 3.9629593625e+000	 7.8516867111e-001	 5.5022380943e-001
 4.0479005840e+000	 3.9016032268e-001	 6.6940968249e-001
 4.0438823119e+000	 4.2981450615e-001	 6.7473001108e-001
 4.0394595956e+000	 4.6956493906e-001	 6.7667771174e-001
 4.0346289526e+000	 5.0940612162e-001	 6.7538924424e-001
 4.0293869863e+000	 5.4933244839e-001	 6.7066938872e-001
 4.0237303896e+000	 5.8933820964e-001	 6.6188385130e-001
 4.0176559480e+000	 6.2941759266e-001	 6.4784303351e-001
 4.0111605428e+000	 6.6956468330e-001	 6.2668684440e-001
 4.0042411548e+000	 7.0977346754e-001	 5.9937048908e-001
 3.9968948674e+000	 7.5003783325e-001	 5.7018915610e-001
 3.9891188698e+000	 7.9035157200e-001	 5.4285010903e-001
 4.0744455651e+000	 3.9271888314e-001	 6.4612596087e-001
 4.0704009423e+000	 4.3263310747e-001	 6.5333524197e-001
 4.0659492230e+000	 4.7264421242e-001	 6.5711192357e-001
 4.0610869021e+000	 5.1274666212e-001	 6.5760321858e-001
 4.0558105605e+000	 5.5293481440e-001	 6.5464219795e-001
 4.0501168695e+000	 5.9320292205e-001	 6.4764254726e-001
 4.0440025933e+000	 6.3354513427e-001	 6.3548436520e-001
 4.0374645931e+000	 6.7395549811e-001	 6.1644697824e-001
 4.0304998298e+000	 7.1442796013e-001	 5.9166190977e-001
 4.0231053675e+000	 7.5495636810e-001	 5.6461676776e-001
 4.0152783771e+000	 7.9553447288e-001	 5.3815761422e-001
 4.1009905462e+000	 3.9527744361e-001	 6.2716069843e-001
 4.0969195727e+000	 4.3545170879e-001	 6.3503148082e-001
 4.0924388505e+000	 4.7572348578e-001	 6.3953379607e-001
 4.0875448516e+000	 5.1608720263e-001	 6.4083408059e-001
 4.0822341347e+000	 5.5653718040e-001	 6.3880236125e-001
 4.0765033493e+000	 5.9706763447e-001	 6.3290935534e-001
 4.0703492387e+000	 6.3767267588e-001	 6.2211449360e-001
 4.0637686435e+000	 6.7834631293e-001	 6.0486309305e-001
 4.0567585047e+000	 7.1908245272e-001	 5.8228878450e-001
 4.0493158676e+000	 7.5987490295e-001	 5.5724120595e-001
 4.0414378845e+000	 8.0071737377e-001	 5.3217701071e-001
 4.1275355273e+000	 3.9783600407e-001	 6.1348534806e-001
 4.1234382031e+000	 4.3827031011e-001	 6.2084780250e-001
 4.1189284780e+000	 4.7880275914e-001	 6.2502408471e-001
 4.1140028011e+000	 5.1942774314e-001	 6.2620669358e-001
 4.1086577088e+000	 5.6013954641e-001	 6.2430964769e-001
 4.1028898291e+000	 6.0093234688e-001	 6.1886813052e-001
 4.0966958841e+000	 6.4180021749e-001	 6.0892894319e-001
 4.0900726938e+000	 6.8273712774e-001	 5.9310822311e-001
 4.0830171797e+000	 7.2373694531e-001	 5.7241169567e-001
 4.0755263677e+000	 7.6479343780e-001	 5.4914920587e-001
 4.0675973918e+000	 8.0590027466e-001	 5.2540337217e-001
 4.1540805083e+000	 4.0039456453e-001	 6.0604686040e-001
 4.1499568335e+000	 4.4108891143e-001	 6.1178477868e-001
 4.1454181055e+000	 4.8188203250e-001	 6.1463136670e-001
 4.1404607506e+000	 5.2276828364e-001	 6.1481035672e-001
 4.1350812830e+000	 5.6374191241e-001	 6.1228512837e-001
 4.1292763089e+000	 6.0479705929e-001	 6.0666111061e-001
 4.1230425294e+000	 6.4592775910e-001	 5.9707887911e-001
 4.1163767441e+000	 6.8712794256e-001	 5.8231112113e-001
 4.1092758546e+000	 7.2839143789e-001	 5.6314542116e-001
 4.1017368678e+000	 7.6971197265e-001	 5.4143079601e-001
 4.0937568991e+000	 8.1108317555e-001	 5.1889096324e-001
 4.1806254894e+000	 4.0295312499e-001	 6.0576786212e-001
 4.1764754639e+000	 4.4390751276e-001	 6.0881478073e-001
 4.1719077330e+000	 4.8496130586e-001	 6.0937246116e-001
 4.1669187001e+000	 5.2610882415e-001	 6.0769933439e-001
 4.1615048572e+000	 5.6734427842e-001	 6.0381180601e-001
 4.1556627888e+000	 6.0866177170e-001	 5.9738963623e-001
 4.1493891748e+000	 6.5005530071e-001	 5.8767190679e-001
 4.1426807945e+000	 6.9151875737e-001	 5.7355709044e-001
 4.1355345296e+000	 7.3304593048e-001	 5.5555984684e-001
 4.1279473679e+000	 7.7463050750e-001	 5.3513010078e-001
 4.1199164064e+000	 8.1626607643e-001	 5.1364756739e-001
 3.8583213333e+000	 7.6443706755e-001	 5.8932903399e-001
 3.8503808439e+000	 8.0347649112e-001	 5.6779622924e-001
 3.8420194933e+000	 8.4255138799e-001	 5.4736956066e-001
 3.8332348909e+000	 8.8165547354e-001	 5.2826768035e-001
 3.8240247614e+000	 9.2078237802e-001	 5.1049729793e-001
 3.8143869472e+000	 9.5992564888e-001	 4.9385572078e-001
 3.8043194115e+000	 9.9907875321e-001	 4.7793711545e-001
 3.7938202414e+000	 1.0382350804e+000	 4.6214160760e-001
 3.7828876505e+000	 1.0773879445e+000	 4.4569675868e-001
 3.7715199817e+000	 1.1165305877e+000	 4.2766781260e-001
 3.7597157100e+000	 1.1556561824e+000	 4.0699177761e-001
 3.8844808406e+000	 7.6961996844e-001	 5.8108050495e-001
 3.8764865146e+000	 8.0892408020e-001	 5.5929073555e-001
 3.8680684737e+000	 8.4826390576e-001	 5.3869912079e-001
 3.8592243116e+000	 8.8763311792e-001	 5.1952585556e-001
 3.8499517372e+000	 9.2702530371e-001	 5.0177977714e-001
 3.8402485784e+000	 9.6643396684e-001	 4.8525869600e-001
 3.8301127846e+000	 1.0058525301e+000	 4.6955353627e-001
 3.8195424299e+000	 1.0452743381e+000	 4.5405563392e-001
 3.8085357157e+000	 1.0846926596e+000	 4.3797547968e-001
 3.7970909739e+000	 1.1241006908e+000	 4.2035273301e-001
 3.7852066689e+000	 1.1634915578e+000	 4.0008776526e-001
 3.9106403479e+000	 7.7480286933e-001	 5.7081627773e-001
 3.9025921852e+000	 8.1437166927e-001	 5.4858266716e-001
 3.8941174542e+000	 8.5397642354e-001	 5.2763331827e-001
 3.8852137322e+000	 8.9361076229e-001	 5.0821015358e-001
 3.8758787129e+000	 9.3326822940e-001	 4.9034333531e-001
 3.8661102095e+000	 9.7294228481e-001	 4.7384920466e-001
 3.8559061576e+000	 1.0126263070e+000	 4.5833049374e-001
 3.8452646183e+000	 1.0523135958e+000	 4.4318976262e-001
 3.8341837809e+000	 1.0919973746e+000	 4.2762905968e-001
 3.8226619660e+000	 1.1316707938e+000	 4.1067565367e-001
 3.8106976279e+000	 1.1713269333e+000	 3.9120286161e-001
 3.9367998552e+000	 7.7998577022e-001	 5.6003584685e-001
 3.9286978558e+000	 8.1981925835e-001	 5.3715739842e-001
 3.9201664347e+000	 8.5968894132e-001	 5.1562540038e-001
 3.9112031529e+000	 8.9958840667e-001	 4.9572466720e-001
 3.9018056887e+000	 9.3951115509e-001	 4.7752685477e-001
 3.8919718407e+000	 9.7945060277e-001	 4.6088582024e-001
 3.8816995307e+000	 1.0194000839e+000	 4.4543558418e-001
 3.8709868067e+000	 1.0593528535e+000	 4.3060038251e-001
 3.8598318461e+000	 1.0993020896e+000	 4.1559380194e-001
 3.8482329582e+000	 1.1392408968e+000	 3.9944126911e-001
 3.8361885868e+000	 1.1791623088e+000	 3.8099943090e-001
 3.9629593625e+000	 7.8516867111e-001	 5.5022380943e-001
 3.9548035264e+000	 8.2526684743e-001	 5.2648381121e-001
 3.9462154151e+000	 8.6540145909e-001	 5.0411088529e-001
 3.9371925736e+000	 9.0556605105e-001	 4.8345491165e-001
 3.9277326645e+000	 9.4575408077e-001	 4.6465020912e-001
 3.9178334719e+000	 9.8595892073e-001	 4.4760812165e-001
 3.9074929037e+000	 1.0261738609e+000	 4.3201251232e-001
 3.8967089952e+000	 1.0663921112e+000	 4.1732635843e-001
 3.8854799114e+000	 1.1066068046e+000	 4.0278999252e-001
 3.8738039503e+000	 1.1468109999e+000	 3.8744030862e-001
 3.8616795457e+000	 1.1869976843e+000	 3.7012849064e-001
 3.9891188698e+000	 7.9035157200e-001	 5.4285010903e-001
 3.9809091970e+000	 8.3071443651e-001	 5.1801452872e-001
 3.9722643956e+000	 8.7111397687e-001	 4.9450777828e-001
 3.9631819942e+000	 9.1154369542e-001	 4.7276801612e-001
 3.9536596403e+000	 9.5199700646e-001	 4.5301442301e-001
 3.9436951030e+000	 9.9246723870e-001	 4.3523681451e-001
 3.9332862767e+000	 1.0329476378e+000	 4.1918844480e-001
 3.9224311836e+000	 1.0734313689e+000	 4.0438905631e-001
 3.9111279766e+000	 1.1139115197e+000	 3.9012186809e-001
 3.8993749425e+000	 1.1543811029e+000	 3.7544944115e-001
 3.8871705046e+000	 1.1948330598e+000	 3.5922954792e-001
 4.0152783771e+000	 7.9553447288e-001	 5.3815761422e-001
 4.0070148676e+000	 8.3616202558e-001	 5.1293964416e-001
 3.9983133761e+000	 8.7682649465e-001	 4.8821676637e-001
 3.9891714149e+000	 9.1752133979e-001	 4.6501289443e-001
 3.9795866160e+000	 9.5823993215e-001	 4.4390181230e-001
 3.9695567342e+000	 9.9897555666e-001	 4.2497383444e-001
 3.9590796498e+000	 1.0397214147e+000	 4.0807217659e-001
 3.9481533720e+000	 1.0804706266e+000	 3.9279235477e-001
 3.9367760418e+000	 1.1212162347e+000	 3.7847757322e-001
 3.9249459346e+000	 1.1619512060e+000	 3.6423117277e-001
 3.9126614635e+000	 1.2026684352e+000	 3.4893043201e-001
 4.0414378845e+000	 8.0071737377e-001	 5.3217701071e-001
 4.0331205382e+000	 8.4160961466e-001	 5.0783435043e-001
 4.0243623565e+000	 8.8253901242e-001	 4.8376763481e-001
 4.0151608355e+000	 9.2349898417e-001	 4.6050152532e-001
 4.0055135918e+000	 9.6448285783e-001	 4.3845518205e-001
 3.9954183654e+000	 1.0054838746e+000	 4.1800243316e-001
 3.9848730228e+000	 1.0464951916e+000	 3.9975417603e-001
 3.9738755604e+000	 1.0875098843e+000	 3.8352264385e-001
 3.9624241070e+000	 1.1285209497e+000	 3.6872910740e-001
 3.9505169268e+000	 1.1695213090e+000	 3.5453373712e-001
 3.9381524225e+000	 1.2105038107e+000	 3.3984712349e-001
 4.0675973918e+000	 8.0590027466e-001	 5.2540337217e-001
 4.0592262089e+000	 8.4705720374e-001	 5.0195751957e-001
 4.0504113370e+000	 8.8825153020e-001	 4.7863497896e-001
 4.0411502562e+000	 9.2947662854e-001	 4.5593340280e-001
 4.0314405676e+000	 9.7072578352e-001	 4.3425125325e-001
 4.0212799965e+000	 1.0119921926e+000	 4.1387448402e-001
 4.0106663959e+000	 1.0532689685e+000	 3.9496675566e-001
 3.9995977489e+000	 1.0945491420e+000	 3.7754881142e-001
 3.9880721722e+000	 1.1358256647e+000	 3.6173226246e-001
 3.9760879189e+000	 1.1770914121e+000	 3.4709097921e-001
 3.9636433814e+000	 1.2183391862e+000	 3.3258358001e-001
 4.0937568991e+000	 8.1108317555e-001	 5.1889096324e-001
 4.0853318795e+000	 8.5250479281e-001	 4.9631731527e-001
 4.0764603175e+000	 8.9396404797e-001	 4.7375790841e-001
 4.0671396769e+000	 9.3545427291e-001	 4.5168698610e-001
 4.0573675433e+000	 9.7696870920e-001	 4.3048527356e-001
 4.0471416277e+000	 1.0185005105e+000	 4.1042674644e-001
 4.0364597689e+000	 1.0600427454e+000	 3.9166807898e-001
 4.0253199373e+000	 1.1015883997e+000	 3.7422867573e-001
 4.0137202374e+000	 1.1431303798e+000	 3.5797834870e-001
 4.0016589111e+000	 1.1846615151e+000	 3.4261892321e-001
 3.9891343403e+000	 1.2261745617e+000	 3.2773155888e-001
 4.1199164064e+000	 8.1626607643e-001	 5.1364756739e-001
 4.1114375501e+000	 8.5795238189e-001	 4.9187525774e-001
 4.1025092979e+000	 8.9967656574e-001	 4.7004254432e-001
 4.0931290975e+000	 9.4143191729e-001	 4.4860379060e-001
 4.0832945191e+000	 9.8321163488e-001	 4.2792486899e-001
 4.0730032589e+000	 1.0250088285e+000	 4.0826998278e-001
 4.0622531420e+000	 1.0668165223e+000	 3.8979044121e-001
 4.0510421257e+000	 1.1086276574e+000	 3.7250556233e-001
 4.0393683026e+000	 1.1504350948e+000	 3.5628954707e-001
 4.0272299033e+000	 1.1922316182e+000	 3.4085317253e-001
 4.0146252992e+000	 1.2340099371e+000	 3.2572499711e-001
 3.7597157100e+000	 1.1556561824e+000	 4.0699177761e-001
 3.7474734443e+000	 1.1947578341e+000	 3.8321663266e-001
 3.7347919268e+000	 1.2338285827e+000	 3.5550100187e-001
 3.7216700388e+000	 1.2728614074e+000	 3.2208841706e-001
 3.7081068035e+000	 1.3118492302e+000	 2.8122609038e-001
 3.6941013890e+000	 1.3507849198e+000	 2.3268839104e-001
 3.6796531097e+000	 1.3896612948e+000	 1.8628634236e-001
 3.6647614292e+000	 1.4284711273e+000	 1.4417436623e-001
 3.6494259619e+000	 1.4672071469e+000	 1.0631223696e-001
 3.6336464752e+000	 1.5058620440e+000	 7.2576059748e-002
 3.6174228910e+000	 1.5444284742e+000	 4.2757617063e-002
 3.7852066689e+000	 1.1634915578e+000	 4.0008776526e-001
 3.7728814004e+000	 1.2028583196e+000	 3.7643370921e-001
 3.7601139019e+000	 1.2421939689e+000	 3.4836023206e-001
 3.7469030472e+000	 1.2814914370e+000	 3.1421224762e-001
 3.7332478529e+000	 1.3207435981e+000	 2.7232185359e-001
 3.7191474813e+000	 1.3599432726e+000	 2.2421487687e-001
 3.7046012423e+000	 1.3990832303e+000	 1.7895759433e-001
 3.6896085959e+000	 1.4381561944e+000	 1.3743510069e-001
 3.6741691538e+000	 1.4771548451e+000	 9.9786626238e-002
 3.6582826818e+000	 1.5160718233e+000	 6.6071212534e-002
 3.6419491014e+000	 1.5548997347e+000	 3.6266747641e-002
 3.8106976279e+000	 1.1713269333e+000	 3.9120286161e-001
 3.7982893564e+000	 1.2109588052e+000	 3.6814899665e-001
 3.7854358770e+000	 1.2505593550e+000	 3.4025396005e-001
 3.7721360556e+000	 1.2901214666e+000	 3.0593991956e-001
 3.7583889022e+000	 1.3296379661e+000	 2.6359855650e-001
 3.7441935736e+000	 1.3691016254e+000	 2.1690375846e-001
 3.7295493750e+000	 1.4085051658e+000	 1.7295479246e-001
 3.7144557626e+000	 1.4478412615e+000	 1.3216580963e-001
 3.6989123457e+000	 1.4871025432e+000	 9.4823984225e-002
 3.6829188884e+000	 1.5262816025e+000	 6.1140801469e-002
 3.6664753117e+000	 1.5653709953e+000	 3.1250837777e-002
 3.8361885868e+000	 1.1791623088e+000	 3.8099943090e-001
 3.8236973125e+000	 1.2190592908e+000	 3.5888444407e-001
 3.8107578521e+000	 1.2589247412e+000	 3.3157863234e-001
 3.7973690640e+000	 1.2987514962e+000	 2.9755854125e-001
 3.7835299516e+000	 1.3385323340e+000	 2.5534863022e-001
 3.7692396659e+000	 1.3782599782e+000	 2.1073656036e-001
 3.7544975076e+000	 1.4179271013e+000	 1.6823116497e-001
 3.7393029293e+000	 1.4575263286e+000	 1.2830593307e-001
 3.7236555376e+000	 1.4970502414e+000	 9.1365091578e-002
 3.7075550951e+000	 1.5364913818e+000	 5.7742700733e-002
 3.6910015221e+000	 1.5758422558e+000	 2.7701234501e-002
 3.8616795457e+000	 1.1869976843e+000	 3.7012849064e-001
 3.8491052686e+000	 1.2271597764e+000	 3.4915354464e-001
 3.8360798272e+000	 1.2672901273e+000	 3.2272509566e-001
 3.8226020724e+000	 1.3073815258e+000	 2.8935244239e-001
 3.8086710009e+000	 1.3474267019e+000	 2.4812298146e-001
 3.7942857582e+000	 1.3874183310e+000	 2.0571263849e-001
 3.7794456403e+000	 1.4273490369e+000	 1.6475804932e-001
 3.7641500960e+000	 1.4672113956e+000	 1.2581283931e-001
 3.7483987295e+000	 1.5069979396e+000	 8.9368005386e-002
 3.7321913017e+000	 1.5467011611e+000	 5.5850926873e-002
 3.7155277324e+000	 1.5863135164e+000	 2.5623800117e-002
 3.8871705046e+000	 1.1948330598e+000	 3.5922954792e-001
 3.8745132247e+000	 1.2352602619e+000	 3.3946110831e-001
 3.8614018023e+000	 1.2756555135e+000	 3.1407832176e-001
 3.8478350808e+000	 1.3160115554e+000	 2.8160286744e-001
 3.8338120503e+000	 1.3563210699e+000	 2.4203059940e-001
 3.8193318505e+000	 1.3965766838e+000	 2.0184809278e-001
 3.8043937729e+000	 1.4367709724e+000	 1.6252371789e-001
 3.7889972628e+000	 1.4768964627e+000	 1.2466057570e-001
 3.7731419214e+000	 1.5169456378e+000	 8.8806747725e-002
 3.7568275083e+000	 1.5569109403e+000	 5.5454278275e-002
 3.7400539428e+000	 1.5967847769e+000	 2.5037516396e-002
 3.9126614635e+000	 1.2026684352e+000	 3.4893043201e-001
 3.8999211807e+000	 1.2433607475e+000	 3.3030303444e-001
 3.8867237774e+000	 1.2840208996e+000	 3.0601713559e-001
 3.8730680892e+000	 1.3246415850e+000	 2.7458767544e-001
 3.8589530996e+000	 1.3652154378e+000	 2.3714356033e-001
 3.8443779429e+000	 1.4057350366e+000	 1.9917469043e-001
 3.8293419056e+000	 1.4461929079e+000	 1.6153221585e-001
 3.8138444295e+000	 1.4865815298e+000	 1.2483863262e-001
 3.7978851133e+000	 1.5268933359e+000	 8.9670007725e-002
 3.7814637149e+000	 1.5671207196e+000	 5.6554988043e-002
 3.7645801531e+000	 1.6072560375e+000	 2.5973101489e-002
 3.9381524225e+000	 1.2105038107e+000	 3.3984712349e-001
 3.9253291368e+000	 1.2514612331e+000	 3.2216608459e-001
 3.9120457525e+000	 1.2923862858e+000	 2.9891394665e-001
 3.8983010976e+000	 1.3332716146e+000	 2.6858104560e-001
 3.8840941490e+000	 1.3741098057e+000	 2.3354810636e-001
 3.8694240352e+000	 1.4148933894e+000	 1.9773879932e-001
 3.8542900382e+000	 1.4556148434e+000	 1.6180221059e-001
 3.8386915962e+000	 1.4962665968e+000	 1.2635071984e-001
 3.8226283052e+000	 1.5368410341e+000	 9.1959856551e-002
 3.8060999215e+000	 1.5773304989e+000	 5.9167389674e-002
 3.7891063634e+000	 1.6177272980e+000	 2.8471638984e-002
 3.9636433814e+000	 1.2183391862e+000	 3.3258358001e-001
 3.9507370929e+000	 1.2595617187e+000	 3.1552765525e-001
 3.9373677276e+000	 1.3007516719e+000	 2.9313448341e-001
 3.9235341059e+000	 1.3419016441e+000	 2.6399625447e-001
 3.9092351983e+000	 1.3830041737e+000	 2.3134368109e-001
 3.8944701275e+000	 1.4240517422e+000	 1.9760033112e-001
 3.8792381709e+000	 1.4650367789e+000	 1.6336585211e-001
 3.8635387629e+000	 1.5059516639e+000	 1.2921355488e-001
 3.8473714971e+000	 1.5467887323e+000	 9.5690474699e-002
 3.8307361281e+000	 1.5875402781e+000	 6.3316594960e-002
 3.8136325738e+000	 1.6281985585e+000	 3.2583218575e-002
 3.9891343403e+000	 1.2261745617e+000	 3.2773155888e-001
 3.9761450490e+000	 1.2676622042e+000	 3.1085555066e-001
 3.9626897027e+000	 1.3091170580e+000	 2.8903753064e-001
 3.9487671143e+000	 1.3505316737e+000	 2.6117762320e-001
 3.9343762477e+000	 1.3918985416e+000	 2.3064197301e-001
 3.9195162198e+000	 1.4332100950e+000	 1.9883169363e-001
 3.9041863035e+000	 1.4744587144e+000	 1.6626764404e-001
 3.8883859296e+000	 1.5156367310e+000	 1.3345566270e-001
 3.8721146890e+000	 1.5567364305e+000	 1.0088689107e-001
 3.8553723347e+000	 1.5977500574e+000	 6.9037183558e-002
 3.8381587841e+000	 1.6386698191e+000	 3.8365587802e-002
 4.0146252992e+000	 1.2340099371e+000	 3.2572499711e-001
 4.0015530051e+000	 1.2757626898e+000	 3.0860761354e-001
 3.9880116778e+000	 1.3174824442e+000	 2.8697466952e-001
 3.9740001227e+000	 1.3591617033e+000	 2.6029771772e-001
 3.9595172970e+000	 1.4007929095e+000	 2.3156596595e-001
 3.9445623121e+000	 1.4423684478e+000	 2.0151675201e-001
 3.9291344362e+000	 1.4838806500e+000	 1.7056332470e-001
 3.9132330963e+000	 1.5253217981e+000	 1.3911618631e-001
 3.8968578809e+000	 1.5666841286e+000	 1.0758373327e-001
 3.8800085414e+000	 1.6079598367e+000	 7.6371903724e-002
 3.8626849945e+000	 1.6491410796e+000	 4.5882814389e-002
 3.6174228910e+000	 1.5444284742e+000	 4.2757617063e-002
 3.6007578216e+000	 1.5828932993e+000	 1.6832709617e-002
 3.5836491053e+000	 1.6212549131e+000	-5.7192866220e-003
 3.5660971407e+000	 1.6595058954e+000	-2.5922183723e-002
 3.5481024868e+000	 1.6976388070e+000	-4.4826593355e-002
 3.5296658649e+000	 1.7356461945e+000	-6.3510863776e-002
 3.5107881589e+000	 1.7735205942e+000	-8.3082363256e-002
 3.4914704169e+000	 1.8112545366e+000	-1.0467907129e-001
 3.4717138517e+000	 1.8488405507e+000	-1.2947143163e-001
 3.4515198418e+000	 1.8862711687e+000	-1.5866441427e-001
 3.4308899314e+000	 1.9235389302e+000	-1.9349972673e-001
 3.6419491014e+000	 1.5548997347e+000	 3.6266747641e-002
 3.6251710424e+000	 1.5936253522e+000	 1.0939714344e-002
 3.6079463286e+000	 1.6322470587e+000	-1.0134187764e-002
 3.5902753613e+000	 1.6707573835e+000	-2.8235536407e-002
 3.5721587033e+000	 1.7091488371e+000	-4.4676175803e-002
 3.5535970806e+000	 1.7474139156e+000	-6.0799983621e-002
 3.5345913833e+000	 1.7855451046e+000	-7.7984007916e-002
 3.5151426665e+000	 1.8235348839e+000	-9.7639933515e-002
 3.4952521515e+000	 1.8613757321e+000	-1.2121582965e-001
 3.4749212257e+000	 1.8990601306e+000	-1.5019812323e-001
 3.4541514439e+000	 1.9365805684e+000	-1.8611373531e-001
 3.6664753117e+000	 1.5653709953e+000	 3.1250837777e-002
 3.6495842632e+000	 1.6043574052e+000	 6.2634570218e-003
 3.6322435519e+000	 1.6432392043e+000	-1.3749145648e-002
 3.6144535818e+000	 1.6820088716e+000	-3.0280494107e-002
 3.5962149197e+000	 1.7206588672e+000	-4.4859428362e-002
 3.5775282962e+000	 1.7591816367e+000	-5.9050790445e-002
 3.5583946077e+000	 1.7975696150e+000	-7.4456507351e-002
 3.5388149162e+000	 1.8358152313e+000	-9.2717028372e-002
 3.5187904512e+000	 1.8739109136e+000	-1.1551306609e-001
 3.4983226095e+000	 1.9118490925e+000	-1.4456758249e-001
 3.4774129565e+000	 1.9496222066e+000	-1.8164795440e-001
 3.6910015221e+000	 1.5758422558e+000	 2.7701234501e-002
 3.6739974839e+000	 1.6150894581e+000	 2.8371796510e-003
 3.6565407752e+000	 1.6542313498e+000	-1.6489507825e-002
 3.6386318024e+000	 1.6932603597e+000	-3.1942289912e-002
 3.6202711361e+000	 1.7321688974e+000	-4.5223571629e-002
 3.6014595119e+000	 1.7709493578e+000	-5.8075394795e-002
 3.5821978321e+000	 1.8095941253e+000	-7.2280559495e-002
 3.5624871659e+000	 1.8480955787e+000	-8.9664128231e-002
 3.5423287509e+000	 1.8864460950e+000	-1.1209525920e-001
 3.5217239934e+000	 1.9246380543e+000	-1.4148930694e-001
 3.5006744691e+000	 1.9626638447e+000	-1.7981012089e-001
 3.7155277324e+000	 1.5863135164e+000	 2.5623800117e-002
 3.6984107047e+000	 1.6258215111e+000	 7.0673605570e-004
 3.6808379985e+000	 1.6652234954e+000	-1.8269947713e-002
 3.6628100230e+000	 1.7045118478e+000	-3.3097425611e-002
 3.6443273525e+000	 1.7436789275e+000	-4.5609013366e-002
 3.6253907276e+000	 1.7827170788e+000	-5.7680958601e-002
 3.6060010565e+000	 1.8216186357e+000	-7.1233693434e-002
 3.5861594156e+000	 1.8603759261e+000	-8.8233501452e-002
 3.5658670506e+000	 1.8989812764e+000	-1.1069454240e-001
 3.5451253772e+000	 1.9374270162e+000	-1.4068116933e-001
 3.5239359817e+000	 1.9757054829e+000	-1.8031046469e-001
 3.7400539428e+000	 1.5967847769e+000	 2.5037516396e-002
 3.7228239255e+000	 1.6365535640e+000	-7.0832251186e-005
 3.7051352218e+000	 1.6762156410e+000	-1.8995917771e-002
 3.6869882436e+000	 1.7157633359e+000	-3.3615155294e-002
 3.6683835689e+000	 1.7551889576e+000	-4.5850864588e-002
 3.6493219433e+000	 1.7944847999e+000	-5.7671246477e-002
 3.6298042809e+000	 1.8336431461e+000	-7.1091859311e-002
 3.6098316652e+000	 1.8726562735e+000	-8.8177544954e-002
 3.5894053503e+000	 1.9115164578e+000	-1.1104474428e-001
 3.5685267611e+000	 1.9502159781e+000	-1.4186413304e-001
 3.5471974943e+000	 1.9887471210e+000	-1.8286350035e-001
 3.7645801531e+000	 1.6072560375e+000	 2.5973101489e-002
 3.7472371463e+000	 1.6472856170e+000	 5.7129154332e-004
 3.7294324451e+000	 1.6872077866e+000	-1.8565091903e-002
 3.7111664641e+000	 1.7270148240e+000	-3.3358959124e-002
 3.6924397853e+000	 1.7666989878e+000	-4.5780446691e-002
 3.6732531590e+000	 1.8062525210e+000	-5.7848168836e-002
 3.6536075053e+000	 1.8456676565e+000	-7.1631010692e-002
 3.6335039149e+000	 1.8849366209e+000	-8.9250409737e-002
 3.6129436500e+000	 1.9240516393e+000	-1.1288306177e-001
 3.5919281449e+000	 1.9630049400e+000	-1.4476397814e-001
 3.5704590069e+000	 2.0017887592e+000	-1.8717247492e-001
 3.7891063634e+000	 1.6177272980e+000	 2.8471638984e-002
 3.7716503671e+000	 1.6580176699e+000	 2.7082983783e-003
 3.7537296684e+000	 1.6981999321e+000	-1.6868797576e-002
 3.7353446847e+000	 1.7382663121e+000	-3.2188007715e-002
 3.7164960017e+000	 1.7782090179e+000	-4.5226790017e-002
 3.6971843747e+000	 1.8180202421e+000	-5.8013317175e-002
 3.6774107297e+000	 1.8576921669e+000	-7.2628679726e-002
 3.6571761646e+000	 1.8972169683e+000	-9.1209619667e-002
 3.6364819497e+000	 1.9365868207e+000	-1.1595172695e-001
 3.6153295288e+000	 1.9757939018e+000	-1.4911302109e-001
 3.5937205195e+000	 2.0148303973e+000	-1.9187311723e-001
 3.8136325738e+000	 1.6281985585e+000	 3.2583218575e-002
 3.7960635879e+000	 1.6687497229e+000	 6.4223628541e-003
 3.7780268917e+000	 1.7091920777e+000	-1.3793438116e-002
 3.7595229053e+000	 1.7495178002e+000	-2.9958617541e-002
 3.7405522181e+000	 1.7897190480e+000	-4.4018124247e-002
 3.7211155904e+000	 1.8297879632e+000	-5.7969491905e-002
 3.7012139541e+000	 1.8697166773e+000	-7.3865545428e-002
 3.6808484143e+000	 1.9094973156e+000	-9.3817683824e-002
 3.6600202494e+000	 1.9491220021e+000	-1.1999966764e-001
 3.6387309127e+000	 1.9885828637e+000	-1.5465182842e-001
 3.6169820321e+000	 2.0278720355e+000	-1.9620876368e-001
 3.8381587841e+000	 1.6386698191e+000	 3.8365587802e-002
 3.8204768087e+000	 1.6794817758e+000	 1.1801262998e-002
 3.8023241150e+000	 1.7201842233e+000	-9.2219056160e-003
 3.7837011259e+000	 1.7607692884e+000	-2.6525697779e-002
 3.7646084345e+000	 1.8012290781e+000	-4.1983360984e-002
 3.7450468061e+000	 1.8415556843e+000	-5.7522223032e-002
 3.7250171785e+000	 1.8817411877e+000	-7.5126995391e-002
 3.7045206639e+000	 1.9217776630e+000	-9.6843702719e-002
 3.6835585491e+000	 1.9616571835e+000	-1.2478416213e-001
 3.6621322965e+000	 2.0013718256e+000	-1.6112216045e-001
 3.6402435447e+000	 2.0409136736e+000	-2.0014732671e-001
 3.8626849945e+000	 1.6491410796e+000	 4.5882814389e-002
 3.8448900295e+000	 1.6902138288e+000	 1.8937009808e-002
 3.8266213383e+000	 1.7311763688e+000	-3.0349848833e-003
 3.8078793464e+000	 1.7720207765e+000	-2.1744188963e-002
 3.7886646509e+000	 1.8127391083e+000	-3.8953568872e-002
 3.7689780217e+000	 1.8533234054e+000	-5.6481284032e-002
 3.7488204029e+000	 1.8937656981e+000	-7.6204681222e-002
 3.7281929136e+000	 1.9340580104e+000	-1.0006496862e-001
 3.7070968488e+000	 1.9741923649e+000	-1.3007248829e-001
 3.6855336804e+000	 2.0141607875e+000	-1.6742132605e-001
 3.6635050572e+000	 2.0539553118e+000	-2.0366817271e-001
 3.4308899314e+000	 1.9235389302e+000	-1.9349972673e-001
 3.4098226392e+000	 1.9606419394e+000	-2.3441591771e-001
 3.3883229079e+000	 1.9975671597e+000	-2.8134650715e-001
 3.3663927853e+000	 2.0343071798e+000	-3.2660153895e-001
 3.3440344860e+000	 2.0708546138e+000	-3.5969223870e-001
 3.3212503911e+000	 2.1072021068e+000	-3.8149418555e-001
 3.2980430479e+000	 2.1433423388e+000	-3.9824237559e-001
 3.2744151693e+000	 2.1792680296e+000	-4.1291090656e-001
 3.2503696335e+000	 2.2149719435e+000	-4.2777364028e-001
 3.2259094826e+000	 2.2504468941e+000	-4.4510461063e-001
 3.2010379221e+000	 2.2856857484e+000	-4.6715323140e-001
 3.4541514439e+000	 1.9365805684e+000	-1.8611373531e-001
 3.4329413150e+000	 1.9739351368e+000	-2.2986962415e-001
 3.4112958151e+000	 2.0111107110e+000	-2.8079691135e-001
 3.3892170058e+000	 2.0480998292e+000	-3.2606763613e-001
 3.3667071167e+000	 2.0848950557e+000	-3.6097256840e-001
 3.3437685451e+000	 2.1214889855e+000	-3.8529532440e-001
 3.3204038555e+000	 2.1578742491e+000	-4.0012704770e-001
 3.2966157794e+000	 2.1940435169e+000	-4.1258417621e-001
 3.2724072143e+000	 2.2299895042e+000	-4.2564123837e-001
 3.2477812230e+000	 2.2657049758e+000	-4.4148877045e-001
 3.2227410328e+000	 2.3011827503e+000	-4.6228916235e-001
 3.4774129565e+000	 1.9496222066e+000	-1.8164795440e-001
 3.4560599909e+000	 1.9872283342e+000	-2.2806990907e-001
 3.4342687223e+000	 2.0246542622e+000	-2.8025886672e-001
 3.4120412262e+000	 2.0618924786e+000	-3.2511543703e-001
 3.3893797473e+000	 2.0989354976e+000	-3.6127259681e-001
 3.3662866990e+000	 2.1357758642e+000	-3.8842114624e-001
 3.3427646632e+000	 2.1724061594e+000	-4.0627279912e-001
 3.3188163895e+000	 2.2088190042e+000	-4.1634575554e-001
 3.2944447951e+000	 2.2450070649e+000	-4.2667840473e-001
 3.2696529635e+000	 2.2809630575e+000	-4.4013224741e-001
 3.2444441434e+000	 2.3166797522e+000	-4.5882549290e-001
 3.5006744691e+000	 1.9626638447e+000	-1.7981012089e-001
 3.4791786668e+000	 2.0005215316e+000	-2.2871785043e-001
 3.4572416294e+000	 2.0381978135e+000	-2.7961452180e-001
 3.4348654467e+000	 2.0756851281e+000	-3.2367955152e-001
 3.4120523780e+000	 2.1129759395e+000	-3.6053683195e-001
 3.3888048530e+000	 2.1500627430e+000	-3.8982305677e-001
 3.3651254708e+000	 2.1869380697e+000	-4.1119154800e-001
 3.3410169996e+000	 2.2235944915e+000	-4.2431639493e-001
 3.3164823760e+000	 2.2600246256e+000	-4.3150837782e-001
 3.2915247039e+000	 2.2962211391e+000	-4.4163678866e-001
 3.2661472541e+000	 2.3321767542e+000	-4.5733687421e-001
 3.5239359817e+000	 1.9757054829e+000	-1.8031046469e-001
 3.5022973426e+000	 2.0138147290e+000	-2.3038606844e-001
 3.4802145366e+000	 2.0517413647e+000	-2.7879801557e-001
 3.4576896671e+000	 2.0894777775e+000	-3.2170536636e-001
 3.4347250087e+000	 2.1270163813e+000	-3.5872023605e-001
 3.4113230070e+000	 2.1643496217e+000	-3.8946319030e-001
 3.3874862785e+000	 2.2014699800e+000	-4.1356714561e-001
 3.3632176097e+000	 2.2383699789e+000	-4.3068160686e-001
 3.3385199568e+000	 2.2750421863e+000	-4.4047722479e-001
 3.3133964443e+000	 2.3114792208e+000	-4.4658294868e-001
 3.2878503648e+000	 2.3476737561e+000	-4.5837565840e-001
 3.5471974943e+000	 1.9887471210e+000	-1.8286350035e-001
 3.5254160185e+000	 2.0271079264e+000	-2.3196736607e-001
 3.5031874438e+000	 2.0652849160e+000	-2.7775458492e-001
 3.4805138876e+000	 2.1032704269e+000	-3.1914902019e-001
 3.4573976394e+000	 2.1410568232e+000	-3.5578820930e-001
 3.4338411610e+000	 2.1786365004e+000	-3.8731385720e-001
 3.4098470862e+000	 2.2160018903e+000	-4.1337574582e-001
 3.3854182198e+000	 2.2531454662e+000	-4.3363600618e-001
 3.3605575376e+000	 2.2900597470e+000	-4.4777373563e-001
 3.3352681848e+000	 2.3267373025e+000	-4.5548993811e-001
 3.3095534755e+000	 2.3631707580e+000	-4.6247090597e-001
 3.5704590069e+000	 2.0017887592e+000	-1.8717247492e-001
 3.5485346943e+000	 2.0404011238e+000	-2.3340655025e-001
 3.5261603510e+000	 2.0788284673e+000	-2.7644052309e-001
 3.5033381080e+000	 2.1170630764e+000	-3.1597737083e-001
 3.4800702700e+000	 2.1550972651e+000	-3.5171656544e-001
 3.4563593150e+000	 2.1929233791e+000	-3.8335752671e-001
 3.4322078938e+000	 2.2305338007e+000	-4.1060347705e-001
 3.4076188299e+000	 2.2679209535e+000	-4.3316568472e-001
 3.3825951184e+000	 2.3050773076e+000	-4.5076807772e-001
 3.3571399252e+000	 2.3419953841e+000	-4.6315220606e-001
 3.3312565862e+000	 2.3786677599e+000	-4.7012738577e-001
 3.5937205195e+000	 2.0148303973e+000	-1.9187311723e-001
 3.5716533702e+000	 2.0536943212e+000	-2.3465977667e-001
 3.5491332582e+000	 2.0923720185e+000	-2.7482313099e-001
 3.5261623285e+000	 2.1308557258e+000	-3.1216795502e-001
 3.5027429007e+000	 2.1691377070e+000	-3.4649149965e-001
 3.4788774690e+000	 2.2072102578e+000	-3.7758680199e-001
 3.4545687015e+000	 2.2450657110e+000	-4.0524642269e-001
 3.4298194401e+000	 2.2826964408e+000	-4.2926659748e-001
 3.4046326992e+000	 2.3200948683e+000	-4.4945178547e-001
 3.3790116656e+000	 2.3572534658e+000	-4.6561959153e-001
 3.3529596968e+000	 2.3941647618e+000	-4.7760603571e-001
 3.6169820321e+000	 2.0278720355e+000	-1.9620876368e-001
 3.5947720461e+000	 2.0669875186e+000	-2.3569448627e-001
 3.5721061654e+000	 2.1059155698e+000	-2.7288066168e-001
 3.5489865489e+000	 2.1446483752e+000	-3.0770894115e-001
 3.5254155314e+000	 2.1831781488e+000	-3.4010954905e-001
 3.5013956229e+000	 2.2214971365e+000	-3.7000438748e-001
 3.4769295092e+000	 2.2595976213e+000	-3.9731059379e-001
 3.4520200502e+000	 2.2974719282e+000	-4.2194453858e-001
 3.4266702800e+000	 2.3351124290e+000	-4.4382624671e-001
 3.4008834061e+000	 2.3725115475e+000	-4.6288421875e-001
 3.3746628075e+000	 2.4096617637e+000	-4.7906062551e-001
 3.6402435447e+000	 2.0409136736e+000	-2.0014732671e-001
 3.6178907219e+000	 2.0802807161e+000	-2.3648933558e-001
 3.5950790726e+000	 2.1194591210e+000	-2.7060225830e-001
 3.5718107694e+000	 2.1584410247e+000	-3.0259907510e-001
 3.5480881620e+000	 2.1972185907e+000	-3.3257754618e-001
 3.5239137769e+000	 2.2357840152e+000	-3.6062304900e-001
 3.4992903168e+000	 2.2741295316e+000	-3.8681189439e-001
 3.4742206603e+000	 2.3122474155e+000	-4.1121510968e-001
 3.4487078609e+000	 2.3501299897e+000	-4.3390267159e-001
 3.4227551465e+000	 2.3877696291e+000	-4.5494816645e-001
 3.3963659182e+000	 2.4251587656e+000	-4.7443385019e-001
 3.6635050572e+000	 2.0539553118e+000	-2.0366817271e-001
 3.6410093978e+000	 2.0935739135e+000	-2.3703412104e-001
 3.6180519798e+000	 2.1330026723e+000	-2.6798788582e-001
 3.5946349899e+000	 2.1722336741e+000	-2.9684761957e-001
 3.5707607927e+000	 2.2112590326e+000	-3.2391256564e-001
 3.5464319309e+000	 2.2500708939e+000	-3.4946556696e-001
 3.5216511245e+000	 2.2886614419e+000	-3.7377607980e-001
 3.4964212704e+000	 2.3270229028e+000	-3.9710368141e-001
 3.4707454417e+000	 2.3651475504e+000	-4.1970205464e-001
 3.4446268869e+000	 2.4030277108e+000	-4.4182342741e-001
 3.4180690289e+000	 2.4406557675e+000	-4.6372343929e-001
 3.2010379221e+000	 2.2856857484e+000	-4.6715323140e-001
 3.1757583185e+000	 2.3206814311e+000	-4.9218690729e-001
 3.1500741959e+000	 2.3554269264e+000	-5.1698568284e-001
 3.1239892364e+000	 2.3899152852e+000	-5.4144263779e-001
 3.0975072805e+000	 2.4241396301e+000	-5.6531098411e-001
 3.0706323245e+000	 2.4580931598e+000	-5.8818250215e-001
 3.0433685191e+000	 2.4917691538e+000	-6.0946659925e-001
 3.0157201671e+000	 2.5251609764e+000	-6.2837018571e-001
 2.9876917216e+000	 2.5582620812e+000	-6.4387856008e-001
 2.9592877831e+000	 2.5910660154e+000	-6.5473749178e-001
 2.9305130975e+000	 2.6235664236e+000	-6.5943668314e-001
 3.2227410328e+000	 2.3011827503e+000	-4.6228916235e-001
 3.1972900329e+000	 2.3364157045e+000	-4.8614889550e-001
 3.1714317713e+000	 2.3713967751e+000	-5.0982153706e-001
 3.1451699552e+000	 2.4061189658e+000	-5.3330980145e-001
 3.1185084511e+000	 2.4405753525e+000	-5.5647311531e-001
 3.0914512822e+000	 2.4747590879e+000	-5.7900478941e-001
 3.0640026276e+000	 2.5086634059e+000	-6.0040983065e-001
 3.0361668192e+000	 2.5422816258e+000	-6.1998359768e-001
 3.0079483401e+000	 2.5756071569e+000	-6.3679150168e-001
 2.9793518222e+000	 2.6086335025e+000	-6.4964994874e-001
 2.9503820436e+000	 2.6413542642e+000	-6.5710871481e-001
 3.2444441434e+000	 2.3166797522e+000	-4.5882549290e-001
 3.2188217473e+000	 2.3521499780e+000	-4.8076558182e-001
 3.1927893468e+000	 2.3873666238e+000	-5.0270421318e-001
 3.1663506741e+000	 2.4223226463e+000	-5.2474038714e-001
 3.1395096216e+000	 2.4570110749e+000	-5.4682628734e-001
 3.1122702400e+000	 2.4914250160e+000	-5.6874317116e-001
 3.0846367361e+000	 2.5255576581e+000	-5.9007791787e-001
 3.0566134712e+000	 2.5594022753e+000	-6.1020044808e-001
 3.0282049587e+000	 2.5929522326e+000	-6.2824222488e-001
 2.9994158614e+000	 2.6262009896e+000	-6.4307604243e-001
 2.9702509898e+000	 2.6591421048e+000	-6.5329730202e-001
 3.2661472541e+000	 2.3321767542e+000	-4.5733687421e-001
 3.2403534617e+000	 2.3678842514e+000	-4.7658218481e-001
 3.2141469222e+000	 2.4033364725e+000	-4.9615117215e-001
 3.1875313929e+000	 2.4385263269e+000	-5.1622634717e-001
 3.1605107922e+000	 2.4734467973e+000	-5.3683976164e-001
 3.1330891977e+000	 2.5080909442e+000	-5.5784759711e-001
 3.1052708446e+000	 2.5424519102e+000	-5.7890543054e-001
 3.0770601233e+000	 2.5765229248e+000	-5.9944439965e-001
 3.0484615772e+000	 2.6102973083e+000	-6.1864848761e-001
 3.0194799006e+000	 2.6437684768e+000	-6.3543314270e-001
 2.9901199359e+000	 2.6769299455e+000	-6.4824063911e-001
 3.2878503648e+000	 2.3476737561e+000	-4.5837565840e-001
 3.2618851761e+000	 2.3836185248e+000	-4.7412062231e-001
 3.2355044976e+000	 2.4193063212e+000	-4.9065558392e-001
 3.2087121117e+000	 2.4547300074e+000	-5.0823436143e-001
 3.1815119627e+000	 2.4898825197e+000	-5.2695655170e-001
 3.1539081554e+000	 2.5247568723e+000	-5.4674079664e-001
 3.1259049531e+000	 2.5593461623e+000	-5.6729874570e-001
 3.0975067753e+000	 2.5936435742e+000	-5.8810994720e-001
 3.0687181957e+000	 2.6276423840e+000	-6.0839789824e-001
 3.0395439398e+000	 2.6613359639e+000	-6.2710747819e-001
 3.0099888821e+000	 2.6947177861e+000	-6.4152487021e-001
 3.3095534755e+000	 2.3631707580e+000	-4.6247090597e-001
 3.2834168905e+000	 2.3993527983e+000	-4.7387847321e-001
 3.2568620731e+000	 2.4352761699e+000	-4.8668524538e-001
 3.2298928305e+000	 2.4709336880e+000	-5.0120471341e-001
 3.2025131332e+000	 2.5063182421e+000	-5.1759225980e-001
 3.1747271132e+000	 2.5414228004e+000	-5.3581707912e-001
 3.1465390616e+000	 2.5762404145e+000	-5.5563481486e-001
 3.1179534273e+000	 2.6107642237e+000	-5.7656115511e-001
 3.0889748143e+000	 2.6449874597e+000	-5.9784662735e-001
 3.0596079790e+000	 2.6789034510e+000	-6.1820926678e-001
 3.0298578282e+000	 2.7125056268e+000	-6.3346391810e-001
 3.3312565862e+000	 2.3786677599e+000	-4.7012738577e-001
 3.3049486049e+000	 2.4150870717e+000	-4.7632793229e-001
 3.2782196485e+000	 2.4512460186e+000	-4.8468149168e-001
 3.2510735493e+000	 2.4871373686e+000	-4.9555016027e-001
 3.2235143038e+000	 2.5227539645e+000	-5.0913390816e-001
 3.1955460709e+000	 2.5580887285e+000	-5.2544112893e-001
 3.1671731701e+000	 2.5931346666e+000	-5.4425992612e-001
 3.1384000794e+000	 2.6278848731e+000	-5.6513038999e-001
 3.1092314328e+000	 2.6623325355e+000	-5.8731811487e-001
 3.0796720181e+000	 2.6964709382e+000	-6.0836719383e-001
 3.0497267744e+000	 2.7302934674e+000	-6.2443046128e-001
 3.3529596968e+000	 2.3941647618e+000	-4.7760603571e-001
 3.3264803193e+000	 2.4308213452e+000	-4.8191475827e-001
 3.2995772240e+000	 2.4672158673e+000	-4.8505810150e-001
 3.2722542682e+000	 2.5033410491e+000	-4.9165479714e-001
 3.2445154743e+000	 2.5391896869e+000	-5.0193876483e-001
 3.2163650286e+000	 2.5747546566e+000	-5.1594679556e-001
 3.1878072786e+000	 2.6100289187e+000	-5.3348846159e-001
 3.1588467314e+000	 2.6450055226e+000	-5.5411704884e-001
 3.1294880513e+000	 2.6796776112e+000	-5.7684921014e-001
 3.0997360573e+000	 2.7140384253e+000	-5.9787131762e-001
 3.0695957205e+000	 2.7480813081e+000	-6.1475416914e-001
 3.3746628075e+000	 2.4096617637e+000	-4.7906062551e-001
 3.3480120336e+000	 2.4465556186e+000	-4.8857714037e-001
 3.3209347994e+000	 2.4831857160e+000	-4.8820019627e-001
 3.2934349870e+000	 2.5195447297e+000	-4.8987291606e-001
 3.2655166449e+000	 2.5556254093e+000	-4.9633316441e-001
 3.2371839863e+000	 2.5914205848e+000	-5.0763587893e-001
 3.2084413871e+000	 2.6269231708e+000	-5.2360165027e-001
 3.1792933835e+000	 2.6621261720e+000	-5.4378628282e-001
 3.1497446699e+000	 2.6970226869e+000	-5.6609976858e-001
 3.1198000965e+000	 2.7316059124e+000	-5.8701774905e-001
 3.0894646667e+000	 2.7658691487e+000	-6.0472296523e-001
 3.3963659182e+000	 2.4251587656e+000	-4.7443385019e-001
 3.3695437480e+000	 2.4622898920e+000	-4.8890286239e-001
 3.3422923749e+000	 2.4991555647e+000	-4.9349818933e-001
 3.3146157058e+000	 2.5357484103e+000	-4.9052785957e-001
 3.2865178154e+000	 2.5720611317e+000	-4.9261132401e-001
 3.2580029441e+000	 2.6080865129e+000	-5.0077691023e-001
 3.2290754956e+000	 2.6438174230e+000	-5.1484631666e-001
 3.1997400355e+000	 2.6792468215e+000	-5.3415385038e-001
 3.1700012884e+000	 2.7143677626e+000	-5.5530861425e-001
 3.1398641357e+000	 2.7491733996e+000	-5.7606185874e-001
 3.1093336128e+000	 2.7836569894e+000	-5.9458428618e-001
 3.4180690289e+000	 2.4406557675e+000	-4.6372343929e-001
 3.3910754624e+000	 2.4780241655e+000	-4.8234683332e-001
 3.3636499503e+000	 2.5151254134e+000	-4.9306599113e-001
 3.3357964246e+000	 2.5519520908e+000	-4.9383400815e-001
 3.3075189860e+000	 2.5884968541e+000	-4.9103415452e-001
 3.2788219018e+000	 2.6247524410e+000	-4.9560392833e-001
 3.2497096041e+000	 2.6607116751e+000	-5.0743362524e-001
 3.2201866875e+000	 2.6963674709e+000	-5.2488402078e-001
 3.1902579069e+000	 2.7317128383e+000	-5.4470387004e-001
 3.1599281749e+000	 2.7667408867e+000	-5.6521949908e-001
 3.1292025590e+000	 2.8014448300e+000	-5.8454633663e-001
 2.9305130975e+000	 2.6235664236e+000	-6.5943668314e-001
 2.9013769518e+000	 2.6557522478e+000	-6.6233044800e-001
 2.8718800862e+000	 2.6876222428e+000	-6.6857355624e-001
 2.8420276662e+000	 2.7191703754e+000	-6.7579987155e-001
 2.8118249913e+000	 2.7503907261e+000	-6.8406378756e-001
 2.7812774920e+000	 2.7812774920e+000	-6.9349820576e-001
 2.7503907261e+000	 2.8118249913e+000	-7.0409965682e-001
 2.7191703754e+000	 2.8420276662e+000	-7.1574585349e-001
 2.6876222428e+000	 2.8718800862e+000	-7.2821353077e-001
 2.6557522478e+000	 2.9013769518e+000	-7.4045129132e-001
 2.6235664236e+000	 2.9305130975e+000	-7.4318810997e-001
 2.9503820436e+000	 2.6413542642e+000	-6.5710871481e-001
 2.9210483543e+000	 2.6737583091e+000	-6.6303417399e-001
 2.8913514992e+000	 2.7058443834e+000	-6.7024352975e-001
 2.8612966790e+000	 2.7376064131e+000	-6.7787783926e-001
 2.8308892294e+000	 2.7690384384e+000	-6.8609013383e-001
 2.8001346173e+000	 2.8001346173e+000	-6.9487748376e-001
 2.7690384384e+000	 2.8308892294e+000	-7.0409914431e-001
 2.7376064131e+000	 2.8612966790e+000	-7.1349515337e-001
 2.7058443834e+000	 2.8913514992e+000	-7.2270520926e-001
 2.6737583091e+000	 2.9210483543e+000	-7.3128765862e-001
 2.6413542642e+000	 2.9503820436e+000	-7.3498851876e-001
 2.9702509898e+000	 2.6591421048e+000	-6.5329730202e-001
 2.9407197567e+000	 2.6917643704e+000	-6.6130431071e-001
 2.9108229122e+000	 2.7240665239e+000	-6.6934225886e-001
 2.8805656919e+000	 2.7560424507e+000	-6.7751658487e-001
 2.8499534675e+000	 2.7876861507e+000	-6.8585827683e-001
 2.8189917427e+000	 2.8189917427e+000	-6.9423941392e-001
 2.7876861507e+000	 2.8499534675e+000	-7.0239237283e-001
 2.7560424507e+000	 2.8805656919e+000	-7.0992948687e-001
 2.7240665239e+000	 2.9108229122e+000	-7.1636297816e-001
 2.6917643704e+000	 2.9407197567e+000	-7.2112498469e-001
 2.6591421048e+000	 2.9702509898e+000	-7.2326244946e-001
 2.9901199359e+000	 2.6769299455e+000	-6.4824063911e-001
 2.9603911591e+000	 2.7097704316e+000	-6.5741051710e-001
 2.9302943251e+000	 2.7422886645e+000	-6.6636056056e-001
 2.8998347048e+000	 2.7744784884e+000	-6.7519265981e-001
 2.8690177055e+000	 2.8063338631e+000	-6.8382675199e-001
 2.8378488680e+000	 2.8378488680e+000	-6.9202046372e-001
 2.8063338631e+000	 2.8690177055e+000	-6.9938939577e-001
 2.7744784884e+000	 2.8998347048e+000	-7.0542786172e-001
 2.7422886645e+000	 2.9302943251e+000	-7.0952989262e-001
 2.7097704316e+000	 2.9603911591e+000	-7.1101032093e-001
 2.6769299455e+000	 2.9901199359e+000	-7.0912576034e-001
 3.0099888821e+000	 2.6947177861e+000	-6.4152487021e-001
 2.9800625615e+000	 2.7277764929e+000	-6.5180769236e-001
 2.9497657381e+000	 2.7605108051e+000	-6.6174270617e-001
 2.9191037177e+000	 2.7929145260e+000	-6.7133637473e-001
 2.8880819436e+000	 2.8249815754e+000	-6.8040827081e-001
 2.8567059933e+000	 2.8567059933e+000	-6.8861180709e-001
 2.8249815754e+000	 2.8880819436e+000	-6.9545561856e-001
 2.7929145260e+000	 2.9191037177e+000	-7.0032540037e-001
 2.7605108051e+000	 2.9497657381e+000	-7.0250600423e-001
 2.7277764929e+000	 2.9800625615e+000	-7.0120359828e-001
 2.6947177861e+000	 3.0099888821e+000	-6.9556769882e-001
 3.0298578282e+000	 2.7125056268e+000	-6.3346391810e-001
 2.9997339639e+000	 2.7457825542e+000	-6.4490530505e-001
 2.9692371511e+000	 2.7787329457e+000	-6.5588775866e-001
 2.9383727306e+000	 2.8113505636e+000	-6.6633315931e-001
 2.9071461816e+000	 2.8436292877e+000	-6.7597109744e-001
 2.8755631186e+000	 2.8755631186e+000	-6.8436071198e-001
 2.8436292877e+000	 2.9071461816e+000	-6.9091319133e-001
 2.8113505636e+000	 2.9383727306e+000	-6.9491473140e-001
 2.7787329457e+000	 2.9692371511e+000	-6.9554974451e-001
 2.7457825542e+000	 2.9997339639e+000	-6.9192411571e-001
 2.7125056268e+000	 3.0298578282e+000	-6.8308830597e-001
 3.0497267744e+000	 2.7302934674e+000	-6.2443046128e-001
 3.0194053663e+000	 2.7637886155e+000	-6.3706869790e-001
 2.9887085641e+000	 2.7969550862e+000	-6.4915090502e-001
 2.9576417435e+000	 2.8297866013e+000	-6.6052491697e-001
 2.9262104197e+000	 2.8622770001e+000	-6.7084042060e-001
 2.8944202439e+000	 2.8944202439e+000	-6.7957192387e-001
 2.8622770001e+000	 2.9262104197e+000	-6.8604239805e-001
 2.8297866013e+000	 2.9576417435e+000	-6.8944737815e-001
 2.7969550862e+000	 2.9887085641e+000	-6.8887930683e-001
 2.7637886155e+000	 3.0194053663e+000	-6.8335190872e-001
 2.7302934674e+000	 3.0497267744e+000	-6.7182438616e-001
 3.0695957205e+000	 2.7480813081e+000	-6.1475416914e-001
 3.0390767687e+000	 2.7817946767e+000	-6.2862038769e-001
 3.0081799771e+000	 2.8151772268e+000	-6.4184478367e-001
 2.9769107564e+000	 2.8482226389e+000	-6.5421137497e-001
 2.9452746578e+000	 2.8809247124e+000	-6.6529972100e-001
 2.9132773692e+000	 2.9132773692e+000	-6.7450904519e-001
 2.8809247124e+000	 2.9452746578e+000	-6.8108304218e-001
 2.8482226389e+000	 2.9769107564e+000	-6.8413514484e-001
 2.8151772268e+000	 3.0081799771e+000	-6.8267402672e-001
 2.7817946767e+000	 3.0390767687e+000	-6.7562911753e-001
 2.7480813081e+000	 3.0695957205e+000	-6.6187591380e-001
 3.0894646667e+000	 2.7658691487e+000	-6.0472296523e-001
 3.0587481711e+000	 2.7998007380e+000	-6.1984136051e-001
 3.0276513901e+000	 2.8333993674e+000	-6.3424080717e-001
 2.9961797693e+000	 2.8666586766e+000	-6.4765142980e-001
 2.9643388958e+000	 2.8995724247e+000	-6.5959213455e-001
 2.9321344945e+000	 2.9321344945e+000	-6.6939591087e-001
 2.8995724247e+000	 2.9643388958e+000	-6.7623582923e-001
 2.8666586766e+000	 2.9961797693e+000	-6.7915150023e-001
 2.8333993674e+000	 3.0276513901e+000	-6.7707576065e-001
 2.7998007380e+000	 3.0587481711e+000	-6.6886135482e-001
 2.7658691487e+000	 3.0894646667e+000	-6.5330738362e-001
 3.1093336128e+000	 2.7836569894e+000	-5.9458428618e-001
 3.0784195736e+000	 2.8178067993e+000	-6.1097236257e-001
 3.0471228031e+000	 2.8516215080e+000	-6.2657048061e-001
 3.0154487822e+000	 2.8850947142e+000	-6.4106448842e-001
 2.9834031339e+000	 2.9182201371e+000	-6.5392181147e-001
 2.9509916199e+000	 2.9509916199e+000	-6.6441796033e-001
 2.9182201371e+000	 2.9834031339e+000	-6.7166374618e-001
 2.8850947142e+000	 3.0154487822e+000	-6.7463295888e-001
 2.8516215080e+000	 3.0471228031e+000	-6.7219026346e-001
 2.8178067993e+000	 3.0784195736e+000	-6.6311907314e-001
 2.7836569894e+000	 3.1093336128e+000	-6.4614916193e-001
 3.1292025590e+000	 2.8014448300e+000	-5.8454633663e-001
 3.0980909760e+000	 2.8358128606e+000	-6.0221518681e-001
 3.0665942160e+000	 2.8698436485e+000	-6.1902671559e-001
 3.0347177951e+000	 2.9035307518e+000	-6.3463180523e-001
 3.0024673720e+000	 2.9368678494e+000	-6.4845527148e-001
 2.9698487452e+000	 2.9698487452e+000	-6.5972360592e-001
 2.9368678494e+000	 3.0024673720e+000	-6.6749343788e-001
 2.9035307518e+000	 3.0347177951e+000	-6.7068046021e-001
 2.8698436485e+000	 3.0665942160e+000	-6.6808856425e-001
 2.8358128606e+000	 3.0980909760e+000	-6.5843893201e-001
 2.8014448300e+000	 3.1292025590e+000	-6.4039883872e-001
 2.6235664236e+000	 2.9305130975e+000	-7.4318810997e-001
 2.5910660154e+000	 2.9592877831e+000	-7.4224436264e-001
 2.5582620812e+000	 2.9876917216e+000	-7.4439134907e-001
 2.5251609764e+000	 3.0157201671e+000	-7.4758964388e-001
 2.4917691538e+000	 3.0433685191e+000	-7.4993692370e-001
 2.4580931598e+000	 3.0706323245e+000	-7.4966991116e-001
 2.4241396301e+000	 3.0975072805e+000	-7.4516559536e-001
 2.3899152852e+000	 3.1239892364e+000	-7.3494175287e-001
 2.3554269264e+000	 3.1500741959e+000	-7.1765679965e-001
 2.3206814311e+000	 3.1757583185e+000	-6.9210900913e-001
 2.2856857484e+000	 3.2010379221e+000	-6.5723513741e-001
 2.6413542642e+000	 2.9503820436e+000	-7.3498851876e-001
 2.6086335025e+000	 2.9793518222e+000	-7.3421537821e-001
 2.5756071569e+000	 3.0079483401e+000	-7.3616729979e-001
 2.5422816258e+000	 3.0361668192e+000	-7.3901159167e-001
 2.5086634059e+000	 3.0640026276e+000	-7.4104627074e-001
 2.4747590879e+000	 3.0914512822e+000	-7.4070153783e-001
 2.4405753525e+000	 3.1185084511e+000	-7.3654051570e-001
 2.4061189658e+000	 3.1451699552e+000	-7.2725927635e-001
 2.3713967751e+000	 3.1714317713e+000	-7.1168619035e-001
 2.3364157045e+000	 3.1972900329e+000	-6.8878063647e-001
 2.3011827503e+000	 3.2227410328e+000	-6.5763111527e-001
 2.6591421048e+000	 2.9702509898e+000	-7.2326244946e-001
 2.6262009896e+000	 2.9994158614e+000	-7.2327126080e-001
 2.5929522326e+000	 3.0282049587e+000	-7.2556847613e-001
 2.5594022753e+000	 3.0566134712e+000	-7.2851117092e-001
 2.5255576581e+000	 3.0846367361e+000	-7.3058158868e-001
 2.4914250160e+000	 3.1122702400e+000	-7.3038816375e-001
 2.4570110749e+000	 3.1395096216e+000	-7.2666579030e-001
 2.4223226463e+000	 3.1663506741e+000	-7.1827536627e-001
 2.3873666238e+000	 3.1927893468e+000	-7.0420264772e-001
 2.3521499780e+000	 3.2188217473e+000	-6.8355645445e-001
 2.3166797522e+000	 3.2444441434e+000	-6.5556627395e-001
 2.6769299455e+000	 2.9901199359e+000	-7.0912576034e-001
 2.6437684768e+000	 3.0194799006e+000	-7.0990451381e-001
 2.6102973083e+000	 3.0484615772e+000	-7.1305490844e-001
 2.5765229248e+000	 3.0770601233e+000	-7.1652696081e-001
 2.5424519102e+000	 3.1052708446e+000	-7.1897144308e-001
 2.5080909442e+000	 3.1330891977e+000	-7.1916019101e-001
 2.4734467973e+000	 3.1605107922e+000	-7.1598591660e-001
 2.4385263269e+000	 3.1875313929e+000	-7.0846127849e-001
 2.4033364725e+000	 3.2141469222e+000	-6.9571724783e-001
 2.3678842514e+000	 3.2403534617e+000	-6.7700081385e-001
 2.3321767542e+000	 3.2661472541e+000	-6.5167207901e-001
 2.6947177861e+000	 3.0099888821e+000	-6.9556769882e-001
 2.6613359639e+000	 3.0395439398e+000	-6.9456378978e-001
 2.6276423840e+000	 3.0687181957e+000	-6.9904307186e-001
 2.5936435742e+000	 3.0975067753e+000	-7.0345396306e-001
 2.5593461623e+000	 3.1259049531e+000	-7.0660047505e-001
 2.5247568723e+000	 3.1539081554e+000	-7.0740341917e-001
 2.4898825197e+000	 3.1815119627e+000	-7.0489977485e-001
 2.4547300074e+000	 3.2087121117e+000	-6.9824129514e-001
 2.4193063212e+000	 3.2355044976e+000	-6.8669239030e-001
 2.3836185248e+000	 3.2618851761e+000	-6.6962733609e-001
 2.3476737561e+000	 3.2878503648e+000	-6.4652686028e-001
 2.7125056268e+000	 3.0298578282e+000	-6.8308830597e-001
 2.6789034510e+000	 3.0596079790e+000	-6.7840180892e-001
 2.6449874597e+000	 3.0889748143e+000	-6.8390747962e-001
 2.6107642237e+000	 3.1179534273e+000	-6.8964516863e-001
 2.5762404145e+000	 3.1465390616e+000	-6.9381094875e-001
 2.5414228004e+000	 3.1747271132e+000	-6.9546058147e-001
 2.5063182421e+000	 3.2025131332e+000	-6.9376216078e-001
 2.4709336880e+000	 3.2298928305e+000	-6.8799426232e-001
 2.4352761699e+000	 3.2568620731e+000	-6.7754334948e-001
 2.3993527983e+000	 3.2834168905e+000	-6.6190048684e-001
 2.3631707580e+000	 3.3095534755e+000	-6.4065741706e-001
 2.7302934674e+000	 3.0497267744e+000	-6.7182438616e-001
 2.6964709382e+000	 3.0796720181e+000	-6.6385836839e-001
 2.6623325355e+000	 3.1092314328e+000	-6.6798227978e-001
 2.6278848731e+000	 3.1384000794e+000	-6.7541312863e-001
 2.5931346666e+000	 3.1671731701e+000	-6.8090430357e-001
 2.5580887285e+000	 3.1955460709e+000	-6.8363288539e-001
 2.5227539645e+000	 3.2235143038e+000	-6.8288532250e-001
 2.4871373686e+000	 3.2510735493e+000	-6.7805513099e-001
 2.4512460186e+000	 3.2782196485e+000	-6.6863982775e-001
 2.4150870717e+000	 3.3049486049e+000	-6.5423715016e-001
 2.3786677599e+000	 3.3312565862e+000	-6.3454062187e-001
 2.7480813081e+000	 3.0695957205e+000	-6.6187591380e-001
 2.7140384253e+000	 3.0997360573e+000	-6.5114175107e-001
 2.6796776112e+000	 3.1294880513e+000	-6.5231645196e-001
 2.6450055226e+000	 3.1588467314e+000	-6.6103152920e-001
 2.6100289187e+000	 3.1878072786e+000	-6.6814271044e-001
 2.5747546566e+000	 3.2163650286e+000	-6.7218155761e-001
 2.5391896869e+000	 3.2445154743e+000	-6.7254050116e-001
 2.5033410491e+000	 3.2722542682e+000	-6.6871650112e-001
 2.4672158673e+000	 3.2995772240e+000	-6.6030751079e-001
 2.4308213452e+000	 3.3264803193e+000	-6.4700820303e-001
 2.3941647618e+000	 3.3529596968e+000	-6.2907519529e-001
 2.7658691487e+000	 3.0894646667e+000	-6.5330738362e-001
 2.7316059124e+000	 3.1198000965e+000	-6.4027733010e-001
 2.6970226869e+000	 3.1497446699e+000	-6.3888838840e-001
 2.6621261720e+000	 3.1792933835e+000	-6.4673677027e-001
 2.6269231708e+000	 3.2084413871e+000	-6.5575063246e-001
 2.5914205848e+000	 3.2371839863e+000	-6.6132939304e-001
 2.5556254093e+000	 3.2655166449e+000	-6.6295947544e-001
 2.5195447297e+000	 3.2934349870e+000	-6.6023016875e-001
 2.4831857160e+000	 3.3209347994e+000	-6.5282962471e-001
 2.4465556186e+000	 3.3480120336e+000	-6.4085021071e-001
 2.4096617637e+000	 3.3746628075e+000	-6.2547691402e-001
 2.7836569894e+000	 3.1093336128e+000	-6.4614916193e-001
 2.7491733996e+000	 3.1398641357e+000	-6.3125729184e-001
 2.7143677626e+000	 3.1700012884e+000	-6.2774915863e-001
 2.6792468215e+000	 3.1997400355e+000	-6.3334960091e-001
 2.6438174230e+000	 3.2290754956e+000	-6.4391638933e-001
 2.6080865129e+000	 3.2580029441e+000	-6.5126230780e-001
 2.5720611317e+000	 3.2865178154e+000	-6.5433610958e-001
 2.5357484103e+000	 3.3146157058e+000	-6.5280867590e-001
 2.4991555647e+000	 3.3422923749e+000	-6.4658077315e-001
 2.4622898920e+000	 3.3695437480e+000	-6.3711408381e-001
 2.4251587656e+000	 3.3963659182e+000	-6.2434196671e-001
 2.8014448300e+000	 3.1292025590e+000	-6.4039883872e-001
 2.7667408867e+000	 3.1599281749e+000	-6.2404197256e-001
 2.7317128383e+000	 3.1902579069e+000	-6.1883050393e-001
 2.6963674709e+000	 3.2201866875e+000	-6.2251641534e-001
 2.6607116751e+000	 3.2497096041e+000	-6.3279372572e-001
 2.6247524410e+000	 3.2788219018e+000	-6.4213089595e-001
 2.5884968541e+000	 3.3075189860e+000	-6.4682790485e-001
 2.5519520908e+000	 3.3357964246e+000	-6.4663822674e-001
 2.5151254134e+000	 3.3636499503e+000	-6.4294755458e-001
 2.4780241655e+000	 3.3910754624e+000	-6.3633646755e-001
 2.4406557675e+000	 3.4180690289e+000	-6.2619727505e-001
 2.2856857484e+000	 3.2010379221e+000	-6.5723513741e-001
 2.2504468941e+000	 3.2259094826e+000	-6.1839618507e-001
 2.2149719435e+000	 3.2503696335e+000	-5.8392828194e-001
 2.1792680296e+000	 3.2744151693e+000	-5.5728415846e-001
 2.1433423388e+000	 3.2980430479e+000	-5.4184337379e-001
 2.1072021068e+000	 3.3212503911e+000	-5.4090338414e-001
 2.0708546138e+000	 3.3440344860e+000	-5.5762694262e-001
 2.0343071798e+000	 3.3663927853e+000	-5.9470415173e-001
 1.9975671597e+000	 3.3883229079e+000	-6.5463056784e-001
 1.9606419394e+000	 3.4098226392e+000	-7.0000451023e-001
 1.9235389302e+000	 3.4308899314e+000	-7.0512664563e-001
 2.3011827503e+000	 3.2227410328e+000	-6.5763111527e-001
 2.2657049758e+000	 3.2477812230e+000	-6.2255881995e-001
 2.2299895042e+000	 3.2724072143e+000	-5.9055799322e-001
 2.1940435169e+000	 3.2966157794e+000	-5.6478264013e-001
 2.1578742491e+000	 3.3204038555e+000	-5.4832693082e-001
 2.1214889855e+000	 3.3437685451e+000	-5.4420299668e-001
 2.0848950557e+000	 3.3667071167e+000	-5.5512343260e-001
 2.0480998292e+000	 3.3892170058e+000	-5.8359240482e-001
 2.0111107110e+000	 3.4112958151e+000	-6.3208972593e-001
 1.9739351368e+000	 3.4329413150e+000	-6.8578643057e-001
 1.9365805684e+000	 3.4541514439e+000	-6.9912555382e-001
 2.3166797522e+000	 3.2444441434e+000	-6.5556627395e-001
 2.2809630575e+000	 3.2696529635e+000	-6.2365713622e-001
 2.2450070649e+000	 3.2944447951e+000	-5.9365800358e-001
 2.2088190042e+000	 3.3188163895e+000	-5.6846218061e-001
 2.1724061594e+000	 3.3427646632e+000	-5.5092683841e-001
 2.1357758642e+000	 3.3662866990e+000	-5.4381125656e-001
 2.0989354976e+000	 3.3893797473e+000	-5.4948407583e-001
 2.0618924786e+000	 3.4120412262e+000	-5.7025139569e-001
 2.0246542622e+000	 3.4342687223e+000	-6.0841105818e-001
 1.9872283342e+000	 3.4560599909e+000	-6.6221962860e-001
 1.9496222066e+000	 3.4774129565e+000	-6.8493206805e-001
 2.3321767542e+000	 3.2661472541e+000	-6.5167207901e-001
 2.2962211391e+000	 3.2915247039e+000	-6.2238604368e-001
 2.2600246256e+000	 3.3164823760e+000	-5.9396484822e-001
 2.2235944915e+000	 3.3410169996e+000	-5.6910183150e-001
 2.1869380697e+000	 3.3651254708e+000	-5.5062186992e-001
 2.1500627430e+000	 3.3888048530e+000	-5.4079899557e-001
 2.1129759395e+000	 3.4120523780e+000	-5.4176675198e-001
 2.0756851281e+000	 3.4348654467e+000	-5.5566519122e-001
 2.0381978135e+000	 3.4572416294e+000	-5.8463876432e-001
 2.0005215316e+000	 3.4791786668e+000	-6.3083348584e-001
 1.9626638447e+000	 3.5006744691e+000	-6.6387591919e-001
 2.3476737561e+000	 3.2878503648e+000	-6.4652686028e-001
 2.3114792208e+000	 3.3133964443e+000	-6.1938502601e-001
 2.2750421863e+000	 3.3385199568e+000	-5.9217539354e-001
 2.2383699789e+000	 3.3632176097e+000	-5.6778482284e-001
 2.2014699800e+000	 3.3874862785e+000	-5.4846898505e-001
 2.1643496217e+000	 3.4113230070e+000	-5.3619606599e-001
 2.1270163813e+000	 3.4347250087e+000	-5.3295280567e-001
 2.0894777775e+000	 3.4576896671e+000	-5.4074323237e-001
 2.0517413647e+000	 3.4802145366e+000	-5.6158657531e-001
 2.0138147290e+000	 3.5022973426e+000	-5.9751439404e-001
 1.9757054829e+000	 3.5239359817e+000	-6.3724570372e-001
 2.3631707580e+000	 3.3095534755e+000	-6.4065741706e-001
 2.3267373025e+000	 3.3352681848e+000	-6.1524319259e-001
 2.2900597470e+000	 3.3605575376e+000	-5.8942031065e-001
 2.2531454662e+000	 3.3854182198e+000	-5.6554956508e-001
 2.2160018903e+000	 3.4098470862e+000	-5.4544690259e-001
 2.1786365004e+000	 3.4338411610e+000	-5.3095611309e-001
 2.1410568232e+000	 3.4573976394e+000	-5.2394850892e-001
 2.1032704269e+000	 3.4805138876e+000	-5.2632169372e-001
 2.0652849160e+000	 3.5031874438e+000	-5.3999745194e-001
 2.0271079264e+000	 3.5254160185e+000	-5.6691879919e-001
 1.9887471210e+000	 3.5471974943e+000	-6.0628474177e-001
 2.3786677599e+000	 3.3312565862e+000	-6.3454062187e-001
 2.3419953841e+000	 3.3571399252e+000	-6.1104589943e-001
 2.3050773076e+000	 3.3825951184e+000	-5.8673763117e-001
 2.2679209535e+000	 3.4076188299e+000	-5.6330309239e-001
 2.2305338007e+000	 3.4322078938e+000	-5.4245924347e-001
 2.1929233791e+000	 3.4563593150e+000	-5.2595811303e-001
 2.1550972651e+000	 3.4800702700e+000	-5.1558652317e-001
 2.1170630764e+000	 3.5033381080e+000	-5.1316484581e-001
 2.0788284673e+000	 3.5261603510e+000	-5.2054482314e-001
 2.0404011238e+000	 3.5485346943e+000	-5.3960649493e-001
 2.0017887592e+000	 3.5704590069e+000	-5.7225428405e-001
 2.3941647618e+000	 3.3529596968e+000	-6.2907519529e-001
 2.3572534658e+000	 3.3790116656e+000	-6.0788049931e-001
 2.3200948683e+000	 3.4046326992e+000	-5.8494452394e-001
 2.2826964408e+000	 3.4298194401e+000	-5.6187913889e-001
 2.2450657110e+000	 3.4545687015e+000	-5.4033611703e-001
 2.2072102578e+000	 3.4788774690e+000	-5.2200790803e-001
 2.1691377070e+000	 3.5027429007e+000	-5.0862736089e-001
 2.1308557258e+000	 3.5261623285e+000	-5.0196642008e-001
 2.0923720185e+000	 3.5491332582e+000	-5.0383383095e-001
 2.0536943212e+000	 3.5716533702e+000	-5.1607189951e-001
 2.0148303973e+000	 3.5937205195e+000	-5.4055236127e-001
 2.4096617637e+000	 3.3746628075e+000	-6.2547691402e-001
 2.3725115475e+000	 3.4008834061e+000	-6.0645831238e-001
 2.3351124290e+000	 3.4266702800e+000	-5.8478725849e-001
 2.2974719282e+000	 3.4520200502e+000	-5.6203974947e-001
 2.2595976213e+000	 3.4769295092e+000	-5.3983570339e-001
 2.2214971365e+000	 3.5013956229e+000	-5.1983973904e-001
 2.1831781488e+000	 3.5254155314e+000	-5.0376084671e-001
 2.1446483752e+000	 3.5489865489e+000	-4.9335097641e-001
 2.1059155698e+000	 3.5721061654e+000	-4.9040258184e-001
 2.0669875186e+000	 3.5947720461e+000	-4.9674516789e-001
 2.0278720355e+000	 3.6169820321e+000	-5.1424089971e-001
 2.4251587656e+000	 3.3963659182e+000	-6.2434196671e-001
 2.3877696291e+000	 3.4227551465e+000	-6.0742268353e-001
 2.3501299897e+000	 3.4487078609e+000	-5.8694281934e-001
 2.3122474155e+000	 3.4742206603e+000	-5.6447688634e-001
 2.2741295316e+000	 3.4992903168e+000	-5.4164583221e-001
 2.2357840152e+000	 3.5239137769e+000	-5.2011777606e-001
 2.1972185907e+000	 3.5480881620e+000	-5.0160757826e-001
 2.1584410247e+000	 3.5718107694e+000	-4.8787527300e-001
 2.1194591210e+000	 3.5950790726e+000	-4.8072340397e-001
 2.0802807161e+000	 3.6178907219e+000	-4.8199331443e-001
 2.0409136736e+000	 3.6402435447e+000	-4.9356045285e-001
 2.4406557675e+000	 3.4180690289e+000	-6.2619727505e-001
 2.4030277108e+000	 3.4446268869e+000	-6.1135058187e-001
 2.3651475504e+000	 3.4707454417e+000	-5.9202051652e-001
 2.3270229028e+000	 3.4964212704e+000	-5.6981403166e-001
 2.2886614419e+000	 3.5216511245e+000	-5.4638555792e-001
 2.2500708939e+000	 3.5464319309e+000	-5.2343764601e-001
 2.2112590326e+000	 3.5707607927e+000	-5.0272038655e-001
 2.1722336741e+000	 3.5946349899e+000	-4.8602963861e-001
 2.1330026723e+000	 3.6180519798e+000	-4.7520411025e-001
 2.0935739135e+000	 3.6410093978e+000	-4.7212134541e-001
 2.0539553118e+000	 3.6635050572e+000	-4.7869268192e-001
 1.9235389302e+000	 3.4308899314e+000	-7.0512664563e-001
 1.8862711687e+000	 3.4515198418e+000	-6.8026716795e-001
 1.8488405507e+000	 3.4717138517e+000	-6.3512500741e-001
 1.8112545366e+000	 3.4914704169e+000	-5.7534224154e-001
 1.7735205942e+000	 3.5107881589e+000	-5.0648057267e-001
 1.7356461945e+000	 3.5296658649e+000	-4.3398787141e-001
 1.6976388070e+000	 3.5481024868e+000	-3.6316794430e-001
 1.6595058954e+000	 3.5660971407e+000	-2.9915345187e-001
 1.6212549131e+000	 3.5836491053e+000	-2.4688188557e-001
 1.5828932993e+000	 3.6007578216e+000	-2.1107449706e-001
 1.5444284742e+000	 3.6174228910e+000	-1.9621805935e-001
 1.9365805684e+000	 3.4541514439e+000	-6.9912555382e-001
 1.8990601306e+000	 3.4749212257e+000	-6.7958141828e-001
 1.8613757321e+000	 3.4952521515e+000	-6.3761017450e-001
 1.8235348839e+000	 3.5151426665e+000	-5.7935160890e-001
 1.7855451046e+000	 3.5345913833e+000	-5.1083423157e-001
 1.7474139156e+000	 3.5535970806e+000	-4.3794128383e-001
 1.7091488371e+000	 3.5721587033e+000	-3.6638013758e-001
 1.6707573835e+000	 3.5902753613e+000	-3.0165500369e-001
 1.6322470587e+000	 3.6079463286e+000	-2.4904284844e-001
 1.5936253522e+000	 3.6251710424e+000	-2.1357240163e-001
 1.5548997347e+000	 3.6419491014e+000	-2.0000612545e-001
 1.9496222066e+000	 3.4774129565e+000	-6.8493206805e-001
 1.9118490925e+000	 3.4983226095e+000	-6.7206608827e-001
 1.8739109136e+000	 3.5187904512e+000	-6.3460046565e-001
 1.8358152313e+000	 3.5388149162e+000	-5.7913112961e-001
 1.7975696150e+000	 3.5583946077e+000	-5.1211277331e-001
 1.7591816367e+000	 3.5775282962e+000	-4.3982441107e-001
 1.7206588672e+000	 3.5962149197e+000	-3.6833849539e-001
 1.6820088716e+000	 3.6144535818e+000	-3.0349350166e-001
 1.6432392043e+000	 3.6322435519e+000	-2.5086986957e-001
 1.6043574052e+000	 3.6495842632e+000	-2.1576917419e-001
 1.5653709953e+000	 3.6664753117e+000	-2.0319638532e-001
 1.9626638447e+000	 3.5006744691e+000	-6.6387591919e-001
 1.9246380543e+000	 3.5217239934e+000	-6.5885799172e-001
 1.8864460950e+000	 3.5423287509e+000	-6.2706472408e-001
 1.8480955787e+000	 3.5624871659e+000	-5.7550710077e-001
 1.8095941253e+000	 3.5821978321e+000	-5.1102580117e-001
 1.7709493578e+000	 3.6014595119e+000	-4.4025639418e-001
 1.7321688974e+000	 3.6202711361e+000	-3.6959826119e-001
 1.6932603597e+000	 3.6386318024e+000	-3.0518714520e-001
 1.6542313498e+000	 3.6565407752e+000	-2.5287120478e-001
 1.6150894581e+000	 3.6739974839e+000	-2.1819043485e-001
 1.5758422558e+000	 3.6910015221e+000	-2.0635930144e-001
 1.9757054829e+000	 3.5239359817e+000	-6.3724570372e-001
 1.9374270162e+000	 3.5451253772e+000	-6.4106004478e-001
 1.8989812764e+000	 3.5658670506e+000	-6.1594474370e-001
 1.8603759261e+000	 3.5861594156e+000	-5.6928519628e-001
 1.8216186357e+000	 3.6060010565e+000	-5.0826826505e-001
 1.7827170788e+000	 3.6253907276e+000	-4.3984720088e-001
 1.7436789275e+000	 3.6443273525e+000	-3.7071046200e-001
 1.7045118478e+000	 3.6628100230e+000	-3.0725431798e-001
 1.6652234954e+000	 3.6808379985e+000	-2.5555910623e-001
 1.6258215111e+000	 3.6984107047e+000	-2.2136899146e-001
 1.5863135164e+000	 3.7155277324e+000	-2.1007506333e-001
 1.9887471210e+000	 3.5471974943e+000	-6.0628474177e-001
 1.9502159781e+000	 3.5685267611e+000	-6.1973705527e-001
 1.9115164578e+000	 3.5894053503e+000	-6.0215101073e-001
 1.8726562735e+000	 3.6098316652e+000	-5.6124618191e-001
 1.8336431461e+000	 3.6298042809e+000	-5.0451617194e-001
 1.7944847999e+000	 3.6493219433e+000	-4.3919335344e-001
 1.7551889576e+000	 3.6683835689e+000	-3.7221767611e-001
 1.7157633359e+000	 3.6869882436e+000	-3.1020941834e-001
 1.6762156410e+000	 3.7051352218e+000	-2.5944573854e-001
 1.6365535640e+000	 3.7228239255e+000	-2.2584086478e-001
 1.5967847769e+000	 3.7400539428e+000	-2.1492974546e-001
 2.0017887592e+000	 3.5704590069e+000	-5.7225428405e-001
 1.9630049400e+000	 3.5919281449e+000	-5.9591153626e-001
 1.9240516393e+000	 3.6129436500e+000	-5.8655847491e-001
 1.8849366209e+000	 3.6335039149e+000	-5.5214166490e-001
 1.8456676565e+000	 3.6536075053e+000	-5.0042233472e-001
 1.8062525210e+000	 3.6732531590e+000	-4.3887369804e-001
 1.7666989878e+000	 3.6924397853e+000	-3.7464984475e-001
 1.7270148240e+000	 3.7111664641e+000	-3.1455873512e-001
 1.6872077866e+000	 3.7294324451e+000	-2.6503914102e-001
 1.6472856170e+000	 3.7472371463e+000	-2.3214135967e-001
 1.6072560375e+000	 3.7645801531e+000	-2.2151151002e-001
 2.0148303973e+000	 3.5937205195e+000	-5.4055236127e-001
 1.9757939018e+000	 3.6153295288e+000	-5.7055954276e-001
 1.9365868207e+000	 3.6364819497e+000	-5.7000234910e-001
 1.8972169683e+000	 3.6571761646e+000	-5.4268987631e-001
 1.8576921669e+000	 3.6774107297e+000	-4.9661215758e-001
 1.8180202421e+000	 3.6971843747e+000	-4.3944521392e-001
 1.7782090179e+000	 3.7164960017e+000	-3.7852012570e-001
 1.7382663121e+000	 3.7353446847e+000	-3.2079636701e-001
 1.6981999321e+000	 3.7537296684e+000	-2.7283923414e-001
 1.6580176699e+000	 3.7716503671e+000	-2.4080118024e-001
 1.6177272980e+000	 3.7891063634e+000	-2.3040685264e-001
 2.0278720355e+000	 3.6169820321e+000	-5.1424089971e-001
 1.9885828637e+000	 3.6387309127e+000	-5.4460653048e-001
 1.9491220021e+000	 3.6600202494e+000	-5.5327393593e-001
 1.9094973156e+000	 3.6808484143e+000	-5.3357148480e-001
 1.8697166773e+000	 3.7012139541e+000	-4.9367945651e-001
 1.8297879632e+000	 3.7211155904e+000	-4.4143886034e-001
 1.7897190480e+000	 3.7405522181e+000	-3.8432078696e-001
 1.7495178002e+000	 3.7595229053e+000	-3.2940018324e-001
 1.7091920777e+000	 3.7780268917e+000	-2.8333386798e-001
 1.6687497229e+000	 3.7960635879e+000	-2.5234258691e-001
 1.6281985585e+000	 3.8136325738e+000	-2.4219688913e-001
 2.0409136736e+000	 3.6402435447e+000	-4.9356045285e-001
 2.0013718256e+000	 3.6621322965e+000	-5.1895727179e-001
 1.9616571835e+000	 3.6835585491e+000	-5.3711648029e-001
 1.9217776630e+000	 3.7045206639e+000	-5.2542544031e-001
 1.8817411877e+000	 3.7250171785e+000	-4.9218231309e-001
 1.8415556843e+000	 3.7450468061e+000	-4.4535545971e-001
 1.8012290781e+000	 3.7646084345e+000	-3.9251913870e-001
 1.7607692884e+000	 3.7837011259e+000	-3.4082782404e-001
 1.7201842233e+000	 3.8023241150e+000	-2.9699491099e-001
 1.6794817758e+000	 3.8204768087e+000	-2.6727559361e-001
 1.6386698191e+000	 3.8381587841e+000	-2.5745368132e-001
 2.0539553118e+000	 3.6635050572e+000	-4.7869268192e-001
 2.0141607875e+000	 3.6855336804e+000	-4.9779521984e-001
 1.9741923649e+000	 3.7070968488e+000	-5.2222104647e-001
 1.9340580104e+000	 3.7281929136e+000	-5.1884484647e-001
 1.8937656981e+000	 3.7488204029e+000	-4.9263896035e-001
 1.8533234054e+000	 3.7689780217e+000	-4.5166161542e-001
 1.8127391083e+000	 3.7886646509e+000	-4.0355350175e-001
 1.7720207765e+000	 3.8078793464e+000	-3.5551273882e-001
 1.7311763688e+000	 3.8266213383e+000	-3.1427437711e-001
 1.6902138288e+000	 3.8448900295e+000	-2.8609420322e-001
 1.6491410796e+000	 3.8626849945e+000	-2.7673660042e-001
 1.5444284742e+000	 3.6174228910e+000	-1.9621805935e-001
 1.5058620440e+000	 3.6336464752e+000	-1.9349047841e-001
 1.4672071469e+000	 3.6494259619e+000	-1.9436804307e-001
 1.4284711273e+000	 3.6647614292e+000	-2.0325094558e-001
 1.3896612948e+000	 3.6796531097e+000	-2.2407083788e-001
 1.3507849198e+000	 3.6941013890e+000	-2.6028612728e-001
 1.3118492302e+000	 3.7081068035e+000	-3.0656207529e-001
 1.2728614074e+000	 3.7216700388e+000	-3.2704974156e-001
 1.2338285827e+000	 3.7347919268e+000	-3.2442480180e-001
 1.1947578341e+000	 3.7474734443e+000	-3.0630728652e-001
 1.1556561824e+000	 3.7597157100e+000	-2.7947311422e-001
 1.5548997347e+000	 3.6419491014e+000	-2.0000612545e-001
 1.5160718233e+000	 3.6582826818e+000	-1.9836931218e-001
 1.4771548451e+000	 3.6741691538e+000	-1.9864112299e-001
 1.4381561944e+000	 3.6896085959e+000	-2.0496187180e-001
 1.3990832303e+000	 3.7046012423e+000	-2.2100937616e-001
 1.3599432726e+000	 3.7191474813e+000	-2.4999510191e-001
 1.3207435981e+000	 3.7332478529e+000	-2.9202932859e-001
 1.2814914370e+000	 3.7469030472e+000	-3.1444535844e-001
 1.2421939689e+000	 3.7601139019e+000	-3.1315010029e-001
 1.2028583196e+000	 3.7728814004e+000	-2.9561130191e-001
 1.1634915578e+000	 3.7852066689e+000	-2.6843559318e-001
 1.5653709953e+000	 3.6664753117e+000	-2.0319638532e-001
 1.5262816025e+000	 3.6829188884e+000	-2.0223220235e-001
 1.4871025432e+000	 3.6989123457e+000	-2.0158659739e-001
 1.4478412615e+000	 3.7144557626e+000	-2.0513918339e-001
 1.4085051658e+000	 3.7295493750e+000	-2.1631521474e-001
 1.3691016254e+000	 3.7441935736e+000	-2.3808259933e-001
 1.3296379661e+000	 3.7583889022e+000	-2.7274502210e-001
 1.2901214666e+000	 3.7721360556e+000	-2.9568295486e-001
 1.2505593550e+000	 3.7854358770e+000	-2.9438714784e-001
 1.2109588052e+000	 3.7982893564e+000	-2.7616399565e-001
 1.1713269333e+000	 3.8106976279e+000	-2.4744270754e-001
 1.5758422558e+000	 3.6910015221e+000	-2.0635930144e-001
 1.5364913818e+000	 3.7075550951e+000	-2.0572516617e-001
 1.4970502414e+000	 3.7236555376e+000	-2.0395955473e-001
 1.4575263286e+000	 3.7393029293e+000	-2.0468005787e-001
 1.4179271013e+000	 3.7544975076e+000	-2.1106011144e-001
 1.3782599782e+000	 3.7692396659e+000	-2.2582689714e-001
 1.3385323340e+000	 3.7835299516e+000	-2.5126147708e-001
 1.2987514962e+000	 3.7973690640e+000	-2.7325035743e-001
 1.2589247412e+000	 3.8107578521e+000	-2.7097359623e-001
 1.2190592908e+000	 3.8236973125e+000	-2.5117948675e-001
 1.1791623088e+000	 3.8361885868e+000	-2.2010959675e-001
 1.5863135164e+000	 3.7155277324e+000	-2.1007506333e-001
 1.5467011611e+000	 3.7321913017e+000	-2.0950572332e-001
 1.5069979396e+000	 3.7483987295e+000	-2.0652749533e-001
 1.4672113956e+000	 3.7641500960e+000	-2.0449411418e-001
 1.4273490369e+000	 3.7794456403e+000	-2.0632740197e-001
 1.3874183310e+000	 3.7942857582e+000	-2.1451608200e-001
 1.3474267019e+000	 3.8086710009e+000	-2.3111681407e-001
 1.3073815258e+000	 3.8226020724e+000	-2.4960206433e-001
 1.2672901273e+000	 3.8360798272e+000	-2.4571555920e-001
 1.2271597764e+000	 3.8491052686e+000	-2.2384129204e-001
 1.1869976843e+000	 3.8616795457e+000	-1.9002082999e-001
 1.5967847769e+000	 3.7400539428e+000	-2.1492974546e-001
 1.5569109403e+000	 3.7568275083e+000	-2.1423921289e-001
 1.5169456378e+000	 3.7731419214e+000	-2.1006683662e-001
 1.4768964627e+000	 3.7889972628e+000	-2.0550013482e-001
 1.4367709724e+000	 3.8043937729e+000	-2.0320896734e-001
 1.3965766838e+000	 3.8193318505e+000	-2.0544529039e-001
 1.3563210699e+000	 3.8338120503e+000	-2.1404511577e-001
 1.3160115554e+000	 3.8478350808e+000	-2.2715374991e-001
 1.2756555135e+000	 3.8614018023e+000	-2.2138260206e-001
 1.2352602619e+000	 3.8745132247e+000	-1.9729783060e-001
 1.1948330598e+000	 3.8871705046e+000	-1.6072645425e-001
 1.6072560375e+000	 3.7645801531e+000	-2.2151151002e-001
 1.5671207196e+000	 3.7814637149e+000	-2.2059515331e-001
 1.5268933359e+000	 3.7978851133e+000	-2.1535945805e-001
 1.4865815298e+000	 3.8138444295e+000	-2.0862282341e-001
 1.4461929079e+000	 3.8293419056e+000	-2.0280223139e-001
 1.4057350366e+000	 3.8443779429e+000	-1.9991397291e-001
 1.3652154378e+000	 3.8589530996e+000	-2.0157655749e-001
 1.3246415850e+000	 3.8730680892e+000	-2.0827677639e-001
 1.2840208996e+000	 3.8867237774e+000	-2.0070272862e-001
 1.2433607475e+000	 3.8999211807e+000	-1.7465791465e-001
 1.2026684352e+000	 3.9126614635e+000	-1.3573801695e-001
 1.6177272980e+000	 3.7891063634e+000	-2.3040685264e-001
 1.5773304989e+000	 3.8060999215e+000	-2.2924364319e-001
 1.5368410341e+000	 3.8226283052e+000	-2.2318928392e-001
 1.4962665968e+000	 3.8386915962e+000	-2.1478959602e-001
 1.4556148434e+000	 3.8542900382e+000	-2.0620718674e-001
 1.4148933894e+000	 3.8694240352e+000	-1.9922318087e-001
 1.3741098057e+000	 3.8840941490e+000	-1.9524111035e-001
 1.3332716146e+000	 3.8983010976e+000	-1.9529271220e-001
 1.2923862858e+000	 3.9120457525e+000	-1.8635736535e-001
 1.2514612331e+000	 3.9253291368e+000	-1.5898622724e-001
 1.2105038107e+000	 3.9381524225e+000	-1.1852456397e-001
 1.6281985585e+000	 3.8136325738e+000	-2.4219688913e-001
 1.5875402781e+000	 3.8307361281e+000	-2.4085180128e-001
 1.5467887323e+000	 3.8473714971e+000	-2.3433890241e-001
 1.5059516639e+000	 3.8635387629e+000	-2.2492740479e-001
 1.4650367789e+000	 3.8792381709e+000	-2.1452344823e-001
 1.4240517422e+000	 3.8944701275e+000	-2.0467287424e-001
 1.3830041737e+000	 3.9092351983e+000	-1.9656612826e-001
 1.3419016441e+000	 3.9235341059e+000	-1.9104503618e-001
 1.3007516719e+000	 3.9373677276e+000	-1.8097634316e-001
 1.2595617187e+000	 3.9507370929e+000	-1.5329878765e-001
 1.2183391862e+000	 3.9636433814e+000	-1.1250861434e-001
 1.6386698191e+000	 3.8381587841e+000	-2.5745368132e-001
 1.5977500574e+000	 3.8553723347e+000	-2.5608024381e-001
 1.5567364305e+000	 3.8721146890e+000	-2.4958621919e-001
 1.5156367310e+000	 3.8883859296e+000	-2.3995959233e-001
 1.4744587144e+000	 3.9041863035e+000	-2.2884733239e-001
 1.4332100950e+000	 3.9195162198e+000	-2.1755925010e-001
 1.3918985416e+000	 3.9343762477e+000	-2.0707394885e-001
 1.3505316737e+000	 3.9487671143e+000	-1.9804660374e-001
 1.3091170580e+000	 3.9626897027e+000	-1.8713287671e-001
 1.2676622042e+000	 3.9761450490e+000	-1.6055840472e-001
 1.2261745617e+000	 3.9891343403e+000	-1.2106211257e-001
 1.6491410796e+000	 3.8626849945e+000	-2.7673660042e-001
 1.6079598367e+000	 3.8800085414e+000	-2.7557959746e-001
 1.5666841286e+000	 3.8968578809e+000	-2.6970114405e-001
 1.5253217981e+000	 3.9132330963e+000	-2.6080277565e-001
 1.4838806500e+000	 3.9291344362e+000	-2.5026896180e-001
 1.4423684478e+000	 3.9445623121e+000	-2.3917209049e-001
 1.4007929095e+000	 3.9595172970e+000	-2.2827950736e-001
 1.3591617033e+000	 3.9740001227e+000	-2.1806233181e-001
 1.3174824442e+000	 3.9880116778e+000	-2.0733854141e-001
 1.2757626898e+000	 4.0015530051e+000	-1.8366776308e-001
 1.2340099371e+000	 4.0146252992e+000	-1.4712796019e-001
 1.1556561824e+000	 3.7597157100e+000	-2.7947311422e-001
 1.1165305877e+000	 3.7715199817e+000	-2.4607157460e-001
 1.0773879445e+000	 3.7828876505e+000	-2.0669442933e-001
 1.0382350804e+000	 3.7938202414e+000	-1.6459288001e-001
 9.9907875321e-001	 3.8043194115e+000	-1.2230480295e-001
 9.5992564888e-001	 3.8143869472e+000	-8.1639661978e-002
 9.2078237802e-001	 3.8240247614e+000	-4.3726821665e-002
 8.8165547354e-001	 3.8332348909e+000	-9.0149562235e-003
 8.4255138799e-001	 3.8420194933e+000	 2.2700420218e-002
 8.0347649112e-001	 3.8503808439e+000	 5.2251132936e-002
 7.6443706755e-001	 3.8583213333e+000	 8.1068411569e-002
 1.1634915578e+000	 3.7852066689e+000	-2.6843559318e-001
 1.1241006908e+000	 3.7970909739e+000	-2.3470006545e-001
 1.0846926596e+000	 3.8085357157e+000	-1.9594908633e-001
 1.0452743381e+000	 3.8195424299e+000	-1.5529194221e-001
 1.0058525301e+000	 3.8301127846e+000	-1.1512768065e-001
 9.6643396684e-001	 3.8402485784e+000	-7.7137155656e-002
 9.2702530371e-001	 3.8499517372e+000	-4.2330193071e-002
 8.8763311792e-001	 3.8592243116e+000	-1.1051470090e-002
 8.4826390576e-001	 3.8680684737e+000	 1.6989136877e-002
 8.0892408020e-001	 3.8764865146e+000	 4.2687367290e-002
 7.6961996844e-001	 3.8844808406e+000	 6.7513430073e-002
 1.1713269333e+000	 3.8106976279e+000	-2.4744270754e-001
 1.1316707938e+000	 3.8226619660e+000	-2.1226318274e-001
 1.0919973746e+000	 3.8341837809e+000	-1.7316644683e-001
 1.0523135958e+000	 3.8452646183e+000	-1.3312379875e-001
 1.0126263070e+000	 3.8559061576e+000	-9.4391357928e-002
 9.7294228481e-001	 3.8661102095e+000	-5.8535325583e-002
 9.3326822940e-001	 3.8758787129e+000	-2.6426400731e-002
 8.9361076229e-001	 3.8852137322e+000	 1.6955055374e-003
 8.5397642354e-001	 3.8941174542e+000	 2.6213981586e-002
 8.1437166927e-001	 3.9025921852e+000	 4.8098061592e-002
 7.7480286933e-001	 3.9106403479e+000	 6.8867615901e-002
 1.1791623088e+000	 3.8361885868e+000	-2.2010959675e-001
 1.1392408968e+000	 3.8482329582e+000	-1.8276370167e-001
 1.0993020896e+000	 3.8598318461e+000	-1.4268552311e-001
 1.0593528535e+000	 3.8709868067e+000	-1.0271010358e-001
 1.0194000839e+000	 3.8816995307e+000	-6.4955635019e-002
 9.7945060277e-001	 3.8919718407e+000	-3.0851812417e-002
 9.3951115509e-001	 3.9018056887e+000	-1.1423635966e-003
 8.9958840667e-001	 3.9112031529e+000	 2.4051504720e-002
 8.5968894132e-001	 3.9201664347e+000	 4.5216499484e-002
 8.1981925835e-001	 3.9286978558e+000	 6.3406057689e-002
 7.7998577022e-001	 3.9367998552e+000	 8.0202014232e-002
 1.1869976843e+000	 3.8616795457e+000	-1.9002082999e-001
 1.1468109999e+000	 3.8738039503e+000	-1.5017385167e-001
 1.1066068046e+000	 3.8854799114e+000	-1.0881569767e-001
 1.0663921112e+000	 3.8967089952e+000	-6.8644641776e-002
 1.0261738609e+000	 3.9074929037e+000	-3.1637652339e-002
 9.8595892073e-001	 3.9178334719e+000	 9.1774285071e-004
 9.4575408077e-001	 3.9277326645e+000	 2.8412985863e-002
 9.0556605105e-001	 3.9371925736e+000	 5.0855378366e-002
 8.6540145909e-001	 3.9462154151e+000	 6.8846273166e-002
 8.2526684743e-001	 3.9548035264e+000	 8.3536391857e-002
 7.8516867111e-001	 3.9629593625e+000	 9.6583503380e-002
 1.1948330598e+000	 3.8871705046e+000	-1.6072645425e-001
 1.1543811029e+000	 3.8993749425e+000	-1.1843190518e-001
 1.1139115197e+000	 3.9111279766e+000	-7.5833817386e-002
 1.0734313689e+000	 3.9224311836e+000	-3.5490892823e-002
 1.0329476378e+000	 3.9332862767e+000	 7.6665564436e-004
 9.9246723870e-001	 3.9436951030e+000	 3.1801310262e-002
 9.5199700646e-001	 3.9536596403e+000	 5.7149958560e-002
 9.1154369542e-001	 3.9631819942e+000	 7.6960236701e-002
 8.7111397687e-001	 3.9722643956e+000	 9.1961591591e-002
 8.3071443651e-001	 3.9809091970e+000	 1.0341673179e-001
 7.9035157200e-001	 3.9891188698e+000	 1.1307504223e-001
 1.2026684352e+000	 3.9126614635e+000	-1.3573801695e-001
 1.1619512060e+000	 3.9249459346e+000	-9.1438728908e-002
 1.1212162347e+000	 3.9367760418e+000	-4.7981239635e-002
 1.0804706266e+000	 3.9481533720e+000	-7.7795367622e-003
 1.0397214147e+000	 3.9590796498e+000	 2.7490738983e-002
 9.9897555666e-001	 3.9695567342e+000	 5.6852153168e-002
 9.5823993215e-001	 3.9795866160e+000	 7.9999441448e-002
 9.1752133979e-001	 3.9891714149e+000	 9.7234470921e-002
 8.7682649465e-001	 3.9983133761e+000	 1.0943020015e-001
 8.3616202558e-001	 4.0070148676e+000	 1.1818663164e-001
 7.9553447288e-001	 4.0152783771e+000	 1.2576407529e-001
 1.2105038107e+000	 3.9381524225e+000	-1.1852456397e-001
 1.1695213090e+000	 3.9505169268e+000	-7.3054299333e-002
 1.1285209497e+000	 3.9624241070e+000	-2.9460832725e-002
 1.0875098843e+000	 3.9738755604e+000	 9.9940939923e-003
 1.0464951916e+000	 3.9848730228e+000	 4.3799563602e-002
 1.0054838746e+000	 3.9954183654e+000	 7.1150578213e-002
 9.6448285783e-001	 4.0055135918e+000	 9.2024709613e-002
 9.2349898417e-001	 4.0151608355e+000	 1.0750021521e-001
 8.8253901242e-001	 4.0243623565e+000	 1.1875209772e-001
 8.4160961466e-001	 4.0331205382e+000	 1.2724292280e-001
 8.0071737377e-001	 4.0414378845e+000	 1.3474514357e-001
 1.2183391862e+000	 3.9636433814e+000	-1.1250861434e-001
 1.1770914121e+000	 3.9760879189e+000	-6.7094184024e-002
 1.1358256647e+000	 3.9880721722e+000	-2.4433932625e-002
 1.0945491420e+000	 3.9995977489e+000	 1.3372614818e-002
 1.0532689685e+000	 4.0106663959e+000	 4.5348240811e-002
 1.0119921926e+000	 4.0212799965e+000	 7.1492501352e-002
 9.7072578352e-001	 4.0314405676e+000	 9.2038577410e-002
 9.2947662854e-001	 4.0411502562e+000	 1.0765981974e-001
 8.8825153020e-001	 4.0504113370e+000	 1.1939593426e-001
 8.4705720374e-001	 4.0592262089e+000	 1.2861921174e-001
 8.0590027466e-001	 4.0675973918e+000	 1.3698945713e-001
 1.2261745617e+000	 3.9891343403e+000	-1.2106211257e-001
 1.1846615151e+000	 4.0016589111e+000	-7.7321173439e-002
 1.1431303798e+000	 4.0137202374e+000	-3.6548646813e-002
 1.1015883997e+000	 4.0253199373e+000	-2.1157177917e-005
 1.0600427454e+000	 4.0364597689e+000	 3.1467074959e-002
 1.0185005105e+000	 4.0471416277e+000	 5.7650240123e-002
 9.7696870920e-001	 4.0573675433e+000	 7.8723571014e-002
 9.3545427291e-001	 4.0671396769e+000	 9.5299502749e-002
 8.9396404797e-001	 4.0764603175e+000	 1.0833735966e-001
 8.5250479281e-001	 4.0853318795e+000	 1.1910800057e-001
 8.1108317555e-001	 4.0937568991e+000	 1.2914979151e-001
 1.2340099371e+000	 4.0146252992e+000	-1.4712796019e-001
 1.1922316182e+000	 4.0272299033e+000	-1.0560668635e-001
 1.1504350948e+000	 4.0393683026e+000	-6.6274464307e-002
 1.1086276574e+000	 4.0510421257e+000	-3.0520047651e-002
 1.0668165223e+000	 4.0622531420e+000	 8.4568357546e-004
 1.0250088285e+000	 4.0730032589e+000	 2.7520139400e-002
 9.8321163488e-001	 4.0832945191e+000	 4.9642624158e-002
 9.4143191729e-001	 4.0931290975e+000	 6.7748775650e-002
 8.9967656574e-001	 4.1025092979e+000	 8.2703725868e-002
 8.5795238189e-001	 4.1114375501e+000	 9.5665503906e-002
 8.1626607643e-001	 4.1199164064e+000	 1.0804201831e-001
 7.6443706755e-001	 3.8583213333e+000	 8.1068411569e-002
 7.2544515898e-001	 3.8658423669e+000	 9.2740003247e-002
 6.8650100458e-001	 3.8729477800e+000	 7.3108989305e-002
 6.4761060921e-001	 3.8796402911e+000	 3.2333249588e-002
 6.0877988461e-001	 3.8859227212e+000	 6.2293563381e-004
 5.7001464758e-001	 3.8917979905e+000	-1.8726955501e-002
 5.3132061837e-001	 3.8972691155e+000	-2.6162013667e-002
 4.9270341909e-001	 3.9023392051e+000	-2.0817985946e-002
 4.5416857227e-001	 3.9070114582e+000	-5.9603953974e-004
 4.1572149954e-001	 3.9112891599e+000	 3.7756058117e-002
 3.7736752037e-001	 3.9151756786e+000	 9.8559434481e-002
 7.6961996844e-001	 3.8844808406e+000	 6.7513430073e-002
 7.3036369383e-001	 3.8920528670e+000	 7.7132542390e-002
 6.9115549717e-001	 3.8992064550e+000	 5.9249141013e-002
 6.5200142403e-001	 3.9059443414e+000	 2.1578353436e-002
 6.1290742622e-001	 3.9122693665e+000	-9.0546962543e-003
 5.7387935999e-001	 3.9181844704e+000	-2.7814186059e-002
 5.3492298437e-001	 3.9236926896e+000	-3.5367008239e-002
 4.9604395959e-001	 3.9287971546e+000	-3.1078350980e-002
 4.5724784563e-001	 3.9335010856e+000	-1.3101242693e-002
 4.1854010086e-001	 3.9378077903e+000	 2.1528637434e-002
 3.7992608084e-001	 3.9417206597e+000	 7.6795583119e-002
 7.7480286933e-001	 3.9106403479e+000	 6.8867615901e-002
 7.3528222869e-001	 3.9182633671e+000	 7.6136889502e-002
 6.9580998976e-001	 3.9254651299e+000	 5.9352406742e-002
 6.5639223885e-001	 3.9322483918e+000	 2.4612311386e-002
 6.1703496783e-001	 3.9386160119e+000	-5.1885230641e-003
 5.7774407240e-001	 3.9445709502e+000	-2.3702699542e-002
 5.3852535038e-001	 3.9501162638e+000	-3.1699017926e-002
 4.9938450010e-001	 3.9552551041e+000	-2.8653666470e-002
 4.6032711899e-001	 3.9599907131e+000	-1.2855010007e-002
 4.2135870218e-001	 3.9643264207e+000	 1.8487055095e-002
 3.8248464130e-001	 3.9682656408e+000	 6.9129991483e-002
 7.7998577022e-001	 3.9367998552e+000	 8.0202014232e-002
 7.4020076354e-001	 3.9444738672e+000	 8.5041213276e-002
 7.0046448236e-001	 3.9517238049e+000	 6.8994787863e-002
 6.6078305366e-001	 3.9585524421e+000	 3.7181677826e-002
 6.2116250944e-001	 3.9649626573e+000	 8.3609951070e-003
 5.8160878482e-001	 3.9709574300e+000	-9.7671145199e-003
 5.4212771638e-001	 3.9765398380e+000	-1.7947889705e-002
 5.0272504061e-001	 3.9817130536e+000	-1.5644243241e-002
 4.6340639235e-001	 3.9864803406e+000	-1.1577859504e-003
 4.2417730350e-001	 3.9908450511e+000	 2.8246332597e-002
 3.8504320176e-001	 3.9948106218e+000	 7.6213694387e-002
 7.8516867111e-001	 3.9629593625e+000	 9.6583503380e-002
 7.4511929839e-001	 3.9706843673e+000	 9.9122667098e-002
 7.0511897495e-001	 3.9779824798e+000	 8.3733967090e-002
 6.6517386848e-001	 3.9848564924e+000	 5.5022468344e-002
 6.2529005105e-001	 3.9913093026e+000	 2.7703344502e-002
 5.8547349723e-001	 3.9973439098e+000	 1.0568710382e-002
 5.4573008239e-001	 4.0029634122e+000	 3.0513220373e-003
 5.0606558111e-001	 4.0081710031e+000	 5.8619110079e-003
 4.6648566571e-001	 4.0129699681e+000	 2.0571716319e-002
 4.2699590482e-001	 4.0173636815e+000	 4.9648171700e-002
 3.8760176222e-001	 4.0213556029e+000	 9.6358884867e-002
 7.9035157200e-001	 3.9891188698e+000	 1.1307504223e-001
 7.5003783325e-001	 3.9968948674e+000	 1.1364749048e-001
 7.0977346754e-001	 4.0042411548e+000	 9.9184555378e-002
 6.6956468330e-001	 4.0111605428e+000	 7.4320390193e-002
 6.2941759266e-001	 4.0176559480e+000	 5.0070868016e-002
 5.8933820964e-001	 4.0237303896e+000	 3.5596393075e-002
 5.4933244839e-001	 4.0293869863e+000	 3.0255999506e-002
 5.0940612162e-001	 4.0346289526e+000	 3.4491933095e-002
 4.6956493906e-001	 4.0394595956e+000	 4.9731194515e-002
 4.2981450615e-001	 4.0438823119e+000	 7.8256881232e-002
 3.9016032268e-001	 4.0479005840e+000	 1.2309175524e-001
 7.9553447288e-001	 4.0152783771e+000	 1.2576407529e-001
 7.5495636810e-001	 4.0231053675e+000	 1.2623862939e-001
 7.1442796013e-001	 4.0304998298e+000	 1.1466425567e-001
 6.7395549811e-001	 4.0374645931e+000	 9.4911661341e-002
 6.3354513427e-001	 4.0440025933e+000	 7.5108849599e-002
 5.9320292205e-001	 4.0501168695e+000	 6.3947600982e-002
 5.5293481440e-001	 4.0558105605e+000	 6.0993433666e-002
 5.1274666212e-001	 4.0610869021e+000	 6.6648276992e-002
 4.7264421242e-001	 4.0659492230e+000	 8.2233536562e-002
 4.3263310747e-001	 4.0704009423e+000	 1.0986454555e-001
 3.9271888314e-001	 4.0744455651e+000	 1.5233731871e-001
 8.0071737377e-001	 4.0414378845e+000	 1.3474514357e-001
 7.5987490295e-001	 4.0493158676e+000	 1.3642778648e-001
 7.1908245272e-001	 4.0567585047e+000	 1.2828932309e-001
 6.7834631293e-001	 4.0637686435e+000	 1.1381065874e-001
 6.3767267588e-001	 4.0703492387e+000	 9.9027763753e-002
 5.9706763447e-001	 4.0765033493e+000	 9.1528903981e-002
 5.5653718040e-001	 4.0822341347e+000	 9.1137299915e-002
 5.1608720263e-001	 4.0875448516e+000	 9.8226900607e-002
 4.7572348578e-001	 4.0924388505e+000	 1.1402713191e-001
 4.3545170879e-001	 4.0969195727e+000	 1.4050062154e-001
 3.9527744361e-001	 4.1009905462e+000	 1.8023328827e-001
 8.0590027466e-001	 4.0675973918e+000	 1.3698945713e-001
 7.6479343780e-001	 4.0755263677e+000	 1.4063638476e-001
 7.2373694531e-001	 4.0830171797e+000	 1.3636963448e-001
 6.8273712774e-001	 4.0900726938e+000	 1.2728997137e-001
 6.4180021749e-001	 4.0966958841e+000	 1.1792921112e-001
 6.0093234688e-001	 4.1028898291e+000	 1.1439283900e-001
 5.6013954641e-001	 4.1086577088e+000	 1.1672262250e-001
 5.1942774314e-001	 4.1140028011e+000	 1.2527519792e-001
 4.7880275914e-001	 4.1189284780e+000	 1.4120001113e-001
 4.3827031011e-001	 4.1234382031e+000	 1.6632048974e-001
 3.9783600407e-001	 4.1275355273e+000	 2.0302762469e-001
 8.1108317555e-001	 4.0937568991e+000	 1.2914979151e-001
 7.6971197265e-001	 4.1017368678e+000	 1.3540992439e-001
 7.2839143789e-001	 4.1092758546e+000	 1.3537599583e-001
 6.8712794256e-001	 4.1163767441e+000	 1.3177793265e-001
 6.4592775910e-001	 4.1230425294e+000	 1.2808634966e-001
 6.0479705929e-001	 4.1292763089e+000	 1.2875771073e-001
 5.6374191241e-001	 4.1350812830e+000	 1.3394263070e-001
 5.2276828364e-001	 4.1404607506e+000	 1.4398938205e-001
 4.8188203250e-001	 4.1454181055e+000	 1.5997776905e-001
 4.4108891143e-001	 4.1499568335e+000	 1.8360392966e-001
 4.0039456453e-001	 4.1540805083e+000	 2.1707757510e-001
 8.1626607643e-001	 4.1199164064e+000	 1.0804201831e-001
 7.7463050750e-001	 4.1279473679e+000	 1.1745498250e-001
 7.3304593048e-001	 4.1355345296e+000	 1.2193684128e-001
 6.9151875737e-001	 4.1426807945e+000	 1.2385561441e-001
 6.5005530071e-001	 4.1493891748e+000	 1.2593979324e-001
 6.0866177170e-001	 4.1556627888e+000	 1.3100398053e-001
 5.6734427842e-001	 4.1615048572e+000	 1.3914565236e-001
 5.2610882415e-001	 4.1669187001e+000	 1.5071189647e-001
 4.8496130586e-001	 4.1719077330e+000	 1.6672150565e-001
 4.4390751276e-001	 4.1764754639e+000	 1.8875360128e-001
 4.0295312499e-001	 4.1806254894e+000	 2.1884870502e-001
 3.7736752037e-001	 3.9151756786e+000	 9.8559434481e-002
 3.3910613303e-001	 3.9186749587e+000	 1.5155131531e-001
 3.0094827830e-001	 3.9217899151e+000	 1.6811838477e-001
 2.6289904207e-001	 3.9245241489e+000	 1.5662233674e-001
 2.2496340183e-001	 3.9268813314e+000	 1.2640230993e-001
 1.8714622592e-001	 3.9288652011e+000	 8.7697383766e-002
 1.4945227300e-001	 3.9304795604e+000	 5.1576745367e-002
 1.1188619153e-001	 3.9317282725e+000	 2.9878649253e-002
 7.4452519382e-002	 3.9326152578e+000	 3.5159084556e-002
 3.7155683567e-002	 3.9331444916e+000	 8.0650863554e-002
 0.0000000000e+000	 3.9333200000e+000	 1.8023366059e-001
 3.7992608084e-001	 3.9417206597e+000	 7.6795583119e-002
 3.4140528040e-001	 3.9452436650e+000	 1.2418343953e-001
 3.0298871454e-001	 3.9483797409e+000	 1.3688464374e-001
 2.6468150362e-001	 3.9511325128e+000	 1.2290471058e-001
 2.2648865886e-001	 3.9535056771e+000	 9.1137735110e-002
 1.8841508163e-001	 3.9555029975e+000	 5.1280580308e-002
 1.5046556284e-001	 3.9571283022e+000	 1.3755903610e-002
 1.1264478248e-001	 3.9583854805e+000	-1.0354829128e-002
 7.4957309175e-002	 3.9592784797e+000	-9.3674113662e-003
 3.7407599955e-002	 3.9598113016e+000	 2.8960674444e-002
 0.0000000000e+000	 3.9599880000e+000	 1.1739798939e-001
 3.8248464130e-001	 3.9682656408e+000	 6.9129991483e-002
 3.4370442778e-001	 3.9718123712e+000	 1.1244451326e-001
 3.0502915079e-001	 3.9749695666e+000	 1.2352420958e-001
 2.6646396517e-001	 3.9777408767e+000	 1.1005336417e-001
 2.2801391590e-001	 3.9801300227e+000	 8.0508830947e-002
 1.8968393734e-001	 3.9821407938e+000	 4.4065458533e-002
 1.5147885269e-001	 3.9837770439e+000	 1.0511584053e-002
 1.1340337343e-001	 3.9850426886e+000	-9.8242279442e-003
 7.5462098967e-002	 3.9859417015e+000	-6.1342544279e-003
 3.7659516343e-002	 3.9864781117e+000	 3.2820234507e-002
 0.0000000000e+000	 3.9866560000e+000	 1.1867425985e-001
 3.8504320176e-001	 3.9948106218e+000	 7.6213694387e-002
 3.4600357516e-001	 3.9983810775e+000	 1.1813300126e-001
 3.0706958703e-001	 4.0015593924e+000	 1.3105955905e-001
 2.6824642672e-001	 4.0043492407e+000	 1.2218742046e-001
 2.2953917293e-001	 4.0067543684e+000	 9.9456925715e-002
 1.9095279306e-001	 4.0087785902e+000	 7.1459939222e-002
 1.5249214253e-001	 4.0104257857e+000	 4.7346192388e-002
 1.1416196437e-001	 4.0116998966e+000	 3.6754410205e-002
 7.5966888759e-002	 4.0126049233e+000	 4.9749702153e-002
 3.7911432732e-002	 4.0131449217e+000	 9.6766706641e-002
 0.0000000000e+000	 4.0133240000e+000	 1.8855802457e-001
 3.8760176222e-001	 4.0213556029e+000	 9.6358884867e-002
 3.4830272253e-001	 4.0249497838e+000	 1.3782697641e-001
 3.0911002327e-001	 4.0281492181e+000	 1.5280944361e-001
 2.7002888826e-001	 4.0309576046e+000	 1.4813690668e-001
 2.3106442997e-001	 4.0333787141e+000	 1.3130717383e-001
 1.9222164877e-001	 4.0354163865e+000	 1.1040496301e-001
 1.5350543238e-001	 4.0370745274e+000	 9.4028961258e-002
 1.1492055532e-001	 4.0383571047e+000	 9.1225608998e-002
 7.6471678551e-002	 4.0392681452e+000	 1.1142904144e-001
 3.8163349120e-002	 4.0398117318e+000	 1.6440666361e-001
 0.0000000000e+000	 4.0399920000e+000	 2.6020988431e-001
 3.9016032268e-001	 4.0479005840e+000	 1.2309175524e-001
 3.5060186991e-001	 4.0515184901e+000	 1.6325760076e-001
 3.1115045952e-001	 4.0547390439e+000	 1.7933365054e-001
 2.7181134981e-001	 4.0575659685e+000	 1.7770836089e-001
 2.3258968700e-001	 4.0600030598e+000	 1.6538919111e-001
 1.9349050448e-001	 4.0620541829e+000	 1.4992530630e-001
 1.5451872222e-001	 4.0637232692e+000	 1.3933752614e-001
 1.1567914627e-001	 4.0650143127e+000	 1.4205488803e-001
 7.6976468342e-002	 4.0659313670e+000	 1.6685724153e-001
 3.8415265508e-002	 4.0664785418e+000	 2.2282333824e-001
 0.0000000000e+000	 4.0666600000e+000	 3.1928393238e-001
 3.9271888314e-001	 4.0744455651e+000	 1.5233731871e-001
 3.5290101728e-001	 4.0780871964e+000	 1.9057291658e-001
 3.1319089576e-001	 4.0813288697e+000	 2.0693932042e-001
 2.7359381136e-001	 4.0841743324e+000	 2.0735167097e-001
 2.3411494403e-001	 4.0866274055e+000	 1.9829730295e-001
 1.9475936019e-001	 4.0886919793e+000	 1.8676159080e-001
 1.5553201207e-001	 4.0903720110e+000	 1.8016092888e-001
 1.1643773722e-001	 4.0916715208e+000	 1.8628219650e-001
 7.7481258134e-002	 4.0925945888e+000	 2.1322810895e-001
 3.8667181896e-002	 4.0931453519e+000	 2.6936790680e-001
 0.0000000000e+000	 4.0933280000e+000	 3.6329288908e-001
 3.9527744361e-001	 4.1009905462e+000	 1.8023328827e-001
 3.5520016466e-001	 4.1046559027e+000	 2.1603221217e-001
 3.1523133200e-001	 4.1079186954e+000	 2.3200756762e-001
 2.7537627290e-001	 4.1107826964e+000	 2.3356996015e-001
 2.3564020107e-001	 4.1132517511e+000	 2.2665685202e-001
 1.9602821590e-001	 4.1153297756e+000	 2.1766171555e-001
 1.5654530191e-001	 4.1170207527e+000	 2.1337018971e-001
 1.1719632817e-001	 4.1183287288e+000	 2.2090257143e-001
 7.7986047926e-002	 4.1192578107e+000	 2.4766202798e-001
 3.8919098284e-002	 4.1198121619e+000	 3.0128797060e-001
 0.0000000000e+000	 4.1199960000e+000	 3.8961408596e-001
 3.9783600407e-001	 4.1275355273e+000	 2.0302762469e-001
 3.5749931203e-001	 4.1312246089e+000	 2.3598767733e-001
 3.1727176825e-001	 4.1345085212e+000	 2.5099366931e-001
 2.7715873445e-001	 4.1373910603e+000	 2.5292033218e-001
 2.3716545810e-001	 4.1398760968e+000	 2.4712548890e-001
 1.9729707162e-001	 4.1419675720e+000	 2.3938268292e-001
 1.5755859176e-001	 4.1436694945e+000	 2.3582065827e-001
 1.1795491912e-001	 4.1449859369e+000	 2.4286900371e-001
 7.8490837717e-002	 4.1459210325e+000	 2.6720933196e-001
 3.9171014672e-002	 4.1464789720e+000	 3.1573142308e-001
 0.0000000000e+000	 4.1466640000e+000	 3.9549381931e-001
 4.0039456453e-001	 4.1540805083e+000	 2.1707757510e-001
 3.5979845941e-001	 4.1577933152e+000	 2.4688400492e-001
 3.1931220449e-001	 4.1610983469e+000	 2.6042721915e-001
 2.7894119600e-001	 4.1639994242e+000	 2.6201456619e-001
 2.3869071514e-001	 4.1665004425e+000	 2.5639439743e-001
 1.9856592733e-001	 4.1686053684e+000	 2.4869234341e-001
 1.5857188160e-001	 4.1703182362e+000	 2.4435426737e-001
 1.1871351007e-001	 4.1716431449e+000	 2.4909519024e-001
 7.8995627510e-002	 4.1725842543e+000	 2.6885354356e-001
 3.9422931060e-002	 4.1731457820e+000	 3.0975016805e-001
 0.0000000000e+000	 4.1733320000e+000	 3.7805153683e-001
 4.0295312499e-001	 4.1806254894e+000	 2.1884870502e-001
 3.6209760679e-001	 4.1843620215e+000	 2.4525797254e-001
 3.2135264073e-001	 4.1876881727e+000	 2.5691224733e-001
 2.8072365755e-001	 4.1906077882e+000	 2.5751976383e-001
 2.4021597217e-001	 4.1931247882e+000	 2.5118945750e-001
 1.9983478304e-001	 4.1952431647e+000	 2.4237106308e-001
 1.5958517145e-001	 4.1969669780e+000	 2.3580169380e-001
 1.1947210102e-001	 4.1983003530e+000	 2.3645817725e-001
 7.9500417302e-002	 4.1992474762e+000	 2.4951448978e-001
 3.9674847448e-002	 4.1998125921e+000	 2.8030369597e-001
 0.0000000000e+000	 4.2000000000e+000	 3.3428386479e-001
 4.2000000000e+000	 0.0000000000e+000	 5.0741986545e-001
 4.1998125921e+000	 3.9674847448e-002	 5.3979245389e-001
 4.1992474762e+000	 7.9500417302e-002	 5.6477506589e-001
 4.1983003530e+000	 1.1947210102e-001	 5.8276897922e-001
 4.1969669780e+000	 1.5958517145e-001	 5.9451587003e-001
 4.1952431647e+000	 1.9983478304e-001	 6.0105042978e-001
 4.1931247882e+000	 2.4021597217e-001	 6.0365077302e-001
 4.1906077882e+000	 2.8072365755e-001	 6.0378614431e-001
 4.1876881727e+000	 3.2135264073e-001	 6.0306137741e-001
 4.1843620215e+000	 3.6209760679e-001	 6.0315750470e-001
 4.1806254894e+000	 4.0295312499e-001	 6.0576786212e-001
 4.2266680000e+000	 0.0000000000e+000	 5.7319646221e-001
 4.2264794022e+000	 3.9926763837e-002	 5.9175662409e-001
 4.2259106980e+000	 8.0005207095e-002	 6.0555778321e-001
 4.2249575610e+000	 1.2023069197e-001	 6.1466777305e-001
 4.2236157197e+000	 1.6059846130e-001	 6.1947923295e-001
 4.2218809611e+000	 2.0110363876e-001	 6.2066474315e-001
 4.2197491339e+000	 2.4174122921e-001	 6.1913000739e-001
 4.2172161521e+000	 2.8250611909e-001	 6.1596457195e-001
 4.2142779985e+000	 3.2339307698e-001	 6.1238951148e-001
 4.2109307278e+000	 3.6439675416e-001	 6.0970145383e-001
 4.2071704705e+000	 4.0551168545e-001	 6.0921225912e-001
 4.2533360000e+000	 0.0000000000e+000	 6.2823038031e-001
 4.2531462122e+000	 4.0178680226e-002	 6.3547142738e-001
 4.2525739199e+000	 8.0509996888e-002	 6.4012585611e-001
 4.2516147691e+000	 1.2098928292e-001	 6.4197747172e-001
 4.2502644615e+000	 1.6161175114e-001	 6.4111923753e-001
 4.2485187574e+000	 2.0237249447e-001	 6.3791103421e-001
 4.2463734795e+000	 2.4326648624e-001	 6.3293573521e-001
 4.2438245160e+000	 2.8428858064e-001	 6.2695306767e-001
 4.2408678242e+000	 3.2543351322e-001	 6.2085066567e-001
 4.2374994341e+000	 3.6669590154e-001	 6.1559166112e-001
 4.2337154516e+000	 4.0807024591e-001	 6.1215809705e-001
 4.2800040000e+000	 0.0000000000e+000	 6.7226302335e-001
 4.2798130223e+000	 4.0430596615e-002	 6.7057405072e-001
 4.2792371417e+000	 8.1014786682e-002	 6.6804126356e-001
 4.2782719771e+000	 1.2174787387e-001	 6.6421172417e-001
 4.2769132032e+000	 1.6262504099e-001	 6.5892584860e-001
 4.2751565538e+000	 2.0364135018e-001	 6.5227790192e-001
 4.2729978252e+000	 2.4479174328e-001	 6.4457509113e-001
 4.2704328799e+000	 2.8607104219e-001	 6.3629470477e-001
 4.2674576500e+000	 3.2747394947e-001	 6.2803868192e-001
 4.2640681404e+000	 3.6899504892e-001	 6.2048492819e-001
 4.2602604327e+000	 4.1062880637e-001	 6.1433463195e-001
 4.3066720000e+000	 0.0000000000e+000	 7.0509194203e-001
 4.3064798323e+000	 4.0682513004e-002	 6.9675180936e-001
 4.3059003635e+000	 8.1519576475e-002	 6.8891030149e-001
 4.3049291852e+000	 1.2250646482e-001	 6.8092288561e-001
 4.3035619450e+000	 1.6363833084e-001	 6.7242231875e-001
 4.3017943502e+000	 2.0491020590e-001	 6.6328199690e-001
 4.2996221709e+000	 2.4631700032e-001	 6.5357819670e-001
 4.2970412439e+000	 2.8785350374e-001	 6.4355063777e-001
 4.2940474757e+000	 3.2951438571e-001	 6.3356072359e-001
 4.2906368466e+000	 3.7129419629e-001	 6.2404674996e-001
 4.2868054138e+000	 4.1318736684e-001	 6.1547530179e-001
 4.3333400000e+000	 0.0000000000e+000	 7.2656910638e-001
 4.3331466424e+000	 4.0934429394e-002	 7.1374047615e-001
 4.3325635854e+000	 8.2024366269e-002	 7.0238198357e-001
 4.3315863932e+000	 1.2326505578e-001	 6.9170050279e-001
 4.3302106868e+000	 1.6465162068e-001	 6.8116376988e-001
 4.3284321465e+000	 2.0617906161e-001	 6.7046670973e-001
 4.3262465166e+000	 2.4784225735e-001	 6.5949696454e-001
 4.3236496078e+000	 2.8963596529e-001	 6.4829903019e-001
 4.3206373015e+000	 3.3155482196e-001	 6.3703633313e-001
 4.3172055529e+000	 3.7359334367e-001	 6.2595050707e-001
 4.3133503949e+000	 4.1574592730e-001	 6.1531705703e-001
 4.3600080000e+000	 0.0000000000e+000	 7.3659924155e-001
 4.3598134524e+000	 4.1186345783e-002	 7.2132267232e-001
 4.3592268072e+000	 8.2529156063e-002	 7.0814650101e-001
 4.3582436013e+000	 1.2402364673e-001	 6.9616985567e-001
 4.3568594285e+000	 1.6566491053e-001	 6.8473582828e-001
 4.3550699429e+000	 2.0744791733e-001	 6.7340090967e-001
 4.3528708623e+000	 2.4936751439e-001	 6.6190394960e-001
 4.3502579717e+000	 2.9141842684e-001	 6.5013402598e-001
 4.3472271273e+000	 3.3359525820e-001	 6.3809652982e-001
 4.3437742592e+000	 3.7589249104e-001	 6.2587669474e-001
 4.3398953759e+000	 4.1830448776e-001	 6.1359972395e-001
 4.3866760000e+000	 0.0000000000e+000	 7.3513822423e-001
 4.3864802625e+000	 4.1438262172e-002	 7.1932631711e-001
 4.3858900290e+000	 8.3033945857e-002	 7.0593373907e-001
 4.3849008094e+000	 1.2478223768e-001	 6.9399055326e-001
 4.3835081703e+000	 1.6667820038e-001	 6.8275331112e-001
 4.3817077393e+000	 2.0871677304e-001	 6.7167773184e-001
 4.3794952079e+000	 2.5089277143e-001	 6.6039124575e-001
 4.3768663357e+000	 2.9320088839e-001	 6.4866476284e-001
 4.3738169530e+000	 3.3563569445e-001	 6.3638294598e-001
 4.3703429655e+000	 3.7819163842e-001	 6.2351218644e-001
 4.3664403570e+000	 4.2086304822e-001	 6.1006539907e-001
 4.4133440000e+000	 0.0000000000e+000	 7.2219153714e-001
 4.4131470725e+000	 4.1690178561e-002	 7.0762313360e-001
 4.4125532509e+000	 8.3538735650e-002	 6.9551184764e-001
 4.4115580174e+000	 1.2554082863e-001	 6.8485518120e-001
 4.4101569120e+000	 1.6769149023e-001	 6.7485896203e-001
 4.4083455356e+000	 2.0998562876e-001	 6.6491341059e-001
 4.4061195536e+000	 2.5241802846e-001	 6.5456942554e-001
 4.4034746996e+000	 2.9498334994e-001	 6.4351442566e-001
 4.4004067788e+000	 3.3767613069e-001	 6.3154699988e-001
 4.3969116718e+000	 3.8049078580e-001	 6.1854953097e-001
 4.3929853381e+000	 4.2342160868e-001	 6.0445787356e-001
 4.4400120000e+000	 0.0000000000e+000	 6.9781277940e-001
 4.4398138826e+000	 4.1942094950e-002	 6.8612720861e-001
 4.4392164727e+000	 8.4043525443e-002	 6.7668586380e-001
 4.4382152255e+000	 1.2629941958e-001	 6.6848799902e-001
 4.4368056538e+000	 1.6870478007e-001	 6.6072223387e-001
 4.4349833320e+000	 2.1125448447e-001	 6.5274615736e-001
 4.4327438993e+000	 2.5394328550e-001	 6.4406652148e-001
 4.4300830635e+000	 2.9676581148e-001	 6.3431933830e-001
 4.4269966045e+000	 3.3971656693e-001	 6.2324910393e-001
 4.4234803781e+000	 3.8278993317e-001	 6.1068628151e-001
 4.4195303192e+000	 4.2598016914e-001	 5.9652208629e-001
 4.4666800000e+000	 0.0000000000e+000	 6.6210223005e-001
 4.4664806926e+000	 4.2194011339e-002	 6.5479360418e-001
 4.4658796945e+000	 8.4548315236e-002	 6.4929638413e-001
 4.4648724335e+000	 1.2705801053e-001	 6.4464368488e-001
 4.4634543955e+000	 1.6971806992e-001	 6.4003811652e-001
 4.4616211283e+000	 2.1252334018e-001	 6.3483508100e-001
 4.4593682450e+000	 2.5546854253e-001	 6.2852704702e-001
 4.4566914274e+000	 2.9854827303e-001	 6.2072809226e-001
 4.4535864303e+000	 3.4175700318e-001	 6.1115790667e-001
 4.4500490843e+000	 3.8508908055e-001	 5.9962435527e-001
 4.4460753003e+000	 4.2853872961e-001	 5.8600360429e-001
 4.1806254894e+000	 4.0295312499e-001	 6.0576786212e-001
 4.1764754639e+000	 4.4390751276e-001	 6.0881478073e-001
 4.1719077330e+000	 4.8496130586e-001	 6.0937246116e-001
 4.1669187001e+000	 5.2610882415e-001	 6.0769933439e-001
 4.1615048572e+000	 5.6734427842e-001	 6.0381180601e-001
 4.1556627888e+000	 6.0866177170e-001	 5.9738963623e-001
 4.1493891748e+000	 6.5005530071e-001	 5.8767190679e-001
 4.1426807945e+000	 6.9151875737e-001	 5.7355709044e-001
 4.1355345296e+000	 7.3304593048e-001	 5.5555984684e-001
 4.1279473679e+000	 7.7463050750e-001	 5.3513010078e-001
 4.1199164064e+000	 8.1626607643e-001	 5.1364756739e-001
 4.2071704705e+000	 4.0551168545e-001	 6.0921225912e-001
 4.2029940943e+000	 4.4672611408e-001	 6.0907956959e-001
 4.1983973605e+000	 4.8804057921e-001	 6.0688300279e-001
 4.1933766496e+000	 5.2944936465e-001	 6.0292270461e-001
 4.1879284314e+000	 5.7094664442e-001	 5.9727553980e-001
 4.1820492686e+000	 6.1252648411e-001	 5.8970367750e-001
 4.1757358201e+000	 6.5418284232e-001	 5.7955365888e-001
 4.1689848448e+000	 6.9590957218e-001	 5.6581119201e-001
 4.1617932046e+000	 7.3770042307e-001	 5.4870078593e-001
 4.1541578680e+000	 7.7954904235e-001	 5.2932624191e-001
 4.1460759137e+000	 8.2144897732e-001	 5.0874465949e-001
 4.2337154516e+000	 4.0807024591e-001	 6.1215809705e-001
 4.2295127247e+000	 4.4954471540e-001	 6.0895726159e-001
 4.2248869879e+000	 4.9111985257e-001	 6.0406039887e-001
 4.2198345991e+000	 5.3278990516e-001	 5.9781977380e-001
 4.2143520055e+000	 5.7454901042e-001	 5.9038374480e-001
 4.2084357484e+000	 6.1639119652e-001	 5.8160878887e-001
 4.2020824655e+000	 6.5831038393e-001	 5.7096190755e-001
 4.1952888952e+000	 7.0030038700e-001	 5.5747210468e-001
 4.1880518795e+000	 7.4235491566e-001	 5.4108979407e-001
 4.1803683681e+000	 7.8446757720e-001	 5.2261858508e-001
 4.1722354210e+000	 8.2663187820e-001	 5.0282069388e-001
 4.2602604327e+000	 4.1062880637e-001	 6.1433463195e-001
 4.2560313550e+000	 4.5236331672e-001	 6.0825399762e-001
 4.2513766154e+000	 4.9419912593e-001	 6.0078755669e-001
 4.2462925485e+000	 5.3613044566e-001	 5.9234809208e-001
 4.2407755797e+000	 5.7815137642e-001	 5.8316447971e-001
 4.2348222282e+000	 6.2025590893e-001	 5.7319739757e-001
 4.2284291109e+000	 6.6243792553e-001	 5.6204531832e-001
 4.2215929455e+000	 7.0469120181e-001	 5.4872750698e-001
 4.2143105545e+000	 7.4700940824e-001	 5.3295917312e-001
 4.2065788682e+000	 7.8938611205e-001	 5.1527784966e-001
 4.1983949284e+000	 8.3181477909e-001	 4.9617816108e-001
 4.2868054138e+000	 4.1318736684e-001	 6.1547530179e-001
 4.2825499854e+000	 4.5518191804e-001	 6.0677574812e-001
 4.2778662429e+000	 4.9727839929e-001	 5.9694304722e-001
 4.2727504980e+000	 5.3947098617e-001	 5.8645685761e-001
 4.2671991539e+000	 5.8175374243e-001	 5.7563354927e-001
 4.2612087080e+000	 6.2412062134e-001	 5.6454585182e-001
 4.2547757562e+000	 6.6656546714e-001	 5.5293269282e-001
 4.2478969958e+000	 7.0908201662e-001	 5.3974393472e-001
 4.2405692295e+000	 7.5166390083e-001	 5.2451736777e-001
 4.2327893683e+000	 7.9430464689e-001	 5.0754851890e-001
 4.2245544357e+000	 8.3699767997e-001	 4.8909128057e-001
 4.3133503949e+000	 4.1574592730e-001	 6.1531705703e-001
 4.3090686158e+000	 4.5800051936e-001	 6.0432778206e-001
 4.3043558704e+000	 5.0035767265e-001	 5.9240070960e-001
 4.2992084475e+000	 5.4281152667e-001	 5.8008665299e-001
 4.2936227281e+000	 5.8535610843e-001	 5.6779436810e-001
 4.2875951879e+000	 6.2798533375e-001	 5.5571440651e-001
 4.2811224016e+000	 6.7069300875e-001	 5.4372678427e-001
 4.2742010462e+000	 7.1347283143e-001	 5.3066695445e-001
 4.2668279044e+000	 7.5631839342e-001	 5.1594926302e-001
 4.2589998684e+000	 7.9922318174e-001	 4.9964925852e-001
 4.2507139430e+000	 8.4218058085e-001	 4.8180653709e-001
 4.3398953759e+000	 4.1830448776e-001	 6.1359972395e-001
 4.3355872462e+000	 4.6081912068e-001	 6.0071416471e-001
 4.3308454979e+000	 5.0343694600e-001	 5.8702928092e-001
 4.3256663970e+000	 5.4615206717e-001	 5.7316920350e-001
 4.3200463022e+000	 5.8895847443e-001	 5.5963784285e-001
 4.3139816677e+000	 6.3185004616e-001	 5.4674722398e-001
 4.3074690469e+000	 6.7482055036e-001	 5.3450609477e-001
 4.3005050965e+000	 7.1786364625e-001	 5.2162134612e-001
 4.2930865794e+000	 7.6097288600e-001	 5.0741648832e-001
 4.2852103685e+000	 8.0414171659e-001	 4.9177333945e-001
 4.2768734503e+000	 8.4736348174e-001	 4.7454321898e-001
 4.3664403570e+000	 4.2086304822e-001	 6.1006539907e-001
 4.3621058766e+000	 4.6363772201e-001	 5.9573728314e-001
 4.3573351253e+000	 5.0651621936e-001	 5.8069205015e-001
 4.3521243465e+000	 5.4949260768e-001	 5.6562715605e-001
 4.3464698764e+000	 5.9256084044e-001	 5.5114227198e-001
 4.3403681475e+000	 6.3571475857e-001	 5.3767238940e-001
 4.3338156923e+000	 6.7894809196e-001	 5.2533581539e-001
 4.3268091469e+000	 7.2225446106e-001	 5.1271129482e-001
 4.3193452543e+000	 7.6562737859e-001	 4.9905772801e-001
 4.3114208686e+000	 8.0906025144e-001	 4.8408906469e-001
 4.3030329576e+000	 8.5254638262e-001	 4.6749395832e-001
 4.3929853381e+000	 4.2342160868e-001	 6.0445787356e-001
 4.3886245070e+000	 4.6645632333e-001	 5.8919739809e-001
 4.3838247528e+000	 5.0959549272e-001	 5.7324653517e-001
 4.3785822960e+000	 5.5283314818e-001	 5.5737387816e-001
 4.3728934506e+000	 5.9616320644e-001	 5.4227326244e-001
 4.3667546273e+000	 6.3957947098e-001	 5.2850194002e-001
 4.3601623377e+000	 6.8307563357e-001	 5.1626329935e-001
 4.3531131972e+000	 7.2664527587e-001	 5.0402059085e-001
 4.3456039293e+000	 7.7028187117e-001	 4.9098903791e-001
 4.3376313687e+000	 8.1397878628e-001	 4.7674019991e-001
 4.3291924649e+000	 8.5772928351e-001	 4.6082527293e-001
 4.4195303192e+000	 4.2598016914e-001	 5.9652208629e-001
 4.4151431374e+000	 4.6927492465e-001	 5.8089222128e-001
 4.4103143803e+000	 5.1267476608e-001	 5.6454418208e-001
 4.4050402455e+000	 5.5617368869e-001	 5.4831327599e-001
 4.3993170248e+000	 5.9976557244e-001	 5.3298366238e-001
 4.3931411071e+000	 6.4344418339e-001	 5.1923190780e-001
 4.3865089830e+000	 6.8720317518e-001	 5.0731814876e-001
 4.3794172475e+000	 7.3103609068e-001	 4.9561283815e-001
 4.3718626043e+000	 7.7493636376e-001	 4.8330416777e-001
 4.3638418688e+000	 8.1889732113e-001	 4.6984640778e-001
 4.3553519723e+000	 8.6291218439e-001	 4.5467811008e-001
 4.4460753003e+000	 4.2853872961e-001	 5.8600360429e-001
 4.4416617678e+000	 4.7209352597e-001	 5.7061651701e-001
 4.4368040078e+000	 5.1575403944e-001	 5.5443008560e-001
 4.4314981950e+000	 5.5951422919e-001	 5.3833963066e-001
 4.4257405989e+000	 6.0336793844e-001	 5.2321350949e-001
 4.4195275870e+000	 6.4730889580e-001	 5.0984237475e-001
 4.4128556284e+000	 6.9133071679e-001	 4.9851231739e-001
 4.4057212979e+000	 7.3542690550e-001	 4.8753167041e-001
 4.3981212792e+000	 7.7959085635e-001	 4.7607488924e-001
 4.3900523689e+000	 8.2381585598e-001	 4.6350368585e-001
 4.3815114796e+000	 8.6809508528e-001	 4.4916839186e-001
 4.1199164064e+000	 8.1626607643e-001	 5.1364756739e-001
 4.1114375501e+000	 8.5795238189e-001	 4.9187525774e-001
 4.1025092979e+000	 8.9967656574e-001	 4.7004254432e-001
 4.0931290975e+000	 9.4143191729e-001	 4.4860379060e-001
 4.0832945191e+000	 9.8321163488e-001	 4.2792486899e-001
 4.0730032589e+000	 1.0250088285e+000	 4.0826998278e-001
 4.0622531420e+000	 1.0668165223e+000	 3.8979044121e-001
 4.0510421257e+000	 1.1086276574e+000	 3.7250556233e-001
 4.0393683026e+000	 1.1504350948e+000	 3.5628954707e-001
 4.0272299033e+000	 1.1922316182e+000	 3.4085317253e-001
 4.0146252992e+000	 1.2340099371e+000	 3.2572499711e-001
 4.1460759137e+000	 8.2144897732e-001	 5.0874465949e-001
 4.1375432207e+000	 8.6339997096e-001	 4.8766112239e-001
 4.1285582784e+000	 9.0538908352e-001	 4.6644470937e-001
 4.1191185182e+000	 9.4740956166e-001	 4.4553265781e-001
 4.1092214949e+000	 9.8945456057e-001	 4.2527846758e-001
 4.0988648900e+000	 1.0315171465e+000	 4.0593875640e-001
 4.0880465150e+000	 1.0735902992e+000	 3.8766145399e-001
 4.0767643142e+000	 1.1156669151e+000	 3.7046743685e-001
 4.0650163678e+000	 1.1577398098e+000	 3.5423671120e-001
 4.0528008954e+000	 1.1998017212e+000	 3.3869017471e-001
 4.0401162582e+000	 1.2418453126e+000	 3.2337071286e-001
 4.1722354210e+000	 8.2663187820e-001	 5.0282069388e-001
 4.1636488913e+000	 8.6884756003e-001	 4.8232339233e-001
 4.1546072589e+000	 9.1110160129e-001	 4.6159854102e-001
 4.1451079388e+000	 9.5338720603e-001	 4.4106829174e-001
 4.1351484706e+000	 9.9569748625e-001	 4.2107590355e-001
 4.1247265212e+000	 1.0380254644e+000	 4.0187262484e-001
 4.1138398881e+000	 1.0803640761e+000	 3.8360539813e-001
 4.1024865026e+000	 1.1227061728e+000	 3.6629911484e-001
 4.0906644331e+000	 1.1650445248e+000	 3.4984221643e-001
 4.0783718876e+000	 1.2073718243e+000	 3.3396851791e-001
 4.0656072171e+000	 1.2496806881e+000	 3.1823821572e-001
 4.1983949284e+000	 8.3181477909e-001	 4.9617816108e-001
 4.1897545619e+000	 8.7429514911e-001	 4.7619437156e-001
 4.1806562393e+000	 9.1681411906e-001	 4.5586919891e-001
 4.1710973595e+000	 9.5936485040e-001	 4.3561176515e-001
 4.1610754464e+000	 1.0019404119e+000	 4.1575721911e-001
 4.1505881524e+000	 1.0445337824e+000	 3.9655364105e-001
 4.1396332611e+000	 1.0871378530e+000	 3.7814934008e-001
 4.1282086910e+000	 1.1297454305e+000	 3.6057563380e-001
 4.1163124983e+000	 1.1723492399e+000	 3.4373196598e-001
 4.1039428797e+000	 1.2149419273e+000	 3.2736778915e-001
 4.0910981760e+000	 1.2575160636e+000	 3.1106350528e-001
 4.2245544357e+000	 8.3699767997e-001	 4.8909128057e-001
 4.2158602326e+000	 8.7974273818e-001	 4.6957628252e-001
 4.2067052198e+000	 9.2252663683e-001	 4.4959004694e-001
 4.1970867802e+000	 9.6534249477e-001	 4.2953073163e-001
 4.1870024222e+000	 1.0081833376e+000	 4.0972749830e-001
 4.1764497835e+000	 1.0510421003e+000	 3.9042743820e-001
 4.1654266342e+000	 1.0939116299e+000	 3.7178253560e-001
 4.1539308795e+000	 1.1367846882e+000	 3.5383289216e-001
 4.1419605635e+000	 1.1796539549e+000	 3.3649144991e-001
 4.1295138719e+000	 1.2225120303e+000	 3.1952593386e-001
 4.1165891349e+000	 1.2653514390e+000	 3.0253974755e-001
 4.2507139430e+000	 8.4218058085e-001	 4.8180653709e-001
 4.2419659032e+000	 8.8519032725e-001	 4.6274192026e-001
 4.2327542003e+000	 9.2823915460e-001	 4.4306342922e-001
 4.2230762008e+000	 9.7132013914e-001	 4.2316032704e-001
 4.2129293980e+000	 1.0144262633e+000	 4.0335766529e-001
 4.2023114147e+000	 1.0575504183e+000	 3.8390439318e-001
 4.1912200072e+000	 1.1006854068e+000	 3.6495772962e-001
 4.1796530679e+000	 1.1438239459e+000	 3.4656908896e-001
 4.1676086287e+000	 1.1869586699e+000	 3.2866732795e-001
 4.1550848640e+000	 1.2300821334e+000	 3.1104098496e-001
 4.1420800939e+000	 1.2731868145e+000	 2.9331915336e-001
 4.2768734503e+000	 8.4736348174e-001	 4.7454321898e-001
 4.2680715738e+000	 8.9063791633e-001	 4.5593530651e-001
 4.2588031807e+000	 9.3395167238e-001	 4.3656144367e-001
 4.2490656215e+000	 9.7729778351e-001	 4.1680406634e-001
 4.2388563737e+000	 1.0206691890e+000	 3.9698650564e-001
 4.2281730459e+000	 1.0640587363e+000	 3.7736078091e-001
 4.2170133802e+000	 1.1074591837e+000	 3.5809244445e-001
 4.2053752563e+000	 1.1508632036e+000	 3.3924614932e-001
 4.1932566939e+000	 1.1942633849e+000	 3.2076899556e-001
 4.1806558562e+000	 1.2376522364e+000	 3.0247277263e-001
 4.1675710528e+000	 1.2810221900e+000	 2.8401483494e-001
 4.3030329576e+000	 8.5254638262e-001	 4.6749395832e-001
 4.2941772444e+000	 8.9608550540e-001	 4.4937234350e-001
 4.2848521612e+000	 9.3966419015e-001	 4.3032671327e-001
 4.2750550421e+000	 9.8327542788e-001	 4.1073473605e-001
 4.2647833495e+000	 1.0269121147e+000	 3.9092007234e-001
 4.2540346771e+000	 1.0705670542e+000	 3.7113991973e-001
 4.2428067533e+000	 1.1142329606e+000	 3.5157025686e-001
 4.2310974448e+000	 1.1579024613e+000	 3.3229113661e-001
 4.2189047591e+000	 1.2015681000e+000	 3.1327013420e-001
 4.2062268484e+000	 1.2452223395e+000	 2.9434461592e-001
 4.1930620117e+000	 1.2888575655e+000	 2.7520264164e-001
 4.3291924649e+000	 8.5772928351e-001	 4.6082527293e-001
 4.3202829150e+000	 9.0153309447e-001	 4.4324146772e-001
 4.3109011417e+000	 9.4537670792e-001	 4.2457315529e-001
 4.3010444628e+000	 9.8925307225e-001	 4.0519528248e-001
 4.2907103253e+000	 1.0331550403e+000	 3.8543385760e-001
 4.2798963082e+000	 1.0770753722e+000	 3.6555330838e-001
 4.2686001263e+000	 1.1210067375e+000	 3.4574206453e-001
 4.2568196332e+000	 1.1649417191e+000	 3.2609765151e-001
 4.2445528243e+000	 1.2088728150e+000	 3.0661024634e-001
 4.2317978405e+000	 1.2527924425e+000	 2.8714499653e-001
 4.2185529706e+000	 1.2966929409e+000	 2.6742297561e-001
 4.3553519723e+000	 8.6291218439e-001	 4.5467811008e-001
 4.3463885857e+000	 9.0698068355e-001	 4.3770430348e-001
 4.3369501221e+000	 9.5108922569e-001	 4.1948674830e-001
 4.3270338835e+000	 9.9523071662e-001	 4.0039969588e-001
 4.3166373011e+000	 1.0393979660e+000	 3.8077348248e-001
 4.3057579394e+000	 1.0835836901e+000	 3.6088175484e-001
 4.2943934994e+000	 1.1277805145e+000	 3.4092734223e-001
 4.2825418216e+000	 1.1719809768e+000	 3.2102721877e-001
 4.2702008896e+000	 1.2161775300e+000	 3.0119617586e-001
 4.2573688327e+000	 1.2603625456e+000	 2.8132921596e-001
 4.2440439296e+000	 1.3045283164e+000	 2.6118258836e-001
 4.3815114796e+000	 8.6809508528e-001	 4.4916839186e-001
 4.3724942563e+000	 9.1242827262e-001	 4.3289631630e-001
 4.3629991026e+000	 9.5680174346e-001	 4.1522629734e-001
 4.3530233041e+000	 1.0012083610e+000	 3.9653389081e-001
 4.3425642768e+000	 1.0456408917e+000	 3.7715569594e-001
 4.3316195706e+000	 1.0900920081e+000	 3.5737649738e-001
 4.3201868724e+000	 1.1345542914e+000	 3.3741538818e-001
 4.3082640100e+000	 1.1790202345e+000	 3.1741066213e-001
 4.2958489548e+000	 1.2234822450e+000	 2.9740361449e-001
 4.2829398248e+000	 1.2679326486e+000	 2.7732103637e-001
 4.2695348885e+000	 1.3123636919e+000	 2.5695635893e-001
 4.0146252992e+000	 1.2340099371e+000	 3.2572499711e-001
 4.0015530051e+000	 1.2757626898e+000	 3.0860761354e-001
 3.9880116778e+000	 1.3174824442e+000	 2.8697466952e-001
 3.9740001227e+000	 1.3591617033e+000	 2.6029771772e-001
 3.9595172970e+000	 1.4007929095e+000	 2.3156596595e-001
 3.9445623121e+000	 1.4423684478e+000	 2.0151675201e-001
 3.9291344362e+000	 1.4838806500e+000	 1.7056332470e-001
 3.9132330963e+000	 1.5253217981e+000	 1.3911618631e-001
 3.8968578809e+000	 1.5666841286e+000	 1.0758373327e-001
 3.8800085414e+000	 1.6079598367e+000	 7.6371903724e-002
 3.8626849945e+000	 1.6491410796e+000	 4.5882814389e-002
 4.0401162582e+000	 1.2418453126e+000	 3.2337071286e-001
 4.0269609611e+000	 1.2838631754e+000	 3.0597704933e-001
 4.0133336529e+000	 1.3258478303e+000	 2.8401873401e-001
 3.9992331311e+000	 1.3677917329e+000	 2.5798649608e-001
 3.9846583464e+000	 1.4096872774e+000	 2.3051111458e-001
 3.9696084045e+000	 1.4515268006e+000	 2.0186640337e-001
 3.9540825688e+000	 1.4933025855e+000	 1.7234278343e-001
 3.9380802631e+000	 1.5350068651e+000	 1.4224004731e-001
 3.9216010728e+000	 1.5766318268e+000	 1.1186833056e-001
 3.9046447480e+000	 1.6181696159e+000	 8.1548008327e-002
 3.8872112048e+000	 1.6596123402e+000	 5.1608498141e-002
 4.0656072171e+000	 1.2496806881e+000	 3.1823821572e-001
 4.0523689172e+000	 1.2919636610e+000	 3.0041070223e-001
 4.0386556280e+000	 1.3342132165e+000	 2.7802442764e-001
 4.0244661395e+000	 1.3764217625e+000	 2.5210355069e-001
 4.0097993957e+000	 1.4185816454e+000	 2.2480218178e-001
 3.9946544968e+000	 1.4606851534e+000	 1.9692580139e-001
 3.9790307015e+000	 1.5027245210e+000	 1.6853216524e-001
 3.9629274298e+000	 1.5446919322e+000	 1.3968654374e-001
 3.9463442647e+000	 1.5865795250e+000	 1.1059629638e-001
 3.9292809546e+000	 1.6283793952e+000	 8.1490414147e-002
 3.9117374151e+000	 1.6700836007e+000	 5.2618459319e-002
 4.0910981760e+000	 1.2575160636e+000	 3.1106350528e-001
 4.0777768733e+000	 1.3000641465e+000	 2.9269129277e-001
 4.0639776031e+000	 1.3425786026e+000	 2.6994020622e-001
 4.0496991479e+000	 1.3850517921e+000	 2.4413187426e-001
 4.0349404451e+000	 1.4274760133e+000	 2.1675731554e-001
 4.0197005891e+000	 1.4698435062e+000	 1.8861228021e-001
 4.0039788341e+000	 1.5121464565e+000	 1.6046188981e-001
 3.9877745965e+000	 1.5543769993e+000	 1.3270619552e-001
 3.9710874566e+000	 1.5965272232e+000	 1.0494404941e-001
 3.9539171612e+000	 1.6385891745e+000	 7.7277372848e-002
 3.9362636255e+000	 1.6805548613e+000	 4.9868835280e-002
 4.1165891349e+000	 1.2653514390e+000	 3.0253974755e-001
 4.1031848294e+000	 1.3081646321e+000	 2.8355784796e-001
 4.0892995782e+000	 1.3509439888e+000	 2.6053281219e-001
 4.0749321563e+000	 1.3936818217e+000	 2.3480639162e-001
 4.0600814944e+000	 1.4363703812e+000	 2.0744708373e-001
 4.0447466814e+000	 1.4790018590e+000	 1.7919582360e-001
 4.0289269668e+000	 1.5215683920e+000	 1.5076853138e-001
 4.0126217632e+000	 1.5640620664e+000	 1.2285296946e-001
 3.9958306485e+000	 1.6064749214e+000	 9.6064960362e-002
 3.9785533678e+000	 1.6487989537e+000	 6.9964977760e-002
 3.9607898358e+000	 1.6910261218e+000	 4.4295007403e-002
 4.1420800939e+000	 1.2731868145e+000	 2.9331915336e-001
 4.1285927855e+000	 1.3162651177e+000	 2.7370772260e-001
 4.1146215533e+000	 1.3593093749e+000	 2.5047913318e-001
 4.1001651647e+000	 1.4023118513e+000	 2.2483173629e-001
 4.0852225438e+000	 1.4452647492e+000	 1.9758195429e-001
 4.0697927737e+000	 1.4881602118e+000	 1.6941866222e-001
 4.0538750995e+000	 1.5309903275e+000	 1.4100982891e-001
 4.0374689299e+000	 1.5737471334e+000	 1.1299945945e-001
 4.0205738404e+000	 1.6164226195e+000	 8.6004414611e-002
 4.0031895744e+000	 1.6590087330e+000	 6.0611106291e-002
 3.9853160462e+000	 1.7014973824e+000	 3.6810981303e-002
 4.1675710528e+000	 1.2810221900e+000	 2.8401483494e-001
 4.1540007416e+000	 1.3243656032e+000	 2.6379859644e-001
 4.1399435284e+000	 1.3676747611e+000	 2.4042809178e-001
 4.1253981731e+000	 1.4109418809e+000	 2.1488380250e-001
 4.1103635931e+000	 1.4541591171e+000	 1.8784342958e-001
 4.0948388660e+000	 1.4973185646e+000	 1.5994647203e-001
 4.0788232321e+000	 1.5404122631e+000	 1.3181414175e-001
 4.0623160966e+000	 1.5834322005e+000	 1.0404636646e-001
 4.0453170323e+000	 1.6263703177e+000	 7.7218673216e-002
 4.0278257810e+000	 1.6692185123e+000	 5.1878951181e-002
 4.0098422565e+000	 1.7119686430e+000	 2.8544090851e-002
 4.1930620117e+000	 1.2888575655e+000	 2.7520264164e-001
 4.1794086976e+000	 1.3324660888e+000	 2.5445044817e-001
 4.1652655035e+000	 1.3760401472e+000	 2.3100158248e-001
 4.1506311815e+000	 1.4195719105e+000	 2.0561072731e-001
 4.1355046425e+000	 1.4630534850e+000	 1.7888505791e-001
 4.1198849584e+000	 1.5064769174e+000	 1.5141731073e-001
 4.1037713648e+000	 1.5498341986e+000	 1.2378307925e-001
 4.0871632634e+000	 1.5931172676e+000	 9.6537853075e-002
 4.0700602242e+000	 1.6363180159e+000	 7.0213943918e-002
 4.0524619877e+000	 1.6794282915e+000	 4.5317296785e-002
 4.0343684668e+000	 1.7224399035e+000	 2.2324183042e-002
 4.2185529706e+000	 1.2966929409e+000	 2.6742297561e-001
 4.2048166537e+000	 1.3405665744e+000	 2.4625489931e-001
 4.1905874786e+000	 1.3844055334e+000	 2.2279538493e-001
 4.1758641899e+000	 1.4282019401e+000	 1.9763384807e-001
 4.1606456919e+000	 1.4719478530e+000	 1.7133342010e-001
 4.1449310507e+000	 1.5156352702e+000	 1.4444261802e-001
 4.1287194974e+000	 1.5592561341e+000	 1.1749249940e-001
 4.1120104301e+000	 1.6028023347e+000	 9.0993713559e-002
 4.0948034161e+000	 1.6462657141e+000	 6.5433448891e-002
 4.0770981943e+000	 1.6896380708e+000	 4.1272274109e-002
 4.0588946772e+000	 1.7329111641e+000	 1.8940869664e-002
 4.2440439296e+000	 1.3045283164e+000	 2.6118258836e-001
 4.2302246098e+000	 1.3486670600e+000	 2.3976022157e-001
 4.2159094537e+000	 1.3927709195e+000	 2.1638005443e-001
 4.2010971983e+000	 1.4368319697e+000	 1.9154863615e-001
 4.1857867412e+000	 1.4808422209e+000	 1.6578909179e-001
 4.1699771430e+000	 1.5247936230e+000	 1.3960819199e-001
 4.1536676301e+000	 1.5686780696e+000	 1.1349348446e-001
 4.1368575968e+000	 1.6124874017e+000	 8.7910333830e-002
 4.1195466080e+000	 1.6562134122e+000	 6.3298869492e-002
 4.1017344009e+000	 1.6998478501e+000	 4.0070839044e-002
 4.0834208875e+000	 1.7433824246e+000	 1.8606363072e-002
 4.2695348885e+000	 1.3123636919e+000	 2.5695635893e-001
 4.2556325659e+000	 1.3567675455e+000	 2.3546920072e-001
 4.2412314288e+000	 1.4011363057e+000	 2.1230179066e-001
 4.2263302067e+000	 1.4454619993e+000	 1.8792560804e-001
 4.2109277906e+000	 1.4897365888e+000	 1.6282758286e-001
 4.1950232353e+000	 1.5339519758e+000	 1.3747514257e-001
 4.1786157627e+000	 1.5781000051e+000	 1.1231329434e-001
 4.1617047635e+000	 1.6221724688e+000	 8.7761630512e-002
 4.1442897998e+000	 1.6661611104e+000	 6.4211256630e-002
 4.1263706075e+000	 1.7100576294e+000	 4.2021639715e-002
 4.1079470979e+000	 1.7538536852e+000	 2.1517371854e-002
 3.8626849945e+000	 1.6491410796e+000	 4.5882814389e-002
 3.8448900295e+000	 1.6902138288e+000	 1.8937009808e-002
 3.8266213383e+000	 1.7311763688e+000	-3.0349848833e-003
 3.8078793464e+000	 1.7720207765e+000	-2.1744188963e-002
 3.7886646509e+000	 1.8127391083e+000	-3.8953568872e-002
 3.7689780217e+000	 1.8533234054e+000	-5.6481284032e-002
 3.7488204029e+000	 1.8937656981e+000	-7.6204681222e-002
 3.7281929136e+000	 1.9340580104e+000	-1.0006496862e-001
 3.7070968488e+000	 1.9741923649e+000	-1.3007248829e-001
 3.6855336804e+000	 2.0141607875e+000	-1.6742132605e-001
 3.6635050572e+000	 2.0539553118e+000	-2.0366817271e-001
 3.8872112048e+000	 1.6596123402e+000	 5.1608498141e-002
 3.8693032502e+000	 1.7009458817e+000	 2.4654959455e-002
 3.8509185616e+000	 1.7421685144e+000	 2.0232063805e-003
 3.8320575670e+000	 1.7832722646e+000	-1.7879258822e-002
 3.8127208673e+000	 1.8242491384e+000	-3.6696484220e-002
 3.7929092374e+000	 1.8650911265e+000	-5.6127981070e-002
 3.7726236273e+000	 1.9057902084e+000	-7.7933447097e-002
 3.7518651633e+000	 1.9463383578e+000	-1.0393822694e-001
 3.7306351485e+000	 1.9867275464e+000	-1.3603942350e-001
 3.7089350642e+000	 2.0269497493e+000	-1.7313845949e-001
 3.6867665698e+000	 2.0669969500e+000	-2.0699138525e-001
 3.9117374151e+000	 1.6700836007e+000	 5.2618459319e-002
 3.8937164710e+000	 1.7116779347e+000	 2.6279937861e-002
 3.8752157849e+000	 1.7531606600e+000	 3.6161349093e-003
 3.8562357876e+000	 1.7945237527e+000	-1.6868760265e-002
 3.8367770837e+000	 1.8357591685e+000	-3.6720437807e-002
 3.8168404531e+000	 1.8768588475e+000	-5.7539025578e-002
 3.7964268517e+000	 1.9178147188e+000	-8.0984523920e-002
 3.7755374129e+000	 1.9586187052e+000	-1.0878303921e-001
 3.7541734482e+000	 1.9992627278e+000	-1.4273372484e-001
 3.7323364481e+000	 2.0397387112e+000	-1.7836322081e-001
 3.7100280824e+000	 2.0800385881e+000	-2.1017937463e-001
 3.9362636255e+000	 1.6805548613e+000	 4.9868835280e-002
 3.9181296918e+000	 1.7224099876e+000	 2.4641486793e-002
 3.8995130082e+000	 1.7641528056e+000	 2.4619403828e-003
 3.8804140082e+000	 1.8057752408e+000	-1.8090241161e-002
 3.8608333001e+000	 1.8472691986e+000	-3.8482428779e-002
 3.8407716688e+000	 1.8886265686e+000	-6.0234110817e-002
 3.8202300761e+000	 1.9298392292e+000	-8.4923023485e-002
 3.7992096626e+000	 1.9708990526e+000	-1.1419214595e-001
 3.7777117479e+000	 2.0117979092e+000	-1.4924156213e-001
 3.7557378319e+000	 2.0525276731e+000	-1.8288732908e-001
 3.7332895950e+000	 2.0930802263e+000	-2.1299663939e-001
 3.9607898358e+000	 1.6910261218e+000	 4.4295007403e-002
 3.9425429126e+000	 1.7331420406e+000	 2.0549833818e-002
 3.9238102315e+000	 1.7751449511e+000	-7.3954873186e-004
 3.9045922287e+000	 1.8170267289e+000	-2.0938999248e-002
 3.8848895166e+000	 1.8587792288e+000	-4.1457088653e-002
 3.8647028845e+000	 1.9003942897e+000	-6.3750890349e-002
 3.8440333006e+000	 1.9418637396e+000	-8.9332792225e-002
 3.8228819123e+000	 1.9831793999e+000	-1.1977824346e-001
 3.8012500476e+000	 2.0243330906e+000	-1.5465953706e-001
 3.7791392158e+000	 2.0653166350e+000	-1.8651910660e-001
 3.7565511076e+000	 2.1061218644e+000	-2.1522491051e-001
 3.9853160462e+000	 1.7014973824e+000	 3.6810981303e-002
 3.9669561334e+000	 1.7438740935e+000	 1.4795123303e-002
 3.9481074548e+000	 1.7861370967e+000	-5.3077218390e-003
 3.9287704493e+000	 1.8282782170e+000	-2.4829114487e-002
 3.9089457330e+000	 1.8702892589e+000	-4.5137827030e-002
 3.8886341002e+000	 1.9121620108e+000	-6.7646224387e-002
 3.8678365250e+000	 1.9538882500e+000	-9.3817745093e-002
 3.8465541619e+000	 1.9954597473e+000	-1.2517539170e-001
 3.8247883473e+000	 2.0368682721e+000	-1.5881777347e-001
 3.8025405996e+000	 2.0781055968e+000	-1.8908320575e-001
 3.7798126202e+000	 2.1191635026e+000	-2.1666285472e-001
 4.0098422565e+000	 1.7119686430e+000	 2.8544090851e-002
 3.9913693542e+000	 1.7546061465e+000	 8.1466343868e-003
 3.9724046781e+000	 1.7971292423e+000	-1.0582102815e-002
 3.9529486699e+000	 1.8395297051e+000	-2.9194488744e-002
 3.9330019494e+000	 1.8817992890e+000	-4.9037982478e-002
 3.9125653159e+000	 1.9239297319e+000	-7.1497429641e-002
 3.8916397494e+000	 1.9659127604e+000	-9.8003201762e-002
 3.8702264116e+000	 2.0077400947e+000	-1.2985991916e-001
 3.8483266470e+000	 2.0494034535e+000	-1.6156443774e-001
 3.8259419835e+000	 2.0908945587e+000	-1.9042033751e-001
 3.8030741328e+000	 2.1322051407e+000	-2.1712578041e-001
 4.0343684668e+000	 1.7224399035e+000	 2.2324183042e-002
 4.0157825750e+000	 1.7653381994e+000	 1.9559364606e-003
 3.9967019014e+000	 1.8081213878e+000	-1.5923276127e-002
 3.9771268904e+000	 1.8507811932e+000	-3.3489892489e-002
 3.9570581658e+000	 1.8933093192e+000	-5.2691978384e-002
 3.9364965315e+000	 1.9356974530e+000	-7.4903532518e-002
 3.9154429738e+000	 1.9779372708e+000	-1.0153722503e-001
 3.8938986613e+000	 2.0200204421e+000	-1.3292149450e-001
 3.8718649467e+000	 2.0619386349e+000	-1.6276335177e-001
 3.8493433673e+000	 2.1036835206e+000	-1.9038700176e-001
 3.8263356453e+000	 2.1452467789e+000	-2.1644534595e-001
 4.0588946772e+000	 1.7329111641e+000	 1.8940869664e-002
 4.0401957957e+000	 1.7760702524e+000	-1.2234904057e-003
 4.0209991247e+000	 1.8191135334e+000	-1.9659226860e-002
 4.0013051110e+000	 1.8620326814e+000	-3.7187751856e-002
 3.9811143822e+000	 1.9048193493e+000	-5.5656483532e-002
 3.9604277472e+000	 1.9474651741e+000	-7.7486525532e-002
 3.9392461982e+000	 1.9899617812e+000	-1.0409196136e-001
 3.9175709110e+000	 2.0323007895e+000	-1.3416356825e-001
 3.8954032465e+000	 2.0744738163e+000	-1.6229373376e-001
 3.8727447512e+000	 2.1164724825e+000	-1.8885521915e-001
 3.8495971579e+000	 2.1582884170e+000	-2.1446927048e-001
 4.0834208875e+000	 1.7433824246e+000	 1.8606363072e-002
 4.0646090165e+000	 1.7868023053e+000	-1.1040350132e-003
 4.0452963480e+000	 1.8301056790e+000	-1.9800371837e-002
 4.0254833316e+000	 1.8732841695e+000	-3.8283248195e-002
 4.0051705986e+000	 1.9163293794e+000	-5.7446642462e-002
 3.9843589629e+000	 1.9592328952e+000	-7.8892626790e-002
 3.9630494226e+000	 2.0019862916e+000	-1.0535557501e-001
 3.9412431606e+000	 2.0445811369e+000	-1.3347107418e-001
 3.9189415462e+000	 2.0870089978e+000	-1.6004994017e-001
 3.8961461350e+000	 2.1292614443e+000	-1.8571226449e-001
 3.8728586705e+000	 2.1713300552e+000	-2.1106104691e-001
 4.1079470979e+000	 1.7538536852e+000	 2.1517371854e-002
 4.0890222373e+000	 1.7975343583e+000	 2.3958055086e-003
 4.0695935713e+000	 1.8410978246e+000	-1.6339371273e-002
 4.0496615522e+000	 1.8845356576e+000	-3.5485834586e-002
 4.0292268150e+000	 1.9278394095e+000	-5.5926584579e-002
 4.0082901786e+000	 1.9710006163e+000	-7.8632597503e-002
 3.9868526470e+000	 2.0140108020e+000	-1.0464479081e-001
 3.9649154103e+000	 2.0568614843e+000	-1.3074410573e-001
 3.9424798459e+000	 2.0995441792e+000	-1.5594120899e-001
 3.9195475189e+000	 2.1420504062e+000	-1.8086040164e-001
 3.8961201831e+000	 2.1843716934e+000	-2.0609965719e-001
 3.6635050572e+000	 2.0539553118e+000	-2.0366817271e-001
 3.6410093978e+000	 2.0935739135e+000	-2.3703412104e-001
 3.6180519798e+000	 2.1330026723e+000	-2.6798788582e-001
 3.5946349899e+000	 2.1722336741e+000	-2.9684761957e-001
 3.5707607927e+000	 2.2112590326e+000	-3.2391256564e-001
 3.5464319309e+000	 2.2500708939e+000	-3.4946556696e-001
 3.5216511245e+000	 2.2886614419e+000	-3.7377607980e-001
 3.4964212704e+000	 2.3270229028e+000	-3.9710368141e-001
 3.4707454417e+000	 2.3651475504e+000	-4.1970205464e-001
 3.4446268869e+000	 2.4030277108e+000	-4.4182342741e-001
 3.4180690289e+000	 2.4406557675e+000	-4.6372343929e-001
 3.6867665698e+000	 2.0669969500e+000	-2.0699138525e-001
 3.6641280737e+000	 2.1068671109e+000	-2.3770993719e-001
 3.6410248870e+000	 2.1465462235e+000	-2.6571791055e-001
 3.6174592103e+000	 2.1860263235e+000	-2.9153534734e-001
 3.5934334234e+000	 2.2252994745e+000	-3.1566001206e-001
 3.5689500849e+000	 2.2643577727e+000	-3.3856957937e-001
 3.5440119321e+000	 2.3031933522e+000	-3.6072435342e-001
 3.5186218805e+000	 2.3417983901e+000	-3.8257050828e-001
 3.4927830225e+000	 2.3801651111e+000	-4.0454383304e-001
 3.4664986274e+000	 2.4182857924e+000	-4.2707395962e-001
 3.4397721396e+000	 2.4561527694e+000	-4.5058904533e-001
 3.7100280824e+000	 2.0800385881e+000	-2.1017937463e-001
 3.6872467495e+000	 2.1201603083e+000	-2.3871144456e-001
 3.6639977942e+000	 2.1600897748e+000	-2.6426428650e-001
 3.6402834308e+000	 2.1998189730e+000	-2.8752035969e-001
 3.6161060541e+000	 2.2393399163e+000	-3.0913701162e-001
 3.5914682389e+000	 2.2786446514e+000	-3.2974841967e-001
 3.5663727398e+000	 2.3177252626e+000	-3.4996809193e-001
 3.5408224906e+000	 2.3565738775e+000	-3.7039191663e-001
 3.5148206033e+000	 2.3951826718e+000	-3.9160174437e-001
 3.4883703678e+000	 2.4335438741e+000	-4.1416948099e-001
 3.4614752502e+000	 2.4716497713e+000	-4.3866166295e-001
 3.7332895950e+000	 2.0930802263e+000	-2.1299663939e-001
 3.7103654254e+000	 2.1334535057e+000	-2.3977077596e-001
 3.6869707013e+000	 2.1736333260e+000	-2.6333649893e-001
 3.6631076512e+000	 2.2136116224e+000	-2.8450000664e-001
 3.6387786847e+000	 2.2533803582e+000	-3.0404007434e-001
 3.6139863929e+000	 2.2929315301e+000	-3.2270982432e-001
 3.5887335475e+000	 2.3322571729e+000	-3.4123908293e-001
 3.5630231007e+000	 2.3713493648e+000	-3.6033731473e-001
 3.5368581841e+000	 2.4102002324e+000	-3.8069711770e-001
 3.5102421082e+000	 2.4488019558e+000	-4.0299825716e-001
 3.4831783609e+000	 2.4871467732e+000	-4.2791221013e-001
 3.7565511076e+000	 2.1061218644e+000	-2.1522491051e-001
 3.7334841012e+000	 2.1467467031e+000	-2.4063804417e-001
 3.7099436085e+000	 2.1871768773e+000	-2.6266251223e-001
 3.6859318717e+000	 2.2274042718e+000	-2.8219034970e-001
 3.6614513154e+000	 2.2674208001e+000	-3.0008436916e-001
 3.6365045468e+000	 2.3072184088e+000	-3.1717983268e-001
 3.6110943551e+000	 2.3467890832e+000	-3.3428673948e-001
 3.5852237108e+000	 2.3861248521e+000	-3.5219271937e-001
 3.5588957649e+000	 2.4252177931e+000	-3.7166651617e-001
 3.5321138487e+000	 2.4640600374e+000	-3.9346203823e-001
 3.5048814716e+000	 2.5026437751e+000	-4.1832294704e-001
 3.7798126202e+000	 2.1191635026e+000	-2.1666285472e-001
 3.7566027771e+000	 2.1600399005e+000	-2.4108101876e-001
 3.7329165157e+000	 2.2007204285e+000	-2.6198842858e-001
 3.7087560921e+000	 2.2411969213e+000	-2.8032581140e-001
 3.6841239461e+000	 2.2814612420e+000	-2.9700337361e-001
 3.6590227008e+000	 2.3215052875e+000	-3.1290244716e-001
 3.6334551628e+000	 2.3613209935e+000	-3.2887778124e-001
 3.6074243209e+000	 2.4009003395e+000	-3.4576046913e-001
 3.5809333458e+000	 2.4402353538e+000	-3.6436149430e-001
 3.5539855891e+000	 2.4793181191e+000	-3.8547587223e-001
 3.5265845823e+000	 2.5181407770e+000	-4.0988735827e-001
 3.8030741328e+000	 2.1322051407e+000	-2.1712578041e-001
 3.7797214530e+000	 2.1733330979e+000	-2.4088480641e-001
 3.7558894229e+000	 2.2142639798e+000	-2.6107815080e-001
 3.7315803126e+000	 2.2549895707e+000	-2.7865882929e-001
 3.7067965767e+000	 2.2955016839e+000	-2.9454852824e-001
 3.6815408548e+000	 2.3357921662e+000	-3.0963929763e-001
 3.6558159705e+000	 2.3758529038e+000	-3.2479591920e-001
 3.6296249310e+000	 2.4156758268e+000	-3.4085894028e-001
 3.6029709266e+000	 2.4552529145e+000	-3.5864835618e-001
 3.5758573295e+000	 2.4945762008e+000	-3.7896791761e-001
 3.5482876930e+000	 2.5336377790e+000	-4.0261003203e-001
 3.8263356453e+000	 2.1452467789e+000	-2.1644534595e-001
 3.8028401288e+000	 2.1866262953e+000	-2.3985153471e-001
 3.7788623301e+000	 2.2278075310e+000	-2.5971304938e-001
 3.7544045330e+000	 2.2687822201e+000	-2.7695951439e-001
 3.7294692074e+000	 2.3095421257e+000	-2.9248889544e-001
 3.7040590088e+000	 2.3500790449e+000	-3.0716930999e-001
 3.6781767781e+000	 2.3903848141e+000	-3.2184154398e-001
 3.6518255411e+000	 2.4304513141e+000	-3.3732226509e-001
 3.6250085074e+000	 2.4702704752e+000	-3.5440791483e-001
 3.5977290700e+000	 2.5098342824e+000	-3.7387925495e-001
 3.5699908036e+000	 2.5491347809e+000	-3.9650653604e-001
 3.8495971579e+000	 2.1582884170e+000	-2.1446927048e-001
 3.8259588047e+000	 2.1999194927e+000	-2.3780003917e-001
 3.8018352373e+000	 2.2413510823e+000	-2.5769163324e-001
 3.7772287535e+000	 2.2825748696e+000	-2.7501531393e-001
 3.7521418381e+000	 2.3235825676e+000	-2.9061082256e-001
 3.7265771628e+000	 2.3643659237e+000	-3.0528837880e-001
 3.7005375858e+000	 2.4049167245e+000	-3.1983141736e-001
 3.6740261512e+000	 2.4452268014e+000	-3.3500005251e-001
 3.6470460882e+000	 2.4852880359e+000	-3.5153525249e-001
 3.6196008104e+000	 2.5250923641e+000	-3.7016369787e-001
 3.5916939143e+000	 2.5646317828e+000	-3.9160329063e-001
 3.8728586705e+000	 2.1713300552e+000	-2.1106104691e-001
 3.8490774805e+000	 2.2132126902e+000	-2.3456555345e-001
 3.8248081445e+000	 2.2548946335e+000	-2.5482922439e-001
 3.8000529739e+000	 2.2963675190e+000	-2.7263067811e-001
 3.7748144687e+000	 2.3376230095e+000	-2.8871760906e-001
 3.7490953168e+000	 2.3786528024e+000	-3.0380904363e-001
 3.7228983934e+000	 2.4194486348e+000	-3.1859836712e-001
 3.6962267613e+000	 2.4600022888e+000	-3.3375711109e-001
 3.6690836690e+000	 2.5003055965e+000	-3.4993948183e-001
 3.6414725508e+000	 2.5403504458e+000	-3.6778760322e-001
 3.6133970250e+000	 2.5801287847e+000	-3.8793743882e-001
 3.8961201831e+000	 2.1843716934e+000	-2.0609965719e-001
 3.8721961564e+000	 2.2265058876e+000	-2.2999940246e-001
 3.8477810517e+000	 2.2684381848e+000	-2.5095763606e-001
 3.8228771944e+000	 2.3101601684e+000	-2.6962673069e-001
 3.7974870994e+000	 2.3516634514e+000	-2.8662917767e-001
 3.7716134707e+000	 2.3929396811e+000	-3.0256016905e-001
 3.7452592011e+000	 2.4339805451e+000	-3.1799098490e-001
 3.7184273714e+000	 2.4747777761e+000	-3.3347317406e-001
 3.6911212498e+000	 2.5153231572e+000	-3.4954350810e-001
 3.6633442912e+000	 2.5556085274e+000	-3.6672968045e-001
 3.6351001357e+000	 2.5956257866e+000	-3.8555671382e-001
 3.4180690289e+000	 2.4406557675e+000	-4.6372343929e-001
 3.3910754624e+000	 2.4780241655e+000	-4.8234683332e-001
 3.3636499503e+000	 2.5151254134e+000	-4.9306599113e-001
 3.3357964246e+000	 2.5519520908e+000	-4.9383400815e-001
 3.3075189860e+000	 2.5884968541e+000	-4.9103415452e-001
 3.2788219018e+000	 2.6247524410e+000	-4.9560392833e-001
 3.2497096041e+000	 2.6607116751e+000	-5.0743362524e-001
 3.2201866875e+000	 2.6963674709e+000	-5.2488402078e-001
 3.1902579069e+000	 2.7317128383e+000	-5.4470387004e-001
 3.1599281749e+000	 2.7667408867e+000	-5.6521949908e-001
 3.1292025590e+000	 2.8014448300e+000	-5.8454633663e-001
 3.4397721396e+000	 2.4561527694e+000	-4.5058904533e-001
 3.4126071768e+000	 2.4937584389e+000	-4.7249289329e-001
 3.3850075257e+000	 2.5310952621e+000	-4.8845655937e-001
 3.3569771434e+000	 2.5681557714e+000	-4.9636289926e-001
 3.3285201565e+000	 2.6049325766e+000	-4.9446182303e-001
 3.2996408595e+000	 2.6414183691e+000	-4.9447119872e-001
 3.2703437126e+000	 2.6776059272e+000	-5.0304238285e-001
 3.2406333396e+000	 2.7134881204e+000	-5.1729489173e-001
 3.2105145255e+000	 2.7490579140e+000	-5.3513699419e-001
 3.1799922140e+000	 2.7843083738e+000	-5.5490629104e-001
 3.1490715051e+000	 2.8192326707e+000	-5.7467560928e-001
 3.4614752502e+000	 2.4716497713e+000	-4.3866166295e-001
 3.4341388912e+000	 2.5094927124e+000	-4.6296475197e-001
 3.4063651012e+000	 2.5470651107e+000	-4.8312641808e-001
 3.3781578623e+000	 2.5843594519e+000	-4.9700680280e-001
 3.3495213271e+000	 2.6213682990e+000	-5.0254558059e-001
 3.3204598173e+000	 2.6580842972e+000	-4.9989760346e-001
 3.2909778211e+000	 2.6945001794e+000	-5.0319179045e-001
 3.2610799916e+000	 2.7306087699e+000	-5.1291225561e-001
 3.2307711440e+000	 2.7664029897e+000	-5.2762589385e-001
 3.2000562532e+000	 2.8018758610e+000	-5.4567757388e-001
 3.1689404513e+000	 2.8370205113e+000	-5.6513636010e-001
 3.4831783609e+000	 2.4871467732e+000	-4.2791221013e-001
 3.4556706056e+000	 2.5252269858e+000	-4.5381767854e-001
 3.4277226766e+000	 2.5630349594e+000	-4.7720183524e-001
 3.3993385811e+000	 2.6005631325e+000	-4.9594877599e-001
 3.3705224976e+000	 2.6378040214e+000	-5.0802276387e-001
 3.3412787750e+000	 2.6747502254e+000	-5.1141093743e-001
 3.3116119296e+000	 2.7113944315e+000	-5.0830473359e-001
 3.2815266437e+000	 2.7477294193e+000	-5.1218581604e-001
 3.2510277626e+000	 2.7837480654e+000	-5.2258636101e-001
 3.2201202924e+000	 2.8194433481e+000	-5.3789818858e-001
 3.1888093974e+000	 2.8548083520e+000	-5.5622456315e-001
 3.5048814716e+000	 2.5026437751e+000	-4.1832294704e-001
 3.4772023200e+000	 2.5409612592e+000	-4.4511609590e-001
 3.4490802521e+000	 2.5790048081e+000	-4.7081637031e-001
 3.4205192999e+000	 2.6167668131e+000	-4.9337765186e-001
 3.3915236682e+000	 2.6542397438e+000	-5.1083372870e-001
 3.3620977327e+000	 2.6914161535e+000	-5.2067911586e-001
 3.3322460381e+000	 2.7282886836e+000	-5.1880445899e-001
 3.3019732957e+000	 2.7648500688e+000	-5.1552164576e-001
 3.2712843811e+000	 2.8010931411e+000	-5.2039158738e-001
 3.2401843316e+000	 2.8370108352e+000	-5.3189186391e-001
 3.2086783436e+000	 2.8725961926e+000	-5.4819703888e-001
 3.5265845823e+000	 2.5181407770e+000	-4.0988735827e-001
 3.4987340343e+000	 2.5566955327e+000	-4.3693353408e-001
 3.4704378275e+000	 2.5949746568e+000	-4.6411088925e-001
 3.4417000187e+000	 2.6329704936e+000	-4.8948810580e-001
 3.4125248387e+000	 2.6706754662e+000	-5.1119810939e-001
 3.3829166905e+000	 2.7080820816e+000	-5.2581057914e-001
 3.3528801466e+000	 2.7451829358e+000	-5.3007039017e-001
 3.3224199478e+000	 2.7819707182e+000	-5.2328357390e-001
 3.2915409996e+000	 2.8184382168e+000	-5.2137356703e-001
 3.2602483708e+000	 2.8545783224e+000	-5.2794261947e-001
 3.2285472897e+000	 2.8903840333e+000	-5.4127284192e-001
 3.5482876930e+000	 2.5336377790e+000	-4.0261003203e-001
 3.5202657487e+000	 2.5724298061e+000	-4.2935257788e-001
 3.4917954030e+000	 2.6109445055e+000	-4.5723357171e-001
 3.4628807375e+000	 2.6491741742e+000	-4.8448071260e-001
 3.4335260093e+000	 2.6871111886e+000	-5.0902988535e-001
 3.4037356482e+000	 2.7247480097e+000	-5.2712627566e-001
 3.3735142551e+000	 2.7620771879e+000	-5.3635467327e-001
 3.3428665998e+000	 2.7990913677e+000	-5.3460137849e-001
 3.3117976182e+000	 2.8357832925e+000	-5.2582448774e-001
 3.2803124100e+000	 2.8721458095e+000	-5.2629615856e-001
 3.2484162359e+000	 2.9081718739e+000	-5.3563464030e-001
 3.5699908036e+000	 2.5491347809e+000	-3.9650653604e-001
 3.5417974631e+000	 2.5881640796e+000	-4.2246480911e-001
 3.5131529784e+000	 2.6269143542e+000	-4.5033991078e-001
 3.4840614564e+000	 2.6653778548e+000	-4.7856199447e-001
 3.4545271798e+000	 2.7035469110e+000	-5.0448077029e-001
 3.4245546059e+000	 2.7414139378e+000	-5.2495356037e-001
 3.3941483636e+000	 2.7789714400e+000	-5.3798329608e-001
 3.3633132518e+000	 2.8162120171e+000	-5.4162182802e-001
 3.3320542367e+000	 2.8531283682e+000	-5.3399811145e-001
 3.3003764491e+000	 2.8897132967e+000	-5.2716125109e-001
 3.2682851820e+000	 2.9259597146e+000	-5.3143008628e-001
 3.5916939143e+000	 2.5646317828e+000	-3.9160329063e-001
 3.5633291775e+000	 2.6038983530e+000	-4.1637074361e-001
 3.5345105539e+000	 2.6428842029e+000	-4.4359270567e-001
 3.5052421752e+000	 2.6815815353e+000	-4.7178060513e-001
 3.4755283504e+000	 2.7199826334e+000	-4.9785695991e-001
 3.4453735637e+000	 2.7580798659e+000	-5.1962567051e-001
 3.4147824721e+000	 2.7958656922e+000	-5.3530212324e-001
 3.3837599039e+000	 2.8333326666e+000	-5.4314237701e-001
 3.3523108553e+000	 2.8704734439e+000	-5.4145237540e-001
 3.3204404883e+000	 2.9072807838e+000	-5.3071110710e-001
 3.2881541282e+000	 2.9437475552e+000	-5.2877317925e-001
 3.6133970250e+000	 2.5801287847e+000	-3.8793743882e-001
 3.5848608919e+000	 2.6196326264e+000	-4.1117976325e-001
 3.5558681293e+000	 2.6588540516e+000	-4.3716204754e-001
 3.5264228940e+000	 2.6977852159e+000	-4.6416522585e-001
 3.4965295210e+000	 2.7364183558e+000	-4.8947085782e-001
 3.4661925214e+000	 2.7747457941e+000	-5.1148119109e-001
 3.4354165807e+000	 2.8127599443e+000	-5.2866188456e-001
 3.4042065559e+000	 2.8504533161e+000	-5.3951119113e-001
 3.3725674738e+000	 2.8878185197e+000	-5.4256886235e-001
 3.3405045275e+000	 2.9248482709e+000	-5.3642564887e-001
 3.3080230744e+000	 2.9615353959e+000	-5.2774562105e-001
 3.6351001357e+000	 2.5956257866e+000	-3.8555671382e-001
 3.6063926063e+000	 2.6353668999e+000	-4.0701004319e-001
 3.5772257048e+000	 2.6748239003e+000	-4.3118564454e-001
 3.5476036128e+000	 2.7139888964e+000	-4.5599421001e-001
 3.5175306915e+000	 2.7528540782e+000	-4.7964051574e-001
 3.4870114791e+000	 2.7914117222e+000	-5.0086351059e-001
 3.4560506892e+000	 2.8296541964e+000	-5.1841763698e-001
 3.4246532080e+000	 2.8675739655e+000	-5.3108067205e-001
 3.3928240923e+000	 2.9051635954e+000	-5.3766225159e-001
 3.3605685667e+000	 2.9424157581e+000	-5.3701303922e-001
 3.3278920205e+000	 2.9793232365e+000	-5.2839816395e-001
 3.1292025590e+000	 2.8014448300e+000	-5.8454633663e-001
 3.0980909760e+000	 2.8358128606e+000	-6.0221518681e-001
 3.0665942160e+000	 2.8698436485e+000	-6.1902671559e-001
 3.0347177951e+000	 2.9035307518e+000	-6.3463180523e-001
 3.0024673720e+000	 2.9368678494e+000	-6.4845527148e-001
 2.9698487452e+000	 2.9698487452e+000	-6.5972360592e-001
 2.9368678494e+000	 3.0024673720e+000	-6.6749343788e-001
 2.9035307518e+000	 3.0347177951e+000	-6.7068046021e-001
 2.8698436485e+000	 3.0665942160e+000	-6.6808856425e-001
 2.8358128606e+000	 3.0980909760e+000	-6.5843893201e-001
 2.8014448300e+000	 3.1292025590e+000	-6.4039883872e-001
 3.1490715051e+000	 2.8192326707e+000	-5.7467560928e-001
 3.1177623784e+000	 2.8538189218e+000	-5.9339165550e-001
 3.0860656290e+000	 2.8880657891e+000	-6.1127698675e-001
 3.0539868080e+000	 2.9219667895e+000	-6.2793569579e-001
 3.0215316100e+000	 2.9555155617e+000	-6.4273819751e-001
 2.9887058705e+000	 2.9887058705e+000	-6.5485027325e-001
 2.9555155617e+000	 3.0215316100e+000	-6.6326284570e-001
 2.9219667895e+000	 3.0539868080e+000	-6.6682221780e-001
 2.8880657891e+000	 3.0860656290e+000	-6.6426051013e-001
 2.8538189218e+000	 3.1177623784e+000	-6.5422603419e-001
 2.8192326707e+000	 3.1490715051e+000	-6.3531334444e-001
 3.1689404513e+000	 2.8370205113e+000	-5.6513636010e-001
 3.1374337808e+000	 2.8718249831e+000	-5.8437538378e-001
 3.1055370420e+000	 2.9062879297e+000	-6.0300256941e-001
 3.0732558209e+000	 2.9404028271e+000	-6.2054276614e-001
 3.0405958481e+000	 2.9741632741e+000	-6.3628003049e-001
 3.0075629958e+000	 3.0075629958e+000	-6.4928807831e-001
 2.9741632741e+000	 3.0405958481e+000	-6.5846147666e-001
 2.9404028271e+000	 3.0732558209e+000	-6.6254729766e-001
 2.9062879297e+000	 3.1055370420e+000	-6.6017695744e-001
 2.8718249831e+000	 3.1374337808e+000	-6.4989796654e-001
 2.8370205113e+000	 3.1689404513e+000	-6.3020532404e-001
 3.1888093974e+000	 2.8548083520e+000	-5.5622456315e-001
 3.1571051832e+000	 2.8898310444e+000	-5.7538878957e-001
 3.1250084550e+000	 2.9245100703e+000	-5.9436171074e-001
 3.0925248338e+000	 2.9588388648e+000	-6.1255691281e-001
 3.0596600862e+000	 2.9928109864e+000	-6.2914056397e-001
 3.0264201211e+000	 3.0264201211e+000	-6.4306338065e-001
 2.9928109864e+000	 3.0596600862e+000	-6.5309334136e-001
 2.9588388648e+000	 3.0925248338e+000	-6.5784885819e-001
 2.9245100703e+000	 3.1250084550e+000	-6.5583211737e-001
 2.8898310444e+000	 3.1571051832e+000	-6.4546230376e-001
 2.8548083520e+000	 3.1888093974e+000	-6.2510843019e-001
 3.2086783436e+000	 2.8725961926e+000	-5.4819703888e-001
 3.1767765856e+000	 2.9078371057e+000	-5.6661722998e-001
 3.1444798680e+000	 2.9427322108e+000	-5.8547746687e-001
 3.1117938467e+000	 2.9772749024e+000	-6.0404846875e-001
 3.0787243242e+000	 3.0114586987e+000	-6.2134739413e-001
 3.0452772465e+000	 3.0452772465e+000	-6.3617142892e-001
 3.0114586987e+000	 3.0787243242e+000	-6.4713212815e-001
 2.9772749024e+000	 3.1117938467e+000	-6.5269020887e-001
 2.9427322108e+000	 3.1444798680e+000	-6.5119049329e-001
 2.9078371057e+000	 3.1767765856e+000	-6.4089670505e-001
 2.8725961926e+000	 3.2086783436e+000	-6.2002582799e-001
 3.2285472897e+000	 2.8903840333e+000	-5.4127284192e-001
 3.1964479881e+000	 2.9258431670e+000	-5.5821036828e-001
 3.1639512810e+000	 2.9609543514e+000	-5.7643905416e-001
 3.1310628596e+000	 2.9957109400e+000	-5.9505554440e-001
 3.0977885623e+000	 3.0301064111e+000	-6.1289725649e-001
 3.0641343718e+000	 3.0641343718e+000	-6.2857769939e-001
 3.0301064111e+000	 3.0977885623e+000	-6.4052255005e-001
 2.9957109400e+000	 3.1310628596e+000	-6.4700617245e-001
 2.9609543514e+000	 3.1639512810e+000	-6.4618826526e-001
 2.9258431670e+000	 3.1964479881e+000	-6.3615032859e-001
 2.8903840333e+000	 3.2285472897e+000	-6.1493164712e-001
 3.2484162359e+000	 2.9081718739e+000	-5.3563464030e-001
 3.2161193905e+000	 2.9438492282e+000	-5.5028353398e-001
 3.1834226940e+000	 2.9791764920e+000	-5.6730319518e-001
 3.1503318725e+000	 3.0141469777e+000	-5.8558536476e-001
 3.1168528004e+000	 3.0487541234e+000	-6.0375735971e-001
 3.0829914971e+000	 3.0829914971e+000	-6.2021923238e-001
 3.0487541234e+000	 3.1168528004e+000	-6.3318169001e-001
 3.0141469777e+000	 3.1503318725e+000	-6.4070444556e-001
 2.9791764920e+000	 3.1834226940e+000	-6.4073467293e-001
 2.9438492282e+000	 3.2161193905e+000	-6.3114524383e-001
 2.9081718739e+000	 3.2484162359e+000	-6.0977243108e-001
 3.2682851820e+000	 2.9259597146e+000	-5.3143008628e-001
 3.2357907929e+000	 2.9618552895e+000	-5.4291907638e-001
 3.2028941070e+000	 2.9973986326e+000	-5.5809545954e-001
 3.1696008853e+000	 3.0325830153e+000	-5.7561560267e-001
 3.1359170384e+000	 3.0674018357e+000	-5.9386671655e-001
 3.1018486224e+000	 3.1018486224e+000	-6.1100596662e-001
 3.0674018357e+000	 3.1359170384e+000	-6.2500034458e-001
 3.0325830153e+000	 3.1696008853e+000	-6.3366695800e-001
 2.9973986326e+000	 3.2028941070e+000	-6.3471339701e-001
 2.9618552895e+000	 3.2357907929e+000	-6.2577784197e-001
 2.9259597146e+000	 3.2682851820e+000	-6.0446858372e-001
 3.2881541282e+000	 2.9437475552e+000	-5.2877317925e-001
 3.2554621953e+000	 2.9798613508e+000	-5.3616771175e-001
 3.2223655200e+000	 3.0156207731e+000	-5.4881159996e-001
 3.1888698982e+000	 3.0510190530e+000	-5.6509570839e-001
 3.1549812765e+000	 3.0860495481e+000	-5.8313747220e-001
 3.1207057477e+000	 3.1207057477e+000	-6.0082207164e-001
 3.0860495481e+000	 3.1549812765e+000	-6.1584436614e-001
 3.0510190530e+000	 3.1888698982e+000	-6.2575123071e-001
 3.0156207731e+000	 3.2223655200e+000	-6.2798393918e-001
 2.9798613508e+000	 3.2554621953e+000	-6.1992024440e-001
 2.9437475552e+000	 3.2881541282e+000	-5.9891581316e-001
 3.3080230744e+000	 2.9615353959e+000	-5.2774562105e-001
 3.2751335977e+000	 2.9978674121e+000	-5.3004986453e-001
 3.2418369329e+000	 3.0338429137e+000	-5.3941888355e-001
 3.2081389111e+000	 3.0694550906e+000	-5.5394823572e-001
 3.1740455146e+000	 3.1046972604e+000	-5.7145623001e-001
 3.1395628730e+000	 3.1395628730e+000	-5.8952727830e-001
 3.1046972604e+000	 3.1740455146e+000	-6.0555600359e-001
 3.0694550906e+000	 3.2081389111e+000	-6.1679173237e-001
 3.0338429137e+000	 3.2418369329e+000	-6.2038300066e-001
 2.9978674121e+000	 3.2751335977e+000	-6.1342170945e-001
 2.9615353959e+000	 3.3080230744e+000	-5.9298657312e-001
 3.3278920205e+000	 2.9793232365e+000	-5.2839816395e-001
 3.2948050001e+000	 3.0158734733e+000	-5.2455700265e-001
 3.2613083459e+000	 3.0520650543e+000	-5.2985741873e-001
 3.2274079240e+000	 3.0878911282e+000	-5.4207016478e-001
 3.1931097526e+000	 3.1233449728e+000	-5.5868537478e-001
 3.1584199984e+000	 3.1584199984e+000	-5.7695820751e-001
 3.1233449728e+000	 3.1931097526e+000	-5.9395524173e-001
 3.0878911282e+000	 3.2274079240e+000	-6.0660123488e-001
 3.0520650543e+000	 3.2613083459e+000	-6.1172585943e-001
 3.0158734733e+000	 3.2948050001e+000	-6.0611003736e-001
 2.9793232365e+000	 3.3278920205e+000	-5.8653150195e-001
 2.8014448300e+000	 3.1292025590e+000	-6.4039883872e-001
 2.7667408867e+000	 3.1599281749e+000	-6.2404197256e-001
 2.7317128383e+000	 3.1902579069e+000	-6.1883050393e-001
 2.6963674709e+000	 3.2201866875e+000	-6.2251641534e-001
 2.6607116751e+000	 3.2497096041e+000	-6.3279372572e-001
 2.6247524410e+000	 3.2788219018e+000	-6.4213089595e-001
 2.5884968541e+000	 3.3075189860e+000	-6.4682790485e-001
 2.5519520908e+000	 3.3357964246e+000	-6.4663822674e-001
 2.5151254134e+000	 3.3636499503e+000	-6.4294755458e-001
 2.4780241655e+000	 3.3910754624e+000	-6.3633646755e-001
 2.4406557675e+000	 3.4180690289e+000	-6.2619727505e-001
 2.8192326707e+000	 3.1490715051e+000	-6.3531334444e-001
 2.7843083738e+000	 3.1799922140e+000	-6.1767010130e-001
 2.7490579140e+000	 3.2105145255e+000	-6.1089962415e-001
 2.7134881204e+000	 3.2406333396e+000	-6.1278298720e-001
 2.6776059272e+000	 3.2703437126e+000	-6.2117231852e-001
 2.6414183691e+000	 3.2996408595e+000	-6.3199136760e-001
 2.6049325766e+000	 3.3285201565e+000	-6.3817894593e-001
 2.5681557714e+000	 3.3569771434e+000	-6.4021080049e-001
 2.5310952621e+000	 3.3850075257e+000	-6.3960692388e-001
 2.4937584389e+000	 3.4126071768e+000	-6.3578781179e-001
 2.4561527694e+000	 3.4397721396e+000	-6.2822051409e-001
 2.8370205113e+000	 3.1689404513e+000	-6.3020532404e-001
 2.8018758610e+000	 3.2000562532e+000	-6.1128150965e-001
 2.7664029897e+000	 3.2307711440e+000	-6.0286217826e-001
 2.7306087699e+000	 3.2610799916e+000	-6.0277701417e-001
 2.6945001794e+000	 3.2909778211e+000	-6.0892833432e-001
 2.6580842972e+000	 3.3204598173e+000	-6.1909412356e-001
 2.6213682990e+000	 3.3495213271e+000	-6.2686876570e-001
 2.5843594519e+000	 3.3781578623e+000	-6.3197065794e-001
 2.5470651107e+000	 3.4063651012e+000	-6.3414165446e-001
 2.5094927124e+000	 3.4341388912e+000	-6.3285126559e-001
 2.4716497713e+000	 3.4614752502e+000	-6.2766050185e-001
 2.8548083520e+000	 3.1888093974e+000	-6.2510843019e-001
 2.8194433481e+000	 3.2201202924e+000	-6.0494078023e-001
 2.7837480654e+000	 3.2510277626e+000	-5.9481011330e-001
 2.7477294193e+000	 3.2815266437e+000	-5.9261384083e-001
 2.7113944315e+000	 3.3116119296e+000	-5.9632352493e-001
 2.6747502254e+000	 3.3412787750e+000	-6.0415324456e-001
 2.6378040214e+000	 3.3705224976e+000	-6.1459572915e-001
 2.6005631325e+000	 3.3993385811e+000	-6.2247487165e-001
 2.5630349594e+000	 3.4277226766e+000	-6.2710709572e-001
 2.5252269858e+000	 3.4556706056e+000	-6.2807580352e-001
 2.4871467732e+000	 3.4831783609e+000	-6.2505495636e-001
 2.8725961926e+000	 3.2086783436e+000	-6.2002582799e-001
 2.8370108352e+000	 3.2401843316e+000	-5.9868126115e-001
 2.8010931411e+000	 3.2712843811e+000	-5.8680342403e-001
 2.7648500688e+000	 3.3019732957e+000	-5.8237617708e-001
 2.7282886836e+000	 3.3322460381e+000	-5.8345900796e-001
 2.6914161535e+000	 3.3620977327e+000	-5.9007611513e-001
 2.6542397438e+000	 3.3915236682e+000	-6.0189834249e-001
 2.6167668131e+000	 3.4205192999e+000	-6.1221850341e-001
 2.5790048081e+000	 3.4490802521e+000	-6.1899609276e-001
 2.5409612592e+000	 3.4772023200e+000	-6.2194750649e-001
 2.5026437751e+000	 3.5048814716e+000	-6.2087842610e-001
 2.8903840333e+000	 3.2285472897e+000	-6.1493164712e-001
 2.8545783224e+000	 3.2602483708e+000	-5.9250655766e-001
 2.8184382168e+000	 3.2915409996e+000	-5.7887167955e-001
 2.7819707182e+000	 3.3224199478e+000	-5.7211565488e-001
 2.7451829358e+000	 3.3528801466e+000	-5.7130494918e-001
 2.7080820816e+000	 3.3829166905e+000	-5.7763730299e-001
 2.6706754662e+000	 3.4125248387e+000	-5.8924753609e-001
 2.6329704936e+000	 3.4417000187e+000	-6.0163634713e-001
 2.5949746568e+000	 3.4704378275e+000	-6.1024072572e-001
 2.5566955327e+000	 3.4987340343e+000	-6.1489129117e-001
 2.5181407770e+000	 3.5265845823e+000	-6.1554400266e-001
 2.9081718739e+000	 3.2484162359e+000	-6.0977243108e-001
 2.8721458095e+000	 3.2803124100e+000	-5.8639202008e-001
 2.8357832925e+000	 3.3117976182e+000	-5.7101554536e-001
 2.7990913677e+000	 3.3428665998e+000	-5.6207722538e-001
 2.7620771879e+000	 3.3735142551e+000	-5.6105205797e-001
 2.7247480097e+000	 3.4037356482e+000	-5.6698039265e-001
 2.6871111886e+000	 3.4335260093e+000	-5.7784135278e-001
 2.6491741742e+000	 3.4628807375e+000	-5.9110466466e-001
 2.6109445055e+000	 3.4917954030e+000	-6.0121404228e-001
 2.5724298061e+000	 3.5202657487e+000	-6.0727263264e-001
 2.5336377790e+000	 3.5482876930e+000	-6.0940502698e-001
 2.9259597146e+000	 3.2682851820e+000	-6.0446858372e-001
 2.8897132967e+000	 3.3003764491e+000	-5.8028622800e-001
 2.8531283682e+000	 3.3320542367e+000	-5.6320830088e-001
 2.8162120171e+000	 3.3633132518e+000	-5.5380147918e-001
 2.7789714400e+000	 3.3941483636e+000	-5.5278393894e-001
 2.7414139378e+000	 3.4245546059e+000	-5.5819847948e-001
 2.7035469110e+000	 3.4545271798e+000	-5.6817168676e-001
 2.6653778548e+000	 3.4840614564e+000	-5.8094291505e-001
 2.6269143542e+000	 3.5131529784e+000	-5.9223178346e-001
 2.5881640796e+000	 3.5417974631e+000	-5.9939928051e-001
 2.5491347809e+000	 3.5699908036e+000	-6.0275678928e-001
 2.9437475552e+000	 3.2881541282e+000	-5.9891581316e-001
 2.9072807838e+000	 3.3204404883e+000	-5.7411247102e-001
 2.8704734439e+000	 3.3523108553e+000	-5.5630616794e-001
 2.8333326666e+000	 3.3837599039e+000	-5.4759167608e-001
 2.7958656922e+000	 3.4147824721e+000	-5.4653433534e-001
 2.7580798659e+000	 3.4453735637e+000	-5.5133660334e-001
 2.7199826334e+000	 3.4755283504e+000	-5.6029049894e-001
 2.6815815353e+000	 3.5052421752e+000	-5.7180657122e-001
 2.6428842029e+000	 3.5345105539e+000	-5.8355410298e-001
 2.6038983530e+000	 3.5633291775e+000	-5.9152296880e-001
 2.5646317828e+000	 3.5916939143e+000	-5.9583822321e-001
 2.9615353959e+000	 3.3080230744e+000	-5.9298657312e-001
 2.9248482709e+000	 3.3405045275e+000	-5.6790262742e-001
 2.8878185197e+000	 3.3725674738e+000	-5.5140031508e-001
 2.8504533161e+000	 3.4042065559e+000	-5.4342202682e-001
 2.8127599443e+000	 3.4354165807e+000	-5.4229211420e-001
 2.7747457941e+000	 3.4661925214e+000	-5.4639417661e-001
 2.7364183558e+000	 3.4965295210e+000	-5.5420337406e-001
 2.6977852159e+000	 3.5264228940e+000	-5.6431593916e-001
 2.6588540516e+000	 3.5558681293e+000	-5.7538728063e-001
 2.6196326264e+000	 3.5848608919e+000	-5.8384111985e-001
 2.5801287847e+000	 3.6133970250e+000	-5.8883359415e-001
 2.9793232365e+000	 3.3278920205e+000	-5.8653150195e-001
 2.9424157581e+000	 3.3605685667e+000	-5.6303531197e-001
 2.9051635954e+000	 3.3928240923e+000	-5.4840933521e-001
 2.8675739655e+000	 3.4246532080e+000	-5.4122500834e-001
 2.8296541964e+000	 3.4560506892e+000	-5.4000367836e-001
 2.7914117222e+000	 3.4870114791e+000	-5.4332740683e-001
 2.7528540782e+000	 3.5175306915e+000	-5.4987194781e-001
 2.7139888964e+000	 3.5476036128e+000	-5.5843679498e-001
 2.6748239003e+000	 3.5772257048e+000	-5.6797210814e-001
 2.6353668999e+000	 3.6063926063e+000	-5.7649854247e-001
 2.5956257866e+000	 3.6351001357e+000	-5.8187418220e-001
 2.4406557675e+000	 3.4180690289e+000	-6.2619727505e-001
 2.4030277108e+000	 3.4446268869e+000	-6.1135058187e-001
 2.3651475504e+000	 3.4707454417e+000	-5.9202051652e-001
 2.3270229028e+000	 3.4964212704e+000	-5.6981403166e-001
 2.2886614419e+000	 3.5216511245e+000	-5.4638555792e-001
 2.2500708939e+000	 3.5464319309e+000	-5.2343764601e-001
 2.2112590326e+000	 3.5707607927e+000	-5.0272038655e-001
 2.1722336741e+000	 3.5946349899e+000	-4.8602963861e-001
 2.1330026723e+000	 3.6180519798e+000	-4.7520411025e-001
 2.0935739135e+000	 3.6410093978e+000	-4.7212134541e-001
 2.0539553118e+000	 3.6635050572e+000	-4.7869268192e-001
 2.4561527694e+000	 3.4397721396e+000	-6.2822051409e-001
 2.4182857924e+000	 3.4664986274e+000	-6.1539936499e-001
 2.3801651111e+000	 3.4927830225e+000	-5.9720111549e-001
 2.3417983901e+000	 3.5186218805e+000	-5.7527617556e-001
 2.3031933522e+000	 3.5440119321e+000	-5.5132301440e-001
 2.2643577727e+000	 3.5689500849e+000	-5.2708868951e-001
 2.2252994745e+000	 3.5934334234e+000	-5.0436809602e-001
 2.1860263235e+000	 3.6174592103e+000	-4.8500196949e-001
 2.1465462235e+000	 3.6410248870e+000	-4.7087368842e-001
 2.1068671109e+000	 3.6641280737e+000	-4.6390493404e-001
 2.0669969500e+000	 3.6867665698e+000	-4.6605027617e-001
 2.4716497713e+000	 3.4614752502e+000	-6.2766050185e-001
 2.4335438741e+000	 3.4883703678e+000	-6.1675782103e-001
 2.3951826718e+000	 3.5148206033e+000	-5.9967255161e-001
 2.3565738775e+000	 3.5408224906e+000	-5.7808721945e-001
 2.3177252626e+000	 3.5663727398e+000	-5.5373352331e-001
 2.2786446514e+000	 3.5914682389e+000	-5.2839276227e-001
 2.2393399163e+000	 3.6161060541e+000	-5.0389492223e-001
 2.1998189730e+000	 3.6402834308e+000	-4.8211645732e-001
 2.1600897748e+000	 3.6639977942e+000	-4.6497681519e-001
 2.1201603083e+000	 3.6872467495e+000	-4.5443376746e-001
 2.0800385881e+000	 3.7100280824e+000	-4.5247761787e-001
 2.4871467732e+000	 3.4831783609e+000	-6.2505495636e-001
 2.4488019558e+000	 3.5102421082e+000	-6.1595263172e-001
 2.4102002324e+000	 3.5368581841e+000	-5.9995618178e-001
 2.3713493648e+000	 3.5630231007e+000	-5.7876927974e-001
 2.3322571729e+000	 3.5887335475e+000	-5.5414642375e-001
 2.2929315301e+000	 3.6139863929e+000	-5.2789327336e-001
 2.2533803582e+000	 3.6387786847e+000	-5.0186558017e-001
 2.2136116224e+000	 3.6631076512e+000	-4.7796675130e-001
 2.1736333260e+000	 3.6869707013e+000	-4.5814409748e-001
 2.1334535057e+000	 3.7103654254e+000	-4.4438383077e-001
 2.0930802263e+000	 3.7332895950e+000	-4.3870488863e-001
 2.5026437751e+000	 3.5048814716e+000	-6.2087842610e-001
 2.4640600374e+000	 3.5321138487e+000	-6.1344702460e-001
 2.4252177931e+000	 3.5588957649e+000	-5.9850948425e-001
 2.3861248521e+000	 3.5852237108e+000	-5.7778002616e-001
 2.3467890832e+000	 3.6110943551e+000	-5.5302589339e-001
 2.3072184088e+000	 3.6365045468e+000	-5.2606760625e-001
 2.2674208001e+000	 3.6614513154e+000	-4.9877774351e-001
 2.2274042718e+000	 3.6859318717e+000	-4.7307829039e-001
 2.1871768773e+000	 3.7099436085e+000	-4.5093660859e-001
 2.1467467031e+000	 3.7334841012e+000	-4.3436009701e-001
 2.1061218644e+000	 3.7565511076e+000	-4.2538962413e-001
 2.5181407770e+000	 3.5265845823e+000	-6.1554400266e-001
 2.4793181191e+000	 3.5539855891e+000	-6.0964246601e-001
 2.4402353538e+000	 3.5809333458e+000	-5.9572773297e-001
 2.4009003395e+000	 3.6074243209e+000	-5.7551433891e-001
 2.3613209935e+000	 3.6334551628e+000	-5.5077258995e-001
 2.3215052875e+000	 3.6590227008e+000	-5.2332874656e-001
 2.2814612420e+000	 3.6841239461e+000	-4.9506366067e-001
 2.2411969213e+000	 3.7087560921e+000	-4.6790990996e-001
 2.2007204285e+000	 3.7329165157e+000	-4.4384748803e-001
 2.1600399005e+000	 3.7566027771e+000	-4.2489812279e-001
 2.1191635026e+000	 3.7798126202e+000	-4.1311830852e-001
 2.5336377790e+000	 3.5482876930e+000	-6.0940502698e-001
 2.4945762008e+000	 3.5758573295e+000	-6.0488034788e-001
 2.4552529145e+000	 3.6029709266e+000	-5.9194566612e-001
 2.4156758268e+000	 3.6296249310e+000	-5.7230596008e-001
 2.3758529038e+000	 3.6558159705e+000	-5.4772528715e-001
 2.3357921662e+000	 3.6815408548e+000	-5.2002690413e-001
 2.2955016839e+000	 3.7067965767e+000	-4.9109176489e-001
 2.2549895707e+000	 3.7315803126e+000	-4.6285544204e-001
 2.2142639798e+000	 3.7558894229e+000	-4.3730353426e-001
 2.1733330979e+000	 3.7797214530e+000	-4.1646563613e-001
 2.1322051407e+000	 3.8030741328e+000	-4.0240796029e-001
 2.5491347809e+000	 3.5699908036e+000	-6.0275678928e-001
 2.5098342824e+000	 3.5977290700e+000	-5.9944366872e-001
 2.4702704752e+000	 3.6250085074e+000	-5.8743914899e-001
 2.4304513141e+000	 3.6518255411e+000	-5.6842913969e-001
 2.3903848141e+000	 3.6781767781e+000	-5.4416250512e-001
 2.3500790449e+000	 3.7040590088e+000	-5.1645112936e-001
 2.3095421257e+000	 3.7294692074e+000	-4.8716827846e-001
 2.2687822201e+000	 3.7544045330e+000	-4.5824530934e-001
 2.2278075310e+000	 3.7788623301e+000	-4.3166679073e-001
 2.1866262953e+000	 3.8028401288e+000	-4.0946411703e-001
 2.1452467789e+000	 3.8263356453e+000	-3.9370770977e-001
 2.5646317828e+000	 3.5916939143e+000	-5.9583822321e-001
 2.5250923641e+000	 3.6196008104e+000	-5.9355870904e-001
 2.4852880359e+000	 3.6470460882e+000	-5.8242683157e-001
 2.4452268014e+000	 3.6740261512e+000	-5.6410027642e-001
 2.4049167245e+000	 3.7005375858e+000	-5.4030413562e-001
 2.3643659237e+000	 3.7265771628e+000	-5.1283092445e-001
 2.3235825676e+000	 3.7521418381e+000	-4.8353881139e-001
 2.2825748696e+000	 3.7772287535e+000	-4.5434811334e-001
 2.2413510823e+000	 3.8018352373e+000	-4.2723612548e-001
 2.1999194927e+000	 3.8259588047e+000	-4.0423037074e-001
 2.1582884170e+000	 3.8495971579e+000	-3.8740036879e-001
 2.5801287847e+000	 3.6133970250e+000	-5.8883359415e-001
 2.5403504458e+000	 3.6414725508e+000	-5.8739670136e-001
 2.5003055965e+000	 3.6690836690e+000	-5.7707180098e-001
 2.4600022888e+000	 3.6962267613e+000	-5.5947955343e-001
 2.4194486348e+000	 3.7228983934e+000	-5.3631306225e-001
 2.3786528024e+000	 3.7490953168e+000	-5.0933784934e-001
 2.3376230095e+000	 3.7748144687e+000	-4.8038995478e-001
 2.2963675190e+000	 3.8000529739e+000	-4.5137221676e-001
 2.2548946335e+000	 3.8248081445e+000	-4.2424880458e-001
 2.2132126902e+000	 3.8490774805e+000	-4.0103809444e-001
 2.1713300552e+000	 3.8728586705e+000	-3.8380399281e-001
 2.5956257866e+000	 3.6351001357e+000	-5.8187418220e-001
 2.5556085274e+000	 3.6633442912e+000	-5.8107549513e-001
 2.5153231572e+000	 3.6911212498e+000	-5.7148322898e-001
 2.4747777761e+000	 3.7184273714e+000	-5.5467256924e-001
 2.4339805451e+000	 3.7452592011e+000	-5.3229677593e-001
 2.3929396811e+000	 3.7716134707e+000	-5.0608712288e-001
 2.3516634514e+000	 3.7974870994e+000	-4.7785086906e-001
 2.3101601684e+000	 3.8228771944e+000	-4.4946732046e-001
 2.2684381848e+000	 3.8477810517e+000	-4.2288205963e-001
 2.2265058876e+000	 3.8721961564e+000	-4.0009943722e-001
 2.1843716934e+000	 3.8961201831e+000	-3.8317343569e-001
 2.0539553118e+000	 3.6635050572e+000	-4.7869268192e-001
 2.0141607875e+000	 3.6855336804e+000	-4.9779521984e-001
 1.9741923649e+000	 3.7070968488e+000	-5.2222104647e-001
 1.9340580104e+000	 3.7281929136e+000	-5.1884484647e-001
 1.8937656981e+000	 3.7488204029e+000	-4.9263896035e-001
 1.8533234054e+000	 3.7689780217e+000	-4.5166161542e-001
 1.8127391083e+000	 3.7886646509e+000	-4.0355350175e-001
 1.7720207765e+000	 3.8078793464e+000	-3.5551273882e-001
 1.7311763688e+000	 3.8266213383e+000	-3.1427437711e-001
 1.6902138288e+000	 3.8448900295e+000	-2.8609420322e-001
 1.6491410796e+000	 3.8626849945e+000	-2.7673660042e-001
 2.0669969500e+000	 3.6867665698e+000	-4.6605027617e-001
 2.0269497493e+000	 3.7089350642e+000	-4.7952661604e-001
 1.9867275464e+000	 3.7306351485e+000	-5.0472595959e-001
 1.9463383578e+000	 3.7518651633e+000	-5.0934321158e-001
 1.9057902084e+000	 3.7726236273e+000	-4.8987741398e-001
 1.8650911265e+000	 3.7929092374e+000	-4.5444791101e-001
 1.8242491384e+000	 3.8127208673e+000	-4.1073451847e-001
 1.7832722646e+000	 3.8320575670e+000	-3.6595322621e-001
 1.7421685144e+000	 3.8509185616e+000	-3.2683658168e-001
 1.7009458817e+000	 3.8693032502e+000	-2.9961850756e-001
 1.6596123402e+000	 3.8872112048e+000	-2.9002328921e-001
 2.0800385881e+000	 3.7100280824e+000	-4.5247761787e-001
 2.0397387112e+000	 3.7323364481e+000	-4.6066654857e-001
 1.9992627278e+000	 3.7541734482e+000	-4.8147624732e-001
 1.9586187052e+000	 3.7755374129e+000	-4.9330847240e-001
 1.9178147188e+000	 3.7964268517e+000	-4.7978214377e-001
 1.8768588475e+000	 3.8168404531e+000	-4.4905753802e-001
 1.8357591685e+000	 3.8367770837e+000	-4.0883553805e-001
 1.7945237527e+000	 3.8562357876e+000	-3.6633414025e-001
 1.7531606600e+000	 3.8752157849e+000	-3.2826978743e-001
 1.7116779347e+000	 3.8937164710e+000	-3.0084326396e-001
 1.6700836007e+000	 3.9117374151e+000	-2.8972987240e-001
 2.0930802263e+000	 3.7332895950e+000	-4.3870488863e-001
 2.0525276731e+000	 3.7557378319e+000	-4.4202438163e-001
 2.0117979092e+000	 3.7777117479e+000	-4.5612111414e-001
 1.9708990526e+000	 3.7992096626e+000	-4.7253833653e-001
 1.9298392292e+000	 3.8202300761e+000	-4.6435314438e-001
 1.8886265686e+000	 3.8407716688e+000	-4.3773630610e-001
 1.8472691986e+000	 3.8608333001e+000	-4.0039150147e-001
 1.8057752408e+000	 3.8804140082e+000	-3.5952259917e-001
 1.7641528056e+000	 3.8995130082e+000	-3.2181600979e-001
 1.7224099876e+000	 3.9181296918e+000	-2.9342772724e-001
 1.6805548613e+000	 3.9362636255e+000	-2.7997476037e-001
 2.1061218644e+000	 3.7565511076e+000	-4.2538962413e-001
 2.0653166350e+000	 3.7791392158e+000	-4.2433465374e-001
 2.0243330906e+000	 3.8012500476e+000	-4.3229344325e-001
 1.9831793999e+000	 3.8228819123e+000	-4.4873456624e-001
 1.9418637396e+000	 3.8440333006e+000	-4.4549413038e-001
 1.9003942897e+000	 3.8647028845e+000	-4.2263258276e-001
 1.8587792288e+000	 3.8848895166e+000	-3.8783789297e-001
 1.8170267289e+000	 3.9045922287e+000	-3.4828337255e-001
 1.7751449511e+000	 3.9238102315e+000	-3.1061112248e-001
 1.7331420406e+000	 3.9425429126e+000	-2.8092029295e-001
 1.6910261218e+000	 3.9607898358e+000	-2.6475983968e-001
 2.1191635026e+000	 3.7798126202e+000	-4.1311830852e-001
 2.0781055968e+000	 3.8025405996e+000	-4.0825868626e-001
 2.0368682721e+000	 3.8247883473e+000	-4.1077712050e-001
 1.9954597473e+000	 3.8465541619e+000	-4.2350001784e-001
 1.9538882500e+000	 3.8678365250e+000	-4.2500980097e-001
 1.9121620108e+000	 3.8886341002e+000	-4.0579481527e-001
 1.8702892589e+000	 3.9089457330e+000	-3.7350855104e-001
 1.8282782170e+000	 3.9287704493e+000	-3.3527701342e-001
 1.7861370967e+000	 3.9481074548e+000	-2.9768334232e-001
 1.7438740935e+000	 3.9669561334e+000	-2.6675736655e-001
 1.7014973824e+000	 3.9853160462e+000	-2.4796975818e-001
 2.1322051407e+000	 3.8030741328e+000	-4.0240796029e-001
 2.0908945587e+000	 3.8259419835e+000	-3.9438618170e-001
 2.0494034535e+000	 3.8483266470e+000	-3.9227312248e-001
 2.0077400947e+000	 3.8702264116e+000	-3.9903775418e-001
 1.9659127604e+000	 3.8916397494e+000	-4.0460308363e-001
 1.9239297319e+000	 3.9125653159e+000	-3.8916902584e-001
 1.8817992890e+000	 3.9330019494e+000	-3.5963344584e-001
 1.8395297051e+000	 3.9529486699e+000	-3.2305794852e-001
 1.7971292423e+000	 3.9724046781e+000	-2.8595166311e-001
 1.7546061465e+000	 3.9913693542e+000	-2.5426217147e-001
 1.7119686430e+000	 4.0098422565e+000	-2.3343809680e-001
 2.1452467789e+000	 3.8263356453e+000	-3.9370770977e-001
 2.1036835206e+000	 3.8493433673e+000	-3.8323681237e-001
 2.0619386349e+000	 3.8718649467e+000	-3.7740939291e-001
 2.0200204421e+000	 3.8938986613e+000	-3.7906542962e-001
 1.9779372708e+000	 3.9154429738e+000	-3.8587235773e-001
 1.9356974530e+000	 3.9364965315e+000	-3.7459628099e-001
 1.8933093192e+000	 3.9570581658e+000	-3.4833642418e-001
 1.8507811932e+000	 3.9771268904e+000	-3.1407252860e-001
 1.8081213878e+000	 3.9967019014e+000	-2.7822424079e-001
 1.7653381994e+000	 4.0157825750e+000	-2.4679188768e-001
 1.7224399035e+000	 4.0343684668e+000	-2.2461001296e-001
 2.1582884170e+000	 3.8495971579e+000	-3.8740036879e-001
 2.1164724825e+000	 3.8727447512e+000	-3.7526179981e-001
 2.0744738163e+000	 3.8954032465e+000	-3.6674245621e-001
 2.0323007895e+000	 3.9175709110e+000	-3.6453815229e-001
 1.9899617812e+000	 3.9392461982e+000	-3.7030865878e-001
 1.9474651741e+000	 3.9604277472e+000	-3.6381013647e-001
 1.9048193493e+000	 3.9811143822e+000	-3.4163292365e-001
 1.8620326814e+000	 4.0013051110e+000	-3.1065884780e-001
 1.8191135334e+000	 4.0209991247e+000	-2.7742221566e-001
 1.7760702524e+000	 4.0401957957e+000	-2.4687836319e-001
 1.7329111641e+000	 4.0588946772e+000	-2.2284103901e-001
 2.1713300552e+000	 3.8728586705e+000	-3.8380399281e-001
 2.1292614443e+000	 3.8961461350e+000	-3.7084548522e-001
 2.0870089978e+000	 3.9189415462e+000	-3.6075902013e-001
 2.0445811369e+000	 3.9412431606e+000	-3.5608166568e-001
 2.0019862916e+000	 3.9630494226e+000	-3.5932933276e-001
 1.9592328952e+000	 3.9843589629e+000	-3.5843405849e-001
 1.9163293794e+000	 4.0051705986e+000	-3.4145373610e-001
 1.8732841695e+000	 4.0254833316e+000	-3.1532246460e-001
 1.8301056790e+000	 4.0452963480e+000	-2.8518852755e-001
 1.7868023053e+000	 4.0646090165e+000	-2.5524527151e-001
 1.7433824246e+000	 4.0834208875e+000	-2.2912870930e-001
 2.1843716934e+000	 3.8961201831e+000	-3.8317343569e-001
 2.1420504062e+000	 3.9195475189e+000	-3.7030689156e-001
 2.0995441792e+000	 3.9424798459e+000	-3.5987756755e-001
 2.0568614843e+000	 3.9649154103e+000	-3.5424978989e-001
 2.0140108020e+000	 3.9868526470e+000	-3.5579064554e-001
 1.9710006163e+000	 4.0082901786e+000	-3.6004117350e-001
 1.9278394095e+000	 4.0292268150e+000	-3.4984520651e-001
 1.8845356576e+000	 4.0496615522e+000	-3.2891011680e-001
 1.8410978246e+000	 4.0695935713e+000	-3.0179167506e-001
 1.7975343583e+000	 4.0890222373e+000	-2.7247549804e-001
 1.7538536852e+000	 4.1079470979e+000	-2.4441552884e-001
 1.6491410796e+000	 3.8626849945e+000	-2.7673660042e-001
 1.6079598367e+000	 3.8800085414e+000	-2.7557959746e-001
 1.5666841286e+000	 3.8968578809e+000	-2.6970114405e-001
 1.5253217981e+000	 3.9132330963e+000	-2.6080277565e-001
 1.4838806500e+000	 3.9291344362e+000	-2.5026896180e-001
 1.4423684478e+000	 3.9445623121e+000	-2.3917209049e-001
 1.4007929095e+000	 3.9595172970e+000	-2.2827950736e-001
 1.3591617033e+000	 3.9740001227e+000	-2.1806233181e-001
 1.3174824442e+000	 3.9880116778e+000	-2.0733854141e-001
 1.2757626898e+000	 4.0015530051e+000	-1.8366776308e-001
 1.2340099371e+000	 4.0146252992e+000	-1.4712796019e-001
 1.6596123402e+000	 3.8872112048e+000	-2.9002328921e-001
 1.6181696159e+000	 3.9046447480e+000	-2.8849546113e-001
 1.5766318268e+000	 3.9216010728e+000	-2.8303122078e-001
 1.5350068651e+000	 3.9380802631e+000	-2.7507189443e-001
 1.4933025855e+000	 3.9540825688e+000	-2.6576352680e-001
 1.4515268006e+000	 3.9696084045e+000	-2.5596305882e-001
 1.4096872774e+000	 3.9846583464e+000	-2.4624652314e-001
 1.3677917329e+000	 3.9992331311e+000	-2.3691896692e-001
 1.3258478303e+000	 4.0133336529e+000	-2.2758951032e-001
 1.2838631754e+000	 4.0269609611e+000	-2.0772747595e-001
 1.2418453126e+000	 4.0401162582e+000	-1.7450549234e-001
 1.6700836007e+000	 3.9117374151e+000	-2.8972987240e-001
 1.6283793952e+000	 3.9292809546e+000	-2.8664760691e-001
 1.5865795250e+000	 3.9463442647e+000	-2.8076415767e-001
 1.5446919322e+000	 3.9629274298e+000	-2.7331775369e-001
 1.5027245210e+000	 3.9790307015e+000	-2.6526697102e-001
 1.4606851534e+000	 3.9946544968e+000	-2.5729819181e-001
 1.4185816454e+000	 4.0097993957e+000	-2.4980797380e-001
 1.3764217625e+000	 4.0244661395e+000	-2.4244317745e-001
 1.3342132165e+000	 4.0386556280e+000	-2.3423301921e-001
 1.2919636610e+000	 4.0523689172e+000	-2.1793000009e-001
 1.2496806881e+000	 4.0656072171e+000	-1.8834174902e-001
 1.6805548613e+000	 3.9362636255e+000	-2.7997476037e-001
 1.6385891745e+000	 3.9539171612e+000	-2.7459720524e-001
 1.5965272232e+000	 3.9710874566e+000	-2.6782830410e-001
 1.5543769993e+000	 3.9877745965e+000	-2.6075880318e-001
 1.5121464565e+000	 4.0039788341e+000	-2.5421479099e-001
 1.4698435062e+000	 4.0197005891e+000	-2.4860606521e-001
 1.4274760133e+000	 4.0349404451e+000	-2.4336936941e-001
 1.3850517921e+000	 4.0496991479e+000	-2.3761227416e-001
 1.3425786026e+000	 4.0639776031e+000	-2.3028694796e-001
 1.3000641465e+000	 4.0777768733e+000	-2.1692599396e-001
 1.2575160636e+000	 4.0910981760e+000	-1.9108967438e-001
 1.6910261218e+000	 3.9607898358e+000	-2.6475983968e-001
 1.6487989537e+000	 3.9785533678e+000	-2.5678370308e-001
 1.6064749214e+000	 3.9958306485e+000	-2.4902698310e-001
 1.5640620664e+000	 4.0126217632e+000	-2.4252793019e-001
 1.5215683920e+000	 4.0289269668e+000	-2.3754888792e-001
 1.4790018590e+000	 4.0447466814e+000	-2.3350595917e-001
 1.4363703812e+000	 4.0600814944e+000	-2.2961470000e-001
 1.3936818217e+000	 4.0749321563e+000	-2.2493106055e-001
 1.3509439888e+000	 4.0892995782e+000	-2.1837503939e-001
 1.3081646321e+000	 4.1031848294e+000	-2.0721230664e-001
 1.2653514390e+000	 4.1165891349e+000	-1.8505204286e-001
 1.7014973824e+000	 3.9853160462e+000	-2.4796975818e-001
 1.6590087330e+000	 4.0031895744e+000	-2.3753258954e-001
 1.6164226195e+000	 4.0205738404e+000	-2.2910916449e-001
 1.5737471334e+000	 4.0374689299e+000	-2.2278435163e-001
 1.5309903275e+000	 4.0538750995e+000	-2.1811555019e-001
 1.4881602118e+000	 4.0697927737e+000	-2.1446176419e-001
 1.4452647492e+000	 4.0852225438e+000	-2.1101080321e-001
 1.4023118513e+000	 4.1001651647e+000	-2.0680475921e-001
 1.3593093749e+000	 4.1146215533e+000	-2.0076377778e-001
 1.3162651177e+000	 4.1285927855e+000	-1.9113928798e-001
 1.2731868145e+000	 4.1420800939e+000	-1.7238825634e-001
 1.7119686430e+000	 4.0098422565e+000	-2.3343809680e-001
 1.6692185123e+000	 4.0278257810e+000	-2.2107613807e-001
 1.6263703177e+000	 4.0453170323e+000	-2.1126552529e-001
 1.5834322005e+000	 4.0623160966e+000	-2.0378178847e-001
 1.5404122631e+000	 4.0788232321e+000	-1.9818087597e-001
 1.4973185646e+000	 4.0948388660e+000	-1.9382840075e-001
 1.4541591171e+000	 4.1103635931e+000	-1.8992708940e-001
 1.4109418809e+000	 4.1253981731e+000	-1.8554244816e-001
 1.3676747611e+000	 4.1399435284e+000	-1.7962666796e-001
 1.3243656032e+000	 4.1540007416e+000	-1.7091800651e-001
 1.2810221900e+000	 4.1675710528e+000	-1.5512105807e-001
 1.7224399035e+000	 4.0343684668e+000	-2.2461001296e-001
 1.6794282915e+000	 4.0524619877e+000	-2.0959789953e-001
 1.6363180159e+000	 4.0700602242e+000	-1.9729879582e-001
 1.5931172676e+000	 4.0871632634e+000	-1.8753712382e-001
 1.5498341986e+000	 4.1037713648e+000	-1.7992015673e-001
 1.5064769174e+000	 4.1198849584e+000	-1.7386756629e-001
 1.4630534850e+000	 4.1355046425e+000	-1.6863911852e-001
 1.4195719105e+000	 4.1506311815e+000	-1.6336053601e-001
 1.3760401472e+000	 4.1652655035e+000	-1.5704755240e-001
 1.3324660888e+000	 4.1794086976e+000	-1.4862737919e-001
 1.2888575655e+000	 4.1930620117e+000	-1.3514316694e-001
 1.7329111641e+000	 4.0588946772e+000	-2.2284103901e-001
 1.6896380708e+000	 4.0770981943e+000	-2.0451458711e-001
 1.6462657141e+000	 4.0948034161e+000	-1.8891870845e-001
 1.6028023347e+000	 4.1120104301e+000	-1.7598407368e-001
 1.5592561341e+000	 4.1287194974e+000	-1.6542139452e-001
 1.5156352702e+000	 4.1449310507e+000	-1.5675126080e-001
 1.4719478530e+000	 4.1606456919e+000	-1.4933208019e-001
 1.4282019401e+000	 4.1758641899e+000	-1.4238614238e-001
 1.3844055334e+000	 4.1905874786e+000	-1.3502383754e-001
 1.3405665744e+000	 4.2048166537e+000	-1.2626606572e-001
 1.2966929409e+000	 4.2185529706e+000	-1.1422383548e-001
 1.7433824246e+000	 4.0834208875e+000	-2.2912870930e-001
 1.6998478501e+000	 4.1017344009e+000	-2.0717614236e-001
 1.6562134122e+000	 4.1195466080e+000	-1.8776090224e-001
 1.6124874017e+000	 4.1368575968e+000	-1.7097655572e-001
 1.5686780696e+000	 4.1536676301e+000	-1.5668872859e-001
 1.5247936230e+000	 4.1699771430e+000	-1.4456521979e-001
 1.4808422209e+000	 4.1857867412e+000	-1.3410418104e-001
 1.4368319697e+000	 4.2010971983e+000	-1.2466038756e-001
 1.3927709195e+000	 4.2159094537e+000	-1.1546963336e-001
 1.3486670600e+000	 4.2302246098e+000	-1.0567129187e-001
 1.3045283164e+000	 4.2440439296e+000	-9.4015334774e-002
 1.7538536852e+000	 4.1079470979e+000	-2.4441552884e-001
 1.7100576294e+000	 4.1263706075e+000	-2.1886876521e-001
 1.6661611104e+000	 4.1442897998e+000	-1.9539010510e-001
 1.6221724688e+000	 4.1617047635e+000	-1.7429197484e-001
 1.5781000051e+000	 4.1786157627e+000	-1.5564577507e-001
 1.5339519758e+000	 4.1950232353e+000	-1.3931225832e-001
 1.4897365888e+000	 4.2109277906e+000	-1.2496994327e-001
 1.4454619993e+000	 4.2263302067e+000	-1.1214159513e-001
 1.4011363057e+000	 4.2412314288e+000	-1.0021880954e-001
 1.3567675455e+000	 4.2556325659e+000	-8.8484744409e-002
 1.3123636919e+000	 4.2695348885e+000	-7.6059369405e-002
 1.2340099371e+000	 4.0146252992e+000	-1.4712796019e-001
 1.1922316182e+000	 4.0272299033e+000	-1.0560668635e-001
 1.1504350948e+000	 4.0393683026e+000	-6.6274464307e-002
 1.1086276574e+000	 4.0510421257e+000	-3.0520047651e-002
 1.0668165223e+000	 4.0622531420e+000	 8.4568357546e-004
 1.0250088285e+000	 4.0730032589e+000	 2.7520139400e-002
 9.8321163488e-001	 4.0832945191e+000	 4.9642624158e-002
 9.4143191729e-001	 4.0931290975e+000	 6.7748775650e-002
 8.9967656574e-001	 4.1025092979e+000	 8.2703725868e-002
 8.5795238189e-001	 4.1114375501e+000	 9.5665503906e-002
 8.1626607643e-001	 4.1199164064e+000	 1.0804201831e-001
 1.2418453126e+000	 4.0401162582e+000	-1.7450549234e-001
 1.1998017212e+000	 4.0528008954e+000	-1.3564737762e-001
 1.1577398098e+000	 4.0650163678e+000	-9.8278858665e-002
 1.1156669151e+000	 4.0767643142e+000	-6.3785332582e-002
 1.0735902992e+000	 4.0880465150e+000	-3.2994264027e-002
 1.0315171465e+000	 4.0988648900e+000	-6.2444152300e-003
 9.8945456057e-001	 4.1092214949e+000	 1.6548726221e-002
 9.4740956166e-001	 4.1191185182e+000	 3.5846045333e-002
 9.0538908352e-001	 4.1285582784e+000	 5.2421077322e-002
 8.6339997096e-001	 4.1375432207e+000	 6.7322488809e-002
 8.2144897732e-001	 4.1460759137e+000	 8.1832061171e-002
 1.2496806881e+000	 4.0656072171e+000	-1.8834174902e-001
 1.2073718243e+000	 4.0783718876e+000	-1.5279729076e-001
 1.1650445248e+000	 4.0906644331e+000	-1.1815291449e-001
 1.1227061728e+000	 4.1024865026e+000	-8.5767166165e-002
 1.0803640761e+000	 4.1138398881e+000	-5.6461709105e-002
 1.0380254644e+000	 4.1247265212e+000	-3.0590110382e-002
 9.9569748625e-001	 4.1351484706e+000	-8.1022872448e-003
 9.5338720603e-001	 4.1451079388e+000	 1.1407602790e-002
 9.1110160129e-001	 4.1546072589e+000	 2.8640264476e-002
 8.6884756003e-001	 4.1636488913e+000	 4.4553126927e-002
 8.2663187820e-001	 4.1722354210e+000	 6.0319343731e-002
 1.2575160636e+000	 4.0910981760e+000	-1.9108967438e-001
 1.2149419273e+000	 4.1039428797e+000	-1.5927484990e-001
 1.1723492399e+000	 4.1163124983e+000	-1.2788809507e-001
 1.1297454305e+000	 4.1282086910e+000	-9.8238459077e-002
 1.0871378530e+000	 4.1396332611e+000	-7.1120234717e-002
 1.0445337824e+000	 4.1505881524e+000	-4.6881205858e-002
 1.0019404119e+000	 4.1610754464e+000	-2.5486085602e-002
 9.5936485040e-001	 4.1710973595e+000	-6.5650705428e-003
 9.1681411906e-001	 4.1806562393e+000	 1.0527845626e-002
 8.7429514911e-001	 4.1897545619e+000	 2.6676391878e-002
 8.3181477909e-001	 4.1983949284e+000	 4.2962062555e-002
 1.2653514390e+000	 4.1165891349e+000	-1.8505204286e-001
 1.2225120303e+000	 4.1295138719e+000	-1.5715309502e-001
 1.1796539549e+000	 4.1419605635e+000	-1.2933536443e-001
 1.1367846882e+000	 4.1539308795e+000	-1.0283663680e-001
 1.0939116299e+000	 4.1654266342e+000	-7.8403110525e-002
 1.0510421003e+000	 4.1764497835e+000	-5.6357005072e-002
 1.0081833376e+000	 4.1870024222e+000	-3.6658951051e-002
 9.6534249477e-001	 4.1970867802e+000	-1.8956910576e-002
 9.2252663683e-001	 4.2067052198e+000	-2.6421020055e-003
 8.7974273818e-001	 4.2158602326e+000	 1.3112431697e-002
 8.3699767997e-001	 4.2245544357e+000	 2.9312943406e-002
 1.2731868145e+000	 4.1420800939e+000	-1.7238825634e-001
 1.2300821334e+000	 4.1550848640e+000	-1.4836594060e-001
 1.1869586699e+000	 4.1676086287e+000	-1.2421091598e-001
 1.1438239459e+000	 4.1796530679e+000	-1.0106884730e-001
 1.1006854068e+000	 4.1912200072e+000	-7.9617989416e-002
 1.0575504183e+000	 4.2023114147e+000	-6.0136051128e-002
 1.0144262633e+000	 4.2129293980e+000	-4.2560190392e-002
 9.7132013914e-001	 4.2230762008e+000	-2.6542499615e-002
 9.2823915460e-001	 4.2327542003e+000	-1.1490746080e-002
 8.8519032725e-001	 4.2419659032e+000	 3.3802573209e-003
 8.4218058085e-001	 4.2507139430e+000	 1.9017368588e-002
 1.2810221900e+000	 4.1675710528e+000	-1.5512105807e-001
 1.2376522364e+000	 4.1806558562e+000	-1.3471436110e-001
 1.1942633849e+000	 4.1932566939e+000	-1.1410183779e-001
 1.1508632036e+000	 4.2053752563e+000	-9.4317115158e-002
 1.1074591837e+000	 4.2170133802e+000	-7.5951560134e-002
 1.0640587363e+000	 4.2281730459e+000	-5.9220288280e-002
 1.0206691890e+000	 4.2388563737e+000	-4.4021226797e-002
 9.7729778351e-001	 4.2490656215e+000	-2.9989278948e-002
 9.3395167238e-001	 4.2588031807e+000	-1.6537255306e-002
 8.9063791633e-001	 4.2680715738e+000	-2.9045698698e-003
 8.4736348174e-001	 4.2768734503e+000	 1.1811494937e-002
 1.2888575655e+000	 4.1930620117e+000	-1.3514316694e-001
 1.2452223395e+000	 4.2062268484e+000	-1.1787250643e-001
 1.2015681000e+000	 4.2189047591e+000	-1.0047171738e-001
 1.1579024613e+000	 4.2310974448e+000	-8.3843444481e-002
 1.1142329606e+000	 4.2428067533e+000	-6.8474157778e-002
 1.0705670542e+000	 4.2540346771e+000	-5.4499190228e-002
 1.0269121147e+000	 4.2647833495e+000	-4.1760757030e-002
 9.8327542788e-001	 4.2750550421e+000	-2.9860745690e-002
 9.3966419015e-001	 4.2848521612e+000	-1.8201548278e-002
 8.9608550540e-001	 4.2941772444e+000	-6.0322514224e-003
 8.5254638262e-001	 4.3030329576e+000	 7.5203628564e-003
 1.2966929409e+000	 4.2185529706e+000	-1.1422383548e-001
 1.2527924425e+000	 4.2317978405e+000	-9.9393750380e-002
 1.2088728150e+000	 4.2445528243e+000	-8.4666188508e-002
 1.1649417191e+000	 4.2568196332e+000	-7.0794872657e-002
 1.1210067375e+000	 4.2686001263e+000	-5.8144333975e-002
 1.0770753722e+000	 4.2798963082e+000	-4.6753856664e-002
 1.0331550403e+000	 4.2907103253e+000	-3.6394337142e-002
 9.8925307225e-001	 4.3010444628e+000	-2.6619634534e-002
 9.4537670792e-001	 4.3109011417e+000	-1.6807035292e-002
 9.0153309447e-001	 4.3202829150e+000	-6.2010660529e-003
 8.5772928351e-001	 4.3291924649e+000	 6.0559967855e-003
 1.3045283164e+000	 4.2440439296e+000	-9.4015334774e-002
 1.2603625456e+000	 4.2573688327e+000	-8.0716674738e-002
 1.2161775300e+000	 4.2702008896e+000	-6.7918422307e-002
 1.1719809768e+000	 4.2825418216e+000	-5.6208477140e-002
 1.1277805145e+000	 4.2943934994e+000	-4.5813388401e-002
 1.0835836901e+000	 4.3057579394e+000	-3.6661079405e-002
 1.0393979660e+000	 4.3166373011e+000	-2.8436424768e-002
 9.9523071662e-001	 4.3270338835e+000	-2.0631085060e-002
 9.5108922569e-001	 4.3369501221e+000	-1.2583353444e-002
 9.0698068355e-001	 4.3463885857e+000	-3.5196847215e-003
 8.6291218439e-001	 4.3553519723e+000	 7.4154974494e-003
 1.3123636919e+000	 4.2695348885e+000	-7.6059369405e-002
 1.2679326486e+000	 4.2829398248e+000	-6.3170991906e-002
 1.2234822450e+000	 4.2958489548e+000	-5.1354565305e-002
 1.1790202345e+000	 4.3082640100e+000	-4.1016337146e-002
 1.1345542914e+000	 4.3201868724e+000	-3.2229863272e-002
 1.0900920081e+000	 4.3316195706e+000	-2.4797379370e-002
 1.0456408917e+000	 4.3425642768e+000	-1.8303968912e-002
 1.0012083610e+000	 4.3530233041e+000	-1.2165795191e-002
 9.5680174346e-001	 4.3629991026e+000	-5.6690952901e-003
 9.1242827262e-001	 4.3724942563e+000	 1.9905134928e-003
 8.6809508528e-001	 4.3815114796e+000	 1.1679126242e-002
 8.1626607643e-001	 4.1199164064e+000	 1.0804201831e-001
 7.7463050750e-001	 4.1279473679e+000	 1.1745498250e-001
 7.3304593048e-001	 4.1355345296e+000	 1.2193684128e-001
 6.9151875737e-001	 4.1426807945e+000	 1.2385561441e-001
 6.5005530071e-001	 4.1493891748e+000	 1.2593979324e-001
 6.0866177170e-001	 4.1556627888e+000	 1.3100398053e-001
 5.6734427842e-001	 4.1615048572e+000	 1.3914565236e-001
 5.2610882415e-001	 4.1669187001e+000	 1.5071189647e-001
 4.8496130586e-001	 4.1719077330e+000	 1.6672150565e-001
 4.4390751276e-001	 4.1764754639e+000	 1.8875360128e-001
 4.0295312499e-001	 4.1806254894e+000	 2.1884870502e-001
 8.2144897732e-001	 4.1460759137e+000	 8.1832061171e-002
 7.7954904235e-001	 4.1541578680e+000	 9.4117885692e-002
 7.3770042307e-001	 4.1617932046e+000	 1.0263726184e-001
 6.9590957218e-001	 4.1689848448e+000	 1.0941489710e-001
 6.5418284232e-001	 4.1757358201e+000	 1.1666149078e-001
 6.1252648411e-001	 4.1820492686e+000	 1.2570264072e-001
 5.7094664442e-001	 4.1879284314e+000	 1.3639349015e-001
 5.2944936465e-001	 4.1933766496e+000	 1.4909314189e-001
 4.8804057921e-001	 4.1983973605e+000	 1.6477354706e-001
 4.4672611408e-001	 4.2029940943e+000	 1.8491215490e-001
 4.0551168545e-001	 4.2071704705e+000	 2.1139700335e-001
 8.2663187820e-001	 4.1722354210e+000	 6.0319343731e-002
 7.8446757720e-001	 4.1803683681e+000	 7.4549477917e-002
 7.4235491566e-001	 4.1880518795e+000	 8.6028273434e-002
 7.0030038700e-001	 4.1952888952e+000	 9.6465217992e-002
 6.5831038393e-001	 4.2020824655e+000	 1.0770088344e-001
 6.1639119652e-001	 4.2084357484e+000	 1.1983660617e-001
 5.7454901042e-001	 4.2143520055e+000	 1.3228378168e-001
 5.3278990516e-001	 4.2198345991e+000	 1.4543257549e-001
 4.9111985257e-001	 4.2248869879e+000	 1.6022764658e-001
 4.4954471540e-001	 4.2295127247e+000	 1.7806504074e-001
 4.0807024591e-001	 4.2337154516e+000	 2.0070149933e-001
 8.3181477909e-001	 4.1983949284e+000	 4.2962062555e-002
 7.8938611205e-001	 4.2065788682e+000	 5.8348063739e-002
 7.4700940824e-001	 4.2143105545e+000	 7.1863171606e-002
 7.0469120181e-001	 4.2215929455e+000	 8.4929113586e-002
 6.6243792553e-001	 4.2284291109e+000	 9.9094580835e-002
 6.2025590893e-001	 4.2348222282e+000	 1.1357357577e-001
 5.7815137642e-001	 4.2407755797e+000	 1.2712520176e-001
 5.3613044566e-001	 4.2462925485e+000	 1.4018762888e-001
 4.9419912593e-001	 4.2513766154e+000	 1.5369575456e-001
 4.5236331672e-001	 4.2560313550e+000	 1.6898256758e-001
 4.1062880637e-001	 4.2602604327e+000	 1.8769288320e-001
 8.3699767997e-001	 4.2245544357e+000	 2.9312943406e-002
 7.9430464689e-001	 4.2327893683e+000	 4.5199153110e-002
 7.5166390083e-001	 4.2405692295e+000	 5.9974081218e-002
 7.0908201662e-001	 4.2478969958e+000	 7.4798513922e-002
 6.6656546714e-001	 4.2547757562e+000	 9.0953496039e-002
 6.2412062134e-001	 4.2612087080e+000	 1.0714709217e-001
 5.8175374243e-001	 4.2671991539e+000	 1.2128241673e-001
 5.3947098617e-001	 4.2727504980e+000	 1.3386042907e-001
 4.9727839929e-001	 4.2778662429e+000	 1.4582172965e-001
 4.5518191804e-001	 4.2825499854e+000	 1.5845263148e-001
 4.1318736684e-001	 4.2868054138e+000	 1.7330353888e-001
 8.4218058085e-001	 4.2507139430e+000	 1.9017368588e-002
 7.9922318174e-001	 4.2589998684e+000	 3.4874024645e-002
 7.5631839342e-001	 4.2668279044e+000	 5.0270963329e-002
 7.1347283143e-001	 4.2742010462e+000	 6.6134200124e-002
 6.7069300875e-001	 4.2811224016e+000	 8.3487057550e-002
 6.2798533375e-001	 4.2875951879e+000	 1.0085566094e-001
 5.8535610843e-001	 4.2936227281e+000	 1.1517581890e-001
 5.4281152667e-001	 4.2992084475e+000	 1.2699814622e-001
 5.0035767265e-001	 4.3043558704e+000	 1.3728229650e-001
 4.5800051936e-001	 4.3090686158e+000	 1.4728227905e-001
 4.1574592730e-001	 4.3133503949e+000	 1.5846970737e-001
 8.4736348174e-001	 4.2768734503e+000	 1.1811494937e-002
 8.0414171659e-001	 4.2852103685e+000	 2.7228270965e-002
 7.6097288600e-001	 4.2930865794e+000	 4.2740594945e-002
 7.1786364625e-001	 4.3005050965e+000	 5.9065224985e-002
 6.7482055036e-001	 4.3074690469e+000	 7.6994636021e-002
 6.3185004616e-001	 4.3139816677e+000	 9.5061811566e-002
 5.8895847443e-001	 4.3200463022e+000	 1.0928119131e-001
 5.4615206717e-001	 4.3256663970e+000	 1.2019325955e-001
 5.0343694600e-001	 4.3308454979e+000	 1.2878790919e-001
 4.6081912068e-001	 4.3355872462e+000	 1.3629916340e-001
 4.1830448776e-001	 4.3398953759e+000	 1.4413352929e-001
 8.5254638262e-001	 4.3030329576e+000	 7.5203628564e-003
 8.0906025144e-001	 4.3114208686e+000	 2.2200326842e-002
 7.6562737859e-001	 4.3193452543e+000	 3.7445522769e-002
 7.2225446106e-001	 4.3268091469e+000	 5.3788298179e-002
 6.7894809196e-001	 4.3338156923e+000	 7.1816566155e-002
 6.3571475857e-001	 4.3403681475e+000	 9.0191102602e-002
 5.9256084044e-001	 4.3464698764e+000	 1.0412930572e-001
 5.4949260768e-001	 4.3521243465e+000	 1.1408374507e-001
 5.0651621936e-001	 4.3573351253e+000	 1.2108352431e-001
 4.6363772201e-001	 4.3621058766e+000	 1.2635289727e-001
 4.2086304822e-001	 4.3664403570e+000	 1.3124497155e-001
 8.5772928351e-001	 4.3291924649e+000	 6.0559967855e-003
 8.1397878628e-001	 4.3376313687e+000	 1.9809980893e-002
 7.7028187117e-001	 4.3456039293e+000	 3.4522992048e-002
 7.2664527587e-001	 4.3531131972e+000	 5.0567137594e-002
 6.8307563357e-001	 4.3601623377e+000	 6.8351435088e-002
 6.3957947098e-001	 4.3667546273e+000	 8.6731073489e-002
 5.9616320644e-001	 4.3728934506e+000	 1.0030545674e-001
 5.5283314818e-001	 4.3785822960e+000	 1.0935318829e-001
 5.0959549272e-001	 4.3838247528e+000	 1.1494928757e-001
 4.6645632333e-001	 4.3886245070e+000	 1.1831630764e-001
 4.2342160868e-001	 4.3929853381e+000	 1.2076364316e-001
 8.6291218439e-001	 4.3553519723e+000	 7.4154974494e-003
 8.1889732113e-001	 4.3638418688e+000	 2.0156871494e-002
 7.7493636376e-001	 4.3718626043e+000	 3.4183851572e-002
 7.3103609068e-001	 4.3794172475e+000	 4.9731788217e-002
 6.8720317518e-001	 4.3865089830e+000	 6.7055842323e-002
 6.4344418339e-001	 4.3931411071e+000	 8.5230145197e-002
 5.9976557244e-001	 4.3993170248e+000	 9.8448934577e-002
 5.5617368869e-001	 4.4050402455e+000	 1.0673082517e-001
 5.1267476608e-001	 4.4103143803e+000	 1.1120113762e-001
 4.6927492465e-001	 4.4151431374e+000	 1.1308659614e-001
 4.2598016914e-001	 4.4195303192e+000	 1.1366050469e-001
 8.6809508528e-001	 4.3815114796e+000	 1.1679126242e-002
 8.2381585598e-001	 4.3900523689e+000	 2.3418967597e-002
 7.7959085635e-001	 4.3981212792e+000	 3.6711435824e-002
 7.3542690550e-001	 4.4057212979e+000	 5.1677909920e-002
 6.9133071679e-001	 4.4128556284e+000	 6.8444096889e-002
 6.4730889580e-001	 4.4195275870e+000	 8.6296471861e-002
 6.0336793844e-001	 4.4257405989e+000	 9.9252439253e-002
 5.5951422919e-001	 4.4314981950e+000	 1.0699151418e-001
 5.1575403944e-001	 4.4368040078e+000	 1.1069133041e-001
 4.7209352597e-001	 4.4416617678e+000	 1.1158640892e-001
 4.2853872961e-001	 4.4460753003e+000	 1.1091947609e-001
 4.0295312499e-001	 4.1806254894e+000	 2.1884870502e-001
 3.6209760679e-001	 4.1843620215e+000	 2.4525797254e-001
 3.2135264073e-001	 4.1876881727e+000	 2.5691224733e-001
 2.8072365755e-001	 4.1906077882e+000	 2.5751976383e-001
 2.4021597217e-001	 4.1931247882e+000	 2.5118945750e-001
 1.9983478304e-001	 4.1952431647e+000	 2.4237106308e-001
 1.5958517145e-001	 4.1969669780e+000	 2.3580169380e-001
 1.1947210102e-001	 4.1983003530e+000	 2.3645817725e-001
 7.9500417302e-002	 4.1992474762e+000	 2.4951448978e-001
 3.9674847448e-002	 4.1998125921e+000	 2.8030369597e-001
 0.0000000000e+000	 4.2000000000e+000	 3.3428386479e-001
 4.0551168545e-001	 4.2071704705e+000	 2.1139700335e-001
 3.6439675416e-001	 4.2109307278e+000	 2.3419170507e-001
 3.2339307698e-001	 4.2142779985e+000	 2.4369854630e-001
 2.8250611909e-001	 4.2172161521e+000	 2.4304170308e-001
 2.4174122921e-001	 4.2197491339e+000	 2.3570629605e-001
 2.0110363876e-001	 4.2218809611e+000	 2.2548245173e-001
 1.6059846130e-001	 4.2236157197e+000	 2.1641562825e-001
 1.2023069197e-001	 4.2249575610e+000	 2.1276246298e-001
 8.0005207095e-002	 4.2259106980e+000	 2.1895146922e-001
 3.9926763837e-002	 4.2264794022e+000	 2.3954797809e-001
 0.0000000000e+000	 4.2266680000e+000	 2.7922278977e-001
 4.0807024591e-001	 4.2337154516e+000	 2.0070149933e-001
 3.6669590154e-001	 4.2374994341e+000	 2.1975806975e-001
 3.2543351322e-001	 4.2408678242e+000	 2.2707966730e-001
 2.8428858064e-001	 4.2438245160e+000	 2.2526706982e-001
 2.4326648624e-001	 4.2463734795e+000	 2.1724157679e-001
 2.0237249447e-001	 4.2485187574e+000	 2.0619314095e-001
 1.6161175114e-001	 4.2502644615e+000	 1.9553453045e-001
 1.2098928292e-001	 4.2516147691e+000	 1.8886076020e-001
 8.0509996888e-002	 4.2525739199e+000	 1.8991310548e-001
 4.0178680226e-002	 4.2531462122e+000	 2.0254708327e-001
 0.0000000000e+000	 4.2533360000e+000	 2.3070385906e-001
 4.1062880637e-001	 4.2602604327e+000	 1.8769288320e-001
 3.6899504892e-001	 4.2640681404e+000	 2.0303542798e-001
 3.2747394947e-001	 4.2674576500e+000	 2.0825386888e-001
 2.8607104219e-001	 4.2704328799e+000	 2.0548420624e-001
 2.4479174328e-001	 4.2729978252e+000	 1.9714203175e-001
 2.0364135018e-001	 4.2751565538e+000	 1.8587484222e-001
 1.6262504099e-001	 4.2769132032e+000	 1.7452013113e-001
 1.2174787387e-001	 4.2782719771e+000	 1.6606847832e-001
 8.1014786682e-002	 4.2792371417e+000	 1.6363093632e-001
 4.0430596615e-002	 4.2798130223e+000	 1.7041008919e-001
 0.0000000000e+000	 4.2800040000e+000	 1.8967423489e-001
 4.1318736684e-001	 4.2868054138e+000	 1.7330353888e-001
 3.7129419629e-001	 4.2906368466e+000	 1.8508665522e-001
 3.2951438571e-001	 4.2940474757e+000	 1.8838576412e-001
 2.8785350374e-001	 4.2970412439e+000	 1.8492865917e-001
 2.4631700032e-001	 4.2996221709e+000	 1.7668145113e-001
 2.0491020590e-001	 4.3017943502e+000	 1.6580517982e-001
 1.6363833084e-001	 4.3035619450e+000	 1.5461793156e-001
 1.2250646482e-001	 4.3049291852e+000	 1.4556166392e-001
 8.1519576475e-002	 4.3059003635e+000	 1.4117302243e-001
 4.0682513004e-002	 4.3064798323e+000	 1.4405751535e-001
 0.0000000000e+000	 4.3066720000e+000	 1.5686649154e-001
 4.1574592730e-001	 4.3133503949e+000	 1.5846970737e-001
 3.7359334367e-001	 4.3172055529e+000	 1.6696188819e-001
 3.3155482196e-001	 4.3206373015e+000	 1.6860962387e-001
 2.8963596529e-001	 4.3236496078e+000	 1.6478701031e-001
 2.4784225735e-001	 4.3262465166e+000	 1.5706501006e-001
 2.0617906161e-001	 4.3284321465e+000	 1.4717248255e-001
 1.6465162068e-001	 4.3302106868e+000	 1.3696242722e-001
 1.2326505578e-001	 4.3315863932e+000	 1.2838262260e-001
 8.2024366269e-002	 4.3325635854e+000	 1.2344993247e-001
 4.0934429394e-002	 4.3331466424e+000	 1.2422763546e-001
 0.0000000000e+000	 4.3333400000e+000	 1.3280521833e-001
 4.1830448776e-001	 4.3398953759e+000	 1.4413352929e-001
 3.7589249104e-001	 4.3437742592e+000	 1.4970113741e-001
 3.3359525820e-001	 4.3472271273e+000	 1.5003253191e-001
 2.9141842684e-001	 4.3502579717e+000	 1.4620054524e-001
 2.4936751439e-001	 4.3528708623e+000	 1.3943342132e-001
 2.0744791733e-001	 4.3550699429e+000	 1.3108038882e-001
 1.6566491053e-001	 4.3568594285e+000	 1.2258213296e-001
 1.2402364673e-001	 4.3582436013e+000	 1.1544533072e-001
 8.2529156063e-002	 4.3592268072e+000	 1.1122050677e-001
 4.1186345783e-002	 4.3598134524e+000	 1.1148255781e-001
 0.0000000000e+000	 4.3600080000e+000	 1.1781338037e-001
 4.2086304822e-001	 4.3664403570e+000	 1.3124497155e-001
 3.7819163842e-001	 4.3703429655e+000	 1.3433677089e-001
 3.3563569445e-001	 4.3738169530e+000	 1.3373739840e-001
 2.9320088839e-001	 4.3768663357e+000	 1.3026876804e-001
 2.5089277143e-001	 4.3794952079e+000	 1.2486692151e-001
 2.0871677304e-001	 4.3817077393e+000	 1.1855227338e-001
 1.6667820038e-001	 4.3835081703e+000	 1.1240441819e-001
 1.2478223768e-001	 4.3849008094e+000	 1.0754064579e-001
 8.3033945857e-002	 4.3858900290e+000	 1.0509740914e-001
 4.1438262172e-002	 4.3864802625e+000	 1.0621408335e-001
 0.0000000000e+000	 4.3866760000e+000	 1.1201844721e-001
 4.2342160868e-001	 4.3929853381e+000	 1.2076364316e-001
 3.8049078580e-001	 4.3969116718e+000	 1.2189587428e-001
 3.3767613069e-001	 4.4004067788e+000	 1.2078583743e-001
 2.9498334994e-001	 4.4034746996e+000	 1.1805276815e-001
 2.5241802846e-001	 4.4061195536e+000	 1.1438909757e-001
 2.0998562876e-001	 4.4083455356e+000	 1.1053550294e-001
 1.6769149023e-001	 4.4101569120e+000	 1.0726015986e-001
 1.2554082863e-001	 4.4115580174e+000	 1.0534132433e-001
 8.3538735650e-002	 4.4125532509e+000	 1.0555247565e-001
 4.1690178561e-002	 4.4131470725e+000	 1.0864935101e-001
 0.0000000000e+000	 4.4133440000e+000	 1.1535829932e-001
 4.2598016914e-001	 4.4195303192e+000	 1.1366050469e-001
 3.8278993317e-001	 4.4234803781e+000	 1.1340249274e-001
 3.3971656693e-001	 4.4269966045e+000	 1.1222091464e-001
 2.9676581148e-001	 4.4300830635e+000	 1.1057844557e-001
 2.5394328550e-001	 4.4327438993e+000	 1.0897056050e-001
 2.1125448447e-001	 4.4349833320e+000	 1.0790552808e-001
 1.6870478007e-001	 4.4368056538e+000	 1.0788822127e-001
 1.2629941958e-001	 4.4382152255e+000	 1.0940685499e-001
 8.4043525443e-002	 4.4392164727e+000	 1.1292186899e-001
 4.1942094950e-002	 4.4398138826e+000	 1.1885627918e-001
 0.0000000000e+000	 4.4400120000e+000	 1.2758692177e-001
 4.2853872961e-001	 4.4460753003e+000	 1.1091947609e-001
 3.8508908055e-001	 4.4500490843e+000	 1.0987975952e-001
 3.4175700318e-001	 4.4535864303e+000	 1.0906977009e-001
 2.9854827303e-001	 4.4566914274e+000	 1.0883960038e-001
 2.5546854253e-001	 4.4593682450e+000	 1.0953247265e-001
 2.1252334018e-001	 4.4616211283e+000	 1.1146981825e-001
 1.6971806992e-001	 4.4634543955e+000	 1.1493976364e-001
 1.2705801053e-001	 4.4648724335e+000	 1.2018811484e-001
 8.4548315236e-002	 4.4658796945e+000	 1.2741104655e-001
 4.2194011339e-002	 4.4664806926e+000	 1.3674881174e-001
 0.0000000000e+000	 4.4666800000e+000	 1.4827989386e-001
 4.4666800000e+000	 0.0000000000e+000	 6.6210223005e-001
 4.4664806926e+000	 4.2194011339e-002	 6.5479360418e-001
 4.4658796945e+000	 8.4548315236e-002	 6.4929638413e-001
 4.4648724335e+000	 1.2705801053e-001	 6.4464368488e-001
 4.4634543955e+000	 1.6971806992e-001	 6.4003811652e-001
 4.4616211283e+000	 2.1252334018e-001	 6.3483508100e-001
 4.4593682450e+000	 2.5546854253e-001	 6.2852704702e-001
 4.4566914274e+000	 2.9854827303e-001	 6.2072809226e-001
 4.4535864303e+000	 3.4175700318e-001	 6.1115790667e-001
 4.4500490843e+000	 3.8508908055e-001	 5.9962435527e-001
 4.4460753003e+000	 4.2853872961e-001	 5.8600360429e-001
 4.4933440011e+000	 0.0000000000e+000	 6.2302086065e-001
 4.4931435039e+000	 4.2445889952e-002	 6.2027318685e-001
 4.4925389182e+000	 8.5053029335e-002	 6.1885074188e-001
 4.4915256443e+000	 1.2781648773e-001	 6.1784154144e-001
 4.4900991413e+000	 1.7073120782e-001	 6.1648145662e-001
 4.4882549303e+000	 2.1379200563e-001	 6.1414136172e-001
 4.4859885983e+000	 2.5699357085e-001	 6.1031566751e-001
 4.4832958014e+000	 3.0033046730e-001	 6.0461150383e-001
 4.4801722689e+000	 3.4379713346e-001	 5.9673771517e-001
 4.4766138066e+000	 3.8738788317e-001	 5.8649273249e-001
 4.4726163009e+000	 4.3109690641e-001	 5.7375028542e-001
 4.5200080089e+000	 0.0000000000e+000	 5.8846656791e-001
 4.5198063219e+000	 4.2697768628e-002	 5.8924377773e-001
 4.5191981485e+000	 8.5557743560e-002	 5.9096021624e-001
 4.5181788617e+000	 1.2857496512e-001	 5.9276898587e-001
 4.5167438937e+000	 1.7174434598e-001	 5.9394678045e-001
 4.5148887390e+000	 2.1506067140e-001	 5.9388504571e-001
 4.5126089583e+000	 2.5851859956e-001	 5.9208295313e-001
 4.5099001820e+000	 3.0211266201e-001	 5.8814142523e-001
 4.5067581141e+000	 3.4583726425e-001	 5.8175734509e-001
 4.5031785355e+000	 3.8968668636e-001	 5.7271697739e-001
 4.4991573082e+000	 4.3365508385e-001	 5.6088752411e-001
 4.5466720300e+000	 0.0000000000e+000	 5.5853206891e-001
 4.5464691533e+000	 4.2949647430e-002	 5.6177473251e-001
 4.5458573921e+000	 8.6062458036e-002	 5.6568305446e-001
 4.5448320925e+000	 1.2933344288e-001	 5.6948347636e-001
 4.5433886594e+000	 1.7275748464e-001	 5.7249904272e-001
 4.5415225610e+000	 2.1632933779e-001	 5.7414474264e-001
 4.5392293316e+000	 2.6004362902e-001	 5.7392511420e-001
 4.5365045760e+000	 3.0389485761e-001	 5.7143332315e-001
 4.5333439727e+000	 3.4787739605e-001	 5.6635081714e-001
 4.5297432778e+000	 3.9198549070e-001	 5.5844654573e-001
 4.5256983287e+000	 4.3621326257e-001	 5.4757462730e-001
 4.5733360711e+000	 0.0000000000e+000	 5.3335472254e-001
 4.5731320046e+000	 4.3201526421e-002	 5.3797128592e-001
 4.5725166558e+000	 8.6567172891e-002	 5.4310541158e-001
 4.5714853432e+000	 1.3009192122e-001	 5.4806317355e-001
 4.5700334451e+000	 1.7377062406e-001	 5.5221743315e-001
 4.5681564029e+000	 2.1759800514e-001	 5.5500753763e-001
 4.5658497249e+000	 2.6156865963e-001	 5.5594175276e-001
 4.5631089899e+000	 3.0567705455e-001	 5.5460161429e-001
 4.5599298511e+000	 3.4991752939e-001	 5.5064726661e-001
 4.5563080399e+000	 3.9428429676e-001	 5.4382274149e-001
 4.5522393692e+000	 4.3877144321e-001	 5.3396001426e-001
 4.6000001389e+000	 0.0000000000e+000	 5.1311524048e-001
 4.5997948826e+000	 4.3453405663e-002	 5.1797339624e-001
 4.5991759461e+000	 8.7071888250e-002	 5.2334032710e-001
 4.5981386206e+000	 1.3085040031e-001	 5.2860604706e-001
 4.5966782575e+000	 1.7478376449e-001	 5.3319460993e-001
 4.5947902715e+000	 2.1886667376e-001	 5.3656834773e-001
 4.5924701447e+000	 2.6309369176e-001	 5.3823533745e-001
 4.5897134304e+000	 3.0745925327e-001	 5.3775925289e-001
 4.5865157562e+000	 3.5195766477e-001	 5.3477063720e-001
 4.5828728286e+000	 3.9658310513e-001	 5.2897850968e-001
 4.5787804362e+000	 4.4132962641e-001	 5.2018110019e-001
 4.6266642400e+000	 0.0000000000e+000	 4.9803644287e-001
 4.6264577939e+000	 4.3705285220e-002	 5.0195463004e-001
 4.6258352697e+000	 8.7576604240e-002	 5.0652673757e-001
 4.6247919314e+000	 1.3160888035e-001	 5.1122901402e-001
 4.6233231032e+000	 1.7579690619e-001	 5.1553596122e-001
 4.6214241734e+000	 2.2013534396e-001	 5.1892930298e-001
 4.6190905979e+000	 2.6461872580e-001	 5.2091069955e-001
 4.6163179041e+000	 3.0924145422e-001	 5.2101733671e-001
 4.6131016945e+000	 3.5399780270e-001	 5.1883939064e-001
 4.6094376505e+000	 3.9888191636e-001	 5.1403824271e-001
 4.6053215364e+000	 4.4388781281e-001	 5.0636419139e-001
 4.6533283810e+000	 0.0000000000e+000	 4.8838205698e-001
 4.6531207452e+000	 4.3957165155e-002	 4.9012108551e-001
 4.6524946333e+000	 8.8081320987e-002	 4.9282852363e-001
 4.6514452821e+000	 1.3236736153e-001	 4.9606710795e-001
 4.6499679888e+000	 1.7681004941e-001	 4.9935889362e-001
 4.6480581152e+000	 2.2140401607e-001	 5.0219915091e-001
 4.6457110910e+000	 2.6614376212e-001	 5.0407454956e-001
 4.6429224177e+000	 3.1102365784e-001	 5.0448473051e-001
 4.6396876726e+000	 3.5603794368e-001	 5.0296623149e-001
 4.6360025122e+000	 4.0118073105e-001	 4.9911759965e-001
 4.6318626763e+000	 4.4644600304e-001	 4.9262439159e-001
 4.6799925688e+000	 0.0000000000e+000	 4.8478461340e-001
 4.6797837432e+000	 4.4209045530e-002	 4.8339023689e-001
 4.6791540436e+000	 8.8586038617e-002	 4.8331542652e-001
 4.6780986794e+000	 1.3312584404e-001	 4.8418612608e-001
 4.6766129211e+000	 1.7782319440e-001	 4.8558158912e-001
 4.6746921036e+000	 2.2267269039e-001	 4.8704993818e-001
 4.6723316306e+000	 2.6766880112e-001	 4.8812462729e-001
 4.6695269779e+000	 3.1280586458e-001	 4.8834192225e-001
 4.6662736973e+000	 3.5807808824e-001	 4.8725784638e-001
 4.6625674204e+000	 4.0347954975e-001	 4.8432333798e-001
 4.6584038627e+000	 4.4900419775e-001	 4.7906551877e-001
 4.7066568099e+000	 0.0000000000e+000	 4.8881941223e-001
 4.7064467945e+000	 4.4460926409e-002	 4.8561094617e-001
 4.7058135072e+000	 8.9090757256e-002	 4.8369585468e-001
 4.7047521301e+000	 1.3388432806e-001	 4.8273409814e-001
 4.7032579066e+000	 1.7883634142e-001	 4.8234014414e-001
 4.7013261453e+000	 2.2394136725e-001	 4.8209808159e-001
 4.6989522236e+000	 2.6919384316e-001	 4.8157760929e-001
 4.6961315913e+000	 3.1458807488e-001	 4.8035101810e-001
 4.6928597752e+000	 3.6011823688e-001	 4.7801129560e-001
 4.6891323818e+000	 4.0577837306e-001	 4.7419149119e-001
 4.6849451022e+000	 4.5156239757e-001	 4.6858548827e-001
 4.7333211109e+000	 0.0000000000e+000	 4.9927169801e-001
 4.7331099057e+000	 4.4712807855e-002	 4.9612592822e-001
 4.7324730307e+000	 8.9595477031e-002	 4.9388030434e-001
 4.7314056407e+000	 1.3464281379e-001	 4.9225655504e-001
 4.7299029521e+000	 1.7984949071e-001	 4.9093214226e-001
 4.7279602469e+000	 2.2521004697e-001	 4.8955485430e-001
 4.7255728763e+000	 2.7071888863e-001	 4.8775824135e-001
 4.7227362646e+000	 3.1637028919e-001	 4.8517801746e-001
 4.7194459128e+000	 3.6215839011e-001	 4.8146956374e-001
 4.7156974029e+000	 4.0807720153e-001	 4.7632667668e-001
 4.7114864015e+000	 4.5412060315e-001	 4.6950171510e-001
 4.4460753003e+000	 4.2853872961e-001	 5.8600360429e-001
 4.4416617678e+000	 4.7209352597e-001	 5.7061651701e-001
 4.4368040078e+000	 5.1575403944e-001	 5.5443008560e-001
 4.4314981950e+000	 5.5951422919e-001	 5.3833963066e-001
 4.4257405989e+000	 6.0336793844e-001	 5.2321350949e-001
 4.4195275870e+000	 6.4730889580e-001	 5.0984237475e-001
 4.4128556284e+000	 6.9133071679e-001	 4.9851231739e-001
 4.4057212979e+000	 7.3542690550e-001	 4.8753167041e-001
 4.3981212792e+000	 7.7959085635e-001	 4.7607488924e-001
 4.3900523689e+000	 8.2381585598e-001	 4.6350368585e-001
 4.3815114796e+000	 8.6809508528e-001	 4.4916839186e-001
 4.4726163009e+000	 4.3109690641e-001	 5.7375028542e-001
 4.4681764217e+000	 4.7491170464e-001	 5.5897521223e-001
 4.4632896631e+000	 5.1883285105e-001	 5.4329743399e-001
 4.4579521772e+000	 5.6285426878e-001	 5.2766159378e-001
 4.4521602109e+000	 6.0696976427e-001	 5.1301008523e-001
 4.4459101101e+000	 6.5117302869e-001	 5.0023835058e-001
 4.4391983230e+000	 6.9545763947e-001	 4.8962476802e-001
 4.4320214039e+000	 7.3981706190e-001	 4.7945048821e-001
 4.4243760167e+000	 7.8424465099e-001	 4.6888523638e-001
 4.4162589387e+000	 8.2873365329e-001	 4.5722071130e-001
 4.4076670643e+000	 8.7327720898e-001	 4.4374122117e-001
 4.4991573082e+000	 4.3365508385e-001	 5.6088752411e-001
 4.4946910823e+000	 4.7772988402e-001	 5.4682627123e-001
 4.4897753251e+000	 5.2191166344e-001	 5.3176797800e-001
 4.4844061659e+000	 5.6619430921e-001	 5.1669193790e-001
 4.4785798294e+000	 6.1057159100e-001	 5.0260039990e-001
 4.4722926399e+000	 6.5503716255e-001	 4.9048025661e-001
 4.4655410243e+000	 6.9958456318e-001	 4.8056695634e-001
 4.4583215165e+000	 7.4420721941e-001	 4.7115187396e-001
 4.4506307607e+000	 7.8889844680e-001	 4.6140555803e-001
 4.4424655151e+000	 8.3365145183e-001	 4.5057007182e-001
 4.4338226555e+000	 8.7845933398e-001	 4.3788368970e-001
 4.5256983287e+000	 4.3621326257e-001	 5.4757462730e-001
 4.5212057561e+000	 4.8054806480e-001	 5.3433674426e-001
 4.5162610003e+000	 5.2499047737e-001	 5.2001798376e-001
 4.5108601678e+000	 5.6953435130e-001	 5.0561526282e-001
 4.5049994612e+000	 6.1417341953e-001	 4.9217414073e-001
 4.4986751828e+000	 6.5890129835e-001	 4.8075726039e-001
 4.4918837387e+000	 7.0371148895e-001	 4.7152336934e-001
 4.4846216423e+000	 7.4859737911e-001	 4.6281406901e-001
 4.4768855178e+000	 7.9355224493e-001	 4.5380539435e-001
 4.4686721045e+000	 8.3856925284e-001	 4.4370985342e-001
 4.4599782598e+000	 8.8364146158e-001	 4.3173935792e-001
 4.5522393692e+000	 4.3877144321e-001	 5.3396001426e-001
 4.5477204498e+000	 4.8336624770e-001	 5.2166040947e-001
 4.5427466954e+000	 5.2806929361e-001	 5.0820822873e-001
 4.5373141896e+000	 5.7287439590e-001	 4.9459858478e-001
 4.5314191127e+000	 6.1777525075e-001	 4.8190139156e-001
 4.5250577455e+000	 6.6276543704e-001	 4.7123693447e-001
 4.5182264729e+000	 7.0783841783e-001	 4.6265610881e-001
 4.5109217877e+000	 7.5298754210e-001	 4.5459177965e-001
 4.5031402947e+000	 7.9820604656e-001	 4.4622990579e-001
 4.4948787136e+000	 8.4348705752e-001	 4.3677322716e-001
 4.4861338837e+000	 8.8882359306e-001	 4.2542664904e-001
 4.5787804362e+000	 4.4132962641e-001	 5.2018110019e-001
 4.5742351699e+000	 4.8618443341e-001	 5.0893774230e-001
 4.5692324169e+000	 5.3114811292e-001	 4.9648405486e-001
 4.5637682378e+000	 5.7621444384e-001	 4.8379147077e-001
 4.5578387907e+000	 6.2137708559e-001	 4.7193284495e-001
 4.5514403346e+000	 6.6662957959e-001	 4.6206554211e-001
 4.5445692334e+000	 7.1196535083e-001	 4.5410519151e-001
 4.5372219595e+000	 7.5737770949e-001	 4.4661655855e-001
 4.5293950978e+000	 8.0285985284e-001	 4.3880033507e-001
 4.5210853490e+000	 8.4840486713e-001	 4.2986899057e-001
 4.5122895337e+000	 8.9400572972e-001	 4.1903946855e-001
 4.6053215364e+000	 4.4388781281e-001	 5.0636419139e-001
 4.6007499233e+000	 4.8900262265e-001	 4.9629589457e-001
 4.5957181716e+000	 5.3422693609e-001	 4.8497542993e-001
 4.5902223192e+000	 5.7955449595e-001	 4.7332617955e-001
 4.5842585017e+000	 6.2497892492e-001	 4.6240001950e-001
 4.5778229567e+000	 6.7049372698e-001	 4.5336183197e-001
 4.5709120268e+000	 7.1609228898e-001	 4.4598885189e-001
 4.5635221642e+000	 7.6176788236e-001	 4.3899718763e-001
 4.5556499337e+000	 8.0751366493e-001	 4.3161446951e-001
 4.5472920170e+000	 8.5332268289e-001	 4.2308210864e-001
 4.5384452165e+000	 8.9918787286e-001	 4.1264782253e-001
 4.6318626763e+000	 4.4644600304e-001	 4.9262439159e-001
 4.6272647164e+000	 4.9182081611e-001	 4.8384868306e-001
 4.6222039660e+000	 5.3730576387e-001	 4.7379701675e-001
 4.6166764401e+000	 5.8289455307e-001	 4.6331780902e-001
 4.6106782524e+000	 6.2858076965e-001	 4.5341548211e-001
 4.6042056184e+000	 6.7435788016e-001	 4.4522449648e-001
 4.5972548598e+000	 7.2021923333e-001	 4.3840384729e-001
 4.5898224083e+000	 7.6615806182e-001	 4.3182006240e-001
 4.5819048089e+000	 8.1216748401e-001	 4.2474710393e-001
 4.5734987244e+000	 8.5824050602e-001	 4.1647425434e-001
 4.5646009385e+000	 9.0437002377e-001	 4.0629843492e-001
 4.6584038627e+000	 4.4900419775e-001	 4.7906551877e-001
 4.6537795559e+000	 4.9463901451e-001	 4.7169658719e-001
 4.6486898067e+000	 5.4038459704e-001	 4.6304824993e-001
 4.6431306074e+000	 5.8623461604e-001	 4.5386444963e-001
 4.6370980492e+000	 6.3218262069e-001	 4.4507307503e-001
 4.6305883262e+000	 6.7822204010e-001	 4.3773963288e-001
 4.6235977388e+000	 7.2434618490e-001	 4.3142576556e-001
 4.6161226984e+000	 7.7054824896e-001	 4.2514957758e-001
 4.6081597302e+000	 8.1682131123e-001	 4.1825050386e-001
 4.5997054777e+000	 8.6315833775e-001	 4.1008434889e-001
 4.5907567062e+000	 9.0955218375e-001	 4.0001536372e-001
 4.6849451022e+000	 4.5156239757e-001	 4.6858548827e-001
 4.6802944484e+000	 4.9745721854e-001	 4.6138918049e-001
 4.6751757004e+000	 5.4346343637e-001	 4.5333869842e-001
 4.6695848276e+000	 5.8957468569e-001	 4.4510277765e-001
 4.6635178989e+000	 6.3578447894e-001	 4.3744814749e-001
 4.6569710867e+000	 6.8208620777e-001	 4.3097353406e-001
 4.6499406706e+000	 7.2847314472e-001	 4.2510933493e-001
 4.6424230411e+000	 7.7493844487e-001	 4.1902851400e-001
 4.6344147039e+000	 8.2147514776e-001	 4.1215486927e-001
 4.6259122833e+000	 8.6807617933e-001	 4.0392910154e-001
 4.6169125263e+000	 9.1473435410e-001	 3.9380061614e-001
 4.7114864015e+000	 4.5412060315e-001	 4.6950171510e-001
 4.7068094006e+000	 5.0027542892e-001	 4.6116703121e-001
 4.7016616537e+000	 5.4654228262e-001	 4.5198348590e-001
 4.6960391073e+000	 5.9291476285e-001	 4.4259546082e-001
 4.6899378081e+000	 6.3938634528e-001	 4.3380077204e-001
 4.6833539067e+000	 6.8595038414e-001	 4.2644523628e-001
 4.6762836616e+000	 7.3260011383e-001	 4.1992345606e-001
 4.6687234430e+000	 7.7932865067e-001	 4.1349564085e-001
 4.6606697367e+000	 8.2612899476e-001	 4.0646879852e-001
 4.6521191480e+000	 8.7299403196e-001	 3.9800354907e-001
 4.6430684052e+000	 9.1991653610e-001	 3.8763476287e-001
 4.3815114796e+000	 8.6809508528e-001	 4.4916839186e-001
 4.3724942563e+000	 9.1242827262e-001	 4.3289631630e-001
 4.3629991026e+000	 9.5680174346e-001	 4.1522629734e-001
 4.3530233041e+000	 1.0012083610e+000	 3.9653389081e-001
 4.3425642768e+000	 1.0456408917e+000	 3.7715569594e-001
 4.3316195706e+000	 1.0900920081e+000	 3.5737649738e-001
 4.3201868724e+000	 1.1345542914e+000	 3.3741538818e-001
 4.3082640100e+000	 1.1790202345e+000	 3.1741066213e-001
 4.2958489548e+000	 1.2234822450e+000	 2.9740361449e-001
 4.2829398248e+000	 1.2679326486e+000	 2.7732103637e-001
 4.2695348885e+000	 1.3123636919e+000	 2.5695635893e-001
 4.4076670643e+000	 8.7327720898e-001	 4.4374122117e-001
 4.3985960123e+000	 9.1787504482e-001	 4.2821225006e-001
 4.3890441770e+000	 9.6251340464e-001	 4.1115155838e-001
 4.3790088277e+000	 1.0071851090e+000	 3.9293658133e-001
 4.3684873648e+000	 1.0518828813e+000	 3.7391038515e-001
 4.3574773238e+000	 1.0965993501e+000	 3.5436876554e-001
 4.3459763777e+000	 1.1413270525e+000	 3.3454658833e-001
 4.3339823414e+000	 1.1860584366e+000	 3.1460266471e-001
 4.3214931740e+000	 1.2307858647e+000	 2.9460369141e-001
 4.3085069826e+000	 1.2755016165e+000	 2.7450686981e-001
 4.2950220250e+000	 1.3201978924e+000	 2.5414118599e-001
 4.4338226555e+000	 8.7845933398e-001	 4.3788368970e-001
 4.4246977749e+000	 9.2332181839e-001	 4.2306470549e-001
 4.4150892579e+000	 9.6822506725e-001	 4.0661110026e-001
 4.4049943577e+000	 1.0131618585e+000	 3.8890142745e-001
 4.3944104593e+000	 1.0581248724e+000	 3.7028343257e-001
 4.3833350834e+000	 1.1031066938e+000	 3.5106202710e-001
 4.3717658895e+000	 1.1480998154e+000	 3.3148493085e-001
 4.3597006792e+000	 1.1930966405e+000	 3.1172801830e-001
 4.3471373997e+000	 1.2380894862e+000	 2.9187932038e-001
 4.3340741467e+000	 1.2830705863e+000	 2.7192179112e-001
 4.3205091679e+000	 1.3280320950e+000	 2.5171474990e-001
 4.4599782598e+000	 8.8364146158e-001	 4.3173935792e-001
 4.4507995505e+000	 9.2876859468e-001	 4.1757948387e-001
 4.4411343519e+000	 9.7393673271e-001	 4.0170978094e-001
 4.4309799007e+000	 1.0191386110e+000	 3.8450896094e-001
 4.4203335667e+000	 1.0643668666e+000	 3.6632809847e-001
 4.4091928560e+000	 1.1096140407e+000	 3.4747876712e-001
 4.3975554141e+000	 1.1548725817e+000	 3.2821870370e-001
 4.3854190299e+000	 1.2001348480e+000	 3.0873729566e-001
 4.3727816382e+000	 1.2453931114e+000	 2.8913973165e-001
 4.3596413237e+000	 1.2906395599e+000	 2.6942993963e-001
 4.3459963236e+000	 1.3358663014e+000	 2.4949136184e-001
 4.4861338837e+000	 8.8882359306e-001	 4.2542664904e-001
 4.4769013457e+000	 9.3421537506e-001	 4.1185733849e-001
 4.4671794653e+000	 9.7964840245e-001	 3.9652780384e-001
 4.4569654632e+000	 1.0251153680e+000	 3.7981598131e-001
 4.4462566936e+000	 1.0706088655e+000	 3.6207466055e-001
 4.4350506480e+000	 1.1161213925e+000	 3.4361975123e-001
 4.4233449581e+000	 1.1616453530e+000	 3.2471601171e-001
 4.4111373998e+000	 1.2071730607e+000	 3.0556268614e-001
 4.3984258959e+000	 1.2526967420e+000	 2.8627782480e-001
 4.3852085198e+000	 1.2982085391e+000	 2.6688141877e-001
 4.3714834983e+000	 1.3437005137e+000	 2.4726274942e-001
 4.5122895337e+000	 8.9400572972e-001	 4.1903946855e-001
 4.5030031670e+000	 9.3966216088e-001	 4.0597467070e-001
 4.4932246048e+000	 9.8536007791e-001	 3.9112148896e-001
 4.4829510517e+000	 1.0310921310e+000	 3.7485610174e-001
 4.4721798464e+000	 1.0768508707e+000	 3.5753133040e-001
 4.4609084658e+000	 1.1226287508e+000	 3.3946501217e-001
 4.4491345279e+000	 1.1684181311e+000	 3.2092583120e-001
 4.4368557955e+000	 1.2142112805e+000	 3.0211911644e-001
 4.4240701793e+000	 1.2600003799e+000	 2.8317135369e-001
 4.4107757415e+000	 1.3057775260e+000	 2.6411354312e-001
 4.3969706986e+000	 1.3515347338e+000	 2.4481946012e-001
 4.5384452165e+000	 8.9918787286e-001	 4.1264782253e-001
 4.5291050209e+000	 9.4510895351e-001	 3.9998422436e-001
 4.5192697769e+000	 9.9107176051e-001	 3.8552404186e-001
 4.5089366726e+000	 1.0370689014e+000	 3.6964065842e-001
 4.4981030316e+000	 1.0830928836e+000	 3.5268516720e-001
 4.4867663160e+000	 1.1291361172e+000	 3.3497483338e-001
 4.4749241299e+000	 1.1751909177e+000	 3.1677906190e-001
 4.4625742233e+000	 1.2212495090e+000	 2.9830536903e-001
 4.4497144947e+000	 1.2673040270e+000	 2.7968410950e-001
 4.4363429951e+000	 1.3133465222e+000	 2.6095208401e-001
 4.4224579307e+000	 1.3593689638e+000	 2.4195041361e-001
 4.5646009385e+000	 9.0437002377e-001	 4.0629843492e-001
 4.5552069140e+000	 9.5055575431e-001	 3.9391577843e-001
 4.5453149880e+000	 9.9678345167e-001	 3.7974632056e-001
 4.5349223326e+000	 1.0430456808e+000	 3.6415955034e-001
 4.5240262557e+000	 1.0893349060e+000	 3.4750298888e-001
 4.5126242049e+000	 1.1356434934e+000	 3.3009073020e-001
 4.5007137706e+000	 1.1819637144e+000	 3.1218957643e-001
 4.4882926896e+000	 1.2282877481e+000	 2.9400519838e-001
 4.4753588486e+000	 1.2746076850e+000	 2.7566710180e-001
 4.4619102871e+000	 1.3209155299e+000	 2.5721251368e-001
 4.4479452010e+000	 1.3672032054e+000	 2.3843986162e-001
 4.5907567062e+000	 9.0955218375e-001	 4.0001536372e-001
 4.5813088528e+000	 9.5600256464e-001	 3.8777683815e-001
 4.5713602447e+000	 1.0024951528e+000	 3.7377760038e-001
 4.5609080380e+000	 1.0490224707e+000	 3.5838207668e-001
 4.5499495252e+000	 1.0955769392e+000	 3.4193228089e-001
 4.5384821391e+000	 1.1421508810e+000	 3.2473642850e-001
 4.5265034564e+000	 1.1887365230e+000	 3.0705526745e-001
 4.5140112010e+000	 1.2353259996e+000	 2.8908844488e-001
 4.5010032474e+000	 1.2819113558e+000	 2.7095973783e-001
 4.4874776238e+000	 1.3284845508e+000	 2.5270124805e-001
 4.4734325159e+000	 1.3750374608e+000	 2.3406765728e-001
 4.6169125263e+000	 9.1473435410e-001	 3.9380061614e-001
 4.6074108437e+000	 9.6144938587e-001	 3.8155332456e-001
 4.5974055535e+000	 1.0082068654e+000	 3.6758633692e-001
 4.5868937954e+000	 1.0549992725e+000	 3.5225777214e-001
 4.5758728465e+000	 1.1018189849e+000	 3.3590210259e-001
 4.5643401250e+000	 1.1486582816e+000	 3.1881884092e-001
 4.5522931938e+000	 1.1955093451e+000	 3.0125909240e-001
 4.5397297639e+000	 1.2423642651e+000	 2.8341214683e-001
 4.5266476974e+000	 1.2892150412e+000	 2.6539099998e-001
 4.5130450117e+000	 1.3360535868e+000	 2.4721587950e-001
 4.4989198818e+000	 1.3828717319e+000	 2.2860952362e-001
 4.6430684052e+000	 9.1991653610e-001	 3.8763476287e-001
 4.6335128934e+000	 9.6689621935e-001	 3.7521026264e-001
 4.6234509209e+000	 1.0139185908e+000	 3.6112110496e-001
 4.6128796112e+000	 1.0609760877e+000	 3.4571724002e-001
 4.6017962261e+000	 1.1080610447e+000	 3.2932399132e-001
 4.5901981691e+000	 1.1551656968e+000	 3.1222904085e-001
 4.5780829893e+000	 1.2022821825e+000	 2.9467011618e-001
 4.5654483845e+000	 1.2494025464e+000	 2.7682165033e-001
 4.5522922052e+000	 1.2965187431e+000	 2.5878062167e-001
 4.5386124571e+000	 1.3436226398e+000	 2.4053987886e-001
 4.5244073051e+000	 1.3907060206e+000	 2.2183732135e-001
 4.2695348885e+000	 1.3123636919e+000	 2.5695635893e-001
 4.2556325659e+000	 1.3567675455e+000	 2.3546920072e-001
 4.2412314288e+000	 1.4011363057e+000	 2.1230179066e-001
 4.2263302067e+000	 1.4454619993e+000	 1.8792560804e-001
 4.2109277906e+000	 1.4897365888e+000	 1.6282758286e-001
 4.1950232353e+000	 1.5339519758e+000	 1.3747514257e-001
 4.1786157627e+000	 1.5781000051e+000	 1.1231329434e-001
 4.1617047635e+000	 1.6221724688e+000	 8.7761630512e-002
 4.1442897998e+000	 1.6661611104e+000	 6.4211256630e-002
 4.1263706075e+000	 1.7100576294e+000	 4.2021639715e-002
 4.1079470979e+000	 1.7538536852e+000	 2.1517371854e-002
 4.2950220250e+000	 1.3201978924e+000	 2.5414118599e-001
 4.2810367120e+000	 1.3648668164e+000	 2.3276501218e-001
 4.2665496069e+000	 1.4095004374e+000	 2.0992789894e-001
 4.2515594314e+000	 1.4540907348e+000	 1.8608554908e-001
 4.2360650700e+000	 1.4986296230e+000	 1.6169085027e-001
 4.2200655720e+000	 1.5431089553e+000	 1.3717369587e-001
 4.2035601544e+000	 1.5875205278e+000	 1.1293801255e-001
 4.1865482044e+000	 1.6318560836e+000	 8.9358727073e-002
 4.1690292815e+000	 1.6761073169e+000	 6.6778671637e-002
 4.1510031199e+000	 1.7202658777e+000	 4.5505425085e-002
 4.1324696305e+000	 1.7643233755e+000	 2.5808084824e-002
 4.3205091679e+000	 1.3280320950e+000	 2.5171474990e-001
 4.3064408645e+000	 1.3729660894e+000	 2.3055745694e-001
 4.2918677912e+000	 1.4178645713e+000	 2.0810934440e-001
 4.2767886624e+000	 1.4627194725e+000	 1.8480931999e-001
 4.2612023557e+000	 1.5075226595e+000	 1.6107678387e-001
 4.2451079149e+000	 1.5522659371e+000	 1.3730535311e-001
 4.2285045523e+000	 1.5969410529e+000	 1.1385984928e-001
 4.2113916514e+000	 1.6415397008e+000	 9.1073240823e-002
 4.1937687693e+000	 1.6860535259e+000	 6.9243539783e-002
 4.1756356384e+000	 1.7304741285e+000	 4.8630649617e-002
 4.1569921692e+000	 1.7747930685e+000	 2.9453158672e-002
 4.3459963236e+000	 1.3358663014e+000	 2.4949136184e-001
 4.3318450297e+000	 1.3810653663e+000	 2.2861981509e-001
 4.3171859883e+000	 1.4262287093e+000	 2.0659802596e-001
 4.3020179060e+000	 1.4713482145e+000	 1.8383735999e-001
 4.2863396540e+000	 1.5164157003e+000	 1.6072430743e-001
 4.2701502703e+000	 1.5614229235e+000	 1.3761747692e-001
 4.2534489626e+000	 1.6063615826e+000	 1.1484455761e-001
 4.2362351109e+000	 1.6512233228e+000	 9.2699251616e-002
 4.2185082695e+000	 1.6959997399e+000	 7.1438176128e-002
 4.2002681693e+000	 1.7406823845e+000	 5.1277731690e-002
 4.1815147202e+000	 1.7852627668e+000	 3.2390930620e-002
 4.3714834983e+000	 1.3437005137e+000	 2.4726274942e-001
 4.3572492139e+000	 1.3891646494e+000	 2.2672066673e-001
 4.3425042043e+000	 1.4345928536e+000	 2.0514171421e-001
 4.3272471685e+000	 1.4799769629e+000	 1.8290634040e-001
 4.3114769711e+000	 1.5253087479e+000	 1.6036872391e-001
 4.2951926445e+000	 1.5705799167e+000	 1.3785374088e-001
 4.2783933917e+000	 1.6157821194e+000	 1.1565391616e-001
 4.2610785891e+000	 1.6609069522e+000	 9.4026360323e-002
 4.2432477882e+000	 1.7059459613e+000	 7.3189691366e-002
 4.2249007186e+000	 1.7508906481e+000	 5.3320937415e-002
 4.2060372896e+000	 1.7957324728e+000	 3.4552413654e-002
 4.3969706986e+000	 1.3515347338e+000	 2.4481946012e-001
 4.3826534236e+000	 1.3972639405e+000	 2.2462416464e-001
 4.3678224456e+000	 1.4429570062e+000	 2.0348433205e-001
 4.3524764563e+000	 1.4886057200e+000	 1.8174946042e-001
 4.3366143134e+000	 1.5342018043e+000	 1.5974203363e-001
 4.3202350437e+000	 1.5797369191e+000	 1.3775447722e-001
 4.3033378457e+000	 1.6252026657e+000	 1.1604611333e-001
 4.2859220920e+000	 1.6705905912e+000	 9.4840116707e-002
 4.2679873317e+000	 1.7158921927e+000	 7.4320470392e-002
 4.2495332926e+000	 1.7610989219e+000	 5.4628916887e-002
 4.2305598835e+000	 1.8062021894e+000	 3.5861897403e-002
 4.4224579307e+000	 1.3593689638e+000	 2.4195041361e-001
 4.4080576650e+000	 1.4053632418e+000	 2.2209030659e-001
 4.3931407186e+000	 1.4513211693e+000	 2.0136623537e-001
 4.3777057756e+000	 1.4972344879e+000	 1.8009674314e-001
 4.3617516871e+000	 1.5430948719e+000	 1.5857325242e-001
 4.3452774742e+000	 1.5888939329e+000	 1.3705702404e-001
 4.3282823309e+000	 1.6346232237e+000	 1.1577613049e-001
 4.3107656260e+000	 1.6802742423e+000	 9.4922445462e-002
 4.2927269061e+000	 1.7258384365e+000	 7.4648647958e-002
 4.2741658974e+000	 1.7713072085e+000	 5.5065236222e-002
 4.2550825081e+000	 1.8166719190e+000	 3.6237543246e-002
 4.4479452010e+000	 1.3672032054e+000	 2.3843986162e-001
 4.4334619445e+000	 1.4134625552e+000	 2.1887520740e-001
 4.4184590296e+000	 1.4596853450e+000	 1.9852449379e-001
 4.4029351327e+000	 1.5058632687e+000	 1.7767533157e-001
 4.3868890985e+000	 1.5519879528e+000	 1.5658872973e-001
 4.3703199423e+000	 1.5980509605e+000	 1.3549607219e-001
 4.3532268535e+000	 1.6440437958e+000	 1.1459612428e-001
 4.3356091973e+000	 1.6899579079e+000	 9.4052070480e-002
 4.3174665176e+000	 1.7357846952e+000	 7.3988581539e-002
 4.2987985391e+000	 1.7815155104e+000	 5.4488905538e-002
 4.2796051695e+000	 1.8271416644e+000	 3.5591973896e-002
 4.4734325159e+000	 1.3750374608e+000	 2.3406765728e-001
 4.4588662684e+000	 1.4215618828e+000	 2.1473137069e-001
 4.4437773848e+000	 1.4680495353e+000	 1.9469317134e-001
 4.4281645340e+000	 1.5144920646e+000	 1.7420978485e-001
 4.4120265538e+000	 1.5608810493e+000	 1.5351246677e-001
 4.3953624543e+000	 1.6072080041e+000	 1.3280401177e-001
 4.3781714198e+000	 1.6534643845e+000	 1.1225580793e-001
 4.3604528121e+000	 1.6996415905e+000	 9.2004937447e-002
 4.3422061724e+000	 1.7457309714e+000	 7.2151321513e-002
 4.3234312239e+000	 1.7917238301e+000	 5.2754903052e-002
 4.3041278737e+000	 1.8376114280e+000	 3.3832857665e-002
 4.4989198818e+000	 1.3828717319e+000	 2.2860952362e-001
 4.4842706432e+000	 1.4296612266e+000	 2.0940796035e-001
 4.4690957907e+000	 1.4764137423e+000	 1.8960360724e-001
 4.4533939857e+000	 1.5231208778e+000	 1.6942237455e-001
 4.4371640595e+000	 1.5697741635e+000	 1.4906643466e-001
 4.4204050163e+000	 1.6163650660e+000	 1.2871127835e-001
 4.4031160359e+000	 1.6628849919e+000	 1.0850283174e-001
 4.3852964765e+000	 1.7093252924e+000	 8.8554634807e-002
 4.3669458767e+000	 1.7556772674e+000	 6.8945078778e-002
 4.3480639580e+000	 1.8019321703e+000	 4.9714695447e-002
 4.3286506270e+000	 1.8480812126e+000	 3.0863487648e-002
 4.5244073051e+000	 1.3907060206e+000	 2.2183732135e-001
 4.5096750751e+000	 1.4377605886e+000	 2.0265107184e-001
 4.4944142536e+000	 1.4847779682e+000	 1.8298469668e-001
 4.4786234942e+000	 1.5317497104e+000	 1.6303338106e-001
 4.4623016217e+000	 1.5786672978e+000	 1.4297089246e-001
 4.4454476346e+000	 1.6255221485e+000	 1.2294669880e-001
 4.4280607082e+000	 1.6723056206e+000	 1.0308316277e-001
 4.4101401969e+000	 1.7190090161e+000	 8.3472813185e-002
 4.3916856366e+000	 1.7656235858e+000	 6.4175689908e-002
 4.3726967475e+000	 1.8121405334e+000	 4.5216754673e-002
 4.3531734355e+000	 1.8585510208e+000	 2.6583356013e-002
 4.1079470979e+000	 1.7538536852e+000	 2.1517371854e-002
 4.0890222373e+000	 1.7975343583e+000	 2.3958055086e-003
 4.0695935713e+000	 1.8410978246e+000	-1.6339371273e-002
 4.0496615522e+000	 1.8845356576e+000	-3.5485834586e-002
 4.0292268150e+000	 1.9278394095e+000	-5.5926584579e-002
 4.0082901786e+000	 1.9710006163e+000	-7.8632597503e-002
 3.9868526470e+000	 2.0140108020e+000	-1.0464479081e-001
 3.9649154103e+000	 2.0568614843e+000	-1.3074410573e-001
 3.9424798459e+000	 2.0995441792e+000	-1.5594120899e-001
 3.9195475189e+000	 2.1420504062e+000	-1.8086040164e-001
 3.8961201831e+000	 2.1843716934e+000	-2.0609965719e-001
 4.1324696305e+000	 1.7643233755e+000	 2.5808084824e-002
 4.1134317973e+000	 1.8082648019e+000	 7.1627320320e-003
 4.0938871512e+000	 1.8520883219e+000	-1.1615633502e-002
 4.0738361472e+000	 1.8957854585e+000	-3.1328395856e-002
 4.0532794241e+000	 1.9393477137e+000	-5.2854241109e-002
 4.0322178058e+000	 1.9827665728e+000	-7.7151679608e-002
 4.0106523021e+000	 2.0260335093e+000	-1.0386306761e-001
 3.9885841103e+000	 2.0691399902e+000	-1.2836319537e-001
 3.9660146160e+000	 2.1120774810e+000	-1.5223735974e-001
 3.9429453937e+000	 2.1548374504e+000	-1.7637890079e-001
 3.9193782076e+000	 2.1974113759e+000	-2.0139015099e-001
 4.1569921692e+000	 1.7747930685e+000	 2.9453158672e-002
 4.1378413634e+000	 1.8189952483e+000	 1.1037333895e-002
 4.1181807371e+000	 1.8630788219e+000	-7.9194610881e-003
 4.0980107483e+000	 1.9070352623e+000	-2.8217952755e-002
 4.0773320393e+000	 1.9508560208e+000	-5.0729137041e-002
 4.0561454389e+000	 1.9945325322e+000	-7.6396681682e-002
 4.0344519631e+000	 2.0380562196e+000	-1.0346637676e-001
 4.0122528162e+000	 2.0814184992e+000	-1.2815263182e-001
 3.9895493920e+000	 2.1246107859e+000	-1.5099338138e-001
 3.9663432743e+000	 2.1676244977e+000	-1.7416941067e-001
 3.9426362379e+000	 2.2104510617e+000	-1.9861696744e-001
 4.1815147202e+000	 1.7852627668e+000	 3.2390930620e-002
 4.1622509417e+000	 1.8297257000e+000	 1.4013843212e-002
 4.1424743353e+000	 1.8740693274e+000	-5.2145978895e-003
 4.1221853614e+000	 1.9182850717e+000	-2.6090189502e-002
 4.1013846665e+000	 1.9623643336e+000	-4.9472944306e-002
 4.0800730841e+000	 2.0062984976e+000	-7.6221831814e-002
 4.0582516360e+000	 2.0500789359e+000	-1.0308729631e-001
 4.0359215339e+000	 2.0936970144e+000	-1.2806091005e-001
 4.0130841797e+000	 2.1371440970e+000	-1.5147285899e-001
 3.9897411667e+000	 2.1804115515e+000	-1.7389705145e-001
 3.9658942799e+000	 2.2234907540e+000	-1.9750668147e-001
 4.2060372896e+000	 1.7957324728e+000	 3.4552413654e-002
 4.1866605383e+000	 1.8404561597e+000	 1.6078044981e-002
 4.1667679516e+000	 1.8850598412e+000	-3.4740354497e-003
 4.1463599927e+000	 1.9295348895e+000	-2.4890517273e-002
 4.1254373117e+000	 1.9738726551e+000	-4.9017221143e-002
 4.1040007471e+000	 2.0180644717e+000	-7.6248360610e-002
 4.0820513268e+000	 2.0621016612e+000	-1.0277034910e-001
 4.0595902694e+000	 2.1059755387e+000	-1.2784503911e-001
 4.0366189852e+000	 2.1496774176e+000	-1.5178143234e-001
 4.0131390766e+000	 2.1931986148e+000	-1.7490749181e-001
 3.9891523392e+000	 2.2365304562e+000	-1.9780482156e-001
 4.2305598835e+000	 1.8062021894e+000	 3.5861897403e-002
 4.2110701594e+000	 1.8511866302e+000	 1.7207941487e-002
 4.1910615923e+000	 1.8960503660e+000	-2.6792941765e-003
 4.1705346482e+000	 1.9407847185e+000	-2.4573310164e-002
 4.1494899810e+000	 1.9853809880e+000	-4.9302612118e-002
 4.1279284341e+000	 2.0298304576e+000	-7.6464292322e-002
 4.1058510414e+000	 2.0741243986e+000	-1.0255669281e-001
 4.0832590286e+000	 2.1182540753e+000	-1.2755783801e-001
 4.0601538141e+000	 2.1622107507e+000	-1.5175716955e-001
 4.0365370098e+000	 2.2059856910e+000	-1.7545978445e-001
 4.0124104219e+000	 2.2495701713e+000	-1.9898674598e-001
 4.2550825081e+000	 1.8166719190e+000	 3.6237543246e-002
 4.2354798109e+000	 1.8619171141e+000	 1.7374409442e-002
 4.2153552633e+000	 1.9070409045e+000	-2.8197129697e-003
 4.1947093338e+000	 1.9520345617e+000	-2.5101150462e-002
 4.1735426804e+000	 1.9968893354e+000	-5.0278057982e-002
 4.1518561510e+000	 2.0415964583e+000	-7.6909320941e-002
 4.1296507858e+000	 2.0861471510e+000	-1.0248390330e-001
 4.1069278174e+000	 2.1305326273e+000	-1.2724802896e-001
 4.0836886725e+000	 2.1747440995e+000	-1.5147320471e-001
 4.0599349724e+000	 2.2187727831e+000	-1.7544430449e-001
 4.0356685336e+000	 2.2626099028e+000	-1.9945987449e-001
 4.2796051695e+000	 1.8271416644e+000	 3.5591973896e-002
 4.2598894991e+000	 1.8726476141e+000	 1.6541850155e-002
 4.2396489707e+000	 1.9180314595e+000	-3.8917469543e-003
 4.2188840558e+000	 1.9632844217e+000	-2.6444082844e-002
 4.1975954158e+000	 2.0083977000e+000	-5.1817929894e-002
 4.1757839038e+000	 2.0533624765e+000	-7.7619564413e-002
 4.1534505658e+000	 2.0981699214e+000	-1.0258576739e-001
 4.1305966416e+000	 2.1428111977e+000	-1.2696004290e-001
 4.1072235661e+000	 2.1872774670e+000	-1.5099758908e-001
 4.0833329700e+000	 2.2315598944e+000	-1.7496568878e-001
 4.0589266802e+000	 2.2756496538e+000	-1.9914401748e-001
 4.3041278737e+000	 1.8376114280e+000	 3.3832857665e-002
 4.2842992299e+000	 1.8833781329e+000	 1.4668833004e-002
 4.2639427207e+000	 1.9290220337e+000	-5.8982729916e-003
 4.2430588200e+000	 1.9745343013e+000	-2.8578877155e-002
 4.2216481933e+000	 2.0199060847e+000	-5.3710543552e-002
 4.1997116985e+000	 2.0651285154e+000	-7.8627362590e-002
 4.1772503875e+000	 2.1101927129e+000	-1.0289208482e-001
 4.1542655073e+000	 2.1550897896e+000	-1.2673383374e-001
 4.1307585010e+000	 2.1998108565e+000	-1.5039312595e-001
 4.1067310086e+000	 2.2443470280e+000	-1.7412227451e-001
 4.0821848675e+000	 2.2886894276e+000	-1.9818570807e-001
 4.3286506270e+000	 1.8480812126e+000	 3.0863487648e-002
 4.3087090096e+000	 1.8941086732e+000	 1.1708732498e-002
 4.2882365192e+000	 1.9400126299e+000	-8.8479026545e-003
 4.2672336326e+000	 1.9857842035e+000	-3.1488299399e-002
 4.2457010189e+000	 2.0314144925e+000	-5.5987118272e-002
 4.2236395410e+000	 2.0768945778e+000	-7.9961084035e-002
 4.2010502567e+000	 2.1222155284e+000	-1.0342847889e-001
 4.1779344203e+000	 2.1673684060e+000	-1.2660470099e-001
 4.1542934829e+000	 2.2123442711e+000	-1.4971721333e-001
 4.1301290939e+000	 2.2571341873e+000	-1.7300596990e-001
 4.1054431013e+000	 2.3017292275e+000	-1.9672375450e-001
 4.3531734355e+000	 1.8585510208e+000	 2.6583356013e-002
 4.3331188442e+000	 1.9048392375e+000	 7.6103591751e-003
 4.3125303724e+000	 1.9510032508e+000	-1.2754302368e-002
 4.2914084996e+000	 1.9970341310e+000	-3.5160390639e-002
 4.2697538987e+000	 2.0429229261e+000	-5.8686957794e-002
 4.2475674374e+000	 2.0886606667e+000	-8.1644941326e-002
 4.2248501796e+000	 2.1342383709e+000	-1.0421621562e-001
 4.2016033865e+000	 2.1796470501e+000	-1.2660312047e-001
 4.1778285178e+000	 2.2248777138e+000	-1.4902169392e-001
 4.1535272320e+000	 2.2699213753e+000	-1.7170213132e-001
 4.1287013875e+000	 2.3147690567e+000	-1.9488915206e-001
 3.8961201831e+000	 2.1843716934e+000	-2.0609965719e-001
 3.8721961564e+000	 2.2265058876e+000	-2.2999940246e-001
 3.8477810517e+000	 2.2684381848e+000	-2.5095763606e-001
 3.8228771944e+000	 2.3101601684e+000	-2.6962673069e-001
 3.7974870994e+000	 2.3516634514e+000	-2.8662917767e-001
 3.7716134707e+000	 2.3929396811e+000	-3.0256016905e-001
 3.7452592011e+000	 2.4339805451e+000	-3.1799098490e-001
 3.7184273714e+000	 2.4747777761e+000	-3.3347317406e-001
 3.6911212498e+000	 2.5153231572e+000	-3.4954350810e-001
 3.6633442912e+000	 2.5556085274e+000	-3.6672968045e-001
 3.6351001357e+000	 2.5956257866e+000	-3.8555671382e-001
 3.9193782076e+000	 2.1974113759e+000	-2.0139015099e-001
 3.8953113656e+000	 2.2397970917e+000	-2.2555872942e-001
 3.8707505140e+000	 2.2819797052e+000	-2.4714250153e-001
 3.8456979923e+000	 2.3239507497e+000	-2.6666061270e-001
 3.8201563303e+000	 2.3657017879e+000	-2.8460323115e-001
 3.7941282481e+000	 2.4072244175e+000	-3.0143447378e-001
 3.7676166557e+000	 2.4485102764e+000	-3.1759617262e-001
 3.7406246525e+000	 2.4895510478e+000	-3.3351246937e-001
 3.7131555261e+000	 2.5303384660e+000	-3.4959521699e-001
 3.6852127520e+000	 2.5708643211e+000	-3.6625015848e-001
 3.6567999920e+000	 2.6111204647e+000	-3.8388384453e-001
 3.9426362379e+000	 2.2104510617e+000	-1.9861696744e-001
 3.9184265806e+000	 2.2530882991e+000	-2.2264153039e-001
 3.8937199822e+000	 2.2955212290e+000	-2.4444032644e-001
 3.8685187960e+000	 2.3377413343e+000	-2.6441825326e-001
 3.8428255668e+000	 2.3797401279e+000	-2.8295142182e-001
 3.8166430311e+000	 2.4215091574e+000	-3.0039039238e-001
 3.7899741160e+000	 2.4630400112e+000	-3.1706428878e-001
 3.7628219391e+000	 2.5043243232e+000	-3.3328577799e-001
 3.7351898079e+000	 2.5453537786e+000	-3.4935689259e-001
 3.7070812182e+000	 2.5861201187e+000	-3.6557566520e-001
 3.6784998537e+000	 2.6266151467e+000	-3.8224353481e-001
 3.9658942799e+000	 2.2234907540e+000	-1.9750668147e-001
 3.9415418071e+000	 2.2663795131e+000	-2.2103793351e-001
 3.9166894618e+000	 2.3090627595e+000	-2.4269562895e-001
 3.8913396110e+000	 2.3515319259e+000	-2.6278914360e-001
 3.8654948147e+000	 2.3937784749e+000	-2.8159854504e-001
 3.8391578253e+000	 2.4357939045e+000	-2.9937810561e-001
 3.8123315874e+000	 2.4775697534e+000	-3.1636073361e-001
 3.7850192369e+000	 2.5190976061e+000	-3.3276330920e-001
 3.7572241007e+000	 2.5603690986e+000	-3.4879290171e-001
 3.7289496954e+000	 2.6013759238e+000	-3.6465383608e-001
 3.7001997262e+000	 2.6421098364e+000	-3.8055556661e-001
 3.9891523392e+000	 2.2365304562e+000	-1.9780482156e-001
 3.9646570510e+000	 2.2796707371e+000	-2.2055545494e-001
 3.9396589586e+000	 2.3226043002e+000	-2.4176896367e-001
 3.9141604432e+000	 2.3653225278e+000	-2.6167768097e-001
 3.8881640796e+000	 2.4078168325e+000	-2.8048339996e-001
 3.8616726365e+000	 2.4500786623e+000	-2.9836113062e-001
 3.8346890756e+000	 2.4920995064e+000	-3.1546381743e-001
 3.8072165513e+000	 2.5338709000e+000	-3.3192800328e-001
 3.7792584100e+000	 2.5753844299e+000	-3.4788041596e-001
 3.7508181889e+000	 2.6166317404e+000	-3.6344544329e-001
 3.7218996151e+000	 2.6576045378e+000	-3.7875345367e-001
 4.0124104219e+000	 2.2495701713e+000	-1.9898674598e-001
 3.9877723179e+000	 2.2929619745e+000	-2.2101863278e-001
 3.9626284784e+000	 2.3361458544e+000	-2.4153659223e-001
 3.9369812982e+000	 2.3791131435e+000	-2.6100287038e-001
 3.9108333672e+000	 2.4218552041e+000	-2.7955851660e-001
 3.8841874701e+000	 2.4643634344e+000	-2.9731606749e-001
 3.8570465861e+000	 2.5066292740e+000	-3.1436452054e-001
 3.8294138879e+000	 2.5486442086e+000	-3.3077529842e-001
 3.8012927413e+000	 2.5903997763e+000	-3.4660917907e-001
 3.7726867043e+000	 2.6318875722e+000	-3.6192415685e-001
 3.7435995256e+000	 2.6730992547e+000	-3.7677124108e-001
 4.0356685336e+000	 2.2626099028e+000	-1.9945987449e-001
 4.0108876138e+000	 2.3062532284e+000	-2.2205760031e-001
 3.9855980269e+000	 2.3496874256e+000	-2.4189015758e-001
 3.9598021817e+000	 2.3929037764e+000	-2.6069802899e-001
 3.9335026831e+000	 2.4358935932e+000	-2.7878988483e-001
 3.9067023319e+000	 2.4786482244e+000	-2.9623234690e-001
 3.8794041246e+000	 2.5211590597e+000	-3.1306625384e-001
 3.8516112522e+000	 2.5634175357e+000	-3.2931289811e-001
 3.8233271002e+000	 2.6054151414e+000	-3.4498127491e-001
 3.7945552471e+000	 2.6471434231e+000	-3.6007630687e-001
 3.7652994632e+000	 2.6885939909e+000	-3.7447072754e-001
 4.0589266802e+000	 2.2756496538e+000	-1.9914401748e-001
 4.0340029444e+000	 2.3195445022e+000	-2.2222561440e-001
 4.0085676099e+000	 2.3632290171e+000	-2.4261248603e-001
 3.9826230995e+000	 2.4066944300e+000	-2.6071049291e-001
 3.9561720330e+000	 2.4499320034e+000	-2.7815668490e-001
 3.9292172275e+000	 2.4929330358e+000	-2.9511197907e-001
 3.9017616966e+000	 2.5356888672e+000	-3.1158462021e-001
 3.8738086499e+000	 2.5781908850e+000	-3.2756053926e-001
 3.8453614922e+000	 2.6204305290e+000	-3.4301089627e-001
 3.8164238226e+000	 2.6623992969e+000	-3.5790064675e-001
 3.7869994334e+000	 2.7040887503e+000	-3.7183825261e-001
 4.0821848675e+000	 2.2886894276e+000	-1.9818570807e-001
 4.0571183154e+000	 2.3328357994e+000	-2.2143770014e-001
 4.0315372331e+000	 2.3767706323e+000	-2.4241425406e-001
 4.0054440571e+000	 2.4204851078e+000	-2.6095401302e-001
 3.9788414226e+000	 2.4639704382e+000	-2.7765101975e-001
 3.9517321625e+000	 2.5072178722e+000	-2.9396930356e-001
 3.9241193077e+000	 2.5502187002e+000	-3.0994717664e-001
 3.8960060863e+000	 2.5929642602e+000	-3.2554976086e-001
 3.8673959227e+000	 2.6354459429e+000	-3.4072411428e-001
 3.8382924365e+000	 2.6776551974e+000	-3.5538641833e-001
 3.8086994416e+000	 2.7195835369e+000	-3.6889875878e-001
 4.1054431013e+000	 2.3017292275e+000	-1.9672375450e-001
 4.0802337326e+000	 2.3461271231e+000	-2.1988229235e-001
 4.0545069021e+000	 2.3903122745e+000	-2.4115553934e-001
 4.0282650605e+000	 2.4342758131e+000	-2.6034027018e-001
 4.0015108575e+000	 2.4780089010e+000	-2.7727420709e-001
 3.9742471425e+000	 2.5215027371e+000	-2.9283074030e-001
 3.9464769636e+000	 2.5647485622e+000	-3.0819319697e-001
 3.9182035672e+000	 2.6077376649e+000	-3.2332367318e-001
 3.8894303972e+000	 2.6504613868e+000	-3.3815864841e-001
 3.8601610940e+000	 2.6929111284e+000	-3.5251482027e-001
 3.8303994932e+000	 2.7350783545e+000	-3.6568628537e-001
 4.1287013875e+000	 2.3147690567e+000	-1.9488915206e-001
 4.1033492018e+000	 2.3594184767e+000	-2.1773870498e-001
 4.0774766229e+000	 2.4038539472e+000	-2.3905704571e-001
 4.0510861151e+000	 2.4480665494e+000	-2.5861427198e-001
 4.0241803434e+000	 2.4920473954e+000	-2.7621905261e-001
 3.9967621731e+000	 2.5357876342e+000	-2.9173454149e-001
 3.9688346697e+000	 2.5792784569e+000	-3.0637343544e-001
 3.9404010980e+000	 2.6225111028e+000	-3.2093672753e-001
 3.9114649214e+000	 2.6654768645e+000	-3.3536363722e-001
 3.8820298008e+000	 2.7081670937e+000	-3.4934981321e-001
 3.8520995936e+000	 2.7505732069e+000	-3.6224315181e-001
 3.6351001357e+000	 2.5956257866e+000	-3.8555671382e-001
 3.6063926063e+000	 2.6353668999e+000	-4.0701004319e-001
 3.5772257048e+000	 2.6748239003e+000	-4.3118564454e-001
 3.5476036128e+000	 2.7139888964e+000	-4.5599421001e-001
 3.5175306915e+000	 2.7528540782e+000	-4.7964051574e-001
 3.4870114791e+000	 2.7914117222e+000	-5.0086351059e-001
 3.4560506892e+000	 2.8296541964e+000	-5.1841763698e-001
 3.4246532080e+000	 2.8675739655e+000	-5.3108067205e-001
 3.3928240923e+000	 2.9051635954e+000	-5.3766225159e-001
 3.3605685667e+000	 2.9424157581e+000	-5.3701303922e-001
 3.3278920205e+000	 2.9793232365e+000	-5.2839816395e-001
 3.6567999920e+000	 2.6111204647e+000	-3.8388384453e-001
 3.6279210920e+000	 2.6510988139e+000	-4.0359933484e-001
 3.5985800776e+000	 2.6907913543e+000	-4.2562131542e-001
 3.5687811556e+000	 2.7301901472e+000	-4.4799728362e-001
 3.5385287129e+000	 2.7692873361e+000	-4.6964437121e-001
 3.5078273150e+000	 2.8080751512e+000	-4.8960174380e-001
 3.4766817036e+000	 2.8465459153e+000	-5.0691498041e-001
 3.4450967940e+000	 2.8846920477e+000	-5.2064347776e-001
 3.4130776734e+000	 2.9225060702e+000	-5.2986858823e-001
 3.3806295973e+000	 2.9599806109e+000	-5.3370245438e-001
 3.3477579873e+000	 2.9971084099e+000	-5.3129749483e-001
 3.6784998537e+000	 2.6266151467e+000	-3.8224353481e-001
 3.6494495830e+000	 2.6668307320e+000	-4.0052066861e-001
 3.6199344558e+000	 2.7067588123e+000	-4.2043135526e-001
 3.5899587036e+000	 2.7463914021e+000	-4.4064520778e-001
 3.5595267396e+000	 2.7857205980e+000	-4.6047646313e-001
 3.5286431562e+000	 2.8247385844e+000	-4.7923106124e-001
 3.4973127231e+000	 2.8634376383e+000	-4.9621286174e-001
 3.4655403852e+000	 2.9018101342e+000	-5.1073067280e-001
 3.4333312595e+000	 2.9398485493e+000	-5.2210606488e-001
 3.4006906328e+000	 2.9775454682e+000	-5.2968193308e-001
 3.3676239591e+000	 3.0148935877e+000	-5.3283176251e-001
 3.7001997262e+000	 2.6421098364e+000	-3.8055556661e-001
 3.6709780849e+000	 2.6825626578e+000	-3.9755445501e-001
 3.6412888447e+000	 2.7227262783e+000	-4.1553604924e-001
 3.6111362623e+000	 2.7625926651e+000	-4.3384838333e-001
 3.5805247767e+000	 2.8021538682e+000	-4.5204722677e-001
 3.5494590077e+000	 2.8414020260e+000	-4.6967249484e-001
 3.5179437530e+000	 2.8803293698e+000	-4.8625409904e-001
 3.4859839866e+000	 2.9189282292e+000	-5.0131866097e-001
 3.4535848557e+000	 2.9571910371e+000	-5.1439706321e-001
 3.4207516785e+000	 2.9951103342e+000	-5.2503280116e-001
 3.3874899407e+000	 3.0326787744e+000	-5.3279109019e-001
 3.7218996151e+000	 2.6576045378e+000	-3.7875345367e-001
 3.6925066029e+000	 2.6982945955e+000	-3.9453131148e-001
 3.6626432496e+000	 2.7386937563e+000	-4.1086921550e-001
 3.6323138368e+000	 2.7787939402e+000	-4.2753064408e-001
 3.6015228296e+000	 2.8185871507e+000	-4.4428023581e-001
 3.5702748748e+000	 2.8580654800e+000	-4.6085971273e-001
 3.5385747984e+000	 2.8972211140e+000	-4.7699342349e-001
 3.5064276033e+000	 2.9360463371e+000	-4.9239480212e-001
 3.4738384671e+000	 2.9745335379e+000	-5.0677371669e-001
 3.4408127391e+000	 3.0126752135e+000	-5.1984467181e-001
 3.4073559373e+000	 3.0504639744e+000	-5.3133581929e-001
 3.7435995256e+000	 2.6730992547e+000	-3.7677124108e-001
 3.7140351424e+000	 2.7140265489e+000	-3.9141672068e-001
 3.6839976758e+000	 2.7546612502e+000	-4.0637733686e-001
 3.6534914325e+000	 2.7949952315e+000	-4.2162837700e-001
 3.6225209035e+000	 2.8350204497e+000	-4.3711131862e-001
 3.5910907628e+000	 2.8747289507e+000	-4.5273813956e-001
 3.5592058643e+000	 2.9141128750e+000	-4.6839661218e-001
 3.5268712405e+000	 2.9531644621e+000	-4.8395656620e-001
 3.4940920988e+000	 2.9918760561e+000	-4.9927709518e-001
 3.4608738198e+000	 3.0302401103e+000	-5.1421467032e-001
 3.4272219538e+000	 3.0682491922e+000	-5.2863211573e-001
 3.7652994632e+000	 2.6885939909e+000	-3.7447072754e-001
 3.7355637088e+000	 2.7297585220e+000	-3.8818791988e-001
 3.7053521288e+000	 2.7706287641e+000	-4.0201869518e-001
 3.6746690547e+000	 2.8111965430e+000	-4.1608964525e-001
 3.6435190037e+000	 2.8514537691e+000	-4.3048767728e-001
 3.6119066767e+000	 2.8913924423e+000	-4.4526407929e-001
 3.5798369561e+000	 2.9310046572e+000	-4.6043962283e-001
 3.5473149032e+000	 2.9702826085e+000	-4.7601068856e-001
 3.5143457558e+000	 3.0092185959e+000	-4.9195638974e-001
 3.4809349256e+000	 3.0478050290e+000	-5.0824665758e-001
 3.4470879951e+000	 3.0860344322e+000	-5.2485124185e-001
 3.7869994334e+000	 2.7040887503e+000	-3.7183825261e-001
 3.7570923075e+000	 2.7454905186e+000	-3.8483305584e-001
 3.7267066137e+000	 2.7865963019e+000	-3.9776250836e-001
 3.6958467086e+000	 2.8273978789e+000	-4.1087331397e-001
 3.6645171353e+000	 2.8678871133e+000	-4.2436700936e-001
 3.6327226219e+000	 2.9080559588e+000	-4.3840384048e-001
 3.6004680788e+000	 2.9478964647e+000	-4.5310773059e-001
 3.5677585966e+000	 2.9874007806e+000	-4.6857232641e-001
 3.5345994432e+000	 3.0265611617e+000	-4.8486809741e-001
 3.5009960615e+000	 3.0653699741e+000	-5.0205045239e-001
 3.4669540662e+000	 3.1038196989e+000	-5.2016882551e-001
 3.8086994416e+000	 2.7195835369e+000	-3.6889875878e-001
 3.7786209439e+000	 2.7612225428e+000	-3.8135034169e-001
 3.7480611361e+000	 2.8025638677e+000	-3.9358806969e-001
 3.7170243996e+000	 2.8435992431e+000	-4.0594817870e-001
 3.6855153037e+000	 2.8843204861e+000	-4.1871663229e-001
 3.6535386035e+000	 2.9247195045e+000	-4.3213286394e-001
 3.6210992376e+000	 2.9647883017e+000	-4.4639466657e-001
 3.5882023257e+000	 3.0045189826e+000	-4.6166421636e-001
 3.5548531660e+000	 3.0439037579e+000	-4.7807520623e-001
 3.5210572325e+000	 3.0829349499e+000	-4.9574105249e-001
 3.4868201720e+000	 3.1216049968e+000	-5.1476412636e-001
 3.8303994932e+000	 2.7350783545e+000	-3.6568628537e-001
 3.8001496233e+000	 2.7769545985e+000	-3.7774721584e-001
 3.7694157011e+000	 2.8185314654e+000	-3.8948388965e-001
 3.7382021329e+000	 2.8598006397e+000	-4.0129209634e-001
 3.7065135141e+000	 2.9007538919e+000	-4.1351261023e-001
 3.6743546268e+000	 2.9413830835e+000	-4.2643485262e-001
 3.6417304377e+000	 2.9816801726e+000	-4.4030175819e-001
 3.6086460957e+000	 3.0216372188e+000	-4.5531583309e-001
 3.5751069293e+000	 3.0612463888e+000	-4.7164638020e-001
 3.5411184436e+000	 3.1004999609e+000	-4.8943785454e-001
 3.5066863176e+000	 3.1393903302e+000	-5.0881929949e-001
 3.8520995936e+000	 2.7505732069e+000	-3.6224315181e-001
 3.8216783512e+000	 2.7926866895e+000	-3.7403950281e-001
 3.7907703142e+000	 2.8344990990e+000	-3.8544683986e-001
 3.7593799139e+000	 2.8760020728e+000	-3.9689111851e-001
 3.7275117717e+000	 2.9171873346e+000	-4.0873888335e-001
 3.6951706969e+000	 2.9580467000e+000	-4.2130090365e-001
 3.6623616842e+000	 2.9985720814e+000	-4.3483707125e-001
 3.6290899118e+000	 3.0387554936e+000	-4.4956254893e-001
 3.5953607382e+000	 3.0785890587e+000	-4.6565514449e-001
 3.5611796998e+000	 3.1180650113e+000	-4.8326387294e-001
 3.5265525078e+000	 3.1571757036e+000	-5.0251865653e-001
 3.3278920205e+000	 2.9793232365e+000	-5.2839816395e-001
 3.2948050001e+000	 3.0158734733e+000	-5.2455700265e-001
 3.2613083459e+000	 3.0520650543e+000	-5.2985741873e-001
 3.2274079240e+000	 3.0878911282e+000	-5.4207016478e-001
 3.1931097526e+000	 3.1233449728e+000	-5.5868537478e-001
 3.1584199984e+000	 3.1584199984e+000	-5.7695820751e-001
 3.1233449728e+000	 3.1931097526e+000	-5.9395524173e-001
 3.0878911282e+000	 3.2274079240e+000	-6.0660123488e-001
 3.0520650543e+000	 3.2613083459e+000	-6.1172585943e-001
 3.0158734733e+000	 3.2948050001e+000	-6.0611003736e-001
 2.9793232365e+000	 3.3278920205e+000	-5.8653150195e-001
 3.3477579873e+000	 2.9971084099e+000	-5.3129749483e-001
 3.3144734528e+000	 3.0338768346e+000	-5.2268633666e-001
 3.2807768392e+000	 3.0702844624e+000	-5.2283145043e-001
 3.2466740475e+000	 3.1063244014e+000	-5.3176041009e-001
 3.2121711320e+000	 3.1419898888e+000	-5.4664080106e-001
 3.1772742960e+000	 3.1772742960e+000	-5.6440395002e-001
 3.1419898888e+000	 3.2121711320e+000	-5.8179366036e-001
 3.1063244014e+000	 3.2466740475e+000	-5.9541528934e-001
 3.0702844624e+000	 3.2807768392e+000	-6.0178476553e-001
 3.0338768346e+000	 3.3144734528e+000	-5.9737715132e-001
 2.9971084099e+000	 3.3477579873e+000	-5.7921009608e-001
 3.3676239591e+000	 3.0148935877e+000	-5.3283176251e-001
 3.3341419104e+000	 3.0518802003e+000	-5.2740674261e-001
 3.3002453373e+000	 3.0885038752e+000	-5.2109974309e-001
 3.2659401758e+000	 3.1247576791e+000	-5.2543514179e-001
 3.2312325161e+000	 3.1606348096e+000	-5.3730586700e-001
 3.1961285984e+000	 3.1961285984e+000	-5.5335785657e-001
 3.1606348096e+000	 3.2312325161e+000	-5.7004961457e-001
 3.1247576791e+000	 3.2659401758e+000	-5.8370360253e-001
 3.0885038752e+000	 3.3002453373e+000	-5.9055753354e-001
 3.0518802003e+000	 3.3341419104e+000	-5.8681696918e-001
 3.0148935877e+000	 3.3676239591e+000	-5.7170523026e-001
 3.3874899407e+000	 3.0326787744e+000	-5.3279109019e-001
 3.3538103778e+000	 3.0698835751e+000	-5.3369060997e-001
 3.3197138451e+000	 3.1067232970e+000	-5.2464961153e-001
 3.2852063138e+000	 3.1431909661e+000	-5.2313456214e-001
 3.2502939098e+000	 3.1792797397e+000	-5.3076272073e-001
 3.2149829103e+000	 3.2149829103e+000	-5.4393220296e-001
 3.1792797397e+000	 3.2502939098e+000	-5.5885283185e-001
 3.1431909661e+000	 3.2852063138e+000	-5.7159984099e-001
 3.1067232970e+000	 3.3197138451e+000	-5.7816744336e-001
 3.0698835751e+000	 3.3538103778e+000	-5.7558977299e-001
 3.0326787744e+000	 3.3874899407e+000	-5.6411846087e-001
 3.4073559373e+000	 3.0504639744e+000	-5.3133581929e-001
 3.3734788600e+000	 3.0878869634e+000	-5.3748027409e-001
 3.3391823675e+000	 3.1249427324e+000	-5.3304904616e-001
 3.3044724662e+000	 3.1616242669e+000	-5.2487363768e-001
 3.2693553177e+000	 3.1979246837e+000	-5.2706795078e-001
 3.2338372362e+000	 3.2338372362e+000	-5.3621361766e-001
 3.1979246837e+000	 3.2693553177e+000	-5.4830755116e-001
 3.1616242669e+000	 3.3044724662e+000	-5.5921259857e-001
 3.1249427324e+000	 3.3391823675e+000	-5.6480013084e-001
 3.0878869634e+000	 3.3734788600e+000	-5.6463860505e-001
 3.0504639744e+000	 3.4073559373e+000	-5.5643971216e-001
 3.4272219538e+000	 3.0682491922e+000	-5.2863211573e-001
 3.3931473618e+000	 3.1058903696e+000	-5.3901312399e-001
 3.3586509095e+000	 3.1431621861e+000	-5.4019755288e-001
 3.3237386378e+000	 3.1800575861e+000	-5.3064354861e-001
 3.2884167448e+000	 3.2165696465e+000	-5.2625408893e-001
 3.2526915810e+000	 3.2526915810e+000	-5.3026462847e-001
 3.2165696465e+000	 3.2884167448e+000	-5.3849410334e-001
 3.1800575861e+000	 3.3237386378e+000	-5.4662699998e-001
 3.1431621861e+000	 3.3586509095e+000	-5.5186574364e-001
 3.1058903696e+000	 3.3931473618e+000	-5.5396107641e-001
 3.0682491922e+000	 3.4272219538e+000	-5.4862487144e-001
 3.4470879951e+000	 3.0860344322e+000	-5.2485124185e-001
 3.4128158883e+000	 3.1238937984e+000	-5.3853000087e-001
 3.3781194757e+000	 3.1613816626e+000	-5.4426179323e-001
 3.3430048336e+000	 3.1984909284e+000	-5.3940103212e-001
 3.3074781956e+000	 3.2352146325e+000	-5.2833110445e-001
 3.2715459494e+000	 3.2715459494e+000	-5.2612519993e-001
 3.2352146325e+000	 3.3074781956e+000	-5.2947048188e-001
 3.1984909284e+000	 3.3430048336e+000	-5.3413488255e-001
 3.1613816626e+000	 3.3781194757e+000	-5.3982188617e-001
 3.1238937984e+000	 3.4128158883e+000	-5.4352212548e-001
 3.0860344322e+000	 3.4470879951e+000	-5.4059825940e-001
 3.4669540662e+000	 3.1038196989e+000	-5.2016882551e-001
 3.4324844442e+000	 3.1418972542e+000	-5.3627451615e-001
 3.3975880711e+000	 3.1796011664e+000	-5.4554446186e-001
 3.3622710582e+000	 3.2169242983e+000	-5.4526710030e-001
 3.3265396750e+000	 3.2538596464e+000	-5.3328789001e-001
 3.2904003461e+000	 3.2904003461e+000	-5.2381426174e-001
 3.2538596464e+000	 3.3265396750e+000	-5.2127390428e-001
 3.2169242983e+000	 3.3622710582e+000	-5.2310098183e-001
 3.1796011664e+000	 3.3975880711e+000	-5.2862801392e-001
 3.1418972542e+000	 3.4324844442e+000	-5.3325649260e-001
 3.1038196989e+000	 3.4669540662e+000	-5.3225509281e-001
 3.4868201720e+000	 3.1216049968e+000	-5.1476412636e-001
 3.4521530345e+000	 3.1599007414e+000	-5.3249236520e-001
 3.4170567006e+000	 3.1978207021e+000	-5.4434904024e-001
 3.3815373165e+000	 3.2353577004e+000	-5.4759470312e-001
 3.3456011878e+000	 3.2725046930e+000	-5.3957920032e-001
 3.3092547757e+000	 3.3092547757e+000	-5.2333122858e-001
 3.2725046930e+000	 3.3456011878e+000	-5.1427312239e-001
 3.2353577004e+000	 3.3815373165e+000	-5.1369094500e-001
 3.1978207021e+000	 3.4170567006e+000	-5.1821497038e-001
 3.1599007414e+000	 3.4521530345e+000	-5.2307118636e-001
 3.1216049968e+000	 3.4868201720e+000	-5.2346393963e-001
 3.5066863176e+000	 3.1393903302e+000	-5.0881929949e-001
 3.4718216642e+000	 3.1779042647e+000	-5.2743063685e-001
 3.4365253691e+000	 3.2160402742e+000	-5.4097914697e-001
 3.4008036134e+000	 3.2537911395e+000	-5.4673492960e-001
 3.3646627387e+000	 3.2911497769e+000	-5.4205532694e-001
 3.3281092431e+000	 3.3281092431e+000	-5.2465751164e-001
 3.2911497769e+000	 3.3646627387e+000	-5.0965374477e-001
 3.2537911395e+000	 3.4008036134e+000	-5.0581869018e-001
 3.2160402742e+000	 3.4365253691e+000	-5.0848744388e-001
 3.1779042647e+000	 3.4718216642e+000	-5.1284794185e-001
 3.1393903302e+000	 3.5066863176e+000	-5.1406916706e-001
 3.5265525078e+000	 3.1571757036e+000	-5.0251865653e-001
 3.4914903382e+000	 3.1959078285e+000	-5.2133711881e-001
 3.4559940813e+000	 3.2342598873e+000	-5.3573788282e-001
 3.4200699536e+000	 3.2722246200e+000	-5.4303738842e-001
 3.3837243325e+000	 3.3097949028e+000	-5.4063635579e-001
 3.3469637528e+000	 3.3469637528e+000	-5.2644638834e-001
 3.3097949028e+000	 3.3837243325e+000	-5.0740877157e-001
 3.2722246200e+000	 3.4200699536e+000	-4.9937371681e-001
 3.2342598873e+000	 3.4559940813e+000	-4.9932641620e-001
 3.1959078285e+000	 3.4914903382e+000	-5.0244567134e-001
 3.1571757036e+000	 3.5265525078e+000	-5.0389338266e-001
 2.9793232365e+000	 3.3278920205e+000	-5.8653150195e-001
 2.9424157581e+000	 3.3605685667e+000	-5.6303531197e-001
 2.9051635954e+000	 3.3928240923e+000	-5.4840933521e-001
 2.8675739655e+000	 3.4246532080e+000	-5.4122500834e-001
 2.8296541964e+000	 3.4560506892e+000	-5.4000367836e-001
 2.7914117222e+000	 3.4870114791e+000	-5.4332740683e-001
 2.7528540782e+000	 3.5175306915e+000	-5.4987194781e-001
 2.7139888964e+000	 3.5476036128e+000	-5.5843679498e-001
 2.6748239003e+000	 3.5772257048e+000	-5.6797210814e-001
 2.6353668999e+000	 3.6063926063e+000	-5.7649854247e-001
 2.5956257866e+000	 3.6351001357e+000	-5.8187418220e-001
 2.9971084099e+000	 3.3477579873e+000	-5.7921009608e-001
 2.9599806109e+000	 3.3806295973e+000	-5.5891337659e-001
 2.9225060702e+000	 3.4130776734e+000	-5.4628090101e-001
 2.8846920477e+000	 3.4450967940e+000	-5.3999761432e-001
 2.8465459153e+000	 3.4766817036e+000	-5.3877486153e-001
 2.8080751512e+000	 3.5078273150e+000	-5.4138690766e-001
 2.7692873361e+000	 3.5385287129e+000	-5.4670461814e-001
 2.7301901472e+000	 3.5687811556e+000	-5.5372607168e-001
 2.6907913543e+000	 3.5985800776e+000	-5.6160391133e-001
 2.6510988139e+000	 3.6279210920e+000	-5.6942410092e-001
 2.6111204647e+000	 3.6567999920e+000	-5.7488412676e-001
 3.0148935877e+000	 3.3676239591e+000	-5.7170523026e-001
 2.9775454682e+000	 3.4006906328e+000	-5.5461204264e-001
 2.9398485493e+000	 3.4333312595e+000	-5.4401520537e-001
 2.9018101342e+000	 3.4655403852e+000	-5.3875646634e-001
 2.8634376383e+000	 3.4973127231e+000	-5.3770659529e-001
 2.8247385844e+000	 3.5286431562e+000	-5.3980282086e-001
 2.7857205980e+000	 3.5595267396e+000	-5.4408329038e-001
 2.7463914021e+000	 3.5899587036e+000	-5.4971831809e-001
 2.7067588123e+000	 3.6199344558e+000	-5.5603822188e-001
 2.6668307320e+000	 3.6494495830e+000	-5.6255758434e-001
 2.6266151467e+000	 3.6784998537e+000	-5.6783710512e-001
 3.0326787744e+000	 3.3874899407e+000	-5.6411846087e-001
 2.9951103342e+000	 3.4207516785e+000	-5.5010943031e-001
 2.9571910371e+000	 3.4535848557e+000	-5.4154991701e-001
 2.9189282292e+000	 3.4859839866e+000	-5.3740713441e-001
 2.8803293698e+000	 3.5179437530e+000	-5.3668120329e-001
 2.8414020260e+000	 3.5494590077e+000	-5.3844359076e-001
 2.8021538682e+000	 3.5805247767e+000	-5.4187242676e-001
 2.7625926651e+000	 3.6111362623e+000	-5.4628445687e-001
 2.7227262783e+000	 3.6412888447e+000	-5.5116342603e-001
 2.6825626578e+000	 3.6709780849e+000	-5.5618472494e-001
 2.6421098364e+000	 3.7001997262e+000	-5.6086472062e-001
 3.0504639744e+000	 3.4073559373e+000	-5.5643971216e-001
 3.0126752135e+000	 3.4408127391e+000	-5.4534825869e-001
 2.9745335379e+000	 3.4738384671e+000	-5.3878811029e-001
 2.9360463371e+000	 3.5064276033e+000	-5.3582107880e-001
 2.8972211140e+000	 3.5385747984e+000	-5.3554704825e-001
 2.8580654800e+000	 3.5702748748e+000	-5.3714350106e-001
 2.8185871507e+000	 3.6015228296e+000	-5.3990176877e-001
 2.7787939402e+000	 3.6323138368e+000	-5.4325975873e-001
 2.7386937563e+000	 3.6626432496e+000	-5.4683094587e-001
 2.6982945955e+000	 3.6925066029e+000	-5.5042945688e-001
 2.6576045378e+000	 3.7218996151e+000	-5.5404884259e-001
 3.0682491922e+000	 3.4272219538e+000	-5.4862487144e-001
 3.0302401103e+000	 3.4608738198e+000	-5.4023830507e-001
 2.9918760561e+000	 3.4940920988e+000	-5.3560070821e-001
 2.9531644621e+000	 3.5268712405e+000	-5.3383807984e-001
 2.9141128750e+000	 3.5592058643e+000	-5.3412095205e-001
 2.8747289507e+000	 3.5910907628e+000	-5.3570508910e-001
 2.8350204497e+000	 3.6225209035e+000	-5.3796874993e-001
 2.7949952315e+000	 3.6534914325e+000	-5.4044625820e-001
 2.7546612502e+000	 3.6839976758e+000	-5.4285766290e-001
 2.7140265489e+000	 3.7140351424e+000	-5.4513431256e-001
 2.6730992547e+000	 3.7435995256e+000	-5.4744020684e-001
 3.0860344322e+000	 3.4470879951e+000	-5.4059825940e-001
 3.0478050290e+000	 3.4809349256e+000	-5.3465885717e-001
 3.0092185959e+000	 3.5143457558e+000	-5.3182891906e-001
 2.9702826085e+000	 3.5473149032e+000	-5.3126866207e-001
 2.9310046572e+000	 3.5798369561e+000	-5.3219061079e-001
 2.8913924423e+000	 3.6119066767e+000	-5.3390155535e-001
 2.8514537691e+000	 3.6435190037e+000	-5.3584090364e-001
 2.8111965430e+000	 3.6746690547e+000	-5.3761516405e-001
 2.7706287641e+000	 3.7053521288e+000	-5.3902833568e-001
 2.7297585220e+000	 3.7355637088e+000	-5.4010802444e-001
 2.6885939909e+000	 3.7652994632e+000	-5.4112714607e-001
 3.1038196989e+000	 3.4669540662e+000	-5.3225509281e-001
 3.0653699741e+000	 3.5009960615e+000	-5.2846115853e-001
 3.0265611617e+000	 3.5345994432e+000	-5.2728666717e-001
 2.9874007806e+000	 3.5677585966e+000	-5.2789651308e-001
 2.9478964647e+000	 3.6004680788e+000	-5.2951700471e-001
 2.9080559588e+000	 3.6327226219e+000	-5.3147916796e-001
 2.8678871133e+000	 3.6645171353e+000	-5.3325826606e-001
 2.8273978789e+000	 3.6958467086e+000	-5.3450926459e-001
 2.7865963019e+000	 3.7267066137e+000	-5.3509801184e-001
 2.7454905186e+000	 3.7570923075e+000	-5.3512794845e-001
 2.7040887503e+000	 3.7869994334e+000	-5.3496220419e-001
 3.1216049968e+000	 3.4868201720e+000	-5.2346393963e-001
 3.0829349499e+000	 3.5210572325e+000	-5.2147084750e-001
 3.0439037579e+000	 3.5548531660e+000	-5.2176301792e-001
 3.0045189826e+000	 3.5882023257e+000	-5.2348089718e-001
 2.9647883017e+000	 3.6210992376e+000	-5.2583680356e-001
 2.9247195045e+000	 3.6535386035e+000	-5.2815966287e-001
 2.8843204861e+000	 3.6855153037e+000	-5.2993577450e-001
 2.8435992431e+000	 3.7170243996e+000	-5.3084532810e-001
 2.8025638677e+000	 3.7480611361e+000	-5.3079443472e-001
 2.7612225428e+000	 3.7786209439e+000	-5.2994248116e-001
 2.7195835369e+000	 3.8086994416e+000	-5.2872466256e-001
 3.1393903302e+000	 3.5066863176e+000	-5.1406916706e-001
 3.1004999609e+000	 3.5411184436e+000	-5.1349038988e-001
 3.0612463888e+000	 3.5751069293e+000	-5.1502459727e-001
 3.0216372188e+000	 3.6086460957e+000	-5.1775906423e-001
 2.9816801726e+000	 3.6417304377e+000	-5.2086476730e-001
 2.9413830835e+000	 3.6743546268e+000	-5.2364263954e-001
 2.9007538919e+000	 3.7065135141e+000	-5.2556566137e-001
 2.8598006397e+000	 3.7382021329e+000	-5.2631649862e-001
 2.8185314654e+000	 3.7694157011e+000	-5.2582044476e-001
 2.7769545985e+000	 3.8001496233e+000	-5.2427347103e-001
 2.7350783545e+000	 3.8303994932e+000	-5.2216523623e-001
 3.1571757036e+000	 3.5265525078e+000	-5.0389338266e-001
 3.1180650113e+000	 3.5611796998e+000	-5.0430150572e-001
 3.0785890587e+000	 3.5953607382e+000	-5.0681800606e-001
 3.0387554936e+000	 3.6290899118e+000	-5.1044865373e-001
 2.9985720814e+000	 3.6623616842e+000	-5.1429614256e-001
 2.9580467000e+000	 3.6951706969e+000	-5.1760795245e-001
 2.9171873346e+000	 3.7275117717e+000	-5.1981984392e-001
 2.8760020728e+000	 3.7593799139e+000	-5.2059468723e-001
 2.8344990990e+000	 3.7907703142e+000	-5.1985637603e-001
 2.7926866895e+000	 3.8216783512e+000	-5.1781862400e-001
 2.7505732069e+000	 3.8520995936e+000	-5.1500849286e-001
 2.5956257866e+000	 3.6351001357e+000	-5.8187418220e-001
 2.5556085274e+000	 3.6633442912e+000	-5.8107549513e-001
 2.5153231572e+000	 3.6911212498e+000	-5.7148322898e-001
 2.4747777761e+000	 3.7184273714e+000	-5.5467256924e-001
 2.4339805451e+000	 3.7452592011e+000	-5.3229677593e-001
 2.3929396811e+000	 3.7716134707e+000	-5.0608712288e-001
 2.3516634514e+000	 3.7974870994e+000	-4.7785086906e-001
 2.3101601684e+000	 3.8228771944e+000	-4.4946732046e-001
 2.2684381848e+000	 3.8477810517e+000	-4.2288205963e-001
 2.2265058876e+000	 3.8721961564e+000	-4.0009943722e-001
 2.1843716934e+000	 3.8961201831e+000	-3.8317343569e-001
 2.6111204647e+000	 3.6567999920e+000	-5.7488412676e-001
 2.5708643211e+000	 3.6852127520e+000	-5.7443223018e-001
 2.5303384660e+000	 3.7131555261e+000	-5.6533421914e-001
 2.4895510478e+000	 3.7406246525e+000	-5.4911753960e-001
 2.4485102764e+000	 3.7676166557e+000	-5.2739426849e-001
 2.4072244175e+000	 3.7941282481e+000	-5.0186101050e-001
 2.3657017879e+000	 3.8201563303e+000	-4.7429672922e-001
 2.3239507497e+000	 3.8456979923e+000	-4.4655857484e-001
 2.2819797052e+000	 3.8707505140e+000	-4.2057578959e-001
 2.2397970917e+000	 3.8953113656e+000	-3.9834179017e-001
 2.1974113759e+000	 3.9193782076e+000	-3.8190454274e-001
 2.6266151467e+000	 3.6784998537e+000	-5.6783710512e-001
 2.5861201187e+000	 3.7070812182e+000	-5.6740113354e-001
 2.5453537786e+000	 3.7351898079e+000	-5.5844808397e-001
 2.5043243232e+000	 3.7628219391e+000	-5.4246145595e-001
 2.4630400112e+000	 3.7899741160e+000	-5.2101718984e-001
 2.4215091574e+000	 3.8166430311e+000	-4.9578350179e-001
 2.3797401279e+000	 3.8428255668e+000	-4.6851855039e-001
 2.3377413343e+000	 3.8685187960e+000	-4.4106600050e-001
 2.2955212290e+000	 3.8937199822e+000	-4.1534857001e-001
 2.2530882991e+000	 3.9184265806e+000	-3.9335966383e-001
 2.2104510617e+000	 3.9426362379e+000	-3.7715321662e-001
 2.6421098364e+000	 3.7001997262e+000	-5.6086472062e-001
 2.6013759238e+000	 3.7289496954e+000	-5.6016955229e-001
 2.5603690986e+000	 3.7572241007e+000	-5.5108060392e-001
 2.5190976061e+000	 3.7850192369e+000	-5.3504140447e-001
 2.4775697534e+000	 3.8123315874e+000	-5.1359699124e-001
 2.4357939045e+000	 3.8391578253e+000	-4.8839366348e-001
 2.3937784749e+000	 3.8654948147e+000	-4.6117645929e-001
 2.3515319259e+000	 3.8913396110e+000	-4.3378442536e-001
 2.3090627595e+000	 3.9166894618e+000	-4.0814376962e-001
 2.2663795131e+000	 3.9415418071e+000	-3.8625900665e-001
 2.2234907540e+000	 3.9658942799e+000	-3.7020222345e-001
 2.6576045378e+000	 3.7218996151e+000	-5.5404884259e-001
 2.6166317404e+000	 3.7508181889e+000	-5.5287299005e-001
 2.5753844299e+000	 3.7792584100e+000	-5.4343327949e-001
 2.5338709000e+000	 3.8072165513e+000	-5.2713742990e-001
 2.4920995064e+000	 3.8346890756e+000	-5.0550499892e-001
 2.4500786623e+000	 3.8616726365e+000	-4.8016703482e-001
 2.4078168325e+000	 3.8881640796e+000	-4.5286333807e-001
 2.3653225278e+000	 3.9141604432e+000	-4.2543740574e-001
 2.3226043002e+000	 3.9396589586e+000	-3.9982915396e-001
 2.2796707371e+000	 3.9646570510e+000	-3.7806553366e-001
 2.2365304562e+000	 3.9891523392e+000	-3.6224917371e-001
 2.6730992547e+000	 3.7435995256e+000	-5.4744020684e-001
 2.6318875722e+000	 3.7726867043e+000	-5.4559689583e-001
 2.5903997763e+000	 3.8012927413e+000	-5.3565515692e-001
 2.5486442086e+000	 3.8294138879e+000	-5.1897440406e-001
 2.5066292740e+000	 3.8570465861e+000	-4.9705433125e-001
 2.4643634344e+000	 3.8841874701e+000	-4.7151759962e-001
 2.4218552041e+000	 3.9108333672e+000	-4.4410685718e-001
 2.3791131435e+000	 3.9369812982e+000	-4.1667932621e-001
 2.3361458544e+000	 3.9626284784e+000	-3.9119905836e-001
 2.2929619745e+000	 3.9877723179e+000	-3.6972697878e-001
 2.2495701713e+000	 4.0124104219e+000	-3.5453446583e-001
 2.6885939909e+000	 3.7652994632e+000	-5.4112714607e-001
 2.6471434231e+000	 3.7945552471e+000	-5.3837844357e-001
 2.6054151414e+000	 3.8233271002e+000	-5.2784464289e-001
 2.5634175357e+000	 3.8516112522e+000	-5.1072388138e-001
 2.5211590597e+000	 3.8794041246e+000	-4.8850180089e-001
 2.4786482244e+000	 3.9067023319e+000	-4.6279974057e-001
 2.4358935932e+000	 3.9335026831e+000	-4.3537148782e-001
 2.3929037764e+000	 3.9598021817e+000	-4.0809747593e-001
 2.3496874256e+000	 3.9855980269e+000	-3.8297653405e-001
 2.3062532284e+000	 4.0108876138e+000	-3.6221339756e-001
 2.2626099028e+000	 4.0356685336e+000	-3.4828911112e-001
 2.7040887503e+000	 3.7869994334e+000	-5.3496220419e-001
 2.6623992969e+000	 3.8164238226e+000	-5.3120830270e-001
 2.6204305290e+000	 3.8453614922e+000	-5.2005130869e-001
 2.5781908850e+000	 3.8738086499e+000	-5.0250594202e-001
 2.5356888672e+000	 3.9017616966e+000	-4.8004980223e-001
 2.4929330358e+000	 3.9292172275e+000	-4.5431017669e-001
 2.4499320034e+000	 3.9561720330e+000	-4.2706049476e-001
 2.4066944300e+000	 3.9826230995e+000	-4.0021410253e-001
 2.3632290171e+000	 4.0085676099e+000	-3.7587733615e-001
 2.3195445022e+000	 4.0340029444e+000	-3.5660165739e-001
 2.2756496538e+000	 4.0589266802e+000	-3.4347499930e-001
 2.7195835369e+000	 3.8086994416e+000	-5.2872466256e-001
 2.6776551974e+000	 3.8382924365e+000	-5.2403274807e-001
 2.6354459429e+000	 3.8673959227e+000	-5.1227768422e-001
 2.5929642602e+000	 3.8960060863e+000	-4.9439102300e-001
 2.5502187002e+000	 3.9241193077e+000	-4.7184818499e-001
 2.5072178722e+000	 3.9517321625e+000	-4.4628988440e-001
 2.4639704382e+000	 3.9788414226e+000	-4.1951791037e-001
 2.4204851078e+000	 4.0054440571e+000	-3.9351391314e-001
 2.3767706323e+000	 4.0315372331e+000	-3.7084174641e-001
 2.3328357994e+000	 4.0571183154e+000	-3.5277424418e-001
 2.2886894276e+000	 4.0821848675e+000	-3.3993107254e-001
 2.7350783545e+000	 3.8303994932e+000	-5.2216523623e-001
 2.6929111284e+000	 3.8601610940e+000	-5.1670219792e-001
 2.6504613868e+000	 3.8894303972e+000	-5.0448104227e-001
 2.6077376649e+000	 3.9182035672e+000	-4.8640173800e-001
 2.5647485622e+000	 3.9464769636e+000	-4.6399611425e-001
 2.5215027371e+000	 3.9742471425e+000	-4.3892600309e-001
 2.4780089010e+000	 4.0015108575e+000	-4.1303248703e-001
 2.4342758131e+000	 4.0282650605e+000	-3.8878876735e-001
 2.3903122745e+000	 4.0545069021e+000	-3.6771813525e-001
 2.3461271231e+000	 4.0802337326e+000	-3.5045963142e-001
 2.3017292275e+000	 4.1054431013e+000	-3.3751442298e-001
 2.7505732069e+000	 3.8520995936e+000	-5.1500849286e-001
 2.7081670937e+000	 3.8820298008e+000	-5.0897913136e-001
 2.6654768645e+000	 3.9114649214e+000	-4.9657517344e-001
 2.6225111028e+000	 3.9404010980e+000	-4.7851468600e-001
 2.5792784569e+000	 3.9688346697e+000	-4.5654391778e-001
 2.5357876342e+000	 3.9967621731e+000	-4.3235372560e-001
 2.4920473954e+000	 4.0241803434e+000	-4.0819920840e-001
 2.4480665494e+000	 4.0510861151e+000	-3.8590819073e-001
 2.4038539472e+000	 4.0774766229e+000	-3.6613959421e-001
 2.3594184767e+000	 4.1033492018e+000	-3.4940815939e-001
 2.3147690567e+000	 4.1287013875e+000	-3.3610074566e-001
 2.1843716934e+000	 3.8961201831e+000	-3.8317343569e-001
 2.1420504062e+000	 3.9195475189e+000	-3.7030689156e-001
 2.0995441792e+000	 3.9424798459e+000	-3.5987756755e-001
 2.0568614843e+000	 3.9649154103e+000	-3.5424978989e-001
 2.0140108020e+000	 3.9868526470e+000	-3.5579064554e-001
 1.9710006163e+000	 4.0082901786e+000	-3.6004117350e-001
 1.9278394095e+000	 4.0292268150e+000	-3.4984520651e-001
 1.8845356576e+000	 4.0496615522e+000	-3.2891011680e-001
 1.8410978246e+000	 4.0695935713e+000	-3.0179167506e-001
 1.7975343583e+000	 4.0890222373e+000	-2.7247549804e-001
 1.7538536852e+000	 4.1079470979e+000	-2.4441552884e-001
 2.1974113759e+000	 3.9193782076e+000	-3.8190454274e-001
 2.1548374504e+000	 3.9429453937e+000	-3.6951077263e-001
 2.1120774810e+000	 3.9660146160e+000	-3.5946939730e-001
 2.0691399902e+000	 3.9885841103e+000	-3.5399081152e-001
 2.0260335093e+000	 4.0106523021e+000	-3.5540909344e-001
 1.9827665728e+000	 4.0322178058e+000	-3.6378632575e-001
 1.9393477137e+000	 4.0532794241e+000	-3.6033198240e-001
 1.8957854585e+000	 4.0738361472e+000	-3.4448587703e-001
 1.8520883219e+000	 4.0938871512e+000	-3.2057736762e-001
 1.8082648019e+000	 4.1134317973e+000	-2.9239049305e-001
 1.7643233755e+000	 4.1324696305e+000	-2.6320311233e-001
 2.2104510617e+000	 3.9426362379e+000	-3.7715321662e-001
 2.1676244977e+000	 3.9663432743e+000	-3.6515256199e-001
 2.1246107859e+000	 3.9895493920e+000	-3.5575759641e-001
 2.0814184992e+000	 4.0122528162e+000	-3.5120005984e-001
 2.0380562196e+000	 4.0344519631e+000	-3.5367534581e-001
 1.9945325322e+000	 4.0561454389e+000	-3.6373227206e-001
 1.9508560208e+000	 4.0773320393e+000	-3.6637378351e-001
 1.9070352623e+000	 4.0980107483e+000	-3.5537725302e-001
 1.8630788219e+000	 4.1181807371e+000	-3.3486810660e-001
 1.8189952483e+000	 4.1378413634e+000	-3.0844801248e-001
 1.7747930685e+000	 4.1569921692e+000	-2.7923467759e-001
 2.2234907540e+000	 3.9658942799e+000	-3.7020222345e-001
 2.1804115515e+000	 3.9897411667e+000	-3.5867980031e-001
 2.1371440970e+000	 4.0130841797e+000	-3.5045500676e-001
 2.0936970144e+000	 4.0359215339e+000	-3.4762637008e-001
 2.0500789359e+000	 4.0582516360e+000	-3.5085639852e-001
 2.0062984976e+000	 4.0800730841e+000	-3.6058204276e-001
 1.9623643336e+000	 4.1013846665e+000	-3.6836536926e-001
 1.9182850717e+000	 4.1221853614e+000	-3.6188597258e-001
 1.8740693274e+000	 4.1424743353e+000	-3.4482576433e-001
 1.8297257000e+000	 4.1622509417e+000	-3.2062291776e-001
 1.7852627668e+000	 4.1815147202e+000	-2.9225064142e-001
 2.2365304562e+000	 3.9891523392e+000	-3.6224917371e-001
 2.1931986148e+000	 4.0131390766e+000	-3.5159009821e-001
 2.1496774176e+000	 4.0366189852e+000	-3.4513255683e-001
 2.1059755387e+000	 4.0595902694e+000	-3.4347510375e-001
 2.0621016612e+000	 4.0820513268e+000	-3.4698693559e-001
 2.0180644717e+000	 4.1040007471e+000	-3.5595435361e-001
 1.9738726551e+000	 4.1254373117e+000	-3.6666813690e-001
 1.9295348895e+000	 4.1463599927e+000	-3.6428230782e-001
 1.8850598412e+000	 4.1667679516e+000	-3.5058366908e-001
 1.8404561597e+000	 4.1866605383e+000	-3.2886545886e-001
 1.7957324728e+000	 4.2060372896e+000	-3.0197177745e-001
 2.2495701713e+000	 4.0124104219e+000	-3.5453446583e-001
 2.2059856910e+000	 4.0365370098e+000	-3.4528334853e-001
 2.1622107507e+000	 4.0601538141e+000	-3.3992761665e-001
 2.1182540753e+000	 4.0832590286e+000	-3.3878863389e-001
 2.0741243986e+000	 4.1058510414e+000	-3.4210934120e-001
 2.0298304576e+000	 4.1279284341e+000	-3.5006031805e-001
 1.9853809880e+000	 4.1494899810e+000	-3.6161263283e-001
 1.9407847185e+000	 4.1705346482e+000	-3.6280746644e-001
 1.8960503660e+000	 4.1910615923e+000	-3.5224884511e-001
 1.8511866302e+000	 4.2110701594e+000	-3.3310333162e-001
 1.8062021894e+000	 4.2305598835e+000	-3.0810105933e-001
 2.2626099028e+000	 4.0356685336e+000	-3.4828911112e-001
 2.2187727831e+000	 4.0599349724e+000	-3.3981586125e-001
 2.1747440995e+000	 4.0836886725e+000	-3.3485041082e-001
 2.1305326273e+000	 4.1069278174e+000	-3.3361851337e-001
 2.0861471510e+000	 4.1296507858e+000	-3.3627453109e-001
 2.0415964583e+000	 4.1518561510e+000	-3.4290769228e-001
 1.9968893354e+000	 4.1735426804e+000	-3.5350102426e-001
 1.9520345617e+000	 4.1947093338e+000	-3.5767594600e-001
 1.9070409045e+000	 4.2153552633e+000	-3.4990421933e-001
 1.8619171141e+000	 4.2354798109e+000	-3.3324370643e-001
 1.8166719190e+000	 4.2550825081e+000	-3.1032548086e-001
 2.2756496538e+000	 4.0589266802e+000	-3.4347499930e-001
 2.2315598944e+000	 4.0833329700e+000	-3.3512904632e-001
 2.1872774670e+000	 4.1072235661e+000	-3.2992263547e-001
 2.1428111977e+000	 4.1305966416e+000	-3.2802624403e-001
 2.0981699214e+000	 4.1534505658e+000	-3.2954274394e-001
 2.0533624765e+000	 4.1757839038e+000	-3.3451383702e-001
 2.0083977000e+000	 4.1975954158e+000	-3.4292643980e-001
 1.9632844217e+000	 4.2188840558e+000	-3.4907785251e-001
 1.9180314595e+000	 4.2396489707e+000	-3.4361079578e-001
 1.8726476141e+000	 4.2598894991e+000	-3.2917522939e-001
 1.8271416644e+000	 4.2796051695e+000	-3.0831785438e-001
 2.2886894276e+000	 4.0821848675e+000	-3.3993107254e-001
 2.2443470280e+000	 4.1067310086e+000	-3.3117880228e-001
 2.1998108565e+000	 4.1307585010e+000	-3.2517814176e-001
 2.1550897896e+000	 4.1542655073e+000	-3.2208400797e-001
 2.1101927129e+000	 4.1772503875e+000	-3.2198429438e-001
 2.0651285154e+000	 4.1997116985e+000	-3.2490646583e-001
 2.0199060847e+000	 4.2216481933e+000	-3.3082409467e-001
 1.9745343013e+000	 4.2430588200e+000	-3.3718118483e-001
 1.9290220337e+000	 4.2639427207e+000	-3.3340979938e-001
 1.8833781329e+000	 4.2842992299e+000	-3.2076999699e-001
 1.8376114280e+000	 4.3041278737e+000	-3.0173858801e-001
 2.3017292275e+000	 4.1054431013e+000	-3.3751442298e-001
 2.2571341873e+000	 4.1301290939e+000	-3.2793609340e-001
 2.2123442711e+000	 4.1542934829e+000	-3.2066358423e-001
 2.1673684060e+000	 4.1779344203e+000	-3.1587536238e-001
 2.1222155284e+000	 4.2010502567e+000	-3.1368028912e-001
 2.0768945778e+000	 4.2236395410e+000	-3.1412435714e-001
 2.0314144925e+000	 4.2457010189e+000	-3.1719736605e-001
 1.9857842035e+000	 4.2672336326e+000	-3.2213408636e-001
 1.9400126299e+000	 4.2882365192e+000	-3.1932479016e-001
 1.8941086732e+000	 4.3087090096e+000	-3.0788550550e-001
 1.8480812126e+000	 4.3286506270e+000	-2.9023744266e-001
 2.3147690567e+000	 4.1287013875e+000	-3.3610074566e-001
 2.2699213753e+000	 4.1535272320e+000	-3.2538749525e-001
 2.2248777138e+000	 4.1778285178e+000	-3.1643903551e-001
 2.1796470501e+000	 4.2016033865e+000	-3.0949589938e-001
 2.1342383709e+000	 4.2248501796e+000	-3.0472330773e-001
 2.0886606667e+000	 4.2475674374e+000	-3.0221803118e-001
 2.0429229261e+000	 4.2697538987e+000	-3.0201519365e-001
 1.9970341310e+000	 4.2914084996e+000	-3.0406706513e-001
 1.9510032508e+000	 4.3125303724e+000	-3.0136374906e-001
 1.9048392375e+000	 4.3331188442e+000	-2.9036657601e-001
 1.8585510208e+000	 4.3531734355e+000	-2.7345526974e-001
 1.7538536852e+000	 4.1079470979e+000	-2.4441552884e-001
 1.7100576294e+000	 4.1263706075e+000	-2.1886876521e-001
 1.6661611104e+000	 4.1442897998e+000	-1.9539010510e-001
 1.6221724688e+000	 4.1617047635e+000	-1.7429197484e-001
 1.5781000051e+000	 4.1786157627e+000	-1.5564577507e-001
 1.5339519758e+000	 4.1950232353e+000	-1.3931225832e-001
 1.4897365888e+000	 4.2109277906e+000	-1.2496994327e-001
 1.4454619993e+000	 4.2263302067e+000	-1.1214159513e-001
 1.4011363057e+000	 4.2412314288e+000	-1.0021880954e-001
 1.3567675455e+000	 4.2556325659e+000	-8.8484744409e-002
 1.3123636919e+000	 4.2695348885e+000	-7.6059369405e-002
 1.7643233755e+000	 4.1324696305e+000	-2.6320311233e-001
 1.7202658777e+000	 4.1510031199e+000	-2.3494349498e-001
 1.6761073169e+000	 4.1690292815e+000	-2.0810124867e-001
 1.6318560836e+000	 4.1865482044e+000	-1.8321563701e-001
 1.5875205278e+000	 4.2035601544e+000	-1.6057091562e-001
 1.5431089553e+000	 4.2200655720e+000	-1.4022695934e-001
 1.4986296230e+000	 4.2360650700e+000	-1.2204789855e-001
 1.4540907348e+000	 4.2515594314e+000	-1.0572879805e-001
 1.4095004374e+000	 4.2665496069e+000	-9.0820419890e-002
 1.3648668164e+000	 4.2810367120e+000	-7.6752118473e-002
 1.3201978924e+000	 4.2950220250e+000	-6.2851985600e-002
 1.7747930685e+000	 4.1569921692e+000	-2.7923467759e-001
 1.7304741285e+000	 4.1756356384e+000	-2.4960348327e-001
 1.6860535259e+000	 4.1937687693e+000	-2.2071750855e-001
 1.6415397008e+000	 4.2113916514e+000	-1.9330374739e-001
 1.5969410529e+000	 4.2285045523e+000	-1.6782343943e-001
 1.5522659371e+000	 4.2451079149e+000	-1.4450293311e-001
 1.5075226595e+000	 4.2612023557e+000	-1.2336252440e-001
 1.4627194725e+000	 4.2767886624e+000	-1.0424330894e-001
 1.4178645713e+000	 4.2918677912e+000	-8.6832093356e-002
 1.3729660894e+000	 4.3064408645e+000	-7.0684418075e-002
 1.3280320950e+000	 4.3205091679e+000	-5.5249238905e-002
 1.7852627668e+000	 4.1815147202e+000	-2.9225064142e-001
 1.7406823845e+000	 4.2002681693e+000	-2.6234768348e-001
 1.6959997399e+000	 4.2185082695e+000	-2.3253040397e-001
 1.6512233228e+000	 4.2362351109e+000	-2.0367499170e-001
 1.6063615826e+000	 4.2534489626e+000	-1.7638433950e-001
 1.5614229235e+000	 4.2701502703e+000	-1.5101912851e-001
 1.5164157003e+000	 4.2863396540e+000	-1.2772684876e-001
 1.4713482145e+000	 4.3020179060e+000	-1.0646879832e-001
 1.4262287093e+000	 4.3171859883e+000	-8.7045111620e-002
 1.3810653663e+000	 4.3318450297e+000	-6.9117873842e-002
 1.3358663014e+000	 4.3459963236e+000	-5.2232384051e-002
 1.7957324728e+000	 4.2060372896e+000	-3.0197177745e-001
 1.7508906481e+000	 4.2249007186e+000	-2.7266047594e-001
 1.7059459613e+000	 4.2432477882e+000	-2.4282110464e-001
 1.6609069522e+000	 4.2610785891e+000	-2.1344107881e-001
 1.6157821194e+000	 4.2783933917e+000	-1.8523015040e-001
 1.5705799167e+000	 4.2951926445e+000	-1.5865169768e-001
 1.5253087479e+000	 4.3114769711e+000	-1.3395190586e-001
 1.4799769629e+000	 4.3272471685e+000	-1.1118688620e-001
 1.4345928536e+000	 4.3425042043e+000	-9.0247789000e-002
 1.3891646494e+000	 4.3572492139e+000	-7.0883972366e-002
 1.3437005137e+000	 4.3714834983e+000	-5.2724294258e-002
 1.8062021894e+000	 4.2305598835e+000	-3.0810105933e-001
 1.7610989219e+000	 4.2495332926e+000	-2.8001329262e-001
 1.7158921927e+000	 4.2679873317e+000	-2.5086186055e-001
 1.6705905912e+000	 4.2859220920e+000	-2.2170799978e-001
 1.6252026657e+000	 4.3033378457e+000	-1.9333406107e-001
 1.5797369191e+000	 4.3202350437e+000	-1.6627498719e-001
 1.5342018043e+000	 4.3366143134e+000	-1.4084763095e-001
 1.4886057200e+000	 4.3524764563e+000	-1.1717796597e-001
 1.4429570062e+000	 4.3678224456e+000	-9.5226251153e-002
 1.3972639405e+000	 4.3826534236e+000	-7.4810215826e-002
 1.3515347338e+000	 4.3969706986e+000	-5.5626338280e-002
 1.8166719190e+000	 4.2550825081e+000	-3.1032548086e-001
 1.7713072085e+000	 4.2741658974e+000	-2.8386622482e-001
 1.7258384365e+000	 4.2927269061e+000	-2.5591742006e-001
 1.6802742423e+000	 4.3107656260e+000	-2.2757727948e-001
 1.6346232237e+000	 4.3282823309e+000	-1.9966702342e-001
 1.5888939329e+000	 4.3452774742e+000	-1.7276252774e-001
 1.5430948719e+000	 4.3617516871e+000	-1.4722375533e-001
 1.4972344879e+000	 4.3777057756e+000	-1.2322202935e-001
 1.4513211693e+000	 4.3931407186e+000	-1.0076521494e-001
 1.4053632418e+000	 4.4080576650e+000	-7.9720881863e-002
 1.3593689638e+000	 4.4224579307e+000	-5.9837526324e-002
 1.8271416644e+000	 4.2796051695e+000	-3.0831785438e-001
 1.7815155104e+000	 4.2987985391e+000	-2.8366961479e-001
 1.7357846952e+000	 4.3174665176e+000	-2.5724643666e-001
 1.6899579079e+000	 4.3356091973e+000	-2.3014722092e-001
 1.6440437958e+000	 4.3532268535e+000	-2.0319885714e-001
 1.5980509605e+000	 4.3703199423e+000	-1.7698802251e-001
 1.5519879528e+000	 4.3868890985e+000	-1.5189070173e-001
 1.5058632687e+000	 4.4029351327e+000	-1.2809949256e-001
 1.4596853450e+000	 4.4184590296e+000	-1.0564876941e-001
 1.4134625552e+000	 4.4334619445e+000	-8.4437783714e-002
 1.3672032054e+000	 4.4479452010e+000	-6.4251785011e-002
 1.8376114280e+000	 4.3041278737e+000	-3.0173858801e-001
 1.7917238301e+000	 4.3234312239e+000	-2.7886563166e-001
 1.7457309714e+000	 4.3422061724e+000	-2.5410286494e-001
 1.6996415905e+000	 4.3604528121e+000	-2.2851414284e-001
 1.6534643845e+000	 4.3781714198e+000	-2.0289935088e-001
 1.6072080041e+000	 4.3953624543e+000	-1.7782633422e-001
 1.5608810493e+000	 4.4120265538e+000	-1.5366047998e-001
 1.5144920646e+000	 4.4281645340e+000	-1.3059202355e-001
 1.4680495353e+000	 4.4437773848e+000	-1.0866115782e-001
 1.4215618828e+000	 4.4588662684e+000	-8.7781030576e-002
 1.3750374608e+000	 4.4734325159e+000	-6.7758719806e-002
 1.8480812126e+000	 4.3286506270e+000	-2.9023744266e-001
 1.8019321703e+000	 4.3480639580e+000	-2.6888983252e-001
 1.7556772674e+000	 4.3669458767e+000	-2.4573734611e-001
 1.7093252924e+000	 4.3852964765e+000	-2.2177361066e-001
 1.6628849919e+000	 4.4031160359e+000	-1.9773935975e-001
 1.6163650660e+000	 4.4204050163e+000	-1.7415447094e-001
 1.5697741635e+000	 4.4371640595e+000	-1.5134758295e-001
 1.5231208778e+000	 4.4533939857e+000	-1.2948337027e-001
 1.4764137423e+000	 4.4690957907e+000	-1.0858756077e-001
 1.4296612266e+000	 4.4842706432e+000	-8.8569788231e-002
 1.3828717319e+000	 4.4989198818e+000	-6.9244376098e-002
 1.8585510208e+000	 4.3531734355e+000	-2.7345526974e-001
 1.8121405334e+000	 4.3726967475e+000	-2.5317270912e-001
 1.7656235858e+000	 4.3916856366e+000	-2.3139858363e-001
 1.7190090161e+000	 4.4101401969e+000	-2.0902166107e-001
 1.6723056206e+000	 4.4280607082e+000	-1.8669189961e-001
 1.6255221485e+000	 4.4454476346e+000	-1.6485257074e-001
 1.5786672978e+000	 4.4623016217e+000	-1.4376988277e-001
 1.5317497104e+000	 4.4786234942e+000	-1.2356018999e-001
 1.4847779682e+000	 4.4944142536e+000	-1.0421488029e-001
 1.4377605886e+000	 4.5096750751e+000	-8.5623039899e-002
 1.3907060206e+000	 4.5244073051e+000	-6.7591999006e-002
 1.3123636919e+000	 4.2695348885e+000	-7.6059369405e-002
 1.2679326486e+000	 4.2829398248e+000	-6.3170991906e-002
 1.2234822450e+000	 4.2958489548e+000	-5.1354565305e-002
 1.1790202345e+000	 4.3082640100e+000	-4.1016337146e-002
 1.1345542914e+000	 4.3201868724e+000	-3.2229863272e-002
 1.0900920081e+000	 4.3316195706e+000	-2.4797379370e-002
 1.0456408917e+000	 4.3425642768e+000	-1.8303968912e-002
 1.0012083610e+000	 4.3530233041e+000	-1.2165795191e-002
 9.5680174346e-001	 4.3629991026e+000	-5.6690952901e-003
 9.1242827262e-001	 4.3724942563e+000	 1.9905134928e-003
 8.6809508528e-001	 4.3815114796e+000	 1.1679126242e-002
 1.3201978924e+000	 4.2950220250e+000	-6.2851985600e-002
 1.2755016165e+000	 4.3085069826e+000	-4.9497166542e-002
 1.2307858647e+000	 4.3214931740e+000	-3.7845211064e-002
 1.1860584366e+000	 4.3339823414e+000	-2.8123634903e-002
 1.1413270525e+000	 4.3459763777e+000	-2.0255620938e-002
 1.0965993501e+000	 4.3574773238e+000	-1.3919897758e-002
 1.0518828813e+000	 4.3684873648e+000	-8.6033665200e-003
 1.0071851090e+000	 4.3790088277e+000	-3.6476363047e-003
 9.6251340464e-001	 4.3890441770e+000	 1.7130517988e-003
 9.1787504482e-001	 4.3985960123e+000	 8.3147025217e-003
 8.7327720898e-001	 4.4076670643e+000	 1.7035737237e-002
 1.3280320950e+000	 4.3205091679e+000	-5.5249238905e-002
 1.2830705863e+000	 4.3340741467e+000	-4.1045555290e-002
 1.2380894862e+000	 4.3471373997e+000	-2.9105061493e-002
 1.1930966405e+000	 4.3597006792e+000	-1.9497942851e-002
 1.1480998154e+000	 4.3717658895e+000	-1.2017017393e-002
 1.1031066938e+000	 4.3833350834e+000	-6.2359740698e-003
 1.0581248724e+000	 4.3944104593e+000	-1.5603214183e-003
 1.0131618585e+000	 4.4049943577e+000	 2.7283178051e-003
 9.6822506725e-001	 4.4150892579e+000	 7.4333422677e-003
 9.2332181839e-001	 4.4246977749e+000	 1.3412641417e-002
 8.7845933398e-001	 4.4338226555e+000	 2.1547581366e-002
 1.3358663014e+000	 4.3459963236e+000	-5.2232384051e-002
 1.2906395599e+000	 4.3596413237e+000	-3.6956354767e-002
 1.2453931114e+000	 4.3727816382e+000	-2.4417075889e-002
 1.2001348480e+000	 4.3854190299e+000	-1.4551093483e-002
 1.1548725817e+000	 4.3975554141e+000	-7.0416638697e-003
 1.1096140407e+000	 4.4091928560e+000	-1.3766729809e-003
 1.0643668666e+000	 4.4203335667e+000	 3.1022361555e-003
 1.0191386110e+000	 4.4309799007e+000	 7.1571876298e-003
 9.7393673271e-001	 4.4411343519e+000	 1.1617124852e-002
 9.2876859468e-001	 4.4507995505e+000	 1.7348550733e-002
 8.8364146158e-001	 4.4599782598e+000	 2.5226809485e-002
 1.3437005137e+000	 4.3714834983e+000	-5.2724294258e-002
 1.2982085391e+000	 4.3852085198e+000	-3.6328348512e-002
 1.2526967420e+000	 4.3984258959e+000	-2.3014770015e-002
 1.2071730607e+000	 4.4111373998e+000	-1.2638218073e-002
 1.1616453530e+000	 4.4233449581e+000	-4.7940287564e-003
 1.1161213925e+000	 4.4350506480e+000	 1.0956680111e-003
 1.0706088655e+000	 4.4462566936e+000	 5.7347911008e-003
 1.0251153680e+000	 4.4569654632e+000	 9.9127883182e-003
 9.7964840245e-001	 4.4671794653e+000	 1.4469704715e-002
 9.3421537506e-001	 4.4769013457e+000	 2.0268394779e-002
 8.8882359306e-001	 4.4861338837e+000	 2.8168074394e-002
 1.3515347338e+000	 4.3969706986e+000	-5.5626338280e-002
 1.3057775260e+000	 4.4107757415e+000	-3.8223268279e-002
 1.2600003799e+000	 4.4240701793e+000	-2.4086362130e-002
 1.2142112805e+000	 4.4368557955e+000	-1.3061669016e-002
 1.1684181311e+000	 4.4491345279e+000	-4.6791282219e-003
 1.1226287508e+000	 4.4609084658e+000	 1.6839872788e-003
 1.0768508707e+000	 4.4721798464e+000	 6.7580386515e-003
 1.0310921310e+000	 4.4829510517e+000	 1.1342600015e-002
 9.8536007791e-001	 4.4932246048e+000	 1.6273651680e-002
 9.3966216088e-001	 4.5030031670e+000	 2.2397455573e-002
 8.9400572972e-001	 4.5122895337e+000	 3.0546376169e-002
 1.3593689638e+000	 4.4224579307e+000	-5.9837526324e-002
 1.3133465222e+000	 4.4363429951e+000	-4.1670151691e-002
 1.2673040270e+000	 4.4497144947e+000	-2.6778913792e-002
 1.2212495090e+000	 4.4625742233e+000	-1.5074935784e-002
 1.1751909177e+000	 4.4749241299e+000	-6.0462097657e-003
 1.1291361172e+000	 4.4867663160e+000	 9.5305505552e-004
 1.0830928836e+000	 4.4981030316e+000	 6.6596866329e-003
 1.0370689014e+000	 4.5089366726e+000	 1.1865376102e-002
 9.9107176051e-001	 4.5192697769e+000	 1.7386113635e-002
 9.4510895351e-001	 4.5291050209e+000	 2.4037910317e-002
 8.9918787286e-001	 4.5384452165e+000	 3.2614908894e-002
 1.3672032054e+000	 4.4479452010e+000	-6.4251785011e-002
 1.3209155299e+000	 4.4619102871e+000	-4.5669696424e-002
 1.2746076850e+000	 4.4753588486e+000	-3.0202465659e-002
 1.2282877481e+000	 4.4882926896e+000	-1.7886554781e-002
 1.1819637144e+000	 4.5007137706e+000	-8.1924290044e-003
 1.1356434934e+000	 4.5126242049e+000	-4.7396358704e-004
 1.0893349060e+000	 4.5240262557e+000	 5.9912644798e-003
 1.0430456808e+000	 4.5349223326e+000	 1.1968204130e-002
 9.9678345167e-001	 4.5453149880e+000	 1.8236134894e-002
 9.5055575431e-001	 4.5552069140e+000	 2.5566412248e-002
 9.0437002377e-001	 4.5646009385e+000	 3.4702908730e-002
 1.3750374608e+000	 4.4734325159e+000	-6.7758719806e-002
 1.3284845508e+000	 4.4874776238e+000	-4.9198611103e-002
 1.2819113558e+000	 4.5010032474e+000	-3.3434168514e-002
 1.2353259996e+000	 4.5140112010e+000	-2.0664013364e-002
 1.1887365230e+000	 4.5265034564e+000	-1.0366519984e-002
 1.1421508810e+000	 4.5384821391e+000	-1.9189390725e-003
 1.0955769392e+000	 4.5499495252e+000	 5.3649387313e-003
 1.0490224707e+000	 4.5609080380e+000	 1.2203572579e-002
 1.0024951528e+000	 4.5713602447e+000	 1.9321979312e-002
 9.5600256464e-001	 4.5813088528e+000	 2.7431674726e-002
 9.0955218375e-001	 4.5907567062e+000	 3.7213503266e-002
 1.3828717319e+000	 4.4989198818e+000	-6.9244376098e-002
 1.3360535868e+000	 4.5130450117e+000	-5.1211540767e-002
 1.2892150412e+000	 4.5266476974e+000	-3.5522409754e-002
 1.2423642651e+000	 4.5397297639e+000	-2.2537648293e-002
 1.1955093451e+000	 4.5522931938e+000	-1.1772459302e-002
 1.1486582816e+000	 4.5643401250e+000	-2.6522012510e-003
 1.1018189849e+000	 4.5758728465e+000	 5.4503347259e-003
 1.0549992725e+000	 4.5868937954e+000	 1.3186443206e-002
 1.0082068654e+000	 4.5974055535e+000	 2.1208457946e-002
 9.6144938587e-001	 4.6074108437e+000	 3.0152058415e-002
 9.1473435410e-001	 4.6169125263e+000	 4.0621562092e-002
 1.3907060206e+000	 4.5244073051e+000	-6.7591999006e-002
 1.3436226398e+000	 4.5386124571e+000	-5.0629124231e-002
 1.2965187431e+000	 4.5522922052e+000	-3.5490935524e-002
 1.2494025464e+000	 4.5654483845e+000	-2.2604538854e-002
 1.2022821825e+000	 4.5780829893e+000	-1.1573124302e-002
 1.1551656968e+000	 4.5901981691e+000	-1.8959572021e-003
 1.1080610447e+000	 4.6017962261e+000	 6.9713642357e-003
 1.0609760877e+000	 4.6128796112e+000	 1.5591328742e-002
 1.0139185908e+000	 4.6234509209e+000	 2.4524358159e-002
 9.6689621935e-001	 4.6335128934e+000	 3.4313161441e-002
 9.1991653610e-001	 4.6430684052e+000	 4.5471548544e-002
 8.6809508528e-001	 4.3815114796e+000	 1.1679126242e-002
 8.2381585598e-001	 4.3900523689e+000	 2.3418967597e-002
 7.7959085635e-001	 4.3981212792e+000	 3.6711435824e-002
 7.3542690550e-001	 4.4057212979e+000	 5.1677909920e-002
 6.9133071679e-001	 4.4128556284e+000	 6.8444096889e-002
 6.4730889580e-001	 4.4195275870e+000	 8.6296471861e-002
 6.0336793844e-001	 4.4257405989e+000	 9.9252439253e-002
 5.5951422919e-001	 4.4314981950e+000	 1.0699151418e-001
 5.1575403944e-001	 4.4368040078e+000	 1.1069133041e-001
 4.7209352597e-001	 4.4416617678e+000	 1.1158640892e-001
 4.2853872961e-001	 4.4460753003e+000	 1.1091947609e-001
 8.7327720898e-001	 4.4076670643e+000	 1.7035737237e-002
 8.2873365329e-001	 4.4162589387e+000	 2.7985497549e-002
 7.8424465099e-001	 4.4243760167e+000	 4.0696824859e-002
 7.3981706190e-001	 4.4320214039e+000	 5.5195794056e-002
 6.9545763947e-001	 4.4391983230e+000	 7.1499114775e-002
 6.5117302869e-001	 4.4459101101e+000	 8.9074351224e-002
 6.0696976427e-001	 4.4521602109e+000	 1.0198717407e-001
 5.6285426878e-001	 4.4579521772e+000	 1.0950834349e-001
 5.1883285105e-001	 4.4632896631e+000	 1.1286449948e-001
 4.7491170464e-001	 4.4681764217e+000	 1.1329651515e-001
 4.3109690641e-001	 4.4726163009e+000	 1.1201723997e-001
 8.7845933398e-001	 4.4338226555e+000	 2.1547581366e-002
 8.3365145183e-001	 4.4424655151e+000	 3.2026560192e-002
 7.8889844680e-001	 4.4506307607e+000	 4.4419504320e-002
 7.4420721941e-001	 4.4583215165e+000	 5.8671729255e-002
 6.9958456318e-001	 4.4655410243e+000	 7.4707449434e-002
 6.5503716255e-001	 4.4722926399e+000	 9.2127951982e-002
 6.1057159100e-001	 4.4785798294e+000	 1.0525611115e-001
 5.6619430921e-001	 4.4844061659e+000	 1.1289770500e-001
 5.2191166344e-001	 4.4897753251e+000	 1.1631974562e-001
 4.7772988402e-001	 4.4946910823e+000	 1.1676292481e-001
 4.3365508385e-001	 4.4991573082e+000	 1.1540607717e-001
 8.8364146158e-001	 4.4599782598e+000	 2.5226809485e-002
 8.3856925284e-001	 4.4686721045e+000	 3.5509895708e-002
 7.9355224493e-001	 4.4768855178e+000	 4.7808910261e-002
 7.4859737911e-001	 4.4846216423e+000	 6.2002275404e-002
 7.0371148895e-001	 4.4918837387e+000	 7.7937601567e-002
 6.5890129835e-001	 4.4986751828e+000	 9.5296797029e-002
 6.1417341953e-001	 4.5049994612e+000	 1.0884559410e-001
 5.6953435130e-001	 4.5108601678e+000	 1.1688768639e-001
 5.2499047737e-001	 4.5162610003e+000	 1.2071932861e-001
 4.8054806480e-001	 4.5212057561e+000	 1.2157214160e-001
 4.3621326257e-001	 4.5256983287e+000	 1.2058460011e-001
 8.8882359306e-001	 4.4861338837e+000	 2.8168074394e-002
 8.4348705752e-001	 4.4948787136e+000	 3.8485469502e-002
 7.9820604656e-001	 4.5031402947e+000	 5.0875393857e-002
 7.5298754210e-001	 4.5109217877e+000	 6.5162549285e-002
 7.0783841783e-001	 4.5182264729e+000	 8.1133210303e-002
 6.6276543704e-001	 4.5250577455e+000	 9.8496993693e-002
 6.1777525075e-001	 4.5314191127e+000	 1.1261723973e-001
 5.7287439590e-001	 4.5373141896e+000	 1.2127881163e-001
 5.2806929361e-001	 4.5427466954e+000	 1.2579352235e-001
 4.8336624770e-001	 4.5477204498e+000	 1.2737262102e-001
 4.3877144321e-001	 4.5522393692e+000	 1.2710562062e-001
 8.9400572972e-001	 4.5122895337e+000	 3.0546376169e-002
 8.4840486713e-001	 4.5210853490e+000	 4.1083593577e-002
 8.0285985284e-001	 4.5293950978e+000	 5.3708622444e-002
 7.5737770949e-001	 4.5372219595e+000	 6.8204908399e-002
 7.1196535083e-001	 4.5445692334e+000	 8.4312022419e-002
 6.6662957959e-001	 4.5514403346e+000	 1.0171923344e-001
 6.2137708559e-001	 4.5578387907e+000	 1.1650637416e-001
 5.7621444384e-001	 4.5637682378e+000	 1.2594290801e-001
 5.3114811292e-001	 4.5692324169e+000	 1.3133990630e-001
 4.8618443341e-001	 4.5742351699e+000	 1.3387447874e-001
 4.4132962641e-001	 4.5787804362e+000	 1.3457626685e-001
 8.9918787286e-001	 4.5384452165e+000	 3.2614908894e-002
 8.5332268289e-001	 4.5472920170e+000	 4.3513046722e-002
 8.0751366493e-001	 4.5556499337e+000	 5.6475976364e-002
 7.6176788236e-001	 4.5635221642e+000	 7.1257627153e-002
 7.1609228898e-001	 4.5709120268e+000	 8.7564850071e-002
 6.7049372698e-001	 4.5778229567e+000	 1.0505212123e-001
 6.2497892492e-001	 4.5842585017e+000	 1.2052044851e-001
 5.7955449595e-001	 4.5902223192e+000	 1.3082194771e-001
 5.3422693609e-001	 4.5957181716e+000	 1.3722262603e-001
 4.8900262265e-001	 4.6007499233e+000	 1.4084916226e-001
 4.4388781281e-001	 4.6053215364e+000	 1.4265805717e-001
 9.0437002377e-001	 4.5646009385e+000	 3.4702908730e-002
 8.5824050602e-001	 4.5734987244e+000	 4.6059193567e-002
 8.1216748401e-001	 4.5819048089e+000	 5.9420941791e-002
 7.6615806182e-001	 4.5898224083e+000	 7.4523565724e-002
 7.2021923333e-001	 4.5972548598e+000	 9.1054517494e-002
 6.7435788016e-001	 4.6042056184e+000	 1.0864912771e-001
 6.2858076965e-001	 4.6106782524e+000	 1.2473743498e-001
 5.8289455307e-001	 4.6166764401e+000	 1.3592686494e-001
 5.3730576387e-001	 4.6222039660e+000	 1.4337162411e-001
 4.9182081611e-001	 4.6272647164e+000	 1.4812908736e-001
 4.4644600304e-001	 4.6318626763e+000	 1.5106693288e-001
 9.0955218375e-001	 4.5907567062e+000	 3.7213503266e-002
 8.6315833775e-001	 4.5997054777e+000	 4.9082102549e-002
 8.1682131123e-001	 4.6081597302e+000	 6.2861499683e-002
 7.7054824896e-001	 4.6161226984e+000	 7.8278831901e-002
 7.2434618490e-001	 4.6235977388e+000	 9.5014797137e-002
 6.7822204010e-001	 4.6305883262e+000	 1.1270064292e-001
 6.3218262069e-001	 4.6370980492e+000	 1.2930420424e-001
 5.8623461604e-001	 4.6431306074e+000	 1.4133634968e-001
 5.4038459704e-001	 4.6486898067e+000	 1.4978184265e-001
 4.9463901451e-001	 4.6537795559e+000	 1.5560724064e-001
 4.4900419775e-001	 4.6584038627e+000	 1.5957325148e-001
 9.1473435410e-001	 4.6169125263e+000	 4.0621562092e-002
 8.6807617933e-001	 4.6259122833e+000	 5.3014662816e-002
 8.2147514776e-001	 4.6344147039e+000	 6.7188511034e-002
 7.7493844487e-001	 4.6424230411e+000	 8.2871436175e-002
 7.2847314472e-001	 4.6499406706e+000	 9.9749335631e-002
 6.8208620777e-001	 4.6569710867e+000	 1.1746383098e-001
 6.3578447894e-001	 4.6635178989e+000	 1.3443488471e-001
 5.8957468569e-001	 4.6695848276e+000	 1.4714807231e-001
 5.4346343637e-001	 4.6751757004e+000	 1.5606723630e-001
 4.9745721854e-001	 4.6802944484e+000	 1.6201346192e-001
 4.5156239757e-001	 4.6849451022e+000	 1.6568750092e-001
 9.1991653610e-001	 4.6430684052e+000	 4.5471548544e-002
 8.7299403196e-001	 4.6521191480e+000	 5.8360700125e-002
 8.2612899476e-001	 4.6606697367e+000	 7.2864098545e-002
 7.7932865067e-001	 4.6687234430e+000	 8.8704487350e-002
 7.3260011383e-001	 4.6762836616e+000	 1.0524407927e-001
 6.8595038414e-001	 4.6833539067e+000	 1.2197076716e-001
 6.3938634528e-001	 4.6899378081e+000	 1.3764718491e-001
 5.9291476285e-001	 4.6960391073e+000	 1.4892285917e-001
 5.4654228262e-001	 4.7016616537e+000	 1.5637530365e-001
 5.0027542892e-001	 4.7068094006e+000	 1.6085516291e-001
 4.5412060315e-001	 4.7114864015e+000	 1.6305142863e-001
 4.2853872961e-001	 4.4460753003e+000	 1.1091947609e-001
 3.8508908055e-001	 4.4500490843e+000	 1.0987975952e-001
 3.4175700318e-001	 4.4535864303e+000	 1.0906977009e-001
 2.9854827303e-001	 4.4566914274e+000	 1.0883960038e-001
 2.5546854253e-001	 4.4593682450e+000	 1.0953247265e-001
 2.1252334018e-001	 4.4616211283e+000	 1.1146981825e-001
 1.6971806992e-001	 4.4634543955e+000	 1.1493976364e-001
 1.2705801053e-001	 4.4648724335e+000	 1.2018811484e-001
 8.4548315236e-002	 4.4658796945e+000	 1.2741104655e-001
 4.2194011339e-002	 4.4664806926e+000	 1.3674881174e-001
 0.0000000000e+000	 4.4666800000e+000	 1.4827989386e-001
 4.3109690641e-001	 4.4726163009e+000	 1.1201723997e-001
 3.8738788317e-001	 4.4766138066e+000	 1.1074737660e-001
 3.4379713346e-001	 4.4801722689e+000	 1.1061950063e-001
 3.0033046730e-001	 4.4832958014e+000	 1.1189731693e-001
 2.5699357085e-001	 4.4859885983e+000	 1.1480126193e-001
 2.1379200563e-001	 4.4882549303e+000	 1.1949877429e-001
 1.7073120782e-001	 4.4900991413e+000	 1.2609753256e-001
 1.2781648773e-001	 4.4915256443e+000	 1.3464073445e-001
 8.5053029335e-002	 4.4925389182e+000	 1.4510361168e-001
 4.2445889952e-002	 4.4931435039e+000	 1.5739048995e-001
 0.0000000000e+000	 4.4933440011e+000	 1.7133181473e-001
 4.3365508385e-001	 4.4991573082e+000	 1.1540607717e-001
 3.8968668636e-001	 4.5031785355e+000	 1.1433229613e-001
 3.4583726425e-001	 4.5067581141e+000	 1.1503929254e-001
 3.0211266201e-001	 4.5099001820e+000	 1.1771296325e-001
 2.5851859956e-001	 4.5126089583e+000	 1.2246531406e-001
 2.1506067140e-001	 4.5148887390e+000	 1.2932999237e-001
 1.7174434598e-001	 4.5167438937e+000	 1.3826031492e-001
 1.2857496512e-001	 4.5181788617e+000	 1.4912884800e-001
 8.5557743560e-002	 4.5191981485e+000	 1.6172772286e-001
 4.2697768628e-002	 4.5198063219e+000	 1.7576899036e-001
 0.0000000000e+000	 4.5200080089e+000	 1.9088443495e-001
 4.3621326257e-001	 4.5256983287e+000	 1.2058460011e-001
 3.9198549070e-001	 4.5297432778e+000	 1.2005219725e-001
 3.4787739605e-001	 4.5333439727e+000	 1.2169203566e-001
 3.0389485761e-001	 4.5365045760e+000	 1.2561889973e-001
 2.6004362902e-001	 4.5392293316e+000	 1.3184898567e-001
 2.1632933779e-001	 4.5415225610e+000	 1.4030077255e-001
 1.7275748464e-001	 4.5433886594e+000	 1.5079788286e-001
 1.2933344288e-001	 4.5448320925e+000	 1.6307297318e-001
 8.6062458036e-002	 4.5458573921e+000	 1.7677182740e-001
 4.2949647430e-002	 4.5464691533e+000	 1.9145695150e-001
 0.0000000000e+000	 4.5466720300e+000	 2.0661009106e-001
 4.3877144321e-001	 4.5522393692e+000	 1.2710562062e-001
 3.9428429676e-001	 4.5563080399e+000	 1.2736897621e-001
 3.4991752939e-001	 4.5599298511e+000	 1.2997209494e-001
 3.0567705455e-001	 4.5631089899e+000	 1.3496342965e-001
 2.6156865963e-001	 4.5658497249e+000	 1.4227422942e-001
 2.1759800514e-001	 4.5681564029e+000	 1.5172483097e-001
 1.7377062406e-001	 4.5700334451e+000	 1.6303239907e-001
 1.3009192122e-001	 4.5714853432e+000	 1.7581914073e-001
 8.6567172891e-002	 4.5725166558e+000	 1.8962015558e-001
 4.3201526421e-002	 4.5731320046e+000	 2.0389021778e-001
 0.0000000000e+000	 4.5733360711e+000	 2.1800891238e-001
 4.4132962641e-001	 4.5787804362e+000	 1.3457626685e-001
 3.9658310513e-001	 4.5828728286e+000	 1.3578927677e-001
 3.5195766477e-001	 4.5865157562e+000	 1.3930627258e-001
 3.0745925327e-001	 4.5897134304e+000	 1.4511221051e-001
 2.6309369176e-001	 4.5924701447e+000	 1.5306247108e-001
 2.1886667376e-001	 4.5947902715e+000	 1.6289465827e-001
 1.7478376449e-001	 4.5966782575e+000	 1.7424127147e-001
 1.3085040031e-001	 4.5981386206e+000	 1.8664225937e-001
 8.7071888250e-002	 4.5991759461e+000	 1.9955660923e-001
 4.3453405663e-002	 4.5997948826e+000	 2.1237226413e-001
 0.0000000000e+000	 4.6000001389e+000	 2.2441379375e-001
 4.4388781281e-001	 4.6053215364e+000	 1.4265805717e-001
 3.9888191636e-001	 4.6094376505e+000	 1.4486497048e-001
 3.5399780270e-001	 4.6131016945e+000	 1.4915471174e-001
 3.0924145422e-001	 4.6163179041e+000	 1.5544959722e-001
 2.6461872580e-001	 4.6190905979e+000	 1.6353640730e-001
 2.2013534396e-001	 4.6214241734e+000	 1.7308378640e-001
 1.7579690619e-001	 4.6233231032e+000	 1.8365990252e-001
 1.3160888035e-001	 4.6247919314e+000	 1.9474936039e-001
 8.7576604240e-002	 4.6258352697e+000	 2.0576851365e-001
 4.3705285220e-002	 4.6264577939e+000	 2.1607846662e-001
 0.0000000000e+000	 4.6266642400e+000	 2.2499519551e-001
 4.4644600304e-001	 4.6318626763e+000	 1.5106693288e-001
 4.0118073105e-001	 4.6360025122e+000	 1.5419358907e-001
 3.5603794368e-001	 4.6396876726e+000	 1.5901174418e-001
 3.1102365784e-001	 4.6429224177e+000	 1.6537991978e-001
 2.6614376212e-001	 4.6457110910e+000	 1.7302172730e-001
 2.2140401607e-001	 4.6480581152e+000	 1.8154896737e-001
 1.7681004941e-001	 4.6499679888e+000	 1.9048433734e-001
 1.3236736153e-001	 4.6514452821e+000	 1.9928272674e-001
 8.8081320987e-002	 4.6524946333e+000	 2.0735023837e-001
 4.3957165155e-002	 4.6531207452e+000	 2.1406022519e-001
 0.0000000000e+000	 4.6533283810e+000	 2.1876577761e-001
 4.4900419775e-001	 4.6584038627e+000	 1.5957325148e-001
 4.0347954975e-001	 4.6625674204e+000	 1.6341871071e-001
 3.5807808824e-001	 4.6662736973e+000	 1.6840668408e-001
 3.1280586458e-001	 4.6695269779e+000	 1.7426588679e-001
 2.6766880112e-001	 4.6723316306e+000	 1.8060441798e-001
 2.2267269039e-001	 4.6746921036e+000	 1.8706281688e-001
 1.7782319440e-001	 4.6766129211e+000	 1.9320794912e-001
 1.3312584404e-001	 4.6780986794e+000	 1.9854779081e-001
 8.8586038617e-002	 4.6791540436e+000	 2.0254644438e-001
 4.4209045530e-002	 4.6797837432e+000	 2.0463807721e-001
 0.0000000000e+000	 4.6799925688e+000	 2.0423988955e-001
 4.5156239757e-001	 4.6849451022e+000	 1.6568750092e-001
 4.0577837306e-001	 4.6891323818e+000	 1.6862297373e-001
 3.6011823688e-001	 4.6928597752e+000	 1.7194781492e-001
 3.1458807488e-001	 4.6961315913e+000	 1.7554880513e-001
 2.6919384316e-001	 4.6989522236e+000	 1.7920604132e-001
 2.2394136725e-001	 4.7013261453e+000	 1.8261137251e-001
 1.7883634142e-001	 4.7032579066e+000	 1.8538539759e-001
 1.3388432806e-001	 4.7047521301e+000	 1.8709316150e-001
 8.9090757256e-002	 4.7058135072e+000	 1.8725867769e-001
 4.4460926409e-002	 4.7064467945e+000	 1.8537839580e-001
 0.0000000000e+000	 4.7066568099e+000	 1.8093372439e-001
 4.5412060315e-001	 4.7114864015e+000	 1.6305142863e-001
 4.0807720153e-001	 4.7156974029e+000	 1.6430071591e-001
 3.6215839011e-001	 4.7194459128e+000	 1.6557655547e-001
 3.1637028919e-001	 4.7227362646e+000	 1.6683152377e-001
 2.7071888863e-001	 4.7255728763e+000	 1.6791922884e-001
 2.2521004697e-001	 4.7279602469e+000	 1.6861207025e-001
 1.7984949071e-001	 4.7299029521e+000	 1.6861757077e-001
 1.3464281379e-001	 4.7314056407e+000	 1.6759342148e-001
 8.9595477031e-002	 4.7324730307e+000	 1.6516137306e-001
 4.4712807855e-002	 4.7331099057e+000	 1.6092009627e-001
 0.0000000000e+000	 4.7333211109e+000	 1.5445712528e-001
 4.7333211109e+000	 0.0000000000e+000	 4.9927169801e-001
 4.7331099057e+000	 4.4712807855e-002	 4.9612592822e-001
 4.7324730307e+000	 8.9595477031e-002	 4.9388030434e-001
 4.7314056407e+000	 1.3464281379e-001	 4.9225655504e-001
 4.7299029521e+000	 1.7984949071e-001	 4.9093214226e-001
 4.7279602469e+000	 2.2521004697e-001	 4.8955485430e-001
 4.7255728763e+000	 2.7071888863e-001	 4.8775824135e-001
 4.7227362646e+000	 3.1637028919e-001	 4.8517801746e-001
 4.7194459128e+000	 3.6215839011e-001	 4.8146956374e-001
 4.7156974029e+000	 4.0807720153e-001	 4.7632667668e-001
 4.7114864015e+000	 4.5412060315e-001	 4.6950171510e-001
 4.7599894698e+000	 0.0000000000e+000	 5.0939722079e-001
 4.7597770747e+000	 4.4964727633e-002	 5.0745926991e-001
 4.7591366114e+000	 9.0100273615e-002	 5.0585097660e-001
 4.7580632075e+000	 1.3540141494e-001	 5.0436926238e-001
 4.7565520525e+000	 1.8086279419e-001	 5.0276817223e-001
 4.7545984018e+000	 2.2647891975e-001	 5.0077289494e-001
 4.7521975803e+000	 2.7224416619e-001	 4.9809459102e-001
 4.7493449866e+000	 3.1815277473e-001	 4.9444615762e-001
 4.7460360964e+000	 3.6419885381e-001	 4.8955907074e-001
 4.7422664668e+000	 4.1037637985e-001	 4.8320145529e-001
 4.7380317398e+000	 4.5667919805e-001	 4.7519754338e-001
 4.7866578487e+000	 0.0000000000e+000	 5.1388755078e-001
 4.7864442636e+000	 4.5216647599e-002	 5.1339939458e-001
 4.7858002120e+000	 9.0605070578e-002	 5.1269080395e-001
 4.7847207943e+000	 1.3616001667e-001	 5.1163329133e-001
 4.7832011729e+000	 1.8187609843e-001	 5.1005718006e-001
 4.7812365766e+000	 2.2774779349e-001	 5.0776502421e-001
 4.7788223043e+000	 2.7376944490e-001	 5.0454579908e-001
 4.7759537286e+000	 3.1993526160e-001	 5.0018999676e-001
 4.7726263000e+000	 3.6623931904e-001	 4.9450577334e-001
 4.7688355505e+000	 4.1267555989e-001	 4.8733630459e-001
 4.7645770980e+000	 4.5923779486e-001	 4.7857851801e-001
 4.8133262010e+000	 0.0000000000e+000	 5.1328840009e-001
 4.8131114259e+000	 4.5468567315e-002	 5.1440016388e-001
 4.8124637861e+000	 9.1109867036e-002	 5.1476329066e-001
 4.8113783544e+000	 1.3691861764e-001	 5.1432351364e-001
 4.8098502666e+000	 1.8288940166e-001	 5.1298736758e-001
 4.8078747248e+000	 2.2901666596e-001	 5.1063497937e-001
 4.8054470016e+000	 2.7529472208e-001	 5.0713358979e-001
 4.8025624440e+000	 3.2171774669e-001	 5.0235194655e-001
 4.7992164769e+000	 3.6827978224e-001	 4.9617572073e-001
 4.7954046077e+000	 4.1497473763e-001	 4.8852411095e-001
 4.7911224297e+000	 4.6179638912e-001	 4.7936780993e-001
 4.8399944799e+000	 0.0000000000e+000	 5.0813324963e-001
 4.8397785148e+000	 4.5720486337e-002	 5.1090534878e-001
 4.8391272868e+000	 9.1614662108e-002	 5.1242389730e-001
 4.8380358413e+000	 1.3767721652e-001	 5.1270871571e-001
 4.8364992871e+000	 1.8390270211e-001	 5.1174272604e-001
 4.8345127998e+000	 2.3028553495e-001	 5.0948408338e-001
 4.8320716258e+000	 2.7681999506e-001	 5.0587899657e-001
 4.8291710862e+000	 3.2350022688e-001	 5.0087538377e-001
 4.8258065808e+000	 3.7032023982e-001	 4.9443752163e-001
 4.8219735919e+000	 4.1727390906e-001	 4.8656185882e-001
 4.8176676884e+000	 4.6435497634e-001	 4.7729417678e-001
 4.8666626388e+000	 0.0000000000e+000	 4.9894368095e-001
 4.8664454838e+000	 4.5972404228e-002	 5.0334890508e-001
 4.8657906675e+000	 9.2119454909e-002	 5.0602026167e-001
 4.8646932082e+000	 1.3843581199e-001	 5.0705176648e-001
 4.8631481876e+000	 1.8491599799e-001	 5.0650315267e-001
 4.8611507549e+000	 2.3155439822e-001	 5.0441131217e-001
 4.8586961301e+000	 2.7834526119e-001	 5.0080238159e-001
 4.8557796087e+000	 3.2528269905e-001	 4.9570462445e-001
 4.8523965650e+000	 3.7236068822e-001	 4.8916227472e-001
 4.8485424565e+000	 4.1957307013e-001	 4.8125051962e-001
 4.8442128277e+000	 4.6691355205e-001	 4.7209181242e-001
 4.8933306310e+000	 0.0000000000e+000	 4.8622969720e-001
 4.8931122861e+000	 4.6224320544e-002	 4.9215524001e-001
 4.8924538816e+000	 9.2624244557e-002	 4.9589241240e-001
 4.8913504085e+000	 1.3919440273e-001	 4.9760977982e-001
 4.8897969216e+000	 1.8592928754e-001	 4.9744456357e-001
 4.8877885435e+000	 2.3282325357e-001	 4.9551335956e-001
 4.8853204680e+000	 2.7987051778e-001	 4.9192345473e-001
 4.8823879649e+000	 3.2706516008e-001	 4.8678489854e-001
 4.8789863830e+000	 3.7440112388e-001	 4.8022350119e-001
 4.8751111550e+000	 4.2187221684e-001	 4.7239494412e-001
 4.8707578010e+000	 4.6947211177e-001	 4.6350020117e-001
 4.9199984100e+000	 0.0000000000e+000	 4.7049003377e-001
 4.9197788751e+000	 4.6476234846e-002	 4.7773947016e-001
 4.9191168823e+000	 9.3129030168e-002	 4.8237297576e-001
 4.9180073955e+000	 1.3995298739e-001	 4.8463427168e-001
 4.9164454424e+000	 1.8694256899e-001	 4.8473900272e-001
 4.9144261190e+000	 2.3409209877e-001	 4.8288470002e-001
 4.9119445930e+000	 2.8139576218e-001	 4.7926129180e-001
 4.9089961082e+000	 3.2884760685e-001	 4.7406232543e-001
 4.9055759883e+000	 3.7644154321e-001	 4.6749707940e-001
 4.9016796411e+000	 4.2417134516e-001	 4.5980375816e-001
 4.8973025621e+000	 4.7203065102e-001	 4.5126397669e-001
 4.9466659289e+000	 0.0000000000e+000	 4.5221245903e-001
 4.9464452040e+000	 4.6728146693e-002	 4.6050767120e-001
 4.9457796232e+000	 9.3633810859e-002	 4.6578737576e-001
 4.9446641227e+000	 1.4071156466e-001	 4.6837131215e-001
 4.9430937035e+000	 1.8795584057e-001	 4.6855474764e-001
 4.9410634348e+000	 2.3536093160e-001	 4.6661764941e-001
 4.9385684584e+000	 2.8292099170e-001	 4.6283435204e-001
 4.9356039921e+000	 3.3063003625e-001	 4.5748389011e-001
 4.9321653344e+000	 3.7848194265e-001	 4.5086118143e-001
 4.9282478681e+000	 4.2647045107e-001	 4.4328926159e-001
 4.9238470643e+000	 4.7458916533e-001	 4.3513278526e-001
 4.9733331411e+000	 0.0000000000e+000	 4.3187406541e-001
 4.9731112264e+000	 4.6980055644e-002	 4.4085711956e-001
 4.9724420574e+000	 9.4138585748e-002	 4.4645402792e-001
 4.9713205433e+000	 1.4147013321e-001	 4.4906167258e-001
 4.9697416580e+000	 1.8896910049e-001	 4.4905641145e-001
 4.9677004443e+000	 2.3662974984e-001	 4.4680242366e-001
 4.9651920176e+000	 2.8444620369e-001	 4.4266049505e-001
 4.9622115701e+000	 3.3241244516e-001	 4.3699741995e-001
 4.9587543747e+000	 3.8052231863e-001	 4.3019621162e-001
 4.9548157895e+000	 4.2876953053e-001	 4.2266733036e-001
 4.9503912612e+000	 4.7714765022e-001	 4.1486115328e-001
 5.0000000000e+000	 0.0000000000e+000	 4.0994155130e-001
 4.9997768954e+000	 4.7231961259e-002	 4.1917652655e-001
 4.9991041383e+000	 9.4643353951e-002	 4.2468452676e-001
 4.9979766107e+000	 1.4222869172e-001	 4.2694096810e-001
 4.9963892595e+000	 1.8998234699e-001	 4.2640504177e-001
 4.9943371009e+000	 2.3789855127e-001	 4.2352719550e-001
 4.9918152240e+000	 2.8597139548e-001	 4.1875699706e-001
 4.9888187954e+000	 3.3419483045e-001	 4.1255156217e-001
 4.9853430627e+000	 3.8256266757e-001	 4.0538474692e-001
 4.9813833590e+000	 4.3106857954e-001	 3.9775732154e-001
 4.9769351065e+000	 4.7970610120e-001	 3.9020835885e-001
 4.7114864015e+000	 4.5412060315e-001	 4.6950171510e-001
 4.7068094006e+000	 5.0027542892e-001	 4.6116703121e-001
 4.7016616537e+000	 5.4654228262e-001	 4.5198348590e-001
 4.6960391073e+000	 5.9291476285e-001	 4.4259546082e-001
 4.6899378081e+000	 6.3938634528e-001	 4.3380077204e-001
 4.6833539067e+000	 6.8595038414e-001	 4.2644523628e-001
 4.6762836616e+000	 7.3260011383e-001	 4.1992345606e-001
 4.6687234430e+000	 7.7932865067e-001	 4.1349564085e-001
 4.6606697367e+000	 8.2612899476e-001	 4.0646879852e-001
 4.6521191480e+000	 8.7299403196e-001	 3.9800354907e-001
 4.6430684052e+000	 9.1991653610e-001	 3.8763476287e-001
 4.7380317398e+000	 4.5667919805e-001	 4.7519754338e-001
 4.7333283879e+000	 5.0309406817e-001	 4.6571100495e-001
 4.7281516376e+000	 5.4962159742e-001	 4.5533517912e-001
 4.7224974129e+000	 5.9625534832e-001	 4.4469258034e-001
 4.7163617379e+000	 6.4298875977e-001	 4.3455375345e-001
 4.7097407416e+000	 6.8981514856e-001	 4.2568529735e-001
 4.7026306615e+000	 7.3672771099e-001	 4.1748017219e-001
 4.6950278473e+000	 7.8371952458e-001	 4.0934266906e-001
 4.6869287650e+000	 8.3078354999e-001	 4.0080919797e-001
 4.6783300008e+000	 8.7791263301e-001	 3.9142350114e-001
 4.6692282646e+000	 9.2509950674e-001	 3.8073100406e-001
 4.7645770980e+000	 4.5923779486e-001	 4.7857851801e-001
 4.7598473950e+000	 5.0591270954e-001	 4.6839143728e-001
 4.7546416415e+000	 5.5270091453e-001	 4.5729637541e-001
 4.7489557383e+000	 5.9959593629e-001	 4.4588184758e-001
 4.7427856875e+000	 6.4659117696e-001	 4.3487898239e-001
 4.7361275963e+000	 6.9367991589e-001	 4.2496162661e-001
 4.7289776812e+000	 7.4085531125e-001	 4.1553696731e-001
 4.7213322714e+000	 7.8811040178e-001	 4.0612986878e-001
 4.7131878131e+000	 8.3543810871e-001	 3.9635727467e-001
 4.7045408733e+000	 8.8283123775e-001	 3.8584206841e-001
 4.6953881436e+000	 9.3028248127e-001	 3.7420744994e-001
 4.7911224297e+000	 4.6179638912e-001	 4.7936780993e-001
 4.7863663757e+000	 5.0873134809e-001	 4.6886686570e-001
 4.7811316189e+000	 5.5578022856e-001	 4.5746782156e-001
 4.7754140372e+000	 6.0293652092e-001	 4.4571352199e-001
 4.7692096106e+000	 6.5019359054e-001	 4.3428398701e-001
 4.7625144247e+000	 6.9754467935e-001	 4.2374924975e-001
 4.7553246745e+000	 7.4498290738e-001	 4.1354304873e-001
 4.7476366691e+000	 7.9250127459e-001	 4.0328826451e-001
 4.7394468349e+000	 8.4009266278e-001	 3.9266890937e-001
 4.7307517196e+000	 8.8774983756e-001	 3.8137393311e-001
 4.7215479964e+000	 9.3546545062e-001	 3.6909166755e-001
 4.8176676884e+000	 4.6435497634e-001	 4.7729417678e-001
 4.8128852834e+000	 5.1154997889e-001	 4.6680282839e-001
 4.8076215234e+000	 5.5885953413e-001	 4.5545857685e-001
 4.8018722634e+000	 6.0627709636e-001	 4.4374738584e-001
 4.7956334612e+000	 6.5379599422e-001	 4.3228692816e-001
 4.7889011804e+000	 7.0140943218e-001	 4.2153472428e-001
 4.7816715954e+000	 7.4911049215e-001	 4.1095980876e-001
 4.7739409946e+000	 7.9689213533e-001	 4.0026154351e-001
 4.7657057845e+000	 8.4474720405e-001	 3.8917768120e-001
 4.7569624938e+000	 8.9266842386e-001	 3.7745029884e-001
 4.7477077773e+000	 9.4064840571e-001	 3.6482035280e-001
 4.8442128277e+000	 4.6691355205e-001	 4.7209181242e-001
 4.8394040719e+000	 5.1436859701e-001	 4.6187167746e-001
 4.8341113087e+000	 5.6193882583e-001	 4.5088579390e-001
 4.8283303706e+000	 6.0961765677e-001	 4.3955249712e-001
 4.8220571928e+000	 6.5739838170e-001	 4.2841632854e-001
 4.8152878175e+000	 7.0527416762e-001	 4.1781582537e-001
 4.8080183978e+000	 7.5323805836e-001	 4.0726048943e-001
 4.8002452017e+000	 8.0128297631e-001	 3.9650570353e-001
 4.7919646159e+000	 8.4940172438e-001	 3.8532976230e-001
 4.7831731501e+000	 8.9758698802e-001	 3.7351506024e-001
 4.7738674405e+000	 9.4583133749e-001	 3.6084279978e-001
 4.8707578010e+000	 4.6947211177e-001	 4.6350020117e-001
 4.8659226945e+000	 5.1718719751e-001	 4.5375239800e-001
 4.8606009285e+000	 5.6501809830e-001	 4.4337450660e-001
 4.8547883124e+000	 6.1295819631e-001	 4.3270695024e-001
 4.8484807593e+000	 6.6100074665e-001	 4.2221081074e-001
 4.8416742897e+000	 7.0913887891e-001	 4.1210124120e-001
 4.8343650355e+000	 7.5736559877e-001	 4.0192985739e-001
 4.8265492444e+000	 8.0567378985e-001	 3.9148871082e-001
 4.8182232832e+000	 8.5405621561e-001	 3.8058356316e-001
 4.8093836426e+000	 9.0250552144e-001	 3.6902443947e-001
 4.8000269402e+000	 9.5101423687e-001	 3.5662053253e-001
 4.8973025621e+000	 4.7203065102e-001	 4.5126397669e-001
 4.8924411051e+000	 5.2000577547e-001	 4.4213043302e-001
 4.8870903364e+000	 5.6809734613e-001	 4.3255742479e-001
 4.8812460426e+000	 6.1629870912e-001	 4.2279764456e-001
 4.8749041144e+000	 6.6460308279e-001	 4.1321884367e-001
 4.8680605507e+000	 7.1300355928e-001	 4.0391027741e-001
 4.8607114624e+000	 7.6149310617e-001	 3.9446388836e-001
 4.8528530766e+000	 8.1006456827e-001	 3.8469016837e-001
 4.8444817405e+000	 8.5871066962e-001	 3.7440938816e-001
 4.8355939254e+000	 9.0742401552e-001	 3.6344663309e-001
 4.8261862307e+000	 9.5619709479e-001	 3.5162694716e-001
 4.9238470643e+000	 4.7458916533e-001	 4.3513278526e-001
 4.9189592571e+000	 5.2282432595e-001	 4.2669751381e-001
 4.9135794860e+000	 5.7117656394e-001	 4.1807473541e-001
 4.9077035148e+000	 6.1963918937e-001	 4.0942006023e-001
 4.9013272119e+000	 6.6820538381e-001	 4.0099821715e-001
 4.8944465545e+000	 7.1686820198e-001	 3.9277257034e-001
 4.8870576325e+000	 7.6562057332e-001	 3.8436946094e-001
 4.8791566525e+000	 8.1445530387e-001	 3.7560099371e-001
 4.8707399418e+000	 8.6336507824e-001	 3.6628910110e-001
 4.8618039526e+000	 9.1234246164e-001	 3.5626146899e-001
 4.8523452661e+000	 9.6137990218e-001	 3.4534696400e-001
 4.9503912612e+000	 4.7714765022e-001	 4.1486115328e-001
 4.9454771042e+000	 5.2564284401e-001	 4.0715149556e-001
 4.9400683310e+000	 5.7425574634e-001	 3.9957390993e-001
 4.9341606827e+000	 6.2297963120e-001	 3.9217804110e-001
 4.9277500055e+000	 6.7180764341e-001	 3.8511431883e-001
 4.9208322549e+000	 7.2073280023e-001	 3.7822780873e-001
 4.9134034996e+000	 7.6974799300e-001	 3.7116405932e-001
 4.9054599258e+000	 8.1884598899e-001	 3.6372310613e-001
 4.8969978411e+000	 8.6801943334e-001	 3.5571580035e-001
 4.8880136785e+000	 9.1726085120e-001	 3.4696007298e-001
 4.8785040006e+000	 9.6656264996e-001	 3.3727668949e-001
 4.9769351065e+000	 4.7970610120e-001	 3.9020835885e-001
 4.9719945999e+000	 5.2846132473e-001	 3.8319619826e-001
 4.9665568250e+000	 5.7733488795e-001	 3.7670951787e-001
 4.9606175001e+000	 6.2632002876e-001	 3.7068358456e-001
 4.9541724491e+000	 6.7540985527e-001	 3.6514408102e-001
 4.9472176057e+000	 7.2459734727e-001	 3.5982546355e-001
 4.9397490176e+000	 7.7387535800e-001	 3.5437548467e-001
 4.9317628506e+000	 8.2323661592e-001	 3.4856912277e-001
 4.9232553924e+000	 8.7267372677e-001	 3.4219350310e-001
 4.9142230571e+000	 9.2217917559e-001	 3.3504454478e-001
 4.9046623886e+000	 9.7174532908e-001	 3.2692308720e-001
 4.6430684052e+000	 9.1991653610e-001	 3.8763476287e-001
 4.6335128934e+000	 9.6689621935e-001	 3.7521026264e-001
 4.6234509209e+000	 1.0139185908e+000	 3.6112110496e-001
 4.6128796112e+000	 1.0609760877e+000	 3.4571724002e-001
 4.6017962261e+000	 1.1080610447e+000	 3.2932399132e-001
 4.5901981691e+000	 1.1551656968e+000	 3.1222904085e-001
 4.5780829893e+000	 1.2022821825e+000	 2.9467011618e-001
 4.5654483845e+000	 1.2494025464e+000	 2.7682165033e-001
 4.5522922052e+000	 1.2965187431e+000	 2.5878062167e-001
 4.5386124571e+000	 1.3436226398e+000	 2.4053987886e-001
 4.5244073051e+000	 1.3907060206e+000	 2.2183732135e-001
 4.6692282646e+000	 9.2509950674e-001	 3.8073100406e-001
 4.6596189153e+000	 9.7234388174e-001	 3.6840286504e-001
 4.6495002519e+000	 1.0196311855e+000	 3.5443412047e-001
 4.6388693816e+000	 1.0669538126e+000	 3.3914972344e-001
 4.6277235508e+000	 1.1143040544e+000	 3.2286606183e-001
 4.6160601483e+000	 1.1616741024e+000	 3.0585971383e-001
 4.6038767094e+000	 1.2090560505e+000	 2.8835533090e-001
 4.5911709191e+000	 1.2564418989e+000	 2.7051258715e-001
 4.5779406155e+000	 1.3038235564e+000	 2.5241237101e-001
 4.5641837933e+000	 1.3511928448e+000	 2.3401532371e-001
 4.5498986071e+000	 1.3985415015e+000	 2.1512174148e-001
 4.6953881436e+000	 9.3028248127e-001	 3.7420744994e-001
 4.6857249569e+000	 9.7779154822e-001	 3.6129082481e-001
 4.6755496025e+000	 1.0253437844e+000	 3.4733406065e-001
 4.6648591716e+000	 1.0729315419e+000	 3.3253732173e-001
 4.6536508949e+000	 1.1205470688e+000	 3.1681197511e-001
 4.6419221469e+000	 1.1681825128e+000	 3.0025125213e-001
 4.6296704489e+000	 1.2158299237e+000	 2.8307100146e-001
 4.6168934730e+000	 1.2634812566e+000	 2.6542075999e-001
 4.6035890452e+000	 1.3111283752e+000	 2.4737033528e-001
 4.5897551488e+000	 1.3587630554e+000	 2.2885749090e-001
 4.5753899282e+000	 1.4063769883e+000	 2.0977921308e-001
 4.7215479964e+000	 9.3546545062e-001	 3.6909166755e-001
 4.7118309723e+000	 9.8323920925e-001	 3.5568905131e-001
 4.7015989270e+000	 1.0310563777e+000	 3.4138173118e-001
 4.6908489355e+000	 1.0789092652e+000	 3.2635597611e-001
 4.6795782131e+000	 1.1267900770e+000	 3.1077178756e-001
 4.6677841197e+000	 1.1746909167e+000	 2.9475260265e-001
 4.6554641627e+000	 1.2226037901e+000	 2.7820671861e-001
 4.6426160012e+000	 1.2705206073e+000	 2.6099064837e-001
 4.6292374491e+000	 1.3184331867e+000	 2.4316598995e-001
 4.6153264787e+000	 1.3663332584e+000	 2.2466408858e-001
 4.6008812238e+000	 1.4142124673e+000	 2.0549314707e-001
 4.7477077773e+000	 9.4064840571e-001	 3.6482035280e-001
 4.7379369159e+000	 9.8868685530e-001	 3.5117522613e-001
 4.7276481799e+000	 1.0367689552e+000	 3.3670422075e-001
 4.7168386280e+000	 1.0848869721e+000	 3.2157503645e-001
 4.7055054601e+000	 1.1330330679e+000	 3.0592833344e-001
 4.6936460213e+000	 1.1811993028e+000	 2.8986762375e-001
 4.6812578055e+000	 1.2293776378e+000	 2.7344919716e-001
 4.6683384586e+000	 1.2775599386e+000	 2.5667094846e-001
 4.6548857826e+000	 1.3257379781e+000	 2.3931258559e-001
 4.6408977383e+000	 1.3739034406e+000	 2.2103337515e-001
 4.6263724493e+000	 1.4220479247e+000	 2.0194587569e-001
 4.7738674405e+000	 9.4583133749e-001	 3.6084279978e-001
 4.7640427421e+000	 9.9413447684e-001	 3.4721229879e-001
 4.7536973156e+000	 1.0424815070e+000	 3.3278682860e-001
 4.7428282035e+000	 1.0908646521e+000	 3.1771742465e-001
 4.7314325903e+000	 1.1392760308e+000	 3.0212810537e-001
 4.7195078066e+000	 1.1877076595e+000	 2.8610596652e-001
 4.7070513322e+000	 1.2361514551e+000	 2.6969118994e-001
 4.6940608004e+000	 1.2845992382e+000	 2.5286594098e-001
 4.6805340007e+000	 1.3330427367e+000	 2.3554228428e-001
 4.6664688829e+000	 1.3814735888e+000	 2.1756431123e-001
 4.6518635601e+000	 1.4298833469e+000	 1.9881887563e-001
 4.8000269402e+000	 9.5101423687e-001	 3.5662053253e-001
 4.7901484051e+000	 9.9958206434e-001	 3.4327514863e-001
 4.7797462885e+000	 1.0481940231e+000	 3.2912626859e-001
 4.7688176166e+000	 1.0968422947e+000	 3.1431008811e-001
 4.7573595586e+000	 1.1455189547e+000	 2.9893660083e-001
 4.7453694302e+000	 1.1942159756e+000	 2.8307991146e-001
 4.7328446978e+000	 1.2429252300e+000	 2.6676835062e-001
 4.7197829813e+000	 1.2916384939e+000	 2.4997346148e-001
 4.7061820584e+000	 1.3403474496e+000	 2.3259763001e-001
 4.6920398676e+000	 1.3890436896e+000	 2.1453314916e-001
 4.6773545116e+000	 1.4377187201e+000	 1.9589750174e-001
 4.8261862307e+000	 9.5619709479e-001	 3.5162694716e-001
 4.8162538593e+000	 1.0050296083e+000	 3.3885022645e-001
 4.8057950530e+000	 1.0539064935e+000	 3.2523031513e-001
 4.7948068218e+000	 1.1028198895e+000	 3.1089031257e-001
 4.7832863194e+000	 1.1517618286e+000	 2.9592872147e-001
 4.7712308470e+000	 1.2007242396e+000	 2.8040999684e-001
 4.7586378570e+000	 1.2496989508e+000	 2.6435479023e-001
 4.7455049565e+000	 1.2986776933e+000	 2.4772904495e-001
 4.7318299110e+000	 1.3476521041e+000	 2.3043373598e-001
 4.7176106477e+000	 1.3966137299e+000	 2.1242616953e-001
 4.7028452592e+000	 1.4455540306e+000	 1.9384427539e-001
 4.8523452661e+000	 9.6137990218e-001	 3.4534696400e-001
 4.8423590590e+000	 1.0104770991e+000	 3.3343533628e-001
 4.8318435636e+000	 1.0596189083e+000	 3.2061745871e-001
 4.8207957736e+000	 1.1087974261e+000	 3.0700538588e-001
 4.8092128274e+000	 1.1580046417e+000	 2.9268844965e-001
 4.7970920116e+000	 1.2072324402e+000	 2.7772471243e-001
 4.7844307647e+000	 1.2564726055e+000	 2.6213123427e-001
 4.7712266809e+000	 1.3057168240e+000	 2.4587329634e-001
 4.7574775135e+000	 1.3549566873e+000	 2.2886206250e-001
 4.7431811786e+000	 1.4041836964e+000	 2.1112338333e-001
 4.7283357583e+000	 1.4533892647e+000	 1.9280261248e-001
 4.8785040006e+000	 9.6656264996e-001	 3.3727668949e-001
 4.8684639585e+000	 1.0159245272e+000	 3.2653876270e-001
 4.8578917746e+000	 1.0653312573e+000	 3.1481657047e-001
 4.8467844266e+000	 1.1147748939e+000	 3.0221227046e-001
 4.8351390374e+000	 1.1642473830e+000	 2.8880853301e-001
 4.8229528789e+000	 1.2137405659e+000	 2.7466020042e-001
 4.8102233759e+000	 1.2632461823e+000	 2.5978474420e-001
 4.7969481095e+000	 1.3127558737e+000	 2.4415163684e-001
 4.7831248211e+000	 1.3622611866e+000	 2.2769542116e-001
 4.7687514154e+000	 1.4117535758e+000	 2.1050466785e-001
 4.7538259642e+000	 1.4612244087e+000	 1.9272729077e-001
 4.9046623886e+000	 9.7174532908e-001	 3.2692308720e-001
 4.8945685121e+000	 1.0213718832e+000	 3.1767976304e-001
 4.8839396404e+000	 1.0710435306e+000	 3.0736657567e-001
 4.8727727352e+000	 1.1207522825e+000	 2.9607728415e-001
 4.8610649037e+000	 1.1704900415e+000	 2.8389017678e-001
 4.8488134034e+000	 1.2202486053e+000	 2.7085996332e-001
 4.8360156452e+000	 1.2700196694e+000	 2.5700844501e-001
 4.8226691973e+000	 1.3197948302e+000	 2.4231405506e-001
 4.8087717889e+000	 1.3695655890e+000	 2.2674796329e-001
 4.7943213134e+000	 1.4193233549e+000	 2.1044985796e-001
 4.7793158324e+000	 1.4690594489e+000	 1.9357151184e-001
 4.5244073051e+000	 1.3907060206e+000	 2.2183732135e-001
 4.5096750751e+000	 1.4377605886e+000	 2.0265107184e-001
 4.4944142536e+000	 1.4847779682e+000	 1.8298469668e-001
 4.4786234942e+000	 1.5317497104e+000	 1.6303338106e-001
 4.4623016217e+000	 1.5786672978e+000	 1.4297089246e-001
 4.4454476346e+000	 1.6255221485e+000	 1.2294669880e-001
 4.4280607082e+000	 1.6723056206e+000	 1.0308316277e-001
 4.4101401969e+000	 1.7190090161e+000	 8.3472813185e-002
 4.3916856366e+000	 1.7656235858e+000	 6.4175689908e-002
 4.3726967475e+000	 1.8121405334e+000	 4.5216754673e-002
 4.3531734355e+000	 1.8585510208e+000	 2.6583356013e-002
 4.5498986071e+000	 1.3985415015e+000	 2.1512174148e-001
 4.5350833731e+000	 1.4458611832e+000	 1.9583580851e-001
 4.5197365695e+000	 1.4931434669e+000	 1.7620413456e-001
 4.5038568422e+000	 1.5403798561e+000	 1.5639559049e-001
 4.4874430094e+000	 1.5875617854e+000	 1.3655965372e-001
 4.4704940640e+000	 1.6346806246e+000	 1.1682358155e-001
 4.4530091766e+000	 1.6817276829e+000	 9.7289677750e-002
 4.4349876980e+000	 1.7286942135e+000	 7.8032652829e-002
 4.4164291615e+000	 1.7755714178e+000	 5.9097074016e-002
 4.3973332856e+000	 1.8223504501e+000	 4.0494896540e-002
 4.3776999759e+000	 1.8690224222e+000	 2.2203063267e-002
 4.5753899282e+000	 1.4063769883e+000	 2.0977921308e-001
 4.5604916902e+000	 1.4539617839e+000	 1.9035582745e-001
 4.5450589044e+000	 1.5015089719e+000	 1.7070537320e-001
 4.5290902091e+000	 1.5490100083e+000	 1.5097903677e-001
 4.5125844159e+000	 1.5964562797e+000	 1.3130946761e-001
 4.4955405122e+000	 1.6438391075e+000	 1.1180797900e-001
 4.4779576637e+000	 1.6911497523e+000	 9.2561861870e-002
 4.4598352177e+000	 1.7383794182e+000	 7.3631811517e-002
 4.4411727050e+000	 1.7855192573e+000	 5.5049462968e-002
 4.4219698423e+000	 1.8325603744e+000	 3.6815025699e-002
 4.4022265347e+000	 1.8794938316e+000	 1.8895003860e-002
 4.6008812238e+000	 1.4142124673e+000	 2.0549314707e-001
 4.5858999819e+000	 1.4620623764e+000	 1.8597737939e-001
 4.5703812139e+000	 1.5098744685e+000	 1.6632285946e-001
 4.5543235508e+000	 1.5576401519e+000	 1.4667157336e-001
 4.5377257974e+000	 1.6053507651e+000	 1.2714666522e-001
 4.5205869353e+000	 1.6529975813e+000	 1.0784963860e-001
 4.5029061259e+000	 1.7005718123e+000	 8.8857692754e-002
 4.4846827126e+000	 1.7480646132e+000	 7.0221193970e-002
 4.4659162237e+000	 1.7954670869e+000	 5.1961277071e-002
 4.4466063743e+000	 1.8427702886e+000	 3.4067567188e-002
 4.4267530690e+000	 1.8899652304e+000	 1.6496006976e-002
 4.6263724493e+000	 1.4220479247e+000	 2.0194587569e-001
 4.6113082037e+000	 1.4701629467e+000	 1.8246410360e-001
 4.5957034539e+000	 1.5182399422e+000	 1.6288725025e-001
 4.5795568231e+000	 1.5662702718e+000	 1.4335644087e-001
 4.5628671097e+000	 1.6142452261e+000	 1.2399249862e-001
 4.5456332896e+000	 1.6621560298e+000	 1.0489311972e-001
 4.5278545195e+000	 1.7099938463e+000	 8.6130208116e-002
 4.5095301392e+000	 1.7577497816e+000	 6.7747370017e-002
 4.4906596744e+000	 1.8054148891e+000	 4.9757562818e-002
 4.4712428386e+000	 1.8529801746e+000	 3.2140888113e-002
 4.4512795359e+000	 1.9004366005e+000	 1.4842512905e-002
 4.6518635601e+000	 1.4298833469e+000	 1.9881887563e-001
 4.6367163112e+000	 1.4782634806e+000	 1.7957732076e-001
 4.6210255799e+000	 1.5266053782e+000	 1.6022576664e-001
 4.6047899819e+000	 1.5749003528e+000	 1.4091267389e-001
 4.5880083088e+000	 1.6231396470e+000	 1.2176359152e-001
 4.5706795311e+000	 1.6713144372e+000	 1.0287827937e-001
 4.5528028008e+000	 1.7194158380e+000	 8.4328017659e-002
 4.5343774540e+000	 1.7674349064e+000	 6.6153103677e-002
 4.5154030137e+000	 1.8153626466e+000	 4.8360530090e-002
 4.4958791920e+000	 1.8631900147e+000	 3.0921833859e-002
 4.4758058924e+000	 1.9109079234e+000	 1.3771099051e-002
 4.6773545116e+000	 1.4377187201e+000	 1.9589750174e-001
 4.6621242599e+000	 1.4863639638e+000	 1.7707632514e-001
 4.6463475476e+000	 1.5349707619e+000	 1.5816254583e-001
 4.6300229829e+000	 1.5835303799e+000	 1.3921550444e-001
 4.6131493509e+000	 1.6320340123e+000	 1.2037238580e-001
 4.5957256162e+000	 1.6804727874e+000	 1.0174075331e-001
 4.5777509262e+000	 1.7288377708e+000	 8.3395810067e-002
 4.5592246135e+000	 1.7771199706e+000	 6.5377877391e-002
 4.5401461984e+000	 1.8253103419e+000	 4.7690084861e-002
 4.5205153914e+000	 1.8733997910e+000	 3.0296260434e-002
 4.5003320956e+000	 1.9213791809e+000	 1.3119003040e-002
 4.7028452592e+000	 1.4455540306e+000	 1.9384427539e-001
 4.6875320053e+000	 1.4944643822e+000	 1.7509716219e-001
 4.6716693128e+000	 1.5433360787e+000	 1.5653788349e-001
 4.6552557821e+000	 1.5921603379e+000	 1.3813676226e-001
 4.6382901918e+000	 1.6409283065e+000	 1.1972758407e-001
 4.6207715009e+000	 1.6896310642e+000	 1.0141243255e-001
 4.6026988520e+000	 1.7382596282e+000	 8.3274855237e-002
 4.5840715742e+000	 1.7868049574e+000	 6.5358411536e-002
 4.5648891852e+000	 1.8352579576e+000	 4.7664357531e-002
 4.5451513938e+000	 1.8836094856e+000	 3.0149563087e-002
 4.5248581026e+000	 1.9318503547e+000	 1.2724643018e-002
 4.7283357583e+000	 1.4533892647e+000	 1.9280261248e-001
 4.7129395030e+000	 1.5025647216e+000	 1.7427626566e-001
 4.6969908311e+000	 1.5517013139e+000	 1.5588065403e-001
 4.6804883353e+000	 1.6007902118e+000	 1.3768586860e-001
 4.6634307876e+000	 1.6498225140e+000	 1.1973458838e-001
 4.6458171413e+000	 1.6987892518e+000	 1.0182193561e-001
 4.6276465346e+000	 1.7476813937e+000	 8.3903501922e-002
 4.6089182927e+000	 1.7964898498e+000	 6.6029179397e-002
 4.5896319307e+000	 1.8452054763e+000	 4.8200227029e-002
 4.5697871560e+000	 1.8938190807e+000	 3.0367201280e-002
 4.5493838705e+000	 1.9423214263e+000	 1.2428135195e-002
 4.7538259642e+000	 1.4612244087e+000	 1.9272729077e-001
 4.7383467086e+000	 1.5106649679e+000	 1.7465761569e-001
 4.7223120582e+000	 1.5600664530e+000	 1.5656529796e-001
 4.7057205984e+000	 1.6094199865e+000	 1.3853924486e-001
 4.6885710943e+000	 1.6587166192e+000	 1.2064188801e-001
 4.6708624938e+000	 1.7079473341e+000	 1.0290628419e-001
 4.6525939303e+000	 1.7571030509e+000	 8.5217670921e-002
 4.6337647254e+000	 1.8061746307e+000	 6.7322917718e-002
 4.6143743917e+000	 1.8551528806e+000	 4.9213840807e-002
 4.5944226349e+000	 1.9040285584e+000	 3.0835220155e-002
 4.5739093563e+000	 1.9527923776e+000	 1.2071808716e-002
 4.7793158324e+000	 1.4690594489e+000	 1.9357151184e-001
 4.7637535775e+000	 1.5187651069e+000	 1.7626537309e-001
 4.7476329498e+000	 1.5684314812e+000	 1.5867440291e-001
 4.7309525271e+000	 1.6180496468e+000	 1.4091292017e-001
 4.7137110679e+000	 1.6676106065e+000	 1.2306171072e-001
 4.6959075144e+000	 1.7171052950e+000	 1.0516502436e-001
 4.6775409954e+000	 1.7665245833e+000	 8.7227274577e-002
 4.6586108290e+000	 1.8158592834e+000	 6.9171132976e-002
 4.6391165248e+000	 1.8651001532e+000	 5.0621130862e-002
 4.6190577873e+000	 1.9142379008e+000	 3.1440768553e-002
 4.5984345172e+000	 1.9632631901e+000	 1.1500717918e-002
 4.3531734355e+000	 1.8585510208e+000	 2.6583356013e-002
 4.3331188442e+000	 1.9048392375e+000	 7.6103591751e-003
 4.3125303724e+000	 1.9510032508e+000	-1.2754302368e-002
 4.2914084996e+000	 1.9970341310e+000	-3.5160390639e-002
 4.2697538987e+000	 2.0429229261e+000	-5.8686957794e-002
 4.2475674374e+000	 2.0886606667e+000	-8.1644941326e-002
 4.2248501796e+000	 2.1342383709e+000	-1.0421621562e-001
 4.2016033865e+000	 2.1796470501e+000	-1.2660312047e-001
 4.1778285178e+000	 2.2248777138e+000	-1.4902169392e-001
 4.1535272320e+000	 2.2699213753e+000	-1.7170213132e-001
 4.1287013875e+000	 2.3147690567e+000	-1.9488915206e-001
 4.3776999759e+000	 1.8690224222e+000	 2.2203063267e-002
 4.3575323935e+000	 1.9155714349e+000	 3.5490139520e-003
 4.3368279227e+000	 1.9619955443e+000	-1.6497473690e-002
 4.3155870456e+000	 2.0082857706e+000	-3.8499729375e-002
 4.2938104388e+000	 2.0544331112e+000	-6.0918997167e-002
 4.2714989751e+000	 2.1004285461e+000	-8.2891502024e-002
 4.2486537243e+000	 2.1462630431e+000	-1.0458971615e-001
 4.2252759548e+000	 2.1919275628e+000	-1.2620094263e-001
 4.2013671343e+000	 2.2374130640e+000	-1.4792790618e-001
 4.1769289308e+000	 2.2827105093e+000	-1.6998924996e-001
 4.1519632131e+000	 2.3278108704e+000	-1.9261993506e-001
 4.4022265347e+000	 1.8794938316e+000	 1.8895003860e-002
 4.3819459612e+000	 1.9263036403e+000	 5.9032611285e-004
 4.3611254912e+000	 1.9729878461e+000	-1.9124841756e-002
 4.3397656097e+000	 2.0195374185e+000	-4.0570747356e-002
 4.3178669970e+000	 2.0659433048e+000	-6.2025897533e-002
 4.2954305308e+000	 2.1121964344e+000	-8.3164295380e-002
 4.2724572869e+000	 2.1582877244e+000	-1.0413788138e-001
 4.2489485408e+000	 2.2042080846e+000	-1.2511433941e-001
 4.2249057684e+000	 2.2499484235e+000	-1.4627772882e-001
 4.2003306471e+000	 2.2954996529e+000	-1.6782901899e-001
 4.1752250562e+000	 2.3408526939e+000	-1.8998652278e-001
 4.4267530690e+000	 1.8899652304e+000	 1.6496006976e-002
 4.4063595044e+000	 1.9370358350e+000	-1.4858468082e-003
 4.3854230354e+000	 1.9839801368e+000	-2.0904689317e-002
 4.3639441496e+000	 2.0307890552e+000	-4.1726155267e-002
 4.3419235312e+000	 2.0774534870e+000	-6.2386115071e-002
 4.3193620626e+000	 2.1239643109e+000	-8.2851727842e-002
 4.2962608257e+000	 2.1703123936e+000	-1.0325064582e-001
 4.2726211032e+000	 2.2164885942e+000	-1.2372641741e-001
 4.2484443790e+000	 2.2624837705e+000	-1.4443915927e-001
 4.2237323400e+000	 2.3082887837e+000	-1.6556612870e-001
 4.1984868760e+000	 2.3538945043e+000	-1.8730219225e-001
 4.4512795359e+000	 1.9004366005e+000	 1.4842512905e-002
 4.4307729805e+000	 1.9477680002e+000	-2.8982873528e-003
 4.4097205128e+000	 1.9949723973e+000	-2.2102383559e-002
 4.3881226230e+000	 2.0420406610e+000	-4.2314084857e-002
 4.3659799992e+000	 2.0889636375e+000	-6.2365511605e-002
 4.3432935286e+000	 2.1357321551e+000	-8.2329112969e-002
 4.3200642991e+000	 2.1823370297e+000	-1.0230455280e-001
 4.2962936004e+000	 2.2287690700e+000	-1.2240679235e-001
 4.2719829249e+000	 2.2750190830e+000	-1.4276680129e-001
 4.2471339687e+000	 2.3210778793e+000	-1.6353216778e-001
 4.2217486319e+000	 2.3669362788e+000	-1.8486760370e-001
 4.4758058924e+000	 1.9109079234e+000	 1.3771099051e-002
 4.4551863468e+000	 1.9585001171e+000	-3.8639041431e-003
 4.4340178809e+000	 2.0059646084e+000	-2.2964031605e-002
 4.4123009877e+000	 2.0532922162e+000	-4.2670818999e-002
 4.3900363589e+000	 2.1004737362e+000	-6.2317417396e-002
 4.3672248869e+000	 2.1474999463e+000	-8.1958746266e-002
 4.3438676654e+000	 2.1943616118e+000	-1.0166283590e-001
 4.3199659911e+000	 2.2410494906e+000	-1.2151167183e-001
 4.2955213649e+000	 2.2875543391e+000	-1.4160194357e-001
 4.2705354920e+000	 2.3338669174e+000	-1.6204569255e-001
 4.2450102831e+000	 2.3799779947e+000	-1.8297085513e-001
 4.5003320956e+000	 1.9213791809e+000	 1.3119003040e-002
 4.4795995605e+000	 1.9692321670e+000	-4.5972197617e-003
 4.4583150972e+000	 2.0169567508e+000	-2.3682603413e-002
 4.4364792012e+000	 2.0645437010e+000	-4.3120837586e-002
 4.4140925684e+000	 2.1119837630e+000	-6.2582694014e-002
 4.3911560956e+000	 2.1592676640e+000	-8.2089979758e-002
 4.3676708828e+000	 2.2063861187e+000	-1.0167550000e-001
 4.3436382339e+000	 2.2533298344e+000	-1.2138393755e-001
 4.3190596578e+000	 2.3000895169e+000	-1.4127263812e-001
 4.2939368690e+000	 2.3466558755e+000	-1.6141229626e-001
 4.2682717890e+000	 2.3930196291e+000	-1.8188753749e-001
 4.5248581026e+000	 1.9318503547e+000	 1.2724643018e-002
 4.5040125789e+000	 1.9799641309e+000	-5.3098604684e-003
 4.4826121190e+000	 2.0279488052e+000	-2.4534615499e-002
 4.4606572214e+000	 2.0757950959e+000	-4.3976864001e-002
 4.4381485853e+000	 2.1234936977e+000	-6.3489797295e-002
 4.4150871129e+000	 2.1710352875e+000	-8.3059296318e-002
 4.3914739099e+000	 2.2184105294e+000	-1.0267940194e-001
 4.3673102874e+000	 2.2656100800e+000	-1.2235322724e-001
 4.3425977623e+000	 2.3126245944e+000	-1.4209377837e-001
 4.3173380589e+000	 2.3594447314e+000	-1.6192467849e-001
 4.2915331087e+000	 2.4060611591e+000	-1.8188079045e-001
 4.5493838705e+000	 1.9423214263e+000	 1.2428135195e-002
 4.5284253593e+000	 1.9906959903e+000	-6.2100477199e-003
 4.5069089040e+000	 2.0389407525e+000	-2.5798414482e-002
 4.4848350058e+000	 2.0870463810e+000	-4.5539912152e-002
 4.4622043678e+000	 2.1350035202e+000	-6.5354840375e-002
 4.4390178969e+000	 2.1828027963e+000	-8.5190383774e-002
 4.4152767049e+000	 2.2304348228e+000	-1.0499833071e-001
 4.3909821100e+000	 2.2778902058e+000	-1.2473601616e-001
 4.3661356374e+000	 2.3251595497e+000	-1.4436717709e-001
 4.3407390206e+000	 2.3722334625e+000	-1.6386271469e-001
 4.3147942016e+000	 2.4191025620e+000	-1.8320135882e-001
 4.5739093563e+000	 1.9527923776e+000	 1.2071808716e-002
 4.5528378589e+000	 2.0014277262e+000	-7.5016234726e-003
 4.5312054096e+000	 2.0499325734e+000	-2.7741479956e-002
 4.5090125121e+000	 2.0982975368e+000	-4.8099334068e-002
 4.4862598736e+000	 2.1465132103e+000	-6.8481656844e-002
 4.4629484056e+000	 2.1945701698e+000	-8.8794208816e-002
 4.4390792262e+000	 2.2424589780e+000	-1.0894308740e-001
 4.4146536604e+000	 2.2901701905e+000	-1.2883569824e-001
 4.3896732418e+000	 2.3376943608e+000	-1.4838164416e-001
 4.3641397131e+000	 2.3850220466e+000	-1.6749352582e-001
 4.3380550271e+000	 2.4321438149e+000	-1.8608764943e-001
 4.5984345172e+000	 1.9632631901e+000	 1.1500717918e-002
 4.5772500350e+000	 2.0121593200e+000	-9.3572675544e-003
 4.5555015932e+000	 2.0609242486e+000	-3.0620452855e-002
 4.5331896981e+000	 2.1095485434e+000	-5.1932868032e-002
 4.5103150606e+000	 2.1580227479e+000	-7.3161863987e-002
 4.4868785973e+000	 2.2063373874e+000	-9.4169090719e-002
 4.4628814320e+000	 2.2544829739e+000	-1.1481156477e-001
 4.4383248971e+000	 2.3024500124e+000	-1.3494266700e-001
 4.4132105343e+000	 2.3502290059e+000	-1.5441306413e-001
 4.3875400957e+000	 2.3978104613e+000	-1.7307154816e-001
 4.3613155443e+000	 2.4451848950e+000	-1.9076578869e-001
 4.1287013875e+000	 2.3147690567e+000	-1.9488915206e-001
 4.1033492018e+000	 2.3594184767e+000	-2.1773870498e-001
 4.0774766229e+000	 2.4038539472e+000	-2.3905704571e-001
 4.0510861151e+000	 2.4480665494e+000	-2.5861427198e-001
 4.0241803434e+000	 2.4920473954e+000	-2.7621905261e-001
 3.9967621731e+000	 2.5357876342e+000	-2.9173454149e-001
 3.9688346697e+000	 2.5792784569e+000	-3.0637343544e-001
 3.9404010980e+000	 2.6225111028e+000	-3.2093672753e-001
 3.9114649214e+000	 2.6654768645e+000	-3.3536363722e-001
 3.8820298008e+000	 2.7081670937e+000	-3.4934981321e-001
 3.8520995936e+000	 2.7505732069e+000	-3.6224315181e-001
 4.1519632131e+000	 2.3278108704e+000	-1.9261993506e-001
 4.1264681888e+000	 2.3727118530e+000	-2.1509488366e-001
 4.1004498393e+000	 2.4173976808e+000	-2.3633718147e-001
 4.0739106427e+000	 2.4618593845e+000	-2.5610323562e-001
 4.0468532792e+000	 2.5060880263e+000	-2.7418555763e-001
 4.0192806301e+000	 2.5500747052e+000	-2.9041375352e-001
 3.9911957783e+000	 2.5938105628e+000	-3.0475938160e-001
 3.9626020069e+000	 2.6372867889e+000	-3.1867044391e-001
 3.9335027988e+000	 2.6804946273e+000	-3.3259158080e-001
 3.9039018356e+000	 2.7234253807e+000	-3.4614443134e-001
 3.8738029964e+000	 2.7660704174e+000	-3.5875466277e-001
 4.1752250562e+000	 2.3408526939e+000	-1.8998652278e-001
 4.1495871931e+000	 2.3860052393e+000	-2.1211737780e-001
 4.1234230729e+000	 2.4309414244e+000	-2.3324671658e-001
 4.0967351875e+000	 2.4756522299e+000	-2.5312807684e-001
 4.0695262320e+000	 2.5201286676e+000	-2.7154901178e-001
 4.0417991041e+000	 2.5643617869e+000	-2.8833205107e-001
 4.0135569037e+000	 2.6083426796e+000	-3.0333553879e-001
 3.9848029324e+000	 2.6520624862e+000	-3.1674674921e-001
 3.9555406927e+000	 2.6955124013e+000	-3.3004700605e-001
 3.9257738867e+000	 2.7386836792e+000	-3.4309571657e-001
 3.8955064154e+000	 2.7815676394e+000	-3.5536526383e-001
 4.1984868760e+000	 2.3538945043e+000	-1.8730219225e-001
 4.1727061744e+000	 2.3992986122e+000	-2.0908638263e-001
 4.1463962835e+000	 2.4444851546e+000	-2.3003735557e-001
 4.1195597094e+000	 2.4894450615e+000	-2.4991641255e-001
 4.0921991621e+000	 2.5341692950e+000	-2.6851715470e-001
 4.0643175555e+000	 2.5786488543e+000	-2.8566639708e-001
 4.0359180067e+000	 2.6228747818e+000	-3.0122495980e-001
 4.0070038358e+000	 2.6668381687e+000	-3.1508833671e-001
 3.9775785646e+000	 2.7105301604e+000	-3.2772963977e-001
 3.9476459161e+000	 2.7539419624e+000	-3.4019757731e-001
 3.9172098127e+000	 2.7970648460e+000	-3.5206559365e-001
 4.2217486319e+000	 2.3669362788e+000	-1.8486760370e-001
 4.1958250920e+000	 2.4125919487e+000	-2.0627001203e-001
 4.1693694310e+000	 2.4580288475e+000	-2.2694916997e-001
 4.1423841686e+000	 2.5032378552e+000	-2.4668459201e-001
 4.1148720299e+000	 2.5482098837e+000	-2.6528674515e-001
 4.0868359450e+000	 2.5929358824e+000	-2.8259789884e-001
 4.0582790482e+000	 2.6374068441e+000	-2.9849285082e-001
 4.0292046781e+000	 2.6816138106e+000	-3.1288353928e-001
 3.9996163759e+000	 2.7255478781e+000	-3.2564701632e-001
 3.9695178853e+000	 2.7692002036e+000	-3.3745107814e-001
 3.9389131504e+000	 2.8125620100e+000	-3.4885291213e-001
 4.2450102831e+000	 2.3799779947e+000	-1.8297085513e-001
 4.2189439057e+000	 2.4258852253e+000	-2.0392433720e-001
 4.1923424751e+000	 2.4715724794e+000	-2.2421062330e-001
 4.1652085251e+000	 2.5170305868e+000	-2.4363771055e-001
 4.1375447957e+000	 2.5622504092e+000	-2.6204356560e-001
 4.1093542332e+000	 2.6072228463e+000	-2.7929689287e-001
 4.0806399892e+000	 2.6519388410e+000	-2.9529777690e-001
 4.0514054205e+000	 2.6963893859e+000	-3.1000483089e-001
 4.0216540881e+000	 2.7405655283e+000	-3.2329499490e-001
 3.9913897560e+000	 2.7844583762e+000	-3.3486358986e-001
 3.9606163904e+000	 2.8280591043e+000	-3.4573024348e-001
 4.2682717890e+000	 2.3930196291e+000	-1.8188753749e-001
 4.2420625748e+000	 2.4391784189e+000	-2.0229342630e-001
 4.2153153756e+000	 2.4851160267e+000	-2.2203859771e-001
 4.1880327389e+000	 2.5308232322e+000	-2.4096962532e-001
 4.1602174198e+000	 2.5762908470e+000	-2.5896242916e-001
 4.1318723806e+000	 2.6215097208e+000	-2.7592294512e-001
 4.1030007903e+000	 2.6664707471e+000	-2.9178766546e-001
 4.0736060241e+000	 2.7111648690e+000	-3.0660452591e-001
 4.0436916625e+000	 2.7555830846e+000	-3.2021552885e-001
 4.0132614901e+000	 2.7997164535e+000	-3.3226218301e-001
 3.9823194948e+000	 2.8435561017e+000	-3.4270552174e-001
 4.2915331087e+000	 2.4060611591e+000	-1.8188079045e-001
 4.2651810590e+000	 2.4524715061e+000	-2.0160938539e-001
 4.2382880923e+000	 2.4986594657e+000	-2.2063842221e-001
 4.2108567701e+000	 2.5446157673e+000	-2.3886297298e-001
 4.1828898625e+000	 2.5903311725e+000	-2.5620718887e-001
 4.1543903479e+000	 2.6357964811e+000	-2.7262485361e-001
 4.1253614126e+000	 2.6810025370e+000	-2.8811536764e-001
 4.0958064502e+000	 2.7259402338e+000	-3.0282028061e-001
 4.0657290606e+000	 2.7706005208e+000	-3.1653721673e-001
 4.0351330492e+000	 2.8149744086e+000	-3.2895963068e-001
 4.0040224255e+000	 2.8590529751e+000	-3.3977441599e-001
 4.3147942016e+000	 2.4191025620e+000	-1.8320135882e-001
 4.2882993178e+000	 2.4657644637e+000	-2.0209240039e-001
 4.2612605851e+000	 2.5122027726e+000	-2.2020390237e-001
 4.2336805788e+000	 2.5584081679e+000	-2.3748918928e-001
 4.2055620842e+000	 2.6043713611e+000	-2.5393074906e-001
 4.1769080956e+000	 2.6500831021e+000	-2.6954065355e-001
 4.1477218169e+000	 2.6955341851e+000	-2.8442903234e-001
 4.1180066598e+000	 2.7407154546e+000	-2.9877553487e-001
 4.0877662438e+000	 2.7856178106e+000	-3.1237487881e-001
 4.0570043951e+000	 2.8302322150e+000	-3.2498392611e-001
 4.0257251447e+000	 2.8745496975e+000	-3.3635225048e-001
 4.3380550271e+000	 2.4321438149e+000	-1.8608764943e-001
 4.3114173107e+000	 2.4790572684e+000	-2.0395078007e-001
 4.2842328136e+000	 2.5257459238e+000	-2.2091735160e-001
 4.2565041250e+000	 2.5722004099e+000	-2.3700853058e-001
 4.2282340451e+000	 2.6184113882e+000	-2.5227507893e-001
 4.1994255844e+000	 2.6643695588e+000	-2.6679762479e-001
 4.1700819640e+000	 2.7100656662e+000	-2.8084968112e-001
 4.1402066141e+000	 2.7554905054e+000	-2.9457995649e-001
 4.1098031737e+000	 2.8006349276e+000	-3.0782984030e-001
 4.0788754894e+000	 2.8454898460e+000	-3.2043082849e-001
 4.0474276143e+000	 2.8900462416e+000	-3.3220667604e-001
 4.3613155443e+000	 2.4451848950e+000	-1.9076578869e-001
 4.3345349974e+000	 2.4923498970e+000	-2.0738100021e-001
 4.3072047378e+000	 2.5392888956e+000	-2.2294962384e-001
 4.2793273689e+000	 2.5859924692e+000	-2.3757009698e-001
 4.2509057056e+000	 2.6324512293e+000	-2.5137122813e-001
 4.2219427749e+000	 2.6786558262e+000	-2.6452807104e-001
 4.1924418148e+000	 2.7245969547e+000	-2.7748465669e-001
 4.1624062742e+000	 2.7702653605e+000	-2.9032988825e-001
 4.1318398115e+000	 2.8156518457e+000	-3.0299038634e-001
 4.1007462939e+000	 2.8607472748e+000	-3.1538327924e-001
 4.0691297963e+000	 2.9055425804e+000	-3.2741777500e-001
 3.8520995936e+000	 2.7505732069e+000	-3.6224315181e-001
 3.8216783512e+000	 2.7926866895e+000	-3.7403950281e-001
 3.7907703142e+000	 2.8344990990e+000	-3.8544683986e-001
 3.7593799139e+000	 2.8760020728e+000	-3.9689111851e-001
 3.7275117717e+000	 2.9171873346e+000	-4.0873888335e-001
 3.6951706969e+000	 2.9580467000e+000	-4.2130090365e-001
 3.6623616842e+000	 2.9985720814e+000	-4.3483707125e-001
 3.6290899118e+000	 3.0387554936e+000	-4.4956254893e-001
 3.5953607382e+000	 3.0785890587e+000	-4.6565514449e-001
 3.5611796998e+000	 3.1180650113e+000	-4.8326387294e-001
 3.5265525078e+000	 3.1571757036e+000	-5.0251865653e-001
 3.8738029964e+000	 2.7660704174e+000	-3.5875466277e-001
 3.8432103554e+000	 2.8084211747e+000	-3.7033017548e-001
 3.8121281771e+000	 2.8504691626e+000	-3.8149612668e-001
 3.7805609178e+000	 2.8922059714e+000	-3.9268665973e-001
 3.7485132249e+000	 2.9336232782e+000	-4.0427222741e-001
 3.7159899348e+000	 2.9747128524e+000	-4.1656324033e-001
 3.6829960704e+000	 3.0154665609e+000	-4.2981503786e-001
 3.6495368390e+000	 3.0558763735e+000	-4.4423416971e-001
 3.6156176293e+000	 3.0959343678e+000	-4.5998596345e-001
 3.5812440090e+000	 3.1356327349e+000	-4.7720333972e-001
 3.5464217214e+000	 3.1749637836e+000	-4.9599682348e-001
 3.8955064154e+000	 2.7815676394e+000	-3.5536526383e-001
 3.8647423757e+000	 2.8241556717e+000	-3.6669858016e-001
 3.8334860560e+000	 2.8664392382e+000	-3.7764096227e-001
 3.8017419376e+000	 2.9084098822e+000	-3.8862001048e-001
 3.7695146939e+000	 2.9500592341e+000	-3.9999524388e-001
 3.7368091883e+000	 2.9913790173e+000	-4.1206178774e-001
 3.7036304721e+000	 3.0323610531e+000	-4.2505544540e-001
 3.6699837815e+000	 3.0729972662e+000	-4.3915914336e-001
 3.6358745357e+000	 3.1132796900e+000	-4.5451072456e-001
 3.6013083333e+000	 3.1532004716e+000	-4.7121205089e-001
 3.5662909498e+000	 3.1927518770e+000	-4.8933936195e-001
 3.9172098127e+000	 2.7970648460e+000	-3.5206559365e-001
 3.8862743745e+000	 2.8398901530e+000	-3.6313428107e-001
 3.8548439135e+000	 2.8824092978e+000	-3.7387186852e-001
 3.8229229361e+000	 2.9246137768e+000	-3.8468502529e-001
 3.7905161418e+000	 2.9664951736e+000	-3.9590782725e-001
 3.7576284210e+000	 3.0080451656e+000	-4.0780550860e-001
 3.7242648531e+000	 3.0492555284e+000	-4.2057966246e-001
 3.6904307036e+000	 3.0901181418e+000	-4.3437487933e-001
 3.6561314218e+000	 3.1306249948e+000	-4.4928679816e-001
 3.6213726375e+000	 3.1707681908e+000	-4.6537153013e-001
 3.5861601584e+000	 3.2105399526e+000	-4.8265640098e-001
 3.9389131504e+000	 2.8125620100e+000	-3.4885291213e-001
 3.9078063141e+000	 2.8556245910e+000	-3.5963292687e-001
 3.8762017123e+000	 2.8983793136e+000	-3.7018491994e-001
 3.8441038765e+000	 2.9408176268e+000	-3.8088057983e-001
 3.8115175320e+000	 2.9829310679e+000	-3.9201435687e-001
 3.7784475965e+000	 3.0247112680e+000	-4.0380730436e-001
 3.7448991774e+000	 3.0661499572e+000	-4.1641243504e-001
 3.7108775695e+000	 3.1072389703e+000	-4.2992158248e-001
 3.6763882522e+000	 3.1479702519e+000	-4.4437374149e-001
 3.6414368865e+000	 3.1883358617e+000	-4.5976484714e-001
 3.6060293124e+000	 3.2283279793e+000	-4.7605893644e-001
 3.9606163904e+000	 2.8280591043e+000	-3.4573024348e-001
 3.9293381567e+000	 2.8713589582e+000	-3.5619538882e-001
 3.8975594150e+000	 2.9143492574e+000	-3.6658087886e-001
 3.8652847215e+000	 2.9570214039e+000	-3.7720970511e-001
 3.8325188277e+000	 2.9993668883e+000	-3.8832283257e-001
 3.7992666783e+000	 3.0413772954e+000	-4.0008315467e-001
 3.7655334089e+000	 3.0830443100e+000	-4.1258103250e-001
 3.7313243434e+000	 3.1243597218e+000	-4.2584140816e-001
 3.6966449914e+000	 3.1653154310e+000	-4.3983246599e-001
 3.6615010452e+000	 3.2059034535e+000	-4.5447580029e-001
 3.6258983769e+000	 3.2461159260e+000	-4.6965803222e-001
 3.9823194948e+000	 2.8435561017e+000	-3.4270552174e-001
 3.9508698649e+000	 2.8870932270e+000	-3.5282690132e-001
 3.9189169843e+000	 2.9303191015e+000	-3.6306433287e-001
 3.8864654342e+000	 2.9732250798e+000	-3.7367872392e-001
 3.8535199921e+000	 3.0158026059e+000	-3.8484401224e-001
 3.8200856300e+000	 3.0580432187e+000	-3.9665125852e-001
 3.7861675114e+000	 3.0999385572e+000	-4.0911439479e-001
 3.7517709895e+000	 3.1414803662e+000	-4.2217761840e-001
 3.7169016041e+000	 3.1826605016e+000	-4.3572440521e-001
 3.6815650786e+000	 3.2234709355e+000	-4.4958809940e-001
 3.6457673173e+000	 3.2639037614e+000	-4.6356402100e-001
 4.0040224255e+000	 2.8590529751e+000	-3.3977441599e-001
 3.9724014008e+000	 2.9028273700e+000	-3.4953620466e-001
 3.9402743827e+000	 2.9462888178e+000	-3.5964283435e-001
 3.9076459774e+000	 2.9894286260e+000	-3.7029638916e-001
 3.8745209886e+000	 3.0322381921e+000	-3.8159055118e-001
 3.8409044151e+000	 3.0747090086e+000	-3.9353117698e-001
 3.8068014488e+000	 3.1168326693e+000	-4.0604228108e-001
 3.7722174720e+000	 3.1586008738e+000	-4.1897373905e-001
 3.7371580547e+000	 3.2000054335e+000	-4.3211068336e-001
 3.7016289514e+000	 3.2410382770e+000	-4.4518454851e-001
 3.6656360987e+000	 3.2816914546e+000	-4.5788570453e-001
 4.0257251447e+000	 2.8745496975e+000	-3.3635225048e-001
 3.9939327267e+000	 2.9185613596e+000	-3.4633469001e-001
 3.9616315728e+000	 2.9622583784e+000	-3.5632604220e-001
 3.9288263141e+000	 3.0056320142e+000	-3.6707302429e-001
 3.8955217803e+000	 3.0486736180e+000	-3.7857614343e-001
 3.8617229972e+000	 3.0913746361e+000	-3.9074297761e-001
 3.8274351851e+000	 3.1337266166e+000	-4.0339441977e-001
 3.7926637552e+000	 3.1757212144e+000	-4.1627271796e-001
 3.7574143078e+000	 3.2173501963e+000	-4.2905128446e-001
 3.7216926286e+000	 3.2586054472e+000	-4.4134622898e-001
 3.6855046864e+000	 3.2994789744e+000	-4.5272955358e-001
 4.0474276143e+000	 2.8900462416e+000	-3.3220667604e-001
 4.0154638050e+000	 2.9342951683e+000	-3.4301122387e-001
 3.9829885173e+000	 2.9782277553e+000	-3.5312486574e-001
 3.9500064073e+000	 3.0218352162e+000	-3.6401966575e-001
 3.9165223304e+000	 3.0651088549e+000	-3.7581466477e-001
 3.8825413400e+000	 3.1080400719e+000	-3.8830638043e-001
 3.8480686841e+000	 3.1506203697e+000	-4.0119965978e-001
 3.8131098033e+000	 3.1928413581e+000	-4.1411608422e-001
 3.7776703279e+000	 3.2346947597e+000	-4.2660422208e-001
 3.7417560751e+000	 3.2761724154e+000	-4.3815168266e-001
 3.7053730457e+000	 3.3172662896e+000	-4.4819890759e-001
 4.0691297963e+000	 2.9055425804e+000	-3.2741777500e-001
 4.0369945981e+000	 2.9500287685e+000	-3.3899857223e-001
 4.0043451789e+000	 2.9941969207e+000	-3.5003373570e-001
 3.9711862198e+000	 3.0380382034e+000	-3.6114720735e-001
 3.9375226023e+000	 3.0815438740e+000	-3.7331931769e-001
 3.9033594069e+000	 3.1247052869e+000	-3.8623990558e-001
 3.8687019096e+000	 3.1675138990e+000	-3.9948512327e-001
 3.8335555804e+000	 3.2099612749e+000	-4.1254310842e-001
 3.7979260797e+000	 3.2520390932e+000	-4.2482470993e-001
 3.7618192558e+000	 3.2937391508e+000	-4.3567609543e-001
 3.7252411416e+000	 3.3350533691e+000	-4.4439703787e-001
 3.5265525078e+000	 3.1571757036e+000	-5.0251865653e-001
 3.4914903382e+000	 3.1959078285e+000	-5.2133711881e-001
 3.4559940813e+000	 3.2342598873e+000	-5.3573788282e-001
 3.4200699536e+000	 3.2722246200e+000	-5.4303738842e-001
 3.3837243325e+000	 3.3097949028e+000	-5.4063635579e-001
 3.3469637528e+000	 3.3469637528e+000	-5.2644638834e-001
 3.3097949028e+000	 3.3837243325e+000	-5.0740877157e-001
 3.2722246200e+000	 3.4200699536e+000	-4.9937371681e-001
 3.2342598873e+000	 3.4559940813e+000	-4.9932641620e-001
 3.1959078285e+000	 3.4914903382e+000	-5.0244567134e-001
 3.1571757036e+000	 3.5265525078e+000	-5.0389338266e-001
 3.5464217214e+000	 3.1749637836e+000	-4.9599682348e-001
 3.5111620053e+000	 3.2139141321e+000	-5.1454133261e-001
 3.4754657564e+000	 3.2524822731e+000	-5.2917703172e-001
 3.4393392258e+000	 3.2906609057e+000	-5.3729236794e-001
 3.4027888272e+000	 3.3284428661e+000	-5.3635646543e-001
 3.3658211319e+000	 3.3658211319e+000	-5.2619387554e-001
 3.3284428661e+000	 3.4027888272e+000	-5.0847095237e-001
 3.2906609057e+000	 3.4393392258e+000	-4.9548516921e-001
 3.2524822731e+000	 3.4754657564e+000	-4.9202155651e-001
 3.2139141321e+000	 3.5111620053e+000	-4.9326936395e-001
 3.1749637836e+000	 3.5464217214e+000	-4.9440276518e-001
 3.5662909498e+000	 3.1927518770e+000	-4.8933936195e-001
 3.5308336872e+000	 3.2319204492e+000	-5.0730264933e-001
 3.4949374460e+000	 3.2707046726e+000	-5.2176121980e-001
 3.4586085125e+000	 3.3090972053e+000	-5.3019028929e-001
 3.4218533361e+000	 3.3470908433e+000	-5.3052667188e-001
 3.3846785252e+000	 3.3846785252e+000	-5.2475647158e-001
 3.3470908433e+000	 3.4218533361e+000	-5.1205798645e-001
 3.3090972053e+000	 3.4586085125e+000	-4.9516636348e-001
 3.2707046726e+000	 3.4949374460e+000	-4.8776135615e-001
 3.2319204492e+000	 3.5308336872e+000	-4.8664267626e-001
 3.1927518770e+000	 3.5662909498e+000	-4.8700739887e-001
 3.5861601584e+000	 3.2105399526e+000	-4.8265640098e-001
 3.5505053495e+000	 3.2499267483e+000	-4.9976142392e-001
 3.5144091162e+000	 3.2889270539e+000	-5.1365948232e-001
 3.4778777799e+000	 3.3275334865e+000	-5.2192705178e-001
 3.4409178260e+000	 3.3657388020e+000	-5.2428383295e-001
 3.4035358996e+000	 3.4035358996e+000	-5.2226014984e-001
 3.3657388020e+000	 3.4409178260e+000	-5.1405269382e-001
 3.3275334865e+000	 3.4778777799e+000	-4.9810347040e-001
 3.2889270539e+000	 3.5144091162e+000	-4.8624480695e-001
 3.2499267483e+000	 3.5505053495e+000	-4.8227243789e-001
 3.2105399526e+000	 3.5861601584e+000	-4.8141659113e-001
 3.6060293124e+000	 3.2283279793e+000	-4.7605893644e-001
 3.5701769576e+000	 3.2679329979e+000	-4.9205822216e-001
 3.5338807328e+000	 3.3071493850e+000	-5.0504050163e-001
 3.4971469943e+000	 3.3459697169e+000	-5.1299417667e-001
 3.4599822634e+000	 3.3843867093e+000	-5.1777725463e-001
 3.4223932221e+000	 3.4223932221e+000	-5.1882451871e-001
 3.3843867093e+000	 3.4599822634e+000	-5.1438846133e-001
 3.3459697169e+000	 3.4971469943e+000	-5.0277112781e-001
 3.3071493850e+000	 3.5338807328e+000	-4.8715959182e-001
 3.2679329979e+000	 3.5701769576e+000	-4.7985445930e-001
 3.2283279793e+000	 3.6060293124e+000	-4.7732887209e-001
 3.6258983769e+000	 3.2461159260e+000	-4.6965803222e-001
 3.5898484772e+000	 3.2859391665e+000	-4.8433304210e-001
 3.5533522618e+000	 3.3253716342e+000	-4.9607184833e-001
 3.5164161221e+000	 3.3644058644e+000	-5.0442482721e-001
 3.4790466151e+000	 3.4030345328e+000	-5.1110149394e-001
 3.4412504598e+000	 3.4412504598e+000	-5.1456316227e-001
 3.4030345328e+000	 3.4790466151e+000	-5.1319492453e-001
 3.3644058644e+000	 3.5164161221e+000	-5.0542841245e-001
 3.3253716342e+000	 3.5533522618e+000	-4.9018443372e-001
 3.2859391665e+000	 3.5898484772e+000	-4.7907590135e-001
 3.2461159260e+000	 3.6258983769e+000	-4.7443437969e-001
 3.6457673173e+000	 3.2639037614e+000	-4.6356402100e-001
 3.6095198739e+000	 3.3039452225e+000	-4.7672453434e-001
 3.5728236691e+000	 3.3435937694e+000	-4.8709474061e-001
 3.5356851293e+000	 3.3828418967e+000	-4.9635013398e-001
 3.4981108476e+000	 3.4216822397e+000	-5.0434571229e-001
 3.4601075796e+000	 3.4601075796e+000	-5.0958397814e-001
 3.4216822397e+000	 3.4981108476e+000	-5.1059579212e-001
 3.3828418967e+000	 3.5356851293e+000	-5.0595532515e-001
 3.3435937694e+000	 3.5728236691e+000	-4.9429465834e-001
 3.3039452225e+000	 3.6095198739e+000	-4.7961764079e-001
 3.2639037614e+000	 3.6457673173e+000	-4.7241724071e-001
 3.6656360987e+000	 3.2816914546e+000	-4.5788570453e-001
 3.6291911133e+000	 3.3219511345e+000	-4.6936922129e-001
 3.5922949207e+000	 3.3618157590e+000	-4.7904199131e-001
 3.5549539825e+000	 3.4012777815e+000	-4.8883309687e-001
 3.5171749276e+000	 3.4403297974e+000	-4.9759399452e-001
 3.4789645486e+000	 3.4789645486e+000	-5.0398951235e-001
 3.4403297974e+000	 3.5171749276e+000	-5.0670919473e-001
 3.4012777815e+000	 3.5549539825e+000	-5.0448245690e-001
 3.3618157590e+000	 3.5922949207e+000	-4.9609337976e-001
 3.3219511345e+000	 3.6291911133e+000	-4.8115663180e-001
 3.2816914546e+000	 3.6656360987e+000	-4.7095794776e-001
 3.6855046864e+000	 3.2994789744e+000	-4.5272955358e-001
 3.6488621608e+000	 3.3399568709e+000	-4.6246532854e-001
 3.6117659824e+000	 3.3800375708e+000	-4.7205705466e-001
 3.5742226478e+000	 3.4197134865e+000	-4.8193225829e-001
 3.5362388218e+000	 3.4589771734e+000	-4.9092566551e-001
 3.4978213337e+000	 3.4978213337e+000	-4.9787729150e-001
 3.4589771734e+000	 3.5362388218e+000	-5.0164803063e-001
 3.4197134865e+000	 3.5742226478e+000	-5.0113500364e-001
 3.3800375708e+000	 3.6117659824e+000	-4.9528653741e-001
 3.3399568709e+000	 3.6488621608e+000	-4.8311665661e-001
 3.2994789744e+000	 3.6855046864e+000	-4.6973573217e-001
 3.7053730457e+000	 3.3172662896e+000	-4.4819890759e-001
 3.6685329821e+000	 3.3579624003e+000	-4.5679744386e-001
 3.6312368202e+000	 3.3982591731e+000	-4.6617152685e-001
 3.5934910915e+000	 3.4381489796e+000	-4.7570200058e-001
 3.5553024967e+000	 3.4776243349e+000	-4.8441560457e-001
 3.5166779020e+000	 3.5166779020e+000	-4.9134015224e-001
 3.4776243349e+000	 3.5553024967e+000	-4.9552030849e-001
 3.4381489796e+000	 3.5934910915e+000	-4.9603312023e-001
 3.3982591731e+000	 3.6312368202e+000	-4.9200317195e-001
 3.3579624003e+000	 3.6685329821e+000	-4.8261724214e-001
 3.3172662896e+000	 3.7053730457e+000	-4.6843093297e-001
 3.7252411416e+000	 3.3350533691e+000	-4.4439703787e-001
 3.6882035428e+000	 3.3759676911e+000	-4.5256507241e-001
 3.6507074000e+000	 3.4164805340e+000	-4.6141344483e-001
 3.6127592798e+000	 3.4565842284e+000	-4.7019284165e-001
 3.5743659190e+000	 3.4962712493e+000	-4.7813455745e-001
 3.5355342204e+000	 3.5355342204e+000	-4.8446656809e-001
 3.4962712493e+000	 3.5743659190e+000	-4.8842948712e-001
 3.4565842284e+000	 3.6127592798e+000	-4.8929227125e-001
 3.4164805340e+000	 3.6507074000e+000	-4.8636754297e-001
 3.3759676911e+000	 3.6882035428e+000	-4.7902640286e-001
 3.3350533691e+000	 3.7252411416e+000	-4.6671260869e-001
 3.1571757036e+000	 3.5265525078e+000	-5.0389338266e-001
 3.1180650113e+000	 3.5611796998e+000	-5.0430150572e-001
 3.0785890587e+000	 3.5953607382e+000	-5.0681800606e-001
 3.0387554936e+000	 3.6290899118e+000	-5.1044865373e-001
 2.9985720814e+000	 3.6623616842e+000	-5.1429614256e-001
 2.9580467000e+000	 3.6951706969e+000	-5.1760795245e-001
 2.9171873346e+000	 3.7275117717e+000	-5.1981984392e-001
 2.8760020728e+000	 3.7593799139e+000	-5.2059468723e-001
 2.8344990990e+000	 3.7907703142e+000	-5.1985637603e-001
 2.7926866895e+000	 3.8216783512e+000	-5.1781862400e-001
 2.7505732069e+000	 3.8520995936e+000	-5.1500849286e-001
 3.1749637836e+000	 3.5464217214e+000	-4.9440276518e-001
 3.1356327349e+000	 3.5812440090e+000	-4.9538010816e-001
 3.0959343678e+000	 3.6156176293e+000	-4.9858883563e-001
 3.0558763735e+000	 3.6495368390e+000	-5.0292938155e-001
 3.0154665609e+000	 3.6829960704e+000	-5.0741372844e-001
 2.9747128524e+000	 3.7159899348e+000	-5.1121495896e-001
 2.9336232782e+000	 3.7485132249e+000	-5.1371222704e-001
 2.8922059714e+000	 3.7805609178e+000	-5.1453084171e-001
 2.8504691626e+000	 3.8121281771e+000	-5.1357720610e-001
 2.8084211747e+000	 3.8432103554e+000	-5.1106840496e-001
 2.7660704174e+000	 3.8738029964e+000	-5.0755628535e-001
 3.1927518770e+000	 3.5662909498e+000	-4.8700739887e-001
 3.1532004716e+000	 3.6013083333e+000	-4.8817382962e-001
 3.1132796900e+000	 3.6358745357e+000	-4.9178179216e-001
 3.0729972662e+000	 3.6699837815e+000	-4.9660699531e-001
 3.0323610531e+000	 3.7036304721e+000	-5.0155273073e-001
 2.9913790173e+000	 3.7368091883e+000	-5.0570118954e-001
 2.9500592341e+000	 3.7695146939e+000	-5.0835997655e-001
 2.9084098822e+000	 3.8017419376e+000	-5.0910350585e-001
 2.8664392382e+000	 3.8334860560e+000	-5.0780901289e-001
 2.8241556717e+000	 3.8647423757e+000	-5.0468697041e-001
 2.7815676394e+000	 3.8955064154e+000	-5.0030574983e-001
 3.2105399526e+000	 3.5861601584e+000	-4.8141659113e-001
 3.1707681908e+000	 3.6213726375e+000	-4.8239395652e-001
 3.1306249948e+000	 3.6561314218e+000	-4.8611488702e-001
 3.0901181418e+000	 3.6904307036e+000	-4.9121121635e-001
 3.0492555284e+000	 3.7242648531e+000	-4.9645982948e-001
 3.0080451656e+000	 3.7576284210e+000	-5.0083582044e-001
 2.9664951736e+000	 3.7905161418e+000	-5.0356061673e-001
 2.9246137768e+000	 3.8229229361e+000	-5.0414474421e-001
 2.8824092978e+000	 3.8548439135e+000	-5.0242495956e-001
 2.8398901530e+000	 3.8862743745e+000	-4.9859553248e-001
 2.7970648460e+000	 3.9172098127e+000	-4.9323351516e-001
 3.2283279793e+000	 3.6060293124e+000	-4.7732887209e-001
 3.1883358617e+000	 3.6414368865e+000	-4.7774107821e-001
 3.1479702519e+000	 3.6763882522e+000	-4.8129523176e-001
 3.1072389703e+000	 3.7108775695e+000	-4.8646037112e-001
 3.0661499572e+000	 3.7448991774e+000	-4.9186951368e-001
 3.0247112680e+000	 3.7784475965e+000	-4.9637473199e-001
 2.9829310679e+000	 3.8115175320e+000	-4.9909695578e-001
 2.9408176268e+000	 3.8441038765e+000	-4.9947016374e-001
 2.8983793136e+000	 3.8762017123e+000	-4.9727968417e-001
 2.8556245910e+000	 3.9078063141e+000	-4.9269438073e-001
 2.8125620100e+000	 3.9389131504e+000	-4.8629255726e-001
 3.2461159260e+000	 3.6258983769e+000	-4.7443437969e-001
 3.2059034535e+000	 3.6615010452e+000	-4.7390748564e-001
 3.1653154310e+000	 3.6966449914e+000	-4.7702145159e-001
 3.1243597218e+000	 3.7313243434e+000	-4.8206382067e-001
 3.0830443100e+000	 3.7655334089e+000	-4.8750652846e-001
 3.0413772954e+000	 3.7992666783e+000	-4.9206297520e-001
 2.9993668883e+000	 3.8325188277e+000	-4.9473957346e-001
 2.9570214039e+000	 3.8652847215e+000	-4.9488142473e-001
 2.9143492574e+000	 3.8975594150e+000	-4.9221183594e-001
 2.8713589582e+000	 3.9293381567e+000	-4.8686544612e-001
 2.8280591043e+000	 3.9606163904e+000	-4.7941479338e-001
 3.2639037614e+000	 3.6457673173e+000	-4.7241724071e-001
 3.2234709355e+000	 3.6815650786e+000	-4.7057956582e-001
 3.1826605016e+000	 3.7169016041e+000	-4.7298609441e-001
 3.1414803662e+000	 3.7517709895e+000	-4.7772438556e-001
 3.0999385572e+000	 3.7861675114e+000	-4.8308831714e-001
 3.0580432187e+000	 3.8200856300e+000	-4.8763723252e-001
 3.0158026059e+000	 3.8535199921e+000	-4.9024930234e-001
 2.9732250798e+000	 3.8864654342e+000	-4.9016874424e-001
 2.9303191015e+000	 3.9189169843e+000	-4.8704660301e-001
 2.8870932270e+000	 3.9508698649e+000	-4.8097485532e-001
 2.8435561017e+000	 3.9823194948e+000	-4.7251366529e-001
 3.2816914546e+000	 3.6656360987e+000	-4.7095794776e-001
 3.2410382770e+000	 3.7016289514e+000	-4.6744019224e-001
 3.2000054335e+000	 3.7371580547e+000	-4.6887803556e-001
 3.1586008738e+000	 3.7722174720e+000	-4.7314076605e-001
 3.1168326693e+000	 3.8068014488e+000	-4.7832745817e-001
 3.0747090086e+000	 3.8409044151e+000	-4.8282827286e-001
 3.0322381921e+000	 3.8745209886e+000	-4.8537970250e-001
 2.9894286260e+000	 3.9076459774e+000	-4.8511339229e-001
 2.9462888178e+000	 3.9402743827e+000	-4.8159823196e-001
 2.9028273700e+000	 3.9724014008e+000	-4.7487547552e-001
 2.8590529751e+000	 4.0040224255e+000	-4.6549711160e-001
 3.2994789744e+000	 3.6855046864e+000	-4.6973573217e-001
 3.2586054472e+000	 3.7216926286e+000	-4.6417111109e-001
 3.2173501963e+000	 3.7574143078e+000	-4.6438487822e-001
 3.1757212144e+000	 3.7926637552e+000	-4.6800995768e-001
 3.1337266166e+000	 3.8274351851e+000	-4.7293409697e-001
 3.0913746361e+000	 3.8617229972e+000	-4.7736340104e-001
 3.0486736180e+000	 3.8955217803e+000	-4.7987952997e-001
 3.0056320142e+000	 3.9288263141e+000	-4.7949018085e-001
 2.9622583784e+000	 3.9616315728e+000	-4.7567253906e-001
 2.9185613596e+000	 3.9939327267e+000	-4.6840944997e-001
 2.8745496975e+000	 4.0257251447e+000	-4.5858769608e-001
 3.3172662896e+000	 3.7053730457e+000	-4.6843093297e-001
 3.2761724154e+000	 3.7417560751e+000	-4.6045532341e-001
 3.2346947597e+000	 3.7776703279e+000	-4.5919534954e-001
 3.1928413581e+000	 3.8131098033e+000	-4.6202966217e-001
 3.1506203697e+000	 3.8480686841e+000	-4.6661837271e-001
 3.1080400719e+000	 3.8825413400e+000	-4.7096890160e-001
 3.0651088549e+000	 3.9165223304e+000	-4.7349519886e-001
 3.0218352162e+000	 3.9500064073e+000	-4.7306994578e-001
 2.9782277553e+000	 3.9829885173e+000	-4.6906941366e-001
 2.9342951683e+000	 4.0154638050e+000	-4.6154677770e-001
 2.8900462416e+000	 4.0474276143e+000	-4.5166791157e-001
 3.3350533691e+000	 3.7252411416e+000	-4.6671260869e-001
 3.2937391508e+000	 3.7618192558e+000	-4.5597946309e-001
 3.2520390932e+000	 3.7979260797e+000	-4.5300169236e-001
 3.2099612749e+000	 3.8335555804e+000	-4.5490069379e-001
 3.1675138990e+000	 3.8687019096e+000	-4.5909284015e-001
 3.1247052869e+000	 3.9033594069e+000	-4.6337247713e-001
 3.0815438740e+000	 3.9375226023e+000	-4.6597323743e-001
 3.0380382034e+000	 3.9711862198e+000	-4.6562202182e-001
 2.9941969207e+000	 4.0043451789e+000	-4.6159596930e-001
 2.9500287685e+000	 4.0369945981e+000	-4.5440207169e-001
 2.9055425804e+000	 4.0691297963e+000	-4.4443060020e-001
 2.7505732069e+000	 3.8520995936e+000	-5.1500849286e-001
 2.7081670937e+000	 3.8820298008e+000	-5.0897913136e-001
 2.6654768645e+000	 3.9114649214e+000	-4.9657517344e-001
 2.6225111028e+000	 3.9404010980e+000	-4.7851468600e-001
 2.5792784569e+000	 3.9688346697e+000	-4.5654391778e-001
 2.5357876342e+000	 3.9967621731e+000	-4.3235372560e-001
 2.4920473954e+000	 4.0241803434e+000	-4.0819920840e-001
 2.4480665494e+000	 4.0510861151e+000	-3.8590819073e-001
 2.4038539472e+000	 4.0774766229e+000	-3.6613959421e-001
 2.3594184767e+000	 4.1033492018e+000	-3.4940815939e-001
 2.3147690567e+000	 4.1287013875e+000	-3.3610074566e-001
 2.7660704174e+000	 3.8738029964e+000	-5.0755628535e-001
 2.7234253807e+000	 3.9039018356e+000	-5.0097689904e-001
 2.6804946273e+000	 3.9335027988e+000	-4.8853328953e-001
 2.6372867889e+000	 3.9626020069e+000	-4.7063199220e-001
 2.5938105628e+000	 3.9911957783e+000	-4.4931436284e-001
 2.5500747052e+000	 4.0192806301e+000	-4.2663444410e-001
 2.5060880263e+000	 4.0468532792e+000	-4.0468399145e-001
 2.4618593845e+000	 4.0739106427e+000	-3.8419433205e-001
 2.4173976808e+000	 4.1004498393e+000	-3.6569468934e-001
 2.3727118530e+000	 4.1264681888e+000	-3.4958849572e-001
 2.3278108704e+000	 4.1519632131e+000	-3.3616067552e-001
 2.7815676394e+000	 3.8955064154e+000	-5.0030574983e-001
 2.7386836792e+000	 3.9257738867e+000	-4.9301470753e-001
 2.6955124013e+000	 3.9555406927e+000	-4.8044109225e-001
 2.6520624862e+000	 3.9848029324e+000	-4.6280567876e-001
 2.6083426796e+000	 4.0135569037e+000	-4.4235573543e-001
 2.5643617869e+000	 4.0417991041e+000	-4.2167068394e-001
 2.5201286676e+000	 4.0695262320e+000	-4.0164959298e-001
 2.4756522299e+000	 4.0967351875e+000	-3.8285204097e-001
 2.4309414244e+000	 4.1234230729e+000	-3.6571144115e-001
 2.3860052393e+000	 4.1495871931e+000	-3.5054239363e-001
 2.3408526939e+000	 4.1752250562e+000	-3.3754822890e-001
 2.7970648460e+000	 3.9172098127e+000	-4.9323351516e-001
 2.7539419624e+000	 3.9476459161e+000	-4.8511734746e-001
 2.7105301604e+000	 3.9775785646e+000	-4.7234875253e-001
 2.6668381687e+000	 4.0070038358e+000	-4.5520078370e-001
 2.6228747818e+000	 4.0359180067e+000	-4.3607920824e-001
 2.5786488543e+000	 4.0643175555e+000	-4.1699756328e-001
 2.5341692950e+000	 4.0921991621e+000	-3.9856801637e-001
 2.4894450615e+000	 4.1195597094e+000	-3.8127381406e-001
 2.4444851546e+000	 4.1463962835e+000	-3.6547666986e-001
 2.3992986122e+000	 4.1727061744e+000	-3.5142437018e-001
 2.3538945043e+000	 4.1984868760e+000	-3.3925856228e-001
 2.8125620100e+000	 3.9389131504e+000	-4.8629255726e-001
 2.7692002036e+000	 3.9695178853e+000	-4.7728322350e-001
 2.7255478781e+000	 3.9996163759e+000	-4.6427804814e-001
 2.6816138106e+000	 4.0292046781e+000	-4.4816359522e-001
 2.6374068441e+000	 4.0582790482e+000	-4.3013798945e-001
 2.5929358824e+000	 4.0868359450e+000	-4.1217097229e-001
 2.5482098837e+000	 4.1148720299e+000	-3.9494239743e-001
 2.5032378552e+000	 4.1423841686e+000	-3.7888486191e-001
 2.4580288475e+000	 4.1693694310e+000	-3.6431201540e-001
 2.4125919487e+000	 4.1958250920e+000	-3.5142640026e-001
 2.3669362788e+000	 4.2217486319e+000	-3.4032746808e-001
 2.8280591043e+000	 3.9606163904e+000	-4.7941479338e-001
 2.7844583762e+000	 3.9913897560e+000	-4.6948697249e-001
 2.7405655283e+000	 4.0216540881e+000	-4.5651085250e-001
 2.6963893859e+000	 4.0514054205e+000	-4.4137232700e-001
 2.6519388410e+000	 4.0806399892e+000	-4.2414559745e-001
 2.6072228463e+000	 4.1093542332e+000	-4.0677689893e-001
 2.5622504092e+000	 4.1375447957e+000	-3.9030701443e-001
 2.5170305868e+000	 4.1652085251e+000	-3.7514308341e-001
 2.4715724794e+000	 4.1923424751e+000	-3.6157386169e-001
 2.4258852253e+000	 4.2189439057e+000	-3.4977777611e-001
 2.3799779947e+000	 4.2450102831e+000	-3.3983115454e-001
 2.8435561017e+000	 3.9823194948e+000	-4.7251366529e-001
 2.7997164535e+000	 4.0132614901e+000	-4.6179346857e-001
 2.7555830846e+000	 4.0436916625e+000	-4.4909668014e-001
 2.7111648690e+000	 4.0736060241e+000	-4.3444078931e-001
 2.6664707471e+000	 4.1030007903e+000	-4.1774511961e-001
 2.6215097208e+000	 4.1318723806e+000	-4.0043144548e-001
 2.5762908470e+000	 4.1602174198e+000	-3.8422728395e-001
 2.5308232322e+000	 4.1880327389e+000	-3.6953902735e-001
 2.4851160267e+000	 4.2153153756e+000	-3.5665324989e-001
 2.4391784189e+000	 4.2420625748e+000	-3.4574495823e-001
 2.3930196291e+000	 4.2682717890e+000	-3.3688601992e-001
 2.8590529751e+000	 4.0040224255e+000	-4.6549711160e-001
 2.8149744086e+000	 4.0351330492e+000	-4.5446043593e-001
 2.7706005208e+000	 4.0657290606e+000	-4.4168328038e-001
 2.7259402338e+000	 4.0958064502e+000	-4.2702496209e-001
 2.6810025370e+000	 4.1253614126e+000	-4.1047319362e-001
 2.6357964811e+000	 4.1543903479e+000	-3.9278083058e-001
 2.5903311725e+000	 4.1828898625e+000	-3.7629974312e-001
 2.5446157673e+000	 4.2108567701e+000	-3.6159584160e-001
 2.4986594657e+000	 4.2382880923e+000	-3.4897578130e-001
 2.4524715061e+000	 4.2651810590e+000	-3.3863141807e-001
 2.4060611591e+000	 4.2915331087e+000	-3.3064842102e-001
 2.8745496975e+000	 4.0257251447e+000	-4.5858769608e-001
 2.8302322150e+000	 4.0570043951e+000	-4.4720293498e-001
 2.7856178106e+000	 4.0877662438e+000	-4.3395953940e-001
 2.7407154546e+000	 4.1180066598e+000	-4.1882192444e-001
 2.6955341851e+000	 4.1477218169e+000	-4.0187716209e-001
 2.6500831021e+000	 4.1769080956e+000	-3.8350137727e-001
 2.6043713611e+000	 4.2055620842e+000	-3.6615201866e-001
 2.5584081679e+000	 4.2336805788e+000	-3.5086921046e-001
 2.5122027726e+000	 4.2612605851e+000	-3.3800150985e-001
 2.4657644637e+000	 4.2882993178e+000	-3.2777747268e-001
 2.4191025620e+000	 4.3147942016e+000	-3.2031443650e-001
 2.8900462416e+000	 4.0474276143e+000	-4.5166791157e-001
 2.8454898460e+000	 4.0788754894e+000	-4.3972153130e-001
 2.8006349276e+000	 4.1098031737e+000	-4.2565447544e-001
 2.7554905054e+000	 4.1402066141e+000	-4.0956876981e-001
 2.7100656662e+000	 4.1700819640e+000	-3.9168124562e-001
 2.6643695588e+000	 4.1994255844e+000	-3.7229948747e-001
 2.6184113882e+000	 4.2282340451e+000	-3.5344278316e-001
 2.5722004099e+000	 4.2565041250e+000	-3.3694728049e-001
 2.5257459238e+000	 4.2842328136e+000	-3.2322482497e-001
 2.4790572684e+000	 4.3114173107e+000	-3.1256011161e-001
 2.4321438149e+000	 4.3380550271e+000	-3.0511962480e-001
 2.9055425804e+000	 4.0691297963e+000	-4.4443060020e-001
 2.8607472748e+000	 4.1007462939e+000	-4.3175634735e-001
 2.8156518457e+000	 4.1318398115e+000	-4.1653611159e-001
 2.7702653605e+000	 4.1624062742e+000	-3.9904150768e-001
 2.7245969547e+000	 4.1924418148e+000	-3.7964899683e-001
 2.6786558262e+000	 4.2219427749e+000	-3.5881122640e-001
 2.6324512293e+000	 4.2509057056e+000	-3.3786169917e-001
 2.5859924692e+000	 4.2793273689e+000	-3.1945057520e-001
 2.5392888956e+000	 4.3072047378e+000	-3.0417432478e-001
 2.4923498970e+000	 4.3345349974e+000	-2.9239281632e-001
 2.4451848950e+000	 4.3613155443e+000	-2.8433877716e-001
 2.3147690567e+000	 4.1287013875e+000	-3.3610074566e-001
 2.2699213753e+000	 4.1535272320e+000	-3.2538749525e-001
 2.2248777138e+000	 4.1778285178e+000	-3.1643903551e-001
 2.1796470501e+000	 4.2016033865e+000	-3.0949589938e-001
 2.1342383709e+000	 4.2248501796e+000	-3.0472330773e-001
 2.0886606667e+000	 4.2475674374e+000	-3.0221803118e-001
 2.0429229261e+000	 4.2697538987e+000	-3.0201519365e-001
 1.9970341310e+000	 4.2914084996e+000	-3.0406706513e-001
 1.9510032508e+000	 4.3125303724e+000	-3.0136374906e-001
 1.9048392375e+000	 4.3331188442e+000	-2.9036657601e-001
 1.8585510208e+000	 4.3531734355e+000	-2.7345526974e-001
 2.3278108704e+000	 4.1519632131e+000	-3.3616067552e-001
 2.2827105093e+000	 4.1769289308e+000	-3.2461253496e-001
 2.2374130640e+000	 4.2013671343e+000	-3.1425194868e-001
 2.1919275628e+000	 4.2252759548e+000	-3.0537978311e-001
 2.1462630431e+000	 4.2486537243e+000	-2.9821598985e-001
 2.1004285461e+000	 4.2714989751e+000	-2.9290659884e-001
 2.0544331112e+000	 4.2938104388e+000	-2.8953065633e-001
 2.0082857706e+000	 4.3155870456e+000	-2.8810706896e-001
 1.9619955443e+000	 4.3368279227e+000	-2.8478581877e-001
 1.9155714349e+000	 4.3575323935e+000	-2.7364779988e-001
 1.8690224222e+000	 4.3776999759e+000	-2.5683072097e-001
 2.3408526939e+000	 4.1752250562e+000	-3.3754822890e-001
 2.2954996529e+000	 4.2003306471e+000	-3.2589591326e-001
 2.2499484235e+000	 4.2249057684e+000	-3.1492364727e-001
 2.2042080846e+000	 4.2489485408e+000	-3.0495137327e-001
 2.1582877244e+000	 4.2724572869e+000	-2.9621580093e-001
 2.1121964344e+000	 4.2954305308e+000	-2.8887756231e-001
 2.0659433048e+000	 4.3178669970e+000	-2.8302830810e-001
 2.0195374185e+000	 4.3397656097e+000	-2.7869770539e-001
 1.9729878461e+000	 4.3611254912e+000	-2.7412729125e-001
 1.9263036403e+000	 4.3819459612e+000	-2.6265344780e-001
 1.8794938316e+000	 4.4022265347e+000	-2.4555588212e-001
 2.3538945043e+000	 4.1984868760e+000	-3.3925856228e-001
 2.3082887837e+000	 4.2237323400e+000	-3.2807594746e-001
 2.2624837705e+000	 4.2484443790e+000	-3.1716829889e-001
 2.2164885942e+000	 4.2726211032e+000	-3.0683390271e-001
 2.1703123936e+000	 4.2962608257e+000	-2.9728874608e-001
 2.1239643109e+000	 4.3193620626e+000	-2.8867386428e-001
 2.0774534870e+000	 4.3419235312e+000	-2.8106261953e-001
 2.0307890552e+000	 4.3639441496e+000	-2.7446787028e-001
 1.9839801368e+000	 4.3854230354e+000	-2.6830337767e-001
 1.9370358350e+000	 4.4063595044e+000	-2.5645303416e-001
 1.8899652304e+000	 4.4267530690e+000	-2.3889070752e-001
 2.3669362788e+000	 4.2217486319e+000	-3.4032746808e-001
 2.3210778793e+000	 4.2471339687e+000	-3.3003465521e-001
 2.2750190830e+000	 4.2719829249e+000	-3.1974605468e-001
 2.2287690700e+000	 4.2962936004e+000	-3.0969807600e-001
 2.1823370297e+000	 4.3200642991e+000	-3.0004898197e-001
 2.1357321551e+000	 4.3432935286e+000	-2.9088645831e-001
 2.0889636375e+000	 4.3659799992e+000	-2.8223509929e-001
 2.0420406610e+000	 4.3881226230e+000	-2.7406376659e-001
 1.9949723973e+000	 4.4097205128e+000	-2.6624491116e-001
 1.9477680002e+000	 4.4307729805e+000	-2.5412717301e-001
 1.9004366005e+000	 4.4512795359e+000	-2.3610085028e-001
 2.3799779947e+000	 4.2450102831e+000	-3.3983115454e-001
 2.3338669174e+000	 4.2705354920e+000	-3.3069745764e-001
 2.2875543391e+000	 4.2955213649e+000	-3.2146269701e-001
 2.2410494906e+000	 4.3199659911e+000	-3.1226168307e-001
 2.1943616118e+000	 4.3438676654e+000	-3.0315841834e-001
 2.1474999463e+000	 4.3672248869e+000	-2.9415392016e-001
 2.1004737362e+000	 4.3900363589e+000	-2.8519393757e-001
 2.0532922162e+000	 4.4123009877e+000	-2.7617651795e-001
 2.0059646084e+000	 4.4340178809e+000	-2.6695938143e-001
 1.9585001171e+000	 4.4551863468e+000	-2.5476896646e-001
 1.9109079234e+000	 4.4758058924e+000	-2.3645911723e-001
 2.3930196291e+000	 4.2682717890e+000	-3.3688601992e-001
 2.3466558755e+000	 4.2939368690e+000	-3.2903287960e-001
 2.3000895169e+000	 4.3190596578e+000	-3.2116928630e-001
 2.2533298344e+000	 4.3436382339e+000	-3.1328921342e-001
 2.2063861187e+000	 4.3676708828e+000	-3.0532632062e-001
 2.1592676640e+000	 4.3911560956e+000	-2.9716206026e-001
 2.1119837630e+000	 4.4140925684e+000	-2.8863364999e-001
 2.0645437010e+000	 4.4364792012e+000	-2.7954186576e-001
 2.0169567508e+000	 4.4583150972e+000	-2.6965861171e-001
 1.9692321670e+000	 4.4795995605e+000	-2.5748538796e-001
 1.9213791809e+000	 4.5003320956e+000	-2.3924691524e-001
 2.4060611591e+000	 4.2915331087e+000	-3.3064842102e-001
 2.3594447314e+000	 4.3173380589e+000	-3.2405224700e-001
 2.3126245944e+000	 4.3425977623e+000	-3.1776180690e-001
 2.2656100800e+000	 4.3673102874e+000	-3.1159147075e-001
 2.2184105294e+000	 4.3914739099e+000	-3.0530891377e-001
 2.1710352875e+000	 4.4150871129e+000	-2.9864353732e-001
 2.1234936977e+000	 4.4381485853e+000	-2.9129472195e-001
 2.0757950959e+000	 4.4606572214e+000	-2.8293986537e-001
 2.0279488052e+000	 4.4826121190e+000	-2.7324216048e-001
 1.9799641309e+000	 4.5040125789e+000	-2.6139866048e-001
 1.9318503547e+000	 4.5248581026e+000	-2.4375568897e-001
 2.4191025620e+000	 4.3147942016e+000	-3.2031443650e-001
 2.3722334625e+000	 4.3407390206e+000	-3.1480938131e-001
 2.3251595497e+000	 4.3661356374e+000	-3.1018081217e-001
 2.2778902058e+000	 4.3909821100e+000	-3.0602518804e-001
 2.2304348228e+000	 4.4152767049e+000	-3.0190898709e-001
 2.1828027963e+000	 4.4390178969e+000	-2.9737747303e-001
 2.1350035202e+000	 4.4622043678e+000	-2.9196325340e-001
 2.0870463810e+000	 4.4848350058e+000	-2.8519458145e-001
 2.0389407525e+000	 4.5069089040e+000	-2.7660335505e-001
 1.9906959903e+000	 4.5284253593e+000	-2.6564762988e-001
 1.9423214263e+000	 4.5493838705e+000	-2.4928835041e-001
 2.4321438149e+000	 4.3380550271e+000	-3.0511962480e-001
 2.3850220466e+000	 4.3641397131e+000	-3.0040029135e-001
 2.3376943608e+000	 4.3896732418e+000	-2.9741106857e-001
 2.2901701905e+000	 4.4146536604e+000	-2.9549264295e-001
 2.2424589780e+000	 4.4390792262e+000	-2.9397550016e-001
 2.1945701698e+000	 4.4629484056e+000	-2.9218906778e-001
 2.1465132103e+000	 4.4862598736e+000	-2.8947060399e-001
 2.0982975368e+000	 4.5090125121e+000	-2.8517378228e-001
 2.0499325734e+000	 4.5312054096e+000	-2.7867692442e-001
 2.0014277262e+000	 4.5528378589e+000	-2.6939083722e-001
 1.9527923776e+000	 4.5739093563e+000	-2.5516070040e-001
 2.4451848950e+000	 4.3613155443e+000	-2.8433877716e-001
 2.3978104613e+000	 4.3875400957e+000	-2.7996286231e-001
 2.3502290059e+000	 4.4132105343e+000	-2.7848119895e-001
 2.3024500124e+000	 4.4383248971e+000	-2.7894127357e-001
 2.2544829739e+000	 4.4628814320e+000	-2.8040318953e-001
 2.2063373874e+000	 4.4868785973e+000	-2.8194921723e-001
 2.1580227479e+000	 4.5103150606e+000	-2.8269303844e-001
 2.1095485434e+000	 4.5331896981e+000	-2.8178863317e-001
 2.0609242486e+000	 4.5555015932e+000	-2.7843876005e-001
 2.0121593200e+000	 4.5772500350e+000	-2.7190298449e-001
 1.9632631901e+000	 4.5984345172e+000	-2.6070284219e-001
 1.8585510208e+000	 4.3531734355e+000	-2.7345526974e-001
 1.8121405334e+000	 4.3726967475e+000	-2.5317270912e-001
 1.7656235858e+000	 4.3916856366e+000	-2.3139858363e-001
 1.7190090161e+000	 4.4101401969e+000	-2.0902166107e-001
 1.6723056206e+000	 4.4280607082e+000	-1.8669189961e-001
 1.6255221485e+000	 4.4454476346e+000	-1.6485257074e-001
 1.5786672978e+000	 4.4623016217e+000	-1.4376988277e-001
 1.5317497104e+000	 4.4786234942e+000	-1.2356018999e-001
 1.4847779682e+000	 4.4944142536e+000	-1.0421488029e-001
 1.4377605886e+000	 4.5096750751e+000	-8.5623039899e-002
 1.3907060206e+000	 4.5244073051e+000	-6.7591999006e-002
 1.8690224222e+000	 4.3776999759e+000	-2.5683072097e-001
 1.8223504501e+000	 4.3973332856e+000	-2.3700081277e-001
 1.7755714178e+000	 4.4164291615e+000	-2.1611554559e-001
 1.7286942135e+000	 4.4349876980e+000	-1.9495986426e-001
 1.6817276829e+000	 4.4530091766e+000	-1.7409339771e-001
 1.6346806246e+000	 4.4704940640e+000	-1.5388265044e-001
 1.5875617854e+000	 4.4874430094e+000	-1.3453061619e-001
 1.5403798561e+000	 4.5038568422e+000	-1.1610390646e-001
 1.4931434669e+000	 4.5197365695e+000	-9.8557493756e-002
 1.4458611832e+000	 4.5350833731e+000	-8.1757175851e-002
 1.3985415015e+000	 4.5498986071e+000	-6.5499871620e-002
 1.8794938316e+000	 4.4022265347e+000	-2.4555588212e-001
 1.8325603744e+000	 4.4219698423e+000	-2.2567664331e-001
 1.7855192573e+000	 4.4411727050e+000	-2.0514124308e-001
 1.7383794182e+000	 4.4598352177e+000	-1.8466698992e-001
 1.6911497523e+000	 4.4779576637e+000	-1.6475523072e-001
 1.6438391075e+000	 4.4955405122e+000	-1.4572360010e-001
 1.5964562797e+000	 4.5125844159e+000	-1.2773562037e-001
 1.5490100083e+000	 4.5290902091e+000	-1.1082775200e-001
 1.5015089719e+000	 4.5450589044e+000	-9.4934002341e-002
 1.4539617839e+000	 4.5604916902e+000	-7.9908205801e-002
 1.4063769883e+000	 4.5753899282e+000	-6.5544093420e-002
 1.8899652304e+000	 4.4267530690e+000	-2.3889070752e-001
 1.8427702886e+000	 4.4466063743e+000	-2.1864267044e-001
 1.7954670869e+000	 4.4659162237e+000	-1.9804811624e-001
 1.7480646132e+000	 4.4846827126e+000	-1.7779263453e-001
 1.7005718123e+000	 4.5029061259e+000	-1.5835112295e-001
 1.6529975813e+000	 4.5205869353e+000	-1.4002008206e-001
 1.6053507651e+000	 4.5377257974e+000	-1.2294719585e-001
 1.5576401519e+000	 4.5543235508e+000	-1.0715830527e-001
 1.5098744685e+000	 4.5703812139e+000	-9.2581890226e-002
 1.4620623764e+000	 4.5858999819e+000	-7.9071180511e-002
 1.4142124673e+000	 4.6008812238e+000	-6.6424020733e-002
 1.9004366005e+000	 4.4512795359e+000	-2.3610085028e-001
 1.8529801746e+000	 4.4712428386e+000	-2.1534176508e-001
 1.8054148891e+000	 4.4906596744e+000	-1.9440480772e-001
 1.7577497816e+000	 4.5095301392e+000	-1.7397951506e-001
 1.7099938463e+000	 4.5278545195e+000	-1.5454597060e-001
 1.6621560298e+000	 4.5456332896e+000	-1.3640713088e-001
 1.6142452261e+000	 4.5628671097e+000	-1.1971837903e-001
 1.5662702718e+000	 4.5795568231e+000	-1.0451442080e-001
 1.5182399422e+000	 4.5957034539e+000	-9.0733645780e-002
 1.4701629467e+000	 4.6113082037e+000	-7.8240082079e-002
 1.4220479247e+000	 4.6263724493e+000	-6.6843076506e-002
 1.9109079234e+000	 4.4758058924e+000	-2.3645911723e-001
 1.8631900147e+000	 4.4958791920e+000	-2.1521871691e-001
 1.8153626466e+000	 4.5154030137e+000	-1.9377771167e-001
 1.7674349064e+000	 4.5343774540e+000	-1.7286501822e-001
 1.7194158380e+000	 4.5528028008e+000	-1.5299735995e-001
 1.6713144372e+000	 4.5706795311e+000	-1.3451160904e-001
 1.6231396470e+000	 4.5880083088e+000	-1.1759430394e-001
 1.5749003528e+000	 4.6047899819e+000	-1.0230846527e-001
 1.5266053782e+000	 4.6210255799e+000	-8.8617840695e-002
 1.4782634806e+000	 4.6367163112e+000	-7.6408714369e-002
 1.4298833469e+000	 4.6518635601e+000	-6.5509420499e-002
 1.9213791809e+000	 4.5003320956e+000	-2.3924691524e-001
 1.8733997910e+000	 4.5205153914e+000	-2.1772173968e-001
 1.8253103419e+000	 4.5401461984e+000	-1.9573250809e-001
 1.7771199706e+000	 4.5592246135e+000	-1.7408273368e-001
 1.7288377708e+000	 4.5777509262e+000	-1.5335706908e-001
 1.6804727874e+000	 4.5957256162e+000	-1.3395364681e-001
 1.6320340123e+000	 4.6131493509e+000	-1.1611354963e-001
 1.5835303799e+000	 4.6300229829e+000	-9.9947542009e-002
 1.5349707619e+000	 4.6463475476e+000	-8.5460201034e-002
 1.4863639638e+000	 4.6621242599e+000	-7.2571590078e-002
 1.4377187201e+000	 4.6773545116e+000	-6.1272136853e-002
 1.9318503547e+000	 4.5248581026e+000	-2.4375568897e-001
 1.8836094856e+000	 4.5451513938e+000	-2.2230396471e-001
 1.8352579576e+000	 4.5648891852e+000	-1.9983568297e-001
 1.7868049574e+000	 4.5840715742e+000	-1.7726397153e-001
 1.7382596282e+000	 4.6026988520e+000	-1.5527255345e-001
 1.6896310642e+000	 4.6207715009e+000	-1.3434806651e-001
 1.6409283065e+000	 4.6382901918e+000	-1.1480947369e-001
 1.5921603379e+000	 4.6552557821e+000	-9.6834704081e-002
 1.5433360787e+000	 4.6716693128e+000	-8.0509086237e-002
 1.4944643822e+000	 4.6875320053e+000	-6.6261885912e-002
 1.4455540306e+000	 4.7028452592e+000	-5.4400123373e-002
 1.9423214263e+000	 4.5493838705e+000	-2.4928835041e-001
 1.8938190807e+000	 4.5697871560e+000	-2.2842492288e-001
 1.8452054763e+000	 4.5896319307e+000	-2.0565603464e-001
 1.7964898498e+000	 4.6089182927e+000	-1.8203926484e-001
 1.7476813937e+000	 4.6276465346e+000	-1.5838841611e-001
 1.6987892518e+000	 4.6458171413e+000	-1.3530579186e-001
 1.6498225140e+000	 4.6634307876e+000	-1.1321153222e-001
 1.6007902118e+000	 4.6804883353e+000	-9.2566466378e-002
 1.5517013139e+000	 4.6969908311e+000	-7.4086504611e-002
 1.5025647216e+000	 4.7129395030e+000	-5.8143851638e-002
 1.4533892647e+000	 4.7283357583e+000	-4.4990578368e-002
 1.9527923776e+000	 4.5739093563e+000	-2.5516070040e-001
 1.9040285584e+000	 4.5944226349e+000	-2.3555201560e-001
 1.8551528806e+000	 4.6143743917e+000	-2.1276616685e-001
 1.8061746307e+000	 4.6337647254e+000	-1.8803985744e-001
 1.7571030509e+000	 4.6525939303e+000	-1.6234786282e-001
 1.7079473341e+000	 4.6708624938e+000	-1.3644979954e-001
 1.6587166192e+000	 4.6885710943e+000	-1.1135888506e-001
 1.6094199865e+000	 4.7057205984e+000	-8.7950429755e-002
 1.5600664530e+000	 4.7223120582e+000	-6.6809352531e-002
 1.5106649679e+000	 4.7383467086e+000	-4.8371040026e-002
 1.4612244087e+000	 4.7538259642e+000	-3.2937216839e-002
 1.9632631901e+000	 4.5984345172e+000	-2.6070284219e-001
 1.9142379008e+000	 4.6190577873e+000	-2.4316197478e-001
 1.8651001532e+000	 4.6391165248e+000	-2.2074396888e-001
 1.8158592834e+000	 4.6586108290e+000	-1.9489917760e-001
 1.7665245833e+000	 4.6775409954e+000	-1.6689701244e-001
 1.7171052950e+000	 4.6959075144e+000	-1.3828467383e-001
 1.6676106065e+000	 4.7137110679e+000	-1.1020405699e-001
 1.6180496468e+000	 4.7309525271e+000	-8.3541267342e-002
 1.5684314812e+000	 4.7476329498e+000	-5.8989127129e-002
 1.5187651069e+000	 4.7637535775e+000	-3.7064878570e-002
 1.4690594489e+000	 4.7793158324e+000	-1.8126241925e-002
 1.3907060206e+000	 4.5244073051e+000	-6.7591999006e-002
 1.3436226398e+000	 4.5386124571e+000	-5.0629124231e-002
 1.2965187431e+000	 4.5522922052e+000	-3.5490935524e-002
 1.2494025464e+000	 4.5654483845e+000	-2.2604538854e-002
 1.2022821825e+000	 4.5780829893e+000	-1.1573124302e-002
 1.1551656968e+000	 4.5901981691e+000	-1.8959572021e-003
 1.1080610447e+000	 4.6017962261e+000	 6.9713642357e-003
 1.0609760877e+000	 4.6128796112e+000	 1.5591328742e-002
 1.0139185908e+000	 4.6234509209e+000	 2.4524358159e-002
 9.6689621935e-001	 4.6335128934e+000	 3.4313161441e-002
 9.1991653610e-001	 4.6430684052e+000	 4.5471548544e-002
 1.3985415015e+000	 4.5498986071e+000	-6.5499871620e-002
 1.3511928448e+000	 4.5641837933e+000	-5.0092513407e-002
 1.3038235564e+000	 4.5779406155e+000	-3.5976219720e-002
 1.2564418989e+000	 4.5911709191e+000	-2.3530723641e-002
 1.2090560505e+000	 4.6038767094e+000	-1.2467313329e-002
 1.1616741024e+000	 4.6160601483e+000	-2.3674837104e-003
 1.1143040544e+000	 4.6277235508e+000	 7.2221443377e-003
 1.0669538126e+000	 4.6388693816e+000	 1.6767339856e-002
 1.0196311855e+000	 4.6495002519e+000	 2.6729063209e-002
 9.7234388174e-001	 4.6596189153e+000	 3.7550621992e-002
 9.2509950674e-001	 4.6692282646e+000	 4.9631512659e-002
 1.4063769883e+000	 4.5753899282e+000	-6.5544093420e-002
 1.3587630554e+000	 4.5897551488e+000	-5.1873411591e-002
 1.3111283752e+000	 4.6035890452e+000	-3.9001021398e-002
 1.2634812566e+000	 4.6168934730e+000	-2.7165696663e-002
 1.2158299237e+000	 4.6296704489e+000	-1.6165197757e-002
 1.1681825128e+000	 4.6419221469e+000	-5.6543687437e-003
 1.1205470688e+000	 4.6536508949e+000	 4.7362819886e-003
 1.0729315419e+000	 4.6648591716e+000	 1.5381409002e-002
 1.0253437844e+000	 4.6755496025e+000	 2.6468322043e-002
 9.7779154822e-001	 4.6857249569e+000	 3.7935940495e-002
 9.3028248127e-001	 4.6953881436e+000	 4.9984334558e-002
 1.4142124673e+000	 4.6008812238e+000	-6.6424020733e-002
 1.3663332584e+000	 4.6153264787e+000	-5.4362892921e-002
 1.3184331867e+000	 4.6292374491e+000	-4.2658067280e-002
 1.2705206073e+000	 4.6426160012e+000	-3.1362617010e-002
 1.2226037901e+000	 4.6554641627e+000	-2.0319166874e-002
 1.1746909167e+000	 4.6677841197e+000	-9.2505251347e-003
 1.1267900770e+000	 4.6795782131e+000	 1.8196707385e-003
 1.0789092652e+000	 4.6908489355e+000	 1.2830958778e-002
 1.0310563777e+000	 4.7015989270e+000	 2.3915364766e-002
 9.8323920925e-001	 4.7118309723e+000	 3.5223606911e-002
 9.3546545062e-001	 4.7215479964e+000	 4.6920906593e-002
 1.4220479247e+000	 4.6263724493e+000	-6.6843076506e-002
 1.3739034406e+000	 4.6408977383e+000	-5.5961555748e-002
 1.3257379781e+000	 4.6548857826e+000	-4.5051223680e-002
 1.2775599386e+000	 4.6683384586e+000	-3.3986234530e-002
 1.2293776378e+000	 4.6812578055e+000	-2.2937260473e-002
 1.1811993028e+000	 4.6936460213e+000	-1.2055632166e-002
 1.1330330679e+000	 4.7055054601e+000	-1.3022938954e-003
 1.0848869721e+000	 4.7168386280e+000	 9.3934750230e-003
 1.0367689552e+000	 4.7276481799e+000	 2.0128942752e-002
 9.8868685530e-001	 4.7379369159e+000	 3.1023064326e-002
 9.4064840571e-001	 4.7477077773e+000	 4.2212249468e-002
 1.4298833469e+000	 4.6518635601e+000	-6.5509420499e-002
 1.3814735888e+000	 4.6664688829e+000	-5.5079965576e-002
 1.3330427367e+000	 4.6805340007e+000	-4.4570133519e-002
 1.2845992382e+000	 4.6940608004e+000	-3.4166252970e-002
 1.2361514551e+000	 4.7070513322e+000	-2.3849500324e-002
 1.1877076595e+000	 4.7195078066e+000	-1.3637300923e-002
 1.1392760308e+000	 4.7314325903e+000	-3.5093127227e-003
 1.0908646521e+000	 4.7428282035e+000	 6.5870864377e-003
 1.0424815070e+000	 4.7536973156e+000	 1.6731667682e-002
 9.9413447684e-001	 4.7640427421e+000	 2.7026506506e-002
 9.4583133749e-001	 4.7738674405e+000	 3.7591745625e-002
 1.4377187201e+000	 4.6773545116e+000	-6.1272136853e-002
 1.3890436896e+000	 4.6920398676e+000	-5.1075214445e-002
 1.3403474496e+000	 4.7061820584e+000	-4.1243314132e-002
 1.2916384939e+000	 4.7197829813e+000	-3.1673702429e-002
 1.2429252300e+000	 4.7328446978e+000	-2.2181185231e-002
 1.1942159756e+000	 4.7453694302e+000	-1.2774532441e-002
 1.1455189547e+000	 4.7573595586e+000	-3.4302152349e-003
 1.0968422947e+000	 4.7688176166e+000	 5.9057828796e-003
 1.0481940231e+000	 4.7797462885e+000	 1.5312844821e-002
 9.9958206434e-001	 4.7901484051e+000	 2.4890918027e-002
 9.5101423687e-001	 4.8000269402e+000	 3.4756309543e-002
 1.4455540306e+000	 4.7028452592e+000	-5.4400123373e-002
 1.3966137299e+000	 4.7176106477e+000	-4.4150743527e-002
 1.3476521041e+000	 4.7318299110e+000	-3.4635523995e-002
 1.2986776933e+000	 4.7455049565e+000	-2.5682834460e-002
 1.2496989508e+000	 4.7586378570e+000	-1.6907186536e-002
 1.2007242396e+000	 4.7712308470e+000	-8.2691978659e-003
 1.1517618286e+000	 4.7832863194e+000	 2.7956162089e-004
 1.1028198895e+000	 4.7948068218e+000	 8.8138285711e-003
 1.0539064935e+000	 4.8057950530e+000	 1.7429558334e-002
 1.0050296083e+000	 4.8162538593e+000	 2.6239192463e-002
 9.5619709479e-001	 4.8261862307e+000	 3.5367522535e-002
 1.4533892647e+000	 4.7283357583e+000	-4.4990578368e-002
 1.4041836964e+000	 4.7431811786e+000	-3.3952117874e-002
 1.3549566873e+000	 4.7574775135e+000	-2.4161940812e-002
 1.3057168240e+000	 4.7712266809e+000	-1.5380794001e-002
 1.2564726055e+000	 4.7844307647e+000	-7.0201221624e-003
 1.2072324402e+000	 4.7970920116e+000	 1.0548265085e-003
 1.1580046417e+000	 4.8092128274e+000	 8.9389166930e-003
 1.1087974261e+000	 4.8207957736e+000	 1.6746768141e-002
 1.0596189083e+000	 4.8318435636e+000	 2.4607724541e-002
 1.0104770991e+000	 4.8423590590e+000	 3.2661257950e-002
 9.6137990218e-001	 4.8523452661e+000	 4.1052733378e-002
 1.4612244087e+000	 4.7538259642e+000	-3.2937216839e-002
 1.4117535758e+000	 4.7687514154e+000	-2.0122335352e-002
 1.3622611866e+000	 4.7831248211e+000	-9.2400994260e-003
 1.3127558737e+000	 4.7969481095e+000	 3.3026004869e-005
 1.2632461823e+000	 4.8102233759e+000	 8.4703939344e-003
 1.2137405659e+000	 4.8229528789e+000	 1.6352500185e-002
 1.1642473830e+000	 4.8351390374e+000	 2.3842001058e-002
 1.1147748939e+000	 4.8467844266e+000	 3.1112403555e-002
 1.0653312573e+000	 4.8578917746e+000	 3.8343114260e-002
 1.0159245272e+000	 4.8684639585e+000	 4.5714962885e-002
 9.6656264996e-001	 4.8785040006e+000	 5.3406126026e-002
 1.4690594489e+000	 4.7793158324e+000	-1.8126241925e-002
 1.4193233549e+000	 4.7943213134e+000	-2.3020718387e-003
 1.3695655890e+000	 4.8087717889e+000	 1.0710088733e-002
 1.3197948302e+000	 4.8226691973e+000	 2.1347613706e-002
 1.2700196694e+000	 4.8360156452e+000	 3.0538482372e-002
 1.2202486053e+000	 4.8488134034e+000	 3.8758436262e-002
 1.1704900415e+000	 4.8610649037e+000	 4.6259108613e-002
 1.1207522825e+000	 4.8727727352e+000	 5.3291742997e-002
 1.0710435306e+000	 4.8839396404e+000	 6.0102345408e-002
 1.0213718832e+000	 4.8945685121e+000	 6.6927354510e-002
 9.7174532908e-001	 4.9046623886e+000	 7.3989755629e-002
 9.1991653610e-001	 4.6430684052e+000	 4.5471548544e-002
 8.7299403196e-001	 4.6521191480e+000	 5.8360700125e-002
 8.2612899476e-001	 4.6606697367e+000	 7.2864098545e-002
 7.7932865067e-001	 4.6687234430e+000	 8.8704487350e-002
 7.3260011383e-001	 4.6762836616e+000	 1.0524407927e-001
 6.8595038414e-001	 4.6833539067e+000	 1.2197076716e-001
 6.3938634528e-001	 4.6899378081e+000	 1.3764718491e-001
 5.9291476285e-001	 4.6960391073e+000	 1.4892285917e-001
 5.4654228262e-001	 4.7016616537e+000	 1.5637530365e-001
 5.0027542892e-001	 4.7068094006e+000	 1.6085516291e-001
 4.5412060315e-001	 4.7114864015e+000	 1.6305142863e-001
 9.2509950674e-001	 4.6692282646e+000	 4.9631512659e-002
 8.7791263301e-001	 4.6783300008e+000	 6.2914046512e-002
 8.3078354999e-001	 4.6869287650e+000	 7.7079928871e-002
 7.8371952458e-001	 4.6950278473e+000	 9.1808547847e-002
 7.3672771099e-001	 4.7026306615e+000	 1.0677671768e-001
 6.8981514856e-001	 4.7097407416e+000	 1.2165604652e-001
 6.4298875977e-001	 4.7163617379e+000	 1.3554329224e-001
 5.9625534832e-001	 4.7224974129e+000	 1.4532767283e-001
 5.4962159742e-001	 4.7281516376e+000	 1.5141527772e-001
 5.0309406817e-001	 4.7333283879e+000	 1.5463733515e-001
 4.5667919805e-001	 4.7380317398e+000	 1.5567446046e-001
 9.3028248127e-001	 4.6953881436e+000	 4.9984334558e-002
 8.8283123775e-001	 4.7045408733e+000	 6.2779243116e-002
 8.3543810871e-001	 4.7131878131e+000	 7.6163297506e-002
 7.8811040178e-001	 4.7213322714e+000	 8.9860491112e-002
 7.4085531125e-001	 4.7289776812e+000	 1.0359736064e-001
 6.9367991589e-001	 4.7361275963e+000	 1.1710024234e-001
 6.4659117696e-001	 4.7427856875e+000	 1.2972547206e-001
 5.9959593629e-001	 4.7489557383e+000	 1.3864795506e-001
 5.5270091453e-001	 4.7546416415e+000	 1.4409530602e-001
 5.0591270954e-001	 4.7598473950e+000	 1.4686746744e-001
 4.5923779486e-001	 4.7645770980e+000	 1.4762343069e-001
 9.3546545062e-001	 4.7215479964e+000	 4.6920906593e-002
 8.8774983756e-001	 4.7307517196e+000	 5.9156314403e-002
 8.4009266278e-001	 4.7394468349e+000	 7.1806500472e-002
 7.9250127459e-001	 4.7476366691e+000	 8.4636786417e-002
 7.4498290738e-001	 4.7553246745e+000	 9.7418286250e-002
 6.9754467935e-001	 4.7625144247e+000	 1.0992510688e-001
 6.5019359054e-001	 4.7692096106e+000	 1.2170990073e-001
 6.0293652092e-001	 4.7754140372e+000	 1.3026186981e-001
 5.5578022856e-001	 4.7811316189e+000	 1.3562947217e-001
 5.0873134809e-001	 4.7863663757e+000	 1.3856993036e-001
 4.6179638912e-001	 4.7911224297e+000	 1.3970781449e-001
 9.4064840571e-001	 4.7477077773e+000	 4.2212249468e-002
 8.9266842386e-001	 4.7569624938e+000	 5.3831129415e-002
 8.4474720405e-001	 4.7657057845e+000	 6.5784203693e-002
 7.9689213533e-001	 4.7739409946e+000	 7.7874934078e-002
 7.4911049215e-001	 4.7816715954e+000	 8.9913971745e-002
 7.0140943218e-001	 4.7889011804e+000	 1.0171635776e-001
 6.5379599422e-001	 4.7956334612e+000	 1.1297792104e-001
 6.0627709636e-001	 4.8018722634e+000	 1.2151561750e-001
 5.5885953413e-001	 4.8076215234e+000	 1.2720334685e-001
 5.1154997889e-001	 4.8128852834e+000	 1.3074461336e-001
 4.6435497634e-001	 4.8176676884e+000	 1.3271721895e-001
 9.4583133749e-001	 4.7738674405e+000	 3.7591745625e-002
 8.9758698802e-001	 4.7831731501e+000	 4.8551271503e-002
 8.4940172438e-001	 4.7919646159e+000	 5.9832733524e-002
 8.0128297631e-001	 4.8002452017e+000	 7.1274631488e-002
 7.5323805836e-001	 4.8080183978e+000	 8.2722215012e-002
 7.0527416762e-001	 4.8152878175e+000	 9.4024739520e-002
 6.5739838170e-001	 4.8220571928e+000	 1.0497708433e-001
 6.0961765677e-001	 4.8283303706e+000	 1.1372438105e-001
 5.6193882583e-001	 4.8341113087e+000	 1.1997482278e-001
 5.1436859701e-001	 4.8394040719e+000	 1.2436763402e-001
 4.6691355205e-001	 4.8442128277e+000	 1.2742195210e-001
 9.5101423687e-001	 4.8000269402e+000	 3.4756309543e-002
 9.0250552144e-001	 4.8093836426e+000	 4.5027210105e-002
 8.5405621561e-001	 4.8182232832e+000	 5.5651235025e-002
 8.0567378985e-001	 4.8265492444e+000	 6.6498902950e-002
 7.5736559877e-001	 4.8343650355e+000	 7.7445221105e-002
 7.0913887891e-001	 4.8416742897e+000	 8.8367052124e-002
 6.6100074665e-001	 4.8484807593e+000	 9.9122161688e-002
 6.1295819631e-001	 4.8547883124e+000	 1.0817324374e-001
 5.6501809830e-001	 4.8606009285e+000	 1.1507492500e-001
 5.1718719751e-001	 4.8659226945e+000	 1.2039202630e-001
 4.6947211177e-001	 4.8707578010e+000	 1.2457357512e-001
 9.5619709479e-001	 4.8261862307e+000	 3.5367522535e-002
 9.0742401552e-001	 4.8355939254e+000	 4.4933436750e-002
 8.5871066962e-001	 4.8444817405e+000	 5.4902794669e-002
 8.1006456827e-001	 4.8528530766e+000	 6.5175194653e-002
 7.6149310617e-001	 4.8607114624e+000	 7.5650655124e-002
 7.1300355928e-001	 4.8680605507e+000	 8.6227147449e-002
 6.6460308279e-001	 4.8749041144e+000	 9.6796125458e-002
 6.1629870912e-001	 4.8812460426e+000	 1.0611808016e-001
 5.6809734613e-001	 4.8870903364e+000	 1.1360859708e-001
 5.2000577547e-001	 4.8924411051e+000	 1.1974840845e-001
 4.7203065102e-001	 4.8973025621e+000	 1.2490543834e-001
 9.6137990218e-001	 4.8523452661e+000	 4.1052733378e-002
 9.1234246164e-001	 4.8618039526e+000	 4.9909566614e-002
 8.6336507824e-001	 4.8707399418e+000	 5.9215528811e-002
 8.1445530387e-001	 4.8791566525e+000	 6.8896436093e-002
 7.6562057332e-001	 4.8870576325e+000	 7.8872662703e-002
 7.1686820198e-001	 4.8944465545e+000	 8.9056895021e-002
 6.6820538381e-001	 4.9013272119e+000	 9.9352094434e-002
 6.1963918937e-001	 4.9077035148e+000	 1.0878642090e-001
 5.7117656394e-001	 4.9135794860e+000	 1.1665546440e-001
 5.2282432595e-001	 4.9189592571e+000	 1.2334563143e-001
 4.7458916533e-001	 4.9238470643e+000	 1.2913320166e-001
 9.6656264996e-001	 4.8785040006e+000	 5.3406126026e-002
 9.1726085120e-001	 4.8880136785e+000	 6.1561406913e-002
 8.6801943334e-001	 4.8969978411e+000	 7.0183639187e-002
 8.1884598899e-001	 4.9054599258e+000	 7.9222069182e-002
 7.6974799300e-001	 4.9134034996e+000	 8.8612859301e-002
 7.2073280023e-001	 4.9208322549e+000	 9.8277118131e-002
 6.7180764341e-001	 4.9277500055e+000	 1.0811915962e-001
 6.2297963120e-001	 4.9341606827e+000	 1.1737829234e-001
 5.7425574634e-001	 4.9400683310e+000	 1.2527057521e-001
 5.2564284401e-001	 4.9454771042e+000	 1.3207140844e-001
 4.7714765022e-001	 4.9503912612e+000	 1.3795533994e-001
 9.7174532908e-001	 4.9046623886e+000	 7.3989755629e-002
 9.2217917559e-001	 4.9142230571e+000	 8.1461993328e-002
 8.7267372677e-001	 4.9232553924e+000	 8.9368436654e-002
 8.2323661592e-001	 4.9317628506e+000	 9.7679046245e-002
 7.7387535800e-001	 4.9397490176e+000	 1.0634128945e-001
 7.2459734727e-001	 4.9472176057e+000	 1.1527850142e-001
 6.7540985527e-001	 4.9541724491e+000	 1.2438849763e-001
 6.2632002876e-001	 4.9606175001e+000	 1.3306703208e-001
 5.7733488795e-001	 4.9665568250e+000	 1.4048512035e-001
 5.2846132473e-001	 4.9719945999e+000	 1.4679292642e-001
 4.7970610120e-001	 4.9769351065e+000	 1.5205363396e-001
 4.5412060315e-001	 4.7114864015e+000	 1.6305142863e-001
 4.0807720153e-001	 4.7156974029e+000	 1.6430071591e-001
 3.6215839011e-001	 4.7194459128e+000	 1.6557655547e-001
 3.1637028919e-001	 4.7227362646e+000	 1.6683152377e-001
 2.7071888863e-001	 4.7255728763e+000	 1.6791922884e-001
 2.2521004697e-001	 4.7279602469e+000	 1.6861207025e-001
 1.7984949071e-001	 4.7299029521e+000	 1.6861757077e-001
 1.3464281379e-001	 4.7314056407e+000	 1.6759342148e-001
 8.9595477031e-002	 4.7324730307e+000	 1.6516137306e-001
 4.4712807855e-002	 4.7331099057e+000	 1.6092009627e-001
 0.0000000000e+000	 4.7333211109e+000	 1.5445712528e-001
 4.5667919805e-001	 4.7380317398e+000	 1.5567446046e-001
 4.1037637985e-001	 4.7422664668e+000	 1.5567428133e-001
 3.6419885381e-001	 4.7460360964e+000	 1.5546682805e-001
 3.1815277473e-001	 4.7493449866e+000	 1.5507894728e-001
 2.7224416619e-001	 4.7521975803e+000	 1.5444726639e-001
 2.2647891975e-001	 4.7545984018e+000	 1.5343520548e-001
 1.8086279419e-001	 4.7565520525e+000	 1.5184857234e-001
 1.3540141494e-001	 4.7580632075e+000	 1.4944988767e-001
 9.0100273615e-002	 4.7591366114e+000	 1.4597157803e-001
 4.4964727633e-002	 4.7597770747e+000	 1.4112816409e-001
 0.0000000000e+000	 4.7599894698e+000	 1.3462756165e-001
 4.5923779486e-001	 4.7645770980e+000	 1.4762343069e-001
 4.1267555989e-001	 4.7688355505e+000	 1.4732050778e-001
 3.6623931904e-001	 4.7726263000e+000	 1.4664823512e-001
 3.1993526160e-001	 4.7759537286e+000	 1.4569983725e-001
 2.7376944490e-001	 4.7788223043e+000	 1.4448635273e-001
 2.2774779349e-001	 4.7812365766e+000	 1.4295289427e-001
 1.8187609843e-001	 4.7832011729e+000	 1.4099350534e-001
 1.3616001667e-001	 4.7847207943e+000	 1.3846476599e-001
 9.0605070578e-002	 4.7858002120e+000	 1.3519829046e-001
 4.5216647599e-002	 4.7864442636e+000	 1.3101224866e-001
 0.0000000000e+000	 4.7866578487e+000	 1.2572203247e-001
 4.6179638912e-001	 4.7911224297e+000	 1.3970781449e-001
 4.1497473763e-001	 4.7954046077e+000	 1.3981459897e-001
 3.6827978224e-001	 4.7992164769e+000	 1.3944809506e-001
 3.2171774669e-001	 4.8025624440e+000	 1.3876030734e-001
 2.7529472208e-001	 4.8054470016e+000	 1.3782837424e-001
 2.2901666596e-001	 4.8078747248e+000	 1.3667007110e-001
 1.8288940166e-001	 4.8098502666e+000	 1.3525792548e-001
 1.3691861764e-001	 4.8113783544e+000	 1.3353210316e-001
 9.1109867036e-002	 4.8124637861e+000	 1.3141221242e-001
 4.5468567315e-002	 4.8131114259e+000	 1.2880816304e-001
 0.0000000000e+000	 4.8133262010e+000	 1.2563020490e-001
 4.6435497634e-001	 4.8176676884e+000	 1.3271721895e-001
 4.1727390906e-001	 4.8219735919e+000	 1.3371696656e-001
 3.7032023982e-001	 4.8258065808e+000	 1.3418435585e-001
 3.2350022688e-001	 4.8291710862e+000	 1.3432287076e-001
 2.7681999506e-001	 4.8320716258e+000	 1.3426773738e-001
 2.3028553495e-001	 4.8345127998e+000	 1.3410066342e-001
 1.8390270211e-001	 4.8364992871e+000	 1.3386320818e-001
 1.3767721652e-001	 4.8380358413e+000	 1.3356894721e-001
 9.1614662108e-002	 4.8391272868e+000	 1.3321458414e-001
 4.5720486337e-002	 4.8397785148e+000	 1.3279015074e-001
 0.0000000000e+000	 4.8399944799e+000	 1.3228842379e-001
 4.6691355205e-001	 4.8442128277e+000	 1.2742195210e-001
 4.1957307013e-001	 4.8485424565e+000	 1.2957364792e-001
 3.7236068822e-001	 4.8523965650e+000	 1.3116585376e-001
 3.2528269905e-001	 4.8557796087e+000	 1.3244653234e-001
 2.7834526119e-001	 4.8586961301e+000	 1.3360128665e-001
 2.3155439822e-001	 4.8611507549e+000	 1.3476732822e-001
 1.8491599799e-001	 4.8631481876e+000	 1.3604609655e-001
 1.3843581199e-001	 4.8646932082e+000	 1.3751469967e-001
 9.2119454909e-002	 4.8657906675e+000	 1.3923633356e-001
 4.5972404228e-002	 4.8664454838e+000	 1.4126982573e-001
 0.0000000000e+000	 4.8666626388e+000	 1.4367843554e-001
 4.6947211177e-001	 4.8707578010e+000	 1.2457357512e-001
 4.2187221684e-001	 4.8751111550e+000	 1.2791671154e-001
 3.7440112388e-001	 4.8789863830e+000	 1.3069256468e-001
 3.2706516008e-001	 4.8823879649e+000	 1.3318687838e-001
 2.7987051778e-001	 4.8853204680e+000	 1.3562822583e-001
 2.3282325357e-001	 4.8877885435e+000	 1.3820119761e-001
 1.8592928754e-001	 4.8897969216e+000	 1.4105826429e-001
 1.3919440273e-001	 4.8913504085e+000	 1.4433048905e-001
 9.2624244557e-002	 4.8924538816e+000	 1.4813725362e-001
 4.6224320544e-002	 4.8931122861e+000	 1.5259514693e-001
 0.0000000000e+000	 4.8933306310e+000	 1.5782615322e-001
 4.7203065102e-001	 4.8973025621e+000	 1.2490543834e-001
 4.2417134516e-001	 4.9016796411e+000	 1.2926465077e-001
 3.7644154321e-001	 4.9055759883e+000	 1.3305584841e-001
 3.2884760685e-001	 4.9089961082e+000	 1.3659616455e-001
 2.8139576218e-001	 4.9119445930e+000	 1.4015004246e-001
 2.3409209877e-001	 4.9144261190e+000	 1.4394163309e-001
 1.8694256899e-001	 4.9164454424e+000	 1.4816589307e-001
 1.3995298739e-001	 4.9180073955e+000	 1.5299856469e-001
 9.3129030168e-002	 4.9191168823e+000	 1.5860520608e-001
 4.6476234846e-002	 4.9197788751e+000	 1.6514942572e-001
 0.0000000000e+000	 4.9199984100e+000	 1.7280046162e-001
 4.7458916533e-001	 4.9238470643e+000	 1.2913320166e-001
 4.2647045107e-001	 4.9282478681e+000	 1.3412276631e-001
 3.7848194265e-001	 4.9321653344e+000	 1.3853868625e-001
 3.3063003625e-001	 4.9356039921e+000	 1.4272340172e-001
 2.8292099170e-001	 4.9385684584e+000	 1.4697043539e-001
 2.3536093160e-001	 4.9410634348e+000	 1.5153598813e-001
 1.8795584057e-001	 4.9430937035e+000	 1.5664926371e-001
 1.4071156466e-001	 4.9446641227e+000	 1.6252171017e-001
 9.3633810859e-002	 4.9457796232e+000	 1.6935535103e-001
 4.6728146693e-002	 4.9464452040e+000	 1.7735036534e-001
 0.0000000000e+000	 4.9466659289e+000	 1.8671206047e-001
 4.7714765022e-001	 4.9503912612e+000	 1.3795533994e-001
 4.2876953053e-001	 4.9548157895e+000	 1.4298353769e-001
 3.8052231863e-001	 4.9587543747e+000	 1.4741591203e-001
 3.3241244516e-001	 4.9622115701e+000	 1.5161444003e-001
 2.8444620369e-001	 4.9651920176e+000	 1.5589524527e-001
 2.3662974984e-001	 4.9677004443e+000	 1.6053937882e-001
 1.8896910049e-001	 4.9697416580e+000	 1.6580236076e-001
 1.4147013321e-001	 4.9713205433e+000	 1.7192267573e-001
 9.4138585748e-002	 4.9724420574e+000	 1.7912940103e-001
 4.6980055644e-002	 4.9731112264e+000	 1.8764913091e-001
 0.0000000000e+000	 4.9733331411e+000	 1.9771234465e-001
 4.7970610120e-001	 4.9769351065e+000	 1.5205363396e-001
 4.3106857954e-001	 4.9813833590e+000	 1.5632698441e-001
 3.8256266757e-001	 4.9853430627e+000	 1.5995443690e-001
 3.3419483045e-001	 4.9888187954e+000	 1.6331205103e-001
 2.8597139548e-001	 4.9918152240e+000	 1.6673238787e-001
 2.3789855127e-001	 4.9943371009e+000	 1.7051446228e-001
 1.8998234699e-001	 4.9963892595e+000	 1.7493248993e-001
 1.4222869172e-001	 4.9979766107e+000	 1.8024362881e-001
 9.4643353951e-002	 4.9991041383e+000	 1.8669489904e-001
 4.7231961259e-002	 4.9997768954e+000	 1.9452944904e-001
 0.0000000000e+000	 5.0000000000e+000	 2.0399231985e-001
