x	y	stress_yy
 1.000000000000000e+000	 0.000000000000000e+000	 3.101505024012511e+001
 9.999553790721549e-001	 9.446392261750536e-003	 3.099985826367542e+001
 9.998208276644109e-001	 1.892867080636967e-002	 3.097234644622609e+001
 9.995953221430520e-001	 2.844573836262591e-002	 3.093253428638316e+001
 9.992778519071311e-001	 3.799646941872217e-002	 3.088043854365994e+001
 9.988674201817245e-001	 4.757971027342477e-002	 3.081607308075659e+001
 9.983630448185402e-001	 5.719427911104237e-002	 3.073944870338335e+001
 9.977637591031844e-001	 6.683896610081597e-002	 3.065057299761813e+001
 9.970686125683426e-001	 7.651253352126189e-002	 3.054945016482519e+001
 9.962766718121099e-001	 8.621371590998764e-002	 3.043608085420027e+001
 9.953870213206724e-001	 9.594122023947824e-002	 3.031046199305270e+001
 1.026666858896873e+000	 0.000000000000000e+000	 2.908586285981188e+001
 1.026621048068823e+000	 9.698297869740000e-003	 2.907952444978035e+001
 1.026482908597070e+000	 1.943343899728710e-002	 2.906188099856557e+001
 1.026251389550869e+000	 2.920429685057105e-002	 2.903288261535692e+001
 1.025925453379797e+000	 3.900971590386779e-002	 2.899247926447639e+001
 1.025504076728145e+000	 4.884851169029192e-002	 2.894061919988505e+001
 1.024986251256887e+000	 5.871947087877486e-002	 2.887724894198188e+001
 1.024370984472468e+000	 6.862135137610566e-002	 2.880231325229449e+001
 1.023657300561674e+000	 7.855288245458952e-002	 2.871575510578146e+001
 1.022844241231782e+000	 8.851276490585899e-002	 2.861751566050308e+001
 1.021930866555178e+000	 9.849967122134781e-002	 2.850753422445714e+001
 1.053334071134978e+000	 0.000000000000000e+000	 2.740853402716889e+001
 1.053287070390996e+000	 9.950206815530270e-003	 2.740743003209139e+001
 1.053145342807795e+000	 1.993821387648614e-002	 2.739623134877023e+001
 1.052907810157237e+000	 2.996286538957084e-002	 2.737482662237980e+001
 1.052573407939045e+000	 4.002297581473556e-002	 2.734310464487903e+001
 1.052141086216367e+000	 5.011732991903531e-002	 2.730095294442625e+001
 1.051609810459081e+000	 6.024468285560676e-002	 2.724825787451260e+001
 1.050978562394118e+000	 7.040376026835926e-002	 2.718490470151198e+001
 1.050246340862016e+000	 8.059325842294959e-002	 2.711077769010346e+001
 1.049412162678889e+000	 9.081184436458797e-002	 2.702576018605529e+001
 1.048475063502990e+000	 1.010581561031999e-001	 2.692973469590000e+001
 1.080001590045551e+000	 0.000000000000000e+000	 2.594894589015651e+001
 1.079953399371986e+000	 1.020211865827080e-002	 2.595013052617335e+001
 1.079808083636172e+000	 2.044299456059085e-002	 2.594256448497506e+001
 1.079564537312246e+000	 3.072144265210019e-002	 2.592608050686596e+001
 1.079221668949764e+000	 4.103624737807987e-002	 2.590051101942914e+001
 1.078778402030408e+000	 5.138616273917135e-002	 2.586568694007019e+001
 1.078233675832652e+000	 6.176991237235381e-002	 2.582143785464757e+001
 1.077586446303606e+000	 7.218618965828590e-002	 2.576759219516854e+001
 1.076835686937252e+000	 8.263365785559590e-002	 2.570397741577633e+001
 1.075980389658250e+000	 9.311095026268368e-002	 2.563042016628932e+001
 1.075019565710423e+000	 1.036166704075697e-001	 2.554674646259414e+001
 1.106669368959824e+000	 0.000000000000000e+000	 2.467587239718219e+001
 1.106619988345106e+000	 1.045403295711104e-002	 2.467703659599937e+001
 1.106471084421780e+000	 2.094778016622530e-002	 2.467086988644804e+001
 1.106221524365987e+000	 3.148002731063400e-002	 2.465715383995707e+001
 1.105870189776840e+000	 4.204952882065516e-002	 2.463566856922801e+001
 1.105415977554288e+000	 5.265500793021637e-002	 2.460619178187707e+001
 1.104857800785134e+000	 6.329515675983194e-002	 2.456849902742728e+001
 1.104194589636403e+000	 7.396863642659464e-002	 2.452236394408999e+001
 1.103425292255272e+000	 8.467407718178245e-002	 2.446755850436353e+001
 1.102548875674684e+000	 9.541007857665527e-002	 2.440385325851284e+001
 1.101564326723789e+000	 1.061752096569922e-001	 2.433101757504000e+001
 1.133337361209029e+000	 0.000000000000000e+000	 2.356064058150226e+001
 1.133286790643667e+000	 1.070594927120045e-002	 2.356007953748935e+001
 1.133134298504202e+000	 2.145256981001351e-002	 2.355362998149670e+001
 1.132878724668551e+000	 3.223861803764715e-002	 2.354102627829936e+001
 1.132518923785160e+000	 4.306281836921582e-002	 2.352199956571115e+001
 1.132053766172025e+000	 5.392386327168684e-002	 2.349627707534787e+001
 1.131482138724057e+000	 6.482041334885690e-002	 2.346358242845961e+001
 1.130802945827984e+000	 7.575109745399460e-002	 2.342363593230225e+001
 1.130015110283960e+000	 8.671451283076302e-002	 2.337615487590268e+001
 1.129117574233009e+000	 9.770922528301183e-002	 2.332085382411337e+001
 1.128109300089399e+000	 1.087337693740023e-001	 2.325744490890368e+001
 1.160005520124402e+000	 0.000000000000000e+000	 2.257683726451350e+001
 1.159953759600982e+000	 1.095786715968847e-002	 2.257342288283102e+001
 1.159797679223019e+000	 2.195736260857955e-002	 2.256553603581232e+001
 1.159536091570028e+000	 3.299721350561456e-002	 2.255286711431649e+001
 1.159167824339611e+000	 4.407611425051633e-002	 2.253510095442460e+001
 1.158691721267636e+000	 5.519272654309909e-002	 2.251191641935534e+001
 1.158106643056953e+000	 6.634567947024450e-002	 2.248298672615680e+001
 1.157411468313821e+000	 7.753356962119486e-002	 2.244797977366008e+001
 1.156605094491205e+000	 8.875496123179154e-002	 2.240655847039700e+001
 1.155686438838045e+000	 1.000083863582625e-001	 2.235838106123100e+001
 1.154654439353568e+000	 1.112923450811353e-001	 2.230310145151251e+001
 1.186673799037173e+000	 0.000000000000000e+000	 2.170005529125371e+001
 1.186620848550362e+000	 1.120978618172458e-002	 2.169321287480058e+001
 1.186461179917815e+000	 2.246215767854747e-002	 2.168324232894494e+001
 1.186193578420510e+000	 3.375581238701111e-002	 2.166979261399556e+001
 1.185816844805080e+000	 4.508941469131111e-002	 2.165250430780997e+001
 1.185329796225141e+000	 5.646159552396950e-002	 2.163100942250735e+001
 1.184731267191354e+000	 6.787095245481060e-002	 2.160493174551839e+001
 1.184020110529385e+000	 7.931604980890453e-002	 2.157388718253767e+001
 1.183195198344893e+000	 9.079541881412187e-002	 2.153748410094229e+001
 1.182255422994611e+000	 1.023075577789163e-001	 2.149532367229866e+001
 1.181199698062607e+000	 1.138509323009261e-001	 2.144700021265111e+001
 1.213342151278578e+000	 0.000000000000000e+000	 2.090767321969917e+001
 1.213288010825120e+000	 1.146170589645821e-002	 2.089736183443513e+001
 1.213124753928167e+000	 2.296695413654130e-002	 2.088515273167630e+001
 1.212851138570086e+000	 3.451441335431171e-002	 2.087065533187769e+001
 1.212465938546455e+000	 4.610271791835455e-002	 2.085346740099233e+001
 1.211967944428558e+000	 5.773046799381450e-002	 2.083317505849136e+001
 1.211355964534790e+000	 6.939622963337105e-002	 2.080935311770044e+001
 1.210628825910150e+000	 8.109853489783273e-002	 2.078156542853728e+001
 1.209785375312910e+000	 9.283588200700788e-002	 2.074936522108712e+001
 1.208824480207525e+000	 1.046067355214826e-001	 2.071229544852145e+001
 1.207745029762831e+000	 1.164095265559097e-001	 2.066988912795275e+001
 1.240010530179849e+000	 0.000000000000000e+000	 2.017866343061231e+001
 1.239955199758569e+000	 1.171362586303883e-002	 2.016535947307649e+001
 1.239788354593661e+000	 2.347175109918509e-002	 2.015123480934970e+001
 1.239508725368846e+000	 3.527301507999124e-002	 2.013586059201136e+001
 1.239115058928623e+000	 4.711602215840111e-002	 2.011879265257584e+001
 1.238606119261905e+000	 5.899934173215044e-002	 2.009957164509665e+001
 1.237980688494794e+000	 7.092150833674160e-002	 2.007772337210503e+001
 1.237237567891589e+000	 8.288102176868853e-002	 2.005275911324613e+001
 1.236375578863144e+000	 9.487634723970345e-002	 2.002417595492505e+001
 1.235393563981607e+000	 1.069059155624702e-001	 1.999145711936023e+001
 1.234290388000549e+000	 1.189681233686213e-001	 1.995407229154559e+001
 1.266678889072220e+000	 0.000000000000000e+000	 1.949342447193269e+001
 1.266622368684020e+000	 1.196554564061589e-002	 1.947810803286141e+001
 1.266451935253877e+000	 2.397654768310291e-002	 1.946285739681045e+001
 1.266166292166884e+000	 3.603161623652462e-002	 1.944720613349767e+001
 1.265764159316470e+000	 4.812932563820523e-002	 1.943066847336071e+001
 1.265244274109201e+000	 6.026821451849370e-002	 1.941273952533318e+001
 1.264605392478897e+000	 7.244678589573809e-002	 1.939289557605721e+001
 1.263846289909173e+000	 8.466350730218103e-002	 1.937059439182075e+001
 1.262965762463481e+000	 9.691681094146248e-002	 1.934527552140721e+001
 1.261962627821675e+000	 1.092050938783884e-001	 1.931636059814887e+001
 1.260835726322077e+000	 1.215267182615958e-001	 1.928325363959851e+001
 9.953870213206724e-001	 9.594122023947824e-002	 3.031046199305269e+001
 9.943989199946589e-001	 1.056922649420928e-001	 3.017230512579937e+001
 9.933113650226917e-001	 1.154669775827053e-001	 3.002120313145621e+001
 9.921235000424145e-001	 1.252640057452699e-001	 2.985704317167135e+001
 9.908344898374512e-001	 1.350819710464206e-001	 2.967972861070814e+001
 9.894435211587168e-001	 1.449194694473043e-001	 2.948917951556236e+001
 9.879498035443918e-001	 1.547750715930050e-001	 2.928533313956910e+001
 9.863525701375676e-001	 1.646473231798204e-001	 2.906814438826466e+001
 9.846510785005697e-001	 1.745347453506194e-001	 2.883758626632095e+001
 9.828446114249161e-001	 1.844358351184653e-001	 2.859365030443399e+001
 9.809324777358747e-001	 1.943490658186562e-001	 2.833634696511444e+001
 1.021930866555178e+000	 9.849967122134781e-002	 2.850753422445714e+001
 1.020916415669762e+000	 1.085107456576842e-001	 2.838608999753151e+001
 1.019799859022319e+000	 1.185461191814804e-001	 2.825337230414454e+001
 1.018580317413973e+000	 1.286044033119972e-001	 2.810924599794675e+001
 1.017256933355725e+000	 1.386841829087085e-001	 2.795358914662278e+001
 1.015828871911665e+000	 1.487840164914495e-001	 2.778629349213075e+001
 1.014295321540812e+000	 1.589024365888926e-001	 2.760726489616349e+001
 1.012655494936566e+000	 1.690379501156183e-001	 2.741642376973227e+001
 1.010908629862745e+000	 1.791890387780153e-001	 2.721370548584059e+001
 1.009053989985139e+000	 1.893541595092008e-001	 2.699906077428837e+001
 1.007090865697531e+000	 1.995317449331146e-001	 2.677245609772810e+001
 1.048475063502990e+000	 1.010581561031999e-001	 2.692973469590000e+001
 1.047434262709218e+000	 1.113292637187003e-001	 2.682337955852836e+001
 1.046288704002161e+000	 1.216253015794872e-001	 2.670730688725836e+001
 1.045037485346122e+000	 1.319448451396527e-001	 2.658135249194762e+001
 1.043679726979181e+000	 1.422864425010265e-001	 2.644536256423380e+001
 1.042214572278316e+000	 1.526486147416389e-001	 2.629919410882903e+001
 1.040641188623105e+000	 1.630298562732486e-001	 2.614271536149716e+001
 1.038958768256984e+000	 1.734286352282083e-001	 2.597580619272783e+001
 1.037166529144998e+000	 1.838433938759065e-001	 2.579835849620000e+001
 1.035263715826961e+000	 1.942725490689864e-001	 2.561027656121574e+001
 1.033249600264920e+000	 2.047144927194935e-001	 2.541147742837840e+001
 1.075019565710423e+000	 1.036166704075697e-001	 2.554674646259414e+001
 1.073952414705431e+000	 1.141478141926027e-001	 2.545390515794330e+001
 1.072777853605359e+000	 1.247045193880078e-001	 2.535279788377380e+001
 1.071494957537422e+000	 1.352853253822968e-001	 2.524322493019978e+001
 1.070102824466526e+000	 1.458887435192349e-001	 2.512499429650463e+001
 1.068600576082287e+000	 1.565132574346200e-001	 2.499792210399583e+001
 1.066987358684599e+000	 1.671573234228618e-001	 2.486183299668033e+001
 1.065262344066698e+000	 1.778193708336415e-001	 2.471656052886115e+001
 1.063424730394631e+000	 1.884978024988976e-001	 2.456194753885272e+001
 1.061473743082011e+000	 1.991909951903410e-001	 2.439784650811377e+001
 1.059408635658941e+000	 2.098973001076576e-001	 2.422411990520758e+001
 1.101564326723789e+000	 1.061752096569922e-001	 2.433101757504000e+001
 1.100470825250804e+000	 1.169663921468526e-001	 2.425017823393257e+001
 1.099267261475050e+000	 1.277837672183244e-001	 2.416242960565470e+001
 1.097952687686433e+000	 1.386258381939897e-001	 2.406753021700299e+001
 1.096526179576468e+000	 1.494910796591940e-001	 2.396524379630849e+001
 1.094986837147195e+000	 1.603779378071404e-001	 2.385533967796915e+001
 1.093333785618622e+000	 1.712848308145205e-001	 2.373759319555683e+001
 1.091566176333586e+000	 1.822101492479693e-001	 2.361178606266304e+001
 1.089683187658943e+000	 1.931522565015935e-001	 2.347770674076146e+001
 1.087684025881921e+000	 2.041094892657834e-001	 2.333515079348512e+001
 1.085567926100498e+000	 2.150801580274720e-001	 2.318392122684513e+001
 1.128109300089399e+000	 1.087337693740023e-001	 2.325744490890368e+001
 1.126989447937741e+000	 1.197849926489115e-001	 2.318717288538697e+001
 1.125756881254374e+000	 1.308630396817190e-001	 2.311126114039172e+001
 1.124410629491716e+000	 1.419663777287919e-001	 2.302942040282839e+001
 1.122949746067712e+000	 1.530934446167641e-001	 2.294136426777859e+001
 1.121373309296657e+000	 1.642426490959474e-001	 2.284680960246469e+001
 1.119680423318503e+000	 1.754123712250134e-001	 2.274547694110189e+001
 1.117870219025528e+000	 1.866009627872430e-001	 2.263709086783518e+001
 1.115941854985237e+000	 1.978067477385986e-001	 2.252138038709628e+001
 1.113894518358322e+000	 2.090280226878327e-001	 2.239807928085727e+001
 1.111727425810493e+000	 2.202630574088016e-001	 2.226692645240782e+001
 1.154654439353568e+000	 1.112923450811353e-001	 2.230310145151251e+001
 1.153508236358646e+000	 1.226036107662409e-001	 2.224205204620787e+001
 1.152246666586472e+000	 1.339423313894738e-001	 2.217655154260724e+001
 1.150868736651832e+000	 1.453069381407635e-001	 2.210625702640125e+001
 1.149373477698965e+000	 1.566958320878054e-001	 2.203082629557623e+001
 1.147759946354290e+000	 1.681073845377886e-001	 2.194991827725040e+001
 1.146027225677570e+000	 1.795399374311290e-001	 2.186319343318600e+001
 1.144174426110399e+000	 1.909918037675140e-001	 2.177031415319173e+001
 1.142200686420812e+000	 2.024612680645178e-001	 2.167094513578456e+001
 1.140105174642845e+000	 2.139465868490073e-001	 2.156475375564596e+001
 1.137887089009828e+000	 2.254459891815113e-001	 2.145141041758253e+001
 1.181199698062607e+000	 1.138509323009261e-001	 2.144700021265112e+001
 1.180027144105923e+000	 1.254222415663019e-001	 2.139393040684475e+001
 1.178736571114482e+000	 1.370216369528710e-001	 2.133752187615995e+001
 1.177326962865341e+000	 1.486475135839651e-001	 2.127737239037908e+001
 1.175797328228936e+000	 1.602982357681785e-001	 2.121307847030142e+001
 1.174146702143711e+000	 1.719721373694114e-001	 2.114423582456676e+001
 1.172374146589153e+000	 1.836675222096557e-001	 2.107043977436162e+001
 1.170478751556079e+000	 1.953826645048333e-001	 2.099128566520566e+001
 1.168459636012969e+000	 2.071158093339556e-001	 2.090636926519882e+001
 1.166315948867122e+000	 2.188651731418263e-001	 2.081528714930118e+001
 1.164046869919403e+000	 2.306289442754662e-001	 2.071763706942277e+001
 1.207745029762831e+000	 1.164095265559097e-001	 2.066988912795275e+001
 1.206546124771974e+000	 1.282408801165561e-001	 2.062366843246038e+001
 1.205226548481543e+000	 1.401009509831926e-001	 2.057514844022254e+001
 1.203785261830803e+000	 1.519880982124569e-001	 2.052386209130707e+001
 1.202221251416331e+000	 1.639006493537434e-001	 2.046933932109816e+001
 1.200533530488537e+000	 1.758369008275634e-001	 2.041110752593851e+001
 1.198721139946579e+000	 1.877951183373822e-001	 2.034869201519415e+001
 1.196783149330445e+000	 1.997735373152525e-001	 2.028161644889659e+001
 1.194718657809009e+000	 2.117703634015168e-001	 2.020940326032697e+001
 1.192526795162783e+000	 2.237837729588086e-001	 2.013157406313303e+001
 1.190206722760122e+000	 2.358119136205312e-001	 2.004765004280503e+001
 1.234290388000549e+000	 1.189681233686213e-001	 1.995407229154559e+001
 1.233065131949204e+000	 1.310595214844649e-001	 1.991369279871142e+001
 1.231716552330795e+000	 1.431802680917210e-001	 1.987198248716230e+001
 1.230243587246780e+000	 1.553286861802993e-001	 1.982840410108984e+001
 1.228645201019855e+000	 1.675030665403604e-001	 1.978241584472296e+001
 1.226920385212384e+000	 1.797016681489920e-001	 1.973347188534435e+001
 1.225068159643175e+000	 1.919227185910969e-001	 1.968102284052003e+001
 1.223087573401376e+000	 2.041644145148226e-001	 1.962451624862338e+001
 1.220977705856232e+000	 2.164249221218061e-001	 1.956339702197938e+001
 1.218737667661458e+000	 2.287023776924730e-001	 1.949710788221566e+001
 1.216366601752886e+000	 2.409948881465710e-001	 1.942508977768067e+001
 1.260835726322077e+000	 1.215267182615958e-001	 1.928325363959852e+001
 1.259584119230017e+000	 1.338781607374896e-001	 1.924783935375775e+001
 1.258206536305377e+000	 1.462595828897382e-001	 1.921199252989786e+001
 1.256701892811832e+000	 1.586692716415527e-001	 1.917510048884724e+001
 1.255069130798217e+000	 1.711054810238902e-001	 1.913654471331613e+001
 1.253307220138871e+000	 1.835664325704446e-001	 1.909570139657863e+001
 1.251415159572273e+000	 1.960503157475885e-001	 1.905194197231949e+001
 1.249391977736748e+000	 2.085552884195949e-001	 1.900463362462292e+001
 1.247236734201940e+000	 2.210794773494281e-001	 1.895313977736402e+001
 1.244948520494780e+000	 2.336209787353382e-001	 1.889682056256410e+001
 1.242526461118596e+000	 2.461778587834510e-001	 1.883503326758845e+001
 9.809324777358747e-001	 1.943490658186562e-001	 2.833634696511444e+001
 9.789137024229728e-001	 2.042743766435053e-001	 2.806664939282076e+001
 9.767879280981021e-001	 2.142087061355223e-001	 2.778559719640386e+001
 9.745545470450379e-001	 2.241504565049763e-001	 2.749320873209494e+001
 9.722129807570792e-001	 2.340980083161345e-001	 2.718951937346157e+001
 9.697626806991601e-001	 2.440497210832210e-001	 2.687458181976755e+001
 9.672031290579123e-001	 2.540039338948809e-001	 2.654846638413610e+001
 9.645338394785437e-001	 2.639589660669880e-001	 2.621126126114139e+001
 9.617543577873684e-001	 2.739131178235835e-001	 2.586307277354016e+001
 9.588642626988490e-001	 2.838646710056856e-001	 2.550402559793908e+001
 9.558631665059840e-001	 2.938118898076575e-001	 2.513426296927750e+001
 1.007090865697531e+000	 1.995317449331146e-001	 2.677245609772810e+001
 1.005018255988954e+000	 2.097217326205241e-001	 2.653479690320349e+001
 1.002835793940865e+000	 2.199209794745262e-001	 2.628705670447447e+001
 1.000542855631143e+000	 2.301278450974099e-001	 2.602922326764829e+001
 9.981388471261151e-001	 2.403406668682315e-001	 2.576130043693337e+001
 9.956232052629930e-001	 2.505577605546663e-001	 2.548330844125200e+001
 9.929953984199389e-001	 2.607774209541257e-001	 2.519528418059824e+001
 9.902549272725891e-001	 2.709979225639719e-001	 2.489728149190389e+001
 9.874013255358587e-001	 2.812175202806164e-001	 2.458937139427443e+001
 9.844341606898323e-001	 2.914344501272308e-001	 2.427164231355501e+001
 9.813530346885656e-001	 3.016469300097511e-001	 2.394420028628518e+001
 1.033249600264920e+000	 2.047144927194935e-001	 2.541147742837841e+001
 1.031123155447073e+000	 2.151691607766280e-001	 2.520285617236521e+001
 1.028884004924326e+000	 2.256333285029850e-001	 2.498537731869666e+001
 1.026531508568457e+000	 2.361053128922975e-001	 2.475899116429886e+001
 1.024065057018631e+000	 2.465834081378281e-001	 2.452366320613729e+001
 1.021484072484157e+000	 2.570658862601133e-001	 2.427937445272231e+001
 1.018788009534555e+000	 2.675509977647321e-001	 2.402612171514138e+001
 1.015976355875734e+000	 2.780369723299311e-001	 2.376391787752025e+001
 1.013048633111059e+000	 2.885220195238799e-001	 2.349279214693365e+001
 1.010004397486102e+000	 2.990043295512846e-001	 2.321279028289925e+001
 1.006843240615852e+000	 3.094820740290298e-001	 2.292397480670279e+001
 1.059408635658941e+000	 2.098973001076576e-001	 2.422411990520758e+001
 1.057228355112487e+000	 2.206166515784633e-001	 2.404170353813132e+001
 1.054932515462900e+000	 2.313457432239041e-001	 2.385160387114229e+001
 1.052520460375683e+000	 2.420828494286582e-001	 2.365372726627413e+001
 1.049991565062670e+000	 2.528262211996881e-001	 2.344799447773977e+001
 1.047345237105108e+000	 2.635740868098780e-001	 2.323434097409232e+001
 1.044580917263728e+000	 2.743246524724556e-001	 2.301271723947344e+001
 1.041698080274572e+000	 2.850761030460262e-001	 2.278308905400015e+001
 1.038696235629327e+000	 2.958266027699860e-001	 2.254543775347801e+001
 1.035574928338934e+000	 3.065742960300392e-001	 2.229976046876097e+001
 1.032333739679205e+000	 3.173173081534752e-001	 2.204607034520971e+001
 1.085567926100498e+000	 2.150801580274720e-001	 2.318392122684513e+001
 1.083333809300356e+000	 2.260641954926754e-001	 2.302504008525775e+001
 1.080981279971006e+000	 2.370582136402892e-001	 2.285960113007693e+001
 1.078509665571524e+000	 2.480604442455112e-001	 2.268746071584284e+001
 1.075918325886272e+000	 2.590690951285747e-001	 2.250848886162976e+001
 1.073206653868300e+000	 2.700823508142762e-001	 2.232256958872682e+001
 1.070374076469423e+000	 2.810983732230515e-001	 2.212960123668663e+001
 1.067420055455696e+000	 2.921153023934179e-001	 2.192949675795102e+001
 1.064344088207020e+000	 3.031312572355475e-001	 2.172218399142249e+001
 1.061145708499603e+000	 3.141443363156863e-001	 2.150760591550385e+001
 1.057824487269989e+000	 3.251526186710684e-001	 2.128572088128174e+001
 1.111727425810493e+000	 2.202630574088016e-001	 2.226692645240782e+001
 1.109439472325838e+000	 2.315117829859109e-001	 2.212907062957021e+001
 1.107030252863060e+000	 2.427707297551455e-001	 2.198573320231835e+001
 1.104499078674683e+000	 2.540380868818758e-001	 2.183671482289456e+001
 1.101845294117478e+000	 2.653120189992516e-001	 2.168182917166229e+001
 1.099068277516187e+000	 2.765906668836241e-001	 2.152090331424936e+001
 1.096167442013604e+000	 2.878721481622747e-001	 2.135377803599359e+001
 1.093142236405699e+000	 2.991545580532664e-001	 2.118030815407145e+001
 1.089992145960496e+000	 3.104359701371768e-001	 2.100036280787528e+001
 1.086716693219385e+000	 3.217144371604181e-001	 2.081382572838423e+001
 1.083315438779566e+000	 3.329879918697909e-001	 2.062059548744951e+001
 1.137887089009828e+000	 2.254459891815113e-001	 2.145141041758253e+001
 1.135545298504095e+000	 2.369594045248153e-001	 2.133222640967048e+001
 1.133079388553482e+000	 2.484832815714788e-001	 2.120858653719628e+001
 1.130488654203866e+000	 2.600157668767713e-001	 2.108023042215038e+001
 1.127772424384331e+000	 2.715549818864824e-001	 2.094691018150777e+001
 1.124930062791226e+000	 2.830990236282377e-001	 2.080839080682378e+001
 1.121960968758237e+000	 2.946459654358806e-001	 2.066445051965134e+001
 1.118864578111176e+000	 3.061938577067329e-001	 2.051488110334875e+001
 1.115640364006114e+000	 3.177407286914862e-001	 2.035948821205998e+001
 1.112287837749558e+000	 3.292845853164264e-001	 2.019809165785827e+001
 1.108806549599299e+000	 3.408234140376239e-001	 2.003052567724722e+001
 1.164046869919403e+000	 2.306289442754662e-001	 2.071763706942277e+001
 1.161651242150283e+000	 2.424070505760348e-001	 2.061492461433314e+001
 1.159128641456689e+000	 2.541958590922946e-001	 2.050872967690260e+001
 1.156478346677774e+000	 2.659934737692165e-001	 2.039872588072059e+001
 1.153699671314873e+000	 2.777979728650303e-001	 2.028459892759567e+001
 1.150791964435869e+000	 2.896074096584329e-001	 2.016604700160461e+001
 1.147754611565289e+000	 3.014198131896246e-001	 2.004278114699466e+001
 1.144587035558720e+000	 3.132331890349774e-001	 1.991452562071428e+001
 1.141288697460231e+000	 3.250455201150880e-001	 1.978101822059456e+001
 1.137859097341395e+000	 3.368547675359032e-001	 1.964201059044616e+001
 1.134297775120553e+000	 3.486588714625484e-001	 1.949726850357071e+001
 1.190206722760122e+000	 2.358119136205312e-001	 2.004765004280503e+001
 1.187757257579563e+000	 2.478547116062153e-001	 1.995935908131179e+001
 1.185177965987098e+000	 2.599084523205985e-001	 1.986850410269136e+001
 1.182468110615112e+000	 2.719711970982310e-001	 1.977468812024852e+001
 1.179626989537143e+000	 2.840409810096590e-001	 1.967752593928179e+001
 1.176653937192574e+000	 2.961158135845260e-001	 1.957664458655810e+001
 1.173548325296723e+000	 3.081936795692618e-001	 1.947168371110572e+001
 1.170309563734924e+000	 3.202725397191609e-001	 1.936229595733001e+001
 1.166937101439205e+000	 3.323503316245950e-001	 1.924814731174195e+001
 1.163430427246173e+000	 3.444249705710406e-001	 1.912891742486987e+001
 1.159789070734689e+000	 3.564943504325457e-001	 1.900429991019492e+001
 1.216366601752886e+000	 2.409948881465710e-001	 1.942508977768067e+001
 1.213863299107094e+000	 2.533023780820027e-001	 1.934931747727088e+001
 1.211227316559127e+000	 2.656210512593958e-001	 1.927184149802715e+001
 1.208457900534584e+000	 2.779489264028339e-001	 1.919218998698103e+001
 1.205554333679185e+000	 2.902839953951322e-001	 1.910990274274252e+001
 1.202515935803794e+000	 3.026242240168329e-001	 1.902453167029760e+001
 1.199342064814506e+000	 3.149675527205473e-001	 1.893564120394057e+001
 1.196032117626381e+000	 3.273118974404437e-001	 1.884280869960069e+001
 1.192585531059394e+000	 3.396551504366193e-001	 1.874562479815257e+001
 1.189001782715169e+000	 3.519951811740304e-001	 1.864369376162201e+001
 1.185280391833071e+000	 3.643298372355973e-001	 1.853663378451240e+001
 1.242526461118596e+000	 2.461778587834510e-001	 1.883503326758844e+001
 1.239969321048035e+000	 2.587500404700431e-001	 1.877002105811167e+001
 1.237276647587192e+000	 2.713336459116922e-001	 1.870410353741898e+001
 1.234447670954891e+000	 2.839266512220444e-001	 1.863673008868857e+001
 1.231481658369039e+000	 2.965270050962132e-001	 1.856736176846828e+001
 1.228377915011984e+000	 3.091326295656696e-001	 1.849547178556956e+001
 1.225135784980603e+000	 3.217414207892365e-001	 1.842054594417635e+001
 1.221754652219686e+000	 3.343512498799867e-001	 1.834208305271330e+001
 1.218233941437156e+000	 3.469599637677736e-001	 1.825959530039744e+001
 1.214573118999657e+000	 3.595653860970647e-001	 1.817260860376853e+001
 1.210771693807061e+000	 3.721653181596841e-001	 1.808066292585362e+001
 9.558631665059840e-001	 2.938118898076575e-001	 2.513426296927750e+001
 9.527507155138414e-001	 3.037530213952426e-001	 2.475419897216879e+001
 9.495265899749483e-001	 3.136862962449286e-001	 2.436429733117226e+001
 9.461905054388915e-001	 3.236099293720238e-001	 2.396481386678035e+001
 9.427422136050960e-001	 3.335221213151299e-001	 2.355603673746892e+001
 9.391815029145866e-001	 3.434210590039753e-001	 2.313828667010401e+001
 9.355081991183116e-001	 3.533049166519174e-001	 2.271191714914610e+001
 9.317221658209343e-001	 3.631718566724364e-001	 2.227731456434301e+001
 9.278233049990163e-001	 3.730200306188906e-001	 2.183489831668674e+001
 9.238115574925392e-001	 3.828475801467559e-001	 2.138512088248823e+001
 9.196869034687286e-001	 3.926526379975133e-001	 2.092846783549878e+001
 9.813530346885656e-001	 3.016469300097511e-001	 2.394420028628518e+001
 9.781575844051821e-001	 3.118531603513708e-001	 2.360774994697109e+001
 9.748474815655586e-001	 3.220513244408870e-001	 2.326303426736762e+001
 9.714224341338947e-001	 3.322395896935919e-001	 2.291025053944580e+001
 9.678821871882342e-001	 3.424161086620216e-001	 2.254962347493892e+001
 9.642265235280022e-001	 3.525790199269325e-001	 2.218140540322250e+001
 9.604552642574868e-001	 3.627264490136036e-001	 2.180587643587319e+001
 9.565682693441295e-001	 3.728565093327700e-001	 2.142334459802703e+001
 9.525654381505310e-001	 3.829673031454391e-001	 2.103414592673543e+001
 9.484467099390737e-001	 3.930569225507893e-001	 2.063864453658279e+001
 9.442120643481219e-001	 4.031234504962961e-001	 2.023723265288999e+001
 1.006843240615852e+000	 3.094820740290298e-001	 2.292397480670279e+001
 1.003564789941372e+000	 3.199534066371333e-001	 2.262723471303283e+001
 1.000168708661770e+000	 3.304164634760867e-001	 2.232349072129631e+001
 9.966546971557494e-001	 3.408693643605512e-001	 2.201288310394689e+001
 9.930224938798730e-001	 3.513102138563777e-001	 2.169557559226718e+001
 9.892718759918836e-001	 3.617371021947264e-001	 2.137175554869794e+001
 9.854026599493357e-001	 3.721481062121692e-001	 2.104163411234034e+001
 9.814147020823928e-001	 3.825412903160630e-001	 2.070544631817864e+001
 9.773078991396468e-001	 3.929147074744280e-001	 2.036345119063833e+001
 9.730821888058523e-001	 4.032664002295056e-001	 2.001593181215692e+001
 9.687375501904938e-001	 4.135944017341220e-001	 1.966319536749115e+001
 1.032333739679205e+000	 3.173173081534752e-001	 2.204607034520971e+001
 1.028972287659047e+000	 3.280537460765929e-001	 2.178535920341419e+001
 1.025490226950689e+000	 3.387816987110449e-001	 2.151864839306968e+001
 1.021887250347247e+000	 3.494992382703296e-001	 2.124602268868240e+001
 1.018163089683721e+000	 3.602044213330747e-001	 2.096758727172781e+001
 1.014317516476093e+000	 3.708952897803031e-001	 2.068346788291922e+001
 1.010350342535127e+000	 3.815698717593335e-001	 2.039381095280265e+001
 1.006261420553655e+000	 3.922261826735969e-001	 2.009878371164847e+001
 1.002050644666225e+000	 4.028622261975743e-001	 1.979857427968111e+001
 9.977179509799359e-001	 4.134759953160150e-001	 1.949339173874159e+001
 9.932633180753755e-001	 4.240654733865391e-001	 1.918346618652018e+001
 1.057824487269989e+000	 3.251526186710684e-001	 2.128572088128174e+001
 1.054380033094837e+000	 3.361541644938118e-001	 2.105756431114022e+001
 1.050811992119420e+000	 3.471470155062801e-001	 2.082420313178179e+001
 1.047120049551180e+000	 3.581291963203556e-001	 2.058566818522260e+001
 1.043303930603482e+000	 3.690987155269895e-001	 2.034200853456033e+001
 1.039363401150493e+000	 3.800535666566078e-001	 2.009329160016116e+001
 1.035298268356127e+000	 3.909917291668158e-001	 1.983960327801704e+001
 1.031108381275849e+000	 4.019111694566532e-001	 1.958104804167804e+001
 1.026793631430127e+000	 4.128098419065946e-001	 1.931774902923617e+001
 1.022353953348383e+000	 4.236856899434282e-001	 1.904984811689241e+001
 1.017789325082299e+000	 4.345366471290957e-001	 1.877750598067396e+001
 1.083315438779566e+000	 3.329879918697909e-001	 2.062059548744951e+001
 1.079787981785381e+000	 3.442546477128530e-001	 2.042171212925944e+001
 1.076133959855069e+000	 3.555123992223094e-001	 2.021825312629130e+001
 1.072353050610339e+000	 3.667592234080572e-001	 2.001019702851271e+001
 1.068444972642865e+000	 3.779930808729982e-001	 1.979753924849582e+001
 1.064409486184943e+000	 3.892119167965864e-001	 1.958029218395000e+001
 1.060246393753604e+000	 4.004136619463352e-001	 1.935848532498919e+001
 1.055955540766905e+000	 4.115962337165134e-001	 1.913216534798895e+001
 1.051536816131212e+000	 4.227575371932062e-001	 1.890139619796614e+001
 1.046990152798253e+000	 4.338954662448556e-001	 1.866625916147159e+001
 1.042315528290796e+000	 4.450079046373393e-001	 1.842685293202126e+001
 1.108806549599299e+000	 3.408234140376239e-001	 2.003052567724722e+001
 1.105196089267310e+000	 3.523551815577792e-001	 1.985781437515281e+001
 1.101456085844741e+000	 3.638778352196508e-001	 1.968102895676870e+001
 1.097586209367518e+000	 3.753893044308631e-001	 1.950009742649558e+001
 1.093586171805575e+000	 3.868875018059776e-001	 1.931496408575660e+001
 1.089455727749307e+000	 3.983703241731845e-001	 1.912558964270303e+001
 1.085194675068824e+000	 4.098356536096109e-001	 1.893195130796281e+001
 1.080802855544754e+000	 4.212813585044585e-001	 1.873404287876098e+001
 1.076280155469341e+000	 4.327052946491252e-001	 1.853187481382887e+001
 1.071626506216607e+000	 4.441053063534078e-001	 1.832547430158331e+001
 1.066841884780397e+000	 4.554792275868185e-001	 1.811488532409595e+001
 1.134297775120553e+000	 3.486588714625484e-001	 1.949726850357071e+001
 1.130604311077259e+000	 3.604557518526529e-001	 1.934779636684725e+001
 1.126778325775542e+000	 3.722433088588220e-001	 1.919465892564044e+001
 1.122819481665506e+000	 3.840194242862013e-001	 1.903773552247604e+001
 1.118727484095319e+000	 3.957819627608041e-001	 1.887692199331585e+001
 1.114502082013446e+000	 4.075287727593477e-001	 1.871213076360830e+001
 1.110143068643055e+000	 4.192576876683624e-001	 1.854329093045136e+001
 1.105650282127328e+000	 4.309665268717704e-001	 1.837034833370158e+001
 1.101023606144375e+000	 4.426530968660690e-001	 1.819326561896730e+001
 1.096262970490503e+000	 4.543151924021958e-001	 1.801202229549866e+001
 1.091368351630633e+000	 4.659505976530814e-001	 1.782661479203286e+001
 1.159789070734689e+000	 3.564943504325457e-001	 1.900429991019492e+001
 1.156012602751863e+000	 3.685563444215371e-001	 1.887529108461445e+001
 1.152100635334577e+000	 3.806088055003410e-001	 1.874296424315281e+001
 1.148052823347096e+000	 3.926495678714999e-001	 1.860715211877680e+001
 1.143868865515805e+000	 4.046764481723542e-001	 1.846770486864600e+001
 1.139548505147221e+000	 4.166872465280218e-001	 1.832449015396108e+001
 1.135091530817564e+000	 4.286797476343087e-001	 1.817739320476631e+001
 1.130497777032559e+000	 4.406517218697299e-001	 1.802631687308587e+001
 1.125767124856174e+000	 4.526009264357540e-001	 1.787118167789807e+001
 1.120899502507002e+000	 4.645251065243294e-001	 1.771192584554090e+001
 1.115894885921037e+000	 4.764219965116759e-001	 1.754850534919883e+001
 1.185280391833071e+000	 3.643298372355973e-001	 1.853663378451240e+001
 1.181420919827755e+000	 3.766569450884943e-001	 1.842545879120310e+001
 1.177422970208952e+000	 3.889743105047254e-001	 1.831127957563642e+001
 1.173286190255080e+000	 4.012797200841873e-001	 1.819388451392906e+001
 1.169010272070738e+000	 4.135709424755045e-001	 1.807308104676154e+001
 1.164594953320496e+000	 4.258457294521522e-001	 1.794869573868675e+001
 1.160040017933619e+000	 4.381018170191692e-001	 1.782057432001399e+001
 1.155345296778378e+000	 4.503369265496192e-001	 1.768858171524416e+001
 1.150510668304600e+000	 4.625487659498976e-001	 1.755260206217981e+001
 1.145536059153163e+000	 4.747350308529197e-001	 1.741253872594331e+001
 1.140421444731140e+000	 4.868934058381502e-001	 1.726831431220680e+001
 1.210771693807061e+000	 3.721653181596841e-001	 1.808066292585362e+001
 1.206829217841571e+000	 3.847575396775871e-001	 1.798482844609781e+001
 1.202745286085772e+000	 3.973398092324930e-001	 1.788629522075640e+001
 1.198519538232249e+000	 4.099098658216918e-001	 1.778480975441525e+001
 1.194151659763825e+000	 4.224654301051314e-001	 1.768013994412295e+001
 1.189641382703130e+000	 4.350042055046847e-001	 1.757207511195385e+001
 1.184988486332486e+000	 4.475238793346628e-001	 1.746042601655043e+001
 1.180192797882715e+000	 4.600221239627187e-001	 1.734502484827512e+001
 1.175254193189512e+000	 4.724965980002161e-001	 1.722572521277872e+001
 1.170172597316046e+000	 4.849449475210771e-001	 1.710240210792682e+001
 1.164947985140473e+000	 4.973648073080526e-001	 1.697495189911455e+001
 9.196869034687286e-001	 3.926526379975133e-001	 2.092846783549878e+001
 9.154500070382964e-001	 4.024318639757796e-001	 2.046663363483780e+001
 9.111003186645378e-001	 4.121848497096857e-001	 2.000099319384821e+001
 9.066379396471510e-001	 4.219097086716465e-001	 1.953178804165232e+001
 9.020630121438826e-001	 4.316045495771123e-001	 1.905926438575629e+001
 8.973757194803052e-001	 4.412674774614075e-001	 1.858367312729654e+001
 8.925762864264074e-001	 4.508965947721493e-001	 1.810526988695756e+001
 8.876649794392210e-001	 4.604900024760815e-001	 1.762431504215026e+001
 8.826421068707412e-001	 4.700458011791232e-001	 1.714107377592859e+001
 8.775080191404553e-001	 4.795620922583880e-001	 1.665581613800277e+001
 8.722631088718381e-001	 4.890369790048946e-001	 1.616881711807808e+001
 9.442120643481219e-001	 4.031234504962961e-001	 2.023723265288998e+001
 9.398621831981485e-001	 4.131634577139968e-001	 1.983090759318189e+001
 9.353965022980482e-001	 4.231765249420750e-001	 1.942045521360806e+001
 9.308151256488799e-001	 4.331607153452563e-001	 1.900615995284674e+001
 9.261181991993086e-001	 4.431140872044483e-001	 1.858831476336921e+001
 9.213059111636404e-001	 4.530346950222970e-001	 1.816722105006725e+001
 9.163784923057911e-001	 4.629205906447350e-001	 1.774318861409131e+001
 9.113362161883818e-001	 4.727698243973318e-001	 1.731653560274408e+001
 9.061793993862046e-001	 4.825804462352117e-001	 1.688758846616608e+001
 9.009084016633495e-001	 4.923505069052576e-001	 1.645668192143533e+001
 8.955236261133457e-001	 5.020780591192977e-001	 1.602415892456907e+001
 9.687375501904938e-001	 4.135944017341220e-001	 1.966319536749115e+001
 9.642746828240307e-001	 4.238951936465678e-001	 1.930575330537830e+001
 9.596930078607578e-001	 4.341683458149260e-001	 1.894399448135902e+001
 9.549926320031290e-001	 4.444118710955526e-001	 1.857822914608851e+001
 9.501737049907746e-001	 4.546237773341320e-001	 1.820877947562232e+001
 9.452364199267954e-001	 4.648020684999468e-001	 1.783597945201558e+001
 9.401810135691121e-001	 4.749447458365617e-001	 1.746017474500264e+001
 9.350077665860249e-001	 4.850498090276872e-001	 1.708172259586393e+001
 9.297170037752286e-001	 4.951152573769659e-001	 1.670099170448407e+001
 9.243090942455402e-001	 5.051390910003677e-001	 1.631836212048131e+001
 9.187844515606748e-001	 5.151193120298432e-001	 1.593422513915401e+001
 9.932633180753755e-001	 4.240654733865391e-001	 1.918346618652018e+001
 9.886874631931889e-001	 4.346270529926760e-001	 1.886899583873628e+001
 9.839897928328978e-001	 4.451602930922763e-001	 1.855012740173718e+001
 9.791704163983789e-001	 4.556631562327355e-001	 1.822718128049044e+001
 9.742294874202677e-001	 4.661335998239209e-001	 1.790049281388941e+001
 9.691672038905157e-001	 4.765695773011598e-001	 1.757041211406930e+001
 9.639838085611113e-001	 4.869690393050530e-001	 1.723730390399340e+001
 9.586795892061150e-001	 4.973299348768570e-001	 1.690154735469814e+001
 9.532548788462155e-001	 5.076502126681390e-001	 1.656353592347574e+001
 9.477100559350589e-001	 5.179278221633580e-001	 1.622367719414212e+001
 9.420455445066669e-001	 5.281607149139946e-001	 1.588239272039083e+001
 1.017789325082299e+000	 4.345366471290957e-001	 1.877750598067396e+001
 1.013100481582870e+000	 4.453590169715063e-001	 1.850074535667209e+001
 1.008286814694700e+000	 4.561523475381651e-001	 1.821959206496282e+001
 1.003348436523110e+000	 4.669145510670051e-001	 1.793436233751345e+001
 9.982855043897772e-001	 4.776435345315741e-001	 1.764538996310810e+001
 9.930982211755461e-001	 4.883372008327391e-001	 1.735302610029712e+001
 9.877868356265308e-001	 4.989934500076330e-001	 1.705763908712840e+001
 9.823516426226164e-001	 5.096101804545525e-001	 1.675961424935392e+001
 9.767929834075642e-001	 5.201852901724832e-001	 1.645935370868325e+001
 9.711112457799381e-001	 5.307166780138687e-001	 1.615727619251225e+001
 9.653068642441641e-001	 5.412022449492143e-001	 1.585381684639032e+001
 1.042315528290796e+000	 4.450079046373393e-001	 1.842685293202126e+001
 1.037513695270321e+000	 4.560910668022424e-001	 1.818313095352631e+001
 1.032584030926394e+000	 4.671444899166304e-001	 1.793508902864661e+001
 1.027526650065803e+000	 4.781660359085613e-001	 1.768302612580205e+001
 1.022341713801290e+000	 4.891535613148496e-001	 1.742726102193378e+001
 1.017029429902632e+000	 5.001049185014880e-001	 1.716813210218025e+001
 1.011590053110111e+000	 5.110179569017253e-001	 1.690599715617553e+001
 1.006023885409494e+000	 5.218905242704837e-001	 1.664123317299847e+001
 1.000331276267676e+000	 5.327204679537507e-001	 1.637423613666362e+001
 9.945126228282096e-001	 5.435056361715400e-001	 1.610542082388161e+001
 9.885683700660080e-001	 5.542438793129652e-001	 1.583522060563021e+001
 1.066841884780397e+000	 4.554792275868185e-001	 1.811488532409595e+001
 1.061927061532788e+000	 4.668231837040687e-001	 1.790006959338047e+001
 1.056881399008212e+000	 4.781367009917106e-001	 1.768105619998578e+001
 1.051705014714938e+000	 4.894175910676042e-001	 1.745811491532358e+001
 1.046398073556794e+000	 5.006636600315061e-001	 1.723153721152593e+001
 1.040960788192517e+000	 5.118727097142092e-001	 1.700163605910795e+001
 1.035393419356594e+000	 5.230425389447538e-001	 1.676874572243636e+001
 1.029696276140712e+000	 5.341709448343606e-001	 1.653322155540496e+001
 1.023869716234950e+000	 5.452557240756947e-001	 1.629543979956085e+001
 1.017914146127906e+000	 5.562946742560117e-001	 1.605579738673649e+001
 1.011830021265040e+000	 5.672855951827097e-001	 1.581471174802679e+001
 1.091368351630633e+000	 4.659505976530814e-001	 1.782661479203286e+001
 1.086340537647517e+000	 4.775553488961693e-001	 1.763706463395610e+001
 1.081178876420385e+000	 4.891289615274444e-001	 1.744347245723325e+001
 1.075883488158995e+000	 5.006691968543336e-001	 1.724606799238069e+001
 1.070454541558279e+000	 5.121738105393018e-001	 1.704510421243881e+001
 1.064892254165948e+000	 5.236405538777059e-001	 1.684085713802811e+001
 1.059196892710721e+000	 5.350671750941420e-001	 1.663362564275681e+001
 1.053368773390236e+000	 5.464514206558941e-001	 1.642373126180104e+001
 1.047408262117787e+000	 5.577910366020672e-001	 1.621151800629500e+001
 1.041315774727059e+000	 5.690837698869241e-001	 1.599735218594874e+001
 1.035091777134104e+000	 5.803273697359112e-001	 1.578162224206113e+001
 1.115894885921037e+000	 4.764219965116759e-001	 1.754850534919883e+001
 1.110754080891756e+000	 4.882875435977283e-001	 1.738102938660457e+001
 1.105476420643145e+000	 5.001212522878700e-001	 1.720968559152304e+001
 1.100062028086456e+000	 5.119208335789502e-001	 1.703465384243899e+001
 1.094511075707730e+000	 5.236839926959949e-001	 1.685613845847579e+001
 1.088823785943670e+000	 5.354084303987813e-001	 1.667436801936515e+001
 1.083000431517234e+000	 5.470918443073142e-001	 1.648959518970280e+001
 1.077041335732030e+000	 5.587319302447943e-001	 1.630209655078628e+001
 1.070946872724587e+000	 5.703263835966207e-001	 1.611217244311561e+001
 1.064717467673700e+000	 5.818729006839174e-001	 1.592014682238104e+001
 1.058353596966040e+000	 5.933691801500316e-001	 1.572636713146968e+001
 1.140421444731140e+000	 4.868934058381502e-001	 1.726831431220680e+001
 1.135167648542750e+000	 4.990197490279299e-001	 1.712013194570144e+001
 1.129773989156722e+000	 5.111135540370256e-001	 1.696826091007655e+001
 1.124240592185799e+000	 5.231724815516531e-001	 1.681282240601577e+001
 1.118567633907137e+000	 5.351941863593439e-001	 1.665396293370938e+001
 1.112755341646426e+000	 5.471763186842383e-001	 1.649185413332982e+001
 1.106803994120874e+000	 5.591165255416938e-001	 1.632669263514827e+001
 1.100713921740058e+000	 5.710124521107712e-001	 1.615869992312776e+001
 1.094485506863751e+000	 5.828617431231077e-001	 1.598812221557547e+001
 1.088119184015863e+000	 5.946620442666314e-001	 1.581523036613786e+001
 1.081615440053690e+000	 6.064110036025346e-001	 1.564031978807993e+001
 1.164947985140473e+000	 4.973648073080526e-001	 1.697495189911455e+001
 1.159581197877747e+000	 5.097519464059583e-001	 1.684365815491717e+001
 1.154071539441347e+000	 5.221058475389500e-001	 1.670884745784627e+001
 1.148419138145507e+000	 5.344241210826426e-001	 1.657057445136633e+001
 1.142624174058487e+000	 5.467043713871074e-001	 1.642891960036842e+001
 1.136686879394964e+000	 5.589441981408801e-001	 1.628398905576406e+001
 1.130607538866382e+000	 5.711411977547047e-001	 1.613591453553349e+001
 1.124386489988285e+000	 5.832929647635357e-001	 1.598485322667716e+001
 1.118024123343679e+000	 5.953970932452810e-001	 1.583098771222309e+001
 1.111520882801578e+000	 6.074511782547065e-001	 1.567452592709439e+001
 1.104877265689896e+000	 6.194528172708822e-001	 1.551570114624187e+001
 8.722631088718381e-001	 4.890369790048946e-001	 1.616881711807808e+001
 8.669069994773564e-001	 4.984699794031350e-001	 1.567934122030007e+001
 8.614409475685219e-001	 5.078577791162043e-001	 1.518729086408701e+001
 8.558654737743154e-001	 5.171984938406529e-001	 1.469370917833304e+001
 8.501811411206635e-001	 5.264902458615942e-001	 1.419967462467053e+001
 8.443885549780590e-001	 5.357311652289508e-001	 1.370630006458519e+001
 8.384883629704415e-001	 5.449193909360232e-001	 1.321473177377849e+001
 8.324812548450976e-001	 5.540530720989082e-001	 1.272614840453859e+001
 8.263679623034136e-001	 5.631303691352767e-001	 1.224175989688340e+001
 8.201492587923700e-001	 5.721494549410070e-001	 1.176280633924027e+001
 8.138259592567364e-001	 5.811085160631598e-001	 1.129055677942766e+001
 8.955236261133457e-001	 5.020780591192977e-001	 1.602415892456908e+001
 8.900246861062579e-001	 5.117626080080405e-001	 1.558990346756930e+001
 8.844128717634382e-001	 5.214007508515945e-001	 1.515417851393418e+001
 8.786887175973517e-001	 5.309905530979979e-001	 1.471772662422315e+001
 8.728528016480038e-001	 5.405300869595506e-001	 1.428131656399996e+001
 8.669057454291611e-001	 5.500174326204224e-001	 1.384574279035264e+001
 8.608482138348055e-001	 5.594506794466541e-001	 1.341182490879428e+001
 8.546809150055599e-001	 5.688279271970237e-001	 1.298040710063133e+001
 8.484046001549335e-001	 5.781472872332618e-001	 1.255235752080009e+001
 8.420200633552514e-001	 5.874068837280613e-001	 1.212856766608564e+001
 8.355281412832462e-001	 5.966048548693306e-001	 1.170995171354901e+001
 9.187844515606748e-001	 5.151193120298432e-001	 1.593422513915401e+001
 9.131426790481644e-001	 5.250554127421397e-001	 1.554880039639155e+001
 9.073851003396591e-001	 5.349439020332116e-001	 1.516247756421855e+001
 9.015122638313120e-001	 5.447827951019330e-001	 1.477575252489048e+001
 8.955247625774229e-001	 5.545701140871350e-001	 1.438914012850841e+001
 8.894232342352665e-001	 5.643038893065866e-001	 1.400317403430963e+001
 8.832083609691115e-001	 5.739821604984207e-001	 1.361840654230262e+001
 8.768808693131817e-001	 5.836029780634552e-001	 1.323540841476601e+001
 8.704415299933851e-001	 5.931644043068414e-001	 1.285476868695979e+001
 8.638911577076851e-001	 6.026645146774508e-001	 1.247709446622781e+001
 8.572306108650805e-001	 6.121013990034107e-001	 1.210301071850236e+001
 9.420455445066669e-001	 5.281607149139946e-001	 1.588239272039083e+001
 9.362609378459224e-001	 5.383483703426760e-001	 1.554000997404669e+001
 9.303575930951712e-001	 5.484872089601938e-001	 1.519686387624140e+001
 9.243360725344286e-001	 5.585751957156878e-001	 1.485325374077304e+001
 9.181969842324795e-001	 5.686103026739566e-001	 1.450949238383332e+001
 9.119409819903062e-001	 5.785905102858034e-001	 1.416590625833195e+001
 9.055687652426796e-001	 5.885138086608936e-001	 1.382283559561310e+001
 8.990810789176518e-001	 5.983781988415262e-001	 1.348063455362036e+001
 8.924787132537713e-001	 6.081816940757199e-001	 1.313967137031334e+001
 8.857625035748910e-001	 6.179223210879754e-001	 1.280032852089492e+001
 8.789333300225429e-001	 6.275981213460914e-001	 1.246300287715758e+001
 9.653068642441641e-001	 5.412022449492143e-001	 1.585381684639032e+001
 9.593794220423776e-001	 5.516414575468932e-001	 1.554923382091612e+001
 9.533303098279591e-001	 5.620306479316777e-001	 1.524367316739873e+001
 9.471601037649345e-001	 5.723677308024932e-001	 1.493728433570272e+001
 9.408694269367316e-001	 5.826506281496252e-001	 1.463022647448381e+001
 9.344589492882121e-001	 5.928772705564345e-001	 1.432266879937531e+001
 9.279293875248308e-001	 6.030455985036434e-001	 1.401479098294329e+001
 9.212815049686621e-001	 6.131535636745614e-001	 1.370678356510314e+001
 9.145161113710950e-001	 6.231991302596035e-001	 1.339884838236456e+001
 9.076340626820888e-001	 6.331802762584340e-001	 1.309119901395096e+001
 9.006362607759364e-001	 6.430949947780623e-001	 1.278406124251337e+001
 9.885683700660080e-001	 5.542438793129652e-001	 1.583522060563021e+001
 9.824980911803788e-001	 5.649346510920354e-001	 1.556369305489918e+001
 9.763032103360101e-001	 5.755741952468014e-001	 1.529070413311492e+001
 9.699843175810624e-001	 5.861603762255794e-001	 1.501629705771803e+001
 9.635420510137376e-001	 5.966910659437502e-001	 1.474052250106997e+001
 9.569770967229156e-001	 6.071641451168405e-001	 1.446343913559837e+001
 9.502901886848859e-001	 6.175775045962409e-001	 1.418511421265025e+001
 9.434821086159001e-001	 6.279290467058839e-001	 1.390562417348484e+001
 9.365536857803576e-001	 6.382166865781973e-001	 1.362505529044062e+001
 9.295057967545002e-001	 6.484383534876271e-001	 1.334350433591533e+001
 9.223393651455634e-001	 6.585919921800144e-001	 1.306107927640259e+001
 1.011830021265040e+000	 5.672855951827097e-001	 1.581471174802679e+001
 1.005616904802770e+000	 5.782279277153465e-001	 1.557195032092939e+001
 9.992762544173094e-001	 5.891178272047021e-001	 1.532704672640327e+001
 9.928086740410455e-001	 5.999531078481775e-001	 1.507997880365119e+001
 9.862148167870557e-001	 6.107315914859411e-001	 1.483073106718002e+001
 9.794953848883495e-001	 6.214511089653824e-001	 1.457929537399911e+001
 9.726511295921650e-001	 6.321095015082566e-001	 1.432567163425843e+001
 9.656828510090559e-001	 6.427046220788176e-001	 1.406986856359862e+001
 9.585913979165628e-001	 6.532343367512070e-001	 1.381190447501838e+001
 9.513776675173451e-001	 6.636965260743545e-001	 1.355180810759664e+001
 9.440426051517269e-001	 6.740890864326373e-001	 1.329050061329128e+001
 1.035091777134104e+000	 5.803273697359112e-001	 1.578162224206114e+001
 1.028735822452400e+000	 5.915212641540699e-001	 1.556375388898199e+001
 1.022249401869843e+000	 6.026615201045174e-001	 1.534293163998118e+001
 1.015633133203116e+000	 6.137459015335169e-001	 1.511910629696585e+001
 1.008887684580245e+000	 6.247721802058077e-001	 1.489223593198076e+001
 1.002013774378445e+000	 6.357381371004209e-001	 1.466228662330607e+001
 9.950121711159885e-001	 6.466415638092610e-001	 1.442923324274455e+001
 9.878836932978198e-001	 6.574802639366864e-001	 1.419306029231287e+001
 9.806292092147125e-001	 6.682520544983372e-001	 1.395379968500360e+001
 9.732496366958434e-001	 6.789547673174153e-001	 1.371365965034398e+001
 9.657459428147288e-001	 6.895862504166215e-001	 1.347396459611327e+001
 1.058353596966040e+000	 5.933691801500316e-001	 1.572636713146968e+001
 1.051854803672116e+000	 6.048146371454501e-001	 1.552990042749817e+001
 1.045222612491598e+000	 6.162052502453843e-001	 1.532959773101945e+001
 1.038457655125506e+000	 6.275387331448290e-001	 1.512541887104441e+001
 1.031560614716861e+000	 6.388128075329591e-001	 1.491733283103545e+001
 1.024532225787134e+000	 6.500252045203179e-001	 1.470531850227636e+001
 1.017373274125678e+000	 6.611736660688250e-001	 1.448936549442227e+001
 1.010084596631881e+000	 6.722559464228142e-001	 1.426992058867723e+001
 1.002667081109809e+000	 6.832698135392944e-001	 1.404965941778711e+001
 9.951216660152161e-001	 6.942130505156094e-001	 1.382908119194019e+001
 9.874493401548727e-001	 7.050834570126574e-001	 1.360826426064767e+001
 1.081615440053690e+000	 6.064110036025346e-001	 1.564031978807993e+001
 1.074973808004762e+000	 6.181080234267304e-001	 1.546211364272451e+001
 1.068195846080558e+000	 6.297489939264407e-001	 1.527917468928213e+001
 1.061282199866449e+000	 6.413315785453437e-001	 1.509150578464612e+001
 1.054233567520466e+000	 6.528534488970053e-001	 1.489912203307558e+001
 1.047050699708348e+000	 6.643122862234333e-001	 1.470205150653004e+001
 1.039734399490552e+000	 6.757057828565188e-001	 1.450143175122278e+001
 1.032285522160929e+000	 6.870316436805244e-001	 1.429967433002832e+001
 1.024704975036855e+000	 6.982875875937834e-001	 1.409697877030228e+001
 1.016993717200683e+000	 7.094713489677370e-001	 1.389348827145486e+001
 1.009152759192461e+000	 7.205806791014351e-001	 1.368936514092366e+001
 1.104877265689896e+000	 6.194528172708822e-001	 1.551570114624187e+001
 1.098092794993187e+000	 6.314013997351550e-001	 1.535293644752697e+001
 1.091169062434710e+000	 6.432927274468235e-001	 1.518457870391829e+001
 1.084106727484178e+000	 6.551244135982918e-001	 1.501070592955952e+001
 1.076906503314615e+000	 6.668940797275553e-001	 1.483141309002778e+001
 1.069569156736019e+000	 6.785993572081285e-001	 1.464858423279361e+001
 1.062095508079932e+000	 6.902378887419132e-001	 1.446404768975170e+001
 1.054486431034654e+000	 7.018073298531413e-001	 1.427801645795899e+001
 1.046742852430854e+000	 7.133053503815100e-001	 1.409072935900844e+001
 1.038865751977465e+000	 7.247296359725971e-001	 1.390245029227350e+001
 1.030856161947795e+000	 7.360778895636447e-001	 1.371346740964271e+001
 8.138259592567364e-001	 5.811085160631598e-001	 1.129055677942766e+001
 8.073989196223579e-001	 5.900057536711100e-001	 1.082599169680250e+001
 8.008690357874088e-001	 5.988393841156299e-001	 1.036929023241089e+001
 7.942372439580684e-001	 6.076076406512598e-001	 9.920530091227382e+000
 7.875045204774031e-001	 6.163087747742401e-001	 9.479775784226522e+000
 7.806718813845675e-001	 6.249410573556360e-001	 9.047079360107937e+000
 7.737403819358265e-001	 6.335027797617577e-001	 8.622481169302116e+000
 7.667111160878265e-001	 6.419922549603809e-001	 8.206010656791175e+000
 7.595852159436007e-001	 6.504078186112841e-001	 7.797687180089766e+000
 7.523638511618763e-001	 6.587478301396494e-001	 7.397520848562287e+000
 7.450482283302942e-001	 6.670106737908847e-001	 7.005515096592133e+000
 8.355281412832462e-001	 5.966048548693306e-001	 1.170995171354901e+001
 8.289297126895775e-001	 6.057393538572367e-001	 1.129637620463781e+001
 8.222256973632530e-001	 6.148085494782434e-001	 1.088720734802170e+001
 8.154170564761907e-001	 6.238106278733666e-001	 1.048262224632359e+001
 8.085047924075216e-001	 6.327437939117713e-001	 1.008279425024175e+001
 8.014899482910344e-001	 6.416062723541129e-001	 9.687893575173819e+000
 7.943736075234262e-001	 6.503963090028356e-001	 9.298087935734388e+000
 7.871568932337913e-001	 6.591121718378924e-001	 8.913543194638441e+000
 7.798409677148595e-001	 6.677521521363643e-001	 8.534443818397405e+000
 7.724270318165429e-001	 6.763145655744852e-001	 8.162535222886927e+000
 7.649163243024476e-001	 6.847977533105901e-001	 7.798910931927099e+000
 8.572306108650805e-001	 6.121013990034107e-001	 1.210301071850237e+001
 8.504607910413642e-001	 6.214731625150546e-001	 1.173164419678691e+001
 8.435826419166745e-001	 6.307779264339034e-001	 1.136186688621964e+001
 8.365971496289765e-001	 6.400138297868191e-001	 1.099393762642164e+001
 8.295053425937876e-001	 6.491790308152675e-001	 1.062811936494940e+001
 8.223082910398663e-001	 6.582717081688778e-001	 1.026467968963436e+001
 8.150071065046908e-001	 6.672900620856198e-001	 9.903897638627065e+000
 8.076029412901695e-001	 6.762323155570230e-001	 9.547654800754428e+000
 8.000969878791011e-001	 6.850967154768765e-001	 9.197424579624626e+000
 7.924904783129740e-001	 6.938815337718781e-001	 8.853411555942287e+000
 7.847846835317627e-001	 7.025850685127173e-001	 8.515817651638816e+000
 8.789333300225429e-001	 6.275981213460914e-001	 1.246300287715758e+001
 8.719921169979256e-001	 6.372071521100241e-001	 1.212637626242662e+001
 8.649398320725696e-001	 6.467474870358032e-001	 1.178906988353660e+001
 8.577774863507546e-001	 6.562172180355882e-001	 1.145140813986841e+001
 8.505061342846643e-001	 6.656144567226070e-001	 1.111372589075357e+001
 8.431268731983189e-001	 6.749373356349260e-001	 1.077757020240798e+001
 8.356408427702822e-001	 6.841840094455123e-001	 1.044511402567597e+001
 8.280492244755902e-001	 6.933526561569474e-001	 1.011668209568604e+001
 8.203532409874395e-001	 7.024414782792147e-001	 9.792581499105987e+000
 8.125541555392345e-001	 7.114487039889694e-001	 9.473121929309784e+000
 8.046532712476672e-001	 7.203725882687514e-001	 9.158615239895278e+000
 9.006362607759364e-001	 6.430949947780623e-001	 1.278406124251337e+001
 8.935236528794699e-001	 6.529412951076056e-001	 1.247589516220947e+001
 8.862972304558356e-001	 6.627172033371349e-001	 1.216524662490686e+001
 8.789580295758553e-001	 6.724207642636473e-001	 1.185305812022772e+001
 8.715071307286160e-001	 6.820500428716689e-001	 1.154211615137222e+001
 8.639456583336481e-001	 6.916031255872529e-001	 1.123305859991989e+001
 8.562747802108592e-001	 7.010781215179124e-001	 1.092625836055122e+001
 8.484957070086822e-001	 7.104731636768402e-001	 1.062209597356280e+001
 8.406096915909896e-001	 7.197864101897744e-001	 1.032095898911049e+001
 8.326180283833888e-001	 7.290160454828978e-001	 1.002324131791951e+001
 8.245220526795862e-001	 7.381602814501764e-001	 9.729342571445558e+000
 9.223393651455634e-001	 6.585919921800144e-001	 1.306107927640259e+001
 9.150553610062056e-001	 6.686755639732592e-001	 1.277624231126811e+001
 9.076547996913685e-001	 6.786870473910930e-001	 1.248980255901454e+001
 9.001387422386069e-001	 6.886244401149673e-001	 1.220324790955110e+001
 8.925082951741051e-001	 6.984857605003322e-001	 1.191698491533658e+001
 8.847646100131097e-001	 7.082690488608533e-001	 1.163143220829577e+001
 8.769088827170830e-001	 7.179723687382210e-001	 1.134701973440026e+001
 8.689423531080759e-001	 7.275938081558755e-001	 1.106418796203299e+001
 8.608663042408664e-001	 7.371314808549521e-001	 1.078338706746857e+001
 8.526820617335016e-001	 7.465835275108047e-001	 1.050507610093503e+001
 8.443909930569482e-001	 7.559481169284779e-001	 1.022972213683992e+001
 9.440426051517269e-001	 6.740890864326373e-001	 1.329050061329128e+001
 9.365872036983388e-001	 6.844099311724453e-001	 1.302886657607970e+001
 9.290125024040664e-001	 6.946569912508703e-001	 1.276573001799744e+001
 9.213195872733394e-001	 7.048282172335207e-001	 1.250152202714275e+001
 9.135095908695964e-001	 7.149215808464764e-001	 1.223668861972326e+001
 9.055836918039592e-001	 7.249350762907215e-001	 1.197168985768599e+001
 8.975431141796130e-001	 7.348667215418383e-001	 1.170699893145912e+001
 8.893891269924004e-001	 7.447145596332283e-001	 1.144310121149126e+001
 8.811230434881836e-001	 7.544766599211421e-001	 1.118049327245525e+001
 8.727462204776373e-001	 7.641511193298295e-001	 1.091968189414513e+001
 8.642600576091790e-001	 7.737360635751406e-001	 1.066118304323693e+001
 9.657459428147288e-001	 6.895862504166215e-001	 1.347396459611327e+001
 9.581191432760791e-001	 7.001443691706241e-001	 1.323324643168203e+001
 9.503703012188257e-001	 7.106270069696601e-001	 1.299030358287193e+001
 9.425005276143821e-001	 7.210320672632804e-001	 1.274559561425495e+001
 9.345109810635532e-001	 7.313574751479801e-001	 1.249959793278790e+001
 9.264028672734521e-001	 7.416011787118533e-001	 1.225280076927304e+001
 9.181774384891096e-001	 7.517611503641648e-001	 1.200570812133453e+001
 9.098359928802851e-001	 7.618353881480728e-001	 1.175883666210203e+001
 9.013798738840571e-001	 7.718219170347401e-001	 1.151271461900002e+001
 8.928104695038603e-001	 7.817187901971132e-001	 1.126788062722758e+001
 8.841292115657057e-001	 7.915240902616486e-001	 1.102488256267642e+001
 9.874493401548727e-001	 7.050834570126574e-001	 1.360826426064767e+001
 9.796511420596337e-001	 7.158788504332553e-001	 1.338583652361771e+001
 9.717281587605429e-001	 7.265970666006559e-001	 1.316067823720613e+001
 9.636815261960641e-001	 7.372359618482176e-001	 1.293326966567395e+001
 9.555124290044385e-001	 7.477934146427221e-001	 1.270410668844224e+001
 9.472220999888442e-001	 7.582673269592433e-001	 1.247369965436947e+001
 9.388118195362328e-001	 7.686556256406014e-001	 1.224257219572800e+001
 9.302829149903598e-001	 7.789562637395833e-001	 1.201126000657840e+001
 9.216367599796002e-001	 7.891672218421419e-001	 1.178030959047018e+001
 9.128747737002358e-001	 7.992865093697955e-001	 1.155027698260605e+001
 9.039984201559549e-001	 8.093121658594877e-001	 1.132172645178740e+001
 1.009152759192461e+000	 7.205806791014351e-001	 1.368936514092367e+001
 1.001183162369211e+000	 7.316133474258008e-001	 1.348328811961870e+001
 9.930860376541154e-001	 7.425671421970512e-001	 1.327414026960844e+001
 9.848625459527152e-001	 7.534398726323051e-001	 1.306241579382950e+001
 9.765138979407163e-001	 7.642293705685814e-001	 1.284862319468996e+001
 9.680413535173916e-001	 7.749334918678867e-001	 1.263328400902783e+001
 9.594462212116428e-001	 7.855501178065477e-001	 1.241693150261791e+001
 9.507298575412535e-001	 7.960771564469348e-001	 1.220010932943445e+001
 9.418936663259282e-001	 8.065125439897427e-001	 1.198337016113029e+001
 9.329390979548276e-001	 8.168542461050162e-001	 1.176727429242076e+001
 9.238676486093538e-001	 8.271002592401421e-001	 1.155238822825814e+001
 1.030856161947795e+000	 7.360778895636447e-001	 1.371346740964270e+001
 1.022715166525019e+000	 7.473478326137195e-001	 1.352242434864711e+001
 1.014443900524439e+000	 7.585372058120380e-001	 1.332808924767686e+001
 1.006043549818665e+000	 7.696437712595147e-001	 1.313096442957551e+001
 9.975153511208504e-001	 7.806653141634373e-001	 1.293156416224053e+001
 9.888605914263493e-001	 7.915996442727785e-001	 1.273041328107095e+001
 9.800806074060003e-001	 8.024445972974047e-001	 1.252804577236345e+001
 9.711767847515960e-001	 8.131980363093015e-001	 1.232500332337904e+001
 9.621505574741556e-001	 8.238578531239378e-001	 1.212183384507729e+001
 9.530034071557008e-001	 8.344219696599167e-001	 1.191908997375898e+001
 9.437368621553292e-001	 8.448883392750972e-001	 1.171732755807234e+001
 7.450482283302942e-001	 6.670106737908847e-001	 7.005515096592129e+000
 7.376407085647760e-001	 6.751935382033578e-001	 6.621942058553885e+000
 7.301414800067997e-001	 6.832961067697868e-001	 6.246992303035417e+000
 7.225518559652614e-001	 6.913168456532408e-001	 5.880966604706273e+000
 7.148731837902085e-001	 6.992542498395045e-001	 5.524152537497933e+000
 7.071068440770070e-001	 7.071068440770069e-001	 5.176824319053985e+000
 6.992542498395046e-001	 7.148731837902086e-001	 4.839242686819362e+000
 6.913168456532407e-001	 7.225518559652614e-001	 4.511654806878406e+000
 6.832961067697868e-001	 7.301414800067997e-001	 4.194294216531880e+000
 6.751935382033579e-001	 7.376407085647760e-001	 3.887380801481297e+000
 6.670106737908847e-001	 7.450482283302943e-001	 3.591120808358039e+000
 7.649163243024476e-001	 6.847977533105901e-001	 7.798910931927102e+000
 7.573112692520885e-001	 6.931988290128908e-001	 7.442611407596672e+000
 7.496120598240782e-001	 7.015174676312072e-001	 7.092794509942038e+000
 7.418200443491130e-001	 7.097520944260171e-001	 6.749851107044892e+000
 7.339366061068124e-001	 7.179011642491269e-001	 6.414160864455018e+000
 7.259631625086618e-001	 7.259631625086618e-001	 6.086091878820952e+000
 7.179011642491264e-001	 7.339366061068126e-001	 5.766000341555688e+000
 7.097520944260168e-001	 7.418200443491130e-001	 5.454230234269868e+000
 7.015174676312068e-001	 7.496120598240780e-001	 5.151113057592507e+000
 6.931988290128908e-001	 7.573112692520886e-001	 4.856967594871986e+000
 6.847977533105903e-001	 7.649163243024477e-001	 4.572099712115406e+000
 7.847846835317627e-001	 7.025850685127173e-001	 8.515817651638816e+000
 7.769820905793919e-001	 7.112043583964481e-001	 8.183675075387182e+000
 7.690828976316781e-001	 7.197390699298709e-001	 7.856098030091958e+000
 7.610884880415944e-001	 7.281875874703213e-001	 7.533553046854793e+000
 7.530002810188171e-001	 7.365483257350832e-001	 7.216497253937535e+000
 7.448197307914483e-001	 7.448197307914483e-001	 6.905377816992540e+000
 7.365483257350833e-001	 7.530002810188171e-001	 6.600631408027694e+000
 7.281875874703212e-001	 7.610884880415944e-001	 6.302683705450249e+000
 7.197390699298712e-001	 7.690828976316783e-001	 6.011948927421094e+000
 7.112043583964484e-001	 7.769820905793919e-001	 5.728829400621815e+000
 7.025850685127173e-001	 7.847846835317627e-001	 5.453715166396061e+000
 8.046532712476672e-001	 7.203725882687514e-001	 9.158615239895276e+000
 7.966531381217792e-001	 7.292100948435913e-001	 8.847989383598648e+000
 7.885539593546564e-001	 7.379608817771644e-001	 8.540226250166210e+000
 7.803571533219557e-001	 7.466232925231846e-001	 8.235854917516944e+000
 7.720641751638337e-001	 7.551957016639452e-001	 7.935396666742230e+000
 7.636765159254422e-001	 7.636765159254418e-001	 7.639364244563090e+000
 7.551957016639452e-001	 7.720641751638339e-001	 7.348261153510325e+000
 7.466232925231846e-001	 7.803571533219557e-001	 7.062580972774607e+000
 7.379608817771644e-001	 7.885539593546562e-001	 6.782806712557354e+000
 7.292100948435912e-001	 7.966531381217792e-001	 6.509410204626699e+000
 7.203725882687513e-001	 8.046532712476668e-001	 6.242851531629693e+000
 8.245220526795862e-001	 7.381602814501764e-001	 9.729342571445558e+000
 8.163243774543456e-001	 7.472160068438808e-001	 9.438019916207287e+000
 8.080252109180682e-001	 7.561828712844724e-001	 9.148063272883439e+000
 7.996260064694477e-001	 7.650591773216392e-001	 8.860052355657803e+000
 7.911282551794755e-001	 7.738432594022843e-001	 8.574560498647468e+000
 7.825334849107183e-001	 7.825334849107182e-001	 8.292153754509590e+000
 7.738432594022845e-001	 7.911282551794753e-001	 8.013390020030014e+000
 7.650591773216392e-001	 7.996260064694477e-001	 7.738818192238429e+000
 7.561828712844722e-001	 8.080252109180682e-001	 7.468977358477010e+000
 7.472160068438808e-001	 8.163243774543455e-001	 7.204396023719167e+000
 7.381602814501764e-001	 8.245220526795862e-001	 6.945591378280262e+000
 8.443909930569482e-001	 7.559481169284779e-001	 1.022972213683992e+001
 8.359957741521835e-001	 7.652220628868781e-001	 9.955871742277255e+000
 8.274966182469707e-001	 7.744050065631816e-001	 9.682089501421606e+000
 8.188950137633203e-001	 7.834952096027164e-001	 9.408994965045942e+000
 8.101924877033535e-001	 7.924909663166712e-001	 9.137202535514144e+000
 8.013906047473510e-001	 8.013906047473510e-001	 8.867320413825548e+000
 7.924909663166713e-001	 8.101924877033534e-001	 8.599949573153786e+000
 7.834952096027162e-001	 8.188950137633202e-001	 8.335682763018443e+000
 7.744050065631813e-001	 8.274966182469704e-001	 8.075103548114706e+000
 7.652220628868780e-001	 8.359957741521834e-001	 7.818785385690554e+000
 7.559481169284781e-001	 8.443909930569481e-001	 7.567290745201388e+000
 8.642600576091790e-001	 7.737360635751406e-001	 1.066118304323693e+001
 8.556672937903875e-001	 7.832282314621443e-001	 1.040331715358729e+001
 8.469681472664187e-001	 7.926272557246766e-001	 1.014441399475554e+001
 8.381641414828237e-001	 8.019313571034474e-001	 9.885123182421083e+000
 8.292568393730803e-001	 8.111387897736772e-001	 9.626090234384289e+000
 8.202478424354156e-001	 8.202478424354154e-001	 9.367955376765732e+000
 8.111387897736770e-001	 8.292568393730803e-001	 9.111352376439983e+000
 8.019313571034478e-001	 8.381641414828240e-001	 8.856907404444488e+000
 7.926272557246764e-001	 8.469681472664185e-001	 8.605237934990608e+000
 7.832282314621443e-001	 8.556672937903874e-001	 8.356951684565694e+000
 7.737360635751404e-001	 8.642600576091787e-001	 8.112645595448122e+000
 8.841292115657057e-001	 7.915240902616486e-001	 1.102488256267643e+001
 8.753389019440514e-001	 8.012344810592407e-001	 1.078182130859032e+001
 8.664397639014685e-001	 8.108495868803437e-001	 1.053680410237427e+001
 8.574333559072089e-001	 8.203675875608653e-001	 1.029050180834060e+001
 8.483212768262674e-001	 8.297866971398730e-001	 1.004358206623421e+001
 8.391051649749869e-001	 8.391051649749869e-001	 9.796707965776426e+000
 8.297866971398730e-001	 8.483212768262672e-001	 9.550536747390439e+000
 8.203675875608647e-001	 8.574333559072087e-001	 9.305718534460144e+000
 8.108495868803441e-001	 8.664397639014688e-001	 9.062895102362452e+000
 8.012344810592408e-001	 8.753389019440514e-001	 8.822698689371809e+000
 7.915240902616488e-001	 8.841292115657058e-001	 8.585750854362466e+000
 9.039984201559549e-001	 8.093121658594877e-001	 1.132172645178740e+001
 8.950105641882689e-001	 8.192407801677287e-001	 1.109256610527219e+001
 8.859114340771768e-001	 8.290719681415687e-001	 1.086071279735818e+001
 8.767026233157251e-001	 8.388038687119999e-001	 1.062685071650540e+001
 8.673857667005268e-001	 8.484346557818302e-001	 1.039166152663237e+001
 8.579625393661392e-001	 8.579625393661392e-001	 1.015582291770735e+001
 8.484346557818305e-001	 8.673857667005271e-001	 9.920007182649320e+000
 8.388038687120000e-001	 8.767026233157254e-001	 9.684879826515964e+000
 8.290719681415686e-001	 8.859114340771765e-001	 9.451098213848534e+000
 8.192407801677285e-001	 8.950105641882691e-001	 9.219310259897911e+000
 8.093121658594878e-001	 9.039984201559550e-001	 8.990153171277424e+000
 9.238676486093538e-001	 8.271002592401421e-001	 1.155238822825814e+001
 9.146822460981339e-001	 8.372470972771690e-001	 1.133647254987899e+001
 9.053831237185985e-001	 8.472943676197365e-001	 1.111730405462492e+001
 8.959719099876236e-001	 8.572401682938835e-001	 1.089557316660782e+001
 8.864502756334715e-001	 8.670826330661203e-001	 1.067196831618097e+001
 8.768199326089481e-001	 8.768199326089481e-001	 1.044717437282381e+001
 8.670826330661202e-001	 8.864502756334713e-001	 1.022187110461638e+001
 8.572401682938836e-001	 8.959719099876237e-001	 9.996731670927973e+000
 8.472943676197366e-001	 9.053831237185989e-001	 9.772421154839488e+000
 8.372470972771690e-001	 9.146822460981339e-001	 9.549595141672446e+000
 8.271002592401424e-001	 9.238676486093539e-001	 9.328898349811736e+000
 9.437368621553292e-001	 8.448883392750972e-001	 1.171732755807233e+001
 9.343539132487400e-001	 8.552534008771232e-001	 1.151422184341609e+001
 9.248547987507910e-001	 8.655167534262337e-001	 1.130747656264636e+001
 9.152411822021542e-001	 8.756764540435483e-001	 1.109778207407152e+001
 9.055147702627122e-001	 8.857305963593138e-001	 1.088582710801391e+001
 8.956773117034881e-001	 8.956773117034879e-001	 1.067229708679978e+001
 8.857305963593135e-001	 9.055147702627118e-001	 1.045787247173948e+001
 8.756764540435483e-001	 9.152411822021546e-001	 1.024322714439678e+001
 8.655167534262336e-001	 9.248547987507910e-001	 1.002902682934307e+001
 8.552534008771232e-001	 9.343539132487404e-001	 9.815927565445007e+000
 8.448883392750972e-001	 9.437368621553289e-001	 9.604574232542932e+000
 6.670106737908847e-001	 7.450482283302943e-001	 3.591120808358041e+000
 6.587478301396494e-001	 7.523638511618765e-001	 3.306367145837907e+000
 6.504078186112842e-001	 7.595852159436007e-001	 3.033674411648303e+000
 6.419922549603809e-001	 7.667111160878266e-001	 2.772574700650581e+000
 6.335027797617576e-001	 7.737403819358266e-001	 2.522563238820065e+000
 6.249410573556360e-001	 7.806718813845673e-001	 2.283100689101576e+000
 6.163087747742402e-001	 7.875045204774029e-001	 2.053615148932849e+000
 6.076076406512597e-001	 7.942372439580682e-001	 1.833504206676188e+000
 5.988393841156297e-001	 8.008690357874089e-001	 1.622137048306551e+000
 5.900057536711102e-001	 8.073989196223580e-001	 1.418856605612253e+000
 5.811085160631598e-001	 8.138259592567366e-001	 1.222981737132573e+000
 6.847977533105903e-001	 7.649163243024477e-001	 4.572099712115408e+000
 6.763145655744852e-001	 7.724270318165427e-001	 4.296641520915528e+000
 6.677521521363645e-001	 7.798409677148591e-001	 4.030469734075513e+000
 6.591121718378921e-001	 7.871568932337911e-001	 3.773579839253349e+000
 6.503963090028354e-001	 7.943736075234261e-001	 3.526073292563647e+000
 6.416062723541127e-001	 8.014899482910342e-001	 3.287658724453385e+000
 6.327437939117713e-001	 8.085047924075214e-001	 3.058009629354714e+000
 6.238106278733668e-001	 8.154170564761906e-001	 2.836770654304444e+000
 6.148085494782432e-001	 8.222256973632529e-001	 2.623559405831564e+000
 6.057393538572367e-001	 8.289297126895776e-001	 2.417968298730735e+000
 5.966048548693305e-001	 8.355281412832460e-001	 2.219566437869096e+000
 7.025850685127173e-001	 7.847846835317627e-001	 5.453715166396060e+000
 6.938815337718784e-001	 7.924904783129741e-001	 5.186328227517872e+000
 6.850967154768765e-001	 8.000969878791007e-001	 4.926207709842637e+000
 6.762323155570231e-001	 8.076029412901697e-001	 4.673315670848825e+000
 6.672900620856199e-001	 8.150071065046909e-001	 4.427584853645874e+000
 6.582717081688777e-001	 8.223082910398660e-001	 4.189220322600717e+000
 6.491790308152675e-001	 8.295053425937875e-001	 3.958487905690863e+000
 6.400138297868191e-001	 8.365971496289766e-001	 3.735241486261127e+000
 6.307779264339032e-001	 8.435826419166744e-001	 3.519307799994043e+000
 6.214731625150546e-001	 8.504607910413643e-001	 3.310489561096191e+000
 6.121013990034108e-001	 8.572306108650805e-001	 3.108567120728012e+000
 7.203725882687513e-001	 8.046532712476668e-001	 6.242851531629696e+000
 7.114487039889692e-001	 8.125541555392345e-001	 5.982504086850067e+000
 7.024414782792146e-001	 8.203532409874392e-001	 5.727617707120622e+000
 6.933526561569472e-001	 8.280492244755902e-001	 5.478319317415881e+000
 6.841840094455125e-001	 8.356408427702823e-001	 5.234708868809499e+000
 6.749373356349260e-001	 8.431268731983186e-001	 4.996859568264249e+000
 6.656144567226071e-001	 8.505061342846643e-001	 4.764823360699113e+000
 6.562172180355884e-001	 8.577774863507547e-001	 4.539087553144238e+000
 6.467474870358031e-001	 8.649398320725701e-001	 4.319953297271988e+000
 6.372071521100242e-001	 8.719921169979257e-001	 4.107396929461558e+000
 6.275981213460913e-001	 8.789333300225430e-001	 3.901373542394398e+000
 7.381602814501764e-001	 8.245220526795862e-001	 6.945591378280262e+000
 7.290160454828978e-001	 8.326180283833887e-001	 6.691642183185135e+000
 7.197864101897744e-001	 8.406096915909893e-001	 6.441550608633197e+000
 7.104731636768403e-001	 8.484957070086823e-001	 6.195576377523581e+000
 7.010781215179122e-001	 8.562747802108590e-001	 5.953954352816687e+000
 6.916031255872529e-001	 8.639456583336480e-001	 5.716894489959544e+000
 6.820500428716689e-001	 8.715071307286159e-001	 5.484581863424116e+000
 6.724207642636472e-001	 8.789580295758553e-001	 5.257176767862652e+000
 6.627172033371349e-001	 8.862972304558358e-001	 5.034886607747702e+000
 6.529412951076056e-001	 8.935236528794698e-001	 4.818459965878092e+000
 6.430949947780623e-001	 9.006362607759364e-001	 4.608141539275334e+000
 7.559481169284781e-001	 8.443909930569481e-001	 7.567290745201388e+000
 7.465835275108046e-001	 8.526820617335015e-001	 7.319450935336270e+000
 7.371314808549523e-001	 8.608663042408662e-001	 7.074056051421663e+000
 7.275938081558755e-001	 8.689423531080758e-001	 6.831468957238847e+000
 7.179723687382209e-001	 8.769088827170829e-001	 6.592029543490704e+000
 7.082690488608531e-001	 8.847646100131094e-001	 6.356054446842037e+000
 6.984857605003324e-001	 8.925082951741054e-001	 6.123836845085193e+000
 6.886244401149672e-001	 9.001387422386068e-001	 5.895646329622018e+000
 6.786870473910929e-001	 9.076547996913688e-001	 5.671728856105265e+000
 6.686755639732592e-001	 9.150553610062054e-001	 5.452306773728092e+000
 6.585919921800143e-001	 9.223393651455637e-001	 5.237881596256224e+000
 7.737360635751404e-001	 8.642600576091787e-001	 8.112645595448120e+000
 7.641511193298297e-001	 8.727462204776373e-001	 7.870944549547567e+000
 7.544766599211421e-001	 8.811230434881837e-001	 7.630456700825160e+000
 7.447145596332284e-001	 8.893891269924004e-001	 7.391620604474721e+000
 7.348667215418384e-001	 8.975431141796132e-001	 7.154853501028150e+000
 7.249350762907216e-001	 9.055836918039592e-001	 6.920550843174813e+000
 7.149215808464765e-001	 9.135095908695964e-001	 6.689085901101929e+000
 7.048282172335211e-001	 9.213195872733393e-001	 6.460809448176350e+000
 6.946569912508702e-001	 9.290125024040665e-001	 6.236049528411741e+000
 6.844099311724451e-001	 9.365872036983388e-001	 6.015111306782996e+000
 6.740890864326371e-001	 9.440426051517269e-001	 5.798277003052694e+000
 7.915240902616488e-001	 8.841292115657058e-001	 8.585750854362468e+000
 7.817187901971133e-001	 8.928104695038603e-001	 8.350505495826582e+000
 7.718219170347404e-001	 9.013798738840566e-001	 8.115414011296730e+000
 7.618353881480726e-001	 9.098359928802852e-001	 7.880965225106321e+000
 7.517611503641647e-001	 9.181774384891093e-001	 7.647628074919854e+000
 7.416011787118532e-001	 9.264028672734520e-001	 7.415850984822310e+000
 7.313574751479801e-001	 9.345109810635528e-001	 7.186061319734868e+000
 7.210320672632805e-001	 9.425005276143821e-001	 6.958664923551640e+000
 7.106270069696604e-001	 9.503703012188259e-001	 6.734045742992509e+000
 7.001443691706238e-001	 9.581191432760791e-001	 6.512565538750383e+000
 6.895862504166215e-001	 9.657459428147289e-001	 6.294563685082996e+000
 8.093121658594878e-001	 9.039984201559550e-001	 8.990153171277425e+000
 7.992865093697956e-001	 9.128747737002357e-001	 8.761940235009275e+000
 7.891672218421421e-001	 9.216367599796003e-001	 8.532986783870816e+000
 7.789562637395834e-001	 9.302829149903599e-001	 8.303808357284924e+000
 7.686556256406014e-001	 9.388118195362331e-001	 8.074901803051422e+000
 7.582673269592434e-001	 9.472220999888442e-001	 7.846744532647768e+000
 7.477934146427221e-001	 9.555124290044386e-001	 7.619793861091530e+000
 7.372359618482176e-001	 9.636815261960642e-001	 7.394486434293147e+000
 7.265970666006560e-001	 9.717281587605431e-001	 7.171237746394717e+000
 7.158788504332554e-001	 9.796511420596339e-001	 6.950441749145846e+000
 7.050834570126574e-001	 9.874493401548725e-001	 6.732470554901045e+000
 8.271002592401424e-001	 9.238676486093539e-001	 9.328898349811736e+000
 8.168542461050162e-001	 9.329390979548276e-001	 9.108529212696043e+000
 8.065125439897430e-001	 9.418936663259283e-001	 8.886683604759949e+000
 7.960771564469348e-001	 9.507298575412534e-001	 8.663881954414038e+000
 7.855501178065477e-001	 9.594462212116431e-001	 8.440626957564318e+000
 7.749334918678870e-001	 9.680413535173917e-001	 8.217402748614946e+000
 7.642293705685817e-001	 9.765138979407164e-001	 7.994674159724012e+000
 7.534398726323051e-001	 9.848625459527152e-001	 7.772886071734299e+000
 7.425671421970508e-001	 9.930860376541151e-001	 7.552462859741846e+000
 7.316133474258006e-001	 1.001183162369211e+000	 7.333807935781115e+000
 7.205806791014349e-001	 1.009152759192461e+000	 7.117303390606827e+000
 8.448883392750972e-001	 9.437368621553289e-001	 9.604574232542932e+000
 8.344219696599167e-001	 9.530034071557008e-001	 9.393071965035668e+000
 8.238578531239381e-001	 9.621505574741556e-001	 9.179510066892869e+000
 8.131980363093013e-001	 9.711767847515960e-001	 8.964393633481400e+000
 8.024445972974045e-001	 9.800806074060000e-001	 8.748210747494730e+000
 7.915996442727785e-001	 9.888605914263495e-001	 8.531431596783476e+000
 7.806653141634374e-001	 9.975153511208504e-001	 8.314507684604628e+000
 7.696437712595143e-001	 1.006043549818665e+000	 8.097871136179631e+000
 7.585372058120381e-001	 1.014443900524439e+000	 7.881934104956335e+000
 7.473478326137194e-001	 1.022715166525019e+000	 7.667088281452720e+000
 7.360778895636446e-001	 1.030856161947795e+000	 7.453704507019800e+000
 5.811085160631598e-001	 8.138259592567366e-001	 1.222981737132573e+000
 5.721494549410069e-001	 8.201492587923700e-001	 1.034230882904041e+000
 5.631303691352768e-001	 8.263679623034137e-001	 8.531145587638406e-001
 5.540530720989082e-001	 8.324812548450976e-001	 6.801096437012145e-001
 5.449193909360233e-001	 8.384883629704416e-001	 5.156751814905149e-001
 5.357311652289508e-001	 8.443885549780590e-001	 3.602523625661162e-001
 5.264902458615941e-001	 8.501811411206632e-001	 2.142645150904360e-001
 5.171984938406530e-001	 8.558654737743153e-001	 7.811710198683546e-002
 5.078577791162044e-001	 8.614409475685220e-001	-4.780227908631228e-002
 4.984699794031350e-001	 8.669069994773565e-001	-1.631238956062055e-001
 4.890369790048946e-001	 8.722631088718381e-001	-2.674958824481071e-001
 5.966048548693305e-001	 8.355281412832460e-001	 2.219566437869096e+000
 5.874068837280612e-001	 8.420200633552515e-001	 2.028377355935170e+000
 5.781472872332619e-001	 8.484046001549332e-001	 1.844864049863156e+000
 5.688279271970236e-001	 8.546809150055600e-001	 1.669225087338837e+000
 5.594506794466541e-001	 8.608482138348056e-001	 1.501641630499652e+000
 5.500174326204225e-001	 8.669057454291612e-001	 1.342278003454998e+000
 5.405300869595506e-001	 8.728528016480037e-001	 1.191282258932654e+000
 5.309905530979980e-001	 8.786887175973518e-001	 1.048786739157397e+000
 5.214007508515943e-001	 8.844128717634381e-001	 9.149086263524388e-001
 5.117626080080407e-001	 8.900246861062580e-001	 7.897504785727848e-001
 5.020780591192976e-001	 8.955236261133456e-001	 6.734007469178235e-001
 6.121013990034108e-001	 8.572306108650805e-001	 3.108567120728012e+000
 6.026645146774508e-001	 8.638911577076851e-001	 2.913775867029489e+000
 5.931644043068414e-001	 8.704415299933851e-001	 2.726507804227063e+000
 5.836029780634551e-001	 8.768808693131815e-001	 2.546749127431162e+000
 5.739821604984206e-001	 8.832083609691114e-001	 2.374469134294313e+000
 5.643038893065867e-001	 8.894232342352666e-001	 2.209621291370450e+000
 5.545701140871351e-001	 8.955247625774229e-001	 2.052144289749733e+000
 5.447827951019328e-001	 9.015122638313119e-001	 1.901963083506185e+000
 5.349439020332116e-001	 9.073851003396593e-001	 1.758989904862101e+000
 5.250554127421397e-001	 9.131426790481644e-001	 1.623125250378024e+000
 5.151193120298434e-001	 9.187844515606746e-001	 1.494258832910202e+000
 6.275981213460913e-001	 8.789333300225430e-001	 3.901373542394398e+000
 6.179223210879753e-001	 8.857625035748911e-001	 3.702247215374720e+000
 6.081816940757200e-001	 8.924787132537714e-001	 3.510320396687837e+000
 5.983781988415263e-001	 8.990810789176523e-001	 3.325427593328577e+000
 5.885138086608936e-001	 9.055687652426796e-001	 3.147387010502735e+000
 5.785905102858034e-001	 9.119409819903062e-001	 2.976002037187515e+000
 5.686103026739566e-001	 9.181969842324796e-001	 2.811062711197828e+000
 5.585751957156880e-001	 9.243360725344287e-001	 2.652347155804416e+000
 5.484872089601938e-001	 9.303575930951712e-001	 2.499622980402804e+000
 5.383483703426760e-001	 9.362609378459221e-001	 2.352648638226056e+000
 5.281607149139947e-001	 9.420455445066668e-001	 2.211174734628313e+000
 6.430949947780623e-001	 9.006362607759364e-001	 4.608141539275334e+000
 6.331802762584339e-001	 9.076340626820887e-001	 4.404349961190986e+000
 6.231991302596035e-001	 9.145161113710947e-001	 4.207283923623235e+000
 6.131535636745613e-001	 9.212815049686620e-001	 4.016682108482077e+000
 6.030455985036434e-001	 9.279293875248309e-001	 3.832267588639355e+000
 5.928772705564346e-001	 9.344589492882121e-001	 3.653749659919970e+000
 5.826506281496252e-001	 9.408694269367316e-001	 3.480825642772904e+000
 5.723677308024933e-001	 9.471601037649344e-001	 3.313182644235468e+000
 5.620306479316777e-001	 9.533303098279593e-001	 3.150499271347014e+000
 5.516414575468932e-001	 9.593794220423780e-001	 2.992447287759148e+000
 5.412022449492145e-001	 9.653068642441643e-001	 2.838693205924802e+000
 6.585919921800143e-001	 9.223393651455637e-001	 5.237881596256224e+000
 6.484383534876271e-001	 9.295057967545003e-001	 5.029474142221956e+000
 6.382166865781973e-001	 9.365536857803575e-001	 4.827187116966953e+000
 6.279290467058838e-001	 9.434821086159000e-001	 4.630714794539873e+000
 6.175775045962408e-001	 9.502901886848859e-001	 4.439736639696215e+000
 6.071641451168404e-001	 9.569770967229155e-001	 4.253919420180241e+000
 5.966910659437502e-001	 9.635420510137375e-001	 4.072919278661706e+000
 5.861603762255796e-001	 9.699843175810625e-001	 3.896383753550953e+000
 5.755741952468013e-001	 9.763032103360099e-001	 3.723953738550025e+000
 5.649346510920354e-001	 9.824980911803787e-001	 3.555265371491308e+000
 5.542438793129650e-001	 9.885683700660078e-001	 3.389951843758853e+000
 6.740890864326371e-001	 9.440426051517269e-001	 5.798277003052694e+000
 6.636965260743544e-001	 9.513776675173450e-001	 5.585919591335371e+000
 6.532343367512071e-001	 9.585913979165628e-001	 5.378708412369387e+000
 6.427046220788175e-001	 9.656828510090558e-001	 5.176596256258402e+000
 6.321095015082566e-001	 9.726511295921652e-001	 4.979266394477464e+000
 6.214511089653824e-001	 9.794953848883493e-001	 4.786390539201893e+000
 6.107315914859413e-001	 9.862148167870557e-001	 4.597631125472924e+000
 5.999531078481774e-001	 9.928086740410452e-001	 4.412643530504304e+000
 5.891178272047021e-001	 9.992762544173094e-001	 4.231078218719112e+000
 5.782279277153465e-001	 1.005616904802770e+000	 4.052582801905470e+000
 5.672855951827097e-001	 1.011830021265040e+000	 3.876804004739168e+000
 6.895862504166215e-001	 9.657459428147289e-001	 6.294563685082996e+000
 6.789547673174153e-001	 9.732496366958434e-001	 6.080256520233737e+000
 6.682520544983374e-001	 9.806292092147124e-001	 5.869474142762645e+000
 6.574802639366865e-001	 9.878836932978199e-001	 5.662339477955489e+000
 6.466415638092610e-001	 9.950121711159885e-001	 5.459253890125384e+000
 6.357381371004210e-001	 1.002013774378445e+000	 5.259949053340727e+000
 6.247721802058078e-001	 1.008887684580245e+000	 5.064137379782956e+000
 6.137459015335171e-001	 1.015633133203115e+000	 4.871525736872166e+000
 6.026615201045172e-001	 1.022249401869843e+000	 4.681817722942655e+000
 5.915212641540699e-001	 1.028735822452400e+000	 4.494715843405528e+000
 5.803273697359112e-001	 1.035091777134104e+000	 4.309923576625046e+000
 7.050834570126574e-001	 9.874493401548725e-001	 6.732470554901045e+000
 6.942130505156096e-001	 9.951216660152163e-001	 6.517383156751265e+000
 6.832698135392946e-001	 1.002667081109809e+000	 6.304893257884709e+000
 6.722559464228139e-001	 1.010084596631881e+000	 6.094817058644382e+000
 6.611736660688249e-001	 1.017373274125678e+000	 5.887086903072302e+000
 6.500252045203178e-001	 1.024532225787134e+000	 5.682357753337495e+000
 6.388128075329590e-001	 1.031560614716861e+000	 5.480576886280995e+000
 6.275387331448292e-001	 1.038457655125505e+000	 5.281542801822710e+000
 6.162052502453843e-001	 1.045222612491598e+000	 5.085052321604936e+000
 6.048146371454500e-001	 1.051854803672116e+000	 4.890902831337940e+000
 5.933691801500317e-001	 1.058353596966040e+000	 4.698894396542705e+000
 7.205806791014349e-001	 1.009152759192461e+000	 7.117303390606827e+000
 7.094713489677368e-001	 1.016993717200683e+000	 6.902814021411830e+000
 6.982875875937835e-001	 1.024704975036855e+000	 6.689942348067952e+000
 6.870316436805243e-001	 1.032285522160929e+000	 6.478638451690378e+000
 6.757057828565186e-001	 1.039734399490552e+000	 6.268823075391230e+000
 6.643122862234333e-001	 1.047050699708348e+000	 6.060415153830331e+000
 6.528534488970051e-001	 1.054233567520466e+000	 5.854113697764319e+000
 6.413315785453437e-001	 1.061282199866449e+000	 5.650221950204988e+000
 6.297489939264407e-001	 1.068195846080558e+000	 5.448666786337884e+000
 6.181080234267304e-001	 1.074973808004762e+000	 5.249377240758448e+000
 6.064110036025345e-001	 1.081615440053690e+000	 5.052286627766116e+000
 7.360778895636446e-001	 1.030856161947795e+000	 7.453704507019800e+000
 7.247296359725970e-001	 1.038865751977465e+000	 7.241421964712805e+000
 7.133053503815099e-001	 1.046742852430853e+000	 7.029739956345530e+000
 7.018073298531414e-001	 1.054486431034654e+000	 6.818780188260109e+000
 6.902378887419132e-001	 1.062095508079932e+000	 6.608633372723344e+000
 6.785993572081287e-001	 1.069569156736019e+000	 6.399359751037907e+000
 6.668940797275553e-001	 1.076906503314615e+000	 6.190989738118510e+000
 6.551244135982919e-001	 1.084106727484178e+000	 5.984161250562063e+000
 6.432927274468238e-001	 1.091169062434711e+000	 5.779609794412933e+000
 6.314013997351549e-001	 1.098092794993187e+000	 5.577429970240666e+000
 6.194528172708822e-001	 1.104877265689896e+000	 5.377722017880514e+000
 4.890369790048946e-001	 8.722631088718381e-001	-2.674958824481067e-001
 4.795620922583881e-001	 8.775080191404551e-001	-3.614533010827313e-001
 4.700458011791232e-001	 8.826421068707412e-001	-4.460327077418245e-001
 4.604900024760815e-001	 8.876649794392211e-001	-5.216097403370157e-001
 4.508965947721494e-001	 8.925762864264075e-001	-5.885675976322862e-001
 4.412674774614076e-001	 8.973757194803049e-001	-6.472960133638611e-001
 4.316045495771122e-001	 9.020630121438827e-001	-6.981902752635251e-001
 4.219097086716463e-001	 9.066379396471509e-001	-7.416502911298040e-001
 4.121848497096857e-001	 9.111003186645378e-001	-7.780797036744930e-001
 4.024318639757797e-001	 9.154500070382965e-001	-8.078850554606597e-001
 3.926526379975132e-001	 9.196869034687285e-001	-8.314750048391513e-001
 5.020780591192976e-001	 8.955236261133456e-001	 6.734007469178236e-001
 4.923505069052577e-001	 9.009084016633495e-001	 5.652402504089468e-001
 4.825804462352116e-001	 9.061793993862045e-001	 4.644266620520658e-001
 4.727698243973318e-001	 9.113362161883821e-001	 3.707494361526623e-001
 4.629205906447350e-001	 9.163784923057907e-001	 2.839928729973913e-001
 4.530346950222971e-001	 9.213059111636405e-001	 2.039368980508400e-001
 4.431140872044483e-001	 9.261181991993087e-001	 1.303577889040223e-001
 4.331607153452562e-001	 9.308151256488805e-001	 6.302884828570657e-002
 4.231765249420750e-001	 9.353965022980483e-001	 1.721021918666541e-003
 4.131634577139968e-001	 9.398621831981483e-001	-5.379653953179477e-002
 4.031234504962961e-001	 9.442120643481219e-001	-1.037559747186101e-001
 5.151193120298434e-001	 9.187844515606746e-001	 1.494258832910201e+000
 5.051390910003677e-001	 9.243090942455401e-001	 1.371748300322367e+000
 4.951152573769660e-001	 9.297170037752285e-001	 1.254946310949051e+000
 4.850498090276871e-001	 9.350077665860251e-001	 1.143781293523499e+000
 4.749447458365615e-001	 9.401810135691118e-001	 1.038178590806210e+000
 4.648020684999469e-001	 9.452364199267955e-001	 9.380610429924086e-001
 4.546237773341318e-001	 9.501737049907746e-001	 8.433495102820013e-001
 4.444118710955525e-001	 9.549926320031293e-001	 7.539633332762374e-001
 4.341683458149260e-001	 9.596930078607578e-001	 6.698207304012832e-001
 4.238951936465678e-001	 9.642746828240306e-001	 5.908391320846793e-001
 4.135944017341220e-001	 9.687375501904937e-001	 5.169354519238333e-001
 5.281607149139947e-001	 9.420455445066668e-001	 2.211174734628314e+000
 5.179278221633582e-001	 9.477100559350589e-001	 2.074583374842717e+000
 5.076502126681389e-001	 9.532548788462153e-001	 1.942414256003676e+000
 4.973299348768570e-001	 9.586795892061151e-001	 1.814710422430552e+000
 4.869690393050531e-001	 9.639838085611113e-001	 1.691513606096984e+000
 4.765695773011600e-001	 9.691672038905160e-001	 1.572864663977886e+000
 4.661335998239208e-001	 9.742294874202679e-001	 1.458803944568085e+000
 4.556631562327353e-001	 9.791704163983791e-001	 1.349371582488766e+000
 4.451602930922763e-001	 9.839897928328978e-001	 1.244607720708143e+000
 4.346270529926761e-001	 9.886874631931889e-001	 1.144552660505041e+000
 4.240654733865391e-001	 9.932633180753756e-001	 1.049246939887507e+000
 5.412022449492145e-001	 9.653068642441643e-001	 2.838693205924803e+000
 5.307166780138688e-001	 9.711112457799381e-001	 2.688679125308060e+000
 5.201852901724832e-001	 9.767929834075642e-001	 2.542115923419298e+000
 5.096101804545524e-001	 9.823516426226164e-001	 2.399138444646393e+000
 4.989934500076330e-001	 9.877868356265306e-001	 2.259881744598855e+000
 4.883372008327391e-001	 9.930982211755457e-001	 2.124481430247760e+000
 4.776435345315740e-001	 9.982855043897769e-001	 1.993073917675721e+000
 4.669145510670052e-001	 1.003348436523110e+000	 1.865796606502104e+000
 4.561523475381651e-001	 1.008286814694700e+000	 1.742787970750381e+000
 4.453590169715064e-001	 1.013100481582870e+000	 1.624187566614382e+000
 4.345366471290956e-001	 1.017789325082299e+000	 1.510135958245731e+000
 5.542438793129650e-001	 9.885683700660078e-001	 3.389951843758854e+000
 5.435056361715400e-001	 9.945126228282096e-001	 3.227539772836829e+000
 5.327204679537508e-001	 1.000331276267676e+000	 3.067888139671513e+000
 5.218905242704836e-001	 1.006023885409494e+000	 2.911202121935565e+000
 5.110179569017254e-001	 1.011590053110111e+000	 2.757688426690292e+000
 5.001049185014881e-001	 1.017029429902632e+000	 2.607555581564919e+000
 4.891535613148496e-001	 1.022341713801290e+000	 2.461014130228769e+000
 4.781660359085612e-001	 1.027526650065803e+000	 2.318276731273604e+000
 4.671444899166303e-001	 1.032584030926394e+000	 2.179558160427202e+000
 4.560910668022425e-001	 1.037513695270321e+000	 2.045075216810508e+000
 4.450079046373392e-001	 1.042315528290796e+000	 1.915046534716894e+000
 5.672855951827097e-001	 1.011830021265040e+000	 3.876804004739169e+000
 5.562946742560117e-001	 1.017914146127906e+000	 3.703367422884790e+000
 5.452557240756947e-001	 1.023869716234950e+000	 3.532250454555604e+000
 5.341709448343607e-001	 1.029696276140713e+000	 3.363708316032688e+000
 5.230425389447537e-001	 1.035393419356594e+000	 3.197998910990344e+000
 5.118727097142094e-001	 1.040960788192517e+000	 3.035383120600336e+000
 5.006636600315061e-001	 1.046398073556794e+000	 2.876124982663914e+000
 4.894175910676042e-001	 1.051705014714938e+000	 2.720491758841284e+000
 4.781367009917106e-001	 1.056881399008212e+000	 2.568753889971541e+000
 4.668231837040688e-001	 1.061927061532788e+000	 2.421184840383561e+000
 4.554792275868185e-001	 1.066841884780397e+000	 2.278060832974138e+000
 5.803273697359112e-001	 1.035091777134104e+000	 4.309923576625047e+000
 5.690837698869242e-001	 1.041315774727058e+000	 4.127170730475812e+000
 5.577910366020671e-001	 1.047408262117787e+000	 3.946517361404357e+000
 5.464514206558939e-001	 1.053368773390236e+000	 3.768249440484889e+000
 5.350671750941420e-001	 1.059196892710721e+000	 3.592656670091633e+000
 5.236405538777063e-001	 1.064892254165948e+000	 3.420032820686253e+000
 5.121738105393017e-001	 1.070454541558278e+000	 3.250675939213795e+000
 5.006691968543336e-001	 1.075883488158995e+000	 3.084888428030603e+000
 4.891289615274445e-001	 1.081178876420385e+000	 2.922976994347036e+000
 4.775553488961694e-001	 1.086340537647517e+000	 2.765252471206754e+000
 4.659505976530813e-001	 1.091368351630633e+000	 2.612029512029156e+000
 5.933691801500317e-001	 1.058353596966040e+000	 4.698894396542704e+000
 5.818729006839174e-001	 1.064717467673700e+000	 4.508857785316915e+000
 5.703263835966207e-001	 1.070946872724587e+000	 4.320894353336289e+000
 5.587319302447942e-001	 1.077041335732030e+000	 4.135302405457974e+000
 5.470918443073142e-001	 1.083000431517234e+000	 3.952384954766211e+000
 5.354084303987815e-001	 1.088823785943670e+000	 3.772450153894744e+000
 5.236839926959950e-001	 1.094511075707730e+000	 3.595811578165137e+000
 5.119208335789500e-001	 1.100062028086456e+000	 3.422788359218761e+000
 5.001212522878700e-001	 1.105476420643145e+000	 3.253705169035597e+000
 4.882875435977285e-001	 1.110754080891756e+000	 3.088892055418349e+000
 4.764219965116759e-001	 1.115894885921038e+000	 2.928684131173415e+000
 6.064110036025345e-001	 1.081615440053690e+000	 5.052286627766119e+000
 5.946620442666316e-001	 1.088119184015863e+000	 4.857315592777356e+000
 5.828617431231078e-001	 1.094485506863751e+000	 4.664560249178137e+000
 5.710124521107711e-001	 1.100713921740057e+000	 4.474313540678772e+000
 5.591165255416937e-001	 1.106803994120874e+000	 4.286874077544375e+000
 5.471763186842386e-001	 1.112755341646426e+000	 4.102546710606255e+000
 5.351941863593440e-001	 1.118567633907137e+000	 3.921642934690774e+000
 5.231724815516528e-001	 1.124240592185799e+000	 3.744481119799850e+000
 5.111135540370255e-001	 1.129773989156722e+000	 3.571386569764254e+000
 4.990197490279300e-001	 1.135167648542750e+000	 3.402691409445492e+000
 4.868934058381502e-001	 1.140421444731140e+000	 3.238734302878997e+000
 6.194528172708822e-001	 1.104877265689896e+000	 5.377722017880512e+000
 6.074511782547066e-001	 1.111520882801578e+000	 5.180478126877810e+000
 5.953970932452810e-001	 1.118024123343679e+000	 4.985737813159173e+000
 5.832929647635355e-001	 1.124386489988285e+000	 4.793771563462194e+000
 5.711411977547047e-001	 1.130607538866382e+000	 4.604856520639397e+000
 5.589441981408803e-001	 1.136686879394963e+000	 4.419277249016870e+000
 5.467043713871074e-001	 1.142624174058487e+000	 4.237326303918422e+000
 5.344241210826425e-001	 1.148419138145507e+000	 4.059304603249187e+000
 5.221058475389497e-001	 1.154071539441348e+000	 3.885521600606406e+000
 5.097519464059584e-001	 1.159581197877748e+000	 3.716295260933355e+000
 4.973648073080526e-001	 1.164947985140473e+000	 3.551951841228572e+000
 3.926526379975132e-001	 9.196869034687285e-001	-8.314750048391526e-001
 3.828475801467559e-001	 9.238115574925391e-001	-8.488122769758034e-001
 3.730200306188907e-001	 9.278233049990166e-001	-8.598395675231524e-001
 3.631718566724362e-001	 9.317221658209343e-001	-8.649559281795446e-001
 3.533049166519174e-001	 9.355081991183117e-001	-8.645731555694022e-001
 3.434210590039752e-001	 9.391815029145867e-001	-8.591150542989413e-001
 3.335221213151299e-001	 9.427422136050959e-001	-8.490167299993644e-001
 3.236099293720238e-001	 9.461905054388913e-001	-8.347239116693003e-001
 3.136862962449284e-001	 9.495265899749484e-001	-8.166923023863941e-001
 3.037530213952426e-001	 9.527507155138413e-001	-7.953869572461586e-001
 2.938118898076575e-001	 9.558631665059840e-001	-7.712816872009595e-001
 4.031234504962961e-001	 9.442120643481219e-001	-1.037559747186088e-001
 3.930569225507894e-001	 9.484467099390739e-001	-1.482952022529113e-001
 3.829673031454391e-001	 9.525654381505309e-001	-1.875725384390359e-001
 3.728565093327699e-001	 9.565682693441295e-001	-2.218799710462521e-001
 3.627264490136036e-001	 9.604552642574867e-001	-2.515187806384324e-001
 3.525790199269324e-001	 9.642265235280020e-001	-2.767990348049032e-001
 3.424161086620217e-001	 9.678821871882344e-001	-2.980391206506908e-001
 3.322395896935920e-001	 9.714224341338947e-001	-3.155653139918105e-001
 3.220513244408869e-001	 9.748474815655585e-001	-3.297113834264441e-001
 3.118531603513708e-001	 9.781575844051822e-001	-3.408182272255638e-001
 3.016469300097510e-001	 9.813530346885655e-001	-3.492335407702513e-001
 4.135944017341220e-001	 9.687375501904937e-001	 5.169354519238333e-001
 4.032664002295056e-001	 9.730821888058526e-001	 4.478501385745440e-001
 3.929147074744283e-001	 9.773078991396467e-001	 3.832701260908110e-001
 3.825412903160629e-001	 9.814147020823927e-001	 3.229946948039699e-001
 3.721481062121691e-001	 9.854026599493362e-001	 2.668167665737830e-001
 3.617371021947264e-001	 9.892718759918838e-001	 2.145232081538282e-001
 3.513102138563777e-001	 9.930224938798731e-001	 1.658950873427650e-001
 3.408693643605511e-001	 9.966546971557493e-001	 1.207078843334243e-001
 3.304164634760866e-001	 1.000168708661771e+000	 7.873166097273392e-002
 3.199534066371332e-001	 1.003564789941372e+000	 3.973119091608674e-002
 3.094820740290298e-001	 1.006843240615851e+000	 3.466053892198416e-003
 4.240654733865391e-001	 9.932633180753756e-001	 1.049246939887508e+000
 4.134759953160149e-001	 9.977179509799360e-001	 9.583490713467820e-001
 4.028622261975744e-001	 1.002050644666225e+000	 8.714376724317905e-001
 3.922261826735969e-001	 1.006261420553655e+000	 7.883887946293612e-001
 3.815698717593334e-001	 1.010350342535127e+000	 7.090746092177698e-001
 3.708952897803031e-001	 1.014317516476094e+000	 6.333635347538728e-001
 3.602044213330747e-001	 1.018163089683721e+000	 5.611203075553508e-001
 3.494992382703296e-001	 1.021887250347247e+000	 4.922059984404911e-001
 3.387816987110449e-001	 1.025490226950689e+000	 4.264779793366050e-001
 3.280537460765928e-001	 1.028972287659046e+000	 3.637898436706916e-001
 3.173173081534751e-001	 1.032333739679205e+000	 3.039912847236639e-001
 4.345366471290956e-001	 1.017789325082299e+000	 1.510135958245730e+000
 4.236856899434281e-001	 1.022353953348383e+000	 1.400236883183305e+000
 4.128098419065946e-001	 1.026793631430127e+000	 1.293994024369781e+000
 4.019111694566532e-001	 1.031108381275849e+000	 1.191346882507633e+000
 3.909917291668158e-001	 1.035298268356127e+000	 1.092233160923412e+000
 3.800535666566078e-001	 1.039363401150493e+000	 9.965887415857874e-001
 3.690987155269896e-001	 1.043303930603482e+000	 9.043475933284942e-001
 3.581291963203556e-001	 1.047120049551180e+000	 8.154416164010663e-001
 3.471470155062800e-001	 1.050811992119419e+000	 7.298004278676594e-001
 3.361541644938117e-001	 1.054380033094837e+000	 6.473510927256744e-001
 3.251526186710684e-001	 1.057824487269988e+000	 5.680178059141191e-001
 4.450079046373392e-001	 1.042315528290796e+000	 1.915046534716894e+000
 4.338954662448556e-001	 1.046990152798254e+000	 1.789036873673846e+000
 4.227575371932061e-001	 1.051536816131212e+000	 1.666496534765942e+000
 4.115962337165132e-001	 1.055955540766905e+000	 1.547416210777910e+000
 4.004136619463352e-001	 1.060246393753604e+000	 1.431786544513673e+000
 3.892119167965862e-001	 1.064409486184943e+000	 1.319597975751270e+000
 3.779930808729983e-001	 1.068444972642865e+000	 1.210840508442336e+000
 3.667592234080574e-001	 1.072353050610339e+000	 1.105503403156556e+000
 3.555123992223092e-001	 1.076133959855069e+000	 1.003574800229611e+000
 3.442546477128529e-001	 1.079787981785380e+000	 9.050412794755005e-001
 3.329879918697909e-001	 1.083315438779565e+000	 8.098873626650550e-001
 4.554792275868185e-001	 1.066841884780397e+000	 2.278060832974138e+000
 4.441053063534077e-001	 1.071626506216606e+000	 2.138913116984844e+000
 4.327052946491253e-001	 1.076280155469341e+000	 2.003149415390031e+000
 4.212813585044584e-001	 1.080802855544754e+000	 1.870800322270082e+000
 4.098356536096108e-001	 1.085194675068824e+000	 1.741897853471895e+000
 3.983703241731844e-001	 1.089455727749307e+000	 1.616475184997823e+000
 3.868875018059778e-001	 1.093586171805575e+000	 1.494566298326918e+000
 3.753893044308633e-001	 1.097586209367518e+000	 1.376205538577506e+000
 3.638778352196507e-001	 1.101456085844741e+000	 1.261427091945503e+000
 3.523551815577790e-001	 1.105196089267309e+000	 1.150264389311582e+000
 3.408234140376239e-001	 1.108806549599300e+000	 1.042749443305917e+000
 4.659505976530813e-001	 1.091368351630633e+000	 2.612029512029156e+000
 4.543151924021956e-001	 1.096262970490503e+000	 2.462801911570162e+000
 4.426530968660690e-001	 1.101023606144375e+000	 2.316935826709412e+000
 4.309665268717702e-001	 1.105650282127328e+000	 2.174491340032935e+000
 4.192576876683623e-001	 1.110143068643055e+000	 2.035531211964460e+000
 4.075287727593477e-001	 1.114502082013446e+000	 1.900120529254330e+000
 3.957819627608041e-001	 1.118727484095320e+000	 1.768326245549437e+000
 3.840194242862013e-001	 1.122819481665506e+000	 1.640216620899706e+000
 3.722433088588219e-001	 1.126778325775542e+000	 1.515860567660177e+000
 3.604557518526529e-001	 1.130604311077259e+000	 1.395326910773562e+000
 3.486588714625483e-001	 1.134297775120553e+000	 1.278683570871517e+000
 4.764219965116759e-001	 1.115894885921038e+000	 2.928684131173415e+000
 4.645251065243294e-001	 1.120899502507003e+000	 2.772525195432154e+000
 4.526009264357542e-001	 1.125767124856174e+000	 2.619731909772261e+000
 4.406517218697297e-001	 1.130497777032559e+000	 2.470384230869734e+000
 4.286797476343086e-001	 1.135091530817564e+000	 2.324565894132752e+000
 4.166872465280216e-001	 1.139548505147221e+000	 2.182363989192974e+000
 4.046764481723542e-001	 1.143868865515805e+000	 2.043868410886584e+000
 3.926495678715000e-001	 1.148052823347096e+000	 1.909171193578183e+000
 3.806088055003410e-001	 1.152100635334577e+000	 1.778365737371886e+000
 3.685563444215369e-001	 1.156012602751862e+000	 1.651545935354631e+000
 3.564943504325456e-001	 1.159789070734689e+000	 1.528805211538562e+000
 4.868934058381502e-001	 1.140421444731140e+000	 3.238734302878997e+000
 4.747350308529195e-001	 1.145536059153163e+000	 3.078888641306221e+000
 4.625487659498976e-001	 1.150510668304600e+000	 2.922405478022117e+000
 4.503369265496188e-001	 1.155345296778378e+000	 2.769375755685778e+000
 4.381018170191691e-001	 1.160040017933618e+000	 2.619895202745791e+000
 4.258457294521522e-001	 1.164594953320496e+000	 2.474063851127552e+000
 4.135709424755044e-001	 1.169010272070738e+000	 2.331985410868645e+000
 4.012797200841874e-001	 1.173286190255080e+000	 2.193766510615652e+000
 3.889743105047253e-001	 1.177422970208952e+000	 2.059515813683279e+000
 3.766569450884943e-001	 1.181420919827755e+000	 1.929343020065379e+000
 3.643298372355972e-001	 1.185280391833070e+000	 1.803357765381769e+000
 4.973648073080526e-001	 1.164947985140473e+000	 3.551951841228572e+000
 4.849449475210769e-001	 1.170172597316046e+000	 3.391766689288201e+000
 4.724965980002161e-001	 1.175254193189512e+000	 3.234901629442092e+000
 4.600221239627185e-001	 1.180192797882715e+000	 3.081450363023357e+000
 4.475238793346627e-001	 1.184988486332486e+000	 2.931512352840366e+000
 4.350042055046847e-001	 1.189641382703130e+000	 2.785192296588598e+000
 4.224654301051314e-001	 1.194151659763825e+000	 2.642599436498030e+000
 4.099098658216919e-001	 1.198519538232249e+000	 2.503846715263290e+000
 3.973398092324927e-001	 1.202745286085772e+000	 2.369049789197566e+000
 3.847575396775870e-001	 1.206829217841571e+000	 2.238325910340258e+000
 3.721653181596841e-001	 1.210771693807061e+000	 2.111792689926693e+000
 2.938118898076575e-001	 9.558631665059840e-001	-7.712816872009595e-001
 2.838646710056857e-001	 9.588642626988490e-001	-7.447574054338870e-001
 2.739131178235836e-001	 9.617543577873683e-001	-7.161269580914573e-001
 2.639589660669879e-001	 9.645338394785438e-001	-6.857683440530697e-001
 2.540039338948808e-001	 9.672031290579124e-001	-6.540595082554838e-001
 2.440497210832210e-001	 9.697626806991601e-001	-6.213781805484866e-001
 2.340980083161345e-001	 9.722129807570793e-001	-5.881017337055060e-001
 2.241504565049763e-001	 9.745545470450379e-001	-5.546070578620734e-001
 2.142087061355221e-001	 9.767879280981019e-001	-5.212704486704420e-001
 2.042743766435053e-001	 9.789137024229727e-001	-4.884675064898970e-001
 1.943490658186562e-001	 9.809324777358748e-001	-4.565730439884317e-001
 3.016469300097510e-001	 9.813530346885655e-001	-3.492335407702513e-001
 2.914344501272309e-001	 9.844341606898324e-001	-3.550044488405745e-001
 2.812175202806164e-001	 9.874013255358588e-001	-3.581450562048887e-001
 2.709979225639717e-001	 9.902549272725887e-001	-3.589593547231066e-001
 2.607774209541256e-001	 9.929953984199387e-001	-3.577525238140931e-001
 2.505577605546663e-001	 9.956232052629931e-001	-3.548309087175406e-001
 2.403406668682315e-001	 9.981388471261151e-001	-3.505020163690420e-001
 2.301278450974099e-001	 1.000542855631143e+000	-3.450745255100748e-001
 2.199209794745261e-001	 1.002835793940866e+000	-3.388583076816312e-001
 2.097217326205240e-001	 1.005018255988954e+000	-3.321644558046261e-001
 1.995317449331146e-001	 1.007090865697531e+000	-3.253053171294906e-001
 3.094820740290298e-001	 1.006843240615851e+000	 3.466053892198416e-003
 2.990043295512846e-001	 1.010004397486102e+000	-2.987540603665743e-002
 2.885220195238800e-001	 1.013048633111059e+000	-6.010629864282562e-002
 2.780369723299310e-001	 1.015976355875734e+000	-8.747465318555477e-002
 2.675509977647321e-001	 1.018788009534555e+000	-1.122306666926276e-001
 2.570658862601133e-001	 1.021484072484157e+000	-1.346268095770715e-001
 2.465834081378282e-001	 1.024065057018631e+000	-1.549179485349128e-001
 2.361053128922975e-001	 1.026531508568457e+000	-1.733614826277047e-001
 2.256333285029849e-001	 1.028884004924326e+000	-1.902174884977238e-001
 2.151691607766280e-001	 1.031123155447072e+000	-2.057488707318699e-001
 2.047144927194935e-001	 1.033249600264919e+000	-2.202215135002157e-001
 3.173173081534751e-001	 1.032333739679205e+000	 3.039912847236639e-001
 3.065742960300392e-001	 1.035574928338934e+000	 2.474268867965666e-001
 2.958266027699861e-001	 1.038696235629327e+000	 1.944058201992217e-001
 2.850761030460261e-001	 1.041698080274572e+000	 1.447196020345032e-001
 2.743246524724556e-001	 1.044580917263728e+000	 9.815686818702421e-002
 2.635740868098779e-001	 1.047345237105108e+000	 5.450314973722410e-002
 2.528262211996881e-001	 1.049991565062670e+000	 1.354063120331672e-002
 2.420828494286583e-001	 1.052520460375683e+000	-2.495210450367931e-002
 2.313457432239041e-001	 1.054932515462900e+000	-6.120033957896991e-002
 2.206166515784631e-001	 1.057228355112487e+000	-9.543348853531343e-002
 2.098973001076576e-001	 1.059408635658941e+000	-1.278853645102190e-001
 3.251526186710684e-001	 1.057824487269988e+000	 5.680178059141191e-001
 3.141443363156863e-001	 1.061145708499603e+000	 4.922394506795346e-001
 3.031312572355475e-001	 1.064344088207020e+000	 4.203859995953852e-001
 2.921153023934178e-001	 1.067420055455696e+000	 3.522736143698887e-001
 2.810983732230514e-001	 1.070374076469423e+000	 2.877151368388047e-001
 2.700823508142761e-001	 1.073206653868300e+000	 2.265197541310880e-001
 2.590690951285748e-001	 1.075918325886272e+000	 1.684926435221493e-001
 2.480604442455113e-001	 1.078509665571524e+000	 1.134346027359131e-001
 2.370582136402890e-001	 1.080981279971006e+000	 6.114167139381634e-002
 2.260641954926754e-001	 1.083333809300356e+000	 1.140474919971606e-002
 2.150801580274720e-001	 1.085567926100498e+000	-3.599078369339361e-002
 3.329879918697909e-001	 1.083315438779565e+000	 8.098873626650550e-001
 3.217144371604180e-001	 1.086716693219385e+000	 7.185999882351086e-001
 3.104359701371768e-001	 1.089992145960497e+000	 6.315641089843029e-001
 2.991545580532664e-001	 1.093142236405700e+000	 5.486070459125322e-001
 2.878721481622746e-001	 1.096167442013604e+000	 4.695526468416382e-001
 2.765906668836241e-001	 1.099068277516187e+000	 3.942208443720168e-001
 2.653120189992517e-001	 1.101845294117479e+000	 3.224271901061450e-001
 2.540380868818759e-001	 1.104499078674684e+000	 2.539823718746100e-001
 2.427707297551454e-001	 1.107030252863060e+000	 1.886917206238138e-001
 2.315117829859108e-001	 1.109439472325838e+000	 1.263547135041045e-001
 2.202630574088016e-001	 1.111727425810493e+000	 6.676447952852450e-002
 3.408234140376239e-001	 1.108806549599300e+000	 1.042749443305917e+000
 3.292845853164264e-001	 1.112287837749558e+000	 9.393852959955558e-001
 3.177407286914863e-001	 1.115640364006114e+000	 8.405403165784232e-001
 3.061938577067327e-001	 1.118864578111176e+000	 7.460408319966927e-001
 2.946459654358807e-001	 1.121960968758238e+000	 6.557098410963590e-001
 2.830990236282377e-001	 1.124930062791226e+000	 5.693664667011352e-001
 2.715549818864824e-001	 1.127772424384332e+000	 4.868253792161230e-001
 2.600157668767713e-001	 1.130488654203866e+000	 4.078961995758004e-001
 2.484832815714786e-001	 1.133079388553482e+000	 3.323828892724259e-001
 2.369594045248153e-001	 1.135545298504094e+000	 2.600831350587693e-001
 2.254459891815113e-001	 1.137887089009828e+000	 1.907877357353693e-001
 3.486588714625483e-001	 1.134297775120553e+000	 1.278683570871517e+000
 3.368547675359032e-001	 1.137859097341395e+000	 1.166430788566799e+000
 3.250455201150881e-001	 1.141288697460231e+000	 1.058901805307076e+000
 3.132331890349773e-001	 1.144587035558720e+000	 9.559110599097728e-001
 3.014198131896246e-001	 1.147754611565289e+000	 8.572701220680838e-001
 2.896074096584329e-001	 1.150791964435870e+000	 7.627870371149335e-001
 2.777979728650303e-001	 1.153699671314873e+000	 6.722656362142275e-001
 2.659934737692166e-001	 1.156478346677774e+000	 5.855048209981325e-001
 2.541958590922944e-001	 1.159128641456689e+000	 5.022978315812261e-001
 2.424070505760347e-001	 1.161651242150283e+000	 4.224315067310326e-001
 2.306289442754662e-001	 1.164046869919403e+000	 3.456855447619594e-001
 3.564943504325456e-001	 1.159789070734689e+000	 1.528805211538562e+000
 3.444249705710406e-001	 1.163430427246174e+000	 1.410634039374979e+000
 3.323503316245950e-001	 1.166937101439205e+000	 1.297323907679658e+000
 3.202725397191608e-001	 1.170309563734924e+000	 1.188667669977049e+000
 3.081936795692617e-001	 1.173548325296723e+000	 1.084456101489909e+000
 2.961158135845260e-001	 1.176653937192574e+000	 9.844771323562831e-001
 2.840409810096591e-001	 1.179626989537143e+000	 8.885150387542696e-001
 2.719711970982311e-001	 1.182468110615112e+000	 7.963496022926587e-001
 2.599084523205983e-001	 1.185177965987098e+000	 7.077552479314563e-001
 2.478547116062153e-001	 1.187757257579563e+000	 6.225001705311846e-001
 2.358119136205312e-001	 1.190206722760122e+000	 5.403454598940575e-001
 3.643298372355972e-001	 1.185280391833070e+000	 1.803357765381769e+000
 3.519951811740304e-001	 1.189001782715169e+000	 1.682044743282115e+000
 3.396551504366194e-001	 1.192585531059394e+000	 1.565658004287320e+000
 3.273118974404436e-001	 1.196032117626382e+000	 1.453960263006723e+000
 3.149675527205472e-001	 1.199342064814506e+000	 1.346713298839651e+000
 3.026242240168329e-001	 1.202515935803794e+000	 1.243677070533694e+000
 2.902839953951322e-001	 1.205554333679185e+000	 1.144608779655644e+000
 2.779489264028340e-001	 1.208457900534583e+000	 1.049261894819989e+000
 2.656210512593957e-001	 1.211227316559127e+000	 9.573851484246335e-001
 2.533023780820027e-001	 1.213863299107094e+000	 8.687215174617140e-001
 2.409948881465711e-001	 1.216366601752886e+000	 7.830071997158139e-001
 3.721653181596841e-001	 1.210771693807061e+000	 2.111792689926693e+000
 3.595653860970648e-001	 1.214573118999657e+000	 1.989943101496013e+000
 3.469599637677736e-001	 1.218233941437156e+000	 1.873008135995348e+000
 3.343512498799867e-001	 1.221754652219686e+000	 1.760712913636112e+000
 3.217414207892364e-001	 1.225135784980603e+000	 1.652783137666645e+000
 3.091326295656695e-001	 1.228377915011984e+000	 1.548944080212877e+000
 2.965270050962132e-001	 1.231481658369039e+000	 1.448919506491229e+000
 2.839266512220445e-001	 1.234447670954891e+000	 1.352430550893464e+000
 2.713336459116921e-001	 1.237276647587193e+000	 1.259194558341160e+000
 2.587500404700431e-001	 1.239969321048035e+000	 1.168923904116290e+000
 2.461778587834510e-001	 1.242526461118597e+000	 1.081324805088698e+000
 1.943490658186562e-001	 9.809324777358748e-001	-4.565730439884317e-001
 1.844358351184653e-001	 9.828446114249160e-001	-4.253297324873817e-001
 1.745347453506193e-001	 9.846510785005697e-001	-3.944320167524977e-001
 1.646473231798204e-001	 9.863525701375676e-001	-3.641957904829909e-001
 1.547750715930049e-001	 9.879498035443917e-001	-3.349369094251244e-001
 1.449194694473043e-001	 9.894435211587169e-001	-3.069711835669259e-001
 1.350819710464206e-001	 9.908344898374509e-001	-2.806143605855896e-001
 1.252640057452698e-001	 9.921235000424143e-001	-2.561820987359856e-001
 1.154669775827054e-001	 9.933113650226918e-001	-2.339899275380376e-001
 1.056922649420928e-001	 9.943989199946589e-001	-2.143531948139456e-001
 9.594122023947826e-002	 9.953870213206723e-001	-1.975869988061351e-001
 1.995317449331146e-001	 1.007090865697531e+000	-3.253053171294901e-001
 1.893541595092008e-001	 1.009053989985139e+000	-3.179375695696657e-001
 1.791890387780153e-001	 1.010908629862745e+000	-3.096952441034951e-001
 1.690379501156183e-001	 1.012655494936566e+000	-3.008616217182945e-001
 1.589024365888925e-001	 1.014295321540812e+000	-2.917212134473825e-001
 1.487840164914495e-001	 1.015828871911665e+000	-2.825598447953785e-001
 1.386841829087086e-001	 1.017256933355725e+000	-2.736647266000654e-001
 1.286044033119972e-001	 1.018580317413973e+000	-2.653245101075184e-001
 1.185461191814805e-001	 1.019799859022319e+000	-2.578293242565793e-001
 1.085107456576841e-001	 1.020916415669762e+000	-2.514707933914966e-001
 9.849967122134784e-002	 1.021930866555178e+000	-2.465420338511111e-001
 2.047144927194935e-001	 1.033249600264919e+000	-2.202215135002163e-001
 1.942725490689864e-001	 1.035263715826961e+000	-2.331939751246723e-001
 1.838433938759064e-001	 1.037166529144998e+000	-2.442254503709583e-001
 1.734286352282083e-001	 1.038958768256984e+000	-2.535803477023279e-001
 1.630298562732485e-001	 1.040641188623105e+000	-2.615253037019932e-001
 1.526486147416389e-001	 1.042214572278316e+000	-2.683293564972503e-001
 1.422864425010266e-001	 1.043679726979181e+000	-2.742641012776521e-001
 1.319448451396527e-001	 1.045037485346122e+000	-2.796038252221008e-001
 1.216253015794873e-001	 1.046288704002161e+000	-2.846256194074033e-001
 1.113292637187003e-001	 1.047434262709218e+000	-2.896094655386743e-001
 1.010581561032000e-001	 1.048475063502990e+000	-2.948382956120921e-001
 2.098973001076576e-001	 1.059408635658941e+000	-1.278853645102185e-001
 1.991909951903410e-001	 1.061473743082011e+000	-1.580048913695425e-001
 1.884978024988975e-001	 1.063424730394631e+000	-1.852628010716951e-001
 1.778193708336415e-001	 1.065262344066698e+000	-2.099169005931682e-001
 1.671573234228617e-001	 1.066987358684599e+000	-2.322279690929368e-001
 1.565132574346200e-001	 1.068600576082287e+000	-2.524600194865881e-001
 1.458887435192350e-001	 1.070102824466526e+000	-2.708805381769747e-001
 1.352853253822968e-001	 1.071494957537422e+000	-2.877606997317408e-001
 1.247045193880079e-001	 1.072777853605359e+000	-3.033755535938989e-001
 1.141478141926026e-001	 1.073952414705431e+000	-3.180041802269361e-001
 1.036166704075698e-001	 1.075019565710423e+000	-3.319298144155153e-001
 2.150801580274720e-001	 1.085567926100498e+000	-3.599078369339361e-002
 2.041094892657835e-001	 1.087684025881921e+000	-8.037319392357249e-002
 1.931522565015935e-001	 1.089683187658944e+000	-1.211117819665022e-001
 1.822101492479693e-001	 1.091566176333586e+000	-1.584686350252106e-001
 1.712848308145205e-001	 1.093333785618622e+000	-1.927093166253033e-001
 1.603779378071404e-001	 1.094986837147195e+000	-2.241032179235788e-001
 1.494910796591941e-001	 1.096526179576468e+000	-2.529238835768279e-001
 1.386258381939897e-001	 1.097952687686433e+000	-2.794493083564269e-001
 1.277837672183244e-001	 1.099267261475050e+000	-3.039622010424445e-001
 1.169663921468526e-001	 1.100470825250804e+000	-3.267502124952472e-001
 1.061752096569922e-001	 1.101564326723789e+000	-3.481061251715734e-001
 2.202630574088016e-001	 1.111727425810493e+000	 6.676447952852500e-002
 2.090280226878327e-001	 1.113894518358322e+000	 1.072404896235961e-002
 1.978067477385986e-001	 1.115941854985237e+000	-4.102201073914959e-002
 1.866009627872431e-001	 1.117870219025528e+000	-8.874962579991010e-002
 1.754123712250134e-001	 1.119680423318503e+000	-1.327384753838390e-001
 1.642426490959474e-001	 1.121373309296657e+000	-1.732724367282001e-001
 1.530934446167642e-001	 1.122949746067712e+000	-2.106400015054231e-001
 1.419663777287918e-001	 1.124410629491716e+000	-2.451346589164979e-001
 1.308630396817190e-001	 1.125756881254375e+000	-2.770552414219945e-001
 1.197849926489115e-001	 1.126989447937741e+000	-3.067062294303146e-001
 1.087337693740024e-001	 1.128109300089399e+000	-3.343980116905674e-001
 2.254459891815113e-001	 1.137887089009828e+000	 1.907877357353693e-001
 2.139465868490073e-001	 1.140105174642845e+000	 1.254413753487811e-001
 2.024612680645177e-001	 1.142200686420812e+000	 6.491450879040125e-002
 1.909918037675141e-001	 1.144174426110399e+000	 8.909080244377572e-003
 1.795399374311289e-001	 1.146027225677570e+000	-4.287677897714824e-002
 1.681073845377886e-001	 1.147759946354290e+000	-9.074929605384631e-002
 1.566958320878055e-001	 1.149373477698965e+000	-1.350195703757040e-001
 1.453069381407635e-001	 1.150868736651832e+000	-1.760040500907948e-001
 1.339423313894738e-001	 1.152246666586471e+000	-2.140249666721749e-001
 1.226036107662408e-001	 1.153508236358646e+000	-2.494107231691634e-001
 1.112923450811353e-001	 1.154654439353569e+000	-2.824962322939444e-001
 2.306289442754662e-001	 1.164046869919403e+000	 3.456855447619589e-001
 2.188651731418263e-001	 1.166315948867122e+000	 2.731564504740357e-001
 2.071158093339555e-001	 1.168459636012968e+000	 2.058522751665419e-001
 1.953826645048334e-001	 1.170478751556079e+000	 1.434457666391306e-001
 1.836675222096557e-001	 1.172374146589153e+000	 8.560600721162756e-002
 1.719721373694115e-001	 1.174146702143711e+000	 3.199775829195842e-002
 1.602982357681785e-001	 1.175797328228937e+000	-1.771916015636569e-002
 1.486475135839651e-001	 1.177326962865341e+000	-6.389044910867013e-002
 1.370216369528710e-001	 1.178736571114481e+000	-1.068678633155912e-001
 1.254222415663019e-001	 1.180027144105923e+000	-1.470096924035425e-001
 1.138509323009261e-001	 1.181199698062607e+000	-1.846811857126699e-001
 2.358119136205312e-001	 1.190206722760122e+000	 5.403454598940569e-001
 2.237837729588087e-001	 1.192526795162783e+000	 4.625495052155186e-001
 2.117703634015168e-001	 1.194718657809009e+000	 3.902694514649261e-001
 1.997735373152525e-001	 1.196783149330445e+000	 3.231429716335160e-001
 1.877951183373821e-001	 1.198721139946578e+000	 2.608044199755225e-001
 1.758369008275634e-001	 1.200533530488537e+000	 2.028840546834020e-001
 1.639006493537435e-001	 1.202221251416331e+000	 1.490072983937497e-001
 1.519880982124569e-001	 1.203785261830803e+000	 9.879404364098529e-002
 1.401009509831927e-001	 1.205226548481543e+000	 5.185800979026655e-002
 1.282408801165560e-001	 1.206546124771974e+000	 7.806157368293865e-003
 1.164095265559098e-001	 1.207745029762831e+000	-3.376183491653114e-002
 2.409948881465711e-001	 1.216366601752886e+000	 7.830071997158139e-001
 2.287023776924730e-001	 1.218737667661458e+000	 7.016725102757694e-001
 2.164249221218060e-001	 1.220977705856232e+000	 6.260350656746962e-001
 2.041644145148226e-001	 1.223087573401375e+000	 5.556927466171727e-001
 1.919227185910969e-001	 1.225068159643175e+000	 4.902406545152693e-001
 1.797016681489920e-001	 1.226920385212384e+000	 4.292701973314291e-001
 1.675030665403606e-001	 1.228645201019855e+000	 3.723682161816360e-001
 1.553286861802993e-001	 1.230243587246780e+000	 3.191161609160471e-001
 1.431802680917211e-001	 1.231716552330795e+000	 2.690893222300575e-001
 1.310595214844649e-001	 1.233065131949204e+000	 2.218561271719615e-001
 1.189681233686213e-001	 1.234290388000549e+000	 1.769775042010785e-001
 2.461778587834510e-001	 1.242526461118597e+000	 1.081324805088698e+000
 2.336209787353383e-001	 1.244948520494780e+000	 9.980095981842616e-001
 2.210794773494281e-001	 1.247236734201940e+000	 9.204677168174700e-001
 2.085552884195949e-001	 1.249391977736748e+000	 8.482536725513529e-001
 1.960503157475883e-001	 1.251415159572273e+000	 7.809199244237688e-001
 1.835664325704446e-001	 1.253307220138870e+000	 7.180158100455956e-001
 1.711054810238903e-001	 1.255069130798217e+000	 6.590865204563885e-001
 1.586692716415527e-001	 1.256701892811832e+000	 6.036721281819256e-001
 1.462595828897382e-001	 1.258206536305377e+000	 5.513066771937401e-001
 1.338781607374896e-001	 1.259584119230017e+000	 5.015173426959456e-001
 1.215267182615959e-001	 1.260835726322077e+000	 4.538236678646911e-001
 9.594122023947826e-002	 9.953870213206723e-001	-1.975869988061351e-001
 8.621371590998771e-002	 9.962766718121099e-001	-1.840879088635550e-001
 7.651253352126196e-002	 9.970686125683425e-001	-1.738459814841600e-001
 6.683896610081594e-002	 9.977637591031844e-001	-1.665537897630956e-001
 5.719427911104236e-002	 9.983630448185401e-001	-1.618971678255291e-001
 4.757971027342479e-002	 9.988674201817246e-001	-1.595561978900075e-001
 3.799646941872222e-002	 9.992778519071311e-001	-1.592061537167184e-001
 2.844573836262598e-002	 9.995953221430518e-001	-1.605183992397584e-001
 1.892867080636962e-002	 9.998208276644112e-001	-1.631612414616730e-001
 9.446392261750505e-003	 9.999553790721549e-001	-1.668007369474613e-001
 0.000000000000000e+000	 1.000000000000000e+000	-1.711014515137383e-001
 9.849967122134784e-002	 1.021930866555178e+000	-2.465420338511111e-001
 8.851276490585905e-002	 1.022844241231782e+000	-2.429497499049037e-001
 7.855288245458961e-002	 1.023657300561674e+000	-2.403084461985545e-001
 6.862135137610560e-002	 1.024370984472468e+000	-2.384693563168515e-001
 5.871947087877485e-002	 1.024986251256887e+000	-2.372805427499518e-001
 4.884851169029193e-002	 1.025504076728145e+000	-2.365876247070274e-001
 3.900971590386785e-002	 1.025925453379796e+000	-2.362344612948185e-001
 2.920429685057112e-002	 1.026251389550869e+000	-2.360637891712251e-001
 1.943343899728704e-002	 1.026482908597069e+000	-2.359178140673425e-001
 9.698297869739969e-003	 1.026621048068823e+000	-2.356387558502461e-001
 0.000000000000000e+000	 1.026666858896873e+000	-2.350680583473001e-001
 1.010581561032000e-001	 1.048475063502990e+000	-2.948382956120921e-001
 9.081184436458804e-002	 1.049412162678889e+000	-2.998734463812099e-001
 8.059325842294968e-002	 1.050246340862016e+000	-3.040772062238604e-001
 7.040376026835922e-002	 1.050978562394118e+000	-3.074380912073538e-001
 6.024468285560673e-002	 1.051609810459080e+000	-3.099443592858803e-001
 5.011732991903532e-002	 1.052141086216367e+000	-3.115845307536858e-001
 4.002297581473560e-002	 1.052573407939045e+000	-3.123478620866562e-001
 2.996286538957090e-002	 1.052907810157237e+000	-3.122247725008217e-001
 1.993821387648608e-002	 1.053145342807795e+000	-3.112072228648360e-001
 9.950206815530237e-003	 1.053287070390996e+000	-3.092890468979819e-001
 0.000000000000000e+000	 1.053334071134978e+000	-3.064652973603479e-001
 1.036166704075698e-001	 1.075019565710423e+000	-3.319298144155153e-001
 9.311095026268376e-002	 1.075980389658250e+000	-3.444799366874867e-001
 8.263365785559605e-002	 1.076835686937253e+000	-3.548566164460473e-001
 7.218618965828585e-002	 1.077586446303605e+000	-3.631655915532233e-001
 6.176991237235380e-002	 1.078233675832652e+000	-3.695146507468695e-001
 5.138616273917136e-002	 1.078778402030408e+000	-3.740139975124018e-001
 4.103624737807992e-002	 1.079221668949764e+000	-3.767765643335785e-001
 3.072144265210026e-002	 1.079564537312246e+000	-3.779182767881460e-001
 2.044299456059079e-002	 1.079808083636172e+000	-3.775582672877496e-001
 1.020211865827077e-002	 1.079953399371986e+000	-3.758190385889652e-001
 0.000000000000000e+000	 1.080001590045551e+000	-3.728259308189679e-001
 1.061752096569922e-001	 1.101564326723789e+000	-3.481061251715729e-001
 9.541007857665534e-002	 1.102548875674683e+000	-3.672052103247218e-001
 8.467407718178258e-002	 1.103425292255272e+000	-3.831529433866357e-001
 7.396863642659460e-002	 1.104194589636403e+000	-3.961533607323172e-001
 6.329515675983193e-002	 1.104857800785134e+000	-4.064143027829608e-001
 5.265500793021638e-002	 1.105415977554288e+000	-4.141476712543402e-001
 4.204952882065519e-002	 1.105870189776840e+000	-4.195696326680604e-001
 3.148002731063408e-002	 1.106221524365987e+000	-4.229007676420027e-001
 2.094778016622522e-002	 1.106471084421780e+000	-4.243661658488264e-001
 1.045403295711100e-002	 1.106619988345106e+000	-4.241954668919424e-001
 0.000000000000000e+000	 1.106669368959824e+000	-4.226224297192649e-001
 1.087337693740024e-001	 1.128109300089399e+000	-3.343980116905664e-001
 9.770922528301190e-002	 1.129117574233009e+000	-3.592081833597259e-001
 8.671451283076313e-002	 1.130015110283961e+000	-3.801834917102984e-001
 7.575109745399455e-002	 1.130802945827984e+000	-3.976083229841914e-001
 6.482041334885687e-002	 1.131482138724057e+000	-4.117721106743597e-001
 5.392386327168685e-002	 1.132053766172024e+000	-4.229695355637765e-001
 4.306281836921587e-002	 1.132518923785159e+000	-4.315006667198984e-001
 3.223861803764724e-002	 1.132878724668551e+000	-4.376710429263230e-001
 2.145256981001344e-002	 1.133134298504202e+000	-4.417916944524549e-001
 1.070594927120041e-002	 1.133286790643667e+000	-4.441791054684357e-001
 0.000000000000000e+000	 1.133337361209029e+000	-4.451548693705303e-001
 1.112923450811353e-001	 1.154654439353569e+000	-2.824962322939444e-001
 1.000083863582626e-001	 1.155686438838045e+000	-3.122912627612128e-001
 8.875496123179164e-002	 1.156605094491205e+000	-3.377982490013815e-001
 7.753356962119480e-002	 1.157411468313820e+000	-3.593648049703795e-001
 6.634567947024449e-002	 1.158106643056953e+000	-3.773443690069025e-001
 5.519272654309911e-002	 1.158691721267636e+000	-3.920963957878479e-001
 4.407611425051639e-002	 1.159167824339611e+000	-4.039864826495077e-001
 3.299721350561465e-002	 1.159536091570028e+000	-4.133864296357277e-001
 2.195736260857948e-002	 1.159797679223020e+000	-4.206742331112196e-001
 1.095786715968844e-002	 1.159953759600982e+000	-4.262340132379191e-001
 0.000000000000000e+000	 1.160005520124402e+000	-4.304557444829639e-001
 1.138509323009261e-001	 1.181199698062607e+000	-1.846811857126694e-001
 1.023075577789164e-001	 1.182255422994611e+000	-2.188316045899755e-001
 9.079541881412197e-002	 1.183195198344892e+000	-2.484120806190735e-001
 7.931604980890450e-002	 1.184020110529385e+000	-2.738170241842621e-001
 6.787095245481058e-002	 1.184731267191354e+000	-2.954470233537473e-001
 5.646159552396952e-002	 1.185329796225141e+000	-3.137090768290054e-001
 4.508941469131115e-002	 1.185816844805080e+000	-3.290167532917294e-001
 3.375581238701120e-002	 1.186193578420510e+000	-3.417902763017565e-001
 2.246215767854739e-002	 1.186461179917814e+000	-3.524565344450609e-001
 1.120978618172454e-002	 1.186620848550362e+000	-3.614490169539238e-001
 0.000000000000000e+000	 1.186673799037173e+000	-3.692076170949054e-001
 1.164095265559098e-001	 1.207745029762831e+000	-3.376183491653064e-002
 1.046067355214827e-001	 1.208824480207525e+000	-7.172142159069896e-002
 9.283588200700799e-002	 1.209785375312910e+000	-1.049458522998977e-001
 8.109853489783266e-002	 1.210628825910150e+000	-1.338604685412392e-001
 6.939622963337101e-002	 1.211355964534790e+000	-1.588967598273147e-001
 5.773046799381452e-002	 1.211967944428558e+000	-1.804926868903087e-001
 4.610271791835461e-002	 1.212465938546455e+000	-1.990929218299228e-001
 3.451441335431180e-002	 1.212851138570085e+000	-2.151490040667825e-001
 2.296695413654122e-002	 1.213124753928167e+000	-2.291194115821896e-001
 1.146170589645817e-002	 1.213288010825121e+000	-2.414695475256360e-001
 0.000000000000000e+000	 1.213342151278578e+000	-2.526716241778990e-001
 1.189681233686213e-001	 1.234290388000549e+000	 1.769775042010785e-001
 1.069059155624703e-001	 1.235393563981607e+000	 1.356840215051395e-001
 9.487634723970358e-002	 1.236375578863144e+000	 9.922486286632333e-002
 8.288102176868849e-002	 1.237237567891589e+000	 6.715917071085659e-002
 7.092150833674156e-002	 1.237980688494794e+000	 3.904031236673885e-002
 5.899934173215044e-002	 1.238606119261905e+000	 1.441541694678586e-002
 4.711602215840118e-002	 1.239115058928623e+000	-7.174993666498473e-003
 3.527301507999132e-002	 1.239508725368847e+000	-2.619727821077772e-002
 2.347175109918501e-002	 1.239788354593661e+000	-4.312485299614150e-002
 1.171362586303879e-002	 1.239955199758569e+000	-5.843827229254880e-002
 0.000000000000000e+000	 1.240010530179849e+000	-7.262521103619497e-002
 1.215267182615959e-001	 1.260835726322077e+000	 4.538236678646921e-001
 1.092050938783885e-001	 1.261962627821675e+000	 4.096118574438204e-001
 9.691681094146261e-002	 1.262965762463481e+000	 3.703146103337655e-001
 8.466350730218102e-002	 1.263846289909173e+000	 3.354906254182050e-001
 7.244678589573805e-002	 1.264605392478897e+000	 3.046935038621974e-001
 6.026821451849371e-002	 1.265244274109201e+000	 2.774710958149323e-001
 4.812932563820527e-002	 1.265764159316470e+000	 2.533649539712069e-001
 3.603161623652470e-002	 1.266166292166884e+000	 2.319098959908791e-001
 2.397654768310283e-002	 1.266451935253878e+000	 2.126336769629273e-001
 1.196554564061585e-002	 1.266622368684020e+000	 1.950567723161960e-001
 0.000000000000000e+000	 1.266678889072220e+000	 1.786922683525878e-001
 1.266678889072220e+000	 0.000000000000000e+000	 1.949342447193269e+001
 1.266622368684020e+000	 1.196554564061589e-002	 1.947810803286141e+001
 1.266451935253877e+000	 2.397654768310291e-002	 1.946285739681045e+001
 1.266166292166884e+000	 3.603161623652462e-002	 1.944720613349767e+001
 1.265764159316470e+000	 4.812932563820523e-002	 1.943066847336071e+001
 1.265244274109201e+000	 6.026821451849370e-002	 1.941273952533318e+001
 1.264605392478897e+000	 7.244678589573809e-002	 1.939289557605721e+001
 1.263846289909173e+000	 8.466350730218103e-002	 1.937059439182075e+001
 1.262965762463481e+000	 9.691681094146248e-002	 1.934527552140722e+001
 1.261962627821675e+000	 1.092050938783884e-001	 1.931636059814887e+001
 1.260835726322077e+000	 1.215267182615958e-001	 1.928325363959851e+001
 1.293343190136031e+000	 0.000000000000000e+000	 1.885786277323600e+001
 1.293285479961983e+000	 1.221742708636594e-002	 1.884246271371911e+001
 1.293111458812611e+000	 2.448126745774412e-002	 1.882778771360234e+001
 1.292819802778529e+000	 3.679010196516097e-002	 1.881332582415965e+001
 1.292409204806197e+000	 4.914247493488750e-002	 1.879854210342671e+001
 1.291878375723875e+000	 6.153689423456663e-002	 1.878287887860184e+001
 1.291226045277082e+000	 7.397183137018699e-002	 1.876575603666109e+001
 1.290450963172669e+000	 8.644572161462837e-002	 1.874657131708510e+001
 1.289551900130541e+000	 9.895696416848014e-002	 1.872470060469119e+001
 1.288527648942039e+000	 1.115039223538046e-001	 1.869949822068648e+001
 1.287377025533950e+000	 1.240849238414894e-001	 1.867029721020388e+001
 1.320007431208043e+000	 0.000000000000000e+000	 1.828193964333226e+001
 1.319948531250828e+000	 1.246930796544279e-002	 1.826878510751338e+001
 1.319770922390312e+000	 2.498598609687761e-002	 1.825681216360271e+001
 1.319473253422687e+000	 3.754858598735979e-002	 1.824544747066338e+001
 1.319054190347506e+000	 5.015562195217481e-002	 1.823409207501486e+001
 1.318512417414774e+000	 6.280557109632907e-002	 1.822212172809928e+001
 1.317846638181773e+000	 7.549687341352278e-002	 1.820888721574350e+001
 1.317055576578640e+000	 8.822793191734575e-002	 1.819371468791445e+001
 1.316137977981790e+000	 1.009971128054111e-001	 1.817590598662964e+001
 1.315092610294107e+000	 1.138027456571139e-001	 1.815473896982624e+001
 1.313918265030891e+000	 1.266431236656700e-001	 1.812946782916225e+001
 1.346671618954121e+000	 0.000000000000000e+000	 1.775440911124173e+001
 1.346611529216121e+000	 1.272118834083839e-002	 1.774534252997605e+001
 1.346430332651642e+000	 2.549070372671897e-002	 1.773777435028930e+001
 1.346126650762511e+000	 3.830706849278583e-002	 1.773106373474895e+001
 1.345699122601420e+000	 5.116876694340033e-002	 1.772454106427596e+001
 1.345146405840180e+000	 6.407424542099521e-002	 1.771750797605622e+001
 1.344467177847875e+000	 7.702191240704667e-002	 1.770923747307862e+001
 1.343660136777989e+000	 9.001013865592052e-002	 1.769897409675896e+001
 1.342724002663489e+000	 1.030372573623213e-001	 1.768593416219375e+001
 1.341657518518851e+000	 1.161015643630453e-001	 1.766930605515120e+001
 1.340459451447940e+000	 1.292013183737075e-001	 1.764825058946045e+001
 1.373335760040133e+000	 0.000000000000000e+000	 1.727016622916012e+001
 1.373274480523431e+000	 1.297306827554474e-002	 1.726547606191138e+001
 1.373089696261269e+000	 2.599542047348386e-002	 1.726255548238706e+001
 1.372780001461154e+000	 3.906554967110389e-002	 1.726069335539136e+001
 1.372344008228968e+000	 5.218191016189716e-002	 1.725914705518509e+001
 1.371780347658369e+000	 6.534291752577912e-002	 1.725714256452536e+001
 1.371087670930294e+000	 7.854694873205979e-002	 1.725387465685616e+001
 1.370264650421613e+000	 9.179234227594005e-002	 1.724850715235883e+001
 1.369309980821893e+000	 1.050773983492762e-001	 1.724017324728509e+001
 1.368222380257244e+000	 1.184003790463279e-001	 1.722797591548881e+001
 1.367000591420135e+000	 1.317595086051721e-001	 1.721098838055121e+001
 1.399999861131944e+000	 0.000000000000000e+000	 1.682680475897709e+001
 1.399937391838324e+000	 1.322494783255377e-002	 1.682607723401844e+001
 1.399749019883856e+000	 2.650013646338788e-002	 1.682740232885811e+001
 1.399433312181770e+000	 3.982402971197879e-002	 1.682998717824924e+001
 1.398988853891178e+000	 5.319505186099847e-002	 1.683300527643299e+001
 1.398414249527623e+000	 6.661158772789501e-002	 1.683559667708322e+001
 1.397708124083939e+000	 8.007198276986338e-002	 1.683686828880143e+001
 1.396869124160417e+000	 9.357454322299176e-002	 1.683589425609579e+001
 1.395895919103263e+000	 1.071175362763417e-001	 1.683171642506004e+001
 1.394787202150259e+000	 1.206991902816908e-001	 1.682334489237935e+001
 1.393541691582514e+000	 1.343176949996336e-001	 1.680975863568845e+001
 1.426663928895422e+000	 0.000000000000000e+000	 1.642223769526494e+001
 1.426600269826366e+000	 1.347682707485748e-002	 1.642456904824503e+001
 1.426408310184067e+000	 2.700485182264663e-002	 1.642929939070850e+001
 1.426086589587512e+000	 4.058250880507529e-002	 1.643554311994064e+001
 1.425633666249075e+000	 5.420819229403738e-002	 1.644237935482382e+001
 1.425048118106222e+000	 6.788025634455705e-002	 1.644885227604960e+001
 1.424328543963713e+000	 8.159701490175864e-002	 1.645397157527144e+001
 1.423473564645299e+000	 9.535674194266300e-002	 1.645671300232957e+001
 1.422481824153855e+000	 1.091576716535834e-001	 1.645601900947117e+001
 1.421351990838867e+000	 1.229979986438629e-001	 1.645079949081056e+001
 1.420082758570117e+000	 1.368758781966621e-001	 1.643993261457753e+001
 1.453327969996434e+000	 0.000000000000000e+000	 1.605482142638888e+001
 1.453263121153126e+000	 1.372870606544782e-002	 1.605884252176968e+001
 1.453067573826569e+000	 2.750956667747578e-002	 1.606572079675249e+001
 1.452739840341533e+000	 4.134098714005818e-002	 1.607446727694046e+001
 1.452278451963687e+000	 5.522133171434702e-002	 1.608405653755785e+001
 1.451681960052446e+000	 6.914892369297943e-002	 1.609342722300320e+001
 1.450948937224526e+000	 8.312204550904671e-002	 1.610148268984225e+001
 1.450077978527162e+000	 9.713893888054116e-002	 1.610709176154532e+001
 1.449067702619928e+000	 1.111978049910672e-001	 1.610908959351606e+001
 1.447916752964040e+000	 1.252968047075733e-001	 1.610627864617729e+001
 1.446623799017982e+000	 1.394340588358277e-001	 1.609742976307938e+001
 1.479991991100845e+000	 0.000000000000000e+000	 1.572331578866854e+001
 1.479925952484172e+000	 1.398058486731675e-002	 1.572721383393020e+001
 1.479726817476025e+000	 2.801428115409090e-002	 1.573458486243753e+001
 1.479393071106987e+000	 4.209946490659224e-002	 1.574432621815281e+001
 1.478923217696040e+000	 5.623447037526055e-002	 1.575529804290668e+001
 1.478315782024575e+000	 7.041759009037626e-002	 1.576632401419417e+001
 1.477569310521282e+000	 8.464707497302883e-002	 1.577619222214366e+001
 1.476682372456906e+000	 9.892113448221362e-002	 1.578365617311355e+001
 1.475653561147740e+000	 1.132379367988586e-001	 1.578743591800408e+001
 1.474481495166753e+000	 1.275956090475512e-001	 1.578621930247357e+001
 1.473164819561149e+000	 1.419922375567004e-001	 1.577866333533654e+001
 1.506655998874523e+000	 0.000000000000000e+000	 1.542684836382596e+001
 1.506588770485068e+000	 1.423246354345626e-002	 1.542838602573383e+001
 1.506386047797100e+000	 2.851899537870764e-002	 1.543421347779279e+001
 1.506046288547027e+000	 4.285794229434228e-002	 1.544310435003038e+001
 1.505567970107163e+000	 5.724760853011108e-002	 1.545379469339239e+001
 1.504949590680887e+000	 7.168625585396170e-002	 1.546498397462477e+001
 1.504189670508888e+000	 8.617210367500611e-002	 1.547533622742728e+001
 1.503286753085432e+000	 1.007033291932677e-001	 1.548348134646377e+001
 1.502239406383549e+000	 1.152780675870236e-001	 1.548801652176927e+001
 1.501046224087976e+000	 1.298944122385254e-001	 1.548750781007514e+001
 1.499705826834654e+000	 1.445504149988501e-001	 1.548049183852888e+001
 1.533319999983334e+000	 0.000000000000000e+000	 1.516488250312236e+001
 1.533251581821385e+000	 1.448434215685831e-002	 1.516141469769119e+001
 1.533045271454459e+000	 2.902370947754160e-002	 1.516329573657171e+001
 1.532699499324805e+000	 4.361641949297308e-002	 1.516916573667153e+001
 1.532212715858081e+000	 5.826074643223178e-002	 1.517762718833680e+001
 1.531583392679665e+000	 7.295492130094992e-002	 1.518724624621353e+001
 1.530810023842251e+000	 8.769713199627981e-002	 1.519655419498471e+001
 1.529891127063641e+000	 1.024855234592909e-001	 1.520404907567573e+001
 1.528825244973612e+000	 1.173181978656276e-001	 1.520819746943997e+001
 1.527610946368682e+000	 1.321932148552252e-001	 1.520743643457635e+001
 1.526246827473539e+000	 1.471085918018469e-001	 1.520017559134991e+001
 1.260835726322077e+000	 1.215267182615958e-001	 1.928325363959852e+001
 1.259584119230017e+000	 1.338781607374896e-001	 1.924783935375775e+001
 1.258206536305377e+000	 1.462595828897382e-001	 1.921199252989786e+001
 1.256701892811832e+000	 1.586692716415527e-001	 1.917510048884724e+001
 1.255069130798217e+000	 1.711054810238902e-001	 1.913654471331613e+001
 1.253307220138871e+000	 1.835664325704446e-001	 1.909570139657863e+001
 1.251415159572273e+000	 1.960503157475885e-001	 1.905194197231949e+001
 1.249391977736748e+000	 2.085552884195949e-001	 1.900463362462292e+001
 1.247236734201940e+000	 2.210794773494281e-001	 1.895313977736402e+001
 1.244948520494780e+000	 2.336209787353382e-001	 1.889682056256410e+001
 1.242526461118596e+000	 2.461778587834510e-001	 1.883503326758845e+001
 1.287377025533950e+000	 1.240849238414894e-001	 1.867029721020388e+001
 1.286099071410704e+000	 1.366963711093230e-001	 1.863927123117626e+001
 1.284692489592918e+000	 1.493384291424060e-001	 1.860858274362839e+001
 1.283156172509960e+000	 1.620093488027418e-001	 1.857754102762490e+001
 1.281489039940201e+000	 1.747073473676788e-001	 1.854544876452982e+001
 1.279690040073258e+000	 1.874306089332176e-001	 1.851160264213298e+001
 1.277758150570499e+000	 2.001772848530018e-001	 1.847529393657689e+001
 1.275692379622538e+000	 2.129454942133351e-001	 1.843580906990990e+001
 1.273491767002438e+000	 2.257333243445114e-001	 1.839243014241810e+001
 1.271155385113263e+000	 2.385388313687072e-001	 1.834443543923619e+001
 1.268682340028648e+000	 2.513600407846233e-001	 1.829109991110309e+001
 1.313918265030891e+000	 1.266431236656700e-001	 1.812946782916225e+001
 1.312613963935719e+000	 1.395145751404187e-001	 1.810261720684366e+001
 1.311178383290003e+000	 1.524172684678870e-001	 1.807670330924160e+001
 1.309610392688861e+000	 1.653494184489529e-001	 1.805095720161323e+001
 1.307908889640256e+000	 1.783092056074409e-001	 1.802460341542633e+001
 1.306072800649137e+000	 1.912947766017440e-001	 1.799686062307489e+001
 1.304101082299808e+000	 2.043042446728650e-001	 1.796694228324581e+001
 1.301992722335230e+000	 2.173356901292264e-001	 1.793405725554590e+001
 1.299746740731929e+000	 2.303871608685431e-001	 1.789741038337637e+001
 1.297362190769153e+000	 2.434566729370094e-001	 1.785620304444207e+001
 1.294838160090887e+000	 2.565422111259951e-001	 1.780963366870404e+001
 1.340459451447940e+000	 1.292013183737075e-001	 1.764825058946045e+001
 1.339128803433513e+000	 1.423327735353478e-001	 1.762567863508597e+001
 1.337664224017839e+000	 1.554961016359137e-001	 1.760449665533943e+001
 1.336064559961831e+000	 1.686894814152311e-001	 1.758384251603589e+001
 1.334328686503093e+000	 1.819110566436752e-001	 1.756284624844226e+001
 1.332455508461953e+000	 1.951589365421073e-001	 1.754063699532102e+001
 1.330443961345699e+000	 2.084311962389667e-001	 1.751638459409326e+001
 1.328293012449679e+000	 2.217258772648734e-001	 1.748923180246911e+001
 1.326001661953930e+000	 2.350409880850432e-001	 1.745831020912733e+001
 1.323568944013922e+000	 2.483745046697696e-001	 1.742274915864707e+001
 1.320993927844035e+000	 2.617243711031739e-001	 1.738167630941347e+001
 1.367000591420135e+000	 1.317595086051721e-001	 1.721098838055120e+001
 1.365643596532541e+000	 1.451509669986814e-001	 1.719255049860176e+001
 1.364150018397633e+000	 1.585749294162189e-001	 1.717600569188972e+001
 1.362518680942165e+000	 1.720295385366216e-001	 1.716041250823605e+001
 1.360748437133422e+000	 1.855129013768804e-001	 1.714482127579738e+001
 1.358838170107153e+000	 1.990230897203908e-001	 1.712827534754446e+001
 1.356786794293666e+000	 2.125581405830955e-001	 1.710981237516819e+001
 1.354593256540739e+000	 2.261160567178805e-001	 1.708846560558139e+001
 1.352256537231954e+000	 2.396948071575316e-001	 1.706326519271337e+001
 1.349775651399042e+000	 2.532923277965123e-001	 1.703323951685509e+001
 1.347149649826810e+000	 2.669065220117671e-001	 1.699741650341293e+001
 1.393541691582514e+000	 1.343176949996336e-001	 1.680975863568845e+001
 1.392158349861254e+000	 1.479691562349905e-001	 1.679474122736262e+001
 1.390635773050592e+000	 1.616537525785351e-001	 1.678209056099589e+001
 1.388972762243157e+000	 1.753695906481697e-001	 1.677078465858738e+001
 1.387168148135953e+000	 1.891147407075555e-001	 1.675979339303848e+001
 1.385220792180180e+000	 2.028872371026778e-001	 1.674807993481860e+001
 1.383129587729204e+000	 2.166850787370401e-001	 1.673460223331222e+001
 1.380893461183264e+000	 2.305062295858520e-001	 1.671831452500927e+001
 1.378511373129517e+000	 2.443486192495283e-001	 1.669816886015301e+001
 1.375982319475984e+000	 2.582101435467623e-001	 1.667311663894803e+001
 1.373305332577932e+000	 2.720886651473819e-001	 1.664211014796492e+001
 1.420082758570117e+000	 1.368758781966621e-001	 1.643993261457753e+001
 1.418673070048106e+000	 1.507873419488461e-001	 1.642764676031636e+001
 1.417121494597922e+000	 1.647325718925951e-001	 1.641819794234955e+001
 1.415426810478104e+000	 1.787096385849206e-001	 1.641048214360017e+001
 1.413587826115396e+000	 1.927165755361990e-001	 1.640338769696405e+001
 1.411603381276482e+000	 2.067513796550519e-001	 1.639579696167172e+001
 1.409472348237812e+000	 2.208120117325893e-001	 1.638658803976075e+001
 1.407193632952109e+000	 2.348963969663925e-001	 1.637463652368220e+001
 1.404766176210132e+000	 2.490024255245532e-001	 1.635881726543181e+001
 1.402188954796221e+000	 2.631279531500440e-001	 1.633800615700705e+001
 1.399460982636122e+000	 2.772708018056259e-001	 1.631108191144945e+001
 1.446623799017982e+000	 1.394340588358277e-001	 1.609742976307938e+001
 1.445187763721549e+000	 1.536055248448193e-001	 1.608720454524061e+001
 1.443607189660832e+000	 1.678113881281315e-001	 1.608030788989862e+001
 1.441880832260298e+000	 1.820496831819193e-001	 1.607555190252752e+001
 1.440007477676460e+000	 1.963184067633098e-001	 1.607174193976761e+001
 1.437985943991505e+000	 2.106155183435960e-001	 1.606767854441300e+001
 1.435815082404983e+000	 2.249389406015317e-001	 1.606215942620637e+001
 1.433493778422127e+000	 2.392865599571062e-001	 1.605398147818687e+001
 1.431020953037317e+000	 2.536562271461264e-001	 1.604194281761259e+001
 1.428395563911226e+000	 2.680457578358819e-001	 1.602484483980033e+001
 1.425616606540098e+000	 2.824529332821062e-001	 1.600149427260137e+001
 1.473164819561149e+000	 1.419922375567004e-001	 1.577866333533654e+001
 1.471702437510035e+000	 1.564237056274813e-001	 1.576983944966901e+001
 1.470092864860527e+000	 1.708902020548769e-001	 1.576488018541405e+001
 1.468334834203037e+000	 1.853897252742113e-001	 1.576251158604323e+001
 1.466427109423857e+000	 1.999202352893867e-001	 1.576145422379239e+001
 1.464368486920693e+000	 2.144796541343939e-001	 1.576042542375375e+001
 1.462157796816215e+000	 2.290658663756561e-001	 1.575814153983561e+001
 1.459793904168173e+000	 2.436767196555978e-001	 1.575332027091257e+001
 1.457275710174585e+000	 2.583100252777679e-001	 1.574468300466291e+001
 1.454602153372468e+000	 2.729635588338008e-001	 1.573095717581364e+001
 1.451772210828581e+000	 2.876350608724305e-001	 1.571087862479747e+001
 1.499705826834654e+000	 1.445504149988501e-001	 1.548049183852888e+001
 1.498217098042018e+000	 1.592418850014028e-001	 1.547241547179539e+001
 1.496578526818215e+000	 1.739690144425641e-001	 1.546880645325449e+001
 1.494788822919614e+000	 1.887297656968416e-001	 1.546830221124743e+001
 1.492846727962297e+000	 2.035220620149284e-001	 1.546953633170289e+001
 1.490751016659494e+000	 2.183437879935286e-001	 1.547114110349269e+001
 1.488500498057003e+000	 2.331927900867511e-001	 1.547175012217878e+001
 1.486094016765102e+000	 2.480668771594715e-001	 1.547000093890016e+001
 1.483530454185450e+000	 2.629638210829976e-001	 1.546453774020596e+001
 1.480808729731422e+000	 2.778813573733251e-001	 1.545401404375991e+001
 1.477927802040291e+000	 2.928171858722059e-001	 1.543709539402455e+001
 1.526246827473539e+000	 1.471085918018469e-001	 1.520017559134991e+001
 1.524731751945950e+000	 1.620600636711551e-001	 1.519219254520296e+001
 1.523064182155104e+000	 1.770478260609258e-001	 1.518936733489496e+001
 1.521242805023325e+000	 1.920698052848553e-001	 1.519024582824338e+001
 1.519266339896488e+000	 2.071238878404338e-001	 1.519337200594787e+001
 1.517133539803352e+000	 2.222079208870836e-001	 1.519729086218158e+001
 1.514843192712843e+000	 2.373197127666054e-001	 1.520055137066530e+001
 1.512394122787768e+000	 2.524570335663319e-001	 1.520170950123796e+001
 1.509785191633430e+000	 2.676176157253354e-001	 1.519933127086685e+001
 1.507015299539557e+000	 2.827991546839795e-001	 1.519199581204470e+001
 1.504083386713946e+000	 2.979993095770399e-001	 1.517829844059101e+001
 1.242526461118596e+000	 2.461778587834510e-001	 1.883503326758845e+001
 1.239969321048035e+000	 2.587500404700431e-001	 1.877002105811168e+001
 1.237276647587192e+000	 2.713336459116922e-001	 1.870410353741898e+001
 1.234447670954891e+000	 2.839266512220444e-001	 1.863673008868857e+001
 1.231481658369039e+000	 2.965270050962132e-001	 1.856736176846828e+001
 1.228377915011984e+000	 3.091326295656696e-001	 1.849547178556956e+001
 1.225135784980603e+000	 3.217414207892365e-001	 1.842054594417635e+001
 1.221754652219686e+000	 3.343512498799867e-001	 1.834208305271330e+001
 1.218233941437156e+000	 3.469599637677736e-001	 1.825959530039744e+001
 1.214573118999657e+000	 3.595653860970647e-001	 1.817260860376853e+001
 1.210771693807061e+000	 3.721653181596841e-001	 1.808066292585362e+001
 1.268682340028648e+000	 2.513600407846233e-001	 1.829109991110309e+001
 1.266071370725263e+000	 2.641968739471594e-001	 1.823495772522219e+001
 1.263322014977708e+000	 2.770453713412648e-001	 1.817862081925528e+001
 1.260433486800480e+000	 2.899034664766287e-001	 1.812146198878129e+001
 1.257405037986019e+000	 3.027690648672337e-001	 1.806286609254305e+001
 1.254235959090373e+000	 3.156400448021336e-001	 1.800223054851052e+001
 1.250925580403296e+000	 3.285142581531009e-001	 1.793896578900881e+001
 1.247473272901273e+000	 3.413895312189304e-001	 1.787249567677283e+001
 1.243878449182009e+000	 3.542636656061270e-001	 1.780225788422720e+001
 1.240140564378870e+000	 3.671344391456396e-001	 1.772770423871773e+001
 1.236259117053800e+000	 3.799996068452375e-001	 1.764830103683530e+001
 1.294838160090887e+000	 2.565422111259951e-001	 1.780963366870404e+001
 1.292173361675890e+000	 2.696436951690278e-001	 1.776054789414273e+001
 1.289367323769279e+000	 2.827570839196106e-001	 1.771187165109910e+001
 1.286419244181258e+000	 2.958802682835723e-001	 1.766290904515420e+001
 1.283328359278822e+000	 3.090111105938581e-001	 1.761297720032775e+001
 1.280093944991751e+000	 3.221474453972028e-001	 1.756140675979266e+001
 1.276715317802694e+000	 3.352870802784264e-001	 1.750754233878822e+001
 1.273191835719854e+000	 3.484277967221452e-001	 1.745074293194676e+001
 1.269522899230740e+000	 3.615673510116164e-001	 1.739038227775305e+001
 1.265707952235458e+000	 3.747034751643715e-001	 1.732584918334642e+001
 1.261746482958037e+000	 3.878338779042281e-001	 1.725654781335530e+001
 1.320993927844035e+000	 2.617243711031739e-001	 1.738167630941347e+001
 1.318275300425168e+000	 2.750905054974155e-001	 1.733826189446106e+001
 1.315412580472970e+000	 2.884687850747152e-001	 1.729576000236354e+001
 1.312404949593380e+000	 3.018570581371237e-001	 1.725341385345361e+001
 1.309251628727974e+000	 3.152531438366363e-001	 1.721048121375069e+001
 1.305951879180282e+000	 3.286548329777549e-001	 1.716623488673820e+001
 1.302505003625874e+000	 3.420598888584344e-001	 1.711996314867524e+001
 1.298910347104691e+000	 3.554660481492021e-001	 1.707097013005190e+001
 1.295167297994062e+000	 3.688710218101569e-001	 1.701857614637662e+001
 1.291275288960849e+000	 3.822724960455040e-001	 1.696211798205011e+001
 1.287233797891179e+000	 3.956681332952001e-001	 1.690094913163204e+001
 1.347149649826810e+000	 2.669065220117671e-001	 1.699741650341293e+001
 1.344377193498347e+000	 2.805373062940901e-001	 1.695926261988836e+001
 1.341457791599845e+000	 2.941804762345625e-001	 1.692233311669027e+001
 1.338390609533002e+000	 3.078338375315319e-001	 1.688578536927491e+001
 1.335174852813998e+000	 3.214951661561187e-001	 1.684879570892343e+001
 1.331809768120134e+000	 3.351622091706677e-001	 1.681057997464512e+001
 1.328294644319918e+000	 3.488326855863470e-001	 1.677051362422938e+001
 1.324628813485048e+000	 3.625042872596722e-001	 1.672788654076738e+001
 1.320811651882687e+000	 3.761746798276636e-001	 1.668197611523322e+001
 1.316842580946469e+000	 3.898415036812795e-001	 1.663207809640765e+001
 1.312721068224635e+000	 4.035023749766975e-001	 1.657750676095333e+001
 1.373305332577932e+000	 2.720886651473819e-001	 1.664211014796492e+001
 1.370479047420677e+000	 2.859840989208189e-001	 1.660892937595165e+001
 1.367502963660969e+000	 2.998921588271373e-001	 1.657744680682308e+001
 1.364376230496282e+000	 3.138106079610459e-001	 1.654675426473634e+001
 1.361098038017419e+000	 3.277371791128551e-001	 1.651596436425297e+001
 1.357667618275472e+000	 3.416695756028192e-001	 1.648421199486562e+001
 1.354084246331905e+000	 3.556054721553858e-001	 1.645065571802107e+001
 1.350347241290185e+000	 3.695425158131266e-001	 1.641447906489870e+001
 1.346455967307327e+000	 3.834783268900515e-001	 1.637489172334283e+001
 1.342409834583748e+000	 3.974104999639416e-001	 1.633113060258400e+001
 1.338208300329813e+000	 4.113366049072643e-001	 1.628246076472075e+001
 1.399460982636122e+000	 2.772708018056259e-001	 1.631108191144945e+001
 1.396580868717411e+000	 2.914308847393696e-001	 1.628212851336800e+001
 1.393548103167406e+000	 3.056038342804243e-001	 1.625532674502956e+001
 1.390361818979375e+000	 3.197873709199146e-001	 1.622970627426796e+001
 1.387021190818762e+000	 3.339791842673958e-001	 1.620431982700272e+001
 1.383525436110463e+000	 3.481769339010871e-001	 1.617824487449628e+001
 1.379873816108914e+000	 3.623782502587722e-001	 1.615058522437154e+001
 1.376065636949365e+000	 3.765807355691361e-001	 1.612047250200987e+001
 1.372100250678695e+000	 3.907819648232359e-001	 1.608706750908642e+001
 1.367977056264114e+000	 4.049794867857330e-001	 1.604956144624489e+001
 1.363695500578122e+000	 4.191708250454448e-001	 1.600717698727176e+001
 1.425616606540098e+000	 2.824529332821062e-001	 1.600149427260138e+001
 1.422682663913799e+000	 2.968776651115094e-001	 1.597626375391683e+001
 1.419593216630219e+000	 3.113155040224080e-001	 1.595362751614274e+001
 1.416347381478437e+000	 3.257641279023868e-001	 1.593255593870024e+001
 1.412944317698551e+000	 3.402211831802908e-001	 1.591204515993847e+001
 1.409383228089274e+000	 3.546842856923493e-001	 1.589111898675357e+001
 1.405663360098026e+000	 3.691510215897284e-001	 1.586883069811753e+001
 1.401784006891852e+000	 3.836189482872719e-001	 1.584426472731876e+001
 1.397744508407502e+000	 3.980855954531314e-001	 1.581653820784919e+001
 1.393544252378993e+000	 4.125484660388972e-001	 1.578480236812682e+001
 1.389182675340970e+000	 4.270050373497829e-001	 1.574824376062351e+001
 1.451772210828581e+000	 2.876350608724305e-001	 1.571087862479747e+001
 1.448784439535093e+000	 3.023244413990055e-001	 1.568908785448299e+001
 1.445638310560474e+000	 3.170271694810730e-001	 1.567033216602577e+001
 1.442332924489626e+000	 3.317408804027114e-001	 1.565352498380905e+001
 1.438867425137311e+000	 3.464631774120902e-001	 1.563760862661659e+001
 1.435241000676072e+000	 3.611916326034839e-001	 1.562155646149905e+001
 1.431452884746319e+000	 3.759237878414755e-001	 1.560437494057194e+001
 1.427502357546905e+000	 3.906571557271049e-001	 1.558510550353588e+001
 1.423388746904461e+000	 4.053892206056537e-001	 1.556282632883697e+001
 1.419111429319816e+000	 4.201174396156769e-001	 1.553665391664936e+001
 1.414669830989763e+000	 4.348392437788227e-001	 1.550574448726691e+001
 1.477927802040291e+000	 2.928171858722059e-001	 1.543709539402456e+001
 1.474886202106543e+000	 3.077712149636254e-001	 1.541866425995700e+001
 1.471683391469234e+000	 3.227388320844039e-001	 1.540371544001616e+001
 1.468318454509097e+000	 3.377176299151375e-001	 1.539110719236895e+001
 1.464790519615566e+000	 3.527051685233442e-001	 1.537973024252229e+001
 1.461098760335022e+000	 3.676989762613686e-001	 1.536851020571218e+001
 1.457242396500875e+000	 3.826965507072358e-001	 1.535640988010283e+001
 1.453220695343789e+000	 3.976953596482062e-001	 1.534243139136758e+001
 1.449032972580285e+000	 4.126928421067173e-001	 1.532561816934488e+001
 1.444678593478009e+000	 4.276864094083155e-001	 1.530505673773481e+001
 1.440156973895912e+000	 4.426734462911082e-001	 1.527987829823218e+001
 1.504083386713946e+000	 2.979993095770399e-001	 1.517829844059102e+001
 1.500987958153399e+000	 3.132179871671365e-001	 1.516333288476727e+001
 1.497728465867564e+000	 3.284504932603852e-001	 1.515231098873156e+001
 1.494303978033006e+000	 3.436943779339137e-001	 1.514403707629912e+001
 1.490713607613841e+000	 3.589471580746027e-001	 1.513735195320198e+001
 1.486956513530291e+000	 3.742063182928812e-001	 1.513113562480459e+001
 1.483031901808774e+000	 3.894693118802305e-001	 1.512430987134710e+001
 1.478939026711766e+000	 4.047335618101468e-001	 1.511584065884830e+001
 1.474677191845686e+000	 4.199964617822379e-001	 1.510474036391167e+001
 1.470245751245001e+000	 4.352553773090560e-001	 1.509006979095955e+001
 1.465644110430824e+000	 4.505076468451837e-001	 1.507093996087711e+001
 1.210771693807061e+000	 3.721653181596841e-001	 1.808066292585362e+001
 1.206829217841571e+000	 3.847575396775871e-001	 1.798482844609781e+001
 1.202745286085772e+000	 3.973398092324930e-001	 1.788629522075640e+001
 1.198519538232249e+000	 4.099098658216918e-001	 1.778480975441525e+001
 1.194151659763825e+000	 4.224654301051314e-001	 1.768013994412295e+001
 1.189641382703130e+000	 4.350042055046847e-001	 1.757207511195385e+001
 1.184988486332486e+000	 4.475238793346628e-001	 1.746042601655043e+001
 1.180192797882715e+000	 4.600221239627187e-001	 1.734502484827512e+001
 1.175254193189512e+000	 4.724965980002161e-001	 1.722572521277872e+001
 1.170172597316046e+000	 4.849449475210771e-001	 1.710240210792682e+001
 1.164947985140473e+000	 4.973648073080526e-001	 1.697495189911455e+001
 1.236259117053800e+000	 3.799996068452375e-001	 1.764830103683530e+001
 1.232233649757977e+000	 3.928569016887678e-001	 1.756522677678088e+001
 1.228063748948146e+000	 4.057040350748470e-001	 1.747980169005348e+001
 1.223749046732216e+000	 4.185386984054039e-001	 1.739173360586971e+001
 1.219289221972249e+000	 4.313585643590141e-001	 1.730075423998364e+001
 1.214684001049800e+000	 4.441612880133066e-001	 1.720661918475188e+001
 1.209933158600961e+000	 4.569445079992766e-001	 1.710910787411278e+001
 1.205036518219666e+000	 4.697058476866244e-001	 1.700802352886201e+001
 1.199993953127882e+000	 4.824429163991847e-001	 1.690319308781653e+001
 1.194805386811314e+000	 4.951533106594304e-001	 1.679446713062222e+001
 1.189470793619292e+000	 5.078346154609772e-001	 1.668171979806960e+001
 1.261746482958037e+000	 3.878338779042281e-001	 1.725654781335530e+001
 1.257638024518648e+000	 4.009562454770290e-001	 1.718381183149556e+001
 1.253382154848216e+000	 4.140682420983951e-001	 1.710913336065833e+001
 1.248978498470000e+000	 4.271675115750019e-001	 1.703218550022891e+001
 1.244426727625320e+000	 4.402516786041618e-001	 1.695266740471899e+001
 1.239726563054677e+000	 4.533183499193709e-001	 1.687030420627927e+001
 1.234877774747946e+000	 4.663651154684180e-001	 1.678484690830509e+001
 1.229880182662189e+000	 4.793895496231639e-001	 1.669607225640526e+001
 1.224733657405657e+000	 4.923892124200253e-001	 1.660378259325158e+001
 1.219438120886602e+000	 5.053616508301388e-001	 1.650780570401852e+001
 1.213993546925534e+000	 5.183044000580986e-001	 1.640799465925647e+001
 1.287233797891179e+000	 3.956681332952001e-001	 1.690094913163204e+001
 1.283042348474234e+000	 4.090555730671776e-001	 1.683659043748102e+001
 1.278700510115135e+000	 4.224324323941558e-001	 1.677073307232051e+001
 1.274207899752516e+000	 4.357963074876533e-001	 1.670301970844800e+001
 1.269564183006969e+000	 4.491447750638160e-001	 1.663312093855007e+001
 1.264769074977957e+000	 4.624753935121033e-001	 1.656073510395429e+001
 1.259822341009157e+000	 4.757857040971966e-001	 1.648558809034569e+001
 1.254723797420769e+000	 4.890732321932149e-001	 1.640743309825109e+001
 1.249473312207339e+000	 5.023354885492570e-001	 1.632605039588204e+001
 1.244070805699674e+000	 5.155699705852225e-001	 1.624124706215254e+001
 1.238516251189468e+000	 5.287741637167839e-001	 1.615285672784689e+001
 1.312721068224635e+000	 4.035023749766975e-001	 1.657750676095333e+001
 1.308446627975386e+000	 4.171548864840204e-001	 1.651998851997795e+001
 1.304018821078061e+000	 4.307966080531482e-001	 1.646142738707441e+001
 1.299437256886679e+000	 4.444250883005265e-001	 1.640144030024332e+001
 1.294701594401127e+000	 4.580378559612176e-001	 1.633967370085587e+001
 1.289811543079843e+000	 4.716324210807296e-001	 1.627580323914508e+001
 1.284766863620316e+000	 4.852062762407214e-001	 1.620953344367323e+001
 1.279567368705895e+000	 4.987568978176555e-001	 1.614059736326635e+001
 1.274212923717429e+000	 5.122817472733993e-001	 1.606875619023851e+001
 1.268703447408290e+000	 5.257782724767012e-001	 1.599379887399076e+001
 1.263038912541362e+000	 5.392439090544005e-001	 1.591554173425558e+001
 1.338208300329813e+000	 4.113366049072643e-001	 1.628246076472075e+001
 1.333850869372756e+000	 4.252541877523638e-001	 1.623080666455453e+001
 1.329337094066145e+000	 4.391607711663916e-001	 1.617838677351440e+001
 1.324666576179405e+000	 4.530538561707893e-001	 1.612496369681723e+001
 1.319838968091726e+000	 4.669309235196080e-001	 1.607016668184910e+001
 1.314853973620533e+000	 4.807894349144758e-001	 1.601365324949872e+001
 1.309711348817139e+000	 4.946268342541015e-001	 1.595511080995954e+001
 1.304410902728050e+000	 5.084405489173637e-001	 1.589425614602052e+001
 1.298952498120429e+000	 5.222279910789710e-001	 1.583083487699873e+001
 1.293336052170214e+000	 5.359865590565953e-001	 1.576462091383978e+001
 1.287561537111484e+000	 5.497136386883157e-001	 1.569541591612773e+001
 1.363695500578122e+000	 4.191708250454448e-001	 1.600717698727176e+001
 1.359255079016994e+000	 4.333534788970149e-001	 1.596201890289060e+001
 1.354655335408544e+000	 4.475249238249043e-001	 1.591638109269936e+001
 1.349895863937609e+000	 4.616826132556096e-001	 1.586982645207837e+001
 1.344976310362695e+000	 4.758239799622282e-001	 1.582196102692448e+001
 1.339896372860226e+000	 4.899464373025678e-001	 1.577243383054255e+001
 1.334655802835345e+000	 5.040473804924456e-001	 1.572093642524094e+001
 1.329254405697723e+000	 5.181241879132170e-001	 1.566727304926862e+001
 1.323692041600839e+000	 5.321742224524918e-001	 1.561137069488430e+001
 1.317968626143207e+000	 5.461948328769254e-001	 1.555300047725101e+001
 1.312084131030102e+000	 5.601833552358968e-001	 1.549195259457918e+001
 1.389182675340970e+000	 4.270050373497829e-001	 1.574824376062351e+001
 1.384659263258752e+000	 4.414527619427804e-001	 1.570912578613608e+001
 1.379973551434412e+000	 4.558890681197056e-001	 1.566989702058138e+001
 1.375125126468206e+000	 4.703113617121550e-001	 1.563008320929093e+001
 1.370113627497968e+000	 4.847170275123194e-001	 1.558925585833903e+001
 1.364938747059123e+000	 4.991034305342312e-001	 1.554703207820544e+001
 1.359600231910653e+000	 5.134679173108632e-001	 1.550307416794852e+001
 1.354097883825400e+000	 5.278078172260935e-001	 1.545708893213287e+001
 1.348431560343163e+000	 5.421204438804806e-001	 1.540882672425359e+001
 1.342601175485032e+000	 5.564030964897108e-001	 1.535808021201369e+001
 1.336606700427484e+000	 5.706530613145109e-001	 1.530468286153924e+001
 1.414669830989763e+000	 4.348392437788227e-001	 1.550574448726691e+001
 1.410063428448682e+000	 4.495520389144668e-001	 1.547248791998685e+001
 1.405291748472902e+000	 4.642532061418142e-001	 1.543945172406242e+001
 1.400354370078112e+000	 4.789401036975940e-001	 1.540612533330437e+001
 1.395250925781475e+000	 4.936100683931229e-001	 1.537204658356326e+001
 1.389981102477423e+000	 5.082604168986921e-001	 1.533680158701172e+001
 1.384544642278781e+000	 5.228884470644629e-001	 1.530002432081271e+001
 1.378941343321566e+000	 5.374914392768713e-001	 1.526139592115887e+001
 1.373171060531900e+000	 5.520666578494572e-001	 1.522064367531248e+001
 1.367233706353451e+000	 5.666113524469723e-001	 1.517753970605571e+001
 1.361129251433898e+000	 5.811227595415255e-001	 1.513189934486619e+001
 1.440156973895912e+000	 4.426734462911082e-001	 1.527987829823218e+001
 1.435467580937434e+000	 4.576513118368814e-001	 1.525255730409541e+001
 1.430609932853170e+000	 4.726173399822491e-001	 1.522573489906416e+001
 1.425583601074242e+000	 4.875688413690944e-001	 1.519886490888786e+001
 1.420388211497145e+000	 5.025031048278797e-001	 1.517145227654082e+001
 1.415023445375325e+000	 5.174173986851759e-001	 1.514305297253012e+001
 1.409489040175448e+000	 5.323089721083543e-001	 1.511327359135127e+001
 1.403784790396708e+000	 5.471750564864277e-001	 1.508177062367617e+001
 1.397910548351551e+000	 5.620128668459404e-001	 1.504824939566402e+001
 1.391866224906227e+000	 5.768196033007297e-001	 1.501246266874157e+001
 1.385651790179613e+000	 5.915924525343077e-001	 1.497420889529859e+001
 1.465644110430824e+000	 4.505076468451837e-001	 1.507093996087711e+001
 1.460871727075660e+000	 4.657505827348306e-001	 1.504985889201949e+001
 1.455928110904371e+000	 4.809814717320294e-001	 1.502948714663364e+001
 1.450812825763512e+000	 4.961975768838239e-001	 1.500924349827747e+001
 1.445525490928912e+000	 5.113961390398313e-001	 1.498860067089823e+001
 1.440065782013028e+000	 5.265743781829089e-001	 1.496708529222161e+001
 1.434433431836373e+000	 5.417294947976459e-001	 1.494427750274267e+001
 1.428628231261313e+000	 5.568586712756410e-001	 1.491981020835032e+001
 1.422650029986620e+000	 5.719590733564495e-001	 1.489336796659407e+001
 1.416498737301121e+000	 5.870278516030030e-001	 1.486468549875024e+001
 1.410174322794896e+000	 6.020621429102250e-001	 1.483354582215070e+001
 1.164947985140473e+000	 4.973648073080526e-001	 1.697495189911455e+001
 1.159581197877747e+000	 5.097519464059583e-001	 1.684365815491717e+001
 1.154071539441347e+000	 5.221058475389500e-001	 1.670884745784627e+001
 1.148419138145507e+000	 5.344241210826426e-001	 1.657057445136633e+001
 1.142624174058487e+000	 5.467043713871074e-001	 1.642891960036842e+001
 1.136686879394964e+000	 5.589441981408801e-001	 1.628398905576406e+001
 1.130607538866382e+000	 5.711411977547047e-001	 1.613591453553349e+001
 1.124386489988285e+000	 5.832929647635357e-001	 1.598485322667716e+001
 1.118024123343679e+000	 5.953970932452810e-001	 1.583098771222309e+001
 1.111520882801578e+000	 6.074511782547065e-001	 1.567452592709439e+001
 1.104877265689896e+000	 6.194528172708822e-001	 1.551570114624187e+001
 1.189470793619292e+000	 5.078346154609772e-001	 1.668171979806960e+001
 1.183991032474813e+000	 5.204825107846713e-001	 1.656528549961911e+001
 1.178365392638336e+000	 5.330964684657114e-001	 1.644551659795523e+001
 1.172594005125170e+000	 5.456740485767645e-001	 1.632240302942371e+001
 1.166677053794102e+000	 5.582128050381114e-001	 1.619596073203119e+001
 1.160614775748049e+000	 5.707102870103701e-001	 1.606623151973307e+001
 1.154407461691780e+000	 5.831640403073666e-001	 1.593328298126667e+001
 1.148055456245717e+000	 5.955716088276521e-001	 1.579720840870548e+001
 1.141559158214848e+000	 6.079305360031093e-001	 1.565812676056629e+001
 1.134919020811867e+000	 6.202383662630417e-001	 1.551618266389693e+001
 1.128135551833708e+000	 6.324926465120909e-001	 1.537154645931060e+001
 1.213993546925534e+000	 5.183044000580986e-001	 1.640799465925647e+001
 1.208400812153459e+000	 5.312130510209823e-001	 1.630470417315948e+001
 1.202659191177848e+000	 5.440870646650543e-001	 1.619828817509391e+001
 1.196768817715077e+000	 5.569239507601439e-001	 1.608868270131181e+001
 1.190729879414451e+000	 5.697212127968530e-001	 1.597584962016859e+001
 1.184542618267112e+000	 5.824763494079926e-001	 1.585977648428632e+001
 1.178207330971136e+000	 5.951868558105830e-001	 1.574047641646742e+001
 1.171724369251810e+000	 6.078502252668817e-001	 1.561798803541565e+001
 1.165094140136081e+000	 6.204639505628590e-001	 1.549237542692456e+001
 1.158317106180301e+000	 6.330255255024672e-001	 1.536372816572860e+001
 1.151393785650396e+000	 6.455324464160297e-001	 1.523216139268147e+001
 1.238516251189468e+000	 5.287741637167839e-001	 1.615285672784689e+001
 1.232810543015708e+000	 5.419435697974288e-001	 1.606122795873106e+001
 1.226952941132905e+000	 5.550776388845086e-001	 1.596669576960175e+001
 1.220943581958496e+000	 5.681738304451133e-001	 1.586915294954087e+001
 1.214782656932294e+000	 5.812295975402648e-001	 1.576851759465258e+001
 1.208470412933654e+000	 5.942423882750677e-001	 1.566473290509256e+001
 1.202007152653947e+000	 6.072096472698342e-001	 1.555776702623637e+001
 1.195393234923308e+000	 6.201288171506310e-001	 1.544761294108701e+001
 1.188629074990625e+000	 6.329973400576118e-001	 1.533428842056944e+001
 1.181715144755887e+000	 6.458126591694798e-001	 1.521783603782796e+001
 1.174651972953994e+000	 6.585722202423398e-001	 1.509832325203595e+001
 1.263038912541362e+000	 5.392439090544005e-001	 1.591554173425558e+001
 1.257220231163583e+000	 5.526740697965494e-001	 1.583430455939671e+001
 1.251246648576530e+000	 5.660681938716050e-001	 1.575038646642539e+001
 1.245118303898696e+000	 5.794236904440049e-001	 1.566364756236962e+001
 1.238835392360393e+000	 5.927379621452803e-001	 1.557397237327901e+001
 1.232398165729178e+000	 6.060084065529144e-001	 1.548126955176144e+001
 1.225806932689711e+000	 6.192324176906022e-001	 1.538547164030300e+001
 1.219062059176956e+000	 6.324073875483049e-001	 1.528653489868869e+001
 1.212163968661729e+000	 6.455307076204506e-001	 1.518443920332681e+001
 1.205113142387636e+000	 6.585997704605783e-001	 1.507918802567700e+001
 1.197910119558531e+000	 6.716119712506629e-001	 1.497100815858405e+001
 1.287561537111484e+000	 5.497136386883157e-001	 1.569541591612773e+001
 1.281629882699106e+000	 5.634045537008822e-001	 1.562349185984765e+001
 1.275540319581744e+000	 5.770587323738733e-001	 1.554909827076554e+001
 1.269292989578943e+000	 5.906735335691515e-001	 1.547207311477800e+001
 1.262888091711506e+000	 6.042463094888311e-001	 1.539227751685527e+001
 1.256325882635189e+000	 6.177744071828526e-001	 1.530959534321945e+001
 1.249606677027924e+000	 6.312551700783681e-001	 1.522393285228282e+001
 1.242730847929497e+000	 6.446859395293100e-001	 1.513521842406517e+001
 1.235698827032637e+000	 6.580640563844562e-001	 1.504340237722822e+001
 1.228511104924556e+000	 6.713868625722594e-001	 1.494861692906886e+001
 1.221168231278044e+000	 6.846517027006408e-001	 1.485273757194008e+001
 1.312084131030102e+000	 5.601833552358968e-001	 1.549195259457918e+001
 1.306039503724299e+000	 5.741350241929648e-001	 1.542843556483240e+001
 1.299833960221570e+000	 5.880492571388442e-001	 1.536263873367154e+001
 1.293467645042504e+000	 6.019233626328854e-001	 1.529438850393468e+001
 1.286940760998396e+000	 6.157546424478506e-001	 1.522353279500376e+001
 1.280253569633189e+000	 6.295403931062016e-001	 1.514994046209353e+001
 1.273406391618082e+000	 6.432779074386127e-001	 1.507350079869159e+001
 1.266399607097675e+000	 6.569644761630513e-001	 1.499412313346531e+001
 1.259233655986598e+000	 6.705973894827110e-001	 1.491183303923320e+001
 1.251909038215656e+000	 6.841739387010215e-001	 1.482823183805265e+001
 1.244426313926563e+000	 6.976914178519144e-001	 1.474388918780120e+001
 1.336606700427484e+000	 5.706530613145109e-001	 1.530468286153924e+001
 1.330449100341185e+000	 5.848654839553354e-001	 1.524884803734243e+001
 1.324127576569028e+000	 5.990397709140478e-001	 1.519086463207617e+001
 1.317642276332648e+000	 6.131731804475389e-001	 1.513058540361127e+001
 1.310993406233822e+000	 6.272629638992715e-001	 1.506785534559269e+001
 1.304181232704681e+000	 6.413063672642813e-001	 1.500253814792199e+001
 1.297206082409683e+000	 6.553006327768172e-001	 1.493451551284514e+001
 1.290068342598234e+000	 6.692430005189354e-001	 1.486372215055985e+001
 1.282768461406858e+000	 6.831307100482967e-001	 1.479144270966076e+001
 1.275306948109946e+000	 6.969610020433622e-001	 1.471828741687932e+001
 1.267684373318120e+000	 7.107311199641255e-001	 1.464420503305613e+001
 1.361129251433898e+000	 5.811227595415255e-001	 1.513189934486619e+001
 1.354858678651786e+000	 5.955959356705326e-001	 1.508382211681392e+001
 1.348421174697141e+000	 6.100302764470145e-001	 1.503342432681555e+001
 1.341816889492642e+000	 6.244229898254444e-001	 1.498062221993625e+001
 1.335046033430547e+000	 6.387712767200264e-001	 1.492536071541639e+001
 1.328108877831169e+000	 6.530723325984108e-001	 1.486760708343460e+001
 1.321005755352224e+000	 6.673233490984624e-001	 1.480729163483635e+001
 1.313737060347918e+000	 6.815215156663675e-001	 1.474533114912350e+001
 1.306303249176666e+000	 6.956640212142953e-001	 1.468243666887850e+001
 1.298704840456433e+000	 7.097480557957786e-001	 1.461848375167467e+001
 1.290942415266750e+000	 7.237708122969158e-001	 1.455340690147812e+001
 1.385651790179613e+000	 5.915924525343077e-001	 1.497420889529859e+001
 1.379268244758125e+000	 6.063263820210936e-001	 1.493348108791017e+001
 1.372714760678931e+000	 6.210207764852744e-001	 1.489031025994897e+001
 1.365991490565752e+000	 6.356727935789341e-001	 1.484462714381521e+001
 1.359098648601329e+000	 6.502795837870480e-001	 1.479639235861334e+001
 1.352036510994155e+000	 6.648382920499099e-001	 1.474559277078651e+001
 1.344805416395201e+000	 6.793460594090302e-001	 1.469287211175144e+001
 1.337405766263471e+000	 6.938000246747536e-001	 1.463919224186662e+001
 1.329838025179267e+000	 7.081973261137887e-001	 1.458447464449692e+001
 1.322102721104127e+000	 7.225351031547689e-001	 1.452851169520644e+001
 1.314200445586484e+000	 7.368104981099263e-001	 1.447120442608686e+001
 1.410174322794896e+000	 6.020621429102250e-001	 1.483354582215070e+001
 1.403677804762223e+000	 6.170568256895567e-001	 1.479982806165826e+001
 1.397008340587419e+000	 6.320112737763581e-001	 1.476347526155658e+001
 1.390166085595247e+000	 6.469225945203407e-001	 1.472444152654201e+001
 1.383151257758930e+000	 6.617878879772692e-001	 1.468271226494381e+001
 1.375964138175143e+000	 6.766042485600979e-001	 1.463863399124179e+001
 1.368605071488112e+000	 6.913687667140008e-001	 1.459321844392964e+001
 1.361074466261639e+000	 7.060785306134997e-001	 1.454641849157058e+001
 1.353372795297910e+000	 7.207306278798588e-001	 1.449816593838220e+001
 1.345500595902038e+000	 7.353221473168310e-001	 1.444845751365053e+001
 1.337458470091355e+000	 7.498501806627994e-001	 1.439735468157546e+001
 1.104877265689896e+000	 6.194528172708822e-001	 1.551570114624187e+001
 1.098092794993187e+000	 6.314013997351550e-001	 1.535293644752697e+001
 1.091169062434710e+000	 6.432927274468235e-001	 1.518457870391829e+001
 1.084106727484178e+000	 6.551244135982918e-001	 1.501070592955952e+001
 1.076906503314615e+000	 6.668940797275553e-001	 1.483141309002778e+001
 1.069569156736019e+000	 6.785993572081285e-001	 1.464858423279361e+001
 1.062095508079932e+000	 6.902378887419132e-001	 1.446404768975170e+001
 1.054486431034654e+000	 7.018073298531413e-001	 1.427801645795899e+001
 1.046742852430854e+000	 7.133053503815100e-001	 1.409072935900844e+001
 1.038865751977465e+000	 7.247296359725971e-001	 1.390245029227350e+001
 1.030856161947795e+000	 7.360778895636447e-001	 1.371346740964271e+001
 1.128135551833708e+000	 6.324926465120909e-001	 1.537154645931060e+001
 1.121208264223476e+000	 6.446927533389900e-001	 1.522240903300269e+001
 1.114138783211110e+000	 6.568344001685658e-001	 1.506697491588244e+001
 1.106927782148541e+000	 6.689151499495939e-001	 1.490545973650311e+001
 1.099575989221505e+000	 6.809325741521235e-001	 1.474020623648894e+001
 1.092084187381794e+000	 6.928842542887643e-001	 1.457257413403586e+001
 1.084453214229405e+000	 7.047677834389823e-001	 1.440286217818034e+001
 1.076683961844281e+000	 7.165807677744921e-001	 1.423140170205915e+001
 1.068777376567416e+000	 7.283208280838213e-001	 1.405855572298772e+001
 1.060734458731179e+000	 7.399856012941009e-001	 1.388471794465554e+001
 1.052556262338826e+000	 7.515727419881261e-001	 1.371031166442862e+001
 1.151393785650396e+000	 6.455324464160297e-001	 1.523216139268147e+001
 1.144323681448046e+000	 6.579840770396939e-001	 1.509570047008871e+001
 1.137108452309784e+000	 6.703760424240129e-001	 1.495259863948665e+001
 1.129748785469733e+000	 6.827058552742500e-001	 1.480533844507450e+001
 1.122245424126297e+000	 6.949710369926212e-001	 1.465500994748329e+001
 1.114599167373023e+000	 7.071691192309458e-001	 1.450196678125067e+001
 1.106810870078322e+000	 7.192976454463669e-001	 1.434660158047775e+001
 1.098881442713736e+000	 7.313541724581945e-001	 1.418934498097923e+001
 1.090811851130529e+000	 7.433362720038976e-001	 1.403066450566523e+001
 1.082603116284461e+000	 7.552415322922724e-001	 1.387106333600510e+001
 1.074256313908682e+000	 7.670675595517769e-001	 1.371107897299751e+001
 1.174651972953994e+000	 6.585722202423398e-001	 1.509832325203595e+001
 1.167439052445210e+000	 6.712753741597765e-001	 1.497386134626930e+001
 1.160078075472602e+000	 6.839176575982479e-001	 1.484471528858514e+001
 1.152569743152447e+000	 6.964965330196067e-001	 1.471182706328357e+001
 1.144914813695786e+000	 7.090094717583353e-001	 1.457557699687575e+001
 1.137114102337887e+000	 7.214539556055635e-001	 1.443639042479883e+001
 1.129168481215533e+000	 7.338274783962134e-001	 1.429473664814349e+001
 1.121078879191826e+000	 7.461275475972879e-001	 1.415112775543771e+001
 1.112846281628262e+000	 7.583516858952986e-001	 1.400611731201082e+001
 1.104471730103942e+000	 7.704974327808040e-001	 1.386029892011163e+001
 1.095956322081866e+000	 7.825623461280227e-001	 1.371430465360126e+001
 1.197910119558531e+000	 6.716119712506629e-001	 1.497100815858405e+001
 1.190554382993286e+000	 6.845666480217496e-001	 1.485982003935571e+001
 1.183047658441432e+000	 6.974592490763552e-001	 1.474426130594710e+001
 1.175390660901376e+000	 7.102871866330096e-001	 1.462471336325157e+001
 1.167584163596768e+000	 7.230478819585515e-001	 1.450160817103989e+001
 1.159628997904562e+000	 7.357387669835083e-001	 1.437542720505716e+001
 1.151526053229886e+000	 7.483572859206673e-001	 1.424670026593153e+001
 1.143276276827363e+000	 7.609008968848122e-001	 1.411600413791327e+001
 1.134880673568683e+000	 7.733670735115833e-001	 1.398396110017847e+001
 1.126340305656252e+000	 7.857533065733875e-001	 1.385123729415391e+001
 1.117656292282877e+000	 7.980571055902893e-001	 1.371854095104357e+001
 1.221168231278044e+000	 6.846517027006408e-001	 1.485273757194008e+001
 1.213669678870589e+000	 6.978579019481238e-001	 1.475416872469771e+001
 1.206017206958142e+000	 7.110008202434178e-001	 1.465103047014154e+001
 1.198211544421214e+000	 7.240778195618056e-001	 1.454373775424933e+001
 1.190253479496037e+000	 7.370862711025564e-001	 1.443276011983510e+001
 1.182143859701229e+000	 7.500235569356701e-001	 1.431862055081203e+001
 1.173883591710230e+000	 7.628870716518743e-001	 1.420189414951664e+001
 1.165473641169157e+000	 7.756742240138078e-001	 1.408320664920580e+001
 1.156915032459861e+000	 7.883824386063120e-001	 1.396323276462861e+001
 1.148208848408022e+000	 8.010091574837155e-001	 1.384269438437203e+001
 1.139356229936217e+000	 8.135518418120015e-001	 1.372235860948096e+001
 1.244426313926563e+000	 6.976914178519144e-001	 1.474388918780120e+001
 1.236784945855437e+000	 7.111491392614100e-001	 1.465668428591176e+001
 1.228986726764600e+000	 7.245423744845198e-001	 1.456477648807294e+001
 1.221032399416653e+000	 7.378684352533408e-001	 1.446860160409956e+001
 1.212922767060388e+000	 7.511246426996362e-001	 1.436865352523899e+001
 1.204658693356066e+000	 7.643083290329400e-001	 1.426548296700299e+001
 1.196241102245413e+000	 7.774168392219808e-001	 1.415969603081784e+001
 1.187670977766017e+000	 7.904475326773144e-001	 1.405195258665198e+001
 1.178949363809866e+000	 8.033977849330436e-001	 1.394296447964532e+001
 1.170077363825882e+000	 8.162649893254801e-001	 1.383349356464029e+001
 1.161056140466386e+000	 8.290465586665842e-001	 1.372434957339353e+001
 1.267684373318120e+000	 7.107311199641255e-001	 1.464420503305613e+001
 1.259900189726144e+000	 7.244403632841190e-001	 1.456711277309817e+001
 1.251956223602675e+000	 7.380839151847439e-001	 1.448522145926612e+001
 1.243853231592387e+000	 7.516590371549613e-001	 1.439897579893186e+001
 1.235592031956618e+000	 7.651630002590770e-001	 1.430888154684912e+001
 1.227173504497251e+000	 7.785930868462080e-001	 1.421550416182285e+001
 1.218598590424284e+000	 7.919465922631326e-001	 1.411946726835851e+001
 1.209868292166755e+000	 8.052208265683716e-001	 1.402145092544847e+001
 1.200983673126766e+000	 8.184131162453378e-001	 1.392218970559596e+001
 1.191945857376462e+000	 8.315208059123731e-001	 1.382247058813067e+001
 1.182756029297883e+000	 8.445412600274632e-001	 1.372313067183336e+001
 1.290942415266750e+000	 7.237708122969158e-001	 1.455340690147812e+001
 1.283015416261027e+000	 7.377315773387618e-001	 1.448517776303493e+001
 1.274925703214236e+000	 7.516254457291739e-001	 1.441206453641034e+001
 1.266674046653109e+000	 7.654496287140142e-001	 1.433450951125309e+001
 1.258261279851520e+000	 7.792013472901653e-001	 1.425301850935948e+001
 1.249688298752963e+000	 7.928778339463646e-001	 1.416815947039881e+001
 1.240956061835691e+000	 8.064763344074757e-001	 1.408056082908108e+001
 1.232065589920179e+000	 8.199941093800192e-001	 1.399090968587059e+001
 1.223017965918630e+000	 8.334284362967542e-001	 1.389994977437044e+001
 1.213814334526392e+000	 8.467766110580868e-001	 1.380847922954060e+001
 1.204455901855211e+000	 8.600359497680635e-001	 1.371734816195872e+001
 1.314200445586484e+000	 7.368104981099263e-001	 1.447120442608686e+001
 1.306130631238402e+000	 7.510227847478495e-001	 1.441058890026776e+001
 1.297895171341149e+000	 7.651669695028937e-001	 1.434499075788211e+001
 1.289494850303512e+000	 7.792402133778452e-001	 1.427483915056028e+001
 1.280930516411890e+000	 7.932396873021873e-001	 1.420062880206993e+001
 1.272203081751379e+000	 8.071625739043004e-001	 1.412291853834788e+001
 1.263313522068484e+000	 8.210060692871558e-001	 1.404232959563446e+001
 1.254262876575102e+000	 8.347673848052973e-001	 1.395954370870311e+001
 1.245052247693526e+000	 8.484437488408523e-001	 1.387530098228222e+001
 1.235682800742303e+000	 8.620324085763136e-001	 1.379039754988907e+001
 1.226155763562868e+000	 8.755306317618103e-001	 1.370568302543144e+001
 1.337458470091355e+000	 7.498501806627994e-001	 1.439735468157546e+001
 1.329245840436585e+000	 7.643139888338926e-001	 1.434305059711845e+001
 1.320864633725284e+000	 7.787084898909862e-001	 1.428368003135585e+001
 1.312315648248289e+000	 7.930307945938000e-001	 1.421959747432084e+001
 1.303599747304523e+000	 8.072780238044296e-001	 1.415127596466424e+001
 1.294717859120680e+000	 8.214473102909055e-001	 1.407925423361960e+001
 1.285670976711510e+000	 8.355358005343189e-001	 1.400413495956119e+001
 1.276460157680332e+000	 8.495406565372459e-001	 1.392658278923917e+001
 1.267086523959525e+000	 8.634590576311914e-001	 1.384732212870346e+001
 1.257551261490825e+000	 8.772882022807456e-001	 1.376713470814053e+001
 1.247855619845356e+000	 8.910253098821287e-001	 1.368685692607499e+001
 1.030856161947795e+000	 7.360778895636447e-001	 1.371346740964270e+001
 1.022715166525019e+000	 7.473478326137195e-001	 1.352242434864711e+001
 1.014443900524439e+000	 7.585372058120380e-001	 1.332808924767686e+001
 1.006043549818665e+000	 7.696437712595147e-001	 1.313096442957551e+001
 9.975153511208504e-001	 7.806653141634373e-001	 1.293156416224053e+001
 9.888605914263493e-001	 7.915996442727785e-001	 1.273041328107095e+001
 9.800806074060003e-001	 8.024445972974047e-001	 1.252804577236345e+001
 9.711767847515960e-001	 8.131980363093015e-001	 1.232500332337904e+001
 9.621505574741556e-001	 8.238578531239378e-001	 1.212183384507728e+001
 9.530034071557008e-001	 8.344219696599167e-001	 1.191908997375898e+001
 9.437368621553292e-001	 8.448883392750972e-001	 1.171732755807233e+001
 1.052556262338826e+000	 7.515727419881261e-001	 1.371031166442862e+001
 1.044243894396206e+000	 7.630799236604066e-001	 1.353381000895941e+001
 1.035798513607119e+000	 7.745048394403977e-001	 1.335372600038549e+001
 1.027221330807447e+000	 7.858452043199752e-001	 1.317057247464341e+001
 1.018513608743844e+000	 7.970987568837924e-001	 1.298487203474177e+001
 1.009676661503627e+000	 8.082632607748014e-001	 1.279715555388924e+001
 1.000711853895297e+000	 8.193365061433413e-001	 1.260796064025701e+001
 9.916206007802294e-001	 8.303163110778581e-001	 1.241783006964040e+001
 9.824043663561701e-001	 8.412005230153463e-001	 1.222731019258245e+001
 9.730646633932649e-001	 8.519870201296238e-001	 1.203694932279062e+001
 9.636030524234189e-001	 8.626737126955777e-001	 1.184729611391057e+001
 1.074256313908682e+000	 7.670675595517769e-001	 1.371107897299751e+001
 1.065772573831665e+000	 7.788119793124742e-001	 1.354888358552814e+001
 1.057153078645655e+000	 7.904724371441629e-001	 1.338262470996770e+001
 1.048399064149761e+000	 8.020466009297870e-001	 1.321283542746235e+001
 1.039511819124084e+000	 8.135321626314671e-001	 1.304005773616484e+001
 1.030492684747856e+000	 8.249268397862400e-001	 1.286484091525551e+001
 1.021343053967182e+000	 8.362283769850172e-001	 1.268773984839083e+001
 1.012064370812964e+000	 8.474345473328055e-001	 1.250931331343439e+001
 1.002658129669613e+000	 8.585431538882246e-001	 1.233012224565716e+001
 9.931258744953387e-001	 8.695520310804036e-001	 1.215072798189644e+001
 9.834691979947897e-001	 8.804590461013546e-001	 1.197169049342550e+001
 1.095956322081866e+000	 7.825623461280227e-001	 1.371430465360126e+001
 1.087301210213081e+000	 7.945440035026687e-001	 1.356591616566472e+001
 1.078507600978236e+000	 8.064400029149779e-001	 1.341284489529853e+001
 1.069576755139626e+000	 8.182479651390546e-001	 1.325565351384481e+001
 1.060509987510751e+000	 8.299655355145810e-001	 1.309491404466876e+001
 1.051308666362708e+000	 8.415903854727679e-001	 1.293120606825666e+001
 1.041974212779163e+000	 8.531202140451907e-001	 1.276511488165166e+001
 1.032508099960486e+000	 8.645527493535050e-001	 1.259722961971752e+001
 1.022911852477707e+000	 8.758857500780444e-001	 1.242814134610272e+001
 1.013187045477039e+000	 8.871170069033347e-001	 1.225844112212081e+001
 1.003335303835817e+000	 8.982443439385991e-001	 1.208871806206700e+001
 1.117656292282877e+000	 7.980571055902893e-001	 1.371854095104357e+001
 1.108829808922140e+000	 8.102760001637359e-001	 1.358321137134422e+001
 1.099862085943054e+000	 8.224075407444853e-001	 1.344248996434925e+001
 1.090754409071060e+000	 8.344493009978826e-001	 1.329697799014131e+001
 1.081508119153021e+000	 8.463988796412525e-001	 1.314728774294120e+001
 1.072124611551856e+000	 8.582539020000586e-001	 1.299404057741630e+001
 1.062605335488745e+000	 8.700120215466197e-001	 1.283786488135038e+001
 1.052951793333486e+000	 8.816709214193184e-001	 1.267939400285093e+001
 1.043165539843673e+000	 8.932283159202766e-001	 1.251926414070999e+001
 1.033248181353480e+000	 9.046819519894958e-001	 1.235811220693288e+001
 1.023201374912877e+000	 9.160296106534807e-001	 1.219657367080356e+001
 1.139356229936217e+000	 8.135518418120015e-001	 1.372235860948096e+001
 1.130358375340526e+000	 8.260079732284229e-001	 1.359910540499427e+001
 1.121216538878298e+000	 8.383750546243289e-001	 1.346970611170347e+001
 1.111932031238083e+000	 8.506506125563763e-001	 1.333480926715235e+001
 1.102506219300071e+000	 8.628321991195993e-001	 1.319507733876180e+001
 1.092940525518970e+000	 8.749173935337853e-001	 1.305118455140932e+001
 1.083236427253435e+000	 8.869038037120627e-001	 1.290381465049707e+001
 1.073395456042649e+000	 8.987890678096056e-001	 1.275365860942034e+001
 1.063419196830736e+000	 9.105708557503934e-001	 1.260141229085601e+001
 1.053309287139780e+000	 9.222468707299641e-001	 1.244777407175560e+001
 1.043067416192346e+000	 9.338148506921709e-001	 1.229344244234413e+001
 1.161056140466386e+000	 8.290465586665842e-001	 1.372434957339353e+001
 1.151886914849926e+000	 8.417399266294754e-001	 1.361196840766005e+001
 1.142570965122156e+000	 8.543425485461513e-001	 1.349268266871261e+001
 1.133109626934713e+000	 8.668519038646394e-001	 1.336719658343019e+001
 1.123504293201081e+000	 8.792654980577411e-001	 1.323623238866264e+001
 1.113756413467723e+000	 8.915808642396221e-001	 1.310052794005273e+001
 1.103867493230738e+000	 9.037955647642769e-001	 1.296083424255783e+001
 1.093839093198666e+000	 9.159071928037287e-001	 1.281791291236797e+001
 1.083672828502116e+000	 9.279133739038656e-001	 1.267253358050538e+001
 1.073370367851056e+000	 9.398117675158186e-001	 1.252547124893369e+001
 1.062933432640599e+000	 9.516000685008400e-001	 1.237750361049417e+001
 1.182756029297883e+000	 8.445412600274632e-001	 1.372313067183336e+001
 1.173415432832025e+000	 8.574718642996397e-001	 1.362020696099213e+001
 1.163925370012821e+000	 8.703100265015967e-001	 1.350965371972196e+001
 1.154287201454969e+000	 8.830531789727772e-001	 1.339223902897317e+001
 1.144502346105226e+000	 8.956987805637957e-001	 1.326875421878941e+001
 1.134572280601786e+000	 9.082443182832425e-001	 1.314001123823954e+001
 1.124498538578164e+000	 9.206873089260210e-001	 1.300683993031545e+001
 1.114282709912222e+000	 9.330253006810482e-001	 1.287008522232718e+001
 1.103926439921037e+000	 9.452558747161652e-001	 1.273060424300860e+001
 1.093431428502421e+000	 9.573766467381373e-001	 1.258926337817963e+001
 1.082799429224013e+000	 9.693852685256590e-001	 1.244693527738514e+001
 1.204455901855211e+000	 8.600359497680635e-001	 1.371734816195872e+001
 1.194943934668507e+000	 8.732037901716623e-001	 1.362226758881564e+001
 1.185279758888481e+000	 8.862774924823083e-001	 1.351890082470507e+001
 1.175464760092871e+000	 8.992544419308942e-001	 1.340808774901486e+001
 1.165500383261686e+000	 9.121320507458814e-001	 1.329069786676167e+001
 1.155388132124831e+000	 9.249077598303189e-001	 1.316762741938421e+001
 1.145129568453215e+000	 9.375790404200531e-001	 1.303979638078612e+001
 1.134726311294007e+000	 9.501433957209261e-001	 1.290814535004514e+001
 1.124180036150719e+000	 9.625983625227634e-001	 1.277363235299361e+001
 1.113492474108993e+000	 9.749415127879983e-001	 1.263722956560903e+001
 1.102665410908964e+000	 9.871704552127985e-001	 1.249991997282639e+001
 1.226155763562868e+000	 8.755306317618103e-001	 1.370568302543144e+001
 1.216472425741059e+000	 8.889357081782895e-001	 1.361664113447563e+001
 1.206634137087326e+000	 9.022449504799290e-001	 1.351875671126620e+001
 1.196642308142437e+000	 9.154556967890949e-001	 1.341294918173734e+001
 1.186498409919638e+000	 9.285653127121178e-001	 1.330017509329255e+001
 1.176203973240529e+000	 9.415711930465260e-001	 1.318142494608516e+001
 1.165760588013400e+000	 9.544707634691313e-001	 1.305771988680345e+001
 1.155169902454707e+000	 9.672614822027226e-001	 1.293010827731422e+001
 1.144433622254387e+000	 9.799408416591322e-001	 1.279966215142466e+001
 1.133553509685888e+000	 9.925063700564804e-001	 1.266747357387201e+001
 1.122531382661828e+000	 1.004955633008429e+000	 1.253465091643345e+001
 1.247855619845356e+000	 8.910253098821287e-001	 1.368685692607499e+001
 1.238000911431365e+000	 9.046676222522669e-001	 1.360186790739215e+001
 1.227988509947546e+000	 9.182124044861023e-001	 1.350760981804979e+001
 1.217819850897685e+000	 9.316569475974837e-001	 1.340508920408833e+001
 1.207496431328260e+000	 9.449985705706225e-001	 1.329535833338462e+001
 1.197019809152552e+000	 9.582346220975364e-001	 1.317951172691217e+001
 1.186391602416225e+000	 9.713624822960134e-001	 1.305868252667878e+001
 1.175613488505012e+000	 9.843795644057992e-001	 1.293403871368325e+001
 1.164687203295262e+000	 9.972833164607429e-001	 1.280677919027133e+001
 1.153614540248221e+000	 1.010071222934661e+000	 1.267812974224940e+001
 1.142397349448981e+000	 1.022740806358721e+000	 1.254933367704952e+001
 9.437368621553292e-001	 8.448883392750972e-001	 1.171732755807233e+001
 9.343539132487400e-001	 8.552534008771232e-001	 1.151422184341609e+001
 9.248547987507910e-001	 8.655167534262337e-001	 1.130747656264636e+001
 9.152411822021542e-001	 8.756764540435483e-001	 1.109778207407152e+001
 9.055147702627122e-001	 8.857305963593138e-001	 1.088582710801391e+001
 8.956773117034881e-001	 8.956773117034879e-001	 1.067229708679978e+001
 8.857305963593135e-001	 9.055147702627118e-001	 1.045787247173948e+001
 8.756764540435483e-001	 9.152411822021546e-001	 1.024322714439679e+001
 8.655167534262336e-001	 9.248547987507910e-001	 1.002902682934307e+001
 8.552534008771232e-001	 9.343539132487404e-001	 9.815927565445007e+000
 8.448883392750972e-001	 9.437368621553289e-001	 9.604574232542932e+000
 9.636030524234189e-001	 8.626737126955777e-001	 1.184729611391057e+001
 9.540225871798312e-001	 8.732569646578550e-001	 1.165602398532623e+001
 9.443235109940164e-001	 8.837363665345823e-001	 1.146084146203762e+001
 9.345075224251110e-001	 8.941099345481917e-001	 1.126243416115848e+001
 9.245763640591428e-001	 9.043757221987769e-001	 1.106148615801479e+001
 9.145318214797459e-001	 9.145318214797458e-001	 1.085867819547202e+001
 9.043757221987767e-001	 9.245763640591429e-001	 1.065468592097839e+001
 8.941099345481919e-001	 9.345075224251110e-001	 1.045017815932961e+001
 8.837363665345825e-001	 9.443235109940160e-001	 1.024581522906086e+001
 8.732569646578552e-001	 9.540225871798311e-001	 1.004224731022479e+001
 8.626737126955777e-001	 9.636030524234188e-001	 9.840112871116720e+000
 9.834691979947897e-001	 8.804590461013546e-001	 1.197169049342551e+001
 9.736912168585270e-001	 8.912604879328961e-001	 1.179075355281718e+001
 9.637921794347112e-001	 9.019559386510658e-001	 1.160568739164371e+001
 9.537738193008559e-001	 9.125433735797032e-001	 1.141716975212612e+001
 9.436379149690517e-001	 9.230208060888488e-001	 1.122587653453773e+001
 9.333862888354512e-001	 9.333862888354511e-001	 1.103247989554426e+001
 9.230208060888487e-001	 9.436379149690515e-001	 1.083764637550107e+001
 9.125433735797034e-001	 9.537738193008564e-001	 1.064203506345887e+001
 9.019559386510658e-001	 9.637921794347114e-001	 1.044629580853639e+001
 8.912604879328957e-001	 9.736912168585270e-001	 1.025106748616723e+001
 8.804590461013545e-001	 9.834691979947897e-001	 1.005697632752922e+001
 1.003335303835817e+000	 8.982443439385991e-001	 1.208871806206699e+001
 9.933598072018451e-001	 9.092639752029758e-001	 1.191682738479662e+001
 9.832608089399147e-001	 9.201754743304356e-001	 1.174062779880867e+001
 9.730400776458450e-001	 9.309767757463133e-001	 1.156078664665977e+001
 9.626994277577085e-001	 9.416658526906770e-001	 1.137796875805632e+001
 9.522407184841031e-001	 9.522407184841031e-001	 1.119283443554305e+001
 9.416658526906770e-001	 9.626994277577085e-001	 1.100603747084985e+001
 9.309767757463132e-001	 9.730400776458451e-001	 1.081822320144196e+001
 9.201754743304355e-001	 9.832608089399147e-001	 1.063002661672864e+001
 9.092639752029756e-001	 9.933598072018450e-001	 1.044207052323722e+001
 8.982443439385988e-001	 1.003335303835817e+000	 1.025496377784985e+001
 1.023201374912877e+000	 9.160296106534807e-001	 1.219657367080356e+001
 1.013028363126802e+000	 9.272674309688241e-001	 1.203262764115442e+001
 1.002729404376667e+000	 9.383949781274455e-001	 1.186422029254987e+001
 9.923063022765317e-001	 9.494101456562505e-001	 1.169200662838632e+001
 9.817609071903852e-001	 9.603108666654103e-001	 1.151663811283657e+001
 9.710951151391997e-001	 9.710951151391994e-001	 1.133876054087564e+001
 9.603108666654103e-001	 9.817609071903853e-001	 1.115901194107071e+001
 9.494101456562506e-001	 9.923063022765318e-001	 1.097802052152529e+001
 9.383949781274457e-001	 1.002729404376667e+000	 1.079640266928356e+001
 9.272674309688241e-001	 1.013028363126802e+000	 1.061476101335154e+001
 9.160296106534808e-001	 1.023201374912877e+000	 1.043368256127863e+001
 1.043067416192346e+000	 9.338148506921709e-001	 1.229344244234413e+001
 1.032696889550414e+000	 9.452708597311709e-001	 1.213650640117566e+001
 1.022197970612008e+000	 9.566144545968488e-001	 1.197497293545943e+001
 1.011572498009371e+000	 9.678434879177446e-001	 1.180948333478342e+001
 1.000822358032352e+000	 9.789558526741965e-001	 1.164067398273118e+001
 9.899494835142406e-001	 9.899494835142404e-001	 1.146917410687795e+001
 9.789558526741967e-001	 1.000822358032352e+000	 1.129560356400281e+001
 9.678434879177446e-001	 1.011572498009371e+000	 1.112057067180923e+001
 9.566144545968488e-001	 1.022197970612008e+000	 1.094467009836938e+001
 9.452708597311709e-001	 1.032696889550413e+000	 1.076848082035972e+001
 9.338148506921710e-001	 1.043067416192346e+000	 1.059256416093540e+001
 1.062933432640599e+000	 9.516000685008400e-001	 1.237750361049417e+001
 1.052365391389698e+000	 9.632742659907464e-001	 1.222679110938885e+001
 1.041666512512977e+000	 9.748339082933978e-001	 1.207135118910204e+001
 1.030838669660818e+000	 9.862768071390247e-001	 1.191181059805951e+001
 1.019883785048881e+000	 9.976008153781840e-001	 1.174878948647544e+001
 1.008803828322724e+000	 1.008803828322724e+000	 1.158289903058290e+001
 9.976008153781842e-001	 1.019883785048881e+000	 1.141473909481687e+001
 9.862768071390249e-001	 1.030838669660818e+000	 1.124489594420776e+001
 9.748339082933980e-001	 1.041666512512977e+000	 1.107394001917574e+001
 9.632742659907462e-001	 1.052365391389697e+000	 1.090242378476970e+001
 9.516000685008400e-001	 1.062933432640599e+000	 1.073087966616989e+001
 1.082799429224013e+000	 9.693852685256590e-001	 1.244693527738514e+001
 1.072033873561670e+000	 9.812776542482794e-001	 1.230179076000713e+001
 1.061135034946614e+000	 9.930533437718464e-001	 1.215178542897565e+001
 1.050104822047326e+000	 1.004710107928321e+000	 1.199753119651480e+001
 1.038945193005243e+000	 1.016245759438521e+000	 1.183963137401819e+001
 1.027658154278150e+000	 1.027658154278149e+000	 1.167867816339227e+001
 1.016245759438521e+000	 1.038945193005243e+000	 1.151525018930932e+001
 1.004710107928321e+000	 1.050104822047327e+000	 1.134991008566309e+001
 9.930533437718467e-001	 1.061135034946614e+000	 1.118320214946306e+001
 9.812776542482794e-001	 1.072033873561670e+000	 1.101565007526161e+001
 9.693852685256590e-001	 1.082799429224013e+000	 1.084775478297798e+001
 1.102665410908964e+000	 9.871704552127985e-001	 1.249991997282639e+001
 1.091702340983348e+000	 9.992810290045007e-001	 1.235980272682397e+001
 1.080603542779960e+000	 1.011272765586947e+000	 1.221467895721481e+001
 1.069370959985351e+000	 1.023143394893862e+000	 1.206514596462607e+001
 1.058006586666708e+000	 1.034890689516356e+000	 1.191179015097809e+001
 1.046512466094015e+000	 1.046512466094015e+000	 1.175517937208587e+001
 1.034890689516356e+000	 1.058006586666708e+000	 1.159588531825606e+001
 1.023143394893862e+000	 1.069370959985352e+000	 1.143443099336652e+001
 1.011272765586948e+000	 1.080603542779960e+000	 1.127133821331686e+001
 9.992810290045006e-001	 1.091702340983348e+000	 1.110710023154591e+001
 9.871704552127985e-001	 1.102665410908964e+000	 1.094218444952410e+001
 1.122531382661828e+000	 1.004955633008429e+000	 1.253465091643345e+001
 1.111370798571747e+000	 1.017284394760140e+000	 1.239911462256734e+001
 1.100072040880052e+000	 1.029492178293453e+000	 1.225841131684329e+001
 1.088637088291348e+000	 1.041576672643878e+000	 1.211311843650798e+001
 1.077067970798547e+000	 1.053535610272836e+000	 1.196380592767148e+001
 1.065366768483820e+000	 1.065366768483820e+000	 1.181102745840015e+001
 1.053535610272836e+000	 1.077067970798547e+000	 1.165531766445619e+001
 1.041576672643877e+000	 1.088637088291348e+000	 1.149718945784064e+001
 1.029492178293453e+000	 1.100072040880052e+000	 1.133713141370875e+001
 1.017284394760140e+000	 1.111370798571748e+000	 1.117560525109785e+001
 1.004955633008429e+000	 1.122531382661828e+000	 1.101304710570993e+001
 1.142397349448981e+000	 1.022740806358721e+000	 1.254933367704952e+001
 1.131039251243886e+000	 1.035287756015926e+000	 1.241803509402729e+001
 1.119540534113931e+000	 1.047711586446118e+000	 1.228136841272975e+001
 1.107903211781769e+000	 1.060009945786597e+000	 1.213990441235433e+001
 1.096129350166033e+000	 1.072180526369110e+000	 1.199419755363784e+001
 1.084221066161063e+000	 1.084221066161063e+000	 1.184478301462543e+001
 1.072180526369110e+000	 1.096129350166033e+000	 1.169217377684429e+001
 1.060009945786597e+000	 1.107903211781770e+000	 1.153685777876046e+001
 1.047711586446118e+000	 1.119540534113932e+000	 1.137929515338989e+001
 1.035287756015926e+000	 1.131039251243886e+000	 1.121991556681491e+001
 1.022740806358721e+000	 1.142397349448981e+000	 1.105911567412772e+001
 8.448883392750972e-001	 9.437368621553289e-001	 9.604574232542932e+000
 8.344219696599167e-001	 9.530034071557008e-001	 9.393071965035668e+000
 8.238578531239381e-001	 9.621505574741556e-001	 9.179510066892869e+000
 8.131980363093013e-001	 9.711767847515960e-001	 8.964393633481400e+000
 8.024445972974045e-001	 9.800806074060000e-001	 8.748210747494730e+000
 7.915996442727785e-001	 9.888605914263495e-001	 8.531431596783474e+000
 7.806653141634374e-001	 9.975153511208504e-001	 8.314507684604628e+000
 7.696437712595143e-001	 1.006043549818665e+000	 8.097871136179631e+000
 7.585372058120381e-001	 1.014443900524439e+000	 7.881934104956337e+000
 7.473478326137194e-001	 1.022715166525019e+000	 7.667088281452720e+000
 7.360778895636446e-001	 1.030856161947795e+000	 7.453704507019798e+000
 8.626737126955777e-001	 9.636030524234188e-001	 9.840112871116720e+000
 8.519870201296237e-001	 9.730646633932647e-001	 9.637444187168192e+000
 8.412005230153468e-001	 9.824043663561702e-001	 9.432249375463311e+000
 8.303163110778579e-001	 9.916206007802297e-001	 9.225018441446045e+000
 8.193365061433412e-001	 1.000711853895297e+000	 9.016224605973974e+000
 8.082632607748013e-001	 1.009676661503627e+000	 8.806323365014661e+000
 7.970987568837924e-001	 1.018513608743844e+000	 8.595751647071372e+000
 7.858452043199751e-001	 1.027221330807447e+000	 8.384927072739838e+000
 7.745048394403975e-001	 1.035798513607119e+000	 8.174247320268005e+000
 7.630799236604067e-001	 1.044243894396206e+000	 7.964089600431576e+000
 7.515727419881260e-001	 1.052556262338826e+000	 7.754810243454394e+000
 8.804590461013545e-001	 9.834691979947897e-001	 1.005697632752922e+001
 8.695520310804036e-001	 9.931258744953385e-001	 9.862000200033883e+000
 8.585431538882248e-001	 1.002658129669613e+000	 9.664101970597562e+000
 8.474345473328057e-001	 1.012064370812964e+000	 9.463775625369106e+000
 8.362283769850171e-001	 1.021343053967182e+000	 9.261497863655070e+000
 8.249268397862399e-001	 1.030492684747855e+000	 9.057727059978699e+000
 8.135321626314672e-001	 1.039511819124085e+000	 8.852902330962875e+000
 8.020466009297869e-001	 1.048399064149761e+000	 8.647442712070991e+000
 7.904724371441629e-001	 1.057153078645654e+000	 8.441746448667187e+000
 7.788119793124740e-001	 1.065772573831665e+000	 8.236190405249765e+000
 7.670675595517766e-001	 1.074256313908682e+000	 8.031129596077738e+000
 8.982443439385988e-001	 1.003335303835817e+000	 1.025496377784985e+001
 8.871170069033352e-001	 1.013187045477039e+000	 1.006664342420183e+001
 8.758857500780446e-001	 1.022911852477707e+000	 9.875057078280756e+000
 8.645527493535050e-001	 1.032508099960486e+000	 9.680720926647213e+000
 8.531202140451906e-001	 1.041974212779163e+000	 9.484132651974226e+000
 8.415903854727679e-001	 1.051308666362708e+000	 9.285770257876269e+000
 8.299655355145811e-001	 1.060509987510751e+000	 9.086091007424637e+000
 8.182479651390547e-001	 1.069576755139626e+000	 8.885530481138879e+000
 8.064400029149780e-001	 1.078507600978236e+000	 8.684501759622476e+000
 7.945440035026685e-001	 1.087301210213081e+000	 8.483394735349531e+000
 7.825623461280228e-001	 1.095956322081866e+000	 8.282575557415125e+000
 9.160296106534808e-001	 1.023201374912877e+000	 1.043368256127862e+001
 9.046819519894961e-001	 1.033248181353480e+000	 1.025107265493638e+001
 8.932283159202767e-001	 1.043165539843673e+000	 1.006488821005349e+001
 8.816709214193184e-001	 1.052951793333486e+000	 9.875685075199250e+000
 8.700120215466197e-001	 1.062605335488745e+000	 9.683998677123704e+000
 8.582539020000589e-001	 1.072124611551856e+000	 9.490342668538419e+000
 8.463988796412522e-001	 1.081508119153020e+000	 9.295207700197514e+000
 8.344493009978825e-001	 1.090754409071060e+000	 9.099060323954287e+000
 8.224075407444851e-001	 1.099862085943054e+000	 8.902342032790179e+000
 8.102760001637358e-001	 1.108829808922140e+000	 8.705468443091680e+000
 7.980571055902892e-001	 1.117656292282877e+000	 8.508828623687721e+000
 9.338148506921710e-001	 1.043067416192346e+000	 1.059256416093540e+001
 9.222468707299640e-001	 1.053309287139780e+000	 1.041479878751559e+001
 9.105708557503933e-001	 1.063419196830736e+000	 1.023317046179394e+001
 8.987890678096057e-001	 1.073395456042650e+000	 1.004829148356157e+001
 8.869038037120626e-001	 1.083236427253435e+000	 9.860751124424150e+000
 8.749173935337853e-001	 1.092940525518970e+000	 9.671114058356974e+000
 8.628321991195993e-001	 1.102506219300071e+000	 9.479918928913287e+000
 8.506506125563762e-001	 1.111932031238083e+000	 9.287677060779876e+000
 8.383750546243285e-001	 1.121216538878297e+000	 9.094871322634450e+000
 8.260079732284228e-001	 1.130358375340526e+000	 8.901955147467904e+000
 8.135518418120015e-001	 1.139356229936217e+000	 8.709351715698286e+000
 9.516000685008400e-001	 1.062933432640599e+000	 1.073087966616989e+001
 9.398117675158186e-001	 1.073370367851056e+000	 1.055716092372918e+001
 9.279133739038658e-001	 1.083672828502116e+000	 1.037929711129311e+001
 9.159071928037287e-001	 1.093839093198666e+000	 1.019797317619147e+001
 9.037955647642770e-001	 1.103867493230739e+000	 1.001384775394647e+001
 8.915808642396224e-001	 1.113756413467723e+000	 9.827551340938888e+000
 8.792654980577412e-001	 1.123504293201081e+000	 9.639684617806058e+000
 8.668519038646394e-001	 1.133109626934713e+000	 9.450816932425934e+000
 8.543425485461513e-001	 1.142570965122156e+000	 9.261484950530951e+000
 8.417399266294754e-001	 1.151886914849926e+000	 9.072191481130243e+000
 8.290465586665842e-001	 1.161056140466386e+000	 8.883404482998857e+000
 9.693852685256590e-001	 1.082799429224013e+000	 1.084775478297798e+001
 9.573766467381373e-001	 1.093431428502421e+000	 1.067734193902732e+001
 9.452558747161655e-001	 1.103926439921036e+000	 1.050249560467459e+001
 9.330253006810483e-001	 1.114282709912222e+000	 1.032398905219395e+001
 9.206873089260209e-001	 1.124498538578164e+000	 1.014256529124251e+001
 9.082443182832425e-001	 1.134572280601786e+000	 9.958934942362824e+000
 8.956987805637957e-001	 1.144502346105226e+000	 9.773774277012345e+000
 8.830531789727772e-001	 1.154287201454969e+000	 9.587723434277619e+000
 8.703100265015967e-001	 1.163925370012821e+000	 9.401384823547694e+000
 8.574718642996397e-001	 1.173415432832025e+000	 9.215321721471637e+000
 8.445412600274632e-001	 1.182756029297883e+000	 9.030057070516628e+000
 9.871704552127985e-001	 1.102665410908964e+000	 1.094218444952410e+001
 9.749415127879983e-001	 1.113492474108992e+000	 1.077438357834811e+001
 9.625983625227639e-001	 1.124180036150719e+000	 1.060184300874013e+001
 9.501433957209258e-001	 1.134726311294006e+000	 1.042543956554138e+001
 9.375790404200532e-001	 1.145129568453215e+000	 1.024601520208303e+001
 9.249077598303189e-001	 1.155388132124830e+000	 1.006437453252045e+001
 9.121320507458818e-001	 1.165500383261687e+000	 9.881282548192335e+000
 8.992544419308943e-001	 1.175464760092871e+000	 9.697462529621719e+000
 8.862774924823080e-001	 1.185279758888481e+000	 9.513594164808430e+000
 8.732037901716623e-001	 1.194943934668507e+000	 9.330311883423555e+000
 8.600359497680634e-001	 1.204455901855211e+000	 9.148203415411219e+000
 1.004955633008429e+000	 1.122531382661828e+000	 1.101304710570993e+001
 9.925063700564805e-001	 1.133553509685887e+000	 1.084720113903048e+001
 9.799408416591326e-001	 1.144433622254387e+000	 1.067628099542087e+001
 9.672614822027223e-001	 1.155169902454707e+000	 1.050128189496273e+001
 9.544707634691311e-001	 1.165760588013400e+000	 1.032315892752687e+001
 9.415711930465260e-001	 1.176203973240529e+000	 1.014282420108305e+001
 9.285653127121181e-001	 1.186498409919638e+000	 9.961144193228718e+000
 9.154556967890950e-001	 1.196642308142436e+000	 9.778937319169762e+000
 9.022449504799286e-001	 1.206634137087326e+000	 9.596971728332479e+000
 8.889357081782892e-001	 1.216472425741059e+000	 9.415963340649464e+000
 8.755306317618103e-001	 1.226155763562868e+000	 9.236574132349974e+000
 1.022740806358721e+000	 1.142397349448981e+000	 1.105911567412772e+001
 1.010071222934661e+000	 1.153614540248221e+000	 1.089459779110510e+001
 9.972833164607429e-001	 1.164687203295261e+000	 1.072463041531624e+001
 9.843795644057992e-001	 1.175613488505011e+000	 1.055034466564898e+001
 9.713624822960134e-001	 1.186391602416225e+000	 1.037282264503457e+001
 9.582346220975365e-001	 1.197019809152552e+000	 1.019309714571647e+001
 9.449985705706224e-001	 1.207496431328260e+000	 1.001214859381147e+001
 9.316569475974839e-001	 1.217819850897686e+000	 9.830902232985405e+000
 9.182124044861019e-001	 1.227988509947546e+000	 9.650225561112370e+000
 9.046676222522668e-001	 1.238000911431365e+000	 9.470926032545725e+000
 8.910253098821288e-001	 1.247855619845356e+000	 9.293749037302094e+000
 7.360778895636446e-001	 1.030856161947795e+000	 7.453704507019798e+000
 7.247296359725970e-001	 1.038865751977465e+000	 7.241421964712801e+000
 7.133053503815099e-001	 1.046742852430853e+000	 7.029739956345530e+000
 7.018073298531414e-001	 1.054486431034654e+000	 6.818780188260107e+000
 6.902378887419132e-001	 1.062095508079932e+000	 6.608633372723344e+000
 6.785993572081287e-001	 1.069569156736019e+000	 6.399359751037910e+000
 6.668940797275553e-001	 1.076906503314615e+000	 6.190989738118507e+000
 6.551244135982919e-001	 1.084106727484178e+000	 5.984161250562060e+000
 6.432927274468238e-001	 1.091169062434711e+000	 5.779609794412935e+000
 6.314013997351549e-001	 1.098092794993187e+000	 5.577429970240664e+000
 6.194528172708822e-001	 1.104877265689896e+000	 5.377722017880512e+000
 7.515727419881260e-001	 1.052556262338826e+000	 7.754810243454394e+000
 7.399856012941009e-001	 1.060734458731179e+000	 7.545805387183625e+000
 7.283208280838214e-001	 1.068777376567416e+000	 7.336457672588950e+000
 7.165807677744921e-001	 1.076683961844282e+000	 7.127062594576807e+000
 7.047677834389825e-001	 1.084453214229405e+000	 6.917882742791004e+000
 6.928842542887642e-001	 1.092084187381793e+000	 6.709148016067080e+000
 6.809325741521235e-001	 1.099575989221505e+000	 6.501055973483109e+000
 6.689151499495940e-001	 1.106927782148541e+000	 6.293772319961335e+000
 6.568344001685657e-001	 1.114138783211110e+000	 6.087890342570975e+000
 6.446927533389901e-001	 1.121208264223477e+000	 5.884501442644569e+000
 6.324926465120909e-001	 1.128135551833708e+000	 5.683893645451076e+000
 7.670675595517766e-001	 1.074256313908682e+000	 8.031129596077738e+000
 7.552415322922724e-001	 1.082603116284461e+000	 7.825716361664946e+000
 7.433362720038976e-001	 1.090811851130529e+000	 7.619187405789614e+000
 7.313541724581945e-001	 1.098881442713736e+000	 7.411981428129119e+000
 7.192976454463670e-001	 1.106810870078322e+000	 7.204501981962323e+000
 7.071691192309457e-001	 1.114599167373023e+000	 6.997117422214591e+000
 6.949710369926212e-001	 1.122245424126297e+000	 6.790161006047681e+000
 6.827058552742502e-001	 1.129748785469733e+000	 6.583931144493515e+000
 6.703760424240128e-001	 1.137108452309784e+000	 6.378691802859740e+000
 6.579840770396939e-001	 1.144323681448046e+000	 6.175027500203571e+000
 6.455324464160299e-001	 1.151393785650397e+000	 5.974258114134504e+000
 7.825623461280228e-001	 1.095956322081866e+000	 8.282575557415125e+000
 7.704974327808040e-001	 1.104471730103942e+000	 8.080960727182029e+000
 7.583516858952986e-001	 1.112846281628261e+000	 7.877622089753362e+000
 7.461275475972876e-001	 1.121078879191826e+000	 7.673112689438023e+000
 7.338274783962134e-001	 1.129168481215533e+000	 7.467947838005617e+000
 7.214539556055636e-001	 1.137114102337887e+000	 7.262604836278952e+000
 7.090094717583351e-001	 1.144914813695785e+000	 7.057522865117341e+000
 6.964965330196068e-001	 1.152569743152447e+000	 6.853103044777233e+000
 6.839176575982479e-001	 1.160078075472602e+000	 6.649708660769157e+000
 6.712753741597766e-001	 1.167439052445210e+000	 6.447665553477223e+000
 6.585722202423399e-001	 1.174651972953994e+000	 6.247567408002972e+000
 7.980571055902892e-001	 1.117656292282877e+000	 8.508828623687721e+000
 7.857533065733875e-001	 1.126340305656252e+000	 8.311119248062736e+000
 7.733670735115833e-001	 1.134880673568682e+000	 8.111237949565865e+000
 7.609008968848122e-001	 1.143276276827363e+000	 7.909824862860087e+000
 7.483572859206671e-001	 1.151526053229886e+000	 7.707479443271569e+000
 7.357387669835083e-001	 1.159628997904562e+000	 7.504759999668645e+000
 7.230478819585516e-001	 1.167584163596768e+000	 7.302183414560270e+000
 7.102871866330097e-001	 1.175390660901376e+000	 7.100225050831784e+000
 6.974592490763553e-001	 1.183047658441432e+000	 6.899318843573989e+000
 6.845666480217496e-001	 1.190554382993286e+000	 6.699857574504574e+000
 6.716119712506630e-001	 1.197910119558531e+000	 6.502193325547582e+000
 8.135518418120015e-001	 1.139356229936217e+000	 8.709351715698286e+000
 8.010091574837157e-001	 1.148208848408022e+000	 8.515561344523546e+000
 7.883824386063120e-001	 1.156915032459861e+000	 8.319306961140393e+000
 7.756742240138076e-001	 1.165473641169156e+000	 8.121290037381534e+000
 7.628870716518743e-001	 1.173883591710230e+000	 7.922168042058046e+000
 7.500235569356702e-001	 1.182143859701230e+000	 7.722553820705620e+000
 7.370862711025564e-001	 1.190253479496037e+000	 7.523015181444976e+000
 7.240778195618057e-001	 1.198211544421214e+000	 7.324074686761367e+000
 7.110008202434178e-001	 1.206017206958142e+000	 7.126209649939314e+000
 6.978579019481238e-001	 1.213669678870590e+000	 6.929852333829490e+000
 6.846517027006408e-001	 1.221168231278044e+000	 6.735390348585035e+000
 8.290465586665842e-001	 1.161056140466386e+000	 8.883404482998857e+000
 8.162649893254802e-001	 1.170077363825882e+000	 8.693458313474439e+000
 8.033977849330439e-001	 1.178949363809866e+000	 8.500908916353753e+000
 7.904475326773142e-001	 1.187670977766017e+000	 8.306494755410972e+000
 7.774168392219807e-001	 1.196241102245413e+000	 8.110906574032191e+000
 7.643083290329399e-001	 1.204658693356066e+000	 7.914786655296593e+000
 7.511246426996361e-001	 1.212922767060388e+000	 7.718728308220475e+000
 7.378684352533409e-001	 1.221032399416653e+000	 7.523275580314538e+000
 7.245423744845195e-001	 1.228986726764600e+000	 7.328923195424982e+000
 7.111491392614100e-001	 1.236784945855437e+000	 7.136116714659552e+000
 6.976914178519145e-001	 1.244426313926563e+000	 6.945252917047434e+000
 8.445412600274632e-001	 1.182756029297883e+000	 9.030057070516628e+000
 8.315208059123731e-001	 1.191945857376462e+000	 8.843796104979784e+000
 8.184131162453380e-001	 1.200983673126766e+000	 8.654943144386810e+000
 8.052208265683714e-001	 1.209868292166755e+000	 8.464250624461855e+000
 7.919465922631326e-001	 1.218598590424284e+000	 8.272419132148755e+000
 7.785930868462081e-001	 1.227173504497251e+000	 8.080096577415979e+000
 7.651630002590770e-001	 1.235592031956618e+000	 7.887877612515323e+000
 7.516590371549616e-001	 1.243853231592387e+000	 7.696303299154717e+000
 7.380839151847439e-001	 1.251956223602676e+000	 7.505861022751510e+000
 7.244403632841193e-001	 1.259900189726144e+000	 7.316984651642306e+000
 7.107311199641254e-001	 1.267684373318120e+000	 7.130054937857215e+000
 8.600359497680634e-001	 1.204455901855211e+000	 9.148203415411219e+000
 8.467766110580867e-001	 1.213814334526392e+000	 8.965387710391322e+000
 8.334284362967542e-001	 1.223017965918630e+000	 8.780139932599807e+000
 8.199941093800189e-001	 1.232065589920179e+000	 8.593204721594770e+000
 8.064763344074756e-001	 1.240956061835692e+000	 8.405270310855167e+000
 7.928778339463644e-001	 1.249688298752962e+000	 8.216967640642457e+000
 7.792013472901653e-001	 1.258261279851520e+000	 8.028869740937754e+000
 7.654496287140141e-001	 1.266674046653108e+000	 7.841491385199721e+000
 7.516254457291737e-001	 1.274925703214236e+000	 7.655289014268346e+000
 7.377315773387618e-001	 1.283015416261027e+000	 7.470660928325843e+000
 7.237708122969158e-001	 1.290942415266750e+000	 7.287947743430614e+000
 8.755306317618103e-001	 1.226155763562868e+000	 9.236574132349974e+000
 8.620324085763136e-001	 1.235682800742303e+000	 9.056885210245003e+000
 8.484437488408522e-001	 1.245052247693526e+000	 8.875071684145341e+000
 8.347673848052971e-001	 1.254262876575102e+000	 8.691849816269947e+000
 8.210060692871558e-001	 1.263313522068484e+000	 8.507874458147688e+000
 8.071625739043004e-001	 1.272203081751379e+000	 8.323738131824793e+000
 7.932396873021873e-001	 1.280930516411890e+000	 8.139970405193521e+000
 7.792402133778448e-001	 1.289494850303511e+000	 7.957037562450560e+000
 7.651669695028934e-001	 1.297895171341149e+000	 7.775342569142150e+000
 7.510227847478496e-001	 1.306130631238402e+000	 7.595225329706190e+000
 7.368104981099266e-001	 1.314200445586484e+000	 7.416963233890860e+000
 8.910253098821288e-001	 1.247855619845356e+000	 9.293749037302094e+000
 8.772882022807453e-001	 1.257551261490825e+000	 9.116791523334527e+000
 8.634590576311915e-001	 1.267086523959525e+000	 8.938163844357256e+000
 8.495406565372458e-001	 1.276460157680332e+000	 8.758534433700678e+000
 8.355358005343191e-001	 1.285670976711510e+000	 8.578504843162923e+000
 8.214473102909056e-001	 1.294717859120681e+000	 8.398608817812383e+000
 8.072780238044295e-001	 1.303599747304523e+000	 8.219311690474111e+000
 7.930307945938002e-001	 1.312315648248288e+000	 8.041010097158932e+000
 7.787084898909862e-001	 1.320864633725284e+000	 7.864032013003152e+000
 7.643139888338927e-001	 1.329245840436585e+000	 7.688637106596120e+000
 7.498501806627993e-001	 1.337458470091355e+000	 7.514764935637805e+000
 6.194528172708822e-001	 1.104877265689896e+000	 5.377722017880512e+000
 6.074511782547066e-001	 1.111520882801578e+000	 5.180478126877810e+000
 5.953970932452810e-001	 1.118024123343679e+000	 4.985737813159172e+000
 5.832929647635355e-001	 1.124386489988285e+000	 4.793771563462194e+000
 5.711411977547047e-001	 1.130607538866382e+000	 4.604856520639397e+000
 5.589441981408803e-001	 1.136686879394963e+000	 4.419277249016870e+000
 5.467043713871074e-001	 1.142624174058487e+000	 4.237326303918422e+000
 5.344241210826425e-001	 1.148419138145507e+000	 4.059304603249186e+000
 5.221058475389497e-001	 1.154071539441348e+000	 3.885521600606406e+000
 5.097519464059584e-001	 1.159581197877748e+000	 3.716295260933355e+000
 4.973648073080526e-001	 1.164947985140473e+000	 3.551951841228572e+000
 6.324926465120909e-001	 1.128135551833708e+000	 5.683893645451076e+000
 6.202383662630420e-001	 1.134919020811867e+000	 5.486084089232315e+000
 6.079305360031093e-001	 1.141559158214848e+000	 5.291007694893533e+000
 5.955716088276520e-001	 1.148055456245717e+000	 5.098908608738061e+000
 5.831640403073667e-001	 1.154407461691780e+000	 4.910039190972701e+000
 5.707102870103700e-001	 1.160614775748049e+000	 4.724660992051021e+000
 5.582128050381113e-001	 1.166677053794103e+000	 4.543045504458394e+000
 5.456740485767643e-001	 1.172594005125170e+000	 4.365474687355630e+000
 5.330964684657112e-001	 1.178365392638335e+000	 4.192241263287129e+000
 5.204825107846715e-001	 1.183991032474813e+000	 4.023648787914164e+000
 5.078346154609772e-001	 1.189470793619292e+000	 3.860011495438003e+000
 6.455324464160299e-001	 1.151393785650397e+000	 5.974258114134503e+000
 6.330255255024671e-001	 1.158317106180301e+000	 5.776425684504707e+000
 6.204639505628590e-001	 1.165094140136081e+000	 5.581327398502459e+000
 6.078502252668818e-001	 1.171724369251810e+000	 5.389189157979430e+000
 5.951868558105830e-001	 1.178207330971136e+000	 5.200247722670667e+000
 5.824763494079930e-001	 1.184542618267112e+000	 5.014751889711652e+000
 5.697212127968527e-001	 1.190729879414451e+000	 4.832963415767644e+000
 5.569239507601437e-001	 1.196768817715077e+000	 4.655157678744703e+000
 5.440870646650543e-001	 1.202659191177848e+000	 4.481624078077587e+000
 5.312130510209822e-001	 1.208400812153459e+000	 4.312666174575242e+000
 5.183044000580986e-001	 1.213993546925534e+000	 4.148601572736404e+000
 6.585722202423399e-001	 1.174651972953994e+000	 6.247567408002972e+000
 6.458126591694799e-001	 1.181715144755887e+000	 6.050271289536568e+000
 6.329973400576118e-001	 1.188629074990625e+000	 5.855507136918628e+000
 6.201288171506310e-001	 1.195393234923308e+000	 5.663489398316068e+000
 6.072096472698343e-001	 1.202007152653947e+000	 5.474447135347925e+000
 5.942423882750678e-001	 1.208470412933654e+000	 5.288625400889221e+000
 5.812295975402648e-001	 1.214782656932294e+000	 5.106286322278937e+000
 5.681738304451132e-001	 1.220943581958496e+000	 4.927709886478915e+000
 5.550776388845088e-001	 1.226952941132905e+000	 4.753194426015984e+000
 5.419435697974289e-001	 1.232810543015708e+000	 4.583056806782062e+000
 5.287741637167839e-001	 1.238516251189468e+000	 4.417632320945954e+000
 6.716119712506630e-001	 1.197910119558531e+000	 6.502193325547582e+000
 6.585997704605783e-001	 1.205113142387636e+000	 6.306139436648492e+000
 6.455307076204506e-001	 1.212163968661729e+000	 6.112131921427345e+000
 6.324073875483049e-001	 1.219062059176956e+000	 5.920482374472885e+000
 6.192324176906023e-001	 1.225806932689711e+000	 5.731418808497971e+000
 6.060084065529144e-001	 1.232398165729178e+000	 5.545190320803622e+000
 5.927379621452800e-001	 1.238835392360392e+000	 5.362068330966487e+000
 5.794236904440047e-001	 1.245118303898696e+000	 5.182347478197951e+000
 5.660681938716050e-001	 1.251246648576530e+000	 5.006346177090859e+000
 5.526740697965494e-001	 1.257220231163583e+000	 4.834406832991602e+000
 5.392439090544005e-001	 1.263038912541362e+000	 4.666895720689182e+000
 6.846517027006408e-001	 1.221168231278044e+000	 6.735390348585036e+000
 6.713868625722598e-001	 1.228511104924556e+000	 6.542189160567857e+000
 6.580640563844562e-001	 1.235698827032637e+000	 6.349543309581214e+000
 6.446859395293096e-001	 1.242730847929497e+000	 6.158619746746184e+000
 6.312551700783683e-001	 1.249606677027924e+000	 5.969742442945734e+000
 6.177744071828529e-001	 1.256325882635189e+000	 5.783171132176325e+000
 6.042463094888311e-001	 1.262888091711506e+000	 5.599194291247251e+000
 5.906735335691515e-001	 1.269292989578943e+000	 5.418130140474272e+000
 5.770587323738733e-001	 1.275540319581744e+000	 5.240327255447357e+000
 5.634045537008823e-001	 1.281629882699106e+000	 5.066164791344709e+000
 5.497136386883157e-001	 1.287561537111484e+000	 4.896052324017091e+000
 6.976914178519145e-001	 1.244426313926563e+000	 6.945252917047434e+000
 6.841739387010217e-001	 1.251909038215656e+000	 6.755539556285488e+000
 6.705973894827110e-001	 1.259233655986598e+000	 6.565760040747239e+000
 6.569644761630512e-001	 1.266399607097674e+000	 6.376114495452190e+000
 6.432779074386129e-001	 1.273406391618082e+000	 6.187779015103683e+000
 6.295403931062018e-001	 1.280253569633188e+000	 6.001091372828187e+000
 6.157546424478506e-001	 1.286940760998396e+000	 5.816363732922173e+000
 6.019233626328853e-001	 1.293467645042504e+000	 5.633945737528413e+000
 5.880492571388442e-001	 1.299833960221569e+000	 5.454225162710461e+000
 5.741350241929648e-001	 1.306039503724299e+000	 5.277628134813951e+000
 5.601833552358967e-001	 1.312084131030102e+000	 5.104618911968584e+000
 7.107311199641254e-001	 1.267684373318120e+000	 7.130054937857215e+000
 6.969610020433620e-001	 1.275306948109945e+000	 6.944122892776075e+000
 6.831307100482968e-001	 1.282768461406858e+000	 6.757819004647010e+000
 6.692430005189350e-001	 1.290068342598233e+000	 6.570898458900093e+000
 6.553006327768171e-001	 1.297206082409683e+000	 6.383654596277470e+000
 6.413063672642816e-001	 1.304181232704681e+000	 6.197257888930575e+000
 6.272629638992716e-001	 1.310993406233822e+000	 6.012075691190570e+000
 6.131731804475384e-001	 1.317642276332648e+000	 5.828495839879623e+000
 5.990397709140476e-001	 1.324127576569028e+000	 5.646953336183181e+000
 5.848654839553358e-001	 1.330449100341185e+000	 5.467930538891122e+000
 5.706530613145106e-001	 1.336606700427484e+000	 5.292040239856836e+000
 7.237708122969158e-001	 1.290942415266750e+000	 7.287947743430613e+000
 7.097480557957788e-001	 1.298704840456433e+000	 7.106054196562754e+000
 6.956640212142951e-001	 1.306303249176665e+000	 6.923486896007977e+000
 6.815215156663675e-001	 1.313737060347918e+000	 6.739987156694754e+000
 6.673233490984625e-001	 1.321005755352224e+000	 6.555243366650236e+000
 6.530723325984112e-001	 1.328108877831169e+000	 6.369745861975971e+000
 6.387712767200264e-001	 1.335046033430547e+000	 6.184608571926664e+000
 6.244229898254440e-001	 1.341816889492641e+000	 6.000281385416745e+000
 6.100302764470144e-001	 1.348421174697141e+000	 5.817675113871941e+000
 5.955959356705326e-001	 1.354858678651786e+000	 5.637827715688733e+000
 5.811227595415254e-001	 1.361129251433898e+000	 5.461795495481235e+000
 7.368104981099266e-001	 1.314200445586484e+000	 7.416963233890861e+000
 7.225351031547691e-001	 1.322102721104127e+000	 7.239334043164448e+000
 7.081973261137888e-001	 1.329838025179267e+000	 7.060757305962419e+000
 6.938000246747534e-001	 1.337405766263471e+000	 6.880816484837182e+000
 6.793460594090302e-001	 1.344805416395201e+000	 6.698690594107260e+000
 6.648382920499100e-001	 1.352036510994155e+000	 6.514502033375413e+000
 6.502795837870479e-001	 1.359098648601329e+000	 6.329654740456363e+000
 6.356727935789340e-001	 1.365991490565752e+000	 6.145747812838645e+000
 6.210207764852744e-001	 1.372714760678931e+000	 5.963885233929990e+000
 6.063263820210938e-001	 1.379268244758125e+000	 5.785198682594720e+000
 5.915924525343077e-001	 1.385651790179613e+000	 5.610837487232390e+000
 7.498501806627993e-001	 1.337458470091355e+000	 7.514764935637805e+000
 7.353221473168309e-001	 1.345500595902038e+000	 7.339884763275338e+000
 7.207306278798588e-001	 1.353372795297910e+000	 7.162779406034179e+000
 7.060785306134998e-001	 1.361074466261638e+000	 6.983841957104810e+000
 6.913687667140009e-001	 1.368605071488112e+000	 6.803408297805444e+000
 6.766042485600982e-001	 1.375964138175143e+000	 6.621757091112954e+000
 6.617878879772690e-001	 1.383151257758930e+000	 6.439208218611610e+000
 6.469225945203407e-001	 1.390166085595247e+000	 6.257535417373402e+000
 6.320112737763581e-001	 1.397008340587419e+000	 6.078274216904559e+000
 6.170568256895568e-001	 1.403677804762223e+000	 5.902661596566727e+000
 6.020621429102250e-001	 1.410174322794896e+000	 5.731950820902491e+000
 4.973648073080526e-001	 1.164947985140473e+000	 3.551951841228572e+000
 4.849449475210769e-001	 1.170172597316046e+000	 3.391766689288200e+000
 4.724965980002161e-001	 1.175254193189512e+000	 3.234901629442091e+000
 4.600221239627185e-001	 1.180192797882715e+000	 3.081450363023358e+000
 4.475238793346627e-001	 1.184988486332486e+000	 2.931512352840366e+000
 4.350042055046847e-001	 1.189641382703130e+000	 2.785192296588599e+000
 4.224654301051314e-001	 1.194151659763825e+000	 2.642599436498029e+000
 4.099098658216919e-001	 1.198519538232249e+000	 2.503846715263290e+000
 3.973398092324927e-001	 1.202745286085772e+000	 2.369049789197566e+000
 3.847575396775870e-001	 1.206829217841571e+000	 2.238325910340258e+000
 3.721653181596841e-001	 1.210771693807061e+000	 2.111792689926693e+000
 5.078346154609772e-001	 1.189470793619292e+000	 3.860011495438002e+000
 4.951533106594304e-001	 1.194805386811314e+000	 3.700487352808788e+000
 4.824429163991849e-001	 1.199993953127882e+000	 3.544128383239106e+000
 4.697058476866244e-001	 1.205036518219667e+000	 3.391030867556289e+000
 4.569445079992764e-001	 1.209933158600962e+000	 3.241298271322611e+000
 4.441612880133066e-001	 1.214684001049800e+000	 3.095040666888763e+000
 4.313585643590141e-001	 1.219289221972249e+000	 2.952373968211232e+000
 4.185386984054039e-001	 1.223749046732216e+000	 2.813418989743942e+000
 4.057040350748469e-001	 1.228063748948146e+000	 2.678300341729059e+000
 3.928569016887677e-001	 1.232233649757978e+000	 2.547145175111276e+000
 3.799996068452374e-001	 1.236259117053800e+000	 2.420081790070753e+000
 5.183044000580986e-001	 1.213993546925534e+000	 4.148601572736403e+000
 5.053616508301387e-001	 1.219438120886603e+000	 3.988463170256062e+000
 4.923892124200254e-001	 1.224733657405657e+000	 3.831179490517994e+000
 4.793895496231638e-001	 1.229880182662189e+000	 3.676856644000045e+000
 4.663651154684179e-001	 1.234877774747946e+000	 3.525610256636917e+000
 4.533183499193709e-001	 1.239726563054676e+000	 3.377564813669425e+000
 4.402516786041618e-001	 1.244426727625320e+000	 3.232852789431931e+000
 4.271675115750019e-001	 1.248978498470000e+000	 3.091613575838662e+000
 4.140682420983949e-001	 1.253382154848216e+000	 2.953992223479182e+000
 4.009562454770290e-001	 1.257638024518649e+000	 2.820138010251706e+000
 3.878338779042280e-001	 1.261746482958037e+000	 2.690202853339172e+000
 5.287741637167839e-001	 1.238516251189468e+000	 4.417632320945955e+000
 5.155699705852225e-001	 1.244070805699674e+000	 4.255819493647846e+000
 5.023354885492571e-001	 1.249473312207339e+000	 4.096408450981024e+000
 4.890732321932147e-001	 1.254723797420769e+000	 3.939522083806587e+000
 4.757857040971966e-001	 1.259822341009158e+000	 3.785296074366441e+000
 4.624753935121033e-001	 1.264769074977958e+000	 3.633878134671513e+000
 4.491447750638161e-001	 1.269564183006969e+000	 3.485427000413329e+000
 4.357963074876533e-001	 1.274207899752516e+000	 3.340111194804871e+000
 4.224324323941557e-001	 1.278700510115136e+000	 3.198107578058896e+000
 4.090555730671776e-001	 1.283042348474234e+000	 3.059599699360259e+000
 3.956681332952000e-001	 1.287233797891179e+000	 2.924775969182716e+000
 5.392439090544005e-001	 1.263038912541362e+000	 4.666895720689182e+000
 5.257782724767011e-001	 1.268703447408290e+000	 4.502566180001357e+000
 5.122817472733993e-001	 1.274212923717429e+000	 4.340053918025753e+000
 4.987568978176553e-001	 1.279567368705895e+000	 4.179505272522909e+000
 4.852062762407214e-001	 1.284766863620316e+000	 4.021083635862917e+000
 4.716324210807296e-001	 1.289811543079843e+000	 3.864968560210555e+000
 4.580378559612177e-001	 1.294701594401128e+000	 3.711354583975089e+000
 4.444250883005267e-001	 1.299437256886679e+000	 3.560449795787342e+000
 4.307966080531481e-001	 1.304018821078061e+000	 3.412474153731203e+000
 4.171548864840204e-001	 1.308446627975386e+000	 3.267657578852748e+000
 4.035023749766974e-001	 1.312721068224635e+000	 3.126237843090820e+000
 5.497136386883157e-001	 1.287561537111484e+000	 4.896052324017092e+000
 5.359865590565952e-001	 1.293336052170213e+000	 4.728585779428348e+000
 5.222279910789711e-001	 1.298952498120428e+000	 4.562229365365216e+000
 5.084405489173633e-001	 1.304410902728050e+000	 4.397159261416480e+000
 4.946268342541013e-001	 1.309711348817139e+000	 4.233573998758331e+000
 4.807894349144759e-001	 1.314853973620533e+000	 4.071693403830608e+000
 4.669309235196081e-001	 1.319838968091726e+000	 3.911757224912624e+000
 4.530538561707893e-001	 1.324666576179405e+000	 3.754023459934881e+000
 4.391607711663913e-001	 1.329337094066145e+000	 3.598766405511268e+000
 4.252541877523637e-001	 1.333850869372756e+000	 3.446282916818679e+000
 4.113366049072643e-001	 1.338208300329813e+000	 3.297558452241553e+000
 5.601833552358967e-001	 1.312084131030102e+000	 5.104618911968584e+000
 5.461948328769253e-001	 1.317968626143207e+000	 4.933622445236159e+000
 5.321742224524917e-001	 1.323692041600839e+000	 4.762913361861364e+000
 5.181241879132170e-001	 1.329254405697723e+000	 4.592703816905587e+000
 5.040473804924455e-001	 1.334655802835345e+000	 4.423266472101863e+000
 4.899464373025677e-001	 1.339896372860226e+000	 4.255610012962785e+000
 4.758239799622283e-001	 1.344976310362696e+000	 4.090492256617146e+000
 4.616826132556096e-001	 1.349895863937608e+000	 3.928396119689109e+000
 4.475249238249042e-001	 1.354655335408544e+000	 3.769777682286335e+000
 4.333534788970148e-001	 1.359255079016994e+000	 3.615063644203564e+000
 4.191708250454448e-001	 1.363695500578122e+000	 3.464649209655051e+000
 5.706530613145106e-001	 1.336606700427484e+000	 5.292040239856836e+000
 5.564030964897108e-001	 1.342601175485032e+000	 5.118103579469056e+000
 5.421204438804808e-001	 1.348431560343163e+000	 4.944600128908259e+000
 5.278078172260935e-001	 1.354097883825399e+000	 4.772104738117251e+000
 5.134679173108632e-001	 1.359600231910653e+000	 4.601177590589230e+000
 4.991034305342312e-001	 1.364938747059123e+000	 4.432359587607891e+000
 4.847170275123195e-001	 1.370113627497968e+000	 4.266168270033725e+000
 4.703113617121550e-001	 1.375125126468206e+000	 4.103094272260543e+000
 4.558890681197054e-001	 1.379973551434411e+000	 3.943598298430070e+000
 4.414527619427803e-001	 1.384659263258752e+000	 3.788108606759777e+000
 4.270050373497829e-001	 1.389182675340970e+000	 3.637018983937734e+000
 5.811227595415254e-001	 1.361129251433898e+000	 5.461795495481235e+000
 5.666113524469723e-001	 1.367233706353451e+000	 5.288022207102887e+000
 5.520666578494572e-001	 1.373171060531899e+000	 5.114697689993571e+000
 5.374914392768710e-001	 1.378941343321566e+000	 4.942417641347371e+000
 5.228884470644628e-001	 1.384544642278781e+000	 4.771759994867298e+000
 5.082604168986920e-001	 1.389981102477423e+000	 4.603280043492084e+000
 4.936100683931231e-001	 1.395250925781474e+000	 4.437506180381128e+000
 4.789401036975942e-001	 1.400354370078113e+000	 4.274936250636360e+000
 4.642532061418141e-001	 1.405291748472903e+000	 4.116034501132610e+000
 4.495520389144668e-001	 1.410063428448682e+000	 3.961229111071911e+000
 4.348392437788227e-001	 1.414669830989763e+000	 3.810910281495436e+000
 5.915924525343077e-001	 1.385651790179613e+000	 5.610837487232389e+000
 5.768196033007296e-001	 1.391866224906227e+000	 5.439023971460085e+000
 5.620128668459405e-001	 1.397910548351552e+000	 5.267681421226739e+000
 5.471750564864276e-001	 1.403784790396708e+000	 5.097428101362649e+000
 5.323089721083540e-001	 1.409489040175448e+000	 4.928860715821117e+000
 5.174173986851759e-001	 1.415023445375324e+000	 4.762549254588949e+000
 5.025031048278797e-001	 1.420388211497145e+000	 4.599032549080750e+000
 4.875688413690945e-001	 1.425583601074242e+000	 4.438814526057765e+000
 4.726173399822490e-001	 1.430609932853171e+000	 4.282361144382275e+000
 4.576513118368814e-001	 1.435467580937434e+000	 4.130097993585292e+000
 4.426734462911082e-001	 1.440156973895912e+000	 3.982408528314447e+000
 6.020621429102250e-001	 1.410174322794896e+000	 5.731950820902492e+000
 5.870278516030029e-001	 1.416498737301121e+000	 5.564125646699005e+000
 5.719590733564497e-001	 1.422650029986620e+000	 5.396819689457037e+000
 5.568586712756409e-001	 1.428628231261313e+000	 5.230675465969746e+000
 5.417294947976459e-001	 1.434433431836373e+000	 5.066309291074673e+000
 5.265743781829089e-001	 1.440065782013029e+000	 4.904305835059551e+000
 5.113961390398313e-001	 1.445525490928912e+000	 4.745213490140337e+000
 4.961975768838239e-001	 1.450812825763512e+000	 4.589540533299980e+000
 4.809814717320292e-001	 1.455928110904371e+000	 4.437752066359180e+000
 4.657505827348304e-001	 1.460871727075660e+000	 4.290267708184604e+000
 4.505076468451836e-001	 1.465644110430823e+000	 4.147460008450769e+000
 3.721653181596841e-001	 1.210771693807061e+000	 2.111792689926693e+000
 3.595653860970648e-001	 1.214573118999657e+000	 1.989943101496014e+000
 3.469599637677736e-001	 1.218233941437156e+000	 1.873008135995347e+000
 3.343512498799867e-001	 1.221754652219686e+000	 1.760712913636114e+000
 3.217414207892364e-001	 1.225135784980603e+000	 1.652783137666645e+000
 3.091326295656695e-001	 1.228377915011984e+000	 1.548944080212877e+000
 2.965270050962132e-001	 1.231481658369039e+000	 1.448919506491229e+000
 2.839266512220445e-001	 1.234447670954891e+000	 1.352430550893464e+000
 2.713336459116921e-001	 1.237276647587193e+000	 1.259194558341160e+000
 2.587500404700431e-001	 1.239969321048035e+000	 1.168923904116290e+000
 2.461778587834510e-001	 1.242526461118597e+000	 1.081324805088697e+000
 3.799996068452374e-001	 1.236259117053800e+000	 2.420081790070753e+000
 3.671344391456395e-001	 1.240140564378870e+000	 2.297642194528095e+000
 3.542636656061270e-001	 1.243878449182008e+000	 2.180067477163088e+000
 3.413895312189302e-001	 1.247473272901273e+000	 2.067051896621698e+000
 3.285142581531008e-001	 1.250925580403296e+000	 1.958291994720258e+000
 3.156400448021336e-001	 1.254235959090374e+000	 1.853485424829403e+000
 3.027690648672338e-001	 1.257405037986019e+000	 1.752329707170350e+000
 2.899034664766288e-001	 1.260433486800481e+000	 1.654520926368886e+000
 2.770453713412645e-001	 1.263322014977708e+000	 1.559752386507377e+000
 2.641968739471592e-001	 1.266071370725263e+000	 1.467713238706448e+000
 2.513600407846233e-001	 1.268682340028648e+000	 1.378087095955205e+000
 3.878338779042280e-001	 1.261746482958037e+000	 2.690202853339172e+000
 3.747034751643715e-001	 1.265707952235458e+000	 2.564791161999186e+000
 3.615673510116165e-001	 1.269522899230740e+000	 2.444191849395258e+000
 3.484277967221451e-001	 1.273191835719855e+000	 2.328088309073312e+000
 3.352870802784262e-001	 1.276715317802694e+000	 2.216167920505902e+000
 3.221474453972028e-001	 1.280093944991751e+000	 2.108120673114663e+000
 3.090111105938582e-001	 1.283328359278823e+000	 2.003637705410514e+000
 2.958802682835722e-001	 1.286419244181258e+000	 1.902409776665254e+000
 2.827570839196105e-001	 1.289367323769279e+000	 1.804125688416352e+000
 2.696436951690276e-001	 1.292173361675890e+000	 1.708470672876607e+000
 2.565422111259951e-001	 1.294838160090888e+000	 1.615124764974410e+000
 3.956681332952000e-001	 1.287233797891179e+000	 2.924775969182716e+000
 3.822724960455041e-001	 1.291275288960849e+000	 2.794335628286412e+000
 3.688710218101570e-001	 1.295167297994062e+000	 2.668642039168859e+000
 3.554660481492020e-001	 1.298910347104691e+000	 2.547387486039927e+000
 3.420598888584344e-001	 1.302505003625874e+000	 2.430269990329601e+000
 3.286548329777549e-001	 1.305951879180282e+000	 2.316991681130138e+000
 3.152531438366364e-001	 1.309251628727975e+000	 2.207257068502093e+000
 3.018570581371236e-001	 1.312404949593379e+000	 2.100771239364394e+000
 2.884687850747150e-001	 1.315412580472970e+000	 1.997237995567145e+000
 2.750905054974154e-001	 1.318275300425168e+000	 1.896357953490584e+000
 2.617243711031739e-001	 1.320993927844035e+000	 1.797826624128216e+000
 4.035023749766974e-001	 1.312721068224635e+000	 3.126237843090820e+000
 3.898415036812796e-001	 1.316842580946469e+000	 2.989021407000674e+000
 3.761746798276636e-001	 1.320811651882687e+000	 2.856462518702427e+000
 3.625042872596722e-001	 1.324628813485048e+000	 2.728281943235174e+000
 3.488326855863470e-001	 1.328294644319918e+000	 2.604208029970014e+000
 3.351622091706676e-001	 1.331809768120133e+000	 2.483974777762557e+000
 3.214951661561188e-001	 1.335174852813998e+000	 2.367454037554342e+000
 3.078338375315319e-001	 1.338390609533002e+000	 2.254992920234452e+000
 2.941804762345622e-001	 1.341457791599845e+000	 2.146341076053771e+000
 2.805373062940900e-001	 1.344377193498346e+000	 2.041144478999945e+000
 2.669065220117670e-001	 1.347149649826810e+000	 1.939028918749747e+000
 4.113366049072643e-001	 1.338208300329813e+000	 3.297558452241553e+000
 3.974104999639416e-001	 1.342409834583748e+000	 3.153977493728446e+000
 3.834783268900516e-001	 1.346455967307327e+000	 3.016109501406994e+000
 3.695425158131264e-001	 1.350347241290185e+000	 2.883703905600648e+000
 3.556054721553857e-001	 1.354084246331904e+000	 2.756485429454004e+000
 3.416695756028192e-001	 1.357667618275472e+000	 2.634154459445621e+000
 3.277371791128551e-001	 1.361098038017419e+000	 2.516387629562502e+000
 3.138106079610459e-001	 1.364376230496281e+000	 2.402838592898903e+000
 2.998921588271372e-001	 1.367502963660970e+000	 2.293138953808472e+000
 2.859840989208189e-001	 1.370479047420677e+000	 2.186899333395165e+000
 2.720886651473818e-001	 1.373305332577932e+000	 2.083710541054033e+000
 4.191708250454448e-001	 1.363695500578122e+000	 3.464649209655051e+000
 4.049794867857331e-001	 1.367977056264114e+000	 3.319529762111540e+000
 3.907819648232359e-001	 1.372100250678695e+000	 3.180282970378304e+000
 3.765807355691360e-001	 1.376065636949365e+000	 3.046632081496698e+000
 3.623782502587722e-001	 1.379873816108914e+000	 2.918273150252614e+000
 3.481769339010870e-001	 1.383525436110463e+000	 2.794875775397676e+000
 3.339791842673958e-001	 1.387021190818762e+000	 2.676084079791901e+000
 3.197873709199146e-001	 1.390361818979375e+000	 2.561517903540087e+000
 3.056038342804242e-001	 1.393548103167406e+000	 2.450774178506180e+000
 2.914308847393696e-001	 1.396580868717411e+000	 2.343428452226321e+000
 2.772708018056258e-001	 1.399460982636122e+000	 2.239036529186826e+000
 4.270050373497829e-001	 1.389182675340970e+000	 3.637018983937734e+000
 4.125484660388972e-001	 1.393544252378993e+000	 3.491319057180173e+000
 3.980855954531315e-001	 1.397744508407502e+000	 3.351568614409235e+000
 3.836189482872718e-001	 1.401784006891852e+000	 3.217466534573803e+000
 3.691510215897282e-001	 1.405663360098026e+000	 3.088681325783468e+000
 3.546842856923493e-001	 1.409383228089274e+000	 2.964852278705213e+000
 3.402211831802909e-001	 1.412944317698551e+000	 2.845590898624909e+000
 3.257641279023869e-001	 1.416347381478438e+000	 2.730482579993788e+000
 3.113155040224079e-001	 1.419593216630219e+000	 2.619088486527507e+000
 2.968776651115092e-001	 1.422682663913800e+000	 2.510947599538314e+000
 2.824529332821062e-001	 1.425616606540098e+000	 2.405578897150087e+000
 4.348392437788227e-001	 1.414669830989763e+000	 3.810910281495436e+000
 4.201174396156771e-001	 1.419111429319816e+000	 3.666024738049026e+000
 4.053892206056536e-001	 1.423388746904461e+000	 3.527079570597672e+000
 3.906571557271050e-001	 1.427502357546906e+000	 3.393749626436393e+000
 3.759237878414754e-001	 1.431452884746319e+000	 3.265675435191545e+000
 3.611916326034839e-001	 1.435241000676072e+000	 3.142464837559112e+000
 3.464631774120903e-001	 1.438867425137311e+000	 3.023694932298348e+000
 3.317408804027114e-001	 1.442332924489626e+000	 2.908914299438648e+000
 3.170271694810728e-001	 1.445638310560474e+000	 2.797645456827863e+000
 3.023244413990053e-001	 1.448784439535093e+000	 2.689387506742211e+000
 2.876350608724304e-001	 1.451772210828581e+000	 2.583618929266946e+000
 4.426734462911082e-001	 1.440156973895912e+000	 3.982408528314447e+000
 4.276864094083155e-001	 1.444678593478009e+000	 3.840151444933025e+000
 4.126928421067176e-001	 1.449032972580286e+000	 3.703738104970662e+000
 3.976953596482061e-001	 1.453220695343790e+000	 3.572818169353476e+000
 3.826965507072357e-001	 1.457242396500876e+000	 3.447002183813359e+000
 3.676989762613686e-001	 1.461098760335022e+000	 3.325863748175452e+000
 3.527051685233442e-001	 1.464790519615566e+000	 3.208942048729077e+000
 3.377176299151375e-001	 1.468318454509096e+000	 3.095744705111201e+000
 3.227388320844036e-001	 1.471683391469234e+000	 2.985750882223110e+000
 3.077712149636253e-001	 1.474886202106543e+000	 2.878414617263729e+000
 2.928171858722058e-001	 1.477927802040290e+000	 2.773168311975691e+000
 4.505076468451836e-001	 1.465644110430823e+000	 4.147460008450769e+000
 4.352553773090560e-001	 1.470245751245001e+000	 4.010046989307629e+000
 4.199964617822380e-001	 1.474677191845686e+000	 3.878293506629858e+000
 4.047335618101466e-001	 1.478939026711766e+000	 3.751821373162305e+000
 3.894693118802304e-001	 1.483031901808773e+000	 3.630207547864685e+000
 3.742063182928812e-001	 1.486956513530291e+000	 3.512986918355562e+000
 3.589471580746028e-001	 1.490713607613841e+000	 3.399655496914726e+000
 3.436943779339139e-001	 1.494303978033006e+000	 3.289673974230690e+000
 3.284504932603850e-001	 1.497728465867564e+000	 3.182471574080770e+000
 3.132179871671365e-001	 1.500987958153400e+000	 3.077450151661247e+000
 2.979993095770399e-001	 1.504083386713946e+000	 2.973988478324738e+000
 2.461778587834510e-001	 1.242526461118597e+000	 1.081324805088697e+000
 2.336209787353383e-001	 1.244948520494780e+000	 9.980095981842628e-001
 2.210794773494281e-001	 1.247236734201940e+000	 9.204677168174688e-001
 2.085552884195949e-001	 1.249391977736748e+000	 8.482536725513529e-001
 1.960503157475883e-001	 1.251415159572273e+000	 7.809199244237688e-001
 1.835664325704446e-001	 1.253307220138870e+000	 7.180158100455967e-001
 1.711054810238903e-001	 1.255069130798217e+000	 6.590865204563885e-001
 1.586692716415527e-001	 1.256701892811832e+000	 6.036721281819256e-001
 1.462595828897382e-001	 1.258206536305377e+000	 5.513066771937401e-001
 1.338781607374896e-001	 1.259584119230017e+000	 5.015173426959456e-001
 1.215267182615959e-001	 1.260835726322077e+000	 4.538236678646888e-001
 2.513600407846233e-001	 1.268682340028648e+000	 1.378087095955205e+000
 2.385388313687072e-001	 1.271155385113263e+000	 1.292688829252803e+000
 2.257333243445114e-001	 1.273491767002438e+000	 1.213199959401599e+000
 2.129454942133351e-001	 1.275692379622538e+000	 1.139138528152621e+000
 2.001772848530018e-001	 1.277758150570499e+000	 1.070021024183444e+000
 1.874306089332176e-001	 1.279690040073258e+000	 1.005361133382732e+000
 1.747073473676788e-001	 1.281489039940201e+000	 9.446685367858790e-001
 1.620093488027417e-001	 1.283156172509960e+000	 8.874477669630615e-001
 1.493384291424061e-001	 1.284692489592919e+000	 8.331971328269404e-001
 1.366963711093230e-001	 1.286099071410704e+000	 7.814077219536922e-001
 1.240849238414895e-001	 1.287377025533950e+000	 7.315624886143227e-001
 2.565422111259951e-001	 1.294838160090888e+000	 1.615124764974409e+000
 2.434566729370095e-001	 1.297362190769154e+000	 1.526132847462399e+000
 2.303871608685430e-001	 1.299746740731929e+000	 1.443394428611956e+000
 2.173356901292265e-001	 1.301992722335230e+000	 1.366407782429091e+000
 2.043042446728649e-001	 1.304101082299809e+000	 1.294669508399661e+000
 1.912947766017440e-001	 1.306072800649137e+000	 1.227673066771990e+000
 1.783092056074410e-001	 1.307908889640256e+000	 1.164907367084419e+000
 1.653494184489528e-001	 1.309610392688861e+000	 1.105855422226061e+000
 1.524172684678871e-001	 1.311178383290003e+000	 1.049993079381488e+000
 1.395145751404186e-001	 1.312613963935719e+000	 9.967878382306722e-001
 1.266431236656700e-001	 1.313918265030891e+000	 9.456977657643410e-001
 2.617243711031739e-001	 1.320993927844035e+000	 1.797826624128214e+000
 2.483745046697697e-001	 1.323568944013921e+000	 1.703941596996903e+000
 2.350409880850431e-001	 1.326001661953930e+000	 1.616841635159144e+000
 2.217258772648734e-001	 1.328293012449679e+000	 1.536022142857510e+000
 2.084311962389666e-001	 1.330443961345699e+000	 1.460976133343075e+000
 1.951589365421072e-001	 1.332455508461953e+000	 1.391192511919202e+000
 1.819110566436752e-001	 1.334328686503093e+000	 1.326196874569733e+000
 1.686894814152311e-001	 1.336064559961831e+000	 1.265637817589925e+000
 1.554961016359138e-001	 1.337664224017839e+000	 1.208937427237996e+000
 1.423327735353477e-001	 1.339128803433513e+000	 1.155482764483748e+000
 1.292013183737076e-001	 1.340459451447940e+000	 1.104655231307425e+000
 2.669065220117670e-001	 1.347149649826810e+000	 1.939028918749746e+000
 2.532923277965124e-001	 1.349775651399042e+000	 1.842446327052519e+000
 2.396948071575314e-001	 1.352256537231954e+000	 1.753667322244644e+000
 2.261160567178805e-001	 1.354593256540739e+000	 1.672071147698203e+000
 2.125581405830954e-001	 1.356786794293665e+000	 1.597030854916896e+000
 1.990230897203908e-001	 1.358838170107152e+000	 1.527914281265016e+000
 1.855129013768806e-001	 1.360748437133422e+000	 1.464084975256050e+000
 1.720295385366216e-001	 1.362518680942165e+000	 1.404903051866054e+000
 1.585749294162189e-001	 1.364150018397633e+000	 1.349725961705425e+000
 1.451509669986813e-001	 1.365643596532541e+000	 1.297909159350879e+000
 1.317595086051721e-001	 1.367000591420134e+000	 1.248806657691936e+000
 2.720886651473818e-001	 1.373305332577932e+000	 2.083710541054032e+000
 2.582101435467623e-001	 1.375982319475984e+000	 1.986221708028906e+000
 2.443486192495282e-001	 1.378511373129517e+000	 1.896888965145003e+000
 2.305062295858520e-001	 1.380893461183264e+000	 1.815041353056139e+000
 2.166850787370401e-001	 1.383129587729205e+000	 1.740003787229802e+000
 2.028872371026779e-001	 1.385220792180180e+000	 1.671098466558282e+000
 1.891147407075556e-001	 1.387168148135953e+000	 1.607646214377475e+000
 1.753695906481697e-001	 1.388972762243157e+000	 1.548967731061777e+000
 1.616537525785352e-001	 1.390635773050592e+000	 1.494384738962033e+000
 1.479691562349904e-001	 1.392158349861254e+000	 1.443221002165823e+000
 1.343176949996336e-001	 1.393541691582514e+000	 1.394803205366726e+000
 2.772708018056258e-001	 1.399460982636122e+000	 2.239036529186826e+000
 2.631279531500440e-001	 1.402188954796221e+000	 2.140435944700807e+000
 2.490024255245531e-001	 1.404766176210133e+000	 2.050258808506198e+000
 2.348963969663925e-001	 1.407193632952109e+000	 1.967782523086938e+000
 2.208120117325892e-001	 1.409472348237812e+000	 1.892282239489513e+000
 2.067513796550518e-001	 1.411603381276482e+000	 1.823032765814630e+000
 1.927165755361991e-001	 1.413587826115396e+000	 1.759310392129567e+000
 1.787096385849205e-001	 1.415426810478104e+000	 1.700394607230849e+000
 1.647325718925951e-001	 1.417121494597922e+000	 1.645569684537734e+000
 1.507873419488461e-001	 1.418673070048106e+000	 1.594126116378310e+000
 1.368758781966621e-001	 1.420082758570117e+000	 1.545361878023356e+000
 2.824529332821062e-001	 1.425616606540098e+000	 2.405578897150087e+000
 2.680457578358820e-001	 1.428395563911225e+000	 2.305994148768400e+000
 2.536562271461264e-001	 1.431020953037317e+000	 2.214986673001480e+000
 2.392865599571062e-001	 1.433493778422127e+000	 2.131779042733718e+000
 2.249389406015317e-001	 1.435815082404983e+000	 2.055593271344916e+000
 2.106155183435960e-001	 1.437985943991505e+000	 1.985653297619945e+000
 1.963184067633099e-001	 1.440007477676460e+000	 1.921187370151699e+000
 1.820496831819193e-001	 1.441880832260298e+000	 1.861430302446243e+000
 1.678113881281316e-001	 1.443607189660832e+000	 1.805625572068169e+000
 1.536055248448193e-001	 1.445187763721549e+000	 1.753027239446078e+000
 1.394340588358278e-001	 1.446623799017982e+000	 1.702901664360249e+000
 2.876350608724304e-001	 1.451772210828581e+000	 2.583618929266945e+000
 2.729635588338008e-001	 1.454602153372468e+000	 2.483506378873368e+000
 2.583100252777679e-001	 1.457275710174585e+000	 2.391984563106192e+000
 2.436767196555977e-001	 1.459793904168173e+000	 2.308216206613639e+000
 2.290658663756560e-001	 1.462157796816215e+000	 2.231364992010775e+000
 2.144796541343938e-001	 1.464368486920693e+000	 2.160598705757724e+000
 1.999202352893869e-001	 1.466427109423858e+000	 2.095092265555933e+000
 1.853897252742113e-001	 1.468334834203037e+000	 2.034030595729449e+000
 1.708902020548770e-001	 1.470092864860527e+000	 1.976611319494540e+000
 1.564237056274812e-001	 1.471702437510035e+000	 1.922047239630558e+000
 1.419922375567005e-001	 1.473164819561149e+000	 1.869568581814149e+000
 2.928171858722058e-001	 1.477927802040290e+000	 2.773168311975689e+000
 2.778813573733250e-001	 1.480808729731422e+000	 2.673309145752204e+000
 2.629638210829975e-001	 1.483530454185451e+000	 2.581888504554246e+000
 2.480668771594715e-001	 1.486094016765102e+000	 2.498002342869217e+000
 2.331927900867510e-001	 1.488500498057003e+000	 2.420748919720989e+000
 2.183437879935285e-001	 1.490751016659494e+000	 2.349232698566944e+000
 2.035220620149286e-001	 1.492846727962296e+000	 2.282568109582082e+000
 1.887297656968415e-001	 1.494788822919614e+000	 2.219883135493525e+000
 1.739690144425642e-001	 1.496578526818215e+000	 2.160322684900546e+000
 1.592418850014027e-001	 1.498217098042018e+000	 2.103051719985484e+000
 1.445504149988502e-001	 1.499705826834654e+000	 2.047258108652690e+000
 2.979993095770399e-001	 1.504083386713946e+000	 2.973988478324739e+000
 2.827991546839796e-001	 1.507015299539558e+000	 2.875485030132482e+000
 2.676176157253354e-001	 1.509785191633430e+000	 2.785078404967506e+000
 2.524570335663319e-001	 1.512394122787768e+000	 2.701788881242856e+000
 2.373197127666052e-001	 1.514843192712843e+000	 2.624640217298694e+000
 2.222079208870836e-001	 1.517133539803352e+000	 2.552664407365614e+000
 2.071238878404339e-001	 1.519266339896488e+000	 2.484906279523769e+000
 1.920698052848553e-001	 1.521242805023325e+000	 2.420427890907753e+000
 1.770478260609259e-001	 1.523064182155104e+000	 2.358312678549680e+000
 1.620600636711550e-001	 1.524731751945949e+000	 2.297669327619532e+000
 1.471085918018470e-001	 1.526246827473539e+000	 2.237635322369685e+000
 1.215267182615959e-001	 1.260835726322077e+000	 4.538236678646898e-001
 1.092050938783885e-001	 1.261962627821675e+000	 4.096118574438204e-001
 9.691681094146261e-002	 1.262965762463481e+000	 3.703146103337655e-001
 8.466350730218102e-002	 1.263846289909173e+000	 3.354906254182061e-001
 7.244678589573805e-002	 1.264605392478897e+000	 3.046935038621974e-001
 6.026821451849371e-002	 1.265244274109201e+000	 2.774710958149335e-001
 4.812932563820527e-002	 1.265764159316470e+000	 2.533649539712057e-001
 3.603161623652470e-002	 1.266166292166884e+000	 2.319098959908780e-001
 2.397654768310283e-002	 1.266451935253878e+000	 2.126336769629273e-001
 1.196554564061585e-002	 1.266622368684020e+000	 1.950567723161960e-001
 0.000000000000000e+000	 1.266678889072220e+000	 1.786922683525890e-001
 1.240849238414895e-001	 1.287377025533950e+000	 7.315624886143227e-001
 1.115039223538047e-001	 1.288527648942039e+000	 6.852667333035464e-001
 9.895696416848027e-002	 1.289551900130541e+000	 6.441971065930653e-001
 8.644572161462832e-002	 1.290450963172669e+000	 6.079119053718729e-001
 7.397183137018699e-002	 1.291226045277082e+000	 5.759646530391446e-001
 6.153689423456665e-002	 1.291878375723875e+000	 5.479032440892719e-001
 4.914247493488754e-002	 1.292409204806197e+000	 5.232692099061634e-001
 3.679010196516106e-002	 1.292819802778529e+000	 5.015971082727432e-001
 2.448126745774404e-002	 1.293111458812611e+000	 4.824140381769977e-001
 1.221742708636590e-002	 1.293285479961983e+000	 4.652392806051192e-001
 0.000000000000000e+000	 1.293343190136031e+000	 4.495840635053925e-001
 1.266431236656700e-001	 1.313918265030891e+000	 9.456977657643420e-001
 1.138027456571140e-001	 1.315092610294107e+000	 8.986042431391382e-001
 1.009971128054113e-001	 1.316137977981790e+000	 8.574685671269638e-001
 8.822793191734571e-002	 1.317055576578640e+000	 8.218350170119745e-001
 7.549687341352278e-002	 1.317846638181773e+000	 7.912424390075310e-001
 6.280557109632910e-002	 1.318512417414775e+000	 7.652232131874203e-001
 5.015562195217487e-002	 1.319054190347506e+000	 7.433023574747049e-001
 3.754858598735988e-002	 1.319473253422687e+000	 7.249967716743659e-001
 2.498598609687752e-002	 1.319770922390312e+000	 7.098146234955947e-001
 1.246930796544274e-002	 1.319948531250828e+000	 6.972548774984950e-001
 0.000000000000000e+000	 1.320007431208043e+000	 6.868069660782001e-001
 1.292013183737076e-001	 1.340459451447940e+000	 1.104655231307423e+000
 1.161015643630454e-001	 1.341657518518851e+000	 1.058599475270739e+000
 1.030372573623214e-001	 1.342724002663488e+000	 1.019541426307909e+000
 9.001013865592045e-002	 1.343660136777989e+000	 9.869604158122269e-001
 7.702191240704664e-002	 1.344467177847875e+000	 9.603385164464590e-001
 6.407424542099523e-002	 1.345146405840180e+000	 9.391596943929617e-001
 5.116876694340037e-002	 1.345699122601420e+000	 9.229088420387296e-001
 3.830706849278592e-002	 1.346126650762511e+000	 9.110706911956878e-001
 2.549070372671889e-002	 1.346430332651642e+000	 9.031286082804796e-001
 1.272118834083836e-002	 1.346611529216121e+000	 8.985632741550030e-001
 0.000000000000000e+000	 1.346671618954121e+000	 8.968512513802598e-001
 1.317595086051721e-001	 1.367000591420134e+000	 1.248806657691936e+000
 1.184003790463280e-001	 1.368222380257244e+000	 1.204895016958827e+000
 1.050773983492763e-001	 1.369309980821893e+000	 1.168718561542449e+000
 9.179234227593996e-002	 1.370264650421613e+000	 1.139717480077711e+000
 7.854694873205979e-002	 1.371087670930294e+000	 1.117340713971702e+000
 6.534291752577912e-002	 1.371780347658369e+000	 1.101045229901420e+000
 5.218191016189722e-002	 1.372344008228968e+000	 1.090295138207056e+000
 3.906554967110398e-002	 1.372780001461154e+000	 1.084560656858608e+000
 2.599542047348377e-002	 1.373089696261269e+000	 1.083316922242269e+000
 1.297306827554469e-002	 1.373274480523431e+000	 1.086042649528250e+000
 0.000000000000000e+000	 1.373335760040133e+000	 1.092218645235944e+000
 1.343176949996336e-001	 1.393541691582514e+000	 1.394803205366725e+000
 1.206991902816909e-001	 1.394787202150259e+000	 1.351948018080330e+000
 1.071175362763418e-001	 1.395895919103263e+000	 1.317514420472428e+000
 9.357454322299168e-002	 1.396869124160417e+000	 1.290885404476574e+000
 8.007198276986338e-002	 1.397708124083939e+000	 1.271458959152790e+000
 6.661158772789504e-002	 1.398414249527623e+000	 1.258647536488070e+000
 5.319505186099852e-002	 1.398988853891178e+000	 1.251877323993125e+000
 3.982402971197888e-002	 1.399433312181770e+000	 1.250587323180673e+000
 2.650013646338779e-002	 1.399749019883856e+000	 1.254228234857880e+000
 1.322494783255373e-002	 1.399937391838324e+000	 1.262261153947402e+000
 0.000000000000000e+000	 1.399999861131944e+000	 1.274156076269694e+000
 1.368758781966621e-001	 1.420082758570117e+000	 1.545361878023356e+000
 1.229979986438630e-001	 1.421351990838867e+000	 1.502429818071439e+000
 1.091576716535836e-001	 1.422481824153855e+000	 1.468488523153500e+000
 9.535674194266292e-002	 1.423473564645299e+000	 1.442845612624143e+000
 8.159701490175862e-002	 1.424328543963714e+000	 1.424830258936775e+000
 6.788025634455708e-002	 1.425048118106222e+000	 1.413792923470536e+000
 5.420819229403744e-002	 1.425633666249075e+000	 1.409104855151524e+000
 4.058250880507539e-002	 1.426086589587512e+000	 1.410157350179174e+000
 2.700485182264656e-002	 1.426408310184067e+000	 1.416360773327055e+000
 1.347682707485744e-002	 1.426600269826366e+000	 1.427143343373904e+000
 0.000000000000000e+000	 1.426663928895422e+000	 1.441949684860530e+000
 1.394340588358278e-001	 1.446623799017982e+000	 1.702901664360249e+000
 1.252968047075734e-001	 1.447916752964040e+000	 1.658722523388430e+000
 1.111978049910673e-001	 1.449067702619928e+000	 1.623922298405769e+000
 9.713893888054107e-002	 1.450077978527162e+000	 1.597714772858764e+000
 8.312204550904669e-002	 1.450948937224526e+000	 1.579342230173614e+000
 6.914892369297943e-002	 1.451681960052446e+000	 1.568075540457517e+000
 5.522133171434710e-002	 1.452278451963687e+000	 1.563213960725421e+000
 4.134098714005827e-002	 1.452739840341533e+000	 1.564084645994567e+000
 2.750956667747569e-002	 1.453067573826568e+000	 1.570041871095726e+000
 1.372870606544777e-002	 1.453263121153126e+000	 1.580465965474130e+000
 0.000000000000000e+000	 1.453327969996434e+000	 1.594761962880851e+000
 1.419922375567005e-001	 1.473164819561149e+000	 1.869568581814148e+000
 1.275956090475513e-001	 1.474481495166753e+000	 1.822943708566830e+000
 1.132379367988588e-001	 1.475653561147740e+000	 1.785843201724236e+000
 9.892113448221356e-002	 1.476682372456906e+000	 1.757368095189460e+000
 8.464707497302880e-002	 1.477569310521282e+000	 1.736655340566574e+000
 7.041759009037629e-002	 1.478315782024575e+000	 1.722878330161790e+000
 5.623447037526061e-002	 1.478923217696040e+000	 1.715247078595435e+000
 4.209946490659234e-002	 1.479393071106987e+000	 1.713008059188861e+000
 2.801428115409081e-002	 1.479726817476025e+000	 1.715443694182450e+000
 1.398058486731671e-002	 1.479925952484172e+000	 1.721871500646298e+000
 0.000000000000000e+000	 1.479991991100845e+000	 1.731642893622276e+000
 1.445504149988502e-001	 1.499705826834654e+000	 2.047258108652690e+000
 1.298944122385256e-001	 1.501046224087976e+000	 1.996968528133757e+000
 1.152780675870237e-001	 1.502239406383549e+000	 1.956046295029634e+000
 1.007033291932677e-001	 1.503286753085432e+000	 1.923460168929285e+000
 8.617210367500609e-002	 1.504189670508888e+000	 1.898222796354681e+000
 7.168625585396170e-002	 1.504949590680887e+000	 1.879391760528144e+000
 5.724760853011116e-002	 1.505567970107163e+000	 1.866070228790258e+000
 4.285794229434238e-002	 1.506046288547026e+000	 1.857407192427152e+000
 2.851899537870754e-002	 1.506386047797100e+000	 1.852597296989504e+000
 1.423246354345621e-002	 1.506588770485069e+000	 1.850880264410826e+000
 0.000000000000000e+000	 1.506655998874523e+000	 1.851539908028203e+000
 1.471085918018470e-001	 1.526246827473539e+000	 2.237635322369683e+000
 1.321932148552253e-001	 1.527610946368682e+000	 2.182449554578880e+000
 1.173181978656277e-001	 1.528825244973612e+000	 2.136113597261487e+000
 1.024855234592909e-001	 1.529891127063641e+000	 2.097443640417766e+000
 8.769713199627979e-002	 1.530810023842251e+000	 2.065308363222885e+000
 7.295492130094994e-002	 1.531583392679665e+000	 2.038630606535045e+000
 5.826074643223184e-002	 1.532212715858080e+000	 2.016388575627464e+000
 4.361641949297316e-002	 1.532699499324805e+000	 1.997616566256519e+000
 2.902370947754151e-002	 1.533045271454459e+000	 1.981405210978225e+000
 1.448434215685826e-002	 1.533251581821384e+000	 1.966901246311954e+000
 0.000000000000000e+000	 1.533319999983334e+000	 1.953306801340939e+000
 1.533319999983334e+000	 0.000000000000000e+000	 1.516488250312236e+001
 1.533251581821385e+000	 1.448434215685831e-002	 1.516141469769119e+001
 1.533045271454459e+000	 2.902370947754160e-002	 1.516329573657171e+001
 1.532699499324805e+000	 4.361641949297308e-002	 1.516916573667153e+001
 1.532212715858081e+000	 5.826074643223178e-002	 1.517762718833680e+001
 1.531583392679665e+000	 7.295492130094992e-002	 1.518724624621353e+001
 1.530810023842251e+000	 8.769713199627981e-002	 1.519655419498471e+001
 1.529891127063641e+000	 1.024855234592909e-001	 1.520404907567573e+001
 1.528825244973612e+000	 1.173181978656276e-001	 1.520819746943997e+001
 1.527610946368682e+000	 1.321932148552252e-001	 1.520743643457635e+001
 1.526246827473539e+000	 1.471085918018469e-001	 1.520017559134991e+001
 1.559987999982150e+000	 0.000000000000000e+000	 1.493370813982450e+001
 1.559918391869258e+000	 1.473625854557675e-002	 1.492370131919516e+001
 1.559708493285285e+000	 2.952849927044130e-002	 1.492021560458434e+001
 1.559356707374226e+000	 4.437501044347395e-002	 1.492175663227105e+001
 1.558861457611046e+000	 5.927403627859133e-002	 1.492679224010116e+001
 1.558221189039145e+000	 7.422377701450698e-002	 1.493375406938840e+001
 1.557434369519299e+000	 8.922238903169809e-002	 1.494103936194109e+001
 1.556499490988984e+000	 1.042679850074528e-001	 1.494701293703624e+001
 1.555415070730929e+000	 1.193586341098443e-001	 1.495000934458673e+001
 1.554179652649703e+000	 1.344923622314419e-001	 1.494833518943728e+001
 1.552791808555088e+000	 1.496671522635357e-001	 1.494027162038702e+001
 1.586655999981867e+000	 0.000000000000000e+000	 1.472548252872996e+001
 1.586585201918022e+000	 1.498817493449890e-002	 1.470903163785377e+001
 1.586371715116970e+000	 3.003328906368751e-002	 1.470022137740695e+001
 1.586013915424462e+000	 4.513360139441185e-002	 1.469743016365794e+001
 1.585510199364770e+000	 6.028732612543465e-002	 1.469899788288622e+001
 1.584858985399321e+000	 7.549263272855974e-002	 1.470322779648642e+001
 1.584058715196978e+000	 9.074764606759800e-002	 1.470838866323490e+001
 1.583107854914894e+000	 1.060504465560655e-001	 1.471271706273812e+001
 1.582004896488756e+000	 1.213990703544733e-001	 1.471441991564731e+001
 1.580748358931190e+000	 1.367915096080340e-001	 1.471167719475605e+001
 1.579336789637071e+000	 1.522257127255743e-001	 1.470264481958906e+001
 1.613323999982383e+000	 0.000000000000000e+000	 1.453411825095993e+001
 1.613252011967577e+000	 1.524009132357382e-002	 1.451166507856419e+001
 1.613034936949426e+000	 3.053807885719378e-002	 1.449790576412164e+001
 1.612671123475432e+000	 4.589219234567800e-002	 1.449109801273341e+001
 1.612158941119188e+000	 6.130061597264207e-002	 1.448945968909851e+001
 1.611496781760144e+000	 7.676148844298673e-002	 1.449117101966755e+001
 1.610683060875255e+000	 9.227290310386339e-002	 1.449437703594494e+001
 1.609716218841355e+000	 1.078329081050230e-001	 1.449719024222165e+001
 1.608594722247091e+000	 1.234395065994216e-001	 1.449769350266897e+001
 1.607317065213149e+000	 1.390906569849222e-001	 1.449394314107919e+001
 1.605881770719505e+000	 1.547842731878955e-001	 1.448397224485469e+001
 1.639991999983600e+000	 0.000000000000000e+000	 1.435418125366424e+001
 1.639918822017828e+000	 1.549200771275063e-002	 1.432647747174985e+001
 1.639698158782560e+000	 3.104286865087362e-002	 1.430844280948120e+001
 1.639328331527060e+000	 4.665078329716376e-002	 1.429822003486540e+001
 1.638807682874235e+000	 6.231390582009395e-002	 1.429391016480766e+001
 1.638134578121566e+000	 7.803034415766653e-002	 1.429357495985480e+001
 1.637307406554097e+000	 9.379816014037826e-002	 1.429523968619583e+001
 1.636324582768350e+000	 1.096153696542197e-001	 1.429689612752339e+001
 1.635184548005932e+000	 1.254799428445966e-001	 1.429650584103638e+001
 1.633885771495591e+000	 1.413898043620276e-001	 1.429200365002870e+001
 1.632426751802406e+000	 1.573428336504320e-001	 1.428130136363149e+001
 1.666659999985417e+000	 0.000000000000000e+000	 1.418083857792017e+001
 1.666585632068675e+000	 1.574392410197842e-002	 1.414891112938025e+001
 1.666361380616284e+000	 3.154765844464056e-002	 1.412754021670228e+001
 1.665985539579266e+000	 4.740937424876035e-002	 1.411475872354352e+001
 1.665456424629847e+000	 6.332719566767057e-002	 1.410855524780004e+001
 1.664772374483535e+000	 7.929919987247770e-002	 1.410687688619561e+001
 1.663931752233472e+000	 9.532341717702640e-002	 1.410763231453372e+001
 1.662932946695863e+000	 1.113978312035495e-001	 1.410869514560070e+001
 1.661774373765276e+000	 1.275203790899053e-001	 1.410790755834815e+001
 1.660454477778524e+000	 1.436889517392707e-001	 1.410308418994462e+001
 1.658971732885789e+000	 1.599013941131163e-001	 1.409201628020107e+001
 1.693327999987733e+000	 0.000000000000000e+000	 1.400981102598933e+001
 1.693252442120022e+000	 1.599584049120630e-002	 1.397492963899377e+001
 1.693024602450508e+000	 3.205244823840814e-002	 1.395139617749637e+001
 1.692642747631973e+000	 4.816796520035906e-002	 1.393713798236151e+001
 1.692105166385958e+000	 6.434048551525225e-002	 1.393003492417046e+001
 1.691410170846005e+000	 8.056805558729877e-002	 1.392792247664788e+001
 1.690556097913347e+000	 9.684867421369173e-002	 1.392859511664207e+001
 1.689541310623874e+000	 1.131802927529067e-001	 1.392981003208897e+001
 1.688364199525119e+000	 1.295608153352550e-001	 1.392929113093286e+001
 1.687023184061957e+000	 1.459880991165722e-001	 1.392473334172191e+001
 1.685516713969673e+000	 1.624599545758813e-001	 1.391380719428470e+001
 1.719995999990450e+000	 0.000000000000000e+000	 1.383733023184985e+001
 1.719919252171772e+000	 1.624775688038337e-002	 1.380097686366773e+001
 1.719687824285143e+000	 3.255723803208991e-002	 1.377666022015605e+001
 1.719299955685101e+000	 4.892655615185122e-002	 1.376220573684151e+001
 1.718753908142506e+000	 6.535377536271933e-002	 1.375538751645437e+001
 1.718047967208927e+000	 8.183691130200831e-002	 1.375393169194930e+001
 1.717180443593690e+000	 9.837393125025810e-002	 1.375552014965076e+001
 1.716149674552369e+000	 1.149627543021854e-001	 1.375779459344709e+001
 1.714954025285460e+000	 1.316012515805530e-001	 1.375836094234882e+001
 1.713591890345899e+000	 1.482872464938531e-001	 1.375479405123360e+001
 1.712061695054074e+000	 1.650185150386594e-001	 1.374464274204741e+001
 1.746663999993467e+000	 0.000000000000000e+000	 1.366009966440133e+001
 1.746586062223828e+000	 1.649967326945873e-002	 1.362393969842005e+001
 1.746351046120097e+000	 3.306202782559937e-002	 1.360039764626319e+001
 1.745957163738572e+000	 4.968514710312810e-002	 1.358719997571421e+001
 1.745402649899424e+000	 6.636706520995209e-002	 1.358201725090266e+001
 1.744685763572250e+000	 8.310576701648488e-002	 1.358246778747403e+001
 1.743804789274466e+000	 9.989918828660942e-002	 1.358612170433650e+001
 1.742758038481331e+000	 1.167452158512797e-001	 1.359050535245486e+001
 1.741543851046296e+000	 1.336416878257062e-001	 1.359310611234182e+001
 1.740160596630359e+000	 1.505863938710342e-001	 1.359137754914805e+001
 1.738606676139007e+000	 1.675770755013836e-001	 1.358274491144213e+001
 1.773331999996684e+000	 0.000000000000000e+000	 1.347525914935559e+001
 1.773252872276091e+000	 1.675158965838147e-002	 1.344111418760935e+001
 1.773014267955283e+000	 3.356681761885008e-002	 1.342005717825055e+001
 1.772614371792308e+000	 5.044373805408099e-002	 1.340971786064083e+001
 1.772051391656649e+000	 6.738035505683089e-002	 1.340766475870846e+001
 1.771323559935927e+000	 8.437462273060700e-002	 1.341140913265619e+001
 1.770429134955646e+000	 1.014244453226296e-001	 1.341840936679004e+001
 1.769366402410742e+000	 1.185276774000839e-001	 1.342607577353577e+001
 1.768133676807624e+000	 1.356821240706220e-001	 1.343177580461661e+001
 1.766729302915345e+000	 1.528855412480361e-001	 1.343283965734599e+001
 1.765151657224491e+000	 1.701356359639863e-001	 1.342656626089508e+001
 1.800000000000000e+000	 0.000000000000000e+000	 1.328035254489410e+001
 1.799919682328466e+000	 1.700350604710072e-002	 1.325017465476861e+001
 1.799677489790610e+000	 3.407160741175556e-002	 1.323344148482314e+001
 1.799271579846229e+000	 5.120232900460112e-002	 1.322768758615255e+001
 1.798700133414114e+000	 6.839364490323605e-002	 1.323038020690899e+001
 1.797961356299907e+000	 8.564347844425327e-002	 1.323892354681078e+001
 1.797053480637195e+000	 1.029497023582024e-001	 1.325066349062777e+001
 1.795974766340585e+000	 1.203101389484920e-001	 1.326289280035381e+001
 1.794723502569440e+000	 1.377225603152076e-001	 1.327285675634881e+001
 1.793298009200867e+000	 1.551846886247796e-001	 1.327775923442556e+001
 1.791696638310540e+000	 1.726941964264003e-001	 1.327476920245650e+001
 1.526246827473539e+000	 1.471085918018469e-001	 1.520017559134991e+001
 1.524731751945950e+000	 1.620600636711551e-001	 1.519219254520296e+001
 1.523064182155104e+000	 1.770478260609258e-001	 1.518936733489496e+001
 1.521242805023325e+000	 1.920698052848553e-001	 1.519024582824338e+001
 1.519266339896488e+000	 2.071238878404338e-001	 1.519337200594787e+001
 1.517133539803352e+000	 2.222079208870836e-001	 1.519729086218158e+001
 1.514843192712843e+000	 2.373197127666054e-001	 1.520055137066530e+001
 1.512394122787768e+000	 2.524570335663319e-001	 1.520170950123796e+001
 1.509785191633430e+000	 2.676176157253354e-001	 1.519933127086685e+001
 1.507015299539557e+000	 2.827991546839795e-001	 1.519199581204470e+001
 1.504083386713946e+000	 2.979993095770399e-001	 1.517829844059101e+001
 1.552791808555088e+000	 1.496671522635357e-001	 1.494027162038702e+001
 1.551250382341223e+000	 1.648786649929308e-001	 1.493188117317577e+001
 1.549553809634328e+000	 1.801270994193072e-001	 1.492935279327211e+001
 1.547700754519251e+000	 1.954103457901381e-001	 1.493114330031434e+001
 1.545689914068317e+000	 2.107262538441939e-001	 1.493570974487976e+001
 1.543520019622557e+000	 2.260726332979972e-001	 1.494151268716283e+001
 1.541189838070859e+000	 2.414472543753199e-001	 1.494701954882499e+001
 1.538698173125491e+000	 2.568478483801319e-001	 1.495070802114343e+001
 1.536043866592424e+000	 2.722721083133523e-001	 1.495106951138705e+001
 1.533225799634873e+000	 2.877176895336973e-001	 1.494661260821567e+001
 1.530242894028381e+000	 3.031822104628573e-001	 1.493586654585268e+001
 1.579336789637071e+000	 1.522257127255743e-001	 1.470264481958907e+001
 1.577769012736920e+000	 1.676972663150494e-001	 1.469363680514783e+001
 1.576043437113978e+000	 1.832063727780419e-001	 1.469112066460517e+001
 1.574158704015620e+000	 1.987508862957980e-001	 1.469347172054810e+001
 1.572113488240613e+000	 2.143286198483647e-001	 1.469906764970736e+001
 1.569906499442260e+000	 2.299373457093609e-001	 1.470629215198778e+001
 1.567536483429407e+000	 2.455747959845261e-001	 1.471353870098584e+001
 1.565002223463775e+000	 2.612386631944633e-001	 1.471921435710673e+001
 1.562302541552006e+000	 2.769266009019343e-001	 1.472174362304585e+001
 1.559436299730789e+000	 2.926362243840045e-001	 1.471957232012878e+001
 1.556402401343417e+000	 3.083651113492743e-001	 1.471117146282698e+001
 1.605881770719505e+000	 1.547842731878955e-001	 1.448397224485468e+001
 1.604287643133057e+000	 1.705158676374521e-001	 1.447432286026546e+001
 1.602533064594071e+000	 1.862856461370759e-001	 1.447172064847941e+001
 1.600616653512444e+000	 2.020914268017832e-001	 1.447446591551535e+001
 1.598537062413384e+000	 2.179309858528943e-001	 1.448086343510117e+001
 1.596292979262458e+000	 2.338020581211211e-001	 1.448922652326715e+001
 1.593883128788470e+000	 2.497023375941674e-001	 1.449788120349388e+001
 1.591306273802593e+000	 2.656294780092663e-001	 1.450517044136724e+001
 1.588561216512131e+000	 2.815810934910187e-001	 1.450945842618773e+001
 1.585646799827250e+000	 2.975547592348355e-001	 1.450913487555956e+001
 1.582561908658987e+000	 3.135480122362240e-001	 1.450261933766376e+001
 1.632426751802406e+000	 1.573428336504320e-001	 1.428130136363149e+001
 1.630806273529654e+000	 1.733344689600800e-001	 1.427115490916711e+001
 1.629022692074626e+000	 1.893649194963554e-001	 1.426853689161547e+001
 1.627074603009735e+000	 2.054319673080419e-001	 1.427167802061923e+001
 1.624960636586632e+000	 2.215333518577308e-001	 1.427881556213226e+001
 1.622679459083146e+000	 2.376667705332243e-001	 1.428819783682871e+001
 1.620229774148032e+000	 2.538298792041876e-001	 1.429808881901031e+001
 1.617610324141914e+000	 2.700202928244812e-001	 1.430677281265277e+001
 1.614819891472758e+000	 2.862355860805423e-001	 1.431255917955289e+001
 1.611857299924204e+000	 3.024732940861247e-001	 1.431378709295326e+001
 1.608721415975027e+000	 3.187309131236401e-001	 1.430883028854409e+001
 1.658971732885789e+000	 1.599013941131163e-001	 1.409201628020106e+001
 1.657324903926732e+000	 1.761530702828741e-001	 1.408166813293986e+001
 1.655512319555662e+000	 1.924441928558264e-001	 1.407925665739781e+001
 1.653532552507511e+000	 2.087725078145225e-001	 1.408294733279126e+001
 1.651384210760366e+000	 2.251357178628224e-001	 1.409091424240594e+001
 1.649065938904318e+000	 2.415314829456167e-001	 1.410134501721306e+001
 1.646576419508075e+000	 2.579574208145299e-001	 1.411244589093769e+001
 1.643914374481710e+000	 2.744111076400478e-001	 1.412244684074172e+001
 1.641078566433845e+000	 2.908900786704421e-001	 1.412960678582017e+001
 1.638067800021593e+000	 3.073918289378069e-001	 1.413221881444205e+001
 1.634880923291471e+000	 3.239138140114559e-001	 1.412861540832724e+001
 1.685516713969673e+000	 1.624599545758813e-001	 1.391380719428469e+001
 1.683843534324310e+000	 1.789716716057755e-001	 1.390368790598064e+001
 1.682001947037197e+000	 1.955234662154352e-001	 1.390184201225774e+001
 1.679990502005782e+000	 2.121130483211732e-001	 1.390637307567220e+001
 1.677807784934589e+000	 2.287380838681173e-001	 1.391539525329971e+001
 1.675452418725971e+000	 2.453961953582446e-001	 1.392703871019574e+001
 1.672923064868585e+000	 2.620849624251379e-001	 1.393945515640846e+001
 1.670218424821950e+000	 2.788019224559066e-001	 1.395082347905235e+001
 1.667337241395350e+000	 2.955445712606550e-001	 1.395935543888255e+001
 1.664278300119365e+000	 3.123103637898162e-001	 1.396330139885168e+001
 1.661040430608252e+000	 3.290967148996047e-001	 1.396095605030821e+001
 1.712061695054074e+000	 1.650185150386594e-001	 1.374464274204741e+001
 1.710362164722407e+000	 1.817902729287253e-001	 1.373530316371433e+001
 1.708491574519249e+000	 1.986027395751275e-001	 1.373450420148337e+001
 1.706448451504562e+000	 2.154535888279422e-001	 1.374028976117611e+001
 1.704231359109308e+000	 2.323404498735635e-001	 1.375071625920676e+001
 1.701838898548098e+000	 2.492609077710546e-001	 1.376385853388082e+001
 1.699269710229544e+000	 2.662125040359551e-001	 1.377781589363510e+001
 1.696522475162606e+000	 2.831927372719976e-001	 1.379071827088349e+001
 1.693595916357230e+000	 3.001990638511179e-001	 1.380073244784438e+001
 1.690488800217466e+000	 3.172288986420876e-001	 1.380606831855926e+001
 1.687199937925307e+000	 3.342796157880200e-001	 1.380498514929101e+001
 1.738606676139007e+000	 1.675770755013836e-001	 1.358274491144214e+001
 1.736880795121043e+000	 1.846088742516645e-001	 1.357484225753464e+001
 1.734981202001836e+000	 2.016820129348496e-001	 1.357568042702064e+001
 1.732906401003865e+000	 2.187941293347777e-001	 1.358324486994644e+001
 1.730654933284528e+000	 2.359428158791092e-001	 1.359553537095288e+001
 1.728225378370697e+000	 2.531256201839929e-001	 1.361057248987899e+001
 1.725616355590934e+000	 2.703400456469253e-001	 1.362640415413230e+001
 1.722826525503650e+000	 2.875835520882610e-001	 1.364111236844382e+001
 1.719854591319444e+000	 3.048535564417678e-001	 1.365282000509975e+001
 1.716699300315840e+000	 3.221474334945551e-001	 1.365969763534841e+001
 1.713359445242568e+000	 3.394625166766351e-001	 1.365997036044901e+001
 1.765151657224491e+000	 1.701356359639863e-001	 1.342656626089508e+001
 1.763399425520238e+000	 1.874274755745342e-001	 1.342085103514104e+001
 1.761470829484977e+000	 2.047612862945475e-001	 1.342401277441046e+001
 1.759364350503703e+000	 2.221346698416280e-001	 1.343397860659691e+001
 1.757078507460254e+000	 2.395451818847026e-001	 1.344869170777660e+001
 1.754611858193762e+000	 2.569903325970059e-001	 1.346611830717920e+001
 1.751963000952741e+000	 2.744675872579916e-001	 1.348425486033921e+001
 1.749130575845050e+000	 2.919743669046370e-001	 1.350113535278507e+001
 1.746113266281949e+000	 3.095080490325418e-001	 1.351483869383850e+001
 1.742909800414432e+000	 3.270659683471534e-001	 1.352349615746031e+001
 1.739518952559972e+000	 3.446454175653835e-001	 1.352529882461355e+001
 1.791696638310540e+000	 1.726941964264003e-001	 1.327476920245650e+001
 1.789918055920011e+000	 1.902460768972756e-001	 1.327207291547756e+001
 1.787960456968690e+000	 2.078405596541674e-001	 1.327832906597709e+001
 1.785822300004091e+000	 2.254752103484413e-001	 1.329140551456198e+001
 1.783502081636491e+000	 2.431475478902916e-001	 1.330918775418691e+001
 1.780998338017287e+000	 2.608550450100400e-001	 1.332958651827463e+001
 1.778309646314947e+000	 2.785951288690977e-001	 1.335054557518080e+001
 1.775434626186778e+000	 2.963651817210658e-001	 1.337004966786649e+001
 1.772371941244703e+000	 3.141625416233767e-001	 1.338613255458476e+001
 1.769120300513190e+000	 3.319845031998169e-001	 1.339688510348355e+001
 1.765678459877450e+000	 3.498283184541985e-001	 1.340046339131355e+001
 1.504083386713946e+000	 2.979993095770399e-001	 1.517829844059102e+001
 1.500987958153399e+000	 3.132179871671365e-001	 1.516333288476727e+001
 1.497728465867564e+000	 3.284504932603852e-001	 1.515231098873156e+001
 1.494303978033006e+000	 3.436943779339137e-001	 1.514403707629912e+001
 1.490713607613841e+000	 3.589471580746027e-001	 1.513735195320198e+001
 1.486956513530291e+000	 3.742063182928812e-001	 1.513113562480459e+001
 1.483031901808774e+000	 3.894693118802305e-001	 1.512430987134710e+001
 1.478939026711766e+000	 4.047335618101468e-001	 1.511584065884830e+001
 1.474677191845686e+000	 4.199964617822379e-001	 1.510474036391167e+001
 1.470245751245001e+000	 4.352553773090560e-001	 1.509006979095955e+001
 1.465644110430824e+000	 4.505076468451837e-001	 1.507093996087711e+001
 1.530242894028381e+000	 3.031822104628573e-001	 1.493586654585268e+001
 1.527093628768171e+000	 3.186655762418404e-001	 1.492410709415121e+001
 1.523777446333049e+000	 3.341630110338180e-001	 1.491673319661912e+001
 1.520293398692991e+000	 3.496720223060635e-001	 1.491249874761865e+001
 1.516640583384481e+000	 3.651900837583482e-001	 1.491019858354750e+001
 1.512818144699393e+000	 3.807146362526285e-001	 1.490867152025908e+001
 1.508825274855080e+000	 3.962430887872052e-001	 1.490680323344674e+001
 1.504661215143897e+000	 4.117728195150920e-001	 1.490352895745253e+001
 1.500325257060339e+000	 4.273011768062745e-001	 1.489783597806279e+001
 1.495816743404018e+000	 4.428254803534433e-001	 1.488876589514198e+001
 1.491135069356658e+000	 4.583430223207199e-001	 1.487541663144210e+001
 1.556402401343417e+000	 3.083651113492743e-001	 1.471117146282698e+001
 1.553199299383525e+000	 3.241131653171373e-001	 1.470197837490835e+001
 1.549826426799085e+000	 3.398755288078223e-001	 1.469755700332388e+001
 1.546282819353484e+000	 3.556496666787523e-001	 1.469661638356902e+001
 1.542567559155575e+000	 3.714330094425919e-001	 1.469791140291496e+001
 1.538679775868886e+000	 3.872229542128295e-001	 1.470024617974066e+001
 1.534618647901714e+000	 4.030168656945872e-001	 1.470247726986651e+001
 1.530383403576289e+000	 4.188120772204010e-001	 1.470351667244061e+001
 1.525973322275190e+000	 4.346058918306374e-001	 1.470233460801811e+001
 1.521387735563173e+000	 4.503955833981296e-001	 1.469796204177188e+001
 1.516626028282580e+000	 4.661783977965402e-001	 1.468949292528780e+001
 1.582561908658987e+000	 3.135480122362240e-001	 1.450261933766376e+001
 1.579304969999390e+000	 3.295607543929612e-001	 1.449549619176212e+001
 1.575875407265591e+000	 3.455880465823346e-001	 1.449347837045786e+001
 1.572272240014396e+000	 3.616273110519195e-001	 1.449523471922544e+001
 1.568494534927030e+000	 3.776759351272775e-001	 1.449948530293356e+001
 1.564541407038679e+000	 3.937312721734312e-001	 1.450500515254907e+001
 1.560412020948581e+000	 4.097906426023273e-001	 1.451062782146609e+001
 1.556105592008850e+000	 4.258513349260275e-001	 1.451524872084495e+001
 1.551621387490148e+000	 4.419106068552816e-001	 1.451782820342172e+001
 1.546958727722380e+000	 4.579656864430683e-001	 1.451739436555364e+001
 1.542116987208505e+000	 4.740137732725954e-001	 1.451304553781369e+001
 1.608721415975027e+000	 3.187309131236401e-001	 1.430883028854409e+001
 1.605410640615688e+000	 3.350083434692462e-001	 1.430341123918161e+001
 1.601924387732486e+000	 3.513005643572913e-001	 1.430338146700223e+001
 1.598261660675640e+000	 3.676049554255052e-001	 1.430737339302639e+001
 1.594421510698755e+000	 3.839188608123485e-001	 1.431407649265348e+001
 1.590403038208676e+000	 4.002395901343809e-001	 1.432224143858963e+001
 1.586205393995587e+000	 4.165644195103766e-001	 1.433068403459197e+001
 1.581827780441484e+000	 4.328905926319244e-001	 1.433828890597341e+001
 1.577269452705119e+000	 4.492153218801608e-001	 1.434401291287037e+001
 1.572529719881547e+000	 4.655357894882130e-001	 1.434688825259003e+001
 1.567607946134350e+000	 4.818491487488354e-001	 1.434602521793097e+001
 1.634880923291471e+000	 3.239138140114559e-001	 1.412861540832724e+001
 1.631516311232345e+000	 3.404559325459265e-001	 1.412465328840562e+001
 1.627973368199684e+000	 3.570130821326286e-001	 1.412631736845060e+001
 1.624251081337129e+000	 3.735825997994487e-001	 1.413220650242436e+001
 1.620348486470660e+000	 3.901617864977486e-001	 1.414098291172922e+001
 1.616264669378785e+000	 4.067479080956263e-001	 1.415137675674645e+001
 1.611998767042638e+000	 4.233381964186860e-001	 1.416219047893156e+001
 1.607549968874099e+000	 4.399298503380456e-001	 1.417230287567499e+001
 1.602917517920016e+000	 4.565200369052302e-001	 1.418067287017606e+001
 1.598100712040590e+000	 4.731058925335174e-001	 1.418634293889850e+001
 1.593098905060033e+000	 4.896845242252110e-001	 1.418844215978702e+001
 1.661040430608252e+000	 3.290967148996047e-001	 1.396095605030821e+001
 1.657621981849287e+000	 3.459035216229360e-001	 1.395831124238654e+001
 1.654022348667107e+000	 3.627255999082827e-001	 1.396148488715286e+001
 1.650240501998774e+000	 3.795602441736897e-001	 1.396904421271367e+001
 1.646275462242652e+000	 3.964047121834209e-001	 1.397962661767739e+001
 1.642126300548912e+000	 4.132562260571145e-001	 1.399194470737686e+001
 1.637792140089639e+000	 4.301119733272061e-001	 1.400479107891554e+001
 1.633272157306602e+000	 4.469691080443441e-001	 1.401704281319700e+001
 1.628565583134742e+000	 4.638247519304442e-001	 1.402766563211381e+001
 1.623671704199419e+000	 4.806759955789353e-001	 1.403571767939706e+001
 1.618589863985467e+000	 4.975198997016720e-001	 1.404035288427409e+001
 1.687199937925307e+000	 3.342796157880200e-001	 1.380498514929101e+001
 1.683727652466438e+000	 3.513511107002090e-001	 1.380361515901865e+001
 1.680071329134671e+000	 3.684381176841904e-001	 1.380821330255156e+001
 1.676229922660488e+000	 3.855378885481679e-001	 1.381731619619461e+001
 1.672202438014640e+000	 4.026476378693090e-001	 1.382953793295257e+001
 1.667987931718963e+000	 4.197645440187934e-001	 1.384357562334790e+001
 1.663585513136496e+000	 4.368857502358879e-001	 1.385821466183490e+001
 1.658994345738899e+000	 4.540083657507736e-001	 1.387233367258493e+001
 1.654213648349210e+000	 4.711294669557572e-001	 1.388490908840823e+001
 1.649242696357944e+000	 4.882460986244200e-001	 1.389501931690565e+001
 1.644080822910571e+000	 5.053552751781691e-001	 1.390184844862583e+001
 1.713359445242568e+000	 3.394625166766351e-001	 1.365997036044901e+001
 1.709833323083724e+000	 3.567986997776795e-001	 1.365992003228603e+001
 1.706120309602293e+000	 3.741506354602879e-001	 1.366594678825369e+001
 1.702219343322184e+000	 3.915155329228228e-001	 1.367655670605144e+001
 1.698129413786532e+000	 4.088905635553564e-001	 1.369034116375603e+001
 1.693849562888844e+000	 4.262728619806097e-001	 1.370598292914653e+001
 1.689378886183114e+000	 4.436595271446825e-001	 1.372226194987919e+001
 1.684716534170896e+000	 4.610476234572876e-001	 1.373806079354566e+001
 1.679861713563326e+000	 4.784341819811238e-001	 1.375236968660741e+001
 1.674813688516081e+000	 4.958162016699257e-001	 1.376429110152951e+001
 1.669571781835260e+000	 5.131906506546526e-001	 1.377304384215434e+001
 1.739518952559972e+000	 3.446454175653835e-001	 1.352529882461355e+001
 1.735938993701071e+000	 3.622462888552817e-001	 1.352669114627366e+001
 1.732169290069892e+000	 3.798631532365110e-001	 1.353423035731282e+001
 1.728208763983774e+000	 3.974931772975942e-001	 1.354639111285679e+001
 1.724056389558237e+000	 4.151334892415066e-001	 1.356174172511843e+001
 1.719711194058461e+000	 4.327811799425113e-001	 1.357895084930633e+001
 1.715172259229400e+000	 4.504333040535404e-001	 1.359679384409323e+001
 1.710438722602501e+000	 4.680868811638395e-001	 1.361415875055572e+001
 1.705509778777000e+000	 4.857388970064985e-001	 1.363005183342197e+001
 1.700384680673739e+000	 5.033863047154056e-001	 1.364360262879342e+001
 1.695062740759450e+000	 5.210260261310729e-001	 1.365406844325886e+001
 1.765678459877450e+000	 3.498283184541985e-001	 1.340046339131355e+001
 1.762044664318403e+000	 3.676938779329496e-001	 1.340349083891875e+001
 1.758218270537386e+000	 3.855756710127969e-001	 1.341269716826519e+001
 1.754198184645169e+000	 4.034708216724215e-001	 1.342652375201182e+001
 1.749983365329663e+000	 4.213764149277031e-001	 1.344351452641078e+001
 1.745572825227723e+000	 4.392894979044454e-001	 1.346232332621147e+001
 1.740965632275259e+000	 4.572070809624127e-001	 1.348172086626393e+001
 1.736160911033618e+000	 4.751261388703825e-001	 1.350060130820723e+001
 1.731157843990140e+000	 4.930436120318356e-001	 1.351798835051529e+001
 1.725955672830830e+000	 5.109564077608136e-001	 1.353304078049710e+001
 1.720553699683057e+000	 5.288614016073797e-001	 1.354505742763747e+001
 1.465644110430824e+000	 4.505076468451837e-001	 1.507093996087711e+001
 1.460871727075660e+000	 4.657505827348306e-001	 1.504985889201949e+001
 1.455928110904371e+000	 4.809814717320294e-001	 1.502948714663364e+001
 1.450812825763512e+000	 4.961975768838239e-001	 1.500924349827747e+001
 1.445525490928912e+000	 5.113961390398313e-001	 1.498860067089823e+001
 1.440065782013028e+000	 5.265743781829089e-001	 1.496708529222161e+001
 1.434433431836373e+000	 5.417294947976459e-001	 1.494427750274267e+001
 1.428628231261313e+000	 5.568586712756410e-001	 1.491981020835032e+001
 1.422650029986620e+000	 5.719590733564495e-001	 1.489336796659406e+001
 1.416498737301121e+000	 5.870278516030030e-001	 1.486468549875024e+001
 1.410174322794896e+000	 6.020621429102250e-001	 1.483354582215070e+001
 1.491135069356658e+000	 4.583430223207199e-001	 1.487541663144210e+001
 1.486279683158418e+000	 4.738510683077294e-001	 1.486027616698193e+001
 1.481250086007147e+000	 4.893468578788444e-001	 1.484597126165755e+001
 1.476045834163695e+000	 5.048276064791276e-001	 1.483189411342788e+001
 1.470666540282229e+000	 5.202905069701495e-001	 1.481749422102993e+001
 1.465111874333372e+000	 5.357327309837993e-001	 1.480227838121718e+001
 1.459381564490777e+000	 5.511514303145783e-001	 1.478581030777726e+001
 1.453475397979445e+000	 5.665437383493174e-001	 1.476770985863848e+001
 1.447393221884075e+000	 5.819067715331873e-001	 1.474765185954201e+001
 1.441134943915833e+000	 5.972376308707768e-001	 1.472536451511043e+001
 1.434700533135920e+000	 6.125334034609495e-001	 1.470062740067805e+001
 1.516626028282580e+000	 4.661783977965402e-001	 1.468949292528780e+001
 1.511687639241224e+000	 4.819515538809139e-001	 1.467934861804036e+001
 1.506572061109939e+000	 4.977122440259598e-001	 1.467007927091135e+001
 1.501278842563869e+000	 5.134576360747547e-001	 1.466106639737269e+001
 1.495807589635517e+000	 5.291848749008191e-001	 1.465175306275065e+001
 1.490157966653669e+000	 5.448910837850698e-001	 1.464164392014502e+001
 1.484329697145122e+000	 5.605733658319159e-001	 1.463030483008349e+001
 1.478322564697501e+000	 5.762288054234166e-001	 1.461736204831899e+001
 1.472136413781435e+000	 5.918544697103531e-001	 1.460250096855048e+001
 1.465771150530427e+000	 6.074474101389680e-001	 1.458546440942851e+001
 1.459226743476797e+000	 6.230046640120598e-001	 1.456605043799147e+001
 1.542116987208505e+000	 4.740137732725954e-001	 1.451304553781369e+001
 1.537095595323997e+000	 4.900520394543282e-001	 1.450709533720036e+001
 1.531894036212673e+000	 5.060776301733111e-001	 1.450197984670884e+001
 1.526511850963969e+000	 5.220876656706314e-001	 1.449708488046237e+001
 1.520948638988720e+000	 5.380792428317555e-001	 1.449186298142663e+001
 1.515204058973875e+000	 5.540494365866256e-001	 1.448583349316355e+001
 1.509277829799371e+000	 5.699953013495547e-001	 1.447858217287527e+001
 1.503169731415458e+000	 5.859138724978268e-001	 1.446976032804796e+001
 1.496879605678688e+000	 6.018021678878297e-001	 1.445908346159925e+001
 1.490407357144906e+000	 6.176571894074572e-001	 1.444632941326555e+001
 1.483752953817541e+000	 6.334759245634387e-001	 1.443133598801768e+001
 1.567607946134350e+000	 4.818491487488354e-001	 1.434602521793097e+001
 1.562503551406660e+000	 4.981525250279171e-001	 1.434359363006404e+001
 1.557216011315279e+000	 5.144430163208340e-001	 1.434188301301740e+001
 1.551744859363929e+000	 5.307176952666832e-001	 1.434029759215502e+001
 1.546089688341783e+000	 5.469736107628745e-001	 1.433831445307302e+001
 1.540250151293942e+000	 5.632077893883718e-001	 1.433548364874589e+001
 1.534225962453488e+000	 5.794172368673900e-001	 1.433142780092727e+001
 1.528016898133288e+000	 5.955989395724354e-001	 1.432584117580091e+001
 1.521622797575823e+000	 6.117498660655001e-001	 1.431848821671648e+001
 1.515043563759269e+000	 6.278669686761254e-001	 1.430920151994543e+001
 1.508279164158169e+000	 6.439471851149696e-001	 1.429787924274054e+001
 1.593098905060033e+000	 4.896845242252110e-001	 1.418844215978702e+001
 1.587911507489136e+000	 5.062530106016241e-001	 1.418896521074416e+001
 1.582537986417684e+000	 5.228084024684645e-001	 1.419002718185140e+001
 1.576977867763687e+000	 5.393477248628366e-001	 1.419106397280097e+001
 1.571230737694647e+000	 5.558679786940914e-001	 1.419159146104497e+001
 1.565296243613825e+000	 5.723661421902139e-001	 1.419120564638410e+001
 1.559174095107435e+000	 5.888391723853176e-001	 1.418958223798236e+001
 1.552864064850969e+000	 6.052840066471303e-001	 1.418647566125753e+001
 1.546365989472827e+000	 6.216975642432467e-001	 1.418171746520082e+001
 1.539679770373518e+000	 6.380767479448533e-001	 1.417521411407196e+001
 1.532805374498695e+000	 6.544184456665354e-001	 1.416694415108226e+001
 1.618589863985467e+000	 4.975198997016720e-001	 1.404035288427409e+001
 1.613319463571345e+000	 5.143534961753936e-001	 1.404336380339961e+001
 1.607859961519817e+000	 5.311737886161386e-001	 1.404666750790970e+001
 1.602210876163177e+000	 5.479777544590171e-001	 1.404974401043680e+001
 1.596371787047260e+000	 5.647623466253220e-001	 1.405216144001194e+001
 1.590342335933476e+000	 5.815244949920563e-001	 1.405357622873077e+001
 1.584122227761178e+000	 5.982611079032335e-001	 1.405373268401163e+001
 1.577711231568475e+000	 6.149690737218001e-001	 1.405246192109905e+001
 1.571109181369688e+000	 6.316452624209524e-001	 1.404968013385610e+001
 1.564315976987654e+000	 6.482865272135218e-001	 1.404538618559547e+001
 1.557331584839137e+000	 6.648897062180198e-001	 1.403965850571295e+001
 1.644080822910571e+000	 5.053552751781691e-001	 1.390184844862583e+001
 1.638727419653209e+000	 5.224539817491696e-001	 1.390696399772089e+001
 1.633181936621605e+000	 5.395391747637919e-001	 1.391206541837638e+001
 1.627443884562336e+000	 5.566077840551512e-001	 1.391668846962655e+001
 1.621512836399563e+000	 5.736567145564816e-001	 1.392046622485876e+001
 1.615388428252850e+000	 5.906828477938049e-001	 1.392312930787485e+001
 1.609070360414681e+000	 6.076830434210331e-001	 1.392450545248134e+001
 1.602558398285783e+000	 6.246541407963322e-001	 1.392451835719683e+001
 1.595852373266393e+000	 6.415929605984999e-001	 1.392318581036018e+001
 1.588952183601679e+000	 6.584963064820117e-001	 1.392061706497234e+001
 1.581857795179509e+000	 6.753609667693055e-001	 1.391714403092415e+001
 1.669571781835260e+000	 5.131906506546526e-001	 1.377304384215434e+001
 1.664135375734650e+000	 5.305544673228969e-001	 1.377995122434173e+001
 1.658503911722976e+000	 5.479045609113603e-001	 1.378647919228142e+001
 1.652676892961098e+000	 5.652378136511652e-001	 1.379223009562923e+001
 1.646653885751501e+000	 5.825510824874859e-001	 1.379691389710299e+001
 1.640434520571898e+000	 5.998412005953645e-001	 1.380034846804370e+001
 1.634018493067907e+000	 6.171049789386121e-001	 1.380245913997892e+001
 1.627405565002866e+000	 6.343392078706147e-001	 1.380327748042099e+001
 1.620595565162932e+000	 6.515406587757719e-001	 1.380293926515845e+001
 1.613588390215593e+000	 6.687060857502039e-001	 1.380168965586896e+001
 1.606384005519828e+000	 6.858322273202755e-001	 1.380042984964701e+001
 1.695062740759450e+000	 5.210260261310729e-001	 1.365406844325886e+001
 1.689543331815590e+000	 5.386549528965192e-001	 1.366251273227756e+001
 1.683825886823860e+000	 5.562699470587799e-001	 1.367015547892852e+001
 1.677909901359400e+000	 5.738678432469843e-001	 1.367667569121375e+001
 1.671794935103017e+000	 5.914454504182500e-001	 1.368187143434004e+001
 1.665480612890576e+000	 6.089995533966403e-001	 1.368566019877905e+001
 1.658966625720819e+000	 6.265269144558662e-001	 1.368807845109360e+001
 1.652252731719701e+000	 6.440242749445355e-001	 1.368928033209647e+001
 1.645338757059289e+000	 6.614883569526509e-001	 1.368953547128632e+001
 1.638224596829399e+000	 6.789158650179793e-001	 1.368950518507298e+001
 1.630910215860108e+000	 6.963034878708130e-001	 1.369014256326839e+001
 1.720553699683057e+000	 5.288614016073797e-001	 1.354505742763747e+001
 1.714951287895950e+000	 5.467554384699808e-001	 1.355482946446609e+001
 1.709147861924183e+000	 5.646353332059860e-001	 1.356332165799439e+001
 1.703142909757176e+000	 5.824978728425351e-001	 1.357029897561356e+001
 1.696935984454057e+000	 6.003398183486900e-001	 1.357565807942812e+001
 1.690526705208835e+000	 6.181579061975373e-001	 1.357942778282188e+001
 1.683914758373382e+000	 6.359488499726911e-001	 1.358176861058812e+001
 1.677099898436262e+000	 6.537093420179821e-001	 1.358297142318928e+001
 1.670081948955454e+000	 6.714360551290194e-001	 1.358350424867409e+001
 1.662860803443095e+000	 6.891256442852184e-001	 1.358466920513603e+001
 1.655436426200365e+000	 7.067747484208016e-001	 1.358681953616017e+001
 1.410174322794896e+000	 6.020621429102250e-001	 1.483354582215070e+001
 1.403677804762223e+000	 6.170568256895567e-001	 1.479982806165826e+001
 1.397008340587419e+000	 6.320112737763581e-001	 1.476347526155658e+001
 1.390166085595247e+000	 6.469225945203407e-001	 1.472444152654201e+001
 1.383151257758930e+000	 6.617878879772692e-001	 1.468271226494381e+001
 1.375964138175143e+000	 6.766042485600979e-001	 1.463863399124178e+001
 1.368605071488112e+000	 6.913687667140008e-001	 1.459321844392964e+001
 1.361074466261639e+000	 7.060785306134997e-001	 1.454641849157058e+001
 1.353372795297910e+000	 7.207306278798588e-001	 1.449816593838220e+001
 1.345500595902038e+000	 7.353221473168310e-001	 1.444845751365053e+001
 1.337458470091355e+000	 7.498501806627994e-001	 1.439735468157546e+001
 1.434700533135920e+000	 6.125334034609495e-001	 1.470062740067805e+001
 1.428091025549134e+000	 6.277888786388084e-001	 1.467320861897663e+001
 1.421305563884740e+000	 6.430034193492565e-001	 1.464296306135331e+001
 1.414344306168952e+000	 6.581740826320957e-001	 1.460987653437227e+001
 1.407207474166046e+000	 6.732979181063205e-001	 1.457409682075410e+001
 1.399895353861613e+000	 6.883719696499761e-001	 1.453658185488055e+001
 1.392408295894034e+000	 7.033932771043159e-001	 1.449737040811387e+001
 1.384746715932977e+000	 7.183588780004508e-001	 1.445633724023908e+001
 1.376911095003749e+000	 7.332658093066115e-001	 1.441342351445504e+001
 1.368901979756440e+000	 7.481111091940828e-001	 1.436863666453538e+001
 1.360719982678853e+000	 7.628918188198210e-001	 1.432205011823244e+001
 1.459226743476797e+000	 6.230046640120598e-001	 1.456605043799147e+001
 1.452504246335858e+000	 6.385209315883906e-001	 1.454392574173543e+001
 1.445602787181828e+000	 6.539955649224104e-001	 1.451885639745177e+001
 1.438522526742372e+000	 6.694255707440153e-001	 1.449088744698724e+001
 1.431263690572821e+000	 6.848079482354361e-001	 1.446080666529336e+001
 1.423826569547684e+000	 7.001396907398114e-001	 1.442883272164746e+001
 1.416211520299499e+000	 7.154177874944814e-001	 1.439478639043727e+001
 1.408418965603801e+000	 7.306392253871504e-001	 1.435855637175707e+001
 1.400449394709020e+000	 7.458009907330195e-001	 1.432009921282505e+001
 1.392303363610223e+000	 7.609000710709124e-001	 1.427943908208580e+001
 1.383981495265687e+000	 7.759334569763623e-001	 1.423666739633439e+001
 1.483752953817541e+000	 6.334759245634387e-001	 1.443133598801768e+001
 1.476917467122426e+000	 6.492529845381935e-001	 1.441367517514289e+001
 1.469900010478731e+000	 6.649877104957208e-001	 1.439302129671500e+001
 1.462700747315572e+000	 6.806770588560147e-001	 1.436986726114863e+001
 1.455319906979338e+000	 6.963179783645463e-001	 1.434471638371862e+001
 1.447757785233454e+000	 7.119074118295533e-001	 1.431734545619587e+001
 1.440014744704620e+000	 7.274422978844636e-001	 1.428759369591800e+001
 1.432091215274239e+000	 7.429195727735806e-001	 1.425536980136802e+001
 1.423987694413863e+000	 7.583361721590806e-001	 1.422065177413142e+001
 1.415704747463540e+000	 7.736890329473285e-001	 1.418348659006616e+001
 1.407243007852023e+000	 7.889750951324396e-001	 1.414398972029307e+001
 1.508279164158169e+000	 6.439471851149696e-001	 1.429787924274054e+001
 1.501330687908871e+000	 6.599850374881072e-001	 1.428400271014238e+001
 1.494197233775495e+000	 6.759798560690888e-001	 1.426732248097069e+001
 1.486878967888615e+000	 6.919285469680097e-001	 1.424853672225080e+001
 1.479376123385674e+000	 7.078280084935836e-001	 1.422747113724315e+001
 1.471689000919019e+000	 7.236751329191492e-001	 1.420391828845042e+001
 1.463817969109509e+000	 7.394668082742285e-001	 1.417774192691076e+001
 1.455763464944417e+000	 7.551999201597240e-001	 1.414887685953930e+001
 1.447525994118421e+000	 7.708713535847911e-001	 1.411732866170745e+001
 1.439106131316547e+000	 7.864779948233394e-001	 1.408317323558180e+001
 1.430504520438026e+000	 8.020167332880692e-001	 1.404655621511977e+001
 1.532805374498695e+000	 6.544184456665354e-001	 1.416694415108226e+001
 1.525743908695221e+000	 6.707170904380223e-001	 1.415633160787559e+001
 1.518494457072168e+000	 6.869720016424157e-001	 1.414342982521776e+001
 1.511057188461564e+000	 7.031800350799156e-001	 1.412826156611780e+001
 1.503432339791911e+000	 7.193380386224789e-001	 1.411057538479906e+001
 1.495620216604477e+000	 7.354428540085495e-001	 1.409019281996177e+001
 1.487621193514281e+000	 7.514913186637426e-001	 1.406700830543794e+001
 1.479435714614465e+000	 7.674802675455639e-001	 1.404098892192055e+001
 1.471064293822835e+000	 7.834065350101486e-001	 1.401217399021297e+001
 1.462507515169399e+000	 7.992669566989542e-001	 1.398067450682356e+001
 1.453766033023863e+000	 8.150583714432672e-001	 1.394667242310764e+001
 1.557331584839137e+000	 6.648897062180198e-001	 1.403965850571295e+001
 1.550157129481510e+000	 6.814491433878283e-001	 1.403216359151464e+001
 1.542791680368797e+000	 6.979641472156025e-001	 1.402246768944156e+001
 1.535235409034484e+000	 7.144315231916468e-001	 1.401028439291484e+001
 1.527488556198130e+000	 7.308480687511643e-001	 1.399539556846761e+001
 1.519551432289924e+000	 7.472105750977020e-001	 1.397765791837255e+001
 1.511424417919046e+000	 7.635158290529712e-001	 1.395700276966252e+001
 1.503107964284511e+000	 7.797606149310816e-001	 1.393343570023086e+001
 1.494602593527249e+000	 7.959417164351500e-001	 1.390703600277458e+001
 1.485908899022250e+000	 8.120559185741813e-001	 1.387795598772557e+001
 1.477027545609700e+000	 8.281000095980499e-001	 1.384642012669420e+001
 1.581857795179509e+000	 6.753609667693055e-001	 1.391714403092415e+001
 1.574570350267766e+000	 6.921811963374154e-001	 1.391249981491737e+001
 1.567088903665430e+000	 7.089562927885509e-001	 1.390544571481786e+001
 1.559413629607439e+000	 7.256830113031196e-001	 1.389572624243082e+001
 1.551544772604411e+000	 7.423580988795705e-001	 1.388316280141150e+001
 1.543482647975456e+000	 7.589782961865553e-001	 1.386765351214126e+001
 1.535227642323919e+000	 7.755403394418812e-001	 1.384917286901868e+001
 1.526780213954683e+000	 7.920409623162604e-001	 1.382777123087882e+001
 1.518140893231805e+000	 8.084768978597926e-001	 1.380357414563906e+001
 1.509310282875257e+000	 8.248448804490292e-001	 1.377678151065356e+001
 1.500289058195703e+000	 8.411416477524337e-001	 1.374766657063930e+001
 1.606384005519828e+000	 6.858322273202755e-001	 1.380042984964701e+001
 1.598983571054024e+000	 7.029132492866742e-001	 1.379814317944233e+001
 1.591386126962114e+000	 7.199484383611617e-001	 1.379326655009255e+001
 1.583591850180492e+000	 7.369344994142486e-001	 1.378558826346425e+001
 1.575600989010834e+000	 7.538681290076297e-001	 1.377497555804534e+001
 1.567413863661173e+000	 7.707460172750590e-001	 1.376137429618694e+001
 1.559030866729012e+000	 7.875648498304381e-001	 1.374480847952157e+001
 1.550452463625108e+000	 8.043213097010831e-001	 1.372537959362293e+001
 1.541679192936645e+000	 8.210120792840731e-001	 1.370326578335911e+001
 1.532711666728574e+000	 8.376338423235071e-001	 1.367872086077521e+001
 1.523550570782039e+000	 8.541832859064347e-001	 1.365207314772069e+001
 1.630910215860108e+000	 6.963034878708130e-001	 1.369014256326839e+001
 1.623396791840312e+000	 7.136453022354944e-001	 1.368980250480373e+001
 1.615683350258895e+000	 7.309405839333361e-001	 1.368672666222637e+001
 1.607770070753706e+000	 7.481859875249498e-001	 1.368075346740863e+001
 1.599657205417480e+000	 7.653781591352731e-001	 1.367180236621053e+001
 1.591345079347169e+000	 7.825137383631613e-001	 1.365987335783470e+001
 1.582834091134438e+000	 7.995893602186086e-001	 1.364504635818924e+001
 1.574124713295916e+000	 8.166016570855321e-001	 1.362748038869428e+001
 1.565217492641910e+000	 8.335472607079891e-001	 1.360741259235544e+001
 1.556113050582356e+000	 8.504228041976230e-001	 1.358515707930956e+001
 1.546812083368873e+000	 8.672249240600691e-001	 1.356110360442509e+001
 1.655436426200365e+000	 7.067747484208016e-001	 1.358681953616017e+001
 1.647810012626662e+000	 7.243773551837668e-001	 1.358809261692873e+001
 1.639980573555821e+000	 7.419327295049750e-001	 1.358651729659813e+001
 1.631948291327146e+000	 7.594374756351380e-001	 1.358198855730782e+001
 1.623713421824428e+000	 7.768881892624319e-001	 1.357448450114984e+001
 1.615276295033542e+000	 7.942814594508109e-001	 1.356406573133005e+001
 1.606637315540310e+000	 8.116138706063586e-001	 1.355087455326410e+001
 1.597796962967233e+000	 8.288820044695902e-001	 1.353513399743358e+001
 1.588755792347744e+000	 8.460824421315375e-001	 1.351714666621310e+001
 1.579514434436757e+000	 8.632117660713861e-001	 1.349729340725842e+001
 1.570073595956371e+000	 8.802665622133532e-001	 1.347603181641896e+001
 1.337458470091355e+000	 7.498501806627994e-001	 1.439735468157546e+001
 1.329245840436585e+000	 7.643139888338926e-001	 1.434305059711845e+001
 1.320864633725284e+000	 7.787084898909862e-001	 1.428368003135585e+001
 1.312315648248289e+000	 7.930307945938000e-001	 1.421959747432084e+001
 1.303599747304523e+000	 8.072780238044296e-001	 1.415127596466424e+001
 1.294717859120680e+000	 8.214473102909055e-001	 1.407925423361960e+001
 1.285670976711510e+000	 8.355358005343189e-001	 1.400413495956120e+001
 1.276460157680332e+000	 8.495406565372459e-001	 1.392658278923917e+001
 1.267086523959525e+000	 8.634590576311914e-001	 1.384732212870346e+001
 1.257551261490825e+000	 8.772882022807456e-001	 1.376713470814053e+001
 1.247855619845356e+000	 8.910253098821287e-001	 1.368685692607499e+001
 1.360719982678853e+000	 7.628918188198210e-001	 1.432205011823244e+001
 1.352364516298867e+000	 7.776071862455712e-001	 1.427198909004799e+001
 1.343837540915352e+000	 7.922520411454747e-001	 1.421702942034618e+001
 1.335139868703277e+000	 8.068234440286460e-001	 1.415770141959827e+001
 1.326272377976344e+000	 8.213184656822814e-001	 1.409438015137636e+001
 1.317236013105266e+000	 8.357341890065823e-001	 1.402717081157013e+001
 1.308031784375627e+000	 8.500677108533143e-001	 1.395663476403330e+001
 1.298660767784928e+000	 8.643161438656809e-001	 1.388341121287646e+001
 1.289124104778561e+000	 8.784766183172065e-001	 1.380820035347533e+001
 1.279423001924546e+000	 8.925462839472684e-001	 1.373176085636057e+001
 1.269558730526954e+000	 9.065223117909245e-001	 1.365490711650053e+001
 1.383981495265687e+000	 7.759334569763623e-001	 1.423666739633440e+001
 1.375483192160448e+000	 7.909003836567357e-001	 1.419018582508904e+001
 1.366810448104691e+000	 8.057955923994367e-001	 1.413861593568291e+001
 1.357964089157520e+000	 8.206160934629746e-001	 1.408246270821966e+001
 1.348945008647412e+000	 8.353589075596424e-001	 1.402230118441085e+001
 1.339754167089103e+000	 8.500210677218110e-001	 1.395877511827797e+001
 1.330392592039014e+000	 8.645996211719169e-001	 1.389254938047507e+001
 1.320861377888823e+000	 8.790916311937900e-001	 1.382366188075119e+001
 1.311161685596942e+000	 8.934941790029705e-001	 1.375256557389847e+001
 1.301294742357671e+000	 9.078043656136207e-001	 1.367999102529728e+001
 1.291261841208033e+000	 9.220193136996339e-001	 1.360672562554564e+001
 1.407243007852023e+000	 7.889750951324396e-001	 1.414398972029307e+001
 1.398601868021504e+000	 8.041935810674046e-001	 1.410063488370625e+001
 1.389783355293484e+000	 8.193391436528905e-001	 1.405207900907033e+001
 1.380788309611204e+000	 8.344087428967986e-001	 1.399879847266674e+001
 1.371617639317917e+000	 8.493993494365167e-001	 1.394133979032437e+001
 1.362272321072382e+000	 8.643079464365847e-001	 1.388031823971191e+001
 1.352753399701855e+000	 8.791315314901063e-001	 1.381641633485924e+001
 1.343061987992202e+000	 8.938671185215376e-001	 1.375038215631610e+001
 1.333199266414842e+000	 9.085117396884321e-001	 1.368302747746782e+001
 1.323166482790366e+000	 9.230624472797356e-001	 1.361456669274373e+001
 1.312964951888744e+000	 9.375163156081748e-001	 1.354518005180615e+001
 1.430504520438026e+000	 8.020167332880692e-001	 1.404655621511977e+001
 1.421720543882209e+000	 8.174867784775972e-001	 1.400601672130372e+001
 1.412756262481913e+000	 8.328826949058533e-001	 1.396023468053988e+001
 1.403612530064516e+000	 8.482013923301294e-001	 1.390965506541682e+001
 1.394290269988049e+000	 8.634397913129078e-001	 1.385479285346002e+001
 1.384790475055292e+000	 8.785948251508937e-001	 1.379623162818677e+001
 1.375114207364341e+000	 8.936634418078613e-001	 1.373462203354358e+001
 1.365262598095244e+000	 9.086426058488873e-001	 1.367068008523087e+001
 1.355236847232435e+000	 9.235293003735394e-001	 1.360518534277955e+001
 1.345038223222794e+000	 9.383205289455460e-001	 1.353897894659571e+001
 1.334668062569236e+000	 9.530133175164640e-001	 1.347296152453366e+001
 1.453766033023863e+000	 8.150583714432672e-001	 1.394667242310764e+001
 1.444839219742738e+000	 8.307799758873320e-001	 1.390876352108660e+001
 1.435729169670161e+000	 8.464262461583425e-001	 1.386563649645707e+001
 1.426436750517643e+000	 8.619940417629792e-001	 1.381770256613439e+001
 1.416962900657996e+000	 8.774802331888187e-001	 1.376544260737902e+001
 1.407308629038023e+000	 8.928817038647322e-001	 1.370940574449214e+001
 1.397475015026657e+000	 9.081953521251606e-001	 1.365020779064110e+001
 1.387463208198132e+000	 9.234180931758037e-001	 1.358852954839505e+001
 1.377274428049897e+000	 9.385468610582417e-001	 1.352511497289959e+001
 1.366909963655117e+000	 9.535786106109838e-001	 1.346076920195927e+001
 1.356371173249661e+000	 9.685103194244188e-001	 1.339635645762953e+001
 1.477027545609700e+000	 8.281000095980499e-001	 1.384642012669420e+001
 1.467957895603269e+000	 8.440731732966296e-001	 1.381107016379903e+001
 1.458702076858409e+000	 8.599697974103761e-001	 1.377058759389790e+001
 1.449260970970773e+000	 8.757866911953606e-001	 1.372534795007929e+001
 1.439635531327949e+000	 8.915206750642536e-001	 1.367579587331267e+001
 1.429826783020763e+000	 9.071685825780912e-001	 1.362244369140720e+001
 1.419835822688992e+000	 9.227272624419833e-001	 1.356586985544451e+001
 1.409663818301048e+000	 9.381935805022509e-001	 1.350671723731959e+001
 1.399312008867401e+000	 9.535644217424867e-001	 1.344569129235883e+001
 1.388781704087501e+000	 9.688366922759821e-001	 1.338355809130932e+001
 1.378074283930169e+000	 9.840073213319565e-001	 1.332114222631427e+001
 1.500289058195703e+000	 8.411416477524337e-001	 1.374766657063930e+001
 1.491076571463974e+000	 8.573663707055079e-001	 1.371490449992707e+001
 1.481674984046840e+000	 8.735133486619712e-001	 1.367715199349506e+001
 1.472085191424092e+000	 8.895793406272855e-001	 1.363474737366994e+001
 1.462308161998095e+000	 9.055611169392154e-001	 1.358809731199959e+001
 1.452344937003705e+000	 9.214554612909641e-001	 1.353767540687878e+001
 1.442196630351531e+000	 9.372591727583078e-001	 1.348402062159389e+001
 1.431864428404175e+000	 9.529690678281924e-001	 1.342773558645297e+001
 1.421349589685121e+000	 9.685819824262231e-001	 1.336948476898288e+001
 1.410653444520108e+000	 9.840947739404731e-001	 1.330999251648743e+001
 1.399777394610910e+000	 9.995043232389941e-001	 1.325004097556248e+001
 1.523550570782039e+000	 8.541832859064347e-001	 1.365207314772069e+001
 1.514195247325030e+000	 8.706595681139866e-001	 1.362201699892005e+001
 1.504647891235637e+000	 8.870568999131455e-001	 1.358716518535302e+001
 1.494909411877786e+000	 9.033719900587659e-001	 1.354781767156033e+001
 1.484980792668627e+000	 9.196015588137076e-001	 1.350434180771768e+001
 1.474863090987035e+000	 9.357423400033417e-001	 1.345717091215052e+001
 1.464557438014463e+000	 9.517910830741139e-001	 1.340680271781942e+001
 1.454065038507694e+000	 9.677445551535929e-001	 1.335379768644948e+001
 1.443387170503232e+000	 9.835995431093992e-001	 1.329877719427410e+001
 1.432525184953105e+000	 9.993528556043897e-001	 1.324242159365484e+001
 1.421480505292034e+000	 1.015001325145448e+000	 1.318546190044843e+001
 1.546812083368873e+000	 8.672249240600691e-001	 1.356110360442509e+001
 1.537313923186612e+000	 8.839527655220844e-001	 1.353394984101376e+001
 1.527620798424980e+000	 9.006004511639167e-001	 1.350224408245317e+001
 1.517733632332044e+000	 9.171646394898141e-001	 1.346624714823703e+001
 1.507653423339732e+000	 9.336420006877344e-001	 1.342628607586677e+001
 1.497381244970944e+000	 9.500292187152168e-001	 1.338275271433147e+001
 1.486918245677973e+000	 9.663229933893792e-001	 1.333610218572312e+001
 1.476265648611787e+000	 9.825200424784158e-001	 1.328685121864196e+001
 1.465424751321909e+000	 9.986171037919641e-001	 1.323557635732236e+001
 1.454396925386652e+000	 1.014610937267665e+000	 1.318290558997622e+001
 1.443183615973692e+000	 1.030498327051237e+000	 1.312954310697420e+001
 1.570073595956371e+000	 8.802665622133532e-001	 1.347603181641897e+001
 1.560432599048893e+000	 8.972459629298201e-001	 1.345204550946639e+001
 1.550593705615053e+000	 9.141440024143019e-001	 1.342379640714916e+001
 1.540557852787052e+000	 9.309572889204422e-001	 1.339150573730453e+001
 1.530326054011600e+000	 9.476824425612989e-001	 1.335545957463082e+001
 1.519899398955622e+000	 9.643160974265818e-001	 1.331600745109937e+001
 1.509279053342250e+000	 9.808549037040831e-001	 1.327356083928606e+001
 1.498466258716638e+000	 9.972955298026260e-001	 1.322859151223221e+001
 1.487462332141325e+000	 1.013634664473865e+000	 1.318162306272310e+001
 1.476268665820915e+000	 1.029869018930230e+000	 1.313325692271396e+001
 1.464886726656035e+000	 1.045995328956277e+000	 1.308412689910544e+001
 1.247855619845356e+000	 8.910253098821287e-001	 1.368685692607499e+001
 1.238000911431365e+000	 9.046676222522669e-001	 1.360186790739215e+001
 1.227988509947546e+000	 9.182124044861023e-001	 1.350760981804979e+001
 1.217819850897685e+000	 9.316569475974837e-001	 1.340508920408833e+001
 1.207496431328260e+000	 9.449985705706225e-001	 1.329535833338462e+001
 1.197019809152552e+000	 9.582346220975364e-001	 1.317951172691217e+001
 1.186391602416225e+000	 9.713624822960134e-001	 1.305868252667878e+001
 1.175613488505012e+000	 9.843795644057992e-001	 1.293403871368325e+001
 1.164687203295262e+000	 9.972833164607429e-001	 1.280677919027133e+001
 1.153614540248221e+000	 1.010071222934661e+000	 1.267812974224940e+001
 1.142397349448981e+000	 1.022740806358721e+000	 1.254933367704952e+001
 1.269558730526954e+000	 9.065223117909245e-001	 1.365490711650053e+001
 1.259532625819865e+000	 9.204018956938826e-001	 1.357304952503595e+001
 1.249346085393796e+000	 9.341822531847158e-001	 1.348172275613211e+001
 1.239000569719292e+000	 9.478606281616913e-001	 1.338201029905664e+001
 1.228497601879959e+000	 9.614342929799052e-001	 1.327504962223996e+001
 1.217838766884827e+000	 9.749005502189513e-001	 1.316202841093052e+001
 1.207025710921144e+000	 9.882567344307593e-001	 1.304418061527798e+001
 1.196060140548291e+000	 1.001500213865284e+000	 1.292278232317888e+001
 1.184943821833555e+000	 1.014628392171736e+000	 1.279914197159322e+001
 1.173678579430655e+000	 1.027638710073067e+000	 1.267461845573778e+001
 1.162266295601971e+000	 1.040528647011485e+000	 1.255058191502338e+001
 1.291261841208033e+000	 9.220193136996339e-001	 1.360672562554564e+001
 1.281064340207938e+000	 9.361361691354978e-001	 1.352832258232921e+001
 1.270703660839725e+000	 9.501521018834158e-001	 1.344050697668254e+001
 1.260181288540694e+000	 9.640643087260686e-001	 1.334441248834503e+001
 1.249498772431579e+000	 9.778700153894413e-001	 1.324123330684948e+001
 1.238657724617147e+000	 9.915664783407002e-001	 1.313222010801788e+001
 1.227659819426233e+000	 1.005150986565916e+000	 1.301867581678364e+001
 1.216506792591863e+000	 1.018620863325253e+000	 1.290194582264112e+001
 1.205200440372255e+000	 1.031973467883280e+000	 1.278343532692196e+001
 1.193742618613598e+000	 1.045206197212085e+000	 1.266457070679978e+001
 1.182135241755561e+000	 1.058316487664915e+000	 1.254681780239664e+001
 1.312964951888744e+000	 9.375163156081748e-001	 1.354518005180615e+001
 1.302596054595719e+000	 9.518704425770157e-001	 1.347064328347922e+001
 1.292061236285450e+000	 9.661219505820893e-001	 1.338693858558997e+001
 1.281362007361988e+000	 9.802679892904931e-001	 1.329522464217806e+001
 1.270499942983189e+000	 9.943057377990964e-001	 1.319672553606055e+001
 1.259476682349561e+000	 1.008232406462639e+000	 1.309272649507071e+001
 1.248293927931517e+000	 1.022045238701332e+000	 1.298456415383890e+001
 1.236953444635726e+000	 1.035741512785547e+000	 1.287364344233999e+001
 1.225457058911339e+000	 1.049318543595212e+000	 1.276139931496725e+001
 1.213806657797006e+000	 1.062773684351549e+000	 1.264931457938936e+001
 1.202004187909683e+000	 1.076104328318845e+000	 1.253890872729197e+001
 1.334668062569236e+000	 9.530133175164640e-001	 1.347296152453366e+001
 1.324127768983342e+000	 9.676047160183382e-001	 1.340276873285250e+001
 1.313418811731085e+000	 9.820917992806265e-001	 1.332378891649655e+001
 1.302542726183266e+000	 9.964716698548412e-001	 1.323716913928314e+001
 1.291501113534862e+000	 1.010741460208737e+000	 1.314413220525728e+001
 1.280295640082116e+000	 1.024898334584625e+000	 1.304598358496069e+001
 1.268928036437022e+000	 1.038939490836855e+000	 1.294406915149052e+001
 1.257400096679885e+000	 1.052862162246009e+000	 1.283979605803735e+001
 1.245713677450784e+000	 1.066663619307370e+000	 1.273462089975516e+001
 1.233870696980833e+000	 1.080341171491293e+000	 1.263004434295061e+001
 1.221873134064270e+000	 1.093892168973107e+000	 1.252760557563452e+001
 1.356371173249661e+000	 9.685103194244188e-001	 1.339635645762953e+001
 1.345659483370942e+000	 9.833389894593682e-001	 1.332840202065961e+001
 1.334776387176746e+000	 9.980616479789166e-001	 1.325367111404137e+001
 1.323723445004623e+000	 1.012675350418991e+000	 1.317278644167463e+001
 1.312502284086669e+000	 1.027177182618228e+000	 1.308590355717609e+001
 1.301114597814863e+000	 1.041564262706513e+000	 1.299427495249580e+001
 1.289562144942771e+000	 1.055833742972335e+000	 1.289923713457790e+001
 1.277846748724337e+000	 1.069982811706480e+000	 1.280218249763595e+001
 1.265970295990567e+000	 1.084008695019590e+000	 1.270455392587641e+001
 1.253934736165034e+000	 1.097908658631153e+000	 1.260783918000328e+001
 1.241742080219257e+000	 1.111680009627535e+000	 1.251356509042771e+001
 1.378074283930169e+000	 9.840073213319565e-001	 1.332114222631428e+001
 1.367191197758651e+000	 9.990732629000086e-001	 1.325526015172426e+001
 1.356133962622546e+000	 1.014031496676848e+000	 1.318295953267789e+001
 1.344904163826153e+000	 1.028879030982817e+000	 1.310553267603495e+001
 1.333503454638683e+000	 1.043612905027437e+000	 1.302432552127708e+001
 1.321933555547848e+000	 1.058230190828161e+000	 1.293972657146780e+001
 1.310196253448787e+000	 1.072727995107619e+000	 1.285198769017233e+001
 1.298293400769084e+000	 1.087103461166803e+000	 1.276245970578443e+001
 1.286226914530664e+000	 1.101353770731710e+000	 1.267254402243846e+001
 1.273998775349563e+000	 1.115476145770962e+000	 1.258368646943869e+001
 1.261611026374577e+000	 1.129467850281964e+000	 1.249737127022645e+001
 1.399777394610910e+000	 9.995043232389941e-001	 1.325004097556248e+001
 1.388722912146604e+000	 1.014807536340161e+000	 1.318670281581014e+001
 1.377491538068603e+000	 1.030001345374311e+000	 1.311729322818239e+001
 1.366084882647951e+000	 1.045082711546199e+000	 1.304301890855182e+001
 1.354504625190976e+000	 1.060048627436228e+000	 1.296516397315723e+001
 1.342752513281120e+000	 1.074896118949426e+000	 1.288508011994999e+001
 1.330830361955098e+000	 1.089622247242557e+000	 1.280413359880783e+001
 1.318740052814126e+000	 1.104224110626819e+000	 1.272218768571599e+001
 1.306483533071053e+000	 1.118698846443568e+000	 1.263985232452535e+001
 1.294062814534374e+000	 1.133043632910556e+000	 1.255850403866950e+001
 1.281479972530163e+000	 1.147255690936225e+000	 1.247955591108275e+001
 1.421480505292034e+000	 1.015001325145448e+000	 1.318546190044843e+001
 1.410254626534935e+000	 1.030541809779729e+000	 1.312520073797057e+001
 1.398849113515031e+000	 1.045971194071194e+000	 1.305911910048546e+001
 1.387265601470111e+000	 1.061286392109012e+000	 1.298834520855916e+001
 1.375505795743618e+000	 1.076484349844469e+000	 1.291407325235235e+001
 1.363571471014727e+000	 1.091562047070162e+000	 1.283756066105115e+001
 1.351464470461725e+000	 1.106516499376995e+000	 1.276012525470729e+001
 1.339186704859462e+000	 1.121344760086371e+000	 1.268314228495904e+001
 1.326740151611712e+000	 1.136043922155000e+000	 1.260767813854207e+001
 1.314126853719423e+000	 1.150611120049767e+000	 1.253316149483432e+001
 1.301348918685950e+000	 1.165043531590152e+000	 1.246061838350156e+001
 1.443183615973692e+000	 1.030498327051237e+000	 1.312954310697420e+001
 1.431786340923777e+000	 1.046276083218615e+000	 1.307290764018490e+001
 1.420206688961944e+000	 1.061941042767387e+000	 1.301058986148561e+001
 1.408446320292726e+000	 1.077490072671134e+000	 1.294361387908458e+001
 1.396506966296683e+000	 1.092920072252026e+000	 1.287306379324497e+001
 1.384390428748719e+000	 1.108227975190228e+000	 1.280008108748892e+001
 1.372098578968695e+000	 1.123410751510783e+000	 1.272586191482905e+001
 1.359633356905095e+000	 1.138465409545300e+000	 1.265165428521006e+001
 1.346996770152616e+000	 1.153388997865844e+000	 1.257875516060951e+001
 1.334190892904664e+000	 1.168178607188432e+000	 1.250850746450258e+001
 1.321217864841871e+000	 1.182831372243579e+000	 1.244104472493089e+001
 1.464886726656035e+000	 1.045995328956277e+000	 1.308412689910544e+001
 1.453318055313266e+000	 1.062010356656721e+000	 1.303170247426845e+001
 1.441564264409459e+000	 1.077910891462778e+000	 1.297357321156657e+001
 1.429627039115891e+000	 1.093693753232441e+000	 1.291064147093528e+001
 1.417508136850242e+000	 1.109355794658762e+000	 1.284386211991891e+001
 1.405209386483143e+000	 1.124893903309479e+000	 1.277424008035720e+001
 1.392732687476031e+000	 1.140305003643770e+000	 1.270282778569746e+001
 1.380080008951025e+000	 1.155586059003449e+000	 1.263072255474487e+001
 1.367253388693743e+000	 1.170734073575938e+000	 1.255906388789175e+001
 1.354254932090050e+000	 1.185746094326383e+000	 1.248903069208703e+001
 1.341086810997859e+000	 1.200619212896339e+000	 1.242183844101913e+001
 1.142397349448981e+000	 1.022740806358721e+000	 1.254933367704952e+001
 1.131039251243886e+000	 1.035287756015926e+000	 1.241803509402729e+001
 1.119540534113931e+000	 1.047711586446118e+000	 1.228136841272975e+001
 1.107903211781769e+000	 1.060009945786597e+000	 1.213990441235433e+001
 1.096129350166033e+000	 1.072180526369110e+000	 1.199419755363784e+001
 1.084221066161063e+000	 1.084221066161063e+000	 1.184478301462543e+001
 1.072180526369110e+000	 1.096129350166033e+000	 1.169217377684428e+001
 1.060009945786597e+000	 1.107903211781770e+000	 1.153685777876046e+001
 1.047711586446118e+000	 1.119540534113932e+000	 1.137929515338989e+001
 1.035287756015926e+000	 1.131039251243886e+000	 1.121991556681491e+001
 1.022740806358721e+000	 1.142397349448981e+000	 1.105911567412772e+001
 1.162266295601971e+000	 1.040528647011485e+000	 1.255058191502338e+001
 1.150710653660098e+000	 1.053293817296594e+000	 1.242422777733055e+001
 1.139011947103368e+000	 1.065933727024969e+000	 1.229218176204982e+001
 1.127172224677734e+000	 1.078445983429568e+000	 1.215502778858771e+001
 1.115193588232937e+000	 1.090828238706443e+000	 1.201333106799138e+001
 1.103078191481013e+000	 1.103078191481013e+000	 1.186763491486322e+001
 1.090828238706443e+000	 1.115193588232937e+000	 1.171845761157890e+001
 1.078445983429568e+000	 1.127172224677734e+000	 1.156628934317112e+001
 1.065933727024968e+000	 1.139011947103368e+000	 1.141158922125979e+001
 1.053293817296594e+000	 1.150710653660097e+000	 1.125478241530666e+001
 1.040528647011485e+000	 1.162266295601972e+000	 1.109625740924717e+001
 1.182135241755561e+000	 1.058316487664915e+000	 1.254681780239664e+001
 1.170382056076979e+000	 1.071299878577974e+000	 1.242680910857062e+001
 1.158483360093529e+000	 1.084155867604568e+000	 1.230058910028858e+001
 1.146441237574461e+000	 1.096882021073315e+000	 1.216880335804492e+001
 1.134257826300627e+000	 1.109475951044568e+000	 1.203207750329039e+001
 1.121935316801759e+000	 1.121935316801759e+000	 1.189101367757891e+001
 1.109475951044568e+000	 1.134257826300627e+000	 1.174618707334737e+001
 1.096882021073315e+000	 1.146441237574461e+000	 1.159814253648414e+001
 1.084155867604569e+000	 1.158483360093529e+000	 1.144739126089844e+001
 1.071299878577974e+000	 1.170382056076979e+000	 1.129440759522585e+001
 1.058316487664915e+000	 1.182135241755561e+000	 1.113962598159023e+001
 1.202004187909683e+000	 1.076104328318845e+000	 1.253890872729197e+001
 1.190053458494446e+000	 1.089305939859901e+000	 1.242617437964068e+001
 1.177954773084311e+000	 1.102378008184755e+000	 1.230655315492493e+001
 1.165710250471834e+000	 1.115318058717681e+000	 1.218079871811151e+001
 1.153322064368974e+000	 1.128123663383335e+000	 1.204964463771534e+001
 1.140792442123159e+000	 1.140792442123158e+000	 1.191380042435913e+001
 1.128123663383335e+000	 1.153322064368973e+000	 1.177394761769462e+001
 1.115318058717681e+000	 1.165710250471834e+000	 1.163073594395023e+001
 1.102378008184754e+000	 1.177954773084312e+000	 1.148477956647396e+001
 1.089305939859901e+000	 1.190053458494445e+000	 1.133665345159388e+001
 1.076104328318845e+000	 1.202004187909682e+000	 1.118688987192928e+001
 1.221873134064270e+000	 1.093892168973107e+000	 1.252760557563452e+001
 1.209724860912411e+000	 1.107312001142208e+000	 1.242262549730555e+001
 1.197426186075614e+000	 1.120600148765364e+000	 1.230996356213536e+001
 1.184979263369735e+000	 1.133754096362508e+000	 1.219052601053246e+001
 1.172386302437845e+000	 1.146771375722591e+000	 1.206519993984876e+001
 1.159649567445070e+000	 1.159649567445070e+000	 1.193484879541947e+001
 1.146771375722591e+000	 1.172386302437845e+000	 1.180030790405737e+001
 1.133754096362507e+000	 1.184979263369735e+000	 1.166238007469229e+001
 1.120600148765364e+000	 1.197426186075614e+000	 1.152183129100608e+001
 1.107312001142208e+000	 1.209724860912411e+000	 1.137938652091425e+001
 1.093892168973107e+000	 1.221873134064270e+000	 1.123572566757974e+001
 1.241742080219257e+000	 1.111680009627535e+000	 1.251356509042771e+001
 1.229396263330790e+000	 1.125318062424730e+000	 1.241639122099853e+001
 1.216897599067334e+000	 1.138822289346235e+000	 1.231065517637222e+001
 1.204248276268045e+000	 1.152190134007636e+000	 1.219745848376689e+001
 1.191450540507110e+000	 1.165419088062188e+000	 1.207788555237796e+001
 1.178506692767354e+000	 1.178506692767353e+000	 1.195299851066326e+001
 1.165419088062188e+000	 1.191450540507110e+000	 1.182383207749387e+001
 1.152190134007636e+000	 1.204248276268046e+000	 1.169138849460634e+001
 1.138822289346235e+000	 1.216897599067333e+000	 1.155663254802236e+001
 1.125318062424730e+000	 1.229396263330790e+000	 1.142048670615410e+001
 1.111680009627535e+000	 1.241742080219257e+000	 1.128382640218598e+001
 1.261611026374577e+000	 1.129467850281964e+000	 1.249737127022645e+001
 1.249067665749498e+000	 1.143324123707302e+000	 1.240764663822780e+001
 1.236369012059369e+000	 1.157044429927205e+000	 1.230842579639455e+001
 1.223517289166649e+000	 1.170626171652911e+000	 1.220104663223691e+001
 1.210514778576640e+000	 1.184066800401973e+000	 1.208683299592451e+001
 1.197363818089865e+000	 1.197363818089865e+000	 1.196708877809709e+001
 1.184066800401974e+000	 1.210514778576640e+000	 1.184309201021732e+001
 1.170626171652911e+000	 1.223517289166650e+000	 1.171608901797101e+001
 1.157044429927205e+000	 1.236369012059368e+000	 1.158728865853142e+001
 1.143324123707303e+000	 1.249067665749498e+000	 1.145785667262044e+001
 1.129467850281964e+000	 1.261611026374577e+000	 1.132891018221721e+001
 1.281479972530163e+000	 1.147255690936225e+000	 1.247955591108275e+001
 1.268739068168448e+000	 1.161330184989758e+000	 1.239653196033409e+001
 1.255840425051615e+000	 1.175266570508109e+000	 1.230305337108065e+001
 1.242786302065429e+000	 1.189062209298173e+000	 1.220073395838773e+001
 1.229579016646303e+000	 1.202714512741798e+000	 1.209117762337249e+001
 1.216220943412465e+000	 1.216220943412465e+000	 1.197597156616527e+001
 1.202714512741798e+000	 1.229579016646304e+000	 1.185667950729326e+001
 1.189062209298173e+000	 1.242786302065429e+000	 1.173483495138999e+001
 1.175266570508110e+000	 1.255840425051614e+000	 1.161193452753930e+001
 1.161330184989758e+000	 1.268739068168449e+000	 1.148943144075272e+001
 1.147255690936225e+000	 1.281479972530163e+000	 1.136872906905259e+001
 1.301348918685950e+000	 1.165043531590152e+000	 1.246061838350156e+001
 1.288410470587557e+000	 1.179336246271932e+000	 1.238317071123239e+001
 1.275311838043971e+000	 1.193488711088788e+000	 1.229431274061763e+001
 1.262055314964265e+000	 1.207498246943265e+000	 1.219597239786729e+001
 1.248643254715969e+000	 1.221362225081510e+000	 1.209007285135640e+001
 1.235078068735010e+000	 1.235078068735010e+000	 1.197852475454343e+001
 1.221362225081510e+000	 1.248643254715969e+000	 1.186321848032616e+001
 1.207498246943265e+000	 1.262055314964265e+000	 1.174601638447058e+001
 1.193488711088788e+000	 1.275311838043970e+000	 1.162874513625918e+001
 1.179336246271932e+000	 1.288410470587557e+000	 1.151318815478282e+001
 1.165043531590152e+000	 1.301348918685950e+000	 1.140107818933644e+001
 1.321217864841871e+000	 1.182831372243579e+000	 1.244104472493089e+001
 1.308081873006736e+000	 1.197342307553658e+000	 1.236768737303299e+001
 1.294783251036333e+000	 1.211710851669076e+000	 1.228199196197265e+001
 1.281324327863042e+000	 1.225934284588030e+000	 1.218623744328343e+001
 1.267707492785507e+000	 1.240009937420960e+000	 1.208270419236270e+001
 1.253935194057360e+000	 1.253935194057359e+000	 1.197366517618082e+001
 1.240009937420960e+000	 1.267707492785507e+000	 1.186137709250063e+001
 1.225934284588030e+000	 1.281324327863042e+000	 1.174807152231390e+001
 1.211710851669076e+000	 1.294783251036333e+000	 1.163594613783224e+001
 1.197342307553658e+000	 1.308081873006736e+000	 1.152715600874506e+001
 1.182831372243579e+000	 1.321217864841870e+000	 1.142380504956908e+001
 1.341086810997859e+000	 1.200619212896339e+000	 1.242183844101913e+001
 1.327753275425903e+000	 1.215348368834772e+000	 1.235022454486289e+001
 1.314254664028600e+000	 1.229932992248813e+000	 1.226590826175475e+001
 1.300593340761640e+000	 1.244370322232309e+000	 1.217104299779329e+001
 1.286771730854787e+000	 1.258657649759996e+000	 1.206830310811719e+001
 1.272792319379371e+000	 1.272792319379371e+000	 1.196036156186472e+001
 1.258657649759996e+000	 1.286771730854787e+000	 1.184987987794290e+001
 1.244370322232309e+000	 1.300593340761641e+000	 1.173949805547570e+001
 1.229932992248813e+000	 1.314254664028600e+000	 1.163182454581854e+001
 1.215348368834772e+000	 1.327753275425902e+000	 1.152942631351246e+001
 1.200619212896339e+000	 1.341086810997858e+000	 1.143293406969719e+001
 1.022740806358721e+000	 1.142397349448981e+000	 1.105911567412772e+001
 1.010071222934661e+000	 1.153614540248221e+000	 1.089459779110510e+001
 9.972833164607429e-001	 1.164687203295261e+000	 1.072463041531624e+001
 9.843795644057992e-001	 1.175613488505011e+000	 1.055034466564898e+001
 9.713624822960134e-001	 1.186391602416225e+000	 1.037282264503457e+001
 9.582346220975365e-001	 1.197019809152552e+000	 1.019309714571647e+001
 9.449985705706224e-001	 1.207496431328260e+000	 1.001214859381147e+001
 9.316569475974839e-001	 1.217819850897686e+000	 9.830902232985405e+000
 9.182124044861019e-001	 1.227988509947546e+000	 9.650225561112366e+000
 9.046676222522668e-001	 1.238000911431365e+000	 9.470926032545725e+000
 8.910253098821288e-001	 1.247855619845356e+000	 9.293749037302094e+000
 1.040528647011485e+000	 1.162266295601972e+000	 1.109625740924717e+001
 1.027638710073067e+000	 1.173678579430655e+000	 1.093366604860104e+001
 1.014628392171736e+000	 1.184943821833555e+000	 1.076532484259664e+001
 1.001500213865284e+000	 1.196060140548291e+000	 1.059248432770981e+001
 9.882567344307596e-001	 1.207025710921144e+000	 1.041633494699379e+001
 9.749005502189513e-001	 1.217838766884827e+000	 1.023801885030762e+001
 9.614342929799058e-001	 1.228497601879960e+000	 1.005861623734101e+001
 9.478606281616914e-001	 1.239000569719292e+000	 9.879144684512509e+000
 9.341822531847158e-001	 1.249346085393796e+000	 9.700556226825311e+000
 9.204018956938826e-001	 1.259532625819865e+000	 9.523734732335322e+000
 9.065223117909241e-001	 1.269558730526953e+000	 9.349493582069947e+000
 1.058316487664915e+000	 1.182135241755561e+000	 1.113962598159023e+001
 1.045206197212085e+000	 1.193742618613598e+000	 1.098066679066693e+001
 1.031973467883280e+000	 1.205200440372255e+000	 1.081584173903667e+001
 1.018620863325253e+000	 1.216506792591863e+000	 1.064647927209435e+001
 1.005150986565916e+000	 1.227659819426233e+000	 1.047385164992323e+001
 9.915664783407000e-001	 1.238657724617147e+000	 1.029916175347867e+001
 9.778700153894413e-001	 1.249498772431579e+000	 1.012355260466063e+001
 9.640643087260685e-001	 1.260181288540694e+000	 9.948095130413853e+000
 9.501521018834153e-001	 1.270703660839725e+000	 9.773787075477827e+000
 9.361361691354979e-001	 1.281064340207938e+000	 9.601550095985369e+000
 9.220193136996340e-001	 1.291261841208033e+000	 9.432227187034206e+000
 1.076104328318845e+000	 1.202004187909682e+000	 1.118688987192928e+001
 1.062773684351549e+000	 1.213806657797006e+000	 1.103308483934053e+001
 1.049318543595212e+000	 1.225457058911340e+000	 1.087349273589527e+001
 1.035741512785547e+000	 1.236953444635727e+000	 1.070948581087858e+001
 1.022045238701332e+000	 1.248293927931518e+000	 1.054237147230542e+001
 1.008232406462639e+000	 1.259476682349561e+000	 1.037338997793784e+001
 9.943057377990965e-001	 1.270499942983189e+000	 1.020370216045057e+001
 9.802679892904931e-001	 1.281362007361988e+000	 1.003439744368194e+001
 9.661219505820892e-001	 1.292061236285451e+000	 9.866482682780974e+000
 9.518704425770156e-001	 1.302596054595719e+000	 9.700880890137883e+000
 9.375163156081747e-001	 1.312964951888744e+000	 9.538428454048082e+000
 1.093892168973107e+000	 1.221873134064270e+000	 1.123572566757974e+001
 1.080341171491293e+000	 1.233870696980833e+000	 1.108841927009978e+001
 1.066663619307370e+000	 1.245713677450784e+000	 1.093560654198021e+001
 1.052862162246009e+000	 1.257400096679885e+000	 1.077866898079307e+001
 1.038939490836855e+000	 1.268928036437022e+000	 1.061891686586476e+001
 1.024898334584625e+000	 1.280295640082117e+000	 1.045758454363366e+001
 1.010741460208737e+000	 1.291501113534862e+000	 1.029582602404950e+001
 9.964716698548413e-001	 1.302542726183266e+000	 1.013471318555309e+001
 9.820917992806263e-001	 1.313418811731085e+000	 9.975223332909792e+000
 9.676047160183381e-001	 1.324127768983342e+000	 9.818248449936416e+000
 9.530133175164638e-001	 1.334668062569236e+000	 9.664531829742590e+000
 1.111680009627535e+000	 1.241742080219257e+000	 1.128382640218598e+001
 1.097908658631153e+000	 1.253934736165034e+000	 1.114418792371056e+001
 1.084008695019590e+000	 1.265970295990567e+000	 1.099953256986957e+001
 1.069982811706480e+000	 1.277846748724338e+000	 1.085121866043896e+001
 1.055833742972335e+000	 1.289562144942771e+000	 1.070052684268303e+001
 1.041564262706513e+000	 1.301114597814863e+000	 1.054865511670025e+001
 1.027177182618228e+000	 1.312502284086669e+000	 1.039671419369385e+001
 1.012675350418990e+000	 1.323723445004623e+000	 1.024572321161273e+001
 9.980616479789162e-001	 1.334776387176746e+000	 1.009654381097135e+001
 9.833389894593683e-001	 1.345659483370942e+000	 9.945763646157074e+000
 9.685103194244189e-001	 1.356371173249662e+000	 9.792049514123125e+000
 1.129467850281964e+000	 1.261611026374577e+000	 1.132891018221721e+001
 1.115476145770963e+000	 1.273998775349563e+000	 1.119793530225254e+001
 1.101353770731711e+000	 1.286226914530664e+000	 1.106264811235763e+001
 1.087103461166803e+000	 1.298293400769084e+000	 1.092435336577999e+001
 1.072727995107619e+000	 1.310196253448788e+000	 1.078427159909236e+001
 1.058230190828162e+000	 1.321933555547848e+000	 1.064353392966826e+001
 1.043612905027437e+000	 1.333503454638683e+000	 1.050317594486584e+001
 1.028879030982817e+000	 1.344904163826153e+000	 1.036007785773785e+001
 1.014031496676848e+000	 1.356133962622547e+000	 1.021173369642137e+001
 9.990732629000086e-001	 1.367191197758652e+000	 1.005955874801117e+001
 9.840073213319562e-001	 1.378074283930169e+000	 9.904895244232762e+000
 1.147255690936225e+000	 1.281479972530163e+000	 1.136872906905259e+001
 1.133043632910556e+000	 1.294062814534374e+000	 1.124724077472368e+001
 1.118698846443568e+000	 1.306483533071053e+000	 1.112236588043280e+001
 1.104224110626819e+000	 1.318740052814126e+000	 1.099532713843240e+001
 1.089622247242556e+000	 1.330830361955098e+000	 1.086725643867662e+001
 1.074896118949426e+000	 1.342752513281120e+000	 1.073642520945754e+001
 1.060048627436229e+000	 1.354504625190975e+000	 1.059827188761791e+001
 1.045082711546199e+000	 1.366084882647951e+000	 1.045406562556136e+001
 1.030001345374311e+000	 1.377491538068603e+000	 1.030520150417192e+001
 1.014807536340161e+000	 1.388722912146604e+000	 1.015300761162341e+001
 9.995043232389940e-001	 1.399777394610910e+000	 9.998744347830904e+000
 1.165043531590152e+000	 1.301348918685950e+000	 1.140107818933644e+001
 1.150611120049767e+000	 1.314126853719422e+000	 1.128972705913375e+001
 1.136043922155001e+000	 1.326740151611712e+000	 1.117614186414557e+001
 1.121344760086371e+000	 1.339186704859463e+000	 1.106035136130649e+001
 1.106516499376995e+000	 1.351464470461725e+000	 1.093634708830578e+001
 1.091562047070163e+000	 1.363571471014728e+000	 1.080425212675948e+001
 1.076484349844469e+000	 1.375505795743618e+000	 1.066548251873294e+001
 1.061286392109012e+000	 1.387265601470110e+000	 1.052139066989355e+001
 1.045971194071194e+000	 1.398849113515031e+000	 1.037326255539413e+001
 1.030541809779729e+000	 1.410254626534935e+000	 1.022231508173044e+001
 1.015001325145448e+000	 1.421480505292034e+000	 1.006969360805575e+001
 1.182831372243579e+000	 1.321217864841870e+000	 1.142380504956908e+001
 1.168178607188432e+000	 1.334190892904663e+000	 1.132304406527039e+001
 1.153388997865845e+000	 1.346996770152616e+000	 1.121561363889664e+001
 1.138465409545300e+000	 1.359633356905095e+000	 1.109839594998088e+001
 1.123410751510783e+000	 1.372098578968695e+000	 1.097279983914792e+001
 1.108227975190228e+000	 1.384390428748719e+000	 1.084017409936582e+001
 1.092920072252026e+000	 1.396506966296683e+000	 1.070180457577968e+001
 1.077490072671134e+000	 1.408446320292725e+000	 1.055891141644747e+001
 1.061941042767387e+000	 1.420206688961944e+000	 1.041264647741073e+001
 1.046276083218615e+000	 1.431786340923777e+000	 1.026409088509405e+001
 1.030498327051237e+000	 1.443183615973693e+000	 1.011425275862461e+001
 1.200619212896339e+000	 1.341086810997858e+000	 1.143293406969719e+001
 1.185746094326383e+000	 1.354254932090050e+000	 1.133135353671421e+001
 1.170734073575938e+000	 1.367253388693743e+000	 1.122015486410321e+001
 1.155586059003449e+000	 1.380080008951025e+000	 1.110065621004712e+001
 1.140305003643770e+000	 1.392732687476032e+000	 1.097411622092899e+001
 1.124893903309479e+000	 1.405209386483143e+000	 1.084173122983938e+001
 1.109355794658762e+000	 1.417508136850241e+000	 1.070463260571043e+001
 1.093693753232441e+000	 1.429627039115892e+000	 1.056388425592493e+001
 1.077910891462778e+000	 1.441564264409459e+000	 1.042048028476352e+001
 1.062010356656721e+000	 1.453318055313266e+000	 1.027534280961062e+001
 1.045995328956277e+000	 1.464886726656035e+000	 1.012931993644205e+001
 8.910253098821288e-001	 1.247855619845356e+000	 9.293749037302094e+000
 8.772882022807453e-001	 1.257551261490825e+000	 9.116791523334531e+000
 8.634590576311915e-001	 1.267086523959525e+000	 8.938163844357256e+000
 8.495406565372458e-001	 1.276460157680332e+000	 8.758534433700678e+000
 8.355358005343191e-001	 1.285670976711510e+000	 8.578504843162923e+000
 8.214473102909056e-001	 1.294717859120681e+000	 8.398608817812384e+000
 8.072780238044295e-001	 1.303599747304523e+000	 8.219311690474111e+000
 7.930307945938002e-001	 1.312315648248288e+000	 8.041010097158930e+000
 7.787084898909862e-001	 1.320864633725284e+000	 7.864032013003151e+000
 7.643139888338927e-001	 1.329245840436585e+000	 7.688637106596120e+000
 7.498501806627993e-001	 1.337458470091355e+000	 7.514764935637804e+000
 9.065223117909241e-001	 1.269558730526953e+000	 9.349493582069947e+000
 8.925462839472682e-001	 1.279423001924546e+000	 9.175981802749840e+000
 8.784766183172065e-001	 1.289124104778561e+000	 9.001280438339240e+000
 8.643161438656806e-001	 1.298660767784928e+000	 8.825992969821559e+000
 8.500677108533142e-001	 1.308031784375627e+000	 8.650650151611099e+000
 8.357341890065820e-001	 1.317236013105266e+000	 8.475709100464407e+000
 8.213184656822814e-001	 1.326272377976344e+000	 8.301552731114647e+000
 8.068234440286461e-001	 1.335139868703277e+000	 8.128423408148477e+000
 7.922520411454743e-001	 1.343837540915351e+000	 7.954712085296845e+000
 7.776071862455714e-001	 1.352364516298867e+000	 7.780263477737278e+000
 7.628918188198212e-001	 1.360719982678853e+000	 7.605879771184280e+000
 9.220193136996340e-001	 1.291261841208033e+000	 9.432227187034206e+000
 9.078043656136207e-001	 1.301294742357671e+000	 9.264028847925736e+000
 8.934941790029707e-001	 1.311161685596942e+000	 9.095031874181579e+000
 8.790916311937900e-001	 1.320861377888824e+000	 8.925759911567113e+000
 8.645996211719170e-001	 1.330392592039014e+000	 8.756657750211108e+000
 8.500210677218111e-001	 1.339754167089103e+000	 8.587147581638639e+000
 8.353589075596423e-001	 1.348945008647412e+000	 8.415042851436544e+000
 8.206160934629750e-001	 1.357964089157520e+000	 8.241079914851607e+000
 8.057955923994367e-001	 1.366810448104691e+000	 8.066132635477519e+000
 7.909003836567353e-001	 1.375483192160448e+000	 7.891011905338015e+000
 7.759334569763624e-001	 1.383981495265687e+000	 7.716464470290321e+000
 9.375163156081747e-001	 1.312964951888744e+000	 9.538428454048082e+000
 9.230624472797354e-001	 1.323166482790366e+000	 9.377398130682662e+000
 9.085117396884321e-001	 1.333199266414842e+000	 9.215878120217919e+000
 8.938671185215374e-001	 1.343061987992202e+000	 9.051894045117688e+000
 8.791315314901061e-001	 1.352753399701856e+000	 8.883766006199345e+000
 8.643079464365844e-001	 1.362272321072382e+000	 8.712496710694483e+000
 8.493993494365169e-001	 1.371617639317917e+000	 8.539027784277035e+000
 8.344087428967989e-001	 1.380788309611204e+000	 8.364237865084929e+000
 8.193391436528904e-001	 1.389783355293484e+000	 8.188941120622124e+000
 8.041935810674046e-001	 1.398601868021504e+000	 8.013885926465433e+000
 7.889750951324397e-001	 1.407243007852023e+000	 7.839753709195215e+000
 9.530133175164638e-001	 1.334668062569236e+000	 9.664531829742590e+000
 9.383205289455460e-001	 1.345038223222794e+000	 9.508791860704113e+000
 9.235293003735396e-001	 1.355236847232435e+000	 9.347444122488428e+000
 9.086426058488871e-001	 1.365262598095244e+000	 9.181553265210019e+000
 8.936634418078615e-001	 1.375114207364341e+000	 9.012123565615903e+000
 8.785948251508936e-001	 1.384790475055292e+000	 8.840096998380419e+000
 8.634397913129078e-001	 1.394290269988049e+000	 8.666351462774445e+000
 8.482013923301294e-001	 1.403612530064517e+000	 8.491699167857361e+000
 8.328826949058532e-001	 1.412756262481913e+000	 8.316885179052237e+000
 8.174867784775971e-001	 1.421720543882209e+000	 8.142586128686268e+000
 8.020167332880693e-001	 1.430504520438026e+000	 7.969409092799856e+000
 9.685103194244189e-001	 1.356371173249662e+000	 9.792049514123125e+000
 9.535786106109838e-001	 1.366909963655117e+000	 9.634491143830017e+000
 9.385468610582419e-001	 1.377274428049897e+000	 9.471971208029817e+000
 9.234180931758037e-001	 1.387463208198132e+000	 9.305489671397304e+000
 9.081953521251606e-001	 1.397475015026658e+000	 9.135983434443705e+000
 8.928817038647322e-001	 1.407308629038023e+000	 8.964324446890691e+000
 8.774802331888189e-001	 1.416962900657996e+000	 8.791317978405150e+000
 8.619940417629793e-001	 1.426436750517643e+000	 8.617701049593926e+000
 8.464262461583425e-001	 1.435729169670161e+000	 8.444141025895343e+000
 8.307799758873323e-001	 1.444839219742739e+000	 8.271234376750797e+000
 8.150583714432672e-001	 1.453766033023863e+000	 8.099505602190718e+000
 9.840073213319562e-001	 1.378074283930169e+000	 9.904895244232762e+000
 9.688366922759821e-001	 1.388781704087501e+000	 9.746900990357334e+000
 9.535644217424868e-001	 1.399312008867400e+000	 9.584519265873386e+000
 9.381935805022507e-001	 1.409663818301048e+000	 9.418676891436993e+000
 9.227272624419833e-001	 1.419835822688992e+000	 9.250235020535639e+000
 9.071685825780912e-001	 1.429826783020764e+000	 9.079987314482695e+000
 8.915206750642536e-001	 1.439635531327948e+000	 8.908658276091865e+000
 8.757866911953608e-001	 1.449260970970773e+000	 8.736901744608332e+000
 8.599697974103759e-001	 1.458702076858409e+000	 8.565299554241665e+000
 8.440731732966296e-001	 1.467957895603269e+000	 8.394360358420308e+000
 8.281000095980499e-001	 1.477027545609700e+000	 8.224518621676229e+000
 9.995043232389940e-001	 1.399777394610910e+000	 9.998744347830904e+000
 9.840947739404727e-001	 1.410653444520108e+000	 9.841604298881659e+000
 9.685819824262233e-001	 1.421349589685121e+000	 9.680579331162397e+000
 9.529690678281922e-001	 1.431864428404175e+000	 9.516515383874644e+000
 9.372591727583082e-001	 1.442196630351531e+000	 9.350190215489256e+000
 9.214554612909641e-001	 1.452344937003705e+000	 9.182311659738081e+000
 9.055611169392154e-001	 1.462308161998095e+000	 9.013516040918413e+000
 8.895793406272856e-001	 1.472085191424091e+000	 8.844366750686929e+000
 8.735133486619712e-001	 1.481674984046840e+000	 8.675352988321702e+000
 8.573663707055079e-001	 1.491076571463974e+000	 8.506888666245860e+000
 8.411416477524336e-001	 1.500289058195703e+000	 8.339311482433118e+000
 1.015001325145448e+000	 1.421480505292034e+000	 1.006969360805575e+001
 9.993528556043898e-001	 1.432525184953105e+000	 9.914603573262387e+000
 9.835995431093997e-001	 1.443387170503232e+000	 9.756058505968083e+000
 9.677445551535926e-001	 1.454065038507694e+000	 9.594817897522605e+000
 9.517910830741139e-001	 1.464557438014463e+000	 9.431569147033352e+000
 9.357423400033419e-001	 1.474863090987035e+000	 9.266927407001674e+000
 9.196015588137076e-001	 1.484980792668627e+000	 9.101434098850310e+000
 9.033719900587662e-001	 1.494909411877786e+000	 8.935555589380721e+000
 8.870568999131454e-001	 1.504647891235637e+000	 8.769682029700354e+000
 8.706595681139866e-001	 1.514195247325030e+000	 8.604126358012767e+000
 8.541832859064348e-001	 1.523550570782039e+000	 8.439123467543094e+000
 1.030498327051237e+000	 1.443183615973693e+000	 1.011425275862461e+001
 1.014610937267665e+000	 1.454396925386652e+000	 9.962305006564279e+000
 9.986171037919640e-001	 1.465424751321909e+000	 9.807265620491801e+000
 9.825200424784156e-001	 1.476265648611788e+000	 9.649795405351620e+000
 9.663229933893792e-001	 1.486918245677973e+000	 9.490486402481514e+000
 9.500292187152167e-001	 1.497381244970944e+000	 9.329854878128511e+000
 9.336420006877344e-001	 1.507653423339732e+000	 9.168341277344185e+000
 9.171646394898144e-001	 1.517733632332045e+000	 9.006309017868071e+000
 9.006004511639166e-001	 1.527620798424980e+000	 8.844043444581358e+000
 8.839527655220841e-001	 1.537313923186611e+000	 8.681750945454532e+000
 8.672249240600692e-001	 1.546812083368872e+000	 8.519558229843169e+000
 1.045995328956277e+000	 1.464886726656035e+000	 1.012931993644205e+001
 1.029869018930230e+000	 1.476268665820915e+000	 9.981509966452352e+000
 1.013634664473865e+000	 1.487462332141325e+000	 9.830896198523000e+000
 9.972955298026258e-001	 1.498466258716639e+000	 9.678043463587404e+000
 9.808549037040830e-001	 1.509279053342249e+000	 9.523437674391637e+000
 9.643160974265818e-001	 1.519899398955622e+000	 9.367491742170133e+000
 9.476824425612986e-001	 1.530326054011600e+000	 9.210539678146249e+000
 9.309572889204426e-001	 1.540557852787053e+000	 9.052836645549764e+000
 9.141440024143019e-001	 1.550593705615053e+000	 8.894558046469108e+000
 8.972459629298201e-001	 1.560432599048893e+000	 8.735798766816362e+000
 8.802665622133532e-001	 1.570073595956371e+000	 8.576572579772430e+000
 7.498501806627993e-001	 1.337458470091355e+000	 7.514764935637803e+000
 7.353221473168309e-001	 1.345500595902038e+000	 7.339884763275339e+000
 7.207306278798588e-001	 1.353372795297910e+000	 7.162779406034177e+000
 7.060785306134998e-001	 1.361074466261638e+000	 6.983841957104810e+000
 6.913687667140009e-001	 1.368605071488112e+000	 6.803408297805444e+000
 6.766042485600982e-001	 1.375964138175143e+000	 6.621757091112954e+000
 6.617878879772690e-001	 1.383151257758930e+000	 6.439208218611610e+000
 6.469225945203407e-001	 1.390166085595247e+000	 6.257535417373403e+000
 6.320112737763581e-001	 1.397008340587419e+000	 6.078274216904561e+000
 6.170568256895568e-001	 1.403677804762223e+000	 5.902661596566727e+000
 6.020621429102250e-001	 1.410174322794896e+000	 5.731950820902491e+000
 7.628918188198212e-001	 1.360719982678853e+000	 7.605879771184280e+000
 7.481111091940829e-001	 1.368901979756440e+000	 7.430898737735967e+000
 7.332658093066115e-001	 1.376911095003749e+000	 7.254427589819992e+000
 7.183588780004508e-001	 1.384746715932977e+000	 7.076910666417367e+000
 7.033932771043161e-001	 1.392408295894034e+000	 6.898733556380920e+000
 6.883719696499764e-001	 1.399895353861612e+000	 6.720222895429657e+000
 6.732979181063208e-001	 1.407207474166046e+000	 6.541646318096003e+000
 6.581740826320958e-001	 1.414344306168952e+000	 6.363518558203367e+000
 6.430034193492565e-001	 1.421305563884740e+000	 6.187922781777329e+000
 6.277888786388084e-001	 1.428091025549134e+000	 6.016351822640092e+000
 6.125334034609495e-001	 1.434700533135920e+000	 5.850165580068489e+000
 7.759334569763624e-001	 1.383981495265687e+000	 7.716464470290322e+000
 7.609000710709125e-001	 1.392303363610223e+000	 7.541860976122444e+000
 7.458009907330193e-001	 1.400449394709020e+000	 7.366410940886732e+000
 7.306392253871503e-001	 1.408418965603801e+000	 7.190604017028905e+000
 7.154177874944816e-001	 1.416211520299499e+000	 7.014869465558154e+000
 7.001396907398116e-001	 1.423826569547684e+000	 6.839575762134823e+000
 6.848079482354358e-001	 1.431263690572821e+000	 6.665030362760163e+000
 6.694255707440150e-001	 1.438522526742372e+000	 6.491479629563359e+000
 6.539955649224103e-001	 1.445602787181828e+000	 6.319819227915787e+000
 6.385209315883906e-001	 1.452504246335858e+000	 6.152277501587900e+000
 6.230046640120596e-001	 1.459226743476797e+000	 5.990342173385437e+000
 7.889750951324397e-001	 1.407243007852023e+000	 7.839753709195215e+000
 7.736890329473286e-001	 1.415704747463540e+000	 7.665978843980867e+000
 7.583361721590805e-001	 1.423987694413863e+000	 7.491907188166071e+000
 7.429195727735806e-001	 1.432091215274239e+000	 7.318068454949740e+000
 7.274422978844638e-001	 1.440014744704620e+000	 7.144930229046291e+000
 7.119074118295534e-001	 1.447757785233454e+000	 6.972897386829247e+000
 6.963179783645463e-001	 1.455319906979338e+000	 6.802311680410808e+000
 6.806770588560146e-001	 1.462700747315572e+000	 6.633451486664444e+000
 6.649877104957208e-001	 1.469900010478731e+000	 6.466542469531738e+000
 6.492529845381936e-001	 1.476917467122426e+000	 6.303117702017024e+000
 6.334759245634387e-001	 1.483752953817541e+000	 6.145270219556720e+000
 8.020167332880693e-001	 1.430504520438026e+000	 7.969409092799858e+000
 7.864779948233396e-001	 1.439106131316547e+000	 7.796877959147371e+000
 7.708713535847912e-001	 1.447525994118420e+000	 7.624503740707826e+000
 7.551999201597239e-001	 1.455763464944417e+000	 7.452851609286895e+000
 7.394668082742286e-001	 1.463817969109509e+000	 7.282422783064495e+000
 7.236751329191496e-001	 1.471689000919019e+000	 7.113653765143696e+000
 7.078280084935832e-001	 1.479376123385674e+000	 6.946915750012062e+000
 6.919285469680097e-001	 1.486878967888615e+000	 6.782514199423965e+000
 6.759798560690888e-001	 1.494197233775495e+000	 6.620688588912719e+000
 6.599850374881072e-001	 1.501330687908871e+000	 6.461788984113237e+000
 6.439471851149695e-001	 1.508279164158169e+000	 6.307947047948582e+000
 8.150583714432672e-001	 1.453766033023863e+000	 8.099505602190719e+000
 7.992669566989544e-001	 1.462507515169399e+000	 7.928589152193860e+000
 7.834065350101485e-001	 1.471064293822835e+000	 7.758185140261493e+000
 7.674802675455636e-001	 1.479435714614465e+000	 7.588890217909844e+000
 7.514913186637425e-001	 1.487621193514281e+000	 7.421235177805169e+000
 7.354428540085497e-001	 1.495620216604477e+000	 7.255684014510861e+000
 7.193380386224788e-001	 1.503432339791911e+000	 7.092633156714411e+000
 7.031800350799152e-001	 1.511057188461564e+000	 6.932410872940870e+000
 6.869720016424156e-001	 1.518494457072168e+000	 6.775276852475742e+000
 6.707170904380223e-001	 1.525743908695221e+000	 6.621421962926007e+000
 6.544184456665354e-001	 1.532805374498695e+000	 6.471603653844389e+000
 8.281000095980499e-001	 1.477027545609700e+000	 8.224518621676229e+000
 8.120559185741816e-001	 1.485908899022251e+000	 8.055535983809460e+000
 7.959417164351506e-001	 1.494602593527250e+000	 7.887321050193987e+000
 7.797606149310815e-001	 1.503107964284512e+000	 7.720498570611203e+000
 7.635158290529713e-001	 1.511424417919046e+000	 7.555625459089576e+000
 7.472105750977021e-001	 1.519551432289924e+000	 7.393189680139549e+000
 7.308480687511642e-001	 1.527488556198130e+000	 7.233609309574914e+000
 7.144315231916465e-001	 1.535235409034484e+000	 7.077231772419797e+000
 6.979641472156025e-001	 1.542791680368797e+000	 6.924333260139677e+000
 6.814491433878283e-001	 1.550157129481510e+000	 6.775118329158003e+000
 6.648897062180196e-001	 1.557331584839138e+000	 6.629731070088575e+000
 8.411416477524336e-001	 1.500289058195703e+000	 8.339311482433116e+000
 8.248448804490295e-001	 1.509310282875257e+000	 8.172522758665094e+000
 8.084768978597926e-001	 1.518140893231805e+000	 8.006654722526903e+000
 7.920409623162603e-001	 1.526780213954683e+000	 7.842357413591513e+000
 7.755403394418811e-001	 1.535227642323919e+000	 7.680210995922247e+000
 7.589782961865559e-001	 1.543482647975457e+000	 7.520724472636248e+000
 7.423580988795706e-001	 1.551544772604411e+000	 7.364334577643747e+000
 7.256830113031192e-001	 1.559413629607439e+000	 7.211404847550186e+000
 7.089562927885509e-001	 1.567088903665430e+000	 7.062224876475011e+000
 6.921811963374156e-001	 1.574570350267766e+000	 6.917009756288945e+000
 6.753609667693055e-001	 1.581857795179509e+000	 6.775899704498517e+000
 8.541832859064348e-001	 1.523550570782039e+000	 8.439123467543093e+000
 8.376338423235072e-001	 1.532711666728574e+000	 8.274722982693026e+000
 8.210120792840733e-001	 1.541679192936644e+000	 8.111291891988458e+000
 8.043213097010831e-001	 1.550452463625108e+000	 7.949503265958057e+000
 7.875648498304384e-001	 1.559030866729012e+000	 7.789958206282743e+000
 7.707460172750591e-001	 1.567413863661173e+000	 7.633184391133900e+000
 7.538681290076296e-001	 1.575600989010834e+000	 7.479634799698679e+000
 7.369344994142486e-001	 1.583591850180492e+000	 7.329686619363454e+000
 7.199484383611615e-001	 1.591386126962113e+000	 7.183640338826169e+000
 7.029132492866742e-001	 1.598983571054023e+000	 7.041719030185319e+000
 6.858322273202755e-001	 1.606384005519828e+000	 6.904067822808748e+000
 8.672249240600692e-001	 1.546812083368872e+000	 8.519558229843165e+000
 8.504228041976235e-001	 1.556113050582356e+000	 8.357668217097505e+000
 8.335472607079892e-001	 1.565217492641910e+000	 8.196690052122399e+000
 8.166016570855321e-001	 1.574124713295916e+000	 8.037318104859264e+000
 7.995893602186089e-001	 1.582834091134438e+000	 7.880172639227833e+000
 7.825137383631615e-001	 1.591345079347169e+000	 7.725798191342809e+000
 7.653781591352729e-001	 1.599657205417480e+000	 7.574662128289557e+000
 7.481859875249496e-001	 1.607770070753707e+000	 7.427153391406495e+000
 7.309405839333361e-001	 1.615683350258895e+000	 7.283581427863433e+000
 7.136453022354947e-001	 1.623396791840312e+000	 7.144175314137559e+000
 6.963034878708130e-001	 1.630910215860108e+000	 7.009083074779740e+000
 8.802665622133532e-001	 1.570073595956371e+000	 8.576572579772426e+000
 8.632117660713863e-001	 1.579514434436757e+000	 8.417237287946225e+000
 8.460824421315376e-001	 1.588755792347744e+000	 8.258648073826100e+000
 8.288820044695899e-001	 1.597796962967234e+000	 8.101519381020056e+000
 8.116138706063589e-001	 1.606637315540310e+000	 7.946489376346186e+000
 7.942814594508111e-001	 1.615276295033541e+000	 7.794118162745550e+000
 7.768881892624316e-001	 1.623713421824429e+000	 7.644886173416718e+000
 7.594374756351380e-001	 1.631948291327146e+000	 7.499192751591914e+000
 7.419327295049752e-001	 1.639980573555821e+000	 7.357354920263549e+000
 7.243773551837668e-001	 1.647810012626662e+000	 7.219606346025405e+000
 7.067747484208015e-001	 1.655436426200365e+000	 7.086096501023847e+000
 6.020621429102250e-001	 1.410174322794896e+000	 5.731950820902491e+000
 5.870278516030029e-001	 1.416498737301121e+000	 5.564125646699006e+000
 5.719590733564497e-001	 1.422650029986620e+000	 5.396819689457036e+000
 5.568586712756409e-001	 1.428628231261313e+000	 5.230675465969747e+000
 5.417294947976459e-001	 1.434433431836373e+000	 5.066309291074672e+000
 5.265743781829089e-001	 1.440065782013029e+000	 4.904305835059550e+000
 5.113961390398313e-001	 1.445525490928912e+000	 4.745213490140338e+000
 4.961975768838239e-001	 1.450812825763512e+000	 4.589540533299979e+000
 4.809814717320292e-001	 1.455928110904371e+000	 4.437752066359180e+000
 4.657505827348304e-001	 1.460871727075660e+000	 4.290267708184604e+000
 4.505076468451836e-001	 1.465644110430823e+000	 4.147460008450769e+000
 6.125334034609495e-001	 1.434700533135920e+000	 5.850165580068491e+000
 5.972376308707766e-001	 1.441134943915833e+000	 5.687089646315329e+000
 5.819067715331873e-001	 1.447393221884075e+000	 5.524460932328926e+000
 5.665437383493174e-001	 1.453475397979446e+000	 5.362966679225974e+000
 5.511514303145781e-001	 1.459381564490778e+000	 5.203262264768331e+000
 5.357327309837993e-001	 1.465111874333371e+000	 5.045965426781073e+000
 5.202905069701495e-001	 1.470666540282229e+000	 4.891651408191151e+000
 5.048276064791278e-001	 1.476045834163695e+000	 4.740849007922519e+000
 4.893468578788444e-001	 1.481250086007147e+000	 4.594037514713635e+000
 4.738510683077294e-001	 1.486279683158419e+000	 4.451644494260726e+000
 4.583430223207198e-001	 1.491135069356658e+000	 4.314044393963457e+000
 6.230046640120596e-001	 1.459226743476797e+000	 5.990342173385437e+000
 6.074474101389679e-001	 1.465771150530428e+000	 5.831466975796838e+000
 5.918544697103533e-001	 1.472136413781435e+000	 5.672708295165027e+000
 5.762288054234166e-001	 1.478322564697501e+000	 5.514836184765855e+000
 5.605733658319158e-001	 1.484329697145122e+000	 5.358581973192104e+000
 5.448910837850698e-001	 1.490157966653669e+000	 5.204632079701723e+000
 5.291848749008191e-001	 1.495807589635517e+000	 5.053622877278206e+000
 5.134576360747548e-001	 1.501278842563868e+000	 4.906136584304955e+000
 4.977122440259597e-001	 1.506572061109939e+000	 4.762698157757402e+000
 4.819515538809139e-001	 1.511687639241224e+000	 4.623773153384468e+000
 4.661783977965402e-001	 1.516626028282580e+000	 4.489766511526656e+000
 6.334759245634387e-001	 1.483752953817541e+000	 6.145270219556720e+000
 6.176571894074571e-001	 1.490407357144906e+000	 5.990179741776005e+000
 6.018021678878300e-001	 1.496879605678688e+000	 5.834648095181464e+000
 5.859138724978267e-001	 1.503169731415457e+000	 5.679564625086832e+000
 5.699953013495547e-001	 1.509277829799371e+000	 5.525771726357949e+000
 5.540494365866255e-001	 1.515204058973874e+000	 5.374058178782557e+000
 5.380792428317556e-001	 1.520948638988721e+000	 5.225153670745898e+000
 5.220876656706315e-001	 1.526511850963969e+000	 5.079724488462141e+000
 5.060776301733108e-001	 1.531894036212673e+000	 4.938370339108130e+000
 4.900520394543282e-001	 1.537095595323997e+000	 4.801622267929728e+000
 4.740137732725954e-001	 1.542116987208505e+000	 4.669941621796574e+000
 6.439471851149695e-001	 1.508279164158169e+000	 6.307947047948583e+000
 6.278669686761252e-001	 1.515043563759268e+000	 6.156328797670379e+000
 6.117498660655004e-001	 1.521622797575824e+000	 6.003516705648782e+000
 5.955989395724353e-001	 1.528016898133288e+000	 5.850554453642580e+000
 5.794172368673897e-001	 1.534225962453487e+000	 5.698429007763626e+000
 5.632077893883719e-001	 1.540250151293942e+000	 5.548063404025332e+000
 5.469736107628745e-001	 1.546089688341782e+000	 5.400310878298678e+000
 5.307176952666834e-001	 1.551744859363929e+000	 5.255950313926732e+000
 5.144430163208340e-001	 1.557216011315279e+000	 5.115682970346883e+000
 4.981525250279170e-001	 1.562503551406660e+000	 4.980130446876189e+000
 4.818491487488355e-001	 1.567607946134351e+000	 4.849833827376259e+000
 6.544184456665354e-001	 1.532805374498695e+000	 6.471603653844393e+000
 6.380767479448531e-001	 1.539679770373518e+000	 6.323217893524524e+000
 6.216975642432467e-001	 1.546365989472827e+000	 6.172723069203935e+000
 6.052840066471301e-001	 1.552864064850969e+000	 6.021350972938543e+000
 5.888391723853175e-001	 1.559174095107435e+000	 5.870265190719698e+000
 5.723661421902138e-001	 1.565296243613825e+000	 5.720553270322394e+000
 5.558679786940914e-001	 1.571230737694648e+000	 5.573220406233786e+000
 5.393477248628367e-001	 1.576977867763687e+000	 5.429184610525414e+000
 5.228084024684643e-001	 1.582537986417684e+000	 5.289273327543121e+000
 5.062530106016239e-001	 1.587911507489136e+000	 5.154221440093965e+000
 4.896845242252109e-001	 1.593098905060032e+000	 5.024670605446836e+000
 6.648897062180196e-001	 1.557331584839138e+000	 6.629731070088576e+000
 6.482865272135217e-001	 1.564315976987654e+000	 6.484378224233222e+000
 6.316452624209525e-001	 1.571109181369688e+000	 6.335871581757760e+000
 6.149690737218001e-001	 1.577711231568476e+000	 6.185663706584323e+000
 5.982611079032335e-001	 1.584122227761179e+000	 6.035125544066083e+000
 5.815244949920564e-001	 1.590342335933476e+000	 5.885537905129059e+000
 5.647623466253220e-001	 1.596371787047260e+000	 5.738084657851560e+000
 5.479777544590173e-001	 1.602210876163178e+000	 5.593847590530986e+000
 5.311737886161385e-001	 1.607859961519817e+000	 5.453802898117640e+000
 5.143534961753934e-001	 1.613319463571345e+000	 5.318819232603356e+000
 4.975198997016720e-001	 1.618589863985467e+000	 5.189657247596339e+000
 6.753609667693055e-001	 1.581857795179509e+000	 6.775899704498520e+000
 6.584963064820117e-001	 1.588952183601679e+000	 6.633593332951119e+000
 6.415929605985001e-001	 1.595852373266394e+000	 6.486785306810855e+000
 6.246541407963321e-001	 1.602558398285783e+000	 6.337388069085429e+000
 6.076830434210330e-001	 1.609070360414681e+000	 6.187009495894900e+000
 5.906828477938049e-001	 1.615388428252850e+000	 6.037151038167240e+000
 5.736567145564815e-001	 1.621512836399564e+000	 5.889200374504219e+000
 5.566077840551514e-001	 1.627443884562336e+000	 5.744425939465710e+000
 5.395391747637919e-001	 1.633181936621605e+000	 5.603973272590264e+000
 5.224539817491696e-001	 1.638727419653209e+000	 5.468863120991284e+000
 5.053552751781693e-001	 1.644080822910571e+000	 5.339991216923163e+000
 6.858322273202755e-001	 1.606384005519828e+000	 6.904067822808749e+000
 6.687060857502040e-001	 1.613588390215593e+000	 6.764911649164419e+000
 6.515406587757721e-001	 1.620595565162931e+000	 6.619529484902980e+000
 6.343392078706145e-001	 1.627405565002866e+000	 6.470627301585814e+000
 6.171049789386121e-001	 1.634018493067907e+000	 6.320091127730446e+000
 5.998412005953645e-001	 1.640434520571898e+000	 6.169669180519982e+000
 5.825510824874860e-001	 1.646653885751501e+000	 6.020976620132595e+000
 5.652378136511652e-001	 1.652676892961099e+000	 5.875489720382618e+000
 5.479045609113603e-001	 1.658503911722977e+000	 5.734542076424457e+000
 5.305544673228969e-001	 1.664135375734651e+000	 5.599322773897176e+000
 5.131906506546526e-001	 1.669571781835260e+000	 5.470876431262110e+000
 6.963034878708130e-001	 1.630910215860108e+000	 7.009083074779737e+000
 6.789158650179793e-001	 1.638224596829399e+000	 6.872364859147938e+000
 6.614883569526509e-001	 1.645338757059289e+000	 6.728435307166601e+000
 6.440242749445354e-001	 1.652252731719701e+000	 6.579714645596638e+000
 6.265269144558660e-001	 1.658966625720819e+000	 6.428739874933046e+000
 6.089995533966401e-001	 1.665480612890576e+000	 6.277530973201841e+000
 5.914454504182501e-001	 1.671794935103017e+000	 6.127952894202032e+000
 5.738678432469846e-001	 1.677909901359400e+000	 5.981709361800276e+000
 5.562699470587798e-001	 1.683825886823860e+000	 5.840338937760340e+000
 5.386549528965191e-001	 1.689543331815590e+000	 5.705213278255434e+000
 5.210260261310727e-001	 1.695062740759449e+000	 5.577537480314460e+000
 7.067747484208015e-001	 1.655436426200365e+000	 7.086096501023849e+000
 6.891256442852183e-001	 1.662860803443095e+000	 6.950778863300567e+000
 6.714360551290197e-001	 1.670081948955455e+000	 6.808058296515495e+000
 6.537093420179819e-001	 1.677099898436262e+000	 6.659235730065110e+000
 6.359488499726910e-001	 1.683914758373383e+000	 6.507541411969503e+000
 6.181579061975374e-001	 1.690526705208835e+000	 6.355356687653338e+000
 6.003398183486900e-001	 1.696935984454057e+000	 6.204817359742211e+000
 5.824978728425352e-001	 1.703142909757176e+000	 6.057872720630728e+000
 5.646353332059857e-001	 1.709147861924183e+000	 5.916281487325692e+000
 5.467554384699808e-001	 1.714951287895949e+000	 5.781610172781108e+000
 5.288614016073797e-001	 1.720553699683057e+000	 5.655233783546338e+000
 4.505076468451836e-001	 1.465644110430823e+000	 4.147460008450769e+000
 4.352553773090560e-001	 1.470245751245001e+000	 4.010046989307629e+000
 4.199964617822380e-001	 1.474677191845686e+000	 3.878293506629859e+000
 4.047335618101466e-001	 1.478939026711766e+000	 3.751821373162307e+000
 3.894693118802304e-001	 1.483031901808773e+000	 3.630207547864683e+000
 3.742063182928812e-001	 1.486956513530291e+000	 3.512986918355563e+000
 3.589471580746028e-001	 1.490713607613841e+000	 3.399655496914726e+000
 3.436943779339139e-001	 1.494303978033006e+000	 3.289673974230690e+000
 3.284504932603850e-001	 1.497728465867564e+000	 3.182471574080770e+000
 3.132179871671365e-001	 1.500987958153400e+000	 3.077450151661247e+000
 2.979993095770399e-001	 1.504083386713946e+000	 2.973988478324738e+000
 4.583430223207198e-001	 1.491135069356658e+000	 4.314044393963457e+000
 4.428254803534434e-001	 1.495816743404018e+000	 4.181773965749897e+000
 4.273011768062746e-001	 1.500325257060339e+000	 4.054910605974634e+000
 4.117728195150919e-001	 1.504661215143897e+000	 3.933058918648558e+000
 3.962430887872050e-001	 1.508825274855079e+000	 3.815771885032024e+000
 3.807146362526286e-001	 1.512818144699393e+000	 3.702554314539207e+000
 3.651900837583481e-001	 1.516640583384481e+000	 3.592866766326420e+000
 3.496720223060635e-001	 1.520293398692991e+000	 3.486129877769867e+000
 3.341630110338178e-001	 1.523777446333049e+000	 3.381729034937589e+000
 3.186655762418404e-001	 1.527093628768171e+000	 3.279019319651744e+000
 3.031822104628572e-001	 1.530242894028381e+000	 3.177330667802268e+000
 4.661783977965402e-001	 1.516626028282580e+000	 4.489766511526656e+000
 4.503955833981298e-001	 1.521387735563174e+000	 4.361011815562940e+000
 4.346058918306376e-001	 1.525973322275190e+000	 4.237374628879616e+000
 4.188120772204008e-001	 1.530383403576289e+000	 4.118465279700081e+000
 4.030168656945870e-001	 1.534618647901714e+000	 4.003834579105682e+000
 3.872229542128294e-001	 1.538679775868886e+000	 3.892977979507696e+000
 3.714330094425919e-001	 1.542567559155575e+000	 3.785340268571805e+000
 3.556496666787524e-001	 1.546282819353483e+000	 3.680320726056777e+000
 3.398755288078220e-001	 1.549826426799085e+000	 3.577278669814790e+000
 3.241131653171372e-001	 1.553199299383525e+000	 3.475539316643637e+000
 3.083651113492741e-001	 1.556402401343417e+000	 3.374399883768459e+000
 4.740137732725954e-001	 1.542116987208505e+000	 4.669941621796574e+000
 4.579656864430685e-001	 1.546958727722380e+000	 4.543439415262616e+000
 4.419106068552816e-001	 1.551621387490147e+000	 4.421747423981496e+000
 4.258513349260272e-001	 1.556105592008849e+000	 4.304501642175485e+000
 4.097906426023272e-001	 1.560412020948581e+000	 4.191269412749048e+000
 3.937312721734311e-001	 1.564541407038679e+000	 4.081554342281605e+000
 3.776759351272775e-001	 1.568494534927030e+000	 3.974801824347625e+000
 3.616273110519196e-001	 1.572272240014395e+000	 3.870405089059736e+000
 3.455880465823344e-001	 1.575875407265591e+000	 3.767711695384784e+000
 3.295607543929611e-001	 1.579304969999389e+000	 3.666030382169499e+000
 3.135480122362239e-001	 1.582561908658987e+000	 3.564638193918550e+000
 4.818491487488355e-001	 1.567607946134351e+000	 4.849833827376259e+000
 4.655357894882131e-001	 1.572529719881547e+000	 4.724664398221938e+000
 4.492153218801609e-001	 1.577269452705120e+000	 4.604000341298540e+000
 4.328905926319242e-001	 1.581827780441484e+000	 4.487520332204616e+000
 4.165644195103765e-001	 1.586205393995588e+000	 4.374823898055108e+000
 4.002395901343810e-001	 1.590403038208677e+000	 4.265437148106479e+000
 3.839188608123486e-001	 1.594421510698755e+000	 4.158819194184264e+000
 3.676049554255053e-001	 1.598261660675640e+000	 4.054369168356450e+000
 3.513005643572911e-001	 1.601924387732485e+000	 3.951433743795347e+000
 3.350083434692461e-001	 1.605410640615688e+000	 3.849315064101457e+000
 3.187309131236400e-001	 1.608721415975027e+000	 3.747278986476402e+000
 4.896845242252109e-001	 1.593098905060032e+000	 5.024670605446836e+000
 4.731058925335175e-001	 1.598100712040590e+000	 4.900237224231230e+000
 4.565200369052304e-001	 1.602917517920015e+000	 4.780027975323760e+000
 4.399298503380454e-001	 1.607549968874099e+000	 4.663778359698892e+000
 4.233381964186858e-001	 1.611998767042638e+000	 4.551132737421022e+000
 4.067479080956263e-001	 1.616264669378785e+000	 4.441650943501745e+000
 3.901617864977485e-001	 1.620348486470660e+000	 4.334815684161604e+000
 3.735825997994487e-001	 1.624251081337129e+000	 4.230040609526311e+000
 3.570130821326285e-001	 1.627973368199685e+000	 4.126678957123170e+000
 3.404559325459264e-001	 1.631516311232345e+000	 4.024032659798328e+000
 3.239138140114558e-001	 1.634880923291471e+000	 3.921361811806498e+000
 4.975198997016720e-001	 1.618589863985467e+000	 5.189657247596339e+000
 4.806759955789353e-001	 1.623671704199418e+000	 5.065665079355519e+000
 4.638247519304444e-001	 1.628565583134742e+000	 4.945661655657952e+000
 4.469691080443440e-001	 1.633272157306602e+000	 4.829450621647347e+000
 4.301119733272060e-001	 1.637792140089639e+000	 4.716730852315481e+000
 4.132562260571145e-001	 1.642126300548911e+000	 4.607104034027013e+000
 3.964047121834209e-001	 1.646275462242652e+000	 4.500083126732084e+000
 3.795602441736897e-001	 1.650240501998774e+000	 4.395101590452945e+000
 3.627255999082826e-001	 1.654022348667107e+000	 4.291523257787810e+000
 3.459035216229358e-001	 1.657621981849287e+000	 4.188652733343255e+000
 3.290967148996046e-001	 1.661040430608253e+000	 4.085746201153141e+000
 5.053552751781693e-001	 1.644080822910571e+000	 5.339991216923163e+000
 4.882460986244200e-001	 1.649242696357944e+000	 5.216425624511785e+000
 4.711294669557573e-001	 1.654213648349210e+000	 5.096682712583974e+000
 4.540083657507736e-001	 1.658994345738900e+000	 4.980642802122305e+000
 4.368857502358878e-001	 1.663585513136496e+000	 4.868066026836653e+000
 4.197645440187933e-001	 1.667987931718962e+000	 4.758600971991951e+000
 4.026476378693090e-001	 1.672202438014639e+000	 4.651794304471820e+000
 3.855378885481678e-001	 1.676229922660488e+000	 4.547101264120635e+000
 3.684381176841902e-001	 1.680071329134671e+000	 4.443896884358705e+000
 3.513511107002089e-001	 1.683727652466438e+000	 4.341487809145781e+000
 3.342796157880199e-001	 1.687199937925307e+000	 4.239124573521272e+000
 5.131906506546526e-001	 1.669571781835260e+000	 5.470876431262110e+000
 4.958162016699257e-001	 1.674813688516081e+000	 5.347980608936680e+000
 4.784341819811238e-001	 1.679861713563327e+000	 5.228835541638965e+000
 4.610476234572875e-001	 1.684716534170897e+000	 5.113404001411780e+000
 4.436595271446824e-001	 1.689378886183114e+000	 5.001511207231197e+000
 4.262728619806095e-001	 1.693849562888843e+000	 4.892854624347420e+000
 4.088905635553564e-001	 1.698129413786532e+000	 4.787014876296738e+000
 3.915155329228229e-001	 1.702219343322185e+000	 4.683467624895219e+000
 3.741506354602876e-001	 1.706120309602293e+000	 4.581596271266919e+000
 3.567986997776794e-001	 1.709833323083725e+000	 4.480705329933577e+000
 3.394625166766352e-001	 1.713359445242568e+000	 4.380034328153409e+000
 5.210260261310727e-001	 1.695062740759449e+000	 5.577537480314460e+000
 5.033863047154056e-001	 1.700384680673738e+000	 5.455789362773718e+000
 4.857388970064985e-001	 1.705509778777000e+000	 5.337840488346126e+000
 4.680868811638395e-001	 1.710438722602501e+000	 5.223739122794687e+000
 4.504333040535402e-001	 1.715172259229400e+000	 5.113376493590944e+000
 4.327811799425113e-001	 1.719711194058462e+000	 5.006497864953128e+000
 4.151334892415067e-001	 1.724056389558237e+000	 4.902714858518597e+000
 3.974931772975942e-001	 1.728208763983774e+000	 4.801518858976627e+000
 3.798631532365108e-001	 1.732169290069892e+000	 4.702295341486565e+000
 3.622462888552815e-001	 1.735938993701071e+000	 4.604338956569799e+000
 3.446454175653834e-001	 1.739518952559972e+000	 4.506869208332267e+000
 5.288614016073797e-001	 1.720553699683057e+000	 5.655233783546338e+000
 5.109564077608135e-001	 1.725955672830829e+000	 5.535322181320551e+000
 4.930436120318358e-001	 1.731157843990140e+000	 5.419406571761574e+000
 4.751261388703822e-001	 1.736160911033619e+000	 5.307621042094834e+000
 4.572070809624126e-001	 1.740965632275259e+000	 5.199920855654376e+000
 4.392894979044454e-001	 1.745572825227723e+000	 5.096094930176342e+000
 4.213764149277031e-001	 1.749983365329664e+000	 4.995779706907380e+000
 4.034708216724216e-001	 1.754198184645169e+000	 4.898474232519329e+000
 3.855756710127967e-001	 1.758218270537386e+000	 4.803556273065841e+000
 3.676938779329494e-001	 1.762044664318403e+000	 4.710299277953967e+000
 3.498283184541985e-001	 1.765678459877450e+000	 4.617890012079903e+000
 2.979993095770399e-001	 1.504083386713946e+000	 2.973988478324739e+000
 2.827991546839796e-001	 1.507015299539558e+000	 2.875485030132482e+000
 2.676176157253354e-001	 1.509785191633430e+000	 2.785078404967506e+000
 2.524570335663319e-001	 1.512394122787768e+000	 2.701788881242857e+000
 2.373197127666052e-001	 1.514843192712843e+000	 2.624640217298695e+000
 2.222079208870836e-001	 1.517133539803352e+000	 2.552664407365614e+000
 2.071238878404339e-001	 1.519266339896488e+000	 2.484906279523769e+000
 1.920698052848553e-001	 1.521242805023325e+000	 2.420427890907753e+000
 1.770478260609259e-001	 1.523064182155104e+000	 2.358312678549681e+000
 1.620600636711550e-001	 1.524731751945949e+000	 2.297669327619532e+000
 1.471085918018470e-001	 1.526246827473539e+000	 2.237635322369687e+000
 3.031822104628572e-001	 1.530242894028381e+000	 3.177330667802270e+000
 2.877176895336974e-001	 1.533225799634873e+000	 3.080145852429826e+000
 2.722721083133522e-001	 1.536043866592425e+000	 2.990677225763703e+000
 2.568478483801319e-001	 1.538698173125490e+000	 2.907878830484597e+000
 2.414472543753198e-001	 1.541189838070859e+000	 2.830709076387346e+000
 2.260726332979972e-001	 1.543520019622557e+000	 2.758136432478454e+000
 2.107262538441941e-001	 1.545689914068317e+000	 2.689144940298361e+000
 1.954103457901381e-001	 1.547700754519251e+000	 2.622739497180755e+000
 1.801270994193073e-001	 1.549553809634328e+000	 2.557950861708453e+000
 1.648786649929307e-001	 1.551250382341223e+000	 2.493840337419478e+000
 1.496671522635357e-001	 1.552791808555088e+000	 2.429504094821545e+000
 3.083651113492741e-001	 1.556402401343417e+000	 3.374399883768459e+000
 2.926362243840046e-001	 1.559436299730789e+000	 3.277427291314501e+000
 2.769266009019342e-001	 1.562302541552006e+000	 3.187914531036701e+000
 2.612386631944633e-001	 1.565002223463775e+000	 3.104775712956358e+000
 2.455747959845260e-001	 1.567536483429407e+000	 3.026929797310806e+000
 2.299373457093609e-001	 1.569906499442260e+000	 2.953307282316449e+000
 2.143286198483649e-001	 1.572113488240614e+000	 2.882856692857414e+000
 1.987508862957979e-001	 1.574158704015620e+000	 2.814550811636079e+000
 1.832063727780419e-001	 1.576043437113978e+000	 2.747392598300921e+000
 1.676972663150494e-001	 1.577769012736919e+000	 2.680420746325932e+000
 1.522257127255744e-001	 1.579336789637071e+000	 2.612714831909203e+000
 3.135480122362239e-001	 1.582561908658987e+000	 3.564638193918550e+000
 2.975547592348355e-001	 1.585646799827250e+000	 3.467187963322285e+000
 2.815810934910186e-001	 1.588561216512131e+000	 3.377061805776448e+000
 2.656294780092664e-001	 1.591306273802593e+000	 3.293155927639759e+000
 2.497023375941673e-001	 1.593883128788470e+000	 3.214371460090709e+000
 2.338020581211211e-001	 1.596292979262458e+000	 3.139622214360266e+000
 2.179309858528945e-001	 1.598537062413384e+000	 3.067842217907429e+000
 2.020914268017831e-001	 1.600616653512443e+000	 2.997992965205349e+000
 1.862856461370760e-001	 1.602533064594071e+000	 2.929070321250188e+000
 1.705158676374521e-001	 1.604287643133056e+000	 2.860111020663099e+000
 1.547842731878955e-001	 1.605881770719505e+000	 2.790198710279702e+000
 3.187309131236400e-001	 1.608721415975027e+000	 3.747278986476403e+000
 3.024732940861249e-001	 1.611857299924204e+000	 3.649067579361241e+000
 2.862355860805422e-001	 1.614819891472758e+000	 3.558161825468210e+000
 2.700202928244812e-001	 1.617610324141914e+000	 3.473457816490665e+000
 2.538298792041875e-001	 1.620229774148032e+000	 3.393856226034728e+000
 2.376667705332243e-001	 1.622679459083146e+000	 3.318271216839780e+000
 2.215333518577310e-001	 1.624960636586633e+000	 3.245639109125838e+000
 2.054319673080420e-001	 1.627074603009736e+000	 3.174926735114768e+000
 1.893649194963556e-001	 1.629022692074626e+000	 3.105139409722094e+000
 1.733344689600799e-001	 1.630806273529654e+000	 3.035328452715065e+000
 1.573428336504320e-001	 1.632426751802406e+000	 2.964598203226024e+000
 3.239138140114558e-001	 1.634880923291471e+000	 3.921361811806498e+000
 3.073918289378070e-001	 1.638067800021593e+000	 3.822502258606059e+000
 2.908900786704420e-001	 1.641078566433846e+000	 3.731044530026871e+000
 2.744111076400478e-001	 1.643914374481710e+000	 3.645898171850714e+000
 2.579574208145298e-001	 1.646576419508075e+000	 3.565976537699407e+000
 2.415314829456166e-001	 1.649065938904318e+000	 3.490206945944665e+000
 2.251357178628226e-001	 1.651384210760366e+000	 3.417540577941451e+000
 2.087725078145225e-001	 1.653532552507511e+000	 3.346962033206883e+000
 1.924441928558265e-001	 1.655512319555662e+000	 3.277498462658061e+000
 1.761530702828740e-001	 1.657324903926732e+000	 3.208228206903335e+000
 1.599013941131164e-001	 1.658971732885789e+000	 3.138288872794914e+000
 3.290967148996046e-001	 1.661040430608253e+000	 4.085746201153142e+000
 3.123103637898164e-001	 1.664278300119365e+000	 3.986738719546419e+000
 2.955445712606549e-001	 1.667337241395350e+000	 3.895341672151778e+000
 2.788019224559066e-001	 1.670218424821950e+000	 3.810487413890721e+000
 2.620849624251379e-001	 1.672923064868585e+000	 3.731110883942205e+000
 2.453961953582447e-001	 1.675452418725971e+000	 3.656161123712324e+000
 2.287380838681175e-001	 1.677807784934590e+000	 3.584612516187262e+000
 2.121130483211732e-001	 1.679990502005783e+000	 3.515475652004875e+000
 1.955234662154353e-001	 1.682001947037197e+000	 3.447807733646654e+000
 1.789716716057754e-001	 1.683843534324309e+000	 3.380722435668149e+000
 1.624599545758813e-001	 1.685516713969673e+000	 3.313399145759753e+000
 3.342796157880199e-001	 1.687199937925307e+000	 4.239124573521272e+000
 3.172288986420876e-001	 1.690488800217466e+000	 4.140847470052826e+000
 3.001990638511178e-001	 1.693595916357230e+000	 4.050500373116331e+000
 2.831927372719975e-001	 1.696522475162606e+000	 3.967043582431984e+000
 2.662125040359551e-001	 1.699269710229544e+000	 3.889438285797608e+000
 2.492609077710546e-001	 1.701838898548099e+000	 3.816659563659323e+000
 2.323404498735637e-001	 1.704231359109308e+000	 3.747709094850673e+000
 2.154535888279422e-001	 1.706448451504562e+000	 3.681627457609943e+000
 1.986027395751276e-001	 1.708491574519248e+000	 3.617505926688905e+000
 1.817902729287252e-001	 1.710362164722407e+000	 3.554497674553622e+000
 1.650185150386595e-001	 1.712061695054074e+000	 3.491828292273572e+000
 3.394625166766352e-001	 1.713359445242568e+000	 4.380034328153410e+000
 3.221474334945552e-001	 1.716699300315839e+000	 4.283735103440425e+000
 3.048535564417678e-001	 1.719854591319444e+000	 4.195795702758610e+000
 2.875835520882611e-001	 1.722826525503650e+000	 4.115205269857776e+000
 2.703400456469252e-001	 1.725616355590934e+000	 4.040951639887824e+000
 2.531256201839929e-001	 1.728225378370697e+000	 3.972035970816457e+000
 2.359428158791093e-001	 1.730654933284528e+000	 3.907487055375556e+000
 2.187941293347777e-001	 1.732906401003865e+000	 3.846375195429162e+000
 2.016820129348497e-001	 1.734981202001836e+000	 3.787825528037552e+000
 1.846088742516645e-001	 1.736880795121043e+000	 3.731030700407698e+000
 1.675770755013836e-001	 1.738606676139007e+000	 3.675262799292636e+000
 3.446454175653834e-001	 1.739518952559972e+000	 4.506869208332268e+000
 3.270659683471535e-001	 1.742909800414432e+000	 4.414155794640201e+000
 3.095080490325418e-001	 1.746113266281949e+000	 4.330342386396135e+000
 2.919743669046372e-001	 1.749130575845050e+000	 4.254443606584358e+000
 2.744675872579915e-001	 1.751963000952741e+000	 4.185470039635418e+000
 2.569903325970060e-001	 1.754611858193762e+000	 4.122444645183723e+000
 2.395451818847027e-001	 1.757078507460254e+000	 4.064418831149172e+000
 2.221346698416279e-001	 1.759364350503703e+000	 4.010488054756607e+000
 2.047612862945476e-001	 1.761470829484977e+000	 3.959806828215317e+000
 1.874274755745342e-001	 1.763399425520239e+000	 3.911603014483662e+000
 1.701356359639863e-001	 1.765151657224491e+000	 3.865191307750763e+000
 3.498283184541985e-001	 1.765678459877450e+000	 4.617890012079903e+000
 3.319845031998169e-001	 1.769120300513190e+000	 4.530722079432375e+000
 3.141625416233765e-001	 1.772371941244703e+000	 4.453105729206922e+000
 2.963651817210658e-001	 1.775434626186778e+000	 4.384073397349097e+000
 2.785951288690975e-001	 1.778309646314947e+000	 4.322650180286328e+000
 2.608550450100400e-001	 1.780998338017287e+000	 4.267872202330183e+000
 2.431475478902918e-001	 1.783502081636491e+000	 4.218804620494248e+000
 2.254752103484412e-001	 1.785822300004091e+000	 4.174559120927243e+000
 2.078405596541675e-001	 1.787960456968690e+000	 4.134310770052269e+000
 1.902460768972755e-001	 1.789918055920011e+000	 4.097314093050560e+000
 1.726941964264004e-001	 1.791696638310540e+000	 4.062918262435720e+000
 1.471085918018470e-001	 1.526246827473539e+000	 2.237635322369685e+000
 1.321932148552253e-001	 1.527610946368682e+000	 2.182449554578880e+000
 1.173181978656277e-001	 1.528825244973612e+000	 2.136113597261487e+000
 1.024855234592909e-001	 1.529891127063641e+000	 2.097443640417768e+000
 8.769713199627979e-002	 1.530810023842251e+000	 2.065308363222883e+000
 7.295492130094994e-002	 1.531583392679665e+000	 2.038630606535047e+000
 5.826074643223184e-002	 1.532212715858080e+000	 2.016388575627464e+000
 4.361641949297316e-002	 1.532699499324805e+000	 1.997616566256517e+000
 2.902370947754151e-002	 1.533045271454459e+000	 1.981405210978222e+000
 1.448434215685826e-002	 1.533251581821384e+000	 1.966901246311954e+000
 0.000000000000000e+000	 1.533319999983334e+000	 1.953306801340939e+000
 1.496671522635357e-001	 1.552791808555088e+000	 2.429504094821542e+000
 1.344923622314420e-001	 1.554179652649703e+000	 2.369359196881341e+000
 1.193586341098445e-001	 1.555415070730929e+000	 2.317502459839490e+000
 1.042679850074528e-001	 1.556499490988984e+000	 2.272593733958503e+000
 8.922238903169807e-002	 1.557434369519299e+000	 2.233354637755429e+000
 7.422377701450698e-002	 1.558221189039145e+000	 2.198570926121325e+000
 5.927403627859138e-002	 1.558861457611046e+000	 2.167094315213280e+000
 4.437501044347406e-002	 1.559356707374226e+000	 2.137843755349403e+000
 2.952849927044121e-002	 1.559708493285285e+000	 2.109806147457523e+000
 1.473625854557671e-002	 1.559918391869258e+000	 2.082036502825102e+000
 0.000000000000000e+000	 1.559987999982150e+000	 2.053657546149929e+000
 1.522257127255744e-001	 1.579336789637071e+000	 2.612714831909203e+000
 1.367915096080341e-001	 1.580748358931190e+000	 2.548857093369151e+000
 1.213990703544734e-001	 1.582004896488756e+000	 2.493016988947268e+000
 1.060504465560655e-001	 1.583107854914895e+000	 2.443709337201596e+000
 9.074764606759797e-002	 1.584058715196978e+000	 2.399520723934706e+000
 7.549263272855974e-002	 1.584858985399321e+000	 2.359112617106426e+000
 6.028732612543471e-002	 1.585510199364770e+000	 2.321223859453713e+000
 4.513360139441194e-002	 1.586013915424461e+000	 2.284672527935173e+000
 3.003328906368742e-002	 1.586371715116971e+000	 2.248357154006892e+000
 1.498817493449885e-002	 1.586585201918022e+000	 2.211257303485772e+000
 0.000000000000000e+000	 1.586655999981867e+000	 2.172433515344473e+000
 1.547842731878955e-001	 1.605881770719505e+000	 2.790198710279702e+000
 1.390906569849223e-001	 1.607317065213150e+000	 2.724071601625112e+000
 1.234395065994218e-001	 1.608594722247091e+000	 2.665953449287954e+000
 1.078329081050230e-001	 1.609716218841355e+000	 2.614222196072380e+000
 9.227290310386338e-002	 1.610683060875255e+000	 2.567338356714914e+000
 7.676148844298673e-002	 1.611496781760144e+000	 2.523848939339054e+000
 6.130061597264214e-002	 1.612158941119188e+000	 2.482390659412811e+000
 4.589219234567812e-002	 1.612671123475431e+000	 2.441692432962935e+000
 3.053807885719368e-002	 1.613034936949425e+000	 2.400577141307072e+000
 1.524009132357377e-002	 1.613252011967577e+000	 2.357962664914671e+000
 0.000000000000000e+000	 1.613323999982383e+000	 2.312862185005574e+000
 1.573428336504320e-001	 1.632426751802406e+000	 2.964598203226024e+000
 1.413898043620276e-001	 1.633885771495591e+000	 2.897836942647431e+000
 1.254799428445967e-001	 1.635184548005932e+000	 2.839308108823712e+000
 1.096153696542196e-001	 1.636324582768350e+000	 2.787257738647285e+000
 9.379816014037826e-002	 1.637307406554097e+000	 2.740026138129724e+000
 7.803034415766655e-002	 1.638134578121565e+000	 2.696052679102655e+000
 6.231390582009404e-002	 1.638807682874235e+000	 2.653879796535960e+000
 4.665078329716386e-002	 1.639328331527060e+000	 2.612156170592813e+000
 3.104286865087352e-002	 1.639698158782560e+000	 2.569639083711953e+000
 1.549200771275058e-002	 1.639918822017827e+000	 2.525195949018554e+000
 0.000000000000000e+000	 1.639991999983600e+000	 2.477805007842485e+000
 1.599013941131164e-001	 1.658971732885789e+000	 3.138288872794914e+000
 1.436889517392707e-001	 1.660454477778524e+000	 3.072715738548441e+000
 1.275203790899055e-001	 1.661774373765276e+000	 3.015800550287930e+000
 1.113978312035494e-001	 1.662932946695862e+000	 2.965659178280502e+000
 9.532341717702637e-002	 1.663931752233472e+000	 2.920514439469453e+000
 7.929919987247772e-002	 1.664772374483535e+000	 2.878701847487442e+000
 6.332719566767064e-002	 1.665456424629846e+000	 2.838674464160921e+000
 4.740937424876045e-002	 1.665985539579266e+000	 2.799006833692167e+000
 3.154765844464044e-002	 1.666361380616284e+000	 2.758397987600527e+000
 1.574392410197837e-002	 1.666585632068675e+000	 2.715673515225860e+000
 0.000000000000000e+000	 1.666659999985417e+000	 2.669786696641553e+000
 1.624599545758813e-001	 1.685516713969673e+000	 3.313399145759756e+000
 1.459880991165724e-001	 1.687023184061957e+000	 3.251019451265249e+000
 1.295608153352552e-001	 1.688364199525119e+000	 3.197894800834468e+000
 1.131802927529066e-001	 1.689541310623874e+000	 3.152009352634573e+000
 9.684867421369169e-002	 1.690556097913347e+000	 3.111467958431351e+000
 8.056805558729877e-002	 1.691410170846005e+000	 3.074502954763316e+000
 6.434048551525232e-002	 1.692105166385958e+000	 3.039479948661374e+000
 4.816796520035917e-002	 1.692642747631972e+000	 3.004902575844098e+000
 3.205244823840803e-002	 1.693024602450508e+000	 2.969416216999173e+000
 1.599584049120625e-002	 1.693252442120022e+000	 2.931810665253423e+000
 0.000000000000000e+000	 1.693327999987733e+000	 2.891021740628514e+000
 1.650185150386595e-001	 1.712061695054074e+000	 3.491828292273573e+000
 1.482872464938533e-001	 1.713591890345898e+000	 3.434826950093276e+000
 1.316012515805531e-001	 1.714954025285460e+000	 3.387818516627391e+000
 1.149627543021853e-001	 1.716149674552370e+000	 3.348650544342592e+000
 9.837393125025805e-002	 1.717180443593689e+000	 3.315306185755349e+000
 8.183691130200831e-002	 1.718047967208927e+000	 3.285912123836420e+000
 6.535377536271937e-002	 1.718753908142505e+000	 3.258745381596454e+000
 4.892655615185134e-002	 1.719299955685101e+000	 3.232238985176134e+000
 3.255723803208980e-002	 1.719687824285142e+000	 3.204986463297069e+000
 1.624775688038331e-002	 1.719919252171772e+000	 3.175745174254409e+000
 0.000000000000000e+000	 1.719995999990450e+000	 3.143438455063502e+000
 1.675770755013836e-001	 1.738606676139007e+000	 3.675262799292636e+000
 1.505863938710343e-001	 1.740160596630359e+000	 3.626001408023862e+000
 1.336416878257064e-001	 1.741543851046296e+000	 3.587580430250720e+000
 1.167452158512796e-001	 1.742758038481330e+000	 3.557702499016890e+000
 9.989918828660938e-002	 1.743804789274466e+000	 3.534222004769947e+000
 8.310576701648489e-002	 1.744685763572250e+000	 3.515154273739009e+000
 6.636706520995218e-002	 1.745402649899424e+000	 3.498683501090621e+000
 4.968514710312822e-002	 1.745957163738571e+000	 3.483169409201516e+000
 3.306202782559926e-002	 1.746351046120098e+000	 3.467152610844309e+000
 1.649967326945867e-002	 1.746586062223828e+000	 3.449358666304349e+000
 0.000000000000000e+000	 1.746663999993467e+000	 3.428700827706656e+000
 1.701356359639863e-001	 1.765151657224491e+000	 3.865191307750761e+000
 1.528855412480362e-001	 1.766729302915345e+000	 3.826205702811491e+000
 1.356821240706222e-001	 1.768133676807624e+000	 3.798986243808901e+000
 1.185276774000838e-001	 1.769366402410742e+000	 3.781078830367425e+000
 1.014244453226295e-001	 1.770429134955646e+000	 3.770198620394911e+000
 8.437462273060702e-002	 1.771323559935927e+000	 3.764240576317743e+000
 6.738035505683096e-002	 1.772051391656648e+000	 3.761288632009570e+000
 5.044373805408110e-002	 1.772614371792308e+000	 3.759623446366527e+000
 3.356681761884998e-002	 1.773014267955283e+000	 3.757728719929139e+000
 1.675158965838142e-002	 1.773252872276091e+000	 3.754296061148459e+000
 0.000000000000000e+000	 1.773331999996684e+000	 3.748228394074362e+000
 1.726941964264004e-001	 1.791696638310540e+000	 4.062918262435720e+000
 1.551846886247798e-001	 1.793298009200867e+000	 4.036916477842972e+000
 1.377225603152077e-001	 1.794723502569440e+000	 4.023653128912811e+000
 1.203101389484920e-001	 1.795974766340585e+000	 4.020501979699247e+000
 1.029497023582024e-001	 1.797053480637194e+000	 4.025024990850054e+000
 8.564347844425330e-002	 1.797961356299908e+000	 4.034984365204444e+000
 6.839364490323611e-002	 1.798700133414114e+000	 4.048353069658920e+000
 5.120232900460125e-002	 1.799271579846228e+000	 4.063323794433055e+000
 3.407160741175545e-002	 1.799677489790610e+000	 4.078316322379766e+000
 1.700350604710066e-002	 1.799919682328466e+000	 4.091983292237812e+000
 0.000000000000000e+000	 1.800000000000000e+000	 4.103214345917737e+000
 1.800000000000000e+000	 0.000000000000000e+000	 1.328035254489410e+001
 1.799919682328466e+000	 1.700350604710072e-002	 1.325017465476861e+001
 1.799677489790610e+000	 3.407160741175556e-002	 1.323344148482314e+001
 1.799271579846229e+000	 5.120232900460112e-002	 1.322768758615255e+001
 1.798700133414114e+000	 6.839364490323605e-002	 1.323038020690899e+001
 1.797961356299907e+000	 8.564347844425327e-002	 1.323892354681078e+001
 1.797053480637195e+000	 1.029497023582024e-001	 1.325066349062777e+001
 1.795974766340585e+000	 1.203101389484920e-001	 1.326289280035381e+001
 1.794723502569440e+000	 1.377225603152076e-001	 1.327285675634881e+001
 1.793298009200867e+000	 1.551846886247796e-001	 1.327775923442556e+001
 1.791696638310540e+000	 1.726941964264003e-001	 1.327476920245650e+001
 1.826668000003317e+000	 0.000000000000000e+000	 1.309190113878755e+001
 1.826586492380854e+000	 1.725542243558252e-002	 1.306659303098998e+001
 1.826340711625984e+000	 3.457639720425813e-002	 1.305494461232091e+001
 1.825928787900252e+000	 5.196091995461603e-002	 1.305440151579369e+001
 1.825348875171750e+000	 6.940693474908760e-002	 1.306233602903549e+001
 1.824599152664132e+000	 8.691233415734241e-002	 1.307605167238401e+001
 1.823677826319064e+000	 1.044749593932500e-001	 1.309278830134216e+001
 1.822583130270824e+000	 1.220926004964327e-001	 1.310972771273000e+001
 1.821313328331721e+000	 1.397629965593995e-001	 1.312399974405916e+001
 1.819866715486908e+000	 1.574838360012101e-001	 1.313268885203005e+001
 1.818241619397146e+000	 1.752527568885780e-001	 1.313284115233239e+001
 1.853336000006534e+000	 0.000000000000000e+000	 1.292851113091671e+001
 1.853253302433154e+000	 1.750733882386080e-002	 1.290751634577078e+001
 1.853003933461306e+000	 3.508118699641538e-002	 1.290026849368128e+001
 1.852585995954273e+000	 5.271951090419778e-002	 1.290413498131750e+001
 1.851997616929445e+000	 7.042022459446448e-002	 1.291640465777070e+001
 1.851236949028488e+000	 8.818118986995370e-002	 1.293429275114321e+001
 1.850302172001139e+000	 1.060002164278468e-001	 1.295494637664967e+001
 1.849191494201343e+000	 1.238750620439718e-001	 1.297545059513184e+001
 1.847903154094349e+000	 1.418034328032531e-001	 1.299283501062542e+001
 1.846435421773350e+000	 1.597829833773704e-001	 1.300408089165758e+001
 1.844786600484193e+000	 1.778113173505509e-001	 1.300612879688954e+001
 1.880004000009551e+000	 0.000000000000000e+000	 1.279126653249805e+001
 1.879920112485265e+000	 1.775925521198643e-002	 1.277353411093639e+001
 1.879667155296469e+000	 3.558597678831360e-002	 1.276956927505084e+001
 1.879243204008180e+000	 5.347810185345472e-002	 1.277667074637517e+001
 1.878646358687084e+000	 7.143351443948540e-002	 1.279205421745823e+001
 1.877874745392853e+000	 8.945004558220661e-002	 1.281285768321078e+001
 1.876926517683292e+000	 1.075254734621056e-001	 1.283614739298033e+001
 1.875799858132006e+000	 1.256575235912099e-001	 1.285892440174457e+001
 1.874492979857182e+000	 1.438438690468528e-001	 1.287813170805078e+001
 1.873004128060052e+000	 1.620821307533283e-001	 1.289066196200455e+001
 1.871331581571538e+000	 1.803698778123701e-001	 1.289336572218347e+001
 1.906672000012268e+000	 0.000000000000000e+000	 1.268141211873424e+001
 1.906586922537085e+000	 1.801117160001031e-002	 1.266540658047746e+001
 1.906330377131368e+000	 3.609076658003917e-002	 1.266318174699046e+001
 1.905900412061863e+000	 5.423669280249505e-002	 1.267197606027734e+001
 1.905295100444551e+000	 7.244680428426897e-002	 1.268894111367017e+001
 1.904512541757102e+000	 9.071890129422063e-002	 1.271114741565365e+001
 1.903550863365390e+000	 1.090507304961390e-001	 1.273559082598560e+001
 1.902408222062676e+000	 1.274399851382472e-001	 1.275919964192591e+001
 1.901082805620080e+000	 1.458843052902832e-001	 1.277884232105601e+001
 1.899572834346869e+000	 1.643812781291511e-001	 1.279133582247190e+001
 1.897876562659040e+000	 1.829284382740870e-001	 1.279345454330235e+001
 1.933340000014584e+000	 0.000000000000000e+000	 1.260034234112579e+001
 1.933253732588514e+000	 1.826308798798332e-002	 1.258405245440694e+001
 1.932993598965897e+000	 3.659555637167841e-002	 1.258160603493754e+001
 1.932557620115213e+000	 5.499528375142715e-002	 1.259018852658845e+001
 1.931943842201727e+000	 7.346009412893391e-002	 1.260689526773037e+001
 1.931150338121113e+000	 9.198775700611517e-002	 1.262873772679807e+001
 1.930175209047304e+000	 1.105759875300598e-001	 1.265265046437590e+001
 1.929016585993217e+000	 1.292224466851841e-001	 1.267549879896117e+001
 1.927672631382903e+000	 1.479247415336291e-001	 1.269408716161878e+001
 1.926141540633660e+000	 1.666804255049063e-001	 1.270516811962848e+001
 1.924421543746556e+000	 1.854869987357526e-001	 1.270545204397538e+001
 1.960008000016401e+000	 0.000000000000000e+000	 1.254959114494176e+001
 1.959920542639449e+000	 1.851500437595633e-002	 1.253053758688749e+001
 1.959656820799952e+000	 3.710034616331763e-002	 1.252549537799569e+001
 1.959214828168119e+000	 5.575387470035925e-002	 1.253160312928719e+001
 1.958592583958498e+000	 7.447338397359885e-002	 1.254590656346251e+001
 1.957788134484761e+000	 9.325661271800975e-002	 1.256536526310589e+001
 1.956799554728904e+000	 1.121012445639806e-001	 1.258686020259898e+001
 1.955624949923494e+000	 1.310049082321211e-001	 1.260720204017125e+001
 1.954262457145510e+000	 1.499651777769750e-001	 1.262314015390176e+001
 1.952710246920282e+000	 1.689795728806617e-001	 1.263137239993437e+001
 1.950966524833943e+000	 1.880455591974182e-001	 1.262855556547079e+001
 1.986676000017618e+000	 0.000000000000000e+000	 1.253082260679710e+001
 1.986587352689790e+000	 1.876692076398024e-002	 1.250606460426049e+001
 1.986320042633429e+000	 3.760513595504324e-002	 1.249564489378889e+001
 1.985872036220470e+000	 5.651246564939969e-002	 1.249666030772254e+001
 1.985241325714745e+000	 7.548667381838249e-002	 1.250611239225671e+001
 1.984425930847923e+000	 9.452546843002384e-002	 1.252091471091400e+001
 1.983423900410058e+000	 1.136265015980141e-001	 1.253790099219534e+001
 1.982233313853369e+000	 1.327873697791584e-001	 1.255383409703112e+001
 1.980852282907762e+000	 1.520056140204056e-001	 1.256541578831772e+001
 1.979278953206592e+000	 1.712787202564845e-001	 1.256929727880149e+001
 1.977511505921061e+000	 1.906041196591351e-001	 1.256209052739633e+001
 2.013344000018134e+000	 0.000000000000000e+000	 1.253424656761319e+001
 2.013254162739435e+000	 1.901883715210593e-002	 1.250170378491036e+001
 2.012983264466222e+000	 3.810992574694156e-002	 1.248418852518663e+001
 2.012529244272157e+000	 5.727105659865670e-002	 1.247866914007441e+001
 2.011890067470352e+000	 7.649996366340349e-002	 1.248202353331278e+001
 2.011063727210476e+000	 9.579432414227686e-002	 1.249105097720527e+001
 2.010048246090639e+000	 1.151517586322731e-001	 1.250248400665976e+001
 2.008841677782708e+000	 1.345698313263965e-001	 1.251300037533368e+001
 2.007442108669516e+000	 1.540460502640053e-001	 1.251923507399994e+001
 2.005847659492447e+000	 1.735778676324424e-001	 1.251779241436235e+001
 2.004056487007765e+000	 1.931626801209543e-001	 1.250525818467603e+001
 2.040012000017850e+000	 0.000000000000000e+000	 1.249304686810367e+001
 2.039920972788282e+000	 1.927075354038426e-002	 1.245734928698199e+001
 2.039646486298226e+000	 3.861471553909891e-002	 1.243738430628935e+001
 2.039186452323067e+000	 5.802964754823859e-002	 1.242992998726792e+001
 2.038538809225204e+000	 7.751325350878056e-002	 1.243169185216176e+001
 2.037701523572295e+000	 9.706317985488830e-002	 1.243931509717969e+001
 2.036672591770513e+000	 1.166770156668700e-001	 1.244939681974228e+001
 2.035450041711373e+000	 1.363522928739358e-001	 1.245849824460598e+001
 2.034031934430634e+000	 1.560864865078590e-001	 1.246315694982445e+001
 2.032416365777704e+000	 1.758770150086029e-001	 1.245989909711145e+001
 2.030601468093916e+000	 1.957212405829273e-001	 1.244525167478768e+001
 2.066680000016667e+000	 0.000000000000000e+000	 1.239931016865143e+001
 2.066587782836231e+000	 1.952266992886615e-002	 1.236595075683037e+001
 2.066309708129336e+000	 3.911950533160163e-002	 1.234875998935939e+001
 2.065843660373092e+000	 5.878823849825369e-002	 1.234433189451275e+001
 2.065187550979181e+000	 7.852654335463230e-002	 1.234920823570200e+001
 2.064339319933258e+000	 9.833203556797766e-002	 1.235989109604682e+001
 2.063296937449552e+000	 1.182022727019178e-001	 1.237285540640912e+001
 2.062058405639229e+000	 1.381347544218766e-001	 1.238456140170925e+001
 2.060621760190974e+000	 1.581269227520511e-001	 1.239146700747646e+001
 2.058985072062221e+000	 1.781761623850334e-001	 1.239004016272036e+001
 2.057146449179369e+000	 1.982798010451051e-001	 1.237677108936650e+001
 1.791696638310540e+000	 1.726941964264003e-001	 1.327476920245650e+001
 1.789918055920011e+000	 1.902460768972756e-001	 1.327207291547756e+001
 1.787960456968690e+000	 2.078405596541674e-001	 1.327832906597709e+001
 1.785822300004091e+000	 2.254752103484413e-001	 1.329140551456198e+001
 1.783502081636491e+000	 2.431475478902916e-001	 1.330918775418691e+001
 1.780998338017287e+000	 2.608550450100400e-001	 1.332958651827463e+001
 1.778309646314947e+000	 2.785951288690977e-001	 1.335054557518080e+001
 1.775434626186778e+000	 2.963651817210658e-001	 1.337004966786649e+001
 1.772371941244703e+000	 3.141625416233767e-001	 1.338613255458476e+001
 1.769120300513190e+000	 3.319845031998169e-001	 1.339688510348355e+001
 1.765678459877450e+000	 3.498283184541985e-001	 1.340046339131355e+001
 1.818241619397146e+000	 1.752527568885780e-001	 1.313284115233238e+001
 1.816436686320356e+000	 1.930646782198457e-001	 1.313297593765504e+001
 1.814450084452968e+000	 2.109198330136685e-001	 1.314212780776152e+001
 1.812280249505019e+000	 2.288157508551775e-001	 1.315810346290842e+001
 1.809925655813227e+000	 2.467499138958354e-001	 1.317872889697071e+001
 1.807384817841255e+000	 2.647197574230519e-001	 1.320185765722114e+001
 1.804656291677526e+000	 2.827226704801977e-001	 1.322537931030040e+001
 1.801738676528800e+000	 3.007559965374987e-001	 1.324722806948929e+001
 1.798630616207665e+000	 3.188170342142214e-001	 1.326539153503635e+001
 1.795330800612061e+000	 3.369030380524929e-001	 1.327791949610641e+001
 1.791837967194950e+000	 3.550112193430273e-001	 1.328293273993159e+001
 1.844786600484193e+000	 1.778113173505509e-001	 1.300612879688954e+001
 1.842955316721160e+000	 1.958832795422660e-001	 1.300787198804483e+001
 1.840939711937706e+000	 2.139991063730644e-001	 1.301874746686496e+001
 1.838738199006388e+000	 2.321562913618431e-001	 1.303649797151393e+001
 1.836349229990372e+000	 2.503522799013354e-001	 1.305888746931997e+001
 1.833771297665584e+000	 2.685844698360398e-001	 1.308371012636865e+001
 1.831002937040409e+000	 2.868502120912876e-001	 1.310879950476475e+001
 1.828042726871060e+000	 3.051468113539312e-001	 1.313203793862839e+001
 1.824889291170791e+000	 3.234715268050728e-001	 1.315136603620843e+001
 1.821541300711023e+000	 3.418215729051807e-001	 1.316479225200282e+001
 1.817997474512457e+000	 3.601941202318723e-001	 1.317040246949898e+001
 1.871331581571538e+000	 1.803698778123701e-001	 1.289336572218347e+001
 1.869473947122285e+000	 1.987018808645739e-001	 1.289553644340159e+001
 1.867429339422771e+000	 2.170783797323811e-001	 1.290702584123427e+001
 1.865196148508078e+000	 2.354968318684564e-001	 1.292550884118618e+001
 1.862772804167814e+000	 2.539546459068037e-001	 1.294868377419165e+001
 1.860157777490180e+000	 2.724491822490121e-001	 1.297428211799423e+001
 1.857349582403519e+000	 2.909777537023743e-001	 1.300007848949253e+001
 1.854346777213499e+000	 3.095376261703707e-001	 1.302390083475931e+001
 1.851147966134042e+000	 3.281260193959392e-001	 1.304364075941651e+001
 1.847751800810049e+000	 3.467401077578917e-001	 1.305726393822130e+001
 1.844156981829971e+000	 3.653770211207496e-001	 1.306282053912844e+001
 1.897876562659040e+000	 1.829284382740870e-001	 1.279345454330235e+001
 1.895992577523594e+000	 2.015204821868070e-001	 1.279490439169880e+001
 1.893918966908032e+000	 2.201576530916455e-001	 1.280595063543408e+001
 1.891654098009965e+000	 2.388373723750355e-001	 1.282419546144379e+001
 1.889196378345448e+000	 2.575570119122527e-001	 1.284726684547205e+001
 1.886544257314950e+000	 2.763138946619772e-001	 1.287282913119417e+001
 1.883696227766776e+000	 2.951052953134651e-001	 1.289859388560948e+001
 1.880650827556055e+000	 3.139284409868237e-001	 1.292233097273408e+001
 1.877406641097374e+000	 3.327805119868296e-001	 1.294187978322232e+001
 1.873962300909120e+000	 3.516586426106381e-001	 1.295516055336243e+001
 1.870316489147490e+000	 3.705599220096755e-001	 1.296018570296726e+001
 1.924421543746556e+000	 1.854869987357526e-001	 1.270545204397537e+001
 1.922511207924948e+000	 2.043390835090027e-001	 1.270505628118439e+001
 1.920408594393359e+000	 2.232369264508839e-001	 1.271464567275246e+001
 1.918112047511930e+000	 2.421779128815985e-001	 1.273174363726830e+001
 1.915619952523162e+000	 2.611593779176943e-001	 1.275390193890107e+001
 1.912930737139797e+000	 2.801786070749439e-001	 1.277871217436872e+001
 1.910042873130104e+000	 2.992328369245657e-001	 1.280381756368906e+001
 1.906954877898667e+000	 3.183192558032973e-001	 1.282692498172239e+001
 1.903665316060748e+000	 3.374350045777525e-001	 1.284581716271582e+001
 1.900172801008211e+000	 3.565771774634312e-001	 1.285836500549171e+001
 1.896475996465010e+000	 3.757428228986662e-001	 1.286253990263421e+001
 1.950966524833943e+000	 1.880455591974182e-001	 1.262855556547079e+001
 1.949029838326206e+000	 2.071576848311984e-001	 1.262520478331890e+001
 1.946898221878620e+000	 2.263161998101231e-001	 1.263235828156502e+001
 1.944569997013850e+000	 2.455184533881637e-001	 1.264745354635617e+001
 1.942043526700847e+000	 2.647617439231412e-001	 1.266795910568529e+001
 1.939317216964629e+000	 2.840433194879206e-001	 1.269138699862643e+001
 1.936389518493424e+000	 3.033603785356841e-001	 1.271530557827516e+001
 1.933258928241277e+000	 3.227100706197985e-001	 1.273735258002669e+001
 1.929923991024120e+000	 3.420894971687166e-001	 1.275524838159739e+001
 1.926383301107304e+000	 3.614957123162832e-001	 1.276680937621657e+001
 1.922635503782531e+000	 3.809257237877376e-001	 1.276996137573535e+001
 1.977511505921061e+000	 1.906041196591351e-001	 1.256209052739632e+001
 1.975548468727234e+000	 2.099762861534317e-001	 1.255468275553493e+001
 1.973387849363684e+000	 2.293954731693894e-001	 1.255844774562034e+001
 1.971027946515604e+000	 2.488589938947491e-001	 1.257072872064391e+001
 1.968467100878397e+000	 2.683641099286054e-001	 1.258890274706774e+001
 1.965703696789349e+000	 2.879080319009157e-001	 1.261039426523794e+001
 1.962736163856657e+000	 3.074879201468265e-001	 1.263268898604409e+001
 1.959562978583822e+000	 3.271008854363341e-001	 1.265334807971228e+001
 1.956182665987450e+000	 3.467439897597304e-001	 1.267002257692651e+001
 1.952593801206374e+000	 3.664142471692058e-001	 1.268046789705688e+001
 1.948795011100049e+000	 3.861086246769064e-001	 1.268255841317231e+001
 2.004056487007765e+000	 1.931626801209543e-001	 1.250525818467603e+001
 2.002067099127891e+000	 2.127948874757400e-001	 1.249288364199611e+001
 1.999877476848420e+000	 2.324747465287094e-001	 1.249237471959852e+001
 1.997485896017071e+000	 2.521995344013732e-001	 1.250106595713452e+001
 1.994890675055700e+000	 2.719664759340992e-001	 1.251628205889814e+001
 1.992090176613864e+000	 2.917727443139377e-001	 1.253535056053345e+001
 1.989082809219724e+000	 3.116154617579996e-001	 1.255566546567399e+001
 1.985867028926242e+000	 3.314917002529110e-001	 1.257470264410975e+001
 1.982441340950695e+000	 3.513984823508029e-001	 1.259003546489393e+001
 1.978804301305400e+000	 3.713327820222112e-001	 1.259935057206123e+001
 1.974954518417563e+000	 3.912915255661883e-001	 1.260046370508433e+001
 2.030601468093916e+000	 1.957212405829273e-001	 1.244525167478768e+001
 2.028585729528039e+000	 2.156134887981609e-001	 1.243074105175653e+001
 2.026367104332694e+000	 2.355540198881095e-001	 1.242830408505419e+001
 2.023943845518130e+000	 2.555400749080538e-001	 1.243514159942786e+001
 2.021314249232647e+000	 2.755688419396347e-001	 1.244851773094339e+001
 2.018476656438079e+000	 2.956374567269953e-001	 1.246577168690907e+001
 2.015429454582549e+000	 3.157430033692104e-001	 1.248432958291187e+001
 2.012171079268478e+000	 3.358825150695361e-001	 1.250171638720650e+001
 2.008700015913814e+000	 3.560529749419423e-001	 1.251556800494583e+001
 2.005014801404359e+000	 3.762513168753105e-001	 1.252364353658368e+001
 2.001114025735070e+000	 3.964744264555998e-001	 1.252383774617659e+001
 2.057146449179369e+000	 1.982798010451051e-001	 1.237677108936650e+001
 2.055104359927541e+000	 2.184320901207318e-001	 1.236342178337372e+001
 2.052856731816378e+000	 2.386332932476165e-001	 1.236211232610733e+001
 2.050401795018658e+000	 2.588806154148092e-001	 1.236995562784752e+001
 2.047737823409130e+000	 2.791712079452241e-001	 1.238414362411973e+001
 2.044863136261900e+000	 2.995021691400968e-001	 1.240195882111107e+001
 2.041776099945052e+000	 3.198705449804656e-001	 1.242078588469286e+001
 2.038475129610468e+000	 3.402733298862165e-001	 1.243812330901515e+001
 2.034958690876766e+000	 3.607074675331576e-001	 1.245159520327330e+001
 2.031225301503230e+000	 3.811698517285159e-001	 1.245896323743886e+001
 2.027273533052570e+000	 4.016573273451569e-001	 1.245813878944282e+001
 1.765678459877450e+000	 3.498283184541985e-001	 1.340046339131355e+001
 1.762044664318403e+000	 3.676938779329496e-001	 1.340349083891875e+001
 1.758218270537386e+000	 3.855756710127969e-001	 1.341269716826519e+001
 1.754198184645169e+000	 4.034708216724215e-001	 1.342652375201182e+001
 1.749983365329663e+000	 4.213764149277031e-001	 1.344351452641078e+001
 1.745572825227723e+000	 4.392894979044454e-001	 1.346232332621147e+001
 1.740965632275259e+000	 4.572070809624127e-001	 1.348172086626393e+001
 1.736160911033618e+000	 4.751261388703825e-001	 1.350060130820723e+001
 1.731157843990140e+000	 4.930436120318356e-001	 1.351798835051529e+001
 1.725955672830830e+000	 5.109564077608136e-001	 1.353304078049710e+001
 1.720553699683057e+000	 5.288614016073797e-001	 1.354505742763747e+001
 1.791837967194950e+000	 3.550112193430273e-001	 1.328293273993159e+001
 1.788150334935661e+000	 3.731414670106319e-001	 1.328725280248873e+001
 1.784267251004713e+000	 3.912881887890966e-001	 1.329780148527646e+001
 1.780187605306307e+000	 4.094484660472604e-001	 1.331298769898924e+001
 1.775910341100748e+000	 4.276193406139058e-001	 1.333133222334530e+001
 1.771434456396564e+000	 4.457978158663766e-001	 1.335147573932485e+001
 1.766759005320630e+000	 4.639808578712684e-001	 1.337218647874318e+001
 1.761883099464191e+000	 4.821653965768894e-001	 1.339236742361204e+001
 1.756805909202691e+000	 5.003483270571109e-001	 1.341106298758059e+001
 1.751526664987303e+000	 5.185265108061258e-001	 1.342746511206861e+001
 1.746044658606035e+000	 5.366967770835491e-001	 1.344091871052726e+001
 1.817997474512457e+000	 3.601941202318723e-001	 1.317040246949898e+001
 1.814256005552847e+000	 3.785890560883355e-001	 1.317522774228793e+001
 1.810316231471889e+000	 3.970007065654229e-001	 1.318639508807620e+001
 1.806177025967220e+000	 4.154261104221302e-001	 1.320228425731798e+001
 1.801837316871536e+000	 4.338622663001412e-001	 1.322139642989026e+001
 1.797296087565045e+000	 4.523061338283390e-001	 1.324236298936815e+001
 1.792552378365584e+000	 4.707546347801496e-001	 1.326395388383272e+001
 1.787605287894299e+000	 4.892046542834107e-001	 1.328508549931505e+001
 1.782453974414742e+000	 5.076530420823824e-001	 1.330482797176716e+001
 1.777097657143252e+000	 5.260966138514088e-001	 1.332241186376112e+001
 1.771535617528480e+000	 5.445321525596547e-001	 1.333723413297748e+001
 1.844156981829971e+000	 3.653770211207496e-001	 1.306282053912844e+001
 1.840361676169979e+000	 3.840366451660823e-001	 1.306755042108877e+001
 1.836365211938953e+000	 4.027132243418037e-001	 1.307878670497901e+001
 1.832166446627964e+000	 4.214037547970656e-001	 1.309488198443331e+001
 1.827764292642103e+000	 4.401051919864520e-001	 1.311432012648258e+001
 1.823157718733256e+000	 4.588144517903843e-001	 1.313572583781721e+001
 1.818345751410225e+000	 4.775284116891163e-001	 1.315787378530805e+001
 1.813327476324059e+000	 4.962439119900156e-001	 1.317969719009613e+001
 1.808102039626417e+000	 5.149577571077297e-001	 1.320029581429142e+001
 1.802668649298809e+000	 5.336667168967519e-001	 1.321894325961872e+001
 1.797026576450526e+000	 5.523675280357959e-001	 1.323509349824328e+001
 1.870316489147490e+000	 3.705599220096755e-001	 1.296018570296726e+001
 1.866467346787076e+000	 3.894842342438936e-001	 1.296439165721722e+001
 1.862414192405942e+000	 4.084257421182668e-001	 1.297530687551066e+001
 1.858155867288595e+000	 4.273813991721014e-001	 1.299125748648554e+001
 1.853691268412522e+000	 4.463481176728810e-001	 1.301071104911114e+001
 1.849019349901286e+000	 4.653227697525628e-001	 1.303228696630534e+001
 1.844139124454657e+000	 4.843021885982289e-001	 1.305476641902860e+001
 1.839049664753587e+000	 5.032831696967739e-001	 1.307710173290106e+001
 1.833750104837843e+000	 5.222624721332319e-001	 1.309842508905414e+001
 1.828239641454104e+000	 5.412368199422443e-001	 1.311805649121012e+001
 1.822517535372305e+000	 5.602029035120719e-001	 1.313551090191093e+001
 1.896475996465010e+000	 3.757428228986662e-001	 1.286253990263421e+001
 1.892573017404154e+000	 3.949318233217910e-001	 1.286595162288735e+001
 1.888463172872894e+000	 4.141382598948402e-001	 1.287630210087748e+001
 1.884145287949170e+000	 4.333590435472731e-001	 1.289189036427464e+001
 1.879618244182866e+000	 4.525910433594707e-001	 1.291116737118219e+001
 1.874880981069227e+000	 4.718310877149263e-001	 1.293274733206800e+001
 1.869932497498986e+000	 4.910759655075478e-001	 1.295541851684656e+001
 1.864771853182998e+000	 5.103224274037551e-001	 1.297815345139555e+001
 1.859398170049142e+000	 5.295671871589681e-001	 1.300011840738185e+001
 1.853810633609267e+000	 5.488069229879747e-001	 1.302068208953341e+001
 1.848008494293951e+000	 5.680382789885818e-001	 1.303942342545339e+001
 1.922635503782531e+000	 3.809257237877376e-001	 1.276996137573535e+001
 1.918678688021233e+000	 4.003794123997962e-001	 1.277245378863032e+001
 1.914512153339845e+000	 4.198507776715516e-001	 1.278212957424602e+001
 1.910134708609745e+000	 4.393366879226153e-001	 1.279725867656803e+001
 1.905545219953211e+000	 4.588339690462645e-001	 1.281627384435313e+001
 1.900742612237167e+000	 4.783394056775260e-001	 1.283778292810523e+001
 1.895725870543315e+000	 4.978497424171325e-001	 1.286058062529697e+001
 1.890494041612410e+000	 5.173616851110288e-001	 1.288365956982709e+001
 1.885046235260442e+000	 5.368719021850177e-001	 1.290622066121320e+001
 1.879381625764431e+000	 5.563770260340328e-001	 1.292768252925687e+001
 1.873499453215596e+000	 5.758736544654248e-001	 1.294769003090875e+001
 1.948795011100049e+000	 3.861086246769064e-001	 1.268255841317231e+001
 1.944784358638330e+000	 4.058270014779307e-001	 1.268413945310549e+001
 1.940561133806835e+000	 4.255632954484291e-001	 1.269315243634877e+001
 1.936124129270376e+000	 4.453143322981630e-001	 1.270783487218446e+001
 1.931472195723630e+000	 4.650768947333048e-001	 1.272659835520573e+001
 1.926604243405198e+000	 4.848477236404131e-001	 1.274804191002918e+001
 1.921519243587748e+000	 5.046235193270440e-001	 1.277096474572905e+001
 1.916216230041939e+000	 5.244009428186647e-001	 1.279437830712817e+001
 1.910694300471868e+000	 5.441766172114603e-001	 1.281751750950279e+001
 1.904952617919726e+000	 5.639471290805075e-001	 1.283985104346118e+001
 1.898990412137376e+000	 5.837090299427000e-001	 1.286109063777890e+001
 1.974954518417563e+000	 3.912915255661883e-001	 1.260046370508433e+001
 1.970890029255462e+000	 4.112745905562160e-001	 1.260126280401569e+001
 1.966610114273898e+000	 4.312758132255003e-001	 1.260973550770770e+001
 1.962113549931120e+000	 4.512919766739514e-001	 1.262408214737766e+001
 1.957399171494197e+000	 4.713198204206343e-001	 1.264268885919974e+001
 1.952465874573409e+000	 4.913560416036388e-001	 1.266414205559680e+001
 1.947312616632389e+000	 5.113972962373419e-001	 1.268724226607286e+001
 1.941938418471698e+000	 5.314402005267319e-001	 1.271101722527427e+001
 1.936342365683544e+000	 5.514813322383744e-001	 1.273473408528922e+001
 1.930523610075283e+000	 5.715172321274878e-001	 1.275791062936228e+001
 1.924481371059422e+000	 5.915444054205067e-001	 1.278032536525056e+001
 2.001114025735070e+000	 3.964744264555998e-001	 1.252383774617659e+001
 1.996995699872648e+000	 4.167221796346737e-001	 1.252408646152506e+001
 1.992659094741075e+000	 4.369883310027933e-001	 1.253224145385710e+001
 1.988102970592032e+000	 4.572696210500152e-001	 1.254645118959975e+001
 1.983326147264985e+000	 4.775627461082961e-001	 1.256507065738185e+001
 1.978327505741890e+000	 4.978643595672543e-001	 1.258666852648111e+001
 1.973105989677343e+000	 5.181710731480865e-001	 1.261004215755167e+001
 1.967660606901807e+000	 5.384794582353005e-001	 1.263423180862770e+001
 1.961990430895594e+000	 5.587860472658397e-001	 1.265853390323174e+001
 1.956094602231232e+000	 5.790873351750629e-001	 1.268251322753663e+001
 1.949972329981867e+000	 5.993797808989435e-001	 1.270601392460738e+001
 2.027273533052570e+000	 4.016573273451569e-001	 1.245813878944283e+001
 2.023101370489906e+000	 4.221697687133256e-001	 1.245713087860923e+001
 2.018708075208402e+000	 4.427008487803357e-001	 1.246404526867443e+001
 2.014092391253171e+000	 4.632472654263895e-001	 1.247718859487288e+001
 2.009253123036069e+000	 4.838056717963328e-001	 1.249505548041798e+001
 2.004189136910731e+000	 5.043726775313110e-001	 1.251634228372859e+001
 1.998899362722714e+000	 5.249448500593382e-001	 1.253994941240669e+001
 1.993382795332379e+000	 5.455187159444398e-001	 1.256462425340144e+001
 1.987638496108145e+000	 5.660907622939356e-001	 1.258951794950593e+001
 1.981665594387705e+000	 5.866574382233224e-001	 1.261423905897393e+001
 1.975463288904845e+000	 6.072151563781103e-001	 1.263869514826449e+001
 1.720553699683057e+000	 5.288614016073797e-001	 1.354505742763747e+001
 1.714951287895950e+000	 5.467554384699808e-001	 1.355482946446609e+001
 1.709147861924183e+000	 5.646353332059860e-001	 1.356332165799439e+001
 1.703142909757176e+000	 5.824978728425351e-001	 1.357029897561356e+001
 1.696935984454057e+000	 6.003398183486900e-001	 1.357565807942812e+001
 1.690526705208835e+000	 6.181579061975373e-001	 1.357942778282188e+001
 1.683914758373382e+000	 6.359488499726911e-001	 1.358176861058812e+001
 1.677099898436262e+000	 6.537093420179821e-001	 1.358297142318928e+001
 1.670081948955454e+000	 6.714360551290194e-001	 1.358350424867409e+001
 1.662860803443095e+000	 6.891256442852184e-001	 1.358466920513603e+001
 1.655436426200365e+000	 7.067747484208016e-001	 1.358681953616017e+001
 1.746044658606035e+000	 5.366967770835491e-001	 1.344091871052726e+001
 1.740359243975685e+000	 5.548559240432534e-001	 1.345193309677471e+001
 1.734469837023907e+000	 5.730007193529454e-001	 1.346120383017733e+001
 1.728375918154393e+000	 5.911279024377772e-001	 1.346858089825638e+001
 1.722077033804590e+000	 6.092341862787581e-001	 1.347405945998110e+001
 1.715572797526653e+000	 6.273162589980009e-001	 1.347778041987471e+001
 1.708862891025579e+000	 6.453707854890249e-001	 1.348003002111912e+001
 1.701947065152540e+000	 6.633944090908884e-001	 1.348123841386536e+001
 1.694825140851425e+000	 6.813837533048076e-001	 1.348244620875138e+001
 1.687497010056690e+000	 6.993354235518501e-001	 1.348485542156321e+001
 1.679962636540613e+000	 7.172460089701713e-001	 1.348855413818141e+001
 1.771535617528480e+000	 5.445321525596547e-001	 1.333723413297748e+001
 1.765767200054896e+000	 5.629564096164186e-001	 1.334951357406237e+001
 1.759791812123126e+000	 5.813661054997464e-001	 1.335965630825228e+001
 1.753608926551138e+000	 5.997579320328049e-001	 1.336758668705653e+001
 1.747218083154697e+000	 6.181285542085545e-001	 1.337338821394416e+001
 1.740618889844100e+000	 6.364746117981359e-001	 1.337730427787766e+001
 1.733811023677468e+000	 6.547927210049779e-001	 1.337973781648603e+001
 1.726794231868579e+000	 6.730794761633666e-001	 1.338135536054029e+001
 1.719568332747231e+000	 6.913314514801310e-001	 1.338389756591929e+001
 1.712133216670199e+000	 7.095452028179921e-001	 1.338786478483645e+001
 1.704488846880856e+000	 7.277172695190416e-001	 1.339345061597338e+001
 1.797026576450526e+000	 5.523675280357959e-001	 1.323509349824328e+001
 1.791175156133712e+000	 5.710568951895859e-001	 1.324866626023152e+001
 1.785113787221967e+000	 5.897314916465082e-001	 1.325975869807293e+001
 1.778841934947530e+000	 6.083879616277473e-001	 1.326835886342662e+001
 1.772359132504484e+000	 6.270229221382164e-001	 1.327462852412037e+001
 1.765664982161268e+000	 6.456329645980879e-001	 1.327890410195204e+001
 1.758759156329126e+000	 6.642146565207018e-001	 1.328169644564860e+001
 1.751641398584439e+000	 6.827645432355753e-001	 1.328437885817921e+001
 1.744311524642915e+000	 7.012791496551516e-001	 1.328848138096147e+001
 1.736769423283643e+000	 7.197549820838096e-001	 1.329422561282896e+001
 1.729015057221095e+000	 7.381885300675790e-001	 1.330193171135167e+001
 1.822517535372305e+000	 5.602029035120719e-001	 1.313551090191093e+001
 1.816583112212264e+000	 5.791573807628641e-001	 1.315040049557751e+001
 1.810435762320553e+000	 5.980968777933491e-001	 1.316249453763354e+001
 1.804074943343685e+000	 6.170179912227317e-001	 1.317183406659656e+001
 1.797500181854058e+000	 6.359172900678811e-001	 1.317864906708103e+001
 1.790711074478250e+000	 6.547913173980022e-001	 1.318335965981312e+001
 1.783707288980629e+000	 6.736365920363487e-001	 1.318672786814924e+001
 1.776488565300180e+000	 6.924496103076727e-001	 1.319095428043764e+001
 1.769054716538517e+000	 7.112268478300332e-001	 1.319673042373905e+001
 1.761405629897045e+000	 7.299647613494685e-001	 1.320437527064470e+001
 1.753541267561331e+000	 7.486597906159502e-001	 1.321432924056510e+001
 1.848008494293951e+000	 5.680382789885818e-001	 1.303942342545339e+001
 1.841991068290684e+000	 5.872578663363626e-001	 1.305563853809627e+001
 1.835757737419014e+000	 6.064622639403886e-001	 1.306875041592599e+001
 1.829307951739722e+000	 6.256480208178875e-001	 1.307884228060019e+001
 1.822641231203525e+000	 6.448116579976857e-001	 1.308620227975912e+001
 1.815757166795140e+000	 6.639496701980235e-001	 1.309132498046225e+001
 1.808655421632055e+000	 6.830585275520714e-001	 1.309580016968997e+001
 1.801335732015862e+000	 7.021346773798167e-001	 1.310161088517010e+001
 1.793797908434078e+000	 7.211745460049378e-001	 1.310908795700235e+001
 1.786041836510427e+000	 7.401745406151347e-001	 1.311866100000924e+001
 1.778067477901566e+000	 7.591310511643219e-001	 1.313088492963097e+001
 1.873499453215596e+000	 5.758736544654248e-001	 1.294769003090875e+001
 1.867399024369105e+000	 5.953583519101902e-001	 1.296521467940719e+001
 1.861079712517474e+000	 6.148276500877451e-001	 1.297931524425611e+001
 1.854540960135761e+000	 6.342780504133426e-001	 1.299010619580439e+001
 1.847782280552992e+000	 6.537060259277667e-001	 1.299792374679102e+001
 1.840803259112029e+000	 6.731080229982975e-001	 1.300348537430732e+001
 1.833603554283482e+000	 6.924804630680213e-001	 1.300945119204322e+001
 1.826182898731544e+000	 7.118197444521655e-001	 1.301679051331772e+001
 1.818541100329639e+000	 7.311222441800274e-001	 1.302590862464207e+001
 1.810678043123807e+000	 7.503843198809727e-001	 1.303734085802610e+001
 1.802593688241801e+000	 7.696023117128608e-001	 1.305175136729799e+001
 1.898990412137376e+000	 5.837090299427000e-001	 1.286109063777890e+001
 1.892806980447657e+000	 6.034588374844561e-001	 1.287987451887997e+001
 1.886401687616062e+000	 6.231930362355383e-001	 1.289487966568988e+001
 1.879773968531916e+000	 6.429080800092252e-001	 1.290624069233462e+001
 1.872923329902566e+000	 6.626003938582620e-001	 1.291433169725610e+001
 1.865849351429012e+000	 6.822663757989691e-001	 1.292075675254037e+001
 1.858551686934985e+000	 7.019023985843514e-001	 1.292811529244688e+001
 1.851030065447285e+000	 7.215048115248769e-001	 1.293684848226451e+001
 1.843284292225242e+000	 7.410699423554661e-001	 1.294745943456689e+001
 1.835314249737209e+000	 7.605940991471488e-001	 1.296058475502472e+001
 1.827119898582037e+000	 7.800735722617330e-001	 1.297699306458469e+001
 1.924481371059422e+000	 5.915444054205067e-001	 1.278032536525056e+001
 1.918214936526472e+000	 6.115593230592692e-001	 1.280027438129327e+001
 1.911723662714902e+000	 6.315584223838865e-001	 1.281603558981875e+001
 1.905006976928308e+000	 6.515381096056636e-001	 1.282775243409095e+001
 1.898064379252353e+000	 6.714947617893090e-001	 1.283593227564274e+001
 1.890895443746181e+000	 6.914247286001838e-001	 1.284358853849522e+001
 1.883499819586643e+000	 7.113243341012138e-001	 1.285214289397240e+001
 1.875877232163145e+000	 7.311898785981096e-001	 1.286205456385473e+001
 1.868027484120925e+000	 7.510176405314150e-001	 1.287392082743564e+001
 1.859950456350654e+000	 7.708038784138285e-001	 1.288847558231302e+001
 1.851646108922276e+000	 7.905448328111059e-001	 1.290658761101390e+001
 1.949972329981867e+000	 5.993797808989435e-001	 1.270601392460738e+001
 1.943622892605683e+000	 6.196598086347391e-001	 1.272698086488865e+001
 1.937045637814120e+000	 6.399238085329084e-001	 1.274327584137287e+001
 1.930239985325053e+000	 6.601681392027861e-001	 1.275503956323123e+001
 1.923205428602461e+000	 6.803891297210442e-001	 1.276360787693334e+001
 1.915941536063627e+000	 7.005830814020861e-001	 1.277232173465505e+001
 1.908447952238531e+000	 7.207462696187605e-001	 1.278180141853659e+001
 1.900724398879184e+000	 7.408749456720213e-001	 1.279259403932519e+001
 1.892770676016732e+000	 7.609653387080378e-001	 1.280538782338896e+001
 1.884586662964163e+000	 7.810136576811767e-001	 1.282101042160921e+001
 1.876172319262519e+000	 8.010160933611453e-001	 1.284042691869618e+001
 1.975463288904845e+000	 6.072151563781103e-001	 1.263869514826449e+001
 1.969030848685419e+000	 6.277602942109749e-001	 1.266047050803850e+001
 1.962367612913845e+000	 6.482891946827240e-001	 1.267699391239643e+001
 1.955472993722270e+000	 6.687981688007213e-001	 1.268841516263541e+001
 1.948346477952993e+000	 6.892834976536050e-001	 1.269775922761598e+001
 1.940987628381445e+000	 7.097414342048217e-001	 1.270721726456546e+001
 1.933396084890728e+000	 7.301682051371444e-001	 1.271727629135079e+001
 1.925571565595462e+000	 7.505600127467703e-001	 1.272856882420667e+001
 1.917513867912702e+000	 7.709130368854965e-001	 1.274187123973630e+001
 1.909222869577758e+000	 7.912234369493599e-001	 1.275810182877713e+001
 1.900698529602766e+000	 8.114873539120181e-001	 1.277831854632831e+001
 1.655436426200365e+000	 7.067747484208016e-001	 1.358681953616017e+001
 1.647810012626662e+000	 7.243773551837668e-001	 1.358809261692873e+001
 1.639980573555821e+000	 7.419327295049750e-001	 1.358651729659813e+001
 1.631948291327146e+000	 7.594374756351380e-001	 1.358198855730782e+001
 1.623713421824428e+000	 7.768881892624319e-001	 1.357448450114984e+001
 1.615276295033542e+000	 7.942814594508109e-001	 1.356406573133005e+001
 1.606637315540310e+000	 8.116138706063586e-001	 1.355087455326410e+001
 1.597796962967233e+000	 8.288820044695902e-001	 1.353513399743358e+001
 1.588755792347744e+000	 8.460824421315375e-001	 1.351714666621310e+001
 1.579514434436757e+000	 8.632117660713861e-001	 1.349729340725842e+001
 1.570073595956371e+000	 8.802665622133532e-001	 1.347603181641896e+001
 1.679962636540613e+000	 7.172460089701713e-001	 1.348855413818141e+001
 1.672223233413097e+000	 7.351094081314266e-001	 1.349150160735081e+001
 1.664277796852925e+000	 7.529248750760244e-001	 1.349148994784705e+001
 1.656126511900855e+000	 7.706889637447699e-001	 1.348847181382410e+001
 1.647769638231734e+000	 7.883982193890754e-001	 1.348248517231860e+001
 1.639207510720357e+000	 8.060491805379906e-001	 1.347365252500809e+001
 1.630440539946704e+000	 8.236383809936843e-001	 1.346217994596745e+001
 1.621469212639147e+000	 8.411623518532655e-001	 1.344835593763803e+001
 1.612294092054240e+000	 8.586176235547385e-001	 1.343255010760609e+001
 1.602915818291883e+000	 8.760007279448256e-001	 1.341521166916098e+001
 1.593335108544644e+000	 8.933082003663226e-001	 1.339686776897016e+001
 1.704488846880856e+000	 7.277172695190416e-001	 1.339345061597338e+001
 1.696636454199607e+000	 7.458414610785946e-001	 1.339840977126060e+001
 1.688575020150184e+000	 7.639170206466033e-001	 1.340027378628555e+001
 1.680304732474796e+000	 7.819404518539632e-001	 1.339904906484435e+001
 1.671825854639347e+000	 7.999082495153213e-001	 1.339482965974376e+001
 1.663138726407550e+000	 8.178169016248166e-001	 1.338779634278543e+001
 1.654243764353546e+000	 8.356628913807013e-001	 1.337821548698970e+001
 1.645141462311571e+000	 8.534426992366735e-001	 1.336643776364529e+001
 1.635832391761306e+000	 8.711528049777059e-001	 1.335289665714559e+001
 1.626317202147628e+000	 8.887896898180558e-001	 1.333810680093816e+001
 1.616596621133582e+000	 9.063498385190917e-001	 1.332266213827280e+001
 1.729015057221095e+000	 7.381885300675790e-001	 1.330193171135167e+001
 1.721049674986173e+000	 7.565735140254359e-001	 1.330913148018478e+001
 1.712872243447557e+000	 7.749091662168746e-001	 1.331307993420402e+001
 1.704482953048910e+000	 7.931919399628793e-001	 1.331383375162510e+001
 1.695882071047190e+000	 8.114182796413252e-001	 1.331153973152046e+001
 1.687069942095028e+000	 8.295846227114402e-001	 1.330643371924842e+001
 1.678046988760721e+000	 8.476874017675545e-001	 1.329883934057063e+001
 1.668813711984378e+000	 8.657230466199545e-001	 1.328916654739682e+001
 1.659370691468799e+000	 8.836879864005771e-001	 1.327790997846057e+001
 1.649718586003838e+000	 9.015786516912098e-001	 1.326564713858619e+001
 1.639858133723017e+000	 9.193914766717938e-001	 1.325303640055261e+001
 1.753541267561331e+000	 7.486597906159502e-001	 1.321432924056510e+001
 1.745462895772776e+000	 7.673055669721173e-001	 1.322389045341279e+001
 1.737169466745007e+000	 7.859013117870025e-001	 1.323002894279242e+001
 1.728661173623140e+000	 8.044434280716768e-001	 1.323284861309282e+001
 1.719938287455186e+000	 8.229283097672420e-001	 1.323254608951087e+001
 1.711001157782695e+000	 8.413523437980105e-001	 1.322940950576878e+001
 1.701850213168122e+000	 8.597119121543899e-001	 1.322381709720468e+001
 1.692485961657440e+000	 8.780033940032495e-001	 1.321623560251081e+001
 1.682908991176575e+000	 8.962231678234885e-001	 1.320721847774465e+001
 1.673119969860359e+000	 9.143676135644235e-001	 1.319740392658154e+001
 1.663119646312785e+000	 9.324331148245619e-001	 1.318751275110898e+001
 1.778067477901566e+000	 7.591310511643219e-001	 1.313088492963097e+001
 1.769876116559397e+000	 7.780376199188031e-001	 1.314282058990662e+001
 1.761466690042496e+000	 7.968934573571500e-001	 1.315115164117308e+001
 1.752839394197428e+000	 8.156949161805156e-001	 1.315602657359927e+001
 1.743994503863259e+000	 8.344383398932268e-001	 1.315768931845562e+001
 1.734932373470456e+000	 8.531200648846792e-001	 1.315647790461863e+001
 1.725653437575634e+000	 8.717364225413528e-001	 1.315282291740313e+001
 1.716158211330630e+000	 8.902837413866996e-001	 1.314724576331141e+001
 1.706447290884493e+000	 9.087583492465784e-001	 1.314035674462606e+001
 1.696521353717034e+000	 9.271565754378304e-001	 1.313285294809852e+001
 1.686381158902719e+000	 9.454747529775295e-001	 1.312551595229972e+001
 1.802593688241801e+000	 7.696023117128608e-001	 1.305175136729799e+001
 1.794289337346019e+000	 7.887696728656601e-001	 1.306596692694436e+001
 1.785763913339985e+000	 8.078856029274806e-001	 1.307639011966026e+001
 1.777017614771716e+000	 8.269464042895565e-001	 1.308321177068105e+001
 1.768050720271332e+000	 8.459483700194359e-001	 1.308672097904737e+001
 1.758863589158218e+000	 8.648877859715959e-001	 1.308730364908663e+001
 1.749456661983145e+000	 8.837609329285885e-001	 1.308544082147631e+001
 1.739830461003819e+000	 9.025640887704454e-001	 1.308170680777677e+001
 1.729985590592412e+000	 9.212935306699824e-001	 1.307676713263938e+001
 1.719922737573709e+000	 9.399455373115648e-001	 1.307137628820016e+001
 1.709642671492654e+000	 9.585163911308307e-001	 1.306637530546314e+001
 1.827119898582037e+000	 7.800735722617330e-001	 1.297699306458469e+001
 1.818702558132622e+000	 7.995017258128541e-001	 1.299328671358995e+001
 1.810061136637434e+000	 8.188777484981575e-001	 1.300559883463602e+001
 1.801195835345945e+000	 8.381978923989577e-001	 1.301416070966941e+001
 1.792106936679328e+000	 8.574584001460236e-001	 1.301930483144193e+001
 1.782794804845885e+000	 8.766555070589113e-001	 1.302146331587856e+001
 1.773259886390545e+000	 8.957854433162426e-001	 1.302116611161671e+001
 1.763502710676882e+000	 9.148444361546280e-001	 1.301903901088513e+001
 1.753523890300187e+000	 9.338287120938384e-001	 1.301580146618383e+001
 1.743324121430230e+000	 9.527344991857624e-001	 1.301226421750886e+001
 1.732904184082422e+000	 9.715580292845978e-001	 1.300932673513307e+001
 1.851646108922276e+000	 7.905448328111059e-001	 1.290658761101390e+001
 1.843115778919188e+000	 8.102337787605508e-001	 1.292465058834505e+001
 1.834358359934808e+000	 8.298698940693451e-001	 1.293854582376776e+001
 1.825374055920060e+000	 8.494493805088802e-001	 1.294854353339150e+001
 1.816163153087172e+000	 8.689684302731456e-001	 1.295501817711448e+001
 1.806726020533363e+000	 8.884232281467754e-001	 1.295844675753858e+001
 1.797063110797721e+000	 9.078099537044606e-001	 1.295940691401803e+001
 1.787174960349689e+000	 9.271247835393879e-001	 1.295857481626993e+001
 1.777062190007680e+000	 9.463638935182838e-001	 1.295672286224223e+001
 1.766725505286440e+000	 9.655234610605563e-001	 1.295471718518836e+001
 1.756165696671858e+000	 9.845996674389648e-001	 1.295351497513811e+001
 1.876172319262519e+000	 8.010160933611453e-001	 1.284042691869618e+001
 1.867528999705698e+000	 8.209658317089156e-001	 1.285984385145059e+001
 1.858655583232066e+000	 8.408620396412051e-001	 1.287491402147168e+001
 1.849552276494000e+000	 8.607008686194831e-001	 1.288594539643196e+001
 1.840219369494784e+000	 8.804784604009575e-001	 1.289335330823266e+001
 1.830657236220556e+000	 9.001909492353390e-001	 1.289765864391030e+001
 1.820866335204563e+000	 9.198344640933875e-001	 1.289948583004779e+001
 1.810847210022113e+000	 9.394051309248664e-001	 1.289956061536014e+001
 1.800600489714745e+000	 9.588990749434547e-001	 1.289870765636083e+001
 1.790126889142184e+000	 9.783124229360810e-001	 1.289784791123620e+001
 1.779427209260795e+000	 9.976413055940653e-001	 1.289799584726297e+001
 1.900698529602766e+000	 8.114873539120181e-001	 1.277831854632831e+001
 1.891942220492132e+000	 8.316978846581148e-001	 1.279856782329006e+001
 1.882952806529170e+000	 8.518541852139021e-001	 1.281430266556951e+001
 1.873730497067709e+000	 8.719523567309262e-001	 1.282586793451233e+001
 1.864275585902089e+000	 8.919884905296139e-001	 1.283371905483723e+001
 1.854588451907370e+000	 9.119586703247523e-001	 1.283842010279033e+001
 1.844669559610956e+000	 9.318589744831690e-001	 1.284064168662507e+001
 1.834519459694026e+000	 9.516854783112039e-001	 1.284115862429831e+001
 1.824138789421242e+000	 9.714342563694888e-001	 1.284084742347491e+001
 1.813528272997309e+000	 9.911013848124718e-001	 1.284068356911808e+001
 1.802688721849068e+000	 1.010682943750032e+000	 1.284172905314953e+001
 1.570073595956371e+000	 8.802665622133532e-001	 1.347603181641897e+001
 1.560432599048893e+000	 8.972459629298201e-001	 1.345204550946639e+001
 1.550593705615053e+000	 9.141440024143019e-001	 1.342379640714916e+001
 1.540557852787052e+000	 9.309572889204422e-001	 1.339150573730453e+001
 1.530326054011600e+000	 9.476824425612989e-001	 1.335545957463082e+001
 1.519899398955622e+000	 9.643160974265818e-001	 1.331600745109937e+001
 1.509279053342250e+000	 9.808549037040831e-001	 1.327356083928606e+001
 1.498466258716638e+000	 9.972955298026260e-001	 1.322859151223221e+001
 1.487462332141325e+000	 1.013634664473865e+000	 1.318162306272310e+001
 1.476268665820915e+000	 1.029869018930230e+000	 1.313325692271396e+001
 1.464886726656035e+000	 1.045995328956277e+000	 1.308412689910544e+001
 1.593335108544644e+000	 8.933082003663226e-001	 1.339686776897016e+001
 1.583551274911993e+000	 9.105391603372328e-001	 1.337616626823865e+001
 1.573566612805977e+000	 9.276875536643393e-001	 1.335146496343661e+001
 1.563382073242935e+000	 9.447499383506840e-001	 1.332295319027841e+001
 1.552998684684357e+000	 9.617228844344273e-001	 1.329088368792277e+001
 1.542417552941194e+000	 9.786029761374548e-001	 1.325557121830328e+001
 1.531639861007416e+000	 9.953868140182343e-001	 1.321739106344336e+001
 1.520666868822365e+000	 1.012071017126220e+000	 1.317677036338585e+001
 1.509499912961594e+000	 1.028652225155088e+000	 1.313421563326538e+001
 1.498140406255998e+000	 1.045127100592058e+000	 1.309026527070296e+001
 1.486589837339156e+000	 1.061492330860527e+000	 1.304551931250881e+001
 1.616596621133582e+000	 9.063498385190917e-001	 1.332266213827280e+001
 1.606669950775794e+000	 9.238323577444372e-001	 1.330514792240813e+001
 1.596539519997630e+000	 9.412311049141447e-001	 1.328380291834671e+001
 1.586206293699568e+000	 9.585425877806584e-001	 1.325879991605113e+001
 1.575671315357876e+000	 9.757633263072424e-001	 1.323037371944069e+001
 1.564935706927530e+000	 9.928898548479597e-001	 1.319881975313300e+001
 1.554000668673342e+000	 1.009918724331957e+000	 1.316449255218842e+001
 1.542867478928837e+000	 1.026846504449323e+000	 1.312779788951085e+001
 1.531537493782587e+000	 1.043669785835758e+000	 1.308921706807473e+001
 1.520012146691774e+000	 1.060385182253275e+000	 1.304926436373829e+001
 1.508292948022929e+000	 1.076989332764112e+000	 1.300851345193361e+001
 1.639858133723017e+000	 9.193914766717938e-001	 1.325303640055261e+001
 1.629788626640121e+000	 9.371255551515679e-001	 1.323857097273166e+001
 1.619512427189830e+000	 9.547746561638559e-001	 1.322035259214262e+001
 1.609030514156762e+000	 9.723352372105052e-001	 1.319855244568686e+001
 1.598343946031964e+000	 9.898037681798880e-001	 1.317340239142042e+001
 1.587453860914438e+000	 1.007176733558246e+000	 1.314519353184468e+001
 1.576361476339833e+000	 1.024450634645407e+000	 1.311426806725458e+001
 1.565068089035861e+000	 1.041621991772096e+000	 1.308104519519879e+001
 1.553575074604111e+000	 1.058687346516041e+000	 1.304597621698983e+001
 1.541883887128053e+000	 1.075643263914047e+000	 1.300957277477485e+001
 1.529996058707169e+000	 1.092486334667199e+000	 1.297239701381401e+001
 1.663119646312785e+000	 9.324331148245619e-001	 1.318751275110898e+001
 1.652907302504798e+000	 9.504187525587583e-001	 1.317591423905486e+001
 1.642485334382394e+000	 9.683182074136089e-001	 1.316055218769217e+001
 1.631854734614329e+000	 9.861278866403652e-001	 1.314161074261201e+001
 1.621016576706430e+000	 1.003844210052509e+000	 1.311933341728486e+001
 1.609972014901722e+000	 1.021463612268464e+000	 1.309401457587708e+001
 1.598722284006695e+000	 1.038982544958740e+000	 1.306602720497425e+001
 1.587268699143245e+000	 1.056397479094699e+000	 1.303577520011361e+001
 1.575612655425975e+000	 1.073704907196097e+000	 1.300372370737298e+001
 1.563755627564647e+000	 1.090901345574538e+000	 1.297038880376784e+001
 1.551699169391692e+000	 1.107983336569954e+000	 1.293633551879781e+001
 1.686381158902719e+000	 9.454747529775295e-001	 1.312551595229972e+001
 1.676025978369649e+000	 9.637119499661433e-001	 1.311655694400544e+001
 1.665458241575140e+000	 9.818617586635405e-001	 1.310373811527807e+001
 1.654678955072082e+000	 9.999205360703791e-001	 1.308727077185608e+001
 1.643689207381082e+000	 1.017884651925251e+000	 1.306741677162275e+001
 1.632490168889190e+000	 1.035750490978762e+000	 1.304451847357544e+001
 1.621083091673733e+000	 1.053514455272107e+000	 1.301894765871627e+001
 1.609469309250792e+000	 1.071172966417289e+000	 1.299113831428971e+001
 1.597650236247988e+000	 1.088722467876090e+000	 1.296157571124344e+001
 1.585627368001368e+000	 1.106159427234916e+000	 1.293079446461971e+001
 1.573402280076318e+000	 1.123480338472545e+000	 1.289937650696194e+001
 1.709642671492654e+000	 9.585163911308307e-001	 1.306637530546314e+001
 1.699144654234502e+000	 9.770051473738575e-001	 1.305978091001786e+001
 1.688431148767885e+000	 9.954053099137871e-001	 1.304914741956562e+001
 1.677503175529833e+000	 1.013713185500686e+000	 1.303471901640401e+001
 1.666361838055729e+000	 1.031925093798258e+000	 1.301682261514074e+001
 1.655008322876648e+000	 1.050037369689292e+000	 1.299581279862845e+001
 1.643443899340753e+000	 1.068046365585667e+000	 1.297210743528634e+001
 1.631669919358312e+000	 1.085948453740026e+000	 1.294617601910986e+001
 1.619687817069959e+000	 1.103740028556184e+000	 1.291853774411422e+001
 1.607499108438030e+000	 1.121417508895345e+000	 1.288975949296382e+001
 1.595105390760859e+000	 1.138977340375136e+000	 1.286045374366182e+001
 1.732904184082422e+000	 9.715580292845978e-001	 1.300932673513307e+001
 1.722263330099178e+000	 9.902983447820338e-001	 1.300477285904238e+001
 1.711404055960447e+000	 1.008948861164486e+000	 1.299592029913212e+001
 1.700327395987393e+000	 1.027505834931428e+000	 1.298306868686645e+001
 1.689034468730179e+000	 1.045965535671676e+000	 1.296659639227240e+001
 1.677526476863901e+000	 1.064324248400201e+000	 1.294691096858047e+001
 1.665804707007561e+000	 1.082578275899572e+000	 1.292448083348932e+001
 1.653870529465609e+000	 1.100723941063069e+000	 1.289982448731430e+001
 1.641725397891696e+000	 1.118757589236542e+000	 1.287350849255400e+001
 1.629370848874443e+000	 1.136675590555991e+000	 1.284614537282827e+001
 1.616808501445135e+000	 1.154474342277896e+000	 1.281839143501718e+001
 1.756165696671858e+000	 9.845996674389648e-001	 1.295351497513811e+001
 1.745382005963505e+000	 1.003591542190808e+000	 1.295062680541996e+001
 1.734376963152643e+000	 1.022492412415774e+000	 1.294309480610771e+001
 1.723151616444576e+000	 1.041298484362744e+000	 1.293131095233983e+001
 1.711707099404241e+000	 1.060005977545648e+000	 1.291569467571828e+001
 1.700044630850756e+000	 1.078611127111641e+000	 1.289672759847448e+001
 1.688165514673963e+000	 1.097110186213977e+000	 1.287494189501929e+001
 1.676071139572491e+000	 1.115499428386579e+000	 1.285091823842326e+001
 1.663762978713008e+000	 1.133775149917325e+000	 1.282528366781314e+001
 1.651242589310420e+000	 1.151933672217020e+000	 1.279870938043107e+001
 1.638511612128961e+000	 1.169971344180990e+000	 1.277190845214154e+001
 1.779427209260795e+000	 9.976413055940653e-001	 1.289799584726297e+001
 1.768500681827304e+000	 1.016884739600314e+000	 1.289633786175052e+001
 1.757349870344291e+000	 1.036035963667787e+000	 1.288964204050801e+001
 1.745975836901192e+000	 1.055091133794776e+000	 1.287835316031318e+001
 1.734379730077722e+000	 1.074046419420320e+000	 1.286297982178947e+001
 1.722562784837020e+000	 1.092898005823761e+000	 1.284408179242361e+001
 1.710526322339763e+000	 1.111642096529037e+000	 1.282226789628132e+001
 1.698271749678765e+000	 1.130274915710713e+000	 1.279819382633370e+001
 1.685800559533704e+000	 1.148792710598699e+000	 1.277255988312922e+001
 1.673114329745773e+000	 1.167191753878597e+000	 1.274610864353972e+001
 1.660214722812154e+000	 1.185468346084587e+000	 1.271962256331718e+001
 1.802688721849068e+000	 1.010682943750032e+000	 1.284172905314953e+001
 1.791619357690404e+000	 1.030177937010685e+000	 1.284084043321171e+001
 1.780322777535209e+000	 1.049579514920662e+000	 1.283441873057230e+001
 1.768800057357055e+000	 1.068883783227662e+000	 1.282301270835320e+001
 1.757052360750431e+000	 1.088086861295837e+000	 1.280722311230840e+001
 1.745080938822499e+000	 1.107184884536711e+000	 1.278770048051804e+001
 1.732887130004770e+000	 1.126174006844907e+000	 1.276514287744889e+001
 1.720472359784236e+000	 1.145050403035631e+000	 1.274029355618528e+001
 1.707838140353593e+000	 1.163810271280825e+000	 1.271393855257464e+001
 1.694986070180313e+000	 1.182449835540888e+000	 1.268690421499109e+001
 1.681917833494530e+000	 1.200965347988850e+000	 1.266005467339889e+001
 1.464886726656035e+000	 1.045995328956277e+000	 1.308412689910544e+001
 1.453318055313266e+000	 1.062010356656721e+000	 1.303170247426845e+001
 1.441564264409459e+000	 1.077910891462778e+000	 1.297357321156657e+001
 1.429627039115891e+000	 1.093693753232441e+000	 1.291064147093528e+001
 1.417508136850242e+000	 1.109355794658762e+000	 1.284386211991891e+001
 1.405209386483143e+000	 1.124893903309479e+000	 1.277424008035720e+001
 1.392732687476031e+000	 1.140305003643770e+000	 1.270282778569746e+001
 1.380080008951025e+000	 1.155586059003449e+000	 1.263072255474487e+001
 1.367253388693743e+000	 1.170734073575938e+000	 1.255906388789175e+001
 1.354254932090050e+000	 1.185746094326383e+000	 1.248903069208703e+001
 1.341086810997859e+000	 1.200619212896339e+000	 1.242183844101913e+001
 1.486589837339156e+000	 1.061492330860527e+000	 1.304551931250881e+001
 1.474849769703483e+000	 1.077744630093995e+000	 1.299739636877034e+001
 1.462921839857642e+000	 1.093880740157302e+000	 1.294339701863002e+001
 1.450807757939659e+000	 1.109897433792857e+000	 1.288431802839818e+001
 1.438509307404328e+000	 1.125791517064594e+000	 1.282100099679150e+001
 1.426028344218016e+000	 1.141559831427820e+000	 1.275433003599071e+001
 1.413366795983732e+000	 1.157199255775851e+000	 1.268522937924604e+001
 1.400526660997231e+000	 1.172706708460706e+000	 1.261466092049638e+001
 1.387510007235056e+000	 1.188079149285163e+000	 1.254362169165821e+001
 1.374318971275530e+000	 1.203313581463499e+000	 1.247314128342362e+001
 1.360955757153845e+000	 1.218407053548307e+000	 1.240427921558725e+001
 1.508292948022929e+000	 1.076989332764112e+000	 1.300851345193361e+001
 1.496381484094301e+000	 1.093478903530556e+000	 1.296426352138049e+001
 1.484279415306369e+000	 1.109850588851077e+000	 1.291387896099251e+001
 1.471988476763907e+000	 1.126101114352495e+000	 1.285809900773727e+001
 1.459510477958825e+000	 1.142227239469625e+000	 1.279770112836334e+001
 1.446847301953224e+000	 1.158225759545347e+000	 1.273349876063893e+001
 1.434000904491688e+000	 1.174093507907113e+000	 1.266633899480795e+001
 1.420973313043610e+000	 1.189827357917149e+000	 1.259710020050694e+001
 1.407766625776456e+000	 1.205424224993586e+000	 1.252668960454382e+001
 1.394383010461012e+000	 1.220881068599836e+000	 1.245604082509497e+001
 1.380824703309748e+000	 1.236194894199525e+000	 1.238611136802969e+001
 1.529996058707169e+000	 1.092486334667199e+000	 1.297239701381401e+001
 1.517913198485543e+000	 1.109213176966573e+000	 1.293157872066177e+001
 1.505636990755471e+000	 1.125820437544266e+000	 1.288431656778024e+001
 1.493169195588471e+000	 1.142304794911510e+000	 1.283133852211945e+001
 1.480511648513576e+000	 1.158662961874006e+000	 1.277340521159863e+001
 1.467666259688621e+000	 1.174891687662203e+000	 1.271130765432607e+001
 1.454635012999764e+000	 1.190987760037691e+000	 1.264586493950374e+001
 1.441419965090037e+000	 1.206948007372900e+000	 1.257792186515532e+001
 1.428023244317834e+000	 1.222769300701319e+000	 1.250834653794920e+001
 1.414447049646399e+000	 1.238448555735490e+000	 1.243802794052228e+001
 1.400693649465486e+000	 1.253982734850077e+000	 1.236787347184212e+001
 1.551699169391692e+000	 1.107983336569954e+000	 1.293633551879781e+001
 1.539444912877032e+000	 1.124947450402209e+000	 1.289849178414306e+001
 1.526994566204773e+000	 1.141790286237030e+000	 1.285387771887467e+001
 1.514349914413188e+000	 1.158508475470063e+000	 1.280325457392179e+001
 1.501512819068427e+000	 1.175098684277891e+000	 1.274741168965136e+001
 1.488485217424060e+000	 1.191557615778533e+000	 1.268716414278590e+001
 1.475269121507824e+000	 1.207882012167718e+000	 1.262335035431634e+001
 1.461866617136390e+000	 1.224068656828084e+000	 1.255682966355612e+001
 1.448279862859078e+000	 1.240114376408472e+000	 1.248847987360013e+001
 1.434511088831594e+000	 1.256016042870559e+000	 1.241919477356989e+001
 1.420562595620974e+000	 1.271770575500045e+000	 1.234988164314496e+001
 1.573402280076318e+000	 1.123480338472545e+000	 1.289937650696194e+001
 1.560976627268588e+000	 1.140681723837632e+000	 1.286403202149366e+001
 1.548352141654106e+000	 1.157760134929534e+000	 1.282160550355758e+001
 1.535530633237893e+000	 1.174712156028311e+000	 1.277293442901175e+001
 1.522513989623221e+000	 1.191534406681430e+000	 1.271888075446342e+001
 1.509304175159396e+000	 1.208223543894480e+000	 1.266032841345098e+001
 1.495903230015734e+000	 1.224776264297331e+000	 1.259818078081439e+001
 1.482313269182544e+000	 1.241189306282822e+000	 1.253335811051817e+001
 1.468536481400075e+000	 1.257459452115157e+000	 1.246679495229602e+001
 1.454575128016497e+000	 1.273583530005140e+000	 1.239943755259597e+001
 1.440431541776130e+000	 1.289558416149514e+000	 1.233224124541799e+001
 1.595105390760859e+000	 1.138977340375136e+000	 1.286045374366182e+001
 1.582508341660034e+000	 1.156415997273006e+000	 1.282711269295979e+001
 1.569709717103297e+000	 1.173729983621940e+000	 1.278642304832386e+001
 1.556711352062423e+000	 1.190915836586413e+000	 1.273933992396259e+001
 1.543515160177803e+000	 1.207970129084775e+000	 1.268684023652277e+001
 1.530123132894483e+000	 1.224889472010190e+000	 1.262991998388987e+001
 1.516537338523357e+000	 1.241670516426661e+000	 1.256959149729320e+001
 1.502759921228375e+000	 1.258309955737241e+000	 1.250688067219938e+001
 1.488793099940716e+000	 1.274804527821486e+000	 1.244282418357889e+001
 1.474639167201012e+000	 1.291151017139334e+000	 1.237846669123962e+001
 1.460300487930869e+000	 1.307346256798567e+000	 1.231485804103309e+001
 1.616808501445135e+000	 1.154474342277896e+000	 1.281839143501718e+001
 1.604040056051193e+000	 1.172150270708497e+000	 1.278653546350959e+001
 1.591067292552176e+000	 1.189699832314410e+000	 1.274713831676073e+001
 1.577892070886612e+000	 1.207119517144526e+000	 1.270131271250735e+001
 1.564516330732018e+000	 1.224405851488079e+000	 1.265019139238518e+001
 1.550942090629174e+000	 1.241555400125803e+000	 1.259492411843755e+001
 1.537171447030557e+000	 1.258564768555845e+000	 1.253667464600134e+001
 1.523206573273758e+000	 1.275430605191462e+000	 1.247661767877069e+001
 1.509049718480886e+000	 1.292149603527569e+000	 1.241593581194440e+001
 1.494703206385040e+000	 1.308718504273237e+000	 1.235581646947644e+001
 1.480169434085108e+000	 1.325134097447286e+000	 1.229744884156805e+001
 1.638511612128961e+000	 1.169971344180990e+000	 1.277190845214154e+001
 1.625571770441885e+000	 1.187884544144271e+000	 1.274099485308632e+001
 1.612424868000571e+000	 1.205669681007109e+000	 1.270244888408490e+001
 1.599072789710299e+000	 1.223323197702809e+000	 1.265757945686617e+001
 1.585517501285710e+000	 1.240841573891492e+000	 1.260771459944109e+001
 1.571761048363325e+000	 1.258221328241467e+000	 1.255419810709642e+001
 1.557805555537200e+000	 1.275459020685017e+000	 1.249838617082494e+001
 1.543653225318572e+000	 1.292551254645610e+000	 1.244164398940316e+001
 1.529306337020477e+000	 1.309494679233518e+000	 1.238534237144186e+001
 1.514767245568484e+000	 1.326285991406947e+000	 1.233085433386140e+001
 1.500038380238764e+000	 1.342921938095756e+000	 1.227735709005476e+001
 1.660214722812154e+000	 1.185468346084587e+000	 1.271962256331718e+001
 1.647103484831933e+000	 1.203618817580494e+000	 1.268908268332698e+001
 1.633782443448310e+000	 1.221639529700198e+000	 1.265094668865792e+001
 1.620253508533317e+000	 1.239526878261420e+000	 1.260675696899321e+001
 1.606518671838723e+000	 1.257277296295168e+000	 1.255807496641647e+001
 1.592580006096787e+000	 1.274887256357323e+000	 1.250647741931191e+001
 1.578439664043150e+000	 1.292353272814311e+000	 1.245355258277530e+001
 1.564099877362689e+000	 1.309671904099807e+000	 1.240089643224286e+001
 1.549562955559376e+000	 1.326839754939444e+000	 1.235010885717911e+001
 1.534831284751244e+000	 1.343853478540562e+000	 1.230029980694442e+001
 1.519907326391754e+000	 1.360709778744060e+000	 1.224348389030235e+001
 1.681917833494530e+000	 1.200965347988850e+000	 1.266005467339889e+001
 1.668635199221159e+000	 1.219353091017331e+000	 1.262929252106698e+001
 1.655140018895221e+000	 1.237609378393840e+000	 1.259112276256063e+001
 1.641434227355505e+000	 1.255730558820518e+000	 1.254735730626797e+001
 1.627519842390902e+000	 1.273713018699258e+000	 1.249982786722009e+001
 1.613398963829417e+000	 1.291553184473516e+000	 1.245038174392681e+001
 1.599073772548270e+000	 1.309247524943862e+000	 1.240087756883554e+001
 1.584546529405988e+000	 1.326792553554179e+000	 1.235318103970046e+001
 1.569819574097471e+000	 1.344184830645459e+000	 1.230668128420841e+001
 1.554895323933223e+000	 1.361420965674179e+000	 1.225384775905875e+001
 1.539776272543993e+000	 1.378497619392281e+000	 1.219537656913488e+001
 1.341086810997859e+000	 1.200619212896339e+000	 1.242183844101913e+001
 1.327753275425903e+000	 1.215348368834772e+000	 1.235022454486289e+001
 1.314254664028600e+000	 1.229932992248813e+000	 1.226590826175475e+001
 1.300593340761640e+000	 1.244370322232309e+000	 1.217104299779329e+001
 1.286771730854787e+000	 1.258657649759996e+000	 1.206830310811719e+001
 1.272792319379371e+000	 1.272792319379371e+000	 1.196036156186472e+001
 1.258657649759996e+000	 1.286771730854787e+000	 1.184987987794290e+001
 1.244370322232309e+000	 1.300593340761641e+000	 1.173949805547570e+001
 1.229932992248813e+000	 1.314254664028600e+000	 1.163182454581854e+001
 1.215348368834772e+000	 1.327753275425902e+000	 1.152942631351246e+001
 1.200619212896339e+000	 1.341086810997858e+000	 1.143293406969719e+001
 1.360955757153845e+000	 1.218407053548307e+000	 1.240427921558725e+001
 1.347424677844972e+000	 1.233354430115146e+000	 1.233017201797760e+001
 1.333726077020677e+000	 1.248155132827871e+000	 1.224533792169314e+001
 1.319862353659959e+000	 1.262806359875977e+000	 1.215145892706278e+001
 1.305835968923696e+000	 1.277305362098496e+000	 1.204990927567398e+001
 1.291649444700928e+000	 1.291649444700928e+000	 1.194372531656939e+001
 1.277305362098497e+000	 1.305835968923696e+000	 1.183593771232995e+001
 1.262806359875977e+000	 1.319862353659959e+000	 1.172955864172803e+001
 1.248155132827870e+000	 1.333726077020677e+000	 1.162756500484166e+001
 1.233354430115146e+000	 1.347424677844972e+000	 1.152679746791960e+001
 1.218407053548307e+000	 1.360955757153844e+000	 1.142498914693768e+001
 1.380824703309748e+000	 1.236194894199525e+000	 1.238611136802969e+001
 1.367096080263875e+000	 1.251360491394808e+000	 1.231038178238711e+001
 1.353197490012505e+000	 1.266377273406264e+000	 1.222392869239982e+001
 1.339131366557947e+000	 1.281242397519037e+000	 1.213019112997979e+001
 1.324900206992199e+000	 1.295953074436450e+000	 1.203206817954267e+001
 1.310506570022006e+000	 1.310506570022005e+000	 1.193046897008275e+001
 1.295953074436450e+000	 1.324900206992199e+000	 1.182840766927258e+001
 1.281242397519037e+000	 1.339131366557946e+000	 1.172814187319644e+001
 1.266377273406264e+000	 1.353197490012506e+000	 1.162406212309206e+001
 1.251360491394808e+000	 1.367096080263875e+000	 1.151756922116328e+001
 1.236194894199525e+000	 1.380824703309748e+000	 1.141215991230888e+001
 1.400693649465486e+000	 1.253982734850077e+000	 1.236787347184212e+001
 1.386767482682543e+000	 1.269366552673829e+000	 1.229186752671380e+001
 1.372668903004032e+000	 1.284599413984047e+000	 1.220570527230663e+001
 1.358400379455570e+000	 1.299678435161525e+000	 1.211294534443486e+001
 1.343964445060277e+000	 1.314600786773875e+000	 1.201719581270961e+001
 1.329363695342603e+000	 1.329363695342603e+000	 1.192198191413844e+001
 1.314600786773875e+000	 1.343964445060277e+000	 1.182517877366162e+001
 1.299678435161524e+000	 1.358400379455569e+000	 1.172077351307955e+001
 1.284599413984047e+000	 1.372668903004031e+000	 1.161197019488850e+001
 1.269366552673829e+000	 1.386767482682543e+000	 1.150242042519579e+001
 1.253982734850077e+000	 1.400693649465486e+000	 1.139576534253304e+001
 1.420562595620974e+000	 1.271770575500045e+000	 1.234988164314496e+001
 1.406438885100908e+000	 1.287372613952274e+000	 1.227514348086142e+001
 1.392140315995205e+000	 1.302821554561270e+000	 1.219131330589642e+001
 1.377669392352793e+000	 1.318114472803472e+000	 1.210197412763492e+001
 1.363028683127914e+000	 1.333248499110788e+000	 1.201075782530436e+001
 1.348220820662723e+000	 1.348220820662722e+000	 1.191501669330861e+001
 1.333248499110788e+000	 1.363028683127914e+000	 1.181215808502303e+001
 1.318114472803472e+000	 1.377669392352793e+000	 1.170429081501010e+001
 1.302821554561270e+000	 1.392140315995205e+000	 1.159340743309255e+001
 1.287372613952274e+000	 1.406438885100908e+000	 1.148320028488338e+001
 1.271770575500045e+000	 1.420562595620974e+000	 1.137735001659775e+001
 1.440431541776130e+000	 1.289558416149514e+000	 1.233224124541799e+001
 1.426110287518902e+000	 1.305378675230213e+000	 1.226049980922506e+001
 1.411611728985973e+000	 1.321043695137985e+000	 1.218116483669621e+001
 1.396938405249583e+000	 1.336550510444917e+000	 1.209746505802742e+001
 1.382092921195092e+000	 1.351896211447207e+000	 1.200433513670740e+001
 1.367077945982363e+000	 1.367077945982363e+000	 1.190141711121504e+001
 1.351896211447207e+000	 1.382092921195092e+000	 1.179247022776062e+001
 1.336550510444917e+000	 1.396938405249583e+000	 1.168131259618124e+001
 1.321043695137985e+000	 1.411611728985973e+000	 1.157069281018724e+001
 1.305378675230213e+000	 1.426110287518902e+000	 1.146196738558948e+001
 1.289558416149514e+000	 1.440431541776130e+000	 1.135867836271705e+001
 1.460300487930869e+000	 1.307346256798567e+000	 1.231485804103309e+001
 1.445781689936458e+000	 1.323384736507712e+000	 1.224801470314040e+001
 1.431083141976286e+000	 1.339265835714243e+000	 1.217452086124807e+001
 1.416207418145903e+000	 1.354986548085892e+000	 1.208811565713779e+001
 1.401157159261793e+000	 1.370543923783149e+000	 1.198968597337335e+001
 1.385935071301524e+000	 1.385935071301523e+000	 1.188272975341833e+001
 1.370543923783149e+000	 1.401157159261793e+000	 1.177080735085815e+001
 1.354986548085892e+000	 1.416207418145904e+000	 1.165753647226614e+001
 1.339265835714243e+000	 1.431083141976285e+000	 1.154658696577137e+001
 1.323384736507713e+000	 1.445781689936458e+000	 1.144098411930935e+001
 1.307346256798566e+000	 1.460300487930869e+000	 1.134172840126968e+001
 1.480169434085108e+000	 1.325134097447286e+000	 1.229744884156805e+001
 1.465453092353505e+000	 1.341390797784841e+000	 1.223593163945246e+001
 1.450554554966089e+000	 1.357487976290097e+000	 1.215938027265462e+001
 1.435476431041720e+000	 1.373422585726433e+000	 1.206922893917203e+001
 1.420221397328001e+000	 1.389191636118633e+000	 1.196862465593796e+001
 1.404792196620206e+000	 1.404792196620206e+000	 1.186077761939628e+001
 1.389191636118633e+000	 1.420221397328000e+000	 1.174895686407270e+001
 1.373422585726434e+000	 1.435476431041720e+000	 1.163648576736753e+001
 1.357487976290097e+000	 1.450554554966089e+000	 1.152673740391849e+001
 1.341390797784841e+000	 1.465453092353505e+000	 1.142312975326530e+001
 1.325134097447286e+000	 1.480169434085108e+000	 1.132868503107297e+001
 1.500038380238764e+000	 1.342921938095756e+000	 1.227735709005476e+001
 1.485124494769979e+000	 1.359396859061667e+000	 1.221248383987117e+001
 1.470025967955333e+000	 1.375710116865597e+000	 1.213329810367877e+001
 1.454745443936998e+000	 1.391858623366575e+000	 1.204251710660987e+001
 1.439285635393696e+000	 1.407839348453674e+000	 1.194291877829392e+001
 1.423649321938409e+000	 1.423649321938408e+000	 1.183733828792164e+001
 1.407839348453675e+000	 1.439285635393696e+000	 1.172866443326369e+001
 1.391858623366575e+000	 1.454745443936998e+000	 1.161983588466845e+001
 1.375710116865597e+000	 1.470025967955333e+000	 1.151383728538245e+001
 1.359396859061667e+000	 1.485124494769979e+000	 1.141369520988974e+001
 1.342921938095756e+000	 1.500038380238765e+000	 1.132247398234878e+001
 1.519907326391754e+000	 1.360709778744060e+000	 1.224348389030235e+001
 1.504795897185810e+000	 1.377402920338258e+000	 1.217654602848470e+001
 1.489497380943965e+000	 1.393932257440796e+000	 1.209784311094176e+001
 1.474014456831702e+000	 1.410294661006352e+000	 1.200964963713740e+001
 1.458349873458863e+000	 1.426487060788292e+000	 1.191429221567326e+001
 1.442506447256132e+000	 1.442506447256132e+000	 1.181414698638112e+001
 1.426487060788292e+000	 1.458349873458862e+000	 1.171163691073605e+001
 1.410294661006352e+000	 1.474014456831703e+000	 1.160922892926055e+001
 1.393932257440795e+000	 1.489497380943965e+000	 1.150943098485855e+001
 1.377402920338257e+000	 1.504795897185810e+000	 1.141478891132955e+001
 1.360709778744060e+000	 1.519907326391754e+000	 1.132788318666318e+001
 1.539776272543993e+000	 1.378497619392281e+000	 1.219537656913488e+001
 1.524467299600929e+000	 1.395408981614681e+000	 1.212950546477580e+001
 1.508968793931934e+000	 1.412154398015745e+000	 1.205454701924785e+001
 1.493283469725799e+000	 1.428730698645799e+000	 1.197225572656057e+001
 1.477414111523483e+000	 1.445134773122503e+000	 1.188442770212192e+001
 1.461363572573377e+000	 1.461363572573377e+000	 1.179289915633702e+001
 1.445134773122503e+000	 1.477414111523483e+000	 1.169954475450466e+001
 1.428730698645800e+000	 1.493283469725799e+000	 1.160627585894167e+001
 1.412154398015745e+000	 1.508968793931934e+000	 1.151503864947215e+001
 1.395408981614681e+000	 1.524467299600929e+000	 1.142781211867889e+001
 1.378497619392282e+000	 1.539776272543993e+000	 1.134660593862636e+001
 1.200619212896339e+000	 1.341086810997858e+000	 1.143293406969719e+001
 1.185746094326383e+000	 1.354254932090050e+000	 1.133135353671421e+001
 1.170734073575938e+000	 1.367253388693743e+000	 1.122015486410321e+001
 1.155586059003449e+000	 1.380080008951025e+000	 1.110065621004712e+001
 1.140305003643770e+000	 1.392732687476032e+000	 1.097411622092899e+001
 1.124893903309479e+000	 1.405209386483143e+000	 1.084173122983938e+001
 1.109355794658762e+000	 1.417508136850241e+000	 1.070463260571043e+001
 1.093693753232441e+000	 1.429627039115892e+000	 1.056388425592493e+001
 1.077910891462778e+000	 1.441564264409459e+000	 1.042048028476352e+001
 1.062010356656721e+000	 1.453318055313266e+000	 1.027534280961062e+001
 1.045995328956277e+000	 1.464886726656035e+000	 1.012931993644205e+001
 1.218407053548307e+000	 1.360955757153844e+000	 1.142498914693768e+001
 1.203313581463500e+000	 1.374318971275530e+000	 1.131925850141594e+001
 1.188079149285163e+000	 1.387510007235055e+000	 1.120541826855402e+001
 1.172706708460706e+000	 1.400526660997231e+000	 1.108464997857034e+001
 1.157199255775851e+000	 1.413366795983732e+000	 1.095807370421047e+001
 1.141559831427820e+000	 1.426028344218016e+000	 1.082674549374653e+001
 1.125791517064594e+000	 1.438509307404328e+000	 1.069165495754847e+001
 1.109897433792857e+000	 1.450807757939659e+000	 1.055372300997904e+001
 1.093880740157302e+000	 1.462921839857642e+000	 1.041379976786423e+001
 1.077744630093995e+000	 1.474849769703483e+000	 1.027266260634700e+001
 1.061492330860527e+000	 1.486589837339156e+000	 1.013101437254060e+001
 1.236194894199525e+000	 1.380824703309748e+000	 1.141215991230888e+001
 1.220881068599836e+000	 1.394383010461012e+000	 1.130454443707711e+001
 1.205424224993587e+000	 1.407766625776456e+000	 1.118989768455995e+001
 1.189827357917149e+000	 1.420973313043610e+000	 1.106930938054307e+001
 1.174093507907113e+000	 1.434000904491688e+000	 1.094380683670441e+001
 1.158225759545347e+000	 1.446847301953224e+000	 1.081435254209736e+001
 1.142227239469625e+000	 1.459510477958824e+000	 1.068184191018135e+001
 1.126101114352494e+000	 1.471988476763906e+000	 1.054710118214602e+001
 1.109850588851077e+000	 1.484279415306369e+000	 1.041088548676562e+001
 1.093478903530556e+000	 1.496381484094301e+000	 1.027387705657112e+001
 1.076989332764112e+000	 1.508292948022929e+000	 1.013668359974320e+001
 1.253982734850077e+000	 1.400693649465486e+000	 1.139576534253304e+001
 1.238448555735490e+000	 1.414447049646399e+000	 1.128821245095761e+001
 1.222769300701319e+000	 1.428023244317834e+000	 1.117430546197720e+001
 1.206948007372900e+000	 1.441419965090038e+000	 1.105508538047458e+001
 1.190987760037690e+000	 1.454635012999764e+000	 1.093153080370720e+001
 1.174891687662203e+000	 1.467666259688620e+000	 1.080455559793924e+001
 1.158662961874007e+000	 1.480511648513576e+000	 1.067500673168339e+001
 1.142304794911510e+000	 1.493169195588471e+000	 1.054366226537735e+001
 1.125820437544266e+000	 1.505636990755471e+000	 1.041122949679821e+001
 1.109213176966573e+000	 1.517913198485543e+000	 1.027834326106452e+001
 1.092486334667199e+000	 1.529996058707168e+000	 1.014556438369988e+001
 1.271770575500045e+000	 1.420562595620974e+000	 1.137735001659775e+001
 1.256016042870559e+000	 1.434511088831594e+000	 1.127150045687493e+001
 1.240114376408472e+000	 1.448279862859077e+000	 1.115960020133738e+001
 1.224068656828083e+000	 1.461866617136390e+000	 1.104268297468088e+001
 1.207882012167718e+000	 1.475269121507824e+000	 1.092172103838263e+001
 1.191557615778533e+000	 1.488485217424060e+000	 1.079762288176970e+001
 1.175098684277891e+000	 1.501512819068427e+000	 1.067123106990597e+001
 1.158508475470063e+000	 1.514349914413188e+000	 1.054332024727472e+001
 1.141790286237030e+000	 1.526994566204773e+000	 1.041459529569735e+001
 1.124947450402209e+000	 1.539444912877032e+000	 1.028568964447244e+001
 1.107983336569954e+000	 1.551699169391692e+000	 1.015716373035003e+001
 1.289558416149514e+000	 1.440431541776130e+000	 1.135867836271705e+001
 1.273583530005141e+000	 1.454575128016497e+000	 1.125587668155083e+001
 1.257459452115157e+000	 1.468536481400075e+000	 1.114697965379246e+001
 1.241189306282822e+000	 1.482313269182545e+000	 1.103305361142322e+001
 1.224776264297331e+000	 1.495903230015734e+000	 1.091510528095675e+001
 1.208223543894480e+000	 1.509304175159395e+000	 1.079407942081154e+001
 1.191534406681430e+000	 1.522513989623221e+000	 1.067085661491926e+001
 1.174712156028311e+000	 1.535530633237893e+000	 1.054625122075921e+001
 1.157760134929534e+000	 1.548352141654106e+000	 1.042100946945724e+001
 1.140681723837632e+000	 1.560976627268588e+000	 1.029580771512759e+001
 1.123480338472544e+000	 1.573402280076317e+000	 1.017125083027408e+001
 1.307346256798566e+000	 1.460300487930869e+000	 1.134172840126968e+001
 1.291151017139334e+000	 1.474639167201012e+000	 1.124303273915968e+001
 1.274804527821486e+000	 1.488793099940715e+000	 1.113787325148336e+001
 1.258309955737241e+000	 1.502759921228375e+000	 1.102738729427795e+001
 1.241670516426661e+000	 1.516537338523357e+000	 1.091265536513059e+001
 1.224889472010190e+000	 1.530123132894483e+000	 1.079469862127002e+001
 1.207970129084775e+000	 1.543515160177802e+000	 1.067447655258375e+001
 1.190915836586413e+000	 1.556711352062423e+000	 1.055288480701369e+001
 1.173729983621940e+000	 1.569709717103298e+000	 1.043075316521404e+001
 1.156415997273006e+000	 1.582508341660034e+000	 1.030884366089400e+001
 1.138977340375136e+000	 1.595105390760859e+000	 1.018784884290955e+001
 1.325134097447286e+000	 1.480169434085108e+000	 1.132868503107297e+001
 1.308718504273237e+000	 1.494703206385040e+000	 1.123487631465034e+001
 1.292149603527569e+000	 1.509049718480886e+000	 1.113393430305878e+001
 1.275430605191462e+000	 1.523206573273759e+000	 1.102710439850261e+001
 1.258564768555845e+000	 1.537171447030557e+000	 1.091557875734123e+001
 1.241555400125804e+000	 1.550942090629174e+000	 1.080049362584083e+001
 1.224405851488079e+000	 1.564516330732018e+000	 1.068292682887587e+001
 1.207119517144526e+000	 1.577892070886612e+000	 1.056389540833689e+001
 1.189699832314410e+000	 1.591067292552177e+000	 1.044435340741085e+001
 1.172150270708497e+000	 1.604040056051192e+000	 1.032518979643547e+001
 1.154474342277895e+000	 1.616808501445135e+000	 1.020722653567758e+001
 1.342921938095756e+000	 1.500038380238765e+000	 1.132247398234878e+001
 1.326285991406947e+000	 1.514767245568484e+000	 1.123352349211342e+001
 1.309494679233518e+000	 1.529306337020477e+000	 1.113703188538915e+001
 1.292551254645610e+000	 1.543653225318572e+000	 1.103384722700568e+001
 1.275459020685017e+000	 1.557805555537200e+000	 1.092530987178457e+001
 1.258221328241467e+000	 1.571761048363324e+000	 1.081270847637955e+001
 1.240841573891492e+000	 1.585517501285710e+000	 1.069727724251356e+001
 1.223323197702809e+000	 1.599072789710299e+000	 1.058019330667829e+001
 1.205669681007109e+000	 1.612424868000571e+000	 1.046257427177276e+001
 1.187884544144271e+000	 1.625571770441885e+000	 1.034547587568431e+001
 1.169971344180991e+000	 1.638511612128961e+000	 1.022988979147117e+001
 1.360709778744060e+000	 1.519907326391754e+000	 1.132788318666318e+001
 1.343853478540562e+000	 1.534831284751244e+000	 1.124187395725580e+001
 1.326839754939444e+000	 1.549562955559376e+000	 1.114924245927437e+001
 1.309671904099807e+000	 1.564099877362689e+000	 1.104947132974854e+001
 1.292353272814311e+000	 1.578439664043150e+000	 1.094350118171848e+001
 1.274887256357323e+000	 1.592580006096787e+000	 1.083280909955969e+001
 1.257277296295169e+000	 1.606518671838723e+000	 1.071882238159162e+001
 1.239526878261420e+000	 1.620253508533317e+000	 1.060291562197295e+001
 1.221639529700197e+000	 1.633782443448310e+000	 1.048640793010287e+001
 1.203618817580493e+000	 1.647103484831933e+000	 1.037056028184415e+001
 1.185468346084587e+000	 1.660214722812154e+000	 1.025657299654889e+001
 1.378497619392282e+000	 1.539776272543993e+000	 1.134660593862636e+001
 1.361420965674179e+000	 1.554895323933223e+000	 1.126419621589412e+001
 1.344184830645459e+000	 1.569819574097472e+000	 1.117338419359825e+001
 1.326792553554179e+000	 1.584546529405988e+000	 1.107603660794534e+001
 1.309247524943862e+000	 1.599073772548270e+000	 1.097201414544622e+001
 1.291553184473516e+000	 1.613398963829417e+000	 1.086247413150745e+001
 1.273713018699258e+000	 1.627519842390902e+000	 1.074907241831639e+001
 1.255730558820517e+000	 1.641434227355505e+000	 1.063341714294028e+001
 1.237609378393840e+000	 1.655140018895221e+000	 1.051706557756588e+001
 1.219353091017331e+000	 1.668635199221159e+000	 1.040152110598666e+001
 1.200965347988850e+000	 1.681917833494530e+000	 1.028823031963658e+001
 1.045995328956277e+000	 1.464886726656035e+000	 1.012931993644205e+001
 1.029869018930230e+000	 1.476268665820915e+000	 9.981509966452352e+000
 1.013634664473865e+000	 1.487462332141325e+000	 9.830896198523000e+000
 9.972955298026258e-001	 1.498466258716639e+000	 9.678043463587404e+000
 9.808549037040830e-001	 1.509279053342249e+000	 9.523437674391637e+000
 9.643160974265818e-001	 1.519899398955622e+000	 9.367491742170133e+000
 9.476824425612986e-001	 1.530326054011600e+000	 9.210539678146249e+000
 9.309572889204426e-001	 1.540557852787053e+000	 9.052836645549764e+000
 9.141440024143019e-001	 1.550593705615053e+000	 8.894558046469108e+000
 8.972459629298201e-001	 1.560432599048893e+000	 8.735798766816362e+000
 8.802665622133532e-001	 1.570073595956371e+000	 8.576572579772430e+000
 1.061492330860527e+000	 1.486589837339156e+000	 1.013101437254060e+001
 1.045127100592058e+000	 1.498140406255998e+000	 9.987861822609995e+000
 1.028652225155088e+000	 1.509499912961594e+000	 9.842132227575096e+000
 1.012071017126219e+000	 1.520666868822365e+000	 9.694295135752707e+000
 9.953868140182343e-001	 1.531639861007416e+000	 9.544743818683868e+000
 9.786029761374547e-001	 1.542417552941193e+000	 9.393789964048766e+000
 9.617228844344271e-001	 1.552998684684357e+000	 9.241668406940805e+000
 9.447499383506842e-001	 1.563382073242935e+000	 9.088532467756497e+000
 9.276875536643391e-001	 1.573566612805977e+000	 8.934454064720860e+000
 9.105391603372328e-001	 1.583551274911993e+000	 8.779423084783408e+000
 8.933082003663225e-001	 1.593335108544643e+000	 8.623346908433447e+000
 1.076989332764112e+000	 1.508292948022929e+000	 1.013668359974320e+001
 1.060385182253275e+000	 1.520012146691774e+000	 9.998228652727478e+000
 1.043669785835759e+000	 1.531537493782587e+000	 9.857369808699383e+000
 1.026846504449323e+000	 1.542867478928838e+000	 9.714500190217597e+000
 1.009918724331957e+000	 1.554000668673342e+000	 9.569934043410571e+000
 9.928898548479597e-001	 1.564935706927531e+000	 9.423903198017131e+000
 9.757633263072423e-001	 1.575671315357876e+000	 9.276559556283539e+000
 9.585425877806589e-001	 1.586206293699568e+000	 9.127972046699579e+000
 9.412311049141445e-001	 1.596539519997630e+000	 8.978126485193506e+000
 9.238323577444372e-001	 1.606669950775794e+000	 8.826925050610971e+000
 9.063498385190917e-001	 1.616596621133581e+000	 8.674185909235570e+000
 1.092486334667199e+000	 1.529996058707168e+000	 1.014556438369988e+001
 1.075643263914047e+000	 1.541883887128052e+000	 1.001173411527637e+001
 1.058687346516041e+000	 1.553575074604111e+000	 9.875620282596655e+000
 1.041621991772096e+000	 1.565068089035862e+000	 9.737556667496124e+000
 1.024450634645408e+000	 1.576361476339833e+000	 9.597795395820272e+000
 1.007176733558246e+000	 1.587453860914438e+000	 9.456506235952698e+000
 9.898037681798880e-001	 1.598343946031964e+000	 9.313774466203387e+000
 9.723352372105052e-001	 1.609030514156761e+000	 9.169601953186374e+000
 9.547746561638559e-001	 1.619512427189830e+000	 9.023905398473977e+000
 9.371255551515678e-001	 1.629788626640121e+000	 8.876516181950489e+000
 9.193914766717937e-001	 1.639858133723017e+000	 8.727180065385145e+000
 1.107983336569954e+000	 1.551699169391692e+000	 1.015716373035003e+001
 1.090901345574538e+000	 1.563755627564647e+000	 1.002777047097821e+001
 1.073704907196097e+000	 1.575612655425975e+000	 9.896161757119488e+000
 1.056397479094698e+000	 1.587268699143244e+000	 9.762628700945756e+000
 1.038982544958740e+000	 1.598722284006695e+000	 9.627378637125354e+000
 1.021463612268464e+000	 1.609972014901722e+000	 9.490534174574327e+000
 1.003844210052509e+000	 1.621016576706430e+000	 9.352132368665842e+000
 9.861278866403656e-001	 1.631854734614329e+000	 9.212124158479847e+000
 9.683182074136085e-001	 1.642485334382394e+000	 9.070373739579946e+000
 9.504187525587582e-001	 1.652907302504798e+000	 8.926658242990861e+000
 9.324331148245619e-001	 1.663119646312786e+000	 8.780667489791586e+000
 1.123480338472544e+000	 1.573402280076317e+000	 1.017125083027408e+001
 1.106159427234916e+000	 1.585627368001368e+000	 1.004599075265608e+001
 1.088722467876090e+000	 1.597650236247987e+000	 9.918531517667960e+000
 1.071172966417288e+000	 1.609469309250792e+000	 9.789137843952490e+000
 1.053514455272107e+000	 1.621083091673733e+000	 9.657988582222352e+000
 1.035750490978762e+000	 1.632490168889190e+000	 9.525175832334647e+000
 1.017884651925251e+000	 1.643689207381082e+000	 9.390704203872922e+000
 9.999205360703791e-001	 1.654678955072082e+000	 9.254489775775078e+000
 9.818617586635403e-001	 1.665458241575140e+000	 9.116361301626647e+000
 9.637119499661435e-001	 1.676025978369650e+000	 8.976057525883372e+000
 9.454747529775296e-001	 1.686381158902720e+000	 8.833228467090750e+000
 1.138977340375136e+000	 1.595105390760859e+000	 1.018784884290955e+001
 1.121417508895345e+000	 1.607499108438029e+000	 1.006630077602110e+001
 1.103740028556184e+000	 1.619687817069959e+000	 9.942518278879923e+000
 1.085948453740026e+000	 1.631669919358312e+000	 9.816755574242718e+000
 1.068046365585667e+000	 1.643443899340753e+000	 9.689178963675333e+000
 1.050037369689291e+000	 1.655008322876647e+000	 9.559865995151188e+000
 1.031925093798258e+000	 1.666361838055729e+000	 9.428804770379017e+000
 1.013713185500686e+000	 1.677503175529833e+000	 9.295893387565991e+000
 9.954053099137867e-001	 1.688431148767885e+000	 9.160938587920160e+000
 9.770051473738575e-001	 1.699144654234502e+000	 9.023658970935008e+000
 9.585163911308307e-001	 1.709642671492654e+000	 8.883679835475839e+000
 1.154474342277895e+000	 1.616808501445135e+000	 1.020722653567758e+001
 1.136675590555991e+000	 1.629370848874443e+000	 1.008885100633757e+001
 1.118757589236542e+000	 1.641725397891696e+000	 9.968154292525510e+000
 1.100723941063069e+000	 1.653870529465609e+000	 9.845395654243173e+000
 1.082578275899572e+000	 1.665804707007561e+000	 9.720744420323610e+000
 1.064324248400201e+000	 1.677526476863901e+000	 9.594279193220809e+000
 1.045965535671676e+000	 1.689034468730179e+000	 9.465987189275699e+000
 1.027505834931428e+000	 1.700327395987393e+000	 9.335763709198238e+000
 1.008948861164486e+000	 1.711404055960447e+000	 9.203410517655057e+000
 9.902983447820342e-001	 1.722263330099179e+000	 9.068640140717738e+000
 9.715580292845979e-001	 1.732904184082422e+000	 8.931069223383057e+000
 1.169971344180991e+000	 1.638511612128961e+000	 1.022988979147117e+001
 1.151933672217020e+000	 1.651242589310421e+000	 1.011402829432831e+001
 1.133775149917325e+000	 1.663762978713008e+000	 9.995707324938030e+000
 1.115499428386579e+000	 1.676071139572491e+000	 9.875206360836142e+000
 1.097110186213977e+000	 1.688165514673963e+000	 9.752712987846572e+000
 1.078611127111641e+000	 1.700044630850756e+000	 9.628322130250794e+000
 1.060005977545648e+000	 1.711707099404241e+000	 9.502035411656616e+000
 1.041298484362745e+000	 1.723151616444576e+000	 9.373760640270584e+000
 1.022492412415773e+000	 1.734376963152644e+000	 9.243311412812155e+000
 1.003591542190808e+000	 1.745382005963505e+000	 9.110405061633335e+000
 9.845996674389650e-001	 1.756165696671858e+000	 8.974669154486287e+000
 1.185468346084587e+000	 1.660214722812154e+000	 1.025657299654889e+001
 1.167191753878597e+000	 1.673114329745773e+000	 1.014244749328530e+001
 1.148792710598699e+000	 1.685800559533704e+000	 1.002567251591808e+001
 1.130274915710713e+000	 1.698271749678765e+000	 9.906562596458599e+000
 1.111642096529037e+000	 1.710526322339764e+000	 9.785338470279887e+000
 1.092898005823761e+000	 1.722562784837020e+000	 9.662126321431755e+000
 1.074046419420320e+000	 1.734379730077722e+000	 9.536957153308112e+000
 1.055091133794776e+000	 1.745975836901192e+000	 9.409766277251377e+000
 1.036035963667787e+000	 1.757349870344292e+000	 9.280392912317815e+000
 1.016884739600314e+000	 1.768500681827304e+000	 9.148579890162823e+000
 9.976413055940656e-001	 1.779427209260796e+000	 9.013971033048636e+000
 1.200965347988850e+000	 1.681917833494530e+000	 1.028823031963658e+001
 1.182449835540888e+000	 1.694986070180314e+000	 1.017494296811333e+001
 1.163810271280825e+000	 1.707838140353592e+000	 1.005876412981558e+001
 1.145050403035632e+000	 1.720472359784237e+000	 9.940057892262908e+000
 1.126174006844908e+000	 1.732887130004770e+000	 9.819092703234619e+000
 1.107184884536711e+000	 1.745080938822499e+000	 9.696040622636012e+000
 1.088086861295837e+000	 1.757052360750431e+000	 9.570976693748554e+000
 1.068883783227663e+000	 1.768800057357055e+000	 9.443878425239037e+000
 1.049579514920662e+000	 1.780322777535210e+000	 9.314625376053177e+000
 1.030177937010685e+000	 1.791619357690404e+000	 9.182998836176108e+000
 1.010682943750033e+000	 1.802688721849068e+000	 9.048681597193706e+000
 8.802665622133532e-001	 1.570073595956371e+000	 8.576572579772426e+000
 8.632117660713863e-001	 1.579514434436757e+000	 8.417237287946225e+000
 8.460824421315376e-001	 1.588755792347744e+000	 8.258648073826100e+000
 8.288820044695899e-001	 1.597796962967234e+000	 8.101519381020056e+000
 8.116138706063589e-001	 1.606637315540310e+000	 7.946489376346186e+000
 7.942814594508111e-001	 1.615276295033541e+000	 7.794118162745550e+000
 7.768881892624316e-001	 1.623713421824429e+000	 7.644886173416718e+000
 7.594374756351380e-001	 1.631948291327146e+000	 7.499192751591914e+000
 7.419327295049752e-001	 1.639980573555821e+000	 7.357354920263549e+000
 7.243773551837668e-001	 1.647810012626662e+000	 7.219606346025405e+000
 7.067747484208015e-001	 1.655436426200365e+000	 7.086096501023847e+000
 8.933082003663225e-001	 1.593335108544643e+000	 8.623346908433447e+000
 8.760007279448260e-001	 1.602915818291883e+000	 8.466744223924813e+000
 8.586176235547386e-001	 1.612294092054241e+000	 8.310713179614961e+000
 8.411623518532653e-001	 1.621469212639146e+000	 8.155981079362787e+000
 8.236383809936846e-001	 1.630440539946704e+000	 8.003196667539779e+000
 8.060491805379904e-001	 1.639207510720356e+000	 7.852928190190168e+000
 7.883982193890753e-001	 1.647769638231734e+000	 7.705661637250931e+000
 7.706889637447694e-001	 1.656126511900855e+000	 7.561799170695340e+000
 7.529248750760244e-001	 1.664277796852925e+000	 7.421657743405411e+000
 7.351094081314270e-001	 1.672223233413098e+000	 7.285467913486542e+000
 7.172460089701712e-001	 1.679962636540613e+000	 7.153372858617663e+000
 9.063498385190917e-001	 1.616596621133581e+000	 8.674185909235568e+000
 8.887896898180561e-001	 1.626317202147628e+000	 8.520598470086666e+000
 8.711528049777059e-001	 1.635832391761306e+000	 8.367493886822688e+000
 8.534426992366734e-001	 1.645141462311570e+000	 8.215599448708149e+000
 8.356628913807014e-001	 1.654243764353546e+000	 8.065561414942673e+000
 8.178169016248167e-001	 1.663138726407550e+000	 7.917942949046006e+000
 7.999082495153213e-001	 1.671825854639347e+000	 7.773222233200222e+000
 7.819404518539631e-001	 1.680304732474796e+000	 7.631790767802294e+000
 7.639170206466032e-001	 1.688575020150183e+000	 7.493951861484470e+000
 7.458414610785948e-001	 1.696636454199607e+000	 7.359919316831017e+000
 7.277172695190414e-001	 1.704488846880856e+000	 7.229816316955183e+000
 9.193914766717937e-001	 1.639858133723017e+000	 8.727180065385145e+000
 9.015786516912100e-001	 1.649718586003838e+000	 8.576763074892515e+000
 8.836879864005770e-001	 1.659370691468799e+000	 8.426816293358771e+000
 8.657230466199544e-001	 1.668813711984378e+000	 8.278055063307392e+000
 8.476874017675546e-001	 1.678046988760721e+000	 8.131111053253768e+000
 8.295846227114402e-001	 1.687069942095027e+000	 7.986530089649879e+000
 8.114182796413252e-001	 1.695882071047190e+000	 7.844770166667058e+000
 7.931919399628790e-001	 1.704482953048911e+000	 7.706199639403765e+000
 7.749091662168747e-001	 1.712872243447557e+000	 7.571095606186026e+000
 7.565735140254362e-001	 1.721049674986173e+000	 7.439642485667933e+000
 7.381885300675789e-001	 1.729015057221095e+000	 7.311930794444017e+000
 9.324331148245619e-001	 1.663119646312786e+000	 8.780667489791586e+000
 9.143676135644236e-001	 1.673119969860358e+000	 8.633446305884718e+000
 8.962231678234888e-001	 1.682908991176575e+000	 8.486749689188445e+000
 8.780033940032496e-001	 1.692485961657440e+000	 8.341269998965897e+000
 8.597119121543899e-001	 1.701850213168122e+000	 8.197613118113940e+000
 8.413523437980107e-001	 1.711001157782695e+000	 8.056296206445753e+000
 8.229283097672420e-001	 1.719938287455187e+000	 7.917745628593401e+000
 8.044434280716766e-001	 1.728661173623140e+000	 7.782295062399055e+000
 7.859013117870025e-001	 1.737169466745007e+000	 7.650183793826200e+000
 7.673055669721173e-001	 1.745462895772776e+000	 7.521555204546999e+000
 7.486597906159502e-001	 1.753541267561331e+000	 7.396455458439661e+000
 9.454747529775296e-001	 1.686381158902720e+000	 8.833228467090752e+000
 9.271565754378307e-001	 1.696521353717034e+000	 8.689096428512160e+000
 9.087583492465783e-001	 1.706447290884493e+000	 8.545601534890555e+000
 8.902837413866998e-001	 1.716158211330630e+000	 8.403402976517921e+000
 8.717364225413530e-001	 1.725653437575633e+000	 8.263070521965624e+000
 8.531200648846794e-001	 1.734932373470456e+000	 8.125082216009137e+000
 8.344383398932268e-001	 1.743994503863259e+000	 7.989822247771340e+000
 8.156949161805157e-001	 1.752839394197428e+000	 7.857578995179543e+000
 7.968934573571501e-001	 1.761466690042496e+000	 7.728543252089030e+000
 7.780376199188031e-001	 1.769876116559398e+000	 7.602806644643870e+000
 7.591310511643220e-001	 1.778067477901566e+000	 7.480360243610745e+000
 9.585163911308307e-001	 1.709642671492654e+000	 8.883679835475837e+000
 9.399455373115651e-001	 1.719922737573709e+000	 8.742396327799924e+000
 9.212935306699827e-001	 1.729985590592412e+000	 8.601912289136132e+000
 9.025640887704454e-001	 1.739830461003820e+000	 8.462844363103942e+000
 8.837609329285886e-001	 1.749456661983145e+000	 8.325716699169190e+000
 8.648877859715963e-001	 1.758863589158218e+000	 8.190958618122119e+000
 8.459483700194360e-001	 1.768050720271332e+000	 8.058902442100768e+000
 8.269464042895561e-001	 1.777017614771715e+000	 7.929781495424702e+000
 8.078856029274806e-001	 1.785763913339985e+000	 7.803728282871207e+000
 7.887696728656604e-001	 1.794289337346019e+000	 7.680772852343742e+000
 7.696023117128608e-001	 1.802593688241801e+000	 7.560841349151404e+000
 9.715580292845979e-001	 1.732904184082422e+000	 8.931069223383057e+000
 9.527344991857626e-001	 1.743324121430229e+000	 8.792257987626734e+000
 9.338287120938384e-001	 1.753523890300188e+000	 8.654450099278524e+000
 9.148444361546277e-001	 1.763502710676882e+000	 8.518211044607641e+000
 8.957854433162428e-001	 1.773259886390545e+000	 8.384010632658788e+000
 8.766555070589114e-001	 1.782794804845885e+000	 8.252220650885127e+000
 8.574584001460237e-001	 1.792106936679329e+000	 8.123112678286569e+000
 8.381978923989577e-001	 1.801195835345946e+000	 7.996856062432975e+000
 8.188777484981575e-001	 1.810061136637435e+000	 7.873516067235765e+000
 7.995017258128542e-001	 1.818702558132622e+000	 7.753052198769561e+000
 7.800735722617330e-001	 1.827119898582037e+000	 7.635316716823687e+000
 9.845996674389650e-001	 1.756165696671858e+000	 8.974669154486286e+000
 9.655234610605563e-001	 1.766725505286440e+000	 8.837816840808459e+000
 9.463638935182839e-001	 1.777062190007680e+000	 8.702205367745775e+000
 9.271247835393878e-001	 1.787174960349689e+000	 8.568341181195882e+000
 9.078099537044607e-001	 1.797063110797722e+000	 8.436631773116769e+000
 8.884232281467757e-001	 1.806726020533363e+000	 8.307383349686287e+000
 8.689684302731457e-001	 1.816163153087172e+000	 8.180798648463028e+000
 8.494493805088798e-001	 1.825374055920060e+000	 8.056974910981824e+000
 8.298698940693450e-001	 1.834358359934808e+000	 7.935902017837212e+000
 8.102337787605508e-001	 1.843115778919188e+000	 7.817460793873845e+000
 7.905448328111057e-001	 1.851646108922276e+000	 7.701421491606691e+000
 9.976413055940656e-001	 1.779427209260796e+000	 9.013971033048636e+000
 9.783124229360812e-001	 1.790126889142184e+000	 8.878426001806776e+000
 9.588990749434547e-001	 1.800600489714745e+000	 8.744385205594840e+000
 9.394051309248662e-001	 1.810847210022113e+000	 8.612288856654502e+000
 9.198344640933878e-001	 1.820866335204562e+000	 8.482474860499076e+000
 9.001909492353392e-001	 1.830657236220556e+000	 8.355176518823752e+000
 8.804784604009575e-001	 1.840219369494784e+000	 8.230520371341882e+000
 8.607008686194827e-001	 1.849552276494000e+000	 8.108524182979911e+000
 8.408620396412051e-001	 1.858655583232066e+000	 7.989095083625498e+000
 8.209658317089157e-001	 1.867528999705697e+000	 7.872027868333664e+000
 8.010160933611453e-001	 1.876172319262519e+000	 7.757003466538575e+000
 1.010682943750033e+000	 1.802688721849068e+000	 9.048681597193705e+000
 9.911013848124723e-001	 1.813528272997309e+000	 8.913650392662433e+000
 9.714342563694887e-001	 1.824138789421242e+000	 8.780407783418449e+000
 9.516854783112035e-001	 1.834519459694026e+000	 8.649318631110024e+000
 9.318589744831693e-001	 1.844669559610956e+000	 8.520644656729690e+000
 9.119586703247526e-001	 1.854588451907370e+000	 8.394539623667258e+000
 8.919884905296137e-001	 1.864275585902090e+000	 8.271047224700149e+000
 8.719523567309262e-001	 1.873730497067710e+000	 8.150099102526610e+000
 8.518541852139021e-001	 1.882952806529170e+000	 8.031513011133129e+000
 8.316978846581150e-001	 1.891942220492133e+000	 7.914991126154547e+000
 8.114873539120182e-001	 1.900698529602767e+000	 7.800118513180292e+000
 7.067747484208015e-001	 1.655436426200365e+000	 7.086096501023849e+000
 6.891256442852183e-001	 1.662860803443095e+000	 6.950778863300567e+000
 6.714360551290197e-001	 1.670081948955455e+000	 6.808058296515495e+000
 6.537093420179819e-001	 1.677099898436262e+000	 6.659235730065110e+000
 6.359488499726910e-001	 1.683914758373383e+000	 6.507541411969503e+000
 6.181579061975374e-001	 1.690526705208835e+000	 6.355356687653338e+000
 6.003398183486900e-001	 1.696935984454057e+000	 6.204817359742211e+000
 5.824978728425352e-001	 1.703142909757176e+000	 6.057872720630728e+000
 5.646353332059857e-001	 1.709147861924183e+000	 5.916281487325692e+000
 5.467554384699808e-001	 1.714951287895949e+000	 5.781610172781108e+000
 5.288614016073797e-001	 1.720553699683057e+000	 5.655233783546338e+000
 7.172460089701712e-001	 1.679962636540613e+000	 7.153372858617665e+000
 6.993354235518500e-001	 1.687497010056689e+000	 7.019272582016062e+000
 6.813837533048077e-001	 1.694825140851425e+000	 6.877716099457873e+000
 6.633944090908881e-001	 1.701947065152540e+000	 6.729660166450680e+000
 6.453707854890251e-001	 1.708862891025580e+000	 6.577791593930813e+000
 6.273162589980006e-001	 1.715572797526653e+000	 6.425223362223395e+000
 6.092341862787581e-001	 1.722077033804590e+000	 6.274352352090840e+000
 5.911279024377771e-001	 1.728375918154393e+000	 6.127360700829933e+000
 5.730007193529454e-001	 1.734469837023908e+000	 5.986211663400418e+000
 5.548559240432534e-001	 1.740359243975686e+000	 5.852648178335147e+000
 5.366967770835491e-001	 1.746044658606036e+000	 5.728194015773654e+000
 7.277172695190414e-001	 1.704488846880856e+000	 7.229816316955181e+000
 7.095452028179917e-001	 1.712133216670198e+000	 7.097533327173175e+000
 6.913314514801311e-001	 1.719568332747231e+000	 6.957796263752335e+000
 6.730794761633667e-001	 1.726794231868579e+000	 6.811781030530559e+000
 6.547927210049780e-001	 1.733811023677469e+000	 6.661098373405279e+000
 6.364746117981360e-001	 1.740618889844100e+000	 6.509390581249840e+000
 6.181285542085547e-001	 1.747218083154697e+000	 6.359392402963297e+000
 5.997579320328053e-001	 1.753608926551139e+000	 6.213477009173650e+000
 5.813661054997462e-001	 1.759791812123126e+000	 6.073767499686284e+000
 5.629564096164186e-001	 1.765767200054896e+000	 5.942135794763223e+000
 5.445321525596547e-001	 1.771535617528480e+000	 5.820204383643675e+000
 7.381885300675789e-001	 1.729015057221095e+000	 7.311930794444018e+000
 7.197549820838096e-001	 1.736769423283644e+000	 7.181885810707211e+000
 7.012791496551518e-001	 1.744311524642915e+000	 7.044444038511627e+000
 6.827645432355752e-001	 1.751641398584440e+000	 6.901008808729181e+000
 6.642146565207017e-001	 1.758759156329126e+000	 6.752900020220699e+000
 6.456329645980879e-001	 1.765664982161268e+000	 6.603086542509723e+000
 6.270229221382165e-001	 1.772359132504484e+000	 6.454990686723427e+000
 6.083879616277474e-001	 1.778841934947530e+000	 6.311135999982142e+000
 5.897314916465081e-001	 1.785113787221967e+000	 6.173761604067289e+000
 5.710568951895859e-001	 1.791175156133712e+000	 6.044821547954699e+000
 5.523675280357959e-001	 1.797026576450526e+000	 5.925987313354074e+000
 7.486597906159502e-001	 1.753541267561331e+000	 7.396455458439663e+000
 7.299647613494683e-001	 1.761405629897045e+000	 7.268889402992499e+000
 7.112268478300333e-001	 1.769054716538517e+000	 7.134038723249136e+000
 6.924496103076727e-001	 1.776488565300181e+000	 6.993507438702692e+000
 6.736365920363487e-001	 1.783707288980629e+000	 6.848792794866630e+000
 6.547913173980023e-001	 1.790711074478250e+000	 6.701803402757072e+000
 6.359172900678811e-001	 1.797500181854058e+000	 6.556433593230993e+000
 6.170179912227322e-001	 1.804074943343686e+000	 6.415456712816479e+000
 5.980968777933491e-001	 1.810435762320554e+000	 6.281184880596394e+000
 5.791573807628641e-001	 1.816583112212264e+000	 6.155607927963746e+000
 5.602029035120719e-001	 1.822517535372305e+000	 6.040396824493976e+000
 7.591310511643220e-001	 1.778067477901566e+000	 7.480360243610747e+000
 7.401745406151347e-001	 1.786041836510427e+000	 7.355333619772138e+000
 7.211745460049378e-001	 1.793797908434078e+000	 7.223189107223059e+000
 7.021346773798164e-001	 1.801335732015862e+000	 7.085706267472046e+000
 6.830585275520711e-001	 1.808655421632055e+000	 6.944554986372717e+000
 6.639496701980238e-001	 1.815757166795140e+000	 6.801317124565142e+000
 6.448116579976856e-001	 1.822641231203525e+000	 6.659258641611115e+000
 6.256480208178877e-001	 1.829307951739723e+000	 6.521778942973485e+000
 6.064622639403884e-001	 1.835757737419014e+000	 6.391220852631446e+000
 5.872578663363622e-001	 1.841991068290684e+000	 6.269564066480091e+000
 5.680382789885817e-001	 1.848008494293950e+000	 6.158429668984026e+000
 7.696023117128608e-001	 1.802593688241801e+000	 7.560841349151403e+000
 7.503843198809724e-001	 1.810678043123807e+000	 7.438233610995241e+000
 7.311222441800278e-001	 1.818541100329640e+000	 7.308728934665075e+000
 7.118197444521650e-001	 1.826182898731543e+000	 7.174258800545932e+000
 6.924804630680210e-001	 1.833603554283482e+000	 7.036642294047266e+000
 6.731080229982976e-001	 1.840803259112029e+000	 6.897582264042820e+000
 6.537060259277669e-001	 1.847782280552992e+000	 6.759272516123934e+000
 6.342780504133430e-001	 1.854540960135760e+000	 6.625679455857197e+000
 6.148276500877450e-001	 1.861079712517475e+000	 6.499260149869640e+000
 5.953583519101899e-001	 1.867399024369105e+000	 6.381938596032112e+000
 5.758736544654247e-001	 1.873499453215596e+000	 6.275236666965895e+000
 7.800735722617330e-001	 1.827119898582037e+000	 7.635316716823689e+000
 7.605940991471489e-001	 1.835314249737210e+000	 7.514825651379028e+000
 7.410699423554661e-001	 1.843284292225242e+000	 7.387712393458204e+000
 7.215048115248767e-001	 1.851030065447285e+000	 7.256038178611417e+000
 7.019023985843511e-001	 1.858551686934985e+000	 7.121749315780536e+000
 6.822663757989691e-001	 1.865849351429012e+000	 6.986672829007796e+000
 6.626003938582623e-001	 1.872923329902566e+000	 6.852569212688694e+000
 6.429080800092253e-001	 1.879773968531916e+000	 6.722988331730191e+000
 6.231930362355381e-001	 1.886401687616062e+000	 6.600915143897566e+000
 6.034588374844560e-001	 1.892806980447657e+000	 6.488172673860035e+000
 5.837090299427000e-001	 1.898990412137376e+000	 6.386134221146954e+000
 7.905448328111057e-001	 1.851646108922276e+000	 7.701421491606690e+000
 7.708038784138284e-001	 1.859950456350654e+000	 7.582562632534276e+000
 7.510176405314152e-001	 1.868027484120925e+000	 7.457409625088081e+000
 7.311898785981090e-001	 1.875877232163145e+000	 7.328132695586803e+000
 7.113243341012138e-001	 1.883499819586643e+000	 7.196784806465068e+000
 6.914247286001836e-001	 1.890895443746181e+000	 7.065296800227354e+000
 6.714947617893092e-001	 1.898064379252353e+000	 6.935472864696853e+000
 6.515381096056636e-001	 1.905006976928308e+000	 6.809805428779079e+000
 6.315584223838864e-001	 1.911723662714902e+000	 6.692034718506247e+000
 6.115593230592691e-001	 1.918214936526472e+000	 6.583913155207293e+000
 5.915444054205066e-001	 1.924481371059421e+000	 6.486615993065825e+000
 8.010160933611453e-001	 1.876172319262519e+000	 7.757003466538575e+000
 7.810136576811766e-001	 1.884586662964163e+000	 7.639109556508071e+000
 7.609653387080380e-001	 1.892770676016731e+000	 7.515302253916703e+000
 7.408749456720213e-001	 1.900724398879184e+000	 7.387841354250405e+000
 7.207462696187608e-001	 1.908447952238532e+000	 7.258867254194321e+000
 7.005830814020861e-001	 1.915941536063627e+000	 7.130395615212641e+000
 6.803891297210440e-001	 1.923205428602460e+000	 7.004312350463105e+000
 6.601681392027861e-001	 1.930239985325052e+000	 6.882516953690286e+000
 6.399238085329084e-001	 1.937045637814121e+000	 6.768719162457777e+000
 6.196598086347389e-001	 1.943622892605682e+000	 6.665025902371512e+000
 5.993797808989435e-001	 1.949972329981867e+000	 6.572364726473774e+000
 8.114873539120182e-001	 1.900698529602767e+000	 7.800118513180293e+000
 7.912234369493598e-001	 1.909222869577757e+000	 7.682339030612719e+000
 7.709130368854968e-001	 1.917513867912702e+000	 7.559078934033627e+000
 7.505600127467703e-001	 1.925571565595462e+000	 7.432669456048635e+000
 7.301682051371443e-001	 1.933396084890728e+000	 7.305320507252264e+000
 7.097414342048215e-001	 1.940987628381445e+000	 7.179114875263599e+000
 6.892834976536051e-001	 1.948346477952993e+000	 7.056002747046586e+000
 6.687981688007214e-001	 1.955472993722270e+000	 6.937796574522605e+000
 6.482891946827237e-001	 1.962367612913845e+000	 6.827335173662629e+000
 6.277602942109746e-001	 1.969030848685419e+000	 6.727609217270040e+000
 6.072151563781101e-001	 1.975463288904845e+000	 6.639264204557792e+000
 5.288614016073797e-001	 1.720553699683057e+000	 5.655233783546338e+000
 5.109564077608135e-001	 1.725955672830829e+000	 5.535322181320551e+000
 4.930436120318358e-001	 1.731157843990140e+000	 5.419406571761574e+000
 4.751261388703822e-001	 1.736160911033619e+000	 5.307621042094834e+000
 4.572070809624126e-001	 1.740965632275259e+000	 5.199920855654376e+000
 4.392894979044454e-001	 1.745572825227723e+000	 5.096094930176342e+000
 4.213764149277031e-001	 1.749983365329664e+000	 4.995779706907380e+000
 4.034708216724216e-001	 1.754198184645169e+000	 4.898474232519329e+000
 3.855756710127967e-001	 1.758218270537386e+000	 4.803556273065841e+000
 3.676938779329494e-001	 1.762044664318403e+000	 4.710299277953967e+000
 3.498283184541985e-001	 1.765678459877450e+000	 4.617890012079903e+000
 5.366967770835491e-001	 1.746044658606036e+000	 5.728194015773654e+000
 5.185265108061257e-001	 1.751526664987303e+000	 5.610682645224704e+000
 5.003483270571110e-001	 1.756805909202691e+000	 5.497295537093207e+000
 4.821653965768892e-001	 1.761883099464191e+000	 5.388256375335561e+000
 4.639808578712683e-001	 1.766759005320630e+000	 5.283586062104911e+000
 4.457978158663765e-001	 1.771434456396564e+000	 5.183116723528691e+000
 4.276193406139059e-001	 1.775910341100748e+000	 5.086507264298449e+000
 4.094484660472607e-001	 1.780187605306307e+000	 4.993260274331334e+000
 3.912881887890963e-001	 1.784267251004713e+000	 4.902740087730599e+000
 3.731414670106318e-001	 1.788150334935661e+000	 4.814191792869778e+000
 3.550112193430272e-001	 1.791837967194950e+000	 4.726760992609810e+000
 5.445321525596547e-001	 1.771535617528480e+000	 5.820204383643675e+000
 5.260966138514088e-001	 1.777097657143252e+000	 5.705428256121435e+000
 5.076530420823825e-001	 1.782453974414742e+000	 5.594637313414382e+000
 4.892046542834104e-001	 1.787605287894299e+000	 5.488151707514443e+000
 4.707546347801495e-001	 1.792552378365583e+000	 5.386062787312521e+000
 4.523061338283391e-001	 1.797296087565045e+000	 5.288248753668026e+000
 4.338622663001412e-001	 1.801837316871536e+000	 5.194392034743493e+000
 4.154261104221303e-001	 1.806177025967220e+000	 5.103998164678979e+000
 3.970007065654226e-001	 1.810316231471889e+000	 5.016415945341268e+000
 3.785890560883355e-001	 1.814256005552847e+000	 4.930858669337227e+000
 3.601941202318723e-001	 1.817997474512458e+000	 4.846426182663109e+000
 5.523675280357959e-001	 1.797026576450526e+000	 5.925987313354074e+000
 5.336667168967521e-001	 1.802668649298809e+000	 5.814303537943901e+000
 5.149577571077297e-001	 1.808102039626417e+000	 5.706254835197632e+000
 4.962439119900155e-001	 1.813327476324059e+000	 5.602261487443543e+000
 4.775284116891162e-001	 1.818345751410224e+000	 5.502486664128080e+000
 4.588144517903843e-001	 1.823157718733256e+000	 5.406853862353712e+000
 4.401051919864520e-001	 1.827764292642103e+000	 5.315066253373502e+000
 4.214037547970657e-001	 1.832166446627964e+000	 5.226627696383629e+000
 4.027132243418035e-001	 1.836365211938954e+000	 5.140865177283268e+000
 3.840366451660822e-001	 1.840361676169979e+000	 5.056952428367840e+000
 3.653770211207496e-001	 1.844156981829972e+000	 4.973934485098595e+000
 5.602029035120719e-001	 1.822517535372305e+000	 6.040396824493976e+000
 5.412368199422444e-001	 1.828239641454104e+000	 5.932163522755060e+000
 5.222624721332320e-001	 1.833750104837843e+000	 5.827061161828862e+000
 5.032831696967738e-001	 1.839049664753587e+000	 5.725610633594005e+000
 4.843021885982289e-001	 1.844139124454658e+000	 5.628044883246309e+000
 4.653227697525628e-001	 1.849019349901286e+000	 5.534328286267462e+000
 4.463481176728810e-001	 1.853691268412522e+000	 5.444178132105267e+000
 4.273813991721016e-001	 1.858155867288595e+000	 5.357087952517062e+000
 4.084257421182667e-001	 1.862414192405942e+000	 5.272352428516959e+000
 3.894842342438936e-001	 1.866467346787076e+000	 5.189093607972761e+000
 3.705599220096755e-001	 1.870316489147490e+000	 5.106288166085579e+000
 5.680382789885817e-001	 1.848008494293950e+000	 6.158429668984026e+000
 5.488069229879748e-001	 1.853810633609267e+000	 6.053983502609561e+000
 5.295671871589682e-001	 1.859398170049142e+000	 5.952068030714395e+000
 5.103224274037549e-001	 1.864771853182998e+000	 5.853302070572818e+000
 4.910759655075475e-001	 1.869932497498987e+000	 5.757982888688480e+000
 4.718310877149262e-001	 1.874880981069227e+000	 5.666107680385470e+000
 4.525910433594708e-001	 1.879618244182866e+000	 5.577397372777419e+000
 4.333590435472733e-001	 1.884145287949170e+000	 5.491322463934145e+000
 4.141382598948399e-001	 1.888463172872894e+000	 5.407130606673024e+000
 3.949318233217909e-001	 1.892573017404154e+000	 5.323875643321298e+000
 3.757428228986661e-001	 1.896475996465010e+000	 5.240447797973348e+000
 5.758736544654247e-001	 1.873499453215596e+000	 6.275236666965895e+000
 5.563770260340329e-001	 1.879381625764431e+000	 6.174868987340977e+000
 5.368719021850180e-001	 1.885046235260443e+000	 6.076394616011349e+000
 5.173616851110285e-001	 1.890494041612411e+000	 5.980524462095387e+000
 4.978497424171324e-001	 1.895725870543315e+000	 5.887611252291888e+000
 4.783394056775259e-001	 1.900742612237167e+000	 5.797673294964218e+000
 4.588339690462645e-001	 1.905545219953211e+000	 5.710420801071747e+000
 4.393366879226154e-001	 1.910134708609745e+000	 5.625284447785662e+000
 4.198507776715514e-001	 1.914512153339845e+000	 5.541445865818000e+000
 4.003794123997961e-001	 1.918678688021233e+000	 5.457869729218292e+000
 3.809257237877377e-001	 1.922635503782531e+000	 5.373337126552886e+000
 5.837090299427000e-001	 1.898990412137376e+000	 6.386134221146954e+000
 5.639471290805076e-001	 1.904952617919726e+000	 6.290065848934337e+000
 5.441766172114603e-001	 1.910694300471868e+000	 6.195276473665610e+000
 5.244009428186642e-001	 1.916216230041938e+000	 6.102560121995433e+000
 5.046235193270438e-001	 1.921519243587748e+000	 6.012312710387865e+000
 4.848477236404132e-001	 1.926604243405198e+000	 5.924558291709367e+000
 4.650768947333047e-001	 1.931472195723630e+000	 5.838978109870405e+000
 4.453143322981632e-001	 1.936124129270376e+000	 5.754942119404666e+000
 4.255632954484288e-001	 1.940561133806834e+000	 5.671542621632888e+000
 4.058270014779305e-001	 1.944784358638330e+000	 5.587629666560821e+000
 3.861086246769064e-001	 1.948795011100049e+000	 5.501847869815510e+000
 5.915444054205066e-001	 1.924481371059421e+000	 6.486615993065825e+000
 5.715172321274878e-001	 1.930523610075283e+000	 6.394970635193587e+000
 5.514813322383746e-001	 1.936342365683543e+000	 6.304074655491637e+000
 5.314402005267317e-001	 1.941938418471699e+000	 6.214793086771252e+000
 5.113972962373418e-001	 1.947312616632389e+000	 6.127549347635915e+000
 4.913560416036388e-001	 1.952465874573409e+000	 6.042354186225611e+000
 4.713198204206343e-001	 1.957399171494196e+000	 5.958837701904669e+000
 4.512919766739515e-001	 1.962113549931120e+000	 5.876284070763465e+000
 4.312758132255001e-001	 1.966610114273899e+000	 5.793668595093487e+000
 4.112745905562159e-001	 1.970890029255462e+000	 5.709696694261643e+000
 3.912915255661882e-001	 1.974954518417563e+000	 5.622844454558490e+000
 5.993797808989435e-001	 1.949972329981867e+000	 6.572364726473774e+000
 5.790873351750631e-001	 1.956094602231232e+000	 6.485141037221906e+000
 5.587860472658400e-001	 1.961990430895594e+000	 6.398284976832156e+000
 5.384794582353004e-001	 1.967660606901807e+000	 6.312717334890993e+000
 5.181710731480863e-001	 1.973105989677342e+000	 6.228869914552159e+000
 4.978643595672542e-001	 1.978327505741890e+000	 6.146717405194048e+000
 4.775627461082961e-001	 1.983326147264985e+000	 6.065812622612215e+000
 4.572696210500153e-001	 1.988102970592032e+000	 5.985324709411135e+000
 4.369883310027929e-001	 1.992659094741074e+000	 5.904079882043657e+000
 4.167221796346737e-001	 1.996995699872648e+000	 5.820604307968558e+000
 3.964744264555997e-001	 2.001114025735070e+000	 5.733126137806138e+000
 6.072151563781101e-001	 1.975463288904845e+000	 6.639264204557792e+000
 5.866574382233224e-001	 1.981665594387705e+000	 6.556306496831410e+000
 5.660907622939357e-001	 1.987638496108145e+000	 6.473547423933442e+000
 5.455187159444396e-001	 1.993382795332379e+000	 6.391945139607564e+000
 5.249448500593381e-001	 1.998899362722714e+000	 6.311917266659948e+000
 5.043726775313110e-001	 2.004189136910731e+000	 6.232596531273265e+000
 4.838056717963329e-001	 2.009253123036070e+000	 6.152025845162696e+000
 4.632472654263897e-001	 2.014092391253171e+000	 6.069677770609190e+000
 4.427008487803356e-001	 2.018708075208402e+000	 5.984813395342054e+000
 4.221697687133255e-001	 2.023101370489906e+000	 5.896464930230779e+000
 4.016573273451569e-001	 2.027273533052570e+000	 5.803470155725369e+000
 3.498283184541985e-001	 1.765678459877450e+000	 4.617890012079903e+000
 3.319845031998169e-001	 1.769120300513190e+000	 4.530722079432375e+000
 3.141625416233765e-001	 1.772371941244703e+000	 4.453105729206922e+000
 2.963651817210658e-001	 1.775434626186778e+000	 4.384073397349097e+000
 2.785951288690975e-001	 1.778309646314947e+000	 4.322650180286328e+000
 2.608550450100400e-001	 1.780998338017287e+000	 4.267872202330183e+000
 2.431475478902918e-001	 1.783502081636491e+000	 4.218804620494248e+000
 2.254752103484412e-001	 1.785822300004091e+000	 4.174559120927243e+000
 2.078405596541675e-001	 1.787960456968690e+000	 4.134310770052269e+000
 1.902460768972755e-001	 1.789918055920011e+000	 4.097314093050560e+000
 1.726941964264004e-001	 1.791696638310540e+000	 4.062918262435720e+000
 3.550112193430272e-001	 1.791837967194950e+000	 4.726760992609810e+000
 3.369030380524930e-001	 1.795330800612061e+000	 4.644975657829296e+000
 3.188170342142214e-001	 1.798630616207665e+000	 4.573321162655178e+000
 3.007559965374987e-001	 1.801738676528800e+000	 4.510835064151758e+000
 2.827226704801975e-001	 1.804656291677526e+000	 4.456543610110891e+000
 2.647197574230519e-001	 1.807384817841254e+000	 4.409482252535307e+000
 2.467499138958356e-001	 1.809925655813227e+000	 4.368715775774938e+000
 2.288157508551774e-001	 1.812280249505019e+000	 4.333357877879079e+000
 2.109198330136687e-001	 1.814450084452968e+000	 4.302590053465329e+000
 1.930646782198457e-001	 1.816436686320356e+000	 4.275679636863143e+000
 1.752527568885781e-001	 1.818241619397146e+000	 4.251996875361341e+000
 3.601941202318723e-001	 1.817997474512458e+000	 4.846426182663107e+000
 3.418215729051807e-001	 1.821541300711022e+000	 4.767786628536119e+000
 3.234715268050726e-001	 1.824889291170791e+000	 4.699597975123041e+000
 3.051468113539313e-001	 1.828042726871060e+000	 4.640885285156733e+000
 2.868502120912874e-001	 1.831002937040409e+000	 4.590657573865350e+000
 2.685844698360398e-001	 1.833771297665584e+000	 4.547930682505237e+000
 2.503522799013355e-001	 1.836349229990371e+000	 4.511749742773095e+000
 2.321562913618431e-001	 1.838738199006388e+000	 4.481211053724417e+000
 2.139991063730645e-001	 1.840939711937706e+000	 4.455483203465013e+000
 1.958832795422659e-001	 1.842955316721160e+000	 4.433827279317589e+000
 1.778113173505509e-001	 1.844786600484193e+000	 4.415616022277787e+000
 3.653770211207496e-001	 1.844156981829972e+000	 4.973934485098597e+000
 3.467401077578918e-001	 1.847751800810049e+000	 4.896611769720519e+000
 3.281260193959391e-001	 1.851147966134042e+000	 4.829798970881766e+000
 3.095376261703706e-001	 1.854346777213498e+000	 4.772486800484779e+000
 2.909777537023743e-001	 1.857349582403519e+000	 4.723644367733545e+000
 2.724491822490120e-001	 1.860157777490180e+000	 4.682244643999731e+000
 2.539546459068039e-001	 1.862772804167814e+000	 4.647289493657524e+000
 2.354968318684564e-001	 1.865196148508078e+000	 4.617834074186458e+000
 2.170783797323812e-001	 1.867429339422771e+000	 4.593010420461805e+000
 1.987018808645739e-001	 1.869473947122285e+000	 4.572050040632367e+000
 1.803698778123702e-001	 1.871331581571538e+000	 4.554305364214307e+000
 3.705599220096755e-001	 1.870316489147490e+000	 5.106288166085579e+000
 3.516586426106382e-001	 1.873962300909120e+000	 5.028847677172430e+000
 3.327805119868295e-001	 1.877406641097375e+000	 4.961714770448434e+000
 3.139284409868238e-001	 1.880650827556055e+000	 4.903819625669613e+000
 2.951052953134649e-001	 1.883696227766776e+000	 4.854064393686648e+000
 2.763138946619772e-001	 1.886544257314950e+000	 4.811351501904988e+000
 2.575570119122528e-001	 1.889196378345448e+000	 4.774611499523044e+000
 2.388373723750355e-001	 1.891654098009965e+000	 4.742830226064781e+000
 2.201576530916456e-001	 1.893918966908032e+000	 4.715075099375087e+000
 2.015204821868069e-001	 1.895992577523594e+000	 4.690520332858670e+000
 1.829284382740870e-001	 1.897876562659040e+000	 4.668470906166049e+000
 3.757428228986661e-001	 1.896475996465010e+000	 5.240447797973348e+000
 3.565771774634313e-001	 1.900172801008212e+000	 5.161835858499064e+000
 3.374350045777524e-001	 1.903665316060748e+000	 5.093069102837147e+000
 3.183192558032973e-001	 1.906954877898667e+000	 5.032986582308047e+000
 2.992328369245657e-001	 1.910042873130104e+000	 4.980391962418405e+000
 2.801786070749438e-001	 1.912930737139797e+000	 4.934084936809447e+000
 2.611593779176946e-001	 1.915619952523162e+000	 4.892892153392582e+000
 2.421779128815985e-001	 1.918112047511930e+000	 4.855697414844057e+000
 2.232369264508841e-001	 1.920408594393359e+000	 4.821470929404886e+000
 2.043390835090026e-001	 1.922511207924947e+000	 4.789297402748147e+000
 1.854869987357526e-001	 1.924421543746556e+000	 4.758402777380836e+000
 3.809257237877377e-001	 1.922635503782531e+000	 5.373337126552889e+000
 3.614957123162833e-001	 1.926383301107304e+000	 5.292867691542892e+000
 3.420894971687164e-001	 1.929923991024120e+000	 5.221523902826560e+000
 3.227100706197986e-001	 1.933258928241276e+000	 5.158018575798208e+000
 3.033603785356840e-001	 1.936389518493424e+000	 5.101020787010743e+000
 2.840433194879206e-001	 1.939317216964629e+000	 5.049190683831724e+000
 2.647617439231413e-001	 1.942043526700847e+000	 5.001213777158879e+000
 2.455184533881636e-001	 1.944569997013850e+000	 4.955834456384601e+000
 2.263161998101232e-001	 1.946898221878620e+000	 4.911888480768534e+000
 2.071576848311983e-001	 1.949029838326206e+000	 4.868334217486582e+000
 1.880455591974182e-001	 1.950966524833943e+000	 4.824282413700193e+000
 3.861086246769064e-001	 1.948795011100049e+000	 5.501847869815510e+000
 3.664142471692060e-001	 1.952593801206374e+000	 5.419189259778441e+000
 3.467439897597303e-001	 1.956182665987450e+000	 5.344684231566834e+000
 3.271008854363341e-001	 1.959562978583822e+000	 5.276879643927622e+000
 3.074879201468264e-001	 1.962736163856656e+000	 5.214269196391962e+000
 2.879080319009157e-001	 1.965703696789349e+000	 5.155331941877617e+000
 2.683641099286056e-001	 1.968467100878397e+000	 5.098570251558233e+000
 2.488589938947491e-001	 1.971027946515605e+000	 5.042546946473983e+000
 2.293954731693895e-001	 1.973387849363684e+000	 4.985921326608687e+000
 2.099762861534316e-001	 1.975548468727234e+000	 4.927483845642429e+000
 1.906041196591352e-001	 1.977511505921061e+000	 4.866189198140216e+000
 3.912915255661882e-001	 1.974954518417563e+000	 5.622844454558491e+000
 3.713327820222112e-001	 1.978804301305400e+000	 5.538006076096288e+000
 3.513984823508028e-001	 1.982441340950695e+000	 5.460103036904475e+000
 3.314917002529111e-001	 1.985867028926243e+000	 5.387471797558911e+000
 3.116154617579995e-001	 1.989082809219724e+000	 5.318385094566276e+000
 2.917727443139378e-001	 1.992090176613864e+000	 5.251094483885491e+000
 2.719664759340993e-001	 1.994890675055700e+000	 5.183872304129053e+000
 2.521995344013732e-001	 1.997485896017071e+000	 5.115052747380205e+000
 2.324747465287095e-001	 1.999877476848419e+000	 5.043071743171372e+000
 2.127948874757400e-001	 2.002067099127891e+000	 4.966652166223459e+000
 1.931626801209544e-001	 2.004056487007765e+000	 4.884876721326926e+000
 3.964744264555997e-001	 2.001114025735070e+000	 5.733126137806137e+000
 3.762513168753105e-001	 2.005014801404359e+000	 5.645724408340832e+000
 3.560529749419423e-001	 2.008700015913815e+000	 5.563344288838041e+000
 3.358825150695361e-001	 2.012171079268478e+000	 5.484656268240122e+000
 3.157430033692104e-001	 2.015429454582549e+000	 5.408271732371479e+000
 2.956374567269953e-001	 2.018476656438079e+000	 5.332770913657179e+000
 2.755688419396348e-001	 2.021314249232647e+000	 5.256729835412951e+000
 2.555400749080536e-001	 2.023943845518130e+000	 5.178746427722346e+000
 2.355540198881096e-001	 2.026367104332694e+000	 5.097465983837765e+000
 2.156134887981608e-001	 2.028585729528039e+000	 5.011606116354353e+000
 1.957212405829273e-001	 2.030601468093916e+000	 4.919981361293612e+000
 4.016573273451569e-001	 2.027273533052570e+000	 5.803470155725369e+000
 3.811698517285161e-001	 2.031225301503230e+000	 5.711157465703336e+000
 3.607074675331575e-001	 2.034958690876767e+000	 5.624890120518979e+000
 3.402733298862165e-001	 2.038475129610468e+000	 5.543394623748144e+000
 3.198705449804655e-001	 2.041776099945052e+000	 5.465311922439867e+000
 2.995021691400967e-001	 2.044863136261900e+000	 5.389223592712313e+000
 2.791712079452243e-001	 2.047737823409130e+000	 5.313677052732984e+000
 2.588806154148092e-001	 2.050401795018658e+000	 5.237210006408299e+000
 2.386332932476166e-001	 2.052856731816378e+000	 5.158374311632092e+000
 2.184320901207317e-001	 2.055104359927540e+000	 5.075759455705311e+000
 1.982798010451052e-001	 2.057146449179369e+000	 4.988015807760339e+000
 1.726941964264004e-001	 1.791696638310540e+000	 4.062918262435720e+000
 1.551846886247798e-001	 1.793298009200867e+000	 4.036916477842972e+000
 1.377225603152077e-001	 1.794723502569440e+000	 4.023653128912811e+000
 1.203101389484920e-001	 1.795974766340585e+000	 4.020501979699247e+000
 1.029497023582024e-001	 1.797053480637194e+000	 4.025024990850054e+000
 8.564347844425330e-002	 1.797961356299908e+000	 4.034984365204444e+000
 6.839364490323611e-002	 1.798700133414114e+000	 4.048353069658920e+000
 5.120232900460125e-002	 1.799271579846228e+000	 4.063323794433055e+000
 3.407160741175545e-002	 1.799677489790610e+000	 4.078316322379766e+000
 1.700350604710066e-002	 1.799919682328466e+000	 4.091983292237812e+000
 0.000000000000000e+000	 1.800000000000000e+000	 4.103214345917737e+000
 1.752527568885781e-001	 1.818241619397146e+000	 4.251996875361341e+000
 1.574838360012102e-001	 1.819866715486908e+000	 4.237503369380253e+000
 1.397629965593997e-001	 1.821313328331721e+000	 4.236581175047360e+000
 1.220926004964326e-001	 1.822583130270824e+000	 4.246454848200271e+000
 1.044749593932499e-001	 1.823677826319064e+000	 4.264556613075167e+000
 8.691233415734243e-002	 1.824599152664132e+000	 4.288540013376630e+000
 6.940693474908768e-002	 1.825348875171750e+000	 4.316291886884645e+000
 5.196091995461615e-002	 1.825928787900252e+000	 4.345942619416373e+000
 3.457639720425804e-002	 1.826340711625985e+000	 4.375874646622049e+000
 1.725542243558246e-002	 1.826586492380854e+000	 4.404729184471267e+000
 0.000000000000000e+000	 1.826668000003317e+000	 4.431411176598248e+000
 1.778113173505509e-001	 1.844786600484193e+000	 4.415616022277787e+000
 1.597829833773705e-001	 1.846435421773350e+000	 4.406985663370505e+000
 1.418034328032533e-001	 1.847903154094349e+000	 4.412415320115226e+000
 1.238750620439718e-001	 1.849191494201344e+000	 4.429039227355236e+000
 1.060002164278468e-001	 1.850302172001139e+000	 4.454218434695259e+000
 8.818118986995374e-002	 1.851236949028488e+000	 4.485556145278496e+000
 7.042022459446456e-002	 1.851997616929445e+000	 4.520911218999453e+000
 5.271951090419792e-002	 1.852585995954273e+000	 4.558409790109551e+000
 3.508118699641526e-002	 1.853003933461306e+000	 4.596454963058721e+000
 1.750733882386074e-002	 1.853253302433154e+000	 4.633734563997509e+000
 0.000000000000000e+000	 1.853336000006534e+000	 4.669226933887071e+000
 1.803698778123702e-001	 1.871331581571538e+000	 4.554305364214303e+000
 1.620821307533284e-001	 1.873004128060052e+000	 4.546083149808191e+000
 1.438438690468529e-001	 1.874492979857181e+000	 4.552006515686379e+000
 1.256575235912098e-001	 1.875799858132006e+000	 4.569171112008028e+000
 1.075254734621056e-001	 1.876926517683292e+000	 4.594918385236777e+000
 8.945004558220665e-002	 1.877874745392853e+000	 4.626852701465863e+000
 7.143351443948548e-002	 1.878646358687085e+000	 4.662856467867927e+000
 5.347810185345483e-002	 1.879243204008180e+000	 4.701103195784368e+000
 3.558597678831350e-002	 1.879667155296469e+000	 4.740068464164840e+000
 1.775925521198637e-002	 1.879920112485265e+000	 4.778538756935114e+000
 0.000000000000000e+000	 1.880004000009551e+000	 4.815618157701564e+000
 1.829284382740870e-001	 1.897876562659040e+000	 4.668470906166049e+000
 1.643812781291512e-001	 1.899572834346869e+000	 4.655389906115715e+000
 1.458843052902834e-001	 1.901082805620080e+000	 4.656079292011749e+000
 1.274399851382471e-001	 1.902408222062676e+000	 4.667640781569485e+000
 1.090507304961390e-001	 1.903550863365390e+000	 4.687440864033129e+000
 9.071890129422065e-002	 1.904512541757102e+000	 4.713129819951536e+000
 7.244680428426906e-002	 1.905295100444551e+000	 4.742658564700290e+000
 5.423669280249519e-002	 1.905900412061864e+000	 4.774293252208032e+000
 3.609076658003904e-002	 1.906330377131367e+000	 4.806627591940409e+000
 1.801117160001025e-002	 1.906586922537085e+000	 4.838592848429108e+000
 0.000000000000000e+000	 1.906672000012268e+000	 4.869465503884760e+000
 1.854869987357526e-001	 1.924421543746556e+000	 4.758402777380836e+000
 1.666804255049065e-001	 1.926141540633660e+000	 4.735382378702423e+000
 1.479247415336293e-001	 1.927672631382903e+000	 4.725240065925944e+000
 1.292224466851840e-001	 1.929016585993217e+000	 4.725121240611339e+000
 1.105759875300598e-001	 1.930175209047304e+000	 4.732455201392018e+000
 9.198775700611518e-002	 1.931150338121113e+000	 4.744976187641891e+000
 7.346009412893398e-002	 1.931943842201728e+000	 4.760742063567863e+000
 5.499528375142728e-002	 1.932557620115213e+000	 4.778150571479711e+000
 3.659555637167828e-002	 1.932993598965896e+000	 4.795953101071443e+000
 1.826308798798325e-002	 1.933253732588513e+000	 4.813265939252148e+000
 0.000000000000000e+000	 1.933340000014584e+000	 4.829578977833754e+000
 1.880455591974182e-001	 1.950966524833943e+000	 4.824282413700193e+000
 1.689795728806618e-001	 1.952710246920282e+000	 4.786426831271093e+000
 1.499651777769752e-001	 1.954262457145510e+000	 4.759984788593872e+000
 1.310049082321210e-001	 1.955624949923494e+000	 4.742175982052165e+000
 1.121012445639806e-001	 1.956799554728904e+000	 4.730523435986569e+000
 9.325661271800977e-002	 1.957788134484761e+000	 4.722876713725469e+000
 7.447338397359894e-002	 1.958592583958498e+000	 4.717432575884039e+000
 5.575387470035939e-002	 1.959214828168119e+000	 4.712753006289217e+000
 3.710034616331752e-002	 1.959656820799952e+000	 4.707780545557119e+000
 1.851500437595628e-002	 1.959920542639449e+000	 4.701850891615234e+000
 0.000000000000000e+000	 1.960008000016401e+000	 4.694702740873647e+000
 1.906041196591352e-001	 1.977511505921061e+000	 4.866189198140217e+000
 1.712787202564847e-001	 1.979278953206592e+000	 4.808786219377608e+000
 1.520056140204057e-001	 1.980852282907762e+000	 4.760705995131040e+000
 1.327873697791583e-001	 1.982233313853369e+000	 4.719266136584680e+000
 1.136265015980141e-001	 1.983423900410058e+000	 4.682107472720476e+000
 9.452546843002388e-002	 1.984425930847923e+000	 4.647219588727374e+000
 7.548667381838257e-002	 1.985241325714745e+000	 4.612963607774627e+000
 5.651246564939982e-002	 1.985872036220470e+000	 4.578092127381222e+000
 3.760513595504313e-002	 1.986320042633429e+000	 4.541766242977036e+000
 1.876692076398018e-002	 1.986587352689790e+000	 4.503569612185516e+000
 0.000000000000000e+000	 1.986676000017618e+000	 4.463519529523375e+000
 1.931626801209544e-001	 2.004056487007765e+000	 4.884876721326920e+000
 1.735778676324426e-001	 2.005847659492447e+000	 4.804691316384037e+000
 1.540460502640055e-001	 2.007442108669516e+000	 4.731860437203991e+000
 1.345698313263964e-001	 2.008841677782708e+000	 4.663877445579122e+000
 1.151517586322730e-001	 2.010048246090638e+000	 4.598507352909472e+000
 9.579432414227686e-002	 2.011063727210475e+000	 4.533814662278872e+000
 7.649996366340360e-002	 2.011890067470353e+000	 4.468191080133666e+000
 5.727105659865683e-002	 2.012529244272157e+000	 4.400383137573840e+000
 3.810992574694144e-002	 2.012983264466222e+000	 4.329519748081125e+000
 1.901883715210586e-002	 2.013254162739434e+000	 4.255139715501987e+000
 0.000000000000000e+000	 2.013344000018134e+000	 4.177219188163606e+000
 1.957212405829273e-001	 2.030601468093916e+000	 4.919981361293616e+000
 1.758770150086030e-001	 2.032416365777704e+000	 4.829492670446943e+000
 1.560864865078591e-001	 2.034031934430634e+000	 4.746040686258422e+000
 1.363522928739357e-001	 2.035450041711373e+000	 4.667139992777357e+000
 1.166770156668700e-001	 2.036672591770513e+000	 4.590534860997591e+000
 9.706317985488833e-002	 2.037701523572295e+000	 4.514226599244479e+000
 7.751325350878065e-002	 2.038538809225204e+000	 4.436500988028488e+000
 5.802964754823874e-002	 2.039186452323067e+000	 4.355955846324632e+000
 3.861471553909877e-002	 2.039646486298226e+000	 4.271528761139598e+000
 1.927075354038420e-002	 2.039920972788282e+000	 4.182524997324562e+000
 0.000000000000000e+000	 2.040012000017850e+000	 4.088645582662640e+000
 1.982798010451052e-001	 2.057146449179369e+000	 4.988015807760339e+000
 1.781761623850336e-001	 2.058985072062221e+000	 4.902007424037723e+000
 1.581269227520513e-001	 2.060621760190973e+000	 4.823807499590526e+000
 1.381347544218765e-001	 2.062058405639229e+000	 4.751019924873297e+000
 1.182022727019177e-001	 2.063296937449552e+000	 4.681431128189513e+000
 9.833203556797766e-002	 2.064339319933258e+000	 4.613036667405384e+000
 7.852654335463237e-002	 2.065187550979181e+000	 4.544068145727856e+000
 5.878823849825383e-002	 2.065843660373091e+000	 4.473020506314455e+000
 3.911950533160152e-002	 2.066309708129337e+000	 4.398679743278005e+000
 1.952266992886609e-002	 2.066587782836232e+000	 4.320151049701575e+000
 0.000000000000000e+000	 2.066680000016667e+000	 4.236887397287227e+000
 2.066680000016667e+000	 0.000000000000000e+000	 1.239931016865143e+001
 2.066587782836231e+000	 1.952266992886615e-002	 1.236595075683037e+001
 2.066309708129336e+000	 3.911950533160163e-002	 1.234875998935940e+001
 2.065843660373092e+000	 5.878823849825369e-002	 1.234433189451275e+001
 2.065187550979181e+000	 7.852654335463230e-002	 1.234920823570200e+001
 2.064339319933258e+000	 9.833203556797766e-002	 1.235989109604682e+001
 2.063296937449552e+000	 1.182022727019178e-001	 1.237285540640913e+001
 2.062058405639229e+000	 1.381347544218766e-001	 1.238456140170925e+001
 2.060621760190974e+000	 1.581269227520511e-001	 1.239146700747646e+001
 2.058985072062221e+000	 1.781761623850334e-001	 1.239004016272036e+001
 2.057146449179369e+000	 1.982798010451051e-001	 1.237677108936650e+001
 2.093344000014533e+000	 0.000000000000000e+000	 1.229014298600105e+001
 2.093250593061714e+000	 1.977454853201645e-002	 1.225989819607581e+001
 2.092968930676188e+000	 3.962421940982406e-002	 1.224625331925651e+001
 2.092496870040883e+000	 5.954671566582060e-002	 1.224562494721160e+001
 2.091832295620812e+000	 7.953968121516000e-002	 1.225439894866576e+001
 2.090973120823608e+000	 9.960070096278299e-002	 1.226894337310732e+001
 2.089917289675494e+000	 1.197273009603743e-001	 1.228562122048154e+001
 2.088662778511150e+000	 1.399169486144205e-001	 1.230080306216859e+001
 2.087207597675990e+000	 1.601670529465026e-001	 1.231087951642666e+001
 2.085549793239212e+000	 1.804749649069133e-001	 1.231227358619982e+001
 2.083687448715941e+000	 2.008379777426381e-001	 1.230145287192618e+001
 2.120008000011600e+000	 0.000000000000000e+000	 1.219715988637665e+001
 2.119913403286397e+000	 2.002642713537022e-002	 1.216686493814779e+001
 2.119628153222235e+000	 4.012893348839165e-002	 1.215380677055130e+001
 2.119150079707866e+000	 6.030519283382015e-002	 1.215423173785655e+001
 2.118477040261631e+000	 8.055281907616123e-002	 1.216437723100648e+001
 2.117606921713150e+000	 1.008693663580642e-001	 1.218048482091244e+001
 2.116537641900631e+000	 1.212523292192781e-001	 1.219881318441635e+001
 2.115267151382275e+000	 1.416991428073603e-001	 1.221565079902423e+001
 2.113793435160225e+000	 1.622071831412843e-001	 1.222732841116597e+001
 2.112114514415441e+000	 1.827737674290515e-001	 1.223023128807478e+001
 2.110228448251783e+000	 2.033961544403597e-001	 1.222081126874616e+001
 2.146672000008067e+000	 0.000000000000000e+000	 1.211632492206723e+001
 2.146576213510477e+000	 2.027830573887656e-002	 1.208377144571702e+001
 2.146287375767672e+000	 4.063364756721792e-002	 1.206922231682522e+001
 2.145803289374231e+000	 6.106367000214360e-002	 1.206876183746648e+001
 2.145121784901822e+000	 8.156595693751639e-002	 1.207848742163001e+001
 2.144240722602052e+000	 1.021380317536996e-001	 1.209452289426667e+001
 2.143157994125120e+000	 1.227773574785130e-001	 1.211303148345058e+001
 2.141871524252747e+000	 1.434813370005902e-001	 1.213022849292215e+001
 2.140379272643811e+000	 1.642473133363034e-001	 1.214239366169012e+001
 2.138679235591033e+000	 1.850725699513688e-001	 1.214588322338663e+001
 2.136769447787005e+000	 2.059543311382027e-001	 1.213714168411362e+001
 2.173336000004134e+000	 0.000000000000000e+000	 1.204407737071765e+001
 2.173239023734152e+000	 2.053018434248459e-002	 1.200795554852168e+001
 2.172946598312694e+000	 4.113836164621647e-002	 1.199066333264379e+001
 2.172456499040166e+000	 6.182214717068232e-002	 1.198813222101700e+001
 2.171766529541564e+000	 8.257909479910577e-002	 1.199632931229710e+001
 2.170874523490487e+000	 1.034066971495681e-001	 1.201127067224922e+001
 2.169778346349123e+000	 1.243023857379629e-001	 1.202903429707315e+001
 2.168475897122718e+000	 1.452635311940044e-001	 1.204577266245529e+001
 2.166965110126884e+000	 1.662874435314671e-001	 1.205772486732629e+001
 2.165243956766109e+000	 1.873713724737860e-001	 1.206122838803914e+001
 2.163310447321718e+000	 2.085125078360998e-001	 1.205273046546627e+001
 2.200000000000001e+000	 0.000000000000000e+000	 1.197730293667176e+001
 2.199901833957622e+000	 2.078206294614344e-002	 1.193714643627098e+001
 2.199605820857498e+000	 4.164307572530086e-002	 1.191663124967896e+001
 2.199109708705859e+000	 6.258062433932760e-002	 1.191154645970619e+001
 2.198411274181037e+000	 8.359223266080977e-002	 1.191773975031408e+001
 2.197508324378621e+000	 1.046753625455480e-001	 1.193113074706393e+001
 2.196398698572797e+000	 1.258274139975117e-001	 1.194772385129769e+001
 2.195080269992334e+000	 1.470457253874971e-001	 1.196362055874144e+001
 2.193550947609579e+000	 1.683275737266827e-001	 1.197503127419480e+001
 2.191808677940789e+000	 1.896701749962238e-001	 1.197828664149660e+001
 2.189851446856028e+000	 2.110706845339837e-001	 1.196984841552052e+001
 2.226663999995867e+000	 0.000000000000000e+000	 1.191330702147543e+001
 2.226564644181085e+000	 2.103394154980220e-002	 1.186944052053964e+001
 2.226265043402275e+000	 4.214778980438460e-002	 1.184594389175233e+001
 2.225762918371497e+000	 6.333910150797077e-002	 1.183847541219151e+001
 2.225056018820421e+000	 8.460537052250870e-002	 1.184277557038101e+001
 2.224142125266629e+000	 1.059440279415181e-001	 1.185468028236899e+001
 2.223019050796304e+000	 1.273524422570433e-001	 1.187013349088468e+001
 2.221684642861741e+000	 1.488279195809625e-001	 1.188519914055667e+001
 2.220136785092031e+000	 1.703677039218573e-001	 1.189607254395638e+001
 2.218373399115199e+000	 1.919689775186032e-001	 1.189909116159590e+001
 2.216392446390048e+000	 2.136288612317870e-001	 1.189074482742060e+001
 2.253327999991934e+000	 0.000000000000000e+000	 1.184978989214596e+001
 2.253227454404741e+000	 2.128582015341000e-002	 1.180327901083962e+001
 2.252924265947221e+000	 4.265250388338127e-002	 1.177771534972937e+001
 2.252416128037271e+000	 6.409757867650315e-002	 1.176863929063287e+001
 2.251700763459897e+000	 8.561850838408298e-002	 1.177169774549654e+001
 2.250775926154679e+000	 1.072126933373569e-001	 1.178265714422015e+001
 2.249639403019801e+000	 1.288774705164418e-001	 1.179741568703002e+001
 2.248289015731089e+000	 1.506101137742947e-001	 1.181201485708561e+001
 2.246722622574374e+000	 1.724078341168981e-001	 1.182265021161098e+001
 2.244938120289457e+000	 1.942677800408449e-001	 1.182568147911608e+001
 2.242933445923886e+000	 2.161870379294425e-001	 1.181764199958498e+001
 2.279991999988401e+000	 0.000000000000000e+000	 1.178482359185130e+001
 2.279890264628786e+000	 2.153769875691595e-002	 1.173742706454232e+001
 2.279583488492532e+000	 4.315721796220443e-002	 1.171133727021002e+001
 2.279069337703367e+000	 6.485605584481599e-002	 1.170199098899982e+001
 2.278345508099645e+000	 8.663164624541291e-002	 1.170495665712707e+001
 2.277409727042943e+000	 1.084813587329429e-001	 1.171594701681566e+001
 2.276259755243449e+000	 1.304024987755909e-001	 1.173083090393950e+001
 2.274893388600523e+000	 1.523923079673880e-001	 1.174564417217584e+001
 2.273308460056743e+000	 1.744479643117125e-001	 1.175659977594314e+001
 2.271502841463688e+000	 1.965665825628696e-001	 1.176009704463916e+001
 2.269474445457651e+000	 2.187452146268828e-001	 1.175273019098005e+001
 2.306655999985467e+000	 0.000000000000000e+000	 1.171683045200650e+001
 2.306553074853420e+000	 2.178957736026917e-002	 1.167095438329735e+001
 2.306242711038400e+000	 4.366193204076763e-002	 1.164646144361155e+001
 2.305722547369975e+000	 6.561453301280069e-002	 1.163870057149944e+001
 2.304990252739845e+000	 8.764478410637885e-002	 1.164317839406909e+001
 2.304043527931590e+000	 1.097500241281548e-001	 1.165557142335710e+001
 2.302880107467407e+000	 1.319275270343746e-001	 1.167173725478820e+001
 2.301497761470192e+000	 1.541745021601365e-001	 1.168772477009349e+001
 2.299894297539273e+000	 1.764880945062075e-001	 1.169978337141899e+001
 2.298067562638013e+000	 1.988653850845982e-001	 1.170437128463567e+001
 2.296015444991454e+000	 2.213033913240406e-001	 1.169816298118111e+001
 2.333319999983334e+000	 0.000000000000000e+000	 1.164456307768761e+001
 2.333215885078842e+000	 2.204145596341876e-002	 1.160321714024203e+001
 2.332901933585021e+000	 4.416664611898443e-002	 1.158298358770510e+001
 2.332375757037283e+000	 6.637301018034852e-002	 1.157914082832651e+001
 2.331634997380677e+000	 8.865792196686113e-002	 1.158715199771841e+001
 2.330677328820791e+000	 1.110186895228712e-001	 1.160267657962409e+001
 2.329500459691833e+000	 1.334525552926768e-001	 1.162158088392335e+001
 2.328102134340243e+000	 1.559566963524343e-001	 1.163994738826587e+001
 2.326480135022099e+000	 1.785282247002904e-001	 1.165408297502379e+001
 2.324632283812556e+000	 2.011641876059514e-001	 1.166052610763504e+001
 2.322556444525403e+000	 2.238615680208486e-001	 1.165605300284219e+001
 2.057146449179369e+000	 1.982798010451051e-001	 1.237677108936650e+001
 2.055104359927541e+000	 2.184320901207318e-001	 1.236342178337372e+001
 2.052856731816378e+000	 2.386332932476165e-001	 1.236211232610733e+001
 2.050401795018658e+000	 2.588806154148092e-001	 1.236995562784751e+001
 2.047737823409130e+000	 2.791712079452241e-001	 1.238414362411973e+001
 2.044863136261900e+000	 2.995021691400968e-001	 1.240195882111108e+001
 2.041776099945052e+000	 3.198705449804656e-001	 1.242078588469286e+001
 2.038475129610468e+000	 3.402733298862165e-001	 1.243812330901515e+001
 2.034958690876766e+000	 3.607074675331576e-001	 1.245159520327330e+001
 2.031225301503230e+000	 3.811698517285159e-001	 1.245896323743887e+001
 2.027273533052570e+000	 4.016573273451569e-001	 1.245813878944282e+001
 2.083687448715941e+000	 2.008379777426381e-001	 1.230145287192618e+001
 2.081619012730616e+000	 2.212502686744141e-001	 1.229036196696748e+001
 2.079342386053916e+000	 2.417121047393327e-001	 1.229124764339769e+001
 2.076855776024568e+000	 2.622206548656227e-001	 1.230114409513796e+001
 2.074157434247109e+000	 2.827730336229843e-001	 1.231718047203002e+001
 2.071245658311171e+000	 3.033663018753616e-001	 1.233659211356654e+001
 2.068118793507961e+000	 3.239974674914737e-001	 1.235673179078076e+001
 2.064775234541886e+000	 3.446634861136526e-001	 1.237508099861290e+001
 2.061213427235205e+000	 3.653612619854609e-001	 1.238926134412218e+001
 2.057431870223552e+000	 3.860876488384815e-001	 1.239704607848219e+001
 2.053429116640150e+000	 4.068394508385930e-001	 1.239637182272075e+001
 2.110228448251783e+000	 2.033961544403597e-001	 1.222081126874616e+001
 2.108133665533004e+000	 2.240684472282250e-001	 1.221113804257974e+001
 2.105828040290817e+000	 2.447909162311279e-001	 1.221352871153341e+001
 2.103309757029900e+000	 2.655606943164766e-001	 1.222494706190405e+001
 2.100577045084579e+000	 2.863748593007571e-001	 1.224246720459890e+001
 2.097628180360006e+000	 3.072304346106214e-001	 1.226328438123322e+001
 2.094461487070513e+000	 3.281243900024697e-001	 1.228472574191516e+001
 2.091075339473031e+000	 3.490536423410803e-001	 1.230426114409670e+001
 2.087468163593456e+000	 3.700150564377693e-001	 1.231951402537731e+001
 2.083638438943774e+000	 3.910054459484762e-001	 1.232827240611365e+001
 2.079584700227718e+000	 4.120215743320919e-001	 1.232850008007021e+001
 2.136769447787005e+000	 2.059543311382027e-001	 1.213714168411362e+001
 2.134648318334801e+000	 2.268866257821053e-001	 1.212831193698834e+001
 2.132313694527165e+000	 2.478697277229482e-001	 1.213173073637452e+001
 2.129763738034729e+000	 2.689007337673182e-001	 1.214430139266973e+001
 2.126996655921599e+000	 2.899766849784880e-001	 1.216305238047304e+001
 2.124010702408456e+000	 3.110945673458185e-001	 1.218514759390615e+001
 2.120804180632748e+000	 3.322513125133902e-001	 1.220789653600062e+001
 2.117375444403931e+000	 3.534437985684282e-001	 1.222876449934456e+001
 2.113722899951540e+000	 3.746688508900029e-001	 1.224538279917363e+001
 2.109845007663906e+000	 3.959232430584103e-001	 1.225555912349536e+001
 2.105740283815281e+000	 4.172036978255548e-001	 1.225728806759078e+001
 2.163310447321718e+000	 2.085125078360998e-001	 1.205273046546627e+001
 2.161162971136105e+000	 2.297048043359963e-001	 1.204440078968857e+001
 2.158799348763049e+000	 2.509485392147393e-001	 1.204855063953020e+001
 2.156217719039129e+000	 2.722407732180951e-001	 1.206203447233943e+001
 2.153416266758237e+000	 2.935785106561236e-001	 1.208184625016546e+001
 2.150393224456572e+000	 3.149587000808951e-001	 1.210512901361311e+001
 2.147146874194708e+000	 3.363782350241716e-001	 1.212918435087203e+001
 2.143675549334621e+000	 3.578339547956261e-001	 1.215148182772009e+001
 2.139977636309479e+000	 3.793226453420825e-001	 1.216966844880729e+001
 2.136051576383962e+000	 4.008410401681957e-001	 1.218157822440402e+001
 2.131895867402834e+000	 4.223858213188828e-001	 1.218524191995159e+001
 2.189851446856028e+000	 2.110706845339837e-001	 1.196984841552052e+001
 2.187677623937013e+000	 2.325229828898390e-001	 1.196187205227110e+001
 2.185285002998553e+000	 2.540273507064468e-001	 1.196660365678101e+001
 2.182671700043172e+000	 2.755808126687546e-001	 1.198086221718024e+001
 2.179835877594552e+000	 2.971803363336100e-001	 1.200162009486628e+001
 2.176775746504409e+000	 3.188228328157937e-001	 1.202601177830518e+001
 2.173489567756436e+000	 3.405051575347510e-001	 1.205134249172270e+001
 2.169975654265129e+000	 3.622241110226026e-001	 1.207509673392281e+001
 2.166232372667292e+000	 3.839764397939289e-001	 1.209494682753320e+001
 2.162258145103953e+000	 4.057588372777426e-001	 1.210876156335262e+001
 2.158051450990382e+000	 4.275679448119764e-001	 1.211461502806822e+001
 2.216392446390048e+000	 2.136288612317870e-001	 1.189074482742059e+001
 2.214192276737622e+000	 2.353411614435744e-001	 1.188313901092058e+001
 2.211770657233760e+000	 2.571061621980169e-001	 1.188842026801584e+001
 2.209125681046936e+000	 2.789208521192439e-001	 1.190338733397520e+001
 2.206255488430610e+000	 3.007821620108933e-001	 1.192500573831084e+001
 2.203158268552019e+000	 3.226869655504569e-001	 1.195041559167960e+001
 2.199832261317972e+000	 3.446320800450645e-001	 1.197693918587991e+001
 2.196275759195487e+000	 3.666142672492870e-001	 1.200208849248794e+001
 2.192487109025002e+000	 3.886302342454619e-001	 1.202357265133981e+001
 2.188464713823888e+000	 4.106766343869623e-001	 1.203930554497496e+001
 2.184207034577926e+000	 4.327500683047373e-001	 1.204741355921416e+001
 2.242933445923886e+000	 2.161870379294425e-001	 1.181764199958498e+001
 2.240706929538030e+000	 2.381593399971436e-001	 1.181055669698823e+001
 2.238256311468759e+000	 2.601849736893952e-001	 1.181644343122238e+001
 2.235579662050491e+000	 2.822608915695107e-001	 1.183209780679169e+001
 2.232675099266471e+000	 3.043839876879194e-001	 1.185449521737028e+001
 2.229540790599451e+000	 3.265510982848271e-001	 1.188079751034178e+001
 2.226174954879359e+000	 3.487590025550492e-001	 1.190835942100440e+001
 2.222575864125728e+000	 3.710044234756086e-001	 1.193473487321021e+001
 2.218741845382629e+000	 3.932840286966024e-001	 1.195768324951054e+001
 2.214671282543780e+000	 4.155944314957660e-001	 1.197517573935767e+001
 2.210362618165463e+000	 4.379321917970662e-001	 1.198540187847094e+001
 2.269474445457651e+000	 2.187452146268828e-001	 1.175273019098006e+001
 2.267221582338333e+000	 2.409775185504877e-001	 1.174641815386755e+001
 2.264741965703633e+000	 2.632637851805277e-001	 1.175302609564054e+001
 2.262033643053913e+000	 2.856009310195024e-001	 1.176936559272832e+001
 2.259094710102200e+000	 3.079858133646347e-001	 1.179244059836818e+001
 2.255923312646760e+000	 3.304152310188462e-001	 1.181945282033611e+001
 2.252517648440637e+000	 3.528859250646414e-001	 1.184780682315557e+001
 2.248875969055882e+000	 3.753945797014968e-001	 1.187511496374167e+001
 2.244996581740197e+000	 3.979378231472712e-001	 1.189920227642407e+001
 2.240877851263638e+000	 4.205122286040643e-001	 1.191811142937950e+001
 2.236518201752999e+000	 4.431143152888640e-001	 1.193010787959212e+001
 2.296015444991454e+000	 2.213033913240406e-001	 1.169816298118111e+001
 2.293736235138629e+000	 2.437956971035477e-001	 1.169295103134098e+001
 2.291227619938468e+000	 2.663425966713601e-001	 1.170042897148725e+001
 2.288487624057276e+000	 2.889409704691661e-001	 1.171744550973063e+001
 2.285514320937859e+000	 3.115876390409852e-001	 1.174105392733083e+001
 2.282305834693997e+000	 3.342793637524572e-001	 1.176851599581296e+001
 2.278860342001849e+000	 3.570128475737778e-001	 1.179730557149590e+001
 2.275176073985981e+000	 3.797847359268805e-001	 1.182511198958941e+001
 2.271251318097723e+000	 4.025916175973881e-001	 1.184984338772896e+001
 2.267084419983474e+000	 4.254300257117684e-001	 1.186963009555649e+001
 2.262673785340533e+000	 4.482964387800323e-001	 1.188282823260806e+001
 2.322556444525403e+000	 2.238615680208486e-001	 1.165605300284219e+001
 2.320250887939015e+000	 2.466138756562646e-001	 1.165231448120260e+001
 2.317713274173349e+000	 2.694214081618382e-001	 1.166081853572864e+001
 2.314941605060654e+000	 2.922810099184495e-001	 1.167847430110961e+001
 2.311933931773511e+000	 3.151894647169170e-001	 1.170240730345565e+001
 2.308688356741215e+000	 3.381434964856023e-001	 1.172996173325879e+001
 2.305203035563035e+000	 3.611397700823949e-001	 1.175870234670063e+001
 2.301476178916054e+000	 3.841748921516888e-001	 1.178641613171918e+001
 2.297506054455230e+000	 4.072454120468744e-001	 1.181111388373754e+001
 2.293290988703300e+000	 4.303478228187891e-001	 1.183103184338915e+001
 2.288829368928065e+000	 4.534785622704716e-001	 1.184463355482790e+001
 2.027273533052570e+000	 4.016573273451569e-001	 1.245813878944283e+001
 2.023101370489906e+000	 4.221697687133256e-001	 1.245713087860923e+001
 2.018708075208402e+000	 4.427008487803357e-001	 1.246404526867443e+001
 2.014092391253171e+000	 4.632472654263895e-001	 1.247718859487288e+001
 2.009253123036069e+000	 4.838056717963328e-001	 1.249505548041798e+001
 2.004189136910731e+000	 5.043726775313110e-001	 1.251634228372859e+001
 1.998899362722714e+000	 5.249448500593382e-001	 1.253994941240669e+001
 1.993382795332379e+000	 5.455187159444398e-001	 1.256462425340144e+001
 1.987638496108145e+000	 5.660907622939356e-001	 1.258951794950593e+001
 1.981665594387705e+000	 5.866574382233224e-001	 1.261423905897393e+001
 1.975463288904845e+000	 6.072151563781103e-001	 1.263869514826449e+001
 2.053429116640150e+000	 4.068394508385930e-001	 1.239637182272075e+001
 2.049203125452439e+000	 4.276165406946643e-001	 1.239519174961707e+001
 2.044753148524194e+000	 4.484125097233065e-001	 1.240155649283180e+001
 2.040077913696388e+000	 4.692240132012558e-001	 1.241381497537075e+001
 2.035176209955583e+000	 4.900476610927235e-001	 1.243051171386817e+001
 2.030046889029278e+000	 5.108800192969424e-001	 1.245040016602838e+001
 2.024688866956064e+000	 5.317176109553853e-001	 1.247245659778949e+001
 2.019101125628145e+000	 5.525569178183158e-001	 1.249589451554799e+001
 2.013282714303859e+000	 5.733943816702276e-001	 1.252017970475397e+001
 2.007232751087750e+000	 5.942264058136259e-001	 1.254504591127713e+001
 2.000950424375789e+000	 6.150493566104990e-001	 1.257051119614902e+001
 2.079584700227718e+000	 4.120215743320919e-001	 1.232850008007021e+001
 2.075304880415053e+000	 4.330633126761094e-001	 1.232803272087968e+001
 2.070798221840153e+000	 4.541241706664352e-001	 1.233479591142329e+001
 2.066063436139859e+000	 4.752007609763388e-001	 1.234716885836087e+001
 2.061099296875428e+000	 4.962896503893942e-001	 1.236373270612054e+001
 2.055904641148230e+000	 5.173873610629187e-001	 1.238328341838806e+001
 2.050478371189883e+000	 5.384903718518439e-001	 1.240484523338975e+001
 2.044819455924433e+000	 5.595951196926688e-001	 1.242768474739115e+001
 2.038926932500135e+000	 5.806980010470583e-001	 1.245132567656224e+001
 2.032799907788383e+000	 6.017953734045253e-001	 1.247556434211721e+001
 2.026437559847334e+000	 6.228835568435334e-001	 1.250048591741741e+001
 2.105740283815281e+000	 4.172036978255548e-001	 1.225728806759079e+001
 2.101406635377738e+000	 4.385100846575524e-001	 1.225823604155468e+001
 2.096843295156265e+000	 4.598358316096043e-001	 1.226614384119256e+001
 2.092048958583554e+000	 4.811775087515100e-001	 1.227941097264944e+001
 2.087022383795570e+000	 5.025316396862062e-001	 1.229664391221598e+001
 2.081762393267542e+000	 5.238947028290933e-001	 1.231666844859750e+001
 2.076267875424119e+000	 5.452631327485581e-001	 1.233854266030597e+001
 2.070537786221185e+000	 5.666333215673344e-001	 1.236157059250888e+001
 2.064571150696912e+000	 5.880016204242573e-001	 1.238531669313323e+001
 2.058367064489540e+000	 6.093643409958431e-001	 1.240962106241879e+001
 2.051924695319411e+000	 6.307177570770309e-001	 1.243461556344057e+001
 2.131895867402834e+000	 4.223858213188828e-001	 1.218524191995158e+001
 2.127508390340486e+000	 4.439568566388839e-001	 1.218811443555060e+001
 2.122888368472507e+000	 4.655474925526937e-001	 1.219770184258644e+001
 2.118034481027448e+000	 4.871542565266411e-001	 1.221241598698890e+001
 2.112945470715970e+000	 5.087736289830220e-001	 1.223087934954396e+001
 2.107620145387170e+000	 5.304020445953191e-001	 1.225193676832514e+001
 2.102057379658718e+000	 5.520358936453725e-001	 1.227466786516583e+001
 2.096256116518343e+000	 5.736715234421500e-001	 1.229840025129221e+001
 2.090215368894127e+000	 5.953052398016531e-001	 1.232272358241561e+001
 2.083934221191156e+000	 6.169333085874018e-001	 1.234750452759155e+001
 2.077411830791955e+000	 6.385519573108083e-001	 1.237290270898545e+001
 2.158051450990382e+000	 4.275679448119764e-001	 1.211461502806821e+001
 2.153610145303288e+000	 4.494036286199951e-001	 1.211971753946391e+001
 2.148933441788862e+000	 4.712591534955853e-001	 1.213129994768029e+001
 2.144020003471510e+000	 4.931310043016033e-001	 1.214778051074645e+001
 2.138868557636592e+000	 5.150156182797036e-001	 1.216779035698987e+001
 2.133477897507068e+000	 5.369093863614491e-001	 1.219018449941235e+001
 2.127846883893632e+000	 5.588086545421322e-001	 1.221405363095822e+001
 2.121974446815849e+000	 5.807097253169513e-001	 1.223873678750615e+001
 2.115859587091717e+000	 6.026088591790751e-001	 1.226383496028487e+001
 2.109501377893164e+000	 6.245022761790249e-001	 1.228922573300610e+001
 2.102898966264897e+000	 6.463861575446830e-001	 1.231507901131166e+001
 2.184207034577926e+000	 4.327500683047373e-001	 1.204741355921416e+001
 2.179711900266134e+000	 4.548504006007772e-001	 1.205483821216023e+001
 2.174978515105309e+000	 4.769708144381600e-001	 1.206850374309539e+001
 2.170005525915712e+000	 4.991077520762679e-001	 1.208683093686994e+001
 2.164791644557400e+000	 5.212576075761127e-001	 1.210845418745954e+001
 2.159335649627190e+000	 5.434167281273360e-001	 1.213223170820776e+001
 2.153636388128806e+000	 5.655814154386811e-001	 1.215725660811050e+001
 2.147692777113644e+000	 5.877479271915754e-001	 1.218286893365869e+001
 2.141503805289620e+000	 6.099124785563528e-001	 1.220866877029604e+001
 2.135068534595499e+000	 6.320712437705344e-001	 1.223453049069119e+001
 2.128386101738172e+000	 6.542203577784719e-001	 1.226061822876295e+001
 2.210362618165463e+000	 4.379321917970662e-001	 1.198540187847094e+001
 2.205813655229016e+000	 4.602971725811210e-001	 1.199501872662642e+001
 2.201023588421832e+000	 4.826824753802987e-001	 1.201062131991502e+001
 2.195991048360028e+000	 5.050844998505065e-001	 1.203063114021110e+001
 2.190714731478355e+000	 5.274995968721120e-001	 1.205368244757948e+001
 2.185193401747493e+000	 5.499240698928333e-001	 1.207863158218330e+001
 2.179425892364189e+000	 5.723541763348634e-001	 1.210456722606130e+001
 2.173411107411672e+000	 5.947861290658582e-001	 1.213082173800524e+001
 2.167148023487771e+000	 6.172160979333151e-001	 1.215698366895339e+001
 2.160635691298096e+000	 6.396402113617532e-001	 1.218291155798072e+001
 2.153873237211714e+000	 6.620545580119925e-001	 1.220874910009682e+001
 2.236518201752999e+000	 4.431143152888640e-001	 1.193010787959212e+001
 2.231915410191926e+000	 4.657439445609178e-001	 1.194155685372949e+001
 2.227068661738412e+000	 4.883941363218828e-001	 1.195871010148498e+001
 2.221976570804428e+000	 5.110612476241907e-001	 1.197999004304334e+001
 2.216637818399421e+000	 5.337415861675627e-001	 1.200402939707987e+001
 2.211051153867931e+000	 5.564314116577933e-001	 1.202967946173843e+001
 2.205215396599727e+000	 5.791269372305239e-001	 1.205601945838315e+001
 2.199129437709874e+000	 6.018243309396368e-001	 1.208236706615156e+001
 2.192792241686112e+000	 6.245197173097915e-001	 1.210829026914322e+001
 2.186202848000890e+000	 6.472091789525045e-001	 1.213362063022968e+001
 2.179360372685457e+000	 6.698887582450618e-001	 1.215855110670459e+001
 2.262673785340533e+000	 4.482964387800323e-001	 1.188282823260806e+001
 2.258017165154852e+000	 4.711907165400585e-001	 1.189551184662521e+001
 2.253113735055028e+000	 4.941057972627939e-001	 1.191358355897572e+001
 2.247962093248883e+000	 5.170379953971916e-001	 1.193546905851743e+001
 2.242560905320561e+000	 5.399835754623272e-001	 1.195980011921220e+001
 2.236908905988459e+000	 5.629387534220696e-001	 1.198542173891004e+001
 2.231004900835369e+000	 5.858996981255067e-001	 1.201140045330360e+001
 2.224847768008192e+000	 6.088625328127471e-001	 1.203703396901883e+001
 2.218436459884576e+000	 6.318233366856108e-001	 1.206186225320522e+001
 2.211770004703814e+000	 6.547781465426102e-001	 1.208568020859829e+001
 2.204847508159331e+000	 6.777229584774968e-001	 1.210959703763952e+001
 2.288829368928065e+000	 4.534785622704716e-001	 1.184463355482791e+001
 2.284118920117788e+000	 4.766374885184339e-001	 1.185771033376050e+001
 2.279158808371665e+000	 4.998174582029122e-001	 1.187581782368163e+001
 2.273947615693367e+000	 5.230147431693808e-001	 1.189738942181609e+001
 2.268483992241738e+000	 5.462255647562675e-001	 1.192105857251443e+001
 2.262766658109032e+000	 5.694460951855148e-001	 1.194566463363002e+001
 2.256794405071063e+000	 5.926724590196567e-001	 1.197026004038994e+001
 2.250566098306568e+000	 6.159007346850259e-001	 1.199411892785993e+001
 2.244080678083104e+000	 6.391269560606027e-001	 1.201674736607136e+001
 2.237337161406804e+000	 6.623471141318938e-001	 1.203789535290007e+001
 2.230334643633273e+000	 6.855571587091147e-001	 1.206079267816485e+001
 1.975463288904845e+000	 6.072151563781103e-001	 1.263869514826449e+001
 1.969030848685419e+000	 6.277602942109749e-001	 1.266047050803850e+001
 1.962367612913845e+000	 6.482891946827240e-001	 1.267699391239643e+001
 1.955472993722270e+000	 6.687981688007213e-001	 1.268841516263541e+001
 1.948346477952993e+000	 6.892834976536050e-001	 1.269775922761598e+001
 1.940987628381445e+000	 7.097414342048217e-001	 1.270721726456546e+001
 1.933396084890728e+000	 7.301682051371444e-001	 1.271727629135079e+001
 1.925571565595462e+000	 7.505600127467703e-001	 1.272856882420667e+001
 1.917513867912702e+000	 7.709130368854965e-001	 1.274187123973630e+001
 1.909222869577758e+000	 7.912234369493599e-001	 1.275810182877713e+001
 1.900698529602766e+000	 8.114873539120181e-001	 1.277831854632831e+001
 2.000950424375789e+000	 6.150493566104990e-001	 1.257051119614902e+001
 1.994434993762919e+000	 6.358595647759501e-001	 1.259353509009946e+001
 1.987685789907810e+000	 6.566533260882138e-001	 1.261061983419310e+001
 1.980702217358025e+000	 6.774269039598259e-001	 1.262250738250858e+001
 1.973483756335180e+000	 6.981765314985874e-001	 1.263321268872155e+001
 1.966029963973694e+000	 7.188984133242424e-001	 1.264372887271783e+001
 1.958340475510495e+000	 7.395887274367914e-001	 1.265461783330942e+001
 1.950415005423359e+000	 7.602436271350284e-001	 1.266658984863662e+001
 1.942253348515647e+000	 7.808592429837707e-001	 1.268050169644141e+001
 1.933855380945223e+000	 8.014316848281606e-001	 1.269735446201902e+001
 1.925221061195408e+000	 8.219570438532781e-001	 1.271829103878936e+001
 2.026437559847334e+000	 6.228835568435334e-001	 1.250048591741741e+001
 2.019839138841012e+000	 6.439588353416125e-001	 1.252295459100439e+001
 2.013003966902344e+000	 6.650174574944245e-001	 1.253950407070819e+001
 2.005931440994312e+000	 6.860556391196769e-001	 1.255246769002280e+001
 1.998621034717845e+000	 7.070695653443356e-001	 1.256522735482275e+001
 1.991072299566360e+000	 7.280553924444430e-001	 1.257770733585061e+001
 1.983284866130609e+000	 7.490092497372286e-001	 1.259024738078335e+001
 1.975258445251525e+000	 7.699272415240817e-001	 1.260362301478800e+001
 1.966992829118775e+000	 7.908054490828436e-001	 1.261875899795788e+001
 1.958487892312784e+000	 8.116399327077613e-001	 1.263672690829162e+001
 1.949743592788055e+000	 8.324267337953375e-001	 1.265874241465028e+001
 2.051924695319411e+000	 6.307177570770309e-001	 1.243461556344057e+001
 2.045243283919631e+000	 6.520581059077750e-001	 1.245677944678168e+001
 2.038322143897384e+000	 6.733815889011648e-001	 1.247247464807619e+001
 2.031160664631070e+000	 6.946843742800805e-001	 1.248592294557395e+001
 2.023758313100938e+000	 7.159625991906542e-001	 1.249884289628894e+001
 2.016114635159398e+000	 7.372123715652268e-001	 1.251173491863804e+001
 2.008229256751030e+000	 7.584297720382565e-001	 1.252524908591595e+001
 2.000101885079928e+000	 7.796108559137310e-001	 1.254018364712364e+001
 1.991732309722068e+000	 8.007516551825156e-001	 1.255705782163982e+001
 1.983120403680432e+000	 8.218481805879621e-001	 1.257654200613503e+001
 1.974266124380708e+000	 8.428964237379968e-001	 1.259991316410744e+001
 2.077411830791955e+000	 6.385519573108083e-001	 1.237290270898545e+001
 2.070647428998710e+000	 6.601573764742490e-001	 1.239500899994379e+001
 2.063640320892865e+000	 6.817457203082433e-001	 1.241099321161459e+001
 2.056389888268241e+000	 7.033131094408428e-001	 1.242543478184328e+001
 2.048895591484403e+000	 7.248556330373464e-001	 1.243899693058740e+001
 2.041156970752760e+000	 7.463693506863948e-001	 1.245220699197896e+001
 2.033173647371722e+000	 7.678502943396767e-001	 1.246574372034208e+001
 2.024945324908542e+000	 7.892944703037774e-001	 1.248043580404360e+001
 2.016471790325502e+000	 8.106978612825859e-001	 1.249726005909976e+001
 2.007752915048153e+000	 8.320564284685622e-001	 1.251733928757338e+001
 1.998788655973365e+000	 8.533661136810563e-001	 1.254193220305416e+001
 2.102898966264897e+000	 6.463861575446830e-001	 1.231507901131166e+001
 2.096051574078183e+000	 6.682566470408484e-001	 1.233711881096298e+001
 2.088958497888727e+000	 6.901098517154685e-001	 1.235445925995371e+001
 2.081619111905765e+000	 7.119418446017694e-001	 1.237019705137964e+001
 2.074032869868189e+000	 7.337486668842165e-001	 1.238472033099409e+001
 2.066199306346401e+000	 7.555263298077501e-001	 1.239857139885500e+001
 2.058118037992645e+000	 7.772708166412899e-001	 1.241244555151062e+001
 2.049788764737333e+000	 7.989780846940209e-001	 1.242718963019575e+001
 2.041211270929059e+000	 8.206440673828559e-001	 1.244380025952723e+001
 2.032385426415939e+000	 8.422646763493622e-001	 1.246342176012097e+001
 2.023311187566027e+000	 8.638358036243159e-001	 1.248734371762644e+001
 2.128386101738172e+000	 6.542203577784719e-001	 1.226061822876295e+001
 2.121455719157986e+000	 6.763559176073852e-001	 1.228297011754408e+001
 2.114276674884903e+000	 6.984739831226499e-001	 1.230203566707301e+001
 2.106848335543585e+000	 7.205705797626663e-001	 1.231918815655378e+001
 2.099170148252240e+000	 7.426417007310675e-001	 1.233481783643257e+001
 2.091241641940274e+000	 7.646833089290945e-001	 1.234947041042756e+001
 2.083062428613760e+000	 7.866913389428978e-001	 1.236384593977882e+001
 2.074632204566274e+000	 8.086616990842620e-001	 1.237879746837843e+001
 2.065950751532719e+000	 8.305902734831250e-001	 1.239532935170041e+001
 2.057017937783778e+000	 8.524729242301623e-001	 1.241459527114694e+001
 2.047833719158692e+000	 8.743054935675753e-001	 1.243789591426929e+001
 2.153873237211714e+000	 6.620545580119925e-001	 1.220874910009682e+001
 2.146859864238053e+000	 6.844551881736720e-001	 1.223199472352758e+001
 2.139594851881333e+000	 7.068381145295958e-001	 1.225267495623832e+001
 2.132077559181639e+000	 7.291993149233395e-001	 1.227118044923584e+001
 2.124307426636505e+000	 7.515347345777036e-001	 1.228789261443796e+001
 2.116283977534334e+000	 7.738402880502304e-001	 1.230334933213228e+001
 2.108006819235030e+000	 7.961118612443013e-001	 1.231824395837412e+001
 2.099475644395333e+000	 8.183453134743010e-001	 1.233342407102852e+001
 2.090690232136461e+000	 8.405364795831936e-001	 1.234988993562785e+001
 2.081650449151659e+000	 8.626811721107623e-001	 1.236879267065008e+001
 2.072356250751360e+000	 8.847751835106346e-001	 1.239143209041085e+001
 2.179360372685457e+000	 6.698887582450618e-001	 1.215855110670459e+001
 2.172264009318315e+000	 6.925544587395214e-001	 1.218313017354992e+001
 2.164913028877952e+000	 7.152022459361156e-001	 1.220512826397481e+001
 2.157306782819872e+000	 7.378280500835952e-001	 1.222474952706560e+001
 2.149444705020930e+000	 7.604277684239289e-001	 1.224235590661733e+001
 2.141326313128531e+000	 7.829972671709592e-001	 1.225846651586181e+001
 2.132951209856413e+000	 8.055323835453013e-001	 1.227375679044389e+001
 2.124319084224482e+000	 8.280289278639389e-001	 1.228905740087287e+001
 2.115429712740264e+000	 8.504826856828617e-001	 1.230535290368303e+001
 2.106282960519573e+000	 8.728894199909624e-001	 1.232378010868187e+001
 2.096878782344030e+000	 8.952448734532940e-001	 1.234562613797697e+001
 2.204847508159331e+000	 6.777229584774968e-001	 1.210959703763952e+001
 2.197668154398711e+000	 7.006537293047456e-001	 1.213511677766343e+001
 2.190231205874697e+000	 7.235663773420179e-001	 1.215795420220715e+001
 2.182536006458222e+000	 7.464567852432394e-001	 1.217828343468369e+001
 2.174581983405460e+000	 7.693208022695464e-001	 1.219643658505917e+001
 2.166368648722823e+000	 7.921542462910846e-001	 1.221290328817076e+001
 2.157895600477876e+000	 8.149529058456997e-001	 1.222833004618106e+001
 2.149162524053690e+000	 8.377125422529760e-001	 1.224351935458388e+001
 2.140169193344107e+000	 8.604288917819297e-001	 1.225942858886063e+001
 2.130915471887508e+000	 8.830976678705622e-001	 1.227716862671477e+001
 2.121401313936701e+000	 9.057145633953535e-001	 1.229800217882490e+001
 2.230334643633273e+000	 6.855571587091147e-001	 1.206079267816485e+001
 2.223072299479172e+000	 7.087529998691573e-001	 1.208650604933509e+001
 2.215549382871506e+000	 7.319305087471114e-001	 1.210952762671591e+001
 2.207765230096631e+000	 7.550855204020772e-001	 1.212999177752952e+001
 2.199719261790046e+000	 7.782138361143607e-001	 1.214819062681617e+001
 2.191410984317160e+000	 8.013112254104075e-001	 1.216457380122171e+001
 2.182839991099376e+000	 8.243734281452965e-001	 1.217974800642094e+001
 2.174005963882928e+000	 8.473961566412124e-001	 1.219447641560077e+001
 2.164908673947971e+000	 8.703750978801975e-001	 1.220967784375988e+001
 2.155547983255453e+000	 8.933059157493628e-001	 1.222642568006906e+001
 2.145923845529373e+000	 9.161842533366132e-001	 1.224594654821878e+001
 1.900698529602766e+000	 8.114873539120181e-001	 1.277831854632831e+001
 1.891942220492132e+000	 8.316978846581148e-001	 1.279856782329006e+001
 1.882952806529170e+000	 8.518541852139021e-001	 1.281430266556951e+001
 1.873730497067709e+000	 8.719523567309262e-001	 1.282586793451233e+001
 1.864275585902089e+000	 8.919884905296139e-001	 1.283371905483723e+001
 1.854588451907370e+000	 9.119586703247523e-001	 1.283842010279033e+001
 1.844669559610956e+000	 9.318589744831690e-001	 1.284064168662507e+001
 1.834519459694026e+000	 9.516854783112039e-001	 1.284115862429831e+001
 1.824138789421242e+000	 9.714342563694888e-001	 1.284084742347491e+001
 1.813528272997309e+000	 9.911013848124718e-001	 1.284068356911808e+001
 1.802688721849068e+000	 1.010682943750032e+000	 1.284172905314953e+001
 1.925221061195408e+000	 8.219570438532781e-001	 1.271829103878935e+001
 1.916351779478452e+000	 8.424283278807977e-001	 1.273922614478087e+001
 1.907246385424817e+000	 8.628446820481397e-001	 1.275545226067687e+001
 1.897905091089386e+000	 8.832021572044753e-001	 1.276735961571170e+001
 1.888328194056983e+000	 9.034967942410130e-001	 1.277545231250879e+001
 1.878516078090858e+000	 9.237246263451977e-001	 1.278034630192811e+001
 1.868469213711673e+000	 9.438816812875146e-001	 1.278276714927063e+001
 1.858188158705416e+000	 9.639639837384756e-001	 1.278354759696208e+001
 1.847673558558638e+000	 9.839675576132633e-001	 1.278362492899792e+001
 1.836926146819623e+000	 1.003888428441440e+000	 1.278403814257816e+001
 1.825946745384119e+000	 1.023722625759030e+000	 1.278591637554042e+001
 1.949743592788055e+000	 8.324267337953375e-001	 1.265874241465028e+001
 1.940761338464687e+000	 8.531587711042798e-001	 1.268061268602384e+001
 1.931539964320292e+000	 8.738351788831774e-001	 1.269751344200109e+001
 1.922079685110801e+000	 8.944519576788236e-001	 1.270989762720209e+001
 1.912380802211533e+000	 9.150050979532125e-001	 1.271833551181704e+001
 1.902443704273920e+000	 9.354905823664447e-001	 1.272351252721139e+001
 1.892268867811892e+000	 9.559043880926642e-001	 1.272622689190506e+001
 1.881856857716237e+000	 9.762424891665525e-001	 1.272738703331226e+001
 1.871208327695403e+000	 9.965008588578462e-001	 1.272800881074975e+001
 1.860324020641252e+000	 1.016675472071220e+000	 1.272920300455226e+001
 1.849204768918440e+000	 1.036762307768845e+000	 1.273221227057195e+001
 1.974266124380708e+000	 8.428964237379968e-001	 1.259991316410744e+001
 1.965170897450847e+000	 8.638892143283621e-001	 1.262289215973418e+001
 1.955833543215612e+000	 8.848256757188150e-001	 1.264057803393712e+001
 1.946254279131986e+000	 9.057017581537731e-001	 1.265350341838331e+001
 1.936433410365777e+000	 9.265134016660142e-001	 1.266232185284364e+001
 1.926371330456609e+000	 9.472565383882964e-001	 1.266780545615128e+001
 1.916068521911670e+000	 9.679270948984196e-001	 1.267084238658900e+001
 1.905525556726559e+000	 9.885209945952411e-001	 1.267243409739375e+001
 1.894743096831615e+000	 1.009034160103045e+000	 1.267369239313787e+001
 1.883721894462284e+000	 1.029462515701623e+000	 1.267582778549693e+001
 1.872462792452129e+000	 1.049801989779293e+000	 1.268018202475527e+001
 1.998788655973365e+000	 8.533661136810563e-001	 1.254193220305416e+001
 1.989580456436942e+000	 8.746196575528440e-001	 1.256611684199870e+001
 1.980127122110799e+000	 8.958161725548529e-001	 1.258462457029178e+001
 1.970428873152970e+000	 9.169515586291239e-001	 1.259808432142593e+001
 1.960486018519757e+000	 9.380217053792193e-001	 1.260724963790982e+001
 1.950298956638970e+000	 9.590224944105530e-001	 1.261299615270334e+001
 1.939868176011067e+000	 9.799498017045860e-001	 1.261631885923327e+001
 1.929194255736452e+000	 1.000799500024346e+000	 1.261832917600837e+001
 1.918277865967356e+000	 1.021567461348670e+000	 1.262024222697357e+001
 1.907119768282811e+000	 1.042249559332463e+000	 1.262341390983315e+001
 1.895720815985286e+000	 1.062841671790190e+000	 1.262927334475404e+001
 2.023311187566027e+000	 8.638358036243159e-001	 1.248734371762644e+001
 2.013990015422981e+000	 8.853501007775261e-001	 1.251108297710540e+001
 2.004420701005870e+000	 9.068066693910915e-001	 1.252960194455631e+001
 1.994603467173784e+000	 9.282013591046769e-001	 1.254343764464280e+001
 1.984538626673510e+000	 9.495300090926281e-001	 1.255284652391800e+001
 1.974226582821057e+000	 9.707884504330185e-001	 1.255874448018945e+001
 1.963667830110143e+000	 9.919725085109665e-001	 1.256224986305623e+001
 1.952862954745983e+000	 1.013078005453673e+000	 1.256458975802497e+001
 1.941812635102705e+000	 1.034100762594528e+000	 1.256714237228875e+001
 1.930517642102919e+000	 1.055036602963550e+000	 1.257136100163728e+001
 1.918978839518010e+000	 1.075881353801352e+000	 1.257882153911552e+001
 2.047833719158692e+000	 8.743054935675753e-001	 1.243789591426929e+001
 2.038399574408974e+000	 8.960805440022087e-001	 1.246068883959766e+001
 2.028714279900847e+000	 9.177971662273304e-001	 1.247793796135176e+001
 2.018778061194453e+000	 9.394511595802317e-001	 1.249039825772181e+001
 2.008591234827077e+000	 9.610383128060426e-001	 1.249895326581371e+001
 1.998154209002917e+000	 9.825544064554941e-001	 1.250460339981404e+001
 1.987467484208959e+000	 1.003995215317365e+000	 1.250812173399132e+001
 1.976531653755224e+000	 1.025356510883029e+000	 1.251065959773928e+001
 1.965347404237740e+000	 1.046634063840428e+000	 1.251373842603996e+001
 1.953915515922700e+000	 1.067823646594697e+000	 1.251896117171162e+001
 1.942236863050402e+000	 1.088921035812597e+000	 1.252805456937579e+001
 2.072356250751360e+000	 8.847751835106346e-001	 1.239143209041085e+001
 2.062809133394929e+000	 9.068109872266907e-001	 1.241321404920912e+001
 2.053007858795747e+000	 9.287876630633706e-001	 1.242912762097168e+001
 2.042952655215010e+000	 9.507009600555888e-001	 1.244004696084303e+001
 2.032643842980497e+000	 9.725466165192632e-001	 1.244697883958780e+001
 2.022081835184600e+000	 9.943203624777819e-001	 1.245106024911358e+001
 2.011267138307571e+000	 1.016017922123584e+000	 1.245354446684920e+001
 2.000200352764243e+000	 1.037635016312218e+000	 1.245584467963969e+001
 1.988882173372540e+000	 1.059167365086179e+000	 1.245928379097959e+001
 1.977313389742244e+000	 1.080610690225716e+000	 1.246540381031671e+001
 1.965494886582561e+000	 1.101960717823740e+000	 1.247609798135984e+001
 2.096878782344030e+000	 8.952448734532940e-001	 1.234562613797697e+001
 2.087218692380858e+000	 9.175414304507734e-001	 1.236625000152820e+001
 2.077301437690591e+000	 9.397781598990115e-001	 1.238068624995008e+001
 2.067127249235484e+000	 9.619507605305498e-001	 1.238993967197583e+001
 2.056696451133809e+000	 9.840549202320910e-001	 1.239515180249620e+001
 2.046009461366154e+000	 1.006086318499684e+000	 1.239759857443749e+001
 2.035066792406040e+000	 1.028040628929428e+000	 1.239867760038566e+001
 2.023869051773110e+000	 1.049913521741047e+000	 1.239994692781374e+001
 2.012416942507187e+000	 1.071700666331588e+000	 1.240305432338542e+001
 2.000711263561638e+000	 1.093397733856419e+000	 1.240978055218347e+001
 1.988752910114585e+000	 1.115000399834598e+000	 1.242197972648481e+001
 2.121401313936701e+000	 9.057145633953535e-001	 1.229800217882490e+001
 2.111628251366767e+000	 9.282718736742562e-001	 1.231724362321466e+001
 2.101595016585397e+000	 9.507686567340533e-001	 1.232999007202990e+001
 2.091301843255902e+000	 9.732005610049138e-001	 1.233738763666508e+001
 2.080749059287054e+000	 9.955632239443274e-001	 1.234072336698897e+001
 2.069937087547631e+000	 1.017852274521003e+000	 1.234141152006318e+001
 2.058866446504426e+000	 1.040063335734701e+000	 1.234103926232230e+001
 2.047537750781894e+000	 1.062192027169320e+000	 1.234128632490519e+001
 2.035951711641758e+000	 1.084233967576464e+000	 1.234397603494224e+001
 2.024109137380973e+000	 1.106184777486618e+000	 1.235105634524301e+001
 2.012010933646574e+000	 1.128040081844988e+000	 1.236459493428204e+001
 2.145923845529373e+000	 9.161842533366132e-001	 1.224594654821878e+001
 2.136037810352666e+000	 9.390023168969390e-001	 1.226350982677913e+001
 2.125888595480185e+000	 9.617591535682968e-001	 1.227428913577580e+001
 2.115476437276295e+000	 9.844503614784820e-001	 1.227958181051916e+001
 2.104801667440269e+000	 1.007071527655773e+000	 1.228083036667629e+001
 2.093864713729079e+000	 1.029618230541540e+000	 1.227961009254152e+001
 2.082666100602788e+000	 1.052086042539205e+000	 1.227766971020424e+001
 2.071206449790665e+000	 1.074470532596845e+000	 1.227685905318478e+001
 2.059486480776334e+000	 1.096767268820616e+000	 1.227917464186647e+001
 2.047507011200339e+000	 1.118971821116124e+000	 1.228674215799969e+001
 2.035268957178629e+000	 1.141079763854727e+000	 1.230181153760887e+001
 1.802688721849068e+000	 1.010682943750032e+000	 1.284172905314953e+001
 1.791619357690404e+000	 1.030177937010685e+000	 1.284084043321171e+001
 1.780322777535209e+000	 1.049579514920662e+000	 1.283441873057230e+001
 1.768800057357055e+000	 1.068883783227662e+000	 1.282301270835320e+001
 1.757052360750431e+000	 1.088086861295837e+000	 1.280722311230840e+001
 1.745080938822499e+000	 1.107184884536711e+000	 1.278770048051804e+001
 1.732887130004770e+000	 1.126174006844907e+000	 1.276514287744889e+001
 1.720472359784236e+000	 1.145050403035631e+000	 1.274029355618528e+001
 1.707838140353593e+000	 1.163810271280825e+000	 1.271393855257464e+001
 1.694986070180313e+000	 1.182449835540888e+000	 1.268690421499109e+001
 1.681917833494530e+000	 1.200965347988850e+000	 1.266005467339889e+001
 1.825946745384119e+000	 1.023722625759030e+000	 1.278591637554042e+001
 1.814734565924675e+000	 1.043469140542086e+000	 1.278571647688474e+001
 1.803292238961473e+000	 1.063121034743368e+000	 1.277946784058743e+001
 1.791620854350134e+000	 1.082674363867519e+000	 1.276782403574473e+001
 1.779721590697669e+000	 1.102125197211310e+000	 1.275148928243857e+001
 1.767595715252836e+000	 1.121469620325929e+000	 1.273121608535030e+001
 1.755244583715393e+000	 1.140703737484130e+000	 1.270780279761676e+001
 1.742669639963753e+000	 1.159823674149157e+000	 1.268209111877214e+001
 1.729872415700694e+000	 1.178825579442343e+000	 1.265496353052079e+001
 1.716854530016881e+000	 1.197705628606193e+000	 1.262734067400863e+001
 1.703617688872131e+000	 1.216460025459840e+000	 1.260017867220643e+001
 1.849204768918440e+000	 1.036762307768845e+000	 1.273221227057195e+001
 1.837849774158181e+000	 1.056760344074309e+000	 1.273303334803665e+001
 1.826261700386945e+000	 1.076662554566901e+000	 1.272729667405216e+001
 1.814441651342400e+000	 1.096464944508205e+000	 1.271577094748957e+001
 1.802390820644081e+000	 1.116163533127615e+000	 1.269927395511333e+001
 1.790110491682342e+000	 1.135754356115979e+000	 1.267867001547656e+001
 1.777602037425184e+000	 1.155233468124176e+000	 1.265486735950965e+001
 1.764866920142439e+000	 1.174596945263497e+000	 1.262881545167429e+001
 1.751906691046967e+000	 1.193840887604655e+000	 1.260150225541654e+001
 1.738722989852626e+000	 1.212961421672268e+000	 1.257395144653570e+001
 1.725317544248913e+000	 1.231954702931564e+000	 1.254721957799572e+001
 1.872462792452129e+000	 1.049801989779293e+000	 1.268018202475528e+001
 1.860964982391031e+000	 1.070051547607175e+000	 1.268229059461714e+001
 1.849231161811743e+000	 1.090204074391089e+000	 1.267733660865230e+001
 1.837262448333983e+000	 1.110255525149559e+000	 1.266621401563985e+001
 1.825060050589807e+000	 1.130201869044597e+000	 1.264986405548617e+001
 1.812625268111165e+000	 1.150039091906711e+000	 1.262927250048178e+001
 1.799959491134298e+000	 1.169763198764909e+000	 1.260546684029507e+001
 1.787064200320456e+000	 1.189370216378519e+000	 1.257951341459175e+001
 1.773940966392586e+000	 1.208856195767643e+000	 1.255251449698401e+001
 1.760591449687725e+000	 1.228217214739001e+000	 1.252560533385497e+001
 1.747017399625063e+000	 1.247449380403922e+000	 1.249995114147833e+001
 1.895720815985286e+000	 1.062841671790190e+000	 1.262927334475404e+001
 1.884080190623331e+000	 1.083342751140507e+000	 1.263287027092007e+001
 1.872200623235985e+000	 1.103745594215760e+000	 1.262890185960756e+001
 1.860083245325013e+000	 1.124046105791413e+000	 1.261839723061777e+001
 1.847729280534987e+000	 1.144240204962098e+000	 1.260243076198726e+001
 1.835140044539452e+000	 1.164323827697978e+000	 1.258211911642386e+001
 1.822316944842891e+000	 1.184292929406189e+000	 1.255861821913679e+001
 1.809261480497970e+000	 1.204143487494096e+000	 1.253312019094737e+001
 1.795975241737718e+000	 1.223871503931185e+000	 1.250685024033440e+001
 1.782459909522359e+000	 1.243473007806281e+000	 1.248106351786461e+001
 1.768717255000763e+000	 1.262944057876813e+000	 1.245704193629290e+001
 1.918978839518010e+000	 1.075881353801352e+000	 1.257882153911552e+001
 1.907195398855194e+000	 1.096633954674126e+000	 1.258404225259756e+001
 1.895170084659793e+000	 1.117287114040742e+000	 1.258119491453445e+001
 1.882904042315616e+000	 1.137836686433605e+000	 1.257145354157240e+001
 1.870398510479757e+000	 1.158278540879961e+000	 1.255603513690748e+001
 1.857654820967350e+000	 1.178608563489632e+000	 1.253619649047797e+001
 1.844674398551119e+000	 1.198822660047875e+000	 1.251323093884228e+001
 1.831458760675146e+000	 1.218916758610096e+000	 1.248846508860417e+001
 1.818009517082537e+000	 1.238886812095163e+000	 1.246325550696210e+001
 1.804328369356703e+000	 1.258728800874001e+000	 1.243898538271070e+001
 1.790417110376194e+000	 1.278438735350138e+000	 1.241706116081141e+001
 1.942236863050402e+000	 1.088921035812597e+000	 1.252805456937579e+001
 1.930310607086727e+000	 1.109925158207855e+000	 1.253496941906628e+001
 1.918139546083284e+000	 1.130828633865865e+000	 1.253331183457382e+001
 1.905724839305924e+000	 1.151627267075969e+000	 1.252441026277709e+001
 1.893067740424256e+000	 1.172316876798029e+000	 1.250963362375001e+001
 1.880169597395008e+000	 1.192893299281524e+000	 1.249038787407229e+001
 1.867031852259138e+000	 1.213352390689829e+000	 1.246811253877121e+001
 1.853656040852145e+000	 1.233690029726389e+000	 1.244427721570520e+001
 1.840043792427213e+000	 1.253902120259454e+000	 1.242037805585868e+001
 1.826196829190936e+000	 1.273984593942049e+000	 1.239793422271890e+001
 1.812116965751543e+000	 1.293933412823795e+000	 1.237848433364956e+001
 1.965494886582561e+000	 1.101960717823740e+000	 1.247609798135984e+001
 1.953425815318042e+000	 1.123216361741514e+000	 1.248471271429167e+001
 1.941109007506578e+000	 1.144370153690955e+000	 1.248424743286257e+001
 1.928545636296065e+000	 1.165417847718342e+000	 1.247619435716417e+001
 1.915736970368623e+000	 1.186355212716147e+000	 1.246208342238495e+001
 1.902684373822573e+000	 1.207178035073504e+000	 1.244347859540930e+001
 1.889389305967105e+000	 1.227882121331912e+000	 1.242197416966996e+001
 1.875853321029134e+000	 1.248463300842847e+000	 1.239919104198095e+001
 1.862078067771918e+000	 1.268917428423940e+000	 1.237677297467871e+001
 1.848065289025234e+000	 1.289240387010314e+000	 1.235638284604555e+001
 1.833816821126989e+000	 1.309428090297686e+000	 1.233969889168670e+001
 1.988752910114585e+000	 1.115000399834598e+000	 1.242197972648481e+001
 1.976541023549247e+000	 1.136507565274927e+000	 1.243223609590668e+001
 1.964078468929796e+000	 1.157911673515843e+000	 1.243290034039031e+001
 1.951366433286169e+000	 1.179208428360558e+000	 1.242563760705607e+001
 1.938406200312997e+000	 1.200393548634157e+000	 1.241214775201190e+001
 1.925199150250191e+000	 1.221462770865427e+000	 1.239416140124689e+001
 1.911746759675175e+000	 1.242411851973984e+000	 1.237343600009831e+001
 1.898050601206275e+000	 1.263236571959339e+000	 1.235175185490001e+001
 1.884112343116823e+000	 1.283932736588499e+000	 1.233090816995760e+001
 1.869933748859776e+000	 1.304496180078686e+000	 1.231271908258417e+001
 1.855516676502718e+000	 1.324922767771708e+000	 1.229900969857741e+001
 2.012010933646574e+000	 1.128040081844988e+000	 1.236459493428204e+001
 1.999656231780452e+000	 1.149798768807915e+000	 1.237641138170115e+001
 1.987047930353056e+000	 1.171453193340354e+000	 1.237807796835445e+001
 1.974187230276363e+000	 1.192999009002452e+000	 1.237148168122074e+001
 1.961075430257516e+000	 1.214431884551902e+000	 1.235850101100906e+001
 1.947713926678010e+000	 1.235747506657143e+000	 1.234104169690082e+001
 1.934104213383504e+000	 1.256941582615906e+000	 1.232103252322128e+001
 1.920247881383731e+000	 1.278009843075735e+000	 1.230042111917355e+001
 1.906146618462098e+000	 1.298948044753012e+000	 1.228116976455146e+001
 1.891802208694739e+000	 1.319751973147056e+000	 1.226525120387647e+001
 1.877216531878911e+000	 1.340417445245763e+000	 1.225436938494237e+001
 2.035268957178629e+000	 1.141079763854727e+000	 1.230181153760887e+001
 2.022771440011766e+000	 1.163089972340299e+000	 1.231545529773396e+001
 2.010017391776478e+000	 1.184994713164319e+000	 1.231837112539934e+001
 1.997008027266777e+000	 1.206789589643860e+000	 1.231238310654537e+001
 1.983744660202318e+000	 1.228470220469227e+000	 1.229973384191774e+001
 1.970228703106179e+000	 1.250032242448504e+000	 1.228264269261045e+001
 1.956461667092249e+000	 1.271471313257540e+000	 1.226321777193658e+001
 1.942445161561669e+000	 1.292783114191905e+000	 1.224358174734468e+001
 1.928180893807916e+000	 1.313963352917359e+000	 1.222586740972019e+001
 1.913670668530300e+000	 1.335007766215311e+000	 1.221220339402857e+001
 1.898916387255753e+000	 1.355912122719749e+000	 1.220275990690639e+001
 1.681917833494530e+000	 1.200965347988850e+000	 1.266005467339889e+001
 1.668635199221159e+000	 1.219353091017331e+000	 1.262929252106698e+001
 1.655140018895221e+000	 1.237609378393840e+000	 1.259112276256063e+001
 1.641434227355505e+000	 1.255730558820518e+000	 1.254735730626797e+001
 1.627519842390902e+000	 1.273713018699258e+000	 1.249982786722009e+001
 1.613398963829417e+000	 1.291553184473516e+000	 1.245038174392681e+001
 1.599073772548270e+000	 1.309247524943862e+000	 1.240087756883554e+001
 1.584546529405988e+000	 1.326792553554179e+000	 1.235318103970046e+001
 1.569819574097471e+000	 1.344184830645459e+000	 1.230668128420841e+001
 1.554895323933223e+000	 1.361420965674179e+000	 1.225384775905875e+001
 1.539776272543993e+000	 1.378497619392281e+000	 1.219537656913488e+001
 1.703617688872131e+000	 1.216460025459840e+000	 1.260017867220643e+001
 1.690163684013768e+000	 1.235085004431891e+000	 1.256935565109358e+001
 1.676494390865051e+000	 1.253576831730622e+000	 1.253146320052918e+001
 1.662611769227780e+000	 1.271931808949659e+000	 1.248857076730079e+001
 1.648517862924069e+000	 1.290146275868779e+000	 1.244276828668467e+001
 1.634214798873599e+000	 1.308216612825929e+000	 1.239616151471014e+001
 1.619704786090954e+000	 1.326139243062656e+000	 1.235086733116616e+001
 1.604990114603931e+000	 1.343910635039803e+000	 1.230682302285565e+001
 1.590073154293838e+000	 1.361527304720379e+000	 1.225693391296720e+001
 1.574956353658965e+000	 1.378985817816562e+000	 1.220195937710209e+001
 1.559642238502527e+000	 1.396282791997798e+000	 1.214365633945514e+001
 1.725317544248913e+000	 1.231954702931564e+000	 1.254721957799572e+001
 1.711692168805565e+000	 1.250816917847140e+000	 1.251720034187433e+001
 1.697848762834074e+000	 1.269544285068040e+000	 1.248056859602294e+001
 1.683789311099254e+000	 1.288133059079376e+000	 1.243959374339085e+001
 1.669515883456440e+000	 1.306579533038807e+000	 1.239656542692103e+001
 1.655030633916995e+000	 1.324880041178775e+000	 1.235378851982022e+001
 1.640335799632866e+000	 1.343030961181805e+000	 1.231188970726286e+001
 1.625433699801120e+000	 1.361028716525699e+000	 1.226423272088088e+001
 1.610326734489472e+000	 1.378869778795487e+000	 1.221141958550938e+001
 1.595017383384004e+000	 1.396550669959047e+000	 1.215531002027254e+001
 1.579508204460395e+000	 1.414067964603332e+000	 1.209778499766553e+001
 1.747017399625063e+000	 1.247449380403922e+000	 1.249995114147833e+001
 1.733220653596737e+000	 1.266548831262988e+000	 1.247149346496176e+001
 1.719203134802480e+000	 1.285511738406013e+000	 1.243698096247298e+001
 1.704966852970118e+000	 1.304334309209597e+000	 1.239882762184327e+001
 1.690513903988211e+000	 1.323012790209282e+000	 1.235946651521822e+001
 1.675846468959799e+000	 1.341543469532005e+000	 1.232024557963046e+001
 1.660966813174197e+000	 1.359922679301271e+000	 1.227515360064029e+001
 1.645877284997742e+000	 1.378146798011843e+000	 1.222440035402985e+001
 1.630580314684557e+000	 1.396212252870773e+000	 1.216988492890256e+001
 1.615078413108516e+000	 1.414115522101638e+000	 1.211352799653697e+001
 1.599374170417763e+000	 1.431853137208900e+000	 1.205727088650445e+001
 1.768717255000763e+000	 1.262944057876813e+000	 1.245704193629289e+001
 1.754749138387473e+000	 1.282280744679345e+000	 1.243079980799558e+001
 1.740557506770460e+000	 1.301479191744462e+000	 1.239914426897804e+001
 1.726144394840567e+000	 1.320535559340253e+000	 1.236458061706757e+001
 1.711511924519575e+000	 1.339446047380145e+000	 1.232908553357363e+001
 1.696662304002206e+000	 1.358206897885572e+000	 1.228759403670345e+001
 1.681597826715140e+000	 1.376814397421019e+000	 1.223968000379076e+001
 1.666320870193986e+000	 1.395264879498211e+000	 1.218722169715158e+001
 1.650833894879276e+000	 1.413554726946223e+000	 1.213211878518368e+001
 1.635139442832677e+000	 1.431680374244336e+000	 1.207629156728605e+001
 1.619240136374797e+000	 1.449638309814519e+000	 1.202168017103264e+001
 1.790417110376194e+000	 1.278438735350138e+000	 1.241706116081141e+001
 1.776277623177960e+000	 1.298012658096122e+000	 1.239358781297030e+001
 1.761911878738208e+000	 1.317446645083307e+000	 1.236541005282956e+001
 1.747321936710794e+000	 1.336736809471274e+000	 1.233492373383396e+001
 1.732509945050727e+000	 1.355879304551337e+000	 1.229845132762746e+001
 1.717478139044409e+000	 1.374870326239427e+000	 1.225470640952179e+001
 1.702228840255884e+000	 1.393706115541010e+000	 1.220548994900251e+001
 1.686764455390040e+000	 1.412382960984778e+000	 1.215262334266006e+001
 1.671087475073812e+000	 1.430897201021828e+000	 1.209794787650528e+001
 1.655200472556662e+000	 1.449245226387142e+000	 1.204332417460833e+001
 1.639106102331665e+000	 1.467423482420205e+000	 1.199063162757637e+001
 1.812116965751543e+000	 1.293933412823795e+000	 1.237848433364956e+001
 1.797806107968385e+000	 1.313744571513226e+000	 1.235823521849182e+001
 1.783266250705911e+000	 1.333414098422468e+000	 1.233404280987507e+001
 1.768499478580991e+000	 1.352938059602591e+000	 1.230409490730390e+001
 1.753507965581860e+000	 1.372312561722800e+000	 1.226609198171531e+001
 1.738293974086600e+000	 1.391533754593522e+000	 1.222170544834865e+001
 1.722859853796624e+000	 1.410597833661210e+000	 1.217262508939260e+001
 1.707208040586091e+000	 1.429501042471520e+000	 1.212055883320070e+001
 1.691341055268346e+000	 1.448239675097573e+000	 1.206723253690336e+001
 1.675261502280647e+000	 1.466810078530060e+000	 1.201438976555192e+001
 1.658972068288533e+000	 1.485208655025974e+000	 1.196379156032707e+001
 1.833816821126989e+000	 1.309428090297686e+000	 1.233969889168670e+001
 1.819334592758936e+000	 1.329476484930569e+000	 1.232303461397678e+001
 1.804620622673762e+000	 1.349381551761863e+000	 1.230080025037161e+001
 1.789677020451354e+000	 1.369139309734133e+000	 1.227007029389781e+001
 1.774505986113169e+000	 1.388745818894472e+000	 1.223220897181839e+001
 1.759109809128975e+000	 1.408197182947809e+000	 1.218872549976377e+001
 1.743490867337550e+000	 1.427489551781582e+000	 1.214114422748492e+001
 1.727651625782327e+000	 1.446619123958412e+000	 1.209100482830359e+001
 1.711594635463063e+000	 1.465582149173449e+000	 1.203986250516865e+001
 1.695322532004806e+000	 1.484374930673091e+000	 1.198928820533918e+001
 1.678838034245567e+000	 1.502993827631844e+000	 1.194086883502279e+001
 1.855516676502718e+000	 1.324922767771708e+000	 1.229900969857741e+001
 1.840863077549801e+000	 1.345208398348059e+000	 1.228514519690498e+001
 1.825974994641952e+000	 1.365349005101414e+000	 1.226291522214902e+001
 1.810854562322073e+000	 1.385340559865832e+000	 1.223310781075086e+001
 1.795504006644848e+000	 1.405179076066297e+000	 1.219700748233226e+001
 1.779925644171727e+000	 1.424860611302240e+000	 1.215590936444340e+001
 1.764121880878855e+000	 1.444381269902088e+000	 1.211111985118683e+001
 1.748095210978938e+000	 1.463737205445430e+000	 1.206395730224135e+001
 1.731848215658145e+000	 1.482924623249444e+000	 1.201575277381882e+001
 1.715383561729319e+000	 1.501939782816236e+000	 1.196785077225344e+001
 1.698704000202935e+000	 1.520779000237831e+000	 1.192161002012749e+001
 1.877216531878911e+000	 1.340417445245763e+000	 1.225436938494237e+001
 1.862391562341168e+000	 1.360940311765608e+000	 1.224132330578388e+001
 1.847329366610672e+000	 1.381316458441041e+000	 1.222068063616290e+001
 1.832032104193344e+000	 1.401541809997616e+000	 1.219346229121413e+001
 1.816502027177093e+000	 1.421612333238214e+000	 1.216069353137796e+001
 1.800741479215049e+000	 1.441524039656767e+000	 1.212340514124322e+001
 1.784752894420728e+000	 1.461272988022692e+000	 1.208263467656579e+001
 1.768538796176111e+000	 1.480855286932549e+000	 1.203942777056670e+001
 1.752101795853774e+000	 1.500267097325546e+000	 1.199483948963245e+001
 1.735444591454357e+000	 1.519504634959500e+000	 1.194993572758802e+001
 1.718569966160802e+000	 1.538564172843951e+000	 1.190579462680884e+001
 1.898916387255753e+000	 1.355912122719749e+000	 1.220275990690639e+001
 1.883920047133223e+000	 1.376672225183124e+000	 1.219174631823153e+001
 1.868683738580113e+000	 1.397283911780662e+000	 1.217438057841387e+001
 1.853209646065358e+000	 1.417743060129417e+000	 1.215138282108864e+001
 1.837500047710095e+000	 1.438045590410163e+000	 1.212347106627587e+001
 1.821557314259136e+000	 1.458187468011342e+000	 1.209136305868089e+001
 1.805383907963363e+000	 1.478164706143358e+000	 1.205577819688187e+001
 1.788982381374034e+000	 1.497973368419745e+000	 1.201743954303567e+001
 1.772355376050134e+000	 1.517609571401743e+000	 1.197707590161996e+001
 1.755505621180099e+000	 1.537069487102882e+000	 1.193542395465405e+001
 1.738435932119337e+000	 1.556349345450221e+000	 1.189323043981244e+001
 1.539776272543993e+000	 1.378497619392281e+000	 1.219537656913488e+001
 1.524467299600929e+000	 1.395408981614681e+000	 1.212950546477580e+001
 1.508968793931934e+000	 1.412154398015745e+000	 1.205454701924785e+001
 1.493283469725799e+000	 1.428730698645799e+000	 1.197225572656057e+001
 1.477414111523483e+000	 1.445134773122503e+000	 1.188442770212192e+001
 1.461363572573377e+000	 1.461363572573377e+000	 1.179289915633702e+001
 1.445134773122503e+000	 1.477414111523483e+000	 1.169954475450466e+001
 1.428730698645800e+000	 1.493283469725799e+000	 1.160627585894168e+001
 1.412154398015745e+000	 1.508968793931934e+000	 1.151503864947215e+001
 1.395408981614681e+000	 1.524467299600929e+000	 1.142781211867889e+001
 1.378497619392282e+000	 1.539776272543993e+000	 1.134660593862636e+001
 1.559642238502527e+000	 1.396282791997798e+000	 1.214365633945514e+001
 1.544135751452474e+000	 1.413412342116847e+000	 1.208053511130398e+001
 1.528437286353301e+000	 1.430373805406068e+000	 1.201072278190691e+001
 1.512549592411856e+000	 1.447163971017574e+000	 1.193546762601360e+001
 1.496475490094825e+000	 1.463779688439336e+000	 1.185604930036426e+001
 1.480217869462783e+000	 1.480217869462783e+000	 1.177377836666537e+001
 1.463779688439336e+000	 1.496475490094825e+000	 1.168999571877940e+001
 1.447163971017574e+000	 1.512549592411856e+000	 1.160607190729046e+001
 1.430373805406068e+000	 1.528437286353301e+000	 1.152340635475120e+001
 1.413412342116847e+000	 1.544135751452474e+000	 1.144342645512406e+001
 1.396282791997798e+000	 1.559642238502527e+000	 1.136758655120149e+001
 1.579508204460395e+000	 1.414067964603332e+000	 1.209778499766553e+001
 1.563804203303395e+000	 1.431415702618946e+000	 1.203746200567916e+001
 1.547905778774097e+000	 1.448593212796243e+000	 1.197222690653040e+001
 1.531815715097399e+000	 1.465597243389118e+000	 1.190292182419000e+001
 1.515536868665719e+000	 1.482424603755863e+000	 1.183041234128349e+001
 1.499072166351807e+000	 1.499072166351807e+000	 1.175558790775413e+001
 1.482424603755862e+000	 1.515536868665718e+000	 1.167936216802314e+001
 1.465597243389118e+000	 1.531815715097399e+000	 1.160267319736168e+001
 1.448593212796242e+000	 1.547905778774097e+000	 1.152648363827746e+001
 1.431415702618947e+000	 1.563804203303396e+000	 1.145178072787648e+001
 1.414067964603332e+000	 1.579508204460395e+000	 1.137957620739882e+001
 1.599374170417763e+000	 1.431853137208900e+000	 1.205727088650445e+001
 1.583472655153850e+000	 1.449419063121011e+000	 1.199970690114467e+001
 1.567374271194464e+000	 1.466812620186314e+000	 1.193845486248740e+001
 1.551081837782558e+000	 1.484030515760497e+000	 1.187404692973411e+001
 1.534598247236275e+000	 1.501069519072161e+000	 1.180703305247441e+001
 1.517926463240549e+000	 1.517926463240549e+000	 1.173798210556731e+001
 1.501069519072162e+000	 1.534598247236275e+000	 1.166748295327697e+001
 1.484030515760496e+000	 1.551081837782558e+000	 1.159614543124568e+001
 1.466812620186314e+000	 1.567374271194464e+000	 1.152460123491987e+001
 1.449419063121011e+000	 1.583472655153850e+000	 1.145350470316445e+001
 1.431853137208900e+000	 1.599374170417763e+000	 1.138353348600331e+001
 1.619240136374797e+000	 1.449638309814519e+000	 1.202168017103264e+001
 1.603141107003993e+000	 1.467422423623072e+000	 1.196675469742834e+001
 1.586842763614545e+000	 1.485032027576333e+000	 1.190886957076697e+001
 1.570347960467461e+000	 1.502463788131775e+000	 1.184833947326207e+001
 1.553659625806610e+000	 1.519714434388317e+000	 1.178549340582277e+001
 1.536780760129105e+000	 1.536780760129105e+000	 1.172067639372168e+001
 1.519714434388316e+000	 1.553659625806610e+000	 1.165425112885657e+001
 1.502463788131775e+000	 1.570347960467461e+000	 1.158659953535933e+001
 1.485032027576333e+000	 1.586842763614545e+000	 1.151812424529395e+001
 1.467422423623072e+000	 1.603141107003993e+000	 1.144924997126530e+001
 1.449638309814519e+000	 1.619240136374797e+000	 1.138042476293595e+001
 1.639106102331665e+000	 1.467423482420205e+000	 1.199063162757637e+001
 1.622809558853981e+000	 1.485425784125162e+000	 1.193814889235375e+001
 1.606311256034485e+000	 1.503251434966346e+000	 1.188299570852250e+001
 1.589614083152236e+000	 1.520897060503017e+000	 1.182535824382659e+001
 1.572721004376836e+000	 1.538359349704408e+000	 1.176543565341771e+001
 1.555635057017574e+000	 1.555635057017573e+000	 1.170344220474460e+001
 1.538359349704408e+000	 1.572721004376835e+000	 1.163960934306166e+001
 1.520897060503017e+000	 1.589614083152237e+000	 1.157418768277782e+001
 1.503251434966346e+000	 1.606311256034484e+000	 1.150744890981366e+001
 1.485425784125162e+000	 1.622809558853982e+000	 1.143968758018164e+001
 1.467423482420205e+000	 1.639106102331665e+000	 1.137122280015445e+001
 1.658972068288533e+000	 1.485208655025974e+000	 1.196379156032707e+001
 1.642478010703969e+000	 1.503429144627313e+000	 1.191348618479284e+001
 1.625779748454424e+000	 1.521470842356402e+000	 1.186041417524478e+001
 1.608880205837015e+000	 1.539330332874287e+000	 1.180471878471239e+001
 1.591782382947066e+000	 1.557004265020518e+000	 1.174655700873424e+001
 1.574489353906053e+000	 1.574489353906053e+000	 1.168610198161121e+001
 1.557004265020518e+000	 1.591782382947067e+000	 1.162354531409251e+001
 1.539330332874287e+000	 1.608880205837015e+000	 1.155909935647234e+001
 1.521470842356401e+000	 1.625779748454424e+000	 1.149299937098499e+001
 1.503429144627313e+000	 1.642478010703968e+000	 1.142550559740294e+001
 1.485208655025974e+000	 1.658972068288533e+000	 1.135690519587140e+001
 1.678838034245567e+000	 1.502993827631844e+000	 1.194086883502279e+001
 1.662146462554112e+000	 1.521432505129557e+000	 1.189241121642319e+001
 1.645248240874508e+000	 1.539690249746549e+000	 1.184075670717641e+001
 1.628146328521925e+000	 1.557763605245652e+000	 1.178608803536449e+001
 1.610843761517417e+000	 1.575649180336727e+000	 1.172860446105147e+001
 1.593343650794640e+000	 1.593343650794641e+000	 1.166852429959839e+001
 1.575649180336727e+000	 1.610843761517417e+000	 1.160608738411524e+001
 1.557763605245651e+000	 1.628146328521925e+000	 1.154155745006531e+001
 1.539690249746549e+000	 1.645248240874507e+000	 1.147522442491478e+001
 1.521432505129557e+000	 1.662146462554112e+000	 1.140740660571004e+001
 1.502993827631845e+000	 1.678838034245567e+000	 1.133845270757736e+001
 1.698704000202935e+000	 1.520779000237831e+000	 1.192161002012749e+001
 1.681814914404567e+000	 1.539435865631926e+000	 1.187461144092772e+001
 1.664716733294878e+000	 1.557909657136836e+000	 1.182370062783100e+001
 1.647412451207094e+000	 1.576196877617173e+000	 1.176917910748673e+001
 1.629905140088000e+000	 1.594294095653117e+000	 1.171136971220060e+001
 1.612197947683434e+000	 1.612197947683434e+000	 1.165061908942443e+001
 1.594294095653117e+000	 1.629905140088000e+000	 1.158730014507851e+001
 1.576196877617174e+000	 1.647412451207094e+000	 1.152181440303221e+001
 1.557909657136836e+000	 1.664716733294878e+000	 1.145459426291790e+001
 1.539435865631927e+000	 1.681814914404567e+000	 1.138610513842102e+001
 1.520779000237831e+000	 1.698704000202935e+000	 1.131684745828210e+001
 1.718569966160802e+000	 1.538564172843951e+000	 1.190579462680884e+001
 1.701483366255489e+000	 1.557439226134452e+000	 1.185981211032387e+001
 1.684185225715678e+000	 1.576129064527310e+000	 1.180896372360493e+001
 1.666678573892654e+000	 1.594630149988919e+000	 1.175374618445381e+001
 1.648966518658931e+000	 1.612939010969770e+000	 1.169468422574323e+001
 1.631052244572532e+000	 1.631052244572532e+000	 1.163233295347846e+001
 1.612939010969769e+000	 1.648966518658930e+000	 1.156728013047565e+001
 1.594630149988920e+000	 1.666678573892654e+000	 1.150014836756211e+001
 1.576129064527309e+000	 1.684185225715677e+000	 1.143159720402432e+001
 1.557439226134453e+000	 1.701483366255490e+000	 1.136232505897932e+001
 1.538564172843951e+000	 1.718569966160803e+000	 1.129307103542247e+001
 1.738435932119337e+000	 1.556349345450221e+000	 1.189323043981244e+001
 1.721151818107034e+000	 1.575442586637167e+000	 1.184777136905326e+001
 1.703653718137051e+000	 1.594348471918019e+000	 1.179629923447455e+001
 1.685944696578731e+000	 1.613063422360952e+000	 1.173957953417205e+001
 1.668027897230322e+000	 1.631583926286766e+000	 1.167841437958709e+001
 1.649906541462032e+000	 1.649906541462032e+000	 1.161364456769370e+001
 1.631583926286766e+000	 1.668027897230322e+000	 1.154615156777711e+001
 1.613063422360952e+000	 1.685944696578732e+000	 1.147685940454500e+001
 1.594348471918019e+000	 1.703653718137051e+000	 1.140673641911311e+001
 1.575442586637168e+000	 1.721151818107034e+000	 1.133679688933643e+001
 1.556349345450221e+000	 1.738435932119336e+000	 1.126810249102412e+001
 1.378497619392282e+000	 1.539776272543993e+000	 1.134660593862636e+001
 1.361420965674179e+000	 1.554895323933223e+000	 1.126419621589412e+001
 1.344184830645459e+000	 1.569819574097472e+000	 1.117338419359825e+001
 1.326792553554179e+000	 1.584546529405988e+000	 1.107603660794534e+001
 1.309247524943862e+000	 1.599073772548270e+000	 1.097201414544622e+001
 1.291553184473516e+000	 1.613398963829417e+000	 1.086247413150745e+001
 1.273713018699258e+000	 1.627519842390902e+000	 1.074907241831639e+001
 1.255730558820517e+000	 1.641434227355505e+000	 1.063341714294028e+001
 1.237609378393840e+000	 1.655140018895221e+000	 1.051706557756588e+001
 1.219353091017331e+000	 1.668635199221159e+000	 1.040152110598666e+001
 1.200965347988850e+000	 1.681917833494530e+000	 1.028823031963659e+001
 1.396282791997798e+000	 1.559642238502527e+000	 1.136758655120149e+001
 1.378985817816562e+000	 1.574956353658965e+000	 1.128846734723085e+001
 1.361527304720379e+000	 1.590073154293837e+000	 1.119913434297783e+001
 1.343910635039803e+000	 1.604990114603931e+000	 1.110179678922771e+001
 1.326139243062656e+000	 1.619704786090954e+000	 1.099850834645514e+001
 1.308216612825929e+000	 1.634214798873599e+000	 1.088952387212618e+001
 1.290146275868779e+000	 1.648517862924069e+000	 1.077627931898164e+001
 1.271931808949659e+000	 1.662611769227780e+000	 1.066060497491808e+001
 1.253576831730622e+000	 1.676494390865051e+000	 1.054428431209403e+001
 1.235085004431890e+000	 1.690163684013768e+000	 1.042905062613108e+001
 1.216460025459840e+000	 1.703617688872130e+000	 1.031658378946501e+001
 1.414067964603332e+000	 1.579508204460395e+000	 1.137957620739882e+001
 1.396550669959048e+000	 1.595017383384004e+000	 1.130248442335101e+001
 1.378869778795487e+000	 1.610326734489471e+000	 1.121395394908802e+001
 1.361028716525699e+000	 1.625433699801120e+000	 1.111628150300077e+001
 1.343030961181805e+000	 1.640335799632866e+000	 1.101182461873084e+001
 1.324880041178775e+000	 1.655030633916994e+000	 1.090276161081905e+001
 1.306579533038807e+000	 1.669515883456440e+000	 1.078973295077152e+001
 1.288133059079376e+000	 1.683789311099253e+000	 1.067443605765000e+001
 1.269544285068039e+000	 1.697848762834074e+000	 1.055882254563114e+001
 1.250816917847140e+000	 1.711692168805566e+000	 1.044479601669046e+001
 1.231954702931564e+000	 1.725317544248913e+000	 1.033420860303003e+001
 1.431853137208900e+000	 1.599374170417763e+000	 1.138353348600331e+001
 1.414115522101638e+000	 1.615078413108516e+000	 1.130751754408520e+001
 1.396212252870773e+000	 1.630580314684557e+000	 1.121936429904883e+001
 1.378146798011843e+000	 1.645877284997743e+000	 1.112140592942319e+001
 1.359922679301271e+000	 1.660966813174197e+000	 1.101604144030189e+001
 1.341543469532005e+000	 1.675846468959799e+000	 1.090573392608655e+001
 1.323012790209282e+000	 1.690513903988210e+000	 1.079273306553777e+001
 1.304334309209597e+000	 1.704966852970118e+000	 1.067807553392380e+001
 1.285511738406013e+000	 1.719203134802480e+000	 1.056366325915698e+001
 1.266548831262987e+000	 1.733220653596737e+000	 1.045151290090733e+001
 1.247449380403922e+000	 1.747017399625063e+000	 1.034359022116183e+001
 1.449638309814519e+000	 1.619240136374797e+000	 1.138042476293595e+001
 1.431680374244336e+000	 1.635139442832677e+000	 1.130483139534739e+001
 1.413554726946223e+000	 1.650833894879276e+000	 1.121687097331449e+001
 1.395264879498211e+000	 1.666320870193986e+000	 1.111886101922995e+001
 1.376814397421018e+000	 1.681597826715139e+000	 1.101319002913666e+001
 1.358206897885572e+000	 1.696662304002206e+000	 1.090231485867703e+001
 1.339446047380145e+000	 1.711511924519575e+000	 1.078875786573222e+001
 1.320535559340253e+000	 1.726144394840567e+000	 1.067480877300973e+001
 1.301479191744462e+000	 1.740557506770461e+000	 1.056191361107601e+001
 1.282280744679345e+000	 1.754749138387473e+000	 1.045208719559235e+001
 1.262944057876814e+000	 1.768717255000763e+000	 1.034735254661171e+001
 1.467423482420205e+000	 1.639106102331665e+000	 1.137122280015445e+001
 1.449245226387142e+000	 1.655200472556662e+000	 1.129568474909622e+001
 1.430897201021827e+000	 1.671087475073811e+000	 1.120796408474956e+001
 1.412382960984778e+000	 1.686764455390040e+000	 1.111031534665337e+001
 1.393706115541010e+000	 1.702228840255884e+000	 1.100506637699501e+001
 1.374870326239427e+000	 1.717478139044408e+000	 1.089461594022371e+001
 1.355879304551337e+000	 1.732509945050727e+000	 1.078143108857710e+001
 1.336736809471274e+000	 1.747321936710794e+000	 1.066804427005653e+001
 1.317446645083307e+000	 1.761911878738207e+000	 1.055679890444694e+001
 1.298012658096122e+000	 1.776277623177960e+000	 1.044952896346632e+001
 1.278438735350138e+000	 1.790417110376195e+000	 1.034825154735823e+001
 1.485208655025974e+000	 1.658972068288533e+000	 1.135690519587140e+001
 1.466810078530060e+000	 1.675261502280647e+000	 1.128132976127093e+001
 1.448239675097573e+000	 1.691341055268345e+000	 1.119411826493671e+001
 1.429501042471520e+000	 1.707208040586091e+000	 1.109741563045983e+001
 1.410597833661210e+000	 1.722859853796624e+000	 1.099344063877143e+001
 1.391533754593522e+000	 1.738293974086600e+000	 1.088448389051796e+001
 1.372312561722800e+000	 1.753507965581860e+000	 1.077290550610435e+001
 1.352938059602591e+000	 1.768499478580991e+000	 1.066113255843334e+001
 1.333414098422467e+000	 1.783266250705911e+000	 1.055165623447985e+001
 1.313744571513226e+000	 1.797806107968385e+000	 1.044696597137647e+001
 1.293933412823795e+000	 1.812116965751542e+000	 1.034916861887474e+001
 1.502993827631845e+000	 1.678838034245567e+000	 1.133845270757736e+001
 1.484374930673091e+000	 1.695322532004807e+000	 1.126301108443645e+001
 1.465582149173450e+000	 1.711594635463063e+000	 1.117679241865422e+001
 1.446619123958412e+000	 1.727651625782327e+000	 1.108178698776234e+001
 1.427489551781582e+000	 1.743490867337551e+000	 1.098005774855501e+001
 1.408197182947809e+000	 1.759109809128975e+000	 1.087373875008226e+001
 1.388745818894472e+000	 1.774505986113169e+000	 1.076503327855833e+001
 1.369139309734133e+000	 1.789677020451354e+000	 1.065621172740635e+001
 1.349381551761863e+000	 1.804620622673762e+000	 1.054960918680743e+001
 1.329476484930569e+000	 1.819334592758937e+000	 1.044763697874985e+001
 1.309428090297686e+000	 1.833816821126989e+000	 1.035310370697945e+001
 1.520779000237831e+000	 1.698704000202935e+000	 1.131684745828210e+001
 1.501939782816236e+000	 1.715383561729319e+000	 1.124196481030618e+001
 1.482924623249444e+000	 1.731848215658145e+000	 1.115742926550142e+001
 1.463737205445429e+000	 1.748095210978939e+000	 1.106503294248320e+001
 1.444381269902088e+000	 1.764121880878854e+000	 1.096663776768931e+001
 1.424860611302240e+000	 1.779925644171726e+000	 1.086417444571539e+001
 1.405179076066297e+000	 1.795504006644849e+000	 1.075964115827252e+001
 1.385340559865832e+000	 1.810854562322073e+000	 1.065510198287916e+001
 1.365349005101414e+000	 1.825974994641952e+000	 1.055268502357912e+001
 1.345208398348060e+000	 1.840863077549801e+000	 1.045458024725223e+001
 1.324922767771708e+000	 1.855516676502718e+000	 1.036316821086800e+001
 1.538564172843951e+000	 1.718569966160803e+000	 1.129307103542247e+001
 1.519504634959500e+000	 1.735444591454357e+000	 1.121941725590818e+001
 1.500267097325547e+000	 1.752101795853774e+000	 1.113745468589529e+001
 1.480855286932549e+000	 1.768538796176111e+000	 1.104873520832113e+001
 1.461272988022692e+000	 1.784752894420728e+000	 1.095487598651802e+001
 1.441524039656768e+000	 1.800741479215049e+000	 1.085755909759147e+001
 1.421612333238213e+000	 1.816502027177092e+000	 1.075853089355505e+001
 1.401541809997616e+000	 1.832032104193344e+000	 1.065960107892482e+001
 1.381316458441040e+000	 1.847329366610672e+000	 1.056264149468173e+001
 1.360940311765608e+000	 1.862391562341168e+000	 1.046958459982497e+001
 1.340417445245762e+000	 1.877216531878911e+000	 1.038242164316323e+001
 1.556349345450221e+000	 1.738435932119336e+000	 1.126810249102412e+001
 1.537069487102882e+000	 1.755505621180099e+000	 1.119658360590219e+001
 1.517609571401743e+000	 1.772355376050134e+000	 1.111827688708731e+001
 1.497973368419745e+000	 1.788982381374034e+000	 1.103445326425972e+001
 1.478164706143358e+000	 1.805383907963363e+000	 1.094644279951969e+001
 1.458187468011342e+000	 1.821557314259135e+000	 1.085563508858689e+001
 1.438045590410163e+000	 1.837500047710095e+000	 1.076347939129101e+001
 1.417743060129417e+000	 1.853209646065358e+000	 1.067148447734555e+001
 1.397283911780661e+000	 1.868683738580113e+000	 1.058121817462147e+001
 1.376672225183124e+000	 1.883920047133223e+000	 1.049430660849019e+001
 1.355912122719749e+000	 1.898916387255753e+000	 1.041243312227962e+001
 1.200965347988850e+000	 1.681917833494530e+000	 1.028823031963659e+001
 1.182449835540888e+000	 1.694986070180314e+000	 1.017494296811333e+001
 1.163810271280825e+000	 1.707838140353592e+000	 1.005876412981558e+001
 1.145050403035632e+000	 1.720472359784237e+000	 9.940057892262908e+000
 1.126174006844908e+000	 1.732887130004770e+000	 9.819092703234617e+000
 1.107184884536711e+000	 1.745080938822499e+000	 9.696040622636010e+000
 1.088086861295837e+000	 1.757052360750431e+000	 9.570976693748554e+000
 1.068883783227663e+000	 1.768800057357055e+000	 9.443878425239037e+000
 1.049579514920662e+000	 1.780322777535210e+000	 9.314625376053176e+000
 1.030177937010685e+000	 1.791619357690404e+000	 9.182998836176104e+000
 1.010682943750033e+000	 1.802688721849068e+000	 9.048681597193708e+000
 1.216460025459840e+000	 1.703617688872130e+000	 1.031658378946501e+001
 1.197705628606193e+000	 1.716854530016881e+000	 1.020429853866954e+001
 1.178825579442343e+000	 1.729872415700694e+000	 1.008884564297507e+001
 1.159823674149157e+000	 1.742669639963754e+000	 9.970644747686093e+000
 1.140703737484130e+000	 1.755244583715394e+000	 9.850018407367511e+000
 1.121469620325929e+000	 1.767595715252836e+000	 9.727191347525364e+000
 1.102125197211310e+000	 1.779721590697669e+000	 9.602289838347268e+000
 1.082674363867519e+000	 1.791620854350134e+000	 9.475341170555073e+000
 1.063121034743368e+000	 1.803292238961474e+000	 9.346273224292721e+000
 1.043469140542086e+000	 1.814734565924676e+000	 9.214914122961304e+000
 1.023722625759031e+000	 1.825946745384120e+000	 9.080991965009144e+000
 1.231954702931564e+000	 1.725317544248913e+000	 1.033420860303003e+001
 1.212961421672267e+000	 1.738722989852626e+000	 1.022403737380509e+001
 1.193840887604656e+000	 1.751906691046967e+000	 1.011041569134076e+001
 1.174596945263497e+000	 1.764866920142439e+000	 9.993816613850315e+000
 1.155233468124176e+000	 1.777602037425184e+000	 9.874615368725031e+000
 1.135754356115979e+000	 1.790110491682342e+000	 9.753088638966018e+000
 1.116163533127615e+000	 1.802390820644081e+000	 9.629413952273517e+000
 1.096464944508205e+000	 1.814441651342400e+000	 9.503669161389961e+000
 1.076662554566900e+000	 1.826261700386945e+000	 9.375832005289599e+000
 1.056760344074309e+000	 1.837849774158181e+000	 9.245779741947654e+000
 1.036762307768846e+000	 1.849204768918440e+000	 9.113288844672528e+000
 1.247449380403922e+000	 1.747017399625063e+000	 1.034359022116183e+001
 1.228217214739000e+000	 1.760591449687726e+000	 1.023636091165053e+001
 1.208856195767644e+000	 1.773940966392586e+000	 1.012540527084566e+001
 1.189370216378519e+000	 1.787064200320456e+000	 1.001124777804572e+001
 1.169763198764909e+000	 1.799959491134297e+000	 9.894315043028058e+000
 1.150039091906711e+000	 1.812625268111165e+000	 9.774935133640586e+000
 1.130201869044597e+000	 1.825060050589807e+000	 9.653336994546743e+000
 1.110255525149559e+000	 1.837262448333983e+000	 9.529649944111123e+000
 1.090204074391088e+000	 1.849231161811743e+000	 9.403903237558055e+000
 1.070051547607175e+000	 1.860964982391030e+000	 9.276025685832593e+000
 1.049801989779293e+000	 1.872462792452129e+000	 9.145845321019046e+000
 1.262944057876814e+000	 1.768717255000763e+000	 1.034735254661171e+001
 1.243473007806282e+000	 1.782459909522359e+000	 1.024361777654662e+001
 1.223871503931186e+000	 1.795975241737718e+000	 1.013590054134933e+001
 1.204143487494095e+000	 1.809261480497971e+000	 1.002477487941170e+001
 1.184292929406188e+000	 1.822316944842891e+000	 9.910717613534898e+000
 1.164323827697979e+000	 1.835140044539452e+000	 9.794107737658033e+000
 1.144240204962098e+000	 1.847729280534987e+000	 9.675225881100195e+000
 1.124046105791414e+000	 1.860083245325012e+000	 9.554253835536297e+000
 1.103745594215759e+000	 1.872200623235985e+000	 9.431274131232282e+000
 1.083342751140507e+000	 1.884080190623331e+000	 9.306269650535043e+000
 1.062841671790189e+000	 1.895720815985286e+000	 9.179123268228610e+000
 1.278438735350138e+000	 1.790417110376195e+000	 1.034825154735823e+001
 1.258728800874001e+000	 1.804328369356703e+000	 1.024829714465839e+001
 1.238886812095163e+000	 1.818009517082537e+000	 1.014413598690589e+001
 1.218916758610096e+000	 1.831458760675146e+000	 1.003638991603223e+001
 1.198822660047875e+000	 1.844674398551119e+000	 9.925584896915437e+000
 1.178608563489632e+000	 1.857654820967351e+000	 9.812150482883846e+000
 1.158278540879960e+000	 1.870398510479757e+000	 9.696419342924479e+000
 1.137836686433605e+000	 1.882904042315616e+000	 9.578626833880023e+000
 1.117287114040742e+000	 1.895170084659792e+000	 9.458910602395308e+000
 1.096633954674127e+000	 1.907195398855193e+000	 9.337310203035447e+000
 1.075881353801352e+000	 1.918978839518011e+000	 9.213766720814734e+000
 1.293933412823795e+000	 1.812116965751542e+000	 1.034916861887474e+001
 1.273984593942049e+000	 1.826196829190936e+000	 1.025302188419575e+001
 1.253902120259454e+000	 1.840043792427213e+000	 1.015248738297832e+001
 1.233690029726389e+000	 1.853656040852145e+000	 1.004823308798109e+001
 1.213352390689829e+000	 1.867031852259139e+000	 9.940833110712411e+000
 1.192893299281523e+000	 1.880169597395008e+000	 9.830767267104106e+000
 1.172316876798029e+000	 1.893067740424256e+000	 9.718420686877728e+000
 1.151627267075970e+000	 1.905724839305924e+000	 9.604083447767639e+000
 1.130828633865865e+000	 1.918139546083284e+000	 9.487950217429587e+000
 1.109925158207855e+000	 1.930310607086728e+000	 9.370119887730471e+000
 1.088921035812597e+000	 1.942236863050402e+000	 9.250595188151532e+000
 1.309428090297686e+000	 1.833816821126989e+000	 1.035310370697945e+001
 1.289240387010314e+000	 1.848065289025234e+000	 1.026054148890980e+001
 1.268917428423940e+000	 1.862078067771918e+000	 1.016346458658960e+001
 1.248463300842847e+000	 1.875853321029134e+000	 1.006258548990486e+001
 1.227882121331912e+000	 1.889389305967105e+000	 9.958525513854422e+000
 1.207178035073505e+000	 1.902684373822573e+000	 9.851814487644896e+000
 1.186355212716147e+000	 1.915736970368623e+000	 9.742890467224337e+000
 1.165417847718342e+000	 1.928545636296065e+000	 9.632099450103626e+000
 1.144370153690955e+000	 1.941109007506578e+000	 9.519695073184305e+000
 1.123216361741515e+000	 1.953425815318042e+000	 9.405838276394485e+000
 1.101960717823740e+000	 1.965494886582560e+000	 9.290596917215833e+000
 1.324922767771708e+000	 1.855516676502718e+000	 1.036316821086800e+001
 1.304496180078686e+000	 1.869933748859776e+000	 1.027372482178718e+001
 1.283932736588499e+000	 1.884112343116823e+000	 1.017970416390575e+001
 1.263236571959339e+000	 1.898050601206275e+000	 1.008186166546080e+001
 1.242411851973984e+000	 1.911746759675175e+000	 9.980864930612791e+000
 1.221462770865427e+000	 1.925199150250191e+000	 9.877293577169082e+000
 1.200393548634157e+000	 1.938406200312997e+000	 9.771639075209835e+000
 1.179208428360558e+000	 1.951366433286168e+000	 9.664304562944841e+000
 1.157911673515842e+000	 1.964078468929797e+000	 9.555604618213417e+000
 1.136507565274927e+000	 1.976541023549247e+000	 9.445764966363630e+000
 1.115000399834598e+000	 1.988752910114585e+000	 9.334922107782797e+000
 1.340417445245762e+000	 1.877216531878911e+000	 1.038242164316323e+001
 1.319751973147055e+000	 1.891802208694739e+000	 1.029555268430125e+001
 1.298948044753012e+000	 1.906146618462098e+000	 1.020396186840437e+001
 1.278009843075734e+000	 1.920247881383732e+000	 1.010860203478696e+001
 1.256941582615906e+000	 1.934104213383504e+000	 1.001018616743285e+001
 1.235747506657143e+000	 1.947713926678010e+000	 9.909343449564428e+000
 1.214431884551902e+000	 1.961075430257515e+000	 9.806619253303804e+000
 1.192999009002452e+000	 1.974187230276363e+000	 9.702475078961014e+000
 1.171453193340355e+000	 1.987047930353057e+000	 9.597288419852676e+000
 1.149798768807915e+000	 1.999656231780452e+000	 9.491352531131872e+000
 1.128040081844989e+000	 2.012010933646574e+000	 9.384414487857047e+000
 1.355912122719749e+000	 1.898916387255753e+000	 1.041243312227962e+001
 1.335007766215312e+000	 1.913670668530300e+000	 1.032909847719742e+001
 1.313963352917359e+000	 1.928180893807915e+000	 1.023910498158056e+001
 1.292783114191905e+000	 1.942445161561669e+000	 1.014546520516144e+001
 1.271471313257540e+000	 1.956461667092249e+000	 1.004894833120872e+001
 1.250032242448504e+000	 1.970228703106179e+000	 9.950232863116440e+000
 1.228470220469227e+000	 1.983744660202318e+000	 9.849918540136141e+000
 1.206789589643861e+000	 1.997008027266777e+000	 9.748526424554754e+000
 1.184994713164319e+000	 2.010017391776478e+000	 9.646560693017415e+000
 1.163089972340300e+000	 2.022771440011767e+000	 9.543825734665287e+000
 1.141079763854727e+000	 2.035268957178629e+000	 9.439294317533920e+000
 1.010682943750033e+000	 1.802688721849068e+000	 9.048681597193706e+000
 9.911013848124723e-001	 1.813528272997309e+000	 8.913650392662433e+000
 9.714342563694887e-001	 1.824138789421242e+000	 8.780407783418449e+000
 9.516854783112035e-001	 1.834519459694026e+000	 8.649318631110022e+000
 9.318589744831693e-001	 1.844669559610956e+000	 8.520644656729687e+000
 9.119586703247526e-001	 1.854588451907370e+000	 8.394539623667260e+000
 8.919884905296137e-001	 1.864275585902090e+000	 8.271047224700148e+000
 8.719523567309262e-001	 1.873730497067710e+000	 8.150099102526614e+000
 8.518541852139021e-001	 1.882952806529170e+000	 8.031513011133132e+000
 8.316978846581150e-001	 1.891942220492133e+000	 7.914991126154549e+000
 8.114873539120182e-001	 1.900698529602767e+000	 7.800118513180292e+000
 1.023722625759031e+000	 1.825946745384120e+000	 9.080991965009144e+000
 1.003888428441440e+000	 1.836926146819623e+000	 8.946588165254033e+000
 9.839675576132633e-001	 1.847673558558638e+000	 8.814244304113915e+000
 9.639639837384755e-001	 1.858188158705416e+000	 8.684267685919867e+000
 9.438816812875148e-001	 1.868469213711674e+000	 8.556859269039236e+000
 9.237246263451980e-001	 1.878516078090857e+000	 8.432108823729442e+000
 9.034967942410129e-001	 1.888328194056983e+000	 8.309992844547924e+000
 8.832021572044748e-001	 1.897905091089385e+000	 8.190372583000151e+000
 8.628446820481395e-001	 1.907246385424817e+000	 8.072992207840867e+000
 8.424283278807979e-001	 1.916351779478452e+000	 7.957477101481808e+000
 8.219570438532781e-001	 1.925221061195408e+000	 7.843332301922803e+000
 1.036762307768846e+000	 1.849204768918440e+000	 9.113288844672526e+000
 1.016675472071220e+000	 1.860324020641252e+000	 8.980526276251533e+000
 9.965008588578460e-001	 1.871208327695403e+000	 8.850061462256589e+000
 9.762424891665522e-001	 1.881856857716237e+000	 8.722190268811596e+000
 9.559043880926638e-001	 1.892268867811892e+000	 8.597085821209069e+000
 9.354905823664451e-001	 1.902443704273920e+000	 8.474810467439223e+000
 9.150050979532124e-001	 1.912380802211533e+000	 8.355310294347431e+000
 8.944519576788237e-001	 1.922079685110802e+000	 8.238413112397696e+000
 8.738351788831772e-001	 1.931539964320292e+000	 8.123826553748312e+000
 8.531587711042796e-001	 1.940761338464687e+000	 8.011136292502586e+000
 8.324267337953374e-001	 1.949743592788055e+000	 7.899804397138190e+000
 1.049801989779293e+000	 1.872462792452129e+000	 9.145845321019046e+000
 1.029462515701623e+000	 1.883721894462284e+000	 9.015587285850499e+000
 1.009034160103046e+000	 1.894743096831615e+000	 8.887855750758273e+000
 9.885209945952407e-001	 1.905525556726559e+000	 8.762959921620915e+000
 9.679270948984198e-001	 1.916068521911670e+000	 8.641083782829307e+000
 9.472565383882966e-001	 1.926371330456608e+000	 8.522297839065958e+000
 9.265134016660140e-001	 1.936433410365777e+000	 8.406553584761916e+000
 9.057017581537732e-001	 1.946254279131987e+000	 8.293681382493897e+000
 8.848256757188148e-001	 1.955833543215612e+000	 8.183388439049351e+000
 8.638892143283621e-001	 1.965170897450847e+000	 8.075256888542933e+000
 8.428964237379969e-001	 1.974266124380708e+000	 7.968741993295666e+000
 1.062841671790189e+000	 1.895720815985286e+000	 9.179123268228610e+000
 1.042249559332463e+000	 1.907119768282810e+000	 9.052092880040382e+000
 1.021567461348670e+000	 1.918277865967356e+000	 8.927816288806612e+000
 1.000799500024346e+000	 1.929194255736451e+000	 8.806637413412245e+000
 9.799498017045861e-001	 1.939868176011067e+000	 8.688797929883497e+000
 9.590224944105535e-001	 1.950298956638970e+000	 8.574406984786645e+000
 9.380217053792190e-001	 1.960486018519756e+000	 8.463456367573500e+000
 9.169515586291239e-001	 1.970428873152970e+000	 8.355814077457229e+000
 8.958161725548528e-001	 1.980127122110799e+000	 8.251222119042465e+000
 8.746196575528441e-001	 1.989580456436942e+000	 8.149294388539413e+000
 8.533661136810564e-001	 1.998788655973366e+000	 8.049514662099693e+000
 1.075881353801352e+000	 1.918978839518011e+000	 9.213766720814734e+000
 1.055036602963550e+000	 1.930517642102919e+000	 9.090544046992291e+000
 1.034100762594529e+000	 1.941812635102705e+000	 8.970301983871080e+000
 1.013078005453673e+000	 1.952862954745983e+000	 8.853470107921650e+000
 9.919725085109667e-001	 1.963667830110144e+000	 8.740352910928571e+000
 9.707884504330185e-001	 1.974226582821057e+000	 8.631151649756014e+000
 9.495300090926281e-001	 1.984538626673510e+000	 8.525927264558071e+000
 9.282013591046765e-001	 1.994603467173783e+000	 8.424619611495761e+000
 9.068066693910913e-001	 2.004420701005870e+000	 8.326649642888013e+000
 8.853501007775266e-001	 2.013990015422982e+000	 8.228645049438020e+000
 8.638358036243158e-001	 2.023311187566027e+000	 8.129046865516632e+000
 1.088921035812597e+000	 1.942236863050402e+000	 9.250595188151534e+000
 1.067823646594697e+000	 1.953915515922700e+000	 9.131617970694073e+000
 1.046634063840428e+000	 1.965347404237740e+000	 9.015860658685313e+000
 1.025356510883029e+000	 1.976531653755224e+000	 8.903865343435696e+000
 1.003995215317365e+000	 1.987467484208959e+000	 8.796047749510459e+000
 9.825544064554943e-001	 1.998154209002917e+000	 8.692718144231678e+000
 9.610383128060425e-001	 2.008591234827077e+000	 8.592887893750913e+000
 9.394511595802311e-001	 2.018778061194452e+000	 8.493981294682557e+000
 9.177971662273304e-001	 2.028714279900847e+000	 8.395139834011877e+000
 8.960805440022087e-001	 2.038399574408974e+000	 8.295495576540230e+000
 8.743054935675751e-001	 2.047833719158692e+000	 8.194125285300594e+000
 1.101960717823740e+000	 1.965494886582560e+000	 9.290596917215833e+000
 1.080610690225716e+000	 1.977313389742243e+000	 9.176161544807080e+000
 1.059167365086179e+000	 1.988882173372540e+000	 9.065205931988022e+000
 1.037635016312218e+000	 2.000200352764243e+000	 8.958415548289858e+000
 1.016017922123584e+000	 2.011267138307571e+000	 8.854907631329379e+000
 9.943203624777822e-001	 2.022081835184600e+000	 8.753131052270616e+000
 9.725466165192630e-001	 2.032643842980497e+000	 8.652525868621307e+000
 9.507009600555887e-001	 2.042952655215010e+000	 8.552453301062581e+000
 9.287876630633704e-001	 2.053007858795747e+000	 8.452225357535427e+000
 9.068109872266910e-001	 2.062809133394929e+000	 8.351101719896690e+000
 8.847751835106342e-001	 2.072356250751360e+000	 8.248291923668548e+000
 1.115000399834598e+000	 1.988752910114585e+000	 9.334922107782800e+000
 1.093397733856419e+000	 2.000711263561638e+000	 9.225181930349654e+000
 1.071700666331588e+000	 2.012416942507187e+000	 9.118100296853042e+000
 1.049913521741047e+000	 2.023869051773110e+000	 9.012891197141892e+000
 1.028040628929428e+000	 2.035066792406040e+000	 8.909243563127301e+000
 1.006086318499684e+000	 2.046009461366154e+000	 8.806774891479615e+000
 9.840549202320906e-001	 2.056696451133809e+000	 8.705064753252362e+000
 9.619507605305493e-001	 2.067127249235484e+000	 8.603620552895519e+000
 9.397781598990115e-001	 2.077301437690591e+000	 8.501906040548100e+000
 9.175414304507735e-001	 2.087218692380858e+000	 8.399338634521333e+000
 8.952448734532940e-001	 2.096878782344030e+000	 8.295291609895884e+000
 1.128040081844989e+000	 2.012010933646574e+000	 9.384414487857047e+000
 1.106184777486618e+000	 2.024109137380973e+000	 9.277159827586143e+000
 1.084233967576464e+000	 2.035951711641759e+000	 9.171022819590011e+000
 1.062192027169320e+000	 2.047537750781894e+000	 9.065911616574269e+000
 1.040063335734701e+000	 2.058866446504426e+000	 8.961669315185096e+000
 1.017852274521003e+000	 2.069937087547630e+000	 8.858080915012852e+000
 9.955632239443272e-001	 2.080749059287053e+000	 8.754870394250123e+000
 9.732005610049137e-001	 2.091301843255902e+000	 8.651739619122836e+000
 9.507686567340532e-001	 2.101595016585397e+000	 8.548325082069717e+000
 9.282718736742566e-001	 2.111628251366767e+000	 8.444230913429568e+000
 9.057145633953535e-001	 2.121401313936701e+000	 8.339024025658604e+000
 1.141079763854727e+000	 2.035268957178629e+000	 9.439294317533920e+000
 1.118971821116124e+000	 2.047507011200339e+000	 9.333511486776345e+000
 1.096767268820617e+000	 2.059486480776334e+000	 9.227801547089445e+000
 1.074470532596845e+000	 2.071206449790665e+000	 9.122243349405615e+000
 1.052086042539205e+000	 2.082666100602788e+000	 9.016856995679742e+000
 1.029618230541540e+000	 2.093864713729079e+000	 8.911611340940373e+000
 1.007071527655773e+000	 2.104801667440268e+000	 8.806422025571145e+000
 9.844503614784818e-001	 2.115476437276296e+000	 8.701188670120404e+000
 9.617591535682968e-001	 2.125888595480185e+000	 8.595754846491326e+000
 9.390023168969391e-001	 2.136037810352666e+000	 8.489939224927024e+000
 9.161842533366131e-001	 2.145923845529372e+000	 8.383531182922631e+000
 8.114873539120182e-001	 1.900698529602767e+000	 7.800118513180292e+000
 7.912234369493598e-001	 1.909222869577757e+000	 7.682339030612719e+000
 7.709130368854968e-001	 1.917513867912702e+000	 7.559078934033626e+000
 7.505600127467703e-001	 1.925571565595462e+000	 7.432669456048635e+000
 7.301682051371443e-001	 1.933396084890728e+000	 7.305320507252267e+000
 7.097414342048215e-001	 1.940987628381445e+000	 7.179114875263599e+000
 6.892834976536051e-001	 1.948346477952993e+000	 7.056002747046582e+000
 6.687981688007214e-001	 1.955472993722270e+000	 6.937796574522608e+000
 6.482891946827237e-001	 1.962367612913845e+000	 6.827335173662627e+000
 6.277602942109746e-001	 1.969030848685419e+000	 6.727609217270040e+000
 6.072151563781101e-001	 1.975463288904845e+000	 6.639264204557792e+000
 8.219570438532781e-001	 1.925221061195408e+000	 7.843332301922803e+000
 8.014316848281604e-001	 1.933855380945222e+000	 7.726417612282834e+000
 7.808592429837711e-001	 1.942253348515646e+000	 7.604655298398637e+000
 7.602436271350281e-001	 1.950415005423360e+000	 7.480413181428752e+000
 7.395887274367915e-001	 1.958340475510496e+000	 7.355935716533845e+000
 7.188984133242422e-001	 1.966029963973694e+000	 7.233337778587281e+000
 6.981765314985874e-001	 1.973483756335180e+000	 7.114598768803231e+000
 6.774269039598260e-001	 1.980702217358025e+000	 7.001557064287326e+000
 6.566533260882138e-001	 1.987685789907810e+000	 6.896257996005351e+000
 6.358595647759500e-001	 1.994434993762919e+000	 6.802191644225116e+000
 6.150493566104991e-001	 2.000950424375790e+000	 6.720012918130539e+000
 8.324267337953374e-001	 1.949743592788055e+000	 7.899804397138190e+000
 8.116399327077611e-001	 1.958487892312784e+000	 7.786167309215108e+000
 7.908054490828439e-001	 1.966992829118775e+000	 7.668645138732771e+000
 7.699272415240813e-001	 1.975258445251525e+000	 7.549591623879404e+000
 7.490092497372286e-001	 1.983284866130609e+000	 7.431234648952851e+000
 7.280553924444432e-001	 1.991072299566360e+000	 7.315669702257090e+000
 7.070695653443357e-001	 1.998621034717844e+000	 7.204853649993054e+000
 6.860556391196770e-001	 2.005931440994312e+000	 7.099300457108222e+000
 6.650174574944245e-001	 2.013003966902344e+000	 6.998090172231271e+000
 6.439588353416124e-001	 2.019839138841012e+000	 6.904256214198306e+000
 6.228835568435334e-001	 2.026437559847334e+000	 6.819220673464978e+000
 8.428964237379969e-001	 1.974266124380708e+000	 7.968741993295668e+000
 8.218481805879621e-001	 1.983120403680432e+000	 7.860700650178079e+000
 8.007516551825158e-001	 1.991732309722067e+000	 7.750038017874943e+000
 7.796108559137310e-001	 2.000101885079929e+000	 7.639045247783365e+000
 7.584297720382563e-001	 2.008229256751030e+000	 7.527752017719837e+000
 7.372123715652267e-001	 2.016114635159398e+000	 7.416001376527325e+000
 7.159625991906543e-001	 2.023758313100938e+000	 7.305504432648024e+000
 6.946843742800806e-001	 2.031160664631070e+000	 7.197893236782589e+000
 6.733815889011646e-001	 2.038322143897384e+000	 7.094713763428969e+000
 6.520581059077746e-001	 2.045243283919630e+000	 6.998150289653917e+000
 6.307177570770309e-001	 2.051924695319412e+000	 6.910787281467261e+000
 8.533661136810564e-001	 1.998788655973366e+000	 8.049514662099695e+000
 8.320564284685621e-001	 2.007752915048153e+000	 7.947736067801476e+000
 8.106978612825863e-001	 2.016471790325503e+000	 7.840538826155534e+000
 7.892944703037772e-001	 2.024945324908542e+000	 7.729712997170395e+000
 7.678502943396766e-001	 2.033173647371722e+000	 7.617028251454634e+000
 7.463693506863949e-001	 2.041156970752760e+000	 7.504191964761122e+000
 7.248556330373465e-001	 2.048895591484403e+000	 7.392842468409286e+000
 7.033131094408428e-001	 2.056389888268241e+000	 7.284541955834385e+000
 6.817457203082428e-001	 2.063640320892865e+000	 7.180769093378902e+000
 6.601573764742492e-001	 2.070647428998710e+000	 7.083073072670375e+000
 6.385519573108083e-001	 2.077411830791955e+000	 6.994525645105110e+000
 8.638358036243158e-001	 2.023311187566027e+000	 8.129046865516630e+000
 8.422646763493622e-001	 2.032385426415939e+000	 8.025325067726795e+000
 8.206440673828561e-001	 2.041211270929060e+000	 7.916849033663455e+000
 7.989780846940207e-001	 2.049788764737333e+000	 7.805319350281577e+000
 7.772708166412898e-001	 2.058118037992645e+000	 7.692384608185502e+000
 7.555263298077501e-001	 2.066199306346401e+000	 7.579634959967361e+000
 7.337486668842164e-001	 2.074032869868189e+000	 7.468595211296785e+000
 7.119418446017694e-001	 2.081619111905766e+000	 7.360717490876374e+000
 6.901098517154681e-001	 2.088958497888726e+000	 7.257373551002747e+000
 6.682566470408484e-001	 2.096051574078183e+000	 7.159846755537013e+000
 6.463861575446830e-001	 2.102898966264897e+000	 7.070654801352677e+000
 8.743054935675751e-001	 2.047833719158692e+000	 8.194125285300594e+000
 8.524729242301624e-001	 2.057017937783778e+000	 8.089067362475657e+000
 8.305902734831250e-001	 2.065950751532719e+000	 7.980078702028786e+000
 8.086616990842614e-001	 2.074632204566274e+000	 7.868694914430635e+000
 7.866913389428977e-001	 2.083062428613760e+000	 7.756403938623426e+000
 7.646833089290944e-001	 2.091241641940274e+000	 7.644639603730806e+000
 7.426417007310678e-001	 2.099170148252240e+000	 7.534774634962073e+000
 7.205705797626665e-001	 2.106848335543585e+000	 7.428113152889873e+000
 6.984739831226497e-001	 2.114276674884903e+000	 7.325882721550259e+000
 6.763559176073851e-001	 2.121455719157986e+000	 7.229226006478435e+000
 6.542203577784720e-001	 2.128386101738172e+000	 7.139770971401084e+000
 8.847751835106342e-001	 2.072356250751360e+000	 8.248291923668548e+000
 8.626811721107622e-001	 2.081650449151659e+000	 8.142386447788164e+000
 8.405364795831936e-001	 2.090690232136461e+000	 8.033465885716396e+000
 8.183453134743008e-001	 2.099475644395333e+000	 7.922862765714870e+000
 7.961118612443011e-001	 2.108006819235029e+000	 7.811866737540647e+000
 7.738402880502302e-001	 2.116283977534334e+000	 7.701718218517516e+000
 7.515347345777037e-001	 2.124307426636505e+000	 7.593601386564889e+000
 7.291993149233398e-001	 2.132077559181640e+000	 7.488636572464314e+000
 7.068381145295957e-001	 2.139594851881333e+000	 7.387872110616571e+000
 6.844551881736718e-001	 2.146859864238052e+000	 7.292275713857395e+000
 6.620545580119923e-001	 2.153873237211714e+000	 7.202818606807965e+000
 8.952448734532940e-001	 2.096878782344030e+000	 8.295291609895884e+000
 8.728894199909623e-001	 2.106282960519573e+000	 8.188877643429983e+000
 8.504826856828617e-001	 2.115429712740264e+000	 8.080425519697121e+000
 8.280289278639385e-001	 2.124319084224482e+000	 7.971028322781608e+000
 8.055323835453017e-001	 2.132951209856415e+000	 7.861741601823663e+000
 7.829972671709593e-001	 2.141326313128531e+000	 7.753577181178524e+000
 7.604277684239289e-001	 2.149444705020930e+000	 7.647496211172875e+000
 7.378280500835953e-001	 2.157306782819872e+000	 7.544401514891104e+000
 7.152022459361153e-001	 2.164913028877952e+000	 7.445129294154218e+000
 6.925544587395210e-001	 2.172264009318316e+000	 7.350440264874134e+000
 6.698887582450617e-001	 2.179360372685457e+000	 7.261010298224242e+000
 9.057145633953535e-001	 2.121401313936701e+000	 8.339024025658603e+000
 8.830976678705623e-001	 2.130915471887508e+000	 8.232296469284377e+000
 8.604288917819299e-001	 2.140169193344108e+000	 8.124538527055696e+000
 8.377125422529758e-001	 2.149162524053690e+000	 8.016569113222669e+000
 8.149529058456995e-001	 2.157895600477876e+000	 7.909175586685692e+000
 7.921542462910846e-001	 2.166368648722823e+000	 7.803107803849409e+000
 7.693208022695467e-001	 2.174581983405461e+000	 7.699071296134226e+000
 7.464567852432394e-001	 2.182536006458223e+000	 7.597719630788005e+000
 7.235663773420178e-001	 2.190231205874698e+000	 7.499646022191563e+000
 7.006537293047455e-001	 2.197668154398711e+000	 7.405374268628775e+000
 6.777229584774968e-001	 2.204847508159331e+000	 7.315349096456782e+000
 9.161842533366131e-001	 2.145923845529372e+000	 8.383531182922633e+000
 8.933059157493626e-001	 2.155547983255453e+000	 8.276546924035023e+000
 8.703750978801976e-001	 2.164908673947971e+000	 8.169540826466427e+000
 8.473961566412123e-001	 2.174005963882928e+000	 8.063024441186570e+000
 8.243734281452965e-001	 2.182839991099376e+000	 7.957484468183714e+000
 8.013112254104073e-001	 2.191410984317160e+000	 7.853377129648997e+000
 7.782138361143608e-001	 2.199719261790046e+000	 7.751121541819506e+000
 7.550855204020774e-001	 2.207765230096631e+000	 7.651092147405936e+000
 7.319305087471113e-001	 2.215549382871506e+000	 7.553610279957230e+000
 7.087529998691573e-001	 2.223072299479171e+000	 7.458934940115467e+000
 6.855571587091146e-001	 2.230334643633273e+000	 7.367252871433368e+000
 6.072151563781101e-001	 1.975463288904845e+000	 6.639264204557792e+000
 5.866574382233224e-001	 1.981665594387705e+000	 6.556306496831410e+000
 5.660907622939357e-001	 1.987638496108145e+000	 6.473547423933439e+000
 5.455187159444396e-001	 1.993382795332379e+000	 6.391945139607567e+000
 5.249448500593381e-001	 1.998899362722714e+000	 6.311917266659948e+000
 5.043726775313110e-001	 2.004189136910731e+000	 6.232596531273264e+000
 4.838056717963329e-001	 2.009253123036070e+000	 6.152025845162696e+000
 4.632472654263897e-001	 2.014092391253171e+000	 6.069677770609192e+000
 4.427008487803356e-001	 2.018708075208402e+000	 5.984813395342056e+000
 4.221697687133255e-001	 2.023101370489906e+000	 5.896464930230778e+000
 4.016573273451569e-001	 2.027273533052570e+000	 5.803470155725371e+000
 6.150493566104991e-001	 2.000950424375790e+000	 6.720012918130539e+000
 5.942264058136259e-001	 2.007232751087749e+000	 6.641202054140400e+000
 5.733943816702277e-001	 2.013282714303859e+000	 6.559345988295896e+000
 5.525569178183158e-001	 2.019101125628146e+000	 6.475642329039045e+000
 5.317176109553852e-001	 2.024688866956063e+000	 6.390842654081735e+000
 5.108800192969422e-001	 2.030046889029278e+000	 6.305299581456405e+000
 4.900476610927235e-001	 2.035176209955582e+000	 6.219010530843495e+000
 4.692240132012560e-001	 2.040077913696388e+000	 6.131658366307034e+000
 4.484125097233062e-001	 2.044753148524193e+000	 6.042649130435537e+000
 4.276165406946642e-001	 2.049203125452439e+000	 5.951147095211242e+000
 4.068394508385930e-001	 2.053429116640149e+000	 5.856107366748776e+000
 6.228835568435334e-001	 2.026437559847334e+000	 6.819220673464978e+000
 6.017953734045254e-001	 2.032799907788383e+000	 6.736381081414472e+000
 5.806980010470585e-001	 2.038926932500136e+000	 6.650636231872538e+000
 5.595951196926687e-001	 2.044819455924433e+000	 6.563293292545970e+000
 5.384903718518437e-001	 2.050478371189883e+000	 6.475210148150625e+000
 5.173873610629187e-001	 2.055904641148230e+000	 6.386841681478702e+000
 4.962896503893941e-001	 2.061099296875428e+000	 6.298282420813643e+000
 4.752007609763390e-001	 2.066063436139859e+000	 6.209305778533603e+000
 4.541241706664351e-001	 2.070798221840154e+000	 6.119400125811315e+000
 4.330633126761093e-001	 2.075304880415053e+000	 6.027801964471171e+000
 4.120215743320919e-001	 2.079584700227718e+000	 5.933526469400528e+000
 6.307177570770309e-001	 2.051924695319412e+000	 6.910787281467261e+000
 6.093643409958433e-001	 2.058367064489541e+000	 6.825975226933565e+000
 5.880016204242572e-001	 2.064571150696912e+000	 6.738673167614546e+000
 5.666333215673344e-001	 2.070537786221184e+000	 6.650224658418730e+000
 5.452631327485580e-001	 2.076267875424119e+000	 6.561524588418949e+000
 5.238947028290932e-001	 2.081762393267542e+000	 6.473064555384770e+000
 5.025316396862062e-001	 2.087022383795570e+000	 6.384974250219999e+000
 4.811775087515102e-001	 2.092048958583554e+000	 6.297059112739780e+000
 4.598358316096041e-001	 2.096843295156265e+000	 6.208834541553229e+000
 4.385100846575524e-001	 2.101406635377738e+000	 6.119556957881515e+000
 4.172036978255548e-001	 2.105740283815280e+000	 6.028252036018552e+000
 6.385519573108083e-001	 2.077411830791955e+000	 6.994525645105110e+000
 6.169333085874019e-001	 2.083934221191156e+000	 6.909133615216491e+000
 5.953052398016532e-001	 2.090215368894127e+000	 6.821921609828307e+000
 5.736715234421498e-001	 2.096256116518343e+000	 6.734202255355794e+000
 5.520358936453728e-001	 2.102057379658719e+000	 6.646844343795885e+000
 5.304020445953191e-001	 2.107620145387170e+000	 6.560317160655544e+000
 5.087736289830221e-001	 2.112945470715970e+000	 6.474730432177663e+000
 4.871542565266414e-001	 2.118034481027448e+000	 6.389870192943548e+000
 4.655474925526936e-001	 2.122888368472507e+000	 6.305230897618269e+000
 4.439568566388837e-001	 2.127508390340486e+000	 6.220044118643501e+000
 4.223858213188826e-001	 2.131895867402835e+000	 6.133304185143878e+000
 6.463861575446830e-001	 2.102898966264897e+000	 7.070654801352677e+000
 6.245022761790250e-001	 2.109501377893164e+000	 6.985434492268616e+000
 6.026088591790755e-001	 2.115859587091717e+000	 6.899295174142822e+000
 5.807097253169511e-001	 2.121974446815848e+000	 6.813457004181750e+000
 5.588086545421321e-001	 2.127846883893632e+000	 6.728705716986602e+000
 5.369093863614490e-001	 2.133477897507068e+000	 6.645435741584317e+000
 5.150156182797036e-001	 2.138868557636592e+000	 6.563688511251161e+000
 4.931310043016035e-001	 2.144020003471510e+000	 6.483186310089568e+000
 4.712591534955852e-001	 2.148933441788862e+000	 6.403362024456968e+000
 4.494036286199950e-001	 2.153610145303287e+000	 6.323385186425414e+000
 4.275679448119763e-001	 2.158051450990382e+000	 6.242184710533233e+000
 6.542203577784720e-001	 2.128386101738172e+000	 7.139770971401084e+000
 6.320712437705345e-001	 2.135068534595499e+000	 7.054858411458057e+000
 6.099124785563529e-001	 2.141503805289619e+000	 6.970131437668584e+000
 5.877479271915753e-001	 2.147692777113644e+000	 6.886661901062057e+000
 5.655814154386809e-001	 2.153636388128806e+000	 6.805101610091255e+000
 5.434167281273361e-001	 2.159335649627190e+000	 6.725724047511468e+000
 5.212576075761130e-001	 2.164791644557400e+000	 6.648460815845713e+000
 4.991077520762680e-001	 2.170005525915713e+000	 6.572933201704670e+000
 4.769708144381596e-001	 2.174978515105310e+000	 6.498479274927247e+000
 4.548504006007771e-001	 2.179711900266135e+000	 6.424176958681782e+000
 4.327500683047372e-001	 2.184207034577925e+000	 6.348863521428672e+000
 6.620545580119923e-001	 2.153873237211714e+000	 7.202818606807965e+000
 6.396402113617532e-001	 2.160635691298096e+000	 7.117761443976949e+000
 6.172160979333151e-001	 2.167148023487771e+000	 7.034167154280884e+000
 5.947861290658582e-001	 2.173411107411672e+000	 6.952909087587047e+000
 5.723541763348633e-001	 2.179425892364188e+000	 6.874460309330195e+000
 5.499240698928331e-001	 2.185193401747493e+000	 6.798933702268579e+000
 5.274995968721120e-001	 2.190714731478355e+000	 6.726116293035502e+000
 5.050844998505067e-001	 2.195991048360028e+000	 6.655498243695774e+000
 4.826824753802985e-001	 2.201023588421832e+000	 6.586296975863326e+000
 4.602971725811209e-001	 2.205813655229016e+000	 6.517476916290938e+000
 4.379321917970661e-001	 2.210362618165464e+000	 6.447765368306790e+000
 6.698887582450617e-001	 2.179360372685457e+000	 7.261010298224242e+000
 6.472091789525045e-001	 2.186202848000890e+000	 7.174848411868460e+000
 6.245197173097914e-001	 2.192792241686111e+000	 7.091513520515069e+000
 6.018243309396364e-001	 2.199129437709874e+000	 7.011687000614836e+000
 5.791269372305237e-001	 2.205215396599727e+000	 6.935624379143734e+000
 5.564314116577933e-001	 2.211051153867931e+000	 6.863244712452352e+000
 5.337415861675627e-001	 2.216637818399421e+000	 6.794162510898181e+000
 5.110612476241907e-001	 2.221976570804427e+000	 6.727713836925625e+000
 4.883941363218828e-001	 2.227068661738413e+000	 6.662977099685099e+000
 4.657439445609177e-001	 2.231915410191926e+000	 6.598789091878458e+000
 4.431143152888640e-001	 2.236518201752999e+000	 6.533756830742416e+000
 6.777229584774968e-001	 2.204847508159331e+000	 7.315349096456782e+000
 6.547781465426102e-001	 2.211770004703814e+000	 7.227146141787178e+000
 6.318233366856110e-001	 2.218436459884577e+000	 7.142631487972959e+000
 6.088625328127469e-001	 2.224847768008192e+000	 7.062857595416459e+000
 5.858996981255067e-001	 2.231004900835369e+000	 6.987829656816053e+000
 5.629387534220697e-001	 2.236908905988459e+000	 6.917246103300214e+000
 5.399835754623272e-001	 2.242560905320560e+000	 6.850527814804070e+000
 5.170379953971918e-001	 2.247962093248883e+000	 6.786840972812986e+000
 4.941057972627936e-001	 2.253113735055029e+000	 6.725114138247001e+000
 4.711907165400582e-001	 2.258017165154852e+000	 6.664050161190551e+000
 4.482964387800322e-001	 2.262673785340533e+000	 6.602133546181089e+000
 6.855571587091146e-001	 2.230334643633273e+000	 7.367252871433368e+000
 6.623471141318938e-001	 2.237337161406804e+000	 7.275976737824398e+000
 6.391269560606028e-001	 2.244080678083104e+000	 7.188307118514351e+000
 6.159007346850257e-001	 2.250566098306568e+000	 7.106633636258621e+000
 5.926724590196567e-001	 2.256794405071064e+000	 7.030684339583980e+000
 5.694460951855147e-001	 2.262766658109031e+000	 6.959916671958438e+000
 5.462255647562676e-001	 2.268483992241738e+000	 6.893543625347291e+000
 5.230147431693810e-001	 2.273947615693367e+000	 6.830552963634797e+000
 4.998174582029119e-001	 2.279158808371665e+000	 6.769720162752718e+000
 4.766374885184339e-001	 2.284118920117789e+000	 6.709615739681664e+000
 4.534785622704716e-001	 2.288829368928065e+000	 6.648607660352973e+000
 4.016573273451569e-001	 2.027273533052570e+000	 5.803470155725370e+000
 3.811698517285161e-001	 2.031225301503230e+000	 5.711157465703336e+000
 3.607074675331575e-001	 2.034958690876767e+000	 5.624890120518979e+000
 3.402733298862165e-001	 2.038475129610468e+000	 5.543394623748144e+000
 3.198705449804655e-001	 2.041776099945052e+000	 5.465311922439867e+000
 2.995021691400967e-001	 2.044863136261900e+000	 5.389223592712313e+000
 2.791712079452243e-001	 2.047737823409130e+000	 5.313677052732981e+000
 2.588806154148092e-001	 2.050401795018658e+000	 5.237210006408299e+000
 2.386332932476166e-001	 2.052856731816378e+000	 5.158374311632095e+000
 2.184320901207317e-001	 2.055104359927540e+000	 5.075759455705309e+000
 1.982798010451052e-001	 2.057146449179369e+000	 4.988015807760339e+000
 4.068394508385930e-001	 2.053429116640149e+000	 5.856107366748773e+000
 3.860876488384815e-001	 2.057431870223552e+000	 5.762909585707151e+000
 3.653612619854609e-001	 2.061213427235205e+000	 5.676957429333013e+000
 3.446634861136527e-001	 2.064775234541886e+000	 5.597048526085779e+000
 3.239974674914737e-001	 2.068118793507961e+000	 5.521868743366990e+000
 3.033663018753617e-001	 2.071245658311171e+000	 5.450016269491540e+000
 2.827730336229843e-001	 2.074157434247109e+000	 5.380024757346683e+000
 2.622206548656227e-001	 2.076855776024568e+000	 5.310385761838862e+000
 2.417121047393329e-001	 2.079342386053916e+000	 5.239570692251042e+000
 2.212502686744141e-001	 2.081619012730616e+000	 5.166052487725405e+000
 2.008379777426382e-001	 2.083687448715941e+000	 5.088327209494662e+000
 4.120215743320919e-001	 2.079584700227718e+000	 5.933526469400528e+000
 3.910054459484762e-001	 2.083638438943773e+000	 5.841914146309905e+000
 3.700150564377691e-001	 2.087468163593456e+000	 5.758350750323410e+000
 3.490536423410803e-001	 2.091075339473030e+000	 5.681697800651073e+000
 3.281243900024696e-001	 2.094461487070513e+000	 5.610680399489684e+000
 3.072304346106214e-001	 2.097628180360005e+000	 5.543908862094647e+000
 2.863748593007571e-001	 2.100577045084578e+000	 5.479899441980431e+000
 2.655606943164766e-001	 2.103309757029900e+000	 5.417094414789206e+000
 2.447909162311281e-001	 2.105828040290817e+000	 5.353881771761649e+000
 2.240684472282249e-001	 2.108133665533004e+000	 5.288614759042695e+000
 2.033961544403598e-001	 2.110228448251783e+000	 5.219631482509040e+000
 4.172036978255548e-001	 2.105740283815280e+000	 6.028252036018553e+000
 3.959232430584104e-001	 2.109845007663906e+000	 5.940149293469179e+000
 3.746688508900027e-001	 2.113722899951540e+000	 5.860575560593804e+000
 3.534437985684283e-001	 2.117375444403932e+000	 5.788455334698993e+000
 3.322513125133900e-001	 2.120804180632748e+000	 5.722553636352879e+000
 3.110945673458185e-001	 2.124010702408456e+000	 5.661494810058498e+000
 2.899766849784881e-001	 2.126996655921599e+000	 5.603780452758403e+000
 2.689007337673182e-001	 2.129763738034729e+000	 5.547806767960767e+000
 2.478697277229483e-001	 2.132313694527165e+000	 5.491881628922115e+000
 2.268866257821052e-001	 2.134648318334801e+000	 5.434241617692718e+000
 2.059543311382028e-001	 2.136769447787005e+000	 5.373069288183693e+000
 4.223858213188826e-001	 2.131895867402835e+000	 6.133304185143878e+000
 4.008410401681958e-001	 2.136051576383963e+000	 6.050075834408387e+000
 3.793226453420824e-001	 2.139977636309478e+000	 5.975602904094901e+000
 3.578339547956261e-001	 2.143675549334621e+000	 5.908878439388623e+000
 3.363782350241716e-001	 2.147146874194709e+000	 5.848714604318414e+000
 3.149587000808950e-001	 2.150393224456572e+000	 5.793758245113967e+000
 2.935785106561237e-001	 2.153416266758236e+000	 5.742505613471610e+000
 2.722407732180950e-001	 2.156217719039128e+000	 5.693316584735769e+000
 2.509485392147394e-001	 2.158799348763049e+000	 5.644428689785815e+000
 2.297048043359962e-001	 2.161162971136105e+000	 5.593971260699379e+000
 2.085125078360999e-001	 2.163310447321717e+000	 5.539979969376121e+000
 4.275679448119763e-001	 2.158051450990382e+000	 6.242184710533233e+000
 4.057588372777426e-001	 2.162258145103952e+000	 6.164624400626543e+000
 3.839764397939287e-001	 2.166232372667292e+000	 6.095857608657977e+000
 3.622241110226025e-001	 2.169975654265129e+000	 6.034958149495381e+000
 3.405051575347509e-001	 2.173489567756436e+000	 5.980799278367786e+000
 3.188228328157938e-001	 2.176775746504410e+000	 5.932065577350150e+000
 2.971803363336101e-001	 2.179835877594552e+000	 5.887264033307837e+000
 2.755808126687545e-001	 2.182671700043172e+000	 5.844734682672567e+000
 2.540273507064469e-001	 2.185285002998553e+000	 5.802661180183633e+000
 2.325229828898389e-001	 2.187677623937013e+000	 5.759081627795741e+000
 2.110706845339838e-001	 2.189851446856028e+000	 5.711899976645145e+000
 4.327500683047372e-001	 2.184207034577925e+000	 6.348863521428672e+000
 4.106766343869625e-001	 2.188464713823888e+000	 6.277182938448598e+000
 3.886302342454617e-001	 2.192487109025002e+000	 6.214206837343379e+000
 3.666142672492871e-001	 2.196275759195488e+000	 6.159108854383742e+000
 3.446320800450644e-001	 2.199832261317972e+000	 6.110844195969005e+000
 3.226869655504569e-001	 2.203158268552019e+000	 6.068157375799143e+000
 3.007821620108935e-001	 2.206255488430609e+000	 6.029589174630103e+000
 2.789208521192439e-001	 2.209125681046935e+000	 5.993483241657917e+000
 2.571061621980170e-001	 2.211770657233760e+000	 5.957992736183405e+000
 2.353411614435743e-001	 2.214192276737622e+000	 5.921087384893120e+000
 2.136288612317871e-001	 2.216392446390048e+000	 5.880561304195169e+000
 4.379321917970661e-001	 2.210362618165464e+000	 6.447765368306792e+000
 4.155944314957661e-001	 2.214671282543780e+000	 6.381584499988183e+000
 3.932840286966023e-001	 2.218741845382629e+000	 6.323948946415430e+000
 3.710044234756087e-001	 2.222575864125727e+000	 6.274158232803070e+000
 3.487590025550489e-001	 2.226174954879359e+000	 6.231277486660933e+000
 3.265510982848270e-001	 2.229540790599451e+000	 6.194140519058839e+000
 3.043839876879196e-001	 2.232675099266471e+000	 6.161352159261061e+000
 2.822608915695107e-001	 2.235579662050491e+000	 6.131290308933982e+000
 2.601849736893954e-001	 2.238256311468759e+000	 6.102108159441259e+000
 2.381593399971435e-001	 2.240706929538030e+000	 6.071736989866222e+000
 2.161870379294426e-001	 2.242933445923886e+000	 6.037889934741656e+000
 4.431143152888640e-001	 2.236518201752999e+000	 6.533756830742416e+000
 4.205122286040645e-001	 2.240877851263638e+000	 6.472095309936787e+000
 3.979378231472710e-001	 2.244996581740196e+000	 6.418802624846687e+000
 3.753945797014967e-001	 2.248875969055882e+000	 6.373337466639637e+000
 3.528859250646412e-001	 2.252517648440637e+000	 6.334910169480436e+000
 3.304152310188463e-001	 2.255923312646761e+000	 6.302480593849532e+000
 3.079858133646348e-001	 2.259094710102200e+000	 6.274755293756423e+000
 2.856009310195024e-001	 2.262033643053914e+000	 6.250184484888610e+000
 2.632637851805277e-001	 2.264741965703632e+000	 6.226959305584559e+000
 2.409775185504876e-001	 2.267221582338333e+000	 6.203009833917298e+000
 2.187452146268828e-001	 2.269474445457651e+000	 6.176004292563420e+000
 4.482964387800322e-001	 2.262673785340533e+000	 6.602133546181089e+000
 4.254300257117685e-001	 2.267084419983474e+000	 6.543403085862285e+000
 4.025916175973881e-001	 2.271251318097723e+000	 6.492896292573761e+000
 3.797847359268805e-001	 2.275176073985980e+000	 6.450271711053893e+000
 3.570128475737776e-001	 2.278860342001849e+000	 6.414927696561097e+000
 3.342793637524572e-001	 2.282305834693997e+000	 6.385994521443482e+000
 3.115876390409853e-001	 2.285514320937858e+000	 6.362325795944129e+000
 2.889409704691662e-001	 2.288487624057277e+000	 6.342489774981013e+000
 2.663425966713602e-001	 2.291227619938468e+000	 6.324761094864671e+000
 2.437956971035476e-001	 2.293736235138629e+000	 6.307113452404329e+000
 2.213033913240406e-001	 2.296015444991454e+000	 6.287213704084911e+000
 4.534785622704716e-001	 2.288829368928065e+000	 6.648607660352973e+000
 4.303478228187894e-001	 2.293290988703301e+000	 6.590605591743063e+000
 4.072454120468742e-001	 2.297506054455230e+000	 6.540757736812261e+000
 3.841748921516889e-001	 2.301476178916054e+000	 6.498970800500992e+000
 3.611397700823948e-001	 2.305203035563035e+000	 6.464881723214589e+000
 3.381434964856022e-001	 2.308688356741214e+000	 6.437843393744189e+000
 3.151894647169172e-001	 2.311933931773511e+000	 6.416909706636073e+000
 2.922810099184495e-001	 2.314941605060654e+000	 6.400820594517260e+000
 2.694214081618384e-001	 2.317713274173349e+000	 6.387987635300560e+000
 2.466138756562645e-001	 2.320250887939014e+000	 6.376480799577482e+000
 2.238615680208486e-001	 2.322556444525402e+000	 6.364016865382284e+000
 1.982798010451052e-001	 2.057146449179369e+000	 4.988015807760338e+000
 1.781761623850336e-001	 2.058985072062221e+000	 4.902007424037724e+000
 1.581269227520513e-001	 2.060621760190973e+000	 4.823807499590526e+000
 1.381347544218765e-001	 2.062058405639229e+000	 4.751019924873297e+000
 1.182022727019177e-001	 2.063296937449552e+000	 4.681431128189511e+000
 9.833203556797766e-002	 2.064339319933258e+000	 4.613036667405384e+000
 7.852654335463237e-002	 2.065187550979181e+000	 4.544068145727856e+000
 5.878823849825383e-002	 2.065843660373091e+000	 4.473020506314460e+000
 3.911950533160152e-002	 2.066309708129337e+000	 4.398679743278005e+000
 1.952266992886609e-002	 2.066587782836232e+000	 4.320151049701575e+000
 0.000000000000000e+000	 2.066680000016667e+000	 4.236887397287231e+000
 2.008379777426382e-001	 2.083687448715941e+000	 5.088327209494658e+000
 1.804749649069134e-001	 2.085549793239212e+000	 5.013206674935868e+000
 1.601670529465028e-001	 2.087207597675990e+000	 4.946932361478119e+000
 1.399169486144204e-001	 2.088662778511150e+000	 4.887222976417021e+000
 1.197273009603743e-001	 2.089917289675494e+000	 4.831929302688042e+000
 9.960070096278301e-002	 2.090973120823608e+000	 4.779059771651274e+000
 7.953968121516011e-002	 2.091832295620812e+000	 4.726806621512509e+000
 5.954671566582075e-002	 2.092496870040883e+000	 4.673572704931849e+000
 3.962421940982393e-002	 2.092968930676188e+000	 4.617998989910102e+000
 1.977454853201639e-002	 2.093250593061714e+000	 4.558992778860335e+000
 0.000000000000000e+000	 2.093344000014533e+000	 4.495756640667404e+000
 2.033961544403598e-001	 2.110228448251783e+000	 5.219631482509036e+000
 1.827737674290516e-001	 2.112114514415441e+000	 5.153658654239027e+000
 1.622071831412844e-001	 2.113793435160225e+000	 5.097067651931707e+000
 1.416991428073602e-001	 2.115267151382274e+000	 5.047677857537350e+000
 1.212523292192780e-001	 2.116537641900631e+000	 5.003388741303190e+000
 1.008693663580642e-001	 2.117606921713150e+000	 4.962204160050788e+000
 8.055281907616133e-002	 2.118477040261631e+000	 4.922257522078460e+000
 6.030519283382028e-002	 2.119150079707866e+000	 4.881837892150448e+000
 4.012893348839152e-002	 2.119628153222235e+000	 4.839417088145091e+000
 2.002642713537015e-002	 2.119913403286397e+000	 4.793677799347943e+000
 0.000000000000000e+000	 2.120008000011600e+000	 4.743542722065895e+000
 2.059543311382028e-001	 2.136769447787005e+000	 5.373069288183693e+000
 1.850725699513690e-001	 2.138679235591033e+000	 5.314981386145252e+000
 1.642473133363036e-001	 2.140379272643812e+000	 5.266448693040876e+000
 1.434813370005900e-001	 2.141871524252748e+000	 5.225382912829282e+000
 1.227773574785129e-001	 2.143157994125120e+000	 5.189722096408360e+000
 1.021380317536997e-001	 2.144240722602053e+000	 5.157453387683009e+000
 8.156595693751645e-002	 2.145121784901822e+000	 5.126636937978542e+000
 6.106367000214374e-002	 2.145803289374232e+000	 5.095431073386274e+000
 4.063364756721779e-002	 2.146287375767672e+000	 5.062118775101034e+000
 2.027830573887649e-002	 2.146576213510476e+000	 5.025135508647919e+000
 0.000000000000000e+000	 2.146672000008067e+000	 4.983098399292654e+000
 2.085125078360999e-001	 2.163310447321717e+000	 5.539979969376129e+000
 1.873713724737861e-001	 2.165243956766109e+000	 5.488944851999753e+000
 1.662874435314673e-001	 2.166965110126885e+000	 5.447413602296398e+000
 1.452635311940043e-001	 2.168475897122718e+000	 5.413387892068426e+000
 1.243023857379628e-001	 2.169778346349123e+000	 5.384840015829567e+000
 1.034066971495681e-001	 2.170874523490486e+000	 5.359733783785189e+000
 8.257909479910586e-002	 2.171766529541564e+000	 5.336046906983078e+000
 6.182214717068246e-002	 2.172456499040166e+000	 5.311794971614573e+000
 4.113836164621634e-002	 2.172946598312695e+000	 5.285057072098196e+000
 2.053018434248453e-002	 2.173239023734152e+000	 5.254003145630571e+000
 0.000000000000000e+000	 2.173336000004134e+000	 5.216923007908181e+000
 2.110706845339838e-001	 2.189851446856028e+000	 5.711899976645145e+000
 1.896701749962240e-001	 2.191808677940790e+000	 5.667471055527962e+000
 1.683275737266829e-001	 2.193550947609579e+000	 5.632405118574163e+000
 1.470457253874970e-001	 2.195080269992333e+000	 5.604797668296405e+000
 1.258274139975116e-001	 2.196398698572797e+000	 5.582656893869502e+000
 1.046753625455481e-001	 2.197508324378621e+000	 5.563922385904668e+000
 8.359223266080985e-002	 2.198411274181037e+000	 5.546485690730395e+000
 6.258062433932776e-002	 2.199109708705858e+000	 5.528212814895001e+000
 4.164307572530071e-002	 2.199605820857498e+000	 5.506968760242475e+000
 2.078206294614337e-002	 2.199901833957623e+000	 5.480644139972100e+000
 0.000000000000000e+000	 2.200000000000001e+000	 5.447183878613717e+000
 2.136288612317871e-001	 2.216392446390048e+000	 5.880561304195165e+000
 1.919689775186034e-001	 2.218373399115199e+000	 5.842634005278855e+000
 1.703677039218575e-001	 2.220136785092031e+000	 5.813972239643384e+000
 1.488279195809624e-001	 2.221684642861741e+000	 5.792775648296471e+000
 1.273524422570433e-001	 2.223019050796304e+000	 5.777096181875518e+000
 1.059440279415181e-001	 2.224142125266629e+000	 5.764854286779062e+000
 8.460537052250881e-002	 2.225056018820421e+000	 5.753857303085449e+000
 6.333910150797092e-002	 2.225762918371497e+000	 5.741820200151871e+000
 4.214778980438445e-002	 2.226265043402274e+000	 5.726388742162224e+000
 2.103394154980214e-002	 2.226564644181086e+000	 5.705165142764783e+000
 0.000000000000000e+000	 2.226663999995867e+000	 5.675736215818045e+000
 2.161870379294426e-001	 2.242933445923886e+000	 6.037889934741664e+000
 1.942677800408450e-001	 2.244938120289457e+000	 6.006659621138685e+000
 1.724078341168984e-001	 2.246722622574373e+000	 5.984771686812959e+000
 1.506101137742947e-001	 2.248289015731089e+000	 5.970546900936630e+000
 1.288774705164417e-001	 2.249639403019801e+000	 5.962095294831542e+000
 1.072126933373569e-001	 2.250775926154679e+000	 5.957329442588074e+000
 8.561850838408310e-002	 2.251700763459898e+000	 5.953980352191320e+000
 6.409757867650329e-002	 2.252416128037270e+000	 5.949616109728953e+000
 4.265250388338113e-002	 2.252924265947220e+000	 5.941663382160480e+000
 2.128582015340993e-002	 2.253227454404740e+000	 5.927431847557812e+000
 0.000000000000000e+000	 2.253327999991934e+000	 5.904141564848782e+000
 2.187452146268828e-001	 2.269474445457651e+000	 6.176004292563416e+000
 1.965665825628697e-001	 2.271502841463688e+000	 6.151925571129593e+000
 1.744479643117127e-001	 2.273308460056742e+000	 6.137569210866975e+000
 1.523923079673879e-001	 2.274893388600523e+000	 6.131401026482688e+000
 1.304024987755909e-001	 2.276259755243449e+000	 6.131610147047191e+000
 1.084813587329429e-001	 2.277409727042943e+000	 6.136118986673793e+000
 8.663164624541299e-002	 2.278345508099645e+000	 6.142596252393092e+000
 6.485605584481614e-002	 2.279069337703367e+000	 6.148473150070947e+000
 4.315721796220429e-002	 2.279583488492531e+000	 6.150962908411247e+000
 2.153769875691588e-002	 2.279890264628786e+000	 6.147083700850605e+000
 0.000000000000000e+000	 2.279991999988401e+000	 6.133684983341892e+000
 2.213033913240406e-001	 2.296015444991454e+000	 6.287213704084914e+000
 1.988653850845983e-001	 2.298067562638013e+000	 6.270961044136791e+000
 1.764880945062078e-001	 2.299894297539273e+000	 6.265240752131006e+000
 1.541745021601364e-001	 2.301497761470192e+000	 6.268694787835282e+000
 1.319275270343746e-001	 2.302880107467406e+000	 6.279619346954322e+000
 1.097500241281549e-001	 2.304043527931590e+000	 6.295971088742146e+000
 8.764478410637891e-002	 2.304990252739845e+000	 6.315376857030201e+000
 6.561453301280085e-002	 2.305722547369975e+000	 6.335147075480344e+000
 4.366193204076749e-002	 2.306242711038399e+000	 6.352292953098822e+000
 2.178957736026910e-002	 2.306553074853420e+000	 6.363547591897139e+000
 0.000000000000000e+000	 2.306655999985467e+000	 6.365391021667704e+000
 2.238615680208486e-001	 2.322556444525402e+000	 6.364016865382278e+000
 2.011641876059516e-001	 2.324632283812556e+000	 6.356446463689314e+000
 1.785282247002906e-001	 2.326480135022100e+000	 6.360773466340124e+000
 1.559566963524342e-001	 2.328102134340242e+000	 6.375854522739012e+000
 1.334525552926767e-001	 2.329500459691833e+000	 6.400128078283279e+000
 1.110186895228712e-001	 2.330677328820791e+000	 6.431616395907446e+000
 8.865792196686122e-002	 2.331634997380677e+000	 6.467931558413666e+000
 6.637301018034868e-002	 2.332375757037283e+000	 6.506285654132446e+000
 4.416664611898429e-002	 2.332901933585021e+000	 6.543505299457868e+000
 2.204145596341870e-002	 2.333215885078842e+000	 6.576050603472393e+000
 0.000000000000000e+000	 2.333319999983334e+000	 6.600038607660026e+000
 2.333319999983334e+000	 0.000000000000000e+000	 1.164456307768761e+001
 2.333215885078842e+000	 2.204145596341876e-002	 1.160321714024203e+001
 2.332901933585021e+000	 4.416664611898443e-002	 1.158298358770510e+001
 2.332375757037283e+000	 6.637301018034852e-002	 1.157914082832651e+001
 2.331634997380677e+000	 8.865792196686113e-002	 1.158715199771841e+001
 2.330677328820791e+000	 1.110186895228712e-001	 1.160267657962409e+001
 2.329500459691833e+000	 1.334525552926768e-001	 1.162158088392335e+001
 2.328102134340243e+000	 1.559566963524343e-001	 1.163994738826587e+001
 2.326480135022099e+000	 1.785282247002904e-001	 1.165408297502379e+001
 2.324632283812556e+000	 2.011641876059514e-001	 1.166052610763504e+001
 2.322556444525403e+000	 2.238615680208486e-001	 1.165605300284219e+001
 2.359987999982150e+000	 0.000000000000000e+000	 1.157652208760049e+001
 2.359882695126717e+000	 2.229337235189980e-002	 1.154037942338681e+001
 2.359565155415852e+000	 4.467143591148032e-002	 1.152496656872505e+001
 2.359032965086723e+000	 6.713160113034042e-002	 1.152549798329507e+001
 2.358283739133689e+000	 8.967121181265775e-002	 1.153740124266641e+001
 2.357315125180361e+000	 1.122875452358524e-001	 1.155632798210667e+001
 2.356124805369035e+000	 1.349778123275370e-001	 1.157816354341923e+001
 2.354710498265832e+000	 1.577391579000762e-001	 1.159903533565891e+001
 2.353069960779785e+000	 1.805686609440348e-001	 1.161531994685501e+001
 2.351200990094103e+000	 2.034633349817420e-001	 1.162364905743426e+001
 2.349101425607677e+000	 2.264201284821455e-001	 1.162091421964186e+001
 2.386655999981866e+000	 0.000000000000000e+000	 1.152189974721061e+001
 2.386549505175481e+000	 2.254528874017717e-002	 1.148904530284117e+001
 2.386228377247541e+000	 4.517622570362982e-002	 1.147668153423540e+001
 2.385690173136973e+000	 6.789019207989576e-002	 1.147995555430276e+001
 2.384932480887448e+000	 9.068450165797154e-002	 1.149425765852533e+001
 2.383952921540606e+000	 1.135564009483399e-001	 1.151523151029353e+001
 2.382749151046835e+000	 1.365030693619190e-001	 1.153878286560616e+001
 2.381318862191934e+000	 1.595216194472729e-001	 1.156108685285719e+001
 2.379659786537899e+000	 1.826090971873751e-001	 1.157859385074779e+001
 2.377769696375999e+000	 2.057624823571689e-001	 1.158803402216825e+001
 2.375646406690224e+000	 2.289786889431086e-001	 1.158642057675915e+001
 2.413323999982383e+000	 0.000000000000000e+000	 1.148087642787493e+001
 2.413216315225037e+000	 2.279720512830178e-002	 1.144957386588730e+001
 2.412891599079999e+000	 4.568101549551953e-002	 1.143863273450320e+001
 2.412347381187954e+000	 6.864878302912364e-002	 1.144313214900011e+001
 2.411581222641890e+000	 9.169779150292323e-002	 1.145842624305525e+001
 2.410590717901479e+000	 1.148252566604571e-001	 1.148015350576784e+001
 2.409373496725197e+000	 1.380283263959423e-001	 1.150424448440223e+001
 2.407927226118532e+000	 1.613040809941355e-001	 1.152692787389098e+001
 2.406249612296439e+000	 1.846495334304123e-001	 1.154473504253709e+001
 2.404338402658252e+000	 2.080616297323231e-001	 1.155450305948373e+001
 2.402191387773061e+000	 2.315372494038215e-001	 1.155337630571289e+001
 2.439991999983599e+000	 0.000000000000000e+000	 1.145387163584162e+001
 2.439883125275288e+000	 2.304912151632456e-002	 1.142253935563158e+001
 2.439554820913136e+000	 4.618580528723603e-002	 1.141151538662336e+001
 2.439004589239588e+000	 6.940737397813324e-002	 1.141581299247912e+001
 2.438229964396953e+000	 9.271108134763358e-002	 1.143075415239087e+001
 2.437228514262929e+000	 1.160941123723274e-001	 1.145197795134137e+001
 2.435997842404091e+000	 1.395535834297265e-001	 1.147544715193607e+001
 2.434535590045607e+000	 1.630865425407754e-001	 1.149745297462174e+001
 2.432839438055403e+000	 1.866899696732476e-001	 1.151461814265404e+001
 2.430907108940868e+000	 2.103607771072954e-001	 1.152389826570915e+001
 2.428736368856203e+000	 2.340958098643674e-001	 1.152258165363246e+001
 2.466659999985416e+000	 0.000000000000000e+000	 1.144153108535982e+001
 2.466549935326134e+000	 2.330103790429640e-002	 1.140871890610904e+001
 2.466218042746860e+000	 4.669059507886593e-002	 1.139620407869200e+001
 2.465661797291797e+000	 7.016596492703370e-002	 1.139893901121148e+001
 2.464878706152569e+000	 9.372437119222317e-002	 1.141222047907720e+001
 2.463866310624908e+000	 1.173629680840743e-001	 1.143169696117516e+001
 2.462622188083482e+000	 1.410788404633911e-001	 1.145337396240132e+001
 2.461143953973147e+000	 1.648690040873041e-001	 1.147361735564393e+001
 2.459429263814787e+000	 1.887304059159818e-001	 1.148915480704631e+001
 2.457475815223860e+000	 2.126599244821766e-001	 1.149707536741198e+001
 2.455281349939667e+000	 2.366543703248298e-001	 1.149482733169303e+001
 2.493327999987733e+000	 0.000000000000000e+000	 1.144471460136747e+001
 2.493216745377482e+000	 2.355295429226825e-002	 1.140908106483987e+001
 2.492881264581083e+000	 4.719538487049581e-002	 1.139374191964166e+001
 2.492319005344500e+000	 7.092455587593410e-002	 1.139359662105224e+001
 2.491527447908675e+000	 9.473766103681273e-002	 1.140392669263988e+001
 2.490504106987368e+000	 1.186318237958211e-001	 1.142040189183357e+001
 2.489246533763340e+000	 1.426040974970558e-001	 1.143908415503992e+001
 2.487752317901132e+000	 1.666514656338327e-001	 1.145642936216805e+001
 2.486019089574589e+000	 1.907708421587160e-001	 1.146928699245179e+001
 2.484044521507234e+000	 2.149590718570578e-001	 1.147489776406091e+001
 2.481826331023469e+000	 2.392129307852923e-001	 1.147088937064985e+001
 2.519995999990449e+000	 0.000000000000000e+000	 1.146448479030102e+001
 2.519883555429231e+000	 2.380487068029099e-002	 1.142477504450692e+001
 2.519544486415716e+000	 4.770017466221225e-002	 1.140533037949703e+001
 2.518976213397622e+000	 7.168314682494363e-002	 1.140100816715166e+001
 2.518176189665208e+000	 9.575095088152302e-002	 1.140708769361170e+001
 2.517141903350260e+000	 1.199006795076914e-001	 1.141927502827856e+001
 2.515870879443631e+000	 1.441293545308398e-001	 1.143370545335445e+001
 2.514360681829545e+000	 1.684339271804727e-001	 1.144694350110535e+001
 2.512608915334807e+000	 1.928112784015512e-001	 1.145598067940290e+001
 2.510613227791000e+000	 2.172582192320301e-001	 1.145823098837430e+001
 2.508371312107629e+000	 2.417714912458381e-001	 1.145152435331286e+001
 2.546663999993466e+000	 0.000000000000000e+000	 1.150209642272428e+001
 2.546550365481286e+000	 2.405678706841556e-002	 1.145712065030480e+001
 2.546207708250668e+000	 4.820496445410191e-002	 1.143231976944482e+001
 2.545633421451082e+000	 7.244173777417141e-002	 1.142252296799217e+001
 2.544824931422100e+000	 9.676424072647459e-002	 1.142302343604837e+001
 2.543779699713533e+000	 1.211695352198085e-001	 1.142958180265494e+001
 2.542495225124322e+000	 1.456546115648631e-001	 1.143842690124212e+001
 2.540969045758369e+000	 1.702163887273352e-001	 1.144625391890953e+001
 2.539198741095438e+000	 1.948517146445884e-001	 1.145022001940941e+001
 2.537181934075167e+000	 2.195573666071841e-001	 1.144793755373847e+001
 2.534916293192159e+000	 2.443300517065509e-001	 1.143746499633175e+001
 2.573331999996683e+000	 0.000000000000000e+000	 1.155898647613729e+001
 2.573217175533549e+000	 2.430870345669286e-002	 1.150759883395035e+001
 2.572870930085849e+000	 4.870975424625130e-002	 1.147620031530349e+001
 2.572290629504804e+000	 7.320032872372663e-002	 1.145960891972097e+001
 2.571473673179290e+000	 9.777753057178830e-002	 1.145315107729114e+001
 2.570417496077141e+000	 1.224383909322958e-001	 1.145266350722021e+001
 2.569119570805381e+000	 1.471798685992449e-001	 1.145449216000225e+001
 2.567577409687590e+000	 1.719988502745317e-001	 1.145548830674854e+001
 2.565788566856480e+000	 1.968921508879285e-001	 1.145300187554732e+001
 2.563750640359744e+000	 2.218565139826109e-001	 1.144487216061499e+001
 2.561461274277079e+000	 2.468886121675139e-001	 1.142941605594958e+001
 2.600000000000000e+000	 0.000000000000000e+000	 1.163676479056725e+001
 2.599883985585924e+000	 2.456061984517381e-002	 1.157784282935550e+001
 2.599534151921172e+000	 4.921454403874706e-002	 1.153859378178684e+001
 2.598947837558706e+000	 7.395891967371834e-002	 1.151384462055495e+001
 2.598122414936712e+000	 9.879082041758469e-002	 1.149897761712286e+001
 2.597055292441034e+000	 1.237072466452768e-001	 1.148993046593780e+001
 2.595743916486777e+000	 1.487051256341049e-001	 1.148319323312791e+001
 2.594185773617187e+000	 1.737813118221734e-001	 1.147580220232771e+001
 2.592378392617928e+000	 1.989325871316728e-001	 1.146533072820967e+001
 2.590319346644739e+000	 2.241556613584015e-001	 1.144987723616321e+001
 2.588006255362404e+000	 2.494471726288108e-001	 1.142805053446519e+001
 2.322556444525403e+000	 2.238615680208486e-001	 1.165605300284219e+001
 2.320250887939015e+000	 2.466138756562646e-001	 1.165231448120260e+001
 2.317713274173349e+000	 2.694214081618382e-001	 1.166081853572864e+001
 2.314941605060654e+000	 2.922810099184495e-001	 1.167847430110961e+001
 2.311933931773511e+000	 3.151894647169170e-001	 1.170240730345565e+001
 2.308688356741215e+000	 3.381434964856023e-001	 1.172996173325879e+001
 2.305203035563035e+000	 3.611397700823949e-001	 1.175870234670063e+001
 2.301476178916054e+000	 3.841748921516888e-001	 1.178641613171918e+001
 2.297506054455230e+000	 4.072454120468744e-001	 1.181111388373754e+001
 2.293290988703300e+000	 4.303478228187891e-001	 1.183103184338915e+001
 2.288829368928065e+000	 4.534785622704716e-001	 1.184463355482790e+001
 2.349101425607677e+000	 2.264201284821455e-001	 1.162091421964187e+001
 2.346769518335254e+000	 2.494324769776625e-001	 1.161860197259642e+001
 2.344202901653812e+000	 2.725006815198410e-001	 1.162800909191899e+001
 2.341399554558111e+000	 2.956215504233459e-001	 1.164611433797237e+001
 2.338357505947168e+000	 3.187918307202850e-001	 1.167012448800084e+001
 2.335074836562539e+000	 3.420082088961281e-001	 1.169747480386291e+001
 2.331549680923443e+000	 3.652673116907452e-001	 1.172582907745390e+001
 2.327780229256406e+000	 3.885657069651761e-001	 1.175307940555007e+001
 2.323764729417043e+000	 4.118999046346667e-001	 1.177734585511931e+001
 2.319501488801562e+000	 4.352663576684167e-001	 1.179697618831004e+001
 2.314988876245497e+000	 4.586614631563876e-001	 1.181054582322308e+001
 2.375646406690224e+000	 2.289786889431086e-001	 1.158642057675914e+001
 2.373288148731701e+000	 2.522510782987388e-001	 1.158504171768692e+001
 2.370692529134423e+000	 2.755799548775168e-001	 1.159494138292537e+001
 2.367857504055670e+000	 2.989620909278955e-001	 1.161316395636824e+001
 2.364781080120887e+000	 3.223941967232736e-001	 1.163699344636970e+001
 2.361461316383892e+000	 3.458729213062330e-001	 1.166395200893409e+001
 2.357896326283851e+000	 3.693948532986258e-001	 1.169179799675962e+001
 2.354084279596734e+000	 3.929565217781407e-001	 1.171852370224963e+001
 2.350023404378815e+000	 4.165543972218820e-001	 1.174235297278930e+001
 2.345711988899768e+000	 4.401848925174142e-001	 1.176173888552836e+001
 2.341148383562864e+000	 4.638443640416253e-001	 1.177536167647447e+001
 2.402191387773061e+000	 2.315372494038215e-001	 1.155337630571288e+001
 2.399806779128375e+000	 2.550696796195738e-001	 1.155240913577332e+001
 2.397182156615205e+000	 2.786592282349472e-001	 1.156234981371656e+001
 2.394315453553343e+000	 3.023026314321842e-001	 1.158030793493581e+001
 2.391204654294674e+000	 3.259965627259768e-001	 1.160364430800527e+001
 2.387847796205268e+000	 3.497376337160196e-001	 1.162996738189460e+001
 2.384242971644243e+000	 3.735223949061500e-001	 1.165712914587570e+001
 2.380388329937012e+000	 3.973473365907070e-001	 1.168322068774186e+001
 2.376282079340506e+000	 4.212088898086548e-001	 1.170656760705524e+001
 2.371922488997865e+000	 4.451034273659248e-001	 1.172572548990418e+001
 2.367307890880099e+000	 4.690272649263335e-001	 1.173947565992339e+001
 2.428736368856203e+000	 2.340958098643674e-001	 1.152258165363246e+001
 2.426325409525294e+000	 2.578882809402479e-001	 1.152145210006269e+001
 2.423671784096173e+000	 2.817385015922139e-001	 1.153091838239016e+001
 2.420773403051145e+000	 3.056431719362983e-001	 1.154815851703106e+001
 2.417628228468532e+000	 3.295989287284877e-001	 1.157061329995373e+001
 2.414234276026662e+000	 3.536023461255909e-001	 1.159598047401689e+001
 2.410589617004602e+000	 3.776499365134308e-001	 1.162220831437698e+001
 2.406692380277210e+000	 4.017381514029980e-001	 1.164748883626175e+001
 2.402540754302072e+000	 4.258633823951184e-001	 1.167025084147591e+001
 2.398132989095801e+000	 4.500219622140910e-001	 1.168915303063243e+001
 2.393467398197139e+000	 4.742101658106620e-001	 1.170307741712401e+001
 2.455281349939667e+000	 2.366543703248298e-001	 1.149482733169304e+001
 2.452844039922479e+000	 2.607068822608415e-001	 1.149288627163155e+001
 2.450161411577347e+000	 2.848177749493983e-001	 1.150127692150506e+001
 2.447231352549091e+000	 3.089837124403242e-001	 1.151725258565992e+001
 2.444051802642469e+000	 3.332012947309000e-001	 1.153834088598001e+001
 2.440620755848070e+000	 3.574670585350495e-001	 1.156233549263211e+001
 2.436936262364911e+000	 3.817774781205810e-001	 1.158728721664792e+001
 2.432996430617297e+000	 4.061289662151378e-001	 1.161149468855656e+001
 2.428799429263472e+000	 4.305178749814069e-001	 1.163349486037062e+001
 2.424343489193518e+000	 4.549404970620558e-001	 1.165205357976829e+001
 2.419626905513916e+000	 4.793930666947602e-001	 1.166615649512588e+001
 2.481826331023469e+000	 2.392129307852923e-001	 1.147088937064985e+001
 2.479362670319949e+000	 2.635254835814351e-001	 1.146739079629900e+001
 2.476651039058744e+000	 2.878970483065821e-001	 1.147399765848416e+001
 2.473689302047192e+000	 3.123242529443478e-001	 1.148804911378494e+001
 2.470475376816489e+000	 3.368036607333074e-001	 1.150717013731610e+001
 2.467007235669486e+000	 3.613317709444980e-001	 1.152926062697990e+001
 2.463282907725154e+000	 3.859050197277140e-001	 1.155248381157637e+001
 2.459300480957246e+000	 4.105197810272501e-001	 1.157525420819645e+001
 2.455058104224664e+000	 4.351723675676544e-001	 1.159622538848965e+001
 2.450553989290963e+000	 4.598590319099618e-001	 1.161427782590332e+001
 2.445786412830364e+000	 4.845759675787774e-001	 1.162850710662960e+001
 2.508371312107629e+000	 2.417714912458381e-001	 1.145152435331287e+001
 2.505881300717724e+000	 2.663440849021089e-001	 1.144560433752620e+001
 2.503140666540384e+000	 2.909763216638469e-001	 1.144959207144698e+001
 2.500147251545462e+000	 3.156647934484557e-001	 1.146092686960721e+001
 2.496898950990597e+000	 3.404060267358030e-001	 1.147734531788195e+001
 2.493393715490908e+000	 3.651964833540393e-001	 1.149686754779894e+001
 2.489629553085315e+000	 3.900325613349428e-001	 1.151778275483983e+001
 2.485604531297026e+000	 4.149105958394586e-001	 1.153863422872415e+001
 2.481316779185606e+000	 4.398268601539944e-001	 1.155820417897855e+001
 2.476764489388081e+000	 4.647775667579515e-001	 1.157549865260878e+001
 2.471945920146419e+000	 4.897588684628632e-001	 1.158973285220956e+001
 2.534916293192159e+000	 2.443300517065509e-001	 1.143746499633175e+001
 2.532399931115824e+000	 2.691626862229434e-001	 1.142812142071035e+001
 2.529630294022282e+000	 2.940555950212740e-001	 1.142850801881882e+001
 2.526605201043915e+000	 3.190053339527335e-001	 1.143618235813180e+001
 2.523322525164801e+000	 3.440083927384807e-001	 1.144901066825612e+001
 2.519780195312328e+000	 3.690611957637762e-001	 1.146515106792096e+001
 2.515976198445378e+000	 3.941601029423806e-001	 1.148303597406222e+001
 2.511908581636609e+000	 4.193014106518870e-001	 1.150135398498449e+001
 2.507575454146253e+000	 4.444813527405609e-001	 1.151903154609602e+001
 2.502974989484819e+000	 4.696961016061680e-001	 1.153521472129521e+001
 2.498105427462015e+000	 4.949417693471667e-001	 1.154925140552866e+001
 2.561461274277079e+000	 2.468886121675139e-001	 1.142941605594958e+001
 2.558918561514267e+000	 2.719812875440190e-001	 1.141548906628260e+001
 2.556119921504460e+000	 2.971348683789455e-001	 1.141112712285263e+001
 2.553063150542562e+000	 3.223458744572679e-001	 1.141402798187452e+001
 2.549746099339105e+000	 3.476107587414337e-001	 1.142220937397778e+001
 2.546166675133743e+000	 3.729259081738113e-001	 1.143398895218678e+001
 2.542322843805324e+000	 3.982876445501403e-001	 1.144796335792704e+001
 2.538212631975964e+000	 4.236922254646593e-001	 1.146298672252438e+001
 2.533834129106566e+000	 4.491358453274881e-001	 1.147814893943568e+001
 2.529185489581120e+000	 4.746146364547536e-001	 1.149275405816534e+001
 2.524264934777087e+000	 5.001246702318375e-001	 1.150629916422811e+001
 2.588006255362404e+000	 2.494471726288108e-001	 1.142805053446518e+001
 2.585437191913076e+000	 2.747998888654162e-001	 1.140820369087470e+001
 2.582609548986936e+000	 3.002141417369426e-001	 1.139776238883420e+001
 2.579521100041420e+000	 3.256864149621451e-001	 1.139459040497623e+001
 2.576169673513514e+000	 3.512131247447558e-001	 1.139688270494378e+001
 2.572553154955151e+000	 3.767906205842475e-001	 1.140314186596270e+001
 2.568669489165140e+000	 4.024151861583352e-001	 1.141215355106364e+001
 2.564516682315065e+000	 4.280830402778990e-001	 1.142296137945690e+001
 2.560092804066504e+000	 4.537903379149099e-001	 1.143484155667136e+001
 2.555395989676932e+000	 4.795331713038518e-001	 1.144727764496611e+001
 2.550424442091569e+000	 5.053075711170251e-001	 1.145993586895542e+001
 2.288829368928065e+000	 4.534785622704716e-001	 1.184463355482791e+001
 2.284118920117788e+000	 4.766374885184339e-001	 1.185771033376050e+001
 2.279158808371665e+000	 4.998174582029122e-001	 1.187581782368163e+001
 2.273947615693367e+000	 5.230147431693808e-001	 1.189738942181609e+001
 2.268483992241738e+000	 5.462255647562675e-001	 1.192105857251444e+001
 2.262766658109032e+000	 5.694460951855148e-001	 1.194566463363002e+001
 2.256794405071063e+000	 5.926724590196567e-001	 1.197026004038994e+001
 2.250566098306568e+000	 6.159007346850259e-001	 1.199411892785993e+001
 2.244080678083104e+000	 6.391269560606027e-001	 1.201674736607136e+001
 2.237337161406804e+000	 6.623471141318938e-001	 1.203789535290007e+001
 2.230334643633273e+000	 6.855571587091147e-001	 1.206079267816485e+001
 2.314988876245497e+000	 4.586614631563876e-001	 1.181054582322308e+001
 2.310224590735523e+000	 4.820850775934856e-001	 1.182356291255704e+001
 2.305207788840002e+000	 5.055299759769892e-001	 1.184123509162974e+001
 2.299937036356030e+000	 5.289923875425029e-001	 1.186200428842079e+001
 2.294410968014828e+000	 5.524684904413271e-001	 1.188450423987210e+001
 2.288628289280320e+000	 5.759544131469154e-001	 1.190756495212424e+001
 2.282587778119268e+000	 5.994462359286034e-001	 1.193021859159185e+001
 2.276288286740297e+000	 6.229399923922245e-001	 1.195170698637627e+001
 2.269728743299059e+000	 6.464316710871186e-001	 1.197149091001993e+001
 2.262908153566842e+000	 6.699172171789136e-001	 1.198935616863962e+001
 2.255825602559878e+000	 6.933925341873451e-001	 1.201174606824143e+001
 2.341148383562864e+000	 4.638443640416253e-001	 1.177536167647448e+001
 2.336330261353183e+000	 4.875326666678163e-001	 1.178842239849680e+001
 2.331256769308257e+000	 5.112424937503096e-001	 1.180576147926294e+001
 2.325926457018605e+000	 5.349700319148381e-001	 1.182582691852180e+001
 2.320337943787829e+000	 5.587114161255757e-001	 1.184724771613680e+001
 2.314489920451514e+000	 5.824627311074863e-001	 1.186883678889048e+001
 2.308381151167378e+000	 6.062200128367058e-001	 1.188959546355647e+001
 2.302010475173931e+000	 6.299792500985681e-001	 1.190871974545769e+001
 2.295376808514921e+000	 6.537363861127731e-001	 1.192560855374692e+001
 2.288479145726790e+000	 6.774873202250676e-001	 1.194099377102222e+001
 2.281316561486399e+000	 7.012279096647086e-001	 1.196329739814491e+001
 2.367307890880099e+000	 4.690272649263335e-001	 1.173947565992339e+001
 2.362435931970694e+000	 4.929802557415794e-001	 1.175267427655836e+001
 2.357305749776348e+000	 5.169550115230278e-001	 1.176976113238993e+001
 2.351915877681005e+000	 5.409476762865410e-001	 1.178919047891229e+001
 2.346264919560646e+000	 5.649543418091653e-001	 1.180958409215497e+001
 2.340351551622521e+000	 5.889710490673754e-001	 1.182973249872607e+001
 2.334174524215299e+000	 6.129937897441082e-001	 1.184859793609990e+001
 2.327732663607379e+000	 6.370185078041980e-001	 1.186531926748121e+001
 2.321024873730601e+000	 6.610411011377028e-001	 1.187921906306764e+001
 2.314050137886562e+000	 6.850574232704915e-001	 1.189321577888517e+001
 2.306807520412753e+000	 7.090632851413388e-001	 1.191567619211797e+001
 2.393467398197139e+000	 4.742101658106620e-001	 1.170307741712401e+001
 2.388541602587979e+000	 4.984278448149279e-001	 1.171648436364987e+001
 2.383354730244194e+000	 5.226675292952986e-001	 1.173336613094463e+001
 2.377905298343142e+000	 5.469253206577649e-001	 1.175218604950162e+001
 2.372191895333188e+000	 5.711972674922478e-001	 1.177155872913773e+001
 2.366213182793248e+000	 5.954793670267320e-001	 1.179024943661161e+001
 2.359967897262938e+000	 6.197675666509557e-001	 1.180717537850304e+001
 2.353454852040546e+000	 6.440577655092539e-001	 1.182140913225299e+001
 2.346672938946006e+000	 6.683458161620447e-001	 1.183221206452875e+001
 2.339621130046071e+000	 6.926275263153183e-001	 1.184601660426851e+001
 2.332298479338855e+000	 7.168986606173690e-001	 1.186886145716935e+001
 2.419626905513916e+000	 4.793930666947602e-001	 1.166615649512588e+001
 2.414647273204966e+000	 5.038754338880156e-001	 1.167980487012918e+001
 2.409403710711710e+000	 5.283800470672767e-001	 1.169648378885010e+001
 2.403894719004927e+000	 5.529029650286648e-001	 1.171467114646190e+001
 2.398118871105364e+000	 5.774401931749745e-001	 1.173297699281520e+001
 2.392074813963600e+000	 6.019876849857039e-001	 1.175014089333456e+001
 2.385761270310199e+000	 6.265413435573921e-001	 1.176503137974213e+001
 2.379177040473338e+000	 6.510970232138766e-001	 1.177664775759735e+001
 2.372321004161045e+000	 6.756505311859365e-001	 1.178497764385752e+001
 2.365192122205227e+000	 7.001976293596834e-001	 1.179915370852684e+001
 2.357789438264623e+000	 7.247340360929329e-001	 1.182259416742815e+001
 2.445786412830364e+000	 4.845759675787774e-001	 1.162850710662960e+001
 2.440752943821578e+000	 5.093230229609954e-001	 1.164238037103352e+001
 2.435452691178814e+000	 5.340925648391165e-001	 1.165880381997229e+001
 2.429884139666275e+000	 5.588806093993936e-001	 1.167627807124318e+001
 2.424045846877084e+000	 5.836831188574979e-001	 1.169341377648495e+001
 2.417936445133483e+000	 6.084960029444394e-001	 1.170892678612046e+001
 2.411554643356989e+000	 6.333151204635623e-001	 1.172163560276937e+001
 2.404899228905664e+000	 6.581362809182071e-001	 1.173046141580175e+001
 2.397969069375629e+000	 6.829552462095149e-001	 1.173737325858583e+001
 2.390763114363941e+000	 7.077677324037210e-001	 1.175215899787214e+001
 2.383280397189971e+000	 7.325694115681636e-001	 1.177638937469877e+001
 2.471945920146419e+000	 4.897588684628632e-001	 1.158973285220956e+001
 2.466858614437743e+000	 5.147706120340211e-001	 1.160375369370432e+001
 2.461501671645428e+000	 5.398050826109729e-001	 1.161980538008250e+001
 2.455873560327097e+000	 5.648582537701059e-001	 1.163642209835592e+001
 2.449972822648255e+000	 5.899260445399690e-001	 1.165222282859146e+001
 2.443798076302805e+000	 6.150043209030871e-001	 1.166590412241990e+001
 2.437348016403213e+000	 6.400888973696106e-001	 1.167623538328485e+001
 2.430621417337429e+000	 6.651755386223857e-001	 1.168205696844899e+001
 2.423617134589663e+000	 6.902599612329167e-001	 1.168873302853663e+001
 2.416334106522128e+000	 7.153378354475658e-001	 1.170434989219372e+001
 2.408771356114817e+000	 7.404047870431946e-001	 1.172954797290800e+001
 2.498105427462015e+000	 4.949417693471667e-001	 1.154925140552866e+001
 2.492964285053382e+000	 5.202182011072452e-001	 1.156327172793440e+001
 2.487550652111465e+000	 5.455176003830007e-001	 1.157876399391489e+001
 2.481862980987305e+000	 5.708358981409557e-001	 1.159430951373823e+001
 2.475899798418785e+000	 5.961689702225396e-001	 1.160854589916466e+001
 2.469659707471471e+000	 6.215126388617955e-001	 1.162015725347906e+001
 2.463141389448778e+000	 6.468626742756822e-001	 1.162786709173084e+001
 2.456343605768538e+000	 6.722147963265528e-001	 1.163079127946793e+001
 2.449265199803056e+000	 6.975646762562793e-001	 1.163818742995724e+001
 2.441905098679697e+000	 7.229079384913518e-001	 1.165484009110446e+001
 2.434262315039078e+000	 7.482401625181596e-001	 1.168116814181619e+001
 2.524264934777087e+000	 5.001246702318375e-001	 1.150629916422811e+001
 2.519069955668423e+000	 5.256657901808217e-001	 1.152009116425688e+001
 2.513599632576846e+000	 5.512301181553541e-001	 1.153475837565428e+001
 2.507852401646812e+000	 5.768135425120967e-001	 1.154894551454580e+001
 2.501826774188584e+000	 6.024118959053616e-001	 1.156132171825713e+001
 2.495521338639389e+000	 6.280209568207136e-001	 1.157056793294439e+001
 2.488934762493587e+000	 6.536364511819210e-001	 1.157536727568585e+001
 2.482065794198899e+000	 6.792540540308492e-001	 1.157632659323333e+001
 2.474913265015719e+000	 7.048693912797397e-001	 1.158467310133129e+001
 2.467476090836561e+000	 7.304780415352139e-001	 1.160255005917995e+001
 2.459753273962669e+000	 7.560755379931917e-001	 1.163015649326085e+001
 2.550424442091569e+000	 5.053075711170251e-001	 1.145993586895542e+001
 2.545175626282793e+000	 5.311133792549038e-001	 1.147318416553246e+001
 2.539648613041488e+000	 5.569426359281883e-001	 1.148667715050404e+001
 2.533841822305532e+000	 5.827911868836830e-001	 1.149914198031371e+001
 2.527753749957560e+000	 6.086548215885872e-001	 1.150929481844280e+001
 2.521382969806465e+000	 6.345292747799887e-001	 1.151582519449952e+001
 2.514728135537550e+000	 6.604102280884717e-001	 1.151738359842727e+001
 2.507787982628420e+000	 6.862933117354155e-001	 1.151745901796593e+001
 2.500561330227559e+000	 7.121741063034355e-001	 1.152694240566851e+001
 2.493047082992633e+000	 7.380481445792869e-001	 1.154621725055254e+001
 2.485244232885506e+000	 7.639109134684247e-001	 1.157523894129131e+001
 2.230334643633273e+000	 6.855571587091147e-001	 1.206079267816485e+001
 2.223072299479172e+000	 7.087529998691573e-001	 1.208650604933509e+001
 2.215549382871506e+000	 7.319305087471114e-001	 1.210952762671590e+001
 2.207765230096631e+000	 7.550855204020772e-001	 1.212999177752952e+001
 2.199719261790046e+000	 7.782138361143607e-001	 1.214819062681617e+001
 2.191410984317160e+000	 8.013112254104075e-001	 1.216457380122171e+001
 2.182839991099376e+000	 8.243734281452965e-001	 1.217974800642094e+001
 2.174005963882928e+000	 8.473961566412124e-001	 1.219447641560077e+001
 2.164908673947971e+000	 8.703750978801975e-001	 1.220967784375988e+001
 2.155547983255453e+000	 8.933059157493628e-001	 1.222642568006906e+001
 2.145923845529373e+000	 9.161842533366132e-001	 1.224594654821878e+001
 2.255825602559878e+000	 6.933925341873451e-001	 1.201174606824143e+001
 2.248480255562493e+000	 7.168534854447088e-001	 1.203734907102322e+001
 2.240871357974673e+000	 7.402958948964447e-001	 1.206032625961020e+001
 2.232998238497061e+000	 7.637155499996891e-001	 1.208077133269816e+001
 2.224860311143484e+000	 7.871082040467171e-001	 1.209893458055577e+001
 2.216457076637509e+000	 8.104695782130247e-001	 1.211522285509788e+001
 2.207788123753673e+000	 8.337953636636194e-001	 1.213019940735850e+001
 2.198853130600829e+000	 8.570812237159357e-001	 1.214458356766498e+001
 2.189651865845055e+000	 8.803227960576487e-001	 1.215925024076632e+001
 2.180184189869628e+000	 9.035156950175444e-001	 1.217522918528515e+001
 2.170450055869658e+000	 9.266555138874861e-001	 1.219370404418679e+001
 2.281316561486399e+000	 7.012279096647086e-001	 1.196329739814491e+001
 2.273888211645736e+000	 7.249539710193941e-001	 1.198903716859752e+001
 2.266193333077769e+000	 7.486612810449148e-001	 1.201225768939354e+001
 2.258231246897426e+000	 7.723455795964405e-001	 1.203301946507191e+001
 2.250001360496865e+000	 7.960025719782181e-001	 1.205153698336767e+001
 2.241503168957809e+000	 8.196279310147910e-001	 1.206817891194134e+001
 2.232736256407929e+000	 8.432172991810966e-001	 1.208346820118192e+001
 2.223700297318700e+000	 8.667662907898179e-001	 1.209808206617485e+001
 2.214395057742118e+000	 8.902704942342625e-001	 1.211285181746727e+001
 2.204820396483794e+000	 9.137254742848917e-001	 1.212876250697756e+001
 2.194976266209943e+000	 9.371267744375259e-001	 1.214695235233052e+001
 2.306807520412753e+000	 7.090632851413388e-001	 1.191567619211797e+001
 2.299296167728821e+000	 7.330544565933477e-001	 1.194177703532463e+001
 2.291515308180721e+000	 7.570266671926574e-001	 1.196549071211227e+001
 2.283464255297661e+000	 7.809756091924723e-001	 1.198685153824405e+001
 2.275142409850133e+000	 8.048969399090080e-001	 1.200604374282973e+001
 2.266549261278012e+000	 8.287862838158566e-001	 1.202340189465654e+001
 2.257684389062107e+000	 8.526392346978825e-001	 1.203941127838128e+001
 2.248547464036510e+000	 8.764513578630184e-001	 1.205470819137042e+001
 2.239138249639141e+000	 9.002181924102024e-001	 1.207008012806965e+001
 2.229456603097937e+000	 9.239352535515704e-001	 1.208646581506535e+001
 2.219502476550226e+000	 9.475980349868982e-001	 1.210495505651615e+001
 2.332298479338855e+000	 7.168986606173690e-001	 1.186886145716935e+001
 2.324704123811673e+000	 7.411549421667038e-001	 1.189552438304383e+001
 2.316837283283455e+000	 7.653920533398096e-001	 1.191994424836691e+001
 2.308697263697703e+000	 7.896056387879249e-001	 1.194213569513182e+001
 2.300283459203230e+000	 8.137913078392319e-001	 1.196225772545279e+001
 2.291595353598070e+000	 8.379446366163708e-001	 1.198061436309836e+001
 2.282632521716166e+000	 8.620611702141319e-001	 1.199765531400335e+001
 2.273394630754231e+000	 8.861364249356956e-001	 1.201397659413483e+001
 2.263881441536102e+000	 9.101658905856304e-001	 1.203032108870043e+001
 2.254092809712048e+000	 9.341450328177450e-001	 1.204757900250229e+001
 2.244028686890507e+000	 9.580692955357705e-001	 1.206678815730386e+001
 2.357789438264623e+000	 7.247340360929329e-001	 1.182259416742815e+001
 2.350112079894210e+000	 7.492554277395965e-001	 1.184999712421495e+001
 2.342159258385902e+000	 7.737574394865083e-001	 1.187530117082006e+001
 2.333930272097482e+000	 7.982356683829374e-001	 1.189850727744838e+001
 2.325424508556097e+000	 8.226856757690343e-001	 1.191975371337879e+001
 2.316641445917932e+000	 8.471029894164828e-001	 1.193931695204104e+001
 2.307580654370066e+000	 8.714831057299988e-001	 1.195761262974505e+001
 2.298241797471829e+000	 8.958214920080092e-001	 1.197519652390452e+001
 2.288624633432979e+000	 9.201135887607101e-001	 1.199276551169818e+001
 2.278729016326116e+000	 9.443548120835820e-001	 1.201115846542374e+001
 2.268554897230787e+000	 9.685405560843096e-001	 1.203135703637446e+001
 2.383280397189971e+000	 7.325694115681636e-001	 1.177638937469877e+001
 2.375520035976356e+000	 7.573559133121597e-001	 1.180468816218546e+001
 2.367481233487989e+000	 7.821228256328895e-001	 1.183102172573995e+001
 2.359163280496938e+000	 8.068656979776510e-001	 1.185538282885363e+001
 2.350565557908681e+000	 8.315800436985599e-001	 1.187789293825114e+001
 2.341687538237552e+000	 8.562613422163423e-001	 1.189880338368384e+001
 2.332528787023769e+000	 8.809050412456384e-001	 1.191849663183580e+001
 2.323088964189278e+000	 9.055065590801182e-001	 1.193748763752308e+001
 2.313367825329754e+000	 9.300612869356039e-001	 1.195642522991734e+001
 2.303365222940131e+000	 9.545645913492464e-001	 1.197609348629629e+001
 2.293081107571061e+000	 9.790118166326809e-001	 1.199741304087368e+001
 2.408771356114817e+000	 7.404047870431946e-001	 1.172954797290800e+001
 2.400927992058032e+000	 7.654563988845280e-001	 1.175887781870035e+001
 2.392803208589645e+000	 7.904882117790897e-001	 1.178635657865534e+001
 2.384396288896006e+000	 8.154957275722057e-001	 1.181197371262547e+001
 2.375706607260921e+000	 8.404744116279526e-001	 1.183583722358058e+001
 2.366733630556880e+000	 8.654196950160988e-001	 1.185817508621084e+001
 2.357476919677233e+000	 8.903269767612047e-001	 1.187933685613381e+001
 2.347936130906541e+000	 9.151916261521809e-001	 1.189979542008289e+001
 2.338111017226406e+000	 9.400089851104752e-001	 1.192014884141718e+001
 2.328001429554082e+000	 9.647743706149041e-001	 1.194112224948009e+001
 2.317607317911332e+000	 9.894830771810523e-001	 1.196356971583097e+001
 2.434262315039078e+000	 7.482401625181596e-001	 1.168116814181619e+001
 2.426335948139160e+000	 7.735568844568357e-001	 1.171164592524688e+001
 2.418125183690795e+000	 7.988535979252458e-001	 1.174035951167436e+001
 2.409629297294618e+000	 8.241257571667410e-001	 1.176729937210931e+001
 2.400847656612762e+000	 8.493687795573580e-001	 1.179256276430588e+001
 2.391779722875867e+000	 8.745780478159020e-001	 1.181635544728393e+001
 2.382425052330418e+000	 8.997489122768517e-001	 1.183899364923011e+001
 2.372783297623596e+000	 9.248766932243574e-001	 1.186090624619833e+001
 2.362854209122914e+000	 9.499566832854866e-001	 1.188263710236325e+001
 2.352637636167958e+000	 9.749841498807208e-001	 1.190484751614892e+001
 2.342133528251599e+000	 9.999543377295894e-001	 1.192831871044898e+001
 2.459753273962669e+000	 7.560755379931917e-001	 1.163015649326085e+001
 2.451743904219661e+000	 7.816573700292162e-001	 1.166188360262115e+001
 2.443447158791370e+000	 8.072189840714945e-001	 1.169189979773991e+001
 2.434862305692713e+000	 8.327557867613982e-001	 1.172020025986122e+001
 2.425988705964147e+000	 8.582631474869201e-001	 1.174687356986905e+001
 2.416825815194466e+000	 8.837364006159015e-001	 1.177210372895214e+001
 2.407373184983288e+000	 9.091708477927348e-001	 1.179617251196583e+001
 2.397630464340407e+000	 9.345617602968064e-001	 1.181946210779292e+001
 2.387597401019257e+000	 9.599043814608010e-001	 1.184245799366057e+001
 2.377273842781749e+000	 9.851939291468613e-001	 1.186575198327920e+001
 2.366659738591859e+000	 1.010425598278460e+000	 1.189003061246313e+001
 2.485244232885506e+000	 7.639109134684247e-001	 1.157523894129131e+001
 2.477151860299458e+000	 7.897578556018046e-001	 1.160830475110448e+001
 2.468769133891298e+000	 8.155843702179724e-001	 1.163967427501620e+001
 2.460095314090223e+000	 8.413858163563166e-001	 1.166935045927134e+001
 2.451129755315018e+000	 8.671575154167841e-001	 1.169741459496557e+001
 2.441871907512629e+000	 8.928947534162470e-001	 1.172402866828861e+001
 2.432321317635803e+000	 9.185927833090084e-001	 1.174943812960110e+001
 2.422477631056948e+000	 9.442468273696871e-001	 1.177397503234757e+001
 2.412340592915415e+000	 9.698520796365817e-001	 1.179806148474515e+001
 2.401910049395445e+000	 9.954037084134922e-001	 1.182221334939193e+001
 2.391185948932115e+000	 1.020896858827830e+000	 1.184703093337148e+001
 2.145923845529373e+000	 9.161842533366132e-001	 1.224594654821878e+001
 2.136037810352666e+000	 9.390023168969390e-001	 1.226350982677913e+001
 2.125888595480185e+000	 9.617591535682968e-001	 1.227428913577580e+001
 2.115476437276295e+000	 9.844503614784820e-001	 1.227958181051916e+001
 2.104801667440269e+000	 1.007071527655773e+000	 1.228083036667629e+001
 2.093864713729079e+000	 1.029618230541540e+000	 1.227961009254152e+001
 2.082666100602788e+000	 1.052086042539205e+000	 1.227766971020424e+001
 2.071206449790665e+000	 1.074470532596845e+000	 1.227685905318478e+001
 2.059486480776334e+000	 1.096767268820616e+000	 1.227917464186647e+001
 2.047507011200339e+000	 1.118971821116124e+000	 1.228674215799969e+001
 2.035268957178629e+000	 1.141079763854727e+000	 1.230181153760887e+001
 2.170450055869658e+000	 9.266555138874861e-001	 1.219370404418679e+001
 2.160451031138595e+000	 9.497343698461394e-001	 1.220989891295354e+001
 2.150185818776248e+000	 9.727512991410006e-001	 1.221906612861969e+001
 2.139654657848451e+000	 9.957018495899493e-001	 1.222265009676864e+001
 2.128857883845541e+000	 1.018581557784486e+000	 1.222223235978817e+001
 2.117795929413422e+000	 1.041385951631064e+000	 1.221957986509118e+001
 2.106469325006327e+000	 1.064110552929180e+000	 1.221656214396496e+001
 2.094878699459406e+000	 1.086750879983490e+000	 1.221520541396385e+001
 2.083024780479415e+000	 1.109302450247109e+000	 1.221767362636308e+001
 2.070908395051891e+000	 1.131760782993169e+000	 1.222626424389135e+001
 2.058530469763273e+000	 1.154121402011593e+000	 1.224340337225718e+001
 2.194976266209943e+000	 9.371267744375259e-001	 1.214695235233052e+001
 2.184864251924532e+000	 9.604664227945057e-001	 1.216260487199105e+001
 2.174483042072331e+000	 9.837434447128692e-001	 1.217104697468102e+001
 2.163832878420640e+000	 1.006953337700580e+000	 1.217385236936996e+001
 2.152914100250859e+000	 1.030091587912363e+000	 1.217273616768343e+001
 2.141727145097828e+000	 1.053153672719756e+000	 1.216959798332248e+001
 2.130272549409948e+000	 1.076135063318328e+000	 1.216644765395966e+001
 2.118550949128249e+000	 1.099031227369320e+000	 1.216545373377680e+001
 2.106563080182627e+000	 1.121837631672806e+000	 1.216892620093373e+001
 2.094309778903607e+000	 1.144549744869444e+000	 1.217931237171929e+001
 2.081791982348114e+000	 1.167163040167724e+000	 1.219919214119294e+001
 2.219502476550226e+000	 9.475980349868982e-001	 1.210495505651615e+001
 2.209277472710488e+000	 9.711984757422032e-001	 1.212070009898300e+001
 2.198780265368454e+000	 9.947355902840656e-001	 1.212910310231874e+001
 2.188011098992888e+000	 1.018204825810533e+000	 1.213183679177859e+001
 2.176970316656258e+000	 1.041601618039557e+000	 1.213076824961737e+001
 2.165658360782336e+000	 1.064921393807760e+000	 1.212787317506942e+001
 2.154075773813694e+000	 1.088159573706788e+000	 1.212529381018428e+001
 2.142223198797243e+000	 1.111311574754465e+000	 1.212532016681490e+001
 2.130101379886014e+000	 1.134372813097828e+000	 1.213038679882001e+001
 2.117711162755524e+000	 1.157338706745061e+000	 1.214306892604536e+001
 2.105053494933187e+000	 1.180204678323221e+000	 1.216607785808657e+001
 2.244028686890507e+000	 9.580692955357705e-001	 1.206678815730386e+001
 2.233690693496472e+000	 9.819305286893982e-001	 1.208308316726880e+001
 2.223077488664634e+000	 1.005727735854752e+000	 1.209194667325633e+001
 2.212189319565223e+000	 1.029456313919966e+000	 1.209514611325967e+001
 2.201026533061774e+000	 1.053111648166220e+000	 1.209464028558609e+001
 2.189589576466989e+000	 1.076689114895224e+000	 1.209250272341117e+001
 2.177878998217611e+000	 1.100184084094699e+000	 1.209097385659355e+001
 2.165895448466434e+000	 1.123591922139056e+000	 1.209244414423676e+001
 2.153639679589622e+000	 1.146907994522294e+000	 1.209945115395097e+001
 2.141112546607686e+000	 1.170127668620127e+000	 1.211467597281827e+001
 2.128315007518526e+000	 1.193246316478183e+000	 1.214093889197860e+001
 2.268554897230787e+000	 9.685405560843096e-001	 1.203135703637446e+001
 2.258103914282494e+000	 9.926625816362567e-001	 1.204849592662089e+001
 2.247374711960891e+000	 1.016719881425092e+000	 1.205813472582357e+001
 2.236367540137673e+000	 1.040707802029039e+000	 1.206215635590045e+001
 2.225082749467440e+000	 1.064621678292507e+000	 1.206255320703417e+001
 2.213520792151827e+000	 1.088456835982292e+000	 1.206148971339025e+001
 2.201682222621746e+000	 1.112208594482198e+000	 1.206128389890526e+001
 2.189567698135869e+000	 1.135872269523220e+000	 1.206440546502197e+001
 2.177177979293499e+000	 1.159443175946325e+000	 1.207347325707870e+001
 2.164513930460135e+000	 1.182916630494756e+000	 1.209125204334232e+001
 2.151576520104164e+000	 1.206287954632712e+000	 1.212064854200448e+001
 2.293081107571061e+000	 9.790118166326809e-001	 1.199741304087369e+001
 2.282517135068562e+000	 1.003394634582944e+000	 1.201554024140997e+001
 2.271671935257244e+000	 1.027712026995249e+000	 1.202613965183703e+001
 2.260545760710265e+000	 1.051959290137911e+000	 1.203114758494739e+001
 2.249138965873294e+000	 1.076131708418570e+000	 1.203261417807438e+001
 2.237452007836891e+000	 1.100224557069113e+000	 1.203276002153364e+001
 2.225485447026142e+000	 1.124233104869425e+000	 1.203395986620229e+001
 2.213239947805595e+000	 1.148152616907090e+000	 1.203874119357734e+001
 2.200716278997688e+000	 1.171978357370042e+000	 1.204978215349972e+001
 2.187915314312909e+000	 1.195705592369057e+000	 1.206990879646067e+001
 2.174838032690135e+000	 1.219329592786908e+000	 1.210209152867199e+001
 2.317607317911332e+000	 9.894830771810523e-001	 1.196356971583097e+001
 2.306930355854685e+000	 1.014126687529626e+000	 1.198268056311209e+001
 2.295969158553711e+000	 1.038704172565387e+000	 1.199428308737308e+001
 2.284723981283027e+000	 1.063210778246740e+000	 1.200030672180365e+001
 2.273195182279369e+000	 1.087641738544563e+000	 1.200285331175105e+001
 2.261383223522225e+000	 1.111992278155832e+000	 1.200417906722830e+001
 2.249288671430845e+000	 1.136257615256517e+000	 1.200669426308806e+001
 2.236912197475659e+000	 1.160432964290793e+000	 1.201296237840963e+001
 2.224254578702236e+000	 1.184513538793563e+000	 1.202569859409617e+001
 2.211316698166055e+000	 1.208494554243140e+000	 1.204776756797438e+001
 2.198099545276473e+000	 1.232371230940871e+000	 1.208218040787157e+001
 2.342133528251599e+000	 9.999543377295894e-001	 1.192831871044898e+001
 2.331343576640874e+000	 1.024858740476468e+000	 1.194831685327700e+001
 2.320266381850311e+000	 1.049696318135667e+000	 1.196080880365794e+001
 2.308902201855987e+000	 1.074462266355686e+000	 1.196774392225238e+001
 2.297251398685700e+000	 1.099151768670638e+000	 1.197124014076844e+001
 2.285314439207865e+000	 1.123759999242595e+000	 1.197356834340693e+001
 2.273091895835900e+000	 1.148282125643612e+000	 1.197715272774686e+001
 2.260584447146108e+000	 1.172713311674460e+000	 1.198457060498009e+001
 2.247792878407190e+000	 1.197048720217011e+000	 1.199855155044719e+001
 2.234718082019611e+000	 1.221283516117117e+000	 1.202197581555926e+001
 2.221361057863212e+000	 1.245412869094703e+000	 1.205787191328114e+001
 2.366659738591859e+000	 1.010425598278460e+000	 1.189003061246313e+001
 2.355756797427137e+000	 1.035590793423637e+000	 1.191071281091341e+001
 2.344563605147063e+000	 1.060688463706254e+000	 1.192388413607583e+001
 2.333080422429172e+000	 1.085713754464907e+000	 1.193150870559638e+001
 2.321307615092325e+000	 1.110661798796949e+000	 1.193569986049514e+001
 2.309245654893859e+000	 1.135527720329549e+000	 1.193872174255315e+001
 2.296895120241353e+000	 1.160306636030850e+000	 1.194299040998848e+001
 2.284256696816990e+000	 1.184993659058219e+000	 1.195107439476814e+001
 2.271331178112595e+000	 1.209583901640504e+000	 1.196569460386962e+001
 2.258119465873619e+000	 1.234072477991097e+000	 1.198972346676162e+001
 2.244622570450384e+000	 1.258454507248503e+000	 1.202618323235748e+001
 2.391185948932115e+000	 1.020896858827830e+000	 1.184703093337148e+001
 2.380170018213486e+000	 1.046322846371298e+000	 1.186807142566140e+001
 2.368860828443987e+000	 1.071680609277310e+000	 1.188161571930058e+001
 2.357258643002612e+000	 1.096965242574563e+000	 1.188960585259729e+001
 2.345363831499277e+000	 1.122171828923650e+000	 1.189412936059353e+001
 2.333176870580242e+000	 1.147295441416840e+000	 1.189742169271903e+001
 2.320698344647250e+000	 1.172331146418369e+000	 1.190186818220014e+001
 2.307928946488350e+000	 1.197274006442202e+000	 1.191000546158435e+001
 2.294869477818497e+000	 1.222119083064165e+000	 1.192452221743727e+001
 2.281520849728123e+000	 1.246861439865192e+000	 1.194825917702787e+001
 2.267884083038025e+000	 1.271496145402371e+000	 1.198420822068042e+001
 2.035268957178629e+000	 1.141079763854727e+000	 1.230181153760887e+001
 2.022771440011766e+000	 1.163089972340299e+000	 1.231545529773396e+001
 2.010017391776478e+000	 1.184994713164319e+000	 1.231837112539934e+001
 1.997008027266777e+000	 1.206789589643860e+000	 1.231238310654537e+001
 1.983744660202318e+000	 1.228470220469227e+000	 1.229973384191774e+001
 1.970228703106179e+000	 1.250032242448504e+000	 1.228264269261045e+001
 1.956461667092249e+000	 1.271471313257540e+000	 1.226321777193657e+001
 1.942445161561669e+000	 1.292783114191905e+000	 1.224358174734468e+001
 1.928180893807916e+000	 1.313963352917359e+000	 1.222586740972019e+001
 1.913670668530300e+000	 1.335007766215311e+000	 1.221220339402857e+001
 1.898916387255753e+000	 1.355912122719749e+000	 1.220275990690639e+001
 2.058530469763273e+000	 1.154121402011593e+000	 1.224340337225718e+001
 2.045890115871281e+000	 1.176383169751865e+000	 1.225935946274714e+001
 2.032990298963952e+000	 1.198538264418723e+000	 1.226401513958089e+001
 2.019832247719413e+000	 1.220582239078633e+000	 1.225934557209097e+001
 2.006417290872079e+000	 1.242510662346993e+000	 1.224735340526621e+001
 1.992746857089031e+000	 1.264319121164056e+000	 1.223019048223101e+001
 1.978822474754979e+000	 1.286003223576338e+000	 1.221068270431167e+001
 1.964645771665227e+000	 1.307558601520036e+000	 1.219122016268508e+001
 1.950218474626249e+000	 1.328980913602921e+000	 1.217410531276157e+001
 1.935542408963624e+000	 1.350265847881186e+000	 1.216111542399680e+001
 1.920619497937211e+000	 1.371409124627651e+000	 1.215268413609183e+001
 2.081791982348114e+000	 1.167163040167724e+000	 1.219919214119294e+001
 2.069008791731038e+000	 1.189676367162741e+000	 1.221797039694061e+001
 2.055963206151714e+000	 1.212081815672490e+000	 1.222465877420857e+001
 2.042656468172388e+000	 1.234374888512827e+000	 1.222138065588517e+001
 2.029089921542231e+000	 1.256551104224243e+000	 1.221028833587962e+001
 2.015265011072332e+000	 1.278605999879157e+000	 1.219355581150128e+001
 2.001183282418213e+000	 1.300535133894753e+000	 1.217337085693427e+001
 1.986846381769342e+000	 1.322334088847847e+000	 1.215250618550586e+001
 1.972256055445192e+000	 1.343998474288225e+000	 1.213414872664350e+001
 1.957414149397602e+000	 1.365523929546859e+000	 1.212039414473298e+001
 1.942322608619367e+000	 1.386906126535401e+000	 1.211224723213731e+001
 2.105053494933187e+000	 1.180204678323221e+000	 1.216607785808657e+001
 2.092127467591057e+000	 1.202969564573016e+000	 1.218791064243803e+001
 2.078936113339772e+000	 1.225625366925698e+000	 1.219666724153100e+001
 2.065480688625693e+000	 1.248167537946512e+000	 1.219460294660335e+001
 2.051762552212749e+000	 1.270591546101038e+000	 1.218400453213432e+001
 2.037783165056030e+000	 1.292892878593861e+000	 1.216718305551746e+001
 2.023544090081879e+000	 1.315067044212827e+000	 1.214646588358525e+001
 2.009046991873926e+000	 1.337109576175375e+000	 1.212422346929714e+001
 1.994293636264635e+000	 1.359016034973300e+000	 1.210406448084322e+001
 1.979285889832116e+000	 1.380782011212353e+000	 1.208905248274048e+001
 1.964025719302089e+000	 1.402403128443017e+000	 1.208043336686160e+001
 2.128315007518526e+000	 1.193246316478183e+000	 1.214093889197860e+001
 2.115246143451361e+000	 1.216262761982781e+000	 1.216579933758887e+001
 2.101909020528132e+000	 1.239168918178429e+000	 1.217641943047902e+001
 2.088304909079315e+000	 1.261960187379757e+000	 1.217516994744790e+001
 2.074435182883600e+000	 1.284631987977440e+000	 1.216445687132733e+001
 2.060301319040078e+000	 1.307179757308217e+000	 1.214671427098035e+001
 2.045904897745909e+000	 1.329598954530604e+000	 1.212439634924255e+001
 2.031247601978889e+000	 1.351885063502655e+000	 1.210137594019315e+001
 2.016331217084475e+000	 1.374033595658174e+000	 1.208170803968932e+001
 2.001157630267043e+000	 1.396040092877691e+000	 1.206612901276852e+001
 1.985728829985244e+000	 1.417900130350513e+000	 1.205626067325284e+001
 2.151576520104164e+000	 1.206287954632712e+000	 1.212064854200448e+001
 2.138364819311972e+000	 1.229555959392127e+000	 1.214826858174756e+001
 2.124881927716801e+000	 1.252712469430764e+000	 1.216032409706140e+001
 2.111129129533247e+000	 1.275752836812638e+000	 1.215928475512430e+001
 2.097107813554756e+000	 1.298672429853509e+000	 1.214766031828237e+001
 2.082819473024427e+000	 1.321466636022281e+000	 1.212799368065791e+001
 2.068265705410237e+000	 1.344130864848129e+000	 1.210358956805781e+001
 2.053448212084144e+000	 1.366660550829724e+000	 1.208117209767482e+001
 2.038368797904605e+000	 1.389051156342877e+000	 1.206240572604590e+001
 2.023029370702263e+000	 1.411298174542895e+000	 1.204796358154796e+001
 2.007431940668699e+000	 1.433397132257910e+000	 1.203848190480780e+001
 2.174838032690135e+000	 1.219329592786908e+000	 1.210209152867199e+001
 2.161483495172912e+000	 1.242849156801144e+000	 1.213197975426127e+001
 2.147854834905787e+000	 1.266256020682782e+000	 1.214483604355241e+001
 2.133953349987477e+000	 1.289545486245221e+000	 1.214321213178295e+001
 2.119780444226189e+000	 1.312712871729308e+000	 1.212970592265959e+001
 2.105337627009026e+000	 1.335753514736103e+000	 1.210700588403268e+001
 2.090626513074790e+000	 1.358662775165445e+000	 1.208272316082719e+001
 2.075648822189603e+000	 1.381436038156617e+000	 1.206141684099197e+001
 2.060406378724920e+000	 1.404068717027437e+000	 1.204378168972017e+001
 2.044901111137655e+000	 1.426556256207987e+000	 1.203048080882462e+001
 2.029135051352321e+000	 1.448894134165222e+000	 1.202214202017985e+001
 2.198099545276473e+000	 1.232371230940871e+000	 1.208218040787157e+001
 2.184602171034203e+000	 1.256142354209923e+000	 1.211363979105666e+001
 2.170827742095097e+000	 1.279799571934566e+000	 1.212647228729924e+001
 2.156777570441994e+000	 1.303338135677579e+000	 1.212329459569616e+001
 2.142453074897868e+000	 1.326753313604898e+000	 1.210677686114884e+001
 2.127855780993828e+000	 1.350040393449737e+000	 1.208247728106919e+001
 2.112987320739501e+000	 1.373194685482595e+000	 1.205984280563529e+001
 2.097849432295178e+000	 1.396211525483370e+000	 1.204002945453226e+001
 2.082443959545315e+000	 1.419086277711884e+000	 1.202370917032385e+001
 2.066772851573099e+000	 1.441814337872990e+000	 1.201152506667133e+001
 2.050838162035976e+000	 1.464391136072466e+000	 1.200408764091442e+001
 2.221361057863212e+000	 1.245412869094703e+000	 1.205787191328113e+001
 2.207720846895866e+000	 1.269435551618553e+000	 1.209001742193078e+001
 2.193800649284738e+000	 1.293343123186194e+000	 1.210182821990758e+001
 2.179601790896790e+000	 1.317130785109783e+000	 1.209596852929336e+001
 2.165125705569764e+000	 1.340793755480339e+000	 1.207585764181702e+001
 2.150373934978783e+000	 1.364327272163235e+000	 1.205353103704449e+001
 2.135348128404301e+000	 1.387726595799625e+000	 1.203303896193889e+001
 2.120050042400781e+000	 1.410987012810021e+000	 1.201504119238252e+001
 2.104481540365684e+000	 1.434103838396246e+000	 1.200017616768847e+001
 2.088644592008472e+000	 1.457072419537926e+000	 1.198905737775349e+001
 2.072541272719534e+000	 1.479888137979660e+000	 1.198226941283755e+001
 2.244622570450384e+000	 1.258454507248503e+000	 1.202618323235748e+001
 2.230839522757925e+000	 1.282728749027127e+000	 1.205795937139520e+001
 2.216773556474716e+000	 1.306886674437748e+000	 1.206759375750016e+001
 2.202426011351853e+000	 1.330923434541904e+000	 1.205778030329201e+001
 2.187798336241849e+000	 1.354834197355695e+000	 1.203776036004691e+001
 2.172892088963843e+000	 1.378614150876649e+000	 1.201843441288573e+001
 2.157708936069120e+000	 1.402258506116577e+000	 1.200050832080257e+001
 2.142250652506323e+000	 1.425762500136603e+000	 1.198459295313297e+001
 2.126519121185921e+000	 1.449121399080551e+000	 1.197128288614596e+001
 2.110516332443655e+000	 1.472330501202817e+000	 1.196115267054687e+001
 2.094244383402860e+000	 1.495385139886820e+000	 1.195475272543042e+001
 2.267884083038025e+000	 1.271496145402371e+000	 1.198420822068042e+001
 2.253958198620401e+000	 1.296021946435735e+000	 1.201440652568601e+001
 2.239746463665040e+000	 1.320430225689309e+000	 1.202056948268660e+001
 2.225250231807174e+000	 1.344716083974012e+000	 1.200750393137102e+001
 2.210470966914092e+000	 1.368874639231026e+000	 1.199139155380975e+001
 2.195410242948957e+000	 1.392901029590033e+000	 1.197555495369213e+001
 2.180069743733891e+000	 1.416790416433498e+000	 1.196055182121897e+001
 2.164451262611717e+000	 1.440537987463155e+000	 1.194693303844581e+001
 2.148556702005920e+000	 1.464138959764830e+000	 1.193523927354336e+001
 2.132388072878528e+000	 1.487588582867686e+000	 1.192599713768892e+001
 2.115947494085821e+000	 1.510882141793964e+000	 1.191971492907086e+001
 1.898916387255753e+000	 1.355912122719749e+000	 1.220275990690639e+001
 1.883920047133223e+000	 1.376672225183124e+000	 1.219174631823153e+001
 1.868683738580113e+000	 1.397283911780662e+000	 1.217438057841387e+001
 1.853209646065358e+000	 1.417743060129417e+000	 1.215138282108864e+001
 1.837500047710095e+000	 1.438045590410163e+000	 1.212347106627587e+001
 1.821557314259136e+000	 1.458187468011342e+000	 1.209136305868089e+001
 1.805383907963363e+000	 1.478164706143358e+000	 1.205577819688187e+001
 1.788982381374034e+000	 1.497973368419745e+000	 1.201743954303567e+001
 1.772355376050134e+000	 1.517609571401743e+000	 1.197707590161996e+001
 1.755505621180099e+000	 1.537069487102882e+000	 1.193542395465405e+001
 1.738435932119337e+000	 1.556349345450221e+000	 1.189323043981244e+001
 1.920619497937211e+000	 1.371409124627651e+000	 1.215268413609183e+001
 1.905451761521779e+000	 1.392406498623549e+000	 1.214402666786004e+001
 1.890041314026554e+000	 1.413253760477749e+000	 1.213010352658697e+001
 1.874390364887229e+000	 1.433946740691739e+000	 1.211134760971266e+001
 1.858501218262075e+000	 1.454481312817197e+000	 1.208818357548175e+001
 1.842376271991649e+000	 1.474853396130154e+000	 1.206103032727993e+001
 1.826018016468425e+000	 1.495058958275174e+000	 1.203030361165017e+001
 1.809429033417307e+000	 1.515094017876017e+000	 1.199641871817964e+001
 1.792611994588221e+000	 1.534954647109299e+000	 1.195979326820178e+001
 1.775569660362075e+000	 1.554636974237704e+000	 1.192085007805004e+001
 1.758304878271573e+000	 1.574137186099347e+000	 1.188002008144737e+001
 1.942322608619367e+000	 1.386906126535401e+000	 1.211224723213731e+001
 1.926983475911071e+000	 1.408140772063864e+000	 1.210489809794534e+001
 1.911398889473760e+000	 1.429223609174760e+000	 1.209309629588869e+001
 1.895571083709891e+000	 1.450150421254014e+000	 1.207705918367281e+001
 1.879502388814862e+000	 1.470917035224207e+000	 1.205699119477892e+001
 1.863195229724980e+000	 1.491519324248966e+000	 1.203308685311569e+001
 1.846652124974304e+000	 1.511953210407013e+000	 1.200553392182068e+001
 1.829875685461390e+000	 1.532214667332336e+000	 1.197451667320497e+001
 1.812868613127101e+000	 1.552299722816931e+000	 1.194021926545524e+001
 1.795633699544820e+000	 1.572204461372635e+000	 1.190282921037348e+001
 1.778173824424543e+000	 1.591925026748623e+000	 1.186254091515250e+001
 1.964025719302089e+000	 1.402403128443017e+000	 1.208043336686160e+001
 1.948515190300958e+000	 1.423875045504080e+000	 1.207334610038439e+001
 1.932756464921588e+000	 1.445193457871702e+000	 1.206237977582304e+001
 1.916751802533197e+000	 1.466354101816246e+000	 1.204760548209428e+001
 1.900503559368311e+000	 1.487352757631197e+000	 1.202907809593748e+001
 1.884014187458984e+000	 1.508185252367777e+000	 1.200683971336757e+001
 1.867286233480865e+000	 1.528847462538872e+000	 1.198092323353154e+001
 1.850322337506154e+000	 1.549335316788698e+000	 1.195135608100545e+001
 1.833125231666656e+000	 1.569644798524630e+000	 1.191816405105970e+001
 1.815697738728223e+000	 1.589771948507662e+000	 1.188137526095666e+001
 1.798042770578147e+000	 1.609712867398032e+000	 1.184102418893965e+001
 1.985728829985244e+000	 1.417900130350513e+000	 1.205626067325284e+001
 1.970046904691298e+000	 1.439609318944210e+000	 1.204839096059786e+001
 1.954114040369892e+000	 1.461163306568586e+000	 1.203700912640840e+001
 1.937932521356998e+000	 1.482557782378439e+000	 1.202210694353487e+001
 1.921504729922277e+000	 1.503788480038169e+000	 1.200365803944136e+001
 1.904833145193523e+000	 1.524851180486588e+000	 1.198162163303581e+001
 1.887920341987970e+000	 1.545741714670747e+000	 1.195594644005139e+001
 1.870768989551473e+000	 1.566455966245095e+000	 1.192657473229527e+001
 1.853381850206766e+000	 1.586989874232388e+000	 1.189344653444521e+001
 1.835761777912175e+000	 1.607339435642774e+000	 1.185650394048398e+001
 1.817911716732283e+000	 1.627500708047558e+000	 1.181569553032934e+001
 2.007431940668699e+000	 1.433397132257910e+000	 1.203848190480780e+001
 1.991578619081951e+000	 1.455343592384267e+000	 1.202908220393955e+001
 1.975471615818524e+000	 1.477133155265418e+000	 1.201606820911863e+001
 1.959113240181150e+000	 1.498761462940601e+000	 1.199971099727532e+001
 1.942505900476613e+000	 1.520224202445124e+000	 1.197996899628407e+001
 1.925652102928453e+000	 1.541517108605399e+000	 1.195678580165391e+001
 1.908554450495487e+000	 1.562635966802639e+000	 1.193009429199339e+001
 1.891215641597215e+000	 1.583576615701524e+000	 1.189982091200511e+001
 1.873638468747310e+000	 1.604334949940195e+000	 1.186589010607969e+001
 1.855825817096565e+000	 1.624906922777959e+000	 1.182822888384092e+001
 1.837780662886852e+000	 1.645288548697183e+000	 1.178677149733668e+001
 2.029135051352321e+000	 1.448894134165222e+000	 1.202214202017985e+001
 2.013110333472775e+000	 1.471077865824262e+000	 1.201347774143947e+001
 1.996829191267340e+000	 1.493103003962208e+000	 1.199866416714874e+001
 1.980293959005503e+000	 1.514965143502737e+000	 1.197958669770081e+001
 1.963507071031173e+000	 1.536659924852068e+000	 1.195726790234026e+001
 1.946471060663631e+000	 1.558183036724210e+000	 1.193170080815181e+001
 1.929188559003277e+000	 1.579530218934542e+000	 1.190286856772313e+001
 1.911662293643256e+000	 1.600697265157980e+000	 1.187074885476911e+001
 1.893895087288171e+000	 1.621680025648045e+000	 1.183531842198165e+001
 1.875889856281284e+000	 1.642474409913206e+000	 1.179655780195266e+001
 1.857649609041756e+000	 1.663076389346893e+000	 1.175445613023399e+001
 2.050838162035976e+000	 1.464391136072466e+000	 1.200408764091442e+001
 2.034642047863630e+000	 1.486812139264209e+000	 1.199610747089902e+001
 2.018186766716196e+000	 1.509072852658963e+000	 1.198178450866389e+001
 2.001474677829912e+000	 1.531168824064851e+000	 1.196090515766577e+001
 1.984508241585813e+000	 1.553095647259001e+000	 1.193482553549250e+001
 1.967290018398917e+000	 1.574848964843020e+000	 1.190574568511748e+001
 1.949822667511205e+000	 1.596424471066456e+000	 1.187377733653886e+001
 1.932108945689464e+000	 1.617817914614457e+000	 1.183901427364210e+001
 1.914151705829226e+000	 1.639025101355928e+000	 1.180155123936621e+001
 1.895953895466220e+000	 1.660041897048499e+000	 1.176148866046469e+001
 1.877518555196891e+000	 1.680864229996668e+000	 1.171893750403303e+001
 2.072541272719534e+000	 1.479888137979660e+000	 1.198226941283755e+001
 2.056173762254373e+000	 1.502546412704118e+000	 1.197454598546059e+001
 2.039544342164942e+000	 1.525042701355693e+000	 1.196024138600567e+001
 2.022655396654229e+000	 1.547372504626949e+000	 1.193931970084870e+001
 2.005509412140386e+000	 1.569531369665925e+000	 1.191170554930265e+001
 1.988108976134170e+000	 1.591514892961831e+000	 1.187830505443682e+001
 1.970456776019136e+000	 1.613318723198377e+000	 1.184233030782308e+001
 1.952555597735713e+000	 1.634938564070948e+000	 1.180426995668110e+001
 1.934408324370359e+000	 1.656370177063837e+000	 1.176440029967788e+001
 1.916017934651266e+000	 1.677609384183830e+000	 1.172300588329769e+001
 1.897387501352160e+000	 1.698652070646494e+000	 1.168038428163326e+001
 2.094244383402860e+000	 1.495385139886820e+000	 1.195475272543042e+001
 2.077705476644865e+000	 1.518280686144002e+000	 1.194686943130563e+001
 2.060901917613437e+000	 1.541012550052406e+000	 1.193208448021519e+001
 2.043836115478306e+000	 1.563576185189036e+000	 1.191059865186952e+001
 2.026510582694747e+000	 1.585967092072845e+000	 1.188257974182478e+001
 2.008927933869246e+000	 1.608180821080641e+000	 1.184815760717614e+001
 1.991090884526934e+000	 1.630212975330304e+000	 1.180803425992964e+001
 1.973002249781874e+000	 1.652059213527451e+000	 1.176616142646646e+001
 1.954664942911448e+000	 1.673715252771762e+000	 1.172366525557074e+001
 1.936081973836309e+000	 1.695176871319186e+000	 1.168107657927249e+001
 1.917256447507461e+000	 1.716439911296353e+000	 1.163894226758888e+001
 2.115947494085821e+000	 1.510882141793964e+000	 1.191971492907086e+001
 2.099237191034965e+000	 1.534014959583876e+000	 1.191126561109530e+001
 2.082259493061532e+000	 1.556982398749111e+000	 1.189553442137340e+001
 2.065016834301999e+000	 1.579779865751119e+000	 1.187301619245828e+001
 2.047511753248752e+000	 1.602402814479762e+000	 1.184418072455840e+001
 2.029746891604005e+000	 1.624846749199451e+000	 1.180946694779669e+001
 2.011724993034462e+000	 1.647107227462233e+000	 1.176927687930269e+001
 1.993448901827818e+000	 1.669179862983960e+000	 1.172432265804459e+001
 1.974921561452375e+000	 1.691060328479696e+000	 1.167912963868235e+001
 1.956146013021240e+000	 1.712744358454553e+000	 1.163564679014835e+001
 1.937125393662695e+000	 1.734227751946229e+000	 1.159473096244917e+001
 1.738435932119337e+000	 1.556349345450221e+000	 1.189323043981244e+001
 1.721151818107034e+000	 1.575442586637167e+000	 1.184777136905326e+001
 1.703653718137051e+000	 1.594348471918019e+000	 1.179629923447455e+001
 1.685944696578731e+000	 1.613063422360952e+000	 1.173957953417205e+001
 1.668027897230322e+000	 1.631583926286766e+000	 1.167841437958709e+001
 1.649906541462032e+000	 1.649906541462032e+000	 1.161364456769370e+001
 1.631583926286766e+000	 1.668027897230322e+000	 1.154615156777711e+001
 1.613063422360952e+000	 1.685944696578732e+000	 1.147685940454500e+001
 1.594348471918019e+000	 1.703653718137051e+000	 1.140673641911311e+001
 1.575442586637168e+000	 1.721151818107034e+000	 1.133679688933643e+001
 1.556349345450221e+000	 1.738435932119336e+000	 1.126810249102412e+001
 1.758304878271573e+000	 1.574137186099347e+000	 1.188002008144736e+001
 1.740823220522151e+000	 1.593448647914248e+000	 1.183457932114571e+001
 1.723125131125022e+000	 1.612570612493426e+000	 1.178215938289594e+001
 1.705213709472846e+000	 1.631499460000704e+000	 1.172378373242640e+001
 1.687092135294994e+000	 1.650231638621166e+000	 1.166052083081828e+001
 1.668763666779384e+000	 1.668763666779383e+000	 1.159348594170887e+001
 1.650231638621165e+000	 1.687092135294993e+000	 1.152384284293241e+001
 1.631499460000704e+000	 1.705213709472847e+000	 1.145280542410099e+001
 1.612570612493427e+000	 1.723125131125022e+000	 1.138163915139766e+001
 1.593448647914248e+000	 1.740823220522151e+000	 1.131166238076177e+001
 1.574137186099347e+000	 1.758304878271573e+000	 1.124424750069376e+001
 1.778173824424543e+000	 1.591925026748623e+000	 1.186254091515250e+001
 1.760494622937957e+000	 1.611454709191528e+000	 1.181676547867116e+001
 1.742596544113631e+000	 1.630792753069090e+000	 1.176353546025855e+001
 1.724482722367539e+000	 1.649935497640772e+000	 1.170404079785671e+001
 1.706156373360178e+000	 1.668879350955947e+000	 1.163952254262915e+001
 1.687620792097182e+000	 1.687620792097182e+000	 1.157127457363453e+001
 1.668879350955947e+000	 1.706156373360178e+000	 1.150064521126720e+001
 1.649935497640772e+000	 1.724482722367539e+000	 1.142903871031831e+001
 1.630792753069090e+000	 1.742596544113631e+000	 1.135791661324014e+001
 1.611454709191528e+000	 1.760494622937957e+000	 1.128879894406527e+001
 1.591925026748623e+000	 1.778173824424543e+000	 1.122326522345229e+001
 1.798042770578147e+000	 1.609712867398032e+000	 1.184102418893965e+001
 1.780166025354362e+000	 1.629460770468984e+000	 1.179475688403090e+001
 1.762067957102794e+000	 1.649014893644979e+000	 1.174099740486421e+001
 1.743751735262737e+000	 1.668371535281121e+000	 1.168101356508977e+001
 1.725220611425817e+000	 1.687527063291067e+000	 1.161612818769631e+001
 1.706477917415377e+000	 1.706477917415377e+000	 1.154772089697767e+001
 1.687527063291067e+000	 1.725220611425817e+000	 1.147722980805938e+001
 1.668371535281121e+000	 1.743751735262737e+000	 1.140615309378871e+001
 1.649014893644979e+000	 1.762067957102794e+000	 1.133605040846096e+001
 1.629460770468984e+000	 1.780166025354362e+000	 1.126854414767422e+001
 1.609712867398033e+000	 1.798042770578147e+000	 1.120532052358344e+001
 1.817911716732283e+000	 1.627500708047558e+000	 1.181569553032933e+001
 1.799837427771275e+000	 1.647466831746595e+000	 1.176896859632189e+001
 1.781539370092433e+000	 1.667237034221067e+000	 1.171509923313984e+001
 1.763020748158372e+000	 1.686807572921716e+000	 1.165534729921405e+001
 1.744284849491846e+000	 1.706174775626481e+000	 1.159102937647661e+001
 1.725335042733917e+000	 1.725335042733916e+000	 1.152352080694983e+001
 1.706174775626482e+000	 1.744284849491846e+000	 1.145425763014261e+001
 1.686807572921716e+000	 1.763020748158372e+000	 1.138473839960567e+001
 1.667237034221068e+000	 1.781539370092433e+000	 1.131652585659399e+001
 1.647466831746596e+000	 1.799837427771275e+000	 1.125124843853911e+001
 1.627500708047558e+000	 1.817911716732282e+000	 1.119060159996042e+001
 1.837780662886852e+000	 1.645288548697183e+000	 1.178677149733668e+001
 1.819508830188606e+000	 1.665472893024340e+000	 1.173980062226751e+001
 1.801010783082467e+000	 1.685459174797326e+000	 1.168637622846280e+001
 1.782289761054373e+000	 1.705243610562522e+000	 1.162766702756174e+001
 1.763349087558206e+000	 1.724822487962146e+000	 1.156489802422463e+001
 1.744192168052747e+000	 1.744192168052746e+000	 1.149935296231644e+001
 1.724822487962147e+000	 1.763349087558206e+000	 1.143237667959148e+001
 1.705243610562521e+000	 1.782289761054373e+000	 1.136537734738261e+001
 1.685459174797326e+000	 1.801010783082468e+000	 1.129982857130413e+001
 1.665472893024339e+000	 1.819508830188606e+000	 1.123727132865658e+001
 1.645288548697184e+000	 1.837780662886852e+000	 1.117931571807960e+001
 1.857649609041756e+000	 1.663076389346893e+000	 1.175445613023399e+001
 1.839180232606266e+000	 1.683478954302194e+000	 1.170763482304877e+001
 1.820482196072817e+000	 1.703681315373725e+000	 1.165534208908798e+001
 1.801558773950668e+000	 1.723679648203500e+000	 1.159857482141366e+001
 1.782413325624835e+000	 1.743470200298019e+000	 1.153838366591242e+001
 1.763049293371817e+000	 1.763049293371817e+000	 1.147587603981389e+001
 1.743470200298020e+000	 1.782413325624836e+000	 1.141221907085069e+001
 1.723679648203500e+000	 1.801558773950668e+000	 1.134864243131815e+001
 1.703681315373725e+000	 1.820482196072818e+000	 1.128644104069418e+001
 1.683478954302193e+000	 1.839180232606266e+000	 1.122697761006774e+001
 1.663076389346893e+000	 1.857649609041755e+000	 1.117168500140260e+001
 1.877518555196891e+000	 1.680864229996668e+000	 1.171893750403303e+001
 1.858851635024165e+000	 1.701485015580136e+000	 1.167283179882129e+001
 1.839953609063402e+000	 1.721903455950237e+000	 1.162248603820492e+001
 1.820827786847187e+000	 1.742115685844617e+000	 1.156864703133619e+001
 1.801477563691672e+000	 1.762117912634056e+000	 1.151211072290968e+001
 1.781906418691073e+000	 1.781906418691073e+000	 1.145372594464799e+001
 1.762117912634056e+000	 1.801477563691672e+000	 1.139439810401624e+001
 1.742115685844617e+000	 1.820827786847188e+000	 1.133509278178719e+001
 1.721903455950237e+000	 1.839953609063402e+000	 1.127683920936091e+001
 1.701485015580136e+000	 1.858851635024165e+000	 1.122073359622268e+001
 1.680864229996669e+000	 1.877518555196891e+000	 1.116794227761337e+001
 1.897387501352160e+000	 1.698652070646494e+000	 1.168038428163326e+001
 1.878523037442211e+000	 1.719491076858146e+000	 1.163572775255345e+001
 1.859425022054142e+000	 1.740125596526834e+000	 1.158826989890232e+001
 1.840096799743861e+000	 1.760551723485837e+000	 1.153843147954931e+001
 1.820541801758657e+000	 1.780765624970212e+000	 1.148667572496159e+001
 1.800763544010466e+000	 1.800763544010466e+000	 1.143351298029383e+001
 1.780765624970212e+000	 1.820541801758657e+000	 1.137950530674988e+001
 1.760551723485837e+000	 1.840096799743862e+000	 1.132527100981114e+001
 1.740125596526833e+000	 1.859425022054142e+000	 1.127148906207136e+001
 1.719491076858146e+000	 1.878523037442211e+000	 1.121890338777801e+001
 1.698652070646494e+000	 1.897387501352160e+000	 1.116832697576481e+001
 1.917256447507461e+000	 1.716439911296353e+000	 1.163894226758888e+001
 1.898194439860316e+000	 1.737497138136198e+000	 1.159663133468627e+001
 1.878896435044956e+000	 1.758347737103486e+000	 1.155312513658433e+001
 1.859365812640619e+000	 1.778987761127123e+000	 1.150844461244306e+001
 1.839606039825727e+000	 1.799413337306444e+000	 1.146264449070630e+001
 1.819620669329943e+000	 1.819620669329943e+000	 1.141581898054835e+001
 1.799413337306444e+000	 1.839606039825727e+000	 1.136810744710244e+001
 1.778987761127123e+000	 1.859365812640619e+000	 1.131970003565006e+001
 1.758347737103485e+000	 1.878896435044956e+000	 1.127084320894333e+001
 1.737497138136199e+000	 1.898194439860315e+000	 1.122184516105550e+001
 1.716439911296353e+000	 1.917256447507461e+000	 1.117308107062302e+001
 1.937125393662695e+000	 1.734227751946229e+000	 1.159473096244917e+001
 1.917865842278389e+000	 1.755503199414275e+000	 1.155582046999150e+001
 1.898367848035766e+000	 1.776569877680164e+000	 1.151744987117675e+001
 1.878634825537390e+000	 1.797423798768443e+000	 1.147916861610327e+001
 1.858670277892823e+000	 1.818061049642710e+000	 1.144054926970906e+001
 1.838477794649450e+000	 1.838477794649450e+000	 1.140119440654675e+001
 1.818061049642710e+000	 1.858670277892823e+000	 1.136074351933414e+001
 1.797423798768442e+000	 1.878634825537390e+000	 1.131887990265631e+001
 1.776569877680166e+000	 1.898367848035766e+000	 1.127533747202035e+001
 1.755503199414274e+000	 1.917865842278389e+000	 1.122990747753437e+001
 1.734227751946229e+000	 1.937125393662695e+000	 1.118244507082103e+001
 1.556349345450221e+000	 1.738435932119336e+000	 1.126810249102412e+001
 1.537069487102882e+000	 1.755505621180099e+000	 1.119658360590219e+001
 1.517609571401743e+000	 1.772355376050134e+000	 1.111827688708731e+001
 1.497973368419745e+000	 1.788982381374034e+000	 1.103445326425972e+001
 1.478164706143358e+000	 1.805383907963363e+000	 1.094644279951969e+001
 1.458187468011342e+000	 1.821557314259135e+000	 1.085563508858689e+001
 1.438045590410163e+000	 1.837500047710095e+000	 1.076347939129101e+001
 1.417743060129417e+000	 1.853209646065358e+000	 1.067148447734555e+001
 1.397283911780661e+000	 1.868683738580113e+000	 1.058121817462147e+001
 1.376672225183124e+000	 1.883920047133223e+000	 1.049430660849019e+001
 1.355912122719749e+000	 1.898916387255753e+000	 1.041243312227962e+001
 1.574137186099347e+000	 1.758304878271573e+000	 1.124424750069376e+001
 1.554636974237704e+000	 1.775569660362075e+000	 1.117549429709301e+001
 1.534954647109299e+000	 1.792611994588220e+000	 1.110122727793191e+001
 1.515094017876017e+000	 1.809429033417307e+000	 1.102245666329352e+001
 1.495058958275174e+000	 1.826018016468425e+000	 1.094024600813830e+001
 1.474853396130154e+000	 1.842376271991649e+000	 1.085571335437589e+001
 1.454481312817197e+000	 1.858501218262075e+000	 1.077003211338760e+001
 1.433946740691739e+000	 1.874390364887230e+000	 1.068443166225280e+001
 1.413253760477749e+000	 1.890041314026554e+000	 1.060019763817577e+001
 1.392406498623549e+000	 1.905451761521779e+000	 1.051867191700164e+001
 1.371409124627651e+000	 1.920619497937210e+000	 1.044125226323317e+001
 1.591925026748623e+000	 1.778173824424543e+000	 1.122326522345229e+001
 1.572204461372635e+000	 1.795633699544820e+000	 1.115736888879313e+001
 1.552299722816932e+000	 1.812868613127101e+000	 1.108662709392764e+001
 1.532214667332336e+000	 1.829875685461390e+000	 1.101186779223347e+001
 1.511953210407012e+000	 1.846652124974303e+000	 1.093396874318932e+001
 1.491519324248966e+000	 1.863195229724980e+000	 1.085385927950584e+001
 1.470917035224207e+000	 1.879502388814862e+000	 1.077252180277972e+001
 1.450150421254014e+000	 1.895571083709891e+000	 1.069099298842165e+001
 1.429223609174760e+000	 1.911398889473761e+000	 1.061036468188324e+001
 1.408140772063863e+000	 1.926983475911071e+000	 1.053178446963735e+001
 1.386906126535401e+000	 1.942322608619366e+000	 1.045645590994896e+001
 1.609712867398033e+000	 1.798042770578147e+000	 1.120532052358344e+001
 1.589771948507662e+000	 1.815697738728223e+000	 1.114221458596589e+001
 1.569644798524630e+000	 1.833125231666656e+000	 1.107438069099869e+001
 1.549335316788698e+000	 1.850322337506154e+000	 1.100254008322438e+001
 1.528847462538872e+000	 1.867286233480864e+000	 1.092746250659431e+001
 1.508185252367777e+000	 1.884014187458984e+000	 1.084996845458351e+001
 1.487352757631197e+000	 1.900503559368311e+000	 1.077093114387490e+001
 1.466354101816245e+000	 1.916751802533197e+000	 1.069127819009495e+001
 1.445193457871702e+000	 1.932756464921588e+000	 1.061199296538754e+001
 1.423875045504080e+000	 1.948515190300959e+000	 1.053411561908677e+001
 1.402403128443016e+000	 1.964025719302089e+000	 1.045874374439215e+001
 1.627500708047558e+000	 1.817911716732282e+000	 1.119060159996042e+001
 1.607339435642774e+000	 1.835761777912175e+000	 1.113007175530676e+001
 1.586989874232388e+000	 1.853381850206765e+000	 1.106443303414641e+001
 1.566455966245095e+000	 1.870768989551473e+000	 1.099437275883059e+001
 1.545741714670747e+000	 1.887920341987970e+000	 1.092062762156561e+001
 1.524851180486588e+000	 1.904833145193523e+000	 1.084398628906710e+001
 1.503788480038169e+000	 1.921504729922276e+000	 1.076529172287056e+001
 1.482557782378439e+000	 1.937932521356998e+000	 1.068544319173150e+001
 1.461163306568586e+000	 1.954114040369892e+000	 1.060539795388747e+001
 1.439609318944210e+000	 1.970046904691297e+000	 1.052617258847987e+001
 1.417900130350514e+000	 1.985728829985244e+000	 1.044884395713751e+001
 1.645288548697184e+000	 1.837780662886852e+000	 1.117931571807960e+001
 1.624906922777959e+000	 1.855825817096565e+000	 1.112100924377251e+001
 1.604334949940195e+000	 1.873638468747310e+000	 1.105676473771554e+001
 1.583576615701524e+000	 1.891215641597216e+000	 1.098730572273330e+001
 1.562635966802639e+000	 1.908554450495487e+000	 1.091340809576026e+001
 1.541517108605399e+000	 1.925652102928452e+000	 1.083590296212740e+001
 1.520224202445124e+000	 1.942505900476613e+000	 1.075567917469494e+001
 1.498761462940601e+000	 1.959113240181150e+000	 1.067368555242568e+001
 1.477133155265418e+000	 1.975471615818524e+000	 1.059093275437424e+001
 1.455343592384267e+000	 1.991578619081951e+000	 1.050849478664390e+001
 1.433397132257910e+000	 2.007431940668699e+000	 1.042823089571794e+001
 1.663076389346893e+000	 1.857649609041755e+000	 1.117168500140260e+001
 1.642474409913205e+000	 1.875889856281284e+000	 1.111511978484660e+001
 1.621680025648045e+000	 1.893895087288170e+000	 1.105138721336629e+001
 1.600697265157980e+000	 1.911662293643256e+000	 1.098131457005612e+001
 1.579530218934542e+000	 1.929188559003277e+000	 1.090578660836295e+001
 1.558183036724210e+000	 1.946471060663631e+000	 1.082574849454392e+001
 1.536659924852067e+000	 1.963507071031173e+000	 1.074220844132677e+001
 1.514965143502737e+000	 1.980293959005503e+000	 1.065624000572900e+001
 1.493103003962208e+000	 1.996829191267341e+000	 1.056898402541789e+001
 1.471077865824262e+000	 2.013110333472775e+000	 1.048410494117678e+001
 1.448894134165222e+000	 2.029135051352321e+000	 1.040711512609802e+001
 1.680864229996669e+000	 1.877518555196891e+000	 1.116794227761337e+001
 1.660041897048500e+000	 1.895953895466221e+000	 1.111251548604149e+001
 1.639025101355929e+000	 1.914151705829226e+000	 1.104833791777185e+001
 1.617817914614456e+000	 1.932108945689464e+000	 1.097640570845824e+001
 1.596424471066456e+000	 1.949822667511206e+000	 1.089777961191874e+001
 1.574848964843020e+000	 1.967290018398917e+000	 1.081358793266944e+001
 1.553095647259001e+000	 1.984508241585813e+000	 1.072502913324318e+001
 1.531168824064851e+000	 2.001474677829911e+000	 1.063340856093957e+001
 1.509072852658963e+000	 2.018186766716196e+000	 1.054504800830853e+001
 1.486812139264208e+000	 2.034642047863629e+000	 1.046401868951503e+001
 1.464391136072466e+000	 2.050838162035976e+000	 1.039045893729185e+001
 1.698652070646494e+000	 1.897387501352160e+000	 1.116832697576481e+001
 1.677609384183830e+000	 1.916017934651266e+000	 1.111332339168346e+001
 1.656370177063837e+000	 1.934408324370359e+000	 1.104767569273315e+001
 1.634938564070948e+000	 1.952555597735713e+000	 1.097261158187454e+001
 1.613318723198377e+000	 1.970456776019136e+000	 1.088943254050296e+001
 1.591514892961830e+000	 1.988108976134169e+000	 1.079951663624884e+001
 1.569531369665925e+000	 2.005509412140386e+000	 1.070482827641733e+001
 1.547372504626950e+000	 2.022655396654229e+000	 1.061374518714233e+001
 1.525042701355693e+000	 2.039544342164943e+000	 1.052907931621951e+001
 1.502546412704118e+000	 2.056173762254373e+000	 1.045121304189657e+001
 1.479888137979660e+000	 2.072541272719535e+000	 1.038050882959186e+001
 1.716439911296353e+000	 1.917256447507461e+000	 1.117308107062302e+001
 1.695176871319185e+000	 1.936081973836309e+000	 1.111768111551805e+001
 1.673715252771762e+000	 1.954664942911448e+000	 1.104947619100514e+001
 1.652059213527451e+000	 1.973002249781873e+000	 1.096998598945750e+001
 1.630212975330304e+000	 1.991090884526934e+000	 1.088081511651474e+001
 1.608180821080641e+000	 2.008927933869245e+000	 1.078504622682491e+001
 1.585967092072845e+000	 2.026510582694747e+000	 1.069229863359232e+001
 1.563576185189036e+000	 2.043836115478306e+000	 1.060467101041776e+001
 1.541012550052406e+000	 2.060901917613437e+000	 1.052285116284590e+001
 1.518280686144002e+000	 2.077705476644866e+000	 1.044751694660173e+001
 1.495385139886820e+000	 2.094244383402859e+000	 1.037932691143774e+001
 1.734227751946229e+000	 1.937125393662695e+000	 1.118244507082103e+001
 1.712744358454553e+000	 1.956146013021241e+000	 1.112573253812363e+001
 1.691060328479696e+000	 1.974921561452375e+000	 1.105382738168151e+001
 1.669179862983960e+000	 1.993448901827818e+000	 1.096859949288484e+001
 1.647107227462233e+000	 2.011724993034462e+000	 1.087449996921620e+001
 1.624846749199452e+000	 2.029746891604005e+000	 1.078186372099937e+001
 1.602402814479762e+000	 2.047511753248752e+000	 1.069250790388703e+001
 1.579779865751119e+000	 2.065016834301999e+000	 1.060747825591410e+001
 1.556982398749111e+000	 2.082259493061532e+000	 1.052782454307612e+001
 1.534014959583875e+000	 2.099237191034965e+000	 1.045458931579441e+001
 1.510882141793964e+000	 2.115947494085821e+000	 1.038879713695596e+001
 1.355912122719749e+000	 1.898916387255753e+000	 1.041243312227962e+001
 1.335007766215312e+000	 1.913670668530300e+000	 1.032909847719742e+001
 1.313963352917359e+000	 1.928180893807915e+000	 1.023910498158056e+001
 1.292783114191905e+000	 1.942445161561669e+000	 1.014546520516144e+001
 1.271471313257540e+000	 1.956461667092249e+000	 1.004894833120872e+001
 1.250032242448504e+000	 1.970228703106179e+000	 9.950232863116440e+000
 1.228470220469227e+000	 1.983744660202318e+000	 9.849918540136137e+000
 1.206789589643861e+000	 1.997008027266777e+000	 9.748526424554754e+000
 1.184994713164319e+000	 2.010017391776478e+000	 9.646560693017417e+000
 1.163089972340300e+000	 2.022771440011767e+000	 9.543825734665290e+000
 1.141079763854727e+000	 2.035268957178629e+000	 9.439294317533916e+000
 1.371409124627651e+000	 1.920619497937210e+000	 1.044125226323317e+001
 1.350265847881186e+000	 1.935542408963624e+000	 1.036121088024382e+001
 1.328980913602921e+000	 1.950218474626249e+000	 1.027200530690960e+001
 1.307558601520036e+000	 1.964645771665227e+000	 1.017806611156230e+001
 1.286003223576339e+000	 1.978822474754980e+000	 1.008172325207122e+001
 1.264319121164056e+000	 1.992746857089031e+000	 9.983705059638128e+000
 1.242510662346993e+000	 2.006417290872079e+000	 9.884836652618404e+000
 1.220582239078634e+000	 2.019832247719414e+000	 9.786339996798491e+000
 1.198538264418724e+000	 2.032990298963953e+000	 9.687585220636827e+000
 1.176383169751866e+000	 2.045890115871281e+000	 9.587584185880335e+000
 1.154121402011593e+000	 2.058530469763273e+000	 9.485285413440280e+000
 1.386906126535401e+000	 1.942322608619366e+000	 1.045645590994896e+001
 1.365523929546859e+000	 1.957414149397602e+000	 1.037761677773596e+001
 1.343998474288224e+000	 1.972256055445191e+000	 1.028871435818392e+001
 1.322334088847847e+000	 1.986846381769343e+000	 1.019208227384761e+001
 1.300535133894753e+000	 2.001183282418213e+000	 1.009328668445136e+001
 1.278605999879158e+000	 2.015265011072332e+000	 9.995254992992518e+000
 1.256551104224244e+000	 2.029089921542232e+000	 9.898691287651612e+000
 1.234374888512827e+000	 2.042656468172388e+000	 9.802747129468031e+000
 1.212081815672489e+000	 2.055963206151714e+000	 9.706481540824518e+000
 1.189676367162741e+000	 2.069008791731038e+000	 9.608878919750225e+000
 1.167163040167724e+000	 2.081791982348114e+000	 9.508866393433790e+000
 1.402403128443016e+000	 1.964025719302089e+000	 1.045874374439215e+001
 1.380782011212353e+000	 1.979285889832116e+000	 1.037923997502002e+001
 1.359016034973300e+000	 1.994293636264635e+000	 1.028923490401160e+001
 1.337109576175375e+000	 2.009046991873925e+000	 1.019108587373376e+001
 1.315067044212827e+000	 2.023544090081880e+000	 1.009108604876196e+001
 1.292892878593861e+000	 2.037783165056030e+000	 9.993642275805222e+000
 1.270591546101038e+000	 2.051762552212749e+000	 9.898076199073421e+000
 1.248167537946512e+000	 2.065480688625692e+000	 9.803492630189796e+000
 1.225625366925698e+000	 2.078936113339772e+000	 9.708905591315272e+000
 1.202969564573016e+000	 2.092127467591057e+000	 9.613257991286883e+000
 1.180204678323221e+000	 2.105053494933187e+000	 9.515440668379499e+000
 1.417900130350514e+000	 1.985728829985244e+000	 1.044884395713751e+001
 1.396040092877691e+000	 2.001157630267043e+000	 1.036704112357693e+001
 1.374033595658175e+000	 2.016331217084475e+000	 1.027749379935272e+001
 1.351885063502655e+000	 2.031247601978889e+000	 1.018291208543480e+001
 1.329598954530604e+000	 2.045904897745910e+000	 1.008359378369909e+001
 1.307179757308217e+000	 2.060301319040078e+000	 9.984788014533171e+000
 1.284631987977439e+000	 2.074435182883600e+000	 9.888643886114625e+000
 1.261960187379758e+000	 2.088304909079315e+000	 9.794206708189195e+000
 1.239168918178429e+000	 2.101909020528132e+000	 9.700431605116009e+000
 1.216262761982781e+000	 2.115246143451361e+000	 9.606205121161393e+000
 1.193246316478183e+000	 2.128315007518526e+000	 9.510366116830470e+000
 1.433397132257910e+000	 2.007431940668699e+000	 1.042823089571794e+001
 1.411298174542895e+000	 2.023029370702263e+000	 1.034848202746466e+001
 1.389051156342877e+000	 2.038368797904605e+000	 1.026299079345605e+001
 1.366660550829724e+000	 2.053448212084144e+000	 1.017184129295746e+001
 1.344130864848129e+000	 2.068265705410237e+000	 1.007511413879311e+001
 1.321466636022281e+000	 2.082819473024427e+000	 9.974186411909932e+000
 1.298672429853509e+000	 2.097107813554756e+000	 9.875912443297979e+000
 1.275752836812638e+000	 2.111129129533246e+000	 9.780400168496662e+000
 1.252712469430764e+000	 2.124881927716801e+000	 9.686530936074391e+000
 1.229555959392127e+000	 2.138364819311972e+000	 9.593119117953627e+000
 1.206287954632712e+000	 2.151576520104164e+000	 9.498935031581617e+000
 1.448894134165222e+000	 2.029135051352321e+000	 1.040711512609802e+001
 1.426556256207987e+000	 2.044901111137655e+000	 1.033114386325814e+001
 1.404068717027438e+000	 2.060406378724921e+000	 1.024917996043494e+001
 1.381436038156617e+000	 2.075648822189604e+000	 1.016120407868096e+001
 1.358662775165444e+000	 2.090626513074790e+000	 1.006718905194886e+001
 1.335753514736103e+000	 2.105337627009026e+000	 9.967095987677844e+000
 1.312712871729308e+000	 2.119780444226189e+000	 9.865242880035989e+000
 1.289545486245221e+000	 2.133953349987476e+000	 9.767442469142015e+000
 1.266256020682782e+000	 2.147854834905787e+000	 9.672550788422262e+000
 1.242849156801144e+000	 2.161483495172912e+000	 9.579293213696692e+000
 1.219329592786908e+000	 2.174838032690134e+000	 9.486353993837891e+000
 1.464391136072466e+000	 2.050838162035976e+000	 1.039045893729185e+001
 1.441814337872990e+000	 2.066772851573099e+000	 1.031771486570091e+001
 1.419086277711884e+000	 2.082443959545315e+000	 1.023897456668083e+001
 1.396211525483370e+000	 2.097849432295178e+000	 1.015411281784798e+001
 1.373194685482595e+000	 2.112987320739501e+000	 1.006299050596988e+001
 1.350040393449737e+000	 2.127855780993828e+000	 9.965450577872630e+000
 1.326753313604898e+000	 2.142453074897868e+000	 9.861816348117248e+000
 1.303338135677579e+000	 2.156777570441995e+000	 9.760539685483272e+000
 1.279799571934565e+000	 2.170827742095097e+000	 9.663692857409901e+000
 1.256142354209923e+000	 2.184602171034203e+000	 9.569894319139765e+000
 1.232371230940871e+000	 2.198099545276473e+000	 9.477723680358967e+000
 1.479888137979660e+000	 2.072541272719535e+000	 1.038050882959186e+001
 1.457072419537926e+000	 2.088644592008472e+000	 1.031068433802144e+001
 1.434103838396246e+000	 2.104481540365685e+000	 1.023508195700313e+001
 1.410987012810020e+000	 2.120050042400781e+000	 1.015346830924134e+001
 1.387726595799625e+000	 2.135348128404301e+000	 1.006558834216085e+001
 1.364327272163235e+000	 2.150373934978783e+000	 9.971161114862461e+000
 1.340793755480339e+000	 2.165125705569764e+000	 9.869876347857927e+000
 1.317130785109784e+000	 2.179601790896790e+000	 9.764712388479174e+000
 1.293343123186193e+000	 2.193800649284738e+000	 9.664991887549329e+000
 1.269435551618554e+000	 2.207720846895866e+000	 9.569942204616650e+000
 1.245412869094703e+000	 2.221361057863212e+000	 9.478018608496479e+000
 1.495385139886820e+000	 2.094244383402859e+000	 1.037932691143774e+001
 1.472330501202817e+000	 2.110516332443655e+000	 1.031234906113881e+001
 1.449121399080551e+000	 2.126519121185920e+000	 1.024001008055098e+001
 1.425762500136603e+000	 2.142250652506322e+000	 1.016196635320805e+001
 1.402258506116577e+000	 2.157708936069120e+000	 1.007784308305609e+001
 1.378614150876650e+000	 2.172892088963843e+000	 9.987229900785287e+000
 1.354834197355695e+000	 2.187798336241849e+000	 9.889677303777699e+000
 1.330923434541905e+000	 2.202426011351853e+000	 9.784773443149852e+000
 1.306886674437748e+000	 2.216773556474716e+000	 9.681294154445959e+000
 1.282728749027127e+000	 2.230839522757924e+000	 9.584288611917494e+000
 1.258454507248502e+000	 2.244622570450384e+000	 9.492066823629795e+000
 1.510882141793964e+000	 2.115947494085821e+000	 1.038879713695596e+001
 1.487588582867686e+000	 2.132388072878528e+000	 1.032481968960833e+001
 1.464138959764830e+000	 2.148556702005919e+000	 1.025607398373729e+001
 1.440537987463155e+000	 2.164451262611717e+000	 1.018210428081103e+001
 1.416790416433498e+000	 2.180069743733891e+000	 1.010241243777185e+001
 1.392901029590033e+000	 2.195410242948957e+000	 1.001645331359202e+001
 1.368874639231026e+000	 2.210470966914093e+000	 9.923631086246354e+000
 1.344716083974012e+000	 2.225250231807173e+000	 9.823296527288767e+000
 1.320430225689309e+000	 2.239746463665041e+000	 9.717235875707042e+000
 1.296021946435735e+000	 2.253958198620401e+000	 9.617596302120580e+000
 1.271496145402372e+000	 2.267884083038025e+000	 9.524529533137688e+000
 1.141079763854727e+000	 2.035268957178629e+000	 9.439294317533916e+000
 1.118971821116124e+000	 2.047507011200339e+000	 9.333511486776347e+000
 1.096767268820617e+000	 2.059486480776334e+000	 9.227801547089445e+000
 1.074470532596845e+000	 2.071206449790665e+000	 9.122243349405615e+000
 1.052086042539205e+000	 2.082666100602788e+000	 9.016856995679742e+000
 1.029618230541540e+000	 2.093864713729079e+000	 8.911611340940370e+000
 1.007071527655773e+000	 2.104801667440268e+000	 8.806422025571141e+000
 9.844503614784818e-001	 2.115476437276296e+000	 8.701188670120404e+000
 9.617591535682968e-001	 2.125888595480185e+000	 8.595754846491325e+000
 9.390023168969391e-001	 2.136037810352666e+000	 8.489939224927028e+000
 9.161842533366131e-001	 2.145923845529372e+000	 8.383531182922633e+000
 1.154121402011593e+000	 2.058530469763273e+000	 9.485285413440277e+000
 1.131760782993169e+000	 2.070908395051891e+000	 9.380968414712104e+000
 1.109302450247109e+000	 2.083024780479415e+000	 9.275796488682579e+000
 1.086750879983489e+000	 2.094878699459406e+000	 9.170008203885079e+000
 1.064110552929180e+000	 2.106469325006327e+000	 9.063790610578618e+000
 1.041385951631065e+000	 2.117795929413422e+000	 8.957287376864997e+000
 1.018581557784487e+000	 2.128857883845541e+000	 8.850605848152958e+000
 9.957018495899491e-001	 2.139654657848452e+000	 8.743812744346334e+000
 9.727512991410008e-001	 2.150185818776249e+000	 8.636976998194937e+000
 9.497343698461394e-001	 2.160451031138595e+000	 8.530119641575071e+000
 9.266555138874860e-001	 2.170450055869658e+000	 8.423249597786450e+000
 1.167163040167724e+000	 2.081791982348114e+000	 9.508866393433790e+000
 1.144549744869445e+000	 2.094309778903606e+000	 9.406409560737806e+000
 1.121837631672807e+000	 2.106563080182627e+000	 9.302443481761083e+000
 1.099031227369319e+000	 2.118550949128249e+000	 9.197323846781400e+000
 1.076135063318328e+000	 2.130272549409948e+000	 9.091362965850765e+000
 1.053153672719756e+000	 2.141727145097828e+000	 8.984838690140956e+000
 1.030091587912363e+000	 2.152914100250859e+000	 8.878002134763895e+000
 1.006953337700580e+000	 2.163832878420640e+000	 8.771074597637773e+000
 9.837434447128693e-001	 2.174483042072332e+000	 8.664288108948282e+000
 9.604664227945058e-001	 2.184864251924533e+000	 8.557839522088329e+000
 9.371267744375259e-001	 2.194976266209944e+000	 8.451923876907570e+000
 1.180204678323221e+000	 2.105053494933187e+000	 9.515440668379496e+000
 1.157338706745061e+000	 2.117711162755524e+000	 9.415069151783250e+000
 1.134372813097828e+000	 2.130101379886014e+000	 9.312795861661160e+000
 1.111311574754465e+000	 2.142223198797243e+000	 9.209051374505185e+000
 1.088159573706788e+000	 2.154075773813694e+000	 9.104231984572518e+000
 1.064921393807760e+000	 2.165658360782337e+000	 8.998709566467138e+000
 1.041601618039557e+000	 2.176970316656258e+000	 8.892840107153827e+000
 1.018204825810532e+000	 2.188011098992888e+000	 8.786970825003985e+000
 9.947355902840654e-001	 2.198780265368455e+000	 8.681434400135244e+000
 9.711984757422031e-001	 2.209277472710488e+000	 8.576595589393250e+000
 9.475980349868981e-001	 2.219502476550226e+000	 8.472794132675892e+000
 1.193246316478183e+000	 2.128315007518526e+000	 9.510366116830470e+000
 1.170127668620127e+000	 2.141112546607686e+000	 9.412155469864819e+000
 1.146907994522294e+000	 2.153639679589622e+000	 9.311900725694271e+000
 1.123591922139055e+000	 2.165895448466434e+000	 9.210065353219177e+000
 1.100184084094699e+000	 2.177878998217611e+000	 9.107088651803620e+000
 1.076689114895224e+000	 2.189589576466989e+000	 9.003396716246293e+000
 1.053111648166220e+000	 2.201026533061774e+000	 8.899411928531359e+000
 1.029456313919965e+000	 2.212189319565223e+000	 8.795560886614091e+000
 1.005727735854752e+000	 2.223077488664634e+000	 8.692270134232942e+000
 9.819305286893987e-001	 2.233690693496472e+000	 8.590009971517041e+000
 9.580692955357707e-001	 2.244028686890507e+000	 8.489242493731071e+000
 1.206287954632712e+000	 2.151576520104164e+000	 9.498935031581617e+000
 1.182916630494756e+000	 2.164513930460135e+000	 9.402831279946513e+000
 1.159443175946325e+000	 2.177177979293498e+000	 9.304779830323923e+000
 1.135872269523220e+000	 2.189567698135869e+000	 9.205235174650497e+000
 1.112208594482198e+000	 2.201682222621746e+000	 9.104638819686203e+000
 1.088456835982293e+000	 2.213520792151826e+000	 9.003431520980588e+000
 1.064621678292507e+000	 2.225082749467440e+000	 8.902063889896523e+000
 1.040707802029039e+000	 2.236367540137672e+000	 8.801005275953290e+000
 1.016719881425092e+000	 2.247374711960891e+000	 8.700750845747061e+000
 9.926625816362568e-001	 2.258103914282494e+000	 8.601814161435991e+000
 9.685405560843093e-001	 2.268554897230786e+000	 8.504777487510072e+000
 1.219329592786908e+000	 2.174838032690134e+000	 9.486353993837893e+000
 1.195705592369057e+000	 2.187915314312910e+000	 9.392194202734887e+000
 1.171978357370042e+000	 2.200716278997688e+000	 9.296410451507041e+000
 1.148152616907090e+000	 2.213239947805595e+000	 9.199406394018746e+000
 1.124233104869425e+000	 2.225485447026141e+000	 9.101585014145785e+000
 1.100224557069113e+000	 2.237452007836891e+000	 9.003362301101220e+000
 1.076131708418570e+000	 2.249138965873294e+000	 8.905179132550972e+000
 1.051959290137910e+000	 2.260545760710265e+000	 8.807511259116559e+000
 1.027712026995249e+000	 2.271671935257245e+000	 8.710877304363676e+000
 1.003394634582944e+000	 2.282517135068562e+000	 8.615833077402646e+000
 9.790118166326809e-001	 2.293081107571061e+000	 8.523018542058116e+000
 1.232371230940871e+000	 2.198099545276473e+000	 9.477723680358967e+000
 1.208494554243141e+000	 2.211316698166054e+000	 9.385257036487353e+000
 1.184513538793563e+000	 2.224254578702237e+000	 9.291706210928078e+000
 1.160432964290793e+000	 2.236912197475659e+000	 9.197382051405770e+000
 1.136257615256517e+000	 2.249288671430844e+000	 9.102608243076739e+000
 1.111992278155832e+000	 2.261383223522224e+000	 9.007736603644505e+000
 1.087641738544563e+000	 2.273195182279368e+000	 8.913160408964794e+000
 1.063210778246740e+000	 2.284723981283027e+000	 8.819325633368830e+000
 1.038704172565387e+000	 2.295969158553711e+000	 8.726740011036902e+000
 1.014126687529626e+000	 2.306930355854685e+000	 8.635979847203318e+000
 9.894830771810521e-001	 2.317607317911332e+000	 8.547680598269253e+000
 1.245412869094703e+000	 2.221361057863212e+000	 9.478018608496479e+000
 1.221283516117117e+000	 2.234718082019610e+000	 9.386928031572746e+000
 1.197048720217010e+000	 2.247792878407190e+000	 9.295497870627811e+000
 1.172713311674459e+000	 2.260584447146108e+000	 9.203903977781867e+000
 1.148282125643612e+000	 2.273091895835900e+000	 9.112349805902969e+000
 1.123759999242596e+000	 2.285314439207865e+000	 9.021083508320764e+000
 1.099151768670638e+000	 2.297251398685700e+000	 8.930412879189957e+000
 1.074462266355686e+000	 2.308902201855987e+000	 8.840718008632960e+000
 1.049696318135667e+000	 2.320266381850311e+000	 8.752461550593337e+000
 1.024858740476468e+000	 2.331343576640874e+000	 8.666196525508321e+000
 9.999543377295893e-001	 2.342133528251598e+000	 8.582558824459632e+000
 1.258454507248502e+000	 2.244622570450384e+000	 9.492066823629795e+000
 1.234072477991097e+000	 2.258119465873619e+000	 9.401991121213435e+000
 1.209583901640504e+000	 2.271331178112595e+000	 9.312514098320936e+000
 1.184993659058219e+000	 2.284256696816990e+000	 9.223634086802434e+000
 1.160306636030851e+000	 2.296895120241353e+000	 9.135393104416146e+000
 1.135527720329550e+000	 2.309245654893858e+000	 9.047895950641957e+000
 1.110661798796949e+000	 2.321307615092325e+000	 8.961326940240927e+000
 1.085713754464907e+000	 2.333080422429172e+000	 8.875964137833657e+000
 1.060688463706254e+000	 2.344563605147063e+000	 8.792190982369366e+000
 1.035590793423637e+000	 2.355756797427138e+000	 8.710505216364050e+000
 1.010425598278460e+000	 2.366659738591860e+000	 8.631525060961469e+000
 1.271496145402372e+000	 2.267884083038025e+000	 9.524529533137686e+000
 1.246861439865192e+000	 2.281520849728122e+000	 9.435086111555945e+000
 1.222119083064165e+000	 2.294869477818497e+000	 9.347362205507881e+000
 1.197274006442202e+000	 2.307928946488350e+000	 9.261135653397266e+000
 1.172331146418369e+000	 2.320698344647250e+000	 9.176245454800018e+000
 1.147295441416841e+000	 2.333176870580241e+000	 9.092613060884474e+000
 1.122171828923650e+000	 2.345363831499277e+000	 9.010261086076200e+000
 1.096965242574563e+000	 2.357258643002612e+000	 8.929329292588788e+000
 1.071680609277310e+000	 2.368860828443987e+000	 8.850087726947006e+000
 1.046322846371299e+000	 2.380170018213485e+000	 8.772946915574339e+000
 1.020896858827830e+000	 2.391185948932115e+000	 8.698465054647897e+000
 9.161842533366131e-001	 2.145923845529372e+000	 8.383531182922633e+000
 8.933059157493626e-001	 2.155547983255453e+000	 8.276546924035026e+000
 8.703750978801976e-001	 2.164908673947971e+000	 8.169540826466427e+000
 8.473961566412123e-001	 2.174005963882928e+000	 8.063024441186567e+000
 8.243734281452965e-001	 2.182839991099376e+000	 7.957484468183718e+000
 8.013112254104073e-001	 2.191410984317160e+000	 7.853377129648994e+000
 7.782138361143608e-001	 2.199719261790046e+000	 7.751121541819509e+000
 7.550855204020774e-001	 2.207765230096631e+000	 7.651092147405936e+000
 7.319305087471113e-001	 2.215549382871506e+000	 7.553610279957230e+000
 7.087529998691573e-001	 2.223072299479171e+000	 7.458934940115464e+000
 6.855571587091146e-001	 2.230334643633273e+000	 7.367252871433368e+000
 9.266555138874860e-001	 2.170450055869658e+000	 8.423249597786452e+000
 9.035156950175441e-001	 2.180184189869629e+000	 8.316724198947970e+000
 8.803227960576489e-001	 2.189651865845055e+000	 8.211080177635926e+000
 8.570812237159355e-001	 2.198853130600830e+000	 8.106523168914395e+000
 8.337953636636191e-001	 2.207788123753673e+000	 8.003242106871888e+000
 8.104695782130246e-001	 2.216457076637510e+000	 7.901403925112583e+000
 7.871082040467171e-001	 2.224860311143484e+000	 7.801147119603982e+000
 7.637155499996888e-001	 2.232998238497061e+000	 7.702574239304026e+000
 7.402958948964443e-001	 2.240871357974673e+000	 7.605743380358144e+000
 7.168534854447088e-001	 2.248480255562493e+000	 7.510658769133581e+000
 6.933925341873450e-001	 2.255825602559878e+000	 7.417260527890106e+000
 9.371267744375259e-001	 2.194976266209944e+000	 8.451923876907570e+000
 9.137254742848916e-001	 2.204820396483794e+000	 8.347145271152538e+000
 8.902704942342629e-001	 2.214395057742118e+000	 8.243971342192944e+000
 8.667662907898178e-001	 2.223700297318701e+000	 8.142336316901480e+000
 8.432172991810966e-001	 2.232736256407930e+000	 8.042168023513609e+000
 8.196279310147911e-001	 2.241503168957810e+000	 7.943382857515831e+000
 7.960025719782182e-001	 2.250001360496865e+000	 7.845879463046401e+000
 7.723455795964405e-001	 2.258231246897425e+000	 7.749531199090910e+000
 7.486612810449145e-001	 2.266193333077768e+000	 7.654177471117153e+000
 7.249539710193939e-001	 2.273888211645735e+000	 7.559614019207327e+000
 7.012279096647085e-001	 2.281316561486399e+000	 7.465582263135301e+000
 9.475980349868981e-001	 2.219502476550226e+000	 8.472794132675892e+000
 9.239352535515701e-001	 2.229456603097937e+000	 8.370798933207876e+000
 9.002181924102023e-001	 2.239138249639140e+000	 8.270968243535787e+000
 8.764513578630181e-001	 2.248547464036511e+000	 8.172998336760895e+000
 8.526392346978823e-001	 2.257684389062107e+000	 8.076591618581352e+000
 8.287862838158566e-001	 2.266549261278012e+000	 7.981451798634441e+000
 8.048969399090081e-001	 2.275142409850134e+000	 7.887277619424260e+000
 7.809756091924724e-001	 2.283464255297661e+000	 7.793755216336606e+000
 7.570266671926571e-001	 2.291515308180720e+000	 7.700549194670327e+000
 7.330544565933475e-001	 2.299296167728821e+000	 7.607292521015517e+000
 7.090632851413385e-001	 2.306807520412753e+000	 7.513575336622486e+000
 9.580692955357707e-001	 2.244028686890507e+000	 8.489242493731071e+000
 9.341450328177451e-001	 2.254092809712048e+000	 8.390831255799021e+000
 9.101658905856305e-001	 2.263881441536101e+000	 8.294995459779496e+000
 8.861364249356952e-001	 2.273394630754231e+000	 8.201225832688598e+000
 8.620611702141319e-001	 2.282632521716167e+000	 8.109034075378691e+000
 8.379446366163711e-001	 2.291595353598070e+000	 8.017948181392054e+000
 8.137913078392323e-001	 2.300283459203229e+000	 7.927506143819380e+000
 7.896056387879250e-001	 2.308697263697702e+000	 7.837248128258752e+000
 7.653920533398095e-001	 2.316837283283455e+000	 7.746707203523252e+000
 7.411549421667035e-001	 2.324704123811672e+000	 7.655398734203994e+000
 7.168986606173690e-001	 2.332298479338855e+000	 7.562808550476338e+000
 9.685405560843093e-001	 2.268554897230786e+000	 8.504777487510069e+000
 9.443548120835819e-001	 2.278729016326116e+000	 8.410530421093302e+000
 9.201135887607101e-001	 2.288624633432979e+000	 8.319133561526446e+000
 8.958214920080091e-001	 2.298241797471829e+000	 8.229903453880356e+000
 8.714831057299987e-001	 2.307580654370066e+000	 8.142194853993019e+000
 8.471029894164829e-001	 2.316641445917933e+000	 8.055396138921093e+000
 8.226856757690345e-001	 2.325424508556098e+000	 7.968922923578588e+000
 7.982356683829376e-001	 2.333930272097482e+000	 7.882209966630867e+000
 7.737574394865078e-001	 2.342159258385901e+000	 7.794701463459445e+000
 7.492554277395961e-001	 2.350112079894209e+000	 7.705839837588868e+000
 7.247340360929326e-001	 2.357789438264623e+000	 7.615053154281826e+000
 9.790118166326809e-001	 2.293081107571061e+000	 8.523018542058118e+000
 9.545645913492464e-001	 2.303365222940131e+000	 8.433311691642942e+000
 9.300612869356041e-001	 2.313367825329754e+000	 8.346604597240111e+000
 9.055065590801177e-001	 2.323088964189277e+000	 8.262069942529466e+000
 8.809050412456383e-001	 2.332528787023769e+000	 8.178938344869618e+000
 8.562613422163421e-001	 2.341687538237552e+000	 8.096493803498992e+000
 8.315800436985597e-001	 2.350565557908681e+000	 8.014067159267306e+000
 8.068656979776513e-001	 2.359163280496939e+000	 7.931027654320629e+000
 7.821228256328890e-001	 2.367481233487989e+000	 7.846772696182264e+000
 7.573559133121597e-001	 2.375520035976356e+000	 7.760715945425905e+000
 7.325694115681635e-001	 2.383280397189971e+000	 7.672273859559682e+000
 9.894830771810521e-001	 2.317607317911332e+000	 8.547680598269254e+000
 9.647743706149043e-001	 2.328001429554083e+000	 8.462702504791519e+000
 9.400089851104753e-001	 2.338111017226406e+000	 8.380757715286677e+000
 9.151916261521811e-001	 2.347936130906542e+000	 8.300904325878463e+000
 8.903269767612044e-001	 2.357476919677232e+000	 8.222280670182318e+000
 8.654196950160987e-001	 2.366733630556880e+000	 8.144100753517192e+000
 8.404744116279526e-001	 2.375706607260921e+000	 8.065647490524858e+000
 8.154957275722060e-001	 2.384396288896006e+000	 7.986263840371648e+000
 7.904882117790896e-001	 2.392803208589645e+000	 7.905341951061486e+000
 7.654563988845279e-001	 2.400927992058032e+000	 7.822310440409297e+000
 7.404047870431946e-001	 2.408771356114817e+000	 7.736619955801756e+000
 9.999543377295893e-001	 2.342133528251598e+000	 8.582558824459632e+000
 9.749841498807206e-001	 2.352637636167958e+000	 8.502327683384213e+000
 9.499566832854869e-001	 2.362854209122914e+000	 8.425054912626873e+000
 9.248766932243571e-001	 2.372783297623596e+000	 8.349712241764253e+000
 8.997489122768516e-001	 2.382425052330420e+000	 8.275376622165066e+000
 8.745780478159022e-001	 2.391779722875868e+000	 8.201225597628380e+000
 8.493687795573580e-001	 2.400847656612761e+000	 8.126530256197059e+000
 8.241257571667413e-001	 2.409629297294619e+000	 8.050645863471122e+000
 7.988535979252458e-001	 2.418125183690795e+000	 7.973000296519208e+000
 7.735568844568355e-001	 2.426335948139160e+000	 7.893080414838241e+000
 7.482401625181595e-001	 2.434262315039077e+000	 7.810416520619985e+000
 1.010425598278460e+000	 2.366659738591860e+000	 8.631525060961469e+000
 9.851939291468612e-001	 2.377273842781749e+000	 8.555894754344269e+000
 9.599043814608010e-001	 2.387597401019256e+000	 8.483056900969277e+000
 9.345617602968062e-001	 2.397630464340408e+000	 8.411912387972057e+000
 9.091708477927346e-001	 2.407373184983288e+000	 8.341506728467902e+000
 8.837364006159016e-001	 2.416825815194467e+000	 8.271013686121940e+000
 8.582631474869203e-001	 2.425988705964147e+000	 8.199727879003699e+000
 8.327557867613982e-001	 2.434862305692712e+000	 8.127054834489552e+000
 8.072189840714941e-001	 2.443447158791370e+000	 8.052498622374237e+000
 7.816573700292160e-001	 2.451743904219661e+000	 7.975647212106090e+000
 7.560755379931917e-001	 2.459753273962668e+000	 7.896155717179601e+000
 1.020896858827830e+000	 2.391185948932115e+000	 8.698465054647896e+000
 9.954037084134920e-001	 2.401910049395444e+000	 8.627179367371211e+000
 9.698520796365818e-001	 2.412340592915415e+000	 8.558409081949939e+000
 9.442468273696867e-001	 2.422477631056949e+000	 8.491023086508969e+000
 9.185927833090082e-001	 2.432321317635803e+000	 8.424064435417099e+000
 8.928947534162468e-001	 2.441871907512629e+000	 8.356734940389764e+000
 8.671575154167843e-001	 2.451129755315018e+000	 8.288387365799599e+000
 8.413858163563170e-001	 2.460095314090223e+000	 8.218514829542752e+000
 8.155843702179720e-001	 2.468769133891297e+000	 8.146737545177961e+000
 7.897578556018043e-001	 2.477151860299458e+000	 8.072787061305933e+000
 7.639109134684247e-001	 2.485244232885506e+000	 7.996488172650231e+000
 6.855571587091146e-001	 2.230334643633273e+000	 7.367252871433368e+000
 6.623471141318938e-001	 2.237337161406804e+000	 7.275976737824398e+000
 6.391269560606028e-001	 2.244080678083104e+000	 7.188307118514352e+000
 6.159007346850257e-001	 2.250566098306568e+000	 7.106633636258619e+000
 5.926724590196567e-001	 2.256794405071064e+000	 7.030684339583977e+000
 5.694460951855147e-001	 2.262766658109031e+000	 6.959916671958435e+000
 5.462255647562676e-001	 2.268483992241738e+000	 6.893543625347289e+000
 5.230147431693810e-001	 2.273947615693367e+000	 6.830552963634797e+000
 4.998174582029119e-001	 2.279158808371665e+000	 6.769720162752718e+000
 4.766374885184339e-001	 2.284118920117789e+000	 6.709615739681664e+000
 4.534785622704716e-001	 2.288829368928065e+000	 6.648607660352973e+000
 6.933925341873450e-001	 2.255825602559878e+000	 7.417260527890106e+000
 6.699172171789138e-001	 2.262908153566841e+000	 7.323264425817349e+000
 6.464316710871189e-001	 2.269728743299059e+000	 7.231789653248289e+000
 6.229399923922244e-001	 2.276288286740297e+000	 7.147660153038452e+000
 5.994462359286032e-001	 2.282587778119269e+000	 7.070336060524868e+000
 5.759544131469153e-001	 2.288628289280320e+000	 6.998989969511281e+000
 5.524684904413270e-001	 2.294410968014828e+000	 6.932589813510755e+000
 5.289923875425029e-001	 2.299937036356029e+000	 6.869914089772026e+000
 5.055299759769889e-001	 2.305207788840002e+000	 6.809560251306011e+000
 4.820850775934855e-001	 2.310224590735523e+000	 6.749947009190890e+000
 4.586614631563876e-001	 2.314988876245497e+000	 6.689311306188226e+000
 7.012279096647085e-001	 2.281316561486399e+000	 7.465582263135301e+000
 6.774873202250681e-001	 2.288479145726790e+000	 7.370256044415048e+000
 6.537363861127734e-001	 2.295376808514921e+000	 7.276344397112323e+000
 6.299792500985683e-001	 2.302010475173931e+000	 7.190744780662085e+000
 6.062200128367057e-001	 2.308381151167378e+000	 7.113229288337919e+000
 5.824627311074861e-001	 2.314489920451514e+000	 7.042619771851849e+000
 5.587114161255758e-001	 2.320337943787829e+000	 6.977580495596248e+000
 5.349700319148383e-001	 2.325926457018605e+000	 6.916629004090960e+000
 5.112424937503095e-001	 2.331256769308258e+000	 6.858139565353124e+000
 4.875326666678159e-001	 2.336330261353183e+000	 6.800340007400507e+000
 4.638443640416252e-001	 2.341148383562864e+000	 6.741302784798419e+000
 7.090632851413385e-001	 2.306807520412753e+000	 7.513575336622486e+000
 6.850574232704915e-001	 2.314050137886563e+000	 7.418068569922894e+000
 6.610411011377029e-001	 2.321024873730600e+000	 7.323227335046599e+000
 6.370185078041978e-001	 2.327732663607379e+000	 7.236827353808804e+000
 6.129937897441081e-001	 2.334174524215300e+000	 7.159932145051458e+000
 5.889710490673755e-001	 2.340351551622521e+000	 7.090955422076571e+000
 5.649543418091654e-001	 2.346264919560645e+000	 7.028208141454272e+000
 5.409476762865411e-001	 2.351915877681005e+000	 6.969904619869388e+000
 5.169550115230276e-001	 2.357305749776349e+000	 6.914160589622538e+000
 4.929802557415790e-001	 2.362435931970693e+000	 6.858984089993626e+000
 4.690272649263334e-001	 2.367307890880099e+000	 6.802260112386564e+000
 7.168986606173690e-001	 2.332298479338855e+000	 7.562808550476338e+000
 6.926275263153182e-001	 2.339621130046071e+000	 7.468123080150635e+000
 6.683458161620449e-001	 2.346672938946006e+000	 7.373919301595414e+000
 6.440577655092538e-001	 2.353454852040546e+000	 7.287116720680650e+000
 6.197675666509556e-001	 2.359967897262938e+000	 7.211303852013033e+000
 5.954793670267321e-001	 2.366213182793248e+000	 7.144455178040318e+000
 5.711972674922478e-001	 2.372191895333188e+000	 7.084487655906403e+000
 5.469253206577651e-001	 2.377905298343142e+000	 7.029279508084151e+000
 5.226675292952985e-001	 2.383354730244194e+000	 6.976662411080739e+000
 4.984278448149279e-001	 2.388541602587979e+000	 6.924405920971936e+000
 4.742101658106621e-001	 2.393467398197139e+000	 6.870195140083790e+000
 7.247340360929326e-001	 2.357789438264623e+000	 7.615053154281826e+000
 7.001976293596834e-001	 2.365192122205227e+000	 7.522042065512641e+000
 6.756505311859367e-001	 2.372321004161045e+000	 7.429594441686803e+000
 6.510970232138765e-001	 2.379177040473339e+000	 7.343067833086234e+000
 6.265413435573920e-001	 2.385761270310199e+000	 7.268474088822232e+000
 6.019876849857038e-001	 2.392074813963600e+000	 7.203867687827325e+000
 5.774401931749748e-001	 2.398118871105365e+000	 7.146739829898498e+000
 5.529029650286649e-001	 2.403894719004927e+000	 7.094609195177120e+000
 5.283800470672764e-001	 2.409403710711710e+000	 7.045007746331391e+000
 5.038754338880155e-001	 2.414647273204967e+000	 6.995458125079019e+000
 4.793930666947601e-001	 2.419626905513915e+000	 6.943443739408343e+000
 7.325694115681635e-001	 2.383280397189971e+000	 7.672273859559682e+000
 7.077677324037210e-001	 2.390763114363942e+000	 7.581641216609585e+000
 6.829552462095150e-001	 2.397969069375628e+000	 7.491707398516947e+000
 6.581362809182069e-001	 2.404899228905663e+000	 7.406358907101037e+000
 6.333151204635621e-001	 2.411554643356989e+000	 7.332822414481407e+000
 6.084960029444394e-001	 2.417936445133482e+000	 7.270213520362595e+000
 5.836831188574980e-001	 2.424045846877084e+000	 7.215574840372417e+000
 5.588806093993937e-001	 2.429884139666275e+000	 7.166051503151423e+000
 5.340925648391162e-001	 2.435452691178814e+000	 7.118870004379825e+000
 5.093230229609952e-001	 2.440752943821578e+000	 7.071307967433222e+000
 4.845759675787774e-001	 2.445786412830363e+000	 7.020656004988236e+000
 7.404047870431946e-001	 2.408771356114817e+000	 7.736619955801756e+000
 7.153378354475657e-001	 2.416334106522127e+000	 7.648921298528693e+000
 6.902599612329170e-001	 2.423617134589662e+000	 7.562081025776348e+000
 6.651755386223857e-001	 2.430621417337429e+000	 7.478868649068689e+000
 6.400888973696106e-001	 2.437348016403214e+000	 7.405957746150539e+000
 6.150043209030871e-001	 2.443798076302805e+000	 7.344766747076641e+000
 5.899260445399690e-001	 2.449972822648255e+000	 7.291875795246167e+000
 5.648582537701060e-001	 2.455873560327097e+000	 7.244051928864995e+000
 5.398050826109726e-001	 2.461501671645427e+000	 7.198220382142385e+000
 5.147706120340209e-001	 2.466858614437742e+000	 7.151426058356810e+000
 4.897588684628631e-001	 2.471945920146419e+000	 7.100786473272421e+000
 7.482401625181595e-001	 2.434262315039077e+000	 7.810416520619985e+000
 7.229079384913520e-001	 2.441905098679697e+000	 7.726060105505068e+000
 6.975646762562796e-001	 2.449265199803056e+000	 7.642716265149464e+000
 6.722147963265527e-001	 2.456343605768539e+000	 7.562404041098185e+000
 6.468626742756821e-001	 2.463141389448778e+000	 7.489697891279053e+000
 6.215126388617955e-001	 2.469659707471471e+000	 7.429036570877715e+000
 5.961689702225396e-001	 2.475899798418785e+000	 7.376782320194265e+000
 5.708358981409558e-001	 2.481862980987305e+000	 7.329329059644920e+000
 5.455176003830004e-001	 2.487550652111466e+000	 7.283314990302787e+000
 5.202182011072450e-001	 2.492964285053382e+000	 7.235575081554610e+000
 4.949417693471666e-001	 2.498105427462015e+000	 7.183084356057935e+000
 7.560755379931917e-001	 2.459753273962668e+000	 7.896155717179601e+000
 7.304780415352139e-001	 2.467476090836561e+000	 7.815404490112706e+000
 7.048693912797398e-001	 2.474913265015718e+000	 7.735784848556881e+000
 6.792540540308489e-001	 2.482065794198899e+000	 7.658509986807501e+000
 6.536364511819208e-001	 2.488934762493587e+000	 7.586049129233955e+000
 6.280209568207131e-001	 2.495521338639388e+000	 7.524748998995766e+000
 6.024118959053617e-001	 2.501826774188583e+000	 7.471674184193614e+000
 5.768135425120966e-001	 2.507852401646812e+000	 7.422860022589654e+000
 5.512301181553538e-001	 2.513599632576846e+000	 7.374682007313358e+000
 5.256657901808214e-001	 2.519069955668422e+000	 7.323798543951510e+000
 5.001246702318374e-001	 2.524264934777087e+000	 7.267083787763942e+000
 7.639109134684247e-001	 2.485244232885506e+000	 7.996488172650231e+000
 7.380481445792873e-001	 2.493047082992633e+000	 7.919462461633171e+000
 7.121741063034353e-001	 2.500561330227558e+000	 7.843622060091069e+000
 6.862933117354153e-001	 2.507787982628420e+000	 7.769305809823559e+000
 6.604102280884718e-001	 2.514728135537550e+000	 7.697185838865748e+000
 6.345292747799888e-001	 2.521382969806464e+000	 7.633828556543969e+000
 6.086548215885872e-001	 2.527753749957561e+000	 7.578154961050469e+000
 5.827911868836834e-001	 2.533841822305532e+000	 7.525865965137481e+000
 5.569426359281881e-001	 2.539648613041488e+000	 7.473108859522413e+000
 5.311133792549037e-001	 2.545175626282792e+000	 7.416409545632561e+000
 5.053075711170251e-001	 2.550424442091569e+000	 7.352594085463209e+000
 4.534785622704716e-001	 2.288829368928065e+000	 6.648607660352976e+000
 4.303478228187894e-001	 2.293290988703301e+000	 6.590605591743064e+000
 4.072454120468742e-001	 2.297506054455230e+000	 6.540757736812264e+000
 3.841748921516889e-001	 2.301476178916054e+000	 6.498970800500992e+000
 3.611397700823948e-001	 2.305203035563035e+000	 6.464881723214589e+000
 3.381434964856022e-001	 2.308688356741214e+000	 6.437843393744189e+000
 3.151894647169172e-001	 2.311933931773511e+000	 6.416909706636075e+000
 2.922810099184495e-001	 2.314941605060654e+000	 6.400820594517262e+000
 2.694214081618384e-001	 2.317713274173349e+000	 6.387987635300559e+000
 2.466138756562645e-001	 2.320250887939014e+000	 6.376480799577482e+000
 2.238615680208486e-001	 2.322556444525402e+000	 6.364016865382284e+000
 4.586614631563876e-001	 2.314988876245497e+000	 6.689311306188229e+000
 4.352663576684167e-001	 2.319501488801562e+000	 6.631455934682708e+000
 4.118999046346665e-001	 2.323764729417043e+000	 6.581656629550268e+000
 3.885657069651761e-001	 2.327780229256406e+000	 6.540051644226686e+000
 3.652673116907450e-001	 2.331549680923443e+000	 6.506502514745997e+000
 3.420082088961280e-001	 2.335074836562539e+000	 6.480572837811656e+000
 3.187918307202851e-001	 2.338357505947168e+000	 6.461506420021055e+000
 2.956215504233459e-001	 2.341399554558111e+000	 6.448205491669357e+000
 2.725006815198411e-001	 2.344202901653812e+000	 6.439209645002291e+000
 2.494324769776624e-001	 2.346769518335254e+000	 6.432676118879409e+000
 2.264201284821455e-001	 2.349101425607677e+000	 6.426362010112430e+000
 4.638443640416252e-001	 2.341148383562864e+000	 6.741302784798418e+000
 4.401848925174144e-001	 2.345711988899768e+000	 6.684705102985422e+000
 4.165543972218820e-001	 2.350023404378815e+000	 6.635897893837115e+000
 3.929565217781408e-001	 2.354084279596734e+000	 6.595172963172969e+000
 3.693948532986258e-001	 2.357896326283851e+000	 6.562541436296459e+000
 3.458729213062330e-001	 2.361461316383892e+000	 6.537705133487196e+000
 3.223941967232739e-001	 2.364781080120888e+000	 6.520027336514126e+000
 2.989620909278954e-001	 2.367857504055670e+000	 6.508503706758829e+000
 2.755799548775170e-001	 2.370692529134423e+000	 6.501734078826233e+000
 2.522510782987388e-001	 2.373288148731701e+000	 6.497895812146732e+000
 2.289786889431087e-001	 2.375646406690224e+000	 6.494719337586074e+000
 4.690272649263334e-001	 2.367307890880099e+000	 6.802260112386562e+000
 4.451034273659250e-001	 2.371922488997865e+000	 6.747513934483974e+000
 4.212088898086547e-001	 2.376282079340507e+000	 6.700113145761805e+000
 3.973473365907070e-001	 2.380388329937013e+000	 6.660438316688063e+000
 3.735223949061499e-001	 2.384242971644242e+000	 6.628588514517248e+000
 3.497376337160195e-001	 2.387847796205267e+000	 6.604344762059309e+000
 3.259965627259769e-001	 2.391204654294674e+000	 6.587132900665956e+000
 3.023026314321841e-001	 2.394315453553343e+000	 6.575986689631443e+000
 2.786592282349474e-001	 2.397182156615205e+000	 6.569511934187616e+000
 2.550696796195737e-001	 2.399806779128375e+000	 6.565852389210535e+000
 2.315372494038215e-001	 2.402191387773061e+000	 6.562658136286812e+000
 4.742101658106621e-001	 2.393467398197139e+000	 6.870195140083790e+000
 4.500219622140912e-001	 2.398132989095801e+000	 6.817370334917330e+000
 4.258633823951184e-001	 2.402540754302073e+000	 6.771251850696046e+000
 4.017381514029981e-001	 2.406692380277210e+000	 6.732257463789926e+000
 3.776499365134305e-001	 2.410589617004602e+000	 6.700525929586172e+000
 3.536023461255908e-001	 2.414234276026661e+000	 6.675871962730959e+000
 3.295989287284878e-001	 2.417628228468532e+000	 6.657740628244604e+000
 3.056431719362983e-001	 2.420773403051146e+000	 6.645162052010814e+000
 2.817385015922140e-001	 2.423671784096174e+000	 6.636707315615244e+000
 2.578882809402479e-001	 2.426325409525293e+000	 6.630446351557719e+000
 2.340958098643675e-001	 2.428736368856203e+000	 6.623908601184030e+000
 4.793930666947601e-001	 2.419626905513915e+000	 6.943443739408343e+000
 4.549404970620559e-001	 2.424343489193518e+000	 6.892080873423300e+000
 4.305178749814069e-001	 2.428799429263473e+000	 6.846574178629978e+000
 4.061289662151379e-001	 2.432996430617297e+000	 6.807340346141429e+000
 3.817774781205808e-001	 2.436936262364910e+000	 6.774523011768468e+000
 3.574670585350495e-001	 2.440620755848070e+000	 6.747938646972084e+000
 3.332012947309002e-001	 2.444051802642469e+000	 6.727021860943387e+000
 3.089837124403241e-001	 2.447231352549091e+000	 6.710771103532204e+000
 2.848177749493984e-001	 2.450161411577347e+000	 6.697695711516257e+000
 2.607068822608414e-001	 2.452844039922479e+000	 6.685765187653924e+000
 2.366543703248299e-001	 2.455281349939667e+000	 6.672361543821791e+000
 4.845759675787774e-001	 2.445786412830363e+000	 7.020656004988241e+000
 4.598590319099618e-001	 2.450553989290962e+000	 6.969762385767965e+000
 4.351723675676542e-001	 2.455058104224664e+000	 6.923643860138592e+000
 4.105197810272501e-001	 2.459300480957246e+000	 6.882691066091776e+000
 3.859050197277137e-001	 2.463282907725154e+000	 6.847031228130598e+000
 3.613317709444980e-001	 2.467007235669486e+000	 6.816464297899887e+000
 3.368036607333075e-001	 2.470475376816489e+000	 6.790398499910147e+000
 3.123242529443478e-001	 2.473689302047192e+000	 6.767786358456140e+000
 2.878970483065824e-001	 2.476651039058744e+000	 6.747062230696580e+000
 2.635254835814349e-001	 2.479362670319949e+000	 6.726082313478868e+000
 2.392129307852924e-001	 2.481826331023470e+000	 6.702068028640606e+000
 4.897588684628631e-001	 2.471945920146419e+000	 7.100786473272416e+000
 4.647775667579517e-001	 2.476764489388081e+000	 7.048833584738881e+000
 4.398268601539943e-001	 2.481316779185606e+000	 7.000321042936632e+000
 4.149105958394587e-001	 2.485604531297026e+000	 6.955601860150577e+000
 3.900325613349427e-001	 2.489629553085316e+000	 6.914779160142430e+000
 3.651964833540393e-001	 2.493393715490908e+000	 6.877631855801103e+000
 3.404060267358032e-001	 2.496898950990598e+000	 6.843539719669394e+000
 3.156647934484556e-001	 2.500147251545462e+000	 6.811409015234757e+000
 2.909763216638470e-001	 2.503140666540383e+000	 6.779599801617881e+000
 2.663440849021088e-001	 2.505881300717724e+000	 6.745855962335947e+000
 2.417714912458383e-001	 2.508371312107629e+000	 6.707238940993739e+000
 4.949417693471666e-001	 2.498105427462015e+000	 7.183084356057935e+000
 4.696961016061681e-001	 2.502974989484819e+000	 7.128006677182431e+000
 4.444813527405609e-001	 2.507575454146253e+000	 7.074755148981667e+000
 4.193014106518871e-001	 2.511908581636609e+000	 7.023647068233673e+000
 3.941601029423804e-001	 2.515976198445378e+000	 6.974767472835383e+000
 3.690611957637762e-001	 2.519780195312328e+000	 6.927883590809737e+000
 3.440083927384809e-001	 2.523322525164801e+000	 6.882358663875489e+000
 3.190053339527335e-001	 2.526605201043914e+000	 6.837066410922513e+000
 2.940555950212743e-001	 2.529630294022282e+000	 6.790307337125429e+000
 2.691626862229433e-001	 2.532399931115825e+000	 6.739728027655327e+000
 2.443300517065510e-001	 2.534916293192159e+000	 6.682244491871144e+000
 5.001246702318374e-001	 2.524264934777087e+000	 7.267083787763940e+000
 4.746146364547537e-001	 2.529185489581120e+000	 7.206278987202613e+000
 4.491358453274879e-001	 2.533834129106566e+000	 7.145377732084973e+000
 4.236922254646594e-001	 2.538212631975964e+000	 7.084677098986378e+000
 3.982876445501403e-001	 2.542322843805324e+000	 7.024263876132466e+000
 3.729259081738113e-001	 2.546166675133743e+000	 6.963916963677652e+000
 3.476107587414339e-001	 2.549746099339105e+000	 6.903009124217982e+000
 3.223458744572680e-001	 2.553063150542563e+000	 6.840409452256616e+000
 2.971348683789456e-001	 2.556119921504460e+000	 6.774387867151480e+000
 2.719812875440190e-001	 2.558918561514268e+000	 6.702522862199275e+000
 2.468886121675140e-001	 2.561461274277079e+000	 6.621613663917935e+000
 5.053075711170251e-001	 2.550424442091569e+000	 7.352594085463211e+000
 4.795331713038518e-001	 2.555395989676932e+000	 7.282924585082404e+000
 4.537903379149098e-001	 2.560092804066504e+000	 7.210895335999703e+000
 4.280830402778991e-001	 2.564516682315065e+000	 7.136812391472560e+000
 4.024151861583350e-001	 2.568669489165140e+000	 7.060798078914252e+000
 3.767906205842475e-001	 2.572553154955150e+000	 6.982680475493082e+000
 3.512131247447561e-001	 2.576169673513514e+000	 6.901882203687266e+000
 3.256864149621451e-001	 2.579521100041421e+000	 6.817310025085390e+000
 3.002141417369426e-001	 2.582609548986935e+000	 6.727246641696505e+000
 2.747998888654161e-001	 2.585437191913076e+000	 6.629246036804281e+000
 2.494471726288109e-001	 2.588006255362404e+000	 6.520033602966173e+000
 2.238615680208486e-001	 2.322556444525402e+000	 6.364016865382276e+000
 2.011641876059516e-001	 2.324632283812556e+000	 6.356446463689315e+000
 1.785282247002906e-001	 2.326480135022100e+000	 6.360773466340124e+000
 1.559566963524342e-001	 2.328102134340242e+000	 6.375854522739012e+000
 1.334525552926767e-001	 2.329500459691833e+000	 6.400128078283279e+000
 1.110186895228712e-001	 2.330677328820791e+000	 6.431616395907446e+000
 8.865792196686122e-002	 2.331634997380677e+000	 6.467931558413666e+000
 6.637301018034868e-002	 2.332375757037283e+000	 6.506285654132446e+000
 4.416664611898429e-002	 2.332901933585021e+000	 6.543505299457868e+000
 2.204145596341870e-002	 2.333215885078842e+000	 6.576050603472394e+000
 0.000000000000000e+000	 2.333319999983334e+000	 6.600038607660026e+000
 2.264201284821455e-001	 2.349101425607677e+000	 6.426362010112436e+000
 2.034633349817422e-001	 2.351200990094103e+000	 6.426049216755633e+000
 1.805686609440350e-001	 2.353069960779786e+000	 6.438851679227480e+000
 1.577391579000761e-001	 2.354710498265832e+000	 6.463845381401820e+000
 1.349778123275369e-001	 2.356124805369036e+000	 6.499612806658531e+000
 1.122875452358524e-001	 2.357315125180360e+000	 6.544240310538113e+000
 8.967121181265779e-002	 2.358283739133688e+000	 6.595319991799205e+000
 6.713160113034059e-002	 2.359032965086723e+000	 6.649956288031495e+000
 4.467143591148018e-002	 2.359565155415852e+000	 6.704777468462053e+000
 2.229337235189973e-002	 2.359882695126717e+000	 6.755952143828276e+000
 0.000000000000000e+000	 2.359987999982150e+000	 6.799210835465503e+000
 2.289786889431087e-001	 2.375646406690224e+000	 6.494719337586076e+000
 2.057624823571691e-001	 2.377769696375999e+000	 6.497844332628693e+000
 1.826090971873753e-001	 2.379659786537899e+000	 6.514450110909844e+000
 1.595216194472727e-001	 2.381318862191933e+000	 6.543805019830537e+000
 1.365030693619190e-001	 2.382749151046835e+000	 6.584606258804902e+000
 1.135564009483399e-001	 2.383952921540606e+000	 6.634972179160267e+000
 9.068450165797164e-002	 2.384932480887448e+000	 6.692439629368261e+000
 6.789019207989593e-002	 2.385690173136972e+000	 6.753966597302831e+000
 4.517622570362967e-002	 2.386228377247542e+000	 6.815940342947309e+000
 2.254528874017709e-002	 2.386549505175481e+000	 6.874191157458562e+000
 0.000000000000000e+000	 2.386655999981866e+000	 6.924011801090484e+000
 2.315372494038215e-001	 2.402191387773061e+000	 6.562658136286820e+000
 2.080616297323233e-001	 2.404338402658252e+000	 6.565365437220783e+000
 1.846495334304126e-001	 2.406249612296440e+000	 6.581185459158818e+000
 1.613040809941353e-001	 2.407927226118531e+000	 6.609563235284620e+000
 1.380283263959423e-001	 2.409373496725197e+000	 6.649292388918572e+000
 1.148252566604571e-001	 2.410590717901478e+000	 6.698501901355523e+000
 9.169779150292333e-002	 2.411581222641891e+000	 6.754648503090379e+000
 6.864878302912381e-002	 2.412347381187954e+000	 6.814514967745668e+000
 4.568101549551938e-002	 2.412891599079999e+000	 6.874214524648370e+000
 2.279720512830171e-002	 2.413216315225037e+000	 6.929201543495285e+000
 0.000000000000000e+000	 2.413323999982383e+000	 6.974288555177896e+000
 2.340958098643675e-001	 2.428736368856203e+000	 6.623908601184038e+000
 2.103607771072956e-001	 2.430907108940868e+000	 6.622278136679429e+000
 1.866899696732478e-001	 2.432839438055403e+000	 6.632775816797810e+000
 1.630865425407753e-001	 2.434535590045608e+000	 6.655019139677155e+000
 1.395535834297265e-001	 2.435997842404091e+000	 6.687891054530120e+000
 1.160941123723274e-001	 2.437228514262929e+000	 6.729520701483478e+000
 9.271108134763365e-002	 2.438229964396952e+000	 6.777270385889136e+000
 6.940737397813342e-002	 2.439004589239588e+000	 6.827729096180668e+000
 4.618580528723588e-002	 2.439554820913136e+000	 6.876712805618665e+000
 2.304912151632448e-002	 2.439883125275287e+000	 6.919271730432747e+000
 0.000000000000000e+000	 2.439991999983599e+000	 6.949704621315243e+000
 2.366543703248299e-001	 2.455281349939667e+000	 6.672361543821791e+000
 2.126599244821769e-001	 2.457475815223860e+000	 6.662380454872785e+000
 1.887304059159820e-001	 2.459429263814787e+000	 6.663041863085985e+000
 1.648690040873040e-001	 2.461143953973148e+000	 6.674143146145804e+000
 1.410788404633911e-001	 2.462622188083482e+000	 6.694660854210927e+000
 1.173629680840743e-001	 2.463866310624908e+000	 6.722724888015507e+000
 9.372437119222328e-002	 2.464878706152569e+000	 6.755599557460164e+000
 7.016596492703386e-002	 2.465661797291797e+000	 6.789671861804443e+000
 4.669059507886578e-002	 2.466218042746861e+000	 6.820447258144669e+000
 2.330103790429633e-002	 2.466549935326134e+000	 6.842553111390646e+000
 0.000000000000000e+000	 2.466659999985416e+000	 6.849749916938313e+000
 2.392129307852924e-001	 2.481826331023470e+000	 6.702068028640606e+000
 2.149590718570580e-001	 2.484044521507234e+000	 6.679603172991261e+000
 1.907708421587163e-001	 2.486019089574589e+000	 6.665907927450467e+000
 1.666514656338326e-001	 2.487752317901131e+000	 6.660978791962471e+000
 1.426040974970557e-001	 2.489246533763340e+000	 6.663901758815540e+000
 1.186318237958212e-001	 2.490504106987368e+000	 6.672819356232181e+000
 9.473766103681285e-002	 2.491527447908676e+000	 6.684905255376648e+000
 7.092455587593428e-002	 2.492319005344500e+000	 6.696346816305775e+000
 4.719538487049566e-002	 2.492881264581084e+000	 6.702335867937474e+000
 2.355295429226817e-002	 2.493216745377481e+000	 6.697067937675282e+000
 0.000000000000000e+000	 2.493327999987733e+000	 6.673750037562821e+000
 2.417714912458383e-001	 2.508371312107629e+000	 6.707238940993739e+000
 2.172582192320302e-001	 2.510613227791001e+000	 6.668010078521416e+000
 1.928112784015514e-001	 2.512608915334807e+000	 6.635402935023288e+000
 1.684339271804726e-001	 2.514360681829545e+000	 6.609644409911310e+000
 1.441293545308398e-001	 2.515870879443632e+000	 6.589957551549254e+000
 1.199006795076914e-001	 2.517141903350260e+000	 6.574520853295443e+000
 9.575095088152311e-002	 2.518176189665208e+000	 6.560435834797929e+000
 7.168314682494381e-002	 2.518976213397623e+000	 6.543703320994302e+000
 4.770017466221212e-002	 2.519544486415716e+000	 6.519208744430259e+000
 2.380487068029092e-002	 2.519883555429232e+000	 6.480716710766584e+000
 0.000000000000000e+000	 2.519995999990449e+000	 6.420874951513140e+000
 2.443300517065510e-001	 2.534916293192159e+000	 6.682244491871144e+000
 2.195573666071843e-001	 2.537181934075167e+000	 6.621798130233695e+000
 1.948517146445887e-001	 2.539198741095438e+000	 6.565661242649038e+000
 1.702163887273351e-001	 2.540969045758370e+000	 6.514334659239983e+000
 1.456546115648630e-001	 2.542495225124322e+000	 6.467218090881908e+000
 1.211695352198084e-001	 2.543779699713533e+000	 6.422561023118327e+000
 9.676424072647473e-002	 2.544824931422101e+000	 6.377422658136863e+000
 7.244173777417159e-002	 2.545633421451083e+000	 6.327641356805596e+000
 4.820496445410175e-002	 2.546207708250668e+000	 6.267813939183683e+000
 2.405678706841549e-002	 2.546550365481287e+000	 6.191285109497080e+000
 0.000000000000000e+000	 2.546663999993466e+000	 6.090147148355722e+000
 2.468886121675140e-001	 2.561461274277079e+000	 6.621613663917935e+000
 2.218565139826111e-001	 2.563750640359744e+000	 6.535297545278065e+000
 1.968921508879288e-001	 2.565788566856479e+000	 6.450923373304894e+000
 1.719988502745316e-001	 2.567577409687589e+000	 6.369321926371316e+000
 1.471798685992448e-001	 2.569119570805381e+000	 6.290121409151936e+000
 1.224383909322958e-001	 2.570417496077141e+000	 6.211689247000338e+000
 9.777753057178837e-002	 2.571473673179289e+000	 6.131083734279779e+000
 7.320032872372678e-002	 2.572290629504803e+000	 6.044016030925977e+000
 4.870975424625112e-002	 2.572870930085848e+000	 5.944822900828469e+000
 2.430870345669278e-002	 2.573217175533550e+000	 5.826450486142807e+000
 0.000000000000000e+000	 2.573331999996683e+000	 5.680449280668998e+000
 2.494471726288109e-001	 2.588006255362404e+000	 6.520033602966173e+000
 2.241556613584017e-001	 2.590319346644739e+000	 6.402971813978077e+000
 1.989325871316730e-001	 2.592378392617928e+000	 6.285536656232674e+000
 1.737813118221734e-001	 2.594185773617187e+000	 6.168957604730093e+000
 1.487051256341049e-001	 2.595743916486777e+000	 6.053155658660628e+000
 1.237072466452768e-001	 2.597055292441034e+000	 5.936675294694653e+000
 9.879082041758477e-002	 2.598122414936711e+000	 5.816627125338781e+000
 7.395891967371854e-002	 2.598947837558706e+000	 5.688641801806890e+000
 4.921454403874689e-002	 2.599534151921171e+000	 5.546835592637557e+000
 2.456061984517374e-002	 2.599883985585925e+000	 5.383787962374523e+000
 0.000000000000000e+000	 2.600000000000000e+000	 5.190531335526760e+000
 2.600000000000000e+000	 0.000000000000000e+000	 1.163676479056725e+001
 2.599883985585924e+000	 2.456061984517381e-002	 1.157784282935550e+001
 2.599534151921172e+000	 4.921454403874706e-002	 1.153859378178684e+001
 2.598947837558706e+000	 7.395891967371834e-002	 1.151384462055495e+001
 2.598122414936712e+000	 9.879082041758469e-002	 1.149897761712286e+001
 2.597055292441034e+000	 1.237072466452768e-001	 1.148993046593780e+001
 2.595743916486777e+000	 1.487051256341049e-001	 1.148319323312791e+001
 2.594185773617187e+000	 1.737813118221734e-001	 1.147580220232771e+001
 2.592378392617928e+000	 1.989325871316728e-001	 1.146533072820967e+001
 2.590319346644739e+000	 2.241556613584015e-001	 1.144987723616321e+001
 2.588006255362404e+000	 2.494471726288108e-001	 1.142805053446519e+001
 2.626668000003317e+000	 0.000000000000000e+000	 1.164889767407687e+001
 2.626550795638311e+000	 2.481253623389235e-002	 1.158911093109644e+001
 2.626197373756539e+000	 4.971933383164689e-002	 1.154827787420194e+001
 2.625605045612707e+000	 7.471751062421944e-002	 1.152124542895147e+001
 2.624771156694291e+000	 9.980411026394442e-002	 1.150346420581479e+001
 2.623693088805149e+000	 1.249761023588340e-001	 1.149098671253200e+001
 2.622368262168459e+000	 1.502303826695234e-001	 1.148046211854101e+001
 2.620794137547128e+000	 1.755637733703355e-001	 1.146912765394052e+001
 2.618968218379761e+000	 2.009730233758896e-001	 1.145479676509049e+001
 2.616888052930141e+000	 2.264548087346183e-001	 1.143584417888657e+001
 2.614551236448130e+000	 2.520057330904997e-001	 1.141118805771856e+001
 2.653336000006534e+000	 0.000000000000000e+000	 1.151168200660554e+001
 2.653217605690610e+000	 2.506445262281456e-002	 1.146556970527637e+001
 2.652860595591853e+000	 5.022412362489322e-002	 1.143698436325462e+001
 2.652262253666700e+000	 7.547610157515745e-002	 1.142079504065353e+001
 2.651419898451922e+000	 1.008174001107879e-001	 1.141252349441499e+001
 2.650330885169382e+000	 1.262449580728870e-001	 1.140834028000398e+001
 2.648992607850320e+000	 1.517556397054235e-001	 1.140505712014674e+001
 2.647402501477304e+000	 1.773462349189483e-001	 1.140011563371326e+001
 2.645558044141876e+000	 2.030134596205188e-001	 1.139157255928373e+001
 2.643456759215848e+000	 2.287539561112104e-001	 1.137808164005276e+001
 2.641096217534166e+000	 2.545642935525384e-001	 1.135887236887714e+001
 2.680004000009550e+000	 0.000000000000000e+000	 1.125683422189642e+001
 2.679884415742721e+000	 2.531636901188953e-002	 1.123610224066880e+001
 2.679523817427007e+000	 5.072891341839956e-002	 1.123019488491483e+001
 2.678919461720578e+000	 7.623469252642372e-002	 1.123427690011332e+001
 2.678068640209494e+000	 1.018306899579955e-001	 1.124419700194877e+001
 2.676968681533611e+000	 1.275138137873141e-001	 1.125646835469523e+001
 2.675616953532235e+000	 1.532808967416889e-001	 1.126824852698930e+001
 2.674010865407591e+000	 1.791286964679060e-001	 1.127731887133438e+001
 2.672147869904146e+000	 2.050538958654672e-001	 1.128206326874908e+001
 2.670025465501747e+000	 2.310531034880989e-001	 1.128144616611949e+001
 2.667641198620404e+000	 2.571228540148596e-001	 1.127498981990073e+001
 2.706672000012267e+000	 0.000000000000000e+000	 1.104192332848387e+001
 2.706551225794539e+000	 2.556828540106636e-002	 1.104308890521667e+001
 2.706187039261895e+000	 5.123370321207944e-002	 1.105599344420648e+001
 2.705576669774231e+000	 7.699328347790951e-002	 1.107625966084814e+001
 2.704717381966886e+000	 1.028439798054474e-001	 1.110018136150153e+001
 2.703606477897717e+000	 1.287826695019940e-001	 1.112470346016742e+001
 2.702241299214084e+000	 1.548061537782039e-001	 1.114740161281213e+001
 2.700619229337863e+000	 1.809111580171026e-001	 1.116646141446160e+001
 2.698737695666448e+000	 2.070943321106422e-001	 1.118065709649721e+001
 2.696594171787714e+000	 2.333522508652042e-001	 1.118932964626725e+001
 2.694186179706736e+000	 2.596814144773962e-001	 1.119236425573992e+001
 2.733340000014584e+000	 0.000000000000000e+000	 1.088975585599825e+001
 2.733218035845967e+000	 2.582020179029416e-002	 1.090711974731169e+001
 2.732850261096416e+000	 5.173849300584640e-002	 1.093361624495085e+001
 2.732233877827550e+000	 7.775187442950614e-002	 1.096531016563788e+001
 2.731366123723988e+000	 1.038572696530241e-001	 1.099892020995947e+001
 2.730244274261579e+000	 1.300515252168051e-001	 1.103179857289639e+001
 2.728865644895743e+000	 1.563314108148520e-001	 1.106191032851877e+001
 2.727227593267996e+000	 1.826936195664325e-001	 1.108781253257498e+001
 2.725327521428660e+000	 2.091347683559510e-001	 1.110863297619132e+001
 2.723162878073631e+000	 2.356513982424473e-001	 1.112404850702831e+001
 2.720731160793048e+000	 2.622399749400806e-001	 1.113426281726971e+001
 2.760008000016400e+000	 0.000000000000000e+000	 1.079674961680358e+001
 2.759884845896901e+000	 2.607211817952203e-002	 1.082450480924312e+001
 2.759513482930462e+000	 5.224328279961397e-002	 1.085926633231700e+001
 2.758891085880423e+000	 7.851046538110483e-002	 1.089752506542909e+001
 2.758014865480682e+000	 1.048705595006057e-001	 1.093640415734244e+001
 2.756882070625080e+000	 1.313203809316261e-001	 1.097363829215624e+001
 2.755489990577086e+000	 1.578566678515173e-001	 1.100755290280507e+001
 2.753835957197865e+000	 1.844760811157896e-001	 1.103704327422881e+001
 2.751917347190656e+000	 2.111752046013007e-001	 1.106155346496777e+001
 2.749731584359378e+000	 2.379505456197489e-001	 1.108105495740483e+001
 2.747276141879232e+000	 2.647985354028454e-001	 1.109602492822891e+001
 2.786676000017617e+000	 0.000000000000000e+000	 1.075931155655644e+001
 2.786551655947241e+000	 2.632403456869907e-002	 1.079153762539519e+001
 2.786176704763929e+000	 5.274807259329568e-002	 1.082912719191870e+001
 2.785548293932743e+000	 7.926905633259697e-002	 1.086898088179181e+001
 2.784663607236856e+000	 1.058838493480727e-001	 1.090860548399458e+001
 2.783519866988098e+000	 1.325892366463356e-001	 1.094609294010786e+001
 2.782114336257991e+000	 1.593819248880836e-001	 1.098009947192254e+001
 2.780444321127344e+000	 1.862585426650683e-001	 1.100982478773727e+001
 2.778507172952311e+000	 2.132156408465986e-001	 1.103499129136610e+001
 2.776300290644838e+000	 2.402496929970298e-001	 1.105582319757851e+001
 2.773821122965178e+000	 2.673570958656236e-001	 1.107302543725862e+001
 2.813344000018133e+000	 0.000000000000000e+000	 1.077383826923647e+001
 2.813218465996884e+000	 2.657595095777438e-002	 1.080449625784808e+001
 2.812839926596714e+000	 5.325286238680507e-002	 1.083936422896883e+001
 2.812205501984400e+000	 8.002764728387371e-002	 1.087573585287835e+001
 2.811312348992394e+000	 1.068971391953054e-001	 1.091148027691137e+001
 2.810157663350513e+000	 1.338580923608121e-001	 1.094502091242821e+001
 2.808738681938335e+000	 1.609071819244348e-001	 1.097531456897152e+001
 2.807052685056305e+000	 1.880410042141626e-001	 1.100183087398058e+001
 2.805096998713504e+000	 2.152560770917517e-001	 1.102453189705559e+001
 2.802868996929889e+000	 2.425488403742108e-001	 1.104385187559452e+001
 2.800366104050776e+000	 2.699156563283477e-001	 1.106067691628473e+001
 2.840012000017850e+000	 0.000000000000000e+000	 1.083671648316015e+001
 2.839885276045730e+000	 2.682786734669706e-002	 1.085964427364760e+001
 2.839503148428710e+000	 5.375765218005565e-002	 1.088612616411313e+001
 2.838862710035285e+000	 8.078623823482643e-002	 1.091383167529956e+001
 2.837961090747182e+000	 1.079104290421840e-001	 1.094097044535691e+001
 2.836795459712210e+000	 1.351269480749341e-001	 1.096627089563309e+001
 2.835363027617994e+000	 1.624324389604548e-001	 1.098895947121634e+001
 2.833661048984628e+000	 1.898234657629666e-001	 1.100874039238066e+001
 2.831686824474109e+000	 2.172965133366674e-001	 1.102577583058251e+001
 2.829437703214413e+000	 2.448479877512126e-001	 1.104066639850182e+001
 2.826911085135918e+000	 2.724742167909504e-001	 1.105443181925792e+001
 2.866680000016666e+000	 0.000000000000000e+000	 1.094432351986670e+001
 2.866552086093679e+000	 2.707978373541622e-002	 1.095323166754471e+001
 2.866166370259814e+000	 5.426244197296101e-002	 1.096554635136989e+001
 2.865519918085286e+000	 8.154482918534640e-002	 1.097929514869757e+001
 2.864609832501105e+000	 1.089237188885890e-001	 1.099300562363095e+001
 2.863433256073065e+000	 1.363958037885802e-001	 1.100568395977380e+001
 2.861987373296846e+000	 1.639576959960276e-001	 1.101679441466949e+001
 2.860269412912185e+000	 1.916059273113747e-001	 1.102623952960861e+001
 2.858276650234000e+000	 2.193369495812528e-001	 1.103434100277412e+001
 2.856006409498290e+000	 2.471471351279561e-001	 1.104182110742781e+001
 2.853456066220490e+000	 2.750327772533643e-001	 1.104978451034268e+001
 2.588006255362404e+000	 2.494471726288108e-001	 1.142805053446518e+001
 2.585437191913076e+000	 2.747998888654162e-001	 1.140820369087470e+001
 2.582609548986936e+000	 3.002141417369426e-001	 1.139776238883420e+001
 2.579521100041420e+000	 3.256864149621451e-001	 1.139459040497623e+001
 2.576169673513514e+000	 3.512131247447558e-001	 1.139688270494378e+001
 2.572553154955151e+000	 3.767906205842475e-001	 1.140314186596270e+001
 2.568669489165140e+000	 4.024151861583352e-001	 1.141215355106364e+001
 2.564516682315065e+000	 4.280830402778990e-001	 1.142296137945690e+001
 2.560092804066504e+000	 4.537903379149099e-001	 1.143484155667136e+001
 2.555395989676932e+000	 4.795331713038518e-001	 1.144727764496611e+001
 2.550424442091569e+000	 5.053075711170251e-001	 1.145993586895543e+001
 2.614551236448130e+000	 2.520057330904997e-001	 1.141118805771856e+001
 2.611955822312248e+000	 2.776184901871920e-001	 1.138862700944883e+001
 2.609099176469710e+000	 3.032934150953239e-001	 1.137493910145893e+001
 2.605979049540490e+000	 3.290269554674278e-001	 1.136819213404000e+001
 2.602593247688028e+000	 3.548154907485161e-001	 1.136679616541664e+001
 2.598939634776541e+000	 3.806553329951613e-001	 1.136947612753860e+001
 2.595016134524813e+000	 4.065427277670499e-001	 1.137524342424842e+001
 2.590820732653894e+000	 4.324738550916992e-001	 1.138336688502137e+001
 2.586351479026042e+000	 4.584448305029269e-001	 1.139334346798783e+001
 2.581606489772227e+000	 4.844517061535696e-001	 1.140486912409416e+001
 2.576583949405427e+000	 5.104904720028427e-001	 1.141781024976946e+001
 2.641096217534166e+000	 2.545642935525384e-001	 1.135887236887713e+001
 2.638474452711707e+000	 2.804370915093107e-001	 1.134113587471133e+001
 2.635588803952722e+000	 3.063726884540587e-001	 1.133098422559130e+001
 2.632436999039727e+000	 3.323674959730879e-001	 1.132673893637176e+001
 2.629016821862626e+000	 3.584178567526872e-001	 1.132707465313645e+001
 2.625326114597917e+000	 3.845200454065251e-001	 1.133098764596539e+001
 2.621362779884366e+000	 4.106702693762562e-001	 1.133776321133104e+001
 2.617124782992493e+000	 4.368646699060307e-001	 1.134694238776920e+001
 2.612610153985244e+000	 4.630993230915091e-001	 1.135828841046536e+001
 2.607816989867085e+000	 4.893702410038771e-001	 1.137175334986218e+001
 2.602743456718762e+000	 5.156733728892600e-001	 1.138744539604189e+001
 2.667641198620404e+000	 2.571228540148596e-001	 1.127498981990072e+001
 2.664993083111360e+000	 2.832556928317136e-001	 1.126907277213735e+001
 2.662078431435898e+000	 3.094519618130928e-001	 1.126872043716502e+001
 2.658894948539081e+000	 3.357080364790731e-001	 1.127252498905385e+001
 2.655440396037278e+000	 3.620202227572167e-001	 1.127947841768623e+001
 2.651712594419278e+000	 3.883847578182854e-001	 1.128890053384269e+001
 2.647709425243826e+000	 4.147978109858976e-001	 1.130040184080170e+001
 2.643428833330921e+000	 4.412554847208339e-001	 1.131384567514707e+001
 2.638868828944195e+000	 4.677538156805937e-001	 1.132931007626379e+001
 2.634027489961617e+000	 4.942887758547080e-001	 1.134704986485595e+001
 2.628902964031701e+000	 5.208562737762097e-001	 1.136745942866951e+001
 2.694186179706736e+000	 2.596814144773962e-001	 1.119236425573992e+001
 2.691511713511108e+000	 2.860742941543416e-001	 1.119557503181398e+001
 2.688568058919160e+000	 3.125312351723725e-001	 1.120360238951160e+001
 2.685352898038497e+000	 3.390485769853321e-001	 1.121522522280389e+001
 2.681863970211957e+000	 3.656225887620534e-001	 1.122954895468736e+001
 2.678099074240624e+000	 3.922494702303885e-001	 1.124597917406586e+001
 2.674056070603223e+000	 4.189253525959177e-001	 1.126419396738304e+001
 2.669732883669233e+000	 4.456462995360488e-001	 1.128411475960014e+001
 2.665127503902978e+000	 4.724083082701173e-001	 1.130586511322557e+001
 2.660237990055931e+000	 4.992073107059976e-001	 1.132970829662033e+001
 2.655062471344379e+000	 5.260391746636258e-001	 1.135630961066814e+001
 2.720731160793048e+000	 2.622399749400806e-001	 1.113426281726971e+001
 2.718030343910860e+000	 2.888928954771356e-001	 1.114436388453978e+001
 2.715057686402431e+000	 3.156105085318434e-001	 1.115826196158229e+001
 2.711810847537922e+000	 3.423891174918127e-001	 1.117501973899585e+001
 2.708287544386637e+000	 3.692249547671451e-001	 1.119401036097299e+001
 2.704485554061953e+000	 3.961141826427811e-001	 1.121489191274451e+001
 2.700402715962583e+000	 4.230528942062603e-001	 1.123758066650152e+001
 2.696036934007484e+000	 4.500371143516156e-001	 1.126222288262274e+001
 2.691386178861675e+000	 4.770628008600171e-001	 1.128916495195442e+001
 2.686448490150135e+000	 5.041258455576796e-001	 1.131892165556841e+001
 2.681221978656926e+000	 5.312220755514417e-001	 1.135214231108765e+001
 2.747276141879232e+000	 2.647985354028454e-001	 1.109602492822891e+001
 2.744548974310516e+000	 2.917114968000369e-001	 1.111077486706575e+001
 2.741547313885638e+000	 3.186897818914522e-001	 1.112846033386870e+001
 2.738268797037303e+000	 3.457296579984634e-001	 1.114841854796597e+001
 2.734711118561289e+000	 3.728273207724399e-001	 1.117027951703247e+001
 2.730872033883267e+000	 3.999788950554091e-001	 1.119394154606913e+001
 2.726749361321934e+000	 4.271804358168683e-001	 1.121954557577756e+001
 2.722340984345731e+000	 4.544279291674743e-001	 1.124744812820656e+001
 2.717644853820373e+000	 4.817172934502300e-001	 1.127819262511406e+001
 2.712658990244341e+000	 5.090443804096893e-001	 1.131247883392304e+001
 2.707381485969473e+000	 5.364049764395906e-001	 1.135113018769792e+001
 2.773821122965178e+000	 2.673570958656236e-001	 1.107302543725861e+001
 2.771067604709985e+000	 2.945300981229868e-001	 1.109009343980808e+001
 2.768036941368701e+000	 3.217690552511445e-001	 1.110941347913103e+001
 2.764726746536587e+000	 3.490701985052323e-001	 1.113058604161039e+001
 2.761134692735884e+000	 3.764296867778861e-001	 1.115348511909351e+001
 2.757258513704563e+000	 4.038436074682190e-001	 1.117823492190403e+001
 2.753096006681305e+000	 4.313079774276856e-001	 1.120518549965664e+001
 2.748645034684032e+000	 4.588187439835653e-001	 1.123488702755965e+001
 2.743903528779152e+000	 4.863717860406929e-001	 1.126806250201616e+001
 2.738869490338654e+000	 5.139629152619604e-001	 1.130557857744676e+001
 2.733540993282150e+000	 5.415878773280060e-001	 1.134841426661496e+001
 2.800366104050776e+000	 2.699156563283477e-001	 1.106067691628473e+001
 2.797586235109169e+000	 2.973486994459259e-001	 1.107765702777188e+001
 2.794526568851548e+000	 3.248483286108667e-001	 1.109640399964602e+001
 2.791184696035717e+000	 3.524107390120678e-001	 1.111676823670362e+001
 2.787558266910396e+000	 3.800320527834318e-001	 1.113885272071673e+001
 2.783644993525842e+000	 4.077083198811574e-001	 1.116299112188086e+001
 2.779442652040724e+000	 4.354355190386557e-001	 1.118972490427015e+001
 2.774949085022441e+000	 4.632095587998287e-001	 1.121977916149376e+001
 2.770162203738096e+000	 4.910262786313429e-001	 1.125403690334113e+001
 2.765079990433185e+000	 5.188814501144279e-001	 1.129351150091256e+001
 2.759700500595092e+000	 5.467707782166210e-001	 1.133931698681694e+001
 2.826911085135918e+000	 2.724742167909504e-001	 1.105443181925792e+001
 2.824104865507971e+000	 3.001673007687956e-001	 1.106885697829181e+001
 2.821016196334098e+000	 3.279276019705644e-001	 1.108478285514867e+001
 2.817642645534646e+000	 3.557512795189181e-001	 1.110229424288947e+001
 2.813981841084797e+000	 3.836344187890252e-001	 1.112170590936934e+001
 2.810031473347105e+000	 4.115730322941703e-001	 1.114354231381791e+001
 2.805789297400218e+000	 4.395630606497219e-001	 1.116851641174116e+001
 2.801253135361017e+000	 4.676003736162049e-001	 1.119750726148897e+001
 2.796420878697291e+000	 4.956807712221167e-001	 1.123153612880338e+001
 2.791290490528042e+000	 5.237999849670262e-001	 1.127174077087473e+001
 2.785860007908426e+000	 5.519536791053696e-001	 1.131934756917030e+001
 2.853456066220490e+000	 2.750327772533643e-001	 1.104978451034268e+001
 2.850623495906301e+000	 3.029859020915370e-001	 1.105914039571312e+001
 2.847505823816279e+000	 3.310068753301843e-001	 1.106997097599195e+001
 2.844100595033316e+000	 3.590918200257314e-001	 1.108257762495072e+001
 2.840405415259059e+000	 3.872367847946143e-001	 1.109746738711833e+001
 2.836417953168350e+000	 4.154377447072045e-001	 1.111533451887335e+001
 2.832135942759817e+000	 4.436906022608281e-001	 1.113704122060402e+001
 2.827557185699815e+000	 4.719911884326337e-001	 1.116359724901198e+001
 2.822679553656821e+000	 5.003352638129518e-001	 1.119613807988421e+001
 2.817500990623338e+000	 5.287185198196899e-001	 1.123590127528361e+001
 2.812019515222285e+000	 5.571365799941846e-001	 1.128420069541449e+001
 2.550424442091569e+000	 5.053075711170251e-001	 1.145993586895542e+001
 2.545175626282793e+000	 5.311133792549038e-001	 1.147318416553247e+001
 2.539648613041488e+000	 5.569426359281883e-001	 1.148667715050404e+001
 2.533841822305532e+000	 5.827911868836830e-001	 1.149914198031371e+001
 2.527753749957560e+000	 6.086548215885872e-001	 1.150929481844280e+001
 2.521382969806465e+000	 6.345292747799887e-001	 1.151582519449952e+001
 2.514728135537550e+000	 6.604102280884717e-001	 1.151738359842727e+001
 2.507787982628420e+000	 6.862933117354155e-001	 1.151745901796593e+001
 2.500561330227559e+000	 7.121741063034355e-001	 1.152694240566851e+001
 2.493047082992633e+000	 7.380481445792869e-001	 1.154621725055254e+001
 2.485244232885506e+000	 7.639109134684247e-001	 1.157523894129131e+001
 2.576583949405427e+000	 5.104904720028427e-001	 1.141781024976945e+001
 2.571281296896450e+000	 5.365609683296080e-001	 1.143148557252503e+001
 2.565697593505349e+000	 5.626551537016215e-001	 1.144447611005199e+001
 2.559831242963416e+000	 5.887688312558329e-001	 1.145563511632980e+001
 2.553680725725668e+000	 6.148977472723327e-001	 1.146376674897917e+001
 2.547244600972649e+000	 6.410375927397363e-001	 1.146760713984511e+001
 2.540521508580615e+000	 6.671840049954465e-001	 1.146581204181930e+001
 2.533510171057051e+000	 6.933325694403609e-001	 1.146630508700395e+001
 2.526209395438530e+000	 7.194788213274720e-001	 1.147706776521340e+001
 2.518618075147866e+000	 7.456182476236749e-001	 1.149777545238395e+001
 2.510735191807548e+000	 7.717462889439608e-001	 1.152814486776544e+001
 2.602743456718762e+000	 5.156733728892600e-001	 1.138744539604189e+001
 2.597386967509508e+000	 5.420085574049052e-001	 1.140354667588201e+001
 2.591746573968552e+000	 5.683676714756258e-001	 1.141749566625667e+001
 2.585820663620601e+000	 5.947464756285220e-001	 1.142833904868149e+001
 2.579607701493043e+000	 6.211406729565766e-001	 1.143503442569528e+001
 2.573106232138085e+000	 6.475459106999375e-001	 1.143642780928089e+001
 2.566314881622926e+000	 6.739577819028286e-001	 1.143194444019182e+001
 2.559232359484934e+000	 7.003718271456700e-001	 1.143355556705227e+001
 2.551857460648768e+000	 7.267835363518348e-001	 1.144559016571142e+001
 2.544189067302395e+000	 7.531883506683609e-001	 1.146753879862296e+001
 2.536226150728920e+000	 7.795816644197814e-001	 1.149891201810168e+001
 2.628902964031701e+000	 5.208562737762097e-001	 1.136745942866951e+001
 2.623492638122118e+000	 5.474561464807289e-001	 1.138751362235225e+001
 2.617795554431263e+000	 5.740801892501384e-001	 1.140345555652069e+001
 2.611810084277259e+000	 6.007241200016894e-001	 1.141459408188747e+001
 2.605534677259869e+000	 6.273835986412624e-001	 1.142010690149965e+001
 2.598967863302959e+000	 6.540542286605391e-001	 1.141901417080363e+001
 2.592108254664672e+000	 6.807315588105687e-001	 1.141290854004554e+001
 2.584954547912257e+000	 7.074110848512966e-001	 1.141564719308900e+001
 2.577505525858459e+000	 7.340882513764790e-001	 1.142877704960632e+001
 2.569760059456394e+000	 7.607584537132994e-001	 1.145163536263338e+001
 2.561717109649789e+000	 7.874170398958366e-001	 1.148355766356539e+001
 2.655062471344379e+000	 5.260391746636258e-001	 1.135630961066814e+001
 2.649598308734428e+000	 5.529037355570140e-001	 1.138138219398346e+001
 2.643844534893646e+000	 5.797927070250948e-001	 1.139993660530769e+001
 2.637799504933566e+000	 6.067017643752749e-001	 1.141161410505297e+001
 2.631461653026330e+000	 6.336265243263336e-001	 1.141588043844764e+001
 2.624829494467459e+000	 6.605625466214887e-001	 1.141199522814006e+001
 2.617901627706041e+000	 6.875053357186183e-001	 1.140525414856131e+001
 2.610676736339205e+000	 7.144503425571936e-001	 1.140893803078267e+001
 2.603153591067784e+000	 7.413929664013583e-001	 1.142282604420559e+001
 2.595331051610041e+000	 7.683285567584446e-001	 1.144613237377880e+001
 2.587208068570322e+000	 7.952524153720765e-001	 1.147804732490502e+001
 2.681221978656926e+000	 5.312220755514417e-001	 1.135214231108765e+001
 2.675703979346590e+000	 5.583513246336942e-001	 1.138282240187759e+001
 2.669893515355863e+000	 5.855052248004324e-001	 1.140435051531397e+001
 2.663788925589698e+000	 6.126794087492185e-001	 1.141649204162959e+001
 2.657388628792607e+000	 6.398694500117333e-001	 1.141914438453082e+001
 2.650691125631771e+000	 6.670708645827341e-001	 1.141191048004439e+001
 2.643695000747222e+000	 6.942791126269274e-001	 1.140544784618233e+001
 2.636398924765966e+000	 7.214896002633147e-001	 1.140971192991165e+001
 2.628801656276926e+000	 7.486976814264279e-001	 1.142386971925758e+001
 2.620902043763512e+000	 7.758986598037490e-001	 1.144704131418745e+001
 2.612699027490689e+000	 8.030877908484521e-001	 1.147830024081372e+001
 2.707381485969473e+000	 5.364049764395906e-001	 1.135113018769792e+001
 2.701809649958751e+000	 5.637989137107040e-001	 1.138657538408146e+001
 2.695942495818080e+000	 5.912177425760865e-001	 1.141072472187974e+001
 2.689778346245831e+000	 6.186570531234596e-001	 1.142359851818212e+001
 2.683315604558885e+000	 6.461123756974059e-001	 1.142502554998234e+001
 2.676552756796084e+000	 6.735791825442223e-001	 1.141532714558676e+001
 2.669488373788400e+000	 7.010528895354475e-001	 1.140982388632308e+001
 2.662121113192726e+000	 7.285288579696132e-001	 1.141418303596296e+001
 2.654449721486068e+000	 7.560023964516416e-001	 1.142798040779511e+001
 2.646473035916982e+000	 7.834687628491664e-001	 1.145032308237891e+001
 2.638189986411056e+000	 8.109231663249131e-001	 1.148019490545640e+001
 2.733540993282150e+000	 5.415878773280060e-001	 1.134841426661496e+001
 2.727915320571063e+000	 5.692465027879770e-001	 1.138735104573726e+001
 2.721991476280464e+000	 5.969302603519942e-001	 1.141275987827871e+001
 2.715767766902137e+000	 6.246346974979377e-001	 1.142496498699906e+001
 2.709242580325347e+000	 6.523553013832940e-001	 1.142408899418291e+001
 2.702414387960584e+000	 6.800875005059013e-001	 1.141287478020153e+001
 2.695281746829769e+000	 7.078266664441295e-001	 1.140918055469197e+001
 2.687843301619676e+000	 7.355681156760430e-001	 1.141521568761602e+001
 2.680097786695394e+000	 7.633071114769547e-001	 1.142979601929459e+001
 2.672044028070629e+000	 7.910388658946514e-001	 1.145166594699200e+001
 2.663680945331590e+000	 8.187585418014102e-001	 1.147957467043752e+001
 2.759700500595092e+000	 5.467707782166210e-001	 1.133931698681694e+001
 2.754020991183672e+000	 5.746940918654475e-001	 1.138051683236363e+001
 2.748040456743174e+000	 6.026427781280914e-001	 1.140589083676517e+001
 2.741757187558796e+000	 6.306123418725927e-001	 1.141607547704708e+001
 2.735169556092172e+000	 6.585982270693414e-001	 1.141149728285803e+001
 2.728276019125458e+000	 6.865958184677176e-001	 1.139886981757411e+001
 2.721075119871516e+000	 7.146004433529241e-001	 1.139594612748428e+001
 2.713565490046998e+000	 7.426073733825569e-001	 1.140269072655060e+001
 2.705745851905085e+000	 7.706118265023212e-001	 1.141787993081060e+001
 2.697615020224629e+000	 7.986089689401570e-001	 1.144020083751222e+001
 2.689171904252460e+000	 8.265939172778939e-001	 1.146825337780927e+001
 2.785860007908426e+000	 5.519536791053696e-001	 1.131934756917030e+001
 2.780126661796730e+000	 5.801416809430494e-001	 1.136164034039807e+001
 2.774089437206379e+000	 6.083552959043150e-001	 1.138576460753281e+001
 2.767746608215981e+000	 6.365899862473640e-001	 1.139267482901412e+001
 2.761096531859549e+000	 6.648411527554916e-001	 1.138310895822735e+001
 2.754137650290895e+000	 6.931041364296191e-001	 1.136942198740565e+001
 2.746868492913828e+000	 7.213742202617819e-001	 1.136635252798620e+001
 2.739287678474881e+000	 7.496466310891085e-001	 1.137282216901603e+001
 2.731393917115323e+000	 7.779165415276959e-001	 1.138758473276829e+001
 2.723186012379159e+000	 8.061790719856368e-001	 1.140928764797957e+001
 2.714662863173830e+000	 8.344292927543137e-001	 1.143647435739643e+001
 2.812019515222285e+000	 5.571365799941846e-001	 1.128420069541449e+001
 2.806232332410390e+000	 5.855892700207178e-001	 1.132648748734485e+001
 2.800138417670241e+000	 6.140678136806009e-001	 1.134823802048894e+001
 2.793736028873866e+000	 6.425676306221915e-001	 1.135072778927177e+001
 2.787023507627656e+000	 6.710840784416882e-001	 1.133535469365382e+001
 2.779999281457081e+000	 6.996124543915534e-001	 1.132086915562745e+001
 2.772661865956895e+000	 7.281479971706544e-001	 1.131686602987027e+001
 2.765009866903514e+000	 7.566858887956516e-001	 1.132221769629734e+001
 2.757041982326296e+000	 7.852212565530333e-001	 1.133567147702216e+001
 2.748757004534392e+000	 8.137491750310452e-001	 1.135585174533092e+001
 2.740153822095873e+000	 8.422646682306209e-001	 1.138126268348799e+001
 2.485244232885506e+000	 7.639109134684247e-001	 1.157523894129131e+001
 2.477151860299458e+000	 7.897578556018046e-001	 1.160830475110448e+001
 2.468769133891298e+000	 8.155843702179724e-001	 1.163967427501620e+001
 2.460095314090223e+000	 8.413858163563166e-001	 1.166935045927134e+001
 2.451129755315018e+000	 8.671575154167841e-001	 1.169741459496557e+001
 2.441871907512629e+000	 8.928947534162470e-001	 1.172402866828861e+001
 2.432321317635803e+000	 9.185927833090084e-001	 1.174943812960110e+001
 2.422477631056948e+000	 9.442468273696871e-001	 1.177397503234757e+001
 2.412340592915415e+000	 9.698520796365817e-001	 1.179806148474515e+001
 2.401910049395445e+000	 9.954037084134922e-001	 1.182221334939193e+001
 2.391185948932115e+000	 1.020896858827830e+000	 1.184703093337148e+001
 2.510735191807548e+000	 7.717462889439608e-001	 1.152814486776544e+001
 2.502559816378509e+000	 7.978583411747027e-001	 1.156239161245440e+001
 2.494091108990538e+000	 8.239497563647817e-001	 1.159488177327123e+001
 2.485328322487116e+000	 8.500158459516010e-001	 1.162563429173548e+001
 2.476270804665347e+000	 8.760518833470556e-001	 1.165473068319631e+001
 2.466917999830329e+000	 9.020531062170464e-001	 1.168231774970305e+001
 2.457269450287938e+000	 9.280147188257830e-001	 1.170861080332432e+001
 2.447324797773200e+000	 9.539318944431129e-001	 1.173389734738587e+001
 2.437083784811378e+000	 9.797997778129441e-001	 1.175854115426916e+001
 2.426546256009037e+000	 1.005613487680731e+000	 1.178298666987241e+001
 2.415712159272363e+000	 1.031368119377818e+000	 1.180775196479749e+001
 2.536226150728920e+000	 7.795816644197814e-001	 1.149891201810168e+001
 2.527967772456935e+000	 8.059588267478867e-001	 1.153388534968473e+001
 2.519413084089206e+000	 8.323151425118924e-001	 1.156696014756681e+001
 2.510561330883490e+000	 8.586458755472128e-001	 1.159818454054110e+001
 2.501411854015220e+000	 8.849462512776898e-001	 1.162765366663342e+001
 2.491964092147640e+000	 9.112114590182462e-001	 1.165551279118790e+001
 2.482217582939757e+000	 9.374366543429982e-001	 1.168196103120134e+001
 2.472171964489210e+000	 9.636169615170172e-001	 1.170725562954918e+001
 2.461826976707175e+000	 9.897474759898183e-001	 1.173171671311764e+001
 2.451182462622545e+000	 1.015823266948505e+000	 1.175571826000606e+001
 2.440238369612606e+000	 1.041839379928356e+000	 1.177975426661639e+001
 2.561717109649789e+000	 7.874170398958366e-001	 1.148355766356539e+001
 2.553375728534892e+000	 8.140593123213009e-001	 1.151872649153333e+001
 2.544735059187441e+000	 8.406805286592410e-001	 1.155181305688028e+001
 2.535794339279474e+000	 8.672759051430786e-001	 1.158290686467074e+001
 2.526552903364751e+000	 8.938406192086001e-001	 1.161212898833736e+001
 2.517010184464659e+000	 9.203698118197515e-001	 1.163963563884316e+001
 2.507165715591338e+000	 9.468585898605495e-001	 1.166562244042304e+001
 2.497019131205037e+000	 9.733020285912878e-001	 1.169032935241908e+001
 2.486570168602850e+000	 9.996951741670863e-001	 1.171404616624500e+001
 2.475818669235987e+000	 1.026033046216697e+000	 1.173710587190582e+001
 2.464764579952845e+000	 1.052310640479326e+000	 1.175994512937613e+001
 2.587208068570322e+000	 7.952524153720765e-001	 1.147804732490502e+001
 2.578783684612534e+000	 8.221597978948896e-001	 1.151281276267102e+001
 2.570057034285386e+000	 8.490459148067618e-001	 1.154530986886534e+001
 2.561027347675200e+000	 8.759059347391240e-001	 1.157568068832402e+001
 2.551693952714053e+000	 9.027349871397038e-001	 1.160408343346014e+001
 2.542056276781484e+000	 9.295281646214674e-001	 1.163069655375875e+001
 2.532113848242760e+000	 9.562805253783324e-001	 1.165572361706843e+001
 2.521866297920744e+000	 9.829870956658126e-001	 1.167939893775929e+001
 2.511313360498441e+000	 1.009642872344632e+000	 1.170199387544085e+001
 2.500454875849389e+000	 1.036242825485187e+000	 1.172381255841224e+001
 2.489290790293080e+000	 1.062781901030612e+000	 1.174524717149149e+001
 2.612699027490689e+000	 8.030877908484521e-001	 1.147830024081372e+001
 2.604191640690019e+000	 8.302602834685960e-001	 1.151200496710620e+001
 2.595379009383188e+000	 8.574113009543917e-001	 1.154329201288970e+001
 2.586260356070796e+000	 8.845359643352752e-001	 1.157236607670340e+001
 2.576835002063240e+000	 9.116293550709154e-001	 1.159943257924386e+001
 2.567102369098211e+000	 9.386865174232990e-001	 1.162470228596605e+001
 2.557061980894103e+000	 9.657024608962423e-001	 1.164839685195054e+001
 2.546713464636391e+000	 9.926721627404799e-001	 1.167075521933202e+001
 2.536056552393992e+000	 1.019590570522337e+000	 1.169202706981407e+001
 2.525091082462769e+000	 1.046452604753855e+000	 1.171253944437420e+001
 2.513817000633315e+000	 1.073253161582096e+000	 1.173261021371974e+001
 2.638189986411056e+000	 8.109231663249131e-001	 1.148019490545640e+001
 2.629599596767505e+000	 8.383607690423659e-001	 1.151213294080284e+001
 2.620700984480991e+000	 8.657766871020663e-001	 1.154157939966594e+001
 2.611493364466391e+000	 8.931659939314580e-001	 1.156881067304924e+001
 2.601976051412428e+000	 9.205237230021509e-001	 1.159408829824522e+001
 2.592148461414938e+000	 9.478448702251517e-001	 1.161766419095987e+001
 2.582010113545447e+000	 9.751243964141759e-001	 1.163978691579910e+001
 2.571560631352037e+000	 1.002357229815177e+000	 1.166070892029123e+001
 2.560799744289543e+000	 1.029538268700084e+000	 1.168068249371358e+001
 2.549727289076148e+000	 1.056662384022583e+000	 1.170002084927930e+001
 2.538343210973550e+000	 1.083724422133662e+000	 1.171902310534708e+001
 2.663680945331590e+000	 8.187585418014102e-001	 1.147957467043752e+001
 2.655007552845147e+000	 8.464612546161422e-001	 1.150900156887551e+001
 2.646022959578938e+000	 8.741420732497217e-001	 1.153597690301565e+001
 2.636726372862116e+000	 9.017960235275986e-001	 1.156085669282173e+001
 2.627117100761730e+000	 9.294180909333258e-001	 1.158396631122058e+001
 2.617194553731764e+000	 9.570032230269308e-001	 1.160560638594102e+001
 2.606958246196869e+000	 9.845463319320279e-001	 1.162605986181543e+001
 2.596407798067744e+000	 1.012042296889793e+000	 1.164558515196848e+001
 2.585542936185135e+000	 1.039485966877756e+000	 1.166448952070790e+001
 2.574363495689549e+000	 1.066872163291252e+000	 1.168303526848297e+001
 2.562869421313786e+000	 1.094195682685192e+000	 1.170152550531993e+001
 2.689171904252460e+000	 8.265939172778939e-001	 1.146825337780927e+001
 2.680415508923102e+000	 8.545617401898698e-001	 1.149688671819868e+001
 2.671344934677172e+000	 8.825074593972931e-001	 1.152210622422824e+001
 2.661959381258101e+000	 9.104260531236234e-001	 1.154434797123766e+001
 2.652258150111261e+000	 9.383124588643561e-001	 1.156499378637673e+001
 2.642240646048783e+000	 9.661615758285405e-001	 1.158457394314222e+001
 2.631906378848450e+000	 9.939682674496944e-001	 1.160341185378283e+001
 2.621254964783572e+000	 1.021727363964215e+000	 1.162179455978223e+001
 2.610286128080809e+000	 1.049433665055237e+000	 1.164004015511865e+001
 2.598999702302992e+000	 1.077081942559741e+000	 1.165841633239588e+001
 2.587395631654025e+000	 1.104666943236571e+000	 1.167721962131003e+001
 2.714662863173830e+000	 8.344292927543137e-001	 1.143647435739643e+001
 2.705823465001528e+000	 8.626622257634926e-001	 1.146435349579008e+001
 2.696666909775837e+000	 8.908728455447167e-001	 1.148939230367349e+001
 2.687192389654475e+000	 9.190560827194575e-001	 1.151192231622254e+001
 2.677399199461134e+000	 9.472068267951564e-001	 1.153224574670353e+001
 2.667286738366093e+000	 9.753199286298869e-001	 1.155063851927581e+001
 2.656854511500270e+000	 1.003390202967071e+000	 1.156807801805178e+001
 2.646102131499581e+000	 1.031412431038331e+000	 1.158574772934292e+001
 2.635029319976607e+000	 1.059381363232407e+000	 1.160398384514856e+001
 2.623635908916500e+000	 1.087291721827933e+000	 1.162306374507853e+001
 2.611921841994267e+000	 1.115138203787681e+000	 1.164328190947660e+001
 2.740153822095873e+000	 8.422646682306209e-001	 1.138126268348799e+001
 2.731231421080580e+000	 8.707627113369549e-001	 1.140754811505507e+001
 2.721988884875082e+000	 8.992382316919291e-001	 1.143170374664569e+001
 2.712425398051369e+000	 9.276861123150280e-001	 1.145414403476165e+001
 2.702540248811464e+000	 9.561011947256431e-001	 1.147524652756695e+001
 2.692332830683795e+000	 9.844782814308750e-001	 1.149535505568110e+001
 2.681802644152406e+000	 1.012812138484053e+000	 1.151476869868798e+001
 2.670949298215834e+000	 1.041097498112028e+000	 1.153380880524734e+001
 2.659772511872570e+000	 1.069329061409152e+000	 1.155303768835425e+001
 2.648272115530094e+000	 1.097501501095708e+000	 1.157395420358312e+001
 2.636448052334516e+000	 1.125609464338406e+000	 1.159697473748513e+001
 2.391185948932115e+000	 1.020896858827830e+000	 1.184703093337148e+001
 2.380170018213486e+000	 1.046322846371298e+000	 1.186807142566140e+001
 2.368860828443987e+000	 1.071680609277310e+000	 1.188161571930058e+001
 2.357258643002612e+000	 1.096965242574563e+000	 1.188960585259729e+001
 2.345363831499277e+000	 1.122171828923650e+000	 1.189412936059354e+001
 2.333176870580242e+000	 1.147295441416840e+000	 1.189742169271903e+001
 2.320698344647250e+000	 1.172331146418369e+000	 1.190186818220014e+001
 2.307928946488350e+000	 1.197274006442202e+000	 1.191000546158435e+001
 2.294869477818497e+000	 1.222119083064165e+000	 1.192452221743727e+001
 2.281520849728123e+000	 1.246861439865192e+000	 1.194825917702787e+001
 2.267884083038025e+000	 1.271496145402371e+000	 1.198420822068042e+001
 2.415712159272363e+000	 1.031368119377818e+000	 1.180775196479750e+001
 2.404583238999920e+000	 1.057054899319571e+000	 1.182857459509727e+001
 2.393158051741089e+000	 1.082672754848955e+000	 1.184195170731196e+001
 2.381436863576317e+000	 1.108216730684771e+000	 1.184977477486810e+001
 2.369420047906573e+000	 1.133681859050856e+000	 1.185407548327826e+001
 2.357108086267037e+000	 1.159063162504583e+000	 1.185702909589932e+001
 2.344501569053610e+000	 1.184355656806279e+000	 1.186095738917712e+001
 2.331601196160210e+000	 1.209554353826513e+000	 1.186833104213167e+001
 2.318407777524915e+000	 1.234654264488092e+000	 1.188177136323704e+001
 2.304922233583135e+000	 1.259650401739496e+000	 1.190405123738705e+001
 2.291145595626142e+000	 1.284537783556398e+000	 1.193809517636339e+001
 2.440238369612606e+000	 1.041839379928356e+000	 1.177975426661639e+001
 2.428996459786430e+000	 1.067786952268393e+000	 1.179972596822342e+001
 2.417455275038343e+000	 1.093664900421135e+000	 1.181235261640252e+001
 2.405615084150245e+000	 1.119468218795488e+000	 1.181943883094053e+001
 2.393476264314157e+000	 1.145191889178536e+000	 1.182292189295303e+001
 2.381039301954177e+000	 1.170830883592758e+000	 1.182487617831545e+001
 2.368304793460358e+000	 1.196380167194577e+000	 1.182751718402756e+001
 2.355273445832485e+000	 1.221834701211166e+000	 1.183320502201618e+001
 2.341946077231757e+000	 1.247189445912312e+000	 1.184444725295110e+001
 2.328323617438561e+000	 1.272439363614045e+000	 1.186390093194057e+001
 2.314407108214644e+000	 1.297579421710628e+000	 1.189437373853447e+001
 2.464764579952845e+000	 1.052310640479326e+000	 1.175994512937613e+001
 2.453409680572995e+000	 1.078519005217651e+000	 1.177867061818513e+001
 2.441752498335712e+000	 1.104657045993749e+000	 1.179016905682752e+001
 2.429793304724341e+000	 1.130719706906630e+000	 1.179612172299560e+001
 2.417532480721959e+000	 1.156701919306625e+000	 1.179833276551781e+001
 2.404970517641571e+000	 1.182598604681319e+000	 1.179873483019096e+001
 2.392108017867391e+000	 1.208404677583234e+000	 1.179939430775116e+001
 2.378945695505065e+000	 1.234115048596146e+000	 1.180251606756295e+001
 2.365484376938910e+000	 1.259724627336829e+000	 1.181044753831901e+001
 2.351725001294287e+000	 1.285228325488860e+000	 1.182568199605518e+001
 2.337668620803414e+000	 1.310621059865093e+000	 1.185086092016517e+001
 2.489290790293080e+000	 1.062781901030612e+000	 1.174524717149149e+001
 2.477822901359597e+000	 1.089251058167239e+000	 1.176257363133927e+001
 2.466049721633156e+000	 1.115649191566700e+000	 1.177277796979851e+001
 2.453971525298550e+000	 1.141971195018112e+000	 1.177738135163239e+001
 2.441588697129901e+000	 1.168211949435054e+000	 1.177801580786629e+001
 2.428901733329134e+000	 1.194366325770216e+000	 1.177643118412145e+001
 2.415911242274610e+000	 1.220429187972218e+000	 1.177450174609558e+001
 2.402617945177838e+000	 1.246395395981444e+000	 1.177423229414157e+001
 2.389022676646253e+000	 1.272259808761648e+000	 1.177776363621421e+001
 2.375126385150191e+000	 1.298017287363961e+000	 1.178737726716375e+001
 2.360930133392335e+000	 1.323662698019824e+000	 1.180549910252359e+001
 2.513817000633315e+000	 1.073253161582096e+000	 1.173261021371974e+001
 2.502236122146217e+000	 1.099983111117045e+000	 1.174863280647286e+001
 2.490346944930636e+000	 1.126641337139889e+000	 1.175759607415958e+001
 2.478149745872810e+000	 1.153222683129850e+000	 1.176082393327324e+001
 2.465644913537911e+000	 1.179721979563755e+000	 1.175973696992603e+001
 2.452832949016774e+000	 1.206134046859399e+000	 1.175586084636620e+001
 2.439714466681911e+000	 1.232453698361500e+000	 1.175083440550691e+001
 2.426290194850694e+000	 1.258675743367047e+000	 1.174641731305280e+001
 2.412560976353672e+000	 1.284794990186778e+000	 1.174449707370012e+001
 2.398527769006154e+000	 1.310806249239369e+000	 1.174709525626325e+001
 2.384191645981290e+000	 1.336704336174856e+000	 1.175666383143884e+001
 2.538343210973550e+000	 1.083724422133662e+000	 1.171902310534708e+001
 2.526649342932838e+000	 1.110715164066960e+000	 1.173409128379563e+001
 2.514644168228117e+000	 1.137633482713217e+000	 1.174209322523743e+001
 2.502327966447069e+000	 1.164474171241759e+000	 1.174411801639303e+001
 2.489701129945919e+000	 1.191232009692661e+000	 1.174133504632599e+001
 2.476764164704405e+000	 1.217901767948820e+000	 1.173500401262338e+001
 2.463517691089194e+000	 1.244478208751050e+000	 1.172648467236697e+001
 2.449962444523521e+000	 1.270956090752944e+000	 1.171724616434520e+001
 2.436099276061050e+000	 1.297330171612221e+000	 1.170887572538434e+001
 2.421929152862056e+000	 1.323595211115106e+000	 1.170308662168909e+001
 2.407453158570164e+000	 1.349745974330221e+000	 1.170887650544091e+001
 2.562869421313786e+000	 1.094195682685192e+000	 1.170152550531993e+001
 2.551062563719440e+000	 1.121447217016874e+000	 1.171625010840769e+001
 2.538941391525559e+000	 1.148625628286586e+000	 1.172380569174800e+001
 2.526506187021271e+000	 1.175725659353757e+000	 1.172500840334911e+001
 2.513757346353844e+000	 1.202742039821704e+000	 1.172073617508288e+001
 2.500695380391937e+000	 1.229669489038429e+000	 1.171194047602376e+001
 2.487320915496360e+000	 1.256502719140836e+000	 1.169965786333285e+001
 2.473634694196210e+000	 1.283236438139122e+000	 1.168502114320005e+001
 2.459637575768267e+000	 1.309865353037983e+000	 1.166926995028427e+001
 2.445330536717780e+000	 1.336384172991190e+000	 1.165402828886120e+001
 2.430714671158838e+000	 1.362787612485952e+000	 1.166406385380615e+001
 2.587395631654025e+000	 1.104666943236571e+000	 1.167721962131003e+001
 2.575475784506004e+000	 1.132179269966677e+000	 1.169248073259028e+001
 2.563238614822923e+000	 1.159617773859896e+000	 1.170034935619532e+001
 2.550684407595356e+000	 1.186977147465758e+000	 1.170132998407383e+001
 2.537813562761619e+000	 1.214252069950818e+000	 1.169596824013894e+001
 2.524626596079279e+000	 1.241437210128177e+000	 1.168486453449398e+001
 2.511124139903305e+000	 1.268527229530830e+000	 1.166868757400327e+001
 2.497306943868649e+000	 1.295516785525570e+000	 1.164818752694414e+001
 2.483175875475209e+000	 1.322400534464070e+000	 1.162420863486770e+001
 2.468731920573206e+000	 1.349173134867645e+000	 1.160509006658125e+001
 2.453976183747196e+000	 1.375829250642081e+000	 1.162200509314176e+001
 2.611921841994267e+000	 1.115138203787681e+000	 1.164328190947660e+001
 2.599889005292512e+000	 1.142911322916259e+000	 1.166023746093916e+001
 2.587535838120173e+000	 1.170609919433050e+000	 1.166943284378982e+001
 2.574862628169269e+000	 1.198228635577678e+000	 1.167102148742117e+001
 2.561869779169168e+000	 1.225762100079934e+000	 1.166517518406718e+001
 2.548557811766347e+000	 1.253204931218014e+000	 1.165209980410019e+001
 2.534927364309929e+000	 1.280551739920999e+000	 1.163205093259116e+001
 2.520979193540728e+000	 1.307797132912276e+000	 1.160534920921931e+001
 2.506714175181758e+000	 1.334935715890488e+000	 1.157247762590082e+001
 2.492133304428215e+000	 1.361962096744488e+000	 1.155868369472708e+001
 2.477237696335122e+000	 1.388870888798642e+000	 1.158253658501562e+001
 2.636448052334516e+000	 1.125609464338406e+000	 1.159697473748513e+001
 2.624302226078947e+000	 1.153643375865511e+000	 1.161706984206147e+001
 2.611833061417271e+000	 1.181602065005949e+000	 1.162887058453974e+001
 2.599040848742955e+000	 1.209480123689433e+000	 1.163213915552858e+001
 2.585925995576417e+000	 1.237272130208986e+000	 1.162663123679405e+001
 2.572489027453051e+000	 1.264972652307893e+000	 1.161211394449325e+001
 2.558730588716130e+000	 1.292576250311315e+000	 1.158838376478630e+001
 2.544651443212335e+000	 1.320077480299228e+000	 1.155528424735165e+001
 2.530252474887798e+000	 1.347470897317242e+000	 1.151911554006595e+001
 2.515534688282688e+000	 1.374751058621742e+000	 1.151474192343430e+001
 2.500499208922499e+000	 1.401912526955667e+000	 1.154555230292402e+001
 2.267884083038025e+000	 1.271496145402371e+000	 1.198420822068042e+001
 2.253958198620401e+000	 1.296021946435735e+000	 1.201440652568601e+001
 2.239746463665040e+000	 1.320430225689309e+000	 1.202056948268660e+001
 2.225250231807174e+000	 1.344716083974012e+000	 1.200750393137102e+001
 2.210470966914092e+000	 1.368874639231026e+000	 1.199139155380975e+001
 2.195410242948957e+000	 1.392901029590033e+000	 1.197555495369213e+001
 2.180069743733891e+000	 1.416790416433498e+000	 1.196055182121897e+001
 2.164451262611717e+000	 1.440537987463155e+000	 1.194693303844581e+001
 2.148556702005920e+000	 1.464138959764830e+000	 1.193523927354336e+001
 2.132388072878528e+000	 1.487588582867686e+000	 1.192599713768892e+001
 2.115947494085821e+000	 1.510882141793964e+000	 1.191971492907086e+001
 2.291145595626142e+000	 1.284537783556398e+000	 1.193809517636339e+001
 2.277076874483293e+000	 1.309315143844457e+000	 1.196514062252549e+001
 2.262719370855698e+000	 1.333973776940951e+000	 1.196615803207371e+001
 2.248074452262729e+000	 1.358508733406175e+000	 1.195508557281624e+001
 2.233143597586459e+000	 1.382915081106391e+000	 1.194320997062988e+001
 2.217928396934077e+000	 1.407187908303436e+000	 1.193102641272135e+001
 2.202430551398550e+000	 1.431322326750428e+000	 1.191903345015483e+001
 2.186651872716886e+000	 1.455313474789711e+000	 1.190773000206550e+001
 2.170594282825593e+000	 1.479156520449109e+000	 1.189761185730428e+001
 2.154259813312990e+000	 1.502846664532555e+000	 1.188916769465666e+001
 2.137650604768313e+000	 1.526379143701107e+000	 1.188287464741019e+001
 2.314407108214644e+000	 1.297579421710628e+000	 1.189437373853447e+001
 2.300195550346515e+000	 1.322608341253345e+000	 1.191636511319676e+001
 2.285692278046610e+000	 1.347517328192726e+000	 1.191418821502442e+001
 2.270898672718448e+000	 1.372301382838444e+000	 1.190785723176898e+001
 2.255816228258888e+000	 1.396955522981840e+000	 1.190013174038321e+001
 2.240446550919154e+000	 1.421474787016904e+000	 1.189146483214472e+001
 2.224791359063059e+000	 1.445854237067408e+000	 1.188232126899355e+001
 2.208852482821807e+000	 1.470088962116305e+000	 1.187317438760909e+001
 2.192631863644929e+000	 1.494174081133418e+000	 1.186450245186835e+001
 2.176131553747041e+000	 1.518104746197447e+000	 1.185678447596471e+001
 2.159353715450340e+000	 1.541876145608267e+000	 1.185049554542519e+001
 2.337668620803414e+000	 1.310621059865093e+000	 1.185086092016517e+001
 2.323314226209956e+000	 1.335901538662437e+000	 1.186597729784536e+001
 2.308665185237677e+000	 1.361060879444680e+000	 1.186678029660485e+001
 2.293722893174245e+000	 1.386094032270866e+000	 1.186512220619532e+001
 2.278488858931313e+000	 1.410995964857420e+000	 1.186141380629651e+001
 2.262964704904139e+000	 1.435761665730482e+000	 1.185608956632007e+001
 2.247152166727390e+000	 1.460386147384479e+000	 1.184960501983268e+001
 2.231053092926468e+000	 1.484864449442972e+000	 1.184243351608406e+001
 2.214669444463933e+000	 1.509191641817784e+000	 1.183506236679414e+001
 2.198003294180702e+000	 1.533362827862384e+000	 1.182798841176453e+001
 2.181056826131934e+000	 1.557373147515461e+000	 1.182171303218678e+001
 2.360930133392335e+000	 1.323662698019824e+000	 1.180549910252359e+001
 2.346432902073507e+000	 1.349194736071776e+000	 1.181729666392809e+001
 2.331638092428801e+000	 1.374604430696857e+000	 1.182335640941838e+001
 2.316547113630038e+000	 1.399886681703489e+000	 1.182625031063942e+001
 2.301161489603666e+000	 1.425036406733176e+000	 1.182638261130147e+001
 2.285482858888984e+000	 1.450048544444212e+000	 1.182419187624722e+001
 2.269512974391514e+000	 1.474918057701679e+000	 1.182014821935242e+001
 2.253253703030859e+000	 1.499639936769747e+000	 1.181474985019784e+001
 2.236707025282611e+000	 1.524209202502237e+000	 1.180851895873203e+001
 2.219875034613992e+000	 1.548620909527387e+000	 1.180199696293076e+001
 2.202759936813130e+000	 1.572870149422705e+000	 1.179573915013394e+001
 2.384191645981290e+000	 1.336704336174856e+000	 1.175666383143884e+001
 2.369551577937059e+000	 1.362487933481405e+000	 1.177218727284360e+001
 2.354610999619883e+000	 1.388147981949305e+000	 1.178340188005383e+001
 2.339371334085742e+000	 1.413679331136361e+000	 1.179067790509854e+001
 2.323834120275880e+000	 1.439076848609157e+000	 1.179443390596708e+001
 2.308001012873640e+000	 1.464335423158140e+000	 1.179513453817252e+001
 2.291873782055399e+000	 1.489449968019049e+000	 1.179328758823114e+001
 2.275454313134966e+000	 1.514415424096662e+000	 1.178944026322483e+001
 2.258744606100967e+000	 1.539226763186804e+000	 1.178417475686582e+001
 2.241746775046933e+000	 1.563878991192479e+000	 1.177810311866572e+001
 2.224463047493960e+000	 1.588367151330018e+000	 1.177186145887602e+001
 2.407453158570164e+000	 1.349745974330221e+000	 1.170887650544091e+001
 2.392670253800501e+000	 1.375781130891361e+000	 1.173025219367441e+001
 2.377583906810825e+000	 1.401691533202069e+000	 1.174646544488835e+001
 2.362195554541274e+000	 1.427471980569528e+000	 1.175790787812572e+001
 2.346506750947888e+000	 1.453117290485408e+000	 1.176503252058215e+001
 2.330519166858057e+000	 1.478622301872309e+000	 1.176835142496782e+001
 2.314234589719017e+000	 1.503981878336627e+000	 1.176843246075183e+001
 2.297654923238780e+000	 1.529190911423754e+000	 1.176589529436773e+001
 2.280782186919011e+000	 1.554244323871514e+000	 1.176140658013402e+001
 2.263618515479547e+000	 1.579137072857684e+000	 1.175567439024641e+001
 2.246166158174458e+000	 1.603864153237414e+000	 1.174944191867631e+001
 2.430714671158838e+000	 1.362787612485952e+000	 1.166406385380615e+001
 2.415788929663723e+000	 1.389074328301687e+000	 1.169115459293962e+001
 2.400556814001531e+000	 1.415235084455195e+000	 1.171215941262832e+001
 2.385019774996549e+000	 1.441264630003040e+000	 1.172750958722569e+001
 2.369179381619623e+000	 1.467157732361976e+000	 1.173771210379071e+001
 2.353037320842188e+000	 1.492909180586763e+000	 1.174334706210820e+001
 2.336595397382336e+000	 1.518513788654454e+000	 1.174506417592665e+001
 2.319855533342289e+000	 1.543966398751055e+000	 1.174357839151720e+001
 2.302819767736746e+000	 1.569261884556395e+000	 1.173966464677990e+001
 2.285490255911854e+000	 1.594395154523023e+000	 1.173415180117144e+001
 2.267869268854655e+000	 1.619361155144911e+000	 1.172791577363829e+001
 2.453976183747196e+000	 1.375829250642081e+000	 1.162200509314176e+001
 2.438907605526619e+000	 1.402367525712424e+000	 1.165461808005163e+001
 2.423529721191897e+000	 1.428778635708728e+000	 1.168015977712161e+001
 2.407843995451483e+000	 1.455057279436942e+000	 1.169911875937847e+001
 2.391852012291019e+000	 1.481198174238908e+000	 1.171207482999846e+001
 2.375555474825982e+000	 1.507196059301545e+000	 1.171969615993302e+001
 2.358956205045328e+000	 1.533045698972568e+000	 1.172273545136597e+001
 2.342056143445480e+000	 1.558741886078600e+000	 1.172202514224691e+001
 2.324857348554177e+000	 1.584279445241475e+000	 1.171847167674100e+001
 2.307361996343875e+000	 1.609653236188518e+000	 1.171304887394792e+001
 2.289572379534585e+000	 1.634858157052527e+000	 1.170679043461425e+001
 2.477237696335122e+000	 1.388870888798642e+000	 1.158253658501562e+001
 2.462026281389074e+000	 1.415660723123613e+000	 1.162042699590152e+001
 2.446502628381830e+000	 1.442322186962715e+000	 1.165020628371075e+001
 2.430668215905994e+000	 1.468849928871283e+000	 1.167243735431099e+001
 2.414524642962007e+000	 1.495238616116251e+000	 1.168779107760408e+001
 2.398073628809393e+000	 1.521482938016701e+000	 1.169704312375033e+001
 2.381317012707962e+000	 1.547577609291011e+000	 1.170106974102581e+001
 2.364256753548344e+000	 1.573517373406423e+000	 1.170084249381698e+001
 2.346894929371312e+000	 1.599297005926782e+000	 1.169742198734745e+001
 2.329233736775630e+000	 1.624911317854192e+000	 1.169195061373837e+001
 2.311275490214280e+000	 1.650355158960276e+000	 1.168564436185475e+001
 2.500499208922499e+000	 1.401912526955667e+000	 1.154555230292402e+001
 2.485144957250983e+000	 1.428953920535294e+000	 1.158842664827608e+001
 2.469475535571229e+000	 1.455865738217200e+000	 1.162210245215112e+001
 2.453492436359996e+000	 1.482642578306111e+000	 1.164723339294251e+001
 2.437197273632522e+000	 1.509279057994052e+000	 1.166459907995450e+001
 2.420591782792370e+000	 1.535769816732273e+000	 1.167510154322635e+001
 2.403677820370210e+000	 1.562109519609821e+000	 1.167976057788407e+001
 2.386457363650868e+000	 1.588292860734559e+000	 1.167970796290117e+001
 2.368932510188156e+000	 1.614314566612345e+000	 1.167618058276584e+001
 2.351105477207142e+000	 1.640169399520067e+000	 1.167051248907234e+001
 2.332978600893775e+000	 1.665852160868178e+000	 1.166412594741503e+001
 2.115947494085821e+000	 1.510882141793964e+000	 1.191971492907086e+001
 2.099237191034965e+000	 1.534014959583876e+000	 1.191126561109530e+001
 2.082259493061532e+000	 1.556982398749111e+000	 1.189553442137340e+001
 2.065016834301999e+000	 1.579779865751119e+000	 1.187301619245828e+001
 2.047511753248752e+000	 1.602402814479762e+000	 1.184418072455840e+001
 2.029746891604005e+000	 1.624846749199451e+000	 1.180946694779669e+001
 2.011724993034462e+000	 1.647107227462233e+000	 1.176927687930269e+001
 1.993448901827818e+000	 1.669179862983960e+000	 1.172432265804459e+001
 1.974921561452375e+000	 1.691060328479696e+000	 1.167912963868235e+001
 1.956146013021240e+000	 1.712744358454553e+000	 1.163564679014835e+001
 1.937125393662695e+000	 1.734227751946229e+000	 1.159473096244917e+001
 2.137650604768313e+000	 1.526379143701107e+000	 1.188287464741019e+001
 2.120768905424560e+000	 1.549749233023748e+000	 1.187373498172078e+001
 2.103617068509114e+000	 1.572952247445816e+000	 1.185697675763445e+001
 2.086197553125190e+000	 1.595983546313200e+000	 1.183339566151662e+001
 2.068512923802284e+000	 1.618838536886680e+000	 1.180377068961169e+001
 2.050565849338336e+000	 1.641512677318262e+000	 1.176885738467638e+001
 2.032359101541615e+000	 1.664001479594162e+000	 1.172938083073591e+001
 2.013895553873444e+000	 1.686300512440469e+000	 1.168602845933949e+001
 1.995178179993043e+000	 1.708405404187631e+000	 1.163964481126002e+001
 1.976210052205971e+000	 1.730311845589922e+000	 1.159522795407669e+001
 1.956994339817781e+000	 1.752015592596107e+000	 1.155559772753692e+001
 2.159353715450340e+000	 1.541876145608267e+000	 1.185049554542519e+001
 2.142300619813662e+000	 1.565483506463633e+000	 1.184080697573959e+001
 2.124974643956197e+000	 1.588922096142529e+000	 1.182328209417109e+001
 2.107378271947896e+000	 1.612187226875289e+000	 1.179897568437831e+001
 2.089514094355360e+000	 1.635274259293601e+000	 1.176893352426902e+001
 2.071384807072250e+000	 1.658178605437074e+000	 1.173418473791808e+001
 2.052993210048401e+000	 1.680895731726092e+000	 1.169573386934389e+001
 2.034342205918758e+000	 1.703421161896978e+000	 1.165455273583720e+001
 2.015434798533458e+000	 1.725750479895566e+000	 1.161157212132979e+001
 1.996274091390502e+000	 1.747879332725291e+000	 1.156780023112637e+001
 1.976863285972716e+000	 1.769803433245986e+000	 1.152866839631511e+001
 2.181056826131934e+000	 1.557373147515461e+000	 1.182171303218678e+001
 2.163832334202313e+000	 1.581217779903542e+000	 1.181160333512770e+001
 2.146332219402827e+000	 1.604891944839259e+000	 1.179353877194444e+001
 2.128558990770164e+000	 1.628390907437387e+000	 1.176879284455223e+001
 2.110515264908027e+000	 1.651709981700529e+000	 1.173863710536849e+001
 2.092203764805794e+000	 1.674844533555892e+000	 1.170433266303993e+001
 2.073627318554861e+000	 1.697789983858026e+000	 1.166712137412782e+001
 2.054788857963797e+000	 1.720541811353488e+000	 1.162821678281422e+001
 2.035691417073644e+000	 1.743095555603501e+000	 1.158879487370455e+001
 2.016338130574856e+000	 1.765446819860659e+000	 1.154998470534481e+001
 1.996732232127518e+000	 1.787591273895864e+000	 1.151296120978596e+001
 2.202759936813130e+000	 1.572870149422705e+000	 1.179573915013394e+001
 2.185364048590552e+000	 1.596952053343488e+000	 1.178532268057395e+001
 2.167689794849050e+000	 1.620861793536015e+000	 1.176691286735945e+001
 2.149739709592041e+000	 1.644594587999505e+000	 1.174196288756613e+001
 2.131516435460329e+000	 1.668145704107467e+000	 1.171193042613921e+001
 2.113022722539009e+000	 1.691510461674715e+000	 1.167826837157978e+001
 2.094261427061033e+000	 1.714684235989961e+000	 1.164241516196947e+001
 2.075235510008592e+000	 1.737662460810000e+000	 1.160578484782773e+001
 2.055948035613634e+000	 1.760440631311437e+000	 1.156975694152942e+001
 2.036402169759054e+000	 1.783014306996029e+000	 1.153566612574796e+001
 2.016601178282201e+000	 1.805379114545742e+000	 1.150479189559815e+001
 2.224463047493960e+000	 1.588367151330018e+000	 1.177186145887602e+001
 2.206895762978422e+000	 1.612686326783483e+000	 1.176123927042449e+001
 2.189047370294912e+000	 1.636831642232806e+000	 1.174264679290672e+001
 2.170920428413575e+000	 1.660798268561644e+000	 1.171767913237813e+001
 2.152517606012314e+000	 1.684581426514421e+000	 1.168794179001071e+001
 2.133841680271940e+000	 1.708176389793547e+000	 1.165504058152117e+001
 2.114895535566959e+000	 1.731578488121902e+000	 1.162057117151688e+001
 2.095682162053178e+000	 1.754783110266514e+000	 1.158610829375362e+001
 2.076204654153453e+000	 1.777785707019373e+000	 1.155319473176323e+001
 2.056466208943119e+000	 1.800581794131398e+000	 1.152333013723986e+001
 2.036470124436785e+000	 1.823166955195621e+000	 1.149795976594930e+001
 2.246166158174458e+000	 1.603864153237414e+000	 1.174944191867631e+001
 2.228427477365963e+000	 1.628420600223541e+000	 1.173870176348614e+001
 2.210404945740458e+000	 1.652801490929641e+000	 1.172005790778557e+001
 2.192101147234814e+000	 1.677001949123813e+000	 1.169521090069856e+001
 2.173518776564031e+000	 1.701017148921394e+000	 1.166587703192797e+001
 2.154660638004631e+000	 1.724842317912389e+000	 1.163377750634652e+001
 2.135529644072676e+000	 1.748472740253847e+000	 1.160062719819963e+001
 2.116128814097590e+000	 1.771903759723029e+000	 1.156812306049643e+001
 2.096461272693131e+000	 1.795130782727311e+000	 1.153793226885973e+001
 2.076530248127072e+000	 1.818149281266767e+000	 1.151168018223831e+001
 2.056339070591284e+000	 1.840954795845499e+000	 1.149093820542683e+001
 2.267869268854655e+000	 1.619361155144911e+000	 1.172791577363829e+001
 2.249959191753217e+000	 1.644154873663671e+000	 1.171713198543039e+001
 2.231762521185734e+000	 1.668771339626526e+000	 1.169853713783977e+001
 2.213281866055804e+000	 1.693205629686017e+000	 1.167390196302234e+001
 2.194519947115524e+000	 1.717452871328388e+000	 1.164501776533102e+001
 2.175479595737126e+000	 1.741508246031245e+000	 1.161368488013002e+001
 2.156163752578225e+000	 1.765366992385799e+000	 1.158170067694853e+001
 2.136575466141861e+000	 1.789024409179548e+000	 1.155084718722125e+001
 2.116717891232695e+000	 1.812475858435248e+000	 1.152287844079392e+001
 2.096594287310937e+000	 1.835716768402137e+000	 1.149950759871186e+001
 2.076208016745718e+000	 1.858742636495377e+000	 1.148239397251983e+001
 2.289572379534585e+000	 1.634858157052527e+000	 1.170679043461425e+001
 2.271490906140224e+000	 1.659889147103888e+000	 1.169602369855925e+001
 2.253120096630787e+000	 1.684741188323473e+000	 1.167754760418805e+001
 2.234462584876594e+000	 1.709409310248261e+000	 1.165316900026321e+001
 2.215521117666840e+000	 1.733888593735408e+000	 1.162471965309473e+001
 2.196298553469467e+000	 1.758174174150114e+000	 1.159404401627898e+001
 2.176797861083645e+000	 1.782261244517759e+000	 1.156298650945464e+001
 2.157022118186025e+000	 1.806145058636070e+000	 1.153337839109222e+001
 2.136974509772173e+000	 1.829820934143187e+000	 1.150702431450979e+001
 2.116658326494735e+000	 1.853284255537506e+000	 1.148568865985511e+001
 2.096076962900100e+000	 1.876530477145256e+000	 1.147108173767973e+001
 2.311275490214280e+000	 1.650355158960276e+000	 1.168564436185475e+001
 2.293022620527026e+000	 1.675623420544203e+000	 1.167494137471087e+001
 2.274477672075661e+000	 1.700711037020488e+000	 1.165662325997786e+001
 2.255643303697231e+000	 1.725612990810552e+000	 1.163250007996428e+001
 2.236522288218026e+000	 1.750324316142456e+000	 1.160441070085481e+001
 2.217117511201701e+000	 1.774840102269001e+000	 1.157420989771194e+001
 2.197431969588975e+000	 1.799155496649727e+000	 1.154375493303955e+001
 2.177468770230118e+000	 1.823265708092595e+000	 1.151489169880316e+001
 2.157231128311593e+000	 1.847166009851127e+000	 1.148944051622745e+001
 2.136722365678489e+000	 1.870851742672875e+000	 1.146918169145497e+001
 2.115945909054448e+000	 1.894318317795134e+000	 1.145584092821166e+001
 2.332978600893775e+000	 1.665852160868178e+000	 1.166412594741503e+001
 2.314554334913666e+000	 1.691357693984630e+000	 1.165351897110259e+001
 2.295835247520404e+000	 1.716680885717582e+000	 1.163536753473301e+001
 2.276824022517764e+000	 1.741816671372895e+000	 1.161145314613537e+001
 2.257523458769130e+000	 1.766760038549538e+000	 1.158358957126211e+001
 2.237936468933869e+000	 1.791506030387907e+000	 1.155360929642622e+001
 2.218066078094256e+000	 1.816049748781706e+000	 1.152334942842782e+001
 2.197915422274171e+000	 1.840386357549125e+000	 1.149463712746234e+001
 2.177487746850984e+000	 1.864511085559069e+000	 1.146927467238479e+001
 2.156786404862220e+000	 1.888419229808245e+000	 1.144902426188778e+001
 2.135814855208781e+000	 1.912106158445013e+000	 1.143559265839426e+001
 1.937125393662695e+000	 1.734227751946229e+000	 1.159473096244917e+001
 1.917865842278389e+000	 1.755503199414275e+000	 1.155582046999150e+001
 1.898367848035766e+000	 1.776569877680164e+000	 1.151744987117675e+001
 1.878634825537390e+000	 1.797423798768443e+000	 1.147916861610327e+001
 1.858670277892823e+000	 1.818061049642710e+000	 1.144054926970906e+001
 1.838477794649450e+000	 1.838477794649450e+000	 1.140119440654675e+001
 1.818061049642710e+000	 1.858670277892823e+000	 1.136074351933414e+001
 1.797423798768442e+000	 1.878634825537390e+000	 1.131887990265631e+001
 1.776569877680166e+000	 1.898367848035766e+000	 1.127533747202035e+001
 1.755503199414274e+000	 1.917865842278389e+000	 1.122990747753437e+001
 1.734227751946229e+000	 1.937125393662695e+000	 1.118244507082102e+001
 1.956994339817781e+000	 1.752015592596107e+000	 1.155559772753692e+001
 1.937537244696356e+000	 1.773509260692354e+000	 1.152010374453728e+001
 1.917839261026503e+000	 1.794792018256848e+000	 1.148667559502129e+001
 1.897903838434115e+000	 1.815859836409762e+000	 1.145439499209910e+001
 1.877734515959893e+000	 1.836708761978973e+000	 1.142235601223386e+001
 1.857334919968946e+000	 1.857334919968946e+000	 1.138967320962428e+001
 1.836708761978973e+000	 1.877734515959894e+000	 1.135548977556634e+001
 1.815859836409761e+000	 1.897903838434115e+000	 1.131898570028059e+001
 1.794792018256848e+000	 1.917839261026503e+000	 1.127938589333550e+001
 1.773509260692353e+000	 1.937537244696356e+000	 1.123596821771170e+001
 1.752015592596108e+000	 1.956994339817781e+000	 1.118807139174750e+001
 1.976863285972716e+000	 1.769803433245986e+000	 1.152866839631511e+001
 1.957208647114214e+000	 1.791515321970432e+000	 1.149540128481503e+001
 1.937310674017164e+000	 1.813014158833529e+000	 1.146523247511847e+001
 1.917172851330790e+000	 1.834295874051076e+000	 1.143685203409287e+001
 1.896798754026930e+000	 1.855356474315226e+000	 1.140895342805522e+001
 1.876192045288421e+000	 1.876192045288421e+000	 1.138024273749437e+001
 1.855356474315226e+000	 1.896798754026930e+000	 1.134944794598299e+001
 1.834295874051076e+000	 1.917172851330789e+000	 1.131532825708002e+001
 1.813014158833529e+000	 1.937310674017163e+000	 1.127668339148856e+001
 1.791515321970433e+000	 1.957208647114214e+000	 1.123236281548517e+001
 1.769803433245986e+000	 1.976863285972716e+000	 1.118127485069191e+001
 1.996732232127518e+000	 1.787591273895864e+000	 1.151296120978596e+001
 1.976880049531974e+000	 1.809521383248510e+000	 1.148064075284533e+001
 1.956782087007755e+000	 1.831236299410209e+000	 1.145200058741153e+001
 1.936441864227417e+000	 1.852731911692388e+000	 1.142541270339541e+001
 1.915862992093939e+000	 1.874004186651469e+000	 1.139924526366798e+001
 1.895049170607881e+000	 1.895049170607881e+000	 1.137187280279874e+001
 1.874004186651470e+000	 1.915862992093939e+000	 1.134168652732436e+001
 1.852731911692388e+000	 1.936441864227417e+000	 1.130710466786138e+001
 1.831236299410209e+000	 1.956782087007756e+000	 1.126658283165734e+001
 1.809521383248510e+000	 1.976880049531974e+000	 1.121862430276031e+001
 1.787591273895864e+000	 1.996732232127518e+000	 1.116179023589801e+001
 2.016601178282201e+000	 1.805379114545742e+000	 1.150479189559815e+001
 1.996551451949648e+000	 1.827527444526589e+000	 1.147475506371592e+001
 1.976253499998287e+000	 1.849458439986889e+000	 1.144586961709480e+001
 1.955710877124004e+000	 1.871167949333697e+000	 1.141896251767846e+001
 1.934927230160922e+000	 1.892651898987706e+000	 1.139214945350262e+001
 1.913906295927326e+000	 1.913906295927326e+000	 1.136354781658132e+001
 1.892651898987707e+000	 1.934927230160922e+000	 1.133128789931967e+001
 1.871167949333697e+000	 1.955710877124005e+000	 1.129352416506807e+001
 1.849458439986889e+000	 1.976253499998287e+000	 1.124844653793188e+001
 1.827527444526589e+000	 1.996551451949648e+000	 1.119429165536477e+001
 1.805379114545742e+000	 2.016601178282202e+000	 1.113476456565426e+001
 2.036470124436785e+000	 1.823166955195621e+000	 1.149795976594930e+001
 2.016222854367249e+000	 1.845533505804667e+000	 1.147399101180454e+001
 1.995724912988767e+000	 1.867680580563567e+000	 1.144573305751302e+001
 1.974979890020558e+000	 1.889603986975002e+000	 1.141639365469794e+001
 1.953991468227883e+000	 1.911299611323936e+000	 1.138659220279371e+001
 1.932763421246759e+000	 1.932763421246759e+000	 1.135426091986233e+001
 1.911299611323936e+000	 1.953991468227883e+000	 1.131734256968923e+001
 1.889603986975003e+000	 1.974979890020558e+000	 1.127380253702637e+001
 1.867680580563567e+000	 1.995724912988767e+000	 1.122164093965000e+001
 1.845533505804666e+000	 2.016222854367249e+000	 1.116413382773301e+001
 1.823166955195621e+000	 2.036470124436785e+000	 1.110994070615874e+001
 2.056339070591284e+000	 1.840954795845499e+000	 1.149093820542683e+001
 2.035894256784788e+000	 1.863539567082745e+000	 1.147194690884027e+001
 2.015196325979205e+000	 1.885902721140246e+000	 1.144803418107012e+001
 1.994248902917082e+000	 1.908040024616306e+000	 1.141659919792107e+001
 1.973055706294826e+000	 1.929947323660161e+000	 1.138150221377951e+001
 1.951620546566180e+000	 1.951620546566180e+000	 1.134300825615597e+001
 1.929947323660161e+000	 1.973055706294827e+000	 1.129894355416984e+001
 1.908040024616306e+000	 1.994248902917082e+000	 1.124715667204413e+001
 1.885902721140245e+000	 2.015196325979205e+000	 1.119016690169496e+001
 1.863539567082745e+000	 2.035894256784789e+000	 1.113769077079617e+001
 1.840954795845499e+000	 2.056339070591284e+000	 1.108742929086046e+001
 2.076208016745718e+000	 1.858742636495377e+000	 1.148239397251983e+001
 2.055565659202280e+000	 1.881545628360823e+000	 1.146706103955431e+001
 2.034667738969607e+000	 1.904124861716922e+000	 1.144606733911238e+001
 2.013517915813583e+000	 1.926476062257608e+000	 1.141645746317237e+001
 1.992119944361754e+000	 1.948595035996382e+000	 1.137580504562892e+001
 1.970477671885594e+000	 1.970477671885594e+000	 1.132878337549030e+001
 1.948595035996382e+000	 1.992119944361754e+000	 1.127518088251953e+001
 1.926476062257608e+000	 2.013517915813584e+000	 1.121650178400078e+001
 1.904124861716923e+000	 2.034667738969607e+000	 1.116366650935799e+001
 1.881545628360823e+000	 2.055565659202280e+000	 1.111484849852839e+001
 1.858742636495377e+000	 2.076208016745717e+000	 1.106704836804243e+001
 2.096076962900100e+000	 1.876530477145256e+000	 1.147108173767974e+001
 2.075237061619735e+000	 1.899551689638900e+000	 1.145798088137655e+001
 2.054139151959984e+000	 1.922347002293599e+000	 1.143821594647418e+001
 2.032786928710067e+000	 1.944912099898908e+000	 1.140890475166800e+001
 2.011184182428673e+000	 1.967242748332599e+000	 1.136699135523497e+001
 1.989334797205001e+000	 1.989334797205000e+000	 1.131057176120324e+001
 1.967242748332600e+000	 2.011184182428673e+000	 1.124769427839220e+001
 1.944912099898908e+000	 2.032786928710067e+000	 1.119176027916651e+001
 1.922347002293599e+000	 2.054139151959985e+000	 1.114194365352044e+001
 1.899551689638900e+000	 2.075237061619735e+000	 1.109518795848299e+001
 1.876530477145256e+000	 2.096076962900100e+000	 1.104853879085099e+001
 2.115945909054448e+000	 1.894318317795134e+000	 1.145584092821166e+001
 2.094908464037164e+000	 1.917557750916978e+000	 1.144344080461287e+001
 2.073610564950345e+000	 1.940569142870276e+000	 1.142314160225980e+001
 2.052055941606541e+000	 1.963348137540208e+000	 1.139220199494144e+001
 2.030248420495583e+000	 1.985890460668814e+000	 1.134770506802539e+001
 2.008191922524404e+000	 2.008191922524404e+000	 1.128793882397137e+001
 1.985890460668814e+000	 2.030248420495583e+000	 1.122662475592452e+001
 1.963348137540208e+000	 2.052055941606541e+000	 1.117286420769473e+001
 1.940569142870276e+000	 2.073610564950345e+000	 1.112438014649009e+001
 1.917557750916979e+000	 2.094908464037165e+000	 1.107822724751272e+001
 1.894318317795134e+000	 2.115945909054448e+000	 1.103157127232592e+001
 2.135814855208781e+000	 1.912106158445013e+000	 1.143559265839426e+001
 2.114579866454582e+000	 1.935563812195057e+000	 1.142225877056589e+001
 2.093081977940697e+000	 1.958791283446953e+000	 1.139959019140299e+001
 2.071324954503008e+000	 1.981784175181508e+000	 1.136505250284295e+001
 2.049312658562491e+000	 2.004538173005029e+000	 1.131636556215858e+001
 2.027049047843805e+000	 2.027049047843805e+000	 1.126448978071331e+001
 2.004538173005029e+000	 2.049312658562490e+000	 1.121211300130189e+001
 1.981784175181508e+000	 2.071324954503008e+000	 1.115903319269130e+001
 1.958791283446953e+000	 2.093081977940697e+000	 1.111030837611022e+001
 1.935563812195057e+000	 2.114579866454582e+000	 1.106342864983153e+001
 1.912106158445013e+000	 2.135814855208781e+000	 1.101575350259483e+001
 1.734227751946229e+000	 1.937125393662695e+000	 1.118244507082103e+001
 1.712744358454553e+000	 1.956146013021241e+000	 1.112573253812363e+001
 1.691060328479696e+000	 1.974921561452375e+000	 1.105382738168151e+001
 1.669179862983960e+000	 1.993448901827818e+000	 1.096859949288484e+001
 1.647107227462233e+000	 2.011724993034462e+000	 1.087449996921620e+001
 1.624846749199452e+000	 2.029746891604005e+000	 1.078186372099937e+001
 1.602402814479762e+000	 2.047511753248752e+000	 1.069250790388703e+001
 1.579779865751119e+000	 2.065016834301999e+000	 1.060747825591410e+001
 1.556982398749111e+000	 2.082259493061532e+000	 1.052782454307612e+001
 1.534014959583875e+000	 2.099237191034965e+000	 1.045458931579441e+001
 1.510882141793964e+000	 2.115947494085821e+000	 1.038879713695596e+001
 1.752015592596108e+000	 1.956994339817781e+000	 1.118807139174750e+001
 1.730311845589922e+000	 1.976210052205971e+000	 1.112829689729484e+001
 1.708405404187631e+000	 1.995178179993043e+000	 1.105109042241620e+001
 1.686300512440468e+000	 2.013895553873444e+000	 1.096225373457015e+001
 1.664001479594162e+000	 2.032359101541615e+000	 1.087253926030421e+001
 1.641512677318262e+000	 2.050565849338336e+000	 1.078373009156801e+001
 1.618838536886680e+000	 2.068512923802285e+000	 1.069720668991533e+001
 1.595983546313200e+000	 2.086197553125190e+000	 1.061437077973762e+001
 1.572952247445815e+000	 2.103617068509114e+000	 1.053663220466906e+001
 1.549749233023748e+000	 2.120768905424560e+000	 1.046539617662642e+001
 1.526379143701107e+000	 2.137650604768313e+000	 1.040205102844374e+001
 1.769803433245986e+000	 1.976863285972716e+000	 1.118127485069191e+001
 1.747879332725290e+000	 1.996274091390502e+000	 1.111604717556168e+001
 1.725750479895566e+000	 2.015434798533457e+000	 1.103614683777418e+001
 1.703421161896978e+000	 2.034342205918758e+000	 1.095264647273003e+001
 1.680895731726092e+000	 2.052993210048401e+000	 1.086738064693021e+001
 1.658178605437075e+000	 2.071384807072250e+000	 1.078197298725626e+001
 1.635274259293601e+000	 2.089514094355360e+000	 1.069808761049134e+001
 1.612187226875288e+000	 2.107378271947896e+000	 1.061741421732277e+001
 1.588922096142529e+000	 2.124974643956197e+000	 1.054165347991916e+001
 1.565483506463633e+000	 2.142300619813663e+000	 1.047250284789604e+001
 1.541876145608268e+000	 2.159353715450340e+000	 1.041164289279995e+001
 1.787591273895864e+000	 1.996732232127518e+000	 1.116179023589801e+001
 1.765446819860660e+000	 2.016338130574856e+000	 1.109407561752956e+001
 1.743095555603502e+000	 2.035691417073645e+000	 1.101991893966421e+001
 1.720541811353488e+000	 2.054788857963797e+000	 1.094122751298584e+001
 1.697789983858025e+000	 2.073627318554860e+000	 1.085977826276958e+001
 1.674844533555892e+000	 2.092203764805794e+000	 1.077740958587241e+001
 1.651709981700529e+000	 2.110515264908027e+000	 1.069600483925972e+001
 1.628390907437388e+000	 2.128558990770164e+000	 1.061747600259545e+001
 1.604891944839259e+000	 2.146332219402827e+000	 1.054374765323317e+001
 1.581217779903542e+000	 2.163832334202313e+000	 1.047674138809023e+001
 1.557373147515461e+000	 2.181056826131934e+000	 1.041836082191974e+001
 1.805379114545742e+000	 2.016601178282202e+000	 1.113476456565426e+001
 1.783014306996028e+000	 2.036402169759053e+000	 1.107262308526751e+001
 1.760440631311437e+000	 2.055948035613634e+000	 1.100326603643039e+001
 1.737662460810000e+000	 2.075235510008592e+000	 1.092853573300671e+001
 1.714684235989961e+000	 2.094261427061034e+000	 1.085035845178759e+001
 1.691510461674715e+000	 2.113022722539008e+000	 1.077072649277765e+001
 1.668145704107468e+000	 2.131516435460329e+000	 1.069168027341476e+001
 1.644594587999504e+000	 2.149739709592041e+000	 1.061529060805000e+001
 1.620861793536015e+000	 2.167689794849050e+000	 1.054364132116971e+001
 1.596952053343488e+000	 2.185364048590552e+000	 1.047881233876456e+001
 1.572870149422705e+000	 2.202759936813131e+000	 1.042286339698277e+001
 1.823166955195621e+000	 2.036470124436785e+000	 1.110994070615873e+001
 1.800581794131398e+000	 2.056466208943119e+000	 1.105212409611434e+001
 1.777785707019373e+000	 2.076204654153453e+000	 1.098649831207185e+001
 1.754783110266514e+000	 2.095682162053179e+000	 1.091499306463246e+001
 1.731578488121901e+000	 2.114895535566959e+000	 1.083962660448693e+001
 1.708176389793547e+000	 2.133841680271940e+000	 1.076248642617106e+001
 1.684581426514422e+000	 2.152517606012314e+000	 1.068571000858907e+001
 1.660798268561644e+000	 2.170920428413575e+000	 1.061146575422178e+001
 1.636831642232806e+000	 2.189047370294912e+000	 1.054193428593683e+001
 1.612686326783484e+000	 2.206895762978422e+000	 1.047929025600710e+001
 1.588367151330017e+000	 2.224463047493960e+000	 1.042568481636040e+001
 1.840954795845499e+000	 2.056339070591284e+000	 1.108742929086046e+001
 1.818149281266767e+000	 2.076530248127072e+000	 1.103264812814103e+001
 1.795130782727311e+000	 2.096461272693131e+000	 1.096982113608559e+001
 1.771903759723029e+000	 2.116128814097590e+000	 1.090091146214312e+001
 1.748472740253847e+000	 2.135529644072676e+000	 1.082797403417049e+001
 1.724842317912389e+000	 2.154660638004631e+000	 1.075313494090423e+001
 1.701017148921394e+000	 2.173518776564031e+000	 1.067857085391582e+001
 1.677001949123814e+000	 2.192101147234814e+000	 1.060648866388048e+001
 1.652801490929640e+000	 2.210404945740458e+000	 1.053910550083119e+001
 1.628420600223541e+000	 2.228427477365963e+000	 1.047862930350829e+001
 1.603864153237414e+000	 2.246166158174458e+000	 1.042724009700379e+001
 1.858742636495377e+000	 2.076208016745717e+000	 1.106704836804243e+001
 1.835716768402137e+000	 2.096594287310937e+000	 1.101417313657592e+001
 1.812475858435249e+000	 2.116717891232694e+000	 1.095334210892235e+001
 1.789024409179548e+000	 2.136575466141861e+000	 1.088649991237920e+001
 1.765366992385799e+000	 2.156163752578225e+000	 1.081568489053889e+001
 1.741508246031244e+000	 2.175479595737126e+000	 1.074300718824462e+001
 1.717452871328388e+000	 2.194519947115523e+000	 1.067062688457393e+001
 1.693205629686017e+000	 2.213281866055804e+000	 1.060073235794910e+001
 1.668771339626526e+000	 2.231762521185735e+000	 1.053551906414065e+001
 1.644154873663671e+000	 2.249959191753217e+000	 1.047716890311086e+001
 1.619361155144911e+000	 2.267869268854655e+000	 1.042783034438955e+001
 1.876530477145256e+000	 2.096076962900100e+000	 1.104853879085099e+001
 1.853284255537506e+000	 2.116658326494735e+000	 1.099659262663502e+001
 1.829820934143187e+000	 2.136974509772172e+000	 1.093707815384783e+001
 1.806145058636069e+000	 2.157022118186025e+000	 1.087187148393562e+001
 1.782261244517759e+000	 2.176797861083645e+000	 1.080294310814594e+001
 1.758174174150114e+000	 2.196298553469467e+000	 1.073233470920170e+001
 1.733888593735408e+000	 2.215521117666840e+000	 1.066213602932847e+001
 1.709409310248261e+000	 2.234462584876594e+000	 1.059446199037967e+001
 1.684741188323472e+000	 2.253120096630787e+000	 1.053143025829384e+001
 1.659889147103889e+000	 2.271490906140225e+000	 1.047513943902512e+001
 1.634858157052526e+000	 2.289572379534584e+000	 1.042764808647408e+001
 1.894318317795134e+000	 2.115945909054448e+000	 1.103157127232592e+001
 1.870851742672876e+000	 2.136722365678489e+000	 1.097972277964484e+001
 1.847166009851127e+000	 2.157231128311593e+000	 1.092096265215896e+001
 1.823265708092595e+000	 2.177468770230117e+000	 1.085705041286165e+001
 1.799155496649727e+000	 2.197431969588976e+000	 1.078983938741971e+001
 1.774840102269001e+000	 2.217117511201700e+000	 1.072125225921061e+001
 1.750324316142456e+000	 2.236522288218026e+000	 1.065325669076638e+001
 1.725612990810552e+000	 2.255643303697231e+000	 1.058784121942454e+001
 1.700711037020488e+000	 2.274477672075662e+000	 1.052699163128282e+001
 1.675623420544203e+000	 2.293022620527026e+000	 1.047266801218238e+001
 1.650355158960276e+000	 2.311275490214281e+000	 1.042678266744991e+001
 1.912106158445013e+000	 2.135814855208781e+000	 1.101575350259483e+001
 1.888419229808245e+000	 2.156786404862220e+000	 1.096330962898814e+001
 1.864511085559069e+000	 2.177487746850984e+000	 1.090485261893176e+001
 1.840386357549125e+000	 2.197915422274170e+000	 1.084197922248848e+001
 1.816049748781705e+000	 2.218066078094255e+000	 1.077637820612992e+001
 1.791506030387908e+000	 2.237936468933869e+000	 1.070980466213044e+001
 1.766760038549538e+000	 2.257523458769129e+000	 1.064405439609839e+001
 1.741816671372895e+000	 2.276824022517764e+000	 1.058093861293422e+001
 1.716680885717582e+000	 2.295835247520404e+000	 1.052225911760603e+001
 1.691357693984630e+000	 2.314554334913665e+000	 1.046978424146128e+001
 1.665852160868179e+000	 2.332978600893775e+000	 1.042522569740888e+001
 1.510882141793964e+000	 2.115947494085821e+000	 1.038879713695596e+001
 1.487588582867686e+000	 2.132388072878528e+000	 1.032481968960833e+001
 1.464138959764830e+000	 2.148556702005919e+000	 1.025607398373728e+001
 1.440537987463155e+000	 2.164451262611717e+000	 1.018210428081103e+001
 1.416790416433498e+000	 2.180069743733891e+000	 1.010241243777186e+001
 1.392901029590033e+000	 2.195410242948957e+000	 1.001645331359202e+001
 1.368874639231026e+000	 2.210470966914093e+000	 9.923631086246354e+000
 1.344716083974012e+000	 2.225250231807173e+000	 9.823296527288767e+000
 1.320430225689309e+000	 2.239746463665041e+000	 9.717235875707042e+000
 1.296021946435735e+000	 2.253958198620401e+000	 9.617596302120580e+000
 1.271496145402372e+000	 2.267884083038025e+000	 9.524529533137686e+000
 1.526379143701107e+000	 2.137650604768313e+000	 1.040205102844374e+001
 1.502846664532555e+000	 2.154259813312990e+000	 1.034115496231166e+001
 1.479156520449109e+000	 2.170594282825592e+000	 1.027602088968280e+001
 1.455313474789710e+000	 2.186651872716886e+000	 1.020611217727129e+001
 1.431322326750428e+000	 2.202430551398550e+000	 1.013083789587231e+001
 1.407187908303436e+000	 2.217928396934077e+000	 1.004954793456372e+001
 1.382915081106392e+000	 2.233143597586459e+000	 9.961529107109799e+000
 1.358508733406175e+000	 2.248074452262729e+000	 9.866002301372173e+000
 1.333973776940951e+000	 2.262719370855698e+000	 9.762120712761211e+000
 1.309315143844457e+000	 2.277076874483293e+000	 9.658167660038172e+000
 1.284537783556399e+000	 2.291145595626142e+000	 9.562744474648833e+000
 1.541876145608268e+000	 2.159353715450340e+000	 1.041164289279995e+001
 1.518104746197447e+000	 2.176131553747041e+000	 1.035366421061778e+001
 1.494174081133418e+000	 2.192631863644929e+000	 1.029171141695915e+001
 1.470088962116304e+000	 2.208852482821807e+000	 1.022522992716715e+001
 1.445854237067409e+000	 2.224791359063059e+000	 1.015359933032582e+001
 1.421474787016904e+000	 2.240446550919154e+000	 1.007612804660782e+001
 1.396955522981841e+000	 2.255816228258888e+000	 9.992049062643931e+000
 1.372301382838444e+000	 2.270898672718448e+000	 9.900516799882977e+000
 1.347517328192726e+000	 2.285692278046610e+000	 9.800605160456444e+000
 1.322608341253345e+000	 2.300195550346515e+000	 9.693281635455842e+000
 1.297579421710628e+000	 2.314407108214644e+000	 9.593137367941583e+000
 1.557373147515461e+000	 2.181056826131934e+000	 1.041836082191974e+001
 1.533362827862384e+000	 2.198003294180702e+000	 1.036309970527434e+001
 1.509191641817784e+000	 2.214669444463932e+000	 1.030389230885836e+001
 1.484864449442972e+000	 2.231053092926468e+000	 1.024022723650435e+001
 1.460386147384479e+000	 2.247152166727390e+000	 1.017151605466639e+001
 1.435761665730482e+000	 2.262964704904139e+000	 1.009708732799202e+001
 1.410995964857420e+000	 2.278488858931313e+000	 1.001618182294533e+001
 1.386094032270866e+000	 2.293722893174245e+000	 9.927948939170770e+000
 1.361060879444679e+000	 2.308665185237677e+000	 9.831444417111657e+000
 1.335901538662437e+000	 2.323314226209955e+000	 9.725629358865609e+000
 1.310621059865092e+000	 2.337668620803414e+000	 9.618721314802038e+000
 1.572870149422705e+000	 2.202759936813131e+000	 1.042286339698277e+001
 1.548620909527387e+000	 2.219875034613992e+000	 1.037008609612481e+001
 1.524209202502237e+000	 2.236707025282611e+000	 1.031318361620588e+001
 1.499639936769747e+000	 2.253253703030858e+000	 1.025174718348914e+001
 1.474918057701679e+000	 2.269512974391513e+000	 1.018528005318035e+001
 1.450048544444212e+000	 2.285482858888984e+000	 1.011319075769847e+001
 1.425036406733176e+000	 2.301161489603666e+000	 1.003478761741573e+001
 1.399886681703489e+000	 2.316547113630037e+000	 9.949274578844999e+000
 1.374604430696857e+000	 2.331638092428801e+000	 9.855748433319061e+000
 1.349194736071777e+000	 2.346432902073507e+000	 9.753197456884381e+000
 1.323662698019824e+000	 2.360930133392335e+000	 9.642301044590507e+000
 1.588367151330017e+000	 2.224463047493960e+000	 1.042568481636040e+001
 1.563878991192479e+000	 2.241746775046933e+000	 1.037512514286067e+001
 1.539226763186804e+000	 2.258744606100968e+000	 1.032008308005639e+001
 1.514415424096663e+000	 2.275454313134967e+000	 1.026031029895487e+001
 1.489449968019049e+000	 2.291873782055399e+000	 1.019545980150600e+001
 1.464335423158140e+000	 2.308001012873640e+000	 1.012507821526025e+001
 1.439076848609157e+000	 2.323834120275879e+000	 1.004859944948675e+001
 1.413679331136361e+000	 2.339371334085742e+000	 9.965339783599115e+000
 1.388147981949305e+000	 2.354610999619884e+000	 9.874494446002309e+000
 1.362487933481405e+000	 2.369551577937059e+000	 9.775135728319711e+000
 1.336704336174856e+000	 2.384191645981290e+000	 9.666212666503975e+000
 1.603864153237414e+000	 2.246166158174458e+000	 1.042724009700379e+001
 1.579137072857684e+000	 2.263618515479547e+000	 1.037860053058910e+001
 1.554244323871514e+000	 2.280782186919011e+000	 1.032497060755571e+001
 1.529190911423754e+000	 2.297654923238781e+000	 1.026631874554497e+001
 1.503981878336627e+000	 2.314234589719017e+000	 1.020250418904105e+001
 1.478622301872309e+000	 2.330519166858057e+000	 1.013326818314109e+001
 1.453117290485408e+000	 2.346506750947888e+000	 1.005822661253735e+001
 1.427471980569528e+000	 2.362195554541273e+000	 9.976864183019655e+000
 1.401691533202069e+000	 2.377583906810825e+000	 9.888530209232217e+000
 1.375781130891361e+000	 2.392670253800501e+000	 9.792436058386398e+000
 1.349745974330221e+000	 2.407453158570164e+000	 9.687654285273974e+000
 1.619361155144911e+000	 2.267869268854655e+000	 1.042783034438955e+001
 1.594395154523023e+000	 2.285490255911854e+000	 1.038078276453474e+001
 1.569261884556395e+000	 2.302819767736746e+000	 1.032811283472891e+001
 1.543966398751055e+000	 2.319855533342289e+000	 1.027006058903577e+001
 1.518513788654454e+000	 2.336595397382336e+000	 1.020674653633535e+001
 1.492909180586763e+000	 2.353037320842188e+000	 1.013816154479001e+001
 1.467157732361976e+000	 2.369179381619624e+000	 1.006415830022775e+001
 1.441264630003040e+000	 2.385019774996548e+000	 9.984444422817221e+000
 1.415235084455194e+000	 2.400556814001531e+000	 9.898577311949721e+000
 1.389074328301687e+000	 2.415788929663724e+000	 9.805960774290586e+000
 1.362787612485953e+000	 2.430714671158838e+000	 9.705843474651607e+000
 1.634858157052526e+000	 2.289572379534584e+000	 1.042764808647408e+001
 1.609653236188518e+000	 2.307361996343875e+000	 1.038183413862401e+001
 1.584279445241475e+000	 2.324857348554177e+000	 1.032966777042569e+001
 1.558741886078600e+000	 2.342056143445480e+000	 1.027171415568617e+001
 1.533045698972569e+000	 2.358956205045327e+000	 1.020840870116840e+001
 1.507196059301545e+000	 2.375555474825982e+000	 1.014004547202157e+001
 1.481198174238908e+000	 2.391852012291019e+000	 1.006676730498304e+001
 1.455057279436942e+000	 2.407843995451483e+000	 9.988557701412708e+000
 1.428778635708728e+000	 2.423529721191897e+000	 9.905234576829015e+000
 1.402367525712424e+000	 2.438907605526619e+000	 9.816445927696579e+000
 1.375829250642081e+000	 2.453976183747196e+000	 9.721667459903440e+000
 1.650355158960276e+000	 2.311275490214281e+000	 1.042678266744991e+001
 1.624911317854192e+000	 2.329233736775629e+000	 1.038181377309639e+001
 1.599297005926782e+000	 2.346894929371312e+000	 1.032968951608948e+001
 1.573517373406423e+000	 2.364256753548344e+000	 1.027135246995906e+001
 1.547577609291011e+000	 2.381317012707963e+000	 1.020760526748113e+001
 1.521482938016701e+000	 2.398073628809392e+000	 1.013909739585094e+001
 1.495238616116251e+000	 2.414524642962007e+000	 1.006631379883342e+001
 1.468849928871284e+000	 2.430668215905993e+000	 9.989565386268890e+000
 1.442322186962715e+000	 2.446502628381830e+000	 9.908981534946992e+000
 1.415660723123613e+000	 2.462026281389075e+000	 9.824504647921753e+000
 1.388870888798642e+000	 2.477237696335122e+000	 9.735886821979895e+000
 1.665852160868179e+000	 2.332978600893775e+000	 1.042522569740888e+001
 1.640169399520067e+000	 2.351105477207141e+000	 1.038068271664697e+001
 1.614314566612346e+000	 2.368932510188156e+000	 1.032813305641184e+001
 1.588292860734558e+000	 2.386457363650868e+000	 1.026894776738096e+001
 1.562109519609820e+000	 2.403677820370209e+000	 1.020434781176677e+001
 1.535769816732273e+000	 2.420591782792370e+000	 1.013538905534925e+001
 1.509279057994052e+000	 2.437197273632522e+000	 1.006294919124742e+001
 1.482642578306111e+000	 2.453492436359996e+000	 9.987716704773401e+000
 1.455865738217200e+000	 2.469475535571230e+000	 9.910181971323398e+000
 1.428953920535294e+000	 2.485144957250983e+000	 9.830630561254328e+000
 1.401912526955667e+000	 2.500499208922499e+000	 9.749138807226201e+000
 1.271496145402372e+000	 2.267884083038025e+000	 9.524529533137685e+000
 1.246861439865192e+000	 2.281520849728122e+000	 9.435086111555945e+000
 1.222119083064165e+000	 2.294869477818497e+000	 9.347362205507881e+000
 1.197274006442202e+000	 2.307928946488350e+000	 9.261135653397266e+000
 1.172331146418369e+000	 2.320698344647250e+000	 9.176245454800018e+000
 1.147295441416841e+000	 2.333176870580241e+000	 9.092613060884478e+000
 1.122171828923650e+000	 2.345363831499277e+000	 9.010261086076200e+000
 1.096965242574563e+000	 2.357258643002612e+000	 8.929329292588788e+000
 1.071680609277310e+000	 2.368860828443987e+000	 8.850087726947004e+000
 1.046322846371299e+000	 2.380170018213485e+000	 8.772946915574341e+000
 1.020896858827830e+000	 2.391185948932115e+000	 8.698465054647897e+000
 1.284537783556399e+000	 2.291145595626142e+000	 9.562744474648833e+000
 1.259650401739495e+000	 2.304922233583134e+000	 9.472666491423309e+000
 1.234654264488093e+000	 2.318407777524915e+000	 9.385694302997164e+000
 1.209554353826513e+000	 2.331601196160211e+000	 9.301329915473238e+000
 1.184355656806279e+000	 2.344501569053610e+000	 9.219155630769249e+000
 1.159063162504583e+000	 2.357108086267037e+000	 9.138857757245035e+000
 1.133681859050856e+000	 2.369420047906573e+000	 9.060247510234524e+000
 1.108216730684771e+000	 2.381436863576317e+000	 8.983278941599984e+000
 1.082672754848956e+000	 2.393158051741090e+000	 8.908063766948599e+000
 1.057054899319571e+000	 2.404583238999920e+000	 8.834882989149435e+000
 1.031368119377818e+000	 2.415712159272363e+000	 8.764195246990902e+000
 1.297579421710628e+000	 2.314407108214644e+000	 9.593137367941585e+000
 1.272439363614045e+000	 2.328323617438562e+000	 9.500397648709825e+000
 1.247189445912312e+000	 2.341946077231757e+000	 9.412501736206425e+000
 1.221834701211165e+000	 2.355273445832486e+000	 9.328608507682144e+000
 1.196380167194577e+000	 2.368304793460358e+000	 9.247978195003949e+000
 1.170830883592758e+000	 2.381039301954176e+000	 9.169998768059992e+000
 1.145191889178537e+000	 2.393476264314158e+000	 9.094209260652788e+000
 1.119468218795488e+000	 2.405615084150246e+000	 9.020319864578433e+000
 1.093664900421135e+000	 2.417455275038343e+000	 8.948228649248119e+000
 1.067786952268393e+000	 2.428996459786429e+000	 8.878034796379334e+000
 1.041839379928356e+000	 2.440238369612607e+000	 8.810048271682735e+000
 1.310621059865092e+000	 2.337668620803414e+000	 9.618721314802038e+000
 1.285228325488860e+000	 2.351725001294286e+000	 9.521488476062944e+000
 1.259724627336829e+000	 2.365484376938910e+000	 9.431183141137355e+000
 1.234115048596146e+000	 2.378945695505065e+000	 9.346553732861008e+000
 1.208404677583233e+000	 2.392108017867391e+000	 9.266473077006657e+000
 1.182598604681320e+000	 2.404970517641572e+000	 9.189967718369507e+000
 1.156701919306625e+000	 2.417532480721959e+000	 9.116243915279753e+000
 1.130719706906629e+000	 2.429793304724341e+000	 9.044710123871182e+000
 1.104657045993749e+000	 2.441752498335712e+000	 8.974995817352825e+000
 1.078519005217652e+000	 2.453409680572995e+000	 8.906966520000434e+000
 1.052310640479326e+000	 2.464764579952846e+000	 8.840734970302918e+000
 1.323662698019824e+000	 2.360930133392335e+000	 9.642301044590507e+000
 1.298017287363962e+000	 2.375126385150190e+000	 9.538958801299010e+000
 1.272259808761648e+000	 2.389022676646254e+000	 9.444967236645169e+000
 1.246395395981444e+000	 2.402617945177838e+000	 9.358596822073814e+000
 1.220429187972218e+000	 2.415911242274609e+000	 9.278267537975134e+000
 1.194366325770216e+000	 2.428901733329134e+000	 9.202581390037379e+000
 1.168211949435054e+000	 2.441588697129901e+000	 9.130351322736141e+000
 1.141971195018111e+000	 2.453971525298550e+000	 9.060626325937234e+000
 1.115649191566700e+000	 2.466049721633156e+000	 8.992712566893911e+000
 1.089251058167239e+000	 2.477822901359597e+000	 8.926190416818109e+000
 1.062781901030611e+000	 2.489290790293080e+000	 8.860927278377789e+000
 1.336704336174856e+000	 2.384191645981290e+000	 9.666212666503975e+000
 1.310806249239370e+000	 2.398527769006154e+000	 9.555617722622422e+000
 1.284794990186778e+000	 2.412560976353672e+000	 9.456892051485669e+000
 1.258675743367047e+000	 2.426290194850694e+000	 9.367998058972754e+000
 1.232453698361500e+000	 2.439714466681910e+000	 9.286837199358612e+000
 1.206134046859400e+000	 2.452832949016774e+000	 9.211523662787144e+000
 1.179721979563755e+000	 2.465644913537913e+000	 9.140416465531692e+000
 1.153222683129849e+000	 2.478149745872810e+000	 9.072147417874414e+000
 1.126641337139889e+000	 2.490346944930636e+000	 9.005644788032635e+000
 1.099983111117046e+000	 2.502236122146217e+000	 8.940152520022417e+000
 1.073253161582096e+000	 2.513817000633315e+000	 8.875244903109968e+000
 1.349745974330221e+000	 2.407453158570164e+000	 9.687654285273975e+000
 1.323595211115106e+000	 2.421929152862056e+000	 9.574042015432685e+000
 1.297330171612221e+000	 2.436099276061050e+000	 9.469784214923076e+000
 1.270956090752944e+000	 2.449962444523522e+000	 9.377826959407488e+000
 1.244478208751050e+000	 2.463517691089195e+000	 9.295487117890620e+000
 1.217901767948820e+000	 2.476764164704405e+000	 9.220327492312979e+000
 1.191232009692661e+000	 2.489701129945918e+000	 9.150192350152711e+000
 1.164474171241759e+000	 2.502327966447070e+000	 9.083238499642013e+000
 1.137633482713217e+000	 2.514644168228116e+000	 9.017961711253994e+000
 1.110715164066960e+000	 2.526649342932837e+000	 8.953218331279802e+000
 1.083724422133662e+000	 2.538343210973550e+000	 8.888241975807411e+000
 1.362787612485953e+000	 2.430714671158838e+000	 9.705843474651607e+000
 1.336384172991191e+000	 2.445330536717780e+000	 9.596342495267411e+000
 1.309865353037983e+000	 2.459637575768267e+000	 9.486238306642878e+000
 1.283236438139122e+000	 2.473634694196211e+000	 9.390942502583522e+000
 1.256502719140836e+000	 2.487320915496360e+000	 9.307332903987218e+000
 1.229669489038429e+000	 2.500695380391936e+000	 9.232356922983131e+000
 1.202742039821704e+000	 2.513757346353843e+000	 9.163282922222333e+000
 1.175725659353757e+000	 2.526506187021271e+000	 9.097734650931717e+000
 1.148625628286586e+000	 2.538941391525559e+000	 9.033720656321274e+000
 1.121447217016874e+000	 2.551062563719440e+000	 8.969658503284883e+000
 1.094195682685192e+000	 2.562869421313786e+000	 8.904393680708111e+000
 1.375829250642081e+000	 2.453976183747196e+000	 9.721667459903438e+000
 1.349173134867645e+000	 2.468731920573207e+000	 9.619353476172822e+000
 1.322400534464071e+000	 2.483175875475210e+000	 9.508596262036225e+000
 1.295516785525570e+000	 2.497306943868649e+000	 9.409973410350791e+000
 1.268527229530830e+000	 2.511124139903305e+000	 9.325281880634064e+000
 1.241437210128177e+000	 2.524626596079280e+000	 9.250789132841568e+000
 1.214252069950818e+000	 2.537813562761620e+000	 9.183126005070207e+000
 1.186977147465758e+000	 2.550684407595357e+000	 9.119324771714059e+000
 1.159617773859896e+000	 2.563238614822923e+000	 9.056851784182566e+000
 1.132179269966677e+000	 2.575475784506003e+000	 8.993634513407823e+000
 1.104666943236571e+000	 2.587395631654025e+000	 8.928082861766475e+000
 1.388870888798642e+000	 2.477237696335122e+000	 9.735886821979896e+000
 1.361962096744488e+000	 2.492133304428215e+000	 9.641986235216276e+000
 1.334935715890488e+000	 2.506714175181758e+000	 9.538863008388624e+000
 1.307797132912276e+000	 2.520979193540728e+000	 9.437298471460819e+000
 1.280551739921000e+000	 2.534927364309929e+000	 9.352014280103127e+000
 1.253204931218015e+000	 2.548557811766348e+000	 9.278596508787180e+000
 1.225762100079934e+000	 2.561869779169168e+000	 9.212976260175440e+000
 1.198228635577678e+000	 2.574862628169270e+000	 9.151535435563369e+000
 1.170609919433050e+000	 2.587535838120172e+000	 9.091142851636779e+000
 1.142911322916260e+000	 2.599889005292512e+000	 9.029184329021676e+000
 1.115138203787681e+000	 2.611921841994268e+000	 8.963586608851651e+000
 1.401912526955667e+000	 2.500499208922499e+000	 9.749138807226201e+000
 1.374751058621742e+000	 2.515534688282688e+000	 9.665030863024317e+000
 1.347470897317242e+000	 2.530252474887798e+000	 9.574065330998238e+000
 1.320077480299228e+000	 2.544651443212336e+000	 9.475026907866750e+000
 1.292576250311316e+000	 2.558730588716131e+000	 9.389964476037774e+000
 1.264972652307893e+000	 2.572489027453051e+000	 9.318528749966539e+000
 1.237272130208986e+000	 2.585925995576417e+000	 9.255888168058302e+000
 1.209480123689433e+000	 2.599040848742956e+000	 9.197714754930031e+000
 1.181602065005949e+000	 2.611833061417270e+000	 9.140223968579843e+000
 1.153643375865511e+000	 2.624302226078947e+000	 9.080208065053672e+000
 1.125609464338406e+000	 2.636448052334516e+000	 9.015062824698294e+000
 1.020896858827830e+000	 2.391185948932115e+000	 8.698465054647896e+000
 9.954037084134920e-001	 2.401910049395444e+000	 8.627179367371211e+000
 9.698520796365818e-001	 2.412340592915415e+000	 8.558409081949939e+000
 9.442468273696867e-001	 2.422477631056949e+000	 8.491023086508966e+000
 9.185927833090082e-001	 2.432321317635803e+000	 8.424064435417098e+000
 8.928947534162468e-001	 2.441871907512629e+000	 8.356734940389764e+000
 8.671575154167843e-001	 2.451129755315018e+000	 8.288387365799599e+000
 8.413858163563170e-001	 2.460095314090223e+000	 8.218514829542748e+000
 8.155843702179720e-001	 2.468769133891297e+000	 8.146737545177967e+000
 7.897578556018043e-001	 2.477151860299458e+000	 8.072787061305931e+000
 7.639109134684247e-001	 2.485244232885506e+000	 7.996488172650231e+000
 1.031368119377818e+000	 2.415712159272363e+000	 8.764195246990903e+000
 1.005613487680731e+000	 2.426546256009037e+000	 8.696418166379681e+000
 9.797997778129447e-001	 2.437083784811378e+000	 8.630779527937385e+000
 9.539318944431129e-001	 2.447324797773200e+000	 8.566146844583567e+000
 9.280147188257829e-001	 2.457269450287938e+000	 8.501593666866189e+000
 9.020531062170464e-001	 2.466917999830329e+000	 8.436385067940783e+000
 8.760518833470560e-001	 2.476270804665348e+000	 8.369969376961526e+000
 8.500158459516012e-001	 2.485328322487115e+000	 8.301966857890358e+000
 8.239497563647820e-001	 2.494091108990540e+000	 8.232155478481410e+000
 7.978583411747026e-001	 2.502559816378510e+000	 8.160453936015847e+000
 7.717462889439609e-001	 2.510735191807548e+000	 8.086902126313335e+000
 1.041839379928356e+000	 2.440238369612607e+000	 8.810048271682732e+000
 1.015823266948505e+000	 2.451182462622545e+000	 8.744550219253846e+000
 9.897474759898185e-001	 2.461826976707176e+000	 8.680668259388447e+000
 9.636169615170168e-001	 2.472171964489210e+000	 8.617338016530232e+000
 9.374366543429982e-001	 2.482217582939757e+000	 8.553688874672883e+000
 9.112114590182460e-001	 2.491964092147640e+000	 8.489087676637100e+000
 8.849462512776898e-001	 2.501411854015221e+000	 8.423118469902784e+000
 8.586458755472132e-001	 2.510561330883490e+000	 8.355570402789530e+000
 8.323151425118923e-001	 2.519413084089207e+000	 8.286422445884899e+000
 8.059588267478868e-001	 2.527967772456936e+000	 8.215825116444563e+000
 7.795816644197812e-001	 2.536226150728919e+000	 8.144079404976072e+000
 1.052310640479326e+000	 2.464764579952846e+000	 8.840734970302918e+000
 1.026033046216697e+000	 2.475818669235988e+000	 8.776393175497935e+000
 9.996951741670866e-001	 2.486570168602849e+000	 8.713019389491779e+000
 9.733020285912875e-001	 2.497019131205038e+000	 8.649613035297673e+000
 9.468585898605494e-001	 2.507165715591338e+000	 8.585407682988310e+000
 9.203698118197512e-001	 2.517010184464658e+000	 8.519909457460312e+000
 8.938406192086004e-001	 2.526552903364751e+000	 8.452877436519882e+000
 8.672759051430791e-001	 2.535794339279474e+000	 8.384310704548325e+000
 8.406805286592407e-001	 2.544735059187440e+000	 8.314431951901183e+000
 8.140593123213008e-001	 2.553375728534892e+000	 8.243667809471688e+000
 7.874170398958365e-001	 2.561717109649788e+000	 8.172626130951299e+000
 1.062781901030611e+000	 2.489290790293080e+000	 8.860927278377789e+000
 1.036242825485187e+000	 2.500454875849389e+000	 8.796774877045122e+000
 1.009642872344632e+000	 2.511313360498441e+000	 8.732762118435717e+000
 9.829870956658121e-001	 2.521866297920744e+000	 8.667984811137744e+000
 9.562805253783321e-001	 2.532113848242760e+000	 8.601815163953745e+000
 9.295281646214674e-001	 2.542056276781485e+000	 8.533935093277426e+000
 9.027349871397038e-001	 2.551693952714053e+000	 8.464317174489930e+000
 8.759059347391242e-001	 2.561027347675200e+000	 8.393210793944293e+000
 8.490459148067616e-001	 2.570057034285387e+000	 8.321124551807399e+000
 8.221597978948889e-001	 2.578783684612533e+000	 8.248805117463460e+000
 7.952524153720766e-001	 2.587208068570322e+000	 8.177212763999545e+000
 1.073253161582096e+000	 2.513817000633315e+000	 8.875244903109968e+000
 1.046452604753855e+000	 2.525091082462769e+000	 8.810471367988905e+000
 1.019590570522337e+000	 2.536056552393992e+000	 8.744810537282582e+000
 9.926721627404798e-001	 2.546713464636391e+000	 8.677452218866288e+000
 9.657024608962423e-001	 2.557061980894103e+000	 8.607974191411380e+000
 9.386865174232991e-001	 2.567102369098211e+000	 8.536258439765796e+000
 9.116293550709155e-001	 2.576835002063241e+000	 8.462528653810420e+000
 8.845359643352754e-001	 2.586260356070796e+000	 8.387324200522908e+000
 8.574113009543914e-001	 2.595379009383189e+000	 8.311481255692216e+000
 8.302602834685960e-001	 2.604191640690019e+000	 8.236110090020507e+000
 8.030877908484519e-001	 2.612699027490689e+000	 8.162568750798027e+000
 1.083724422133662e+000	 2.538343210973550e+000	 8.888241975807409e+000
 1.056662384022583e+000	 2.549727289076148e+000	 8.822207231454517e+000
 1.029538268700084e+000	 2.560799744289543e+000	 8.754006012727276e+000
 1.002357229815177e+000	 2.571560631352037e+000	 8.682989517260655e+000
 9.751243964141757e-001	 2.582010113545447e+000	 8.608935715043405e+000
 9.478448702251516e-001	 2.592148461414938e+000	 8.531973616436307e+000
 9.205237230021511e-001	 2.601976051412428e+000	 8.452614784570891e+000
 8.931659939314584e-001	 2.611493364466390e+000	 8.371727554803830e+000
 8.657766871020662e-001	 2.620700984480991e+000	 8.290516820713840e+000
 8.383607690423656e-001	 2.629599596767504e+000	 8.210499659936906e+000
 8.109231663249130e-001	 2.638189986411056e+000	 8.133477056392081e+000
 1.094195682685192e+000	 2.562869421313786e+000	 8.904393680708109e+000
 1.066872163291252e+000	 2.574363495689549e+000	 8.836643157732702e+000
 1.039485966877756e+000	 2.585542936185134e+000	 8.765176852538613e+000
 1.012042296889793e+000	 2.596407798067745e+000	 8.689547981350048e+000
 9.845463319320278e-001	 2.606958246196870e+000	 8.609728960268841e+000
 9.570032230269305e-001	 2.617194553731764e+000	 8.526166013778472e+000
 9.294180909333261e-001	 2.627117100761730e+000	 8.439682192574372e+000
 9.017960235275987e-001	 2.636726372862115e+000	 8.351513091505682e+000
 8.741420732497214e-001	 2.646022959578938e+000	 8.263272939056506e+000
 8.464612546161421e-001	 2.655007552845147e+000	 8.176928471124239e+000
 8.187585418014102e-001	 2.663680945331590e+000	 8.094768585536594e+000
 1.104666943236571e+000	 2.587395631654025e+000	 8.928082861766477e+000
 1.077081942559741e+000	 2.598999702302993e+000	 8.858363477018012e+000
 1.049433665055237e+000	 2.610286128080809e+000	 8.783077920110188e+000
 1.021727363964214e+000	 2.621254964783572e+000	 8.701994701281643e+000
 9.939682674496941e-001	 2.631906378848451e+000	 8.615351558824981e+000
 9.661615758285405e-001	 2.642240646048783e+000	 8.523903222091711e+000
 9.383124588643562e-001	 2.652258150111261e+000	 8.428832908920873e+000
 9.104260531236235e-001	 2.661959381258100e+000	 8.331781060354789e+000
 8.825074593972930e-001	 2.671344934677172e+000	 8.235593986575855e+000
 8.545617401898695e-001	 2.680415508923102e+000	 8.147201870516199e+000
 8.265939172778938e-001	 2.689171904252460e+000	 8.069450238448919e+000
 1.115138203787681e+000	 2.611921841994268e+000	 8.963586608851649e+000
 1.087291721827932e+000	 2.623635908916500e+000	 8.891863659080014e+000
 1.059381363232407e+000	 2.635029319976607e+000	 8.812391571254718e+000
 1.031412431038330e+000	 2.646102131499581e+000	 8.725179744209321e+000
 1.003390202967071e+000	 2.656854511500270e+000	 8.630759614589959e+000
 9.753199286298868e-001	 2.667286738366093e+000	 8.530237612264704e+000
 9.472068267951563e-001	 2.677399199461133e+000	 8.429152912758868e+000
 9.190560827194577e-001	 2.687192389654475e+000	 8.332560622529856e+000
 8.908728455447166e-001	 2.696666909775838e+000	 8.242472511271618e+000
 8.626622257634922e-001	 2.705823465001527e+000	 8.161020277571184e+000
 8.344292927543137e-001	 2.714662863173830e+000	 8.090422291018868e+000
 1.125609464338406e+000	 2.636448052334516e+000	 9.015062824698298e+000
 1.097501501095708e+000	 2.648272115530094e+000	 8.941537782021364e+000
 1.069329061409152e+000	 2.659772511872570e+000	 8.857715998130033e+000
 1.041097498112028e+000	 2.670949298215834e+000	 8.764429676305008e+000
 1.012812138484053e+000	 2.681802644152406e+000	 8.668212897838577e+000
 9.844782814308749e-001	 2.692332830683794e+000	 8.572044897397181e+000
 9.561011947256430e-001	 2.702540248811464e+000	 8.477778601601427e+000
 9.276861123150281e-001	 2.712425398051369e+000	 8.387428190465281e+000
 8.992382316919289e-001	 2.721988884875083e+000	 8.303180675822835e+000
 8.707627113369547e-001	 2.731231421080581e+000	 8.227347545436281e+000
 8.422646682306207e-001	 2.740153822095873e+000	 8.162331492121092e+000
 7.639109134684247e-001	 2.485244232885506e+000	 7.996488172650231e+000
 7.380481445792873e-001	 2.493047082992633e+000	 7.919462461633169e+000
 7.121741063034353e-001	 2.500561330227558e+000	 7.843622060091073e+000
 6.862933117354153e-001	 2.507787982628420e+000	 7.769305809823559e+000
 6.604102280884718e-001	 2.514728135537550e+000	 7.697185838865748e+000
 6.345292747799888e-001	 2.521382969806464e+000	 7.633828556543967e+000
 6.086548215885872e-001	 2.527753749957561e+000	 7.578154961050469e+000
 5.827911868836834e-001	 2.533841822305532e+000	 7.525865965137481e+000
 5.569426359281881e-001	 2.539648613041488e+000	 7.473108859522413e+000
 5.311133792549037e-001	 2.545175626282792e+000	 7.416409545632561e+000
 5.053075711170251e-001	 2.550424442091569e+000	 7.352594085463213e+000
 7.717462889439609e-001	 2.510735191807548e+000	 8.086902126313335e+000
 7.456182476236746e-001	 2.518618075147865e+000	 8.013283655176217e+000
 7.194788213274722e-001	 2.526209395438529e+000	 7.940948131924971e+000
 6.933325694403606e-001	 2.533510171057052e+000	 7.869401799464792e+000
 6.671840049954464e-001	 2.540521508580616e+000	 7.798181210398627e+000
 6.410375927397362e-001	 2.547244600972648e+000	 7.732028173412131e+000
 6.148977472723328e-001	 2.553680725725668e+000	 7.673139339209119e+000
 5.887688312558331e-001	 2.559831242963416e+000	 7.617019819648996e+000
 5.626551537016211e-001	 2.565697593505348e+000	 7.559734757273274e+000
 5.365609683296077e-001	 2.571281296896450e+000	 7.497832193476000e+000
 5.104904720028426e-001	 2.576583949405427e+000	 7.428252298993750e+000
 7.795816644197812e-001	 2.536226150728919e+000	 8.144079404976072e+000
 7.531883506683611e-001	 2.544189067302395e+000	 8.073081625111387e+000
 7.267835363518351e-001	 2.551857460648769e+000	 8.003636034146920e+000
 7.003718271456699e-001	 2.559232359484935e+000	 7.934563803485898e+000
 6.739577819028284e-001	 2.566314881622927e+000	 7.864742526439582e+000
 6.475459106999372e-001	 2.573106232138085e+000	 7.796291508846489e+000
 6.211406729565766e-001	 2.579607701493043e+000	 7.734779195882688e+000
 5.947464756285221e-001	 2.585820663620601e+000	 7.676270183222021e+000
 5.683676714756254e-001	 2.591746573968552e+000	 7.617000964046410e+000
 5.420085574049048e-001	 2.597386967509508e+000	 7.553802909407416e+000
 5.156733728892596e-001	 2.602743456718761e+000	 7.483997956693362e+000
 7.874170398958365e-001	 2.561717109649788e+000	 8.172626130951299e+000
 7.607584537132998e-001	 2.569760059456395e+000	 8.103283026530304e+000
 7.340882513764792e-001	 2.577505525858459e+000	 8.035929128423742e+000
 7.074110848512961e-001	 2.584954547912257e+000	 7.968845287198278e+000
 6.807315588105687e-001	 2.592108254664673e+000	 7.900395967390979e+000
 6.540542286605390e-001	 2.598967863302960e+000	 7.830526236137124e+000
 6.273835986412624e-001	 2.605534677259869e+000	 7.766773919171164e+000
 6.007241200016894e-001	 2.611810084277258e+000	 7.707026833587792e+000
 5.740801892501380e-001	 2.617795554431263e+000	 7.647950685793375e+000
 5.474561464807286e-001	 2.623492638122118e+000	 7.586926369291415e+000
 5.208562737762096e-001	 2.628902964031701e+000	 7.521930838533730e+000
 7.952524153720766e-001	 2.587208068570322e+000	 8.177212763999545e+000
 7.683285567584447e-001	 2.595331051610042e+000	 8.108386258478088e+000
 7.413929664013588e-001	 2.603153591067784e+000	 8.042148341245545e+000
 7.144503425571933e-001	 2.610676736339205e+000	 7.976381658379609e+000
 6.875053357186182e-001	 2.617901627706041e+000	 7.909080886992138e+000
 6.605625466214887e-001	 2.624829494467460e+000	 7.838706757397291e+000
 6.336265243263337e-001	 2.631461653026330e+000	 7.772921672242682e+000
 6.067017643752751e-001	 2.637799504933566e+000	 7.712824935091979e+000
 5.797927070250946e-001	 2.643844534893646e+000	 7.655774050404613e+000
 5.529037355570139e-001	 2.649598308734429e+000	 7.599971009518279e+000
 5.260391746636258e-001	 2.655062471344380e+000	 7.544327025746767e+000
 8.030877908484519e-001	 2.612699027490689e+000	 8.162568750798027e+000
 7.758986598037490e-001	 2.620902043763512e+000	 8.092956691021314e+000
 7.486976814264280e-001	 2.628801656276926e+000	 8.026687974611201e+000
 7.214896002633143e-001	 2.636398924765966e+000	 7.961386660242998e+000
 6.942791126269274e-001	 2.643695000747222e+000	 7.894818628593948e+000
 6.670708645827340e-001	 2.650691125631771e+000	 7.824857441218454e+000
 6.398694500117332e-001	 2.657388628792607e+000	 7.757106126556701e+000
 6.126794087492188e-001	 2.663788925589698e+000	 7.697313612886646e+000
 5.855052248004320e-001	 2.669893515355864e+000	 7.643946006708204e+000
 5.583513246336941e-001	 2.675703979346590e+000	 7.596574593643514e+000
 5.312220755514417e-001	 2.681221978656926e+000	 7.554058519746352e+000
 8.109231663249130e-001	 2.638189986411056e+000	 8.133477056392081e+000
 7.834687628491668e-001	 2.646473035916982e+000	 8.061621772084283e+000
 7.560023964516420e-001	 2.654449721486068e+000	 7.994011392732499e+000
 7.285288579696130e-001	 2.662121113192726e+000	 7.928148635541999e+000
 7.010528895354476e-001	 2.669488373788401e+000	 7.861940717454866e+000
 6.735791825442224e-001	 2.676552756796084e+000	 7.795139689902873e+000
 6.461123756974059e-001	 2.683315604558885e+000	 7.729908944486716e+000
 6.186570531234599e-001	 2.689778346245831e+000	 7.675033678765303e+000
 5.912177425760863e-001	 2.695942495818081e+000	 7.628935155712116e+000
 5.637989137107039e-001	 2.701809649958751e+000	 7.590335167190386e+000
 5.364049764395906e-001	 2.707381485969473e+000	 7.558606652422265e+000
 8.187585418014102e-001	 2.663680945331590e+000	 8.094768585536594e+000
 7.910388658946517e-001	 2.672044028070630e+000	 8.020069436281112e+000
 7.633071114769551e-001	 2.680097786695394e+000	 7.954738841457460e+000
 7.355681156760424e-001	 2.687843301619675e+000	 7.895484158875338e+000
 7.078266664441294e-001	 2.695281746829770e+000	 7.838688796835446e+000
 6.800875005059012e-001	 2.702414387960583e+000	 7.780725419653977e+000
 6.523553013832940e-001	 2.709242580325346e+000	 7.720417628325135e+000
 6.246346974979380e-001	 2.715767766902138e+000	 7.668654669546942e+000
 5.969302603519940e-001	 2.721991476280464e+000	 7.626157968853712e+000
 5.692465027879767e-001	 2.727915320571062e+000	 7.592383545389044e+000
 5.415878773280060e-001	 2.733540993282151e+000	 7.567443170915841e+000
 8.265939172778938e-001	 2.689171904252460e+000	 8.069450238448919e+000
 7.986089689401570e-001	 2.697615020224630e+000	 8.003690309917445e+000
 7.706118265023212e-001	 2.705745851905084e+000	 7.947267414786422e+000
 7.426073733825566e-001	 2.713565490046997e+000	 7.896273555152712e+000
 7.146004433529239e-001	 2.721075119871516e+000	 7.846819963051976e+000
 6.865958184677173e-001	 2.728276019125458e+000	 7.795024171701670e+000
 6.585982270693412e-001	 2.735169556092173e+000	 7.737821762785555e+000
 6.306123418725927e-001	 2.741757187558796e+000	 7.686009255933043e+000
 6.026427781280914e-001	 2.748040456743174e+000	 7.643761895558774e+000
 5.746940918654472e-001	 2.754020991183672e+000	 7.611329377000542e+000
 5.467707782166210e-001	 2.759700500595091e+000	 7.589615671735610e+000
 8.344292927543137e-001	 2.714662863173830e+000	 8.090422291018868e+000
 8.061790719856369e-001	 2.723186012379159e+000	 8.031794112146198e+000
 7.779165415276959e-001	 2.731393917115324e+000	 7.981974791830059e+000
 7.496466310891083e-001	 2.739287678474881e+000	 7.936847227878697e+000
 7.213742202617817e-001	 2.746868492913827e+000	 7.892327786745949e+000
 6.931041364296190e-001	 2.754137650290895e+000	 7.844354946918785e+000
 6.648411527554916e-001	 2.761096531859548e+000	 7.788924235315069e+000
 6.365899862473644e-001	 2.767746608215980e+000	 7.734379357008250e+000
 6.083552959043146e-001	 2.774089437206379e+000	 7.689505285625542e+000
 5.801416809430494e-001	 2.780126661796730e+000	 7.655396038109488e+000
 5.519536791053693e-001	 2.785860007908425e+000	 7.633791963128795e+000
 8.422646682306207e-001	 2.740153822095873e+000	 8.162331492121092e+000
 8.137491750310451e-001	 2.748757004534392e+000	 8.109031577511599e+000
 7.852212565530335e-001	 2.757041982326296e+000	 8.063849493207384e+000
 7.566858887956514e-001	 2.765009866903514e+000	 8.022533497034461e+000
 7.281479971706540e-001	 2.772661865956894e+000	 7.980878236377998e+000
 6.996124543915533e-001	 2.779999281457081e+000	 7.934714968701444e+000
 6.710840784416883e-001	 2.787023507627656e+000	 7.879903546640707e+000
 6.425676306221918e-001	 2.793736028873866e+000	 7.820671644016879e+000
 6.140678136806004e-001	 2.800138417670240e+000	 7.770768961691209e+000
 5.855892700207175e-001	 2.806232332410390e+000	 7.732431001347201e+000
 5.571365799941845e-001	 2.812019515222284e+000	 7.708269320138674e+000
 5.053075711170251e-001	 2.550424442091569e+000	 7.352594085463211e+000
 4.795331713038518e-001	 2.555395989676932e+000	 7.282924585082404e+000
 4.537903379149098e-001	 2.560092804066504e+000	 7.210895335999699e+000
 4.280830402778991e-001	 2.564516682315065e+000	 7.136812391472560e+000
 4.024151861583350e-001	 2.568669489165140e+000	 7.060798078914261e+000
 3.767906205842475e-001	 2.572553154955150e+000	 6.982680475493082e+000
 3.512131247447561e-001	 2.576169673513514e+000	 6.901882203687266e+000
 3.256864149621451e-001	 2.579521100041421e+000	 6.817310025085390e+000
 3.002141417369426e-001	 2.582609548986935e+000	 6.727246641696505e+000
 2.747998888654161e-001	 2.585437191913076e+000	 6.629246036804281e+000
 2.494471726288109e-001	 2.588006255362404e+000	 6.520033602966173e+000
 5.104904720028426e-001	 2.576583949405427e+000	 7.428252298993748e+000
 4.844517061535697e-001	 2.581606489772226e+000	 7.351812010968262e+000
 4.584448305029267e-001	 2.586351479026043e+000	 7.271493788013370e+000
 4.324738550916993e-001	 2.590820732653894e+000	 7.187712825059291e+000
 4.065427277670497e-001	 2.595016134524814e+000	 7.100730992819841e+000
 3.806553329951613e-001	 2.598939634776542e+000	 7.010532376329718e+000
 3.548154907485164e-001	 2.602593247688027e+000	 6.916698100869373e+000
 3.290269554674278e-001	 2.605979049540489e+000	 6.818282039660532e+000
 3.032934150953240e-001	 2.609099176469709e+000	 6.713688923588467e+000
 2.776184901871918e-001	 2.611955822312248e+000	 6.600556290317329e+000
 2.520057330904998e-001	 2.614551236448130e+000	 6.475641619576326e+000
 5.156733728892596e-001	 2.602743456718761e+000	 7.483997956693362e+000
 4.893702410038772e-001	 2.607816989867085e+000	 7.408088936152669e+000
 4.630993230915090e-001	 2.612610153985244e+000	 7.328608735350668e+000
 4.368646699060309e-001	 2.617124782992494e+000	 7.246250381320560e+000
 4.106702693762561e-001	 2.621362779884366e+000	 7.161587104671087e+000
 3.845200454065251e-001	 2.625326114597917e+000	 7.074932792621715e+000
 3.584178567526873e-001	 2.629016821862626e+000	 6.986201698144279e+000
 3.323674959730879e-001	 2.632436999039727e+000	 6.894769122543213e+000
 3.063726884540590e-001	 2.635588803952722e+000	 6.799334709292018e+000
 2.804370915093106e-001	 2.638474452711707e+000	 6.697789898069132e+000
 2.545642935525385e-001	 2.641096217534166e+000	 6.587090990853787e+000
 5.208562737762096e-001	 2.628902964031701e+000	 7.521930838533730e+000
 4.942887758547083e-001	 2.634027489961617e+000	 7.453292527567671e+000
 4.677538156805934e-001	 2.638868828944194e+000	 7.383168222414242e+000
 4.412554847208340e-001	 2.643428833330921e+000	 7.312707839992990e+000
 4.147978109858974e-001	 2.647709425243827e+000	 7.242978487460508e+000
 3.883847578182855e-001	 2.651712594419279e+000	 7.174808623666817e+000
 3.620202227572169e-001	 2.655440396037277e+000	 7.108631446642096e+000
 3.357080364790732e-001	 2.658894948539082e+000	 7.044329354543780e+000
 3.094519618130930e-001	 2.662078431435898e+000	 6.981081242288227e+000
 2.832556928317134e-001	 2.664993083111359e+000	 6.917214300900904e+000
 2.571228540148597e-001	 2.667641198620404e+000	 6.849914115649057e+000
 5.260391746636258e-001	 2.655062471344380e+000	 7.544327025746764e+000
 4.992073107059977e-001	 2.660237990055931e+000	 7.489144816134947e+000
 4.724083082701172e-001	 2.665127503902978e+000	 7.436289993067446e+000
 4.456462995360489e-001	 2.669732883669232e+000	 7.387292712608436e+000
 4.189253525959176e-001	 2.674056070603222e+000	 7.342438305320512e+000
 3.922494702303885e-001	 2.678099074240623e+000	 7.301900874176448e+000
 3.656225887620537e-001	 2.681863970211957e+000	 7.265498964180060e+000
 3.390485769853320e-001	 2.685352898038498e+000	 7.232531042204319e+000
 3.125312351723726e-001	 2.688568058919159e+000	 7.201661765320891e+000
 2.860742941543414e-001	 2.691511713511108e+000	 7.170814481921979e+000
 2.596814144773963e-001	 2.694186179706736e+000	 7.137069225945199e+000
 5.312220755514417e-001	 2.681221978656926e+000	 7.554058519746354e+000
 5.041258455576798e-001	 2.686448490150136e+000	 7.515198130985541e+000
 4.770628008600168e-001	 2.691386178861674e+000	 7.479840911733136e+000
 4.500371143516156e-001	 2.696036934007483e+000	 7.448648766126713e+000
 4.230528942062600e-001	 2.700402715962583e+000	 7.422174797397276e+000
 3.961141826427810e-001	 2.704485554061952e+000	 7.400730367825486e+000
 3.692249547671452e-001	 2.708287544386637e+000	 7.384260926696273e+000
 3.423891174918126e-001	 2.711810847537922e+000	 7.372229709742453e+000
 3.156105085318437e-001	 2.715057686402432e+000	 7.363508433437976e+000
 2.888928954771354e-001	 2.718030343910860e+000	 7.356274135651618e+000
 2.622399749400806e-001	 2.720731160793048e+000	 7.347911349739756e+000
 5.364049764395906e-001	 2.707381485969473e+000	 7.558606652422263e+000
 5.090443804096894e-001	 2.712658990244341e+000	 7.531918024112733e+000
 4.817172934502299e-001	 2.717644853820371e+000	 7.509021658888456e+000
 4.544279291674744e-001	 2.722340984345731e+000	 7.490579324637788e+000
 4.271804358168682e-001	 2.726749361321934e+000	 7.477167349639449e+000
 3.999788950554091e-001	 2.730872033883266e+000	 7.469148635864330e+000
 3.728273207724401e-001	 2.734711118561287e+000	 7.466553600403802e+000
 3.457296579984633e-001	 2.738268797037303e+000	 7.468969057517983e+000
 3.186897818914524e-001	 2.741547313885638e+000	 7.475434077435918e+000
 2.917114968000368e-001	 2.744548974310516e+000	 7.484341890482130e+000
 2.647985354028455e-001	 2.747276141879232e+000	 7.493346945440709e+000
 5.415878773280060e-001	 2.733540993282151e+000	 7.567443170915841e+000
 5.139629152619605e-001	 2.738869490338654e+000	 7.548801878679503e+000
 4.863717860406928e-001	 2.743903528779151e+000	 7.533975479410781e+000
 4.588187439835655e-001	 2.748645034684032e+000	 7.523579099879339e+000
 4.313079774276855e-001	 2.753096006681305e+000	 7.518164088651881e+000
 4.038436074682189e-001	 2.757258513704562e+000	 7.518095779051356e+000
 3.764296867778863e-001	 2.761134692735884e+000	 7.523440342247914e+000
 3.490701985052323e-001	 2.764726746536587e+000	 7.533859645977602e+000
 3.217690552511447e-001	 2.768036941368701e+000	 7.548513062035029e+000
 2.945300981229865e-001	 2.771067604709985e+000	 7.565965202712008e+000
 2.673570958656238e-001	 2.773821122965178e+000	 7.584098611773726e+000
 5.467707782166210e-001	 2.759700500595091e+000	 7.589615671735611e+000
 5.188814501144281e-001	 2.765079990433186e+000	 7.575303562762199e+000
 4.910262786313429e-001	 2.770162203738097e+000	 7.564525107286215e+000
 4.632095587998288e-001	 2.774949085022442e+000	 7.557795165037598e+000
 4.354355190386554e-001	 2.779442652040723e+000	 7.555584571256103e+000
 4.077083198811573e-001	 2.783644993525843e+000	 7.558204493574207e+000
 3.800320527834320e-001	 2.787558266910397e+000	 7.565700042930108e+000
 3.524107390120677e-001	 2.791184696035717e+000	 7.577751950721347e+000
 3.248483286108669e-001	 2.794526568851548e+000	 7.593585156363013e+000
 2.973486994459259e-001	 2.797586235109167e+000	 7.611883191305962e+000
 2.699156563283478e-001	 2.800366104050776e+000	 7.630707296406427e+000
 5.519536791053693e-001	 2.785860007908425e+000	 7.633791963128795e+000
 5.237999849670263e-001	 2.791290490528043e+000	 7.620507056005918e+000
 4.956807712221167e-001	 2.796420878697292e+000	 7.610136378888603e+000
 4.676003736162050e-001	 2.801253135361017e+000	 7.603033479309074e+000
 4.395630606497217e-001	 2.805789297400218e+000	 7.599525506907276e+000
 4.115730322941702e-001	 2.810031473347105e+000	 7.599805058047681e+000
 3.836344187890254e-001	 2.813981841084797e+000	 7.603831440256751e+000
 3.557512795189180e-001	 2.817642645534646e+000	 7.611240058863207e+000
 3.279276019705646e-001	 2.821016196334099e+000	 7.621258664745524e+000
 3.001673007687956e-001	 2.824104865507973e+000	 7.632629249177539e+000
 2.724742167909505e-001	 2.826911085135917e+000	 7.643534428333602e+000
 5.571365799941845e-001	 2.812019515222284e+000	 7.708269320138677e+000
 5.287185198196900e-001	 2.817500990623337e+000	 7.693134674511775e+000
 5.003352638129517e-001	 2.822679553656821e+000	 7.679925509281946e+000
 4.719911884326337e-001	 2.827557185699814e+000	 7.668765292853674e+000
 4.436906022608280e-001	 2.832135942759818e+000	 7.659766363961499e+000
 4.154377447072045e-001	 2.836417953168350e+000	 7.652930208976451e+000
 3.872367847946145e-001	 2.840405415259060e+000	 7.648057326724331e+000
 3.590918200257314e-001	 2.844100595033316e+000	 7.644665266547857e+000
 3.310068753301844e-001	 2.847505823816278e+000	 7.641913466714005e+000
 3.029859020915368e-001	 2.850623495906301e+000	 7.638533572878838e+000
 2.750327772533645e-001	 2.853456066220491e+000	 7.632763978987893e+000
 2.494471726288109e-001	 2.588006255362404e+000	 6.520033602966173e+000
 2.241556613584017e-001	 2.590319346644739e+000	 6.402971813978077e+000
 1.989325871316730e-001	 2.592378392617928e+000	 6.285536656232674e+000
 1.737813118221734e-001	 2.594185773617187e+000	 6.168957604730093e+000
 1.487051256341049e-001	 2.595743916486777e+000	 6.053155658660628e+000
 1.237072466452768e-001	 2.597055292441034e+000	 5.936675294694653e+000
 9.879082041758477e-002	 2.598122414936711e+000	 5.816627125338781e+000
 7.395891967371854e-002	 2.598947837558706e+000	 5.688641801806890e+000
 4.921454403874689e-002	 2.599534151921171e+000	 5.546835592637557e+000
 2.456061984517374e-002	 2.599883985585925e+000	 5.383787962374523e+000
 0.000000000000000e+000	 2.600000000000000e+000	 5.190531335526760e+000
 2.520057330904998e-001	 2.614551236448130e+000	 6.475641619576334e+000
 2.264548087346185e-001	 2.616888052930142e+000	 6.342107547828731e+000
 2.009730233758899e-001	 2.618968218379762e+000	 6.207572215171441e+000
 1.755637733703354e-001	 2.620794137547128e+000	 6.073680807117052e+000
 1.502303826695234e-001	 2.622368262168459e+000	 5.940659682661695e+000
 1.249761023588341e-001	 2.623693088805149e+000	 5.807237778854046e+000
 9.980411026394451e-002	 2.624771156694291e+000	 5.670579616014198e+000
 7.471751062421959e-002	 2.625605045612707e+000	 5.526230491185020e+000
 4.971933383164673e-002	 2.626197373756539e+000	 5.368074331274009e+000
 2.481253623389227e-002	 2.626550795638311e+000	 5.188304562561268e+000
 0.000000000000000e+000	 2.626668000003317e+000	 4.977408205647821e+000
 2.545642935525385e-001	 2.641096217534166e+000	 6.587090990853787e+000
 2.287539561112106e-001	 2.643456759215848e+000	 6.470321353819129e+000
 2.030134596205190e-001	 2.645558044141875e+000	 6.355223834237656e+000
 1.773462349189482e-001	 2.647402501477304e+000	 6.243826986214458e+000
 1.517556397054234e-001	 2.648992607850319e+000	 6.136625717176076e+000
 1.262449580728870e-001	 2.650330885169382e+000	 6.032491467243053e+000
 1.008174001107880e-001	 2.651419898451923e+000	 5.928594928654514e+000
 7.547610157515765e-002	 2.652262253666700e+000	 5.820341944038594e+000
 5.022412362489306e-002	 2.652860595591853e+000	 5.701323097862223e+000
 2.506445262281448e-002	 2.653217605690610e+000	 5.563277392352921e+000
 0.000000000000000e+000	 2.653336000006534e+000	 5.396070242656905e+000
 2.571228540148597e-001	 2.667641198620404e+000	 6.849914115649057e+000
 2.310531034880990e-001	 2.670025465501747e+000	 6.780600080461903e+000
 2.050538958654675e-001	 2.672147869904146e+000	 6.716447123019107e+000
 1.791286964679059e-001	 2.674010865407591e+000	 6.659758525156684e+000
 1.532808967416889e-001	 2.675616953532234e+000	 6.611389738900345e+000
 1.275138137873141e-001	 2.676968681533611e+000	 6.570652958340351e+000
 1.018306899579956e-001	 2.678068640209493e+000	 6.535224724918666e+000
 7.623469252642391e-002	 2.678919461720579e+000	 6.501056204936085e+000
 5.072891341839939e-002	 2.679523817427006e+000	 6.462285829697717e+000
 2.531636901188944e-002	 2.679884415742720e+000	 6.411154040636768e+000
 0.000000000000000e+000	 2.680004000009550e+000	 6.337919898820126e+000
 2.596814144773963e-001	 2.694186179706736e+000	 7.137069225945207e+000
 2.333522508652044e-001	 2.696594171787714e+000	 7.103205849151088e+000
 2.070943321106425e-001	 2.698737695666449e+000	 7.076999273626610e+000
 1.809111580171025e-001	 2.700619229337863e+000	 7.061328311787929e+000
 1.548061537782039e-001	 2.702241299214085e+000	 7.057679894833487e+000
 1.287826695019940e-001	 2.703606477897717e+000	 7.066055371246087e+000
 1.028439798054475e-001	 2.704717381966886e+000	 7.084879405384545e+000
 7.699328347790971e-002	 2.705576669774232e+000	 7.110911082956601e+000
 5.123370321207928e-002	 2.706187039261896e+000	 7.139156887393090e+000
 2.556828540106627e-002	 2.706551225794539e+000	 7.162785268656930e+000
 0.000000000000000e+000	 2.706672000012267e+000	 7.173042551749430e+000
 2.622399749400806e-001	 2.720731160793048e+000	 7.347911349739756e+000
 2.356513982424475e-001	 2.723162878073632e+000	 7.341225582786811e+000
 2.091347683559512e-001	 2.725327521428659e+000	 7.344011061154209e+000
 1.826936195664324e-001	 2.727227593267997e+000	 7.359540320731263e+000
 1.563314108148519e-001	 2.728865644895742e+000	 7.389758081209694e+000
 1.300515252168052e-001	 2.730244274261580e+000	 7.435189965395498e+000
 1.038572696530242e-001	 2.731366123723988e+000	 7.494853335041119e+000
 7.775187442950630e-002	 2.732233877827550e+000	 7.566169815632509e+000
 5.173849300584624e-002	 2.732850261096415e+000	 7.644879145804189e+000
 2.582020179029408e-002	 2.733218035845966e+000	 7.724954050531657e+000
 0.000000000000000e+000	 2.733340000014584e+000	 7.798515871941956e+000
 2.647985354028455e-001	 2.747276141879232e+000	 7.493346945440717e+000
 2.379505456197491e-001	 2.749731584359379e+000	 7.505210739683984e+000
 2.111752046013010e-001	 2.751917347190656e+000	 7.527574856584535e+000
 1.844760811157895e-001	 2.753835957197865e+000	 7.563922164438072e+000
 1.578566678515173e-001	 2.755489990577085e+000	 7.616480067645476e+000
 1.313203809316262e-001	 2.756882070625080e+000	 7.686132373370462e+000
 1.048705595006058e-001	 2.758014865480682e+000	 7.772332739096283e+000
 7.851046538110504e-002	 2.758891085880423e+000	 7.873019236702032e+000
 5.224328279961380e-002	 2.759513482930462e+000	 7.984529638330458e+000
 2.607211817952194e-002	 2.759884845896900e+000	 8.101517099150144e+000
 0.000000000000000e+000	 2.760008000016400e+000	 8.216865956100094e+000
 2.673570958656238e-001	 2.773821122965178e+000	 7.584098611773722e+000
 2.402496929970300e-001	 2.776300290644838e+000	 7.605556066470928e+000
 2.132156408465988e-001	 2.778507172952312e+000	 7.637652889991544e+000
 1.862585426650682e-001	 2.780444321127342e+000	 7.683896789482822e+000
 1.593819248880836e-001	 2.782114336257992e+000	 7.746620824697533e+000
 1.325892366463357e-001	 2.783519866988098e+000	 7.826899182281621e+000
 1.058838493480728e-001	 2.784663607236856e+000	 7.924463941420192e+000
 7.926905633259714e-002	 2.785548293932743e+000	 8.037622327070226e+000
 5.274807259329551e-002	 2.786176704763929e+000	 8.163174023491065e+000
 2.632403456869898e-002	 2.786551655947240e+000	 8.296328197387005e+000
 0.000000000000000e+000	 2.786676000017617e+000	 8.430619933593402e+000
 2.699156563283478e-001	 2.800366104050776e+000	 7.630707296406430e+000
 2.425488403742109e-001	 2.802868996929889e+000	 7.652501354630410e+000
 2.152560770917520e-001	 2.805096998713504e+000	 7.684078597295301e+000
 1.880410042141624e-001	 2.807052685056305e+000	 7.728783459016275e+000
 1.609071819244348e-001	 2.808738681938335e+000	 7.788875190563991e+000
 1.338580923608121e-001	 2.810157663350514e+000	 7.865448336222562e+000
 1.068971391953055e-001	 2.811312348992394e+000	 7.958353557112961e+000
 8.002764728387389e-002	 2.812205501984400e+000	 8.066118254620399e+000
 5.325286238680489e-002	 2.812839926596714e+000	 8.185866531813378e+000
 2.657595095777430e-002	 2.813218465996884e+000	 8.313238114538919e+000
 0.000000000000000e+000	 2.813344000018133e+000	 8.442305917515039e+000
 2.724742167909505e-001	 2.826911085135917e+000	 7.643534428333602e+000
 2.448479877512127e-001	 2.829437703214412e+000	 7.656133132808989e+000
 2.172965133366677e-001	 2.831686824474107e+000	 7.676557915189778e+000
 1.898234657629665e-001	 2.833661048984628e+000	 7.707798695692266e+000
 1.624324389604548e-001	 2.835363027617995e+000	 7.751858509960993e+000
 1.351269480749341e-001	 2.836795459712210e+000	 7.809679521508911e+000
 1.079104290421841e-001	 2.837961090747182e+000	 7.881068676888200e+000
 8.078623823482663e-002	 2.838862710035284e+000	 7.964622412819927e+000
 5.375765218005548e-002	 2.839503148428710e+000	 8.057649915968604e+000
 2.682786734669698e-002	 2.839885276045730e+000	 8.156094527485790e+000
 0.000000000000000e+000	 2.840012000017850e+000	 8.254452958500838e+000
 2.750327772533645e-001	 2.853456066220491e+000	 7.632763978987897e+000
 2.471471351279563e-001	 2.856006409498290e+000	 7.626386299075830e+000
 2.193369495812531e-001	 2.858276650234000e+000	 7.624670527615703e+000
 1.916059273113746e-001	 2.860269412912185e+000	 7.630057187641912e+000
 1.639576959960275e-001	 2.861987373296846e+000	 7.644107246986180e+000
 1.363958037885802e-001	 2.863433256073065e+000	 7.667434535819451e+000
 1.089237188885891e-001	 2.864609832501104e+000	 7.699637043801504e+000
 8.154482918534663e-002	 2.865519918085287e+000	 7.739226458196521e+000
 5.426244197296083e-002	 2.866166370259814e+000	 7.783555403947752e+000
 2.707978373541613e-002	 2.866552086093679e+000	 7.828741946262490e+000
 0.000000000000000e+000	 2.866680000016666e+000	 7.869591001121203e+000
 2.866680000016666e+000	 0.000000000000000e+000	 1.094432351986670e+001
 2.866552086093679e+000	 2.707978373541622e-002	 1.095323166754471e+001
 2.866166370259814e+000	 5.426244197296101e-002	 1.096554635136989e+001
 2.865519918085286e+000	 8.154482918534640e-002	 1.097929514869757e+001
 2.864609832501105e+000	 1.089237188885890e-001	 1.099300562363095e+001
 2.863433256073065e+000	 1.363958037885802e-001	 1.100568395977380e+001
 2.861987373296846e+000	 1.639576959960276e-001	 1.101679441466950e+001
 2.860269412912185e+000	 1.916059273113747e-001	 1.102623952960861e+001
 2.858276650234000e+000	 2.193369495812528e-001	 1.103434100277412e+001
 2.856006409498290e+000	 2.471471351279561e-001	 1.104182110742781e+001
 2.853456066220490e+000	 2.750327772533643e-001	 1.104978451034268e+001
 2.893344000014533e+000	 0.000000000000000e+000	 1.105657655990388e+001
 2.893214896319162e+000	 2.733166233832871e-002	 1.105115382414824e+001
 2.892825592806659e+000	 5.476715605077943e-002	 1.104894040014066e+001
 2.892173127753058e+000	 8.230330635240593e-002	 1.104833360909769e+001
 2.891254577142689e+000	 1.099368567485596e-001	 1.104818720932492e+001
 2.890067056963325e+000	 1.376644691828235e-001	 1.104779007549196e+001
 2.888607725522634e+000	 1.654827242539523e-001	 1.104684596379641e+001
 2.886873785783859e+000	 1.933881215034428e-001	 1.104545429391410e+001
 2.884862487718648e+000	 2.213770797753011e-001	 1.104409184961340e+001
 2.882571130674752e+000	 2.494459376495117e-001	 1.104359527141889e+001
 2.879997065756335e+000	 2.775909539506485e-001	 1.104514418594963e+001
 2.920008000011599e+000	 0.000000000000000e+000	 1.113669251157409e+001
 2.919877706543843e+000	 2.758354094103635e-002	 1.112234733640932e+001
 2.919484815352702e+000	 5.527187012824735e-002	 1.111044093743265e+001
 2.918826337420027e+000	 8.306178351902126e-002	 1.109978031517448e+001
 2.917899321783473e+000	 1.109499946080370e-001	 1.108958323794196e+001
 2.916700857852796e+000	 1.389331345765616e-001	 1.107945703914987e+001
 2.915228077747647e+000	 1.670077525113894e-001	 1.106937878006178e+001
 2.913478158654786e+000	 1.951703156950627e-001	 1.105967670566393e+001
 2.911448325202586e+000	 2.234172099689541e-001	 1.105101288897157e+001
 2.909135851850560e+000	 2.517447401707311e-001	 1.104436692822726e+001
 2.906538065291594e+000	 2.801491306476535e-001	 1.104102053031089e+001
 2.946672000008066e+000	 0.000000000000000e+000	 1.118579438861523e+001
 2.946540516767922e+000	 2.783541954358862e-002	 1.116743304781711e+001
 2.946144037898134e+000	 5.577658420544583e-002	 1.115023083024013e+001
 2.945479547086380e+000	 8.382026068528942e-002	 1.113344163433156e+001
 2.944544066423636e+000	 1.119631324671209e-001	 1.111668217474034e+001
 2.943334658741643e+000	 1.402017999698862e-001	 1.109991097745656e+001
 2.941848429972040e+000	 1.685327807684142e-001	 1.108340903599483e+001
 2.940082531525107e+000	 1.969525098862874e-001	 1.106776205276331e+001
 2.938034162685941e+000	 2.254573401622396e-001	 1.105384415382855e+001
 2.935700573025822e+000	 2.540435426916158e-001	 1.104280293197600e+001
 2.933079064826362e+000	 2.827073073443561e-001	 1.103604563931836e+001
 2.973336000004133e+000	 0.000000000000000e+000	 1.120482630476102e+001
 2.973203326991598e+000	 2.808729814603502e-002	 1.118686344346283e+001
 2.972803260443157e+000	 5.628129828245599e-002	 1.116833558158337e+001
 2.972132756752305e+000	 8.457873785130762e-002	 1.114897797411427e+001
 2.971188811063356e+000	 1.129762703259114e-001	 1.112883829334380e+001
 2.969968459630034e+000	 1.414704653628895e-001	 1.110825591002563e+001
 2.968468782195969e+000	 1.700578090251025e-001	 1.108784314815338e+001
 2.966686904394960e+000	 1.987347040771702e-001	 1.106846843347397e+001
 2.964620000168841e+000	 2.274974703551854e-001	 1.105124121632553e+001
 2.962265294200649e+000	 2.563423452121671e-001	 1.103749851347402e+001
 2.959620064360733e+000	 2.852654840407330e-001	 1.102879287734411e+001
 3.000000000000000e+000	 0.000000000000000e+000	 1.119456142405995e+001
 2.999866137215068e+000	 2.833917674842506e-002	 1.118093036926737e+001
 2.999462482987958e+000	 5.678601235935887e-002	 1.116463084124849e+001
 2.998785966417990e+000	 8.533721501717292e-002	 1.114591110393511e+001
 2.997833555702814e+000	 1.139894081845084e-001	 1.112527882473404e+001
 2.996602260518139e+000	 1.427391307556632e-001	 1.110348073867432e+001
 2.995089134419591e+000	 1.715828372815295e-001	 1.108148461647935e+001
 2.993291277264493e+000	 2.005168982677645e-001	 1.106046345224456e+001
 2.991205837651412e+000	 2.295376005478191e-001	 1.104178174311698e+001
 2.988830015375152e+000	 2.586411477323863e-001	 1.102698369473989e+001
 2.986161063894799e+000	 2.878236607367614e-001	 1.101778314716028e+001
 3.026663999995867e+000	 0.000000000000000e+000	 1.115560949095473e+001
 3.026528947438530e+000	 2.859105535080819e-002	 1.114977234320095e+001
 3.026121705532733e+000	 5.729072643623559e-002	 1.113884951954066e+001
 3.025439176083625e+000	 8.609569218298241e-002	 1.112363108971272e+001
 3.024478300342188e+000	 1.150025460430116e-001	 1.110511072803480e+001
 3.023236061406126e+000	 1.440077961482992e-001	 1.108446586646532e+001
 3.021709486643062e+000	 1.731078655377712e-001	 1.106304050051950e+001
 3.019895650133845e+000	 2.022990924581237e-001	 1.104233055879548e+001
 3.017791675133779e+000	 2.315777307401684e-001	 1.102397169974184e+001
 3.015394736549442e+000	 2.609399502522750e-001	 1.100972935778009e+001
 3.012702063428655e+000	 2.903818374324178e-001	 1.100149081892716e+001
 3.053327999991933e+000	 0.000000000000000e+000	 1.108842396581110e+001
 3.053191757662185e+000	 2.884293395323394e-002	 1.109338148343486e+001
 3.052780928077679e+000	 5.779544051316723e-002	 1.109058852831338e+001
 3.052092385749396e+000	 8.685416934883318e-002	 1.108140286508430e+001
 3.051123044981657e+000	 1.160156839015211e-001	 1.106732710620510e+001
 3.049869862294164e+000	 1.452764615408896e-001	 1.104998946912377e+001
 3.048329838866539e+000	 1.746328937939028e-001	 1.103112755470560e+001
 3.046500023003159e+000	 2.040812866483011e-001	 1.101257505226791e+001
 3.044377512616071e+000	 2.336178609322612e-001	 1.099625122546773e+001
 3.041959457723628e+000	 2.632387527718343e-001	 1.098415298875756e+001
 3.039243062962394e+000	 2.929400141276791e-001	 1.097834933909030e+001
 3.079991999988400e+000	 0.000000000000000e+000	 1.099330878980511e+001
 3.079854567886232e+000	 2.909481255575181e-002	 1.101161007663896e+001
 3.079440150622987e+000	 5.830015459023485e-002	 1.101931517186545e+001
 3.078745595415490e+000	 8.761264651482240e-002	 1.101837246121788e+001
 3.077767789621402e+000	 1.170288217601367e-001	 1.101081328816290e+001
 3.076503663182423e+000	 1.465451269335261e-001	 1.099873343989496e+001
 3.074950191090176e+000	 1.761579220499999e-001	 1.098427804335922e+001
 3.073104395872575e+000	 2.058634808383499e-001	 1.096962977073152e+001
 3.070963350098414e+000	 2.356579911241252e-001	 1.095700019857832e+001
 3.068524178897822e+000	 2.655375552910657e-001	 1.094862411722120e+001
 3.065784062496109e+000	 2.954981908225221e-001	 1.094675653858598e+001
 3.106655999985466e+000	 0.000000000000000e+000	 1.087042480143885e+001
 3.106517378110865e+000	 2.934669115841125e-002	 1.090417680804585e+001
 3.106099373168855e+000	 5.880486866751958e-002	 1.092437320873749e+001
 3.105398805082099e+000	 8.837112368104710e-002	 1.093357291573461e+001
 3.104412534261600e+000	 1.180419596189583e-001	 1.093435259737733e+001
 3.103137464071066e+000	 1.478137923263007e-001	 1.092928902746408e+001
 3.101570543314130e+000	 1.776829503061382e-001	 1.092094525466116e+001
 3.099708768742238e+000	 2.076456750283234e-001	 1.091186048495841e+001
 3.097549187580935e+000	 2.376981213157881e-001	 1.090454351070274e+001
 3.095088900072133e+000	 2.678363578099707e-001	 1.090146946871959e+001
 3.092325062029892e+000	 2.980563675169238e-001	 1.090507965841844e+001
 3.133319999983334e+000	 0.000000000000000e+000	 1.071979582543404e+001
 3.133180188336287e+000	 2.959856976126182e-002	 1.077067267343113e+001
 3.132758595715477e+000	 5.930958274510247e-002	 1.080498860401624e+001
 3.132052014749406e+000	 8.912960084760442e-002	 1.082592987985401e+001
 3.131057278902433e+000	 1.190550974780861e-001	 1.083663182560817e+001
 3.129771264960267e+000	 1.490824577193053e-001	 1.084016218522149e+001
 3.128190895538556e+000	 1.792079785623932e-001	 1.083950873151803e+001
 3.126313141612289e+000	 2.094278692182753e-001	 1.083757101407504e+001
 3.124135025063762e+000	 2.397382515072778e-001	 1.083715606751779e+001
 3.121653621246674e+000	 2.701351603285506e-001	 1.084097784786891e+001
 3.118866061563838e+000	 3.006145442108607e-001	 1.085166010944745e+001
 2.853456066220490e+000	 2.750327772533643e-001	 1.104978451034268e+001
 2.850623495906301e+000	 3.029859020915370e-001	 1.105914039571312e+001
 2.847505823816279e+000	 3.310068753301843e-001	 1.106997097599195e+001
 2.844100595033316e+000	 3.590918200257314e-001	 1.108257762495072e+001
 2.840405415259059e+000	 3.872367847946143e-001	 1.109746738711833e+001
 2.836417953168350e+000	 4.154377447072045e-001	 1.111533451887335e+001
 2.832135942759817e+000	 4.436906022608281e-001	 1.113704122060402e+001
 2.827557185699815e+000	 4.719911884326337e-001	 1.116359724901198e+001
 2.822679553656821e+000	 5.003352638129518e-001	 1.119613807988422e+001
 2.817500990623338e+000	 5.287185198196899e-001	 1.123590127528361e+001
 2.812019515222285e+000	 5.571365799941846e-001	 1.128420069541449e+001
 2.879997065756335e+000	 2.775909539506485e-001	 1.104514418594963e+001
 2.877138148708408e+000	 3.058040806450335e-001	 1.104880457015555e+001
 2.873991478052574e+000	 3.340856868217606e-001	 1.105394275798198e+001
 2.870554576037689e+000	 3.624318594764292e-001	 1.106107932698122e+001
 2.866825026095203e+000	 3.908386104722579e-001	 1.107091455818254e+001
 2.862800475215494e+000	 4.193018774423222e-001	 1.108431199547695e+001
 2.858478636320326e+000	 4.478175247716250e-001	 1.110228130649337e+001
 2.853857290628595e+000	 4.763813446597570e-001	 1.112596010834048e+001
 2.848934290012431e+000	 5.049890582647982e-001	 1.115659440102106e+001
 2.843707559340701e+000	 5.336363169290087e-001	 1.119551723327246e+001
 2.838175098806853e+000	 5.623187034867332e-001	 1.124412521037882e+001
 2.906538065291594e+000	 2.801491306476535e-001	 1.104102053031089e+001
 2.903652801510020e+000	 3.086222591982991e-001	 1.104025663289382e+001
 2.900477132288479e+000	 3.371644983131445e-001	 1.104078448002716e+001
 2.897008557041791e+000	 3.657718989269653e-001	 1.104336595182544e+001
 2.893244636931203e+000	 3.944404361497634e-001	 1.104891502981357e+001
 2.889182997262623e+000	 4.231660101773192e-001	 1.105848354455579e+001
 2.884821329880951e+000	 4.519444472823136e-001	 1.107324634218018e+001
 2.880157395557621e+000	 4.807715008867808e-001	 1.109448550602028e+001
 2.875189026368409e+000	 5.096428527165516e-001	 1.112357324710870e+001
 2.869914128058541e+000	 5.385541140382391e-001	 1.116195305743928e+001
 2.864330682391995e+000	 5.675008269791980e-001	 1.121111870310747e+001
 2.933079064826362e+000	 2.827073073443561e-001	 1.103604563931837e+001
 2.930167454311211e+000	 3.114404377512897e-001	 1.103211861380671e+001
 2.926962786524052e+000	 3.402433098042759e-001	 1.102911896060390e+001
 2.923462538045659e+000	 3.691119383772669e-001	 1.102806804783623e+001
 2.919664247767075e+000	 3.980422618270483e-001	 1.103011007621101e+001
 2.915565519309738e+000	 4.270301429121071e-001	 1.103650019987851e+001
 2.911164023441680e+000	 4.560713697928024e-001	 1.104859219095186e+001
 2.906457500486859e+000	 4.851616571136128e-001	 1.106782525523051e+001
 2.901443762724703e+000	 5.142966471681204e-001	 1.109570958217178e+001
 2.896120696776793e+000	 5.434719111472925e-001	 1.113381019046850e+001
 2.890486265977629e+000	 5.726829504714953e-001	 1.118372861210569e+001
 2.959620064360733e+000	 2.852654840407330e-001	 1.102879287734412e+001
 2.956682107112062e+000	 3.142586163039617e-001	 1.102296705863312e+001
 2.953448440759354e+000	 3.433221212950945e-001	 1.101753744330297e+001
 2.949916519049338e+000	 3.724519778272608e-001	 1.101379910642767e+001
 2.946083858602846e+000	 4.016440875040307e-001	 1.101313898828959e+001
 2.941948041356847e+000	 4.308942756465978e-001	 1.101702658887504e+001
 2.937506717002493e+000	 4.601982923030001e-001	 1.102700433852928e+001
 2.932757605416278e+000	 4.895518133401607e-001	 1.104467722205420e+001
 2.927698499081266e+000	 5.189504416194138e-001	 1.107170120690267e+001
 2.922327265495393e+000	 5.483897082560816e-001	 1.110977000248063e+001
 2.916641849563674e+000	 5.778650739635413e-001	 1.116059965730561e+001
 2.986161063894799e+000	 2.878236607367614e-001	 1.101778314716029e+001
 2.983196759912645e+000	 3.170767948562714e-001	 1.101133913118234e+001
 2.979934094994438e+000	 3.464009327855402e-001	 1.100460548879286e+001
 2.976370500052862e+000	 3.757920172768744e-001	 1.099916119774436e+001
 2.972503469438535e+000	 4.052459131806286e-001	 1.099664440352461e+001
 2.968330563403949e+000	 4.347584083807031e-001	 1.099874590367899e+001
 2.963849410563380e+000	 4.643252148128150e-001	 1.100720244892331e+001
 2.959057710345845e+000	 4.939419695663320e-001	 1.102378940640721e+001
 2.953953235438047e+000	 5.236042360703407e-001	 1.105031230162397e+001
 2.948533834214270e+000	 5.533075053645180e-001	 1.108859672975696e+001
 2.942797433150047e+000	 5.830471974552515e-001	 1.114047610512186e+001
 3.012702063428655e+000	 2.903818374324178e-001	 1.100149081892716e+001
 3.009711412713035e+000	 3.198949734081749e-001	 1.099573837994929e+001
 3.006419749229365e+000	 3.494797442755525e-001	 1.098886853799793e+001
 3.002824481056273e+000	 3.791320567260345e-001	 1.098275028593795e+001
 2.998923080274163e+000	 4.088477388567596e-001	 1.097927732549006e+001
 2.994713085451048e+000	 4.386225411143345e-001	 1.098036457375308e+001
 2.990192104124325e+000	 4.684521373221555e-001	 1.098794463567408e+001
 2.985357815275526e+000	 4.983321257920344e-001	 1.100396375417211e+001
 2.980207971794994e+000	 5.282580305208098e-001	 1.103037671840658e+001
 2.974740402933362e+000	 5.582253024725133e-001	 1.106914018280616e+001
 2.968953016736668e+000	 5.882293209465432e-001	 1.112220382537842e+001
 3.039243062962394e+000	 2.929400141276791e-001	 1.097834933909030e+001
 3.036226065513310e+000	 3.227131519596282e-001	 1.097464018964909e+001
 3.032905403464191e+000	 3.525585557650713e-001	 1.096885716658818e+001
 3.029278462059609e+000	 3.824720961746682e-001	 1.096316124363580e+001
 3.025342691109753e+000	 4.124495645323417e-001	 1.095970185205960e+001
 3.021095607498148e+000	 4.424866738474040e-001	 1.096061665833862e+001
 3.016534797685311e+000	 4.725790598309302e-001	 1.096803146587243e+001
 3.011657920205290e+000	 5.027222820171755e-001	 1.098405971696918e+001
 3.006462708152062e+000	 5.329118249707301e-001	 1.101080103767874e+001
 3.000946971652601e+000	 5.631430995799793e-001	 1.105033823787412e+001
 2.995108600323453e+000	 5.934114444373319e-001	 1.110473215282961e+001
 3.065784062496109e+000	 2.954981908225221e-001	 1.094675653858598e+001
 3.062740718313545e+000	 3.255313305105880e-001	 1.094649693676544e+001
 3.059391057698973e+000	 3.556373672540363e-001	 1.094309204948979e+001
 3.055732443062912e+000	 3.858121356227027e-001	 1.093899258383257e+001
 3.051762301945324e+000	 4.160513902072927e-001	 1.093659962992482e+001
 3.047478129545251e+000	 4.463508065798235e-001	 1.093826797570915e+001
 3.042877491246323e+000	 4.767059823390475e-001	 1.094630971315818e+001
 3.037958025135103e+000	 5.071124382416631e-001	 1.096299757485887e+001
 3.032717444509198e+000	 5.375656194200105e-001	 1.099056740359819e+001
 3.027153540371921e+000	 5.680608966868282e-001	 1.103121912502270e+001
 3.021264183910321e+000	 5.985935679275342e-001	 1.108711556512118e+001
 3.092325062029892e+000	 2.980563675169238e-001	 1.090507965841846e+001
 3.089255371113814e+000	 3.283495090610101e-001	 1.090974286689570e+001
 3.085876711933771e+000	 3.587161787423873e-001	 1.091008865283753e+001
 3.082186424066219e+000	 3.891521750700648e-001	 1.090885092618048e+001
 3.078181912780898e+000	 4.196532158815303e-001	 1.090867405187536e+001
 3.073860651592361e+000	 4.502149393115046e-001	 1.091211998504216e+001
 3.069220184807347e+000	 4.808329048464161e-001	 1.092167587477787e+001
 3.064258130064935e+000	 5.115025944654049e-001	 1.093976153622026e+001
 3.058972180866352e+000	 5.422194138685597e-001	 1.096873615148247e+001
 3.053360109091255e+000	 5.729786937929715e-001	 1.101090352499967e+001
 3.047419767497192e+000	 6.037756914170658e-001	 1.106851518821915e+001
 3.118866061563838e+000	 3.006145442108607e-001	 1.085166010944745e+001
 3.115770023914197e+000	 3.311676876108510e-001	 1.086279871046669e+001
 3.112362366168643e+000	 3.617949902300638e-001	 1.086836166960527e+001
 3.108640405069572e+000	 3.924922145166819e-001	 1.087135521350344e+001
 3.104601523616499e+000	 4.232550415549727e-001	 1.087465421216570e+001
 3.100243173639482e+000	 4.540790720423593e-001	 1.088101343564562e+001
 3.095562878368369e+000	 4.849598273529443e-001	 1.089307946675723e+001
 3.090558234994752e+000	 5.158927506883083e-001	 1.091340262807980e+001
 3.085226917223479e+000	 5.468732083162871e-001	 1.094444823968426e+001
 3.079566677810541e+000	 5.778964908983216e-001	 1.098860648629382e+001
 3.073575351083983e+000	 6.089578149058433e-001	 1.104820013958697e+001
 2.812019515222285e+000	 5.571365799941846e-001	 1.128420069541449e+001
 2.806232332410390e+000	 5.855892700207178e-001	 1.132648748734485e+001
 2.800138417670241e+000	 6.140678136806009e-001	 1.134823802048894e+001
 2.793736028873866e+000	 6.425676306221915e-001	 1.135072778927177e+001
 2.787023507627656e+000	 6.710840784416882e-001	 1.133535469365382e+001
 2.779999281457081e+000	 6.996124543915534e-001	 1.132086915562745e+001
 2.772661865956895e+000	 7.281479971706544e-001	 1.131686602987027e+001
 2.765009866903514e+000	 7.566858887956516e-001	 1.132221769629734e+001
 2.757041982326296e+000	 7.852212565530333e-001	 1.133567147702216e+001
 2.748757004534392e+000	 8.137491750310452e-001	 1.135585174533092e+001
 2.740153822095873e+000	 8.422646682306209e-001	 1.138126268348799e+001
 2.838175098806853e+000	 5.623187034867332e-001	 1.124412521037882e+001
 2.832334087369945e+000	 5.910360420008765e-001	 1.128601264595221e+001
 2.826183490983165e+000	 6.197794746220591e-001	 1.130496511615217e+001
 2.819721551314392e+000	 6.485443783951878e-001	 1.130257913382062e+001
 2.812946594544702e+000	 6.773260677358409e-001	 1.128230441233231e+001
 2.805857033573426e+000	 7.061197961545839e-001	 1.126700528023249e+001
 2.798451370188331e+000	 7.349207580637585e-001	 1.126191041296129e+001
 2.790728197197666e+000	 7.637240906662786e-001	 1.126591634254565e+001
 2.782686200520693e+000	 7.925248759258216e-001	 1.127777820708024e+001
 2.774324161233401e+000	 8.213181426176583e-001	 1.129611220158761e+001
 2.765640957566033e+000	 8.500988684592170e-001	 1.131939867992541e+001
 2.864330682391995e+000	 5.675008269791980e-001	 1.121111870310747e+001
 2.858435842330151e+000	 5.964828139809569e-001	 1.125281769082554e+001
 2.852228564296800e+000	 6.254911355634441e-001	 1.126914241631793e+001
 2.845707073755671e+000	 6.545211261681152e-001	 1.126200730834085e+001
 2.838869681462532e+000	 6.835680570299278e-001	 1.123848095310812e+001
 2.831714785690566e+000	 7.126271379175480e-001	 1.122282217111332e+001
 2.824240874420563e+000	 7.416935189567915e-001	 1.121699025057365e+001
 2.816446527492603e+000	 7.707622925368255e-001	 1.121991799229701e+001
 2.808330418715852e+000	 7.998284952985153e-001	 1.123038097150879e+001
 2.799891317933140e+000	 8.288871102041546e-001	 1.124700032815432e+001
 2.791128093036881e+000	 8.579330686876658e-001	 1.126824620533637e+001
 2.890486265977629e+000	 5.726829504714953e-001	 1.118372861210569e+001
 2.884537597290914e+000	 6.019295859608803e-001	 1.122539209655589e+001
 2.878273637611040e+000	 6.312027965046843e-001	 1.123921452991170e+001
 2.871692596197584e+000	 6.604978739409091e-001	 1.122742223753436e+001
 2.864792768381011e+000	 6.898100463238917e-001	 1.120237547124808e+001
 2.857572537808359e+000	 7.191344796803980e-001	 1.118676873348998e+001
 2.850030378653443e+000	 7.484662798497171e-001	 1.118052079603833e+001
 2.842164857788168e+000	 7.778004944072670e-001	 1.118261180067124e+001
 2.833974636911618e+000	 8.071321146711009e-001	 1.119184936399047e+001
 2.825458474633451e+000	 8.364560777905349e-001	 1.120687170595645e+001
 2.816615228508264e+000	 8.657672689159827e-001	 1.122615141826924e+001
 2.916641849563674e+000	 5.778650739635413e-001	 1.116059965730561e+001
 2.910639352252136e+000	 6.073763579405682e-001	 1.120233947107855e+001
 2.904318710925769e+000	 6.369144574457069e-001	 1.121375576665634e+001
 2.897678118640007e+000	 6.664746217135051e-001	 1.119737777399889e+001
 2.890715855300007e+000	 6.960520356176770e-001	 1.117262484942726e+001
 2.883430289926667e+000	 7.256418214430882e-001	 1.115745120550724e+001
 2.875819882886823e+000	 7.552390407424989e-001	 1.115108546550504e+001
 2.867883188084215e+000	 7.848386962775789e-001	 1.115256516846193e+001
 2.859618855107833e+000	 8.144357340435661e-001	 1.116074059091320e+001
 2.851025631334183e+000	 8.440250453767995e-001	 1.117427821366574e+001
 2.842102363980034e+000	 8.736014691441837e-001	 1.119166481448987e+001
 2.942797433150047e+000	 5.830471974552515e-001	 1.114047610512186e+001
 2.936741107213719e+000	 6.128231299199427e-001	 1.118237910674440e+001
 2.930363784240882e+000	 6.426261183864404e-001	 1.119147096393201e+001
 2.923663641082820e+000	 6.724513694858384e-001	 1.117126205064146e+001
 2.916638942219389e+000	 7.022940249112274e-001	 1.114801015646384e+001
 2.909288042045350e+000	 7.321491632055713e-001	 1.113363090433484e+001
 2.901609387120556e+000	 7.620118016351007e-001	 1.112743287160270e+001
 2.893601518380587e+000	 7.918768981477353e-001	 1.112852006291816e+001
 2.885263073304349e+000	 8.217393534158990e-001	 1.113579507822830e+001
 2.876592788035182e+000	 8.515940129629497e-001	 1.114796291900524e+001
 2.867589499452040e+000	 8.814356693722830e-001	 1.116353540054651e+001
 2.968953016736668e+000	 5.882293209465432e-001	 1.112220382537842e+001
 2.962842862175569e+000	 6.182699018989246e-001	 1.116434734653386e+001
 2.956408857556267e+000	 6.483377793268121e-001	 1.117119615115155e+001
 2.949649163525900e+000	 6.784281172578441e-001	 1.114877609109760e+001
 2.942562029139025e+000	 7.085360142044866e-001	 1.112745498575747e+001
 2.935145794164261e+000	 7.386565049678002e-001	 1.111422187195706e+001
 2.927398891354493e+000	 7.687845625274863e-001	 1.110847377608851e+001
 2.919319848677137e+000	 7.989151000177122e-001	 1.110938927618565e+001
 2.910907291501007e+000	 8.290429727880865e-001	 1.111593203406298e+001
 2.902159944736293e+000	 8.591629805489864e-001	 1.112685494339050e+001
 2.893076634924131e+000	 8.892698696002971e-001	 1.114070485779664e+001
 2.995108600323453e+000	 5.934114444373319e-001	 1.110473215282961e+001
 2.988944617137589e+000	 6.237166738774360e-001	 1.114719877671666e+001
 2.982453930871814e+000	 6.540494402667511e-001	 1.115189906158867e+001
 2.975634685969126e+000	 6.844048650294583e-001	 1.112899173809320e+001
 2.968485116058780e+000	 7.147780034973984e-001	 1.111002368078412e+001
 2.961003546283265e+000	 7.451638467297289e-001	 1.109828842678228e+001
 2.953188395588489e+000	 7.755573234196188e-001	 1.109327796643665e+001
 2.945038178973707e+000	 8.059533018874843e-001	 1.109425262521464e+001
 2.936551509697654e+000	 8.363465921601163e-001	 1.110024496979233e+001
 2.927727101437364e+000	 8.667319481349110e-001	 1.111006430153616e+001
 2.918563770396158e+000	 8.971040698282408e-001	 1.112230169747625e+001
 3.021264183910321e+000	 5.985935679275342e-001	 1.108711556512118e+001
 3.015046372099683e+000	 6.291634458553986e-001	 1.113000725647621e+001
 3.008499004187416e+000	 6.597611012061848e-001	 1.113267950090378e+001
 3.001620208412377e+000	 6.903816128006163e-001	 1.111110902179208e+001
 2.994408202978528e+000	 7.210199927899073e-001	 1.109491945449128e+001
 2.986861298402219e+000	 7.516711884913101e-001	 1.108504262677905e+001
 2.978977899822394e+000	 7.823300843114627e-001	 1.108107106097520e+001
 2.970756509270149e+000	 8.129915037570266e-001	 1.108235309668346e+001
 2.962195727894137e+000	 8.436502115319760e-001	 1.108799718208578e+001
 2.953294258138242e+000	 8.743009157207239e-001	 1.109687671754394e+001
 2.944050905867969e+000	 9.049382700561296e-001	 1.110763540735441e+001
 3.047419767497192e+000	 6.037756914170658e-001	 1.106851518821915e+001
 3.041148127061755e+000	 6.346102178327341e-001	 1.111196679429593e+001
 3.034544077502959e+000	 6.654727621450411e-001	 1.111276958097953e+001
 3.027605730855529e+000	 6.963583605712530e-001	 1.109445582682060e+001
 3.020331289898130e+000	 7.272619820819563e-001	 1.108148240896583e+001
 3.012719050520982e+000	 7.581785302524974e-001	 1.107384164945280e+001
 3.004767404056063e+000	 7.891028452029806e-001	 1.107123124686317e+001
 2.996474839566311e+000	 8.200297056263144e-001	 1.107309294023816e+001
 2.987839946090303e+000	 8.509538309036530e-001	 1.107861719827241e+001
 2.978861414838772e+000	 8.818698833064261e-001	 1.108674841888373e+001
 2.969538041339417e+000	 9.127724702839788e-001	 1.109619059047727e+001
 3.073575351083983e+000	 6.089578149058433e-001	 1.104820013958697e+001
 3.067249882023707e+000	 6.400569898093638e-001	 1.109239228023713e+001
 3.060589150818339e+000	 6.711844230832489e-001	 1.109200387979714e+001
 3.053591253298464e+000	 7.023351083413045e-001	 1.107848643983125e+001
 3.046254376817458e+000	 7.335039713734894e-001	 1.106918746131667e+001
 3.038576802639415e+000	 7.646858720132437e-001	 1.106418509361747e+001
 3.030556908289346e+000	 7.958756060941377e-001	 1.106328595490768e+001
 3.022193169862039e+000	 8.270679074953229e-001	 1.106602971312742e+001
 3.013484164285995e+000	 8.582574502751353e-001	 1.107169418720934e+001
 3.004428571538802e+000	 8.894388508920191e-001	 1.107930090958447e+001
 2.995025176810348e+000	 9.206066705118045e-001	 1.108762109647216e+001
 2.740153822095873e+000	 8.422646682306209e-001	 1.138126268348799e+001
 2.731231421080580e+000	 8.707627113369549e-001	 1.140754811505507e+001
 2.721988884875082e+000	 8.992382316919291e-001	 1.143170374664569e+001
 2.712425398051369e+000	 9.276861123150280e-001	 1.145414403476165e+001
 2.702540248811464e+000	 9.561011947256431e-001	 1.147524652756695e+001
 2.692332830683795e+000	 9.844782814308750e-001	 1.149535505568110e+001
 2.681802644152406e+000	 1.012812138484053e+000	 1.151476869868798e+001
 2.670949298215834e+000	 1.041097498112028e+000	 1.153380880524734e+001
 2.659772511872570e+000	 1.069329061409152e+000	 1.155303768835425e+001
 2.648272115530094e+000	 1.097501501095708e+000	 1.157395420358312e+001
 2.636448052334516e+000	 1.125609464338406e+000	 1.159697473748513e+001
 2.765640957566033e+000	 8.500988684592170e-001	 1.131939867992541e+001
 2.756635566157504e+000	 8.788619818981299e-001	 1.134379073492582e+001
 2.747307061868638e+000	 9.076023630936984e-001	 1.136686699344680e+001
 2.737654621686848e+000	 9.363148474705652e-001	 1.138911135153613e+001
 2.727677527193472e+000	 9.649942285672722e-001	 1.141096337722790e+001
 2.717375166275937e+000	 9.936352605472042e-001	 1.143282167151398e+001
 2.706747034772116e+000	 1.022232660780905e+000	 1.145503465879173e+001
 2.695792738043704e+000	 1.050781112497805e+000	 1.147796067263317e+001
 2.684511992475504e+000	 1.079275267505267e+000	 1.150188175525276e+001
 2.672904626897554e+000	 1.107709748972663e+000	 1.152707473012677e+001
 2.660970583927155e+000	 1.136079154278113e+000	 1.155398227101605e+001
 2.791128093036881e+000	 8.579330686876658e-001	 1.126824620533637e+001
 2.782039711235067e+000	 8.869612524591196e-001	 1.129084494822454e+001
 2.772625238862780e+000	 9.159664944952385e-001	 1.131299234136807e+001
 2.762883845322852e+000	 9.449435826258268e-001	 1.133521059729464e+001
 2.752814805575939e+000	 9.738872624085790e-001	 1.135796955468606e+001
 2.742417501868467e+000	 1.002792239663169e+000	 1.138169023455481e+001
 2.731691425392141e+000	 1.031653183077356e+000	 1.140673734378712e+001
 2.720636177871811e+000	 1.060464726883158e+000	 1.143347299240629e+001
 2.709251473078593e+000	 1.089221473600946e+000	 1.146218096785633e+001
 2.697537138265090e+000	 1.117917996849190e+000	 1.149313058878240e+001
 2.685493115519782e+000	 1.146548844217417e+000	 1.152656606696329e+001
 2.816615228508264e+000	 8.657672689159827e-001	 1.122615141826924e+001
 2.807443856313126e+000	 8.950605230199543e-001	 1.124704360033674e+001
 2.797943415857370e+000	 9.243306258965954e-001	 1.126838777677253e+001
 2.788113068959254e+000	 9.535723177808729e-001	 1.129071369759483e+001
 2.777952083958753e+000	 9.827802962496398e-001	 1.131449012011974e+001
 2.767459837461291e+000	 1.011949218778858e+000	 1.134011417072898e+001
 2.756635816012398e+000	 1.041073705373506e+000	 1.136797751881433e+001
 2.745479617700091e+000	 1.070148341268192e+000	 1.139837014609583e+001
 2.733990953681790e+000	 1.099167679696300e+000	 1.143155841815467e+001
 2.722169649632665e+000	 1.128126244725396e+000	 1.146777022865024e+001
 2.710015647112380e+000	 1.157018534156420e+000	 1.150720067054452e+001
 2.842102363980034e+000	 8.736014691441837e-001	 1.119166481448987e+001
 2.832848001391535e+000	 9.031597935806651e-001	 1.121093157768144e+001
 2.823261592852275e+000	 9.326947572978150e-001	 1.123158097910747e+001
 2.813342292595934e+000	 9.622010529357664e-001	 1.125411987187224e+001
 2.803089362341806e+000	 9.916733300905299e-001	 1.127898497919937e+001
 2.792502173054308e+000	 1.021106197894358e+000	 1.130653415813616e+001
 2.781580206632806e+000	 1.050494227669454e+000	 1.133710576717971e+001
 2.770323057528475e+000	 1.079831955653012e+000	 1.137093376450793e+001
 2.758730434285045e+000	 1.109113885791435e+000	 1.140821804361708e+001
 2.746802161000247e+000	 1.138334492601386e+000	 1.144911179984671e+001
 2.734538178704933e+000	 1.167488224095222e+000	 1.149372730191819e+001
 2.867589499452040e+000	 8.814356693722830e-001	 1.116353540054651e+001
 2.858252146470148e+000	 9.112590641412822e-001	 1.118125924877646e+001
 2.848579769847359e+000	 9.410588886989445e-001	 1.120131200342937e+001
 2.838571516232765e+000	 9.708297880905689e-001	 1.122414753282986e+001
 2.828226640724981e+000	 1.000566363931325e+000	 1.125013997625258e+001
 2.817544508647426e+000	 1.030263177009759e+000	 1.127957679253749e+001
 2.806524597253285e+000	 1.059914749965296e+000	 1.131271190791134e+001
 2.795166497356901e+000	 1.089515570037725e+000	 1.134969127941022e+001
 2.783469914888307e+000	 1.119060091886461e+000	 1.139061610504981e+001
 2.771434672367803e+000	 1.148542740477269e+000	 1.143553226604488e+001
 2.759060710297422e+000	 1.177957914033924e+000	 1.148443620218704e+001
 2.893076634924131e+000	 8.892698696002971e-001	 1.114070485779664e+001
 2.883656291548827e+000	 9.193583347018371e-001	 1.115697591312918e+001
 2.873897946842486e+000	 9.494230201000297e-001	 1.117652598898728e+001
 2.863800739869623e+000	 9.794585232453412e-001	 1.119972623094684e+001
 2.853363919108170e+000	 1.009459397772102e+000	 1.122685805239688e+001
 2.842586844240541e+000	 1.039420156125150e+000	 1.125810785413303e+001
 2.831468987873751e+000	 1.069335272261134e+000	 1.129361452018016e+001
 2.820009937185299e+000	 1.099199184422435e+000	 1.133340460402609e+001
 2.808209395491529e+000	 1.129006297981486e+000	 1.137744900726394e+001
 2.796067183735300e+000	 1.158750988353152e+000	 1.142565435114361e+001
 2.783583241889829e+000	 1.188427603972625e+000	 1.147786895620301e+001
 2.918563770396158e+000	 8.971040698282408e-001	 1.112230169747625e+001
 2.909060436627422e+000	 9.274576052623600e-001	 1.113722325747274e+001
 2.899216123837521e+000	 9.577871515011176e-001	 1.115636589227045e+001
 2.889029963506384e+000	 9.880872584001460e-001	 1.117998864134938e+001
 2.878501197491262e+000	 1.018352431612936e+000	 1.120823782862513e+001
 2.867629179833561e+000	 1.048577135240618e+000	 1.124120652317157e+001
 2.856413378494124e+000	 1.078755794557065e+000	 1.127885056805336e+001
 2.844853377013607e+000	 1.108882798807248e+000	 1.132105893446310e+001
 2.832948876094660e+000	 1.138952504076619e+000	 1.136764126185081e+001
 2.820699695102703e+000	 1.168959236229142e+000	 1.141833364974203e+001
 2.808105773482136e+000	 1.198897293911427e+000	 1.147280473881891e+001
 2.944050905867969e+000	 9.049382700561296e-001	 1.110763540735441e+001
 2.934464581705792e+000	 9.355568758228819e-001	 1.112132881890274e+001
 2.924534300832328e+000	 9.661512829022541e-001	 1.114016524303703e+001
 2.914259187142924e+000	 9.967159935550441e-001	 1.116426259047270e+001
 2.903638475874143e+000	 1.027245465453903e+000	 1.119361693230063e+001
 2.892671515426388e+000	 1.057734114356252e+000	 1.122815588653990e+001
 2.881357769114322e+000	 1.088176316853187e+000	 1.126766511950059e+001
 2.869696816841759e+000	 1.118566413192270e+000	 1.131185166474828e+001
 2.857688356697652e+000	 1.148898710171969e+000	 1.136033358345267e+001
 2.845332206469981e+000	 1.179167484105347e+000	 1.141264589149255e+001
 2.832628305074325e+000	 1.209366983850430e+000	 1.146824673585330e+001
 2.969538041339417e+000	 9.127724702839788e-001	 1.109619059047727e+001
 2.959868726783792e+000	 9.436561463834332e-001	 1.110879945449712e+001
 2.949852477826773e+000	 9.745154143034851e-001	 1.112744092194206e+001
 2.939488410779118e+000	 1.005344728710098e+000	 1.115206312012543e+001
 2.928775754256706e+000	 1.036138499295079e+000	 1.118248285809391e+001
 2.917713851018922e+000	 1.066891093472140e+000	 1.121843351529224e+001
 2.906302159734261e+000	 1.097596839149599e+000	 1.125950115398813e+001
 2.894540256669687e+000	 1.128250027577606e+000	 1.130518140864284e+001
 2.882427837300455e+000	 1.158844916267644e+000	 1.135487111150786e+001
 2.869964717837100e+000	 1.189375731981873e+000	 1.140787435008711e+001
 2.857150836666380e+000	 1.219836673789734e+000	 1.146340872927059e+001
 2.995025176810348e+000	 9.206066705118045e-001	 1.108762109647216e+001
 2.985272871861278e+000	 9.517554169440450e-001	 1.109931481703392e+001
 2.975170654820722e+000	 9.828795457048585e-001	 1.111788595847737e+001
 2.964717634414846e+000	 1.013973463865370e+000	 1.114307195940219e+001
 2.953913032638836e+000	 1.045031533136540e+000	 1.117451968795784e+001
 2.942756186611073e+000	 1.076048072588372e+000	 1.121170210889237e+001
 2.931246550353865e+000	 1.107017361446401e+000	 1.125398945338568e+001
 2.919383696497328e+000	 1.137933641963363e+000	 1.130063712187642e+001
 2.907167317903020e+000	 1.168791122363753e+000	 1.135079174999657e+001
 2.894597229204027e+000	 1.199583979858828e+000	 1.140349738826083e+001
 2.881673368258283e+000	 1.230306363729441e+000	 1.145770183679527e+001
 2.636448052334516e+000	 1.125609464338406e+000	 1.159697473748513e+001
 2.624302226078947e+000	 1.153643375865511e+000	 1.161706984206147e+001
 2.611833061417271e+000	 1.181602065005949e+000	 1.162887058453974e+001
 2.599040848742955e+000	 1.209480123689433e+000	 1.163213915552858e+001
 2.585925995576417e+000	 1.237272130208986e+000	 1.162663123679405e+001
 2.572489027453051e+000	 1.264972652307893e+000	 1.161211394449325e+001
 2.558730588716130e+000	 1.292576250311315e+000	 1.158838376478630e+001
 2.544651443212335e+000	 1.320077480299228e+000	 1.155528424735165e+001
 2.530252474887798e+000	 1.347470897317242e+000	 1.151911554006595e+001
 2.515534688282688e+000	 1.374751058621742e+000	 1.151474192343430e+001
 2.500499208922499e+000	 1.401912526955667e+000	 1.154555230292402e+001
 2.660970583927155e+000	 1.136079154278113e+000	 1.155398227101605e+001
 2.648711785065264e+000	 1.164373819086899e+000	 1.157792087545362e+001
 2.636126640312910e+000	 1.192592561839123e+000	 1.159265730406569e+001
 2.623215442764610e+000	 1.220729924162126e+000	 1.159755719234453e+001
 2.609978603731262e+000	 1.248780433919723e+000	 1.159195537960996e+001
 2.596416653636446e+000	 1.276738608327862e+000	 1.157517622090449e+001
 2.582530242816688e+000	 1.304598957115368e+000	 1.154655396345433e+001
 2.568320142223471e+000	 1.332355985726398e+000	 1.150545293571165e+001
 2.553787244024815e+000	 1.360004198561121e+000	 1.147464316682240e+001
 2.538932562104461e+000	 1.387538102251040e+000	 1.147886067206649e+001
 2.523757232456807e+000	 1.414952208965249e+000	 1.151540152957919e+001
 2.685493115519782e+000	 1.146548844217417e+000	 1.152656606696329e+001
 2.673121344051483e+000	 1.175104262307936e+000	 1.155556966657805e+001
 2.660420219208369e+000	 1.203583058672014e+000	 1.157263192909515e+001
 2.647390036786003e+000	 1.231979724634620e+000	 1.157787163192358e+001
 2.634031211885770e+000	 1.260288737630354e+000	 1.157042790276833e+001
 2.620344279819432e+000	 1.288504564347824e+000	 1.154921688923077e+001
 2.606329896916778e+000	 1.316621663919515e+000	 1.151314857832615e+001
 2.591988841234089e+000	 1.344634491153756e+000	 1.146550409281955e+001
 2.577322013161276e+000	 1.372537499805272e+000	 1.144388678408787e+001
 2.562330435925657e+000	 1.400325145880683e+000	 1.145468882131361e+001
 2.547015255990533e+000	 1.427991890975229e+000	 1.149475270442639e+001
 2.710015647112380e+000	 1.157018534156420e+000	 1.150720067054451e+001
 2.697530903037604e+000	 1.185834705528708e+000	 1.154175870943859e+001
 2.684713798103659e+000	 1.214573555504691e+000	 1.156244749472801e+001
 2.671564630807157e+000	 1.243229525106964e+000	 1.156796736004166e+001
 2.658083820039975e+000	 1.271797041340906e+000	 1.155717312923916e+001
 2.644271906002056e+000	 1.300270520367780e+000	 1.152957641873885e+001
 2.630129551016453e+000	 1.328644370723730e+000	 1.148378658629346e+001
 2.615657540244252e+000	 1.356912996581256e+000	 1.143762372613652e+001
 2.600856782297251e+000	 1.385070801049629e+000	 1.142374115671489e+001
 2.585728309746352e+000	 1.413112189510584e+000	 1.143942200462545e+001
 2.570273279523759e+000	 1.441031572985507e+000	 1.148115248745199e+001
 2.734538178704933e+000	 1.167488224095222e+000	 1.149372730191819e+001
 2.721940462023623e+000	 1.196565148749303e+000	 1.153267323305635e+001
 2.709007376998789e+000	 1.225564052337229e+000	 1.155556683362621e+001
 2.695739224828096e+000	 1.254479325579208e+000	 1.156087551722531e+001
 2.682136428193909e+000	 1.283305345051404e+000	 1.154692750827461e+001
 2.668199532184363e+000	 1.312036476387733e+000	 1.151192145667001e+001
 2.653929205115769e+000	 1.340667077527991e+000	 1.145635819334007e+001
 2.639326239254022e+000	 1.369191502008848e+000	 1.141866385390384e+001
 2.624391551432814e+000	 1.397604102294122e+000	 1.141127072631516e+001
 2.609126183566625e+000	 1.425899233140657e+000	 1.143041642076485e+001
 2.593531303056567e+000	 1.454071254995983e+000	 1.147229689831484e+001
 2.759060710297422e+000	 1.177957914033924e+000	 1.148443620218704e+001
 2.746350021009535e+000	 1.207295591969811e+000	 1.152654403808339e+001
 2.733300955893769e+000	 1.236554549169694e+000	 1.155004051382338e+001
 2.719913818848843e+000	 1.265729126051403e+000	 1.155319837576314e+001
 2.706189036347608e+000	 1.294813648761876e+000	 1.153413707278229e+001
 2.692127158366396e+000	 1.323802432407684e+000	 1.149083243910568e+001
 2.677728859214780e+000	 1.352689784332276e+000	 1.143463185307275e+001
 2.662994938263464e+000	 1.381470007436487e+000	 1.140561877953880e+001
 2.647926320568034e+000	 1.410137403538683e+000	 1.140370501597680e+001
 2.632524057386552e+000	 1.438686276770816e+000	 1.142518458442610e+001
 2.616789326589044e+000	 1.467110937006559e+000	 1.146602749821035e+001
 2.783583241889829e+000	 1.188427603972625e+000	 1.147786895620301e+001
 2.770759579995339e+000	 1.218026035190319e+000	 1.152185763718034e+001
 2.757594534788612e+000	 1.247545046002160e+000	 1.154435845461080e+001
 2.744088412869419e+000	 1.276978926523597e+000	 1.154348682601416e+001
 2.730241644501109e+000	 1.306321952472349e+000	 1.151719407321946e+001
 2.716054784548201e+000	 1.335568388427635e+000	 1.146346469495064e+001
 2.701528513313543e+000	 1.364712491136561e+000	 1.141518445649722e+001
 2.686663637272640e+000	 1.393748512864127e+000	 1.139492098704790e+001
 2.671461089702981e+000	 1.422670704783245e+000	 1.139838812020897e+001
 2.655921931206211e+000	 1.451473320400976e+000	 1.142139127127056e+001
 2.640047350121268e+000	 1.480150619017134e+000	 1.146032774095282e+001
 2.808105773482136e+000	 1.198897293911427e+000	 1.147280473881891e+001
 2.795169138981031e+000	 1.228756478410914e+000	 1.151734167926314e+001
 2.781888113683326e+000	 1.258535542834697e+000	 1.153725299800184e+001
 2.768263006889848e+000	 1.288228726995841e+000	 1.153053328683632e+001
 2.754294252654443e+000	 1.317830256182848e+000	 1.149500551610101e+001
 2.739982410729826e+000	 1.347334344447589e+000	 1.143555590567995e+001
 2.725328167412110e+000	 1.376735197940822e+000	 1.139693356944640e+001
 2.710332336281615e+000	 1.406027018291719e+000	 1.138381267837618e+001
 2.694995858837728e+000	 1.435204006027737e+000	 1.139186321845705e+001
 2.679319805025680e+000	 1.464260364031049e+000	 1.141657988113748e+001
 2.663305373653324e+000	 1.493190301027610e+000	 1.145331948293069e+001
 2.832628305074325e+000	 1.209366983850430e+000	 1.146824673585330e+001
 2.819578697966607e+000	 1.239486921631686e+000	 1.151195056698827e+001
 2.806181692577922e+000	 1.269526039667374e+000	 1.152768381210659e+001
 2.792437600910154e+000	 1.299478527468185e+000	 1.151335598338352e+001
 2.778346860807648e+000	 1.329338559893400e+000	 1.146670068361867e+001
 2.763910036911314e+000	 1.359100300467545e+000	 1.140978643288400e+001
 2.749127821510537e+000	 1.388757904745037e+000	 1.137933698163471e+001
 2.734001035290451e+000	 1.418305523719218e+000	 1.137180461829529e+001
 2.718530627972343e+000	 1.447737307272093e+000	 1.138287303518165e+001
 2.702717678845036e+000	 1.477047407660950e+000	 1.140805074817795e+001
 2.686563397185296e+000	 1.506229983037888e+000	 1.144268595936473e+001
 2.857150836666380e+000	 1.219836673789734e+000	 1.146340872927059e+001
 2.843988256952065e+000	 1.250217364852722e+000	 1.150485125586535e+001
 2.830475271472410e+000	 1.280516536500265e+000	 1.151482298887530e+001
 2.816612194930361e+000	 1.310728327940679e+000	 1.149118342743256e+001
 2.802399468960757e+000	 1.340846863604030e+000	 1.143371875550205e+001
 2.787837663092711e+000	 1.370866256487507e+000	 1.138561957753301e+001
 2.772927475608878e+000	 1.400780611549183e+000	 1.136189264455470e+001
 2.757669734299212e+000	 1.430584029146576e+000	 1.135847807143430e+001
 2.742065397106900e+000	 1.460270608516245e+000	 1.137112946058921e+001
 2.726115552664357e+000	 1.489834451290593e+000	 1.139542801633477e+001
 2.709821420717266e+000	 1.519269665047867e+000	 1.142679773200275e+001
 2.881673368258283e+000	 1.230306363729441e+000	 1.145770183679527e+001
 2.868397815937404e+000	 1.260947808074110e+000	 1.149540922417915e+001
 2.854768850366804e+000	 1.291507033333439e+000	 1.149804032463165e+001
 2.840786788950488e+000	 1.321978128413373e+000	 1.146343908817555e+001
 2.826452077113804e+000	 1.352355167314767e+000	 1.140265466252827e+001
 2.811765289274062e+000	 1.382632212507475e+000	 1.136255793549431e+001
 2.796727129707190e+000	 1.412803318353237e+000	 1.134413580142750e+001
 2.781338433307961e+000	 1.442862534573747e+000	 1.134344804047300e+001
 2.765600166241469e+000	 1.472803909760124e+000	 1.135637306206391e+001
 2.749513426483720e+000	 1.502621494919891e+000	 1.137862225045076e+001
 2.733079444249319e+000	 1.532309347057451e+000	 1.140575542309133e+001
 2.500499208922499e+000	 1.401912526955667e+000	 1.154555230292402e+001
 2.485144957250983e+000	 1.428953920535294e+000	 1.158842664827607e+001
 2.469475535571229e+000	 1.455865738217200e+000	 1.162210245215112e+001
 2.453492436359996e+000	 1.482642578306111e+000	 1.164723339294251e+001
 2.437197273632522e+000	 1.509279057994052e+000	 1.166459907995450e+001
 2.420591782792370e+000	 1.535769816732273e+000	 1.167510154322635e+001
 2.403677820370210e+000	 1.562109519609821e+000	 1.167976057788407e+001
 2.386457363650868e+000	 1.588292860734559e+000	 1.167970796290117e+001
 2.368932510188156e+000	 1.614314566612345e+000	 1.167618058276584e+001
 2.351105477207142e+000	 1.640169399520067e+000	 1.167051248907234e+001
 2.332978600893775e+000	 1.665852160868178e+000	 1.166412594741503e+001
 2.523757232456807e+000	 1.414952208965249e+000	 1.151540152957919e+001
 2.508260165484269e+000	 1.442245124067567e+000	 1.156191553973832e+001
 2.492444996996238e+000	 1.469407258041089e+000	 1.159829482818331e+001
 2.476313233351541e+000	 1.496433158947471e+000	 1.162528352772466e+001
 2.459866503577958e+000	 1.523317393911350e+000	 1.164376977232366e+001
 2.443106559220670e+000	 1.550054552523622e+000	 1.165478182207969e+001
 2.426035274078606e+000	 1.576639250251452e+000	 1.165948295289315e+001
 2.408654643828038e+000	 1.603066131850734e+000	 1.165916513215406e+001
 2.390966785532879e+000	 1.629329874776702e+000	 1.165524151096168e+001
 2.372973937041403e+000	 1.655425192588333e+000	 1.164923777244047e+001
 2.354678456269270e+000	 1.681346838342176e+000	 1.164278238460136e+001
 2.547015255990533e+000	 1.427991890975229e+000	 1.149475270442639e+001
 2.531375373716986e+000	 1.455536327600267e+000	 1.154278851991483e+001
 2.515414458420706e+000	 1.482948777865413e+000	 1.158007549158698e+001
 2.499134030342586e+000	 1.510223739589257e+000	 1.160743188934135e+001
 2.482535733522948e+000	 1.537355729829050e+000	 1.162583706385864e+001
 2.465621335648581e+000	 1.564339288315340e+000	 1.163642721220508e+001
 2.448392727786678e+000	 1.591168980893409e+000	 1.164048981760790e+001
 2.430851924004946e+000	 1.617839402967187e+000	 1.163945678627613e+001
 2.413001060877399e+000	 1.644345182941285e+000	 1.163489631385655e+001
 2.394842396875518e+000	 1.670680985656779e+000	 1.162850352372230e+001
 2.376378311644662e+000	 1.696841515816308e+000	 1.162208992871717e+001
 2.570273279523759e+000	 1.441031572985507e+000	 1.148115248745199e+001
 2.554490581949220e+000	 1.468827531133287e+000	 1.152895048072963e+001
 2.538383919844723e+000	 1.496490297690064e+000	 1.156567327403034e+001
 2.521954827333227e+000	 1.524014320231365e+000	 1.159219747348993e+001
 2.505204963467584e+000	 1.551394065747053e+000	 1.160957690807837e+001
 2.488136112076197e+000	 1.578624024107333e+000	 1.161903804040715e+001
 2.470750181494516e+000	 1.605698711535611e+000	 1.162197396038499e+001
 2.453049204181680e+000	 1.632612674083848e+000	 1.161993698618285e+001
 2.435035336221801e+000	 1.659360491106038e+000	 1.161462990725746e+001
 2.416710856709561e+000	 1.685936778725359e+000	 1.160789591435683e+001
 2.398078167020021e+000	 1.712336193290541e+000	 1.160170727141093e+001
 2.593531303056567e+000	 1.454071254995983e+000	 1.147229689831484e+001
 2.577605790181059e+000	 1.482118734666520e+000	 1.151844391662187e+001
 2.561353381268382e+000	 1.510031817514932e+000	 1.155344379263075e+001
 2.544775624323555e+000	 1.537804900873685e+000	 1.157821617056523e+001
 2.527874193411962e+000	 1.565432401665257e+000	 1.159387317451673e+001
 2.510650888503613e+000	 1.592908759899511e+000	 1.160171446816529e+001
 2.493107635202212e+000	 1.620228442177975e+000	 1.160322080504218e+001
 2.475246484358327e+000	 1.647385945200647e+000	 1.160004609544524e+001
 2.457069611566164e+000	 1.674375799270905e+000	 1.159400802699718e+001
 2.438579316543607e+000	 1.701192571794027e+000	 1.158707728659344e+001
 2.419778022395412e+000	 1.727830870764843e+000	 1.158136544203656e+001
 2.616789326589044e+000	 1.467110937006559e+000	 1.146602749821035e+001
 2.600720998412591e+000	 1.495409938199861e+000	 1.150944555464342e+001
 2.584322842691773e+000	 1.523573337339909e+000	 1.154186647924109e+001
 2.567596421313664e+000	 1.551595481516112e+000	 1.156423814598226e+001
 2.550543423356176e+000	 1.579470737583562e+000	 1.157771533286956e+001
 2.533165664930922e+000	 1.607193495691781e+000	 1.158365443338878e+001
 2.515465088909857e+000	 1.634758172820419e+000	 1.158360656505000e+001
 2.497443764534976e+000	 1.662159216317515e+000	 1.157930910284153e+001
 2.479103886910575e+000	 1.689391107435829e+000	 1.157267567691225e+001
 2.460447776377734e+000	 1.716448364862740e+000	 1.156578468515402e+001
 2.441477877770901e+000	 1.743325548239177e+000	 1.156086638249362e+001
 2.640047350121268e+000	 1.480150619017134e+000	 1.146032774095282e+001
 2.623836206643904e+000	 1.508701141733200e+000	 1.150026312761377e+001
 2.607292304114989e+000	 1.537114857164887e+000	 1.152954172916702e+001
 2.590417218303648e+000	 1.565386062158538e+000	 1.154912531879254e+001
 2.573212653300319e+000	 1.593509073501868e+000	 1.156019621674739e+001
 2.555680441358219e+000	 1.621478231484052e+000	 1.156415165548966e+001
 2.537822542617543e+000	 1.649287903462864e+000	 1.156259644710464e+001
 2.519641044711714e+000	 1.676932487434384e+000	 1.155733398265343e+001
 2.501138162255115e+000	 1.704406415600752e+000	 1.155035560517539e+001
 2.482316236212016e+000	 1.731704157931453e+000	 1.154382841004823e+001
 2.463177733146556e+000	 1.758820225713511e+000	 1.154008153815227e+001
 2.663305373653324e+000	 1.493190301027610e+000	 1.145331948293069e+001
 2.646951414875084e+000	 1.521992345266434e+000	 1.148933228158680e+001
 2.630261765538118e+000	 1.550656376989756e+000	 1.151518816201253e+001
 2.613238015293598e+000	 1.579176642800859e+000	 1.153184893258627e+001
 2.595881883244487e+000	 1.607547409420072e+000	 1.154050986216746e+001
 2.578195217785595e+000	 1.635762967276229e+000	 1.154259369990283e+001
 2.560179996325362e+000	 1.663817634105228e+000	 1.153974290106371e+001
 2.541838324888631e+000	 1.691705758551183e+000	 1.153381009039981e+001
 2.523172437599868e+000	 1.719421723765620e+000	 1.152684680724846e+001
 2.504184696046531e+000	 1.746959951000122e+000	 1.152109058925001e+001
 2.484877588522445e+000	 1.774314903187812e+000	 1.151895046388008e+001
 2.686563397185296e+000	 1.506229983037888e+000	 1.144268595936472e+001
 2.670066623106221e+000	 1.535283548799453e+000	 1.147519319575210e+001
 2.653231226961252e+000	 1.564197896814407e+000	 1.149763998786035e+001
 2.636058812283610e+000	 1.592967223442966e+000	 1.151148721308738e+001
 2.618551113188773e+000	 1.621585745338075e+000	 1.151794941625635e+001
 2.600709994213145e+000	 1.650047703068222e+000	 1.151846009845067e+001
 2.582537450033408e+000	 1.678347364747429e+000	 1.151468391343460e+001
 2.564035605065816e+000	 1.706479029667844e+000	 1.150850659185985e+001
 2.545206712944915e+000	 1.734437031930372e+000	 1.150202305384363e+001
 2.526053155881353e+000	 1.762215744068701e+000	 1.149752377003093e+001
 2.506577443898632e+000	 1.789809580662045e+000	 1.149747944425569e+001
 2.709821420717266e+000	 1.519269665047867e+000	 1.142679773200275e+001
 2.693181831337400e+000	 1.548574752332153e+000	 1.145567240171996e+001
 2.676200688384482e+000	 1.577739416638730e+000	 1.147569108692186e+001
 2.658879609273776e+000	 1.606757804084753e+000	 1.148722310723295e+001
 2.641220343133271e+000	 1.635624081255775e+000	 1.149190511194381e+001
 2.623224770640963e+000	 1.664332438859940e+000	 1.149132052219704e+001
 2.604894903741769e+000	 1.692877095389386e+000	 1.148714134179923e+001
 2.586232885243353e+000	 1.721252300784296e+000	 1.148127092338641e+001
 2.567240988290342e+000	 1.749452340094955e+000	 1.147583144238908e+001
 2.547921615716559e+000	 1.777471537137146e+000	 1.147314952783002e+001
 2.528277299275187e+000	 1.805304258136177e+000	 1.147574012711656e+001
 2.733079444249319e+000	 1.532309347057451e+000	 1.140575542309133e+001
 2.716297039568712e+000	 1.561865955864427e+000	 1.143021434898281e+001
 2.699170149807901e+000	 1.591280936462619e+000	 1.144754330743428e+001
 2.681700406264190e+000	 1.620548384726113e+000	 1.145796480295589e+001
 2.663889573078078e+000	 1.649662417173072e+000	 1.146186230471835e+001
 2.645739547069145e+000	 1.678617174651290e+000	 1.146083300366447e+001
 2.627252357450537e+000	 1.707406826031018e+000	 1.145691928773673e+001
 2.608430165421335e+000	 1.736025571900473e+000	 1.145202728164490e+001
 2.589275263636230e+000	 1.764467648259312e+000	 1.144829097060037e+001
 2.569790075552226e+000	 1.792727330205414e+000	 1.144805709161469e+001
 2.549977154652176e+000	 1.820798935610175e+000	 1.145386816964652e+001
 2.332978600893775e+000	 1.665852160868178e+000	 1.166412594741503e+001
 2.314554334913666e+000	 1.691357693984630e+000	 1.165351897110259e+001
 2.295835247520404e+000	 1.716680885717582e+000	 1.163536753473301e+001
 2.276824022517764e+000	 1.741816671372895e+000	 1.161145314613537e+001
 2.257523458769130e+000	 1.766760038549538e+000	 1.158358957126211e+001
 2.237936468933869e+000	 1.791506030387907e+000	 1.155360929642622e+001
 2.218066078094256e+000	 1.816049748781706e+000	 1.152334942842782e+001
 2.197915422274171e+000	 1.840386357549125e+000	 1.149463712746234e+001
 2.177487746850984e+000	 1.864511085559069e+000	 1.146927467238479e+001
 2.156786404862220e+000	 1.888419229808245e+000	 1.144902426188779e+001
 2.135814855208781e+000	 1.912106158445013e+000	 1.143559265839426e+001
 2.354678456269270e+000	 1.681346838342176e+000	 1.164278238460136e+001
 2.336082819704505e+000	 1.707089607402158e+000	 1.163235473840156e+001
 2.317189619488916e+000	 1.732648339057221e+000	 1.161442650344401e+001
 2.298001564389259e+000	 1.758017921504730e+000	 1.159071982960981e+001
 2.278521479302110e+000	 1.783193295721556e+000	 1.156299205445342e+001
 2.258752303978483e+000	 1.808169458742603e+000	 1.153302154289968e+001
 2.238697091637989e+000	 1.832941466902575e+000	 1.150259292908129e+001
 2.218359007473745e+000	 1.857504439036639e+000	 1.147348186033201e+001
 2.197741327049500e+000	 1.881853559635735e+000	 1.144743934829851e+001
 2.176847434590536e+000	 1.905984081952293e+000	 1.142617583634081e+001
 2.155680821170189e+000	 1.929891331052193e+000	 1.141134509582113e+001
 2.376378311644662e+000	 1.696841515816308e+000	 1.162208992871717e+001
 2.357611304495278e+000	 1.722821520819784e+000	 1.161201981170603e+001
 2.338543991457385e+000	 1.748615792396929e+000	 1.159446038547699e+001
 2.319179106260727e+000	 1.774219171636611e+000	 1.157104459084920e+001
 2.299519499835069e+000	 1.799626552893600e+000	 1.154344287209491e+001
 2.279568139023079e+000	 1.824832887097314e+000	 1.151334841236083e+001
 2.259328105181699e+000	 1.849833185023448e+000	 1.148246173552637e+001
 2.238802592673292e+000	 1.874622520524149e+000	 1.145247477977580e+001
 2.217994907247979e+000	 1.899196033712393e+000	 1.142505455337970e+001
 2.196908464318808e+000	 1.923548934096329e+000	 1.140182648761743e+001
 2.175546787131546e+000	 1.947676503659357e+000	 1.138435760539141e+001
 2.398078167020021e+000	 1.712336193290541e+000	 1.160170727141093e+001
 2.379139789286039e+000	 1.738553434237483e+000	 1.159222135053006e+001
 2.359898363425856e+000	 1.764583245736689e+000	 1.157520555711650e+001
 2.340356648132197e+000	 1.790420421768526e+000	 1.155217487004362e+001
 2.320517520368025e+000	 1.816059810065665e+000	 1.152468350395564e+001
 2.300383974067660e+000	 1.841496315452034e+000	 1.149430955626011e+001
 2.279959118725377e+000	 1.866724903144321e+000	 1.146263898480974e+001
 2.259246177872786e+000	 1.891740602011651e+000	 1.143124902696155e+001
 2.238248487446389e+000	 1.916538507789036e+000	 1.140169117619368e+001
 2.216969494046992e+000	 1.941113786240340e+000	 1.137547383713496e+001
 2.195412753092805e+000	 1.965461676266488e+000	 1.135404478367345e+001
 2.419778022395412e+000	 1.727830870764843e+000	 1.158136544203656e+001
 2.400668274076846e+000	 1.754285347655232e+000	 1.157273568180266e+001
 2.381252735394372e+000	 1.780550699076482e+000	 1.155646489797163e+001
 2.361534190003698e+000	 1.806621671900462e+000	 1.153392242986790e+001
 2.341515540900994e+000	 1.832493067237742e+000	 1.150651803139943e+001
 2.321199809112225e+000	 1.858159743806755e+000	 1.147568594304125e+001
 2.300590132269011e+000	 1.883616621265188e+000	 1.144286825862559e+001
 2.279689763072207e+000	 1.908858683499138e+000	 1.140949770319549e+001
 2.258502067644693e+000	 1.933880981865654e+000	 1.137697994395529e+001
 2.237030523775047e+000	 1.958678638384314e+000	 1.134667556126678e+001
 2.215278719053913e+000	 1.983246848873568e+000	 1.131988181064788e+001
 2.441477877770901e+000	 1.743325548239177e+000	 1.156086638249362e+001
 2.422196758867754e+000	 1.770017261073006e+000	 1.155340688468054e+001
 2.402607107362975e+000	 1.796518152416293e+000	 1.153810636002351e+001
 2.382711731875265e+000	 1.822822922032409e+000	 1.151616188456485e+001
 2.362513561433991e+000	 1.848926324409821e+000	 1.148881160387729e+001
 2.342015644156779e+000	 1.874823172161472e+000	 1.145731824101497e+001
 2.321221145812591e+000	 1.900508339386042e+000	 1.142295186316368e+001
 2.300133348271529e+000	 1.925976764986603e+000	 1.138697202898452e+001
 2.278755647842860e+000	 1.951223455942238e+000	 1.135060944471323e+001
 2.257091553502927e+000	 1.976243490528240e+000	 1.131504726224244e+001
 2.235144685014823e+000	 2.001032021480582e+000	 1.128142566973337e+001
 2.463177733146556e+000	 1.758820225713511e+000	 1.154008153815227e+001
 2.443725243658819e+000	 1.785749174490779e+000	 1.153414538813074e+001
 2.423961479331708e+000	 1.812485605756102e+000	 1.152006154749078e+001
 2.403889273746923e+000	 1.839024172164353e+000	 1.149882923918938e+001
 2.383511581967032e+000	 1.865359581581895e+000	 1.147148891613920e+001
 2.362831479201324e+000	 1.891486600516179e+000	 1.143910521364772e+001
 2.341852159356105e+000	 1.917400057506879e+000	 1.140274912413066e+001
 2.320576933470728e+000	 1.943094846474039e+000	 1.136347952201163e+001
 2.299009228040850e+000	 1.968565930018779e+000	 1.132232417308790e+001
 2.277152583230591e+000	 1.993808342672106e+000	 1.128026036806193e+001
 2.255010650975482e+000	 2.018817194087512e+000	 1.124603034246763e+001
 2.484877588522445e+000	 1.774314903187812e+000	 1.151895046388009e+001
 2.465253728450097e+000	 1.801481087908528e+000	 1.151492658050159e+001
 2.445315851300619e+000	 1.828453059095895e+000	 1.150232430685433e+001
 2.425066815618706e+000	 1.855225422296282e+000	 1.148192043839251e+001
 2.404509602500136e+000	 1.881792838753954e+000	 1.145453269550854e+001
 2.383647314245862e+000	 1.908150028870870e+000	 1.142100212650677e+001
 2.362483172899539e+000	 1.934291775627691e+000	 1.138217469601673e+001
 2.341020518669781e+000	 1.960212927961440e+000	 1.133888219286792e+001
 2.319262808238635e+000	 1.985908404095269e+000	 1.129192259812347e+001
 2.297213612957994e+000	 2.011373194815898e+000	 1.124494137510441e+001
 2.274876616935843e+000	 2.036602366694342e+000	 1.121961305206842e+001
 2.506577443898632e+000	 1.789809580662045e+000	 1.149747944425569e+001
 2.486782213241644e+000	 1.817213001326228e+000	 1.149578943035610e+001
 2.466670223269748e+000	 1.844420512435651e+000	 1.148494932642328e+001
 2.446244357490642e+000	 1.871426672428186e+000	 1.146548992416632e+001
 2.425507623033317e+000	 1.898226095925993e+000	 1.143798219861020e+001
 2.404463149290395e+000	 1.924813457225536e+000	 1.140301916515585e+001
 2.383114186442888e+000	 1.951183493748474e+000	 1.136119688474570e+001
 2.361464103868667e+000	 1.977331009448800e+000	 1.131309475746598e+001
 2.339516388436177e+000	 2.003250878171699e+000	 1.125949543151435e+001
 2.317274642685093e+000	 2.028938046959606e+000	 1.121898347869004e+001
 2.294742582895855e+000	 2.054387539301056e+000	 1.120194941827680e+001
 2.528277299275187e+000	 1.805304258136177e+000	 1.147574012711657e+001
 2.508310698033515e+000	 1.832944914743853e+000	 1.147683511789092e+001
 2.488024595239138e+000	 1.860387965775353e+000	 1.146805074487022e+001
 2.467421899362762e+000	 1.887627922560051e+000	 1.144964920201277e+001
 2.446505643566593e+000	 1.914659353098001e+000	 1.142193171698391e+001
 2.425278984334927e+000	 1.941476885580175e+000	 1.138521986334218e+001
 2.403745199986136e+000	 1.968075211869223e+000	 1.133983598290245e+001
 2.381907689067360e+000	 1.994449090936112e+000	 1.128608286513099e+001
 2.359769968633441e+000	 2.020593352248060e+000	 1.123387743870111e+001
 2.337335672411845e+000	 2.046502899103217e+000	 1.120314565800227e+001
 2.314608548855468e+000	 2.072172711907637e+000	 1.119285284999382e+001
 2.549977154652176e+000	 1.820798935610175e+000	 1.145386816964652e+001
 2.529839182825770e+000	 1.848676828161380e+000	 1.145822567631022e+001
 2.509378967208837e+000	 1.876355419114987e+000	 1.145180076820158e+001
 2.488599441235097e+000	 1.903829172691866e+000	 1.143456541503349e+001
 2.467503664099979e+000	 1.931092610269970e+000	 1.140652909105391e+001
 2.446094819379461e+000	 1.958140313934778e+000	 1.136771954086322e+001
 2.424376213529276e+000	 1.984966929989930e+000	 1.131816261679065e+001
 2.402351274265837e+000	 2.011567172423368e+000	 1.126094433015049e+001
 2.380023548830396e+000	 2.037935826324343e+000	 1.121958732726590e+001
 2.357396702138207e+000	 2.064067751246718e+000	 1.119736345949440e+001
 2.334474514814633e+000	 2.089957884514068e+000	 1.119217295080821e+001
 2.135814855208781e+000	 1.912106158445013e+000	 1.143559265839426e+001
 2.114579866454582e+000	 1.935563812195057e+000	 1.142225877056589e+001
 2.093081977940697e+000	 1.958791283446953e+000	 1.139959019140298e+001
 2.071324954503008e+000	 1.981784175181508e+000	 1.136505250284295e+001
 2.049312658562491e+000	 2.004538173005029e+000	 1.131636556215858e+001
 2.027049047843805e+000	 2.027049047843805e+000	 1.126448978071331e+001
 2.004538173005029e+000	 2.049312658562490e+000	 1.121211300130189e+001
 1.981784175181508e+000	 2.071324954503008e+000	 1.115903319269130e+001
 1.958791283446953e+000	 2.093081977940697e+000	 1.111030837611022e+001
 1.935563812195057e+000	 2.114579866454582e+000	 1.106342864983153e+001
 1.912106158445013e+000	 2.135814855208781e+000	 1.101575350259483e+001
 2.155680821170189e+000	 1.929891331052193e+000	 1.141134509582113e+001
 2.134248318309155e+000	 1.953567172698978e+000	 1.139550979159671e+001
 2.112550470365117e+000	 1.977010690839198e+000	 1.136873303770622e+001
 2.090591077192041e+000	 2.000217447555418e+000	 1.132874672516628e+001
 2.068374037136654e+000	 2.023183088324236e+000	 1.128435568363133e+001
 2.045903344735822e+000	 2.045903344735822e+000	 1.124287870712722e+001
 2.023183088324237e+000	 2.068374037136653e+000	 1.120026263831861e+001
 2.000217447555417e+000	 2.090591077192041e+000	 1.115238719425673e+001
 1.977010690839198e+000	 2.112550470365117e+000	 1.110197829011615e+001
 1.953567172698978e+000	 2.134248318309155e+000	 1.105313675961117e+001
 1.929891331052193e+000	 2.155680821170189e+000	 1.100347990945899e+001
 2.175546787131546e+000	 1.947676503659357e+000	 1.138435760539141e+001
 2.153916770163675e+000	 1.971570533202878e+000	 1.136453371118507e+001
 2.132018962789484e+000	 1.995230098231415e+000	 1.133200883105916e+001
 2.109857199881020e+000	 2.018650719929294e+000	 1.129220386242702e+001
 2.087435415710766e+000	 2.041828003643404e+000	 1.125757987949242e+001
 2.064757641627792e+000	 2.064757641627792e+000	 1.122495505227857e+001
 2.041828003643404e+000	 2.087435415710766e+000	 1.119058552218680e+001
 2.018650719929294e+000	 2.109857199881021e+000	 1.115066415386553e+001
 1.995230098231415e+000	 2.132018962789484e+000	 1.110163054792769e+001
 1.971570533202878e+000	 2.153916770163674e+000	 1.104962322883291e+001
 1.947676503659357e+000	 2.175546787131546e+000	 1.099699998319270e+001
 2.195412753092805e+000	 1.965461676266488e+000	 1.135404478367346e+001
 2.173585222018087e+000	 1.989573893706733e+000	 1.132866492495691e+001
 2.151487455213741e+000	 2.013449505623575e+000	 1.129257087182202e+001
 2.129123322569894e+000	 2.037083992303101e+000	 1.126173922373600e+001
 2.106496794284778e+000	 2.060472918962490e+000	 1.123529717566479e+001
 2.083611938519672e+000	 2.083611938519672e+000	 1.120993029947548e+001
 2.060472918962490e+000	 2.106496794284777e+000	 1.118225422751528e+001
 2.037083992303101e+000	 2.129123322569894e+000	 1.114882566542157e+001
 2.013449505623575e+000	 2.151487455213741e+000	 1.110615357672629e+001
 1.989573893706733e+000	 2.173585222018087e+000	 1.105218608516510e+001
 1.965461676266487e+000	 2.195412753092805e+000	 1.099564181363959e+001
 2.215278719053913e+000	 1.983246848873568e+000	 1.131988181064788e+001
 2.193253673872338e+000	 2.007577254210522e+000	 1.128854894211196e+001
 2.170955947637836e+000	 2.031668913015651e+000	 1.125968482288397e+001
 2.148389445258608e+000	 2.055517264676805e+000	 1.123671968596595e+001
 2.125558172858639e+000	 2.079117834281456e+000	 1.121681747736881e+001
 2.102466235411413e+000	 2.102466235411413e+000	 1.119706698003210e+001
 2.079117834281456e+000	 2.125558172858639e+000	 1.117449223277659e+001
 2.055517264676805e+000	 2.148389445258608e+000	 1.114606318871465e+001
 2.031668913015651e+000	 2.170955947637836e+000	 1.110870654135892e+001
 2.007577254210522e+000	 2.193253673872338e+000	 1.105931664566130e+001
 1.983246848873568e+000	 2.215278719053913e+000	 1.099870430880471e+001
 2.235144685014823e+000	 2.001032021480582e+000	 1.128142566973337e+001
 2.212922125726377e+000	 2.025580614714222e+000	 1.125417104106380e+001
 2.190424440061712e+000	 2.049888320407614e+000	 1.123332041839764e+001
 2.167655567947108e+000	 2.073950537050373e+000	 1.121656059327788e+001
 2.144619551432299e+000	 2.097762749600260e+000	 1.120149967933954e+001
 2.121320532302972e+000	 2.121320532302971e+000	 1.118567679830006e+001
 2.097762749600260e+000	 2.144619551432299e+000	 1.116657207547433e+001
 2.073950537050372e+000	 2.167655567947108e+000	 1.114161687238956e+001
 2.049888320407614e+000	 2.190424440061712e+000	 1.110820418239341e+001
 2.025580614714222e+000	 2.212922125726376e+000	 1.106369911411103e+001
 2.001032021480582e+000	 2.235144685014823e+000	 1.100544938722211e+001
 2.255010650975482e+000	 2.018817194087512e+000	 1.124603034246763e+001
 2.232590577580147e+000	 2.043583975217812e+000	 1.122749749625884e+001
 2.209892932485317e+000	 2.068107727799438e+000	 1.121300568095924e+001
 2.186921690635343e+000	 2.092383809423768e+000	 1.120072391952597e+001
 2.163680930005709e+000	 2.116407664918862e+000	 1.118874982804931e+001
 2.140174829194301e+000	 2.140174829194301e+000	 1.117511881044204e+001
 2.116407664918862e+000	 2.163680930005709e+000	 1.115781356203071e+001
 2.092383809423768e+000	 2.186921690635343e+000	 1.113477380732318e+001
 2.068107727799437e+000	 2.209892932485317e+000	 1.110390619548334e+001
 2.043583975217812e+000	 2.232590577580147e+000	 1.106309427597903e+001
 2.018817194087512e+000	 2.255010650975482e+000	 1.101020847648639e+001
 2.274876616935843e+000	 2.036602366694342e+000	 1.121961305206842e+001
 2.252259029433597e+000	 2.061587335721270e+000	 1.120817639487920e+001
 2.229361424908593e+000	 2.086327135191092e+000	 1.119831260448788e+001
 2.206187813323257e+000	 2.110817081796956e+000	 1.118871647703778e+001
 2.182742308578817e+000	 2.135052580237221e+000	 1.117801933275674e+001
 2.159029126085356e+000	 2.159029126085355e+000	 1.116479765366326e+001
 2.135052580237221e+000	 2.182742308578817e+000	 1.114758202904898e+001
 2.110817081796957e+000	 2.206187813323258e+000	 1.112486633168650e+001
 2.086327135191092e+000	 2.229361424908593e+000	 1.109511704590709e+001
 2.061587335721269e+000	 2.252259029433597e+000	 1.105678266759825e+001
 2.036602366694342e+000	 2.274876616935843e+000	 1.100830309579161e+001
 2.294742582895855e+000	 2.054387539301056e+000	 1.120194941827680e+001
 2.271927481286673e+000	 2.079590696224573e+000	 1.119589684523384e+001
 2.248829917331490e+000	 2.104546542582549e+000	 1.118885541909346e+001
 2.225453936010800e+000	 2.129250354169905e+000	 1.118008816896053e+001
 2.201803687151573e+000	 2.153697495555299e+000	 1.116880322242333e+001
 2.177883422976089e+000	 2.177883422976089e+000	 1.115416182284239e+001
 2.153697495555299e+000	 2.201803687151573e+000	 1.113528665283702e+001
 2.129250354169905e+000	 2.225453936010800e+000	 1.111127038455994e+001
 2.104546542582549e+000	 2.248829917331490e+000	 1.108118437548162e+001
 2.079590696224572e+000	 2.271927481286673e+000	 1.104408742728223e+001
 2.054387539301056e+000	 2.294742582895855e+000	 1.099903452507172e+001
 2.314608548855468e+000	 2.072172711907637e+000	 1.119285284999382e+001
 2.291595933139321e+000	 2.097594056727699e+000	 1.119038730724921e+001
 2.268298409753951e+000	 2.122765949973781e+000	 1.118428889391200e+001
 2.244720058697916e+000	 2.147683626542579e+000	 1.117443028255491e+001
 2.220865065723928e+000	 2.172342410873053e+000	 1.116063844574206e+001
 2.196737719866457e+000	 2.196737719866457e+000	 1.114270199171446e+001
 2.172342410873052e+000	 2.220865065723928e+000	 1.112037880429288e+001
 2.147683626542579e+000	 2.244720058697916e+000	 1.109340390518424e+001
 2.122765949973781e+000	 2.268298409753950e+000	 1.106149745494540e+001
 2.097594056727699e+000	 2.291595933139321e+000	 1.102437280770033e+001
 2.072172711907637e+000	 2.314608548855468e+000	 1.098174453433627e+001
 2.334474514814633e+000	 2.089957884514068e+000	 1.119217295080821e+001
 2.311264384991488e+000	 2.115597417230627e+000	 1.119141395500835e+001
 2.287766902175922e+000	 2.140985357364761e+000	 1.118430667564713e+001
 2.263986181384554e+000	 2.166116898914944e+000	 1.117137382099783e+001
 2.239926444295830e+000	 2.190987326190443e+000	 1.115310221170924e+001
 2.215592016756413e+000	 2.215592016756412e+000	 1.112994937595195e+001
 2.190987326190444e+000	 2.239926444295831e+000	 1.110235044645042e+001
 2.166116898914944e+000	 2.263986181384554e+000	 1.107072527512933e+001
 2.140985357364762e+000	 2.287766902175922e+000	 1.103548567910097e+001
 2.115597417230626e+000	 2.311264384991489e+000	 1.099704273052990e+001
 2.089957884514069e+000	 2.334474514814633e+000	 1.095581400254498e+001
 1.912106158445013e+000	 2.135814855208781e+000	 1.101575350259483e+001
 1.888419229808245e+000	 2.156786404862220e+000	 1.096330962898814e+001
 1.864511085559069e+000	 2.177487746850984e+000	 1.090485261893176e+001
 1.840386357549125e+000	 2.197915422274170e+000	 1.084197922248848e+001
 1.816049748781705e+000	 2.218066078094255e+000	 1.077637820612992e+001
 1.791506030387908e+000	 2.237936468933869e+000	 1.070980466213044e+001
 1.766760038549538e+000	 2.257523458769129e+000	 1.064405439609839e+001
 1.741816671372895e+000	 2.276824022517764e+000	 1.058093861293422e+001
 1.716680885717582e+000	 2.295835247520404e+000	 1.052225911760603e+001
 1.691357693984630e+000	 2.314554334913665e+000	 1.046978424146128e+001
 1.665852160868179e+000	 2.332978600893775e+000	 1.042522569740888e+001
 1.929891331052193e+000	 2.155680821170189e+000	 1.100347990945899e+001
 1.905984081952293e+000	 2.176847434590535e+000	 1.094972912479895e+001
 1.881853559635735e+000	 2.197741327049500e+000	 1.089103094862895e+001
 1.857504439036638e+000	 2.218359007473745e+000	 1.082878933204328e+001
 1.832941466902574e+000	 2.238697091637989e+000	 1.076449799670407e+001
 1.808169458742604e+000	 2.258752303978484e+000	 1.069971347384020e+001
 1.783193295721556e+000	 2.278521479302110e+000	 1.063602823360723e+001
 1.758017921504730e+000	 2.298001564389258e+000	 1.057504413812243e+001
 1.732648339057221e+000	 2.317189619488917e+000	 1.051834644738597e+001
 1.707089607402157e+000	 2.336082819704504e+000	 1.046747860132043e+001
 1.681346838342176e+000	 2.354678456269270e+000	 1.042391799336616e+001
 1.947676503659357e+000	 2.175546787131546e+000	 1.099699998319270e+001
 1.923548934096329e+000	 2.196908464318807e+000	 1.094114648223613e+001
 1.899196033712393e+000	 2.217994907247979e+000	 1.088152405034954e+001
 1.874622520524149e+000	 2.238802592673292e+000	 1.081932933887047e+001
 1.849833185023448e+000	 2.259328105181699e+000	 1.075584679607677e+001
 1.824832887097314e+000	 2.279568139023080e+000	 1.069242037546982e+001
 1.799626552893600e+000	 2.299519499835069e+000	 1.063042534597545e+001
 1.774219171636611e+000	 2.319179106260727e+000	 1.057124045103662e+001
 1.748615792396929e+000	 2.338543991457386e+000	 1.051622065926325e+001
 1.722821520819784e+000	 2.357611304495278e+000	 1.046667074300647e+001
 1.696841515816308e+000	 2.376378311644662e+000	 1.042381991301012e+001
 1.965461676266487e+000	 2.195412753092805e+000	 1.099564181363959e+001
 1.941113786240340e+000	 2.216969494046992e+000	 1.093692165309406e+001
 1.916538507789037e+000	 2.238248487446389e+000	 1.087572641899911e+001
 1.891740602011651e+000	 2.259246177872786e+000	 1.081303196257700e+001
 1.866724903144321e+000	 2.279959118725377e+000	 1.074990023696152e+001
 1.841496315452034e+000	 2.300383974067659e+000	 1.068744960948524e+001
 1.816059810065665e+000	 2.320517520368025e+000	 1.062682528674705e+001
 1.790420421768526e+000	 2.340356648132197e+000	 1.056917011376200e+001
 1.764583245736689e+000	 2.359898363425857e+000	 1.051559600397061e+001
 1.738553434237483e+000	 2.379139789286039e+000	 1.046715625026456e+001
 1.712336193290541e+000	 2.398078167020021e+000	 1.042481895853047e+001
 1.983246848873568e+000	 2.215278719053913e+000	 1.099870430880471e+001
 1.958678638384314e+000	 2.237030523775047e+000	 1.093638147278650e+001
 1.933880981865654e+000	 2.258502067644693e+000	 1.087299520452180e+001
 1.908858683499138e+000	 2.279689763072207e+000	 1.080928806038332e+001
 1.883616621265188e+000	 2.300590132269012e+000	 1.074608728944925e+001
 1.858159743806755e+000	 2.321199809112224e+000	 1.068427367944194e+001
 1.832493067237741e+000	 2.341515540900993e+000	 1.062475052558986e+001
 1.806621671900462e+000	 2.361534190003698e+000	 1.056841299873446e+001
 1.780550699076482e+000	 2.381252735394371e+000	 1.051611818426388e+001
 1.754285347655232e+000	 2.400668274076846e+000	 1.046865605649752e+001
 1.727830870764843e+000	 2.419778022395412e+000	 1.042672164403942e+001
 2.001032021480582e+000	 2.235144685014823e+000	 1.100544938722211e+001
 1.976243490528240e+000	 2.257091553502927e+000	 1.093882668640477e+001
 1.951223455942238e+000	 2.278755647842859e+000	 1.087265710759298e+001
 1.925976764986603e+000	 2.300133348271529e+000	 1.080745339143934e+001
 1.900508339386043e+000	 2.321221145812591e+000	 1.074379689421643e+001
 1.874823172161473e+000	 2.342015644156779e+000	 1.068231985363973e+001
 1.848926324409820e+000	 2.362513561433990e+000	 1.062367282523490e+001
 1.822822922032408e+000	 2.382711731875264e+000	 1.056849254308723e+001
 1.796518152416293e+000	 2.402607107362974e+000	 1.051737049207753e+001
 1.770017261073006e+000	 2.422196758867754e+000	 1.047082247140670e+001
 1.743325548239177e+000	 2.441477877770901e+000	 1.042925941963596e+001
 2.018817194087512e+000	 2.255010650975482e+000	 1.101020847648639e+001
 1.993808342672107e+000	 2.277152583230591e+000	 1.094353902692902e+001
 1.968565930018780e+000	 2.299009228040851e+000	 1.087401532604380e+001
 1.943094846474039e+000	 2.320576933470728e+000	 1.080685543014199e+001
 1.917400057506879e+000	 2.341852159356104e+000	 1.074238464265219e+001
 1.891486600516179e+000	 2.362831479201324e+000	 1.068097671321618e+001
 1.865359581581894e+000	 2.383511581967032e+000	 1.062301965993808e+001
 1.839024172164352e+000	 2.403889273746924e+000	 1.056888204112401e+001
 1.812485605756102e+000	 2.423961479331709e+000	 1.051887997989176e+001
 1.785749174490779e+000	 2.443725243658818e+000	 1.047324523736726e+001
 1.758820225713511e+000	 2.463177733146556e+000	 1.043209462012994e+001
 2.036602366694342e+000	 2.274876616935843e+000	 1.100830309579161e+001
 2.011373194815899e+000	 2.297213612957994e+000	 1.094791524244299e+001
 1.985908404095269e+000	 2.319262808238634e+000	 1.087635654891827e+001
 1.960212927961440e+000	 2.341020518669781e+000	 1.080680022546001e+001
 1.934291775627691e+000	 2.362483172899540e+000	 1.074117950103551e+001
 1.908150028870870e+000	 2.383647314245862e+000	 1.067960074196349e+001
 1.881792838753955e+000	 2.404509602500136e+000	 1.062218067292581e+001
 1.855225422296282e+000	 2.425066815618706e+000	 1.056901097258739e+001
 1.828453059095894e+000	 2.445315851300618e+000	 1.052012366421796e+001
 1.801481087908528e+000	 2.465253728450097e+000	 1.047545761372102e+001
 1.774314903187812e+000	 2.484877588522445e+000	 1.043482643691814e+001
 2.054387539301056e+000	 2.294742582895855e+000	 1.099903452507172e+001
 2.028938046959606e+000	 2.317274642685093e+000	 1.094472860434712e+001
 2.003250878171699e+000	 2.339516388436176e+000	 1.087880049238250e+001
 1.977331009448800e+000	 2.361464103868666e+000	 1.080657930347709e+001
 1.951183493748474e+000	 2.383114186442888e+000	 1.073949057609354e+001
 1.924813457225537e+000	 2.404463149290396e+000	 1.067752295533849e+001
 1.898226095925993e+000	 2.425507623033317e+000	 1.062051417046224e+001
 1.871426672428187e+000	 2.446244357490643e+000	 1.056827136455398e+001
 1.844420512435650e+000	 2.466670223269748e+000	 1.052053475925788e+001
 1.817213001326227e+000	 2.486782213241644e+000	 1.047694248729460e+001
 1.789809580662045e+000	 2.506577443898633e+000	 1.043699691160965e+001
 2.072172711907637e+000	 2.314608548855468e+000	 1.098174453433628e+001
 2.046502899103217e+000	 2.337335672411845e+000	 1.093274480172634e+001
 2.020593352248060e+000	 2.359769968633441e+000	 1.087478619018644e+001
 1.994449090936111e+000	 2.381907689067359e+000	 1.080547661055748e+001
 1.968075211869222e+000	 2.403745199986136e+000	 1.073661391945442e+001
 1.941476885580175e+000	 2.425278984334927e+000	 1.067405556631320e+001
 1.914659353098001e+000	 2.446505643566593e+000	 1.061735365033795e+001
 1.887627922560051e+000	 2.467421899362762e+000	 1.056602418493613e+001
 1.860387965775354e+000	 2.488024595239140e+000	 1.051950893892271e+001
 1.832944914743853e+000	 2.508310698033516e+000	 1.047713850756725e+001
 1.805304258136177e+000	 2.528277299275187e+000	 1.043809695009348e+001
 2.089957884514069e+000	 2.334474514814633e+000	 1.095581400254499e+001
 2.064067751246718e+000	 2.357396702138207e+000	 1.091132342609452e+001
 2.037935826324343e+000	 2.380023548830395e+000	 1.086069079894279e+001
 2.011567172423368e+000	 2.402351274265837e+000	 1.080073181328920e+001
 1.984966929989930e+000	 2.424376213529276e+000	 1.073183936867820e+001
 1.958140313934778e+000	 2.446094819379461e+000	 1.066849868586943e+001
 1.931092610269970e+000	 2.467503664099979e+000	 1.061201436272949e+001
 1.903829172691866e+000	 2.488599441235097e+000	 1.056160576570639e+001
 1.876355419114987e+000	 2.509378967208838e+000	 1.051641062552270e+001
 1.848676828161380e+000	 2.529839182825770e+000	 1.047544624502071e+001
 1.820798935610176e+000	 2.549977154652176e+000	 1.043757235583123e+001
 1.665852160868179e+000	 2.332978600893775e+000	 1.042522569740888e+001
 1.640169399520067e+000	 2.351105477207141e+000	 1.038068271664697e+001
 1.614314566612346e+000	 2.368932510188156e+000	 1.032813305641184e+001
 1.588292860734558e+000	 2.386457363650868e+000	 1.026894776738096e+001
 1.562109519609820e+000	 2.403677820370209e+000	 1.020434781176677e+001
 1.535769816732273e+000	 2.420591782792370e+000	 1.013538905534926e+001
 1.509279057994052e+000	 2.437197273632522e+000	 1.006294919124742e+001
 1.482642578306111e+000	 2.453492436359996e+000	 9.987716704773401e+000
 1.455865738217200e+000	 2.469475535571230e+000	 9.910181971323397e+000
 1.428953920535294e+000	 2.485144957250983e+000	 9.830630561254328e+000
 1.401912526955667e+000	 2.500499208922499e+000	 9.749138807226201e+000
 1.681346838342176e+000	 2.354678456269270e+000	 1.042391799336616e+001
 1.655425192588333e+000	 2.372973937041403e+000	 1.037942739494430e+001
 1.629329874776701e+000	 2.390966785532879e+000	 1.032609630930217e+001
 1.603066131850734e+000	 2.408654643828039e+000	 1.026571949015072e+001
 1.576639250251452e+000	 2.426035274078607e+000	 1.019993121866045e+001
 1.550054552523622e+000	 2.443106559220670e+000	 1.013018842048356e+001
 1.523317393911349e+000	 2.459866503577958e+000	 1.005775584436728e+001
 1.496433158947471e+000	 2.476313233351541e+000	 9.983693421119758e+000
 1.469407258041088e+000	 2.492444996996238e+000	 9.908845903234916e+000
 1.442245124067568e+000	 2.508260165484270e+000	 9.833834866359293e+000
 1.414952208965249e+000	 2.523757232456807e+000	 9.759053134164487e+000
 1.696841515816308e+000	 2.376378311644662e+000	 1.042381991301012e+001
 1.670680985656779e+000	 2.394842396875518e+000	 1.037914324833658e+001
 1.644345182941285e+000	 2.413001060877398e+000	 1.032486142292559e+001
 1.617839402967188e+000	 2.430851924004947e+000	 1.026313453053915e+001
 1.591168980893409e+000	 2.448392727786678e+000	 1.019595131030750e+001
 1.564339288315340e+000	 2.465621335648581e+000	 1.012511041506078e+001
 1.537355729829050e+000	 2.482535733522948e+000	 1.005220387578725e+001
 1.510223739589258e+000	 2.499134030342586e+000	 9.978602890660543e+000
 1.482948777865412e+000	 2.515414458420706e+000	 9.905446047515421e+000
 1.455536327600267e+000	 2.531375373716986e+000	 9.833630068372528e+000
 1.427991890975229e+000	 2.547015255990533e+000	 9.763803143790655e+000
 1.712336193290541e+000	 2.398078167020021e+000	 1.042481895853047e+001
 1.685936778725359e+000	 2.416710856709561e+000	 1.037981614895298e+001
 1.659360491106039e+000	 2.435035336221800e+000	 1.032451571854647e+001
 1.632612674083848e+000	 2.453049204181680e+000	 1.026138677696522e+001
 1.605698711535610e+000	 2.470750181494515e+000	 1.019271566216107e+001
 1.578624024107333e+000	 2.488136112076197e+000	 1.012058538113313e+001
 1.551394065747053e+000	 2.505204963467584e+000	 1.004685738625616e+001
 1.524014320231365e+000	 2.521954827333227e+000	 9.973155825600662e+000
 1.496490297690064e+000	 2.538383919844724e+000	 9.900854384941221e+000
 1.468827531133287e+000	 2.554490581949219e+000	 9.831065817665762e+000
 1.441031572985507e+000	 2.570273279523760e+000	 9.764634236732391e+000
 1.727830870764843e+000	 2.419778022395412e+000	 1.042672164403942e+001
 1.701192571794027e+000	 2.438579316543607e+000	 1.038134459748556e+001
 1.674375799270905e+000	 2.457069611566164e+000	 1.032505287819380e+001
 1.647385945200647e+000	 2.475246484358327e+000	 1.026057029194799e+001
 1.620228442177975e+000	 2.493107635202212e+000	 1.019042588337886e+001
 1.592908759899511e+000	 2.510650888503613e+000	 1.011693156496328e+001
 1.565432401665257e+000	 2.527874193411962e+000	 1.004216222621682e+001
 1.537804900873685e+000	 2.544775624323555e+000	 9.967938471769966e+000
 1.510031817514932e+000	 2.561353381268382e+000	 9.895812115105597e+000
 1.482118734666520e+000	 2.577605790181060e+000	 9.827054531999593e+000
 1.454071254995983e+000	 2.593531303056567e+000	 9.762647954345498e+000
 1.743325548239177e+000	 2.441477877770901e+000	 1.042925941963596e+001
 1.716448364862740e+000	 2.460447776377734e+000	 1.038354554582334e+001
 1.689391107435829e+000	 2.479103886910575e+000	 1.032637866146692e+001
 1.662159216317515e+000	 2.497443764534976e+000	 1.026068492181474e+001
 1.634758172820419e+000	 2.515465088909857e+000	 1.018918312127413e+001
 1.607193495691781e+000	 2.533165664930923e+000	 1.011436052115493e+001
 1.579470737583563e+000	 2.550543423356175e+000	 1.003845130762743e+001
 1.551595481516112e+000	 2.567596421313664e+000	 9.963417839193852e+000
 1.523573337339909e+000	 2.584322842691774e+000	 9.890934819817431e+000
 1.495409938199861e+000	 2.600720998412591e+000	 9.822376509814150e+000
 1.467110937006559e+000	 2.616789326589043e+000	 9.758807061907298e+000
 1.758820225713511e+000	 2.463177733146556e+000	 1.043209462012994e+001
 1.731704157931453e+000	 2.482316236212016e+000	 1.038616023905707e+001
 1.704406415600752e+000	 2.501138162255115e+000	 1.032831663653233e+001
 1.676932487434383e+000	 2.519641044711714e+000	 1.026164191538661e+001
 1.649287903462864e+000	 2.537822542617543e+000	 1.018899356936342e+001
 1.621478231484051e+000	 2.555680441358218e+000	 1.011298251469417e+001
 1.593509073501868e+000	 2.573212653300319e+000	 1.003594990756560e+001
 1.565386062158539e+000	 2.590417218303647e+000	 9.959946917743148e+000
 1.537114857164887e+000	 2.607292304114989e+000	 9.886717604163268e+000
 1.508701141733201e+000	 2.623836206643904e+000	 9.817685012921693e+000
 1.480150619017134e+000	 2.640047350121267e+000	 9.753940591976008e+000
 1.774314903187812e+000	 2.484877588522445e+000	 1.043482643691814e+001
 1.746959951000122e+000	 2.504184696046531e+000	 1.038886007567110e+001
 1.719421723765620e+000	 2.523172437599867e+000	 1.033061392444219e+001
 1.691705758551183e+000	 2.541838324888631e+000	 1.026326955109279e+001
 1.663817634105228e+000	 2.560179996325362e+000	 1.018977397879130e+001
 1.635762967276229e+000	 2.578195217785595e+000	 1.011281192102937e+001
 1.607547409420072e+000	 2.595881883244487e+000	 1.003478096411872e+001
 1.579176642800859e+000	 2.613238015293599e+000	 9.957769878774563e+000
 1.550656376989755e+000	 2.630261765538118e+000	 9.883540216597471e+000
 1.521992345266434e+000	 2.646951414875085e+000	 9.813511320473307e+000
 1.493190301027610e+000	 2.663305373653324e+000	 9.748748850350667e+000
 1.789809580662045e+000	 2.506577443898633e+000	 1.043699691160965e+001
 1.762215744068701e+000	 2.526053155881353e+000	 1.039125248482029e+001
 1.734437031930373e+000	 2.545206712944916e+000	 1.033294695596790e+001
 1.706479029667844e+000	 2.564035605065815e+000	 1.026531877200269e+001
 1.678347364747429e+000	 2.582537450033407e+000	 1.019135717292755e+001
 1.650047703068223e+000	 2.600709994213145e+000	 1.011377262430889e+001
 1.621585745338075e+000	 2.618551113188773e+000	 1.003497036502641e+001
 1.592967223442966e+000	 2.636058812283610e+000	 9.957027263611126e+000
 1.564197896814406e+000	 2.653231226961252e+000	 9.881672149331783e+000
 1.535283548799454e+000	 2.670066623106221e+000	 9.810330021082690e+000
 1.506229983037888e+000	 2.686563397185296e+000	 9.746053637331817e+000
 1.805304258136177e+000	 2.528277299275187e+000	 1.043809695009348e+001
 1.777471537137146e+000	 2.547921615716559e+000	 1.039288681966471e+001
 1.749452340094956e+000	 2.567240988290342e+000	 1.033492724019691e+001
 1.721252300784296e+000	 2.586232885243353e+000	 1.026746882830070e+001
 1.692877095389386e+000	 2.604894903741769e+000	 1.019349756494593e+001
 1.664332438859940e+000	 2.623224770640964e+000	 1.011570341388632e+001
 1.635624081255775e+000	 2.641220343133271e+000	 1.003645222951218e+001
 1.606757804084753e+000	 2.658879609273776e+000	 9.957761159652746e+000
 1.577739416638730e+000	 2.676200688384482e+000	 9.881685643799584e+000
 1.548574752332153e+000	 2.693181831337400e+000	 9.811582223244152e+000
 1.519269665047867e+000	 2.709821420717266e+000	 9.748971175208908e+000
 1.820798935610176e+000	 2.549977154652176e+000	 1.043757235583123e+001
 1.792727330205413e+000	 2.569790075552224e+000	 1.039326026580697e+001
 1.764467648259313e+000	 2.589275263636230e+000	 1.033610714419189e+001
 1.736025571900472e+000	 2.608430165421335e+000	 1.026933292675928e+001
 1.707406826031018e+000	 2.627252357450538e+000	 1.019587667820738e+001
 1.678617174651289e+000	 2.645739547069144e+000	 1.011836337919736e+001
 1.649662417173072e+000	 2.663889573078078e+000	 1.003907418370863e+001
 1.620548384726113e+000	 2.681700406264190e+000	 9.960808494787186e+000
 1.591280936462618e+000	 2.699170149807902e+000	 9.886657301519870e+000
 1.561865955864427e+000	 2.716297039568712e+000	 9.817968691707680e+000
 1.532309347057451e+000	 2.733079444249318e+000	 9.755983328866723e+000
 1.401912526955667e+000	 2.500499208922499e+000	 9.749138807226201e+000
 1.374751058621742e+000	 2.515534688282688e+000	 9.665030863024315e+000
 1.347470897317242e+000	 2.530252474887798e+000	 9.574065330998238e+000
 1.320077480299228e+000	 2.544651443212336e+000	 9.475026907866750e+000
 1.292576250311316e+000	 2.558730588716131e+000	 9.389964476037775e+000
 1.264972652307893e+000	 2.572489027453051e+000	 9.318528749966541e+000
 1.237272130208986e+000	 2.585925995576417e+000	 9.255888168058302e+000
 1.209480123689433e+000	 2.599040848742956e+000	 9.197714754930031e+000
 1.181602065005949e+000	 2.611833061417270e+000	 9.140223968579837e+000
 1.153643375865511e+000	 2.624302226078947e+000	 9.080208065053672e+000
 1.125609464338406e+000	 2.636448052334516e+000	 9.015062824698298e+000
 1.414952208965249e+000	 2.523757232456807e+000	 9.759053134164487e+000
 1.387538102251041e+000	 2.538932562104462e+000	 9.684317583836693e+000
 1.360004198561121e+000	 2.553787244024815e+000	 9.605140951440943e+000
 1.332355985726399e+000	 2.568320142223472e+000	 9.515231543332616e+000
 1.304598957115369e+000	 2.582530242816688e+000	 9.428763159667930e+000
 1.276738608327862e+000	 2.596416653636446e+000	 9.357648934929514e+000
 1.248780433919723e+000	 2.609978603731262e+000	 9.296312791179016e+000
 1.220729924162126e+000	 2.623215442764610e+000	 9.239737401863557e+000
 1.192592561839122e+000	 2.636126640312910e+000	 9.183507904133951e+000
 1.164373819086900e+000	 2.648711785065263e+000	 9.123848653412834e+000
 1.136079154278112e+000	 2.660970583927155e+000	 9.057652851595062e+000
 1.427991890975229e+000	 2.547015255990533e+000	 9.763803143790655e+000
 1.400325145880683e+000	 2.562330435925657e+000	 9.696265126397837e+000
 1.372537499805272e+000	 2.577322013161275e+000	 9.626392225493717e+000
 1.344634491153757e+000	 2.591988841234090e+000	 9.547168784985173e+000
 1.316621663919515e+000	 2.606329896916777e+000	 9.458578172078857e+000
 1.288504564347824e+000	 2.620344279819433e+000	 9.383597579116801e+000
 1.260288737630354e+000	 2.634031211885770e+000	 9.319303433906789e+000
 1.231979724634620e+000	 2.647390036786003e+000	 9.260086370854266e+000
 1.203583058672014e+000	 2.660420219208370e+000	 9.200999919306801e+000
 1.175104262307936e+000	 2.673121344051484e+000	 9.138723010159648e+000
 1.146548844217417e+000	 2.685493115519782e+000	 9.075488528658161e+000
 1.441031572985507e+000	 2.570273279523760e+000	 9.764634236732386e+000
 1.413112189510584e+000	 2.585728309746352e+000	 9.702326554136606e+000
 1.385070801049629e+000	 2.600856782297251e+000	 9.639482368547704e+000
 1.356912996581255e+000	 2.615657540244252e+000	 9.568497720625043e+000
 1.328644370723730e+000	 2.630129551016453e+000	 9.482172009884502e+000
 1.300270520367781e+000	 2.644271906002056e+000	 9.399548512075997e+000
 1.271797041340905e+000	 2.658083820039974e+000	 9.328410673651346e+000
 1.243229525106963e+000	 2.671564630807158e+000	 9.263070618947971e+000
 1.214573555504692e+000	 2.684713798103659e+000	 9.203202263187865e+000
 1.185834705528708e+000	 2.697530903037604e+000	 9.146647125540877e+000
 1.157018534156420e+000	 2.710015647112380e+000	 9.090729055852707e+000
 1.454071254995983e+000	 2.593531303056567e+000	 9.762647954345498e+000
 1.425899233140657e+000	 2.609126183566624e+000	 9.703804508845160e+000
 1.397604102294122e+000	 2.624391551432815e+000	 9.645918029442472e+000
 1.369191502008848e+000	 2.639326239254022e+000	 9.580906266573406e+000
 1.340667077527991e+000	 2.653929205115769e+000	 9.500506848582392e+000
 1.312036476387733e+000	 2.668199532184362e+000	 9.408369275551323e+000
 1.283305345051404e+000	 2.682136428193909e+000	 9.330464954665398e+000
 1.254479325579208e+000	 2.695739224828096e+000	 9.265066181306210e+000
 1.225564052337228e+000	 2.709007376998789e+000	 9.207851288817910e+000
 1.196565148749303e+000	 2.721940462023622e+000	 9.155272469714191e+000
 1.167488224095222e+000	 2.734538178704933e+000	 9.104483368634741e+000
 1.467110937006559e+000	 2.616789326589043e+000	 9.758807061907302e+000
 1.438686276770817e+000	 2.632524057386552e+000	 9.701856274344662e+000
 1.410137403538683e+000	 2.647926320568034e+000	 9.647054330507393e+000
 1.381470007436487e+000	 2.662994938263464e+000	 9.585947594286404e+000
 1.352689784332277e+000	 2.677728859214781e+000	 9.511256331807168e+000
 1.323802432407685e+000	 2.692127158366396e+000	 9.420559572364398e+000
 1.294813648761876e+000	 2.706189036347608e+000	 9.339363199579111e+000
 1.265729126051403e+000	 2.719913818848843e+000	 9.272415660836384e+000
 1.236554549169694e+000	 2.733300955893768e+000	 9.215301072450089e+000
 1.207295591969811e+000	 2.746350021009535e+000	 9.164392705669050e+000
 1.177957914033923e+000	 2.759060710297422e+000	 9.116777325694034e+000
 1.480150619017134e+000	 2.640047350121267e+000	 9.753940591976006e+000
 1.451473320400976e+000	 2.655921931206211e+000	 9.697498790627344e+000
 1.422670704783244e+000	 2.671461089702981e+000	 9.644290382460886e+000
 1.393748512864127e+000	 2.686663637272641e+000	 9.588722162616330e+000
 1.364712491136561e+000	 2.701528513313543e+000	 9.523832567560323e+000
 1.335568388427636e+000	 2.716054784548201e+000	 9.441877971229467e+000
 1.306321952472348e+000	 2.730241644501108e+000	 9.355096208239212e+000
 1.276978926523597e+000	 2.744088412869419e+000	 9.284183010576102e+000
 1.247545046002160e+000	 2.757594534788612e+000	 9.224875823066332e+000
 1.218026035190319e+000	 2.770759579995338e+000	 9.173574165769738e+000
 1.188427603972625e+000	 2.783583241889828e+000	 9.127399189890211e+000
 1.493190301027610e+000	 2.663305373653324e+000	 9.748748850350669e+000
 1.464260364031049e+000	 2.679319805025680e+000	 9.692713882110450e+000
 1.435204006027738e+000	 2.694995858837727e+000	 9.644194860191419e+000
 1.406027018291719e+000	 2.710332336281614e+000	 9.595379958999338e+000
 1.376735197940822e+000	 2.725328167412109e+000	 9.538471310717631e+000
 1.347334344447589e+000	 2.739982410729826e+000	 9.465781760712405e+000
 1.317830256182847e+000	 2.754294252654444e+000	 9.376286814254861e+000
 1.288228726995841e+000	 2.768263006889848e+000	 9.299251375011934e+000
 1.258535542834697e+000	 2.781888113683325e+000	 9.235704267803047e+000
 1.228756478410915e+000	 2.795169138981031e+000	 9.182174657026557e+000
 1.198897293911427e+000	 2.808105773482135e+000	 9.135917445422050e+000
 1.506229983037888e+000	 2.686563397185296e+000	 9.746053637331817e+000
 1.477047407660950e+000	 2.702717678845036e+000	 9.692970288467127e+000
 1.447737307272094e+000	 2.718530627972343e+000	 9.648313721374572e+000
 1.418305523719217e+000	 2.734001035290450e+000	 9.604362452956147e+000
 1.388757904745038e+000	 2.749127821510537e+000	 9.553483126761588e+000
 1.359100300467546e+000	 2.763910036911314e+000	 9.488154218072232e+000
 1.329338559893399e+000	 2.778346860807648e+000	 9.401414736189501e+000
 1.299478527468185e+000	 2.792437600910155e+000	 9.316343721525298e+000
 1.269526039667374e+000	 2.806181692577922e+000	 9.246739339716859e+000
 1.239486921631686e+000	 2.819578697966607e+000	 9.189362185697169e+000
 1.209366983850430e+000	 2.832628305074326e+000	 9.141698537204711e+000
 1.519269665047867e+000	 2.709821420717266e+000	 9.748971175208906e+000
 1.489834451290593e+000	 2.726115552664356e+000	 9.697504531142009e+000
 1.460270608516245e+000	 2.742065397106899e+000	 9.655015397348107e+000
 1.430584029146575e+000	 2.757669734299212e+000	 9.614053778241255e+000
 1.400780611549183e+000	 2.772927475608878e+000	 9.567258128450089e+000
 1.370866256487507e+000	 2.787837663092711e+000	 9.507379150939842e+000
 1.340846863604030e+000	 2.802399468960756e+000	 9.427301931622118e+000
 1.310728327940679e+000	 2.816612194930360e+000	 9.334043396627513e+000
 1.280516536500265e+000	 2.830475271472410e+000	 9.256777789102296e+000
 1.250217364852722e+000	 2.843988256952066e+000	 9.194133606064908e+000
 1.219836673789734e+000	 2.857150836666380e+000	 9.143924537127674e+000
 1.532309347057451e+000	 2.733079444249318e+000	 9.755983328866721e+000
 1.502621494919892e+000	 2.749513426483720e+000	 9.704749424178766e+000
 1.472803909760124e+000	 2.765600166241469e+000	 9.662752477578607e+000
 1.442862534573746e+000	 2.781338433307961e+000	 9.622919243044661e+000
 1.412803318353237e+000	 2.796727129707190e+000	 9.578264753833272e+000
 1.382632212507476e+000	 2.811765289274062e+000	 9.521916060841962e+000
 1.352355167314767e+000	 2.826452077113804e+000	 9.447134216989873e+000
 1.321978128413372e+000	 2.840786788950489e+000	 9.350814611465140e+000
 1.291507033333439e+000	 2.854768850366804e+000	 9.264479722915151e+000
 1.260947808074111e+000	 2.868397815937405e+000	 9.195333197910873e+000
 1.230306363729441e+000	 2.881673368258283e+000	 9.141610741550071e+000
 1.125609464338406e+000	 2.636448052334516e+000	 9.015062824698298e+000
 1.097501501095708e+000	 2.648272115530094e+000	 8.941537782021364e+000
 1.069329061409152e+000	 2.659772511872570e+000	 8.857715998130029e+000
 1.041097498112028e+000	 2.670949298215834e+000	 8.764429676305008e+000
 1.012812138484053e+000	 2.681802644152406e+000	 8.668212897838577e+000
 9.844782814308749e-001	 2.692332830683794e+000	 8.572044897397181e+000
 9.561011947256430e-001	 2.702540248811464e+000	 8.477778601601424e+000
 9.276861123150281e-001	 2.712425398051369e+000	 8.387428190465284e+000
 8.992382316919289e-001	 2.721988884875083e+000	 8.303180675822837e+000
 8.707627113369547e-001	 2.731231421080581e+000	 8.227347545436281e+000
 8.422646682306207e-001	 2.740153822095873e+000	 8.162331492121094e+000
 1.136079154278112e+000	 2.660970583927155e+000	 9.057652851595062e+000
 1.107709748972663e+000	 2.672904626897555e+000	 8.981879534832112e+000
 1.079275267505267e+000	 2.684511992475504e+000	 8.900157641946317e+000
 1.050781112497805e+000	 2.695792738043705e+000	 8.814393921421086e+000
 1.022232660780904e+000	 2.706747034772115e+000	 8.726013926634840e+000
 9.936352605472041e-001	 2.717375166275937e+000	 8.636723796321968e+000
 9.649942285672726e-001	 2.727677527193472e+000	 8.548516544528424e+000
 9.363148474705654e-001	 2.737654621686848e+000	 8.463554663756534e+000
 9.076023630936984e-001	 2.747307061868639e+000	 8.384175224061174e+000
 8.788619818981297e-001	 2.756635566157504e+000	 8.312842752563524e+000
 8.500988684592170e-001	 2.765640957566034e+000	 8.252116046143701e+000
 1.146548844217417e+000	 2.685493115519782e+000	 9.075488528658161e+000
 1.117917996849190e+000	 2.697537138265089e+000	 9.008165901232722e+000
 1.089221473600947e+000	 2.709251473078593e+000	 8.934696187204954e+000
 1.060464726883158e+000	 2.720636177871812e+000	 8.856237581345855e+000
 1.031653183077356e+000	 2.731691425392141e+000	 8.774299882028009e+000
 1.002792239663169e+000	 2.742417501868468e+000	 8.690678992435382e+000
 9.738872624085796e-001	 2.752814805575940e+000	 8.607455968270930e+000
 9.449435826258267e-001	 2.762883845322851e+000	 8.526887732795712e+000
 9.159664944952384e-001	 2.772625238862780e+000	 8.451406261725577e+000
 8.869612524591194e-001	 2.782039711235068e+000	 8.383572707489849e+000
 8.579330686876658e-001	 2.791128093036881e+000	 8.326044435787722e+000
 1.157018534156420e+000	 2.710015647112380e+000	 9.090729055852703e+000
 1.128126244725395e+000	 2.722169649632665e+000	 9.030668167299085e+000
 1.099167679696300e+000	 2.733990953681790e+000	 8.963763043628459e+000
 1.070148341268192e+000	 2.745479617700091e+000	 8.891204599934902e+000
 1.041073705373506e+000	 2.756635816012397e+000	 8.814538735488583e+000
 1.011949218778857e+000	 2.767459837461291e+000	 8.735612690036206e+000
 9.827802962496399e-001	 2.777952083958754e+000	 8.656509227606437e+000
 9.535723177808729e-001	 2.788113068959254e+000	 8.579561166870970e+000
 9.243306258965952e-001	 2.797943415857371e+000	 8.507228893252162e+000
 8.950605230199542e-001	 2.807443856313125e+000	 8.442113903181610e+000
 8.657672689159829e-001	 2.816615228508264e+000	 8.386914575253822e+000
 1.167488224095222e+000	 2.734538178704933e+000	 9.104483368634741e+000
 1.138334492601386e+000	 2.746802161000247e+000	 9.049894548834239e+000
 1.109113885791435e+000	 2.758730434285045e+000	 8.988090304311593e+000
 1.079831955653012e+000	 2.770323057528476e+000	 8.920249052914572e+000
 1.050494227669453e+000	 2.781580206632806e+000	 8.847905576666186e+000
 1.021106197894358e+000	 2.792502173054308e+000	 8.772896106748359e+000
 9.916733300905299e-001	 2.803089362341805e+000	 8.697293404815031e+000
 9.622010529357666e-001	 2.813342292595933e+000	 8.623414049109822e+000
 9.326947572978148e-001	 2.823261592852275e+000	 8.553705278301237e+000
 9.031597935806648e-001	 2.832848001391535e+000	 8.490752751618871e+000
 8.736014691441837e-001	 2.842102363980035e+000	 8.437238245319973e+000
 1.177957914033923e+000	 2.759060710297422e+000	 9.116777325694033e+000
 1.148542740477269e+000	 2.771434672367803e+000	 9.066090074466464e+000
 1.119060091886461e+000	 2.783469914888308e+000	 9.008140411665298e+000
 1.089515570037725e+000	 2.795166497356900e+000	 8.944050137251828e+000
 1.059914749965296e+000	 2.806524597253285e+000	 8.875296625048943e+000
 1.030263177009759e+000	 2.817544508647425e+000	 8.803656673307907e+000
 1.000566363931325e+000	 2.828226640724981e+000	 8.731142414708417e+000
 9.708297880905690e-001	 2.838571516232765e+000	 8.660001957968039e+000
 9.410588886989444e-001	 2.848579769847359e+000	 8.592614912612282e+000
 9.112590641412821e-001	 2.858252146470149e+000	 8.531494989144688e+000
 8.814356693722830e-001	 2.867589499452040e+000	 8.479249650408818e+000
 1.188427603972625e+000	 2.783583241889828e+000	 9.127399189890211e+000
 1.158750988353152e+000	 2.796067183735299e+000	 9.079253482940835e+000
 1.129006297981487e+000	 2.808209395491530e+000	 9.024122059881584e+000
 1.099199184422435e+000	 2.820009937185299e+000	 8.963027089483653e+000
 1.069335272261134e+000	 2.831468987873751e+000	 8.897343177567912e+000
 1.039420156125150e+000	 2.842586844240541e+000	 8.828740017906291e+000
 1.009459397772102e+000	 2.853363919108170e+000	 8.759119060992758e+000
 9.794585232453414e-001	 2.863800739869622e+000	 8.690608108258854e+000
 9.494230201000294e-001	 2.873897946842485e+000	 8.625464876846561e+000
 9.193583347018369e-001	 2.883656291548827e+000	 8.566075058403774e+000
 8.892698696002970e-001	 2.893076634924131e+000	 8.514913960924890e+000
 1.198897293911427e+000	 2.808105773482135e+000	 9.135917445422050e+000
 1.168959236229143e+000	 2.820699695102704e+000	 9.089154042297508e+000
 1.138952504076620e+000	 2.832948876094660e+000	 9.036006024683505e+000
 1.108882798807248e+000	 2.844853377013607e+000	 8.977354037350196e+000
 1.078755794557065e+000	 2.856413378494124e+000	 8.914425496064229e+000
 1.048577135240618e+000	 2.867629179833561e+000	 8.848736071383481e+000
 1.018352431612936e+000	 2.878501197491262e+000	 8.782037137080618e+000
 9.880872584001462e-001	 2.889029963506384e+000	 8.716254454197548e+000
 9.577871515011172e-001	 2.899216123837520e+000	 8.653500055374293e+000
 9.274576052623599e-001	 2.909060436627422e+000	 8.595965468305243e+000
 8.971040698282408e-001	 2.918563770396158e+000	 8.545935841763027e+000
 1.209366983850430e+000	 2.832628305074326e+000	 9.141698537204713e+000
 1.179167484105347e+000	 2.845332206469981e+000	 9.095348295670211e+000
 1.148898710171969e+000	 2.857688356697653e+000	 9.043540924766075e+000
 1.118566413192270e+000	 2.869696816841759e+000	 8.986974788772033e+000
 1.088176316853187e+000	 2.881357769114321e+000	 8.926686638262273e+000
 1.057734114356251e+000	 2.892671515426387e+000	 8.863991957109862e+000
 1.027245465453903e+000	 2.903638475874144e+000	 8.800431758567934e+000
 9.967159935550445e-001	 2.914259187142925e+000	 8.737712756764720e+000
 9.661512829022537e-001	 2.924534300832329e+000	 8.677713326830340e+000
 9.355568758228816e-001	 2.934464581705792e+000	 8.622386133340516e+000
 9.049382700561295e-001	 2.944050905867970e+000	 8.573767967826852e+000
 1.219836673789734e+000	 2.857150836666380e+000	 9.143924537127674e+000
 1.189375731981873e+000	 2.869964717837100e+000	 9.097196738114286e+000
 1.158844916267644e+000	 2.882427837300455e+000	 9.046268919033039e+000
 1.128250027577606e+000	 2.894540256669687e+000	 8.991617561937737e+000
 1.097596839149599e+000	 2.906302159734262e+000	 8.934046235644122e+000
 1.066891093472140e+000	 2.917713851018923e+000	 8.874624833966701e+000
 1.036138499295079e+000	 2.928775754256705e+000	 8.814635776840557e+000
 1.005344728710099e+000	 2.939488410779119e+000	 8.755515617531614e+000
 9.745154143034851e-001	 2.949852477826773e+000	 8.698855728134513e+000
 9.436561463834331e-001	 2.959868726783791e+000	 8.646313693498268e+000
 9.127724702839787e-001	 2.969538041339417e+000	 8.599619527339005e+000
 1.230306363729441e+000	 2.881673368258283e+000	 9.141610741550071e+000
 1.199583979858828e+000	 2.894597229204027e+000	 9.093880428572554e+000
 1.168791122363753e+000	 2.907167317903020e+000	 9.043541343453732e+000
 1.137933641963362e+000	 2.919383696497329e+000	 8.990809660008855e+000
 1.107017361446401e+000	 2.931246550353865e+000	 8.936214221387957e+000
 1.076048072588372e+000	 2.942756186611073e+000	 8.880534695221074e+000
 1.045031533136541e+000	 2.953913032638836e+000	 8.824747236142443e+000
 1.013973463865370e+000	 2.964717634414845e+000	 8.769977585875278e+000
 9.828795457048584e-001	 2.975170654820722e+000	 8.717446593558023e+000
 9.517554169440449e-001	 2.985272871861279e+000	 8.668490815933808e+000
 9.206066705118042e-001	 2.995025176810348e+000	 8.624464713671737e+000
 8.422646682306207e-001	 2.740153822095873e+000	 8.162331492121094e+000
 8.137491750310451e-001	 2.748757004534392e+000	 8.109031577511599e+000
 7.852212565530335e-001	 2.757041982326296e+000	 8.063849493207384e+000
 7.566858887956514e-001	 2.765009866903514e+000	 8.022533497034459e+000
 7.281479971706540e-001	 2.772661865956894e+000	 7.980878236377995e+000
 6.996124543915533e-001	 2.779999281457081e+000	 7.934714968701444e+000
 6.710840784416883e-001	 2.787023507627656e+000	 7.879903546640705e+000
 6.425676306221918e-001	 2.793736028873866e+000	 7.820671644016882e+000
 6.140678136806004e-001	 2.800138417670240e+000	 7.770768961691206e+000
 5.855892700207175e-001	 2.806232332410390e+000	 7.732431001347201e+000
 5.571365799941845e-001	 2.812019515222284e+000	 7.708269320138670e+000
 8.500988684592170e-001	 2.765640957566034e+000	 8.252116046143701e+000
 8.213181426176583e-001	 2.774324161233401e+000	 8.202683737700372e+000
 7.925248759258222e-001	 2.782686200520694e+000	 8.160586564481468e+000
 7.637240906662782e-001	 2.790728197197665e+000	 8.121513342149164e+000
 7.349207580637582e-001	 2.798451370188332e+000	 8.081210790264903e+000
 7.061197961545841e-001	 2.805857033573426e+000	 8.035475334808341e+000
 6.773260677358410e-001	 2.812946594544702e+000	 7.980146809394688e+000
 6.485443783951879e-001	 2.819721551314391e+000	 7.915964493936924e+000
 6.197794746220587e-001	 2.826183490983165e+000	 7.859661954794007e+000
 5.910360420008765e-001	 2.832334087369945e+000	 7.815667671986076e+000
 5.623187034867332e-001	 2.838175098806854e+000	 7.787494175090969e+000
 8.579330686876658e-001	 2.791128093036881e+000	 8.326044435787722e+000
 8.288871102041550e-001	 2.799891317933140e+000	 8.279290136011678e+000
 7.998284952985155e-001	 2.808330418715853e+000	 8.239070178997885e+000
 7.707622925368254e-001	 2.816446527492603e+000	 8.201089690553010e+000
 7.416935189567913e-001	 2.824240874420564e+000	 8.161121717032042e+000
 7.126271379175478e-001	 2.831714785690565e+000	 8.115000615416584e+000
 6.835680570299277e-001	 2.838869681462531e+000	 8.058617492122318e+000
 6.545211261681154e-001	 2.845707073755670e+000	 7.990152318356812e+000
 6.254911355634437e-001	 2.852228564296800e+000	 7.927036783339463e+000
 5.964828139809565e-001	 2.858435842330152e+000	 7.877015162486140e+000
 5.675008269791978e-001	 2.864330682391994e+000	 7.844525529761069e+000
 8.657672689159829e-001	 2.816615228508264e+000	 8.386914575253822e+000
 8.364560777905351e-001	 2.825458474633451e+000	 8.341876857158768e+000
 8.071321146711011e-001	 2.833974636911618e+000	 8.302565417689973e+000
 7.778004944072667e-001	 2.842164857788169e+000	 8.264773265898555e+000
 7.484662798497168e-001	 2.850030378653444e+000	 8.224369744070547e+000
 7.191344796803980e-001	 2.857572537808359e+000	 8.177295521304588e+000
 6.898100463238918e-001	 2.864792768381011e+000	 8.119559802311020e+000
 6.604978739409093e-001	 2.871692596197583e+000	 8.047828015684198e+000
 6.312027965046840e-001	 2.878273637611040e+000	 7.977849748207464e+000
 6.019295859608801e-001	 2.884537597290914e+000	 7.921798631464736e+000
 5.726829504714950e-001	 2.890486265977629e+000	 7.885052674532658e+000
 8.736014691441837e-001	 2.842102363980035e+000	 8.437238245319973e+000
 8.440250453767998e-001	 2.851025631334182e+000	 8.393188592259934e+000
 8.144357340435665e-001	 2.859618855107834e+000	 8.354061292324897e+000
 7.848386962775786e-001	 2.867883188084215e+000	 8.315804709715332e+000
 7.552390407424986e-001	 2.875819882886823e+000	 8.274450238119835e+000
 7.256418214430880e-001	 2.883430289926668e+000	 8.226108924234570e+000
 6.960520356176770e-001	 2.890715855300007e+000	 8.166970490043042e+000
 6.664746217135055e-001	 2.897678118640007e+000	 8.093305163519974e+000
 6.369144574457066e-001	 2.904318710925770e+000	 8.016773759988917e+000
 6.073763579405679e-001	 2.910639352252135e+000	 7.955060053006618e+000
 5.778650739635411e-001	 2.916641849563674e+000	 7.914486020035983e+000
 8.814356693722830e-001	 2.867589499452040e+000	 8.479249650408818e+000
 8.515940129629499e-001	 2.876592788035181e+000	 8.435696387805219e+000
 8.217393534158993e-001	 2.885263073304349e+000	 8.396277735405867e+000
 7.918768981477350e-001	 2.893601518380587e+000	 8.357160857075918e+000
 7.620118016351005e-001	 2.901609387120555e+000	 8.314600807239110e+000
 7.321491632055712e-001	 2.909288042045349e+000	 8.264938821413736e+000
 7.022940249112275e-001	 2.916638942219389e+000	 8.204603206701901e+000
 6.724513694858385e-001	 2.923663641082820e+000	 8.130112444939101e+000
 6.426261183864400e-001	 2.930363784240881e+000	 8.048207248680296e+000
 6.128231299199424e-001	 2.936741107213719e+000	 7.981565761630103e+000
 5.830471974552516e-001	 2.942797433150047e+000	 7.937963371944568e+000
 8.892698696002970e-001	 2.893076634924131e+000	 8.514913960924890e+000
 8.591629805489868e-001	 2.902159944736293e+000	 8.471605387986395e+000
 8.290429727880866e-001	 2.910907291501006e+000	 8.431672590492171e+000
 7.989151000177117e-001	 2.919319848677136e+000	 8.391561018932787e+000
 7.687845625274860e-001	 2.927398891354493e+000	 8.347806915134935e+000
 7.386565049678001e-001	 2.935145794164261e+000	 8.297037317658230e+000
 7.085360142044868e-001	 2.942562029139025e+000	 8.235972886621640e+000
 6.784281172578444e-001	 2.949649163525900e+000	 8.161433129238764e+000
 6.483377793268119e-001	 2.956408857556268e+000	 8.076283107331676e+000
 6.182699018989245e-001	 2.962842862175569e+000	 8.005814037487275e+000
 5.882293209465432e-001	 2.968953016736668e+000	 7.960356253079446e+000
 8.971040698282408e-001	 2.918563770396158e+000	 8.545935841763027e+000
 8.667319481349111e-001	 2.927727101437364e+000	 8.502862570794656e+000
 8.363465921601164e-001	 2.936551509697653e+000	 8.462448602912161e+000
 8.059533018874838e-001	 2.945038178973707e+000	 8.421473270719396e+000
 7.755573234196188e-001	 2.953188395588489e+000	 8.376807507089676e+000
 7.451638467297289e-001	 2.961003546283265e+000	 8.325415624177573e+000
 7.147780034973986e-001	 2.968485116058781e+000	 8.264360150276170e+000
 6.844048650294586e-001	 2.975634685969126e+000	 8.190809272694494e+000
 6.540494402667507e-001	 2.982453930871813e+000	 8.104877667571087e+000
 6.237166738774358e-001	 2.988944617137589e+000	 8.032042729335275e+000
 5.934114444373317e-001	 2.995108600323453e+000	 7.986276269927810e+000
 9.049382700561295e-001	 2.944050905867970e+000	 8.573767967826852e+000
 8.743009157207239e-001	 2.953294258138242e+000	 8.531164478266911e+000
 8.436502115319762e-001	 2.962195727894138e+000	 8.490560410846964e+000
 8.129915037570263e-001	 2.970756509270149e+000	 8.449120746837570e+000
 7.823300843114625e-001	 2.978977899822394e+000	 8.404100646789308e+000
 7.516711884913101e-001	 2.986861298402220e+000	 8.352849072974939e+000
 7.210199927899071e-001	 2.994408202978527e+000	 8.292815727705083e+000
 6.903816128006164e-001	 3.001620208412377e+000	 8.221560820844744e+000
 6.597611012061844e-001	 3.008499004187415e+000	 8.137619705074375e+000
 6.291634458553985e-001	 3.015046372099683e+000	 8.064236912991591e+000
 5.985935679275339e-001	 3.021264183910321e+000	 8.020081520884281e+000
 9.127724702839787e-001	 2.969538041339417e+000	 8.599619527339005e+000
 8.818698833064261e-001	 2.978861414838771e+000	 8.557964941231383e+000
 8.509538309036534e-001	 2.987839946090302e+000	 8.517721536763750e+000
 8.200297056263139e-001	 2.996474839566310e+000	 8.476487940677629e+000
 7.891028452029805e-001	 3.004767404056062e+000	 8.431949163396729e+000
 7.581785302524970e-001	 3.012719050520981e+000	 8.381882145924585e+000
 7.272619820819561e-001	 3.020331289898130e+000	 8.324164900960453e+000
 6.963583605712533e-001	 3.027605730855529e+000	 8.256788724889562e+000
 6.654727621450409e-001	 3.034544077502960e+000	 8.177899473181252e+000
 6.346102178327339e-001	 3.041148127061754e+000	 8.106136583139072e+000
 6.037756914170657e-001	 3.047419767497193e+000	 8.065883043706416e+000
 9.206066705118042e-001	 2.995025176810348e+000	 8.624464713671737e+000
 8.894388508920191e-001	 3.004428571538802e+000	 8.584482798882798e+000
 8.582574502751356e-001	 3.013484164285996e+000	 8.545411379177978e+000
 8.270679074953227e-001	 3.022193169862039e+000	 8.505327009843303e+000
 7.958756060941372e-001	 3.030556908289346e+000	 8.462386308260419e+000
 7.646858720132438e-001	 3.038576802639415e+000	 8.414833517653587e+000
 7.335039713734896e-001	 3.046254376817458e+000	 8.361011964442362e+000
 7.023351083413049e-001	 3.053591253298464e+000	 8.299378847284494e+000
 6.711844230832484e-001	 3.060589150818338e+000	 8.228522780916400e+000
 6.400569898093635e-001	 3.067249882023707e+000	 8.161244376495684e+000
 6.089578149058431e-001	 3.073575351083983e+000	 8.127551299847962e+000
 5.571365799941845e-001	 2.812019515222284e+000	 7.708269320138672e+000
 5.287185198196900e-001	 2.817500990623337e+000	 7.693134674511775e+000
 5.003352638129517e-001	 2.822679553656821e+000	 7.679925509281951e+000
 4.719911884326337e-001	 2.827557185699814e+000	 7.668765292853674e+000
 4.436906022608280e-001	 2.832135942759818e+000	 7.659766363961494e+000
 4.154377447072045e-001	 2.836417953168350e+000	 7.652930208976451e+000
 3.872367847946145e-001	 2.840405415259060e+000	 7.648057326724331e+000
 3.590918200257314e-001	 2.844100595033316e+000	 7.644665266547862e+000
 3.310068753301844e-001	 2.847505823816278e+000	 7.641913466714009e+000
 3.029859020915368e-001	 2.850623495906301e+000	 7.638533572878842e+000
 2.750327772533645e-001	 2.853456066220491e+000	 7.632763978987889e+000
 5.623187034867332e-001	 2.838175098806854e+000	 7.787494175090971e+000
 5.336363169290086e-001	 2.843707559340700e+000	 7.768951632805617e+000
 5.049890582647981e-001	 2.848934290012431e+000	 7.751167981439149e+000
 4.763813446597570e-001	 2.853857290628595e+000	 7.734064274549508e+000
 4.478175247716248e-001	 2.858478636320324e+000	 7.717562516911652e+000
 4.193018774423222e-001	 2.862800475215494e+000	 7.701495210423471e+000
 3.908386104722579e-001	 2.866825026095203e+000	 7.685524662317434e+000
 3.624318594764292e-001	 2.870554576037689e+000	 7.669070517807770e+000
 3.340856868217608e-001	 2.873991478052573e+000	 7.651244025819779e+000
 3.058040806450334e-001	 2.877138148708408e+000	 7.630787604896069e+000
 2.775909539506486e-001	 2.879997065756335e+000	 7.606018345475191e+000
 5.675008269791978e-001	 2.864330682391994e+000	 7.844525529761069e+000
 5.385541140382393e-001	 2.869914128058542e+000	 7.822291429379875e+000
 5.096428527165515e-001	 2.875189026368409e+000	 7.799693511396247e+000
 4.807715008867807e-001	 2.880157395557621e+000	 7.776570160720713e+000
 4.519444472823133e-001	 2.884821329880952e+000	 7.752768790914409e+000
 4.231660101773191e-001	 2.889182997262622e+000	 7.728065393074024e+000
 3.944404361497635e-001	 2.893244636931202e+000	 7.702094034064024e+000
 3.657718989269654e-001	 2.897008557041791e+000	 7.674284635519865e+000
 3.371644983131448e-001	 2.900477132288479e+000	 7.643807416992894e+000
 3.086222591982989e-001	 2.903652801510019e+000	 7.609522451200551e+000
 2.801491306476536e-001	 2.906538065291594e+000	 7.569932855249840e+000
 5.726829504714950e-001	 2.890486265977629e+000	 7.885052674532658e+000
 5.434719111472928e-001	 2.896120696776794e+000	 7.859215630455311e+000
 5.142966471681203e-001	 2.901443762724703e+000	 7.831954581827008e+000
 4.851616571136129e-001	 2.906457500486858e+000	 7.803130560127690e+000
 4.560713697928022e-001	 2.911164023441680e+000	 7.772617461886818e+000
 4.270301429121070e-001	 2.915565519309739e+000	 7.740232395663957e+000
 3.980422618270485e-001	 2.919664247767075e+000	 7.705676177543014e+000
 3.691119383772667e-001	 2.923462538045660e+000	 7.668482168442873e+000
 3.402433098042760e-001	 2.926962786524052e+000	 7.627971704221010e+000
 3.114404377512897e-001	 2.930167454311213e+000	 7.583214440623583e+000
 2.827073073443562e-001	 2.933079064826362e+000	 7.532992018186276e+000
 5.778650739635411e-001	 2.916641849563674e+000	 7.914486020035983e+000
 5.483897082560818e-001	 2.922327265495393e+000	 7.885514286623440e+000
 5.189504416194137e-001	 2.927698499081265e+000	 7.854141604953363e+000
 4.895518133401608e-001	 2.932757605416278e+000	 7.820342424832867e+000
 4.601982923030000e-001	 2.937506717002495e+000	 7.784103405072793e+000
 4.308942756465977e-001	 2.941948041356846e+000	 7.745365415944672e+000
 4.016440875040310e-001	 2.946083858602847e+000	 7.703975901323015e+000
 3.724519778272609e-001	 2.949916519049338e+000	 7.659649647968132e+000
 3.433221212950947e-001	 2.953448440759354e+000	 7.611936073114288e+000
 3.142586163039616e-001	 2.956682107112062e+000	 7.560191219429576e+000
 2.852654840407330e-001	 2.959620064360732e+000	 7.503552737001125e+000
 5.830471974552516e-001	 2.942797433150047e+000	 7.937963371944568e+000
 5.533075053645181e-001	 2.948533834214270e+000	 7.906711061627244e+000
 5.236042360703406e-001	 2.953953235438047e+000	 7.872187055062910e+000
 4.939419695663320e-001	 2.959057710345844e+000	 7.834555322626709e+000
 4.643252148128148e-001	 2.963849410563381e+000	 7.793986629790934e+000
 4.347584083807031e-001	 2.968330563403949e+000	 7.750613116256610e+000
 4.052459131806289e-001	 2.972503469438534e+000	 7.704493457838257e+000
 3.757920172768744e-001	 2.976370500052862e+000	 7.655586504661174e+000
 3.464009327855405e-001	 2.979934094994439e+000	 7.603731359293248e+000
 3.170767948562713e-001	 2.983196759912645e+000	 7.548631943530893e+000
 2.878236607367615e-001	 2.986161063894799e+000	 7.489844201061925e+000
 5.882293209465432e-001	 2.968953016736668e+000	 7.960356253079446e+000
 5.582253024725135e-001	 2.974740402933362e+000	 7.928068414553028e+000
 5.282580305208096e-001	 2.980207971794995e+000	 7.891769657992255e+000
 4.983321257920345e-001	 2.985357815275526e+000	 7.851874767905429e+000
 4.684521373221553e-001	 2.990192104124325e+000	 7.808794872529526e+000
 4.386225411143345e-001	 2.994713085451048e+000	 7.762905586233508e+000
 4.088477388567599e-001	 2.998923080274164e+000	 7.714525969540494e+000
 3.791320567260345e-001	 3.002824481056273e+000	 7.663906038050673e+000
 3.494797442755527e-001	 3.006419749229364e+000	 7.611220628299614e+000
 3.198949734081747e-001	 3.009711412713036e+000	 7.556567521255539e+000
 2.903818374324179e-001	 3.012702063428656e+000	 7.499967830991381e+000
 5.934114444373317e-001	 2.995108600323453e+000	 7.986276269927809e+000
 5.631430995799795e-001	 3.000946971652601e+000	 7.954592832172177e+000
 5.329118249707298e-001	 3.006462708152062e+000	 7.918318634095124e+000
 5.027222820171757e-001	 3.011657920205289e+000	 7.878165607426758e+000
 4.725790598309299e-001	 3.016534797685309e+000	 7.834826244820784e+000
 4.424866738474040e-001	 3.021095607498148e+000	 7.788956359141872e+000
 4.124495645323420e-001	 3.025342691109753e+000	 7.741168906943288e+000
 3.824720961746682e-001	 3.029278462059609e+000	 7.692036436412895e+000
 3.525585557650715e-001	 3.032905403464190e+000	 7.642099803878597e+000
 3.227131519596281e-001	 3.036226065513310e+000	 7.591880903571940e+000
 2.929400141276792e-001	 3.039243062962394e+000	 7.541897270957613e+000
 5.985935679275339e-001	 3.021264183910321e+000	 8.020081520884281e+000
 5.680608966868284e-001	 3.027153540371921e+000	 7.991040108388205e+000
 5.375656194200102e-001	 3.032717444509198e+000	 7.957017991451950e+000
 5.071124382416632e-001	 3.037958025135104e+000	 7.919055457615773e+000
 4.767059823390474e-001	 3.042877491246323e+000	 7.878151932572247e+000
 4.463508065798235e-001	 3.047478129545251e+000	 7.835264478606983e+000
 4.160513902072929e-001	 3.051762301945324e+000	 7.791317615415874e+000
 3.858121356227026e-001	 3.055732443062912e+000	 7.747221843518272e+000
 3.556373672540364e-001	 3.059391057698973e+000	 7.703898341700624e+000
 3.255313305105878e-001	 3.062740718313544e+000	 7.662307418901666e+000
 2.954981908225223e-001	 3.065784062496107e+000	 7.623478425764199e+000
 6.037756914170657e-001	 3.047419767497193e+000	 8.065883043706416e+000
 5.729786937929718e-001	 3.053360109091257e+000	 8.041920667961607e+000
 5.422194138685594e-001	 3.058972180866353e+000	 8.012810866301376e+000
 5.115025944654048e-001	 3.064258130064935e+000	 7.979938190322946e+000
 4.808329048464157e-001	 3.069220184807347e+000	 7.944618943764792e+000
 4.502149393115045e-001	 3.073860651592361e+000	 7.908116612693295e+000
 4.196532158815305e-001	 3.078181912780898e+000	 7.871668887796405e+000
 3.891521750700649e-001	 3.082186424066220e+000	 7.836523469520305e+000
 3.587161787423874e-001	 3.085876711933772e+000	 7.803979945792003e+000
 3.283495090610099e-001	 3.089255371113814e+000	 7.775435149832747e+000
 2.980563675169238e-001	 3.092325062029892e+000	 7.752429540044613e+000
 6.089578149058431e-001	 3.073575351083983e+000	 8.127551299847962e+000
 5.778964908983216e-001	 3.079566677810540e+000	 8.111504931871263e+000
 5.468732083162867e-001	 3.085226917223479e+000	 8.090403907878978e+000
 5.158927506883084e-001	 3.090558234994752e+000	 8.065977464147297e+000
 4.849598273529440e-001	 3.095562878368370e+000	 8.039852901632516e+000
 4.540790720423593e-001	 3.100243173639482e+000	 8.013589212521746e+000
 4.232550415549730e-001	 3.104601523616498e+000	 7.988722580092399e+000
 3.924922145166819e-001	 3.108640405069572e+000	 7.966820743353555e+000
 3.617949902300640e-001	 3.112362366168643e+000	 7.949543325130992e+000
 3.311676876108508e-001	 3.115770023914197e+000	 7.938705349244842e+000
 3.006145442108607e-001	 3.118866061563839e+000	 7.936341317055998e+000
 2.750327772533645e-001	 2.853456066220491e+000	 7.632763978987892e+000
 2.471471351279563e-001	 2.856006409498290e+000	 7.626386299075830e+000
 2.193369495812531e-001	 2.858276650234000e+000	 7.624670527615703e+000
 1.916059273113746e-001	 2.860269412912185e+000	 7.630057187641921e+000
 1.639576959960275e-001	 2.861987373296846e+000	 7.644107246986180e+000
 1.363958037885802e-001	 2.863433256073065e+000	 7.667434535819451e+000
 1.089237188885891e-001	 2.864609832501104e+000	 7.699637043801513e+000
 8.154482918534663e-002	 2.865519918085287e+000	 7.739226458196512e+000
 5.426244197296083e-002	 2.866166370259814e+000	 7.783555403947742e+000
 2.707978373541613e-002	 2.866552086093679e+000	 7.828741946262490e+000
 0.000000000000000e+000	 2.866680000016666e+000	 7.869591001121203e+000
 2.775909539506486e-001	 2.879997065756335e+000	 7.606018345475183e+000
 2.494459376495118e-001	 2.882571130674752e+000	 7.578347585616399e+000
 2.213770797753014e-001	 2.884862487718647e+000	 7.552142330217611e+000
 1.933881215034428e-001	 2.886873785783859e+000	 7.529250099257189e+000
 1.654827242539523e-001	 2.888607725522634e+000	 7.510752020207864e+000
 1.376644691828235e-001	 2.890067056963326e+000	 7.496902394248244e+000
 1.099368567485598e-001	 2.891254577142689e+000	 7.487066327221243e+000
 8.230330635240611e-002	 2.892173127753059e+000	 7.479654735714841e+000
 5.476715605077925e-002	 2.892825592806658e+000	 7.472056146916151e+000
 2.733166233832862e-002	 2.893214896319162e+000	 7.460564819015731e+000
 0.000000000000000e+000	 2.893344000014533e+000	 7.440304805053700e+000
 2.801491306476536e-001	 2.906538065291594e+000	 7.569932855249836e+000
 2.517447401707313e-001	 2.909135851850559e+000	 7.526175371613259e+000
 2.234172099689544e-001	 2.911448325202585e+000	 7.481802487343632e+000
 1.951703156950626e-001	 2.913478158654786e+000	 7.438169784253178e+000
 1.670077525113893e-001	 2.915228077747647e+000	 7.395982377339404e+000
 1.389331345765616e-001	 2.916700857852796e+000	 7.355242253490996e+000
 1.109499946080371e-001	 2.917899321783473e+000	 7.315192816014997e+000
 8.306178351902145e-002	 2.918826337420027e+000	 7.274259891080595e+000
 5.527187012824718e-002	 2.919484815352702e+000	 7.229988569562196e+000
 2.758354094103625e-002	 2.919877706543843e+000	 7.178975374915302e+000
 0.000000000000000e+000	 2.920008000011599e+000	 7.116795355514825e+000
 2.827073073443562e-001	 2.933079064826362e+000	 7.532992018186276e+000
 2.540435426916159e-001	 2.935700573025820e+000	 7.478239777861340e+000
 2.254573401622399e-001	 2.938034162685941e+000	 7.421762159735181e+000
 1.969525098862872e-001	 2.940082531525106e+000	 7.364510093259251e+000
 1.685327807684142e-001	 2.941848429972040e+000	 7.306903068100409e+000
 1.402017999698863e-001	 2.943334658741643e+000	 7.248784916230241e+000
 1.119631324671211e-001	 2.944544066423636e+000	 7.189375894329579e+000
 8.382026068528964e-002	 2.945479547086380e+000	 7.127220264903096e+000
 5.577658420544564e-002	 2.946144037898136e+000	 7.060128701461456e+000
 2.783541954358854e-002	 2.946540516767923e+000	 6.985114969782868e+000
 0.000000000000000e+000	 2.946672000008066e+000	 6.898326457209933e+000
 2.852654840407330e-001	 2.959620064360732e+000	 7.503552737001125e+000
 2.563423452121673e-001	 2.962265294200649e+000	 7.442805375718923e+000
 2.274974703551856e-001	 2.964620000168841e+000	 7.380050084275827e+000
 1.987347040771700e-001	 2.966686904394960e+000	 7.315906450227729e+000
 1.700578090251024e-001	 2.968468782195969e+000	 7.250585088781244e+000
 1.414704653628895e-001	 2.969968459630035e+000	 7.183852587543447e+000
 1.129762703259115e-001	 2.971188811063356e+000	 7.114991796947737e+000
 8.457873785130782e-002	 2.972132756752305e+000	 7.042756603471430e+000
 5.628129828245580e-002	 2.972803260443156e+000	 6.965320459800574e+000
 2.808729814603493e-002	 2.973203326991598e+000	 6.880218082758578e+000
 0.000000000000000e+000	 2.973336000004133e+000	 6.784279862367650e+000
 2.878236607367615e-001	 2.986161063894799e+000	 7.489844201061925e+000
 2.586411477323866e-001	 2.988830015375152e+000	 7.428030793616206e+000
 2.295376005478193e-001	 2.991205837651410e+000	 7.364611878166849e+000
 2.005168982677644e-001	 2.993291277264493e+000	 7.299934825781651e+000
 1.715828372815295e-001	 2.995089134419591e+000	 7.234064282915436e+000
 1.427391307556633e-001	 2.996602260518139e+000	 7.166757047844248e+000
 1.139894081845085e-001	 2.997833555702813e+000	 7.097431286387515e+000
 8.533721501717312e-002	 2.998785966417991e+000	 7.025129159028152e+000
 5.678601235935869e-002	 2.999462482987957e+000	 6.948472079182732e+000
 2.833917674842496e-002	 2.999866137215068e+000	 6.865607969553773e+000
 0.000000000000000e+000	 3.000000000000000e+000	 6.774150029149377e+000
 2.903818374324179e-001	 3.012702063428656e+000	 7.499967830991381e+000
 2.609399502522751e-001	 3.015394736549441e+000	 7.441968376921976e+000
 2.315777307401687e-001	 3.017791675133779e+000	 7.383309402428544e+000
 2.022990924581236e-001	 3.019895650133845e+000	 7.324110779665204e+000
 1.731078655377712e-001	 3.021709486643062e+000	 7.264340025046221e+000
 1.440077961482993e-001	 3.023236061406127e+000	 7.203797927512569e+000
 1.150025460430117e-001	 3.024478300342188e+000	 7.142097455278995e+000
 8.609569218298260e-002	 3.025439176083625e+000	 7.078634944289107e+000
 5.729072643623540e-002	 3.026121705532733e+000	 7.012552730391261e+000
 2.859105535080810e-002	 3.026528947438530e+000	 6.942692545477796e+000
 0.000000000000000e+000	 3.026663999995867e+000	 6.867539157116984e+000
 2.929400141276792e-001	 3.039243062962394e+000	 7.541897270957618e+000
 2.632387527718345e-001	 3.041959457723628e+000	 7.492563897905393e+000
 2.336178609322615e-001	 3.044377512616071e+000	 7.443920181099140e+000
 2.040812866483010e-001	 3.046500023003159e+000	 7.395888568073648e+000
 1.746328937939027e-001	 3.048329838866538e+000	 7.348373982508186e+000
 1.452764615408896e-001	 3.049869862294165e+000	 7.301261077000958e+000
 1.160156839015212e-001	 3.051123044981657e+000	 7.254403646367940e+000
 8.685416934883342e-002	 3.052092385749397e+000	 7.207605131782207e+000
 5.779544051316703e-002	 3.052780928077678e+000	 7.160589316555008e+000
 2.884293395323386e-002	 3.053191757662185e+000	 7.112960484192896e+000
 0.000000000000000e+000	 3.053327999991933e+000	 7.064152482828884e+000
 2.954981908225223e-001	 3.065784062496107e+000	 7.623478425764194e+000
 2.655375552910660e-001	 3.068524178897822e+000	 7.587656312756946e+000
 2.356579911241255e-001	 3.070963350098414e+000	 7.554136872756923e+000
 2.058634808383497e-001	 3.073104395872575e+000	 7.522660311929528e+000
 1.761579220499999e-001	 3.074950191090176e+000	 7.493088950494283e+000
 1.465451269335261e-001	 3.076503663182422e+000	 7.465417026628107e+000
 1.170288217601368e-001	 3.077767789621401e+000	 7.439771483010824e+000
 8.761264651482260e-002	 3.078745595415491e+000	 7.416402589222551e+000
 5.830015459023467e-002	 3.079440150622987e+000	 7.395663435967479e+000
 2.909481255575171e-002	 3.079854567886232e+000	 7.377977519123454e+000
 0.000000000000000e+000	 3.079991999988400e+000	 7.363793819794389e+000
 2.980563675169238e-001	 3.092325062029892e+000	 7.752429540044613e+000
 2.678363578099709e-001	 3.095088900072134e+000	 7.734977562842077e+000
 2.376981213157884e-001	 3.097549187580936e+000	 7.721566791219735e+000
 2.076456750283233e-001	 3.099708768742238e+000	 7.711755222445143e+000
 1.776829503061382e-001	 3.101570543314130e+000	 7.705367756008432e+000
 1.478137923263007e-001	 3.103137464071066e+000	 7.702519530675133e+000
 1.180419596189585e-001	 3.104412534261600e+000	 7.703629003529827e+000
 8.837112368104731e-002	 3.105398805082098e+000	 7.709419542756980e+000
 5.880486866751938e-002	 3.106099373168855e+000	 7.720908501548071e+000
 2.934669115841117e-002	 3.106517378110866e+000	 7.739382935346092e+000
 0.000000000000000e+000	 3.106655999985466e+000	 7.766361328108730e+000
 3.006145442108607e-001	 3.118866061563839e+000	 7.936341317056002e+000
 2.701351603285507e-001	 3.121653621246674e+000	 7.942152417550763e+000
 2.397382515072781e-001	 3.124135025063762e+000	 7.953731472495623e+000
 2.094278692182750e-001	 3.126313141612288e+000	 7.970438880557168e+000
 1.792079785623931e-001	 3.128190895538556e+000	 7.992052226596098e+000
 1.490824577193054e-001	 3.129771264960268e+000	 8.018804190757679e+000
 1.190550974780862e-001	 3.131057278902433e+000	 8.051408893235678e+000
 8.912960084760466e-002	 3.132052014749406e+000	 8.091075360459080e+000
 5.930958274510228e-002	 3.132758595715478e+000	 8.139507007609387e+000
 2.959856976126172e-002	 3.133180188336288e+000	 8.198886240611961e+000
 0.000000000000000e+000	 3.133319999983334e+000	 8.271843500086584e+000
 3.133319999983334e+000	 0.000000000000000e+000	 1.071979582543404e+001
 3.133180188336287e+000	 2.959856976126182e-002	 1.077067267343113e+001
 3.132758595715477e+000	 5.930958274510247e-002	 1.080498860401624e+001
 3.132052014749406e+000	 8.912960084760442e-002	 1.082592987985401e+001
 3.131057278902433e+000	 1.190550974780861e-001	 1.083663182560817e+001
 3.129771264960267e+000	 1.490824577193053e-001	 1.084016218522149e+001
 3.128190895538556e+000	 1.792079785623932e-001	 1.083950873151803e+001
 3.126313141612289e+000	 2.094278692182753e-001	 1.083757101407504e+001
 3.124135025063762e+000	 2.397382515072778e-001	 1.083715606751779e+001
 3.121653621246674e+000	 2.701351603285506e-001	 1.084097784786891e+001
 3.118866061563838e+000	 3.006145442108607e-001	 1.085166010944745e+001
 3.159987999982150e+000	 0.000000000000000e+000	 1.057657672646734e+001
 3.159846998384162e+000	 2.985048614990570e-002	 1.064392360188348e+001
 3.159421817546308e+000	 5.981437253772166e-002	 1.069171218996378e+001
 3.158709222798846e+000	 8.988819179751430e-002	 1.072377816659718e+001
 3.157706020655442e+000	 1.200683873234670e-001	 1.074383426563778e+001
 3.156409061319833e+000	 1.503513134314466e-001	 1.075545479424305e+001
 3.154815241215753e+000	 1.807332355959375e-001	 1.076206485521607e+001
 3.152921505537872e+000	 2.112103307641125e-001	 1.076693415468491e+001
 3.150724850821439e+000	 2.417786877487557e-001	 1.077317520513786e+001
 3.148222327528215e+000	 2.724343077016803e-001	 1.078374567566974e+001
 3.145411042646106e+000	 3.031731046692103e-001	 1.080145458244703e+001
 3.186655999981866e+000	 0.000000000000000e+000	 1.047749348779184e+001
 3.186513808432925e+000	 3.010240253874214e-002	 1.055811583307521e+001
 3.186085039377992e+000	 6.031916233064432e-002	 1.061625413048786e+001
 3.185366430849083e+000	 9.064678274776808e-002	 1.065642018799988e+001
 3.184354762409181e+000	 1.210816771691726e-001	 1.068292774869306e+001
 3.183046857680052e+000	 1.516201691438456e-001	 1.069987831981706e+001
 3.181439586893518e+000	 1.822584926296357e-001	 1.071115218611662e+001
 3.179529869463931e+000	 2.129927923099749e-001	 1.072040447749458e+001
 3.177314676579507e+000	 2.438191239901172e-001	 1.073106608811391e+001
 3.174791033810060e+000	 2.747334550745508e-001	 1.074634918205550e+001
 3.171956023728604e+000	 3.057316651271696e-001	 1.076925695793496e+001
 3.213323999982383e+000	 0.000000000000000e+000	 1.042460209559449e+001
 3.213180618482476e+000	 3.035431892772296e-002	 1.051458584390949e+001
 3.212748261210434e+000	 6.082395212379461e-002	 1.057931317715629e+001
 3.212023638900032e+000	 9.140537369827975e-002	 1.062399499772307e+001
 3.211003504163571e+000	 1.220949670151219e-001	 1.065356569750696e+001
 3.209684654040851e+000	 1.528890248564378e-001	 1.067267046741636e+001
 3.208063932571784e+000	 1.837837496634492e-001	 1.068565829199614e+001
 3.206138233390415e+000	 2.147752538558561e-001	 1.069658049030046e+001
 3.203904502337919e+000	 2.458595602313912e-001	 1.070919458638503e+001
 3.201359740092178e+000	 2.770326024472273e-001	 1.072697322680851e+001
 3.198501004811306e+000	 3.082902255848360e-001	 1.075311779576022e+001
 3.239991999983599e+000	 0.000000000000000e+000	 1.041976356110059e+001
 3.239847428532718e+000	 3.060623531680004e-002	 1.051449416429593e+001
 3.239411483043539e+000	 6.132874191709668e-002	 1.058143139531580e+001
 3.238680846951603e+000	 9.216396464896334e-002	 1.062650440154197e+001
 3.237652245918530e+000	 1.231082568612335e-001	 1.065528384508477e+001
 3.236322450402155e+000	 1.541578805691587e-001	 1.067297087081487e+001
 3.234688278250491e+000	 1.853090066973396e-001	 1.068439228498533e+001
 3.232746597317268e+000	 2.165577154017499e-001	 1.069400179592565e+001
 3.230494328096633e+000	 2.478999964726069e-001	 1.070588708560122e+001
 3.227928446374532e+000	 2.793317498197739e-001	 1.072378241066872e+001
 3.225045985894188e+000	 3.108487860423074e-001	 1.075108636064602e+001
 3.266659999985416e+000	 0.000000000000000e+000	 1.046465187914956e+001
 3.266514238583552e+000	 3.085815170592526e-002	 1.055883277734529e+001
 3.266074704877213e+000	 6.183353171047463e-002	 1.062300103551981e+001
 3.265338055003706e+000	 9.292255559973295e-002	 1.066381932656666e+001
 3.264300987673976e+000	 1.241215467074265e-001	 1.068750612515137e+001
 3.262960246763894e+000	 1.554267362819441e-001	 1.069982652401374e+001
 3.261312623929575e+000	 1.868342637312685e-001	 1.070608981199295e+001
 3.259354961244441e+000	 2.183401769476501e-001	 1.071115365487670e+001
 3.257084153855605e+000	 2.499404327137935e-001	 1.071943463241760e+001
 3.254497152657088e+000	 2.816308971922559e-001	 1.073492481030975e+001
 3.251590966977224e+000	 3.134073464996811e-001	 1.076121395048880e+001
 3.293327999987732e+000	 0.000000000000000e+000	 1.056076160009672e+001
 3.293181048634878e+000	 3.111006809505051e-002	 1.064843216003670e+001
 3.292737926711361e+000	 6.233832150385259e-002	 1.070427107112075e+001
 3.291995263056253e+000	 9.368114655050250e-002	 1.073568588094297e+001
 3.290949729429830e+000	 1.251348365536193e-001	 1.074955027610704e+001
 3.289598043125996e+000	 1.566955919947295e-001	 1.075219694850384e+001
 3.287936969608975e+000	 1.883595207651974e-001	 1.074941780117644e+001
 3.285963325171877e+000	 2.201226384935503e-001	 1.074647132373129e+001
 3.283673979614794e+000	 2.519808689549801e-001	 1.074809687427093e+001
 3.281065858939814e+000	 2.839300445647379e-001	 1.075853552569946e+001
 3.278135948060388e+000	 3.159659069570548e-001	 1.078155705419860e+001
 3.319995999990449e+000	 0.000000000000000e+000	 1.070941503678786e+001
 3.319847858686600e+000	 3.136198448412762e-002	 1.078396798457139e+001
 3.319401148545888e+000	 6.284311129715468e-002	 1.082535342079403e+001
 3.318652471109157e+000	 9.443973750118619e-002	 1.084173112143693e+001
 3.317598471186008e+000	 1.261481263997311e-001	 1.084063317460164e+001
 3.316235839488389e+000	 1.579644477074505e-001	 1.082895911074490e+001
 3.314561315288624e+000	 1.898847777990878e-001	 1.081297897817810e+001
 3.312571689099526e+000	 2.219051000394441e-001	 1.079834418186886e+001
 3.310263805374155e+000	 2.540213051961959e-001	 1.079010580519172e+001
 3.307634565222676e+000	 2.862291919372846e-001	 1.079274005039673e+001
 3.304680929143654e+000	 3.185244674145260e-001	 1.081018034866812e+001
 3.346663999993465e+000	 0.000000000000000e+000	 1.088899903144823e+001
 3.346514668738617e+000	 3.161390087310848e-002	 1.094617738657719e+001
 3.346064370380700e+000	 6.334790109030505e-002	 1.096990001803219e+001
 3.345309679162327e+000	 9.519832845169791e-002	 1.096875568236237e+001
 3.344247212942429e+000	 1.271614162456804e-001	 1.095064133996485e+001
 3.342873635850999e+000	 1.592333034200427e-001	 1.092277765006313e+001
 3.341185660968463e+000	 1.914100348329014e-001	 1.089172660858679e+001
 3.339180053027334e+000	 2.236875615853254e-001	 1.086341157374008e+001
 3.336853631133645e+000	 2.560617414374699e-001	 1.084313993653235e+001
 3.334203271505639e+000	 2.885283393099609e-001	 1.083562872295653e+001
 3.331225910226997e+000	 3.210830278721923e-001	 1.084515954384177e+001
 3.373331999996682e+000	 0.000000000000000e+000	 1.096343769345661e+001
 3.373181478790831e+000	 3.186581726194498e-002	 1.101381497354658e+001
 3.372727592215700e+000	 6.385269088322784e-002	 1.103049235438378e+001
 3.371966887215674e+000	 9.595691940195179e-002	 1.102230157887602e+001
 3.370895954699014e+000	 1.281747060913862e-001	 1.099737270200186e+001
 3.369511432213755e+000	 1.605021591324418e-001	 1.096314864443617e+001
 3.367810006648429e+000	 1.929352918665996e-001	 1.092640172262214e+001
 3.365788416955247e+000	 2.254700231311879e-001	 1.089325240476498e+001
 3.363443456893223e+000	 2.581021776788313e-001	 1.086919055717929e+001
 3.360771977788671e+000	 2.908274866828314e-001	 1.085909947717949e+001
 3.357770891310390e+000	 3.236415883301514e-001	 1.086728304081733e+001
 3.400000000000000e+000	 0.000000000000000e+000	 1.090828888479066e+001
 3.399848288843145e+000	 3.211773365058896e-002	 1.096470176272491e+001
 3.399390814050797e+000	 6.435748067584715e-002	 1.098629948008766e+001
 3.398624095269110e+000	 9.671551035186184e-002	 1.098217964760986e+001
 3.397544696455680e+000	 1.291879959367673e-001	 1.096073130289122e+001
 3.396149228576581e+000	 1.617710148445832e-001	 1.092964844743056e+001
 3.394434352328458e+000	 1.944605489001441e-001	 1.089594537474903e+001
 3.392396780883214e+000	 2.272524846770251e-001	 1.086597404356446e+001
 3.390033282652842e+000	 2.601426139203092e-001	 1.084544376756004e+001
 3.387340684071737e+000	 2.931266340559610e-001	 1.083944352752792e+001
 3.384315872393811e+000	 3.262001487885011e-001	 1.085246724634169e+001
 3.118866061563838e+000	 3.006145442108607e-001	 1.085166010944745e+001
 3.115770023914197e+000	 3.311676876108510e-001	 1.086279871046669e+001
 3.112362366168643e+000	 3.617949902300638e-001	 1.086836166960526e+001
 3.108640405069572e+000	 3.924922145166819e-001	 1.087135521350344e+001
 3.104601523616499e+000	 4.232550415549727e-001	 1.087465421216570e+001
 3.100243173639482e+000	 4.540790720423593e-001	 1.088101343564562e+001
 3.095562878368369e+000	 4.849598273529443e-001	 1.089307946675723e+001
 3.090558234994752e+000	 5.158927506883083e-001	 1.091340262807980e+001
 3.085226917223479e+000	 5.468732083162871e-001	 1.094444823968426e+001
 3.079566677810541e+000	 5.778964908983216e-001	 1.098860648629382e+001
 3.073575351083983e+000	 6.089578149058433e-001	 1.104820013958697e+001
 3.145411042646106e+000	 3.031731046692103e-001	 1.080145458244703e+001
 3.142288654310429e+000	 3.339862889291540e-001	 1.081908159743768e+001
 3.138851993649093e+000	 3.648742635849500e-001	 1.082987888056353e+001
 3.135098354567004e+000	 3.958327550185429e-001	 1.083710862820731e+001
 3.131025097790100e+000	 4.268574075554641e-001	 1.084385858890905e+001
 3.126629653460699e+000	 4.579437844502214e-001	 1.085305777834969e+001
 3.121909523728592e+000	 4.890873689588726e-001	 1.086749304772006e+001
 3.116862285334807e+000	 5.202835654996194e-001	 1.088982582023913e+001
 3.111485592184849e+000	 5.515277009021272e-001	 1.092260826574051e+001
 3.105777177908167e+000	 5.828150257461737e-001	 1.096829814277380e+001
 3.099734858400542e+000	 6.141407157900874e-001	 1.102927150214389e+001
 3.171956023728604e+000	 3.057316651271696e-001	 1.076925695793496e+001
 3.168807284706830e+000	 3.368048902469569e-001	 1.079171567453814e+001
 3.165341621129662e+000	 3.679535369392486e-001	 1.080620464705181e+001
 3.161556304064507e+000	 3.991732955197488e-001	 1.081622014282886e+001
 3.157448671963742e+000	 4.304597735552531e-001	 1.082504021327513e+001
 3.153016133281928e+000	 4.618084968573515e-001	 1.083574523834709e+001
 3.148256169088800e+000	 4.932149105640555e-001	 1.085123953155392e+001
 3.143166335674824e+000	 5.246743803101855e-001	 1.087427327440806e+001
 3.137744267146154e+000	 5.561821934872367e-001	 1.090746400130057e+001
 3.131987678005701e+000	 5.877335605933205e-001	 1.095331681239507e+001
 3.125894365716972e+000	 6.193236166736610e-001	 1.101424245398295e+001
 3.198501004811306e+000	 3.082902255848360e-001	 1.075311779576022e+001
 3.195325915103382e+000	 3.396234915643845e-001	 1.077866213561550e+001
 3.191831248610334e+000	 3.710328102931060e-001	 1.079525429103505e+001
 3.188014253562082e+000	 4.025138360204639e-001	 1.080659820851710e+001
 3.183872246137423e+000	 4.340621395545155e-001	 1.081613512338681e+001
 3.179402613103171e+000	 4.656732092639323e-001	 1.082706932364118e+001
 3.174602814449003e+000	 4.973424521686788e-001	 1.084239519162893e+001
 3.169470386014815e+000	 5.290651951201936e-001	 1.086492474431343e+001
 3.164002942107412e+000	 5.608366860717980e-001	 1.089731484161317e+001
 3.158198178103163e+000	 5.926520954399380e-001	 1.094209318589190e+001
 3.152053873033303e+000	 6.245065175567317e-001	 1.100168219476194e+001
 3.225045985894188e+000	 3.108487860423074e-001	 1.075108636064602e+001
 3.221844545500062e+000	 3.424420928815619e-001	 1.077789940670821e+001
 3.218320876091100e+000	 3.741120836466697e-001	 1.079497827310138e+001
 3.214472203059718e+000	 4.058543765208516e-001	 1.080620361319920e+001
 3.210295820311139e+000	 4.376645055534267e-001	 1.081514809779849e+001
 3.205789092924430e+000	 4.695379216701471e-001	 1.082510780721088e+001
 3.200949459809202e+000	 5.014699937729293e-001	 1.083913512921366e+001
 3.195774436354789e+000	 5.334560099298289e-001	 1.086007233293535e+001
 3.190261617068639e+000	 5.654911786559939e-001	 1.089058493406677e+001
 3.184408678200579e+000	 5.975706302862023e-001	 1.093319391718112e+001
 3.178213380349571e+000	 6.296894184394666e-001	 1.099030583714807e+001
 3.251590966977224e+000	 3.134073464996811e-001	 1.076121395048879e+001
 3.248363175896857e+000	 3.452606941986143e-001	 1.078742607230047e+001
 3.244810503571942e+000	 3.771913570000863e-001	 1.080336472276415e+001
 3.240930152557404e+000	 4.091949170210756e-001	 1.081305161949863e+001
 3.236719394484887e+000	 4.412668715521624e-001	 1.082015440205939e+001
 3.232175572745705e+000	 4.734026340761792e-001	 1.082802408072210e+001
 3.227296105169404e+000	 5.055975353769933e-001	 1.083973423031395e+001
 3.222078486694756e+000	 5.378468247392779e-001	 1.085812104594798e+001
 3.216520292029850e+000	 5.701456712400072e-001	 1.088582331922199e+001
 3.210619178297972e+000	 6.024891651322905e-001	 1.092532134051705e+001
 3.204372887665806e+000	 6.348723193220344e-001	 1.097897368620400e+001
 3.278135948060388e+000	 3.159659069570548e-001	 1.078155705419859e+001
 3.274881806293744e+000	 3.480792955156667e-001	 1.080526364740611e+001
 3.271300131052852e+000	 3.802706303535028e-001	 1.081844182987663e+001
 3.267388102055136e+000	 4.125354575212996e-001	 1.082521397808620e+001
 3.263142968658663e+000	 4.448692375508979e-001	 1.082930142413466e+001
 3.258562052566994e+000	 4.772673464822108e-001	 1.083406840967461e+001
 3.253642750529617e+000	 5.097250769810574e-001	 1.084256803574046e+001
 3.248382537034727e+000	 5.422376395487271e-001	 1.085758926945250e+001
 3.242778966991063e+000	 5.748001638240202e-001	 1.088170400652840e+001
 3.236829678395365e+000	 6.074076999783786e-001	 1.091731313211684e+001
 3.230532394982041e+000	 6.400552202046016e-001	 1.096669047248398e+001
 3.304680929143654e+000	 3.185244674145260e-001	 1.081018034866812e+001
 3.301400436690708e+000	 3.508978968328442e-001	 1.082945920415478e+001
 3.297789758533816e+000	 3.833499037070663e-001	 1.083828010496564e+001
 3.293846051552904e+000	 4.158759980216872e-001	 1.084082082347184e+001
 3.289566542832464e+000	 4.484716035498091e-001	 1.084081020493444e+001
 3.284948532388303e+000	 4.811320588884258e-001	 1.084157909553096e+001
 3.279989395889841e+000	 5.138526185853077e-001	 1.084611352928489e+001
 3.274686587374711e+000	 5.466284543583624e-001	 1.085710917625905e+001
 3.269037641952293e+000	 5.794546564082163e-001	 1.087702598840150e+001
 3.263040178492782e+000	 6.123262348246432e-001	 1.090814191938041e+001
 3.256691902298309e+000	 6.452381210873367e-001	 1.095260454144463e+001
 3.331225910226997e+000	 3.210830278721923e-001	 1.084515954384177e+001
 3.327919067087726e+000	 3.537164981502716e-001	 1.085808786099245e+001
 3.324279386014817e+000	 3.864291770609236e-001	 1.086099451579885e+001
 3.320304001050700e+000	 4.192165385224021e-001	 1.085806245879289e+001
 3.315990117006285e+000	 4.520739695490713e-001	 1.085297686980317e+001
 3.311335012209628e+000	 4.849967712950066e-001	 1.084898355001245e+001
 3.306336041250085e+000	 5.179801601899309e-001	 1.084894984857385e+001
 3.300990637714719e+000	 5.510192691683700e-001	 1.085542706470469e+001
 3.295296316913555e+000	 5.841091489927772e-001	 1.087071319609722e+001
 3.289250678590245e+000	 6.172447696712604e-001	 1.089691484062965e+001
 3.282851409614640e+000	 6.504210219704071e-001	 1.093600700160687e+001
 3.357770891310390e+000	 3.236415883301514e-001	 1.086728304081734e+001
 3.354437697484784e+000	 3.565350994680742e-001	 1.087868686271067e+001
 3.350769013495848e+000	 3.895084504152220e-001	 1.087892134103700e+001
 3.346761950548515e+000	 4.225570790236078e-001	 1.087244585293420e+001
 3.342413691180124e+000	 4.556763355488602e-001	 1.086319548382563e+001
 3.337721492030971e+000	 4.888614837021363e-001	 1.085462464035254e+001
 3.332682686610352e+000	 5.221077017951133e-001	 1.084975892287894e+001
 3.327294688054763e+000	 5.554100839789362e-001	 1.085140363374263e+001
 3.321554991874868e+000	 5.887636415778864e-001	 1.086181440060791e+001
 3.315461178687778e+000	 6.221633045184065e-001	 1.088287305810584e+001
 3.309010916931069e+000	 6.556039228539804e-001	 1.091633083375540e+001
 3.384315872393811e+000	 3.262001487885011e-001	 1.085246724634169e+001
 3.380956327881860e+000	 3.593537007863772e-001	 1.086839144493480e+001
 3.377258640976893e+000	 3.925877237701081e-001	 1.087174181549516e+001
 3.373219900046344e+000	 4.258976195254685e-001	 1.086711115793003e+001
 3.368837265353978e+000	 4.592787015493513e-001	 1.085854216754376e+001
 3.364107971852335e+000	 4.927261961099983e-001	 1.084956859506947e+001
 3.359029331970650e+000	 5.262352434010416e-001	 1.084326214666372e+001
 3.353598738394850e+000	 5.598008987902470e-001	 1.084228570074858e+001
 3.347813666836249e+000	 5.934181341637267e-001	 1.084895344299485e+001
 3.341671678785408e+000	 6.270818393662587e-001	 1.086529854164648e+001
 3.335170424247629e+000	 6.607868237382245e-001	 1.089314900228148e+001
 3.073575351083983e+000	 6.089578149058433e-001	 1.104820013958697e+001
 3.067249882023707e+000	 6.400569898093638e-001	 1.109239228023713e+001
 3.060589150818339e+000	 6.711844230832489e-001	 1.109200387979714e+001
 3.053591253298464e+000	 7.023351083413045e-001	 1.107848643983125e+001
 3.046254376817458e+000	 7.335039713734894e-001	 1.106918746131667e+001
 3.038576802639415e+000	 7.646858720132437e-001	 1.106418509361747e+001
 3.030556908289346e+000	 7.958756060941377e-001	 1.106328595490768e+001
 3.022193169862039e+000	 8.270679074953229e-001	 1.106602971312742e+001
 3.013484164285995e+000	 8.582574502751353e-001	 1.107169418720934e+001
 3.004428571538802e+000	 8.894388508920191e-001	 1.107930090958447e+001
 2.995025176810348e+000	 9.206066705118045e-001	 1.108762109647216e+001
 3.099734858400542e+000	 6.141407157900874e-001	 1.102927150214389e+001
 3.093355552640277e+000	 6.455045788827545e-001	 1.107359250443408e+001
 3.086638131285181e+000	 6.768969408555950e-001	 1.107302575004705e+001
 3.079580673959276e+000	 7.083127527125638e-001	 1.106418027430138e+001
 3.072181352588336e+000	 7.397468970565123e-001	 1.105840490328588e+001
 3.064438433808137e+000	 7.711941899724107e-001	 1.105589262227600e+001
 3.056350281334656e+000	 8.026493830006506e-001	 1.105655438024710e+001
 3.047915358292586e+000	 8.341071651999052e-001	 1.106002416647851e+001
 3.039132229498539e+000	 8.655621652988897e-001	 1.106566455673405e+001
 3.029999563695274e+000	 8.970089539361906e-001	 1.107257266422954e+001
 3.020516135733327e+000	 9.284420459871778e-001	 1.107958643674347e+001
 3.125894365716972e+000	 6.193236166736610e-001	 1.101424245398294e+001
 3.119461223256674e+000	 6.509521679555176e-001	 1.105734373796157e+001
 3.112687111751801e+000	 6.826094586273640e-001	 1.105703490297646e+001
 3.105570094619815e+000	 7.142903970833028e-001	 1.105208697115316e+001
 3.098108328358891e+000	 7.459898227390769e-001	 1.104914092276421e+001
 3.090300064976482e+000	 7.777025079311872e-001	 1.104849083503514e+001
 3.082143654379540e+000	 8.094231599068452e-001	 1.105013936502241e+001
 3.073637546722665e+000	 8.411464229042439e-001	 1.105380338031767e+001
 3.064780294710580e+000	 8.728668803224782e-001	 1.105892000142764e+001
 3.055570555851222e+000	 9.045790569802747e-001	 1.106465298482070e+001
 3.046007094655772e+000	 9.362774214625445e-001	 1.106989938247627e+001
 3.152053873033303e+000	 6.245065175567317e-001	 1.100168219476194e+001
 3.145566893872943e+000	 6.563997570278102e-001	 1.104236037220905e+001
 3.138736092218256e+000	 6.883219763987002e-001	 1.104292055882608e+001
 3.131559515280151e+000	 7.202680414536518e-001	 1.104121463456076e+001
 3.124035304129199e+000	 7.522327484212990e-001	 1.104053312962401e+001
 3.116161696144542e+000	 7.842108258896712e-001	 1.104125703834300e+001
 3.107937027424103e+000	 8.161969368128006e-001	 1.104346772075859e+001
 3.099359735152392e+000	 8.481856806083998e-001	 1.104695314716036e+001
 3.090428359922246e+000	 8.801715953459420e-001	 1.105121448884818e+001
 3.081141548006777e+000	 9.121491600242940e-001	 1.105547297745422e+001
 3.071498053577817e+000	 9.441127969379057e-001	 1.105867696275551e+001
 3.178213380349571e+000	 6.296894184394666e-001	 1.099030583714807e+001
 3.171672564489124e+000	 6.618473460997888e-001	 1.102751121130917e+001
 3.164785072684600e+000	 6.940344941697481e-001	 1.102971416807336e+001
 3.157548935940349e+000	 7.262456858237404e-001	 1.103071790929550e+001
 3.149962279899344e+000	 7.584756741032915e-001	 1.103186887662640e+001
 3.142023327312415e+000	 7.907191438479604e-001	 1.103362037932777e+001
 3.133730400468455e+000	 8.229707137185969e-001	 1.103611909954519e+001
 3.125081923581885e+000	 8.552249383124343e-001	 1.103921201171153e+001
 3.116076425133662e+000	 8.874763103693230e-001	 1.104245357481877e+001
 3.106712540162070e+000	 9.197192630682695e-001	 1.104511311279208e+001
 3.096989012499596e+000	 9.519481724132636e-001	 1.104618230658675e+001
 3.204372887665806e+000	 6.348723193220344e-001	 1.097897368620401e+001
 3.197778235105262e+000	 6.672949351716107e-001	 1.101182712649089e+001
 3.190834053150890e+000	 6.997470119406513e-001	 1.101658684444510e+001
 3.183538356600479e+000	 7.322233301936987e-001	 1.101989497018195e+001
 3.175889255669407e+000	 7.647185997851698e-001	 1.102258181165148e+001
 3.167884958480192e+000	 7.972274618061515e-001	 1.102515796747813e+001
 3.159523773512700e+000	 8.297444906243137e-001	 1.102782169221998e+001
 3.150804112011262e+000	 8.622641960164075e-001	 1.103046655300386e+001
 3.141724490344950e+000	 8.947810253926620e-001	 1.103268927739908e+001
 3.132283532317233e+000	 9.272893661122239e-001	 1.103379770019803e+001
 3.122479971421242e+000	 9.597835478886196e-001	 1.103281872600392e+001
 3.230532394982041e+000	 6.400552202046016e-001	 1.096669047248398e+001
 3.223883905721403e+000	 6.727425242434327e-001	 1.099535783284106e+001
 3.216883033617179e+000	 7.054595297115548e-001	 1.100284676764388e+001
 3.209527777260608e+000	 7.382009745636572e-001	 1.100818448784763e+001
 3.201816231439470e+000	 7.709615254670480e-001	 1.101224841183810e+001
 3.193746589647970e+000	 8.037357797643429e-001	 1.101559098288720e+001
 3.185317146556945e+000	 8.365182675300302e-001	 1.101844791680292e+001
 3.176526300440638e+000	 8.693034537203809e-001	 1.102074665951187e+001
 3.167372555556240e+000	 9.020857404160014e-001	 1.102211494559728e+001
 3.157854524472395e+000	 9.348594691561776e-001	 1.102188935742054e+001
 3.147970930342888e+000	 9.676189233639758e-001	 1.101912379457724e+001
 3.256691902298309e+000	 6.452381210873367e-001	 1.095260454144463e+001
 3.249989576337585e+000	 6.781901133154114e-001	 1.097799910799936e+001
 3.242932014083523e+000	 7.111720474826022e-001	 1.098793655749012e+001
 3.235517197920808e+000	 7.441786189337459e-001	 1.099516257209909e+001
 3.227743207209616e+000	 7.772044511490409e-001	 1.100058450065044e+001
 3.219608220815842e+000	 8.102440977226320e-001	 1.100478077181232e+001
 3.211110519601295e+000	 8.432920444358265e-001	 1.100801009772822e+001
 3.202248488870132e+000	 8.763427114244150e-001	 1.101022079763609e+001
 3.193020620767656e+000	 9.093904554393821e-001	 1.101106012311812e+001
 3.183425516627689e+000	 9.424295722001536e-001	 1.100988347607350e+001
 3.173461889264666e+000	 9.754542988393339e-001	 1.100576342157960e+001
 3.282851409614640e+000	 6.504210219704071e-001	 1.093600700160687e+001
 3.276095246953852e+000	 6.836377023877039e-001	 1.095919490198984e+001
 3.268980994549979e+000	 7.168845652539385e-001	 1.097143062107386e+001
 3.261506618581141e+000	 7.501562633040946e-001	 1.098053969417105e+001
 3.253670182979924e+000	 7.834473768312622e-001	 1.098744174882287e+001
 3.245469851983902e+000	 8.167524156811156e-001	 1.099272493025955e+001
 3.236903892645860e+000	 8.500658213417824e-001	 1.099665613638649e+001
 3.227970677299860e+000	 8.833819691285709e-001	 1.099919127392649e+001
 3.218668685979320e+000	 9.166951704628458e-001	 1.099998540742242e+001
 3.208996508783244e+000	 9.499996752441726e-001	 1.099840268314785e+001
 3.198952848186713e+000	 9.832896743146952e-001	 1.099352592205304e+001
 3.309010916931069e+000	 6.556039228539804e-001	 1.091633083375540e+001
 3.302200917570249e+000	 6.890852914604667e-001	 1.093851503127215e+001
 3.295029975016599e+000	 7.225970830257074e-001	 1.095303247440934e+001
 3.287496039241681e+000	 7.561339076748331e-001	 1.096415758901801e+001
 3.279597158750476e+000	 7.896903025138271e-001	 1.097280416007455e+001
 3.271331483152246e+000	 8.232607336398923e-001	 1.097955337625353e+001
 3.262697265690743e+000	 8.568395982479766e-001	 1.098466517345793e+001
 3.253692865729938e+000	 8.904212268329097e-001	 1.098808949139120e+001
 3.244316751191362e+000	 9.239998854864342e-001	 1.098947730435801e+001
 3.234567500939192e+000	 9.575697782882571e-001	 1.098819129877360e+001
 3.224443807109157e+000	 9.911250497900616e-001	 1.098331608300194e+001
 3.335170424247629e+000	 6.607868237382245e-001	 1.089314900228148e+001
 3.328306588186820e+000	 6.945328805338576e-001	 1.091565289213183e+001
 3.321078955483442e+000	 7.283096007980534e-001	 1.093257203999223e+001
 3.313485459902493e+000	 7.621115520460923e-001	 1.094598613874284e+001
 3.305524134521356e+000	 7.959332281968499e-001	 1.095678454243013e+001
 3.297193114320970e+000	 8.297690515990592e-001	 1.096552441141492e+001
 3.288490638736053e+000	 8.636133751544897e-001	 1.097244324348683e+001
 3.279415054160485e+000	 8.974604845374922e-001	 1.097747120021441e+001
 3.269964816403906e+000	 9.313046005101889e-001	 1.098024307860398e+001
 3.260138493095666e+000	 9.651398813324287e-001	 1.098010979043757e+001
 3.249934766032135e+000	 9.989604252654352e-001	 1.097614922592450e+001
 2.995025176810348e+000	 9.206066705118045e-001	 1.108762109647216e+001
 2.985272871861278e+000	 9.517554169440450e-001	 1.109931481703392e+001
 2.975170654820722e+000	 9.828795457048585e-001	 1.111788595847737e+001
 2.964717634414846e+000	 1.013973463865370e+000	 1.114307195940219e+001
 2.953913032638836e+000	 1.045031533136540e+000	 1.117451968795784e+001
 2.942756186611073e+000	 1.076048072588372e+000	 1.121170210889237e+001
 2.931246550353865e+000	 1.107017361446401e+000	 1.125398945338568e+001
 2.919383696497328e+000	 1.137933641963363e+000	 1.130063712187642e+001
 2.907167317903020e+000	 1.168791122363753e+000	 1.135079174999657e+001
 2.894597229204027e+000	 1.199583979858828e+000	 1.140349738826083e+001
 2.881673368258283e+000	 1.230306363729441e+000	 1.145770183679527e+001
 3.020516135733327e+000	 9.284420459871778e-001	 1.107958643674347e+001
 3.010680827941015e+000	 9.598559025168252e-001	 1.109016343551431e+001
 3.000492629920439e+000	 9.912449318515900e-001	 1.110842778062150e+001
 2.989950642812039e+000	 1.022603493460617e+000	 1.113390422181038e+001
 2.979054081989313e+000	 1.053925901066823e+000	 1.116601098880178e+001
 2.967802278928781e+000	 1.085206425389242e+000	 1.120398695890637e+001
 2.956194683005870e+000	 1.116439296963322e+000	 1.124695585628795e+001
 2.944230863213302e+000	 1.147618709037034e+000	 1.129391630973455e+001
 2.931910509798535e+000	 1.178738820540489e+000	 1.134374806844972e+001
 2.919233435816973e+000	 1.209793759126601e+000	 1.139521827260723e+001
 2.906199578597639e+000	 1.240777624280165e+000	 1.144698782371562e+001
 3.046007094655772e+000	 9.362774214625445e-001	 1.106989938247627e+001
 3.036088784020225e+000	 9.679563880896780e-001	 1.107889162208624e+001
 3.025814605019650e+000	 9.996103179984717e-001	 1.109635302315302e+001
 3.015183651208757e+000	 1.031233523056087e+000	 1.112159127227213e+001
 3.004195131339357e+000	 1.062820268997393e+000	 1.115379200149289e+001
 2.992848371246103e+000	 1.094364778190455e+000	 1.119195554603669e+001
 2.981142815657544e+000	 1.125861232480630e+000	 1.123495474969606e+001
 2.969078029928998e+000	 1.157303776111121e+000	 1.128152697811369e+001
 2.956653701693830e+000	 1.188686518717651e+000	 1.133028043651128e+001
 2.943869642429749e+000	 1.220003538394793e+000	 1.137970047671199e+001
 2.930725788936877e+000	 1.251248884831276e+000	 1.142815594257551e+001
 3.071498053577817e+000	 9.441127969379057e-001	 1.105867696275551e+001
 3.061496740099039e+000	 9.760568736625853e-001	 1.106579824049921e+001
 3.051136580118482e+000	 1.007975704145466e+000	 1.108212541697679e+001
 3.040416659605120e+000	 1.039863552651724e+000	 1.110674465204583e+001
 3.029336180689076e+000	 1.071714636928179e+000	 1.113860498088063e+001
 3.017894463563138e+000	 1.103523130991923e+000	 1.117646379212778e+001
 3.006090948308972e+000	 1.135283167998224e+000	 1.121893878685732e+001
 2.993925196644493e+000	 1.166988843185512e+000	 1.126450175234395e+001
 2.981396893588967e+000	 1.198634216895122e+000	 1.131148493118773e+001
 2.968505849042415e+000	 1.230213317663281e+000	 1.135808730738097e+001
 2.955251999276042e+000	 1.261720145382654e+000	 1.140238086283038e+001
 3.096989012499596e+000	 9.519481724132636e-001	 1.104618230658675e+001
 3.086904696177589e+000	 9.841573592355289e-001	 1.105132439030239e+001
 3.076458555217060e+000	 1.016341090292535e+000	 1.106633568356636e+001
 3.065649668001247e+000	 1.048493582247471e+000	 1.109010998091963e+001
 3.054477230038581e+000	 1.080609004859105e+000	 1.112132202903720e+001
 3.042940555879987e+000	 1.112681483793558e+000	 1.115849317843704e+001
 3.031039080960242e+000	 1.144705103516002e+000	 1.119998187238007e+001
 3.018772363359863e+000	 1.176673910260096e+000	 1.124399021893904e+001
 3.006140085484014e+000	 1.208581915072786e+000	 1.128857035821525e+001
 2.993142055655025e+000	 1.240423096931949e+000	 1.133163066686645e+001
 2.979778209615191e+000	 1.272191405934185e+000	 1.137094185817081e+001
 3.122479971421242e+000	 9.597835478886196e-001	 1.103281872600392e+001
 3.112312652256008e+000	 9.922578448084910e-001	 1.103604709110494e+001
 3.101780530315512e+000	 1.024706476439641e+000	 1.104974105995697e+001
 3.090882676397256e+000	 1.057123611843272e+000	 1.107255977061828e+001
 3.079618279387981e+000	 1.089503372790100e+000	 1.110293743773621e+001
 3.067986648196746e+000	 1.121839836595270e+000	 1.113914259418846e+001
 3.055987213611441e+000	 1.154127039033863e+000	 1.117927049446643e+001
 3.043619530075186e+000	 1.186358977334763e+000	 1.122124971975532e+001
 3.030883277379037e+000	 1.218529613250524e+000	 1.126284848708241e+001
 3.017778262267638e+000	 1.250632876200675e+000	 1.130168070842355e+001
 3.004304419954370e+000	 1.282662666485751e+000	 1.133521186305854e+001
 3.147970930342888e+000	 9.676189233639758e-001	 1.101912379457724e+001
 3.137720608334429e+000	 1.000358330381453e+000	 1.102067296197146e+001
 3.127102505413965e+000	 1.033071862586746e+000	 1.103318700169691e+001
 3.116115684793268e+000	 1.065753641439071e+000	 1.105508623500968e+001
 3.104759328737387e+000	 1.098397740721089e+000	 1.108456002966831e+001
 3.093032740513514e+000	 1.130998189396973e+000	 1.111962018655810e+001
 3.080935346262661e+000	 1.163548974551708e+000	 1.115809506203188e+001
 3.068466696790536e+000	 1.196044044409403e+000	 1.119763615526602e+001
 3.055626469274102e+000	 1.228477311428221e+000	 1.123572430017499e+001
 3.042414468880311e+000	 1.260842655469342e+000	 1.126967551178354e+001
 3.028830630293633e+000	 1.293133927037236e+000	 1.129664655576448e+001
 3.173461889264666e+000	 9.754542988393339e-001	 1.100576342157960e+001
 3.163128564412980e+000	 1.008458815954396e+000	 1.100603189622696e+001
 3.152424480512546e+000	 1.041437248733814e+000	 1.101764966989483e+001
 3.141348693189401e+000	 1.074383671034812e+000	 1.103879409729085e+001
 3.129900378086907e+000	 1.107292108652000e+000	 1.106740549846748e+001
 3.118078832830393e+000	 1.140156542198578e+000	 1.110123521200962e+001
 3.105883478913983e+000	 1.172970910069433e+000	 1.113784124643822e+001
 3.093313863505990e+000	 1.205729111483904e+000	 1.117459479643809e+001
 3.080369661169276e+000	 1.238425009605759e+000	 1.120868625525024e+001
 3.067050675493100e+000	 1.271052434737831e+000	 1.123713077742337e+001
 3.053356840633026e+000	 1.303605187588521e+000	 1.125677346642034e+001
 3.198952848186713e+000	 9.832896743146952e-001	 1.099352592205304e+001
 3.188536520491794e+000	 1.016559301527303e+000	 1.099306068076784e+001
 3.177746455611380e+000	 1.049802634880804e+000	 1.100421646246060e+001
 3.166581701585774e+000	 1.083013700630437e+000	 1.102489339432164e+001
 3.155041427436653e+000	 1.116186476582760e+000	 1.105278874761168e+001
 3.143124925147479e+000	 1.149314894999995e+000	 1.108538988890564e+001
 3.130831611565499e+000	 1.182392845586940e+000	 1.111998132758150e+001
 3.118161030221624e+000	 1.215414178558155e+000	 1.115365110473265e+001
 3.105112853064621e+000	 1.248372707783021e+000	 1.118329656049589e+001
 3.091686882106064e+000	 1.281262214006022e+000	 1.120562953858392e+001
 3.077883050972603e+000	 1.314076448139491e+000	 1.121718110868785e+001
 3.224443807109157e+000	 9.911250497900616e-001	 1.098331608300194e+001
 3.213944476571005e+000	 1.024659787100156e+000	 1.098283808921542e+001
 3.203068430710595e+000	 1.058168021027681e+000	 1.099407925873761e+001
 3.191814709982509e+000	 1.091643730225893e+000	 1.101469227826408e+001
 3.180182476786732e+000	 1.125080844513294e+000	 1.104211622826168e+001
 3.168171017464872e+000	 1.158473247801137e+000	 1.107357125132375e+001
 3.155779744217294e+000	 1.191814781104125e+000	 1.110606554409472e+001
 3.143008196937515e+000	 1.225099245632047e+000	 1.113640155977902e+001
 3.129856044960206e+000	 1.258320405959892e+000	 1.116118146147890e+001
 3.116323088719257e+000	 1.291471993273796e+000	 1.117681189005507e+001
 3.102409261312411e+000	 1.324547708690029e+000	 1.117950813373992e+001
 3.249934766032135e+000	 9.989604252654352e-001	 1.097614922592450e+001
 3.239352432650741e+000	 1.032760272672935e+000	 1.097651444996505e+001
 3.228390405810319e+000	 1.066533407174408e+000	 1.098852766063759e+001
 3.217047718379721e+000	 1.100273759821121e+000	 1.100958981567509e+001
 3.205323526137257e+000	 1.133975212443531e+000	 1.103687827609586e+001
 3.193217109782673e+000	 1.167631600601917e+000	 1.106734300401108e+001
 3.180727876869459e+000	 1.201236716620890e+000	 1.109771344743903e+001
 3.167855363653740e+000	 1.234784312705469e+000	 1.112450449430153e+001
 3.154599236856098e+000	 1.268268104136253e+000	 1.114402153933089e+001
 3.140959295332737e+000	 1.301681772541035e+000	 1.115236473280715e+001
 3.126935471652506e+000	 1.335018969240017e+000	 1.114552558321930e+001
 2.881673368258283e+000	 1.230306363729441e+000	 1.145770183679527e+001
 2.868397815937404e+000	 1.260947808074110e+000	 1.149540922417915e+001
 2.854768850366804e+000	 1.291507033333439e+000	 1.149804032463164e+001
 2.840786788950488e+000	 1.321978128413373e+000	 1.146343908817555e+001
 2.826452077113804e+000	 1.352355167314767e+000	 1.140265466252827e+001
 2.811765289274062e+000	 1.382632212507475e+000	 1.136255793549431e+001
 2.796727129707190e+000	 1.412803318353237e+000	 1.134413580142750e+001
 2.781338433307961e+000	 1.442862534573747e+000	 1.134344804047300e+001
 2.765600166241469e+000	 1.472803909760124e+000	 1.135637306206391e+001
 2.749513426483720e+000	 1.502621494919891e+000	 1.137862225045076e+001
 2.733079444249319e+000	 1.532309347057451e+000	 1.140575542309133e+001
 2.906199578597639e+000	 1.240777624280165e+000	 1.144698782371562e+001
 2.892811036722654e+000	 1.271679861023362e+000	 1.147978496968985e+001
 2.879066073662390e+000	 1.302499178906338e+000	 1.147394795746010e+001
 2.864965009522325e+000	 1.333229616525127e+000	 1.142732116779526e+001
 2.850508293518875e+000	 1.363865197443818e+000	 1.137184548469602e+001
 2.835696504958288e+000	 1.394399933597353e+000	 1.133899821783271e+001
 2.820530354110670e+000	 1.424827828743552e+000	 1.132517584661159e+001
 2.805010682976677e+000	 1.455142881960698e+000	 1.132658663889393e+001
 2.789138465944542e+000	 1.485339091186876e+000	 1.133926419737114e+001
 2.772914810335272e+000	 1.515410456797143e+000	 1.135908201457780e+001
 2.756340956833962e+000	 1.545350985214473e+000	 1.138176918009851e+001
 2.930725788936877e+000	 1.251248884831276e+000	 1.142815594257551e+001
 2.917224257507826e+000	 1.282411913972944e+000	 1.145521871578283e+001
 2.903363296957934e+000	 1.313491324479491e+000	 1.144026562733910e+001
 2.889143230094150e+000	 1.344481104637046e+000	 1.138569638823561e+001
 2.874564509923965e+000	 1.375375227572934e+000	 1.134001162773815e+001
 2.859627720642560e+000	 1.406167654687189e+000	 1.131425789605328e+001
 2.844333578514223e+000	 1.436852339133718e+000	 1.130497900373556e+001
 2.828682932645491e+000	 1.467423229347397e+000	 1.130853776841893e+001
 2.812676765647745e+000	 1.497874272613284e+000	 1.132112955320467e+001
 2.796316194186986e+000	 1.528199418673973e+000	 1.133879703734816e+001
 2.779602469418804e+000	 1.558392623371014e+000	 1.135744618000629e+001
 2.955251999276042e+000	 1.261720145382654e+000	 1.140238086283038e+001
 2.941637478292966e+000	 1.293143966922747e+000	 1.142291347046727e+001
 2.927660520253484e+000	 1.324483470052802e+000	 1.139823454799995e+001
 2.913321450666013e+000	 1.355732592749046e+000	 1.134435072182121e+001
 2.898620726329122e+000	 1.386885257702045e+000	 1.130811926499528e+001
 2.883558936326928e+000	 1.417935375776930e+000	 1.128922853525902e+001
 2.868136802917897e+000	 1.448876849523699e+000	 1.128437530959742e+001
 2.852355182314455e+000	 1.479703576733827e+000	 1.129008287920124e+001
 2.836215065351123e+000	 1.510409454039345e+000	 1.130271476668086e+001
 2.819717578038901e+000	 1.540988380550389e+000	 1.131848971901213e+001
 2.802863982003876e+000	 1.571434261527091e+000	 1.133349793608092e+001
 2.979778209615191e+000	 1.272191405934185e+000	 1.137094185817081e+001
 2.966050699078124e+000	 1.303876019872661e+000	 1.138417263212902e+001
 2.951957743549081e+000	 1.335475615626169e+000	 1.134936027731215e+001
 2.937499671237958e+000	 1.366984080861041e+000	 1.130432117053415e+001
 2.922676942734390e+000	 1.398395287831081e+000	 1.127711945709093e+001
 2.907490152011438e+000	 1.429703096866527e+000	 1.126478831695260e+001
 2.891940027321741e+000	 1.460901359913464e+000	 1.126418284123363e+001
 2.876027431983614e+000	 1.491983924119971e+000	 1.127199258258540e+001
 2.859753365054722e+000	 1.522944635465056e+000	 1.128475545638905e+001
 2.843118961891063e+000	 1.553777342426399e+000	 1.129887296295179e+001
 2.826125494589216e+000	 1.584475899682720e+000	 1.131062668965000e+001
 3.004304419954370e+000	 1.282662666485751e+000	 1.133521186305854e+001
 2.990463919863343e+000	 1.314608072822576e+000	 1.134038844511143e+001
 2.976254966844774e+000	 1.346467761199496e+000	 1.130065092725792e+001
 2.961677891810029e+000	 1.378235568972947e+000	 1.126662699948575e+001
 2.946733159139817e+000	 1.409905317959977e+000	 1.124794770672809e+001
 2.931421367696138e+000	 1.441470817955927e+000	 1.124180157208267e+001
 2.915743251725804e+000	 1.472925870302978e+000	 1.124520724516962e+001
 2.899699681653019e+000	 1.504264271505810e+000	 1.125502619425095e+001
 2.883291664758590e+000	 1.535479816890413e+000	 1.126797679682862e+001
 2.866520345743509e+000	 1.566566304302014e+000	 1.128064979849884e+001
 2.849387007174854e+000	 1.597517537837919e+000	 1.128952509805313e+001
 3.028830630293633e+000	 1.293133927037236e+000	 1.129664655576448e+001
 3.014877140648670e+000	 1.325340125772382e+000	 1.129303048837119e+001
 3.000552190140605e+000	 1.357459906772683e+000	 1.125600771937912e+001
 2.985856112382270e+000	 1.389487057084678e+000	 1.123226955735300e+001
 2.970789375545449e+000	 1.421415348088662e+000	 1.122152356138388e+001
 2.955352583381074e+000	 1.453238539045079e+000	 1.122111836531732e+001
 2.939546476130134e+000	 1.484950380692207e+000	 1.122824132043419e+001
 2.923371931322718e+000	 1.516544618891328e+000	 1.123993133287402e+001
 2.906829964462770e+000	 1.548014998315415e+000	 1.125309314934589e+001
 2.889921729596284e+000	 1.579355266177241e+000	 1.126451306047303e+001
 2.872648519760826e+000	 1.610559175992701e+000	 1.127087597878269e+001
 3.053356840633026e+000	 1.303605187588521e+000	 1.125677346642034e+001
 3.039290361434153e+000	 1.336072178721969e+000	 1.124389443995520e+001
 3.024849413436621e+000	 1.368452052345632e+000	 1.121650576870011e+001
 3.010034332954730e+000	 1.400738545196150e+000	 1.120223195619863e+001
 2.994845591951334e+000	 1.432925378217068e+000	 1.119875026121058e+001
 2.979283799066296e+000	 1.465006260133933e+000	 1.120357412766441e+001
 2.963349700534780e+000	 1.496974891081117e+000	 1.121406465231442e+001
 2.947044180992758e+000	 1.528824966276507e+000	 1.122744357118555e+001
 2.930368264167312e+000	 1.560550179740057e+000	 1.124080774639382e+001
 2.913323113449429e+000	 1.592144228052089e+000	 1.125114512225026e+001
 2.895910032347164e+000	 1.623600814147085e+000	 1.125535210665505e+001
 3.077883050972603e+000	 1.314076448139491e+000	 1.121718110868785e+001
 3.063703582219838e+000	 1.346804231671227e+000	 1.119983909622122e+001
 3.049146636732866e+000	 1.379444197918242e+000	 1.118319952977054e+001
 3.034212553527452e+000	 1.411990033307279e+000	 1.117747879029777e+001
 3.018901808357516e+000	 1.444435408345127e+000	 1.118051442962001e+001
 3.003215014751850e+000	 1.476773981222436e+000	 1.118998933474175e+001
 2.987152924939791e+000	 1.508999401469674e+000	 1.120344329402137e+001
 2.970716430663188e+000	 1.541105313661330e+000	 1.121828613650313e+001
 2.953906563872260e+000	 1.573085361164338e+000	 1.123181242614048e+001
 2.936724497302984e+000	 1.604933189926567e+000	 1.124121767937645e+001
 2.919171544933902e+000	 1.636642452301086e+000	 1.124361606105386e+001
 3.102409261312411e+000	 1.324547708690029e+000	 1.117950813373993e+001
 3.088116803005770e+000	 1.357536284620048e+000	 1.116418377315314e+001
 3.073443860029386e+000	 1.390436343490416e+000	 1.115712259254553e+001
 3.058390774100482e+000	 1.423241521417980e+000	 1.115895589181032e+001
 3.042958024764042e+000	 1.455945438472771e+000	 1.116768580419042e+001
 3.027146230437786e+000	 1.488541702310539e+000	 1.118116922817121e+001
 3.010956149345215e+000	 1.521023911857844e+000	 1.119712949361483e+001
 2.994388680334057e+000	 1.553385661045778e+000	 1.121316965799870e+001
 2.977444863577661e+000	 1.585620542588254e+000	 1.122678741463994e+001
 2.960125881156992e+000	 1.617722151800683e+000	 1.123539158092815e+001
 2.942433057521074e+000	 1.649684090454720e+000	 1.123632012047525e+001
 3.126935471652506e+000	 1.335018969240017e+000	 1.114552558321929e+001
 3.112530023792000e+000	 1.368268337568320e+000	 1.113803819734813e+001
 3.097741083326226e+000	 1.401428489062056e+000	 1.113928750916334e+001
 3.082568994673866e+000	 1.434493009528169e+000	 1.114759012127732e+001
 3.067014241170958e+000	 1.467455468599930e+000	 1.116111700568129e+001
 3.051077446124150e+000	 1.500309423398188e+000	 1.117790357772872e+001
 3.034759373751101e+000	 1.533048422245595e+000	 1.119586146370231e+001
 3.018060930005414e+000	 1.565666008429837e+000	 1.121279195813601e+001
 3.000983163283562e+000	 1.598155724011803e+000	 1.122640115295394e+001
 2.983527265011496e+000	 1.630511113674446e+000	 1.123431670599994e+001
 2.965694570108715e+000	 1.662725728608005e+000	 1.123410620177685e+001
 2.733079444249319e+000	 1.532309347057451e+000	 1.140575542309133e+001
 2.716297039568712e+000	 1.561865955864427e+000	 1.143021434898281e+001
 2.699170149807901e+000	 1.591280936462619e+000	 1.144754330743428e+001
 2.681700406264190e+000	 1.620548384726113e+000	 1.145796480295589e+001
 2.663889573078078e+000	 1.649662417173072e+000	 1.146186230471835e+001
 2.645739547069145e+000	 1.678617174651290e+000	 1.146083300366447e+001
 2.627252357450537e+000	 1.707406826031018e+000	 1.145691928773673e+001
 2.608430165421335e+000	 1.736025571900473e+000	 1.145202728164490e+001
 2.589275263636230e+000	 1.764467648259312e+000	 1.144829097060037e+001
 2.569790075552226e+000	 1.792727330205414e+000	 1.144805709161469e+001
 2.549977154652176e+000	 1.820798935610175e+000	 1.145386816964652e+001
 2.756340956833962e+000	 1.545350985214473e+000	 1.138176918009851e+001
 2.739415715428227e+000	 1.575159153276105e+000	 1.140171210799674e+001
 2.722143056995375e+000	 1.604824487717100e+000	 1.141626157530094e+001
 2.704524626716822e+000	 1.634341034160935e+000	 1.142560247115741e+001
 2.686562203747829e+000	 1.663702859050867e+000	 1.143006073100701e+001
 2.668257701051977e+000	 1.692904053366853e+000	 1.143011764616119e+001
 2.649613165113236e+000	 1.721938736349818e+000	 1.142719695762345e+001
 2.630630775524840e+000	 1.750801059228598e+000	 1.142385105309433e+001
 2.611312844454483e+000	 1.779485208944865e+000	 1.142220985376480e+001
 2.591661815985434e+000	 1.807985411871278e+000	 1.142461878283774e+001
 2.571680265333477e+000	 1.836295937518066e+000	 1.143362627558488e+001
 2.779602469418804e+000	 1.558392623371014e+000	 1.135744618000629e+001
 2.762534391287983e+000	 1.588452350687268e+000	 1.137330573992695e+001
 2.745115964183133e+000	 1.618368038971054e+000	 1.138540783442107e+001
 2.727348847169785e+000	 1.648133683595235e+000	 1.139387288835416e+001
 2.709234834417954e+000	 1.677743300928162e+000	 1.139895817659210e+001
 2.690775855035223e+000	 1.707190932081953e+000	 1.140107284763503e+001
 2.671973972776374e+000	 1.736470646668199e+000	 1.140079327680719e+001
 2.652831385628806e+000	 1.765576546556353e+000	 1.139941377367276e+001
 2.633350425273202e+000	 1.794502769630099e+000	 1.139989252575572e+001
 2.613533556419093e+000	 1.823243493536874e+000	 1.140461127616815e+001
 2.593383376015194e+000	 1.851792939425738e+000	 1.141609783508634e+001
 2.802863982003876e+000	 1.571434261527091e+000	 1.133349793608093e+001
 2.785653067148002e+000	 1.601745548097935e+000	 1.134569634242731e+001
 2.768088871371186e+000	 1.631911590224498e+000	 1.135566187686428e+001
 2.750173067623071e+000	 1.661926333029029e+000	 1.136342417649504e+001
 2.731907465088427e+000	 1.691783742804963e+000	 1.136914455834450e+001
 2.713294009018838e+000	 1.721477810796585e+000	 1.137313182603942e+001
 2.694334780439897e+000	 1.751002556986144e+000	 1.137585846125523e+001
 2.675031995733158e+000	 1.780352033883711e+000	 1.137797709526437e+001
 2.655388006092302e+000	 1.809520330314980e+000	 1.138071504995572e+001
 2.635405296853118e+000	 1.838501575202161e+000	 1.138734132226582e+001
 2.615086486697246e+000	 1.867289941333142e+000	 1.140050963967433e+001
 2.826125494589216e+000	 1.584475899682720e+000	 1.131062668965000e+001
 2.808771743008305e+000	 1.615038745508126e+000	 1.131957605387443e+001
 2.791061778559539e+000	 1.645455141477451e+000	 1.132769530224924e+001
 2.772997288076671e+000	 1.675718982462327e+000	 1.133489746014341e+001
 2.754580095759225e+000	 1.705824184681278e+000	 1.134122108762298e+001
 2.735812163002780e+000	 1.735764689510745e+000	 1.134684693873599e+001
 2.716695588103744e+000	 1.765534467303639e+000	 1.135211506530705e+001
 2.697232605837830e+000	 1.795127521210649e+000	 1.135754225564525e+001
 2.677425586911706e+000	 1.824537890999473e+000	 1.136383969026125e+001
 2.657277037287425e+000	 1.853759656867096e+000	 1.137221019237162e+001
 2.636789597379548e+000	 1.882786943240229e+000	 1.138618320753219e+001
 2.849387007174854e+000	 1.597517537837919e+000	 1.128952509805312e+001
 2.831890418868914e+000	 1.628331942917860e+000	 1.129562780723497e+001
 2.814034685748200e+000	 1.658998692729931e+000	 1.130217132302700e+001
 2.795821508530576e+000	 1.689511631895144e+000	 1.130892670939460e+001
 2.777252726430318e+000	 1.719864626557111e+000	 1.131578344237562e+001
 2.758330316987007e+000	 1.750051568224430e+000	 1.132276699214823e+001
 2.739056395767859e+000	 1.780066377620673e+000	 1.133005691396882e+001
 2.719433215942749e+000	 1.809903008537144e+000	 1.133800533319784e+001
 2.699463167731334e+000	 1.839555451683543e+000	 1.134715570076895e+001
 2.679148777721928e+000	 1.869017738531633e+000	 1.135826168730395e+001
 2.658492708062018e+000	 1.898283945146948e+000	 1.137253201221992e+001
 2.872648519760826e+000	 1.610559175992701e+000	 1.127087597878269e+001
 2.855009094729853e+000	 1.641625140327156e+000	 1.127452513961329e+001
 2.837007592937177e+000	 1.672542243981955e+000	 1.127974462569407e+001
 2.818645728984777e+000	 1.703304281327492e+000	 1.128613863968765e+001
 2.799925357101683e+000	 1.733905068432466e+000	 1.129342169317218e+001
 2.780848470971473e+000	 1.764338446937636e+000	 1.130143718233279e+001
 2.761417203432182e+000	 1.794598287937230e+000	 1.131017654159352e+001
 2.741633826047844e+000	 1.824678495863168e+000	 1.131979885495934e+001
 2.721500748551104e+000	 1.854573012367157e+000	 1.133065079539368e+001
 2.701020518156543e+000	 1.884275820195732e+000	 1.134328675385347e+001
 2.680195818744573e+000	 1.913780947053250e+000	 1.135848901173454e+001
 2.895910032347164e+000	 1.623600814147085e+000	 1.125535210665505e+001
 2.878127770591144e+000	 1.654918337736034e+000	 1.125693205434923e+001
 2.859980500126478e+000	 1.686085795233540e+000	 1.126106128478982e+001
 2.841469949439266e+000	 1.717096930759384e+000	 1.126715266531334e+001
 2.822597987773292e+000	 1.747945510307352e+000	 1.127472028448072e+001
 2.803366624956138e+000	 1.778625325650358e+000	 1.128339909294171e+001
 2.783778011096657e+000	 1.809130198253296e+000	 1.129296519611280e+001
 2.763834436153042e+000	 1.839453983188698e+000	 1.130335667272505e+001
 2.743538329370936e+000	 1.869590573050278e+000	 1.131469478324266e+001
 2.722892258591185e+000	 1.899533901859347e+000	 1.132730542286463e+001
 2.701898929427128e+000	 1.929277948959084e+000	 1.134174066541867e+001
 2.919171544933902e+000	 1.636642452301086e+000	 1.124361606105386e+001
 2.901246446452806e+000	 1.668211535144512e+000	 1.124350293273463e+001
 2.882953407316110e+000	 1.699629346484705e+000	 1.124675872673401e+001
 2.864294169894032e+000	 1.730889580190834e+000	 1.125258090362231e+001
 2.845270618445120e+000	 1.761985952181773e+000	 1.126025806810764e+001
 2.825884778940959e+000	 1.792912204362594e+000	 1.126919074737445e+001
 2.806138818761223e+000	 1.823662108568856e+000	 1.127891290000999e+001
 2.786035046258273e+000	 1.854229470513710e+000	 1.128911402359156e+001
 2.765575910190750e+000	 1.884608133732874e+000	 1.129966171830360e+001
 2.744763999025769e+000	 1.914791983522436e+000	 1.131062455406355e+001
 2.723602040109602e+000	 1.944774950864403e+000	 1.132229507965465e+001
 2.942433057521074e+000	 1.649684090454720e+000	 1.123632012047525e+001
 2.924365122314863e+000	 1.681504732552608e+000	 1.123488249260280e+001
 2.905926314506080e+000	 1.713172897735468e+000	 1.123746574074644e+001
 2.887118390349069e+000	 1.744682229621855e+000	 1.124302822712866e+001
 2.867943249117139e+000	 1.776026394055733e+000	 1.125060838591414e+001
 2.848402932925892e+000	 1.807199083074341e+000	 1.125934671212095e+001
 2.828499626425824e+000	 1.838194018883899e+000	 1.126850856489726e+001
 2.808235656363467e+000	 1.869004957838178e+000	 1.127750764697273e+001
 2.787613491010467e+000	 1.899625694414908e+000	 1.128593001071691e+001
 2.766635739460210e+000	 1.930050065184955e+000	 1.129355843070719e+001
 2.745305150791908e+000	 1.960271952769154e+000	 1.130039697313098e+001
 2.965694570108715e+000	 1.662725728608005e+000	 1.123410620177685e+001
 2.947483798177338e+000	 1.694797929960343e+000	 1.123170579121680e+001
 2.928899221696398e+000	 1.726716448985847e+000	 1.123380253426370e+001
 2.909942610804364e+000	 1.758474879052459e+000	 1.123909236087837e+001
 2.890615879789327e+000	 1.790066835929240e+000	 1.124633919910309e+001
 2.870921086910895e+000	 1.821485961785593e+000	 1.125439824848526e+001
 2.850860434090400e+000	 1.852725929198409e+000	 1.126224015675075e+001
 2.830436266468553e+000	 1.883780445162080e+000	 1.126897595498946e+001
 2.809651071830005e+000	 1.914643255096348e+000	 1.127388259453302e+001
 2.788507479894426e+000	 1.945308146846862e+000	 1.127642891750367e+001
 2.767008261473969e+000	 1.975768954673289e+000	 1.127630188281200e+001
 2.549977154652176e+000	 1.820798935610175e+000	 1.145386816964652e+001
 2.529839182825770e+000	 1.848676828161380e+000	 1.145822567631022e+001
 2.509378967208837e+000	 1.876355419114987e+000	 1.145180076820158e+001
 2.488599441235097e+000	 1.903829172691866e+000	 1.143456541503349e+001
 2.467503664099979e+000	 1.931092610269970e+000	 1.140652909105391e+001
 2.446094819379461e+000	 1.958140313934778e+000	 1.136771954086322e+001
 2.424376213529276e+000	 1.984966929989930e+000	 1.131816261679066e+001
 2.402351274265837e+000	 2.011567172423368e+000	 1.126094433015049e+001
 2.380023548830396e+000	 2.037935826324343e+000	 1.121958732726590e+001
 2.357396702138207e+000	 2.064067751246718e+000	 1.119736345949440e+001
 2.334474514814633e+000	 2.089957884514068e+000	 1.119217295080821e+001
 2.571680265333477e+000	 1.836295937518066e+000	 1.143362627558489e+001
 2.551370897214117e+000	 1.864411101601794e+000	 1.144095060079004e+001
 2.530736542655011e+000	 1.892325267812062e+000	 1.143629830758695e+001
 2.509780160056639e+000	 1.920032853254175e+000	 1.141938009826347e+001
 2.488504834651568e+000	 1.947528332676985e+000	 1.138994377347102e+001
 2.466913777111521e+000	 1.974806242053562e+000	 1.134775436240732e+001
 2.445010322033827e+000	 2.001861182121705e+000	 1.129265397838648e+001
 2.422797926308551e+000	 2.028687821879580e+000	 1.124312204455598e+001
 2.400280167367885e+000	 2.055280902031814e+000	 1.121190583499194e+001
 2.377460741319559e+000	 2.081635238381421e+000	 1.119670063610585e+001
 2.354343460966238e+000	 2.107745725163034e+000	 1.119508146762723e+001
 2.593383376015194e+000	 1.851792939425738e+000	 1.141609783508634e+001
 2.572902611602827e+000	 1.880145375042032e+000	 1.142525724498804e+001
 2.552094118101473e+000	 1.908295116508996e+000	 1.142086966785242e+001
 2.530960878878383e+000	 1.936236533816368e+000	 1.140246250569578e+001
 2.509506005203260e+000	 1.963964055083904e+000	 1.136960244545661e+001
 2.487732734843586e+000	 1.991472170172263e+000	 1.132187477820918e+001
 2.465644430538283e+000	 2.018755434253400e+000	 1.126706206056431e+001
 2.443244578351072e+000	 2.045808471335707e+000	 1.122857427051234e+001
 2.420536785905097e+000	 2.072625977739186e+000	 1.120572440331748e+001
 2.397524780500567e+000	 2.099202725516005e+000	 1.119597778367981e+001
 2.374212407117443e+000	 2.125533565811849e+000	 1.119667216298056e+001
 2.615086486697246e+000	 1.867289941333142e+000	 1.140050963967433e+001
 2.594434325991823e+000	 1.895879648482040e+000	 1.141030353968680e+001
 2.573451693548162e+000	 1.924264965205734e+000	 1.140463512976953e+001
 2.552141597700285e+000	 1.952440214378395e+000	 1.138292499444062e+001
 2.530507175755037e+000	 1.980399777490679e+000	 1.134463776184517e+001
 2.508551692575658e+000	 2.008138098290838e+000	 1.129081830649208e+001
 2.486278539042668e+000	 2.035649686384982e+000	 1.124592084584772e+001
 2.463691230393453e+000	 2.062929120791727e+000	 1.121667028551842e+001
 2.440793404442102e+000	 2.089971053446450e+000	 1.120053095666241e+001
 2.417588819681313e+000	 2.116770212650470e+000	 1.119482305572189e+001
 2.394081353268349e+000	 2.143321406460531e+000	 1.119673300065938e+001
 2.636789597379548e+000	 1.882786943240229e+000	 1.138618320753219e+001
 2.615966040381032e+000	 1.911613921921764e+000	 1.139534176456064e+001
 2.594809268995017e+000	 1.940234813902221e+000	 1.138680771854830e+001
 2.573322316522301e+000	 1.968643894940201e+000	 1.135996990402653e+001
 2.551508346306874e+000	 1.996835499897263e+000	 1.131426851090281e+001
 2.529370650307736e+000	 2.024804026409246e+000	 1.126364245745607e+001
 2.506912647547007e+000	 2.052543938516416e+000	 1.122856215053491e+001
 2.484137882435738e+000	 2.080049770247615e+000	 1.120683245801510e+001
 2.461050022978969e+000	 2.107316129153594e+000	 1.119586124219881e+001
 2.437652858861884e+000	 2.134337699784820e+000	 1.119290650260601e+001
 2.413950299419056e+000	 2.161109247109096e+000	 1.119508731963299e+001
 2.658492708062018e+000	 1.898283945146948e+000	 1.137253201221992e+001
 2.637497754770377e+000	 1.927348195361151e+000	 1.137971564613597e+001
 2.616166844441978e+000	 1.956204662598404e+000	 1.136669021817975e+001
 2.594503035344390e+000	 1.984847575501736e+000	 1.133288653198986e+001
 2.572509516858754e+000	 2.013271222303608e+000	 1.128196596281111e+001
 2.550189608039823e+000	 2.041469954527444e+000	 1.124138217030795e+001
 2.527546756051328e+000	 2.069438190647670e+000	 1.121437273281001e+001
 2.504584534477977e+000	 2.097170419703349e+000	 1.119853375158171e+001
 2.481306641515768e+000	 2.124661204860606e+000	 1.119129657022502e+001
 2.457716898042369e+000	 2.151905186919057e+000	 1.118993807922266e+001
 2.433819245569663e+000	 2.178897087757561e+000	 1.119159213723934e+001
 2.680195818744573e+000	 1.913780947053250e+000	 1.135848901173454e+001
 2.659029469159782e+000	 1.943082468800149e+000	 1.136285753968577e+001
 2.637524419888981e+000	 1.972174511294227e+000	 1.134367227121474e+001
 2.615683754166508e+000	 2.001051256062946e+000	 1.130107446777969e+001
 2.593510687410649e+000	 2.029706944709663e+000	 1.125547180954704e+001
 2.571008565771920e+000	 2.058135882645392e+000	 1.122341770194125e+001
 2.548180864555651e+000	 2.086332442778711e+000	 1.120279166561602e+001
 2.525031186520220e+000	 2.114291069158907e+000	 1.119129529198309e+001
 2.501563260052567e+000	 2.142006280567476e+000	 1.118646160772184e+001
 2.477780937222855e+000	 2.169472674053184e+000	 1.118566569472167e+001
 2.453688191720270e+000	 2.196684928405941e+000	 1.118613648209546e+001
 2.701898929427128e+000	 1.929277948959084e+000	 1.134174066541867e+001
 2.680561183549176e+000	 1.958816742238704e+000	 1.134364154663743e+001
 2.658881995335964e+000	 1.988144359989638e+000	 1.131722755917440e+001
 2.636864472988613e+000	 2.017254936623779e+000	 1.127097347478783e+001
 2.614511857962542e+000	 2.046142667115383e+000	 1.123442530390752e+001
 2.591827523504031e+000	 2.074801810763047e+000	 1.120918235473323e+001
 2.568814973060007e+000	 2.103226694909506e+000	 1.119330777650731e+001
 2.545477838562512e+000	 2.131411718614264e+000	 1.118468399353224e+001
 2.521819878589437e+000	 2.159351356274191e+000	 1.118102222209956e+001
 2.497844976403427e+000	 2.187040161187201e+000	 1.117987330198212e+001
 2.473557137870976e+000	 2.214472769054255e+000	 1.117863975505672e+001
 2.723602040109602e+000	 1.944774950864403e+000	 1.132229507965466e+001
 2.702092897938480e+000	 1.974551015676761e+000	 1.131964636822370e+001
 2.680239570782870e+000	 2.004114208684582e+000	 1.128666041736567e+001
 2.658045191810659e+000	 2.033458617184183e+000	 1.124750222882297e+001
 2.635513028514410e+000	 2.062578389520717e+000	 1.121828128941282e+001
 2.612646481236155e+000	 2.091467738880369e+000	 1.119815983224183e+001
 2.589449081564420e+000	 2.120120947040020e+000	 1.118545715074645e+001
 2.565924490604902e+000	 2.148532368069398e+000	 1.117831024146151e+001
 2.542076497126445e+000	 2.176696431980742e+000	 1.117468337233684e+001
 2.517909015584173e+000	 2.204607648321111e+000	 1.117237902459402e+001
 2.493426084021882e+000	 2.232260609702518e+000	 1.116905011666034e+001
 2.745305150791908e+000	 1.960271952769154e+000	 1.130039697313098e+001
 2.723624612327620e+000	 1.990285289114268e+000	 1.129084967590412e+001
 2.701597146229636e+000	 2.020084057379005e+000	 1.125778746776583e+001
 2.679225910632606e+000	 2.049662297744106e+000	 1.122957713046191e+001
 2.656514199066231e+000	 2.079014111925619e+000	 1.120654477207511e+001
 2.633465438968294e+000	 2.108133666997313e+000	 1.118988166007138e+001
 2.610083190068913e+000	 2.137015199170221e+000	 1.117882069414481e+001
 2.586371142647441e+000	 2.165653017524286e+000	 1.117182562720149e+001
 2.562333115663661e+000	 2.194041507687116e+000	 1.116718704488875e+001
 2.537973054765180e+000	 2.222175135454916e+000	 1.116303331927560e+001
 2.513295030173088e+000	 2.250048450350747e+000	 1.115734289958786e+001
 2.767008261473969e+000	 1.975768954673289e+000	 1.127630188281200e+001
 2.745156326716522e+000	 2.006019562551172e+000	 1.125830682395484e+001
 2.722954721676198e+000	 2.036053906072851e+000	 1.123376679487740e+001
 2.700406629454409e+000	 2.065865978303493e+000	 1.121445666712343e+001
 2.677515369617984e+000	 2.095449834330041e+000	 1.119831383131201e+001
 2.654284396700450e+000	 2.124799595113841e+000	 1.118392466832837e+001
 2.630717298573514e+000	 2.153909451300075e+000	 1.117302175236701e+001
 2.606817794690175e+000	 2.182773666978905e+000	 1.116492073366361e+001
 2.582589734201157e+000	 2.211386583393304e+000	 1.115831023190570e+001
 2.558037093946534e+000	 2.239742622588618e+000	 1.115171717178028e+001
 2.533163976324692e+000	 2.267836290998960e+000	 1.114351904477231e+001
 2.334474514814633e+000	 2.089957884514068e+000	 1.119217295080821e+001
 2.311264384991488e+000	 2.115597417230627e+000	 1.119141395500835e+001
 2.287766902175922e+000	 2.140985357364761e+000	 1.118430667564713e+001
 2.263986181384554e+000	 2.166116898914944e+000	 1.117137382099782e+001
 2.239926444295830e+000	 2.190987326190443e+000	 1.115310221170924e+001
 2.215592016756413e+000	 2.215592016756412e+000	 1.112994937595195e+001
 2.190987326190444e+000	 2.239926444295831e+000	 1.110235044645042e+001
 2.166116898914944e+000	 2.263986181384554e+000	 1.107072527512933e+001
 2.140985357364762e+000	 2.287766902175922e+000	 1.103548567910097e+001
 2.115597417230626e+000	 2.311264384991489e+000	 1.099704273052990e+001
 2.089957884514069e+000	 2.334474514814633e+000	 1.095581400254498e+001
 2.354343460966238e+000	 2.107745725163034e+000	 1.119508146762723e+001
 2.330935787405982e+000	 2.133603478507495e+000	 1.119462198635275e+001
 2.307238315163295e+000	 2.159207497939899e+000	 1.118534600152962e+001
 2.283255194278109e+000	 2.184552936554364e+000	 1.116839390173566e+001
 2.258990682359991e+000	 2.209635038524449e+000	 1.114487933489980e+001
 2.234449142073308e+000	 2.234449142073308e+000	 1.111589514089251e+001
 2.209635038524449e+000	 2.258990682359990e+000	 1.108251958551301e+001
 2.184552936554364e+000	 2.283255194278110e+000	 1.104582280878580e+001
 2.159207497939899e+000	 2.307238315163295e+000	 1.100687339840001e+001
 2.133603478507495e+000	 2.330935787405982e+000	 1.096674499789692e+001
 2.107745725163034e+000	 2.354343460966238e+000	 1.092652285884695e+001
 2.374212407117443e+000	 2.125533565811849e+000	 1.119667216298056e+001
 2.350607189820049e+000	 2.151609539784174e+000	 1.119573749780065e+001
 2.326709728150233e+000	 2.177429638514804e+000	 1.118405503539998e+001
 2.302524207171238e+000	 2.202988974193504e+000	 1.116328003715001e+001
 2.278054920423748e+000	 2.228282750858128e+000	 1.113504825251365e+001
 2.253306267389836e+000	 2.253306267389836e+000	 1.110098140170878e+001
 2.228282750858128e+000	 2.278054920423748e+000	 1.106269296328000e+001
 2.202988974193504e+000	 2.302524207171238e+000	 1.102179417601978e+001
 2.177429638514803e+000	 2.326709728150233e+000	 1.097990016251183e+001
 2.151609539784174e+000	 2.350607189820048e+000	 1.093863608029260e+001
 2.125533565811849e+000	 2.374212407117443e+000	 1.089964320625833e+001
 2.394081353268349e+000	 2.143321406460531e+000	 1.119673300065938e+001
 2.370278592233794e+000	 2.169615601060698e+000	 1.119469996566705e+001
 2.346181141136843e+000	 2.195651779089522e+000	 1.118049176363598e+001
 2.321793220064046e+000	 2.221425011832426e+000	 1.115617839723064e+001
 2.297119158487202e+000	 2.246930463191558e+000	 1.112381569033578e+001
 2.272163392706085e+000	 2.272163392706085e+000	 1.108545053201362e+001
 2.246930463191558e+000	 2.297119158487202e+000	 1.104312643288560e+001
 2.221425011832426e+000	 2.321793220064046e+000	 1.099888929924750e+001
 2.195651779089522e+000	 2.346181141136843e+000	 1.095479332795506e+001
 2.169615601060697e+000	 2.370278592233793e+000	 1.091290692378538e+001
 2.143321406460531e+000	 2.394081353268349e+000	 1.087531854059831e+001
 2.413950299419056e+000	 2.161109247109096e+000	 1.119508731963298e+001
 2.389949994647324e+000	 2.187621662337096e+000	 1.119147803728245e+001
 2.365652554123235e+000	 2.213873919664102e+000	 1.117473826479692e+001
 2.341062232956640e+000	 2.239861049471193e+000	 1.114725519659332e+001
 2.316183396550450e+000	 2.265578175524814e+000	 1.111140530720883e+001
 2.291020518022143e+000	 2.291020518022143e+000	 1.106955956649795e+001
 2.265578175524814e+000	 2.316183396550451e+000	 1.102408897877896e+001
 2.239861049471193e+000	 2.341062232956640e+000	 1.097737034644112e+001
 2.213873919664102e+000	 2.365652554123235e+000	 1.093179215613561e+001
 2.187621662337096e+000	 2.389949994647325e+000	 1.088976048427609e+001
 2.161109247109096e+000	 2.413950299419056e+000	 1.085370481817563e+001
 2.433819245569663e+000	 2.178897087757561e+000	 1.119159213723934e+001
 2.409621397060749e+000	 2.205627723613400e+000	 1.118606812038441e+001
 2.385123967109518e+000	 2.232096060238592e+000	 1.116689954256486e+001
 2.360331245849126e+000	 2.258297087109868e+000	 1.113669573179790e+001
 2.335247634613596e+000	 2.284225887857976e+000	 1.109805690107238e+001
 2.309877643338102e+000	 2.309877643338101e+000	 1.105357954358379e+001
 2.284225887857977e+000	 2.335247634613597e+000	 1.100586216746060e+001
 2.258297087109868e+000	 2.360331245849125e+000	 1.095751126502300e+001
 2.232096060238591e+000	 2.385123967109518e+000	 1.091114740910053e+001
 2.205627723613399e+000	 2.409621397060749e+000	 1.086941136745965e+001
 2.178897087757560e+000	 2.433819245569663e+000	 1.083497012597051e+001
 2.453688191720270e+000	 2.196684928405941e+000	 1.118613648209546e+001
 2.429292799474172e+000	 2.223633784889643e+000	 1.117849299038837e+001
 2.404595380095800e+000	 2.250318200813038e+000	 1.115710236687001e+001
 2.379600258741609e+000	 2.276733124748515e+000	 1.112470341912666e+001
 2.354311872676735e+000	 2.302873600191120e+000	 1.108402560953009e+001
 2.328734768654050e+000	 2.328734768654050e+000	 1.103779483828566e+001
 2.302873600191121e+000	 2.354311872676736e+000	 1.098873958554015e+001
 2.276733124748514e+000	 2.379600258741609e+000	 1.093959730144351e+001
 2.250318200813038e+000	 2.404595380095800e+000	 1.089312093040332e+001
 2.223633784889643e+000	 2.429292799474172e+000	 1.085208545420762e+001
 2.196684928405941e+000	 2.453688191720269e+000	 1.081929433824234e+001
 2.473557137870976e+000	 2.214472769054255e+000	 1.117863975505672e+001
 2.448964201887703e+000	 2.241639846165858e+000	 1.116880041453273e+001
 2.424066793082190e+000	 2.268540341387490e+000	 1.114549412274013e+001
 2.398869271634196e+000	 2.295169162387196e+000	 1.111149883279617e+001
 2.373376110739969e+000	 2.321521312524323e+000	 1.106958110525224e+001
 2.347591893970077e+000	 2.347591893970077e+000	 1.102250248583091e+001
 2.321521312524323e+000	 2.373376110739969e+000	 1.097302626582811e+001
 2.295169162387196e+000	 2.398869271634196e+000	 1.092392450724735e+001
 2.268540341387491e+000	 2.424066793082190e+000	 1.087798521191779e+001
 2.241639846165858e+000	 2.448964201887703e+000	 1.083801951219105e+001
 2.214472769054255e+000	 2.473557137870976e+000	 1.080686876032614e+001
 2.493426084021882e+000	 2.232260609702518e+000	 1.116905011666034e+001
 2.468635604301448e+000	 2.259645907442076e+000	 1.115706179195616e+001
 2.443538206068797e+000	 2.286762481961994e+000	 1.113224166644385e+001
 2.418138284526992e+000	 2.313605200025974e+000	 1.109731874357904e+001
 2.392440348803396e+000	 2.340169024857662e+000	 1.105500678650163e+001
 2.366449019286273e+000	 2.366449019286272e+000	 1.100801149655467e+001
 2.340169024857661e+000	 2.392440348803396e+000	 1.095903810212936e+001
 2.313605200025974e+000	 2.418138284526992e+000	 1.091079923238185e+001
 2.286762481961994e+000	 2.443538206068797e+000	 1.086602294738452e+001
 2.259645907442075e+000	 2.468635604301448e+000	 1.082746079451181e+001
 2.232260609702518e+000	 2.493426084021882e+000	 1.079789576033257e+001
 2.513295030173088e+000	 2.250048450350747e+000	 1.115734289958786e+001
 2.488307006715512e+000	 2.277651968718327e+000	 1.114337080882638e+001
 2.463009619055729e+000	 2.304984622536598e+000	 1.111753018852313e+001
 2.437407297420105e+000	 2.332041237664912e+000	 1.108241515781300e+001
 2.411504586867115e+000	 2.358816737191213e+000	 1.104059896305246e+001
 2.385306144602727e+000	 2.385306144602727e+000	 1.099464216255188e+001
 2.358816737191213e+000	 2.411504586867115e+000	 1.094710125336342e+001
 2.332041237664912e+000	 2.437407297420106e+000	 1.090053760645379e+001
 2.304984622536598e+000	 2.463009619055729e+000	 1.085752657342422e+001
 2.277651968718327e+000	 2.488307006715513e+000	 1.082066662606058e+001
 2.250048450350747e+000	 2.513295030173087e+000	 1.079258838942100e+001
 2.533163976324692e+000	 2.267836290998960e+000	 1.114351904477231e+001
 2.507978409130006e+000	 2.295658029994647e+000	 1.112784210769305e+001
 2.482481032043097e+000	 2.323206763111350e+000	 1.110156208333793e+001
 2.456676310313640e+000	 2.350477275304074e+000	 1.106705435677537e+001
 2.430568824931228e+000	 2.377464449525057e+000	 1.102666603775605e+001
 2.404163269919529e+000	 2.404163269919529e+000	 1.098272535653970e+001
 2.377464449525057e+000	 2.430568824931227e+000	 1.093755153759734e+001
 2.350477275304074e+000	 2.456676310313640e+000	 1.089346500859553e+001
 2.323206763111350e+000	 2.482481032043097e+000	 1.085279779870562e+001
 2.295658029994646e+000	 2.507978409130006e+000	 1.081790397827591e+001
 2.267836290998959e+000	 2.533163976324692e+000	 1.079116999127262e+001
 2.089957884514069e+000	 2.334474514814633e+000	 1.095581400254499e+001
 2.064067751246718e+000	 2.357396702138207e+000	 1.091132342609452e+001
 2.037935826324343e+000	 2.380023548830395e+000	 1.086069079894279e+001
 2.011567172423368e+000	 2.402351274265837e+000	 1.080073181328920e+001
 1.984966929989930e+000	 2.424376213529276e+000	 1.073183936867820e+001
 1.958140313934778e+000	 2.446094819379461e+000	 1.066849868586943e+001
 1.931092610269970e+000	 2.467503664099979e+000	 1.061201436272949e+001
 1.903829172691866e+000	 2.488599441235097e+000	 1.056160576570639e+001
 1.876355419114987e+000	 2.509378967208838e+000	 1.051641062552270e+001
 1.848676828161380e+000	 2.529839182825770e+000	 1.047544624502071e+001
 1.820798935610176e+000	 2.549977154652176e+000	 1.043757235583123e+001
 2.107745725163034e+000	 2.354343460966238e+000	 1.092652285884695e+001
 2.081635238381421e+000	 2.377460741319560e+000	 1.088602988950010e+001
 2.055280902031814e+000	 2.400280167367884e+000	 1.084204923064529e+001
 2.028687821879580e+000	 2.422797926308551e+000	 1.079111435230320e+001
 2.001861182121705e+000	 2.445010322033828e+000	 1.072978674254342e+001
 1.974806242053562e+000	 2.466913777111521e+000	 1.066486505623773e+001
 1.947528332676985e+000	 2.488504834651568e+000	 1.060773548654252e+001
 1.920032853254174e+000	 2.509780160056640e+000	 1.055742093554534e+001
 1.892325267812062e+000	 2.530736542655012e+000	 1.051280083018454e+001
 1.864411101601794e+000	 2.551370897214117e+000	 1.047262448977389e+001
 1.836295937518066e+000	 2.571680265333477e+000	 1.043547200696828e+001
 2.125533565811849e+000	 2.374212407117443e+000	 1.089964320625832e+001
 2.099202725516006e+000	 2.397524780500568e+000	 1.086290512695232e+001
 2.072625977739186e+000	 2.420536785905096e+000	 1.082486225129802e+001
 2.045808471335707e+000	 2.443244578351072e+000	 1.078185281825235e+001
 2.018755434253400e+000	 2.465644430538283e+000	 1.073024329319459e+001
 1.991472170172263e+000	 2.487732734843587e+000	 1.066760558729937e+001
 1.963964055083904e+000	 2.509506005203261e+000	 1.060819593349634e+001
 1.936236533816368e+000	 2.530960878878383e+000	 1.055631491155346e+001
 1.908295116508996e+000	 2.552094118101472e+000	 1.051067913663375e+001
 1.880145375042031e+000	 2.572902611602827e+000	 1.046986476466798e+001
 1.851792939425738e+000	 2.593383376015194e+000	 1.043226610912165e+001
 2.143321406460531e+000	 2.394081353268349e+000	 1.087531854059831e+001
 2.116770212650470e+000	 2.417588819681313e+000	 1.084204800060125e+001
 2.089971053446451e+000	 2.440793404442101e+000	 1.080919749292790e+001
 2.062929120791727e+000	 2.463691230393453e+000	 1.077299490148099e+001
 2.035649686384982e+000	 2.486278539042668e+000	 1.072969725906217e+001
 2.008138098290838e+000	 2.508551692575658e+000	 1.067560495959515e+001
 1.980399777490679e+000	 2.530507175755036e+000	 1.061334348664355e+001
 1.952440214378395e+000	 2.552141597700285e+000	 1.055824766486343e+001
 1.924264965205734e+000	 2.573451693548162e+000	 1.051002095194685e+001
 1.895879648482040e+000	 2.594434325991823e+000	 1.046715982754094e+001
 1.867289941333142e+000	 2.615086486697246e+000	 1.042796534212173e+001
 2.161109247109096e+000	 2.413950299419056e+000	 1.085370481817563e+001
 2.134337699784820e+000	 2.437652858861884e+000	 1.082357016565531e+001
 2.107316129153595e+000	 2.461050022978969e+000	 1.079513523949858e+001
 2.080049770247615e+000	 2.484137882435739e+000	 1.076460039219924e+001
 2.052543938516416e+000	 2.506912647547007e+000	 1.072819676219651e+001
 2.024804026409246e+000	 2.529370650307736e+000	 1.068220116214021e+001
 1.996835499897263e+000	 2.551508346306874e+000	 1.062311288707636e+001
 1.968643894940202e+000	 2.573322316522302e+000	 1.056315879187404e+001
 1.940234813902220e+000	 2.594809268995017e+000	 1.051077385897162e+001
 1.911613921921764e+000	 2.615966040381032e+000	 1.046446714569814e+001
 1.882786943240229e+000	 2.636789597379548e+000	 1.042253771177090e+001
 2.178897087757560e+000	 2.433819245569663e+000	 1.083497012597051e+001
 2.151905186919057e+000	 2.457716898042369e+000	 1.080759577532218e+001
 2.124661204860606e+000	 2.481306641515767e+000	 1.078276818524802e+001
 2.097170419703349e+000	 2.504584534477977e+000	 1.075674100789249e+001
 2.069438190647671e+000	 2.527546756051328e+000	 1.072580103381773e+001
 2.041469954527445e+000	 2.550189608039823e+000	 1.068628364251487e+001
 2.013271222303608e+000	 2.572509516858754e+000	 1.063458752362459e+001
 1.984847575501735e+000	 2.594503035344390e+000	 1.057097495259190e+001
 1.956204662598403e+000	 2.616166844441977e+000	 1.051286491802088e+001
 1.927348195361151e+000	 2.637497754770376e+000	 1.046171605589174e+001
 1.898283945146948e+000	 2.658492708062018e+000	 1.041591556074262e+001
 2.196684928405941e+000	 2.453688191720269e+000	 1.081929433824234e+001
 2.169472674053184e+000	 2.477780937222855e+000	 1.079426117296865e+001
 2.142006280567476e+000	 2.501563260052567e+000	 1.077220118013401e+001
 2.114291069158906e+000	 2.525031186520220e+000	 1.074950020695930e+001
 2.086332442778711e+000	 2.548180864555652e+000	 1.072258030821938e+001
 2.058135882645392e+000	 2.571008565771921e+000	 1.068791564857774e+001
 2.029706944709663e+000	 2.593510687410649e+000	 1.064204763465820e+001
 2.001051256062946e+000	 2.615683754166508e+000	 1.058159916368879e+001
 1.972174511294227e+000	 2.637524419888981e+000	 1.051620794367975e+001
 1.943082468800149e+000	 2.659029469159783e+000	 1.045881489680735e+001
 1.913780947053250e+000	 2.680195818744573e+000	 1.040879260665188e+001
 2.214472769054255e+000	 2.473557137870976e+000	 1.080686876032614e+001
 2.187040161187200e+000	 2.497844976403427e+000	 1.078371457221769e+001
 2.159351356274192e+000	 2.521819878589436e+000	 1.076355096311186e+001
 2.131411718614264e+000	 2.545477838562512e+000	 1.074297298935185e+001
 2.103226694909506e+000	 2.568814973060009e+000	 1.071861570224928e+001
 2.074801810763048e+000	 2.591827523504031e+000	 1.068717039517360e+001
 2.046142667115383e+000	 2.614511857962541e+000	 1.064540003744142e+001
 2.017254936623779e+000	 2.636864472988613e+000	 1.059015377642667e+001
 1.988144359989638e+000	 2.658881995335965e+000	 1.052071075812493e+001
 1.958816742238703e+000	 2.680561183549176e+000	 1.045655158313716e+001
 1.929277948959085e+000	 2.701898929427129e+000	 1.040394122860225e+001
 2.232260609702518e+000	 2.493426084021882e+000	 1.079789576033257e+001
 2.204607648321111e+000	 2.517909015584173e+000	 1.077611572565638e+001
 2.176696431980743e+000	 2.542076497126444e+000	 1.075694588392339e+001
 2.148532368069398e+000	 2.565924490604902e+000	 1.073726568494378e+001
 2.120120947040020e+000	 2.589449081564420e+000	 1.071399908117192e+001
 2.091467738880369e+000	 2.612646481236154e+000	 1.068413101582066e+001
 2.062578389520717e+000	 2.635513028514410e+000	 1.064472305280908e+001
 2.033458617184183e+000	 2.658045191810659e+000	 1.059292802456272e+001
 2.004114208684582e+000	 2.680239570782871e+000	 1.052691157969275e+001
 1.974551015676761e+000	 2.702092897938480e+000	 1.045786320218777e+001
 1.944774950864403e+000	 2.723602040109602e+000	 1.040130176768497e+001
 2.250048450350747e+000	 2.513295030173087e+000	 1.079258838942100e+001
 2.222175135454916e+000	 2.537973054765179e+000	 1.077163558278387e+001
 2.194041507687117e+000	 2.562333115663662e+000	 1.075252561403267e+001
 2.165653017524286e+000	 2.586371142647441e+000	 1.073249573030452e+001
 2.137015199170221e+000	 2.610083190068913e+000	 1.070883291166594e+001
 2.108133666997313e+000	 2.633465438968294e+000	 1.067889049984604e+001
 2.079014111925619e+000	 2.656514199066230e+000	 1.064010392174383e+001
 2.049662297744106e+000	 2.679225910632606e+000	 1.059082439819476e+001
 2.020084057379004e+000	 2.701597146229636e+000	 1.053218251425953e+001
 1.990285289114268e+000	 2.723624612327620e+000	 1.046272688569821e+001
 1.960271952769154e+000	 2.745305150791909e+000	 1.040055999998572e+001
 2.267836290998959e+000	 2.533163976324692e+000	 1.079116999127262e+001
 2.239742622588619e+000	 2.558037093946534e+000	 1.077045593779134e+001
 2.211386583393305e+000	 2.582589734201157e+000	 1.075044084730474e+001
 2.182773666978905e+000	 2.606817794690176e+000	 1.072879143451733e+001
 2.153909451300075e+000	 2.630717298573514e+000	 1.070323010266324e+001
 2.124799595113840e+000	 2.654284396700450e+000	 1.067155161576783e+001
 2.095449834330041e+000	 2.677515369617983e+000	 1.063227597765295e+001
 2.065865978303493e+000	 2.700406629454409e+000	 1.058732807785112e+001
 2.036053906072851e+000	 2.722954721676199e+000	 1.053440696306938e+001
 2.006019562551172e+000	 2.745156326716522e+000	 1.047028436103872e+001
 1.975768954673289e+000	 2.767008261473968e+000	 1.040144237604535e+001
 1.820798935610176e+000	 2.549977154652176e+000	 1.043757235583123e+001
 1.792727330205413e+000	 2.569790075552224e+000	 1.039326026580697e+001
 1.764467648259313e+000	 2.589275263636230e+000	 1.033610714419189e+001
 1.736025571900472e+000	 2.608430165421335e+000	 1.026933292675928e+001
 1.707406826031018e+000	 2.627252357450538e+000	 1.019587667820738e+001
 1.678617174651289e+000	 2.645739547069144e+000	 1.011836337919736e+001
 1.649662417173072e+000	 2.663889573078078e+000	 1.003907418370863e+001
 1.620548384726113e+000	 2.681700406264190e+000	 9.960808494787186e+000
 1.591280936462618e+000	 2.699170149807902e+000	 9.886657301519870e+000
 1.561865955864427e+000	 2.716297039568712e+000	 9.817968691707680e+000
 1.532309347057451e+000	 2.733079444249318e+000	 9.755983328866721e+000
 1.836295937518066e+000	 2.571680265333477e+000	 1.043547200696828e+001
 1.807985411871278e+000	 2.591661815985435e+000	 1.039184334401250e+001
 1.779485208944865e+000	 2.611312844454483e+000	 1.033552087697153e+001
 1.750801059228598e+000	 2.630630775524840e+000	 1.026965796468973e+001
 1.721938736349818e+000	 2.649613165113236e+000	 1.019710963406478e+001
 1.692904053366853e+000	 2.668257701051977e+000	 1.012040648867549e+001
 1.663702859050867e+000	 2.686562203747828e+000	 1.004309014749193e+001
 1.634341034160935e+000	 2.704524626716821e+000	 9.967757014665271e+000
 1.604824487717100e+000	 2.722143056995375e+000	 9.895760112910590e+000
 1.575159153276105e+000	 2.739415715428226e+000	 9.828362262049334e+000
 1.545350985214473e+000	 2.756340956833962e+000	 9.766754481413939e+000
 1.851792939425738e+000	 2.593383376015194e+000	 1.043226610912165e+001
 1.823243493536874e+000	 2.613533556419093e+000	 1.038850950340841e+001
 1.794502769630099e+000	 2.633350425273200e+000	 1.033257965262458e+001
 1.765576546556352e+000	 2.652831385628806e+000	 1.026753422108153e+001
 1.736470646668198e+000	 2.671973972776374e+000	 1.019621384850656e+001
 1.707190932081953e+000	 2.690775855035223e+000	 1.012266856800071e+001
 1.677743300928162e+000	 2.709234834417954e+000	 1.004913847393647e+001
 1.648133683595235e+000	 2.727348847169784e+000	 9.976990103546507e+000
 1.618368038971053e+000	 2.745115964183133e+000	 9.907482805271590e+000
 1.588452350687268e+000	 2.762534391287983e+000	 9.841789298300361e+000
 1.558392623371014e+000	 2.779602469418803e+000	 9.781015176024809e+000
 1.867289941333142e+000	 2.615086486697246e+000	 1.042796534212173e+001
 1.838501575202161e+000	 2.635405296853118e+000	 1.038328310563424e+001
 1.809520330314980e+000	 2.655388006092302e+000	 1.032731441808036e+001
 1.780352033883710e+000	 2.675031995733159e+000	 1.026324738853469e+001
 1.751002556986143e+000	 2.694334780439896e+000	 1.019548210713557e+001
 1.721477810796585e+000	 2.713294009018838e+000	 1.012604169309666e+001
 1.691783742804964e+000	 2.731907465088427e+000	 1.005628859610180e+001
 1.661926333029029e+000	 2.750173067623071e+000	 9.987457675964119e+000
 1.631911590224498e+000	 2.768088871371186e+000	 9.920679075350364e+000
 1.601745548097935e+000	 2.785653067148001e+000	 9.857000099481530e+000
 1.571434261527091e+000	 2.802863982003876e+000	 9.797405938978704e+000
 1.882786943240229e+000	 2.636789597379548e+000	 1.042253771177090e+001
 1.853759656867096e+000	 2.657277037287426e+000	 1.037613875042491e+001
 1.824537890999473e+000	 2.677425586911706e+000	 1.032013797393142e+001
 1.795127521210649e+000	 2.697232605837831e+000	 1.025922794256923e+001
 1.765534467303639e+000	 2.716695588103744e+000	 1.019530429381471e+001
 1.735764689510745e+000	 2.735812163002779e+000	 1.012971365989832e+001
 1.705824184681278e+000	 2.754580095759224e+000	 1.006365081556397e+001
 1.675718982462327e+000	 2.772997288076670e+000	 9.998183994719739e+000
 1.645455141477451e+000	 2.791061778559538e+000	 9.934279306556601e+000
 1.615038745508127e+000	 2.808771743008305e+000	 9.872824061069798e+000
 1.584475899682721e+000	 2.826125494589216e+000	 9.814648831036044e+000
 1.898283945146948e+000	 2.658492708062018e+000	 1.041591556074262e+001
 1.869017738531634e+000	 2.679148777721928e+000	 1.036763533817310e+001
 1.839555451683543e+000	 2.699463167731334e+000	 1.031358510788022e+001
 1.809903008537143e+000	 2.719433215942749e+000	 1.025559860058922e+001
 1.780066377620673e+000	 2.739056395767860e+000	 1.019500157015817e+001
 1.750051568224430e+000	 2.758330316987007e+000	 1.013293934749318e+001
 1.719864626557111e+000	 2.777252726430318e+000	 1.007040470135913e+001
 1.689511631895144e+000	 2.795821508530576e+000	 1.000826492386088e+001
 1.658998692729931e+000	 2.814034685748200e+000	 9.947287922927618e+000
 1.628331942917861e+000	 2.831890418868914e+000	 9.888167121027715e+000
 1.597517537837919e+000	 2.849387007174854e+000	 9.831544977520291e+000
 1.913780947053250e+000	 2.680195818744573e+000	 1.040879260665188e+001
 1.884275820195732e+000	 2.701020518156543e+000	 1.036041542998926e+001
 1.854573012367156e+000	 2.721500748551103e+000	 1.030764787793485e+001
 1.824678495863168e+000	 2.741633826047844e+000	 1.025179722252655e+001
 1.794598287937230e+000	 2.761417203432182e+000	 1.019395704532588e+001
 1.764338446937635e+000	 2.780848470971473e+000	 1.013503770684451e+001
 1.733905068432467e+000	 2.799925357101683e+000	 1.007579620171466e+001
 1.703304281327492e+000	 2.818645728984777e+000	 1.001686515320144e+001
 1.672542243981954e+000	 2.837007592937177e+000	 9.958780717045990e+000
 1.641625140327156e+000	 2.855009094729854e+000	 9.902009182565580e+000
 1.610559175992701e+000	 2.872648519760826e+000	 9.846972078224990e+000
 1.929277948959085e+000	 2.701898929427129e+000	 1.040394122860225e+001
 1.899533901859347e+000	 2.722892258591184e+000	 1.035442063240081e+001
 1.869590573050279e+000	 2.743538329370937e+000	 1.030186389301660e+001
 1.839453983188698e+000	 2.763834436153043e+000	 1.024731839629867e+001
 1.809130198253296e+000	 2.783778011096656e+000	 1.019161259969910e+001
 1.778625325650358e+000	 2.803366624956139e+000	 1.013538871938844e+001
 1.747945510307352e+000	 2.822597987773292e+000	 1.007913472705672e+001
 1.717096930759385e+000	 2.841469949439266e+000	 1.002321539598491e+001
 1.686085795233540e+000	 2.859980500126478e+000	 9.967902153373714e+000
 1.654918337736034e+000	 2.878127770591143e+000	 9.913401514944766e+000
 1.623600814147085e+000	 2.895910032347164e+000	 9.859881898280465e+000
 1.944774950864403e+000	 2.723602040109602e+000	 1.040130176768497e+001
 1.914791983522436e+000	 2.744763999025769e+000	 1.034927120145486e+001
 1.884608133732874e+000	 2.765575910190751e+000	 1.029582219688808e+001
 1.854229470513710e+000	 2.786035046258275e+000	 1.024171008573959e+001
 1.823662108568856e+000	 2.806138818761223e+000	 1.018746567927695e+001
 1.792912204362594e+000	 2.825884778940959e+000	 1.013343032718548e+001
 1.761985952181773e+000	 2.845270618445119e+000	 1.007979020589661e+001
 1.730889580190835e+000	 2.864294169894032e+000	 1.002660956118907e+001
 1.699629346484705e+000	 2.882953407316110e+000	 9.973862648374576e+000
 1.668211535144512e+000	 2.901246446452806e+000	 9.921464133546966e+000
 1.636642452301086e+000	 2.919171544933902e+000	 9.869297741042121e+000
 1.960271952769154e+000	 2.745305150791909e+000	 1.040055999998572e+001
 1.930050065184955e+000	 2.766635739460210e+000	 1.034463347269270e+001
 1.899625694414909e+000	 2.787613491010468e+000	 1.028915973058860e+001
 1.869004957838178e+000	 2.808235656363468e+000	 1.023457025059873e+001
 1.838194018883899e+000	 2.828499626425822e+000	 1.018106606241402e+001
 1.807199083074341e+000	 2.848402932925892e+000	 1.012865533620053e+001
 1.776026394055733e+000	 2.867943249117138e+000	 1.007719011509665e+001
 1.744682229621855e+000	 2.887118390349068e+000	 1.002640190187465e+001
 1.713172897735468e+000	 2.905926314506080e+000	 9.975935828708852e+000
 1.681504732552608e+000	 2.924365122314863e+000	 9.925383160356839e+000
 1.649684090454720e+000	 2.942433057521074e+000	 9.874311903995318e+000
 1.975768954673289e+000	 2.767008261473968e+000	 1.040144237604535e+001
 1.945308146846862e+000	 2.788507479894426e+000	 1.034021612931124e+001
 1.914643255096348e+000	 2.809651071830004e+000	 1.028155776874502e+001
 1.883780445162079e+000	 2.830436266468553e+000	 1.022554344014063e+001
 1.852725929198409e+000	 2.850860434090399e+000	 1.017201260041754e+001
 1.821485961785593e+000	 2.870921086910894e+000	 1.012060829418633e+001
 1.790066835929240e+000	 2.890615879789326e+000	 1.007081648592269e+001
 1.758474879052460e+000	 2.909942610804365e+000	 1.002200414089399e+001
 1.726716448985847e+000	 2.928899221696398e+000	 9.973455768704206e+000
 1.694797929960344e+000	 2.947483798177338e+000	 9.924408165933448e+000
 1.662725728608005e+000	 2.965694570108715e+000	 9.874083118608912e+000
 1.532309347057451e+000	 2.733079444249318e+000	 9.755983328866718e+000
 1.502621494919892e+000	 2.749513426483720e+000	 9.704749424178766e+000
 1.472803909760124e+000	 2.765600166241469e+000	 9.662752477578607e+000
 1.442862534573746e+000	 2.781338433307961e+000	 9.622919243044661e+000
 1.412803318353237e+000	 2.796727129707190e+000	 9.578264753833270e+000
 1.382632212507476e+000	 2.811765289274062e+000	 9.521916060841962e+000
 1.352355167314767e+000	 2.826452077113804e+000	 9.447134216989873e+000
 1.321978128413372e+000	 2.840786788950489e+000	 9.350814611465140e+000
 1.291507033333439e+000	 2.854768850366804e+000	 9.264479722915151e+000
 1.260947808074111e+000	 2.868397815937405e+000	 9.195333197910873e+000
 1.230306363729441e+000	 2.881673368258283e+000	 9.141610741550071e+000
 1.545350985214473e+000	 2.756340956833962e+000	 9.766754481413939e+000
 1.515410456797143e+000	 2.772914810335272e+000	 9.715325388023176e+000
 1.485339091186876e+000	 2.789138465944542e+000	 9.673217060293643e+000
 1.455142881960698e+000	 2.805010682976676e+000	 9.633784537237709e+000
 1.424827828743552e+000	 2.820530354110669e+000	 9.590470846269296e+000
 1.394399933597354e+000	 2.835696504958287e+000	 9.536830617081183e+000
 1.363865197443819e+000	 2.850508293518875e+000	 9.466551847513918e+000
 1.333229616525126e+000	 2.864965009522324e+000	 9.373475904129890e+000
 1.302499178906338e+000	 2.879066073662390e+000	 9.277552443362755e+000
 1.271679861023363e+000	 2.892811036722655e+000	 9.201318045413609e+000
 1.240777624280165e+000	 2.906199578597639e+000	 9.143476509289044e+000
 1.558392623371014e+000	 2.779602469418803e+000	 9.781015176024811e+000
 1.528199418673973e+000	 2.796316194186986e+000	 9.729825674979711e+000
 1.497874272613285e+000	 2.812676765647745e+000	 9.687978954831197e+000
 1.467423229347397e+000	 2.828682932645490e+000	 9.649257748634623e+000
 1.436852339133718e+000	 2.844333578514223e+000	 9.607532732896756e+000
 1.406167654687189e+000	 2.859627720642560e+000	 9.556786038779716e+000
 1.375375227572934e+000	 2.874564509923965e+000	 9.491132815619285e+000
 1.344481104637046e+000	 2.889143230094151e+000	 9.404840796875192e+000
 1.313491324479492e+000	 2.903363296957934e+000	 9.302902683461014e+000
 1.282411913972944e+000	 2.917224257507826e+000	 9.219569965395372e+000
 1.251248884831276e+000	 2.930725788936877e+000	 9.157303178300847e+000
 1.571434261527091e+000	 2.802863982003876e+000	 9.797405938978704e+000
 1.540988380550389e+000	 2.819717578038901e+000	 9.746774576337478e+000
 1.510409454039345e+000	 2.836215065351122e+000	 9.705439103406407e+000
 1.479703576733828e+000	 2.852355182314455e+000	 9.667609415973027e+000
 1.448876849523699e+000	 2.868136802917896e+000	 9.627583593365378e+000
 1.417935375776931e+000	 2.883558936326929e+000	 9.579771329723434e+000
 1.386885257702045e+000	 2.898620726329122e+000	 9.518715312002316e+000
 1.355732592749046e+000	 2.913321450666013e+000	 9.439110494812105e+000
 1.324483470052802e+000	 2.927660520253484e+000	 9.337871847529087e+000
 1.293143966922747e+000	 2.941637478292966e+000	 9.247474724488678e+000
 1.261720145382654e+000	 2.955251999276043e+000	 9.180529175780949e+000
 1.584475899682721e+000	 2.826125494589216e+000	 9.814648831036040e+000
 1.553777342426400e+000	 2.843118961891062e+000	 9.764780372476762e+000
 1.522944635465056e+000	 2.859753365054722e+000	 9.724084917134780e+000
 1.491983924119970e+000	 2.876027431983614e+000	 9.687199039400486e+000
 1.460901359913464e+000	 2.891940027321741e+000	 9.648848062398050e+000
 1.429703096866527e+000	 2.907490152011438e+000	 9.603869433040931e+000
 1.398395287831081e+000	 2.922676942734390e+000	 9.547233932067000e+000
 1.366984080861041e+000	 2.937499671237958e+000	 9.474064669100299e+000
 1.335475615626169e+000	 2.951957743549081e+000	 9.379653833773361e+000
 1.303876019872661e+000	 2.966050699078124e+000	 9.282375724919346e+000
 1.272191405934185e+000	 2.979778209615192e+000	 9.210534757922822e+000
 1.597517537837919e+000	 2.849387007174854e+000	 9.831544977520291e+000
 1.566566304302014e+000	 2.866520345743511e+000	 9.782532938644646e+000
 1.535479816890413e+000	 2.883291664758588e+000	 9.742487948076240e+000
 1.504264271505810e+000	 2.899699681653019e+000	 9.706472809187272e+000
 1.472925870302978e+000	 2.915743251725803e+000	 9.669640005421581e+000
 1.441470817955927e+000	 2.931421367696138e+000	 9.627255043870530e+000
 1.409905317959977e+000	 2.946733159139817e+000	 9.574717515638843e+000
 1.378235568972946e+000	 2.961677891810029e+000	 9.507579822942496e+000
 1.346467761199496e+000	 2.976254966844774e+000	 9.421563544971344e+000
 1.314608072822576e+000	 2.990463919863343e+000	 9.321590804049627e+000
 1.282662666485751e+000	 3.004304419954371e+000	 9.244657745410519e+000
 1.610559175992701e+000	 2.872648519760826e+000	 9.846972078224990e+000
 1.579355266177241e+000	 2.889921729596284e+000	 9.798801333960121e+000
 1.548014998315415e+000	 2.906829964462771e+000	 9.759301548264137e+000
 1.516544618891328e+000	 2.923371931322718e+000	 9.723961325525805e+000
 1.484950380692207e+000	 2.939546476130134e+000	 9.688360289724582e+000
 1.453238539045079e+000	 2.955352583381074e+000	 9.648192422329066e+000
 1.421415348088662e+000	 2.970789375545450e+000	 9.599286992083808e+000
 1.389487057084678e+000	 2.985856112382272e+000	 9.537627026471238e+000
 1.357459906772683e+000	 3.000552190140606e+000	 9.459365297883945e+000
 1.325340125772382e+000	 3.014877140648669e+000	 9.362429056543029e+000
 1.293133927037235e+000	 3.028830630293632e+000	 9.280209287880188e+000
 1.623600814147085e+000	 2.895910032347164e+000	 9.859881898280465e+000
 1.592144228052090e+000	 2.913323113449428e+000	 9.812431374591974e+000
 1.560550179740057e+000	 2.930368264167312e+000	 9.773258516451090e+000
 1.528824966276507e+000	 2.947044180992758e+000	 9.738277309917093e+000
 1.496974891081117e+000	 2.963349700534780e+000	 9.703494551393801e+000
 1.465006260133933e+000	 2.979283799066296e+000	 9.665033206765889e+000
 1.432925378217068e+000	 2.994845591951334e+000	 9.619153230527706e+000
 1.400738545196150e+000	 3.010034332954731e+000	 9.562269794485703e+000
 1.368452052345631e+000	 3.024849413436621e+000	 9.490968900073710e+000
 1.336072178721969e+000	 3.039290361434152e+000	 9.402020372249567e+000
 1.303605187588521e+000	 3.053356840633026e+000	 9.314489655722117e+000
 1.636642452301086e+000	 2.919171544933902e+000	 9.869297741042121e+000
 1.604933189926567e+000	 2.936724497302984e+000	 9.822343191992182e+000
 1.573085361164337e+000	 2.953906563872260e+000	 9.783168733257078e+000
 1.541105313661329e+000	 2.970716430663187e+000	 9.748113308613688e+000
 1.508999401469674e+000	 2.987152924939791e+000	 9.713610958264368e+000
 1.476773981222437e+000	 3.003215014751852e+000	 9.676214227285604e+000
 1.444435408345127e+000	 3.018901808357515e+000	 9.632614894892344e+000
 1.411990033307279e+000	 3.034212553527452e+000	 9.579661973838688e+000
 1.379444197918242e+000	 3.049146636732866e+000	 9.514376955001472e+000
 1.346804231671228e+000	 3.063703582219837e+000	 9.433966297353960e+000
 1.314076448139491e+000	 3.077883050972602e+000	 9.344804057698028e+000
 1.649684090454720e+000	 2.942433057521074e+000	 9.874311903995318e+000
 1.617722151800683e+000	 2.960125881156992e+000	 9.827528777012100e+000
 1.585620542588254e+000	 2.977444863577661e+000	 9.787916785361444e+000
 1.553385661045779e+000	 2.994388680334057e+000	 9.752239388558996e+000
 1.521023911857845e+000	 3.010956149345216e+000	 9.717357969104510e+000
 1.488541702310539e+000	 3.027146230437786e+000	 9.680255319525264e+000
 1.455945438472771e+000	 3.042958024764042e+000	 9.638056303481434e+000
 1.423241521417981e+000	 3.058390774100482e+000	 9.588045639939729e+000
 1.390436343490416e+000	 3.073443860029386e+000	 9.527682786469415e+000
 1.357536284620048e+000	 3.088116803005770e+000	 9.454613924165667e+000
 1.324547708690028e+000	 3.102409261312412e+000	 9.368478482944056e+000
 1.662725728608005e+000	 2.965694570108715e+000	 9.874083118608912e+000
 1.630511113674446e+000	 2.983527265011494e+000	 9.827049510676103e+000
 1.598155724011803e+000	 3.000983163283563e+000	 9.786459579340313e+000
 1.565666008429836e+000	 3.018060930005414e+000	 9.749500826234440e+000
 1.533048422245595e+000	 3.034759373751101e+000	 9.713462089241732e+000
 1.500309423398188e+000	 3.051077446124149e+000	 9.675757138671639e+000
 1.467455468599930e+000	 3.067014241170959e+000	 9.633945292866709e+000
 1.434493009528169e+000	 3.082568994673866e+000	 9.585749001873996e+000
 1.401428489062056e+000	 3.097741083326226e+000	 9.529068376245396e+000
 1.368268337568320e+000	 3.112530023792000e+000	 9.461992665828094e+000
 1.335018969240017e+000	 3.126935471652506e+000	 9.382808720348974e+000
 1.230306363729441e+000	 2.881673368258283e+000	 9.141610741550071e+000
 1.199583979858828e+000	 2.894597229204027e+000	 9.093880428572554e+000
 1.168791122363753e+000	 2.907167317903020e+000	 9.043541343453731e+000
 1.137933641963362e+000	 2.919383696497329e+000	 8.990809660008855e+000
 1.107017361446401e+000	 2.931246550353865e+000	 8.936214221387960e+000
 1.076048072588372e+000	 2.942756186611073e+000	 8.880534695221074e+000
 1.045031533136541e+000	 2.953913032638836e+000	 8.824747236142446e+000
 1.013973463865370e+000	 2.964717634414845e+000	 8.769977585875280e+000
 9.828795457048584e-001	 2.975170654820722e+000	 8.717446593558023e+000
 9.517554169440449e-001	 2.985272871861279e+000	 8.668490815933808e+000
 9.206066705118042e-001	 2.995025176810348e+000	 8.624464713671737e+000
 1.240777624280165e+000	 2.906199578597639e+000	 9.143476509289044e+000
 1.209793759126601e+000	 2.919233435816973e+000	 9.094168970609946e+000
 1.178738820540489e+000	 2.931910509798534e+000	 9.043896995080843e+000
 1.147618709037034e+000	 2.944230863213301e+000	 8.992613612229969e+000
 1.116439296963322e+000	 2.956194683005870e+000	 8.940567260979323e+000
 1.085206425389242e+000	 2.967802278928781e+000	 8.888238817422577e+000
 1.053925901066823e+000	 2.979054081989313e+000	 8.836286707120825e+000
 1.022603493460617e+000	 2.989950642812039e+000	 8.785500018454417e+000
 9.912449318515898e-001	 3.000492629920440e+000	 8.736746260731426e+000
 9.598559025168251e-001	 3.010680827941015e+000	 8.690986826368528e+000
 9.284420459871779e-001	 3.020516135733327e+000	 8.649189443794150e+000
 1.251248884831276e+000	 2.930725788936877e+000	 9.157303178300845e+000
 1.220003538394792e+000	 2.943869642429749e+000	 9.105848324300288e+000
 1.188686518717652e+000	 2.956653701693829e+000	 9.054866007388810e+000
 1.157303776111121e+000	 2.969078029928999e+000	 9.004077812251047e+000
 1.125861232480630e+000	 2.981142815657544e+000	 8.953480896316897e+000
 1.094364778190454e+000	 2.992848371246103e+000	 8.903283777428326e+000
 1.062820268997394e+000	 3.004195131339357e+000	 8.853850817625734e+000
 1.031233523056087e+000	 3.015183651208757e+000	 8.805655305297254e+000
 9.996103179984714e-001	 3.025814605019650e+000	 8.759229295828162e+000
 9.679563880896778e-001	 3.036088784020224e+000	 8.715174511597686e+000
 9.362774214625443e-001	 3.046007094655771e+000	 8.674084300180471e+000
 1.261720145382654e+000	 2.955251999276043e+000	 9.180529175780945e+000
 1.230213317663281e+000	 2.968505849042415e+000	 9.126432915187468e+000
 1.198634216895123e+000	 2.981396893588967e+000	 9.074076219406409e+000
 1.166988843185511e+000	 2.993925196644493e+000	 9.022980478351979e+000
 1.135283167998224e+000	 3.006090948308973e+000	 8.972920006298915e+000
 1.103523130991923e+000	 3.017894463563139e+000	 8.923856475958358e+000
 1.071714636928179e+000	 3.029336180689076e+000	 8.875882696152868e+000
 1.039863552651724e+000	 3.040416659605120e+000	 8.829175620359436e+000
 1.007975704145466e+000	 3.051136580118482e+000	 8.783948123359380e+000
 9.760568736625851e-001	 3.061496740099038e+000	 8.740455896632968e+000
 9.441127969379056e-001	 3.071498053577817e+000	 8.698928202934150e+000
 1.272191405934185e+000	 2.979778209615192e+000	 9.210534757922822e+000
 1.240423096931948e+000	 2.993142055655025e+000	 9.153363932544757e+000
 1.208581915072786e+000	 3.006140085484014e+000	 9.099067534993719e+000
 1.176673910260096e+000	 3.018772363359864e+000	 9.046997647735728e+000
 1.144705103516002e+000	 3.031039080960243e+000	 8.996733575479061e+000
 1.112681483793558e+000	 3.042940555879987e+000	 8.948014811316085e+000
 1.080609004859105e+000	 3.054477230038581e+000	 8.900684031279154e+000
 1.048493582247471e+000	 3.065649668001247e+000	 8.854639988888263e+000
 1.016341090292535e+000	 3.076458555217061e+000	 8.809800089206540e+000
 9.841573592355286e-001	 3.086904696177588e+000	 8.766058823930520e+000
 9.519481724132636e-001	 3.096989012499596e+000	 8.723316643872760e+000
 1.282662666485751e+000	 3.004304419954371e+000	 9.244657745410519e+000
 1.250632876200675e+000	 3.017778262267638e+000	 9.184024033192822e+000
 1.218529613250524e+000	 3.030883277379036e+000	 9.127305646833730e+000
 1.186358977334763e+000	 3.043619530075185e+000	 9.073715972514892e+000
 1.154127039033863e+000	 3.055987213611442e+000	 9.022666613716316e+000
 1.121839836595271e+000	 3.067986648196746e+000	 8.973698774098885e+000
 1.089503372790100e+000	 3.079618279387982e+000	 8.926425392437489e+000
 1.057123611843272e+000	 3.090882676397256e+000	 8.880483884749038e+000
 1.024706476439640e+000	 3.101780530315511e+000	 8.835499251393950e+000
 9.922578448084908e-001	 3.112312652256009e+000	 8.791045252409806e+000
 9.597835478886195e-001	 3.122479971421242e+000	 8.746669409258217e+000
 1.293133927037235e+000	 3.028830630293632e+000	 9.280209287880188e+000
 1.260842655469342e+000	 3.042414468880311e+000	 9.215752080017889e+000
 1.228477311428221e+000	 3.055626469274102e+000	 9.156195799369865e+000
 1.196044044409403e+000	 3.068466696790535e+000	 9.100645557464791e+000
 1.163548974551707e+000	 3.080935346262660e+000	 9.048372119057914e+000
 1.130998189396973e+000	 3.093032740513514e+000	 8.998741585317548e+000
 1.098397740721089e+000	 3.104759328737387e+000	 8.951156593051879e+000
 1.065753641439071e+000	 3.116115684793267e+000	 8.905008867907837e+000
 1.033071862586746e+000	 3.127102505413966e+000	 8.859642866556570e+000
 1.000358330381453e+000	 3.137720608334429e+000	 8.814319589043121e+000
 9.676189233639758e-001	 3.147970930342888e+000	 8.768238329835045e+000
 1.303605187588521e+000	 3.053356840633026e+000	 9.314489655722117e+000
 1.271052434737831e+000	 3.067050675493101e+000	 9.245857913240780e+000
 1.238425009605759e+000	 3.080369661169275e+000	 9.183096588498737e+000
 1.205729111483903e+000	 3.093313863505989e+000	 9.125232837196812e+000
 1.172970910069433e+000	 3.105883478913984e+000	 9.071423081424875e+000
 1.140156542198578e+000	 3.118078832830393e+000	 9.020880875482806e+000
 1.107292108652001e+000	 3.129900378086907e+000	 8.972817093650255e+000
 1.074383671034811e+000	 3.141348693189400e+000	 8.926392259811916e+000
 1.041437248733813e+000	 3.152424480512545e+000	 8.880680730121929e+000
 1.008458815954396e+000	 3.163128564412980e+000	 8.834637051183020e+000
 9.754542988393339e-001	 3.173461889264667e+000	 8.787115056640971e+000
 1.314076448139491e+000	 3.077883050972602e+000	 9.344804057698029e+000
 1.281262214006022e+000	 3.091686882106064e+000	 9.271637152607411e+000
 1.248372707783021e+000	 3.105112853064621e+000	 9.205333795968253e+000
 1.215414178558155e+000	 3.118161030221624e+000	 9.144873490551300e+000
 1.182392845586939e+000	 3.130831611565499e+000	 9.089324524823393e+000
 1.149314894999995e+000	 3.143124925147479e+000	 9.037769902374757e+000
 1.116186476582760e+000	 3.155041427436653e+000	 8.989246442726280e+000
 1.083013700630438e+000	 3.166581701585775e+000	 8.942696854554475e+000
 1.049802634880804e+000	 3.177746455611380e+000	 8.896934467574878e+000
 1.016559301527304e+000	 3.188536520491794e+000	 8.850620201801474e+000
 9.832896743146951e-001	 3.198952848186712e+000	 8.802238861153182e+000
 1.324547708690028e+000	 3.102409261312412e+000	 9.368478482944056e+000
 1.291471993273796e+000	 3.116323088719257e+000	 9.290386028791373e+000
 1.258320405959892e+000	 3.129856044960207e+000	 9.220214256559979e+000
 1.225099245632046e+000	 3.143008196937515e+000	 9.156925390150981e+000
 1.191814781104125e+000	 3.155779744217294e+000	 9.099525585951030e+000
 1.158473247801138e+000	 3.168171017464872e+000	 9.046988805353845e+000
 1.125080844513294e+000	 3.180182476786733e+000	 8.998194753260133e+000
 1.091643730225893e+000	 3.191814709982507e+000	 8.951880663843468e+000
 1.058168021027681e+000	 3.203068430710596e+000	 8.906606593727675e+000
 1.024659787100156e+000	 3.213944476571005e+000	 8.860733769260675e+000
 9.911250497900614e-001	 3.224443807109156e+000	 8.812404458424044e+000
 1.335018969240017e+000	 3.126935471652506e+000	 9.382808720348974e+000
 1.301681772541034e+000	 3.140959295332738e+000	 9.299416242403128e+000
 1.268268104136253e+000	 3.154599236856098e+000	 9.225039756256139e+000
 1.234784312705468e+000	 3.167855363653740e+000	 9.158721585184555e+000
 1.201236716620890e+000	 3.180727876869459e+000	 9.099431627198465e+000
 1.167631600601917e+000	 3.193217109782673e+000	 9.046055894207475e+000
 1.133975212443531e+000	 3.205323526137257e+000	 8.997333212941136e+000
 1.100273759821121e+000	 3.217047718379722e+000	 8.951806693918389e+000
 1.066533407174408e+000	 3.228390405810319e+000	 8.907789601318324e+000
 1.032760272672935e+000	 3.239352432650741e+000	 8.863345136942224e+000
 9.989604252654352e-001	 3.249934766032135e+000	 8.816269851944135e+000
 9.206066705118042e-001	 2.995025176810348e+000	 8.624464713671737e+000
 8.894388508920191e-001	 3.004428571538802e+000	 8.584482798882794e+000
 8.582574502751356e-001	 3.013484164285996e+000	 8.545411379177978e+000
 8.270679074953227e-001	 3.022193169862039e+000	 8.505327009843303e+000
 7.958756060941372e-001	 3.030556908289346e+000	 8.462386308260419e+000
 7.646858720132438e-001	 3.038576802639415e+000	 8.414833517653587e+000
 7.335039713734896e-001	 3.046254376817458e+000	 8.361011964442362e+000
 7.023351083413049e-001	 3.053591253298464e+000	 8.299378847284496e+000
 6.711844230832484e-001	 3.060589150818338e+000	 8.228522780916398e+000
 6.400569898093635e-001	 3.067249882023707e+000	 8.161244376495683e+000
 6.089578149058431e-001	 3.073575351083983e+000	 8.127551299847960e+000
 9.284420459871779e-001	 3.020516135733327e+000	 8.649189443794150e+000
 8.970089539361903e-001	 3.029999563695273e+000	 8.610453374680514e+000
 8.655621652988902e-001	 3.039132229498540e+000	 8.572220757450682e+000
 8.341071651999050e-001	 3.047915358292587e+000	 8.533048141041032e+000
 8.026493830006501e-001	 3.056350281334656e+000	 8.491562939960900e+000
 7.711941899724105e-001	 3.064438433808137e+000	 8.446473190727245e+000
 7.397468970565124e-001	 3.072181352588336e+000	 8.396581521789912e+000
 7.083127527125638e-001	 3.079580673959275e+000	 8.340802734367269e+000
 6.768969408555946e-001	 3.086638131285180e+000	 8.278184375641047e+000
 6.455045788827541e-001	 3.093355552640277e+000	 8.216780323462908e+000
 6.141407157900874e-001	 3.099734858400542e+000	 8.189782265777700e+000
 9.362774214625443e-001	 3.046007094655771e+000	 8.674084300180471e+000
 9.045790569802750e-001	 3.055570555851223e+000	 8.635115011981998e+000
 8.728668803224783e-001	 3.064780294710581e+000	 8.596325785286627e+000
 8.411464229042434e-001	 3.073637546722664e+000	 8.556714299648794e+000
 8.094231599068449e-001	 3.082143654379540e+000	 8.515336676700734e+000
 7.777025079311873e-001	 3.090300064976481e+000	 8.471319686774006e+000
 7.459898227390770e-001	 3.098108328358891e+000	 8.423877508807861e+000
 7.142903970833032e-001	 3.105570094619816e+000	 8.372332398025121e+000
 6.826094586273637e-001	 3.112687111751801e+000	 8.316138598841457e+000
 6.509521679555173e-001	 3.119461223256674e+000	 8.259757224677767e+000
 6.193236166736610e-001	 3.125894365716972e+000	 8.237052621437762e+000
 9.441127969379056e-001	 3.071498053577817e+000	 8.698928202934150e+000
 9.121491600242940e-001	 3.081141548006778e+000	 8.658633727802464e+000
 8.801715953459424e-001	 3.090428359922246e+000	 8.618273234809733e+000
 8.481856806083995e-001	 3.099359735152392e+000	 8.577245140146447e+000
 8.161969368128004e-001	 3.107937027424103e+000	 8.534990481794207e+000
 7.842108258896708e-001	 3.116161696144542e+000	 8.491007843765001e+000
 7.522327484212990e-001	 3.124035304129198e+000	 8.444873194170636e+000
 7.202680414536518e-001	 3.131559515280150e+000	 8.396263946310892e+000
 6.883219763986999e-001	 3.138736092218256e+000	 8.344986533852676e+000
 6.563997570278098e-001	 3.145566893872942e+000	 8.293061123113555e+000
 6.245065175567315e-001	 3.152053873033303e+000	 8.272593372640634e+000
 9.519481724132636e-001	 3.096989012499596e+000	 8.723316643872760e+000
 9.197192630682695e-001	 3.106712540162070e+000	 8.680984242230144e+000
 8.874763103693232e-001	 3.116076425133662e+000	 8.638412575200626e+000
 8.552249383124337e-001	 3.125081923581885e+000	 8.595358848717389e+000
 8.229707137185969e-001	 3.133730400468455e+000	 8.551603496487644e+000
 7.907191438479603e-001	 3.142023327312415e+000	 8.506968099451475e+000
 7.584756741032915e-001	 3.149962279899343e+000	 8.461338601224609e+000
 7.262456858237402e-001	 3.157548935940349e+000	 8.414693080981230e+000
 6.940344941697477e-001	 3.164785072684600e+000	 8.367133325966124e+000
 6.618473460997887e-001	 3.171672564489124e+000	 8.319370185487964e+000
 6.296894184394667e-001	 3.178213380349571e+000	 8.299419715850799e+000
 9.597835478886195e-001	 3.122479971421242e+000	 8.746669409258217e+000
 9.272893661122238e-001	 3.132283532317234e+000	 8.701957152200917e+000
 8.947810253926622e-001	 3.141724490344950e+000	 8.656902604848463e+000
 8.622641960164071e-001	 3.150804112011263e+000	 8.611578241440942e+000
 8.297444906243133e-001	 3.159523773512700e+000	 8.566056612097501e+000
 7.972274618061515e-001	 3.167884958480192e+000	 8.520431545511883e+000
 7.647185997851699e-001	 3.175889255669407e+000	 8.474845052282445e+000
 7.322233301936989e-001	 3.183538356600478e+000	 8.429519140075220e+000
 6.997470119406511e-001	 3.190834053150890e+000	 8.384791731347784e+000
 6.672949351716104e-001	 3.197778235105263e+000	 8.341155861965765e+000
 6.348723193220341e-001	 3.204372887665806e+000	 8.320337737943541e+000
 9.676189233639758e-001	 3.147970930342888e+000	 8.768238329835045e+000
 9.348594691561778e-001	 3.157854524472396e+000	 8.721166127404624e+000
 9.020857404160018e-001	 3.167372555556241e+000	 8.673718101533090e+000
 8.693034537203804e-001	 3.176526300440638e+000	 8.626236877482128e+000
 8.365182675300302e-001	 3.185317146556945e+000	 8.579038055175342e+000
 8.037357797643429e-001	 3.193746589647969e+000	 8.532434993812633e+000
 7.709615254670481e-001	 3.201816231439471e+000	 8.486769725170026e+000
 7.382009745636574e-001	 3.209527777260609e+000	 8.442449153924748e+000
 7.054595297115545e-001	 3.216883033617179e+000	 8.399985681601288e+000
 6.727425242434325e-001	 3.223883905721402e+000	 8.360041377531157e+000
 6.400552202046016e-001	 3.230532394982041e+000	 8.337951139055496e+000
 9.754542988393339e-001	 3.173461889264667e+000	 8.787115056640971e+000
 9.424295722001534e-001	 3.183425516627688e+000	 8.738055127078315e+000
 9.093904554393824e-001	 3.193020620767654e+000	 8.688656489623334e+000
 8.763427114244147e-001	 3.202248488870132e+000	 8.639485186434236e+000
 8.432920444358267e-001	 3.211110519601296e+000	 8.591048984969046e+000
 8.102440977226320e-001	 3.219608220815843e+000	 8.543826054105164e+000
 7.772044511490408e-001	 3.227743207209616e+000	 8.498300221338671e+000
 7.441786189337460e-001	 3.235517197920807e+000	 8.455001913843356e+000
 7.111720474826019e-001	 3.242932014083524e+000	 8.414553863097231e+000
 6.781901133154112e-001	 3.249989576337585e+000	 8.377720638728684e+000
 6.452381210873366e-001	 3.256691902298308e+000	 8.354667977229902e+000
 9.832896743146951e-001	 3.198952848186712e+000	 8.802238861153182e+000
 9.499996752441726e-001	 3.208996508783244e+000	 8.751905636523432e+000
 9.166951704628461e-001	 3.218668685979320e+000	 8.701344523342538e+000
 8.833819691285707e-001	 3.227970677299859e+000	 8.651296609028062e+000
 8.500658213417820e-001	 3.236903892645859e+000	 8.602409102493850e+000
 8.167524156811158e-001	 3.245469851983902e+000	 8.555268222519405e+000
 7.834473768312622e-001	 3.253670182979923e+000	 8.510439144896926e+000
 7.501562633040948e-001	 3.261506618581142e+000	 8.468512052786025e+000
 7.168845652539382e-001	 3.268980994549978e+000	 8.430153310245245e+000
 6.836377023877035e-001	 3.276095246953852e+000	 8.396160763959893e+000
 6.504210219704072e-001	 3.282851409614640e+000	 8.372707433639507e+000
 9.911250497900614e-001	 3.224443807109156e+000	 8.812404458424044e+000
 9.575697782882571e-001	 3.234567500939191e+000	 8.761843922254652e+000
 9.239998854864346e-001	 3.244316751191363e+000	 8.711244985213604e+000
 8.904212268329095e-001	 3.253692865729938e+000	 8.661473750466406e+000
 8.568395982479764e-001	 3.262697265690743e+000	 8.613262270572006e+000
 8.232607336398921e-001	 3.271331483152246e+000	 8.567245980258536e+000
 7.896903025138271e-001	 3.279597158750477e+000	 8.524008691959718e+000
 7.561339076748334e-001	 3.287496039241681e+000	 8.484134137318565e+000
 7.225970830257071e-001	 3.295029975016600e+000	 8.448263011937831e+000
 6.890852914604664e-001	 3.302200917570249e+000	 8.417154464778552e+000
 6.556039228539802e-001	 3.309010916931070e+000	 8.394106597250696e+000
 9.989604252654352e-001	 3.249934766032135e+000	 8.816269851944135e+000
 9.651398813324286e-001	 3.260138493095665e+000	 8.766848304758540e+000
 9.313046005101890e-001	 3.269964816403907e+000	 8.717663398850759e+000
 8.974604845374918e-001	 3.279415054160485e+000	 8.669654545692186e+000
 8.636133751544897e-001	 3.288490638736054e+000	 8.623582144239734e+000
 8.297690515990591e-001	 3.297193114320970e+000	 8.580069901934612e+000
 7.959332281968499e-001	 3.305524134521356e+000	 8.539655249747689e+000
 7.621115520460927e-001	 3.313485459902493e+000	 8.502846770276108e+000
 7.283096007980531e-001	 3.321078955483442e+000	 8.470187530444257e+000
 6.945328805338571e-001	 3.328306588186819e+000	 8.442323193498014e+000
 6.607868237382243e-001	 3.335170424247628e+000	 8.420742897953424e+000
 6.089578149058431e-001	 3.073575351083983e+000	 8.127551299847964e+000
 5.778964908983216e-001	 3.079566677810540e+000	 8.111504931871266e+000
 5.468732083162867e-001	 3.085226917223479e+000	 8.090403907878978e+000
 5.158927506883084e-001	 3.090558234994752e+000	 8.065977464147297e+000
 4.849598273529440e-001	 3.095562878368370e+000	 8.039852901632516e+000
 4.540790720423593e-001	 3.100243173639482e+000	 8.013589212521751e+000
 4.232550415549730e-001	 3.104601523616498e+000	 7.988722580092394e+000
 3.924922145166819e-001	 3.108640405069572e+000	 7.966820743353559e+000
 3.617949902300640e-001	 3.112362366168643e+000	 7.949543325130987e+000
 3.311676876108508e-001	 3.115770023914197e+000	 7.938705349244837e+000
 3.006145442108607e-001	 3.118866061563839e+000	 7.936341317055998e+000
 6.141407157900874e-001	 3.099734858400542e+000	 8.189782265777700e+000
 5.828150257461738e-001	 3.105777177908166e+000	 8.181648101567857e+000
 5.515277009021272e-001	 3.111485592184849e+000	 8.168490923832565e+000
 5.202835654996195e-001	 3.116862285334807e+000	 8.152369516566271e+000
 4.890873689588724e-001	 3.121909523728591e+000	 8.135200110255857e+000
 4.579437844502214e-001	 3.126629653460698e+000	 8.118809555726745e+000
 4.268574075554643e-001	 3.131025097790100e+000	 8.105000664206486e+000
 3.958327550185428e-001	 3.135098354567003e+000	 8.095626495599044e+000
 3.648742635849503e-001	 3.138851993649093e+000	 8.092670492745087e+000
 3.339862889291539e-001	 3.142288654310430e+000	 8.098329496126205e+000
 3.031731046692104e-001	 3.145411042646106e+000	 8.115096828727715e+000
 6.193236166736610e-001	 3.125894365716972e+000	 8.237052621437762e+000
 5.877335605933207e-001	 3.131987678005702e+000	 8.233970607060927e+000
 5.561821934872365e-001	 3.137744267146154e+000	 8.225509833637645e+000
 5.246743803101857e-001	 3.143166335674824e+000	 8.214027719139349e+000
 4.932149105640552e-001	 3.148256169088801e+000	 8.201690953252237e+000
 4.618084968573515e-001	 3.153016133281928e+000	 8.190549651651089e+000
 4.304597735552533e-001	 3.157448671963742e+000	 8.182623981251055e+000
 3.991732955197487e-001	 3.161556304064507e+000	 8.179999818357624e+000
 3.679535369392488e-001	 3.165341621129662e+000	 8.184930126445284e+000
 3.368048902469567e-001	 3.168807284706830e+000	 8.199938887129527e+000
 3.057316651271697e-001	 3.171956023728603e+000	 8.227924584321295e+000
 6.245065175567315e-001	 3.152053873033303e+000	 8.272593372640634e+000
 5.926520954399379e-001	 3.158198178103163e+000	 8.272082400912654e+000
 5.608366860717978e-001	 3.164002942107413e+000	 8.265482600543608e+000
 5.290651951201936e-001	 3.169470386014816e+000	 8.255403129102769e+000
 4.973424521686786e-001	 3.174602814449002e+000	 8.244206311507664e+000
 4.656732092639322e-001	 3.179402613103171e+000	 8.234104284829366e+000
 4.340621395545159e-001	 3.183872246137423e+000	 8.227268430635956e+000
 4.025138360204639e-001	 3.188014253562083e+000	 8.225947925745459e+000
 3.710328102931063e-001	 3.191831248610334e+000	 8.232593876529879e+000
 3.396234915643843e-001	 3.195325915103381e+000	 8.249985659400522e+000
 3.082902255848362e-001	 3.198501004811306e+000	 8.281356268234106e+000
 6.296894184394667e-001	 3.178213380349571e+000	 8.299419715850799e+000
 5.975706302862025e-001	 3.184408678200579e+000	 8.299374297147159e+000
 5.654911786559937e-001	 3.190261617068638e+000	 8.292212626372288e+000
 5.334560099298289e-001	 3.195774436354789e+000	 8.280732491167756e+000
 5.014699937729290e-001	 3.200949459809202e+000	 8.267420423470872e+000
 4.695379216701472e-001	 3.205789092924431e+000	 8.254572423746167e+000
 4.376645055534270e-001	 3.210295820311139e+000	 8.244427801075048e+000
 4.058543765208516e-001	 3.214472203059717e+000	 8.239312217541544e+000
 3.741120836466699e-001	 3.218320876091100e+000	 8.241786169558640e+000
 3.424420928815618e-001	 3.221844545500062e+000	 8.254795307419199e+000
 3.108487860423075e-001	 3.225045985894189e+000	 8.281819184746151e+000
 6.348723193220341e-001	 3.204372887665806e+000	 8.320337737943543e+000
 6.024891651322907e-001	 3.210619178297972e+000	 8.319023549326586e+000
 5.701456712400070e-001	 3.216520292029850e+000	 8.309289320826354e+000
 5.378468247392780e-001	 3.222078486694757e+000	 8.294041901295246e+000
 5.055975353769930e-001	 3.227296105169404e+000	 8.275803736761057e+000
 4.734026340761792e-001	 3.232175572745705e+000	 8.256859343619203e+000
 4.412668715521625e-001	 3.236719394484886e+000	 8.239415237723540e+000
 4.091949170210756e-001	 3.240930152557404e+000	 8.225769153600922e+000
 3.771913570000865e-001	 3.244810503571943e+000	 8.218484542624637e+000
 3.452606941986142e-001	 3.248363175896857e+000	 8.220566519312733e+000
 3.134073464996812e-001	 3.251590966977224e+000	 8.235635628135167e+000
 6.400552202046016e-001	 3.230532394982041e+000	 8.337951139055493e+000
 6.074076999783787e-001	 3.236829678395365e+000	 8.333999456108893e+000
 5.748001638240200e-001	 3.242778966991062e+000	 8.320092702119592e+000
 5.422376395487272e-001	 3.248382537034726e+000	 8.299150505334419e+000
 5.097250769810570e-001	 3.253642750529616e+000	 8.273625798134352e+000
 4.772673464822108e-001	 3.258562052566995e+000	 8.245678791236594e+000
 4.448692375508982e-001	 3.263142968658663e+000	 8.217364755524402e+000
 4.125354575212996e-001	 3.267388102055136e+000	 8.190831179326478e+000
 3.802706303535030e-001	 3.271300131052852e+000	 8.168520034464400e+000
 3.480792955156666e-001	 3.274881806293745e+000	 8.153371076961548e+000
 3.159659069570548e-001	 3.278135948060387e+000	 8.149022324948344e+000
 6.452381210873366e-001	 3.256691902298308e+000	 8.354667977229902e+000
 6.123262348246433e-001	 3.263040178492782e+000	 8.347068992741882e+000
 5.794546564082159e-001	 3.269037641952292e+000	 8.327798027165530e+000
 5.466284543583625e-001	 3.274686587374711e+000	 8.299674230560740e+000
 5.138526185853074e-001	 3.279989395889841e+000	 8.264958179650607e+000
 4.811320588884258e-001	 3.284948532388303e+000	 8.225555189489450e+000
 4.484716035498094e-001	 3.289566542832465e+000	 8.183232796164946e+000
 4.158759980216870e-001	 3.293846051552904e+000	 8.139847699321496e+000
 3.833499037070666e-001	 3.297789758533815e+000	 8.097577630206578e+000
 3.508978968328441e-001	 3.301400436690709e+000	 8.059153816313810e+000
 3.185244674145261e-001	 3.304680929143654e+000	 8.028089944379003e+000
 6.504210219704072e-001	 3.282851409614640e+000	 8.372707433639507e+000
 6.172447696712605e-001	 3.289250678590245e+000	 8.360802467048117e+000
 5.841091489927768e-001	 3.295296316913555e+000	 8.335380449676439e+000
 5.510192691683702e-001	 3.300990637714720e+000	 8.299029548281403e+000
 5.179801601899307e-001	 3.306336041250084e+000	 8.253677439019992e+000
 4.849967712950066e-001	 3.311335012209629e+000	 8.200825879380805e+000
 4.520739695490715e-001	 3.315990117006285e+000	 8.141799826209947e+000
 4.192165385224019e-001	 3.320304001050699e+000	 8.078006096539333e+000
 3.864291770609240e-001	 3.324279386014817e+000	 8.011196756772081e+000
 3.537164981502716e-001	 3.327919067087727e+000	 7.943732644545156e+000
 3.210830278721925e-001	 3.331225910226997e+000	 7.878842672941807e+000
 6.556039228539802e-001	 3.309010916931070e+000	 8.394106597250696e+000
 6.221633045184069e-001	 3.315461178687778e+000	 8.377579198543048e+000
 5.887636415778862e-001	 3.321554991874869e+000	 8.345619704626563e+000
 5.554100839789363e-001	 3.327294688054762e+000	 8.300437265783295e+000
 5.221077017951132e-001	 3.332682686610352e+000	 8.243468112238030e+000
 4.888614837021363e-001	 3.337721492030971e+000	 8.176460188507345e+000
 4.556763355488605e-001	 3.342413691180124e+000	 8.102137801538643e+000
 4.225570790236078e-001	 3.346761950548516e+000	 8.022621397867081e+000
 3.895084504152222e-001	 3.350769013495848e+000	 7.940439956130695e+000
 3.565350994680742e-001	 3.354437697484785e+000	 7.858763992059672e+000
 3.236415883301516e-001	 3.357770891310391e+000	 7.781610648549510e+000
 6.607868237382243e-001	 3.335170424247628e+000	 8.420742897953424e+000
 6.270818393662591e-001	 3.341671678785408e+000	 8.400243966124776e+000
 5.934181341637264e-001	 3.347813666836248e+000	 8.364278088467732e+000
 5.598008987902472e-001	 3.353598738394850e+000	 8.316005024238423e+000
 5.262352434010413e-001	 3.359029331970649e+000	 8.257962012915588e+000
 4.927261961099982e-001	 3.364107971852334e+000	 8.192358430423351e+000
 4.592787015493515e-001	 3.368837265353978e+000	 8.121347928219098e+000
 4.258976195254683e-001	 3.373219900046345e+000	 8.047279734127338e+000
 3.925877237701084e-001	 3.377258640976893e+000	 7.972930784647847e+000
 3.593537007863771e-001	 3.380956327881860e+000	 7.901720333447911e+000
 3.262001487885013e-001	 3.384315872393811e+000	 7.837908641296139e+000
 3.006145442108607e-001	 3.118866061563839e+000	 7.936341317056002e+000
 2.701351603285507e-001	 3.121653621246674e+000	 7.942152417550772e+000
 2.397382515072781e-001	 3.124135025063762e+000	 7.953731472495623e+000
 2.094278692182750e-001	 3.126313141612288e+000	 7.970438880557158e+000
 1.792079785623931e-001	 3.128190895538556e+000	 7.992052226596098e+000
 1.490824577193054e-001	 3.129771264960268e+000	 8.018804190757679e+000
 1.190550974780862e-001	 3.131057278902433e+000	 8.051408893235678e+000
 8.912960084760466e-002	 3.132052014749406e+000	 8.091075360459090e+000
 5.930958274510228e-002	 3.132758595715478e+000	 8.139507007609369e+000
 2.959856976126172e-002	 3.133180188336288e+000	 8.198886240611950e+000
 0.000000000000000e+000	 3.133319999983334e+000	 8.271843500086565e+000
 3.031731046692104e-001	 3.145411042646106e+000	 8.115096828727715e+000
 2.724343077016805e-001	 3.148222327528214e+000	 8.142265012909851e+000
 2.417786877487560e-001	 3.150724850821440e+000	 8.176477081777595e+000
 2.112103307641123e-001	 3.152921505537871e+000	 8.216925300455074e+000
 1.807332355959375e-001	 3.154815241215753e+000	 8.263374592815243e+000
 1.503513134314467e-001	 3.156409061319833e+000	 8.316216046839177e+000
 1.200683873234671e-001	 3.157706020655442e+000	 8.376507483883351e+000
 8.988819179751452e-002	 3.158709222798845e+000	 8.445999686922114e+000
 5.981437253772146e-002	 3.159421817546308e+000	 8.527147106136573e+000
 2.985048614990561e-002	 3.159846998384162e+000	 8.623102082511135e+000
 0.000000000000000e+000	 3.159987999982150e+000	 8.737691865928701e+000
 3.057316651271697e-001	 3.171956023728603e+000	 8.227924584321295e+000
 2.747334550745512e-001	 3.174791033810060e+000	 8.267670966239770e+000
 2.438191239901174e-001	 3.177314676579507e+000	 8.314854439133983e+000
 2.129927923099747e-001	 3.179529869463931e+000	 8.368571223471937e+000
 1.822584926296357e-001	 3.181439586893518e+000	 8.428650529286083e+000
 1.516201691438457e-001	 3.183046857680052e+000	 8.495724665632229e+000
 1.210816771691728e-001	 3.184354762409182e+000	 8.571284777258713e+000
 9.064678274776827e-002	 3.185366430849083e+000	 8.657720708026702e+000
 6.031916233064413e-002	 3.186085039377992e+000	 8.758343728741473e+000
 3.010240253874203e-002	 3.186513808432925e+000	 8.877391104038104e+000
 0.000000000000000e+000	 3.186655999981866e+000	 9.020011725906363e+000
 3.082902255848362e-001	 3.198501004811306e+000	 8.281356268234106e+000
 2.770326024472274e-001	 3.201359740092179e+000	 8.324869631814423e+000
 2.458595602313915e-001	 3.203904502337920e+000	 8.375206020587889e+000
 2.147752538558560e-001	 3.206138233390415e+000	 8.431418469843864e+000
 1.837837496634492e-001	 3.208063932571783e+000	 8.493458574715653e+000
 1.528890248564379e-001	 3.209684654040851e+000	 8.562264274866887e+000
 1.220949670151220e-001	 3.211003504163571e+000	 8.639831761582652e+000
 9.140537369827995e-002	 3.212023638900031e+000	 8.729269906261562e+000
 6.082395212379443e-002	 3.212748261210434e+000	 8.834835862929154e+000
 3.035431892772286e-002	 3.213180618482476e+000	 8.961950749722888e+000
 0.000000000000000e+000	 3.213323999982383e+000	 9.117194584994879e+000
 3.108487860423075e-001	 3.225045985894189e+000	 8.281819184746151e+000
 2.793317498197742e-001	 3.227928446374532e+000	 8.320279424179981e+000
 2.478999964726072e-001	 3.230494328096633e+000	 8.363817532164703e+000
 2.165577154017498e-001	 3.232746597317268e+000	 8.411476769569635e+000
 1.853090066973396e-001	 3.234688278250491e+000	 8.463370148641733e+000
 1.541578805691588e-001	 3.236322450402154e+000	 8.520787028827055e+000
 1.231082568612337e-001	 3.237652245918531e+000	 8.586282258867671e+000
 9.216396464896356e-002	 3.238680846951602e+000	 8.663746158423869e+000
 6.132874191709650e-002	 3.239411483043539e+000	 8.758453902274718e+000
 3.060623531679994e-002	 3.239847428532718e+000	 8.877093138583065e+000
 0.000000000000000e+000	 3.239991999983599e+000	 9.027768961754772e+000
 3.134073464996812e-001	 3.251590966977224e+000	 8.235635628135167e+000
 2.816308971922560e-001	 3.254497152657088e+000	 8.260236751285593e+000
 2.499404327137938e-001	 3.257084153855606e+000	 8.286916430256470e+000
 2.183401769476500e-001	 3.259354961244440e+000	 8.314721879979858e+000
 1.868342637312685e-001	 3.261312623929575e+000	 8.343947262012497e+000
 1.554267362819441e-001	 3.262960246763894e+000	 8.376260293721789e+000
 1.241215467074266e-001	 3.264300987673977e+000	 8.414809753006214e+000
 9.292255559973316e-002	 3.265338055003706e+000	 8.464312060644060e+000
 6.183353171047444e-002	 3.266074704877214e+000	 8.531115409112198e+000
 3.085815170592516e-002	 3.266514238583551e+000	 8.623240191927401e+000
 0.000000000000000e+000	 3.266659999985416e+000	 8.750394795648731e+000
 3.159659069570548e-001	 3.278135948060387e+000	 8.149022324948344e+000
 2.839300445647380e-001	 3.281065858939814e+000	 8.150995029396732e+000
 2.519808689549805e-001	 3.283673979614793e+000	 8.150670534618744e+000
 2.201226384935501e-001	 3.285963325171877e+000	 8.147093808408231e+000
 1.883595207651974e-001	 3.287936969608975e+000	 8.140740347387650e+000
 1.566955919947295e-001	 3.289598043125997e+000	 8.133664069656206e+000
 1.251348365536195e-001	 3.290949729429829e+000	 8.129624374260825e+000
 9.368114655050273e-002	 3.291995263056253e+000	 8.134190432854727e+000
 6.233832150385239e-002	 3.292737926711360e+000	 8.154821083319593e+000
 3.111006809505041e-002	 3.293181048634879e+000	 8.200918997884063e+000
 0.000000000000000e+000	 3.293327999987732e+000	 8.283858126085967e+000
 3.185244674145261e-001	 3.304680929143654e+000	 8.028089944379003e+000
 2.862291919372847e-001	 3.307634565222676e+000	 7.998723775189634e+000
 2.540213051961963e-001	 3.310263805374154e+000	 7.961186728777727e+000
 2.219051000394439e-001	 3.312571689099526e+000	 7.914495134057088e+000
 1.898847777990878e-001	 3.314561315288624e+000	 7.859286202046862e+000
 1.579644477074505e-001	 3.316235839488389e+000	 7.797988541516097e+000
 1.261481263997312e-001	 3.317598471186007e+000	 7.734970031369167e+000
 9.443973750118642e-002	 3.318652471109158e+000	 7.676660992612018e+000
 6.284311129715450e-002	 3.319401148545888e+000	 7.631650925601832e+000
 3.136198448412752e-002	 3.319847858686600e+000	 7.610757399356166e+000
 0.000000000000000e+000	 3.319995999990449e+000	 7.627066027909041e+000
 3.210830278721925e-001	 3.331225910226997e+000	 7.878842672941811e+000
 2.885283393099610e-001	 3.334203271505640e+000	 7.809630399859086e+000
 2.560617414374702e-001	 3.336853631133645e+000	 7.726752090102480e+000
 2.236875615853252e-001	 3.339180053027334e+000	 7.629981215099472e+000
 1.914100348329013e-001	 3.341185660968463e+000	 7.520141456890502e+000
 1.592333034200427e-001	 3.342873635850998e+000	 7.399811268120827e+000
 1.271614162456806e-001	 3.344247212942430e+000	 7.273477243847174e+000
 9.519832845169815e-002	 3.345309679162326e+000	 7.147679391867180e+000
 6.334790109030486e-002	 3.346064370380699e+000	 7.031149136386746e+000
 3.161390087310839e-002	 3.346514668738616e+000	 6.934940802681202e+000
 0.000000000000000e+000	 3.346663999993465e+000	 6.872557274233013e+000
 3.236415883301516e-001	 3.357770891310391e+000	 7.781610648549510e+000
 2.908274866828316e-001	 3.360771977788671e+000	 7.701475368892408e+000
 2.581021776788315e-001	 3.363443456893221e+000	 7.606432731058870e+000
 2.254700231311878e-001	 3.365788416955247e+000	 7.495663919787020e+000
 1.929352918665995e-001	 3.367810006648428e+000	 7.369919789354515e+000
 1.605021591324418e-001	 3.369511432213754e+000	 7.231678993868667e+000
 1.281747060913863e-001	 3.370895954699014e+000	 7.085297494190289e+000
 9.595691940195203e-002	 3.371966887215674e+000	 6.937150418126870e+000
 6.385269088322762e-002	 3.372727592215699e+000	 6.795767157682134e+000
 3.186581726194487e-002	 3.373181478790831e+000	 6.671960492336550e+000
 0.000000000000000e+000	 3.373331999996682e+000	 6.578950462466655e+000
 3.262001487885013e-001	 3.384315872393811e+000	 7.837908641296135e+000
 2.931266340559612e-001	 3.387340684071736e+000	 7.773029111371364e+000
 2.601426139203095e-001	 3.390033282652841e+000	 7.694152678255209e+000
 2.272524846770250e-001	 3.392396780883214e+000	 7.600620543853160e+000
 1.944605489001440e-001	 3.394434352328458e+000	 7.493313478287310e+000
 1.617710148445833e-001	 3.396149228576582e+000	 7.374804888004378e+000
 1.291879959367674e-001	 3.397544696455680e+000	 7.249505710816694e+000
 9.671551035186207e-002	 3.398624095269112e+000	 7.123802173782595e+000
 6.435748067584694e-002	 3.399390814050797e+000	 7.006187348883575e+000
 3.211773365058886e-002	 3.399848288843145e+000	 6.907387338621676e+000
 0.000000000000000e+000	 3.400000000000000e+000	 6.840482849615379e+000
 3.400000000000000e+000	 0.000000000000000e+000	 1.090828888479066e+001
 3.399848288843145e+000	 3.211773365058896e-002	 1.096470176272491e+001
 3.399390814050797e+000	 6.435748067584715e-002	 1.098629948008766e+001
 3.398624095269110e+000	 9.671551035186184e-002	 1.098217964760986e+001
 3.397544696455680e+000	 1.291879959367673e-001	 1.096073130289122e+001
 3.396149228576581e+000	 1.617710148445832e-001	 1.092964844743056e+001
 3.394434352328458e+000	 1.944605489001441e-001	 1.089594537474903e+001
 3.392396780883214e+000	 2.272524846770251e-001	 1.086597404356446e+001
 3.390033282652842e+000	 2.601426139203092e-001	 1.084544376756004e+001
 3.387340684071737e+000	 2.931266340559610e-001	 1.083944352752792e+001
 3.384315872393811e+000	 3.262001487885011e-001	 1.085246724634169e+001
 3.426668000003317e+000	 0.000000000000000e+000	 1.079754370375485e+001
 3.426515098895459e+000	 3.236965003900857e-002	 1.086471264933440e+001
 3.426054035885893e+000	 6.486227046811326e-002	 1.089569926791056e+001
 3.425281303322550e+000	 9.747410130137259e-002	 1.089986998305981e+001
 3.424193438212349e+000	 1.302012857817725e-001	 1.088587740131548e+001
 3.422787024939412e+000	 1.630398705564287e-001	 1.086167275268845e+001
 3.421058698008491e+000	 1.959858059335152e-001	 1.083451991952547e+001
 3.419005144811186e+000	 2.290349462228409e-001	 1.081101131199537e+001
 3.416623108412468e+000	 2.621830501619324e-001	 1.079708586888214e+001
 3.413909390354809e+000	 2.954257814294041e-001	 1.079804949919047e+001
 3.410860853477238e+000	 3.287587092473185e-001	 1.081859831744899e+001
 3.453336000006534e+000	 0.000000000000000e+000	 1.070595661470106e+001
 3.453181908947675e+000	 3.262156642723706e-002	 1.078061960479062e+001
 3.452717257720900e+000	 6.536706026008118e-002	 1.081806644265746e+001
 3.451938511375909e+000	 9.823269225055065e-002	 1.082791608570876e+001
 3.450842179968952e+000	 1.312145756264717e-001	 1.081906874070271e+001
 3.449424821302194e+000	 1.643087262680443e-001	 1.079971712318065e+001
 3.447683043688490e+000	 1.975110629667697e-001	 1.077735908651472e+001
 3.445613508739141e+000	 2.308174077686786e-001	 1.075881188311607e+001
 3.443212934172093e+000	 2.642234864037292e-001	 1.075022834368510e+001
 3.440478096637889e+000	 2.977249288031721e-001	 1.075711529995150e+001
 3.437405834560681e+000	 3.313172697066004e-001	 1.078435461654942e+001
 3.480004000009550e+000	 0.000000000000000e+000	 1.063243589245606e+001
 3.479848718999697e+000	 3.287348281532392e-002	 1.071180371294721e+001
 3.479380479555727e+000	 6.587185005183192e-002	 1.075319311100243e+001
 3.478595719429110e+000	 9.899128319949312e-002	 1.076645956540619e+001
 3.477490921725428e+000	 1.322278654709649e-001	 1.076073534928031e+001
 3.476062617664880e+000	 1.655775819795217e-001	 1.074443952250386e+001
 3.474307389368426e+000	 1.990363199999830e-001	 1.072528905827601e+001
 3.472221872667065e+000	 2.325998693145915e-001	 1.071031137050475e+001
 3.469802759931711e+000	 2.662639226457270e-001	 1.070585853519375e+001
 3.467046802920988e+000	 3.000240761772669e-001	 1.071762354140351e+001
 3.463950815644158e+000	 3.338758301663241e-001	 1.075065895052745e+001
 3.506672000012267e+000	 0.000000000000000e+000	 1.057571904622137e+001
 3.506515529051426e+000	 3.312539920331866e-002	 1.065749560313353e+001
 3.506043701390285e+000	 6.637663984344668e-002	 1.070074068763898e+001
 3.505252927482078e+000	 9.974987414829721e-002	 1.071553057684144e+001
 3.504139663481709e+000	 1.332411553153518e-001	 1.071121453813652e+001
 3.502700414027417e+000	 1.668464376909529e-001	 1.069642346731105e+001
 3.500931735048262e+000	 2.005615770332309e-001	 1.067907940772530e+001
 3.498830236594934e+000	 2.343823308606330e-001	 1.066640622131361e+001
 3.496392585691322e+000	 2.683043588879537e-001	 1.066494171191117e+001
 3.493615509204113e+000	 3.023232235516896e-001	 1.068055154680557e+001
 3.490495796727684e+000	 3.364343906264662e-001	 1.071844536868462e+001
 3.533340000014583e+000	 0.000000000000000e+000	 1.053437926386896e+001
 3.533182339102767e+000	 3.337731559127077e-002	 1.061678171831324e+001
 3.532706923224484e+000	 6.688142963500651e-002	 1.066024592840584e+001
 3.531910135534731e+000	 1.005084650970601e-001	 1.067505355933440e+001
 3.530788405237732e+000	 1.342544451597326e-001	 1.067075629006827e+001
 3.529338210389759e+000	 1.681152934024299e-001	 1.065618300837102e+001
 3.527556080727968e+000	 2.020868340665887e-001	 1.063944761543039e+001
 3.525438600522740e+000	 2.361647924068565e-001	 1.062795771477151e+001
 3.522982411450922e+000	 2.703447951304369e-001	 1.062842449333856e+001
 3.520184215487275e+000	 3.046223709264417e-001	 1.064687415116039e+001
 3.517040777811276e+000	 3.389929510870034e-001	 1.068866128552136e+001
 3.560008000016400e+000	 0.000000000000000e+000	 1.050683156659389e+001
 3.559849149153620e+000	 3.362923197922979e-002	 1.058861030097557e+001
 3.559370145058234e+000	 6.738621942659254e-002	 1.063112669010885e+001
 3.558567343586992e+000	 1.012670560458787e-001	 1.064485271387580e+001
 3.557437146993432e+000	 1.352677350042070e-001	 1.063952839779809e+001
 3.555976006751857e+000	 1.693841491140445e-001	 1.062416747469597e+001
 3.554180426407513e+000	 2.036120911001322e-001	 1.060706336523817e+001
 3.552046964450459e+000	 2.379472539533151e-001	 1.059579575584121e+001
 3.549572237210508e+000	 2.723852313732046e-001	 1.059723808922676e+001
 3.546752921770479e+000	 3.069215183015246e-001	 1.061756633473538e+001
 3.543585758894952e+000	 3.415515115479126e-001	 1.066226945840396e+001
 3.586676000017616e+000	 0.000000000000000e+000	 1.049133868899464e+001
 3.586515959203890e+000	 3.388114836724521e-002	 1.057179711145319e+001
 3.586033366891444e+000	 6.789100921828585e-002	 1.061268743126861e+001
 3.585224551638781e+000	 1.020256469948502e-001	 1.062465723108525e+001
 3.584085888748746e+000	 1.362810248488751e-001	 1.061762136460474e+001
 3.582613803113660e+000	 1.706530048258888e-001	 1.060076599306949e+001
 3.580804772086859e+000	 2.051373481339368e-001	 1.058255262977120e+001
 3.578655328378077e+000	 2.397297155000623e-001	 1.057072247469662e+001
 3.576162062970080e+000	 2.744256676162844e-001	 1.057230136206297e+001
 3.573321628053737e+000	 3.092206656769395e-001	 1.059360569869643e+001
 3.570130739978726e+000	 3.441100720091705e-001	 1.064024982767162e+001
 3.613344000018133e+000	 0.000000000000000e+000	 1.048601669877015e+001
 3.613182769253481e+000	 3.413306475536653e-002	 1.056503089248492e+001
 3.612696588724027e+000	 6.839579901016757e-002	 1.060412446717190e+001
 3.611881759690020e+000	 1.027842379440719e-001	 1.061410628295707e+001
 3.610734630503605e+000	 1.372943146938367e-001	 1.060505307964345e+001
 3.609251599475124e+000	 1.719218605380546e-001	 1.058631179457743e+001
 3.607429117765978e+000	 2.066626051680781e-001	 1.056650155665223e+001
 3.605263692305578e+000	 2.415121770471514e-001	 1.055351564205009e+001
 3.602751888729632e+000	 2.764661038597041e-001	 1.055452372192567e+001
 3.599890334337059e+000	 3.115198130526881e-001	 1.057597479101193e+001
 3.596675721062617e+000	 3.466686324707543e-001	 1.062360122628874e+001
 3.640012000017849e+000	 0.000000000000000e+000	 1.048884036938416e+001
 3.639849579302291e+000	 3.438498114364327e-002	 1.056687859304472e+001
 3.639359810555890e+000	 6.890058880231878e-002	 1.060453099183109e+001
 3.638538967740630e+000	 1.035428288936408e-001	 1.061275379051076e+001
 3.637383372257951e+000	 1.383076045391919e-001	 1.060177327950995e+001
 3.635889395836193e+000	 1.731907162506339e-001	 1.058108631906423e+001
 3.634053463444836e+000	 2.081878622026318e-001	 1.055946016567243e+001
 3.631872056232944e+000	 2.432946385946359e-001	 1.054493190977334e+001
 3.629341714489164e+000	 2.785065401034914e-001	 1.054480786230568e+001
 3.626459040620449e+000	 3.138189604287712e-001	 1.056566329030635e+001
 3.623220702146641e+000	 3.492271929326405e-001	 1.061334296573453e+001
 3.666680000016666e+000	 0.000000000000000e+000	 1.049764831827599e+001
 3.666516389350228e+000	 3.463689753212492e-002	 1.057579036368465e+001
 3.666023032386948e+000	 6.940537859482068e-002	 1.061290187871991e+001
 3.665196175790535e+000	 1.043014198436540e-001	 1.062007297875054e+001
 3.664032114011715e+000	 1.393208943850406e-001	 1.060766780692976e+001
 3.662527192196825e+000	 1.744595719637187e-001	 1.058532312780702e+001
 3.660677809123401e+000	 2.097131192376734e-001	 1.056194586653285e+001
 3.658480420160158e+000	 2.450771001425689e-001	 1.054570988570908e+001
 3.655931540248671e+000	 2.805469763476741e-001	 1.054405234498823e+001
 3.653027746903921e+000	 3.161181078051908e-001	 1.056367005489587e+001
 3.649765683230813e+000	 3.517857533948059e-001	 1.061051630443123e+001
 3.384315872393811e+000	 3.262001487885011e-001	 1.085246724634169e+001
 3.380956327881860e+000	 3.593537007863772e-001	 1.086839144493480e+001
 3.377258640976893e+000	 3.925877237701081e-001	 1.087174181549516e+001
 3.373219900046344e+000	 4.258976195254685e-001	 1.086711115793003e+001
 3.368837265353978e+000	 4.592787015493513e-001	 1.085854216754376e+001
 3.364107971852335e+000	 4.927261961099983e-001	 1.084956859506947e+001
 3.359029331970650e+000	 5.262352434010416e-001	 1.084326214666372e+001
 3.353598738394850e+000	 5.598008987902470e-001	 1.084228570074858e+001
 3.347813666836249e+000	 5.934181341637267e-001	 1.084895344299485e+001
 3.341671678785408e+000	 6.270818393662587e-001	 1.086529854164648e+001
 3.335170424247629e+000	 6.607868237382245e-001	 1.089314900228148e+001
 3.410860853477238e+000	 3.287587092473185e-001	 1.081859831744899e+001
 3.407474958278943e+000	 3.621723021052771e-001	 1.084153771027726e+001
 3.403748268457944e+000	 3.956669971256944e-001	 1.085029482493828e+001
 3.399677849544182e+000	 4.292381600281079e-001	 1.084959090710717e+001
 3.395260839527842e+000	 4.628810675506773e-001	 1.084357272082953e+001
 3.390494451673717e+000	 4.965909085187303e-001	 1.083585107750423e+001
 3.385375977330978e+000	 5.303627850078559e-001	 1.082954506936926e+001
 3.379902788734986e+000	 5.641917136024434e-001	 1.082733261671763e+001
 3.374072341797700e+000	 5.980726267504357e-001	 1.083150796519257e+001
 3.367882178883140e+000	 6.320003742149503e-001	 1.084404679303215e+001
 3.361329931564333e+000	 6.659697246232672e-001	 1.086667960748954e+001
 3.437405834560681e+000	 3.313172697066004e-001	 1.078435461654942e+001
 3.433993588676044e+000	 3.649909034247586e-001	 1.081367348983574e+001
 3.430237895939014e+000	 3.987462704819553e-001	 1.082738097745944e+001
 3.426135799042037e+000	 4.325787005314929e-001	 1.083029267985514e+001
 3.421684413701722e+000	 4.664834335528000e-001	 1.082662681810572e+001
 3.416880931495114e+000	 5.004556209282911e-001	 1.082003999541796e+001
 3.411722622691324e+000	 5.344903266155145e-001	 1.081366861523490e+001
 3.406206839075148e+000	 5.685825284154835e-001	 1.081017659865020e+001
 3.400331016759192e+000	 6.027271193379756e-001	 1.081181007378221e+001
 3.394092678980937e+000	 6.369189090644474e-001	 1.082045973603258e+001
 3.387489438881134e+000	 6.711526255090805e-001	 1.083819406571776e+001
 3.463950815644158e+000	 3.338758301663241e-001	 1.075065895052745e+001
 3.460512219073185e+000	 3.678095047447778e-001	 1.078563613850816e+001
 3.456727523420122e+000	 4.018255438388306e-001	 1.080375647132600e+001
 3.452593748539921e+000	 4.359192410355515e-001	 1.080989818904042e+001
 3.448107987875623e+000	 4.700857995556378e-001	 1.080832081380349e+001
 3.443267411316521e+000	 5.043203333385941e-001	 1.080269799674077e+001
 3.438069268051671e+000	 5.386178682239287e-001	 1.079615596047693e+001
 3.432510889415307e+000	 5.729733432292812e-001	 1.079131821455197e+001
 3.426589691720682e+000	 6.073816119262632e-001	 1.079035725397883e+001
 3.420303179078741e+000	 6.418374439146738e-001	 1.079505398036064e+001
 3.413648946197965e+000	 6.763355263955971e-001	 1.080898009095964e+001
 3.490495796727684e+000	 3.364343906264662e-001	 1.071844536868462e+001
 3.487030849470385e+000	 3.706281060652908e-001	 1.075828973132469e+001
 3.483217150901286e+000	 4.049048171962604e-001	 1.078021784782461e+001
 3.479051698037852e+000	 4.392597815402108e-001	 1.078914129978759e+001
 3.474531562049550e+000	 4.736881655591101e-001	 1.078933325520732e+001
 3.469653891137935e+000	 5.081850457495538e-001	 1.078445824282068e+001
 3.464415913412003e+000	 5.427454098330110e-001	 1.077760744725846e+001
 3.458814939755432e+000	 5.773641580437487e-001	 1.077134023799413e+001
 3.452848366682128e+000	 6.120361045152155e-001	 1.076773268126252e+001
 3.446513679176499e+000	 6.467559787655527e-001	 1.076843381634615e+001
 3.439808453514761e+000	 6.815184272827487e-001	 1.077960017781523e+001
 3.517040777811276e+000	 3.389929510870034e-001	 1.068866128552136e+001
 3.513549479867664e+000	 3.734467073862540e-001	 1.073252649068976e+001
 3.509706778382525e+000	 4.079840905541842e-001	 1.075760273846457e+001
 3.505509647535838e+000	 4.426003220453980e-001	 1.076880811427547e+001
 3.500955136223510e+000	 4.772905315631356e-001	 1.077040432463377e+001
 3.496040370959348e+000	 5.120497581610831e-001	 1.076602322996691e+001
 3.490762558772303e+000	 5.468729514426730e-001	 1.075869880879587e+001
 3.485118990095495e+000	 5.817549728587999e-001	 1.075090530321981e+001
 3.479107041643489e+000	 6.166905971047497e-001	 1.074460233517620e+001
 3.472724179274159e+000	 6.516745136170080e-001	 1.074128781838172e+001
 3.465967960831457e+000	 6.867013281704680e-001	 1.075067183644084e+001
 3.543585758894952e+000	 3.415515115479126e-001	 1.066226945840397e+001
 3.540068110265041e+000	 3.762653087076237e-001	 1.070926809002513e+001
 3.536196405863857e+000	 4.110633639125422e-001	 1.073679050870435e+001
 3.531967597033896e+000	 4.459408625510411e-001	 1.074973697173242e+001
 3.527378710397506e+000	 4.808928975676332e-001	 1.075233521400000e+001
 3.522426850780760e+000	 5.159144705730965e-001	 1.074816355904345e+001
 3.517109204132555e+000	 5.510004930528264e-001	 1.074017935660111e+001
 3.511423040435468e+000	 5.861457876743472e-001	 1.073075353485505e+001
 3.505365716604720e+000	 6.213450896947828e-001	 1.072171209853712e+001
 3.498934679371662e+000	 6.565930484689632e-001	 1.071438544289409e+001
 3.492127468147986e+000	 6.918842290586874e-001	 1.072287870592883e+001
 3.570130739978726e+000	 3.441100720091705e-001	 1.064024982767162e+001
 3.566586740662536e+000	 3.790839100293559e-001	 1.068946684024875e+001
 3.562686033345299e+000	 4.141426372712738e-001	 1.071870280358334e+001
 3.558425546532040e+000	 4.492814030570673e-001	 1.073281836804424e+001
 3.553802284571547e+000	 4.844952635725215e-001	 1.073598743530173e+001
 3.548813330602161e+000	 5.197791829855072e-001	 1.073171665581558e+001
 3.543455849492743e+000	 5.551280346633837e-001	 1.072287013182957e+001
 3.537727090775320e+000	 5.905366024903044e-001	 1.071170015354494e+001
 3.531624391565783e+000	 6.259995822852323e-001	 1.069988484282237e+001
 3.525145179468956e+000	 6.615115833213418e-001	 1.068857362112606e+001
 3.518286975464283e+000	 6.970671299473390e-001	 1.069696908861729e+001
 3.596675721062617e+000	 3.466686324707543e-001	 1.062360122628874e+001
 3.593105371060168e+000	 3.819025113514069e-001	 1.067410676514195e+001
 3.589175660826872e+000	 4.172219106303193e-001	 1.070430400033121e+001
 3.584883496030281e+000	 4.526219435634038e-001	 1.071899479912787e+001
 3.580225858745636e+000	 4.880976295777195e-001	 1.072228207031032e+001
 3.575199810423550e+000	 5.236438953982293e-001	 1.071758544459471e+001
 3.569802494852850e+000	 5.592555762742565e-001	 1.070766202258858e+001
 3.564031141115022e+000	 5.949274173065841e-001	 1.069463305875938e+001
 3.557883066526630e+000	 6.306540748760147e-001	 1.068001750044163e+001
 3.551355679565987e+000	 6.664301181740676e-001	 1.066477334699570e+001
 3.544446482780284e+000	 7.022500308363556e-001	 1.067375448609153e+001
 3.623220702146641e+000	 3.492271929326405e-001	 1.061334296573454e+001
 3.619624001457956e+000	 3.847211126737331e-001	 1.066420457130384e+001
 3.615665288308592e+000	 4.203011839896183e-001	 1.069460157272217e+001
 3.611341445528634e+000	 4.559624840699787e-001	 1.070926053198232e+001
 3.606649432919778e+000	 4.916999955831460e-001	 1.071219896260882e+001
 3.601586290244921e+000	 5.275086078111761e-001	 1.070673697757665e+001
 3.596149140212859e+000	 5.633831178853564e-001	 1.069551384895259e+001
 3.590335191454546e+000	 5.993182321230999e-001	 1.068051038993980e+001
 3.584141741487224e+000	 6.353085674670475e-001	 1.066307812456947e+001
 3.577566179662699e+000	 6.713486530270642e-001	 1.064436699192167e+001
 3.570605990095922e+000	 7.074329317256695e-001	 1.065410813679163e+001
 3.649765683230813e+000	 3.517857533948059e-001	 1.061051630443123e+001
 3.646142631855923e+000	 3.875397139962905e-001	 1.066081051806044e+001
 3.642154915790480e+000	 4.233804573491110e-001	 1.069064637167123e+001
 3.637799395027112e+000	 4.593030245767192e-001	 1.070466130709715e+001
 3.633073007093982e+000	 4.953023615887200e-001	 1.070677585490115e+001
 3.627972770066271e+000	 5.313733202242620e-001	 1.070020102212957e+001
 3.622495785572755e+000	 5.675106594965961e-001	 1.068745041732871e+001
 3.616639241793862e+000	 6.037090469397646e-001	 1.067035806708764e+001
 3.610400416447522e+000	 6.399630600582474e-001	 1.065010293716970e+001
 3.603776679759039e+000	 6.762671878802548e-001	 1.062881399585493e+001
 3.596765497411132e+000	 7.126158326152124e-001	 1.063896355514309e+001
 3.335170424247629e+000	 6.607868237382245e-001	 1.089314900228148e+001
 3.328306588186820e+000	 6.945328805338576e-001	 1.091565289213183e+001
 3.321078955483442e+000	 7.283096007980534e-001	 1.093257203999223e+001
 3.313485459902493e+000	 7.621115520460923e-001	 1.094598613874284e+001
 3.305524134521356e+000	 7.959332281968499e-001	 1.095678454243013e+001
 3.297193114320970e+000	 8.297690515990592e-001	 1.096552441141492e+001
 3.288490638736053e+000	 8.636133751544897e-001	 1.097244324348683e+001
 3.279415054160485e+000	 8.974604845374922e-001	 1.097747120021441e+001
 3.269964816403906e+000	 9.313046005101889e-001	 1.098024307860398e+001
 3.260138493095666e+000	 9.651398813324287e-001	 1.098010979043757e+001
 3.249934766032135e+000	 9.989604252654352e-001	 1.097614922592450e+001
 3.361329931564333e+000	 6.659697246232672e-001	 1.086667960748954e+001
 3.354412258803586e+000	 6.999804696079965e-001	 1.089062070023795e+001
 3.347127935950537e+000	 7.340221185710896e-001	 1.090953294778873e+001
 3.339474880563621e+000	 7.680891964179748e-001	 1.092493559119778e+001
 3.331451110292614e+000	 8.021761538804227e-001	 1.093792498760186e+001
 3.323054745490133e+000	 8.362773695586973e-001	 1.094894812983304e+001
 3.314284011781863e+000	 8.703871520613905e-001	 1.095811357934264e+001
 3.305137242591581e+000	 9.044997422423740e-001	 1.096530506727689e+001
 3.295612881617041e+000	 9.386093155341523e-001	 1.097011595144593e+001
 3.285709485252758e+000	 9.727099843767159e-001	 1.097186155933450e+001
 3.275425724955747e+000	 1.006795800740831e+000	 1.096959075658862e+001
 3.387489438881134e+000	 6.711526255090805e-001	 1.083819406571776e+001
 3.380517929420490e+000	 7.054280586828631e-001	 1.086410110981198e+001
 3.373176916417826e+000	 7.397346363448024e-001	 1.088471196322980e+001
 3.365464301225001e+000	 7.740668407904772e-001	 1.090159086360952e+001
 3.357378086064188e+000	 8.084190795645522e-001	 1.091589733547451e+001
 3.348916376659676e+000	 8.427856875188232e-001	 1.092839029533804e+001
 3.340077384828114e+000	 8.771609289687061e-001	 1.093943412804868e+001
 3.330859431023175e+000	 9.115389999475941e-001	 1.094898896309561e+001
 3.321260946830720e+000	 9.459140305583734e-001	 1.095628305001963e+001
 3.311280477410429e+000	 9.802800874211785e-001	 1.096042200402880e+001
 3.300916683879955e+000	 1.014631176216317e+000	 1.096038089964738e+001
 3.413648946197965e+000	 6.763355263955971e-001	 1.080898009095964e+001
 3.406623600037462e+000	 7.108756477584002e-001	 1.083657847563572e+001
 3.399225896885227e+000	 7.454471541191478e-001	 1.085875211839428e+001
 3.391453721886553e+000	 7.800444851635687e-001	 1.087710171347775e+001
 3.383305061835990e+000	 8.146620052492226e-001	 1.089282036838838e+001
 3.374778007829510e+000	 8.492940054794386e-001	 1.090669703196832e+001
 3.365870757874714e+000	 8.839347058764533e-001	 1.091912189316847e+001
 3.356581619455178e+000	 9.185782576531858e-001	 1.093009394543946e+001
 3.346909012044858e+000	 9.532187455829028e-001	 1.093923091551750e+001
 3.336851469568601e+000	 9.878501904658823e-001	 1.094578175763595e+001
 3.326407642804696e+000	 1.022466551691976e+000	 1.094850952237324e+001
 3.439808453514761e+000	 6.815184272827487e-001	 1.077960017781523e+001
 3.432729270654426e+000	 7.163232368345508e-001	 1.080859439179474e+001
 3.425274877352659e+000	 7.511596718940811e-001	 1.083217723127746e+001
 3.417443142548179e+000	 7.860221295372193e-001	 1.085196564266062e+001
 3.409232037607928e+000	 8.209049309344189e-001	 1.086916606406870e+001
 3.400639638999539e+000	 8.558023234405421e-001	 1.088457714079126e+001
 3.391664130921576e+000	 8.907084827846498e-001	 1.089859440899673e+001
 3.382303807887502e+000	 9.256175153591826e-001	 1.091121715349383e+001
 3.372557077259375e+000	 9.605234606077897e-001	 1.092205764981386e+001
 3.362422461727200e+000	 9.954202935108940e-001	 1.093035300373753e+001
 3.351898601729900e+000	 1.030301927167889e+000	 1.093497284259312e+001
 3.465967960831457e+000	 6.867013281704680e-001	 1.075067183644084e+001
 3.458834941271304e+000	 7.217708259112585e-001	 1.078076067212581e+001
 3.451323857820038e+000	 7.568721896695587e-001	 1.080558368949748e+001
 3.443432563209798e+000	 7.919997739113979e-001	 1.082675480739798e+001
 3.435159013379911e+000	 8.271478566201258e-001	 1.084547449710816e+001
 3.426501270169675e+000	 8.623106414021357e-001	 1.086253174601538e+001
 3.417457503968606e+000	 8.974822596933118e-001	 1.087830798509711e+001
 3.408025996320059e+000	 9.326567730656179e-001	 1.089278319728209e+001
 3.398205142474186e+000	 9.678281756330857e-001	 1.090554442894638e+001
 3.387993453886149e+000	 1.002990396556281e+000	 1.091579693028288e+001
 3.377389560655498e+000	 1.038137302644139e+000	 1.092237208202273e+001
 3.492127468147986e+000	 6.918842290586874e-001	 1.072287870592883e+001
 3.484940611888026e+000	 7.272184149884663e-001	 1.075375761315459e+001
 3.477372838287284e+000	 7.625847074455355e-001	 1.077963843910979e+001
 3.469421983871323e+000	 7.979774182860747e-001	 1.080211372938719e+001
 3.461085989151848e+000	 8.333907823063274e-001	 1.082235965583253e+001
 3.452362901339824e+000	 8.688189593642191e-001	 1.084113718572644e+001
 3.443250877015715e+000	 9.042560366024566e-001	 1.085879520808646e+001
 3.433748184752760e+000	 9.396960307725260e-001	 1.087527584590572e+001
 3.423853207689207e+000	 9.751328906588402e-001	 1.089012218907330e+001
 3.413564446045371e+000	 1.010560499602108e+000	 1.090248049725505e+001
 3.402880519581427e+000	 1.045972678120808e+000	 1.091114916706180e+001
 3.518286975464283e+000	 6.970671299473390e-001	 1.069696908861729e+001
 3.511046282504512e+000	 7.326660040661169e-001	 1.072833226500720e+001
 3.503421818754312e+000	 7.682972252219673e-001	 1.075507698763547e+001
 3.495411404532665e+000	 8.039550626612186e-001	 1.077875702733999e+001
 3.487012964923652e+000	 8.396337079930085e-001	 1.080050689971240e+001
 3.478224532509898e+000	 8.753272773267932e-001	 1.082104219341090e+001
 3.469044250062812e+000	 9.110298135121011e-001	 1.084066184646967e+001
 3.459470373185520e+000	 9.467352884799398e-001	 1.085925261165429e+001
 3.449501272904357e+000	 9.824376056851036e-001	 1.087629595861947e+001
 3.439135438204790e+000	 1.018130602648443e+000	 1.089087048149960e+001
 3.428371478507617e+000	 1.053808053597977e+000	 1.090169579029107e+001
 3.544446482780284e+000	 7.022500308363556e-001	 1.067375448609153e+001
 3.537151953120691e+000	 7.381135931441537e-001	 1.070529670988477e+001
 3.529470799221043e+000	 7.740097429988094e-001	 1.073270142056864e+001
 3.521400825193738e+000	 8.099327070367999e-001	 1.075746716796079e+001
 3.512939940695230e+000	 8.458766336801536e-001	 1.078067044214221e+001
 3.504086163679800e+000	 8.818355952898579e-001	 1.080296511077303e+001
 3.494837623109805e+000	 9.178035904222620e-001	 1.082458379265206e+001
 3.485192561618248e+000	 9.537745461878934e-001	 1.084534142130291e+001
 3.475149338119550e+000	 9.897423207119256e-001	 1.086464125989040e+001
 3.464706430364329e+000	 1.025700705695351e+000	 1.088147735381855e+001
 3.453862437434002e+000	 1.061643429075729e+000	 1.089447372005940e+001
 3.570605990095922e+000	 7.074329317256695e-001	 1.065410813679163e+001
 3.563257623736486e+000	 7.435611822225200e-001	 1.068552634771094e+001
 3.555519779687395e+000	 7.797222607760181e-001	 1.071337843067210e+001
 3.547390245854455e+000	 8.159103514127873e-001	 1.073909223535133e+001
 3.538866916466492e+000	 8.521195593677474e-001	 1.076367085728690e+001
 3.529947794849443e+000	 8.883439132534144e-001	 1.078769113024101e+001
 3.520630996156604e+000	 9.245773673329562e-001	 1.081130404022258e+001
 3.510914750050856e+000	 9.608138038964199e-001	 1.083423732819973e+001
 3.500797403334707e+000	 9.970470357393572e-001	 1.085580055691174e+001
 3.490277422523912e+000	 1.033270808742900e+000	 1.087488745209773e+001
 3.479353396360510e+000	 1.069478804554146e+000	 1.089001072638394e+001
 3.596765497411132e+000	 7.126158326152124e-001	 1.063896355514309e+001
 3.589363294351825e+000	 7.490087713011588e-001	 1.066995818858855e+001
 3.581568760153285e+000	 7.854347785535488e-001	 1.069803735940908e+001
 3.573379666514728e+000	 8.218879957891508e-001	 1.072454371790291e+001
 3.564793892237348e+000	 8.583624850557747e-001	 1.075039260976944e+001
 3.555809426018735e+000	 8.948522312174628e-001	 1.077606956565097e+001
 3.546424369203119e+000	 9.313511442442009e-001	 1.080162969471228e+001
 3.536636938483259e+000	 9.678530616055532e-001	 1.082669926306731e+001
 3.526445468549742e+000	 1.004351750767448e+000	 1.085047974714087e+001
 3.515848414683465e+000	 1.040840911791156e+000	 1.087174991002802e+001
 3.504844355287081e+000	 1.077314180033311e+000	 1.088889656071633e+001
 3.249934766032135e+000	 9.989604252654352e-001	 1.097614922592450e+001
 3.239352432650741e+000	 1.032760272672935e+000	 1.097651444996505e+001
 3.228390405810319e+000	 1.066533407174408e+000	 1.098852766063759e+001
 3.217047718379721e+000	 1.100273759821121e+000	 1.100958981567509e+001
 3.205323526137257e+000	 1.133975212443531e+000	 1.103687827609586e+001
 3.193217109782673e+000	 1.167631600601917e+000	 1.106734300401108e+001
 3.180727876869459e+000	 1.201236716620890e+000	 1.109771344743903e+001
 3.167855363653740e+000	 1.234784312705469e+000	 1.112450449430153e+001
 3.154599236856098e+000	 1.268268104136253e+000	 1.114402153933089e+001
 3.140959295332737e+000	 1.301681772541035e+000	 1.115236473280715e+001
 3.126935471652506e+000	 1.335018969240017e+000	 1.114552558321930e+001
 3.275425724955747e+000	 1.006795800740831e+000	 1.096959075658862e+001
 3.264760388731105e+000	 1.040860758245642e+000	 1.097149211386873e+001
 3.253712380910649e+000	 1.074898793320969e+000	 1.098477197639227e+001
 3.242280726777507e+000	 1.108903789416095e+000	 1.100658165480849e+001
 3.230464575488312e+000	 1.142869580373430e+000	 1.103384084548274e+001
 3.218263202100959e+000	 1.176789953402282e+000	 1.106323518433856e+001
 3.205676009522064e+000	 1.210658652137173e+000	 1.109122297635616e+001
 3.192702530370364e+000	 1.244469379778354e+000	 1.111404083987330e+001
 3.179342428752352e+000	 1.278215802312035e+000	 1.112770831309086e+001
 3.165595501946556e+000	 1.311891551807666e+000	 1.112803149721453e+001
 3.151461681992926e+000	 1.345490229789387e+000	 1.111516361050825e+001
 3.300916683879955e+000	 1.014631176216317e+000	 1.096038089964738e+001
 3.290168344812070e+000	 1.048961243818355e+000	 1.096427864298049e+001
 3.279034356011567e+000	 1.083264179467451e+000	 1.097907385304585e+001
 3.267513735175860e+000	 1.117533819010909e+000	 1.100168558312735e+001
 3.255605624839903e+000	 1.151763948303092e+000	 1.102878736357121e+001
 3.243309294419742e+000	 1.185948306202339e+000	 1.105681500849558e+001
 3.230624142175128e+000	 1.220080587653086e+000	 1.108197314486345e+001
 3.217549697087408e+000	 1.254154446850814e+000	 1.110024048659772e+001
 3.204085620648994e+000	 1.288163500487353e+000	 1.110737390496845e+001
 3.190231708560741e+000	 1.322101331073807e+000	 1.109891137545020e+001
 3.175987892333698e+000	 1.355961490338257e+000	 1.108548437275913e+001
 3.326407642804696e+000	 1.022466551691976e+000	 1.094850952237324e+001
 3.315576300893580e+000	 1.057061729391170e+000	 1.095486497808469e+001
 3.304356331113032e+000	 1.091629565613964e+000	 1.097146180789107e+001
 3.292746743574746e+000	 1.126163848605684e+000	 1.099498499131110e+001
 3.280746674192009e+000	 1.160658316232648e+000	 1.102187345344354e+001
 3.268355386739016e+000	 1.195106659002230e+000	 1.104832781069917e+001
 3.255572274828653e+000	 1.229502523168778e+000	 1.107031665128823e+001
 3.242396863804885e+000	 1.263839513923010e+000	 1.108358137511304e+001
 3.228828812546041e+000	 1.298111198662370e+000	 1.108363964828178e+001
 3.214867915175308e+000	 1.332311110339624e+000	 1.106578755847592e+001
 3.200514102674839e+000	 1.366432750886795e+000	 1.105686139608939e+001
 3.351898601729900e+000	 1.030301927167889e+000	 1.093497284259312e+001
 3.340984256975579e+000	 1.065162214964183e+000	 1.094350265806536e+001
 3.329678306214996e+000	 1.099994951760619e+000	 1.096208105933325e+001
 3.317979751974136e+000	 1.134793878200544e+000	 1.098667236224843e+001
 3.305887723544611e+000	 1.169552684162233e+000	 1.101335481891570e+001
 3.293401479058773e+000	 1.204265011802098e+000	 1.103810864092784e+001
 3.280520407482643e+000	 1.238924458684402e+000	 1.105668424380242e+001
 3.267244030522806e+000	 1.273524580995097e+000	 1.106460658494703e+001
 3.253572004443512e+000	 1.308058896837248e+000	 1.105717791837109e+001
 3.239504121790274e+000	 1.342520889605283e+000	 1.103184082077857e+001
 3.225040313016362e+000	 1.376904011435166e+000	 1.102966570119527e+001
 3.377389560655498e+000	 1.038137302644139e+000	 1.092237208202273e+001
 3.366392213058008e+000	 1.073262700537491e+000	 1.093254625346127e+001
 3.355000281317417e+000	 1.108360337907524e+000	 1.095211520308854e+001
 3.343212760373997e+000	 1.143423907795610e+000	 1.097719848180211e+001
 3.331028772897689e+000	 1.178447052091981e+000	 1.100357780880186e+001
 3.318447571379005e+000	 1.213423364602087e+000	 1.102657240330750e+001
 3.305468540137102e+000	 1.248346394200107e+000	 1.104157445752626e+001
 3.292091197241183e+000	 1.283209648067234e+000	 1.104391369522889e+001
 3.278315196341421e+000	 1.318006595012151e+000	 1.102870114210533e+001
 3.264140328405664e+000	 1.352730668870948e+000	 1.100096358117814e+001
 3.249566523358288e+000	 1.387375271983537e+000	 1.100426495648140e+001
 3.402880519581427e+000	 1.045972678120808e+000	 1.091114916706180e+001
 3.391800169140812e+000	 1.081363186111191e+000	 1.092300229693889e+001
 3.380322256420250e+000	 1.116725724054792e+000	 1.094342931753340e+001
 3.368445768774295e+000	 1.152053937391004e+000	 1.096841407611187e+001
 3.356169822251226e+000	 1.187341420022024e+000	 1.099359313291465e+001
 3.343493663699706e+000	 1.222581717402338e+000	 1.101428891239919e+001
 3.330416672792031e+000	 1.257768329716046e+000	 1.102554342784939e+001
 3.316938363960027e+000	 1.292894715139578e+000	 1.102214421826461e+001
 3.303058388239788e+000	 1.327954293187240e+000	 1.099895087553903e+001
 3.288776535021494e+000	 1.362940448136786e+000	 1.097344794879829e+001
 3.274092733700633e+000	 1.397846532532076e+000	 1.098102268595047e+001
 3.428371478507617e+000	 1.053808053597977e+000	 1.090169579029107e+001
 3.417208125223934e+000	 1.089463671685380e+000	 1.091521502329622e+001
 3.405644231523448e+000	 1.125091110202530e+000	 1.093636851749491e+001
 3.393678777175000e+000	 1.160683966986851e+000	 1.096102143117393e+001
 3.381310871605199e+000	 1.196235787952496e+000	 1.098467689269351e+001
 3.368539756020867e+000	 1.231740070202997e+000	 1.100250881000921e+001
 3.355364805447436e+000	 1.267190265232369e+000	 1.100939921784961e+001
 3.341785530679351e+000	 1.302579782212286e+000	 1.099998036620541e+001
 3.327801580138630e+000	 1.337901991362676e+000	 1.096920850330652e+001
 3.313412741637784e+000	 1.373150227402962e+000	 1.094955688997863e+001
 3.298618944043411e+000	 1.408317793080948e+000	 1.096029752900348e+001
 3.453862437434002e+000	 1.061643429075729e+000	 1.089447372005940e+001
 3.442616081307318e+000	 1.097564157260154e+000	 1.090959794312771e+001
 3.430966206626969e+000	 1.133456496350850e+000	 1.093131932962331e+001
 3.418911785576080e+000	 1.169313996583270e+000	 1.095540171795901e+001
 3.406451920959592e+000	 1.205130155883531e+000	 1.097723321783843e+001
 3.393585848342482e+000	 1.240898423004204e+000	 1.099185859332972e+001
 3.380312938103318e+000	 1.276612200749228e+000	 1.099401632944798e+001
 3.366632697399166e+000	 1.312264849285518e+000	 1.097818060249117e+001
 3.352544772037962e+000	 1.347849689538625e+000	 1.094361669949797e+001
 3.338048948254552e+000	 1.383360006669642e+000	 1.092954265960499e+001
 3.323145154386643e+000	 1.418789053630321e+000	 1.094244254946746e+001
 3.479353396360510e+000	 1.069478804554146e+000	 1.089001072638394e+001
 3.468024037390906e+000	 1.105664642835609e+000	 1.090662952507054e+001
 3.456288181730765e+000	 1.141821882499862e+000	 1.092873142098865e+001
 3.444144793977504e+000	 1.177944026180386e+000	 1.095199669311172e+001
 3.431592970314385e+000	 1.214024523815262e+000	 1.097171720110537e+001
 3.418631940664544e+000	 1.250056775806104e+000	 1.098282825266311e+001
 3.405261070759681e+000	 1.286034136266774e+000	 1.097994530081951e+001
 3.391479864119481e+000	 1.321949916359429e+000	 1.095740570886619e+001
 3.377287963937803e+000	 1.357797387715248e+000	 1.092293434529993e+001
 3.362685154871818e+000	 1.393569785936990e+000	 1.091336150294422e+001
 3.347671364730342e+000	 1.429260314180360e+000	 1.092769775116685e+001
 3.504844355287081e+000	 1.077314180033311e+000	 1.088889656071633e+001
 3.493431993474643e+000	 1.113765128411843e+000	 1.090684893617646e+001
 3.481610156834797e+000	 1.150187268649676e+000	 1.092911312731842e+001
 3.469377802379237e+000	 1.186574055778320e+000	 1.095130404245224e+001
 3.456734019669560e+000	 1.222918891747823e+000	 1.096863645270284e+001
 3.443678032987045e+000	 1.259215128608840e+000	 1.097595624963450e+001
 3.430209203416529e+000	 1.295456071785157e+000	 1.096777667999785e+001
 3.416327030840312e+000	 1.331634983434178e+000	 1.093831981342804e+001
 3.402031155838170e+000	 1.367745085892707e+000	 1.090734729446658e+001
 3.387321361489601e+000	 1.403779565205173e+000	 1.090115613737648e+001
 3.372197575074528e+000	 1.439731574731234e+000	 1.091598332049304e+001
 3.126935471652506e+000	 1.335018969240017e+000	 1.114552558321929e+001
 3.112530023792000e+000	 1.368268337568320e+000	 1.113803819734813e+001
 3.097741083326226e+000	 1.401428489062056e+000	 1.113928750916334e+001
 3.082568994673866e+000	 1.434493009528169e+000	 1.114759012127732e+001
 3.067014241170958e+000	 1.467455468599930e+000	 1.116111700568129e+001
 3.051077446124150e+000	 1.500309423398188e+000	 1.117790357772872e+001
 3.034759373751101e+000	 1.533048422245595e+000	 1.119586146370231e+001
 3.018060930005414e+000	 1.565666008429837e+000	 1.121279195813601e+001
 3.000983163283562e+000	 1.598155724011803e+000	 1.122640115295394e+001
 2.983527265011496e+000	 1.630511113674446e+000	 1.123431670599994e+001
 2.965694570108715e+000	 1.662725728608005e+000	 1.123410620177685e+001
 3.151461681992926e+000	 1.345490229789387e+000	 1.111516361050825e+001
 3.136943244578563e+000	 1.379000390515981e+000	 1.111643583975135e+001
 3.122038306623422e+000	 1.412420634633105e+000	 1.112470004625938e+001
 3.106747215247636e+000	 1.445744497637801e+000	 1.113842495382238e+001
 3.091070457578299e+000	 1.478965498726574e+000	 1.115594246678524e+001
 3.075008661810973e+000	 1.512077144485368e+000	 1.117545779413492e+001
 3.058562598157479e+000	 1.545072932632920e+000	 1.119506133084336e+001
 3.041733179677284e+000	 1.577946355813512e+000	 1.121274229347890e+001
 3.024521462989988e+000	 1.610690905435004e+000	 1.122640409235619e+001
 3.006928648866512e+000	 1.643300075547886e+000	 1.123388140734729e+001
 2.988956082696837e+000	 1.675767366760974e+000	 1.123295891904821e+001
 3.175987892333698e+000	 1.355961490338257e+000	 1.108548437275913e+001
 3.161356465365481e+000	 1.389732443463149e+000	 1.109401066630404e+001
 3.146335529920983e+000	 1.423412780203684e+000	 1.110809450140188e+001
 3.130925435821790e+000	 1.456995985746995e+000	 1.112633892427831e+001
 3.115126673986046e+000	 1.490475528852819e+000	 1.114721709618555e+001
 3.098939877498229e+000	 1.523844865572194e+000	 1.116908248372927e+001
 3.082365822564309e+000	 1.557097443019938e+000	 1.119018087703653e+001
 3.065405429349620e+000	 1.590226703196920e+000	 1.120866423369163e+001
 3.048059762696877e+000	 1.623226086857971e+000	 1.122260633094896e+001
 3.030330032721980e+000	 1.656089037421116e+000	 1.123002019289294e+001
 3.012217595285378e+000	 1.688809004913743e+000	 1.122887724307651e+001
 3.200514102674839e+000	 1.366432750886795e+000	 1.105686139608939e+001
 3.185769686152757e+000	 1.400464496409990e+000	 1.107125090318351e+001
 3.170632753218907e+000	 1.434404925773955e+000	 1.109005292898135e+001
 3.155103656396314e+000	 1.468247473855910e+000	 1.111198759433042e+001
 3.139182890394172e+000	 1.501985558978823e+000	 1.113565019172991e+001
 3.122871093185870e+000	 1.535612586658817e+000	 1.115952145767536e+001
 3.106169046971531e+000	 1.569121953406790e+000	 1.118197975046067e+001
 3.089077679022347e+000	 1.602507050580201e+000	 1.120131513234686e+001
 3.071598062404153e+000	 1.635761268280842e+000	 1.121574533888387e+001
 3.053731416577815e+000	 1.668877999294270e+000	 1.122343360159984e+001
 3.035479107874254e+000	 1.701850643066445e+000	 1.122250827338520e+001
 3.225040313016362e+000	 1.376904011435166e+000	 1.102966570119527e+001
 3.210182906940405e+000	 1.411196549356671e+000	 1.104863797022204e+001
 3.194929976517193e+000	 1.445397071344083e+000	 1.107114708226318e+001
 3.179281876971192e+000	 1.479498961964707e+000	 1.109601352104892e+001
 3.163239106802647e+000	 1.513495589104740e+000	 1.112193611822544e+001
 3.146802308873855e+000	 1.547380307745388e+000	 1.114750242314741e+001
 3.129972271379087e+000	 1.581146463793625e+000	 1.117120106289037e+001
 3.112749928695398e+000	 1.614787397963496e+000	 1.119143609245309e+001
 3.095136362111731e+000	 1.648296449703754e+000	 1.120654331824602e+001
 3.077132800433933e+000	 1.681666961167483e+000	 1.121480856062678e+001
 3.058740620463381e+000	 1.714892281219213e+000	 1.121448780356523e+001
 3.249566523358288e+000	 1.387375271983537e+000	 1.100426495648139e+001
 3.234596127728435e+000	 1.421928602303357e+000	 1.102664583810924e+001
 3.219227199815839e+000	 1.456389216914231e+000	 1.105193795049684e+001
 3.203460097546411e+000	 1.490750450073546e+000	 1.107904595024221e+001
 3.187295323211441e+000	 1.525005619230725e+000	 1.110675413389754e+001
 3.170733524562135e+000	 1.559148028832056e+000	 1.113373692029467e+001
 3.153775495786916e+000	 1.593170974180589e+000	 1.115857141512654e+001
 3.136422178368696e+000	 1.627067745346946e+000	 1.117975205888685e+001
 3.118674661819536e+000	 1.660831631126843e+000	 1.119570734161734e+001
 3.100534184290246e+000	 1.694455923040890e+000	 1.120481854976574e+001
 3.082002133052676e+000	 1.727933919372181e+000	 1.120544049195414e+001
 3.274092733700633e+000	 1.397846532532076e+000	 1.098102268595047e+001
 3.259009348516858e+000	 1.432660655250213e+000	 1.100574043295872e+001
 3.243524423114846e+000	 1.467381362484561e+000	 1.103297533716353e+001
 3.227638318121956e+000	 1.502001938182587e+000	 1.106170054587011e+001
 3.211351539620524e+000	 1.536515649356934e+000	 1.109076824894857e+001
 3.194664740250668e+000	 1.570915749918973e+000	 1.111892028844124e+001
 3.177578720194960e+000	 1.605195484567825e+000	 1.114480094986149e+001
 3.160094428042173e+000	 1.639348092730692e+000	 1.116697193749614e+001
 3.142212961527484e+000	 1.673366812550247e+000	 1.118392951755359e+001
 3.123935568146673e+000	 1.707244884914625e+000	 1.119412379400586e+001
 3.105263645642055e+000	 1.740975557525482e+000	 1.119598006259849e+001
 3.298618944043411e+000	 1.408317793080948e+000	 1.096029752900348e+001
 3.283422569305680e+000	 1.443392708197407e+000	 1.098637908577369e+001
 3.267821646414211e+000	 1.478373508055239e+000	 1.101479747722148e+001
 3.251816538697812e+000	 1.513253426291988e+000	 1.104457915363938e+001
 3.235407756029868e+000	 1.548025679483521e+000	 1.107462711454686e+001
 3.218595955939409e+000	 1.582683471006288e+000	 1.110373165999912e+001
 3.201381944603160e+000	 1.617219994955479e+000	 1.113058343055166e+001
 3.183766677715757e+000	 1.651628440114874e+000	 1.115378873948581e+001
 3.165751261235494e+000	 1.685901993974103e+000	 1.117188718157168e+001
 3.147336952003127e+000	 1.720033846788822e+000	 1.118337148276165e+001
 3.128525158231437e+000	 1.754017195679249e+000	 1.118670953492451e+001
 3.323145154386643e+000	 1.418789053630321e+000	 1.094244254946745e+001
 3.307835790094914e+000	 1.454124761145104e+000	 1.096901002449127e+001
 3.292118869713935e+000	 1.489365653626425e+000	 1.099793069133408e+001
 3.275994759273966e+000	 1.524504914401911e+000	 1.102826959701610e+001
 3.259463972439443e+000	 1.559535709610643e+000	 1.105896394067371e+001
 3.242527171628312e+000	 1.594451192094152e+000	 1.108883398066366e+001
 3.225185169011457e+000	 1.629244505343696e+000	 1.111659634495348e+001
 3.207438927389378e+000	 1.663908787499634e+000	 1.114087974978023e+001
 3.189289560943490e+000	 1.698437175398548e+000	 1.116024311133108e+001
 3.170738335859523e+000	 1.732822808663616e+000	 1.117319601438675e+001
 3.151786670820736e+000	 1.767058833833616e+000	 1.117822148063343e+001
 3.347671364730342e+000	 1.429260314180360e+000	 1.092769775116685e+001
 3.332249010884568e+000	 1.464856814093469e+000	 1.095407190642321e+001
 3.316416093014018e+000	 1.500357799198286e+000	 1.098288907518387e+001
 3.300172979850403e+000	 1.535756402512514e+000	 1.101334550399225e+001
 3.283520188849219e+000	 1.571045739738455e+000	 1.104439644134775e+001
 3.266458387317334e+000	 1.606218913182716e+000	 1.107487405454248e+001
 3.248988393419791e+000	 1.641269015732624e+000	 1.110350103205838e+001
 3.231111177062963e+000	 1.676189134885112e+000	 1.112890671813276e+001
 3.212827860651388e+000	 1.710972356823719e+000	 1.114964576476792e+001
 3.194139719715778e+000	 1.745611770539141e+000	 1.116421926467695e+001
 3.175048183409871e+000	 1.780100471988717e+000	 1.117109830642500e+001
 3.372197575074528e+000	 1.439731574731234e+000	 1.091598332049304e+001
 3.356662231674654e+000	 1.475588867042669e+000	 1.094168543534666e+001
 3.340713316314456e+000	 1.511349944770984e+000	 1.097014152457432e+001
 3.324351200427108e+000	 1.547007890623957e+000	 1.100036616304075e+001
 3.307576405259167e+000	 1.582555769867112e+000	 1.103152680583367e+001
 3.290389603006430e+000	 1.617986634272130e+000	 1.106248261294945e+001
 3.272791617828106e+000	 1.653293526122406e+000	 1.109194283123486e+001
 3.254783426736442e+000	 1.688469482271450e+000	 1.111851607182357e+001
 3.236366160359109e+000	 1.723507538249754e+000	 1.114072954001302e+001
 3.217541103571808e+000	 1.758400732415532e+000	 1.115705087814118e+001
 3.198309695998757e+000	 1.793142110144684e+000	 1.116591256123478e+001
 2.965694570108715e+000	 1.662725728608005e+000	 1.123410620177685e+001
 2.947483798177338e+000	 1.694797929960343e+000	 1.123170579121680e+001
 2.928899221696398e+000	 1.726716448985847e+000	 1.123380253426370e+001
 2.909942610804364e+000	 1.758474879052459e+000	 1.123909236087837e+001
 2.890615879789327e+000	 1.790066835929240e+000	 1.124633919910309e+001
 2.870921086910895e+000	 1.821485961785593e+000	 1.125439824848526e+001
 2.850860434090400e+000	 1.852725929198409e+000	 1.126224015675075e+001
 2.830436266468553e+000	 1.883780445162080e+000	 1.126897595498946e+001
 2.809651071830005e+000	 1.914643255096348e+000	 1.127388259453302e+001
 2.788507479894426e+000	 1.945308146846862e+000	 1.127642891750367e+001
 2.767008261473969e+000	 1.975768954673289e+000	 1.127630188281200e+001
 2.988956082696837e+000	 1.675767366760974e+000	 1.123295891904821e+001
 2.970602474040236e+000	 1.708091127367755e+000	 1.122999416553462e+001
 2.951872128887056e+000	 1.740260000235878e+000	 1.123177438778537e+001
 2.932766831259906e+000	 1.772267528482681e+000	 1.123672828125505e+001
 2.913288510461653e+000	 1.804107277802321e+000	 1.124334023135917e+001
 2.893439240895929e+000	 1.835772840496374e+000	 1.125017491949462e+001
 2.873221241754907e+000	 1.867257839512400e+000	 1.125590292477086e+001
 2.852636876573476e+000	 1.898555932485417e+000	 1.125932716992021e+001
 2.831688652649308e+000	 1.929660815777189e+000	 1.125941004703711e+001
 2.810379220328354e+000	 1.960566228508146e+000	 1.125530104690016e+001
 2.788711372155723e+000	 1.991265956576792e+000	 1.124636470477654e+001
 3.012217595285378e+000	 1.688809004913743e+000	 1.122887724307651e+001
 2.993721149903497e+000	 1.721384324774959e+000	 1.122575043654614e+001
 2.974845036078005e+000	 1.753803551485679e+000	 1.122735063349405e+001
 2.955591051715656e+000	 1.786060177912640e+000	 1.123185244916497e+001
 2.935961141134095e+000	 1.818147719675097e+000	 1.123747439675874e+001
 2.915957394880990e+000	 1.850059719206805e+000	 1.124250484876455e+001
 2.895582049419351e+000	 1.881789749825994e+000	 1.124532908854419e+001
 2.874837486678263e+000	 1.913331419808317e+000	 1.124445729362229e+001
 2.853726233468411e+000	 1.944678376457553e+000	 1.123855327856775e+001
 2.832250960762047e+000	 1.975824310168927e+000	 1.122646381273125e+001
 2.810414482837230e+000	 2.006762958479779e+000	 1.120831384517221e+001
 3.035479107874254e+000	 1.701850643066445e+000	 1.122250827338520e+001
 3.016839825767045e+000	 1.734677522182089e+000	 1.121956793778827e+001
 2.997817943269185e+000	 1.767347102735386e+000	 1.122108602532208e+001
 2.978415272171568e+000	 1.799852827342473e+000	 1.122499570755301e+001
 2.958633771806631e+000	 1.832188161547714e+000	 1.122926274532225e+001
 2.938475548866074e+000	 1.864346597917032e+000	 1.123191282973636e+001
 2.917942857083756e+000	 1.896321660139343e+000	 1.123106011017161e+001
 2.897038096782951e+000	 1.928106907130930e+000	 1.122493674352210e+001
 2.875763814287376e+000	 1.959695937137597e+000	 1.121192328455989e+001
 2.854122701195575e+000	 1.991082391829359e+000	 1.119057972391690e+001
 2.832117593518570e+000	 2.022259960382399e+000	 1.117114623564793e+001
 3.058740620463381e+000	 1.714892281219213e+000	 1.121448780356523e+001
 3.039958501630808e+000	 1.747970719589279e+000	 1.121203115122192e+001
 3.020790850460532e+000	 1.780890653985136e+000	 1.121352858624096e+001
 3.001239492627601e+000	 1.813645476772324e+000	 1.121668395963205e+001
 2.981306402479240e+000	 1.846228603420313e+000	 1.121922285344004e+001
 2.960993702851183e+000	 1.878633476627206e+000	 1.121892132738295e+001
 2.940303664748140e+000	 1.910853570452599e+000	 1.121363595164993e+001
 2.919238706887588e+000	 1.942882394453412e+000	 1.120133495263269e+001
 2.897801395106262e+000	 1.974713497817474e+000	 1.118013028319060e+001
 2.875994441629014e+000	 2.006340473489594e+000	 1.114923041565336e+001
 2.853820704199826e+000	 2.037756962284804e+000	 1.113714436540529e+001
 3.082002133052676e+000	 1.727933919372181e+000	 1.120544049195414e+001
 3.063077177494705e+000	 1.761263916996664e+000	 1.120371588313449e+001
 3.043763757651986e+000	 1.794434205235065e+000	 1.120521980621129e+001
 3.024063713083709e+000	 1.827438126202331e+000	 1.120743840517018e+001
 3.003979033151893e+000	 1.860269045293039e+000	 1.120786911423068e+001
 2.983511856836313e+000	 1.892920355337473e+000	 1.120405083779489e+001
 2.962664472412528e+000	 1.925385480765913e+000	 1.119359551824174e+001
 2.941439316992212e+000	 1.957657881775916e+000	 1.117422091064641e+001
 2.919838975925133e+000	 1.989731058497339e+000	 1.114378436749358e+001
 2.897866182062439e+000	 2.021598555149789e+000	 1.111090683181553e+001
 2.875523814881082e+000	 2.053253964187143e+000	 1.110677592832283e+001
 3.105263645642055e+000	 1.740975557525482e+000	 1.119598006259849e+001
 3.086195853358668e+000	 1.774557114404378e+000	 1.119518947258280e+001
 3.066736664843483e+000	 1.807977756485311e+000	 1.119669487422326e+001
 3.046887933539847e+000	 1.841230775632634e+000	 1.119777581173079e+001
 3.026651663824572e+000	 1.874309487166035e+000	 1.119571306304472e+001
 3.006030010821464e+000	 1.907207234047981e+000	 1.118782028245460e+001
 2.985025280076941e+000	 1.939917391079437e+000	 1.117147713545001e+001
 2.963639927096867e+000	 1.972433369098596e+000	 1.114416373694076e+001
 2.941876556744047e+000	 2.004748619177347e+000	 1.110400020665461e+001
 2.919737922495926e+000	 2.036856636810096e+000	 1.107783493142462e+001
 2.897226925562421e+000	 2.068750966089566e+000	 1.108048211875288e+001
 3.128525158231437e+000	 1.754017195679249e+000	 1.118670953492451e+001
 3.109314529222616e+000	 1.787850311812554e+000	 1.118701103068395e+001
 3.089709572034964e+000	 1.821521307736009e+000	 1.118848294265392e+001
 3.069712153995974e+000	 1.855023425063373e+000	 1.118820881904530e+001
 3.049324294497249e+000	 1.888349929039446e+000	 1.118326373628424e+001
 3.028548164806635e+000	 1.921494112758879e+000	 1.117074743539461e+001
 3.007386087741395e+000	 1.954449301393320e+000	 1.114781905784815e+001
 2.985840537201595e+000	 1.987208856421605e+000	 1.111173328383726e+001
 2.963914137563063e+000	 2.019766179857653e+000	 1.106852477485839e+001
 2.941609662929547e+000	 2.052114718470668e+000	 1.105038209867759e+001
 2.918930036243927e+000	 2.084247967992224e+000	 1.105867805198662e+001
 3.151786670820736e+000	 1.767058833833616e+000	 1.117822148063343e+001
 3.132433205086475e+000	 1.801143509221328e+000	 1.117973170915887e+001
 3.112682479226364e+000	 1.835064858987296e+000	 1.118110742227131e+001
 3.092536374452043e+000	 1.868816074494688e+000	 1.117924627480789e+001
 3.071996925169904e+000	 1.902390370913415e+000	 1.117102806181713e+001
 3.051066318791824e+000	 1.935780991470312e+000	 1.115334938153980e+001
 3.029746895405916e+000	 1.968981211707714e+000	 1.112316000811950e+001
 3.008041147306436e+000	 2.001984343745096e+000	 1.107758622519856e+001
 2.985951718382243e+000	 2.034783740538410e+000	 1.104004364470462e+001
 2.963481403363379e+000	 2.067372800131659e+000	 1.102889134712452e+001
 2.940633146925679e+000	 2.099744969895266e+000	 1.104175320577863e+001
 3.175048183409871e+000	 1.780100471988717e+000	 1.117109830642500e+001
 3.155551880950169e+000	 1.814436706630833e+000	 1.117389499663018e+001
 3.135655386417623e+000	 1.848608410239309e+000	 1.117508630631363e+001
 3.115360594908013e+000	 1.882608723926719e+000	 1.117139360027985e+001
 3.094669555842513e+000	 1.916430812788086e+000	 1.115951127936546e+001
 3.073584472777031e+000	 1.950067870182429e+000	 1.113614300463541e+001
 3.052107703070523e+000	 1.983513122022769e+000	 1.109803974475799e+001
 3.030241757411437e+000	 2.016759831069224e+000	 1.104806422995555e+001
 3.007989299201648e+000	 2.049801301219773e+000	 1.101884014019163e+001
 2.985353143797493e+000	 2.082630881793222e+000	 1.101368170193005e+001
 2.962336257607764e+000	 2.115241971798842e+000	 1.103007188185045e+001
 3.198309695998757e+000	 1.793142110144684e+000	 1.116591256123478e+001
 3.178670556813624e+000	 1.827729904041205e+000	 1.117003704125954e+001
 3.158628293608679e+000	 1.862151961492185e+000	 1.117093252216366e+001
 3.138184815363838e+000	 1.896401373359606e+000	 1.116515318418685e+001
 3.117342186515054e+000	 1.930471254663603e+000	 1.114921738934267e+001
 3.096102626762256e+000	 1.964354748895379e+000	 1.111964550325366e+001
 3.074468510735240e+000	 1.998045032338640e+000	 1.107299965696936e+001
 3.052442367516636e+000	 2.031535318394142e+000	 1.102699364299266e+001
 3.030026880021336e+000	 2.064818861901898e+000	 1.100517486254801e+001
 3.007224884231966e+000	 2.097888963455511e+000	 1.100504860382933e+001
 2.984039368290266e+000	 2.130738973703105e+000	 1.102397368635611e+001
 2.767008261473969e+000	 1.975768954673289e+000	 1.127630188281200e+001
 2.745156326716522e+000	 2.006019562551172e+000	 1.125830682395484e+001
 2.722954721676198e+000	 2.036053906072851e+000	 1.123376679487740e+001
 2.700406629454409e+000	 2.065865978303493e+000	 1.121445666712343e+001
 2.677515369617984e+000	 2.095449834330041e+000	 1.119831383131201e+001
 2.654284396700450e+000	 2.124799595113841e+000	 1.118392466832837e+001
 2.630717298573514e+000	 2.153909451300075e+000	 1.117302175236701e+001
 2.606817794690175e+000	 2.182773666978905e+000	 1.116492073366361e+001
 2.582589734201157e+000	 2.211386583393304e+000	 1.115831023190570e+001
 2.558037093946534e+000	 2.239742622588618e+000	 1.115171717178028e+001
 2.533163976324692e+000	 2.267836290998960e+000	 1.114351904477231e+001
 2.788711372155723e+000	 1.991265956576792e+000	 1.124636470477654e+001
 2.766688041105134e+000	 2.021753835987452e+000	 1.122734639890607e+001
 2.744312297122522e+000	 2.052023754766099e+000	 1.121178443731931e+001
 2.721587348276045e+000	 2.082069658862324e+000	 1.119968269635555e+001
 2.698516540169660e+000	 2.111885556733959e+000	 1.118926989719285e+001
 2.675103354432631e+000	 2.141465523229930e+000	 1.117879322641224e+001
 2.651351407078246e+000	 2.170803703429568e+000	 1.116752281501507e+001
 2.627264446733149e+000	 2.199894316433246e+000	 1.115767019500490e+001
 2.602846352738986e+000	 2.228731659099303e+000	 1.114863488485041e+001
 2.578101133128303e+000	 2.257310109722225e+000	 1.113937274426949e+001
 2.553032922476773e+000	 2.285624131647170e+000	 1.112869077291734e+001
 2.810414482837230e+000	 2.006762958479779e+000	 1.120831384517221e+001
 2.788219755493519e+000	 2.037488109423218e+000	 1.119719280820339e+001
 2.765669872568660e+000	 2.067993603458853e+000	 1.118943796043922e+001
 2.742768067097567e+000	 2.098273339420692e+000	 1.118353266411792e+001
 2.719517710721304e+000	 2.128321279137459e+000	 1.117798408011422e+001
 2.695922312164874e+000	 2.158131451345657e+000	 1.117132863529317e+001
 2.671985515583138e+000	 2.187697955558761e+000	 1.116213736585565e+001
 2.647711098776373e+000	 2.217014965887358e+000	 1.115056711813391e+001
 2.623102971277156e+000	 2.246076734805151e+000	 1.113909867761625e+001
 2.598165172310488e+000	 2.274877596855761e+000	 1.112722038952941e+001
 2.572901868629318e+000	 2.303411972295396e+000	 1.111415745436904e+001
 2.832117593518570e+000	 2.022259960382399e+000	 1.117114623564793e+001
 2.809751469881757e+000	 2.053222382858615e+000	 1.116842356229508e+001
 2.787027448014699e+000	 2.083963452151246e+000	 1.116735373982199e+001
 2.763948785919044e+000	 2.114477019978720e+000	 1.116667527034068e+001
 2.740518881272978e+000	 2.144757001540650e+000	 1.116516111189271e+001
 2.716741269897224e+000	 2.174797379461116e+000	 1.116162391651872e+001
 2.692619624088216e+000	 2.204592207687736e+000	 1.115492112063790e+001
 2.668157750819863e+000	 2.234135615341308e+000	 1.114395985106241e+001
 2.643359589815660e+000	 2.263421810510898e+000	 1.113004764668354e+001
 2.618229211493063e+000	 2.292445083989264e+000	 1.111559026711976e+001
 2.592770814782297e+000	 2.321199812943656e+000	 1.110022891777813e+001
 2.853820704199826e+000	 2.037756962284804e+000	 1.113714436540529e+001
 2.831283184269936e+000	 2.068956656293786e+000	 1.114158725337739e+001
 2.808385023460716e+000	 2.099933300843413e+000	 1.114612781858892e+001
 2.785129504740552e+000	 2.130680700536533e+000	 1.114974768829622e+001
 2.761520051824738e+000	 2.161192723943644e+000	 1.115147321194866e+001
 2.737560227629725e+000	 2.191463307576405e+000	 1.115038049651625e+001
 2.713253732593508e+000	 2.221486459816572e+000	 1.114560027095413e+001
 2.688604402863628e+000	 2.251256264795160e+000	 1.113632254214397e+001
 2.663616208354491e+000	 2.280766886216589e+000	 1.112184065344524e+001
 2.638293250676009e+000	 2.310012571122761e+000	 1.110482495172874e+001
 2.612639760935674e+000	 2.338987653591965e+000	 1.108722721821583e+001
 2.875523814881082e+000	 2.053253964187143e+000	 1.110677592832283e+001
 2.852814898658140e+000	 2.084690929728875e+000	 1.111720402257778e+001
 2.829742598906793e+000	 2.115903149535490e+000	 1.112632645750102e+001
 2.806310223562162e+000	 2.146884381094253e+000	 1.113335618849479e+001
 2.782521222376647e+000	 2.177628446346550e+000	 1.113756077617954e+001
 2.758379185362421e+000	 2.208129235691617e+000	 1.113826724569544e+001
 2.733887841099043e+000	 2.238380711945352e+000	 1.113486675245344e+001
 2.709051054907677e+000	 2.268376914248977e+000	 1.112681901558290e+001
 2.683872826893645e+000	 2.298111961922277e+000	 1.111365648136100e+001
 2.658357289859304e+000	 2.327580058256287e+000	 1.109527819387578e+001
 2.632508707089417e+000	 2.356775494240340e+000	 1.107548545061967e+001
 2.897226925562421e+000	 2.068750966089566e+000	 1.108048211875288e+001
 2.874346613046457e+000	 2.100425203164026e+000	 1.109576604712534e+001
 2.851100174353010e+000	 2.131872998227611e+000	 1.110848670199859e+001
 2.827490942383945e+000	 2.163088061652005e+000	 1.111807677683808e+001
 2.803522392928762e+000	 2.194064168749482e+000	 1.112403307776971e+001
 2.779198143095355e+000	 2.224795163806850e+000	 1.112592123376345e+001
 2.754521949604845e+000	 2.255274964074154e+000	 1.112338019104199e+001
 2.729497706952019e+000	 2.285497563702824e+000	 1.111612645175844e+001
 2.704129445433113e+000	 2.315457037628008e+000	 1.110395801811929e+001
 2.678421329042928e+000	 2.345147545389874e+000	 1.108675800459116e+001
 2.652377653243494e+000	 2.374563334888798e+000	 1.106534656779894e+001
 2.918930036243927e+000	 2.084247967992224e+000	 1.105867805198662e+001
 2.895878327434964e+000	 2.116159476599381e+000	 1.107773804646940e+001
 2.872457749799449e+000	 2.147842846919910e+000	 1.109311696529751e+001
 2.848671661205972e+000	 2.179291742209911e+000	 1.110445584629023e+001
 2.824523563481143e+000	 2.210499891152546e+000	 1.111146897931573e+001
 2.800017100828571e+000	 2.241461091922200e+000	 1.111394849447658e+001
 2.775156058110943e+000	 2.272169216203060e+000	 1.111176871273467e+001
 2.749944358996667e+000	 2.302618213156769e+000	 1.110489021770566e+001
 2.724386063972889e+000	 2.332802113333830e+000	 1.109336360857780e+001
 2.698485368226857e+000	 2.362715032523553e+000	 1.107733289568119e+001
 2.672246599397870e+000	 2.392351175537356e+000	 1.105703850214126e+001
 2.940633146925679e+000	 2.099744969895266e+000	 1.104175320577863e+001
 2.917410041823754e+000	 2.131893750035086e+000	 1.106355780636597e+001
 2.893815325246190e+000	 2.163812695612522e+000	 1.108069762671087e+001
 2.869852380028318e+000	 2.195495422768095e+000	 1.109301084136611e+001
 2.845524734033850e+000	 2.226935613555857e+000	 1.110041765568199e+001
 2.820836058562116e+000	 2.258127020037764e+000	 1.110292479934104e+001
 2.795790166617365e+000	 2.289063468332152e+000	 1.110062976096547e+001
 2.770391011041629e+000	 2.319738862610873e+000	 1.109372472109612e+001
 2.744642682512967e+000	 2.350147189039793e+000	 1.108250014216244e+001
 2.718549407411074e+000	 2.380282519657359e+000	 1.106734797574482e+001
 2.692115545552514e+000	 2.410139016186032e+000	 1.104876444946278e+001
 2.962336257607764e+000	 2.115241971798842e+000	 1.103007188185045e+001
 2.938941756212907e+000	 2.147628023471283e+000	 1.105363672001219e+001
 2.915172900693314e+000	 2.179782544305583e+000	 1.107168164441654e+001
 2.891033098851052e+000	 2.211699103326682e+000	 1.108423093478170e+001
 2.866525904586939e+000	 2.243371335959520e+000	 1.109139932703694e+001
 2.841655016296031e+000	 2.274792948153638e+000	 1.109339643980326e+001
 2.816424275124137e+000	 2.305957720461509e+000	 1.109053092097327e+001
 2.790837663086917e+000	 2.336859512065201e+000	 1.108321427014140e+001
 2.764899301053341e+000	 2.367492264745944e+000	 1.107196429405205e+001
 2.738613446595554e+000	 2.397850006791322e+000	 1.105740815402691e+001
 2.711984491707391e+000	 2.427926856834841e+000	 1.104028496649131e+001
 2.984039368290266e+000	 2.130738973703105e+000	 1.102397368635611e+001
 2.960473470602511e+000	 2.163362296908118e+000	 1.104836034535887e+001
 2.936530476140903e+000	 2.195752392999228e+000	 1.106649518193446e+001
 2.912213817674248e+000	 2.227902783885794e+000	 1.107857771564522e+001
 2.887527075140474e+000	 2.259807058363652e+000	 1.108490600155127e+001
 2.862473974030363e+000	 2.291458876269918e+000	 1.108588101749832e+001
 2.837058383631288e+000	 2.322851972591213e+000	 1.108201075090310e+001
 2.811284315132539e+000	 2.353980161519819e+000	 1.107391393911838e+001
 2.785155919594004e+000	 2.384837340452332e+000	 1.106232341897506e+001
 2.758677485780279e+000	 2.415417493925475e+000	 1.104808904300456e+001
 2.731853437862469e+000	 2.445714697483801e+000	 1.103218012213339e+001
 2.533163976324692e+000	 2.267836290998960e+000	 1.114351904477231e+001
 2.507978409130006e+000	 2.295658029994647e+000	 1.112784210769305e+001
 2.482481032043097e+000	 2.323206763111350e+000	 1.110156208333793e+001
 2.456676310313640e+000	 2.350477275304074e+000	 1.106705435677537e+001
 2.430568824931228e+000	 2.377464449525057e+000	 1.102666603775605e+001
 2.404163269919529e+000	 2.404163269919529e+000	 1.098272535653970e+001
 2.377464449525057e+000	 2.430568824931227e+000	 1.093755153759734e+001
 2.350477275304074e+000	 2.456676310313640e+000	 1.089346500859553e+001
 2.323206763111350e+000	 2.482481032043097e+000	 1.085279779870562e+001
 2.295658029994646e+000	 2.507978409130006e+000	 1.081790397827591e+001
 2.267836290998959e+000	 2.533163976324692e+000	 1.079116999127262e+001
 2.553032922476773e+000	 2.285624131647170e+000	 1.112869077291734e+001
 2.527649811545008e+000	 2.313664091271059e+000	 1.111152300892563e+001
 2.501952445030983e+000	 2.341428903686288e+000	 1.108510169820686e+001
 2.475945323207677e+000	 2.368913312943507e+000	 1.105154926468812e+001
 2.449633062995806e+000	 2.396112161859249e+000	 1.101295152837624e+001
 2.423020395236747e+000	 2.423020395236746e+000	 1.097136842770123e+001
 2.396112161859249e+000	 2.449633062995806e+000	 1.092884525825238e+001
 2.368913312943507e+000	 2.475945323207676e+000	 1.088742427587187e+001
 2.341428903686289e+000	 2.501952445030982e+000	 1.084915650849891e+001
 2.313664091271059e+000	 2.527649811545009e+000	 1.081611361901596e+001
 2.285624131647170e+000	 2.553032922476773e+000	 1.079039966066056e+001
 2.572901868629318e+000	 2.303411972295396e+000	 1.111415745436904e+001
 2.547321213960504e+000	 2.331670152547573e+000	 1.109556050362922e+001
 2.521423858019364e+000	 2.359651044261410e+000	 1.106894428035830e+001
 2.495214336102196e+000	 2.387349350583203e+000	 1.103619206913979e+001
 2.468697301060834e+000	 2.414759874193777e+000	 1.099914212285150e+001
 2.441877520554362e+000	 2.441877520554361e+000	 1.095959973912723e+001
 2.414759874193777e+000	 2.468697301060833e+000	 1.091934989305954e+001
 2.387349350583203e+000	 2.495214336102196e+000	 1.088017026432881e+001
 2.359651044261410e+000	 2.521423858019364e+000	 1.084384449315253e+001
 2.331670152547573e+000	 2.547321213960505e+000	 1.081217549716998e+001
 2.303411972295396e+000	 2.572901868629318e+000	 1.078699868062620e+001
 2.592770814782297e+000	 2.321199812943656e+000	 1.110022891777813e+001
 2.566992616376451e+000	 2.349676213824190e+000	 1.108024344973651e+001
 2.540895271008198e+000	 2.377873184836706e+000	 1.105336047145189e+001
 2.514483348997150e+000	 2.405785388223142e+000	 1.102123761996668e+001
 2.487761539126262e+000	 2.433407586528607e+000	 1.098547896163447e+001
 2.460734645872333e+000	 2.460734645872333e+000	 1.094764845232702e+001
 2.433407586528608e+000	 2.487761539126262e+000	 1.090928399512050e+001
 2.405785388223142e+000	 2.514483348997150e+000	 1.087191192351162e+001
 2.377873184836706e+000	 2.540895271008198e+000	 1.083706173420198e+001
 2.349676213824190e+000	 2.566992616376451e+000	 1.080628089106133e+001
 2.321199812943656e+000	 2.592770814782297e+000	 1.078114952106716e+001
 2.612639760935674e+000	 2.338987653591965e+000	 1.108722721821583e+001
 2.586664018792810e+000	 2.367682275100913e+000	 1.106587284041567e+001
 2.560366683997438e+000	 2.396095325412165e+000	 1.103863294291981e+001
 2.533752361892490e+000	 2.424221425863299e+000	 1.100695267795332e+001
 2.506825777192050e+000	 2.452055298863711e+000	 1.097221496461850e+001
 2.479591771190625e+000	 2.479591771190625e+000	 1.093575536453960e+001
 2.452055298863711e+000	 2.506825777192050e+000	 1.089887759767029e+001
 2.424221425863298e+000	 2.533752361892491e+000	 1.086286951581850e+001
 2.396095325412165e+000	 2.560366683997438e+000	 1.082901934719446e+001
 2.367682275100913e+000	 2.586664018792810e+000	 1.079863202271164e+001
 2.338987653591965e+000	 2.612639760935674e+000	 1.077304539388934e+001
 2.632508707089417e+000	 2.356775494240340e+000	 1.107548545061967e+001
 2.606335421209538e+000	 2.385688336377744e+000	 1.105276067066933e+001
 2.579838096987040e+000	 2.414317465987774e+000	 1.102505531997884e+001
 2.553021374788173e+000	 2.442657463503651e+000	 1.099361490008892e+001
 2.525890015258152e+000	 2.470703011199052e+000	 1.095961388103468e+001
 2.498448896509196e+000	 2.498448896509196e+000	 1.092417202622448e+001
 2.470703011199053e+000	 2.525890015258151e+000	 1.088837140167118e+001
 2.442657463503652e+000	 2.553021374788173e+000	 1.085327387625543e+001
 2.414317465987774e+000	 2.579838096987041e+000	 1.081993891520948e+001
 2.385688336377744e+000	 2.606335421209539e+000	 1.078944146627689e+001
 2.356775494240340e+000	 2.632508707089417e+000	 1.076288973705127e+001
 2.652377653243494e+000	 2.374563334888798e+000	 1.106534656779894e+001
 2.626006823626593e+000	 2.403694397654686e+000	 1.104122880801431e+001
 2.599309509976958e+000	 2.432539606563527e+000	 1.101293110912070e+001
 2.572290387684151e+000	 2.461093501144180e+000	 1.098151182758899e+001
 2.544954253324521e+000	 2.489350723534602e+000	 1.094794934130326e+001
 2.517306021828006e+000	 2.517306021828006e+000	 1.091315985961464e+001
 2.489350723534602e+000	 2.544954253324522e+000	 1.087801596350426e+001
 2.461093501144179e+000	 2.572290387684152e+000	 1.084336567126785e+001
 2.432539606563527e+000	 2.599309509976957e+000	 1.081005182039287e+001
 2.403694397654687e+000	 2.626006823626595e+000	 1.077893155340285e+001
 2.374563334888798e+000	 2.652377653243494e+000	 1.075089569441798e+001
 2.672246599397870e+000	 2.392351175537356e+000	 1.105703850214126e+001
 2.645678226043938e+000	 2.421700458931741e+000	 1.103160786702937e+001
 2.618780922967142e+000	 2.450761747139410e+000	 1.100257262889945e+001
 2.591559400580378e+000	 2.479529538784858e+000	 1.097093987653896e+001
 2.564018491391117e+000	 2.507998435870327e+000	 1.093750391073980e+001
 2.536163147147017e+000	 2.536163147147017e+000	 1.090298927827624e+001
 2.507998435870326e+000	 2.564018491391118e+000	 1.086807088275461e+001
 2.479529538784858e+000	 2.591559400580378e+000	 1.083339465669841e+001
 2.450761747139409e+000	 2.618780922967142e+000	 1.079959857360680e+001
 2.421700458931741e+000	 2.645678226043937e+000	 1.076733377565966e+001
 2.392351175537357e+000	 2.672246599397870e+000	 1.073746829479245e+001
 2.692115545552514e+000	 2.410139016186032e+000	 1.104876444946278e+001
 2.665349628461526e+000	 2.439706520208910e+000	 1.102423608757128e+001
 2.638252335957553e+000	 2.468983887715412e+000	 1.099429994384534e+001
 2.610828413476806e+000	 2.497965576425667e+000	 1.096220333102303e+001
 2.583082729457892e+000	 2.526646148206194e+000	 1.092856814501886e+001
 2.555020272466187e+000	 2.555020272466187e+000	 1.089393880762304e+001
 2.526646148206194e+000	 2.583082729457892e+000	 1.085880399008437e+001
 2.497965576425666e+000	 2.610828413476806e+000	 1.082361893491503e+001
 2.468983887715411e+000	 2.638252335957553e+000	 1.078882814229439e+001
 2.439706520208911e+000	 2.665349628461527e+000	 1.075488818420689e+001
 2.410139016186032e+000	 2.692115545552514e+000	 1.072607803281939e+001
 2.711984491707391e+000	 2.427926856834841e+000	 1.104028496649131e+001
 2.685021030879321e+000	 2.457712581486198e+000	 1.101816005238498e+001
 2.657723748948141e+000	 2.487206028291523e+000	 1.098843980134528e+001
 2.630097426373389e+000	 2.516401614066581e+000	 1.095561333861180e+001
 2.602146967524803e+000	 2.545293860542173e+000	 1.092143964730564e+001
 2.573877397785479e+000	 2.573877397785478e+000	 1.088629420633689e+001
 2.545293860542173e+000	 2.602146967524804e+000	 1.085049053518963e+001
 2.516401614066580e+000	 2.630097426373389e+000	 1.081430421115192e+001
 2.487206028291522e+000	 2.657723748948141e+000	 1.077799727664934e+001
 2.457712581486198e+000	 2.685021030879322e+000	 1.074380118889978e+001
 2.427926856834841e+000	 2.711984491707391e+000	 1.071802518436481e+001
 2.731853437862469e+000	 2.445714697483801e+000	 1.103218012213339e+001
 2.704692433297279e+000	 2.475718642763606e+000	 1.101218128445366e+001
 2.677195161938863e+000	 2.505428168867732e+000	 1.098490616697285e+001
 2.649366439270082e+000	 2.534837651707582e+000	 1.095148690808861e+001
 2.621211205591807e+000	 2.563941572878231e+000	 1.091642212697069e+001
 2.592734523104852e+000	 2.592734523104852e+000	 1.088034758864755e+001
 2.563941572878231e+000	 2.621211205591807e+000	 1.084341237483707e+001
 2.534837651707581e+000	 2.649366439270081e+000	 1.080572304910416e+001
 2.505428168867732e+000	 2.677195161938863e+000	 1.076800606282531e+001
 2.475718642763605e+000	 2.704692433297279e+000	 1.073676644149386e+001
 2.445714697483802e+000	 2.731853437862469e+000	 1.071339524744346e+001
 2.267836290998959e+000	 2.533163976324692e+000	 1.079116999127262e+001
 2.239742622588619e+000	 2.558037093946534e+000	 1.077045593779134e+001
 2.211386583393305e+000	 2.582589734201157e+000	 1.075044084730474e+001
 2.182773666978905e+000	 2.606817794690176e+000	 1.072879143451733e+001
 2.153909451300075e+000	 2.630717298573514e+000	 1.070323010266324e+001
 2.124799595113840e+000	 2.654284396700450e+000	 1.067155161576783e+001
 2.095449834330041e+000	 2.677515369617983e+000	 1.063227597765295e+001
 2.065865978303493e+000	 2.700406629454409e+000	 1.058732807785112e+001
 2.036053906072851e+000	 2.722954721676199e+000	 1.053440696306938e+001
 2.006019562551172e+000	 2.745156326716522e+000	 1.047028436103872e+001
 1.975768954673289e+000	 2.767008261473968e+000	 1.040144237604535e+001
 2.285624131647170e+000	 2.553032922476773e+000	 1.079039966066056e+001
 2.257310109722224e+000	 2.578101133128303e+000	 1.076939708559484e+001
 2.228731659099303e+000	 2.602846352738986e+000	 1.074779807361884e+001
 2.199894316433245e+000	 2.627264446733148e+000	 1.072372898828717e+001
 2.170803703429568e+000	 2.651351407078246e+000	 1.069537826542458e+001
 2.141465523229931e+000	 2.675103354432631e+000	 1.066141101554404e+001
 2.111885556733959e+000	 2.698516540169659e+000	 1.062443836817293e+001
 2.082069658862324e+000	 2.721587348276045e+000	 1.058311088588738e+001
 2.052023754766099e+000	 2.744312297122521e+000	 1.053463800061872e+001
 2.021753835987452e+000	 2.766688041105134e+000	 1.047617902162241e+001
 1.991265956576792e+000	 2.788711372155724e+000	 1.040610996246620e+001
 2.303411972295396e+000	 2.572901868629318e+000	 1.078699868062620e+001
 2.274877596855761e+000	 2.598165172310488e+000	 1.076526196076423e+001
 2.246076734805151e+000	 2.623102971277155e+000	 1.074169797927382e+001
 2.217014965887358e+000	 2.647711098776373e+000	 1.071488271643619e+001
 2.187697955558761e+000	 2.671985515583138e+000	 1.068362232323072e+001
 2.158131451345657e+000	 2.695922312164874e+000	 1.065091371644962e+001
 2.128321279137459e+000	 2.719517710721304e+000	 1.061663425094495e+001
 2.098273339420692e+000	 2.742768067097567e+000	 1.057843428731773e+001
 2.067993603458852e+000	 2.765669872568660e+000	 1.053390059564827e+001
 2.037488109423218e+000	 2.788219755493518e+000	 1.048056693239743e+001
 2.006762958479779e+000	 2.810414482837230e+000	 1.041592472959277e+001
 2.321199812943656e+000	 2.592770814782297e+000	 1.078114952106716e+001
 2.292445083989264e+000	 2.618229211493063e+000	 1.075822242361964e+001
 2.263421810510898e+000	 2.643359589815661e+000	 1.073229869546731e+001
 2.234135615341307e+000	 2.668157750819863e+000	 1.070240662975870e+001
 2.204592207687736e+000	 2.692619624088216e+000	 1.067143756283818e+001
 2.174797379461117e+000	 2.716741269897225e+000	 1.064086627098738e+001
 2.144757001540649e+000	 2.740518881272977e+000	 1.060878676720257e+001
 2.114477019978720e+000	 2.763948785919044e+000	 1.057321658582488e+001
 2.083963452151246e+000	 2.787027448014699e+000	 1.053210694677617e+001
 2.053222382858615e+000	 2.809751469881758e+000	 1.048335312114717e+001
 2.022259960382399e+000	 2.832117593518569e+000	 1.042480491849209e+001
 2.338987653591965e+000	 2.612639760935674e+000	 1.077304539388934e+001
 2.310012571122760e+000	 2.638293250676008e+000	 1.074846090391361e+001
 2.280766886216590e+000	 2.663616208354491e+000	 1.071976880876112e+001
 2.251256264795159e+000	 2.688604402863627e+000	 1.068920877437309e+001
 2.221486459816572e+000	 2.713253732593509e+000	 1.066016190312723e+001
 2.191463307576405e+000	 2.737560227629726e+000	 1.063122495191913e+001
 2.161192723943644e+000	 2.761520051824738e+000	 1.060084911794159e+001
 2.130680700536533e+000	 2.785129504740552e+000	 1.056740649576586e+001
 2.099933300843413e+000	 2.808385023460716e+000	 1.052920005670032e+001
 2.068956656293786e+000	 2.831283184269936e+000	 1.048447384183886e+001
 2.037756962284804e+000	 2.853820704199826e+000	 1.043142328637563e+001
 2.356775494240340e+000	 2.632508707089417e+000	 1.076288973705127e+001
 2.327580058256288e+000	 2.658357289859304e+000	 1.073616995920843e+001
 2.298111961922277e+000	 2.683872826893644e+000	 1.070602577009264e+001
 2.268376914248976e+000	 2.709051054907677e+000	 1.067742740140307e+001
 2.238380711945352e+000	 2.733887841099044e+000	 1.064978110089720e+001
 2.208129235691617e+000	 2.758379185362420e+000	 1.062197431786382e+001
 2.177628446346551e+000	 2.782521222376647e+000	 1.059280312600243e+001
 2.146884381094253e+000	 2.806310223562161e+000	 1.056098174573178e+001
 2.115903149535490e+000	 2.829742598906794e+000	 1.052515237773590e+001
 2.084690929728875e+000	 2.852814898658141e+000	 1.048389526289995e+001
 2.053253964187143e+000	 2.875523814881082e+000	 1.043573888322158e+001
 2.374563334888798e+000	 2.652377653243494e+000	 1.075089569441798e+001
 2.345147545389875e+000	 2.678421329042928e+000	 1.072236711375212e+001
 2.315457037628008e+000	 2.704129445433113e+000	 1.069420260463948e+001
 2.285497563702824e+000	 2.729497706952019e+000	 1.066707401274766e+001
 2.255274964074154e+000	 2.754521949604845e+000	 1.064030740439155e+001
 2.224795163806849e+000	 2.779198143095354e+000	 1.061312572586322e+001
 2.194064168749482e+000	 2.803522392928762e+000	 1.058465778931969e+001
 2.163088061652005e+000	 2.827490942383944e+000	 1.055394767277307e+001
 2.131872998227610e+000	 2.851100174353011e+000	 1.051996444755545e+001
 2.100425203164026e+000	 2.874346613046457e+000	 1.048161214525441e+001
 2.068750966089566e+000	 2.897226925562421e+000	 1.043773987549755e+001
 2.392351175537357e+000	 2.672246599397870e+000	 1.073746829479245e+001
 2.362715032523554e+000	 2.698485368226857e+000	 1.071073968130814e+001
 2.332802113333830e+000	 2.724386063972889e+000	 1.068438955142586e+001
 2.302618213156768e+000	 2.749944358996667e+000	 1.065818480175311e+001
 2.272169216203061e+000	 2.775156058110944e+000	 1.063177801796299e+001
 2.241461091922200e+000	 2.800017100828571e+000	 1.060471583609811e+001
 2.210499891152547e+000	 2.824523563481142e+000	 1.057644782579746e+001
 2.179291742209911e+000	 2.848671661205972e+000	 1.054633580777630e+001
 2.147842846919909e+000	 2.872457749799449e+000	 1.051366351564045e+001
 2.116159476599381e+000	 2.895878327434966e+000	 1.047764651065211e+001
 2.084247967992224e+000	 2.918930036243927e+000	 1.043744225739630e+001
 2.410139016186032e+000	 2.692115545552514e+000	 1.072607803281940e+001
 2.380282519657360e+000	 2.718549407411073e+000	 1.070175760857581e+001
 2.350147189039793e+000	 2.744642682512968e+000	 1.067664297605428e+001
 2.319738862610872e+000	 2.770391011041629e+000	 1.065081907144597e+001
 2.289063468332153e+000	 2.795790166617366e+000	 1.062425355985323e+001
 2.258127020037764e+000	 2.820836058562116e+000	 1.059680510916096e+001
 2.226935613555856e+000	 2.845524734033849e+000	 1.056823221024385e+001
 2.195495422768095e+000	 2.869852380028318e+000	 1.053820245244994e+001
 2.163812695612522e+000	 2.893815325246190e+000	 1.050630216092519e+001
 2.131893750035085e+000	 2.917410041823753e+000	 1.047204630079238e+001
 2.099744969895266e+000	 2.940633146925679e+000	 1.043488855247416e+001
 2.427926856834841e+000	 2.711984491707391e+000	 1.071802518436481e+001
 2.397850006791323e+000	 2.738613446595554e+000	 1.069549367689376e+001
 2.367492264745944e+000	 2.764899301053342e+000	 1.067104051718568e+001
 2.336859512065201e+000	 2.790837663086917e+000	 1.064505764683448e+001
 2.305957720461509e+000	 2.816424275124138e+000	 1.061781651344047e+001
 2.274792948153638e+000	 2.841655016296031e+000	 1.058947629626652e+001
 2.243371335959520e+000	 2.866525904586940e+000	 1.056009270377179e+001
 2.211699103326681e+000	 2.891033098851052e+000	 1.052962724834894e+001
 2.179782544305583e+000	 2.915172900693315e+000	 1.049795690108390e+001
 2.147628023471283e+000	 2.938941756212908e+000	 1.046488402771450e+001
 2.115241971798842e+000	 2.962336257607765e+000	 1.043014650618416e+001
 2.445714697483802e+000	 2.731853437862469e+000	 1.071339524744345e+001
 2.415417493925476e+000	 2.758677485780278e+000	 1.069204012697290e+001
 2.384837340452332e+000	 2.785155919594005e+000	 1.066767945471939e+001
 2.353980161519820e+000	 2.811284315132540e+000	 1.064100128158014e+001
 2.322851972591212e+000	 2.837058383631288e+000	 1.061256967228694e+001
 2.291458876269918e+000	 2.862473974030362e+000	 1.058283292275998e+001
 2.259807058363652e+000	 2.887527075140474e+000	 1.055213237604938e+001
 2.227902783885794e+000	 2.912213817674249e+000	 1.052071173834389e+001
 2.195752392999227e+000	 2.936530476140903e+000	 1.048872679388695e+001
 2.163362296908118e+000	 2.960473470602511e+000	 1.045625541589895e+001
 2.130738973703105e+000	 2.984039368290266e+000	 1.042330776976784e+001
 1.975768954673289e+000	 2.767008261473968e+000	 1.040144237604535e+001
 1.945308146846862e+000	 2.788507479894426e+000	 1.034021612931124e+001
 1.914643255096348e+000	 2.809651071830004e+000	 1.028155776874502e+001
 1.883780445162079e+000	 2.830436266468553e+000	 1.022554344014063e+001
 1.852725929198409e+000	 2.850860434090399e+000	 1.017201260041754e+001
 1.821485961785593e+000	 2.870921086910894e+000	 1.012060829418633e+001
 1.790066835929240e+000	 2.890615879789326e+000	 1.007081648592269e+001
 1.758474879052460e+000	 2.909942610804365e+000	 1.002200414089399e+001
 1.726716448985847e+000	 2.928899221696398e+000	 9.973455768704206e+000
 1.694797929960344e+000	 2.947483798177338e+000	 9.924408165933448e+000
 1.662725728608005e+000	 2.965694570108715e+000	 9.874083118608912e+000
 1.991265956576792e+000	 2.788711372155724e+000	 1.040610996246620e+001
 1.960566228508145e+000	 2.810379220328354e+000	 1.033861570471048e+001
 1.929660815777188e+000	 2.831688652649307e+000	 1.027591809909306e+001
 1.898555932485416e+000	 2.852636876573476e+000	 1.021773260589414e+001
 1.867257839512399e+000	 2.873221241754905e+000	 1.016353167537045e+001
 1.835772840496374e+000	 2.893439240895928e+000	 1.011258782781270e+001
 1.804107277802321e+000	 2.913288510461652e+000	 1.006401569545252e+001
 1.772267528482681e+000	 2.932766831259905e+000	 1.001681270245313e+001
 1.740260000235878e+000	 2.951872128887057e+000	 9.969898081143615e+000
 1.708091127367755e+000	 2.970602474040235e+000	 9.922149946568103e+000
 1.675767366760974e+000	 2.988956082696838e+000	 9.872440177062563e+000
 2.006762958479779e+000	 2.810414482837230e+000	 1.041592472959277e+001
 1.975824310168927e+000	 2.832250960762047e+000	 1.034237101071409e+001
 1.944678376457553e+000	 2.853726233468411e+000	 1.027508713077935e+001
 1.913331419808316e+000	 2.874837486678262e+000	 1.021419454942312e+001
 1.881789749825994e+000	 2.895582049419351e+000	 1.015881878757669e+001
 1.850059719206805e+000	 2.915957394880990e+000	 1.010788214171295e+001
 1.818147719675098e+000	 2.935961141134096e+000	 1.006014850103567e+001
 1.786060177912640e+000	 2.955591051715656e+000	 1.001426668686245e+001
 1.753803551485679e+000	 2.974845036078005e+000	 9.968811996106116e+000
 1.721384324774959e+000	 2.993721149903496e+000	 9.922325656022570e+000
 1.688809004913743e+000	 3.012217595285378e+000	 9.873351924472736e+000
 2.022259960382399e+000	 2.832117593518569e+000	 1.042480491849209e+001
 1.991082391829358e+000	 2.854122701195576e+000	 1.035115953816855e+001
 1.959695937137597e+000	 2.875763814287376e+000	 1.027872193882136e+001
 1.928106907130930e+000	 2.897038096782952e+000	 1.021456708807232e+001
 1.896321660139343e+000	 2.917942857083756e+000	 1.015749269543818e+001
 1.864346597917032e+000	 2.938475548866074e+000	 1.010609019522982e+001
 1.832188161547714e+000	 2.958633771806631e+000	 1.005879240901043e+001
 1.799852827342474e+000	 2.978415272171569e+000	 1.001391960892569e+001
 1.767347102735386e+000	 2.997817943269185e+000	 9.969723646984212e+000
 1.734677522182089e+000	 3.016839825767045e+000	 9.924429842037043e+000
 1.701850643066445e+000	 3.035479107874254e+000	 9.876276344779605e+000
 2.037756962284804e+000	 2.853820704199826e+000	 1.043142328637563e+001
 2.006340473489595e+000	 2.875994441629014e+000	 1.036404266689726e+001
 1.974713497817474e+000	 2.897801395106263e+000	 1.028651356724313e+001
 1.942882394453412e+000	 2.919238706887588e+000	 1.021852459396455e+001
 1.910853570452600e+000	 2.940303664748141e+000	 1.015921122906485e+001
 1.878633476627206e+000	 2.960993702851183e+000	 1.010685246326547e+001
 1.846228603420313e+000	 2.981306402479240e+000	 1.005956880841943e+001
 1.813645476772324e+000	 3.001239492627601e+000	 1.001537115365031e+001
 1.780890653985136e+000	 3.020790850460533e+000	 9.972207543055315e+000
 1.747970719589279e+000	 3.039958501630808e+000	 9.928007550764297e+000
 1.714892281219213e+000	 3.058740620463381e+000	 9.880723959277438e+000
 2.053253964187143e+000	 2.875523814881082e+000	 1.043573888322158e+001
 2.021598555149789e+000	 2.897866182062439e+000	 1.037525921264493e+001
 1.989731058497339e+000	 2.919838975925133e+000	 1.029818319880165e+001
 1.957657881775916e+000	 2.941439316992211e+000	 1.022577433105463e+001
 1.925385480765913e+000	 2.962664472412528e+000	 1.016366779643659e+001
 1.892920355337473e+000	 2.983511856836313e+000	 1.010984761235556e+001
 1.860269045293039e+000	 3.003979033151893e+000	 1.006213981683154e+001
 1.827438126202331e+000	 3.024063713083709e+000	 1.001826419069679e+001
 1.794434205235066e+000	 3.043763757651987e+000	 9.975883750493271e+000
 1.761263916996664e+000	 3.063077177494705e+000	 9.932651671347394e+000
 1.727933919372180e+000	 3.082002133052676e+000	 9.886255330847092e+000
 2.068750966089566e+000	 2.897226925562421e+000	 1.043773987549755e+001
 2.036856636810096e+000	 2.919737922495927e+000	 1.038349811880427e+001
 2.004748619177347e+000	 2.941876556744046e+000	 1.031312237592643e+001
 1.972433369098596e+000	 2.963639927096867e+000	 1.023605277968836e+001
 1.939917391079437e+000	 2.985025280076940e+000	 1.017058787631171e+001
 1.907207234047982e+000	 3.006030010821463e+000	 1.011478916270015e+001
 1.874309487166035e+000	 3.026651663824572e+000	 1.006620511132840e+001
 1.841230775632635e+000	 3.046887933539848e+000	 1.002228177322330e+001
 1.807977756485311e+000	 3.066736664843483e+000	 9.980415057056485e+000
 1.774557114404378e+000	 3.086195853358668e+000	 9.938000263532425e+000
 1.740975557525482e+000	 3.105263645642056e+000	 9.892478550686851e+000
 2.084247967992224e+000	 2.918930036243927e+000	 1.043744225739630e+001
 2.052114718470668e+000	 2.941609662929547e+000	 1.038876969675870e+001
 2.019766179857653e+000	 2.963914137563062e+000	 1.032607113061298e+001
 1.987208856421604e+000	 2.985840537201594e+000	 1.024912194931671e+001
 1.954449301393320e+000	 3.007386087741394e+000	 1.017972549857142e+001
 1.921494112758879e+000	 3.028548164806635e+000	 1.012142213688269e+001
 1.888349929039446e+000	 3.049324294497249e+000	 1.007149874542747e+001
 1.855023425063373e+000	 3.069712153995974e+000	 1.002714412193831e+001
 1.821521307736009e+000	 3.089709572034964e+000	 9.985504121302645e+000
 1.787850311812554e+000	 3.109314529222617e+000	 9.943733869200399e+000
 1.754017195679249e+000	 3.128525158231438e+000	 9.899046708452177e+000
 2.099744969895266e+000	 2.940633146925679e+000	 1.043488855247416e+001
 2.067372800131659e+000	 2.963481403363379e+000	 1.039111137308039e+001
 2.034783740538409e+000	 2.985951718382242e+000	 1.033537981799537e+001
 2.001984343745095e+000	 3.008041147306437e+000	 1.026470515456774e+001
 1.968981211707714e+000	 3.029746895405916e+000	 1.019085971264988e+001
 1.935780991470312e+000	 3.051066318791825e+000	 1.012951969596533e+001
 1.902390370913415e+000	 3.071996925169904e+000	 1.007778595266858e+001
 1.868816074494688e+000	 3.092536374452044e+000	 1.003260559512482e+001
 1.835064858987296e+000	 3.112682479226365e+000	 9.990890607129554e+000
 1.801143509221328e+000	 3.132433205086475e+000	 9.949572808648131e+000
 1.767058833833616e+000	 3.151786670820736e+000	 9.905655346662053e+000
 2.115241971798842e+000	 2.962336257607765e+000	 1.043014650618416e+001
 2.082630881793222e+000	 2.985353143797493e+000	 1.039058642652362e+001
 2.049801301219773e+000	 3.007989299201646e+000	 1.034110815194489e+001
 2.016759831069223e+000	 3.030241757411437e+000	 1.027852445798642e+001
 1.983513122022770e+000	 3.052107703070523e+000	 1.020379104466046e+001
 1.950067870182429e+000	 3.073584472777031e+000	 1.013887976360702e+001
 1.916430812788086e+000	 3.094669555842513e+000	 1.008485993754767e+001
 1.882608723926719e+000	 3.115360594908013e+000	 1.003845164535609e+001
 1.848608410239309e+000	 3.135655386417623e+000	 9.996348304394138e+000
 1.814436706630833e+000	 3.155551880950169e+000	 9.955274462400986e+000
 1.780100471988717e+000	 3.175048183409870e+000	 9.912039900178455e+000
 2.130738973703105e+000	 2.984039368290266e+000	 1.042330776976784e+001
 2.097888963455511e+000	 3.007224884231965e+000	 1.038728271596935e+001
 2.064818861901898e+000	 3.030026880021336e+000	 1.034334105508473e+001
 2.031535318394141e+000	 3.052442367516636e+000	 1.028811523711623e+001
 1.998045032338640e+000	 3.074468510735241e+000	 1.021833794379392e+001
 1.964354748895379e+000	 3.096102626762256e+000	 1.014932163881497e+001
 1.930471254663603e+000	 3.117342186515054e+000	 1.009253865444187e+001
 1.896401373359606e+000	 3.138184815363838e+000	 1.004449576358007e+001
 1.862151961492184e+000	 3.158628293608679e+000	 1.000168223631883e+001
 1.827729904041205e+000	 3.178670556813624e+000	 9.960630539293488e+000
 1.793142110144684e+000	 3.198309695998757e+000	 9.917973121518969e+000
 1.662725728608005e+000	 2.965694570108715e+000	 9.874083118608912e+000
 1.630511113674446e+000	 2.983527265011494e+000	 9.827049510676103e+000
 1.598155724011803e+000	 3.000983163283563e+000	 9.786459579340313e+000
 1.565666008429836e+000	 3.018060930005414e+000	 9.749500826234440e+000
 1.533048422245595e+000	 3.034759373751101e+000	 9.713462089241732e+000
 1.500309423398188e+000	 3.051077446124149e+000	 9.675757138671639e+000
 1.467455468599930e+000	 3.067014241170959e+000	 9.633945292866709e+000
 1.434493009528169e+000	 3.082568994673866e+000	 9.585749001873996e+000
 1.401428489062056e+000	 3.097741083326226e+000	 9.529068376245396e+000
 1.368268337568320e+000	 3.112530023792000e+000	 9.461992665828094e+000
 1.335018969240017e+000	 3.126935471652506e+000	 9.382808720348974e+000
 1.675767366760974e+000	 2.988956082696838e+000	 9.872440177062565e+000
 1.643300075547886e+000	 3.006928648866512e+000	 9.825053266522771e+000
 1.610690905435004e+000	 3.024521462989988e+000	 9.783350536157817e+000
 1.577946355813512e+000	 3.041733179677284e+000	 9.744920650875663e+000
 1.545072932632920e+000	 3.058562598157479e+000	 9.707458029334063e+000
 1.512077144485368e+000	 3.075008661810973e+000	 9.668786616248966e+000
 1.478965498726573e+000	 3.091070457578299e+000	 9.626880510111208e+000
 1.445744497637801e+000	 3.106747215247636e+000	 9.579881394460889e+000
 1.412420634633105e+000	 3.122038306623423e+000	 9.526112750745638e+000
 1.379000390515981e+000	 3.136943244578564e+000	 9.464090859998390e+000
 1.345490229789387e+000	 3.151461681992926e+000	 9.392532628874001e+000
 1.688809004913743e+000	 3.012217595285378e+000	 9.873351924472738e+000
 1.656089037421116e+000	 3.030330032721981e+000	 9.825863874703583e+000
 1.623226086857971e+000	 3.048059762696877e+000	 9.783359425707873e+000
 1.590226703196920e+000	 3.065405429349620e+000	 9.743783800977981e+000
 1.557097443019938e+000	 3.082365822564309e+000	 9.705193809235695e+000
 1.523844865572194e+000	 3.098939877498229e+000	 9.665781895792481e+000
 1.490475528852819e+000	 3.115126673986047e+000	 9.623896874404213e+000
 1.456995985746994e+000	 3.130925435821791e+000	 9.578061287116650e+000
 1.423412780203684e+000	 3.146335529920983e+000	 9.526985370996542e+000
 1.389732443463149e+000	 3.161356465365480e+000	 9.469577641330263e+000
 1.355961490338257e+000	 3.175987892333698e+000	 9.404952130609095e+000
 1.701850643066445e+000	 3.035479107874254e+000	 9.876276344779605e+000
 1.668877999294270e+000	 3.053731416577814e+000	 9.828899415236823e+000
 1.635761268280842e+000	 3.071598062404152e+000	 9.785863814963633e+000
 1.602507050580201e+000	 3.089077679022346e+000	 9.745427663811892e+000
 1.569121953406790e+000	 3.106169046971532e+000	 9.705967948868258e+000
 1.535612586658818e+000	 3.122871093185871e+000	 9.666004958324145e+000
 1.501985558978823e+000	 3.139182890394173e+000	 9.624223209739284e+000
 1.468247473855910e+000	 3.155103656396314e+000	 9.579488819376635e+000
 1.434404925773956e+000	 3.170632753218907e+000	 9.530863292275006e+000
 1.400464496409991e+000	 3.185769686152757e+000	 9.477613744965796e+000
 1.366432750886794e+000	 3.200514102674838e+000	 9.419219603978629e+000
 1.714892281219213e+000	 3.058740620463381e+000	 9.880723959277438e+000
 1.681666961167484e+000	 3.077132800433932e+000	 9.833632389257227e+000
 1.648296449703754e+000	 3.095136362111732e+000	 9.790297318435007e+000
 1.614787397963496e+000	 3.112749928695398e+000	 9.749246997906182e+000
 1.581146463793626e+000	 3.129972271379086e+000	 9.709137316633180e+000
 1.547380307745388e+000	 3.146802308873854e+000	 9.668776721896339e+000
 1.513495589104740e+000	 3.163239106802647e+000	 9.627147436551081e+000
 1.479498961964707e+000	 3.179281876971192e+000	 9.583422918779776e+000
 1.445397071344083e+000	 3.194929976517194e+000	 9.536981544682307e+000
 1.411196549356671e+000	 3.210182906940406e+000	 9.487416527915613e+000
 1.376904011435165e+000	 3.225040313016363e+000	 9.434542123403165e+000
 1.727933919372180e+000	 3.082002133052676e+000	 9.886255330847092e+000
 1.694455923040891e+000	 3.100534184290246e+000	 9.839587380782607e+000
 1.660831631126843e+000	 3.118674661819535e+000	 9.796147418419514e+000
 1.627067745346946e+000	 3.136422178368697e+000	 9.754691913684646e+000
 1.593170974180589e+000	 3.153775495786915e+000	 9.714115273290572e+000
 1.559148028832057e+000	 3.170733524562135e+000	 9.673475352529870e+000
 1.525005619230725e+000	 3.187295323211441e+000	 9.632015054491379e+000
 1.490750450073546e+000	 3.203460097546412e+000	 9.589179961227334e+000
 1.456389216914231e+000	 3.219227199815839e+000	 9.544631977798161e+000
 1.421928602303357e+000	 3.234596127728437e+000	 9.498259005690864e+000
 1.387375271983537e+000	 3.249566523358289e+000	 9.450180696563812e+000
 1.740975557525482e+000	 3.105263645642056e+000	 9.892478550686851e+000
 1.707244884914625e+000	 3.123935568146672e+000	 9.846338700449968e+000
 1.673366812550247e+000	 3.142212961527484e+000	 9.802953266552064e+000
 1.639348092730692e+000	 3.160094428042173e+000	 9.761265834533649e+000
 1.605195484567825e+000	 3.177578720194960e+000	 9.720369795149537e+000
 1.570915749918973e+000	 3.194664740250668e+000	 9.679534553036135e+000
 1.536515649356933e+000	 3.211351539620524e+000	 9.638227601301830e+000
 1.502001938182587e+000	 3.227638318121956e+000	 9.596132405237681e+000
 1.467381362484561e+000	 3.243524423114845e+000	 9.553162076564297e+000
 1.432660655250214e+000	 3.259009348516858e+000	 9.509468856980430e+000
 1.397846532532076e+000	 3.274092733700632e+000	 9.465449465957573e+000
 1.754017195679249e+000	 3.128525158231438e+000	 9.899046708452179e+000
 1.720033846788822e+000	 3.147336952003127e+000	 9.853508012159521e+000
 1.685901993974103e+000	 3.165751261235494e+000	 9.810303467627142e+000
 1.651628440114874e+000	 3.183766677715757e+000	 9.768523439319095e+000
 1.617219994955478e+000	 3.201381944603160e+000	 9.727421577645576e+000
 1.582683471006289e+000	 3.218595955939409e+000	 9.686441830874305e+000
 1.548025679483521e+000	 3.235407756029868e+000	 9.645241089027879e+000
 1.513253426291988e+000	 3.251816538697813e+000	 9.603707401455811e+000
 1.478373508055239e+000	 3.267821646414212e+000	 9.561973749894760e+000
 1.443392708197408e+000	 3.283422569305681e+000	 9.520427398036071e+000
 1.408317793080948e+000	 3.298618944043411e+000	 9.479714876602873e+000
 1.767058833833616e+000	 3.151786670820736e+000	 9.905655346662051e+000
 1.732822808663616e+000	 3.170738335859523e+000	 9.860761943509598e+000
 1.698437175398548e+000	 3.189289560943490e+000	 9.817833846608403e+000
 1.663908787499634e+000	 3.207438927389378e+000	 9.776068587311212e+000
 1.629244505343696e+000	 3.225185169011458e+000	 9.734842120319128e+000
 1.594451192094152e+000	 3.242527171628312e+000	 9.693736746126952e+000
 1.559535709610643e+000	 3.259463972439442e+000	 9.652564418744213e+000
 1.524504914401911e+000	 3.275994759273966e+000	 9.611385378696401e+000
 1.489365653626425e+000	 3.292118869713935e+000	 9.570522093422140e+000
 1.454124761145104e+000	 3.307835790094913e+000	 9.530568528330417e+000
 1.418789053630321e+000	 3.323145154386643e+000	 9.492394811643738e+000
 1.780100471988717e+000	 3.175048183409870e+000	 9.912039900178455e+000
 1.745611770539141e+000	 3.194139719715779e+000	 9.867809680853862e+000
 1.710972356823719e+000	 3.212827860651388e+000	 9.825225199689117e+000
 1.676189134885112e+000	 3.231111177062963e+000	 9.783552226419293e+000
 1.641269015732624e+000	 3.248988393419792e+000	 9.742251794148668e+000
 1.606218913182716e+000	 3.266458387317334e+000	 9.701009140613182e+000
 1.571045739738455e+000	 3.283520188849218e+000	 9.659757774894079e+000
 1.535756402512514e+000	 3.300172979850403e+000	 9.618698607723252e+000
 1.500357799198286e+000	 3.316416093014017e+000	 9.578314127706129e+000
 1.464856814093469e+000	 3.332249010884568e+000	 9.539377648961237e+000
 1.429260314180360e+000	 3.347671364730342e+000	 9.503401881178368e+000
 1.793142110144684e+000	 3.198309695998757e+000	 9.917973121518969e+000
 1.758400732415532e+000	 3.217541103571808e+000	 9.874400549763360e+000
 1.723507538249754e+000	 3.236366160359109e+000	 9.832201030214350e+000
 1.688469482271451e+000	 3.254783426736442e+000	 9.790670285586039e+000
 1.653293526122406e+000	 3.272791617828106e+000	 9.749317892136572e+000
 1.617986634272130e+000	 3.290389603006430e+000	 9.707897349100124e+000
 1.582555769867112e+000	 3.307576405259167e+000	 9.666431000279841e+000
 1.547007890623957e+000	 3.324351200427108e+000	 9.625229743899226e+000
 1.511349944770983e+000	 3.340713316314455e+000	 9.585101617185179e+000
 1.475588867042669e+000	 3.356662231674654e+000	 9.548025159907768e+000
 1.439731574731233e+000	 3.372197575074528e+000	 9.514439660753444e+000
 1.335018969240017e+000	 3.126935471652506e+000	 9.382808720348974e+000
 1.301681772541034e+000	 3.140959295332738e+000	 9.299416242403128e+000
 1.268268104136253e+000	 3.154599236856098e+000	 9.225039756256139e+000
 1.234784312705468e+000	 3.167855363653740e+000	 9.158721585184555e+000
 1.201236716620890e+000	 3.180727876869459e+000	 9.099431627198465e+000
 1.167631600601917e+000	 3.193217109782673e+000	 9.046055894207475e+000
 1.133975212443531e+000	 3.205323526137257e+000	 8.997333212941136e+000
 1.100273759821121e+000	 3.217047718379722e+000	 8.951806693918389e+000
 1.066533407174408e+000	 3.228390405810319e+000	 8.907789601318324e+000
 1.032760272672935e+000	 3.239352432650741e+000	 8.863345136942224e+000
 9.989604252654352e-001	 3.249934766032135e+000	 8.816269851944135e+000
 1.345490229789387e+000	 3.151461681992926e+000	 9.392532628874001e+000
 1.311891551807665e+000	 3.165595501946556e+000	 9.306821455638362e+000
 1.278215802312036e+000	 3.179342428752352e+000	 9.228175644603642e+000
 1.244469379778353e+000	 3.192702530370364e+000	 9.158855074922354e+000
 1.210658652137173e+000	 3.205676009522064e+000	 9.097824514212597e+000
 1.176789953402282e+000	 3.218263202100959e+000	 9.043907141260734e+000
 1.142869580373430e+000	 3.230464575488313e+000	 8.995719943060067e+000
 1.108903789416096e+000	 3.242280726777507e+000	 8.951624849761465e+000
 1.074898793320969e+000	 3.253712380910649e+000	 8.909695211803165e+000
 1.040860758245642e+000	 3.264760388731104e+000	 8.867697097345280e+000
 1.006795800740831e+000	 3.275425724955747e+000	 8.823076234793414e+000
 1.355961490338257e+000	 3.175987892333698e+000	 9.404952130609097e+000
 1.322101331073807e+000	 3.190231708560741e+000	 9.321524634188330e+000
 1.288163500487353e+000	 3.204085620648993e+000	 9.238866370619935e+000
 1.254154446850814e+000	 3.217549697087409e+000	 9.166828080575112e+000
 1.220080587653086e+000	 3.230624142175128e+000	 9.104405778711257e+000
 1.185948306202339e+000	 3.243309294419742e+000	 9.050388957368931e+000
 1.151763948303092e+000	 3.255605624839903e+000	 9.003294622117046e+000
 1.117533819010909e+000	 3.267513735175860e+000	 8.961318087317567e+000
 1.083264179467451e+000	 3.279034356011568e+000	 8.922300106001414e+000
 1.048961243818355e+000	 3.290168344812070e+000	 8.883709775443538e+000
 1.014631176216317e+000	 3.300916683879955e+000	 8.842642536735896e+000
 1.366432750886794e+000	 3.200514102674838e+000	 9.419219603978629e+000
 1.332311110339624e+000	 3.214867915175308e+000	 9.342122317416445e+000
 1.298111198662370e+000	 3.228828812546042e+000	 9.255737118632524e+000
 1.263839513923010e+000	 3.242396863804885e+000	 9.181308052972215e+000
 1.229502523168778e+000	 3.255572274828654e+000	 9.117898747582563e+000
 1.195106659002230e+000	 3.268355386739017e+000	 9.064293859594775e+000
 1.160658316232648e+000	 3.280746674192009e+000	 9.018931692096485e+000
 1.126163848605685e+000	 3.292746743574747e+000	 8.979854646208368e+000
 1.091629565613964e+000	 3.304356331113032e+000	 8.944677052148537e+000
 1.057061729391169e+000	 3.315576300893580e+000	 8.910569782204789e+000
 1.022466551691976e+000	 3.326407642804696e+000	 8.874260918907053e+000
 1.376904011435165e+000	 3.225040313016363e+000	 9.434542123403167e+000
 1.342520889605282e+000	 3.239504121790274e+000	 9.365572859454522e+000
 1.308058896837248e+000	 3.253572004443512e+000	 9.277425721617433e+000
 1.273524580995097e+000	 3.267244030522805e+000	 9.200949369764389e+000
 1.238924458684401e+000	 3.280520407482642e+000	 9.136989867134876e+000
 1.204265011802098e+000	 3.293401479058773e+000	 9.084355666774115e+000
 1.169552684162233e+000	 3.305887723544611e+000	 9.041427134954272e+000
 1.134793878200544e+000	 3.317979751974136e+000	 9.006106656889591e+000
 1.099994951760619e+000	 3.329678306214997e+000	 8.975787220389080e+000
 1.065162214964182e+000	 3.340984256975578e+000	 8.946728510707930e+000
 1.030301927167889e+000	 3.351898601729900e+000	 8.913232926006556e+000
 1.387375271983537e+000	 3.249566523358289e+000	 9.450180696563814e+000
 1.352730668870948e+000	 3.264140328405665e+000	 9.388482859992108e+000
 1.318006595012151e+000	 3.278315196341421e+000	 9.302598131497401e+000
 1.283209648067233e+000	 3.292091197241182e+000	 9.224407986890915e+000
 1.248346394200107e+000	 3.305468540137102e+000	 9.160342542110664e+000
 1.213423364602087e+000	 3.318447571379005e+000	 9.109262532591698e+000
 1.178447052091981e+000	 3.331028772897690e+000	 9.069510706325309e+000
 1.143423907795610e+000	 3.343212760373997e+000	 9.038101685408426e+000
 1.108360337907524e+000	 3.355000281317418e+000	 9.010247720250014e+000
 1.073262700537491e+000	 3.366392213058008e+000	 8.981856886865511e+000
 1.038137302644139e+000	 3.377389560655498e+000	 8.948702976148411e+000
 1.397846532532076e+000	 3.274092733700632e+000	 9.465449465957573e+000
 1.362940448136786e+000	 3.288776535021494e+000	 9.410128699679397e+000
 1.327954293187240e+000	 3.303058388239788e+000	 9.329963846976687e+000
 1.292894715139578e+000	 3.316938363960028e+000	 9.250356045287651e+000
 1.257768329716046e+000	 3.330416672792032e+000	 9.186610928425639e+000
 1.222581717402338e+000	 3.343493663699706e+000	 9.137192257361607e+000
 1.187341420022024e+000	 3.356169822251225e+000	 9.098700340139798e+000
 1.152053937391005e+000	 3.368445768774295e+000	 9.067643077736349e+000
 1.116725724054791e+000	 3.380322256420249e+000	 9.040195943284532e+000
 1.081363186111191e+000	 3.391800169140812e+000	 9.012277874725584e+000
 1.045972678120807e+000	 3.402880519581427e+000	 8.979646528507677e+000
 1.408317793080948e+000	 3.298618944043411e+000	 9.479714876602873e+000
 1.373150227402962e+000	 3.313412741637784e+000	 9.429857663373930e+000
 1.337901991362677e+000	 3.327801580138630e+000	 9.357918932440185e+000
 1.302579782212286e+000	 3.341785530679351e+000	 9.277390193466948e+000
 1.267190265232369e+000	 3.355364805447437e+000	 9.213075198868637e+000
 1.231740070202997e+000	 3.368539756020867e+000	 9.162922695516693e+000
 1.196235787952496e+000	 3.381310871605198e+000	 9.123932479989103e+000
 1.160683966986851e+000	 3.393678777175001e+000	 9.092638643658582e+000
 1.125091110202530e+000	 3.405644231523448e+000	 9.065220339769944e+000
 1.089463671685380e+000	 3.417208125223935e+000	 9.037605164715263e+000
 1.053808053597977e+000	 3.428371478507618e+000	 9.005565227135994e+000
 1.418789053630321e+000	 3.323145154386643e+000	 9.492394811643738e+000
 1.383360006669641e+000	 3.338048948254552e+000	 9.447091350425545e+000
 1.347849689538625e+000	 3.352544772037962e+000	 9.382892907726346e+000
 1.312264849285517e+000	 3.366632697399167e+000	 9.303283731164557e+000
 1.276612200749228e+000	 3.380312938103318e+000	 9.237019773477686e+000
 1.240898423004204e+000	 3.393585848342482e+000	 9.185254440875108e+000
 1.205130155883532e+000	 3.406451920959592e+000	 9.145014789805050e+000
 1.169313996583270e+000	 3.418911785576081e+000	 9.112864828590515e+000
 1.133456496350850e+000	 3.430966206626969e+000	 9.085017724699375e+000
 1.097564157260153e+000	 3.442616081307317e+000	 9.057440253856887e+000
 1.061643429075730e+000	 3.453862437434002e+000	 9.025949583338999e+000
 1.429260314180360e+000	 3.347671364730342e+000	 9.503401881178368e+000
 1.393569785936990e+000	 3.362685154871817e+000	 9.462327135340621e+000
 1.357797387715248e+000	 3.377287963937803e+000	 9.404307343113169e+000
 1.321949916359428e+000	 3.391479864119481e+000	 9.327482199654332e+000
 1.286034136266774e+000	 3.405261070759681e+000	 9.258326609683969e+000
 1.250056775806104e+000	 3.418631940664543e+000	 9.204062836280695e+000
 1.214024523815262e+000	 3.431592970314385e+000	 9.161774547357400e+000
 1.177944026180386e+000	 3.444144793977504e+000	 9.128085481319918e+000
 1.141821882499862e+000	 3.456288181730766e+000	 9.099273014975829e+000
 1.105664642835609e+000	 3.468024037390906e+000	 9.071373587301840e+000
 1.069478804554146e+000	 3.479353396360511e+000	 9.040280091253523e+000
 1.439731574731233e+000	 3.372197575074528e+000	 9.514439660753444e+000
 1.403779565205173e+000	 3.387321361489601e+000	 9.476178526144659e+000
 1.367745085892707e+000	 3.402031155838170e+000	 9.422517521411084e+000
 1.331634983434178e+000	 3.416327030840312e+000	 9.349898100544616e+000
 1.295456071785157e+000	 3.430209203416529e+000	 9.276890637259848e+000
 1.259215128608840e+000	 3.443678032987045e+000	 9.219210454444038e+000
 1.222918891747823e+000	 3.456734019669561e+000	 9.174026860901513e+000
 1.186574055778320e+000	 3.469377802379238e+000	 9.138052927742708e+000
 1.150187268649676e+000	 3.481610156834798e+000	 9.107660333832930e+000
 1.113765128411843e+000	 3.493431993474643e+000	 9.078985666935855e+000
 1.077314180033310e+000	 3.504844355287081e+000	 9.048028313759682e+000
 9.989604252654352e-001	 3.249934766032135e+000	 8.816269851944135e+000
 9.651398813324286e-001	 3.260138493095665e+000	 8.766848304758540e+000
 9.313046005101890e-001	 3.269964816403907e+000	 8.717663398850759e+000
 8.974604845374918e-001	 3.279415054160485e+000	 8.669654545692186e+000
 8.636133751544897e-001	 3.288490638736054e+000	 8.623582144239734e+000
 8.297690515990591e-001	 3.297193114320970e+000	 8.580069901934612e+000
 7.959332281968499e-001	 3.305524134521356e+000	 8.539655249747689e+000
 7.621115520460927e-001	 3.313485459902493e+000	 8.502846770276108e+000
 7.283096007980531e-001	 3.321078955483442e+000	 8.470187530444257e+000
 6.945328805338571e-001	 3.328306588186819e+000	 8.442323193498014e+000
 6.607868237382243e-001	 3.335170424247628e+000	 8.420742897953424e+000
 1.006795800740831e+000	 3.275425724955747e+000	 8.823076234793414e+000
 9.727099843767157e-001	 3.285709485252757e+000	 8.776106886194675e+000
 9.386093155341527e-001	 3.295612881617041e+000	 8.729637925605235e+000
 9.044997422423738e-001	 3.305137242591581e+000	 8.684587861408314e+000
 8.703871520613904e-001	 3.314284011781864e+000	 8.641646663925362e+000
 8.362773695586973e-001	 3.323054745490132e+000	 8.601323389245740e+000
 8.021761538804225e-001	 3.331451110292612e+000	 8.564002454639274e+000
 7.680891964179751e-001	 3.339474880563621e+000	 8.529766762936639e+000
 7.340221185710891e-001	 3.347127935950536e+000	 8.498981688801520e+000
 6.999804696079962e-001	 3.354412258803585e+000	 8.473285846631598e+000
 6.659697246232671e-001	 3.361329931564333e+000	 8.454728567483221e+000
 1.014631176216317e+000	 3.300916683879955e+000	 8.842642536735896e+000
 9.802800874211786e-001	 3.311280477410428e+000	 8.799261077121772e+000
 9.459140305583736e-001	 3.321260946830719e+000	 8.756543716140170e+000
 9.115389999475941e-001	 3.330859431023176e+000	 8.715245048007132e+000
 8.771609289687057e-001	 3.340077384828113e+000	 8.675322750543614e+000
 8.427856875188232e-001	 3.348916376659676e+000	 8.636070326275222e+000
 8.084190795645522e-001	 3.357378086064188e+000	 8.598451177585112e+000
 7.740668407904775e-001	 3.365464301225003e+000	 8.563746863535119e+000
 7.397346363448019e-001	 3.373176916417826e+000	 8.533529878906846e+000
 7.054280586828629e-001	 3.380517929420490e+000	 8.509703489145284e+000
 6.711526255090805e-001	 3.387489438881134e+000	 8.494537778054628e+000
 1.022466551691976e+000	 3.326407642804696e+000	 8.874260918907053e+000
 9.878501904658823e-001	 3.336851469568601e+000	 8.835598890180812e+000
 9.532187455829029e-001	 3.346909012044858e+000	 8.795709080970221e+000
 9.185782576531852e-001	 3.356581619455178e+000	 8.754820761416221e+000
 8.839347058764531e-001	 3.365870757874714e+000	 8.713796753675668e+000
 8.492940054794380e-001	 3.374778007829509e+000	 8.673645507522064e+000
 8.146620052492227e-001	 3.383305061835990e+000	 8.635573288961579e+000
 7.800444851635688e-001	 3.391453721886552e+000	 8.601031677101618e+000
 7.454471541191473e-001	 3.399225896885227e+000	 8.571760632893046e+000
 7.108756477583998e-001	 3.406623600037462e+000	 8.549827415962444e+000
 6.763355263955969e-001	 3.413648946197964e+000	 8.537661634680774e+000
 1.030301927167889e+000	 3.351898601729900e+000	 8.913232926006556e+000
 9.954202935108945e-001	 3.362422461727201e+000	 8.874819734975787e+000
 9.605234606077903e-001	 3.372557077259375e+000	 8.834551784898396e+000
 9.256175153591821e-001	 3.382303807887502e+000	 8.793296366846214e+000
 8.907084827846497e-001	 3.391664130921577e+000	 8.752015835223759e+000
 8.558023234405420e-001	 3.400639638999539e+000	 8.711818598407026e+000
 8.209049309344191e-001	 3.409232037607926e+000	 8.674010767339315e+000
 7.860221295372192e-001	 3.417443142548177e+000	 8.640142959873638e+000
 7.511596718940810e-001	 3.425274877352658e+000	 8.612052547032109e+000
 7.163232368345507e-001	 3.432729270654426e+000	 8.591901639943341e+000
 6.815184272827486e-001	 3.439808453514760e+000	 8.582211124955920e+000
 1.038137302644139e+000	 3.377389560655498e+000	 8.948702976148411e+000
 1.002990396556281e+000	 3.387993453886149e+000	 8.910538011624407e+000
 9.678281756330861e-001	 3.398205142474185e+000	 8.870578137779196e+000
 9.326567730656176e-001	 3.408025996320059e+000	 8.829717956386372e+000
 8.974822596933115e-001	 3.417457503968606e+000	 8.788948136450152e+000
 8.623106414021357e-001	 3.426501270169676e+000	 8.749406780343771e+000
 8.271478566201258e-001	 3.435159013379910e+000	 8.712430535628759e+000
 7.919997739113981e-001	 3.443432563209798e+000	 8.679600701492943e+000
 7.568721896695579e-001	 3.451323857820037e+000	 8.652784639559908e+000
 7.217708259112582e-001	 3.458834941271304e+000	 8.634172811411663e+000
 6.867013281704680e-001	 3.465967960831457e+000	 8.626311773700119e+000
 1.045972678120807e+000	 3.402880519581427e+000	 8.979646528507677e+000
 1.010560499602108e+000	 3.413564446045371e+000	 8.942147973417155e+000
 9.751328906588406e-001	 3.423853207689207e+000	 8.903039340700888e+000
 9.396960307725256e-001	 3.433748184752760e+000	 8.863193803720147e+000
 9.042560366024565e-001	 3.443250877015715e+000	 8.823554636687469e+000
 8.688189593642189e-001	 3.452362901339825e+000	 8.785221925769736e+000
 8.333907823063274e-001	 3.461085989151849e+000	 8.749496130939617e+000
 7.979774182860748e-001	 3.469421983871322e+000	 8.717923481360533e+000
 7.625847074455351e-001	 3.477372838287284e+000	 8.692336529941194e+000
 7.272184149884663e-001	 3.484940611888026e+000	 8.674890214057195e+000
 6.918842290586873e-001	 3.492127468147986e+000	 8.668093777759774e+000
 1.053808053597977e+000	 3.428371478507618e+000	 9.005565227135994e+000
 1.018130602648443e+000	 3.439135438204790e+000	 8.969011022471182e+000
 9.824376056851037e-001	 3.449501272904357e+000	 8.931177053672252e+000
 9.467352884799394e-001	 3.459470373185520e+000	 8.892824191364589e+000
 9.110298135121008e-001	 3.469044250062812e+000	 8.854789966491392e+000
 8.753272773267932e-001	 3.478224532509899e+000	 8.818071274613182e+000
 8.396337079930086e-001	 3.487012964923652e+000	 8.783868231045158e+000
 8.039550626612187e-001	 3.495411404532665e+000	 8.753628834144850e+000
 7.682972252219670e-001	 3.503421818754314e+000	 8.729088634834696e+000
 7.326660040661166e-001	 3.511046282504512e+000	 8.712305785136287e+000
 6.970671299473389e-001	 3.518286975464283e+000	 8.705691846586358e+000
 1.061643429075730e+000	 3.453862437434002e+000	 9.025949583338999e+000
 1.025700705695351e+000	 3.464706430364328e+000	 8.990501482654166e+000
 9.897423207119259e-001	 3.475149338119550e+000	 8.954224409372960e+000
 9.537745461878929e-001	 3.485192561618248e+000	 8.917702327066731e+000
 9.178035904222616e-001	 3.494837623109806e+000	 8.881603209140474e+000
 8.818355952898580e-001	 3.504086163679801e+000	 8.846758105611036e+000
 8.458766336801538e-001	 3.512939940695230e+000	 8.814205182504114e+000
 8.099327070367999e-001	 3.521400825193738e+000	 8.785233623970461e+000
 7.740097429988093e-001	 3.529470799221044e+000	 8.761422379894496e+000
 7.381135931441535e-001	 3.537151953120691e+000	 8.744674158715252e+000
 7.022500308363554e-001	 3.544446482780284e+000	 8.737245073031495e+000
 1.069478804554146e+000	 3.479353396360511e+000	 9.040280091253523e+000
 1.033270808742900e+000	 3.490277422523913e+000	 9.005976902878448e+000
 9.970470357393574e-001	 3.500797403334707e+000	 8.971407004687858e+000
 9.608138038964192e-001	 3.510914750050856e+000	 8.936915243340936e+000
 9.245773673329560e-001	 3.520630996156605e+000	 8.902938691080605e+000
 8.883439132534143e-001	 3.529947794849443e+000	 8.870082402742934e+000
 8.521195593677479e-001	 3.538866916466493e+000	 8.839163530355298e+000
 8.159103514127873e-001	 3.547390245854455e+000	 8.811254426842814e+000
 7.797222607760179e-001	 3.555519779687395e+000	 8.787720426596755e+000
 7.435611822225196e-001	 3.563257623736487e+000	 8.770252730775177e+000
 7.074329317256694e-001	 3.570605990095922e+000	 8.760896832808472e+000
 1.077314180033310e+000	 3.504844355287081e+000	 9.048028313759682e+000
 1.040840911791156e+000	 3.515848414683465e+000	 9.014787048690192e+000
 1.004351750767449e+000	 3.526445468549742e+000	 8.981943871157396e+000
 9.678530616055532e-001	 3.536636938483259e+000	 8.949544681005143e+000
 9.313511442442004e-001	 3.546424369203119e+000	 8.917736761877311e+000
 8.948522312174626e-001	 3.555809426018735e+000	 8.886841517029378e+000
 8.583624850557751e-001	 3.564793892237349e+000	 8.857398549304476e+000
 8.218879957891512e-001	 3.573379666514729e+000	 8.830207920888965e+000
 7.854347785535484e-001	 3.581568760153285e+000	 8.806366913325860e+000
 7.490087713011586e-001	 3.589363294351826e+000	 8.787301745064749e+000
 7.126158326152123e-001	 3.596765497411133e+000	 8.774794711160915e+000
 6.607868237382243e-001	 3.335170424247628e+000	 8.420742897953424e+000
 6.270818393662591e-001	 3.341671678785408e+000	 8.400243966124776e+000
 5.934181341637264e-001	 3.347813666836248e+000	 8.364278088467732e+000
 5.598008987902472e-001	 3.353598738394850e+000	 8.316005024238423e+000
 5.262352434010413e-001	 3.359029331970649e+000	 8.257962012915588e+000
 4.927261961099982e-001	 3.364107971852334e+000	 8.192358430423351e+000
 4.592787015493515e-001	 3.368837265353978e+000	 8.121347928219098e+000
 4.258976195254683e-001	 3.373219900046345e+000	 8.047279734127338e+000
 3.925877237701084e-001	 3.377258640976893e+000	 7.972930784647847e+000
 3.593537007863771e-001	 3.380956327881860e+000	 7.901720333447911e+000
 3.262001487885013e-001	 3.384315872393811e+000	 7.837908641296139e+000
 6.659697246232671e-001	 3.361329931564333e+000	 8.454728567483221e+000
 6.320003742149505e-001	 3.367882178883140e+000	 8.433287879641876e+000
 5.980726267504355e-001	 3.374072341797701e+000	 8.398233575880989e+000
 5.641917136024434e-001	 3.379902788734986e+000	 8.352890257083239e+000
 5.303627850078557e-001	 3.385375977330978e+000	 8.299992922665730e+000
 4.965909085187302e-001	 3.390494451673717e+000	 8.241975928236384e+000
 4.628810675506775e-001	 3.395260839527842e+000	 8.181238882834894e+000
 4.292381600281079e-001	 3.399677849544182e+000	 8.120391296908592e+000
 3.956669971256946e-001	 3.403748268457943e+000	 8.062477778410939e+000
 3.621723021052770e-001	 3.407474958278943e+000	 8.011185544023350e+000
 3.287587092473185e-001	 3.410860853477239e+000	 7.971035966997688e+000
 6.711526255090805e-001	 3.387489438881134e+000	 8.494537778054628e+000
 6.369189090644476e-001	 3.394092678980937e+000	 8.472327157203598e+000
 6.027271193379755e-001	 3.400331016759193e+000	 8.438129015783535e+000
 5.685825284154836e-001	 3.406206839075148e+000	 8.395679149122566e+000
 5.344903266155143e-001	 3.411722622691323e+000	 8.347806609364044e+000
 5.004556209282910e-001	 3.416880931495114e+000	 8.297070846075643e+000
 4.664834335528003e-001	 3.421684413701723e+000	 8.246020728008375e+000
 4.325787005314929e-001	 3.426135799042036e+000	 8.197431897697170e+000
 3.987462704819556e-001	 3.430237895939014e+000	 8.154524390070392e+000
 3.649909034247584e-001	 3.433993588676045e+000	 8.121162410182359e+000
 3.313172697066006e-001	 3.437405834560681e+000	 8.102038113295540e+000
 6.763355263955969e-001	 3.413648946197964e+000	 8.537661634680772e+000
 6.418374439146737e-001	 3.420303179078740e+000	 8.515233988046116e+000
 6.073816119262631e-001	 3.426589691720682e+000	 8.481630184386759e+000
 5.729733432292812e-001	 3.432510889415307e+000	 8.441809191643451e+000
 5.386178682239284e-001	 3.438069268051671e+000	 8.398599113364471e+000
 5.043203333385939e-001	 3.443267411316521e+000	 8.354593466686090e+000
 4.700857995556381e-001	 3.448107987875623e+000	 8.312402650932018e+000
 4.359192410355516e-001	 3.452593748539921e+000	 8.274883324708410e+000
 4.018255438388309e-001	 3.456727523420122e+000	 8.245347762778897e+000
 3.678095047447776e-001	 3.460512219073185e+000	 8.227755221968559e+000
 3.338758301663242e-001	 3.463950815644158e+000	 8.226887286748907e+000
 6.815184272827486e-001	 3.439808453514760e+000	 8.582211124955920e+000
 6.467559787655529e-001	 3.446513679176500e+000	 8.559895509614455e+000
 6.120361045152155e-001	 3.452848366682128e+000	 8.526425117847746e+000
 5.773641580437486e-001	 3.458814939755431e+000	 8.488746884232901e+000
 5.427454098330107e-001	 3.464415913412002e+000	 8.449601794568078e+000
 5.081850457495537e-001	 3.469653891137935e+000	 8.411535398117982e+000
 4.736881655591105e-001	 3.474531562049550e+000	 8.377141000307702e+000
 4.392597815402107e-001	 3.479051698037851e+000	 8.349280333554280e+000
 4.049048171962606e-001	 3.483217150901287e+000	 8.331283924194365e+000
 3.706281060652907e-001	 3.487030849470385e+000	 8.327133325124272e+000
 3.364343906264664e-001	 3.490495796727684e+000	 8.341627318121299e+000
 6.867013281704680e-001	 3.465967960831457e+000	 8.626311773700119e+000
 6.516745136170079e-001	 3.472724179274157e+000	 8.604212633945469e+000
 6.166905971047496e-001	 3.479107041643489e+000	 8.570222907690404e+000
 5.817549728588000e-001	 3.485118990095495e+000	 8.533986430158159e+000
 5.468729514426727e-001	 3.490762558772302e+000	 8.498079865272009e+000
 5.120497581610830e-001	 3.496040370959349e+000	 8.464927888196645e+000
 4.772905315631359e-001	 3.500955136223510e+000	 8.437037333276244e+000
 4.426003220453980e-001	 3.505509647535838e+000	 8.417208384187097e+000
 4.079840905541844e-001	 3.509706778382526e+000	 8.408725177721147e+000
 3.734467073862539e-001	 3.513549479867663e+000	 8.415528137637788e+000
 3.389929510870035e-001	 3.517040777811276e+000	 8.442370281948765e+000
 6.918842290586873e-001	 3.492127468147986e+000	 8.668093777759774e+000
 6.565930484689633e-001	 3.498934679371662e+000	 8.646098916392047e+000
 6.213450896947828e-001	 3.505365716604721e+000	 8.610752548824456e+000
 5.861457876743472e-001	 3.511423040435469e+000	 8.575048495962713e+000
 5.510004930528263e-001	 3.517109204132556e+000	 8.541331000049462e+000
 5.159144705730965e-001	 3.522426850780760e+000	 8.511840229884406e+000
 4.808928975676334e-001	 3.527378710397507e+000	 8.488936567991686e+000
 4.459408625510410e-001	 3.531967597033896e+000	 8.475301498975755e+000
 4.110633639125423e-001	 3.536196405863857e+000	 8.474117630952453e+000
 3.762653087076235e-001	 3.540068110265040e+000	 8.489230319984188e+000
 3.415515115479128e-001	 3.543585758894952e+000	 8.525293286570840e+000
 6.970671299473389e-001	 3.518286975464283e+000	 8.705691846586358e+000
 6.615115833213421e-001	 3.525145179468955e+000	 8.683479464486515e+000
 6.259995822852320e-001	 3.531624391565782e+000	 8.645761837426880e+000
 5.905366024903045e-001	 3.537727090775320e+000	 8.609479031932946e+000
 5.551280346633835e-001	 3.543455849492744e+000	 8.576684018652328e+000
 5.197791829855072e-001	 3.548813330602162e+000	 8.549378252807177e+000
 4.844952635725218e-001	 3.553802284571547e+000	 8.529725236343980e+000
 4.492814030570671e-001	 3.558425546532040e+000	 8.520240235610253e+000
 4.141426372712742e-001	 3.562686033345300e+000	 8.523958854169237e+000
 3.790839100293557e-001	 3.566586740662535e+000	 8.544587091060979e+000
 3.441100720091707e-001	 3.570130739978726e+000	 8.586635425753478e+000
 7.022500308363554e-001	 3.544446482780284e+000	 8.737245073031495e+000
 6.664301181740677e-001	 3.551355679565987e+000	 8.714289884868162e+000
 6.306540748760146e-001	 3.557883066526630e+000	 8.673016316107427e+000
 5.949274173065843e-001	 3.564031141115022e+000	 8.634848150293264e+000
 5.592555762742563e-001	 3.569802494852851e+000	 8.601497638163153e+000
 5.236438953982293e-001	 3.575199810423551e+000	 8.574682896491979e+000
 4.880976295777198e-001	 3.580225858745636e+000	 8.556329831654351e+000
 4.526219435634039e-001	 3.584883496030281e+000	 8.548749768901875e+000
 4.172219106303195e-001	 3.589175660826871e+000	 8.554795662179840e+000
 3.819025113514069e-001	 3.593105371060167e+000	 8.577999682289939e+000
 3.466686324707544e-001	 3.596675721062616e+000	 8.622694883551443e+000
 7.074329317256694e-001	 3.570605990095922e+000	 8.760896832808470e+000
 6.713486530270640e-001	 3.577566179662699e+000	 8.736172812312523e+000
 6.353085674670472e-001	 3.584141741487224e+000	 8.690298263935567e+000
 5.993182321231001e-001	 3.590335191454545e+000	 8.648749058166859e+000
 5.633831178853562e-001	 3.596149140212859e+000	 8.613159290845189e+000
 5.275086078111761e-001	 3.601586290244922e+000	 8.584928861125508e+000
 4.916999955831463e-001	 3.606649432919779e+000	 8.565715246473808e+000
 4.559624840699785e-001	 3.611341445528634e+000	 8.557598075893734e+000
 4.203011839896186e-001	 3.615665288308593e+000	 8.563222013171897e+000
 3.847211126737328e-001	 3.619624001457956e+000	 8.585920922799661e+000
 3.492271929326406e-001	 3.623220702146639e+000	 8.629826184556574e+000
 7.126158326152123e-001	 3.596765497411133e+000	 8.774794711160915e+000
 6.762671878802550e-001	 3.603776679759038e+000	 8.746759768948026e+000
 6.399630600582476e-001	 3.610400416447522e+000	 8.695405729042928e+000
 6.037090469397647e-001	 3.616639241793862e+000	 8.648797042515561e+000
 5.675106594965956e-001	 3.622495785572754e+000	 8.609084004345647e+000
 5.313733202242620e-001	 3.627972770066271e+000	 8.577323331887360e+000
 4.953023615887203e-001	 3.633073007093981e+000	 8.554883295896740e+000
 4.593030245767192e-001	 3.637799395027112e+000	 8.543594219021600e+000
 4.233804573491112e-001	 3.642154915790479e+000	 8.545877018622356e+000
 3.875397139962902e-001	 3.646142631855923e+000	 8.564852949016080e+000
 3.517857533948060e-001	 3.649765683230813e+000	 8.604437582124517e+000
 3.262001487885013e-001	 3.384315872393811e+000	 7.837908641296135e+000
 2.931266340559612e-001	 3.387340684071736e+000	 7.773029111371364e+000
 2.601426139203095e-001	 3.390033282652841e+000	 7.694152678255209e+000
 2.272524846770250e-001	 3.392396780883214e+000	 7.600620543853160e+000
 1.944605489001440e-001	 3.394434352328458e+000	 7.493313478287310e+000
 1.617710148445833e-001	 3.396149228576582e+000	 7.374804888004378e+000
 1.291879959367674e-001	 3.397544696455680e+000	 7.249505710816694e+000
 9.671551035186207e-002	 3.398624095269112e+000	 7.123802173782595e+000
 6.435748067584694e-002	 3.399390814050797e+000	 7.006187348883575e+000
 3.211773365058886e-002	 3.399848288843145e+000	 6.907387338621676e+000
 0.000000000000000e+000	 3.400000000000000e+000	 6.840482849615379e+000
 3.287587092473185e-001	 3.410860853477239e+000	 7.971035966997688e+000
 2.954257814294042e-001	 3.413909390354809e+000	 7.932621259675610e+000
 2.621830501619328e-001	 3.416623108412469e+000	 7.882086682890932e+000
 2.290349462228407e-001	 3.419005144811186e+000	 7.819037997591390e+000
 1.959858059335152e-001	 3.421058698008491e+000	 7.744586322290291e+000
 1.630398705564288e-001	 3.422787024939412e+000	 7.661495401931568e+000
 1.302012857817726e-001	 3.424193438212349e+000	 7.574321199950217e+000
 9.747410130137282e-002	 3.425281303322549e+000	 7.489544911530452e+000
 6.486227046811306e-002	 3.426054035885894e+000	 7.415700386602567e+000
 3.236965003900847e-002	 3.426515098895460e+000	 7.363496839838434e+000
 0.000000000000000e+000	 3.426668000003317e+000	 7.345937641230067e+000
 3.313172697066006e-001	 3.437405834560681e+000	 8.102038113295540e+000
 2.977249288031724e-001	 3.440478096637889e+000	 8.086736190959492e+000
 2.642234864037295e-001	 3.443212934172093e+000	 8.060472978027681e+000
 2.308174077686785e-001	 3.445613508739142e+000	 8.023121600196339e+000
 1.975110629667696e-001	 3.447683043688490e+000	 7.976025430923963e+000
 1.643087262680443e-001	 3.449424821302194e+000	 7.922138883627955e+000
 1.312145756264719e-001	 3.450842179968952e+000	 7.866161063277412e+000
 9.823269225055085e-002	 3.451938511375909e+000	 7.814663440478936e+000
 6.536706026008096e-002	 3.452717257720900e+000	 7.776212592776769e+000
 3.262156642723695e-002	 3.453181908947675e+000	 7.761488937727016e+000
 0.000000000000000e+000	 3.453336000006534e+000	 7.783402288558680e+000
 3.338758301663242e-001	 3.463950815644158e+000	 8.226887286748907e+000
 3.000240761772671e-001	 3.467046802920987e+000	 8.231287585058354e+000
 2.662639226457273e-001	 3.469802759931710e+000	 8.225271404337484e+000
 2.325998693145914e-001	 3.472221872667065e+000	 8.208988272200591e+000
 1.990363199999830e-001	 3.474307389368425e+000	 8.184021737525610e+000
 1.655775819795217e-001	 3.476062617664879e+000	 8.153522977201556e+000
 1.322278654709650e-001	 3.477490921725426e+000	 8.122337840275863e+000
 9.899128319949337e-002	 3.478595719429112e+000	 8.097128560795843e+000
 6.587185005183170e-002	 3.479380479555727e+000	 8.086491242928595e+000
 3.287348281532380e-002	 3.479848718999696e+000	 8.101070092424616e+000
 0.000000000000000e+000	 3.480004000009550e+000	 8.153669264275544e+000
 3.364343906264664e-001	 3.490495796727684e+000	 8.341627318121301e+000
 3.023232235516898e-001	 3.493615509204113e+000	 8.362267128027343e+000
 2.683043588879538e-001	 3.496392585691321e+000	 8.372525464188593e+000
 2.343823308606329e-001	 3.498830236594936e+000	 8.372843734697762e+000
 2.005615770332309e-001	 3.500931735048263e+000	 8.365059805177484e+000
 1.668464376909529e-001	 3.502700414027417e+000	 8.352533679075586e+000
 1.332411553153519e-001	 3.504139663481708e+000	 8.340267237077850e+000
 9.974987414829747e-002	 3.505252927482079e+000	 8.335019338350634e+000
 6.637663984344647e-002	 3.506043701390285e+000	 8.345417448779530e+000
 3.312539920331854e-002	 3.506515529051426e+000	 8.382066822105609e+000
 0.000000000000000e+000	 3.506672000012267e+000	 8.457658144657902e+000
 3.389929510870035e-001	 3.517040777811276e+000	 8.442370281948762e+000
 3.046223709264421e-001	 3.520184215487275e+000	 8.475740746516555e+000
 2.703447951304372e-001	 3.522982411450922e+000	 8.498358214981932e+000
 2.361647924068563e-001	 3.525438600522739e+000	 8.510978109690500e+000
 2.020868340665886e-001	 3.527556080727968e+000	 8.515713185933898e+000
 1.681152934024299e-001	 3.529338210389759e+000	 8.516150511690789e+000
 1.342544451597327e-001	 3.530788405237732e+000	 8.517463173888132e+000
 1.005084650970603e-001	 3.531910135534731e+000	 8.526518088602249e+000
 6.688142963500628e-002	 3.532706923224483e+000	 8.551981144787318e+000
 3.337731559127066e-002	 3.533182339102766e+000	 8.604420761634744e+000
 0.000000000000000e+000	 3.533340000014583e+000	 8.696410812995682e+000
 3.415515115479128e-001	 3.543585758894952e+000	 8.525293286570838e+000
 3.069215183015248e-001	 3.546752921770478e+000	 8.567845028272554e+000
 2.723852313732049e-001	 3.549572237210507e+000	 8.598968361862655e+000
 2.379472539533150e-001	 3.552046964450459e+000	 8.619761730620803e+000
 2.036120911001321e-001	 3.554180426407512e+000	 8.632639998571069e+000
 1.693841491140445e-001	 3.555976006751856e+000	 8.641441921588985e+000
 1.352677350042071e-001	 3.557437146993431e+000	 8.651533060117119e+000
 1.012670560458789e-001	 3.558567343586992e+000	 8.669905589014871e+000
 6.738621942659229e-002	 3.559370145058233e+000	 8.705276301470615e+000
 3.362923197922968e-002	 3.559849149153620e+000	 8.768183943700988e+000
 0.000000000000000e+000	 3.560008000016400e+000	 8.871086878581496e+000
 3.441100720091707e-001	 3.570130739978726e+000	 8.586635425753476e+000
 3.092206656769397e-001	 3.573321628053737e+000	 8.634783819074867e+000
 2.744256676162848e-001	 3.576162062970079e+000	 8.670626539426145e+000
 2.397297155000622e-001	 3.578655328378078e+000	 8.695641152142894e+000
 2.051373481339368e-001	 3.580804772086859e+000	 8.712578713491887e+000
 1.706530048258889e-001	 3.582613803113661e+000	 8.725560890193933e+000
 1.362810248488753e-001	 3.584085888748745e+000	 8.740173285379274e+000
 1.020256469948505e-001	 3.585224551638780e+000	 8.763556508106449e+000
 6.789100921828561e-002	 3.586033366891444e+000	 8.804496353709867e+000
 3.388114836724510e-002	 3.586515959203891e+000	 8.873514290843740e+000
 0.000000000000000e+000	 3.586676000017616e+000	 8.982959300073144e+000
 3.466686324707544e-001	 3.596675721062616e+000	 8.622694883551443e+000
 3.115198130526881e-001	 3.599890334337058e+000	 8.672824986997592e+000
 2.764661038597044e-001	 3.602751888729631e+000	 8.709671772659236e+000
 2.415121770471513e-001	 3.605263692305578e+000	 8.735135348844613e+000
 2.066626051680781e-001	 3.607429117765978e+000	 8.752344134074948e+000
 1.719218605380546e-001	 3.609251599475123e+000	 8.765740746301932e+000
 1.372943146938369e-001	 3.610734630503605e+000	 8.781164915207670e+000
 1.027842379440721e-001	 3.611881759690019e+000	 8.805935039933861e+000
 6.839579901016735e-002	 3.612696588724027e+000	 8.848929832926681e+000
 3.413306475536642e-002	 3.613182769253480e+000	 8.920671307486913e+000
 0.000000000000000e+000	 3.613344000018133e+000	 9.033410202661900e+000
 3.492271929326406e-001	 3.623220702146639e+000	 8.629826184556571e+000
 3.138189604287714e-001	 3.626459040620449e+000	 8.678297345409527e+000
 2.785065401034917e-001	 3.629341714489162e+000	 8.712508107920321e+000
 2.432946385946357e-001	 3.631872056232944e+000	 8.734832093228041e+000
 2.081878622026318e-001	 3.634053463444835e+000	 8.748823564400766e+000
 1.731907162506340e-001	 3.635889395836193e+000	 8.759291169937804e+000
 1.383076045391921e-001	 3.637383372257951e+000	 8.772369580979500e+000
 1.035428288936410e-001	 3.638538967740631e+000	 8.795590733486003e+000
 6.890058880231857e-002	 3.639359810555891e+000	 8.837956192680295e+000
 3.438498114364316e-002	 3.639849579302291e+000	 8.910011961711776e+000
 0.000000000000000e+000	 3.640012000017849e+000	 9.023926879111473e+000
 3.517857533948060e-001	 3.649765683230813e+000	 8.604437582124520e+000
 3.161181078051911e-001	 3.653027746903922e+000	 8.647587726633621e+000
 2.805469763476744e-001	 3.655931540248671e+000	 8.675601405303230e+000
 2.450771001425687e-001	 3.658480420160160e+000	 8.691384503823686e+000
 2.097131192376733e-001	 3.660677809123401e+000	 8.698973153861353e+000
 1.744595719637188e-001	 3.662527192196826e+000	 8.703594377833680e+000
 1.393208943850408e-001	 3.664032114011716e+000	 8.711725554170211e+000
 1.043014198436543e-001	 3.665196175790536e+000	 8.731154507056521e+000
 6.940537859482046e-002	 3.666023032386947e+000	 8.771041817836789e+000
 3.463689753212482e-002	 3.666516389350228e+000	 8.841986747118872e+000
 0.000000000000000e+000	 3.666680000016666e+000	 8.956097965305345e+000
 3.666680000016666e+000	 0.000000000000000e+000	 1.049764831827599e+001
 3.666516389350228e+000	 3.463689753212492e-002	 1.057579036368465e+001
 3.666023032386948e+000	 6.940537859482068e-002	 1.061290187871991e+001
 3.665196175790535e+000	 1.043014198436540e-001	 1.062007297875054e+001
 3.664032114011715e+000	 1.393208943850406e-001	 1.060766780692976e+001
 3.662527192196825e+000	 1.744595719637187e-001	 1.058532312780702e+001
 3.660677809123401e+000	 2.097131192376734e-001	 1.056194586653285e+001
 3.658480420160158e+000	 2.450771001425689e-001	 1.054570988570908e+001
 3.655931540248671e+000	 2.805469763476741e-001	 1.054405234498823e+001
 3.653027746903921e+000	 3.161181078051908e-001	 1.056367005489587e+001
 3.649765683230813e+000	 3.517857533948059e-001	 1.061051630443123e+001
 3.693344000014533e+000	 0.000000000000000e+000	 1.050309462256108e+001
 3.693179199575722e+000	 3.488877613527524e-002	 1.058235495108940e+001
 3.692682254933839e+000	 6.991009267304311e-002	 1.061997233829511e+001
 3.691849385458404e+000	 1.050598970112210e-001	 1.062712033233410e+001
 3.690676858653458e+000	 1.403340322455685e-001	 1.061425409002143e+001
 3.689160993087310e+000	 1.757282373585245e-001	 1.059110705996171e+001
 3.687298161349475e+000	 2.112381474961306e-001	 1.056668621094894e+001
 3.685084793032175e+000	 2.468592943351136e-001	 1.054926610044764e+001
 3.682517377733704e+000	 2.825871065421269e-001	 1.054638213548421e+001
 3.679592468080790e+000	 3.184169103270726e-001	 1.056482344869671e+001
 3.676306682767058e+000	 3.543439300923416e-001	 1.061062588457306e+001
 3.720008000011599e+000	 0.000000000000000e+000	 1.049994969681626e+001
 3.719842009800440e+000	 3.514065473862902e-002	 1.058055659591867e+001
 3.719341477480015e+000	 7.041480675161087e-002	 1.061921029041769e+001
 3.718502595125647e+000	 1.058183741792211e-001	 1.062708145254460e+001
 3.717321603294685e+000	 1.413471701065709e-001	 1.061463538114903e+001
 3.715794793977405e+000	 1.769969027538079e-001	 1.059162686906279e+001
 3.713918513575290e+000	 2.127631757550383e-001	 1.056709319092504e+001
 3.711689165904060e+000	 2.486414885280598e-001	 1.054934550846618e+001
 3.709103215218715e+000	 2.846272367369182e-001	 1.054595905240526e+001
 3.706157189257729e+000	 3.207157128492246e-001	 1.056376251473271e+001
 3.702847682303435e+000	 3.569021067900821e-001	 1.060882716180246e+001
 3.746672000008066e+000	 0.000000000000000e+000	 1.049189599356645e+001
 3.746504820024573e+000	 3.539253334213540e-002	 1.057365996290032e+001
 3.746000700025651e+000	 7.091952083043755e-002	 1.061347986563081e+001
 3.745155804792418e+000	 1.065768513475459e-001	 1.062243927727003e+001
 3.743966347935525e+000	 1.423603079679293e-001	 1.061093502329193e+001
 3.742428594867207e+000	 1.782655681494496e-001	 1.058867032124651e+001
 3.740538865800909e+000	 2.142882040142841e-001	 1.056464559303613e+001
 3.738293538775842e+000	 2.504236827213071e-001	 1.054714724595839e+001
 3.735689052703710e+000	 2.866673669319632e-001	 1.054373478807982e+001
 3.732721910434723e+000	 3.230145153715789e-001	 1.056122672248275e+001
 3.729388681839912e+000	 3.594602834879762e-001	 1.060568574612490e+001
 3.773336000004134e+000	 0.000000000000000e+000	 1.048232243136562e+001
 3.773167630248318e+000	 3.564441194574353e-002	 1.056468571628419e+001
 3.772659922570928e+000	 7.142423490943686e-002	 1.060544719476938e+001
 3.771809014458874e+000	 1.073353285160872e-001	 1.061552119710576e+001
 3.770611092576107e+000	 1.433734458295249e-001	 1.060515970676726e+001
 3.769062395756812e+000	 1.795342335453302e-001	 1.058394386361227e+001
 3.767159218026396e+000	 2.158132322737551e-001	 1.056077266042362e+001
 3.764897911647557e+000	 2.522058769147550e-001	 1.054384913241544e+001
 3.762274890188694e+000	 2.887074971271775e-001	 1.054066441125645e+001
 3.759286631611750e+000	 3.253133178940683e-001	 1.055798009866155e+001
 3.755929681376454e+000	 3.620184601859726e-001	 1.060180950052943e+001
 3.800000000000001e+000	 0.000000000000000e+000	 1.047433469320391e+001
 3.799830440471870e+000	 3.589629054940256e-002	 1.055641962388576e+001
 3.799319145116026e+000	 7.192894898852251e-002	 1.059758835869117e+001
 3.798462224125175e+000	 1.080938056847368e-001	 1.060850589294874e+001
 3.797255837216560e+000	 1.443865836912391e-001	 1.059920523902433e+001
 3.795696196646321e+000	 1.808028989413303e-001	 1.057907737274817e+001
 3.793779570251820e+000	 2.173382605333389e-001	 1.055685786880431e+001
 3.791502284519238e+000	 2.539880711083034e-001	 1.054061052512359e+001
 3.788860727673674e+000	 2.907476273224763e-001	 1.053770835337230e+001
 3.785851352788797e+000	 3.276121204166252e-001	 1.055481240083744e+001
 3.782470680913030e+000	 3.645766368840203e-001	 1.059784895984497e+001
 3.826663999995868e+000	 0.000000000000000e+000	 1.047076509436351e+001
 3.826493250695418e+000	 3.614816915306155e-002	 1.055142128000896e+001
 3.825978367661124e+000	 7.243366306760815e-002	 1.059219700366070e+001
 3.825115433791474e+000	 1.088522828533864e-001	 1.060342988328999e+001
 3.823900581857011e+000	 1.453997215529534e-001	 1.059486206538802e+001
 3.822329997535829e+000	 1.820715643373304e-001	 1.057562869259670e+001
 3.820399922477241e+000	 2.188632887929226e-001	 1.055424252729388e+001
 3.818106657390919e+000	 2.557702653018517e-001	 1.053857503096918e+001
 3.815446565158653e+000	 2.927877575177752e-001	 1.053583428157710e+001
 3.812416073965843e+000	 3.299109229391820e-001	 1.055254020415112e+001
 3.809011680449607e+000	 3.671348135820680e-001	 1.059449768588923e+001
 3.853327999991935e+000	 0.000000000000000e+000	 1.047418204057557e+001
 3.853156060919162e+000	 3.640004775666967e-002	 1.055203246571552e+001
 3.852637590206400e+000	 7.293837714660749e-002	 1.059139163858259e+001
 3.851768643457932e+000	 1.096107600219277e-001	 1.060219379526762e+001
 3.850545326497594e+000	 1.464128594145490e-001	 1.059382055281558e+001
 3.848963798425434e+000	 1.833402297332110e-001	 1.057508797186946e+001
 3.847020274702730e+000	 2.203883170523936e-001	 1.055422921253341e+001
 3.844711030262634e+000	 2.575524594952997e-001	 1.053887308246136e+001
 3.842032402643639e+000	 2.948278877129895e-001	 1.053601886399747e+001
 3.838980795142871e+000	 3.322097254616714e-001	 1.055200790534817e+001
 3.835552679986150e+000	 3.696929902800644e-001	 1.059249256199732e+001
 3.879991999988402e+000	 0.000000000000000e+000	 1.048689909618984e+001
 3.879818871143298e+000	 3.665192636017606e-002	 1.056038516387752e+001
 3.879296812752037e+000	 7.344309122543419e-002	 1.059712262938871e+001
 3.878421853124702e+000	 1.103692371902526e-001	 1.060656837276536e+001
 3.877190071138434e+000	 1.474259972759073e-001	 1.059767604806513e+001
 3.875597599315237e+000	 1.846088951288528e-001	 1.057888181065098e+001
 3.873640626928349e+000	 2.219133453116393e-001	 1.055808504413480e+001
 3.871315403134415e+000	 2.593346536885469e-001	 1.054262438450548e+001
 3.868618240128634e+000	 2.968680179080345e-001	 1.053924943242571e+001
 3.865545516319864e+000	 3.345085279840258e-001	 1.055408864810108e+001
 3.862093679522626e+000	 3.722511669779585e-001	 1.059261402984557e+001
 3.906655999985469e+000	 0.000000000000000e+000	 1.051098368098727e+001
 3.906481681368015e+000	 3.690380496352986e-002	 1.057840924551217e+001
 3.905956035298213e+000	 7.394780530400193e-002	 1.061117890504563e+001
 3.905075062791944e+000	 1.111277143582526e-001	 1.061820023412634e+001
 3.903834815779661e+000	 1.484391351369098e-001	 1.060793372105728e+001
 3.902231400205331e+000	 1.858775605241362e-001	 1.058837722530645e+001
 3.900260979154164e+000	 2.234383735705472e-001	 1.056704480902945e+001
 3.897919776006298e+000	 2.611168478814930e-001	 1.055094023810265e+001
 3.895204077613645e+000	 2.989081481028258e-001	 1.054652554733462e+001
 3.892110237496803e+000	 3.368073305061777e-001	 1.055968517338190e+001
 3.888634679059003e+000	 3.748093436756990e-001	 1.059568627132888e+001
 3.933319999983334e+000	 0.000000000000000e+000	 1.054826541325900e+001
 3.933144491593509e+000	 3.715568356668014e-002	 1.060783984299644e+001
 3.932615257845103e+000	 7.445251938222434e-002	 1.063519438887076e+001
 3.931728272459812e+000	 1.118861915258195e-001	 1.063861739135595e+001
 3.930479560421403e+000	 1.494522729974376e-001	 1.062601320361844e+001
 3.928865201095816e+000	 1.871462259189419e-001	 1.060488544032070e+001
 3.926881331380236e+000	 2.249634018290042e-001	 1.058231394188798e+001
 3.924524148878316e+000	 2.628990420740378e-001	 1.056492574681470e+001
 3.921789915098675e+000	 3.009482782972785e-001	 1.055886046985260e+001
 3.918674958673671e+000	 3.391061330280594e-001	 1.056973059844354e+001
 3.915175678595246e+000	 3.773675203732345e-001	 1.060257733809733e+001
 3.649765683230813e+000	 3.517857533948059e-001	 1.061051630443123e+001
 3.646142631855923e+000	 3.875397139962905e-001	 1.066081051806044e+001
 3.642154915790480e+000	 4.233804573491110e-001	 1.069064637167123e+001
 3.637799395027112e+000	 4.593030245767192e-001	 1.070466130709715e+001
 3.633073007093982e+000	 4.953023615887200e-001	 1.070677585490115e+001
 3.627972770066271e+000	 5.313733202242620e-001	 1.070020102212957e+001
 3.622495785572755e+000	 5.675106594965961e-001	 1.068745041732871e+001
 3.616639241793862e+000	 6.037090469397646e-001	 1.067035806708764e+001
 3.610400416447522e+000	 6.399630600582474e-001	 1.065010293716970e+001
 3.603776679759039e+000	 6.762671878802548e-001	 1.062881399585493e+001
 3.596765497411132e+000	 7.126158326152124e-001	 1.063896355514309e+001
 3.676306682767058e+000	 3.543439300923416e-001	 1.061062588457306e+001
 3.672657284658395e+000	 3.903578925499764e-001	 1.066007501469870e+001
 3.668640570027081e+000	 4.264592688408317e-001	 1.068920959682215e+001
 3.664253376031720e+000	 4.626430640275384e-001	 1.070255732241250e+001
 3.659492617930285e+000	 4.989041872664869e-001	 1.070392376389776e+001
 3.654355292113509e+000	 5.352374529595347e-001	 1.069639528441974e+001
 3.648838479133311e+000	 5.716375820076131e-001	 1.068234649089279e+001
 3.642939346722671e+000	 6.080992031672104e-001	 1.066345322961488e+001
 3.636655152803182e+000	 6.446168545105612e-001	 1.064071218689914e+001
 3.629983248476528e+000	 6.811849849902316e-001	 1.061788211397356e+001
 3.622921080995963e+000	 7.177979561086598e-001	 1.062826657245188e+001
 3.702847682303435e+000	 3.569021067900821e-001	 1.060882716180246e+001
 3.699171937461023e+000	 3.931760711038122e-001	 1.065767731051140e+001
 3.695126224263829e+000	 4.295380803326591e-001	 1.068647835344761e+001
 3.690707357036439e+000	 4.659831034784319e-001	 1.069962106593906e+001
 3.685912228766642e+000	 5.025060129443072e-001	 1.070077197579825e+001
 3.680737814160723e+000	 5.391015856948495e-001	 1.069287158516608e+001
 3.675181172693759e+000	 5.757645045186707e-001	 1.067813692130023e+001
 3.669239451651285e+000	 6.124893593947065e-001	 1.065806946194142e+001
 3.662909889158565e+000	 6.492706489629425e-001	 1.063346954873643e+001
 3.656189817193663e+000	 6.861027821003025e-001	 1.061023492636959e+001
 3.649076664580380e+000	 7.229800796022365e-001	 1.062083526882459e+001
 3.729388681839912e+000	 3.594602834879762e-001	 1.060568574612490e+001
 3.725686590263769e+000	 3.959942496577605e-001	 1.065402944455459e+001
 3.721611878500688e+000	 4.326168918245666e-001	 1.068271322654580e+001
 3.717161338041240e+000	 4.693231429293812e-001	 1.069596703267915e+001
 3.712331839603034e+000	 5.061078386221668e-001	 1.069729761816227e+001
 3.707120336207917e+000	 5.429657184301957e-001	 1.068948186344228e+001
 3.701523866254123e+000	 5.798914270297597e-001	 1.067456417808626e+001
 3.695539556579746e+000	 6.168795156222395e-001	 1.065385909139376e+001
 3.689164625513729e+000	 6.539244434153747e-001	 1.062796019588237e+001
 3.682396385910517e+000	 6.910205792104438e-001	 1.060527699228374e+001
 3.675232248164469e+000	 7.281622030959103e-001	 1.061604102365278e+001
 3.755929681376454e+000	 3.620184601859726e-001	 1.060180950052943e+001
 3.752201243066594e+000	 3.988124282117838e-001	 1.064960055423093e+001
 3.748097532737623e+000	 4.356957033165273e-001	 1.067824454398235e+001
 3.743615319046093e+000	 4.726631823803677e-001	 1.069178995434746e+001
 3.738751450439450e+000	 5.097096643000530e-001	 1.069356645301596e+001
 3.733502858255094e+000	 5.468298511655627e-001	 1.068617305321891e+001
 3.727866559814423e+000	 5.840183495408690e-001	 1.067147011148730e+001
 3.721839661508096e+000	 6.212696718497973e-001	 1.065057630352616e+001
 3.715419361868731e+000	 6.585782378678403e-001	 1.062387179871571e+001
 3.708602954627166e+000	 6.959383763206328e-001	 1.060251408878866e+001
 3.701387831748314e+000	 7.333443265896485e-001	 1.061335863468033e+001
 3.782470680913030e+000	 3.645766368840203e-001	 1.059784895984497e+001
 3.778715895869458e+000	 4.016306067658447e-001	 1.064491657852907e+001
 3.774583186974591e+000	 4.387745148085147e-001	 1.067347138414518e+001
 3.770069300050975e+000	 4.760032218313729e-001	 1.068736313360279e+001
 3.765171061275874e+000	 5.133114899779525e-001	 1.068973056197983e+001
 3.759885380302258e+000	 5.506939839009404e-001	 1.068298414589807e+001
 3.754209253374684e+000	 5.881452720519883e-001	 1.066879242110000e+001
 3.748139766436377e+000	 6.256598280773674e-001	 1.064807304784835e+001
 3.741674098223633e+000	 6.632320323203232e-001	 1.062098990077601e+001
 3.734809523343683e+000	 7.008561734308451e-001	 1.060155030900706e+001
 3.727543415331994e+000	 7.385264500834197e-001	 1.061236314549120e+001
 3.809011680449607e+000	 3.671348135820680e-001	 1.059449768588923e+001
 3.805230548672322e+000	 4.044487853199054e-001	 1.064055991841581e+001
 3.801068841211559e+000	 4.418533263005018e-001	 1.066886056012399e+001
 3.796523281055853e+000	 4.793432612823781e-001	 1.068303677264451e+001
 3.791590672112294e+000	 5.169133156558521e-001	 1.068602604203422e+001
 3.786267902349411e+000	 5.545581166363182e-001	 1.068004327814001e+001
 3.780551946934928e+000	 5.922721945631080e-001	 1.066656116283376e+001
 3.774439871364629e+000	 6.300499843049378e-001	 1.064629499315734e+001
 3.767928834578493e+000	 6.678858267728057e-001	 1.061920881046557e+001
 3.761016092060141e+000	 7.057739705410574e-001	 1.060208522731831e+001
 3.753698998915594e+000	 7.437085735771906e-001	 1.061272674599640e+001
 3.835552679986150e+000	 3.696929902800644e-001	 1.059249256199732e+001
 3.831745201475147e+000	 4.072669638739287e-001	 1.063716905645763e+001
 3.827554495448490e+000	 4.449321377924626e-001	 1.066494558155215e+001
 3.822977262060702e+000	 4.826833007333646e-001	 1.067923629645052e+001
 3.818010282948695e+000	 5.205151413337383e-001	 1.068277071140396e+001
 3.812650424396558e+000	 5.584222493716853e-001	 1.067756484375672e+001
 3.806894640495177e+000	 5.963991170742170e-001	 1.066489529230329e+001
 3.800739976292897e+000	 6.344401405324956e-001	 1.064527753006973e+001
 3.794183570933372e+000	 6.725396212252713e-001	 1.061879088975926e+001
 3.787222660776614e+000	 7.106917676512461e-001	 1.060391112830828e+001
 3.779854582499194e+000	 7.488906970709290e-001	 1.061421574238499e+001
 3.862093679522626e+000	 3.722511669779585e-001	 1.059261402984557e+001
 3.858259854277893e+000	 4.100851424278770e-001	 1.063543813763148e+001
 3.854040149685346e+000	 4.480109492843699e-001	 1.066232559518588e+001
 3.849431243065491e+000	 4.860233401843139e-001	 1.067646067091185e+001
 3.844429893785062e+000	 5.241169670115981e-001	 1.068036182507825e+001
 3.839032946443703e+000	 5.622863821070315e-001	 1.067584662851394e+001
 3.833237334055452e+000	 6.005260395853056e-001	 1.066399924290632e+001
 3.827040081221221e+000	 6.388302967600287e-001	 1.064514181848372e+001
 3.820438307288329e+000	 6.771934156777035e-001	 1.061980941054312e+001
 3.813429229493175e+000	 7.156095647613878e-001	 1.060691029639586e+001
 3.806010166082880e+000	 7.540728205646027e-001	 1.061668759319594e+001
 3.888634679059003e+000	 3.748093436756990e-001	 1.059568627132888e+001
 3.884774507080521e+000	 4.129033209817129e-001	 1.063611651318197e+001
 3.880525803922092e+000	 4.510897607761975e-001	 1.066166430523690e+001
 3.875885224070195e+000	 4.893633796352074e-001	 1.067528071610972e+001
 3.870849504621382e+000	 5.277187926894180e-001	 1.067927379950387e+001
 3.865415468490847e+000	 5.661505148423461e-001	 1.067526696674790e+001
 3.859580027615782e+000	 6.046529620963637e-001	 1.066415953693040e+001
 3.853340186149642e+000	 6.432204529875243e-001	 1.064609087782350e+001
 3.846693043643426e+000	 6.818472101300851e-001	 1.062227977067591e+001
 3.839635798209899e+000	 7.205273618714588e-001	 1.061105236323771e+001
 3.832165749666732e+000	 7.592549440581793e-001	 1.062008800835345e+001
 3.915175678595246e+000	 3.773675203732345e-001	 1.060257733809733e+001
 3.911289159882991e+000	 4.157214995353987e-001	 1.064000824927579e+001
 3.907011458158685e+000	 4.541685722679180e-001	 1.066368887441942e+001
 3.902339205074782e+000	 4.927034190860264e-001	 1.067633741496437e+001
 3.897269115457639e+000	 5.313206183671849e-001	 1.068005594601704e+001
 3.891797990537994e+000	 5.700146475776188e-001	 1.067628191876099e+001
 3.885922721176181e+000	 6.087798846073804e-001	 1.066574142811990e+001
 3.879640291078204e+000	 6.476106092149703e-001	 1.064840571803531e+001
 3.872947779998714e+000	 6.865010045823983e-001	 1.062630005344000e+001
 3.865842366926857e+000	 7.254451589814351e-001	 1.061639171016851e+001
 3.858321333250832e+000	 7.644370675516264e-001	 1.062444810817613e+001
 3.596765497411132e+000	 7.126158326152124e-001	 1.063896355514309e+001
 3.589363294351825e+000	 7.490087713011588e-001	 1.066995818858855e+001
 3.581568760153285e+000	 7.854347785535488e-001	 1.069803735940908e+001
 3.573379666514728e+000	 8.218879957891508e-001	 1.072454371790291e+001
 3.564793892237348e+000	 8.583624850557747e-001	 1.075039260976944e+001
 3.555809426018735e+000	 8.948522312174628e-001	 1.077606956565097e+001
 3.546424369203119e+000	 9.313511442442009e-001	 1.080162969471228e+001
 3.536636938483259e+000	 9.678530616055532e-001	 1.082669926306731e+001
 3.526445468549742e+000	 1.004351750767448e+000	 1.085047974714087e+001
 3.515848414683465e+000	 1.040840911791156e+000	 1.087174991002802e+001
 3.504844355287081e+000	 1.077314180033311e+000	 1.088889656071633e+001
 3.622921080995963e+000	 7.177979561086598e-001	 1.062826657245188e+001
 3.615465049311848e+000	 7.544555432825085e-001	 1.065863407533294e+001
 3.607613833466946e+000	 7.911464394965301e-001	 1.068672634936974e+001
 3.599365188956308e+000	 8.278647435640266e-001	 1.071379757675455e+001
 3.590716979155808e+000	 8.646044743521743e-001	 1.074067298821837e+001
 3.581667178136880e+000	 9.013595729831021e-001	 1.076774528527653e+001
 3.572213873436759e+000	 9.381239051402547e-001	 1.079497294435803e+001
 3.562355268780022e+000	 9.748912634794354e-001	 1.082188069792424e+001
 3.552089686747149e+000	 1.011655370143745e+000	 1.084755604503811e+001
 3.541415571385863e+000	 1.048409879381463e+000	 1.087068316819020e+001
 3.530331490760975e+000	 1.085148380265702e+000	 1.088950535642285e+001
 3.649076664580380e+000	 7.229800796022365e-001	 1.062083526882459e+001
 3.641566804271423e+000	 7.599023152640309e-001	 1.065045554594269e+001
 3.633658906780143e+000	 7.968581004397330e-001	 1.067835434921176e+001
 3.625350711397430e+000	 8.338414913391794e-001	 1.070570507679317e+001
 3.616640066073833e+000	 8.708464636489086e-001	 1.073325217802973e+001
 3.607524930254624e+000	 9.078669147491354e-001	 1.076130643694067e+001
 3.598003377670048e+000	 9.448966660367626e-001	 1.078974210942376e+001
 3.588073599076493e+000	 9.819294653538295e-001	 1.081799622408709e+001
 3.577733904944330e+000	 1.018958989520610e+000	 1.084506473719364e+001
 3.566982728088108e+000	 1.055978846972389e+000	 1.086953174943044e+001
 3.555818626234796e+000	 1.092982580498757e+000	 1.088953655802649e+001
 3.675232248164469e+000	 7.281622030959103e-001	 1.061604102365278e+001
 3.667668559230636e+000	 7.653490872456820e-001	 1.064478061406131e+001
 3.659703980092961e+000	 8.025697613831027e-001	 1.067227413350955e+001
 3.651336233838164e+000	 8.398182391145390e-001	 1.069962251494340e+001
 3.642563152991476e+000	 8.770884529458933e-001	 1.072749941062235e+001
 3.633382682372007e+000	 9.143742565154637e-001	 1.075614526127526e+001
 3.623792881903003e+000	 9.516694269336102e-001	 1.078536318457083e+001
 3.613791929372667e+000	 9.889676672286075e-001	 1.081451700817614e+001
 3.603378123141265e+000	 1.026262608897900e+000	 1.084252688909461e+001
 3.592549884790161e+000	 1.063547814563778e+000	 1.086789410392132e+001
 3.581305761708479e+000	 1.100816780732308e+000	 1.088867203850369e+001
 3.701387831748314e+000	 7.333443265896485e-001	 1.061335863468033e+001
 3.693770314189572e+000	 7.707958592274198e-001	 1.064107165594762e+001
 3.685749053405477e+000	 8.082814223265831e-001	 1.066794290030395e+001
 3.677321756278585e+000	 8.457949868900372e-001	 1.069500981588329e+001
 3.668486239908798e+000	 8.833304422430448e-001	 1.072288592114425e+001
 3.659240434489070e+000	 9.208815982819893e-001	 1.075175357987654e+001
 3.649582386135648e+000	 9.584421878306851e-001	 1.078135855471150e+001
 3.639510259668550e+000	 9.960058691036422e-001	 1.081100668031436e+001
 3.629022341337930e+000	 1.033566228275474e+000	 1.083955876950812e+001
 3.618117041491971e+000	 1.071116782155477e+000	 1.086545121599782e+001
 3.606792897181959e+000	 1.108650980966191e+000	 1.088667027122967e+001
 3.727543415331994e+000	 7.385264500834197e-001	 1.061236314549120e+001
 3.719872069148313e+000	 7.762426312092003e-001	 1.063889199489706e+001
 3.711794126717774e+000	 8.139930832701192e-001	 1.066491862832594e+001
 3.703307278718762e+000	 8.517717346656040e-001	 1.069142667830170e+001
 3.694409326825858e+000	 8.895724315402802e-001	 1.071898090035400e+001
 3.685098186605857e+000	 9.273889400486128e-001	 1.074771856975258e+001
 3.675371890368006e+000	 9.652149487278732e-001	 1.077734260930883e+001
 3.665228589964140e+000	 1.003044070978804e+000	 1.080711680590090e+001
 3.654666559534302e+000	 1.040869847653190e+000	 1.083585982768285e+001
 3.643684198193497e+000	 1.078685749747331e+000	 1.086196184502818e+001
 3.632280032655169e+000	 1.116485181200240e+000	 1.088336148308721e+001
 3.753698998915594e+000	 7.437085735771906e-001	 1.061272674599640e+001
 3.745973824106948e+000	 7.816894031909812e-001	 1.063790256335855e+001
 3.737839200029932e+000	 8.197047442136549e-001	 1.066285651580521e+001
 3.729292801158767e+000	 8.577484824411708e-001	 1.068852880582599e+001
 3.720332413742714e+000	 8.958144208375151e-001	 1.071544753345555e+001
 3.710955938722406e+000	 9.338962818152368e-001	 1.074371862620748e+001
 3.701161394600098e+000	 9.719877096250615e-001	 1.077301744580052e+001
 3.690946920259437e+000	 1.010082272853967e+000	 1.080258244640346e+001
 3.680310777730361e+000	 1.048173467030906e+000	 1.083120812866681e+001
 3.669251354894696e+000	 1.086254717339184e+000	 1.085725785273921e+001
 3.657767168128049e+000	 1.124319381434289e+000	 1.087864289157873e+001
 3.779854582499194e+000	 7.488906970709290e-001	 1.061421574238499e+001
 3.772075579065561e+000	 7.871361751727187e-001	 1.063785863898262e+001
 3.763884273342034e+000	 8.254164051571353e-001	 1.066150549691176e+001
 3.755278323598675e+000	 8.637252302166685e-001	 1.068606421851909e+001
 3.746255500659427e+000	 9.020564101346671e-001	 1.071203912167463e+001
 3.736813690838762e+000	 9.404036235817622e-001	 1.073951930987866e+001
 3.726950898831944e+000	 9.787604705221360e-001	 1.076816865782927e+001
 3.716665250554443e+000	 1.017120474729001e+000	 1.079721349919285e+001
 3.705954995926085e+000	 1.055477086408480e+000	 1.082545587248485e+001
 3.694818511595526e+000	 1.093823684930882e+000	 1.085123961280728e+001
 3.683254303600529e+000	 1.132153581668172e+000	 1.087247402187414e+001
 3.806010166082880e+000	 7.540728205646027e-001	 1.061668759319594e+001
 3.798177334024235e+000	 7.925829471543703e-001	 1.063860665104459e+001
 3.789929346654160e+000	 8.311280661005048e-001	 1.066070483209555e+001
 3.781263846038558e+000	 8.697019779920285e-001	 1.068386964106909e+001
 3.772178587576050e+000	 9.082983994316514e-001	 1.070859528259586e+001
 3.762671442954964e+000	 9.469109653480906e-001	 1.073496937387886e+001
 3.752740403063570e+000	 9.855332314189841e-001	 1.076266120420053e+001
 3.742383580849156e+000	 1.024158676603780e+000	 1.079090823558950e+001
 3.731599214121452e+000	 1.062780705785770e+000	 1.081852499314105e+001
 3.720385668295939e+000	 1.101392652522272e+000	 1.084387149875807e+001
 3.708741439072548e+000	 1.139987781901724e+000	 1.086487209994713e+001
 3.832165749666732e+000	 7.592549440581793e-001	 1.062008800835345e+001
 3.824279088983057e+000	 7.980297191358923e-001	 1.064008105388006e+001
 3.815974419966391e+000	 8.368397270437079e-001	 1.066038076879422e+001
 3.807249368478485e+000	 8.756787257671810e-001	 1.068186696400812e+001
 3.798101674492648e+000	 9.145403887283856e-001	 1.070503822549835e+001
 3.788529195071056e+000	 9.534183071141238e-001	 1.072999686721556e+001
 3.778529907294995e+000	 9.923059923154921e-001	 1.075643535471050e+001
 3.768101911143579e+000	 1.031196878478174e+000	 1.078362143415445e+001
 3.757243432316443e+000	 1.070084325162635e+000	 1.081040283363299e+001
 3.745952824995893e+000	 1.108961620113198e+000	 1.083517744643370e+001
 3.734228574544038e+000	 1.147821982134779e+000	 1.085590751816688e+001
 3.858321333250832e+000	 7.644370675516264e-001	 1.062444810817613e+001
 3.850380843942109e+000	 8.034764911172418e-001	 1.064230126415292e+001
 3.842019493278809e+000	 8.425513879866889e-001	 1.066054326916829e+001
 3.833234890918528e+000	 8.816554735420564e-001	 1.068005977449404e+001
 3.824024761409275e+000	 9.207823780247851e-001	 1.070136909812995e+001
 3.814386947187075e+000	 9.599256488797630e-001	 1.072460531086848e+001
 3.804319411526238e+000	 9.990787532115453e-001	 1.074950270919624e+001
 3.793820241437710e+000	 1.038235080352055e+000	 1.077537938898806e+001
 3.782887650511028e+000	 1.077387944538931e+000	 1.080113789337033e+001
 3.771519981695345e+000	 1.116530587703505e+000	 1.082523658748920e+001
 3.759715710014934e+000	 1.155656182367169e+000	 1.084569936990557e+001
 3.504844355287081e+000	 1.077314180033311e+000	 1.088889656071633e+001
 3.493431993474643e+000	 1.113765128411843e+000	 1.090684893617646e+001
 3.481610156834797e+000	 1.150187268649676e+000	 1.092911312731842e+001
 3.469377802379237e+000	 1.186574055778320e+000	 1.095130404245224e+001
 3.456734019669560e+000	 1.222918891747823e+000	 1.096863645270284e+001
 3.443678032987045e+000	 1.259215128608840e+000	 1.097595624963450e+001
 3.430209203416529e+000	 1.295456071785157e+000	 1.096777667999785e+001
 3.416327030840312e+000	 1.331634983434178e+000	 1.093831981342804e+001
 3.402031155838170e+000	 1.367745085892707e+000	 1.090734729446658e+001
 3.387321361489601e+000	 1.403779565205173e+000	 1.090115613737648e+001
 3.372197575074528e+000	 1.439731574731234e+000	 1.091598332049304e+001
 3.530331490760975e+000	 1.085148380265702e+000	 1.088950535642285e+001
 3.518836138555602e+000	 1.121864398976820e+000	 1.090842855579191e+001
 3.506928333832647e+000	 1.158551400055168e+000	 1.093048694639522e+001
 3.494607026019215e+000	 1.195202790937426e+000	 1.095124635488816e+001
 3.481871298056221e+000	 1.231811925592805e+000	 1.096586130638726e+001
 3.468720368583944e+000	 1.268372107728260e+000	 1.096910557319956e+001
 3.455153594041044e+000	 1.304876594084805e+000	 1.095540784921370e+001
 3.441170470672978e+000	 1.341318597822436e+000	 1.092020249924281e+001
 3.426770636445833e+000	 1.377691291990981e+000	 1.089436872305057e+001
 3.411953872861663e+000	 1.413987813083974e+000	 1.089056583035499e+001
 3.396720106671580e+000	 1.450201264672493e+000	 1.090503236885427e+001
 3.555818626234796e+000	 1.092982580498757e+000	 1.088953655802649e+001
 3.544240283636571e+000	 1.129963669542497e+000	 1.090896612129883e+001
 3.532246510830581e+000	 1.166915531461389e+000	 1.093039171796436e+001
 3.519836249659356e+000	 1.203831526097284e+000	 1.094934460101305e+001
 3.507008576443118e+000	 1.240704959438558e+000	 1.096093369648856e+001
 3.493762704181139e+000	 1.277529086848464e+000	 1.095987533861617e+001
 3.480097984665906e+000	 1.314297116385243e+000	 1.094052828127148e+001
 3.466013910506030e+000	 1.351002212211490e+000	 1.090301486758854e+001
 3.451510117053901e+000	 1.387637498090054e+000	 1.088140494482802e+001
 3.436586384234134e+000	 1.424196060963575e+000	 1.087916043278436e+001
 3.421242638269016e+000	 1.460670954614553e+000	 1.089259334586292e+001
 3.581305761708479e+000	 1.100816780732308e+000	 1.088867203850369e+001
 3.569644428717461e+000	 1.138062940108699e+000	 1.090823656760151e+001
 3.557564687828503e+000	 1.175279662868157e+000	 1.092870134676660e+001
 3.545065473299544e+000	 1.212460261257707e+000	 1.094557824786391e+001
 3.532145854830122e+000	 1.249597993284889e+000	 1.095394590627225e+001
 3.518805039778498e+000	 1.286686065969255e+000	 1.094847853265399e+001
 3.505042375290976e+000	 1.323717638686274e+000	 1.092348015393005e+001
 3.490857350339327e+000	 1.360685826601141e+000	 1.088676065588637e+001
 3.476249597662238e+000	 1.397583704189727e+000	 1.086854598827740e+001
 3.461218895606880e+000	 1.434404308843775e+000	 1.086718422629700e+001
 3.445765169866719e+000	 1.471140644557212e+000	 1.087907355739261e+001
 3.606792897181959e+000	 1.108650980966191e+000	 1.088667027122967e+001
 3.595048573798192e+000	 1.146162210675251e+000	 1.090608502145132e+001
 3.582882864826309e+000	 1.183643794275289e+000	 1.092535320477388e+001
 3.570294696939667e+000	 1.221088996418505e+000	 1.093998322261610e+001
 3.557283133217109e+000	 1.258491027131605e+000	 1.094503942321923e+001
 3.543847375375882e+000	 1.295843045090436e+000	 1.093516987512236e+001
 3.529986765916116e+000	 1.333138160987702e+000	 1.090463972493746e+001
 3.515700790172728e+000	 1.370369440991190e+000	 1.087142308172055e+001
 3.500989078270704e+000	 1.407529910289798e+000	 1.085591521443506e+001
 3.485851406979773e+000	 1.444612556724376e+000	 1.085490926236665e+001
 3.470287701464573e+000	 1.481610334500272e+000	 1.086490227999118e+001
 3.632280032655169e+000	 1.116485181200240e+000	 1.088336148308721e+001
 3.620452718878675e+000	 1.154261481241977e+000	 1.090242188126241e+001
 3.608201041823901e+000	 1.192007925682604e+000	 1.092034314813685e+001
 3.595523920579608e+000	 1.229717731579492e+000	 1.093264687743095e+001
 3.582420411603949e+000	 1.267384060978512e+000	 1.093439986287233e+001
 3.568889710973160e+000	 1.305000024211814e+000	 1.092024071313366e+001
 3.554931156541185e+000	 1.342558683289327e+000	 1.088579335256322e+001
 3.540544230006091e+000	 1.380053055381439e+000	 1.085702131761302e+001
 3.525728558879165e+000	 1.417476116390069e+000	 1.084366669932439e+001
 3.510483918352681e+000	 1.454820804605176e+000	 1.084263282650016e+001
 3.494810233062459e+000	 1.492080024443532e+000	 1.085052831532583e+001
 3.657767168128049e+000	 1.124319381434289e+000	 1.087864289157873e+001
 3.645856863958831e+000	 1.162360751808704e+000	 1.089721797789501e+001
 3.633519218821176e+000	 1.200372057089920e+000	 1.091372061166697e+001
 3.620753144219252e+000	 1.238346466740478e+000	 1.092370302801018e+001
 3.607557689990518e+000	 1.276277094825420e+000	 1.092225196217498e+001
 3.593932046570194e+000	 1.314157003333191e+000	 1.090401398026081e+001
 3.579875547166042e+000	 1.351979205590951e+000	 1.086852435851894e+001
 3.565387669839278e+000	 1.389736669771687e+000	 1.084360785478596e+001
 3.550468039487480e+000	 1.427422322490340e+000	 1.083198266524404e+001
 3.535116429725481e+000	 1.465029052485976e+000	 1.083067494521769e+001
 3.519332764660260e+000	 1.502549714386791e+000	 1.083641758099579e+001
 3.683254303600529e+000	 1.132153581668172e+000	 1.087247402187414e+001
 3.671261009038573e+000	 1.170460022375256e+000	 1.089049981248510e+001
 3.658837395818034e+000	 1.208736188497053e+000	 1.090558377709689e+001
 3.645982367858484e+000	 1.246975201901277e+000	 1.091332706228829e+001
 3.632694968376690e+000	 1.285170128672135e+000	 1.090885463893605e+001
 3.618974382166853e+000	 1.323313982454373e+000	 1.088683921744547e+001
 3.604819937790552e+000	 1.361399727892379e+000	 1.085279960783840e+001
 3.590231109672148e+000	 1.399420284161736e+000	 1.083126591885062e+001
 3.575207520095516e+000	 1.437368528590412e+000	 1.082107095854636e+001
 3.559748941098035e+000	 1.475237300366577e+000	 1.081937593374824e+001
 3.543855296257858e+000	 1.513019404329850e+000	 1.082305073595125e+001
 3.708741439072548e+000	 1.139987781901724e+000	 1.086487209994713e+001
 3.696665154117818e+000	 1.178559292941458e+000	 1.088234486761398e+001
 3.684155572814372e+000	 1.217100319903820e+000	 1.089607481157105e+001
 3.671211591497188e+000	 1.255603937061700e+000	 1.090173111588806e+001
 3.657832246762335e+000	 1.294063162518466e+000	 1.089449611424040e+001
 3.644016717762999e+000	 1.332470961575163e+000	 1.086908765268693e+001
 3.629764328414572e+000	 1.370820250193410e+000	 1.083861854162784e+001
 3.615074549504560e+000	 1.409103898551387e+000	 1.082010693492547e+001
 3.599947000703133e+000	 1.447314734690084e+000	 1.081116257167165e+001
 3.584381452470216e+000	 1.485445548246777e+000	 1.080909398248164e+001
 3.568377827855136e+000	 1.523489094272510e+000	 1.081092083885359e+001
 3.734228574544038e+000	 1.147821982134779e+000	 1.085590751816688e+001
 3.722069299196483e+000	 1.186658563507135e+000	 1.087287698831397e+001
 3.709473749810091e+000	 1.225464451310042e+000	 1.088537517301108e+001
 3.696440815135249e+000	 1.264232672221558e+000	 1.088915931115020e+001
 3.682969525147330e+000	 1.302956196364219e+000	 1.087948909479782e+001
 3.669059053358499e+000	 1.341627940695366e+000	 1.085198125984088e+001
 3.654708719037963e+000	 1.380240772493848e+000	 1.082601109115674e+001
 3.639917989336374e+000	 1.418787512940442e+000	 1.081026803982133e+001
 3.624686481310193e+000	 1.457260940789157e+000	 1.080250920732213e+001
 3.609013963841896e+000	 1.495653796126379e+000	 1.080020278032566e+001
 3.592900359451976e+000	 1.533958784214570e+000	 1.080053103780321e+001
 3.759715710014934e+000	 1.155656182367169e+000	 1.084569936990557e+001
 3.747473444274480e+000	 1.194757834072111e+000	 1.086226182959647e+001
 3.734791926805089e+000	 1.233828582715533e+000	 1.087370097918251e+001
 3.721670038772552e+000	 1.272861407380663e+000	 1.087588305672098e+001
 3.708106803531545e+000	 1.311849230209201e+000	 1.086416601238696e+001
 3.694101388953216e+000	 1.350784919814787e+000	 1.083683233818578e+001
 3.679653109660587e+000	 1.389661294793495e+000	 1.081503519447568e+001
 3.664761429167448e+000	 1.428471127328699e+000	 1.080190963906047e+001
 3.649425961916560e+000	 1.467207146887431e+000	 1.079538088277668e+001
 3.633646475212943e+000	 1.505862044005179e+000	 1.079308917321735e+001
 3.617422891048259e+000	 1.544428474155829e+000	 1.079239228994630e+001
 3.372197575074528e+000	 1.439731574731234e+000	 1.091598332049304e+001
 3.356662231674654e+000	 1.475588867042669e+000	 1.094168543534666e+001
 3.340713316314456e+000	 1.511349944770984e+000	 1.097014152457432e+001
 3.324351200427108e+000	 1.547007890623957e+000	 1.100036616304075e+001
 3.307576405259167e+000	 1.582555769867112e+000	 1.103152680583368e+001
 3.290389603006430e+000	 1.617986634272130e+000	 1.106248261294945e+001
 3.272791617828106e+000	 1.653293526122406e+000	 1.109194283123486e+001
 3.254783426736442e+000	 1.688469482271450e+000	 1.111851607182357e+001
 3.236366160359109e+000	 1.723507538249754e+000	 1.114072954001302e+001
 3.217541103571808e+000	 1.758400732415532e+000	 1.115705087814118e+001
 3.198309695998757e+000	 1.793142110144684e+000	 1.116591256123478e+001
 3.396720106671580e+000	 1.450201264672493e+000	 1.090503236885427e+001
 3.381071790665133e+000	 1.486319310265351e+000	 1.092937323888505e+001
 3.365006895213961e+000	 1.522340441605221e+000	 1.095712080230504e+001
 3.348525794452300e+000	 1.558257691097506e+000	 1.098715860248077e+001
 3.331629013417209e+000	 1.594064073578511e+000	 1.101835339322278e+001
 3.314317229192684e+000	 1.629752590292575e+000	 1.104968842358951e+001
 3.296591271931205e+000	 1.665316232926751e+000	 1.107995703323202e+001
 3.278452125749841e+000	 1.700747987698722e+000	 1.110772357946883e+001
 3.259900929498166e+000	 1.736040839493528e+000	 1.113146215102104e+001
 3.240938977395473e+000	 1.771187776044500e+000	 1.114957916747000e+001
 3.221567719534899e+000	 1.806181792153683e+000	 1.116043867082878e+001
 3.421242638269016e+000	 1.460670954614553e+000	 1.089259334586292e+001
 3.405481349655952e+000	 1.497049753488834e+000	 1.091505434093119e+001
 3.389300474113741e+000	 1.533330938440259e+000	 1.094170597256213e+001
 3.372700388477688e+000	 1.569507491571855e+000	 1.097132862062088e+001
 3.355681621575360e+000	 1.605572377290711e+000	 1.100267975669860e+001
 3.338244855378957e+000	 1.641518546313822e+000	 1.103450380964460e+001
 3.320390926034240e+000	 1.677338939731900e+000	 1.106556472403142e+001
 3.302120824763098e+000	 1.713026493126799e+000	 1.109452115267406e+001
 3.283435698637017e+000	 1.748574140738111e+000	 1.111977236968877e+001
 3.264336851218891e+000	 1.783974819674280e+000	 1.113963302446228e+001
 3.244825743070775e+000	 1.819221474163497e+000	 1.115236580965047e+001
 3.445765169866719e+000	 1.471140644557212e+000	 1.087907355739261e+001
 3.429890908647009e+000	 1.507780196712916e+000	 1.089929044937442e+001
 3.413594053013717e+000	 1.544321435275896e+000	 1.092458755725325e+001
 3.396874982503221e+000	 1.580757292046805e+000	 1.095362368034643e+001
 3.379734229733591e+000	 1.617080681003512e+000	 1.098502787053775e+001
 3.362172481565244e+000	 1.653284502335673e+000	 1.101740937605973e+001
 3.344190580137224e+000	 1.689361646537656e+000	 1.104936871789765e+001
 3.325789523776246e+000	 1.725304998555488e+000	 1.107950162039399e+001
 3.306970467775714e+000	 1.761107441983310e+000	 1.110622026151283e+001
 3.287734725042120e+000	 1.796761863304683e+000	 1.112771980608147e+001
 3.268083766606454e+000	 1.832261156173944e+000	 1.114212911774040e+001
 3.470287701464573e+000	 1.481610334500272e+000	 1.086490227999118e+001
 3.454300467638207e+000	 1.518510639937398e+000	 1.088265971136205e+001
 3.437887631913810e+000	 1.555311932111934e+000	 1.090646774560654e+001
 3.421049576528834e+000	 1.592007092522155e+000	 1.093484573094498e+001
 3.403786837891866e+000	 1.628588984716717e+000	 1.096627446357211e+001
 3.386100107751537e+000	 1.665050458357931e+000	 1.099920620105667e+001
 3.367990234240172e+000	 1.701384353343822e+000	 1.103207585761366e+001
 3.349458222789323e+000	 1.737583503984593e+000	 1.106331342358271e+001
 3.330505236914307e+000	 1.773640743228935e+000	 1.109135402733160e+001
 3.311132598865224e+000	 1.809548906935523e+000	 1.111433791728173e+001
 3.291341790142000e+000	 1.845300838184841e+000	 1.113015843233172e+001
 3.494810233062459e+000	 1.492080024443532e+000	 1.085052831532583e+001
 3.478710026629442e+000	 1.529241083162080e+000	 1.086575434924434e+001
 3.462181210813938e+000	 1.566302428948173e+000	 1.088805808602334e+001
 3.445224170554475e+000	 1.603256892997708e+000	 1.091580209599993e+001
 3.427839446050156e+000	 1.640097288430126e+000	 1.094729964744601e+001
 3.410027733937825e+000	 1.676816414380396e+000	 1.098082477956194e+001
 3.391789888343101e+000	 1.713407060150203e+000	 1.101462361079751e+001
 3.373126921802362e+000	 1.749862009413920e+000	 1.104692692910298e+001
 3.354040006052849e+000	 1.786174044474793e+000	 1.107596410469077e+001
 3.334530472688268e+000	 1.822335950566610e+000	 1.109997835900316e+001
 3.314599813677478e+000	 1.858340520196004e+000	 1.111687859135814e+001
 3.519332764660260e+000	 1.502549714386791e+000	 1.083641758099579e+001
 3.503119585620614e+000	 1.539971526386763e+000	 1.084917832684363e+001
 3.486474789714023e+000	 1.577292925784412e+000	 1.087007720329880e+001
 3.469398764580086e+000	 1.614506693473263e+000	 1.089730321758715e+001
 3.451892054208428e+000	 1.651605592143541e+000	 1.092898339864230e+001
 3.433955360124103e+000	 1.688582370402872e+000	 1.096319291824794e+001
 3.415589542446022e+000	 1.725429766956601e+000	 1.099796650513774e+001
 3.396795620815398e+000	 1.762140514843276e+000	 1.103131120317933e+001
 3.377574775191389e+000	 1.798707345720694e+000	 1.106122051859090e+001
 3.357928346511310e+000	 1.835122994197757e+000	 1.108568999404023e+001
 3.337857837212957e+000	 1.871380202207249e+000	 1.110273423948183e+001
 3.543855296257858e+000	 1.513019404329850e+000	 1.082305073595125e+001
 3.527529144611625e+000	 1.550701969611245e+000	 1.083354504457880e+001
 3.510768368613983e+000	 1.588283422620452e+000	 1.085324853998113e+001
 3.493573358605612e+000	 1.625756493948621e+000	 1.088016042091096e+001
 3.475944662366648e+000	 1.663113895856762e+000	 1.091220332397467e+001
 3.457882986310363e+000	 1.700348326425160e+000	 1.094723348002222e+001
 3.439389196548955e+000	 1.737452473762821e+000	 1.098305222527204e+001
 3.420464319828467e+000	 1.774419020272466e+000	 1.101741892308734e+001
 3.401109544329980e+000	 1.811240646966444e+000	 1.104806534597416e+001
 3.381326220334416e+000	 1.847910037828777e+000	 1.107271156005770e+001
 3.361115860748503e+000	 1.884419884218392e+000	 1.108908334603191e+001
 3.568377827855136e+000	 1.523489094272510e+000	 1.081092083885359e+001
 3.551938703602373e+000	 1.561432412835328e+000	 1.081947506205785e+001
 3.535061947513740e+000	 1.599273919456093e+000	 1.083829812070899e+001
 3.517747952630995e+000	 1.637006294423582e+000	 1.086518369839762e+001
 3.499997270524786e+000	 1.674622199569589e+000	 1.089783244296966e+001
 3.481810612496596e+000	 1.712114282447062e+000	 1.093386214377332e+001
 3.463188850651912e+000	 1.749475180568665e+000	 1.097081932953890e+001
 3.444133018841604e+000	 1.786697525701294e+000	 1.100619234787101e+001
 3.424644313468674e+000	 1.823773948211853e+000	 1.103742598081045e+001
 3.404724094157645e+000	 1.860697081459479e+000	 1.106193764338646e+001
 3.384373884284180e+000	 1.897459566229251e+000	 1.107713520353711e+001
 3.592900359451976e+000	 1.533958784214570e+000	 1.080053103780321e+001
 3.576348262592755e+000	 1.572162856058811e+000	 1.080759384682488e+001
 3.559355526413214e+000	 1.610264416291135e+000	 1.082595233842818e+001
 3.541922546656179e+000	 1.648256094897945e+000	 1.085317951231559e+001
 3.524049878682808e+000	 1.686130503281826e+000	 1.088673698633006e+001
 3.505738238682794e+000	 1.723880238468381e+000	 1.092398517864419e+001
 3.486988504754907e+000	 1.761497887373937e+000	 1.096219498057521e+001
 3.467801717854844e+000	 1.798976031129568e+000	 1.099856098634817e+001
 3.448179082607521e+000	 1.836307249456730e+000	 1.103021633942727e+001
 3.428121967981061e+000	 1.873484125089678e+000	 1.105424924726424e+001
 3.407631907820056e+000	 1.910499248239640e+000	 1.106772120747992e+001
 3.617422891048259e+000	 1.544428474155829e+000	 1.079239228994630e+001
 3.600757821582671e+000	 1.582893299281493e+000	 1.079852954802133e+001
 3.583649105312324e+000	 1.621254913125378e+000	 1.081693576145024e+001
 3.566097140681105e+000	 1.659505895371513e+000	 1.084494861504447e+001
 3.548102486840681e+000	 1.697638806993271e+000	 1.087977420971761e+001
 3.529665864868949e+000	 1.735646194488917e+000	 1.091849723214405e+001
 3.510788158857956e+000	 1.773520594178442e+000	 1.095809268910412e+001
 3.491470416868223e+000	 1.811254536557092e+000	 1.099543927847220e+001
 3.471713851746570e+000	 1.848840550700881e+000	 1.102733446191259e+001
 3.451519841804725e+000	 1.886271168719184e+000	 1.105051129633508e+001
 3.430889931356198e+000	 1.923538930249378e+000	 1.106165707202916e+001
 3.198309695998757e+000	 1.793142110144684e+000	 1.116591256123478e+001
 3.178670556813624e+000	 1.827729904041205e+000	 1.117003704125954e+001
 3.158628293608679e+000	 1.862151961492185e+000	 1.117093252216366e+001
 3.138184815363838e+000	 1.896401373359606e+000	 1.116515318418685e+001
 3.117342186515054e+000	 1.930471254663603e+000	 1.114921738934267e+001
 3.096102626762256e+000	 1.964354748895379e+000	 1.111964550325366e+001
 3.074468510735240e+000	 1.998045032338640e+000	 1.107299965696936e+001
 3.052442367516636e+000	 2.031535318394142e+000	 1.102699364299266e+001
 3.030026880021336e+000	 2.064818861901898e+000	 1.100517486254801e+001
 3.007224884231966e+000	 2.097888963455511e+000	 1.100504860382933e+001
 2.984039368290266e+000	 2.130738973703105e+000	 1.102397368635611e+001
 3.221567719534899e+000	 1.806181792153683e+000	 1.116043867082878e+001
 3.201785765048789e+000	 1.841021107572606e+000	 1.116579645064319e+001
 3.181597755035698e+000	 1.875693481314890e+000	 1.116614567623898e+001
 3.161005612357593e+000	 1.910191953999462e+000	 1.115788863624388e+001
 3.140011416462942e+000	 1.944509590579075e+000	 1.113738364208877e+001
 3.118617403193275e+000	 1.978639484684598e+000	 1.110098447717446e+001
 3.096825964446625e+000	 2.012574762977862e+000	 1.104834800235243e+001
 3.074639647697041e+000	 2.046308589507667e+000	 1.101099346355601e+001
 3.052061155369497e+000	 2.079834170063415e+000	 1.099563012941949e+001
 3.029093344069806e+000	 2.113144756520817e+000	 1.099958751172465e+001
 3.005739223669391e+000	 2.146233651174094e+000	 1.102012642487405e+001
 3.244825743070775e+000	 1.819221474163497e+000	 1.115236580965047e+001
 3.224900973283702e+000	 1.854312311104829e+000	 1.115870231609472e+001
 3.204567216462507e+000	 1.889235001138423e+000	 1.115809990345940e+001
 3.183826409351194e+000	 1.923982534640148e+000	 1.114683021251593e+001
 3.162680646410756e+000	 1.958547926495382e+000	 1.112111387643280e+001
 3.141132179624304e+000	 1.992924220474648e+000	 1.107716162087595e+001
 3.119183418158108e+000	 2.027104493617908e+000	 1.102617377773450e+001
 3.096836927877633e+000	 2.061081860622007e+000	 1.099657371788149e+001
 3.074095430717927e+000	 2.094849478225728e+000	 1.098671264177158e+001
 3.050961803907982e+000	 2.128400549586891e+000	 1.099385819339596e+001
 3.027439079048901e+000	 2.161728328645818e+000	 1.101520842937310e+001
 3.268083766606454e+000	 1.832261156173944e+000	 1.114212911774040e+001
 3.248016181518426e+000	 1.867603514637696e+000	 1.114912108006748e+001
 3.227536677889154e+000	 1.902776520962612e+000	 1.114711874088540e+001
 3.206647206344684e+000	 1.937773115281502e+000	 1.113228356410617e+001
 3.185349876358512e+000	 1.972586262412363e+000	 1.110072005600686e+001
 3.163646956055338e+000	 2.007208956265380e+000	 1.104954534495710e+001
 3.141540871869665e+000	 2.041634224258642e+000	 1.100655771735687e+001
 3.119034208058361e+000	 2.075855131737030e+000	 1.098378445704879e+001
 3.096129706066546e+000	 2.109864786388716e+000	 1.097854266926956e+001
 3.072830263746392e+000	 2.143656342653623e+000	 1.098807123389552e+001
 3.049138934428674e+000	 2.177223006118176e+000	 1.100953991060183e+001
 3.291341790142000e+000	 1.845300838184841e+000	 1.113015843233173e+001
 3.271131389753024e+000	 1.880894718171027e+000	 1.113741760584088e+001
 3.250506139315697e+000	 1.916318040787283e+000	 1.113352730175823e+001
 3.229468003338097e+000	 1.951563695923357e+000	 1.111455851294887e+001
 3.208019106306228e+000	 1.986624598329864e+000	 1.107652035688490e+001
 3.186161732486373e+000	 2.021493692056648e+000	 1.102437999760254e+001
 3.163898325581261e+000	 2.056163954899922e+000	 1.098948432382073e+001
 3.141231488239165e+000	 2.090628402852606e+000	 1.097265838931031e+001
 3.118163981415277e+000	 2.124880094552258e+000	 1.097122143382497e+001
 3.094698723584940e+000	 2.158912135720905e+000	 1.098241592856419e+001
 3.070838789808597e+000	 2.192717683591068e+000	 1.100341702753879e+001
 3.314599813677478e+000	 1.858340520196004e+000	 1.111687859135814e+001
 3.294246597987558e+000	 1.894185921704647e+000	 1.112395546462316e+001
 3.273475600742184e+000	 1.929859560612265e+000	 1.111765257052597e+001
 3.252288800331470e+000	 1.965354276565549e+000	 1.109396937842603e+001
 3.230688336253921e+000	 2.000662934247727e+000	 1.104884779537501e+001
 3.208676508917402e+000	 2.035778427848301e+000	 1.100261267543755e+001
 3.186255779292868e+000	 2.070693685541607e+000	 1.097492209941404e+001
 3.163428768419997e+000	 2.105401673968605e+000	 1.096321114870442e+001
 3.140198256764044e+000	 2.139895402716236e+000	 1.096483147491491e+001
 3.116567183423525e+000	 2.174167928788625e+000	 1.097706076333937e+001
 3.092538645188554e+000	 2.208212361064393e+000	 1.099711250023151e+001
 3.337857837212957e+000	 1.871380202207249e+000	 1.110273423948183e+001
 3.317361806222093e+000	 1.907477125238375e+000	 1.110909724824596e+001
 3.296445062168671e+000	 1.943401080437388e+000	 1.109982372549094e+001
 3.275109597324840e+000	 1.979144857207913e+000	 1.107083533268792e+001
 3.253357566201609e+000	 2.014701270165795e+000	 1.102198682020311e+001
 3.231191285348421e+000	 2.050063163640193e+000	 1.098416991889337e+001
 3.208613233004459e+000	 2.085223416183562e+000	 1.096282376352031e+001
 3.185626048600800e+000	 2.120174945084899e+000	 1.095544158769832e+001
 3.162232532112769e+000	 2.154910710880527e+000	 1.095943703564164e+001
 3.138435643262050e+000	 2.189423721856673e+000	 1.097215391172124e+001
 3.114238500568428e+000	 2.223707038538050e+000	 1.099087623444687e+001
 3.361115860748503e+000	 1.884419884218392e+000	 1.108908334603191e+001
 3.340477014456691e+000	 1.920768328772035e+000	 1.109328529782551e+001
 3.319414523595212e+000	 1.956942600262478e+000	 1.108037248774135e+001
 3.297930394318245e+000	 1.992935437850285e+000	 1.104548078328693e+001
 3.276026796149310e+000	 2.028739606083914e+000	 1.099926307704340e+001
 3.253706061779425e+000	 2.064347899432174e+000	 1.096896314153514e+001
 3.230970686716002e+000	 2.099753146825645e+000	 1.095312649524087e+001
 3.207823328781521e+000	 2.134948216201357e+000	 1.094933209269539e+001
 3.184266807461373e+000	 2.169926019045013e+000	 1.095508446852680e+001
 3.160304103100417e+000	 2.204679514924937e+000	 1.096782374758910e+001
 3.135938355948102e+000	 2.239201716011940e+000	 1.098493595756105e+001
 3.384373884284180e+000	 1.897459566229251e+000	 1.107713520353711e+001
 3.363592222691413e+000	 1.934059532305448e+000	 1.107819498642903e+001
 3.342383985021857e+000	 1.970484120087366e+000	 1.105979420965949e+001
 3.320751191311725e+000	 2.006726018492501e+000	 1.101901802045880e+001
 3.298696026097039e+000	 2.042777942001923e+000	 1.098056725584968e+001
 3.276220838210407e+000	 2.078632635224096e+000	 1.095688884331517e+001
 3.253328140427467e+000	 2.114282877467717e+000	 1.094575220001712e+001
 3.230020608962105e+000	 2.149721487317850e+000	 1.094484892130770e+001
 3.206301082809781e+000	 2.184941327209573e+000	 1.095180266009150e+001
 3.182172562938526e+000	 2.219935307993310e+000	 1.096417937310599e+001
 3.157638211327462e+000	 2.254696393485963e+000	 1.097949786514782e+001
 3.407631907820056e+000	 1.910499248239640e+000	 1.106772120747992e+001
 3.386707430926326e+000	 1.947350735838436e+000	 1.106497312194490e+001
 3.365353446448659e+000	 1.984025639911878e+000	 1.104007964551585e+001
 3.343571988305312e+000	 2.020516599134396e+000	 1.099679186855985e+001
 3.321365256044816e+000	 2.056816277919669e+000	 1.096577518814135e+001
 3.298735614641365e+000	 2.092917371015812e+000	 1.094782884807601e+001
 3.275685594138827e+000	 2.128812608109640e+000	 1.094060779910699e+001
 3.252217889142500e+000	 2.164494758434246e+000	 1.094194256035374e+001
 3.228335358157913e+000	 2.199956635374086e+000	 1.094960347332472e+001
 3.204041022776280e+000	 2.235191101061679e+000	 1.096131116099079e+001
 3.179338066706392e+000	 2.270191070960018e+000	 1.097474727775468e+001
 3.430889931356198e+000	 1.923538930249378e+000	 1.106165707202916e+001
 3.409822639161488e+000	 1.960641939370820e+000	 1.105438930420461e+001
 3.388322907875672e+000	 1.997567159735842e+000	 1.102232377136996e+001
 3.366392785299044e+000	 2.034307179775804e+000	 1.098150928769535e+001
 3.344034485992657e+000	 2.070854613836993e+000	 1.095505940968362e+001
 3.321250391072290e+000	 2.107202106807173e+000	 1.094165056415350e+001
 3.298043047850050e+000	 2.143342338751271e+000	 1.093758554083036e+001
 3.274415169322649e+000	 2.179268029550415e+000	 1.094054810359779e+001
 3.250369633505694e+000	 2.214971943538432e+000	 1.094848220719084e+001
 3.225909482613576e+000	 2.250446894129934e+000	 1.095929131047552e+001
 3.201037922084772e+000	 2.285685748434004e+000	 1.097084930738294e+001
 2.984039368290266e+000	 2.130738973703105e+000	 1.102397368635612e+001
 2.960473470602511e+000	 2.163362296908118e+000	 1.104836034535887e+001
 2.936530476140903e+000	 2.195752392999228e+000	 1.106649518193446e+001
 2.912213817674248e+000	 2.227902783885794e+000	 1.107857771564523e+001
 2.887527075140474e+000	 2.259807058363652e+000	 1.108490600155127e+001
 2.862473974030363e+000	 2.291458876269918e+000	 1.108588101749832e+001
 2.837058383631288e+000	 2.322851972591213e+000	 1.108201075090310e+001
 2.811284315132539e+000	 2.353980161519819e+000	 1.107391393911839e+001
 2.785155919594004e+000	 2.384837340452332e+000	 1.106232341897506e+001
 2.758677485780279e+000	 2.415417493925475e+000	 1.104808904300456e+001
 2.731853437862469e+000	 2.445714697483801e+000	 1.103218012213339e+001
 3.005739223669391e+000	 2.146233651174094e+000	 1.102012642487405e+001
 2.982001955396933e+000	 2.179094210322679e+000	 1.104452535881588e+001
 2.957884848112856e+000	 2.211719846336016e+000	 1.106210487347759e+001
 2.933391359548965e+000	 2.244104034014960e+000	 1.107321902890799e+001
 2.908525095676397e+000	 2.276240315533232e+000	 1.107832766262538e+001
 2.883289809077596e+000	 2.308122304622443e+000	 1.107800078284187e+001
 2.857689397177288e+000	 2.339743690710203e+000	 1.107292264190397e+001
 2.831727900334018e+000	 2.371098243005754e+000	 1.106389544220915e+001
 2.805409499794067e+000	 2.402179814527716e+000	 1.105184262846776e+001
 2.778738515509805e+000	 2.432982346068520e+000	 1.103781172219946e+001
 2.751719403824789e+000	 2.463499870090225e+000	 1.102297665677059e+001
 3.027439079048901e+000	 2.161728328645818e+000	 1.101520842937310e+001
 3.003530440191761e+000	 2.194826123737928e+000	 1.103898341176402e+001
 2.979239220085216e+000	 2.227687299673442e+000	 1.105556735718221e+001
 2.954568901424073e+000	 2.260305284144704e+000	 1.106543867327834e+001
 2.929523116212681e+000	 2.292673572703324e+000	 1.106918747033334e+001
 2.904105644125149e+000	 2.324785732975416e+000	 1.106752002255536e+001
 2.878320410723559e+000	 2.356635408829572e+000	 1.106126289256249e+001
 2.852171485535715e+000	 2.388216324492002e+000	 1.105136666929881e+001
 2.825663079994292e+000	 2.419522288603349e+000	 1.103890927133128e+001
 2.798799545239443e+000	 2.450547198211752e+000	 1.102509876960591e+001
 2.771585369787176e+000	 2.481285042696783e+000	 1.101127568628520e+001
 3.049138934428674e+000	 2.177223006118176e+000	 1.100953991060183e+001
 3.025058924986865e+000	 2.210558037153778e+000	 1.103216422934312e+001
 3.000593592057848e+000	 2.243654753011425e+000	 1.104740324874230e+001
 2.975746443299435e+000	 2.276506534274954e+000	 1.105583010810559e+001
 2.950521136749184e+000	 2.309106829873869e+000	 1.105813427848241e+001
 2.924921479172883e+000	 2.341449161328783e+000	 1.105512615409269e+001
 2.898951424269965e+000	 2.373527126949274e+000	 1.104774129211758e+001
 2.872615070737500e+000	 2.405334405978519e+000	 1.103704424889410e+001
 2.845916660194561e+000	 2.436864762679191e+000	 1.102423196234600e+001
 2.818860574969084e+000	 2.468112050355137e+000	 1.101063663271900e+001
 2.791451335749533e+000	 2.499070215303443e+000	 1.099772805635779e+001
 3.070838789808597e+000	 2.192717683591068e+000	 1.100341702753879e+001
 3.046587409782116e+000	 2.226289950570137e+000	 1.102447074647608e+001
 3.021947964030613e+000	 2.259622206349883e+000	 1.103810417689077e+001
 2.996923985174902e+000	 2.292707784405640e+000	 1.104495612935408e+001
 2.971519157285764e+000	 2.325540087044802e+000	 1.104578509955175e+001
 2.945737314220657e+000	 2.358112589682488e+000	 1.104147405185246e+001
 2.919582437816374e+000	 2.390418845069261e+000	 1.103303483857793e+001
 2.893058655939246e+000	 2.422452487465266e+000	 1.102161220061773e+001
 2.866170240394755e+000	 2.454207236755210e+000	 1.100848729690628e+001
 2.838921604698616e+000	 2.485676902498641e+000	 1.099508071261988e+001
 2.811317301711755e+000	 2.516855387910169e+000	 1.098295489874517e+001
 3.092538645188554e+000	 2.208212361064393e+000	 1.099711250023151e+001
 3.068115894577388e+000	 2.242021863986914e+000	 1.101627985156085e+001
 3.043302336003374e+000	 2.275589659688736e+000	 1.102813363795061e+001
 3.018101527050339e+000	 2.308909034536690e+000	 1.103334981563402e+001
 2.992517177822280e+000	 2.341973344216064e+000	 1.103272612346167e+001
 2.966553149268331e+000	 2.374776018036477e+000	 1.102718712059959e+001
 2.940213451362647e+000	 2.407310563189484e+000	 1.101778884938789e+001
 2.913502241140828e+000	 2.439570568952202e+000	 1.100572306640751e+001
 2.886423820594753e+000	 2.471549710831363e+000	 1.099232098675756e+001
 2.858982634427930e+000	 2.503241754642231e+000	 1.097905648899019e+001
 2.831183267673744e+000	 2.534640560516928e+000	 1.096754873106389e+001
 3.114238500568428e+000	 2.223707038538050e+000	 1.099087623444687e+001
 3.089644379372549e+000	 2.257753777404020e+000	 1.100794313716596e+001
 3.064656707975995e+000	 2.291557113027905e+000	 1.101792785338301e+001
 3.039279068925602e+000	 2.325110284668035e+000	 1.102151547399921e+001
 3.013515198358589e+000	 2.358406601387590e+000	 1.101951373362385e+001
 2.987368984315768e+000	 2.391439446390696e+000	 1.101285836440059e+001
 2.960844464908652e+000	 2.424202281309898e+000	 1.100261806652789e+001
 2.933945826342113e+000	 2.456688650439283e+000	 1.098999903572783e+001
 2.906677400794436e+000	 2.488892184907616e+000	 1.097634898995033e+001
 2.879043664156916e+000	 2.520806606785870e+000	 1.096316064014298e+001
 2.851049233635401e+000	 2.552425733123689e+000	 1.095207455295208e+001
 3.135938355948102e+000	 2.239201716011940e+000	 1.098493595756105e+001
 3.111172864167472e+000	 2.273485690821364e+000	 1.099978765738985e+001
 3.086011079948337e+000	 2.307524566367307e+000	 1.100789663018823e+001
 3.060456610800552e+000	 2.341311534799600e+000	 1.100992958552110e+001
 3.034513218894551e+000	 2.374839858559317e+000	 1.100667552040396e+001
 3.008184819362824e+000	 2.408102874745090e+000	 1.099905145128997e+001
 2.981475478454253e+000	 2.441093999430454e+000	 1.098810775631841e+001
 2.954389411542977e+000	 2.473806731926469e+000	 1.097503306508376e+001
 2.926930980993685e+000	 2.506234658983931e+000	 1.096115863529186e+001
 2.899104693885465e+000	 2.538371458929527e+000	 1.094796215831139e+001
 2.870915199596624e+000	 2.570210905730416e+000	 1.093707093878504e+001
 3.157638211327462e+000	 2.254696393485963e+000	 1.097949786514782e+001
 3.132701348962026e+000	 2.289217604238856e+000	 1.099211669156425e+001
 3.107365451920266e+000	 2.323492019706863e+000	 1.099842422402070e+001
 3.081634152675045e+000	 2.357512784931316e+000	 1.099904175065154e+001
 3.055511239430021e+000	 2.391273115731184e+000	 1.099471129212195e+001
 3.029000654409364e+000	 2.424766303099606e+000	 1.098630177387276e+001
 3.002106491999318e+000	 2.457985717551106e+000	 1.097481480418307e+001
 2.974832996743292e+000	 2.490924813413718e+000	 1.096138999211201e+001
 2.947184561192381e+000	 2.523577133060271e+000	 1.094730974155959e+001
 2.919165723613464e+000	 2.555936311073164e+000	 1.093400346042415e+001
 2.890781165557315e+000	 2.587996078337078e+000	 1.092305112711003e+001
 3.179338066706392e+000	 2.270191070960018e+000	 1.097474727775468e+001
 3.154229833756086e+000	 2.304949517656405e+000	 1.098521051399757e+001
 3.128719823891644e+000	 2.339459473046494e+000	 1.098987020488969e+001
 3.102811694548940e+000	 2.373714035063113e+000	 1.098927563438283e+001
 3.076509259964860e+000	 2.407706372903129e+000	 1.098409408370661e+001
 3.049816489455246e+000	 2.441429731454187e+000	 1.097511750605786e+001
 3.022737505543708e+000	 2.474877435671805e+000	 1.096326880461102e+001
 2.995276581942927e+000	 2.508042894900989e+000	 1.094960764450729e+001
 2.967438141390402e+000	 2.540919607136599e+000	 1.093533573172705e+001
 2.939226753340806e+000	 2.573501163216749e+000	 1.092180149458167e+001
 2.910647131517372e+000	 2.605781250943639e+000	 1.091050410695747e+001
 3.201037922084772e+000	 2.285685748434004e+000	 1.097084930738294e+001
 3.175758318549517e+000	 2.320681431073920e+000	 1.097932716947260e+001
 3.150074195862331e+000	 2.355426926386116e+000	 1.098257032532267e+001
 3.123989236422097e+000	 2.389915285194917e+000	 1.098102991121616e+001
 3.097507280498922e+000	 2.424139630075088e+000	 1.097527116311667e+001
 3.070632324500330e+000	 2.458093159808781e+000	 1.096598065610524e+001
 3.043368519087291e+000	 2.491769153792504e+000	 1.095397314654678e+001
 3.015720167141756e+000	 2.525160976388238e+000	 1.094019794402993e+001
 2.987691721587631e+000	 2.558262081212876e+000	 1.092574474243868e+001
 2.959287783067377e+000	 2.591066015360246e+000	 1.091184884243880e+001
 2.930513097476696e+000	 2.623566423550066e+000	 1.089989570117633e+001
 2.731853437862469e+000	 2.445714697483801e+000	 1.103218012213339e+001
 2.704692433297279e+000	 2.475718642763606e+000	 1.101218128445366e+001
 2.677195161938863e+000	 2.505428168867732e+000	 1.098490616697285e+001
 2.649366439270082e+000	 2.534837651707582e+000	 1.095148690808861e+001
 2.621211205591807e+000	 2.563941572878231e+000	 1.091642212697070e+001
 2.592734523104852e+000	 2.592734523104852e+000	 1.088034758864755e+001
 2.563941572878231e+000	 2.621211205591807e+000	 1.084341237483707e+001
 2.534837651707581e+000	 2.649366439270081e+000	 1.080572304910416e+001
 2.505428168867732e+000	 2.677195161938863e+000	 1.076800606282531e+001
 2.475718642763605e+000	 2.704692433297279e+000	 1.073676644149386e+001
 2.445714697483802e+000	 2.731853437862469e+000	 1.071339524744346e+001
 2.751719403824789e+000	 2.463499870090225e+000	 1.102297665677059e+001
 2.724360885152517e+000	 2.493722003266977e+000	 1.100486997076846e+001
 2.696663654363745e+000	 2.523647576259597e+000	 1.097998695008551e+001
 2.668632561959409e+000	 2.553270924081258e+000	 1.094812723872364e+001
 2.640272584166119e+000	 2.582586488197333e+000	 1.091177316798253e+001
 2.611588819996889e+000	 2.611588819996888e+000	 1.087429404392822e+001
 2.582586488197333e+000	 2.640272584166119e+000	 1.083571223689383e+001
 2.553270924081256e+000	 2.668632561959408e+000	 1.079601048464400e+001
 2.523647576259597e+000	 2.696663654363745e+000	 1.076018391108531e+001
 2.493722003266977e+000	 2.724360885152517e+000	 1.073180621863631e+001
 2.463499870090225e+000	 2.751719403824789e+000	 1.071033636670487e+001
 2.771585369787176e+000	 2.481285042696783e+000	 1.101127568628520e+001
 2.744029337007786e+000	 2.511725363770436e+000	 1.099484992958188e+001
 2.716132146788635e+000	 2.541866983651511e+000	 1.097197627369139e+001
 2.687898684648724e+000	 2.571704196454953e+000	 1.094229861428718e+001
 2.659333962740416e+000	 2.601231403516437e+000	 1.090576483819848e+001
 2.630443116888912e+000	 2.630443116888912e+000	 1.086632802039557e+001
 2.601231403516437e+000	 2.659333962740415e+000	 1.082551943375131e+001
 2.571704196454952e+000	 2.687898684648725e+000	 1.078571394985818e+001
 2.541866983651512e+000	 2.716132146788636e+000	 1.075291942131149e+001
 2.511725363770435e+000	 2.744029337007786e+000	 1.072690224797694e+001
 2.481285042696783e+000	 2.771585369787176e+000	 1.070696049765089e+001
 2.791451335749533e+000	 2.499070215303443e+000	 1.099772805635779e+001
 2.763697788862998e+000	 2.529728724273948e+000	 1.098273401841975e+001
 2.735600639213451e+000	 2.560086391043440e+000	 1.096145663365322e+001
 2.707164807337962e+000	 2.590137468828627e+000	 1.093341769047256e+001
 2.678395341314634e+000	 2.619876318835490e+000	 1.089824965659176e+001
 2.649297413780869e+000	 2.649297413780869e+000	 1.085674993992431e+001
 2.619876318835491e+000	 2.678395341314634e+000	 1.081385893166523e+001
 2.590137468828628e+000	 2.707164807337962e+000	 1.077664192549936e+001
 2.560086391043440e+000	 2.735600639213451e+000	 1.074627860494413e+001
 2.529728724273947e+000	 2.763697788862998e+000	 1.072211552476736e+001
 2.499070215303442e+000	 2.791451335749532e+000	 1.070332573249788e+001
 2.811317301711755e+000	 2.516855387910169e+000	 1.098295489874517e+001
 2.783366240718062e+000	 2.547732084777479e+000	 1.096910675722621e+001
 2.755069131638113e+000	 2.578305798435343e+000	 1.094898332245346e+001
 2.726430930027048e+000	 2.608570741202241e+000	 1.092201713447743e+001
 2.697456719888714e+000	 2.638521234154451e+000	 1.088775390855335e+001
 2.668151710672706e+000	 2.668151710672706e+000	 1.084586739487842e+001
 2.638521234154452e+000	 2.697456719888714e+000	 1.080387815600459e+001
 2.608570741202240e+000	 2.726430930027047e+000	 1.076888188872876e+001
 2.578305798435343e+000	 2.755069131638112e+000	 1.074034131681983e+001
 2.547732084777478e+000	 2.783366240718062e+000	 1.071752127232623e+001
 2.516855387910169e+000	 2.811317301711755e+000	 1.069950480671924e+001
 2.831183267673744e+000	 2.534640560516928e+000	 1.096754873106389e+001
 2.803034692572887e+000	 2.565735445280995e+000	 1.095452539940105e+001
 2.774537624062540e+000	 2.596525205827184e+000	 1.093508547793585e+001
 2.745697052715913e+000	 2.627004013575751e+000	 1.090860435429141e+001
 2.716518098462591e+000	 2.657166149473270e+000	 1.087457370576001e+001
 2.687006007564368e+000	 2.687006007564368e+000	 1.083478557607392e+001
 2.657166149473270e+000	 2.716518098462591e+000	 1.079599013037021e+001
 2.627004013575750e+000	 2.745697052715913e+000	 1.076253292651887e+001
 2.596525205827185e+000	 2.774537624062540e+000	 1.073519941168460e+001
 2.565735445280996e+000	 2.803034692572888e+000	 1.071320711972579e+001
 2.534640560516928e+000	 2.831183267673744e+000	 1.069558330119063e+001
 2.851049233635401e+000	 2.552425733123689e+000	 1.095207455295208e+001
 2.822703144427385e+000	 2.583738805784463e+000	 1.093952100067880e+001
 2.794006116486655e+000	 2.614744613218929e+000	 1.092026713103711e+001
 2.764963175404485e+000	 2.645437285949114e+000	 1.089366253068453e+001
 2.735579477036205e+000	 2.675811064791898e+000	 1.085960321795318e+001
 2.705860304455802e+000	 2.705860304455801e+000	 1.082438970625136e+001
 2.675811064791898e+000	 2.735579477036205e+000	 1.079004989921552e+001
 2.645437285949114e+000	 2.764963175404485e+000	 1.075770387620965e+001
 2.614744613218929e+000	 2.794006116486654e+000	 1.073095490173003e+001
 2.583738805784463e+000	 2.822703144427385e+000	 1.070927128033043e+001
 2.552425733123689e+000	 2.851049233635401e+000	 1.069165784495704e+001
 2.870915199596624e+000	 2.570210905730416e+000	 1.093707093878504e+001
 2.842371596281464e+000	 2.601742166287846e+000	 1.092459948595377e+001
 2.813474608910373e+000	 2.632964020610537e+000	 1.090500825255740e+001
 2.784229298092693e+000	 2.663870558322291e+000	 1.087765164905609e+001
 2.754640855609494e+000	 2.694455980110292e+000	 1.084590277416558e+001
 2.724714601346952e+000	 2.724714601346950e+000	 1.081494961685143e+001
 2.694455980110293e+000	 2.754640855609494e+000	 1.078457346977824e+001
 2.663870558322291e+000	 2.784229298092693e+000	 1.075451146711261e+001
 2.632964020610537e+000	 2.813474608910373e+000	 1.072771811510236e+001
 2.601742166287846e+000	 2.842371596281464e+000	 1.070582073114569e+001
 2.570210905730416e+000	 2.870915199596625e+000	 1.068783431859191e+001
 2.890781165557315e+000	 2.587996078337078e+000	 1.092305112711003e+001
 2.862040048135035e+000	 2.619745526791112e+000	 1.091024271415061e+001
 2.832943101333616e+000	 2.651183428001972e+000	 1.088976579901510e+001
 2.803495420780467e+000	 2.682303830695239e+000	 1.086219919525445e+001
 2.773702234182394e+000	 2.713100895428402e+000	 1.083420289875385e+001
 2.743568898237764e+000	 2.743568898237764e+000	 1.080672011710668e+001
 2.713100895428401e+000	 2.773702234182393e+000	 1.077952289050592e+001
 2.682303830695240e+000	 2.803495420780468e+000	 1.075235321521385e+001
 2.651183428001973e+000	 2.832943101333616e+000	 1.072560585533775e+001
 2.619745526791112e+000	 2.862040048135035e+000	 1.070296939293912e+001
 2.587996078337078e+000	 2.890781165557315e+000	 1.068422605811943e+001
 2.910647131517372e+000	 2.605781250943639e+000	 1.091050410695747e+001
 2.881708499988006e+000	 2.637748887294224e+000	 1.089690954123283e+001
 2.852411593756304e+000	 2.669402835393198e+000	 1.087500910966335e+001
 2.822761543467736e+000	 2.700737103067920e+000	 1.084971799454058e+001
 2.792763612754842e+000	 2.731745810746180e+000	 1.082474454416220e+001
 2.762423195128184e+000	 2.762423195128184e+000	 1.079994115179239e+001
 2.731745810746180e+000	 2.792763612754843e+000	 1.077514136873158e+001
 2.700737103067920e+000	 2.822761543467736e+000	 1.075014759467179e+001
 2.669402835393198e+000	 2.852411593756304e+000	 1.072471892812217e+001
 2.637748887294224e+000	 2.881708499988007e+000	 1.070083631109549e+001
 2.605781250943640e+000	 2.910647131517372e+000	 1.068095205947351e+001
 2.930513097476696e+000	 2.623566423550066e+000	 1.089989570117632e+001
 2.901376951840289e+000	 2.655752247797149e+000	 1.088503688143852e+001
 2.871880086178356e+000	 2.687622242784177e+000	 1.086307058061164e+001
 2.842027666154427e+000	 2.719170375440287e+000	 1.084047943537671e+001
 2.811824991326779e+000	 2.750390726063579e+000	 1.081775374846923e+001
 2.781277492018158e+000	 2.781277492018158e+000	 1.079483795967954e+001
 2.750390726063578e+000	 2.811824991326778e+000	 1.077165751424077e+001
 2.719170375440287e+000	 2.842027666154426e+000	 1.074810581685421e+001
 2.687622242784177e+000	 2.871880086178356e+000	 1.072403135048218e+001
 2.655752247797149e+000	 2.901376951840288e+000	 1.069954383717238e+001
 2.623566423550066e+000	 2.930513097476694e+000	 1.067813518346760e+001
 2.445714697483802e+000	 2.731853437862469e+000	 1.071339524744346e+001
 2.415417493925476e+000	 2.758677485780278e+000	 1.069204012697290e+001
 2.384837340452332e+000	 2.785155919594005e+000	 1.066767945471939e+001
 2.353980161519820e+000	 2.811284315132540e+000	 1.064100128158014e+001
 2.322851972591212e+000	 2.837058383631288e+000	 1.061256967228694e+001
 2.291458876269918e+000	 2.862473974030362e+000	 1.058283292275998e+001
 2.259807058363652e+000	 2.887527075140474e+000	 1.055213237604938e+001
 2.227902783885794e+000	 2.912213817674249e+000	 1.052071173834389e+001
 2.195752392999227e+000	 2.936530476140903e+000	 1.048872679388695e+001
 2.163362296908118e+000	 2.960473470602511e+000	 1.045625541589895e+001
 2.130738973703105e+000	 2.984039368290266e+000	 1.042330776976784e+001
 2.463499870090225e+000	 2.751719403824789e+000	 1.071033636670486e+001
 2.432982346068520e+000	 2.778738515509805e+000	 1.068975401656686e+001
 2.402179814527717e+000	 2.805409499794068e+000	 1.066518507497407e+001
 2.371098243005754e+000	 2.831727900334018e+000	 1.063758584082675e+001
 2.339743690710204e+000	 2.857689397177288e+000	 1.060778500269346e+001
 2.308122304622443e+000	 2.883289809077596e+000	 1.057649191877647e+001
 2.276240315533231e+000	 2.908525095676397e+000	 1.054430552293386e+001
 2.244104034014959e+000	 2.933391359548965e+000	 1.051172375409553e+001
 2.211719846336016e+000	 2.957884848112856e+000	 1.047915340363331e+001
 2.179094210322679e+000	 2.982001955396933e+000	 1.044692027340453e+001
 2.146233651174095e+000	 3.005739223669392e+000	 1.041527953629444e+001
 2.481285042696783e+000	 2.771585369787176e+000	 1.070696049765089e+001
 2.450547198211751e+000	 2.798799545239443e+000	 1.068695056049131e+001
 2.419522288603349e+000	 2.825663079994292e+000	 1.066213682588010e+001
 2.388216324492002e+000	 2.852171485535715e+000	 1.063369957401326e+001
 2.356635408829572e+000	 2.878320410723559e+000	 1.060268785130887e+001
 2.324785732975417e+000	 2.904105644125149e+000	 1.057002791445330e+001
 2.292673572703324e+000	 2.929523116212680e+000	 1.053653232833949e+001
 2.260305284144704e+000	 2.954568901424074e+000	 1.050290961072953e+001
 2.227687299673442e+000	 2.979239220085217e+000	 1.046977431355425e+001
 2.194826123737930e+000	 3.003530440191762e+000	 1.043765742882438e+001
 2.161728328645818e+000	 3.027439079048901e+000	 1.040701700617653e+001
 2.499070215303442e+000	 2.791451335749532e+000	 1.070332573249788e+001
 2.468112050355138e+000	 2.818860574969083e+000	 1.068368612572697e+001
 2.436864762679192e+000	 2.845916660194561e+000	 1.065859072570180e+001
 2.405334405978519e+000	 2.872615070737500e+000	 1.062940034254265e+001
 2.373527126949274e+000	 2.898951424269965e+000	 1.059734091779254e+001
 2.341449161328784e+000	 2.924921479172883e+000	 1.056351223409514e+001
 2.309106829873869e+000	 2.950521136749184e+000	 1.052889730702010e+001
 2.276506534274954e+000	 2.975746443299434e+000	 1.049437234699221e+001
 2.243654753011425e+000	 3.000593592057848e+000	 1.046071717621967e+001
 2.210558037153777e+000	 3.025058924986865e+000	 1.042862598347845e+001
 2.177223006118176e+000	 3.049138934428674e+000	 1.039871829860463e+001
 2.516855387910169e+000	 2.811317301711755e+000	 1.069950480671924e+001
 2.485676902498641e+000	 2.838921604698616e+000	 1.068003218848051e+001
 2.454207236755210e+000	 2.866170240394754e+000	 1.065461840615295e+001
 2.422452487465267e+000	 2.893058655939247e+000	 1.062476213326905e+001
 2.390418845069261e+000	 2.919582437816373e+000	 1.059182351638114e+001
 2.358112589682489e+000	 2.945737314220657e+000	 1.055703325205483e+001
 2.325540087044803e+000	 2.971519157285764e+000	 1.052150237473628e+001
 2.292707784405640e+000	 2.996923985174902e+000	 1.048623263820069e+001
 2.259622206349883e+000	 3.021947964030614e+000	 1.045212737008289e+001
 2.226289950570137e+000	 3.046587409782117e+000	 1.042000267685225e+001
 2.192717683591068e+000	 3.070838789808597e+000	 1.039059887553573e+001
 2.534640560516928e+000	 2.831183267673744e+000	 1.069558330119063e+001
 2.503241754642232e+000	 2.858982634427929e+000	 1.067607356318661e+001
 2.471549710831364e+000	 2.886423820594752e+000	 1.065030537088954e+001
 2.439570568952202e+000	 2.913502241140828e+000	 1.061987334997059e+001
 2.407310563189484e+000	 2.940213451362647e+000	 1.058622990468022e+001
 2.374776018036477e+000	 2.966553149268331e+000	 1.055069476402210e+001
 2.341973344216064e+000	 2.992517177822279e+000	 1.051446526805155e+001
 2.308909034536690e+000	 3.018101527050339e+000	 1.047862727137895e+001
 2.275589659688735e+000	 3.043302336003374e+000	 1.044416653760155e+001
 2.242021863986915e+000	 3.068115894577389e+000	 1.041198049614854e+001
 2.208212361064393e+000	 3.092538645188554e+000	 1.038289023191343e+001
 2.552425733123689e+000	 2.851049233635401e+000	 1.069165784495704e+001
 2.520806606785871e+000	 2.879043664156916e+000	 1.067190663187795e+001
 2.488892184907616e+000	 2.906677400794436e+000	 1.064574925407997e+001
 2.456688650439283e+000	 2.933945826342114e+000	 1.061483510453437e+001
 2.424202281309897e+000	 2.960844464908653e+000	 1.058066761168870e+001
 2.391439446390696e+000	 2.987368984315767e+000	 1.054461435691487e+001
 2.358406601387589e+000	 3.013515198358590e+000	 1.050791796191165e+001
 2.325110284668035e+000	 3.039279068925603e+000	 1.047170761713068e+001
 2.291557113027904e+000	 3.064656707975995e+000	 1.043701111878452e+001
 2.257753777404020e+000	 3.089644379372550e+000	 1.040476727965404e+001
 2.223707038538050e+000	 3.114238500568427e+000	 1.037583857775313e+001
 2.570210905730416e+000	 2.870915199596625e+000	 1.068783431859191e+001
 2.538371458929527e+000	 2.899104693885464e+000	 1.066763757390556e+001
 2.506234658983932e+000	 2.926930980993684e+000	 1.064105807904857e+001
 2.473806731926469e+000	 2.954389411542978e+000	 1.060975950786684e+001
 2.441093999430454e+000	 2.981475478454254e+000	 1.057525576509350e+001
 2.408102874745091e+000	 3.008184819362825e+000	 1.053892177744129e+001
 2.374839858559317e+000	 3.034513218894551e+000	 1.050200508511457e+001
 2.341311534799600e+000	 3.060456610800551e+000	 1.046563809840730e+001
 2.307524566367308e+000	 3.086011079948339e+000	 1.043085088038690e+001
 2.273485690821364e+000	 3.111172864167472e+000	 1.039858431421995e+001
 2.239201716011941e+000	 3.135938355948102e+000	 1.036970351248595e+001
 2.587996078337078e+000	 2.890781165557315e+000	 1.068422605811943e+001
 2.555936311073165e+000	 2.919165723613464e+000	 1.066338059599222e+001
 2.523577133060271e+000	 2.947184561192380e+000	 1.063634851698955e+001
 2.490924813413718e+000	 2.974832996743292e+000	 1.060476796054353e+001
 2.457985717551105e+000	 3.002106491999317e+000	 1.057012341786918e+001
 2.424766303099606e+000	 3.029000654409364e+000	 1.053375729939566e+001
 2.391273115731185e+000	 3.055511239430021e+000	 1.049688233377263e+001
 2.357512784931316e+000	 3.081634152675044e+000	 1.046059465632003e+001
 2.323492019706865e+000	 3.107365451920267e+000	 1.042588744096220e+001
 2.289217604238855e+000	 3.132701348962026e+000	 1.039366492713983e+001
 2.254696393485963e+000	 3.157638211327462e+000	 1.036475669193391e+001
 2.605781250943640e+000	 2.910647131517372e+000	 1.068095205947351e+001
 2.573501163216749e+000	 2.939226753340805e+000	 1.065925616260326e+001
 2.540919607136599e+000	 2.967438141390401e+000	 1.063174414574739e+001
 2.508042894900989e+000	 2.995276581942927e+000	 1.059998944320982e+001
 2.474877435671805e+000	 3.022737505543709e+000	 1.056540787421636e+001
 2.441429731454189e+000	 3.049816489455247e+000	 1.052927008974967e+001
 2.407706372903129e+000	 3.076509259964860e+000	 1.049271488286261e+001
 2.373714035063113e+000	 3.102811694548940e+000	 1.045676321313775e+001
 2.339459473046493e+000	 3.128719823891644e+000	 1.042233279196956e+001
 2.304949517656405e+000	 3.154229833756085e+000	 1.039025307269227e+001
 2.270191070960018e+000	 3.179338066706392e+000	 1.036128048826860e+001
 2.623566423550066e+000	 2.930513097476694e+000	 1.067813518346760e+001
 2.591066015360247e+000	 2.959287783067377e+000	 1.065538922661984e+001
 2.558262081212877e+000	 2.987691721587632e+000	 1.062737370866104e+001
 2.525160976388239e+000	 3.015720167141756e+000	 1.059555880674514e+001
 2.491769153792504e+000	 3.043368519087291e+000	 1.056125301486957e+001
 2.458093159808781e+000	 3.070632324500330e+000	 1.052561657359541e+001
 2.424139630075088e+000	 3.097507280498923e+000	 1.048967579595460e+001
 2.389915285194917e+000	 3.123989236422097e+000	 1.045433813260367e+001
 2.355426926386115e+000	 3.150074195862330e+000	 1.042040781512336e+001
 2.320681431073919e+000	 3.175758318549517e+000	 1.038860191360200e+001
 2.285685748434003e+000	 3.201037922084772e+000	 1.035956664328610e+001
 2.130738973703105e+000	 2.984039368290266e+000	 1.042330776976784e+001
 2.097888963455511e+000	 3.007224884231965e+000	 1.038728271596936e+001
 2.064818861901898e+000	 3.030026880021336e+000	 1.034334105508473e+001
 2.031535318394141e+000	 3.052442367516636e+000	 1.028811523711623e+001
 1.998045032338640e+000	 3.074468510735241e+000	 1.021833794379392e+001
 1.964354748895379e+000	 3.096102626762256e+000	 1.014932163881497e+001
 1.930471254663603e+000	 3.117342186515054e+000	 1.009253865444187e+001
 1.896401373359606e+000	 3.138184815363838e+000	 1.004449576358006e+001
 1.862151961492184e+000	 3.158628293608679e+000	 1.000168223631883e+001
 1.827729904041205e+000	 3.178670556813624e+000	 9.960630539293488e+000
 1.793142110144684e+000	 3.198309695998757e+000	 9.917973121518969e+000
 2.146233651174095e+000	 3.005739223669392e+000	 1.041527953629444e+001
 2.113144756520816e+000	 3.029093344069806e+000	 1.038217303474107e+001
 2.079834170063416e+000	 3.052061155369498e+000	 1.034304174056472e+001
 2.046308589507667e+000	 3.074639647697041e+000	 1.029436696039804e+001
 2.012574762977862e+000	 3.096825964446623e+000	 1.023267432395756e+001
 1.978639484684598e+000	 3.118617403193275e+000	 1.016117484014287e+001
 1.944509590579076e+000	 3.140011416462942e+000	 1.010095791254344e+001
 1.910191953999462e+000	 3.161005612357592e+000	 1.005065617085202e+001
 1.875693481314890e+000	 3.181597755035698e+000	 1.000657849329303e+001
 1.841021107572606e+000	 3.201785765048789e+000	 9.965089517486817e+000
 1.806181792153683e+000	 3.221567719534899e+000	 9.922669169795814e+000
 2.161728328645818e+000	 3.027439079048901e+000	 1.040701700617653e+001
 2.128400549586891e+000	 3.050961803907982e+000	 1.037630895761722e+001
 2.094849478225728e+000	 3.074095430717927e+000	 1.034127998487319e+001
 2.061081860622007e+000	 3.096836927877634e+000	 1.029830009412349e+001
 2.027104493617908e+000	 3.119183418158109e+000	 1.024378417086785e+001
 1.992924220474648e+000	 3.141132179624304e+000	 1.017492265583049e+001
 1.958547926495382e+000	 3.162680646410757e+000	 1.011041836179850e+001
 1.923982534640148e+000	 3.183826409351195e+000	 1.005702221727126e+001
 1.889235001138423e+000	 3.204567216462507e+000	 1.001089545017463e+001
 1.854312311104829e+000	 3.224900973283702e+000	 9.968267843093575e+000
 1.819221474163497e+000	 3.244825743070775e+000	 9.925500056668957e+000
 2.177223006118176e+000	 3.049138934428674e+000	 1.039871829860463e+001
 2.143656342653623e+000	 3.072830263746392e+000	 1.036992974662181e+001
 2.109864786388717e+000	 3.096129706066546e+000	 1.033833172113141e+001
 2.075855131737029e+000	 3.119034208058360e+000	 1.030022177468808e+001
 2.041634224258642e+000	 3.141540871869665e+000	 1.025194254529292e+001
 2.007208956265380e+000	 3.163646956055338e+000	 1.018989812175576e+001
 1.972586262412363e+000	 3.185349876358512e+000	 1.012100442965735e+001
 1.937773115281502e+000	 3.206647206344685e+000	 1.006368944668637e+001
 1.902776520962611e+000	 3.227536677889154e+000	 1.001472765424911e+001
 1.867603514637696e+000	 3.248016181518426e+000	 9.970245682737781e+000
 1.832261156173944e+000	 3.268083766606454e+000	 9.926516972650971e+000
 2.192717683591068e+000	 3.070838789808597e+000	 1.039059887553573e+001
 2.158912135720905e+000	 3.094698723584940e+000	 1.036329164733211e+001
 2.124880094552259e+000	 3.118163981415277e+000	 1.033448961937250e+001
 2.090628402852605e+000	 3.141231488239166e+000	 1.030045575941387e+001
 2.056163954899921e+000	 3.163898325581260e+000	 1.025749798670631e+001
 2.021493692056648e+000	 3.186161732486373e+000	 1.020198629385134e+001
 1.986624598329863e+000	 3.208019106306228e+000	 1.013280631341066e+001
 1.951563695923357e+000	 3.229468003338097e+000	 1.007076298010198e+001
 1.916318040787283e+000	 3.250506139315697e+000	 1.001818315787364e+001
 1.880894718171027e+000	 3.271131389753024e+000	 9.971120758492379e+000
 1.845300838184841e+000	 3.291341790142000e+000	 9.925792839183426e+000
 2.208212361064393e+000	 3.092538645188554e+000	 1.038289023191343e+001
 2.174167928788625e+000	 3.116567183423526e+000	 1.035666666366642e+001
 2.139895402716236e+000	 3.140198256764045e+000	 1.033006194331433e+001
 2.105401673968605e+000	 3.163428768419996e+000	 1.029934136179317e+001
 2.070693685541607e+000	 3.186255779292868e+000	 1.026081469731161e+001
 2.035778427848301e+000	 3.208676508917402e+000	 1.021085406256739e+001
 2.000662934247727e+000	 3.230688336253921e+000	 1.014591105122290e+001
 1.965354276565549e+000	 3.252288800331470e+000	 1.007835462236107e+001
 1.929859560612265e+000	 3.273475600742184e+000	 1.002138078280011e+001
 1.894185921704647e+000	 3.294246597987558e+000	 9.971005759310749e+000
 1.858340520196004e+000	 3.314599813677478e+000	 9.923419855550216e+000
 2.223707038538050e+000	 3.114238500568427e+000	 1.037583857775313e+001
 2.189423721856672e+000	 3.138435643262051e+000	 1.035034132246906e+001
 2.154910710880527e+000	 3.162232532112768e+000	 1.032537139501014e+001
 2.120174945084899e+000	 3.185626048600800e+000	 1.029723237287466e+001
 2.085223416183562e+000	 3.208613233004459e+000	 1.026227153594417e+001
 2.050063163640193e+000	 3.231191285348421e+000	 1.021689840986416e+001
 2.014701270165795e+000	 3.253357566201609e+000	 1.015760258210648e+001
 1.979144857207913e+000	 3.275109597324839e+000	 1.008657995056058e+001
 1.943401080437388e+000	 3.296445062168671e+000	 1.002444736593195e+001
 1.907477125238376e+000	 3.317361806222094e+000	 9.970025733978648e+000
 1.871380202207249e+000	 3.337857837212958e+000	 9.919574471809241e+000
 2.239201716011941e+000	 3.135938355948102e+000	 1.036970351248595e+001
 2.204679514924937e+000	 3.160304103100417e+000	 1.034461542838624e+001
 2.169926019045013e+000	 3.184266807461372e+000	 1.032075394796386e+001
 2.134948216201357e+000	 3.207823328781521e+000	 1.029449596946331e+001
 2.099753146825645e+000	 3.230970686716001e+000	 1.026226099734376e+001
 2.064347899432174e+000	 3.253706061779425e+000	 1.022053035458315e+001
 2.028739606083914e+000	 3.276026796149310e+000	 1.016586564139795e+001
 1.992935437850286e+000	 3.297930394318246e+000	 1.009555538508540e+001
 1.956942600262478e+000	 3.319414523595212e+000	 1.002751498741335e+001
 1.920768328772035e+000	 3.340477014456691e+000	 9.968455607321848e+000
 1.884419884218392e+000	 3.361115860748503e+000	 9.916559149064899e+000
 2.254696393485963e+000	 3.157638211327462e+000	 1.036475669193391e+001
 2.219935307993310e+000	 3.182172562938527e+000	 1.033980080949994e+001
 2.184941327209573e+000	 3.206301082809782e+000	 1.031655766926536e+001
 2.149721487317849e+000	 3.230020608962104e+000	 1.029151160976854e+001
 2.114282877467717e+000	 3.253328140427467e+000	 1.026118817750216e+001
 2.078632635224096e+000	 3.276220838210407e+000	 1.022217398286192e+001
 2.042777942001923e+000	 3.298696026097038e+000	 1.017113577651428e+001
 2.006726018492501e+000	 3.320751191311723e+000	 1.010483861049415e+001
 1.970484120087366e+000	 3.342383985021857e+000	 1.003089541161364e+001
 1.934059532305448e+000	 3.363592222691413e+000	 9.968345165884660e+000
 1.897459566229250e+000	 3.384373884284181e+000	 9.915147239938932e+000
 2.270191070960018e+000	 3.179338066706392e+000	 1.036128048826860e+001
 2.235191101061679e+000	 3.204041022776280e+000	 1.033622005416147e+001
 2.199956635374086e+000	 3.228335358157914e+000	 1.031314153127002e+001
 2.164494758434245e+000	 3.252217889142498e+000	 1.028866991710020e+001
 2.128812608109640e+000	 3.275685594138827e+000	 1.025946972575060e+001
 2.092917371015812e+000	 3.298735614641365e+000	 1.022226546419945e+001
 2.056816277919669e+000	 3.321365256044816e+000	 1.017386130324125e+001
 2.020516599134396e+000	 3.343571988305311e+000	 1.011132340284596e+001
 1.984025639911877e+000	 3.365353446448660e+000	 1.003620069542238e+001
 1.947350735838436e+000	 3.386707430926326e+000	 9.969986079664384e+000
 1.910499248239641e+000	 3.407631907820056e+000	 9.914909282193335e+000
 2.285685748434003e+000	 3.201037922084772e+000	 1.035956664328610e+001
 2.250446894129934e+000	 3.225909482613576e+000	 1.033420523944241e+001
 2.214971943538431e+000	 3.250369633505693e+000	 1.031087421331875e+001
 2.179268029550415e+000	 3.274415169322649e+000	 1.028637155217940e+001
 2.143342338751272e+000	 3.298043047850051e+000	 1.025753278421659e+001
 2.107202106807173e+000	 3.321250391072290e+000	 1.022125205385337e+001
 2.070854613836993e+000	 3.344034485992657e+000	 1.017461115387933e+001
 2.034307179775804e+000	 3.366392785299043e+000	 1.011583970471727e+001
 1.997567159735842e+000	 3.388322907875671e+000	 1.004340640418753e+001
 1.960641939370820e+000	 3.409822639161488e+000	 9.972927143270677e+000
 1.923538930249378e+000	 3.430889931356199e+000	 9.915408808808108e+000
 1.793142110144684e+000	 3.198309695998757e+000	 9.917973121518969e+000
 1.758400732415532e+000	 3.217541103571808e+000	 9.874400549763360e+000
 1.723507538249754e+000	 3.236366160359109e+000	 9.832201030214350e+000
 1.688469482271451e+000	 3.254783426736442e+000	 9.790670285586039e+000
 1.653293526122406e+000	 3.272791617828106e+000	 9.749317892136572e+000
 1.617986634272130e+000	 3.290389603006430e+000	 9.707897349100124e+000
 1.582555769867112e+000	 3.307576405259167e+000	 9.666431000279841e+000
 1.547007890623957e+000	 3.324351200427108e+000	 9.625229743899226e+000
 1.511349944770983e+000	 3.340713316314455e+000	 9.585101617185179e+000
 1.475588867042669e+000	 3.356662231674654e+000	 9.548025159907768e+000
 1.439731574731233e+000	 3.372197575074528e+000	 9.514439660753444e+000
 1.806181792153683e+000	 3.221567719534899e+000	 9.922669169795816e+000
 1.771187776044501e+000	 3.240938977395473e+000	 9.879528977440389e+000
 1.736040839493528e+000	 3.259900929498167e+000	 9.837560694438619e+000
 1.700747987698722e+000	 3.278452125749841e+000	 9.796058692588279e+000
 1.665316232926751e+000	 3.296591271931205e+000	 9.754551733687448e+000
 1.629752590292575e+000	 3.314317229192684e+000	 9.712834263700497e+000
 1.594064073578511e+000	 3.331629013417208e+000	 9.670992271946505e+000
 1.558257691097505e+000	 3.348525794452300e+000	 9.630351202175284e+000
 1.522340441605221e+000	 3.365006895213961e+000	 9.592494052654528e+000
 1.486319310265352e+000	 3.381071790665133e+000	 9.557461949976435e+000
 1.450201264672494e+000	 3.396720106671581e+000	 9.525291715636074e+000
 1.819221474163497e+000	 3.244825743070775e+000	 9.925500056668957e+000
 1.783974819674280e+000	 3.264336851218890e+000	 9.882336138544163e+000
 1.748574140738111e+000	 3.283435698637018e+000	 9.840243061227938e+000
 1.713026493126799e+000	 3.302120824763097e+000	 9.798489291008815e+000
 1.677338939731900e+000	 3.320390926034239e+000	 9.756600367636334e+000
 1.641518546313823e+000	 3.338244855378957e+000	 9.714499389768804e+000
 1.605572377290710e+000	 3.355681621575360e+000	 9.674138202541142e+000
 1.569507491571854e+000	 3.372700388477689e+000	 9.636158350552892e+000
 1.533330938440259e+000	 3.389300474113742e+000	 9.600468758198455e+000
 1.497049753488834e+000	 3.405481349655952e+000	 9.566988017258147e+000
 1.460670954614553e+000	 3.421242638269016e+000	 9.535644744212235e+000
 1.832261156173944e+000	 3.268083766606454e+000	 9.926516972650971e+000
 1.796761863304684e+000	 3.287734725042119e+000	 9.882838003897936e+000
 1.761107441983310e+000	 3.306970467775714e+000	 9.840231889939142e+000
 1.725304998555488e+000	 3.325789523776247e+000	 9.797916874338029e+000
 1.689361646537656e+000	 3.344190580137224e+000	 9.755914398373392e+000
 1.653284502335674e+000	 3.362172481565244e+000	 9.716130480627941e+000
 1.617080681003512e+000	 3.379734229733591e+000	 9.678557451534058e+000
 1.580757292046804e+000	 3.396874982503220e+000	 9.642955875260912e+000
 1.544321435275896e+000	 3.413594053013718e+000	 9.609098844674834e+000
 1.507780196712916e+000	 3.429890908647009e+000	 9.576772300591097e+000
 1.471140644557212e+000	 3.445765169866720e+000	 9.545775431149380e+000
 1.845300838184841e+000	 3.291341790142000e+000	 9.925792839183425e+000
 1.809548906935523e+000	 3.311132598865224e+000	 9.881076310387757e+000
 1.773640743228935e+000	 3.330505236914307e+000	 9.837540313679439e+000
 1.737583503984593e+000	 3.349458222789323e+000	 9.795434113653995e+000
 1.701384353343822e+000	 3.367990234240172e+000	 9.756103238147233e+000
 1.665050458357931e+000	 3.386100107751535e+000	 9.719145927085148e+000
 1.628588984716718e+000	 3.403786837891867e+000	 9.684144512109482e+000
 1.592007092522155e+000	 3.421049576528834e+000	 9.650697487387829e+000
 1.555311932111934e+000	 3.437887631913810e+000	 9.618419803016518e+000
 1.518510639937398e+000	 3.454300467638206e+000	 9.586943216264292e+000
 1.481610334500272e+000	 3.470287701464573e+000	 9.555916741583511e+000
 1.858340520196004e+000	 3.314599813677478e+000	 9.923419855550216e+000
 1.822335950566611e+000	 3.334530472688268e+000	 9.877121847134754e+000
 1.786174044474793e+000	 3.354040006052849e+000	 9.833906524834863e+000
 1.749862009413921e+000	 3.373126921802362e+000	 9.794299387469975e+000
 1.713407060150203e+000	 3.391789888343100e+000	 9.757652772547692e+000
 1.676816414380397e+000	 3.410027733937825e+000	 9.723339217759449e+000
 1.640097288430126e+000	 3.427839446050156e+000	 9.690751785358360e+000
 1.603256892997709e+000	 3.445224170554476e+000	 9.659304354786432e+000
 1.566302428948173e+000	 3.462181210813938e+000	 9.628431939239599e+000
 1.529241083162080e+000	 3.478710026629442e+000	 9.597591076073252e+000
 1.492080024443531e+000	 3.494810233062459e+000	 9.566260334716903e+000
 1.871380202207249e+000	 3.337857837212958e+000	 9.919574471809243e+000
 1.835122994197758e+000	 3.357928346511310e+000	 9.873200421952841e+000
 1.798707345720694e+000	 3.377574775191389e+000	 9.831786697458270e+000
 1.762140514843276e+000	 3.396795620815399e+000	 9.794437769588239e+000
 1.725429766956601e+000	 3.415589542446022e+000	 9.760283248042716e+000
 1.688582370402873e+000	 3.433955360124103e+000	 9.728478299885476e+000
 1.651605592143540e+000	 3.451892054208428e+000	 9.698203980858770e+000
 1.614506693473263e+000	 3.469398764580086e+000	 9.668667544057083e+000
 1.577292925784412e+000	 3.486474789714023e+000	 9.639102785318814e+000
 1.539971526386763e+000	 3.503119585620613e+000	 9.608770478524036e+000
 1.502549714386791e+000	 3.519332764660260e+000	 9.576958947348761e+000
 1.884419884218392e+000	 3.361115860748503e+000	 9.916559149064899e+000
 1.847910037828777e+000	 3.381326220334415e+000	 9.870811310595665e+000
 1.811240646966444e+000	 3.401109544329981e+000	 9.830844548077147e+000
 1.774419020272465e+000	 3.420464319828468e+000	 9.795510962860446e+000
 1.737452473762821e+000	 3.439389196548954e+000	 9.763693844798970e+000
 1.700348326425160e+000	 3.457882986310363e+000	 9.734308097632605e+000
 1.663113895856761e+000	 3.475944662366649e+000	 9.706300581491163e+000
 1.625756493948620e+000	 3.493573358605611e+000	 9.678650441701121e+000
 1.588283422620452e+000	 3.510768368613983e+000	 9.650369487098780e+000
 1.550701969611245e+000	 3.527529144611625e+000	 9.620502674485088e+000
 1.513019404329850e+000	 3.543855296257858e+000	 9.588128748795199e+000
 1.897459566229250e+000	 3.384373884284181e+000	 9.915147239938932e+000
 1.860697081459480e+000	 3.404724094157645e+000	 9.869549946169048e+000
 1.823773948211853e+000	 3.424644313468674e+000	 9.830696839655319e+000
 1.786697525701294e+000	 3.444133018841604e+000	 9.797163953475746e+000
 1.749475180568665e+000	 3.463188850651911e+000	 9.767565241590493e+000
 1.712114282447062e+000	 3.481810612496596e+000	 9.740553013427004e+000
 1.674622199569589e+000	 3.499997270524787e+000	 9.714818290040798e+000
 1.637006294423581e+000	 3.517747952630995e+000	 9.689091155445944e+000
 1.599273919456093e+000	 3.535061947513741e+000	 9.662141170346581e+000
 1.561432412835328e+000	 3.551938703602373e+000	 9.632777908516522e+000
 1.523489094272510e+000	 3.568377827855136e+000	 9.599851668575573e+000
 1.910499248239641e+000	 3.407631907820056e+000	 9.914909282193335e+000
 1.873484125089679e+000	 3.428121967981062e+000	 9.869000705598895e+000
 1.836307249456730e+000	 3.448179082607521e+000	 9.830947871557623e+000
 1.798976031129568e+000	 3.467801717854845e+000	 9.799027632790310e+000
 1.761497887373937e+000	 3.486988504754906e+000	 9.771562165317164e+000
 1.723880238468380e+000	 3.505738238682794e+000	 9.746919413089215e+000
 1.686130503281826e+000	 3.524049878682808e+000	 9.723513458457282e+000
 1.648256094897945e+000	 3.541922546656179e+000	 9.699804896689910e+000
 1.610264416291135e+000	 3.559355526413215e+000	 9.674301285989163e+000
 1.572162856058811e+000	 3.576348262592755e+000	 9.645557737039145e+000
 1.533958784214570e+000	 3.592900359451976e+000	 9.612177698165384e+000
 1.923538930249378e+000	 3.430889931356199e+000	 9.915408808808106e+000
 1.886271168719185e+000	 3.451519841804724e+000	 9.868739683213248e+000
 1.848840550700881e+000	 3.471713851746570e+000	 9.831192166914184e+000
 1.811254536557092e+000	 3.491470416868223e+000	 9.800721404923344e+000
 1.773520594178441e+000	 3.510788158857956e+000	 9.775335925863146e+000
 1.735646194488917e+000	 3.529665864868950e+000	 9.753098095554721e+000
 1.697638806993271e+000	 3.548102486840682e+000	 9.732124500594392e+000
 1.659505895371513e+000	 3.566097140681105e+000	 9.710586344961675e+000
 1.621254913125377e+000	 3.583649105312324e+000	 9.686709935523874e+000
 1.582893299281493e+000	 3.600757821582674e+000	 9.658777324441694e+000
 1.544428474155829e+000	 3.617422891048259e+000	 9.625127168046875e+000
 1.439731574731233e+000	 3.372197575074528e+000	 9.514439660753444e+000
 1.403779565205173e+000	 3.387321361489601e+000	 9.476178526144659e+000
 1.367745085892707e+000	 3.402031155838170e+000	 9.422517521411082e+000
 1.331634983434178e+000	 3.416327030840312e+000	 9.349898100544616e+000
 1.295456071785157e+000	 3.430209203416529e+000	 9.276890637259848e+000
 1.259215128608840e+000	 3.443678032987045e+000	 9.219210454444038e+000
 1.222918891747823e+000	 3.456734019669561e+000	 9.174026860901513e+000
 1.186574055778320e+000	 3.469377802379238e+000	 9.138052927742706e+000
 1.150187268649676e+000	 3.481610156834798e+000	 9.107660333832932e+000
 1.113765128411843e+000	 3.493431993474643e+000	 9.078985666935855e+000
 1.077314180033310e+000	 3.504844355287081e+000	 9.048028313759682e+000
 1.450201264672494e+000	 3.396720106671581e+000	 9.525291715636074e+000
 1.413987813083974e+000	 3.411953872861664e+000	 9.488686073290561e+000
 1.377691291990982e+000	 3.426770636445832e+000	 9.438080377699000e+000
 1.341318597822436e+000	 3.441170470672980e+000	 9.370224713967909e+000
 1.304876594084804e+000	 3.455153594041044e+000	 9.293835006502603e+000
 1.268372107728261e+000	 3.468720368583945e+000	 9.232307920622063e+000
 1.231811925592805e+000	 3.481871298056221e+000	 9.183841256807176e+000
 1.195202790937426e+000	 3.494607026019214e+000	 9.145247467385085e+000
 1.158551400055167e+000	 3.506928333832645e+000	 9.113003603853150e+000
 1.121864398976819e+000	 3.518836138555602e+000	 9.083358419881511e+000
 1.085148380265702e+000	 3.530331490760976e+000	 9.052430669343673e+000
 1.460670954614553e+000	 3.421242638269016e+000	 9.535644744212235e+000
 1.424196060963574e+000	 3.436586384234133e+000	 9.500012270263836e+000
 1.387637498090055e+000	 3.451510117053901e+000	 9.451694221207342e+000
 1.351002212211490e+000	 3.466013910506030e+000	 9.387781192552861e+000
 1.314297116385243e+000	 3.480097984665906e+000	 9.310509488169121e+000
 1.277529086848464e+000	 3.493762704181139e+000	 9.245222910324534e+000
 1.240704959438558e+000	 3.507008576443118e+000	 9.193579460912796e+000
 1.203831526097284e+000	 3.519836249659356e+000	 9.152482094048041e+000
 1.166915531461388e+000	 3.532246510830582e+000	 9.118505903420529e+000
 1.129963669542497e+000	 3.544240283636570e+000	 9.088005973105942e+000
 1.092982580498757e+000	 3.555818626234796e+000	 9.057216012962341e+000
 1.471140644557212e+000	 3.445765169866720e+000	 9.545775431149380e+000
 1.434404308843775e+000	 3.461218895606880e+000	 9.510544318724259e+000
 1.397583704189727e+000	 3.476249597662238e+000	 9.463850221565116e+000
 1.360685826601140e+000	 3.490857350339327e+000	 9.403113888284061e+000
 1.323717638686275e+000	 3.505042375290976e+000	 9.327116012245405e+000
 1.286686065969255e+000	 3.518805039778497e+000	 9.258172606441244e+000
 1.249597993284889e+000	 3.532145854830123e+000	 9.203465431354834e+000
 1.212460261257706e+000	 3.545065473299544e+000	 9.159979777638551e+000
 1.175279662868157e+000	 3.557564687828503e+000	 9.124382266726029e+000
 1.138062940108698e+000	 3.569644428717461e+000	 9.093129390299957e+000
 1.100816780732308e+000	 3.581305761708479e+000	 9.062566406826997e+000
 1.481610334500272e+000	 3.470287701464573e+000	 9.555916741583511e+000
 1.444612556724376e+000	 3.485851406979773e+000	 9.520622476431941e+000
 1.407529910289798e+000	 3.500989078270704e+000	 9.474989623965788e+000
 1.370369440991190e+000	 3.515700790172728e+000	 9.416758979497073e+000
 1.333138160987701e+000	 3.529986765916116e+000	 9.343836448195534e+000
 1.295843045090437e+000	 3.543847375375882e+000	 9.271353866937835e+000
 1.258491027131605e+000	 3.557283133217108e+000	 9.213702264385640e+000
 1.221088996418505e+000	 3.570294696939667e+000	 9.167941825961702e+000
 1.183643794275289e+000	 3.582882864826309e+000	 9.130825014379816e+000
 1.146162210675251e+000	 3.595048573798191e+000	 9.098905733401699e+000
 1.108650980966191e+000	 3.606792897181959e+000	 9.068638403542067e+000
 1.492080024443531e+000	 3.494810233062459e+000	 9.566260334716901e+000
 1.454820804605176e+000	 3.510483918352682e+000	 9.530542469898446e+000
 1.417476116390070e+000	 3.525728558879165e+000	 9.485506155269899e+000
 1.380053055381439e+000	 3.540544230006091e+000	 9.429202377620996e+000
 1.342558683289326e+000	 3.554931156541184e+000	 9.359845373776579e+000
 1.305000024211814e+000	 3.568889710973160e+000	 9.284944379923045e+000
 1.267384060978512e+000	 3.582420411603950e+000	 9.224473483812348e+000
 1.229717731579492e+000	 3.595523920579608e+000	 9.176549293608817e+000
 1.192007925682604e+000	 3.608201041823901e+000	 9.138005267282361e+000
 1.154261481241978e+000	 3.620452718878676e+000	 9.105489667479082e+000
 1.116485181200240e+000	 3.632280032655170e+000	 9.075564728554559e+000
 1.502549714386791e+000	 3.519332764660260e+000	 9.576958947348761e+000
 1.465029052485976e+000	 3.535116429725480e+000	 9.540557873643619e+000
 1.427422322490341e+000	 3.550468039487480e+000	 9.495748393660245e+000
 1.389736669771686e+000	 3.565387669839278e+000	 9.440882082260405e+000
 1.351979205590951e+000	 3.579875547166044e+000	 9.374471759025040e+000
 1.314157003333191e+000	 3.593932046570194e+000	 9.299103774662015e+000
 1.276277094825420e+000	 3.607557689990518e+000	 9.235944284334519e+000
 1.238346466740479e+000	 3.620753144219251e+000	 9.185964342921512e+000
 1.200372057089920e+000	 3.633519218821177e+000	 9.146074410965209e+000
 1.162360751808704e+000	 3.645856863958831e+000	 9.113015014681475e+000
 1.124319381434289e+000	 3.657767168128049e+000	 9.083455910469169e+000
 1.513019404329850e+000	 3.543855296257858e+000	 9.588128748795199e+000
 1.475237300366577e+000	 3.559748941098035e+000	 9.550882457675176e+000
 1.437368528590413e+000	 3.575207520095515e+000	 9.506022103614233e+000
 1.399420284161735e+000	 3.590231109672148e+000	 9.452190498941720e+000
 1.361399727892379e+000	 3.604819937790553e+000	 9.388189219186216e+000
 1.323313982454373e+000	 3.618974382166853e+000	 9.313974690670587e+000
 1.285170128672135e+000	 3.632694968376689e+000	 9.248262731012000e+000
 1.246975201901278e+000	 3.645982367858483e+000	 9.196331559351959e+000
 1.208736188497052e+000	 3.658837395818033e+000	 9.155165512800098e+000
 1.170460022375256e+000	 3.671261009038573e+000	 9.121596259727719e+000
 1.132153581668172e+000	 3.683254303600529e+000	 9.092401861753757e+000
 1.523489094272510e+000	 3.568377827855136e+000	 9.599851668575573e+000
 1.485445548246778e+000	 3.584381452470216e+000	 9.561692504719959e+000
 1.447314734690085e+000	 3.599947000703133e+000	 9.516592537862540e+000
 1.409103898551387e+000	 3.615074549504561e+000	 9.463476721320793e+000
 1.370820250193409e+000	 3.629764328414571e+000	 9.401425803478610e+000
 1.332470961575163e+000	 3.644016717763000e+000	 9.329683806905385e+000
 1.294063162518466e+000	 3.657832246762336e+000	 9.261560916973737e+000
 1.255603937061700e+000	 3.671211591497186e+000	 9.207779223413500e+000
 1.217100319903820e+000	 3.684155572814372e+000	 9.165394694343711e+000
 1.178559292941457e+000	 3.696665154117818e+000	 9.131330009262234e+000
 1.139987781901724e+000	 3.708741439072548e+000	 9.102473412222784e+000
 1.533958784214570e+000	 3.592900359451976e+000	 9.612177698165386e+000
 1.495653796126378e+000	 3.609013963841895e+000	 9.573129098651975e+000
 1.457260940789158e+000	 3.624686481310193e+000	 9.527686707911032e+000
 1.418787512940441e+000	 3.639917989336375e+000	 9.475048779548647e+000
 1.380240772493848e+000	 3.654708719037964e+000	 9.414565896503975e+000
 1.341627940695366e+000	 3.669059053358499e+000	 9.345741593580691e+000
 1.302956196364219e+000	 3.682969525147330e+000	 9.275956081362081e+000
 1.264232672221558e+000	 3.696440815135250e+000	 9.220420541295377e+000
 1.225464451310041e+000	 3.709473749810092e+000	 9.176862460961409e+000
 1.186658563507135e+000	 3.722069299196483e+000	 9.142296407282585e+000
 1.147821982134778e+000	 3.734228574544038e+000	 9.113723797553503e+000
 1.544428474155829e+000	 3.617422891048259e+000	 9.625127168046877e+000
 1.505862044005179e+000	 3.633646475212943e+000	 9.585300385483954e+000
 1.467207146887432e+000	 3.649425961916560e+000	 9.539495624617976e+000
 1.428471127328698e+000	 3.664761429167448e+000	 9.487175856402484e+000
 1.389661294793495e+000	 3.679653109660585e+000	 9.427952406220674e+000
 1.350784919814787e+000	 3.694101388953216e+000	 9.361585121197994e+000
 1.311849230209201e+000	 3.708106803531543e+000	 9.291551689400126e+000
 1.272861407380663e+000	 3.721670038772552e+000	 9.234354836102687e+000
 1.233828582715532e+000	 3.734791926805090e+000	 9.189654990756852e+000
 1.194757834072111e+000	 3.747473444274481e+000	 9.154560508723160e+000
 1.155656182367169e+000	 3.759715710014934e+000	 9.126190104969599e+000
 1.077314180033310e+000	 3.504844355287081e+000	 9.048028313759682e+000
 1.040840911791156e+000	 3.515848414683465e+000	 9.014787048690190e+000
 1.004351750767449e+000	 3.526445468549742e+000	 8.981943871157396e+000
 9.678530616055532e-001	 3.536636938483259e+000	 8.949544681005143e+000
 9.313511442442004e-001	 3.546424369203119e+000	 8.917736761877311e+000
 8.948522312174626e-001	 3.555809426018735e+000	 8.886841517029378e+000
 8.583624850557751e-001	 3.564793892237349e+000	 8.857398549304474e+000
 8.218879957891512e-001	 3.573379666514729e+000	 8.830207920888963e+000
 7.854347785535484e-001	 3.581568760153285e+000	 8.806366913325860e+000
 7.490087713011586e-001	 3.589363294351826e+000	 8.787301745064749e+000
 7.126158326152123e-001	 3.596765497411133e+000	 8.774794711160913e+000
 1.085148380265702e+000	 3.530331490760976e+000	 9.052430669343673e+000
 1.048409879381463e+000	 3.541415571385863e+000	 9.020213342802737e+000
 1.011655370143746e+000	 3.552089686747149e+000	 8.989092843770493e+000
 9.748912634794350e-001	 3.562355268780023e+000	 8.958783087419587e+000
 9.381239051402545e-001	 3.572213873436759e+000	 8.929143381101431e+000
 9.013595729831019e-001	 3.581667178136880e+000	 8.900191125072276e+000
 8.646044743521743e-001	 3.590716979155808e+000	 8.872174293552368e+000
 8.278647435640271e-001	 3.599365188956308e+000	 8.845607021631158e+000
 7.911464394965296e-001	 3.607613833466946e+000	 8.821305230805361e+000
 7.544555432825080e-001	 3.615465049311848e+000	 8.800417060468918e+000
 7.177979561086598e-001	 3.622921080995963e+000	 8.784448600427298e+000
 1.092982580498757e+000	 3.555818626234796e+000	 9.057216012962341e+000
 1.055978846972389e+000	 3.566982728088109e+000	 9.026094300964656e+000
 1.018958989520610e+000	 3.577733904944332e+000	 8.996716032762310e+000
 9.819294653538292e-001	 3.588073599076493e+000	 8.968509230644393e+000
 9.448966660367625e-001	 3.598003377670048e+000	 8.941052887144631e+000
 9.078669147491352e-001	 3.607524930254624e+000	 8.914093987584748e+000
 8.708464636489087e-001	 3.616640066073833e+000	 8.887616038044916e+000
 8.338414913391797e-001	 3.625350711397429e+000	 8.861874234702395e+000
 7.968581004397326e-001	 3.633658906780143e+000	 8.837429780902069e+000
 7.599023152640303e-001	 3.641566804271423e+000	 8.815178856452187e+000
 7.229800796022363e-001	 3.649076664580380e+000	 8.796376766088210e+000
 1.100816780732308e+000	 3.581305761708479e+000	 9.062566406826997e+000
 1.063547814563778e+000	 3.592549884790160e+000	 9.032586305482912e+000
 1.026262608897900e+000	 3.603378123141265e+000	 9.004942013807474e+000
 9.889676672286073e-001	 3.613791929372667e+000	 8.978802903997808e+000
 9.516694269336100e-001	 3.623792881903001e+000	 8.953495563487461e+000
 9.143742565154635e-001	 3.633382682372006e+000	 8.928524458718801e+000
 8.770884529458931e-001	 3.642563152991476e+000	 8.903636657262601e+000
 8.398182391145391e-001	 3.651336233838164e+000	 8.878856326771631e+000
 8.025697613831022e-001	 3.659703980092960e+000	 8.854517561932259e+000
 7.653490872456817e-001	 3.667668559230635e+000	 8.831291707677623e+000
 7.281622030959101e-001	 3.675232248164469e+000	 8.810209738930135e+000
 1.108650980966191e+000	 3.606792897181959e+000	 9.068638403542067e+000
 1.071116782155477e+000	 3.618117041491970e+000	 9.039818598173143e+000
 1.033566228275475e+000	 3.629022341337930e+000	 9.013864069991442e+000
 9.960058691036420e-001	 3.639510259668551e+000	 8.989713497733105e+000
 9.584421878306849e-001	 3.649582386135648e+000	 8.966469740253883e+000
 9.208815982819892e-001	 3.659240434489071e+000	 8.943423499096696e+000
 8.833304422430449e-001	 3.668486239908799e+000	 8.920114345817975e+000
 8.457949868900372e-001	 3.677321756278584e+000	 8.896364296837351e+000
 8.082814223265827e-001	 3.685749053405477e+000	 8.872308960771226e+000
 7.707958592274194e-001	 3.693770314189572e+000	 8.848423023729236e+000
 7.333443265896487e-001	 3.701387831748314e+000	 8.825540667674090e+000
 1.116485181200240e+000	 3.632280032655170e+000	 9.075564728554559e+000
 1.078685749747331e+000	 3.643684198193497e+000	 9.047895024779724e+000
 1.040869847653191e+000	 3.654666559534302e+000	 9.023548488032343e+000
 1.003044070978804e+000	 3.665228589964141e+000	 9.001261813177305e+000
 9.652149487278728e-001	 3.675371890368006e+000	 8.979943616204995e+000
 9.273889400486129e-001	 3.685098186605857e+000	 8.958700487819446e+000
 8.895724315402804e-001	 3.694409326825858e+000	 8.936894402795179e+000
 8.517717346656041e-001	 3.703307278718762e+000	 8.914175115401436e+000
 8.139930832701185e-001	 3.711794126717773e+000	 8.890509429580032e+000
 7.762426312092002e-001	 3.719872069148314e+000	 8.866204646355842e+000
 7.385264500834193e-001	 3.727543415331994e+000	 8.841926819968172e+000
 1.124319381434289e+000	 3.657767168128049e+000	 9.083455910469169e+000
 1.086254717339184e+000	 3.669251354894696e+000	 9.056895726357048e+000
 1.048173467030906e+000	 3.680310777730361e+000	 9.034036293044077e+000
 1.010082272853967e+000	 3.690946920259438e+000	 9.013441823286026e+000
 9.719877096250612e-001	 3.701161394600097e+000	 8.993857027536855e+000
 9.338962818152367e-001	 3.710955938722407e+000	 8.974234982123312e+000
 8.958144208375152e-001	 3.720332413742715e+000	 8.953790965048535e+000
 8.577484824411712e-001	 3.729292801158767e+000	 8.932033414391484e+000
 8.197047442136543e-001	 3.737839200029931e+000	 8.908791115560536e+000
 7.816894031909809e-001	 3.745973824106949e+000	 8.884234402520754e+000
 7.437085735771903e-001	 3.753698998915595e+000	 8.858891042472386e+000
 1.132153581668172e+000	 3.683254303600529e+000	 9.092401861753757e+000
 1.093823684930883e+000	 3.694818511595525e+000	 9.066878780179810e+000
 1.055477086408480e+000	 3.705954995926085e+000	 9.045344932364300e+000
 1.017120474729001e+000	 3.716665250554442e+000	 9.026226358365115e+000
 9.787604705221360e-001	 3.726950898831945e+000	 9.008123166059141e+000
 9.404036235817623e-001	 3.736813690838763e+000	 8.989878427219653e+000
 9.020564101346672e-001	 3.746255500659427e+000	 8.970588691931813e+000
 8.637252302166689e-001	 3.755278323598676e+000	 8.949653130216907e+000
 8.254164051571349e-001	 3.763884273342034e+000	 8.926794446013179e+000
 7.871361751727186e-001	 3.772075579065561e+000	 8.902077615398692e+000
 7.488906970709289e-001	 3.779854582499195e+000	 8.875923182019548e+000
 1.139987781901724e+000	 3.708741439072548e+000	 9.102473412222784e+000
 1.101392652522272e+000	 3.720385668295939e+000	 9.077881792611294e+000
 1.062780705785770e+000	 3.731599214121452e+000	 9.057469910899664e+000
 1.024158676603779e+000	 3.742383580849157e+000	 9.039552341165855e+000
 9.855332314189840e-001	 3.752740403063570e+000	 9.022630249189268e+000
 9.469109653480903e-001	 3.762671442954964e+000	 9.005455818714831e+000
 9.082983994316516e-001	 3.772178587576050e+000	 8.987044403795741e+000
 8.697019779920288e-001	 3.781263846038558e+000	 8.966719102214487e+000
 8.311280661005044e-001	 3.789929346654160e+000	 8.944129670848076e+000
 7.925829471543699e-001	 3.798177334024236e+000	 8.919268575342310e+000
 7.540728205646027e-001	 3.806010166082880e+000	 8.892481469723151e+000
 1.147821982134778e+000	 3.734228574544038e+000	 9.113723797553503e+000
 1.108961620113198e+000	 3.745952824995893e+000	 9.089923446223956e+000
 1.070084325162635e+000	 3.757243432316442e+000	 9.070386380302969e+000
 1.031196878478173e+000	 3.768101911143579e+000	 9.053347880079748e+000
 9.923059923154914e-001	 3.778529907294995e+000	 9.037243144064776e+000
 9.534183071141239e-001	 3.788529195071056e+000	 9.020767319875599e+000
 9.145403887283859e-001	 3.798101674492648e+000	 9.002888676461483e+000
 8.756787257671812e-001	 3.807249368478485e+000	 8.982888628614253e+000
 8.368397270437075e-001	 3.815974419966393e+000	 8.960378364582262e+000
 7.980297191358921e-001	 3.824279088983057e+000	 8.935311972731583e+000
 7.592549440581791e-001	 3.832165749666732e+000	 8.907993869803507e+000
 1.155656182367169e+000	 3.759715710014934e+000	 9.126190104969599e+000
 1.116530587703505e+000	 3.771519981695344e+000	 9.103005003344263e+000
 1.077387944538932e+000	 3.782887650511029e+000	 9.084050684174118e+000
 1.038235080352055e+000	 3.793820241437709e+000	 9.067516250971394e+000
 9.990787532115453e-001	 3.804319411526238e+000	 9.051804947950503e+000
 9.599256488797626e-001	 3.814386947187074e+000	 9.035589835882808e+000
 9.207823780247851e-001	 3.824024761409275e+000	 9.017827393759896e+000
 8.816554735420569e-001	 3.833234890918529e+000	 8.997792982040863e+000
 8.425513879866883e-001	 3.842019493278808e+000	 8.975094889745188e+000
 8.034764911172414e-001	 3.850380843942109e+000	 8.949684294514187e+000
 7.644370675516263e-001	 3.858321333250832e+000	 8.921859394805862e+000
 7.126158326152123e-001	 3.596765497411133e+000	 8.774794711160913e+000
 6.762671878802550e-001	 3.603776679759038e+000	 8.746759768948024e+000
 6.399630600582476e-001	 3.610400416447522e+000	 8.695405729042928e+000
 6.037090469397647e-001	 3.616639241793862e+000	 8.648797042515561e+000
 5.675106594965956e-001	 3.622495785572754e+000	 8.609084004345647e+000
 5.313733202242620e-001	 3.627972770066271e+000	 8.577323331887362e+000
 4.953023615887203e-001	 3.633073007093981e+000	 8.554883295896742e+000
 4.593030245767192e-001	 3.637799395027112e+000	 8.543594219021600e+000
 4.233804573491112e-001	 3.642154915790479e+000	 8.545877018622354e+000
 3.875397139962902e-001	 3.646142631855923e+000	 8.564852949016084e+000
 3.517857533948060e-001	 3.649765683230813e+000	 8.604437582124517e+000
 7.177979561086598e-001	 3.622921080995963e+000	 8.784448600427298e+000
 6.811849849902317e-001	 3.629983248476528e+000	 8.752747552270032e+000
 6.446168545105612e-001	 3.636655152803184e+000	 8.696359753956646e+000
 6.080992031672106e-001	 3.642939346722671e+000	 8.644606446685980e+000
 5.716375820076127e-001	 3.648838479133310e+000	 8.600646739800034e+000
 5.352374529595347e-001	 3.654355292113508e+000	 8.565146057776632e+000
 4.989041872664873e-001	 3.659492617930285e+000	 8.539139491587912e+000
 4.626430640275384e-001	 3.664253376031720e+000	 8.524167211015062e+000
 4.264592688408320e-001	 3.668640570027081e+000	 8.522387659971418e+000
 3.903578925499762e-001	 3.672657284658395e+000	 8.536671880086908e+000
 3.543439300923417e-001	 3.676306682767058e+000	 8.570682181821155e+000
 7.229800796022363e-001	 3.649076664580380e+000	 8.796376766088210e+000
 6.861027821003028e-001	 3.656189817193663e+000	 8.761853062171731e+000
 6.492706489629426e-001	 3.662909889158566e+000	 8.702200334135780e+000
 6.124893593947066e-001	 3.669239451651285e+000	 8.646792034196144e+000
 5.757645045186705e-001	 3.675181172693760e+000	 8.600188363268178e+000
 5.391015856948495e-001	 3.680737814160723e+000	 8.562593216041623e+000
 5.025060129443074e-001	 3.685912228766642e+000	 8.534642378622378e+000
 4.659831034784319e-001	 3.690707357036439e+000	 8.517522844113527e+000
 4.295380803326594e-001	 3.695126224263829e+000	 8.513069653729975e+000
 3.931760711038120e-001	 3.699171937461023e+000	 8.523843806800148e+000
 3.569021067900821e-001	 3.702847682303435e+000	 8.553194646687510e+000
 7.281622030959101e-001	 3.675232248164469e+000	 8.810209738930137e+000
 6.910205792104442e-001	 3.682396385910518e+000	 8.773613761960181e+000
 6.539244434153744e-001	 3.689164625513728e+000	 8.712243496674129e+000
 6.168795156222396e-001	 3.695539556579746e+000	 8.654472058529464e+000
 5.798914270297595e-001	 3.701523866254122e+000	 8.606586642691035e+000
 5.429657184301957e-001	 3.707120336207917e+000	 8.568271222900343e+000
 5.061078386221670e-001	 3.712331839603033e+000	 8.539708156662920e+000
 4.693231429293811e-001	 3.717161338041240e+000	 8.521680337838173e+000
 4.326168918245668e-001	 3.721611878500689e+000	 8.515650621972723e+000
 3.959942496577603e-001	 3.725686590263770e+000	 8.523822274016496e+000
 3.594602834879763e-001	 3.729388681839912e+000	 8.549184040941876e+000
 7.333443265896487e-001	 3.701387831748314e+000	 8.825540667674090e+000
 6.959383763206329e-001	 3.708602954627166e+000	 8.787530421348109e+000
 6.585782378678403e-001	 3.715419361868731e+000	 8.725775850436612e+000
 6.212696718497973e-001	 3.721839661508097e+000	 8.666742512154631e+000
 5.840183495408687e-001	 3.727866559814423e+000	 8.618703864186136e+000
 5.468298511655628e-001	 3.733502858255094e+000	 8.580777566328374e+000
 5.097096643000534e-001	 3.738751450439450e+000	 8.552650582250811e+000
 4.726631823803677e-001	 3.743615319046093e+000	 8.534663046012383e+000
 4.356957033165275e-001	 3.748097532737622e+000	 8.527869154065085e+000
 3.988124282117837e-001	 3.752201243066594e+000	 8.534079047115785e+000
 3.620184601859728e-001	 3.755929681376454e+000	 8.555885487807897e+000
 7.385264500834193e-001	 3.727543415331994e+000	 8.841926819968172e+000
 7.008561734308454e-001	 3.734809523343683e+000	 8.803068486417015e+000
 6.632320323203229e-001	 3.741674098223633e+000	 8.742055265035754e+000
 6.256598280773676e-001	 3.748139766436377e+000	 8.682677764704852e+000
 5.881452720519882e-001	 3.754209253374685e+000	 8.635387354260551e+000
 5.506939839009403e-001	 3.759885380302257e+000	 8.598701143906709e+000
 5.133114899779528e-001	 3.765171061275875e+000	 8.571781060713061e+000
 4.760032218313728e-001	 3.770069300050974e+000	 8.554498248007414e+000
 4.387745148085148e-001	 3.774583186974590e+000	 8.547474249401237e+000
 4.016306067658446e-001	 3.778715895869458e+000	 8.552103165253238e+000
 3.645766368840204e-001	 3.782470680913030e+000	 8.570558799184179e+000
 7.437085735771903e-001	 3.753698998915595e+000	 8.858891042472386e+000
 7.057739705410575e-001	 3.761016092060141e+000	 8.819659413245056e+000
 6.678858267728055e-001	 3.767928834578494e+000	 8.760299573600037e+000
 6.300499843049376e-001	 3.774439871364630e+000	 8.701331179660349e+000
 5.922721945631075e-001	 3.780551946934928e+000	 8.655469990496851e+000
 5.545581166363180e-001	 3.786267902349411e+000	 8.620622600613075e+000
 5.169133156558523e-001	 3.791590672112294e+000	 8.595408750830119e+000
 4.793432612823781e-001	 3.796523281055854e+000	 8.579216966763003e+000
 4.418533263005021e-001	 3.801068841211559e+000	 8.572224801976708e+000
 4.044487853199053e-001	 3.805230548672323e+000	 8.575400052414775e+000
 3.671348135820682e-001	 3.809011680449607e+000	 8.590487179823565e+000
 7.488906970709289e-001	 3.779854582499195e+000	 8.875923182019548e+000
 7.106917676512464e-001	 3.787222660776613e+000	 8.836701966958467e+000
 6.725396212252711e-001	 3.794183570933372e+000	 8.779477928531085e+000
 6.344401405324956e-001	 3.800739976292896e+000	 8.721735710575086e+000
 5.963991170742168e-001	 3.806894640495176e+000	 8.677770701272625e+000
 5.584222493716851e-001	 3.812650424396559e+000	 8.645114666558948e+000
 5.205151413337386e-001	 3.818010282948694e+000	 8.621840681644917e+000
 4.826833007333645e-001	 3.822977262060701e+000	 8.606853812285195e+000
 4.449321377924628e-001	 3.827554495448490e+000	 8.599889124772274e+000
 4.072669638739285e-001	 3.831745201475147e+000	 8.601490683468303e+000
 3.696929902800646e-001	 3.835552679986150e+000	 8.612976002410861e+000
 7.540728205646027e-001	 3.806010166082880e+000	 8.892481469723151e+000
 7.156095647613880e-001	 3.813429229493175e+000	 8.853563487871167e+000
 6.771934156777034e-001	 3.820438307288330e+000	 8.798730846701822e+000
 6.388302967600286e-001	 3.827040081221221e+000	 8.742904477832136e+000
 6.005260395853054e-001	 3.833237334055454e+000	 8.701094955039373e+000
 5.622863821070316e-001	 3.839032946443703e+000	 8.670742494675960e+000
 5.241169670115983e-001	 3.844429893785061e+000	 8.649381880830573e+000
 4.860233401843138e-001	 3.849431243065490e+000	 8.635446849395073e+000
 4.480109492843702e-001	 3.854040149685346e+000	 8.628244512031488e+000
 4.100851424278769e-001	 3.858259854277893e+000	 8.627910802566211e+000
 3.722511669779586e-001	 3.862093679522626e+000	 8.635351650129289e+000
 7.592549440581791e-001	 3.832165749666732e+000	 8.907993869803507e+000
 7.205273618714591e-001	 3.839635798209898e+000	 8.869581126284103e+000
 6.818472101300850e-001	 3.846693043643424e+000	 8.817278491038694e+000
 6.432204529875243e-001	 3.853340186149642e+000	 8.763831326858400e+000
 6.046529620963635e-001	 3.859580027615782e+000	 8.724235239661356e+000
 5.661505148423461e-001	 3.865415468490847e+000	 8.696063998353319e+000
 5.277187926894182e-001	 3.870849504621382e+000	 8.676335514063405e+000
 4.893633796352074e-001	 3.875885224070195e+000	 8.663037488571280e+000
 4.510897607761977e-001	 3.880525803922092e+000	 8.655076837621602e+000
 4.129033209817128e-001	 3.884774507080522e+000	 8.652210191399169e+000
 3.748093436756991e-001	 3.888634679059003e+000	 8.654960423490966e+000
 7.644370675516263e-001	 3.858321333250832e+000	 8.921859394805862e+000
 7.254451589814354e-001	 3.865842366926856e+000	 8.884063047432040e+000
 6.865010045823983e-001	 3.872947779998714e+000	 8.834313133673167e+000
 6.476106092149704e-001	 3.879640291078204e+000	 8.783491368677856e+000
 6.087798846073803e-001	 3.885922721176180e+000	 8.745971532284559e+000
 5.700146475776188e-001	 3.891797990537994e+000	 8.719630189028525e+000
 5.313206183671851e-001	 3.897269115457639e+000	 8.701003034879745e+000
 4.927034190860264e-001	 3.902339205074782e+000	 8.687670398789576e+000
 4.541685722679184e-001	 3.907011458158686e+000	 8.678180187767401e+000
 4.157214995353986e-001	 3.911289159882991e+000	 8.671951984932678e+000
 3.773675203732346e-001	 3.915175678595245e+000	 8.669167508381680e+000
 3.517857533948060e-001	 3.649765683230813e+000	 8.604437582124520e+000
 3.161181078051911e-001	 3.653027746903922e+000	 8.647587726633621e+000
 2.805469763476744e-001	 3.655931540248671e+000	 8.675601405303230e+000
 2.450771001425687e-001	 3.658480420160160e+000	 8.691384503823686e+000
 2.097131192376733e-001	 3.660677809123401e+000	 8.698973153861354e+000
 1.744595719637188e-001	 3.662527192196826e+000	 8.703594377833680e+000
 1.393208943850408e-001	 3.664032114011716e+000	 8.711725554170211e+000
 1.043014198436543e-001	 3.665196175790536e+000	 8.731154507056521e+000
 6.940537859482046e-002	 3.666023032386947e+000	 8.771041817836789e+000
 3.463689753212482e-002	 3.666516389350228e+000	 8.841986747118872e+000
 0.000000000000000e+000	 3.666680000016666e+000	 8.956097965305345e+000
 3.543439300923417e-001	 3.676306682767058e+000	 8.570682181821157e+000
 3.184169103270729e-001	 3.679592468080790e+000	 8.607134587341243e+000
 2.825871065421273e-001	 3.682517377733703e+000	 8.627625668160869e+000
 2.468592943351135e-001	 3.685084793032176e+000	 8.635571193421210e+000
 2.112381474961305e-001	 3.687298161349476e+000	 8.635463088592012e+000
 1.757282373585245e-001	 3.689160993087311e+000	 8.632916152879139e+000
 1.403340322455686e-001	 3.690676858653458e+000	 8.634714578455638e+000
 1.050598970112213e-001	 3.691849385458404e+000	 8.648860172000738e+000
 6.991009267304291e-002	 3.692682254933840e+000	 8.684623958793461e+000
 3.488877613527512e-002	 3.693179199575722e+000	 8.752602628149871e+000
 0.000000000000000e+000	 3.693344000014533e+000	 8.864781073205203e+000
 3.569021067900821e-001	 3.702847682303435e+000	 8.553194646687510e+000
 3.207157128492248e-001	 3.706157189257729e+000	 8.583716227722501e+000
 2.846272367369185e-001	 3.709103215218714e+000	 8.597397467358528e+000
 2.486414885280597e-001	 3.711689165904061e+000	 8.598063592129003e+000
 2.127631757550383e-001	 3.713918513575290e+000	 8.590557224513503e+000
 1.769969027538079e-001	 3.715794793977405e+000	 8.580770461207514e+000
 1.413471701065711e-001	 3.717321603294685e+000	 8.575677787919513e+000
 1.058183741792213e-001	 3.718502595125647e+000	 8.583371831362056e+000
 7.041480675161065e-002	 3.719341477480015e+000	 8.613103714904840e+000
 3.514065473862889e-002	 3.719842009800439e+000	 8.675329549031350e+000
 0.000000000000000e+000	 3.720008000011599e+000	 8.781764366955773e+000
 3.594602834879763e-001	 3.729388681839912e+000	 8.549184040941876e+000
 3.230145153715792e-001	 3.732721910434722e+000	 8.574321083426280e+000
 2.866673669319635e-001	 3.735689052703709e+000	 8.581703176088963e+000
 2.504236827213069e-001	 3.738293538775842e+000	 8.575477011159679e+000
 2.142882040142840e-001	 3.740538865800908e+000	 8.560743006777143e+000
 1.782655681494497e-001	 3.742428594867207e+000	 8.543571990292831e+000
 1.423603079679294e-001	 3.743966347935524e+000	 8.531023808566454e+000
 1.065768513475461e-001	 3.745155804792419e+000	 8.531169969935053e+000
 7.091952083043732e-002	 3.746000700025650e+000	 8.553122173794334e+000
 3.539253334213530e-002	 3.746504820024575e+000	 8.607068333958900e+000
 0.000000000000000e+000	 3.746672000008066e+000	 8.704317465683017e+000
 3.620184601859728e-001	 3.755929681376454e+000	 8.555885487807897e+000
 3.253133178940685e-001	 3.759286631611750e+000	 8.575972738329224e+000
 2.887074971271778e-001	 3.762274890188694e+000	 8.577375301594127e+000
 2.522058769147549e-001	 3.764897911647556e+000	 8.564485914620432e+000
 2.158132322737550e-001	 3.767159218026397e+000	 8.542582217695260e+000
 1.795342335453303e-001	 3.769062395756812e+000	 8.517827241956370e+000
 1.433734458295250e-001	 3.770611092576106e+000	 8.497272972653619e+000
 1.073353285160875e-001	 3.771809014458875e+000	 8.488869200729075e+000
 7.142423490943663e-002	 3.772659922570928e+000	 8.501479611470616e+000
 3.564441194574342e-002	 3.773167630248318e+000	 8.544906794208753e+000
 0.000000000000000e+000	 3.773336000004134e+000	 8.629927604677214e+000
 3.645766368840204e-001	 3.782470680913030e+000	 8.570558799184179e+000
 3.276121204166254e-001	 3.785851352788797e+000	 8.585728085745433e+000
 2.907476273224767e-001	 3.788860727673674e+000	 8.581290122912277e+000
 2.539880711083032e-001	 3.791502284519237e+000	 8.561820986373927e+000
 2.173382605333388e-001	 3.793779570251820e+000	 8.532707432811176e+000
 1.808028989413304e-001	 3.795696196646321e+000	 8.500130345205990e+000
 1.443865836912393e-001	 3.797255837216559e+000	 8.471052463244751e+000
 1.080938056847371e-001	 3.798462224125175e+000	 8.453212723469349e+000
 7.192894898852230e-002	 3.799319145116026e+000	 8.455129254205701e+000
 3.589629054940242e-002	 3.799830440471868e+000	 8.486112789899311e+000
 0.000000000000000e+000	 3.800000000000001e+000	 8.556292000502980e+000
 3.671348135820682e-001	 3.809011680449607e+000	 8.590487179823565e+000
 3.299109229391823e-001	 3.812416073965843e+000	 8.600675582195660e+000
 2.927877575177755e-001	 3.815446565158654e+000	 8.590365441136330e+000
 2.557702653018515e-001	 3.818106657390918e+000	 8.564266331081251e+000
 2.188632887929225e-001	 3.820399922477242e+000	 8.527818634370272e+000
 1.820715643373305e-001	 3.822329997535829e+000	 8.487159051060297e+000
 1.453997215529536e-001	 3.823900581857012e+000	 8.449091666515248e+000
 1.088522828533867e-001	 3.825115433791474e+000	 8.421067017631236e+000
 7.243366306760793e-002	 3.825978367661123e+000	 8.411171302563639e+000
 3.614816915306143e-002	 3.826493250695419e+000	 8.428127582182302e+000
 0.000000000000000e+000	 3.826663999995868e+000	 8.481310535305054e+000
 3.696929902800646e-001	 3.835552679986150e+000	 8.612976002410861e+000
 3.322097254616717e-001	 3.838980795142871e+000	 8.617933589252090e+000
 2.948278877129898e-001	 3.842032402643637e+000	 8.601558436734370e+000
 2.575524594952994e-001	 3.844711030262633e+000	 8.568656802931907e+000
 2.203883170523936e-001	 3.847020274702731e+000	 8.524679974569805e+000
 1.833402297332110e-001	 3.848963798425434e+000	 8.475670900540026e+000
 1.464128594145492e-001	 3.850545326497594e+000	 8.428217721746107e+000
 1.096107600219280e-001	 3.851768643457931e+000	 8.389416758646647e+000
 7.293837714660725e-002	 3.852637590206400e+000	 8.366847204876121e+000
 3.640004775666957e-002	 3.853156060919164e+000	 8.368559461792323e+000
 0.000000000000000e+000	 3.853327999991935e+000	 8.403078744850715e+000
 3.722511669779586e-001	 3.862093679522626e+000	 8.635351650129287e+000
 3.345085279840260e-001	 3.865545516319864e+000	 8.634648799221788e+000
 2.968680179080347e-001	 3.868618240128633e+000	 8.611863628780977e+000
 2.593346536885468e-001	 3.871315403134416e+000	 8.571875455917557e+000
 2.219133453116393e-001	 3.873640626928348e+000	 8.520116681381191e+000
 1.846088951288528e-001	 3.875597599315237e+000	 8.462499557499282e+000
 1.474259972759075e-001	 3.877190071138433e+000	 8.405351259499264e+000
 1.103692371902528e-001	 3.878421853124702e+000	 8.355359946548369e+000
 7.344309122543394e-002	 3.879296812752036e+000	 8.319534168174126e+000
 3.665192636017595e-002	 3.879818871143298e+000	 8.305177640662173e+000
 0.000000000000000e+000	 3.879991999988402e+000	 8.319881095695983e+000
 3.748093436756991e-001	 3.888634679059003e+000	 8.654960423490964e+000
 3.368073305061778e-001	 3.892110237496803e+000	 8.647994740664375e+000
 2.989081481028261e-001	 3.895204077613644e+000	 8.618310931232205e+000
 2.611168478814930e-001	 3.897919776006299e+000	 8.570851109841986e+000
 2.234383735705471e-001	 3.900260979154164e+000	 8.511012100134705e+000
 1.858775605241363e-001	 3.902231400205331e+000	 8.444551298419299e+000
 1.484391351369099e-001	 3.903834815779660e+000	 8.377502318980254e+000
 1.111277143582529e-001	 3.905075062791944e+000	 8.316103236899000e+000
 7.394780530400166e-002	 3.905956035298211e+000	 8.266739895222457e+000
 3.690380496352973e-002	 3.906481681368015e+000	 8.235906394035370e+000
 0.000000000000000e+000	 3.906655999985469e+000	 8.230184537663185e+000
 3.773675203732346e-001	 3.915175678595245e+000	 8.669167508381680e+000
 3.391061330280596e-001	 3.918674958673670e+000	 8.655170359953099e+000
 3.009482782972789e-001	 3.921789915098675e+000	 8.617963801636048e+000
 2.628990420740376e-001	 3.924524148878315e+000	 8.562556026574621e+000
 2.249634018290041e-001	 3.926881331380236e+000	 8.494304864421913e+000
 1.871462259189420e-001	 3.928865201095816e+000	 8.418801651716349e+000
 1.494522729974377e-001	 3.930479560421402e+000	 8.341766436087088e+000
 1.118861915258198e-001	 3.931728272459813e+000	 8.268957464409487e+000
 7.445251938222409e-002	 3.932615257845103e+000	 8.206097536932216e+000
 3.715568356668002e-002	 3.933144491593509e+000	 8.158819441189474e+000
 0.000000000000000e+000	 3.933319999983334e+000	 8.132632318564577e+000
 3.933319999983334e+000	 0.000000000000000e+000	 1.054826541325900e+001
 3.933144491593509e+000	 3.715568356668014e-002	 1.060783984299644e+001
 3.932615257845103e+000	 7.445251938222434e-002	 1.063519438887076e+001
 3.931728272459812e+000	 1.118861915258195e-001	 1.063861739135595e+001
 3.930479560421403e+000	 1.494522729974376e-001	 1.062601320361844e+001
 3.928865201095816e+000	 1.871462259189419e-001	 1.060488544032070e+001
 3.926881331380236e+000	 2.249634018290042e-001	 1.058231394188798e+001
 3.924524148878316e+000	 2.628990420740378e-001	 1.056492574681470e+001
 3.921789915098675e+000	 3.009482782972785e-001	 1.055886046985260e+001
 3.918674958673671e+000	 3.391061330280594e-001	 1.056973059844354e+001
 3.915175678595246e+000	 3.773675203732345e-001	 1.060257733809733e+001
 3.959987999982150e+000	 0.000000000000000e+000	 1.057756865781012e+001
 3.959811301641444e+000	 3.740759995516202e-002	 1.063042308722062e+001
 3.959278479676159e+000	 7.495730917472705e-002	 1.065346205082360e+001
 3.958385480509717e+000	 1.126447824758346e-001	 1.065431345966364e+001
 3.957128302175166e+000	 1.504655628432892e-001	 1.064029040910758e+001
 3.955502997456446e+000	 1.884150816320309e-001	 1.061837321065781e+001
 3.953505677058800e+000	 2.264886588640513e-001	 1.059518444619494e+001
 3.951132512805530e+000	 2.646815036219777e-001	 1.057695733384661e+001
 3.948379740858182e+000	 3.029887145414693e-001	 1.056949780611353e+001
 3.945243664957141e+000	 3.414052804044880e-001	 1.057814082127598e+001
 3.941720659679418e+000	 3.799260808354097e-001	 1.060770155357780e+001
 3.986655999981866e+000	 0.000000000000000e+000	 1.056978169767390e+001
 3.986478111690256e+000	 3.765951634344035e-002	 1.062087170882646e+001
 3.985941701508023e+000	 7.546209896688422e-002	 1.064410040488972e+001
 3.985042688560327e+000	 1.134033734254160e-001	 1.064642239847576e+001
 3.983777043929509e+000	 1.514788526886650e-001	 1.063455185261680e+001
 3.982140793817519e+000	 1.896839373446401e-001	 1.061494321884263e+001
 3.980130022737659e+000	 2.280139158986443e-001	 1.059376426920800e+001
 3.977740876732896e+000	 2.664639651695105e-001	 1.057686170762619e+001
 3.974969566617713e+000	 3.050291507853134e-001	 1.056971976365040e+001
 3.971812371240533e+000	 3.437044277806347e-001	 1.057741229833684e+001
 3.968265640763441e+000	 3.824846412973638e-001	 1.060454908266137e+001
 4.013323999982382e+000	 0.000000000000000e+000	 1.052214493921142e+001
 4.013144921739844e+000	 3.791143273156598e-002	 1.057641538755139e+001
 4.012604923340605e+000	 7.596688875878213e-002	 1.060414636229253e+001
 4.011699896611567e+000	 1.141619643746716e-001	 1.061176433836142e+001
 4.010425785684371e+000	 1.524921425336828e-001	 1.060550043492643e+001
 4.008778590178979e+000	 1.909527930568868e-001	 1.059136146708265e+001
 4.006754368416777e+000	 2.295391729328923e-001	 1.057509798094815e+001
 4.004349240660397e+000	 2.682464267167314e-001	 1.056216900730736e+001
 4.001559392377266e+000	 3.070695870288871e-001	 1.055770324228950e+001
 3.998381077523853e+000	 3.460035751565556e-001	 1.056644549192089e+001
 3.994810621847332e+000	 3.850432017591319e-001	 1.059270065809803e+001
 4.039991999983599e+000	 0.000000000000000e+000	 1.047331720847565e+001
 4.039811731790116e+000	 3.816334911958979e-002	 1.052970476989907e+001
 4.039268145173817e+000	 7.647167855050699e-002	 1.056076063750810e+001
 4.038357104663356e+000	 1.149205553237095e-001	 1.057248843062129e+001
 4.037074527439683e+000	 1.535054323784602e-001	 1.057071601171505e+001
 4.035416386540783e+000	 1.922216487688887e-001	 1.056106786389491e+001
 4.033378714096124e+000	 2.310644299669047e-001	 1.054893452662974e+001
 4.030957604588014e+000	 2.700288882637349e-001	 1.053943881910146e+001
 4.028149218136838e+000	 3.091100232722672e-001	 1.053739855267878e+001
 4.024949783807112e+000	 3.483027225323063e-001	 1.054728540842869e+001
 4.021355602931107e+000	 3.876017622207494e-001	 1.057317962983341e+001
 4.066659999985416e+000	 0.000000000000000e+000	 1.043165636367146e+001
 4.066478541840970e+000	 3.841526550756264e-002	 1.048827184011273e+001
 4.065931367007566e+000	 7.697646834214497e-002	 1.052097337373825e+001
 4.065014312715617e+000	 1.156791462726372e-001	 1.053533172446534e+001
 4.063723269195385e+000	 1.545187222231149e-001	 1.053676043504895e+001
 4.062054182902881e+000	 1.934905044807632e-001	 1.053048957032743e+001
 4.060003059775669e+000	 2.325896870007906e-001	 1.052153659978250e+001
 4.057565968515734e+000	 2.718113498106163e-001	 1.051467414723027e+001
 4.054739043896424e+000	 3.111504595155297e-001	 1.051439430230886e+001
 4.051518490090317e+000	 3.506018699079425e-001	 1.052486916108974e+001
 4.047900584014782e+000	 3.901603226822512e-001	 1.054990723556872e+001
 4.093327999987731e+000	 0.000000000000000e+000	 1.039866047377301e+001
 4.093145351892312e+000	 3.866718189553542e-002	 1.045370245331349e+001
 4.092594588841764e+000	 7.748125813378227e-002	 1.048645650972297e+001
 4.091671520768268e+000	 1.164377372215629e-001	 1.050205092886436e+001
 4.090372010951406e+000	 1.555320120677646e-001	 1.050547420162174e+001
 4.088691979265223e+000	 1.947593601926277e-001	 1.050155016062748e+001
 4.086627405455375e+000	 2.341149440346594e-001	 1.049491035594033e+001
 4.084174332443538e+000	 2.735938113574702e-001	 1.048996338820269e+001
 4.081328869656023e+000	 3.131908957587514e-001	 1.049086088725495e+001
 4.078087196373478e+000	 3.529010172835201e-001	 1.050145979502716e+001
 4.074445565098373e+000	 3.927188831436725e-001	 1.052528058205076e+001
 4.119995999990449e+000	 0.000000000000000e+000	 1.037591014408089e+001
 4.119812161944040e+000	 3.891909828355897e-002	 1.042764623351491e+001
 4.119257810676322e+000	 7.798604792550518e-002	 1.045892793006171e+001
 4.118328728821235e+000	 1.171963281705942e-001	 1.047443181049606e+001
 4.117020752707688e+000	 1.565453019125268e-001	 1.047871090035560e+001
 4.115329775627761e+000	 1.960282159045999e-001	 1.047617124355679e+001
 4.113251751135212e+000	 2.356402010686202e-001	 1.047104581756927e+001
 4.110782696371409e+000	 2.753762729043918e-001	 1.046736550765373e+001
 4.107918695415634e+000	 3.152313320020084e-001	 1.046892682161922e+001
 4.104655902656603e+000	 3.552001646590953e-001	 1.047925599549903e+001
 4.100990546181900e+000	 3.952774436050482e-001	 1.050156910908978e+001
 4.146663999993465e+000	 0.000000000000000e+000	 1.036506586218430e+001
 4.146478971996062e+000	 3.917101467168417e-002	 1.041181420245609e+001
 4.145921032511151e+000	 7.849083771739990e-002	 1.044014938307603e+001
 4.144985936874439e+000	 1.179549191198392e-001	 1.045428740696884e+001
 4.143669494464162e+000	 1.575585917575192e-001	 1.045833572746460e+001
 4.141967571990445e+000	 1.972970716167970e-001	 1.045627128588967e+001
 4.139876096815146e+000	 2.371654581027823e-001	 1.045191601269015e+001
 4.137391060299331e+000	 2.771587344514758e-001	 1.044890950085225e+001
 4.134508521175254e+000	 3.172717682453773e-001	 1.045067852672522e+001
 4.131224608939702e+000	 3.574993120347234e-001	 1.046040306033123e+001
 4.127535527265377e+000	 3.978360040664135e-001	 1.048097837372301e+001
 4.173331999996682e+000	 0.000000000000000e+000	 1.036786544568195e+001
 4.173145782048277e+000	 3.942293105996187e-002	 1.040797649960603e+001
 4.172584254346157e+000	 7.899562750955259e-002	 1.043192447954757e+001
 4.171643144927797e+000	 1.187135100694056e-001	 1.044345631089956e+001
 4.170318236220768e+000	 1.585718816028597e-001	 1.044622406261315e+001
 4.168605368353229e+000	 1.985659273293367e-001	 1.044376448750292e+001
 4.166500442495146e+000	 2.386907151372550e-001	 1.043947615583605e+001
 4.163999424227287e+000	 2.789411959988172e-001	 1.043659388651709e+001
 4.161098346934876e+000	 3.193122044889346e-001	 1.043816014481781e+001
 4.157793315222783e+000	 3.597984594104604e-001	 1.044699304053019e+001
 4.154080508348820e+000	 4.003945645278036e-001	 1.046565052474944e+001
 4.200000000000001e+000	 0.000000000000000e+000	 1.038612158713676e+001
 4.199812592100591e+000	 3.967484744844298e-002	 1.041796018929127e+001
 4.199247476181254e+000	 7.950041730204951e-002	 1.043609676873670e+001
 4.198300352981237e+000	 1.194721010194014e-001	 1.044380102169406e+001
 4.196966977977437e+000	 1.595851714486656e-001	 1.044426010345338e+001
 4.195243164716060e+000	 1.998347830423366e-001	 1.044055970576577e+001
 4.193124788175180e+000	 2.402159721721477e-001	 1.043566286946160e+001
 4.190607788155260e+000	 2.807236575465109e-001	 1.043238623246215e+001
 4.187688172694504e+000	 3.213526407327567e-001	 1.043337337617924e+001
 4.184362021505856e+000	 3.620976067863622e-001	 1.044106489610042e+001
 4.180625489432249e+000	 4.029531249892535e-001	 1.045766478444768e+001
 3.915175678595246e+000	 3.773675203732345e-001	 1.060257733809733e+001
 3.911289159882991e+000	 4.157214995353987e-001	 1.064000824927579e+001
 3.907011458158685e+000	 4.541685722679180e-001	 1.066368887441942e+001
 3.902339205074782e+000	 4.927034190860264e-001	 1.067633741496437e+001
 3.897269115457639e+000	 5.313206183671849e-001	 1.068005594601704e+001
 3.891797990537994e+000	 5.700146475776188e-001	 1.067628191876099e+001
 3.885922721176181e+000	 6.087798846073804e-001	 1.066574142811990e+001
 3.879640291078204e+000	 6.476106092149703e-001	 1.064840571803531e+001
 3.872947779998714e+000	 6.865010045823983e-001	 1.062630005344000e+001
 3.865842366926857e+000	 7.254451589814351e-001	 1.061639171016851e+001
 3.858321333250832e+000	 7.644370675516264e-001	 1.062444810817613e+001
 3.941720659679418e+000	 3.799260808354097e-001	 1.060770155357780e+001
 3.937807790280955e+000	 4.185401008579659e-001	 1.064185845062302e+001
 3.933501085640565e+000	 4.572478456274203e-001	 1.066332169631221e+001
 3.928797154573237e+000	 4.960439595927763e-001	 1.067460794284386e+001
 3.923692689631787e+000	 5.349229843727675e-001	 1.067764768703654e+001
 3.918184470359235e+000	 5.738793599907123e-001	 1.067372949381008e+001
 3.912269366535888e+000	 6.129074262186267e-001	 1.066344554335649e+001
 3.905944341417220e+000	 6.520014240316406e-001	 1.064664003548073e+001
 3.899206454958562e+000	 6.911554971736033e-001	 1.062619237544753e+001
 3.892052867022555e+000	 7.303636938346295e-001	 1.061717917445260e+001
 3.884480840565159e+000	 7.696199684411721e-001	 1.062400960732405e+001
 3.968265640763441e+000	 3.824846412973638e-001	 1.060454908266137e+001
 3.964326420678744e+000	 4.213587021803618e-001	 1.063594110141361e+001
 3.959990713122277e+000	 4.603271189867886e-001	 1.065542922875148e+001
 3.955255104071564e+000	 4.993845000994172e-001	 1.066539031403361e+001
 3.950116263805866e+000	 5.385253503782557e-001	 1.066764710827504e+001
 3.944570950180483e+000	 5.777440724037150e-001	 1.066340471795481e+001
 3.938616011895684e+000	 6.170349678297757e-001	 1.065318791093554e+001
 3.932248391756403e+000	 6.563922388481975e-001	 1.063678087122469e+001
 3.925465129918650e+000	 6.958099897646696e-001	 1.061790009608340e+001
 3.918263367118544e+000	 7.352822286876528e-001	 1.060942887561091e+001
 3.910640347879802e+000	 7.748028693305062e-001	 1.061487853975299e+001
 3.994810621847332e+000	 3.850432017591319e-001	 1.059270065809803e+001
 3.990845051076375e+000	 4.241773035026022e-001	 1.062245227901800e+001
 3.986480340603841e+000	 4.634063923460213e-001	 1.064075166019903e+001
 3.981713053569776e+000	 5.027250406059335e-001	 1.064990041660733e+001
 3.976539837979888e+000	 5.421277163836207e-001	 1.065168039543833e+001
 3.970957430001741e+000	 5.816087848165876e-001	 1.064728185507517e+001
 3.964962657255564e+000	 6.211625094407804e-001	 1.063723199342531e+001
 3.958552442095746e+000	 6.607830536645895e-001	 1.062132548779054e+001
 3.951723804878960e+000	 7.004644823555440e-001	 1.060402650232465e+001
 3.944473867214805e+000	 7.402007635404504e-001	 1.059591206087901e+001
 3.936799855194743e+000	 7.799857702195772e-001	 1.059995122959923e+001
 4.021355602931107e+000	 3.876017622207494e-001	 1.057317962983342e+001
 4.017363681473869e+000	 4.269959048247033e-001	 1.060209417761506e+001
 4.012969968085275e+000	 4.664856657051180e-001	 1.062013120813649e+001
 4.008171003067891e+000	 5.060655811123093e-001	 1.062936242695295e+001
 4.002963412153861e+000	 5.457300823888341e-001	 1.063140521399582e+001
 3.997343909823011e+000	 5.854734972292921e-001	 1.062736746923685e+001
 3.991309302615524e+000	 6.252900510515952e-001	 1.061786247892037e+001
 3.984856492435233e+000	 6.651738684807650e-001	 1.060278113256734e+001
 3.977982479839473e+000	 7.051189749461716e-001	 1.058718880952542e+001
 3.970684367311317e+000	 7.451192983929695e-001	 1.057940946464260e+001
 3.962959362509964e+000	 7.851686711083349e-001	 1.058212931782461e+001
 4.047900584014782e+000	 3.901603226822512e-001	 1.054990723556872e+001
 4.043882311871244e+000	 4.298145061466807e-001	 1.057762386015589e+001
 4.039459595566599e+000	 4.695649390640772e-001	 1.059526898419690e+001
 4.034628952565923e+000	 5.094061216185286e-001	 1.060475884111911e+001
 4.029386986327793e+000	 5.493324483938677e-001	 1.060759069567625e+001
 4.023730389644293e+000	 5.893382096417900e-001	 1.060477711752791e+001
 4.017655947975552e+000	 6.294175926621729e-001	 1.059677326247614e+001
 4.011160542774849e+000	 6.695646832966722e-001	 1.058342066327904e+001
 4.004241154800173e+000	 7.097734675364990e-001	 1.056997804657556e+001
 3.996894867408061e+000	 7.500378332451562e-001	 1.056271109297747e+001
 3.989118869825450e+000	 7.903515719967292e-001	 1.056431945254082e+001
 4.074445565098373e+000	 3.927188831436725e-001	 1.052528058205076e+001
 4.070400942268521e+000	 4.326331074685511e-001	 1.055152558206713e+001
 4.065949223047831e+000	 4.726442124228984e-001	 1.056859542950322e+001
 4.061086902063884e+000	 5.127466621245758e-001	 1.057826084820897e+001
 4.055810560501691e+000	 5.529348143986932e-001	 1.058190797617509e+001
 4.050116869465589e+000	 5.932029220540418e-001	 1.058047448601098e+001
 4.044002593335647e+000	 6.335451342724678e-001	 1.057437867108302e+001
 4.037464593114587e+000	 6.739554981122600e-001	 1.056356369071308e+001
 4.030499829761044e+000	 7.144279601264721e-001	 1.055300638255624e+001
 4.023105367505020e+000	 7.549563680969565e-001	 1.054735543377051e+001
 4.015278377141184e+000	 7.955344728847097e-001	 1.054889092360816e+001
 4.100990546181900e+000	 3.952774436050482e-001	 1.050156910908978e+001
 4.096919572665721e+000	 4.354517087903299e-001	 1.052613168384122e+001
 4.092438850528989e+000	 4.757234857815803e-001	 1.054248905438542e+001
 4.087544851561791e+000	 5.160872026304351e-001	 1.055227559434158e+001
 4.082234134675567e+000	 5.565371804032819e-001	 1.055677446202121e+001
 4.076503349286900e+000	 5.970676344660097e-001	 1.055685565079545e+001
 4.070349238695803e+000	 6.376726758824337e-001	 1.055290697225657e+001
 4.063768643454428e+000	 6.783463129274764e-001	 1.054500023295393e+001
 4.056758504722066e+000	 7.190824527160370e-001	 1.053747572034580e+001
 4.049315867602173e+000	 7.598749029483172e-001	 1.053380697073360e+001
 4.041437884457146e+000	 8.007173737722259e-001	 1.053604724239044e+001
 4.127535527265377e+000	 3.978360040664135e-001	 1.048097837372302e+001
 4.123438203062861e+000	 4.382703101120334e-001	 1.050370111182878e+001
 4.118928478010090e+000	 4.788027591401218e-001	 1.051924663718564e+001
 4.114002801059660e+000	 5.194277431360904e-001	 1.052912130875056e+001
 4.108657708849427e+000	 5.601395464076056e-001	 1.053451258769097e+001
 4.102889829108228e+000	 6.009323468776551e-001	 1.053622910532584e+001
 4.096695884056011e+000	 6.418002174920235e-001	 1.053463364057227e+001
 4.090072693794363e+000	 6.827371277422706e-001	 1.052990306187186e+001
 4.083017179683222e+000	 7.237369453051398e-001	 1.052552929117345e+001
 4.075526367699502e+000	 7.647934377991846e-001	 1.052413779863742e+001
 4.067597391773322e+000	 8.059002746592269e-001	 1.052755946757079e+001
 4.154080508348820e+000	 4.003945645278036e-001	 1.046565052474944e+001
 4.149956833459963e+000	 4.410889114336775e-001	 1.048642022675669e+001
 4.145418105491158e+000	 4.818820324985224e-001	 1.050108435961454e+001
 4.140460750557502e+000	 5.227682836415259e-001	 1.051102875823533e+001
 4.135081283023280e+000	 5.637419124116356e-001	 1.051735158079370e+001
 4.129276308929573e+000	 6.047970592889388e-001	 1.052080548668807e+001
 4.123042529416265e+000	 6.459277591011916e-001	 1.052173271075420e+001
 4.116376744134380e+000	 6.871279425565907e-001	 1.052035203031698e+001
 4.109275854644496e+000	 7.283914378937263e-001	 1.051921433737602e+001
 4.101736867796986e+000	 7.697119726495050e-001	 1.052034322457498e+001
 4.093756899089693e+000	 8.110831755456631e-001	 1.052535144222496e+001
 4.180625489432249e+000	 4.029531249892535e-001	 1.045766478444768e+001
 4.176475463857044e+000	 4.439075127552786e-001	 1.047640361184832e+001
 4.171907732972210e+000	 4.849613058567809e-001	 1.049013893482819e+001
 4.166918700055335e+000	 5.261088241467261e-001	 1.050014268815916e+001
 4.161504857197135e+000	 5.673442784153436e-001	 1.050742920834558e+001
 4.155662788750936e+000	 6.086617716998225e-001	 1.051269961888466e+001
 4.149389174776560e+000	 6.500553007098914e-001	 1.051627910903104e+001
 4.142680794474464e+000	 6.915187573703855e-001	 1.051833581282724e+001
 4.135534529605870e+000	 7.330459304817428e-001	 1.052048403116300e+001
 4.127947367894608e+000	 7.746305074992249e-001	 1.052432247328997e+001
 4.119916406406245e+000	 8.162660764314833e-001	 1.053124978671979e+001
 3.858321333250832e+000	 7.644370675516264e-001	 1.062444810817613e+001
 3.850380843942109e+000	 8.034764911172418e-001	 1.064230126415292e+001
 3.842019493278809e+000	 8.425513879866889e-001	 1.066054326916829e+001
 3.833234890918528e+000	 8.816554735420564e-001	 1.068005977449404e+001
 3.824024761409275e+000	 9.207823780247851e-001	 1.070136909812995e+001
 3.814386947187075e+000	 9.599256488797630e-001	 1.072460531086848e+001
 3.804319411526238e+000	 9.990787532115453e-001	 1.074950270919623e+001
 3.793820241437710e+000	 1.038235080352055e+000	 1.077537938898806e+001
 3.782887650511028e+000	 1.077387944538931e+000	 1.080113789337033e+001
 3.771519981695345e+000	 1.116530587703505e+000	 1.082523658748920e+001
 3.759715710014934e+000	 1.155656182367169e+000	 1.084569936990557e+001
 3.884480840565159e+000	 7.696199684411721e-001	 1.062400960732405e+001
 3.876486514556274e+000	 8.089240801958826e-001	 1.063956873021638e+001
 3.868068473743194e+000	 8.482639057642207e-001	 1.065561600663902e+001
 3.859224311576942e+000	 8.876331179184213e-001	 1.067305389623403e+001
 3.849951737177909e+000	 9.270253037128126e-001	 1.069243197184102e+001
 3.840248578353792e+000	 9.664339668438116e-001	 1.071392800634889e+001
 3.830112784569850e+000	 1.005852530122790e+000	 1.073733035625562e+001
 3.819542429866924e+000	 1.045274338061189e+000	 1.076201977998623e+001
 3.808535715722648e+000	 1.084692659567023e+000	 1.078696612315913e+001
 3.797090973851327e+000	 1.124100690751761e+000	 1.081070034634920e+001
 3.785206668937873e+000	 1.163491557846334e+000	 1.083131988328260e+001
 3.910640347879802e+000	 7.748028693305062e-001	 1.061487853975299e+001
 3.902592185170744e+000	 8.143716692742634e-001	 1.062811594749535e+001
 3.894117454207847e+000	 8.539764235414398e-001	 1.064199312250008e+001
 3.885213732235560e+000	 8.936107622944155e-001	 1.065743780234008e+001
 3.875878712946665e+000	 9.332682294004112e-001	 1.067503859687868e+001
 3.866110209520530e+000	 9.729422848073702e-001	 1.069502391907276e+001
 3.855906157613377e+000	 1.012626307033486e+000	 1.071723896801995e+001
 3.845264618295935e+000	 1.052313595769716e+000	 1.074114132370708e+001
 3.834183780933947e+000	 1.091997374594454e+000	 1.076576222269443e+001
 3.822661966006884e+000	 1.131670793799310e+000	 1.078971021346707e+001
 3.810697627860288e+000	 1.171326933324751e+000	 1.081115649546464e+001
 3.936799855194743e+000	 7.799857702195772e-001	 1.059995122959923e+001
 3.928697855785512e+000	 8.198192583523399e-001	 1.061092329534576e+001
 3.920166434672769e+000	 8.596889413183102e-001	 1.062269999341007e+001
 3.911203152894398e+000	 8.995884066700153e-001	 1.063624379002466e+001
 3.901805688715572e+000	 9.395111550875679e-001	 1.065219115851859e+001
 3.891971840687339e+000	 9.794506027704418e-001	 1.067082919263502e+001
 3.881699530656881e+000	 1.019400083943650e+000	 1.069207063195212e+001
 3.870986806724833e+000	 1.059352853477671e+000	 1.071544497002859e+001
 3.859831846145038e+000	 1.099302089621277e+000	 1.074006043634390e+001
 3.848232958162134e+000	 1.139240896846218e+000	 1.076460269227528e+001
 3.836188586782309e+000	 1.179162308802503e+000	 1.078731825036978e+001
 3.962959362509964e+000	 7.851686711083349e-001	 1.058212931782461e+001
 3.954803526400566e+000	 8.252668474300684e-001	 1.059097257088692e+001
 3.946215415137962e+000	 8.654014590947966e-001	 1.060075978666120e+001
 3.937192573553473e+000	 9.055660510451958e-001	 1.061249862087819e+001
 3.927732664484666e+000	 9.457540807742725e-001	 1.062688331048138e+001
 3.917833471854273e+000	 9.859589207330297e-001	 1.064426880330658e+001
 3.907492903700438e+000	 1.026173860853301e+000	 1.066464359759683e+001
 3.896708995153702e+000	 1.066392111185088e+000	 1.068761643070984e+001
 3.885479911356018e+000	 1.106606804647541e+000	 1.071237839622980e+001
 3.873803950317198e+000	 1.146810999892552e+000	 1.073769678080556e+001
 3.861679545704069e+000	 1.186997684279673e+000	 1.076189630423102e+001
 3.989118869825450e+000	 7.903515719967292e-001	 1.056431945254082e+001
 3.980909197015897e+000	 8.307144365074038e-001	 1.057124655937326e+001
 3.972264395603426e+000	 8.711139768708636e-001	 1.057919288619728e+001
 3.963181994212799e+000	 9.115436954199335e-001	 1.058922277856013e+001
 3.953659640253977e+000	 9.519970064605123e-001	 1.060209924078082e+001
 3.943695103021376e+000	 9.924672386951351e-001	 1.061825541100732e+001
 3.933286276744112e+000	 1.032947637762458e+000	 1.063776498689547e+001
 3.922431183582630e+000	 1.073431368892000e+000	 1.066032453360200e+001
 3.911127976566998e+000	 1.113911519673297e+000	 1.068521519565127e+001
 3.899374942472197e+000	 1.154381102938380e+000	 1.071129174349457e+001
 3.887170504625702e+000	 1.194833059756341e+000	 1.073696137556722e+001
 4.015278377141184e+000	 7.955344728847097e-001	 1.054889092360816e+001
 4.007014867631494e+000	 8.361620255843024e-001	 1.055462021224743e+001
 3.998313376069162e+000	 8.768264946464753e-001	 1.056101627490349e+001
 3.989171414872387e+000	 9.175213397942025e-001	 1.056942968397646e+001
 3.979586616023536e+000	 9.582399321462761e-001	 1.058081269708941e+001
 3.969556734188702e+000	 9.989755566567616e-001	 1.059568817264330e+001
 3.959079649787975e+000	 1.039721414671136e+000	 1.061422570180283e+001
 3.948153372011706e+000	 1.080470626598443e+000	 1.063621954734855e+001
 3.936776041778080e+000	 1.121216234698595e+000	 1.066104943826435e+001
 3.924945934627249e+000	 1.161951205983767e+000	 1.068766486481114e+001
 3.912661463547339e+000	 1.202668435232591e+000	 1.071456118383165e+001
 4.041437884457146e+000	 8.007173737722259e-001	 1.053604724239044e+001
 4.033120538247349e+000	 8.416096146607200e-001	 1.054171536230250e+001
 4.024362356535170e+000	 8.825390124215965e-001	 1.054788212429143e+001
 4.015160835532259e+000	 9.234989841679794e-001	 1.055565040558906e+001
 4.005513591793375e+000	 9.644828578315521e-001	 1.056593213150310e+001
 3.995418365356301e+000	 1.005483874617912e+000	 1.057945151951387e+001
 3.984873022832094e+000	 1.046495191579357e+000	 1.059679897145663e+001
 3.973875560441019e+000	 1.087509884304450e+000	 1.061793147791157e+001
 3.962424106989368e+000	 1.128520949723485e+000	 1.064233726411672e+001
 3.950516926782475e+000	 1.169521309028779e+000	 1.066906918552900e+001
 3.938152422469113e+000	 1.210503810708505e+000	 1.069671787724965e+001
 4.067597391773322e+000	 8.059002746592269e-001	 1.052755946757079e+001
 4.059226208863447e+000	 8.470572037366113e-001	 1.053374854055019e+001
 4.050411337001455e+000	 8.882515301961920e-001	 1.054029891576650e+001
 4.041150256192424e+000	 9.294766285412385e-001	 1.054824931493991e+001
 4.031440567563525e+000	 9.707257835163288e-001	 1.055846178796986e+001
 4.021279996524220e+000	 1.011992192578588e+000	 1.057159366048336e+001
 4.010666395876541e+000	 1.053268968487136e+000	 1.058807605156662e+001
 3.999597748870652e+000	 1.094549142010055e+000	 1.060806833819263e+001
 3.988072172200968e+000	 1.135825664748018e+000	 1.063151035358024e+001
 3.976087918937997e+000	 1.177091412073484e+000	 1.065773122242612e+001
 3.963643381391156e+000	 1.218339186184163e+000	 1.068542545033444e+001
 4.093756899089693e+000	 8.110831755456631e-001	 1.052535144222496e+001
 4.085331879479782e+000	 8.525047928119331e-001	 1.053255330738777e+001
 4.076460317468012e+000	 8.939640479702253e-001	 1.053998617472173e+001
 4.067139676852903e+000	 9.354542729139562e-001	 1.054862058002212e+001
 4.057367543334021e+000	 9.769687092005943e-001	 1.055926333607879e+001
 4.047141627692514e+000	 1.018500510538794e+000	 1.057253013599893e+001
 4.036459768921380e+000	 1.060042745394492e+000	 1.058882314445427e+001
 4.025319937300696e+000	 1.101588399715292e+000	 1.060828766710318e+001
 4.013720237412985e+000	 1.143130379772244e+000	 1.063078434337310e+001
 4.001658911093933e+000	 1.184661515117947e+000	 1.065584718037582e+001
 3.989134340313600e+000	 1.226174561659649e+000	 1.068264715154100e+001
 4.119916406406245e+000	 8.162660764314833e-001	 1.053124978671979e+001
 4.111437550096344e+000	 8.579523818866409e-001	 1.053986569874979e+001
 4.102509297934843e+000	 8.996765657436617e-001	 1.054857211237605e+001
 4.093129097513706e+000	 9.414319172861080e-001	 1.055826717397172e+001
 4.083294519104891e+000	 9.832116348843372e-001	 1.056969691505983e+001
 4.073003258861229e+000	 1.025008828498531e+000	 1.058342849269140e+001
 4.062253141966685e+000	 1.066816522301443e+000	 1.059982706355956e+001
 4.051042125731239e+000	 1.108627657420195e+000	 1.061901456404447e+001
 4.039368302625527e+000	 1.150435094796214e+000	 1.064084089166768e+001
 4.027229903250404e+000	 1.192231618162235e+000	 1.066484254042353e+001
 4.014625299236578e+000	 1.234009937135045e+000	 1.069019912184012e+001
 3.759715710014934e+000	 1.155656182367169e+000	 1.084569936990557e+001
 3.747473444274480e+000	 1.194757834072111e+000	 1.086226182959647e+001
 3.734791926805089e+000	 1.233828582715533e+000	 1.087370097918251e+001
 3.721670038772552e+000	 1.272861407380663e+000	 1.087588305672098e+001
 3.708106803531545e+000	 1.311849230209201e+000	 1.086416601238696e+001
 3.694101388953216e+000	 1.350784919814787e+000	 1.083683233818578e+001
 3.679653109660587e+000	 1.389661294793495e+000	 1.081503519447568e+001
 3.664761429167448e+000	 1.428471127328699e+000	 1.080190963906047e+001
 3.649425961916560e+000	 1.467207146887431e+000	 1.079538088277668e+001
 3.633646475212943e+000	 1.505862044005179e+000	 1.079308917321735e+001
 3.617422891048259e+000	 1.544428474155829e+000	 1.079239228994630e+001
 3.785206668937873e+000	 1.163491557846334e+000	 1.083131988328260e+001
 3.772881400354629e+000	 1.202858319648345e+000	 1.084798563194104e+001
 3.760113901905669e+000	 1.242193968865346e+000	 1.085893532089803e+001
 3.746903047171049e+000	 1.281491436978598e+000	 1.086015500750115e+001
 3.733247852883756e+000	 1.320743598141761e+000	 1.084711191729024e+001
 3.719147481273076e+000	 1.359943272617522e+000	 1.082210634812311e+001
 3.704601242315142e+000	 1.399083230311878e+000	 1.080440141534235e+001
 3.689608595886351e+000	 1.438156194403447e+000	 1.079392951238730e+001
 3.674169153815358e+000	 1.477154845064890e+000	 1.078878638197540e+001
 3.658282681829496e+000	 1.516071823273362e+000	 1.078678764334923e+001
 3.641949101391516e+000	 1.554899734706702e+000	 1.078547075557701e+001
 3.810697627860288e+000	 1.171326933324751e+000	 1.081115649546464e+001
 3.798289356434169e+000	 1.210958805223801e+000	 1.082866566789469e+001
 3.785435877005572e+000	 1.250559355014358e+000	 1.083991567223458e+001
 3.772136055568818e+000	 1.290121466575712e+000	 1.084101331042151e+001
 3.758388902235206e+000	 1.329637966073492e+000	 1.082753644609119e+001
 3.744193573592157e+000	 1.369101625419422e+000	 1.080675575933046e+001
 3.729549374968920e+000	 1.408505165829424e+000	 1.079317350688166e+001
 3.714455762604491e+000	 1.447841261477359e+000	 1.078544484540026e+001
 3.698912345713430e+000	 1.487102543241513e+000	 1.078182917842426e+001
 3.682918888445374e+000	 1.526281602540710e+000	 1.078031186903550e+001
 3.666475311734168e+000	 1.565370995256741e+000	 1.077860566900992e+001
 3.836188586782309e+000	 1.179162308802503e+000	 1.078731825036978e+001
 3.823697312513242e+000	 1.219059290798574e+000	 1.080617580765661e+001
 3.810757852104945e+000	 1.258924741162679e+000	 1.081829505594880e+001
 3.797369063966007e+000	 1.298751496172132e+000	 1.081990583993685e+001
 3.783529951586039e+000	 1.338532334004527e+000	 1.080692614267595e+001
 3.769239665910597e+000	 1.378259978220629e+000	 1.079150817940039e+001
 3.754497507622050e+000	 1.417927101346283e+000	 1.078195967362988e+001
 3.739302929321989e+000	 1.457526328550590e+000	 1.077696362180632e+001
 3.723655537610877e+000	 1.497050241417461e+000	 1.077493663017136e+001
 3.707555095060664e+000	 1.536491381807390e+000	 1.077402857727225e+001
 3.691001522076283e+000	 1.575842255806114e+000	 1.077212350490794e+001
 3.861679545704069e+000	 1.186997684279673e+000	 1.076189630423102e+001
 3.849105268591986e+000	 1.227159776372762e+000	 1.078237164627318e+001
 3.836079827203931e+000	 1.267290127310417e+000	 1.079570730996298e+001
 3.822602072362763e+000	 1.307381525767979e+000	 1.079825988211787e+001
 3.808671000936400e+000	 1.347426701935000e+000	 1.078734150608753e+001
 3.794285758228536e+000	 1.387418331021288e+000	 1.077709615257004e+001
 3.779445640274659e+000	 1.427349036862606e+000	 1.077137396102526e+001
 3.764150096038960e+000	 1.467211395623299e+000	 1.076900002984602e+001
 3.748398729507805e+000	 1.506997939592899e+000	 1.076854212733452e+001
 3.732191301675452e+000	 1.546701161073566e+000	 1.076830982367521e+001
 3.715527732417928e+000	 1.586313516354986e+000	 1.076635483777608e+001
 3.887170504625702e+000	 1.194833059756341e+000	 1.073696137556722e+001
 3.874513224670546e+000	 1.235260261946463e+000	 1.075908763007827e+001
 3.861401802302679e+000	 1.275655513457684e+000	 1.077376390713504e+001
 3.847835080759229e+000	 1.316011555363373e+000	 1.077747866528200e+001
 3.833812050286429e+000	 1.356321069865043e+000	 1.076977528153537e+001
 3.819331850546111e+000	 1.396576683821539e+000	 1.076425546310851e+001
 3.804393772926877e+000	 1.436770972378545e+000	 1.076203440014709e+001
 3.788997262755523e+000	 1.476896462695642e+000	 1.076207246499560e+001
 3.773141921404314e+000	 1.516945637767987e+000	 1.076308296967023e+001
 3.756827508289828e+000	 1.556910940339404e+000	 1.076353076209736e+001
 3.740053942759174e+000	 1.596784776903525e+000	 1.076163202107947e+001
 3.912661463547339e+000	 1.202668435232591e+000	 1.071456118383165e+001
 3.899921180749059e+000	 1.243360747519771e+000	 1.073813417875068e+001
 3.886723777401333e+000	 1.284020899604590e+000	 1.075405077696141e+001
 3.873068089155554e+000	 1.324641584958439e+000	 1.075893789824061e+001
 3.858953099636274e+000	 1.365215437794790e+000	 1.075509914842185e+001
 3.844377942863459e+000	 1.405735036621528e+000	 1.075372345575755e+001
 3.829341905578835e+000	 1.446192907894251e+000	 1.075456117324828e+001
 3.813844429471796e+000	 1.486581529767779e+000	 1.075670155654185e+001
 3.797885113300513e+000	 1.526893335942890e+000	 1.075899827042586e+001
 3.781463714903873e+000	 1.567120719605069e+000	 1.076006744226996e+001
 3.764580153100085e+000	 1.607256037451897e+000	 1.075828689544518e+001
 3.938152422469113e+000	 1.210503810708505e+000	 1.069671787724965e+001
 3.925329136827668e+000	 1.251461233092785e+000	 1.072129480318615e+001
 3.912045752500035e+000	 1.292386285751245e+000	 1.073812512912491e+001
 3.898301097551885e+000	 1.333271614553299e+000	 1.074398231581897e+001
 3.884094148986077e+000	 1.374109805724376e+000	 1.074418374641602e+001
 3.869424035180721e+000	 1.414893389421397e+000	 1.074623737245293e+001
 3.854290038230659e+000	 1.455614843409874e+000	 1.074957479914004e+001
 3.838691596187895e+000	 1.496266596839866e+000	 1.075340821694798e+001
 3.822628305196501e+000	 1.536841034117768e+000	 1.075672688528608e+001
 3.806099921517679e+000	 1.577330498870728e+000	 1.075829463419652e+001
 3.789106363440732e+000	 1.617727298000268e+000	 1.075664852463022e+001
 3.963643381391156e+000	 1.218339186184163e+000	 1.068542545033444e+001
 3.950737092906511e+000	 1.259561718665599e+000	 1.071032321937409e+001
 3.937367727598935e+000	 1.300751671897758e+000	 1.072751227880538e+001
 3.923534105948365e+000	 1.341901644148074e+000	 1.073425313283458e+001
 3.909235198335982e+000	 1.383004173653933e+000	 1.073789719008109e+001
 3.894470127498032e+000	 1.424051742221287e+000	 1.074253270459372e+001
 3.879238170882482e+000	 1.465036778925566e+000	 1.074769433753384e+001
 3.863538762903939e+000	 1.505951663912062e+000	 1.075271171298463e+001
 3.847371497092383e+000	 1.546788732292785e+000	 1.075670536528257e+001
 3.830736128131332e+000	 1.587540278136545e+000	 1.075858367809611e+001
 3.813632573781182e+000	 1.628198558548805e+000	 1.075704095800557e+001
 3.989134340313600e+000	 1.226174561659649e+000	 1.068264715154100e+001
 3.976145048985732e+000	 1.267662204238311e+000	 1.070694045845669e+001
 3.962689702698176e+000	 1.309117058044240e+000	 1.072370247367480e+001
 3.948767114345144e+000	 1.350531673742888e+000	 1.073119022509313e+001
 3.934376247686132e+000	 1.391898541583594e+000	 1.073710359452681e+001
 3.919516219815531e+000	 1.433210095021344e+000	 1.074334156016369e+001
 3.904186303534432e+000	 1.474458714441479e+000	 1.074953561149378e+001
 3.888385929620047e+000	 1.515636730984523e+000	 1.075512775765270e+001
 3.872114688988263e+000	 1.556736430468103e+000	 1.075936593259593e+001
 3.855372334744916e+000	 1.597750057402686e+000	 1.076130035875242e+001
 3.838158784121502e+000	 1.638669819097676e+000	 1.075978101837059e+001
 4.014625299236578e+000	 1.234009937135045e+000	 1.069019912184012e+001
 4.001553005065471e+000	 1.275762689811019e+000	 1.071283185008069e+001
 3.988011677797905e+000	 1.317482444190801e+000	 1.072814772250170e+001
 3.974000122742365e+000	 1.359161703337862e+000	 1.073579859663640e+001
 3.959517297036671e+000	 1.400792909513493e+000	 1.074266161159595e+001
 3.944562312133359e+000	 1.442368447821711e+000	 1.074939104504506e+001
 3.929134436186638e+000	 1.483880649957763e+000	 1.075570944719390e+001
 3.913233096336334e+000	 1.525321798057408e+000	 1.076116662197297e+001
 3.896857880884244e+000	 1.566684128643885e+000	 1.076513447823162e+001
 3.880008541358523e+000	 1.607959836669317e+000	 1.076680280318439e+001
 3.862684994461763e+000	 1.649141079647046e+000	 1.076517611397107e+001
 3.617422891048259e+000	 1.544428474155829e+000	 1.079239228994630e+001
 3.600757821582671e+000	 1.582893299281493e+000	 1.079852954802133e+001
 3.583649105312324e+000	 1.621254913125378e+000	 1.081693576145024e+001
 3.566097140681105e+000	 1.659505895371513e+000	 1.084494861504447e+001
 3.548102486840681e+000	 1.697638806993271e+000	 1.087977420971761e+001
 3.529665864868949e+000	 1.735646194488917e+000	 1.091849723214405e+001
 3.510788158857956e+000	 1.773520594178442e+000	 1.095809268910412e+001
 3.491470416868223e+000	 1.811254536557092e+000	 1.099543927847220e+001
 3.471713851746570e+000	 1.848840550700881e+000	 1.102733446191259e+001
 3.451519841804725e+000	 1.886271168719184e+000	 1.105051129633508e+001
 3.430889931356198e+000	 1.923538930249378e+000	 1.106165707202916e+001
 3.641949101391516e+000	 1.554899734706702e+000	 1.078547075557701e+001
 3.625171042372079e+000	 1.593625352230693e+000	 1.079107075481390e+001
 3.607946328612285e+000	 1.632247058698082e+000	 1.080975524535108e+001
 3.590275361257489e+000	 1.670757383482981e+000	 1.083863515674542e+001
 3.572158703250427e+000	 1.709148837121984e+000	 1.087466920159492e+001
 3.553597080557928e+000	 1.747413915578442e+000	 1.091467398994210e+001
 3.534591383266208e+000	 1.785545104568416e+000	 1.095533578364315e+001
 3.515142666541674e+000	 1.823534883943736e+000	 1.099322396860021e+001
 3.495252151454281e+000	 1.861375732127374e+000	 1.102480631567803e+001
 3.474921225660750e+000	 1.899060130596229e+000	 1.104646609286575e+001
 3.454151443945081e+000	 1.936580568406245e+000	 1.105452108181071e+001
 3.666475311734168e+000	 1.565370995256741e+000	 1.077860566900992e+001
 3.649584263160967e+000	 1.604357405179059e+000	 1.078379027732613e+001
 3.632243551911827e+000	 1.643239204269950e+000	 1.080263771648052e+001
 3.614453581833563e+000	 1.682008871593611e+000	 1.083206338895746e+001
 3.596214919659974e+000	 1.720658867249862e+000	 1.086881082131258e+001
 3.577528296246815e+000	 1.759181636667133e+000	 1.090946165564124e+001
 3.558394607674471e+000	 1.797569614957564e+000	 1.095044735467514e+001
 3.538814916215225e+000	 1.835815231329566e+000	 1.098806270467155e+001
 3.518790451162161e+000	 1.873910913553071e+000	 1.101848119300424e+001
 3.498322609516990e+000	 1.911849092472505e+000	 1.103777232886862e+001
 3.477412956534195e+000	 1.949622206562376e+000	 1.104192096577726e+001
 3.691001522076283e+000	 1.575842255806114e+000	 1.077212350490794e+001
 3.673997483949385e+000	 1.615089458126757e+000	 1.077699318665052e+001
 3.656540775210977e+000	 1.654231349841147e+000	 1.079588369156236e+001
 3.638631802409331e+000	 1.693260359703563e+000	 1.082554578749773e+001
 3.620271136069302e+000	 1.732168897377055e+000	 1.086253965878018e+001
 3.601459511935572e+000	 1.770949357755138e+000	 1.090324470586877e+001
 3.582197832082684e+000	 1.809594125346024e+000	 1.094387113073032e+001
 3.562487165888796e+000	 1.848095578714712e+000	 1.098047339868121e+001
 3.542328750870121e+000	 1.886446094978093e+000	 1.100896566004212e+001
 3.521723993373348e+000	 1.924638054348121e+000	 1.102513920621592e+001
 3.500674469123442e+000	 1.962663844717872e+000	 1.102468202476909e+001
 3.715527732417928e+000	 1.586313516354986e+000	 1.076635483777608e+001
 3.698410704737381e+000	 1.625821511073953e+000	 1.077098695622360e+001
 3.680837998509759e+000	 1.665223495411833e+000	 1.078979399175536e+001
 3.662810022984793e+000	 1.704511847812997e+000	 1.081939265893476e+001
 3.644327352478393e+000	 1.743678927503718e+000	 1.085619131027020e+001
 3.625390727624157e+000	 1.782717078842601e+000	 1.089639947397489e+001
 3.606001056490789e+000	 1.821618635733935e+000	 1.093603924795479e+001
 3.586159415562316e+000	 1.860375926099302e+000	 1.097095864773299e+001
 3.565867050578072e+000	 1.898981276402559e+000	 1.099684699843859e+001
 3.545125377229727e+000	 1.937427016223188e+000	 1.100925245202773e+001
 3.523935981712723e+000	 1.975705482872835e+000	 1.100360170058376e+001
 3.740053942759174e+000	 1.596784776903525e+000	 1.076163202107947e+001
 3.722823925524999e+000	 1.636553564020810e+000	 1.076607906651522e+001
 3.705135221808200e+000	 1.676215640982174e+000	 1.078466728718494e+001
 3.686988243559954e+000	 1.715763335922070e+000	 1.081390963888614e+001
 3.668383568887227e+000	 1.755188957630004e+000	 1.085009384404230e+001
 3.649321943312529e+000	 1.794484799929669e+000	 1.088929159616491e+001
 3.629804280898727e+000	 1.833643146121435e+000	 1.092736968953943e+001
 3.609831665235705e+000	 1.872656273483467e+000	 1.096000317914349e+001
 3.589405350285926e+000	 1.911516457826590e+000	 1.098269066806942e+001
 3.568526761086031e+000	 1.950215978097816e+000	 1.099077181054716e+001
 3.547197494301936e+000	 1.988747121027364e+000	 1.097944710805117e+001
 3.764580153100085e+000	 1.607256037451897e+000	 1.075828689544518e+001
 3.747237146312289e+000	 1.647285616967498e+000	 1.076257463924483e+001
 3.729432445106323e+000	 1.687207786552331e+000	 1.078079767090284e+001
 3.711166464134817e+000	 1.727014824030942e+000	 1.080939521912167e+001
 3.692439785295785e+000	 1.766698987756068e+000	 1.084456529364694e+001
 3.673253159000652e+000	 1.806252521016491e+000	 1.088227348370266e+001
 3.653607505306437e+000	 1.845667656508661e+000	 1.091826374914966e+001
 3.633503914908891e+000	 1.884936620867336e+000	 1.094807131703672e+001
 3.612943649993593e+000	 1.924051639250306e+000	 1.096703778833479e+001
 3.591928144942162e+000	 1.963004939972116e+000	 1.097032855025439e+001
 3.570459006890980e+000	 2.001788759181559e+000	 1.095299304766956e+001
 3.789106363440732e+000	 1.617727298000268e+000	 1.075664852463023e+001
 3.771650367099297e+000	 1.658017669914180e+000	 1.076077409978667e+001
 3.753729668404155e+000	 1.698199932122468e+000	 1.077847226094048e+001
 3.735344684709383e+000	 1.738266312139772e+000	 1.080613830216615e+001
 3.716496001704046e+000	 1.778209017882060e+000	 1.083991117765421e+001
 3.697184374688481e+000	 1.818020242103210e+000	 1.087568182000408e+001
 3.677410729713860e+000	 1.857692166895753e+000	 1.090910351726861e+001
 3.657176164581798e+000	 1.897216968251039e+000	 1.093560446945560e+001
 3.636481949700988e+000	 1.936586820673828e+000	 1.095040263717549e+001
 3.615329528798024e+000	 1.975793901846200e+000	 1.094852298552859e+001
 3.593720519479760e+000	 2.014830397335523e+000	 1.092749770861484e+001
 3.813632573781182e+000	 1.628198558548805e+000	 1.075704095800557e+001
 3.796063587886068e+000	 1.668749722861022e+000	 1.076097086649491e+001
 3.778026891701722e+000	 1.709192077692748e+000	 1.077796882919204e+001
 3.759522905283656e+000	 1.749517800248717e+000	 1.080441578216418e+001
 3.740552218111992e+000	 1.789719048008136e+000	 1.083642204461852e+001
 3.721115590375978e+000	 1.829787963189973e+000	 1.086983508149949e+001
 3.701213954120939e+000	 1.869716677282848e+000	 1.090024938942222e+001
 3.680848414254348e+000	 1.909497315634706e+000	 1.092301863506681e+001
 3.660020249408020e+000	 1.949122002097276e+000	 1.093327016701338e+001
 3.638730912653521e+000	 1.988582863720177e+000	 1.092592201220341e+001
 3.616982032068172e+000	 2.027872035489355e+000	 1.090481232079393e+001
 3.838158784121502e+000	 1.638669819097676e+000	 1.075978101837059e+001
 3.820476808672654e+000	 1.679481775808191e+000	 1.076344906574466e+001
 3.802324114999044e+000	 1.720184223263334e+000	 1.077955345592669e+001
 3.783701125857638e+000	 1.760769288357938e+000	 1.080449015083198e+001
 3.764608434519604e+000	 1.801229078134447e+000	 1.083437104214978e+001
 3.745046806063103e+000	 1.841555684276927e+000	 1.086503108120220e+001
 3.725017178527611e+000	 1.881741187670086e+000	 1.089203759530763e+001
 3.704520663926468e+000	 1.921777663018466e+000	 1.091070192858258e+001
 3.683558549114604e+000	 1.961657183520769e+000	 1.091609353685792e+001
 3.662132296508556e+000	 2.001371825594157e+000	 1.090307711360269e+001
 3.640243544656117e+000	 2.040913673643154e+000	 1.088508940557982e+001
 3.862684994461763e+000	 1.649141079647046e+000	 1.076517611397107e+001
 3.844890029459100e+000	 1.690213828755853e+000	 1.076848127154594e+001
 3.826621338296152e+000	 1.731176368834391e+000	 1.078347820879066e+001
 3.807879346431334e+000	 1.772020776467594e+000	 1.080660712738165e+001
 3.788664650926863e+000	 1.812739108261148e+000	 1.083401150902045e+001
 3.768978021749815e+000	 1.853323405364218e+000	 1.086154453397426e+001
 3.748820402933820e+000	 1.893765698057605e+000	 1.088477774789538e+001
 3.728192913598082e+000	 1.934058010402449e+000	 1.089901212406714e+001
 3.707096848820650e+000	 1.974192364944430e+000	 1.089929165986064e+001
 3.685533680363033e+000	 2.014160787468251e+000	 1.088250758083368e+001
 3.663505057243499e+000	 2.053955311797023e+000	 1.086844314776496e+001
 3.430889931356198e+000	 1.923538930249378e+000	 1.106165707202916e+001
 3.409822639161488e+000	 1.960641939370820e+000	 1.105438930420462e+001
 3.388322907875672e+000	 1.997567159735842e+000	 1.102232377136996e+001
 3.366392785299044e+000	 2.034307179775804e+000	 1.098150928769535e+001
 3.344034485992657e+000	 2.070854613836993e+000	 1.095505940968362e+001
 3.321250391072290e+000	 2.107202106807173e+000	 1.094165056415350e+001
 3.298043047850050e+000	 2.143342338751271e+000	 1.093758554083036e+001
 3.274415169322649e+000	 2.179268029550415e+000	 1.094054810359780e+001
 3.250369633505694e+000	 2.214971943538432e+000	 1.094848220719084e+001
 3.225909482613576e+000	 2.250446894129934e+000	 1.095929131047552e+001
 3.201037922084772e+000	 2.285685748434004e+000	 1.097084930738294e+001
 3.454151443945081e+000	 1.936580568406245e+000	 1.105452108181071e+001
 3.432941315024939e+000	 1.973935136782385e+000	 1.104201447457530e+001
 3.411295815066716e+000	 2.011110710990247e+000	 1.100418131872113e+001
 3.389217005754840e+000	 2.048099829210576e+000	 1.096903358977479e+001
 3.366707116665132e+000	 2.084895055714759e+000	 1.094613011391693e+001
 3.343768545057394e+000	 2.121488985522725e+000	 1.093462462040594e+001
 3.320403855514564e+000	 2.157874249070071e+000	 1.093310748677840e+001
 3.296615779427529e+000	 2.194043516878546e+000	 1.093759396825435e+001
 3.272407214324911e+000	 2.229989504223994e+000	 1.094586198851018e+001
 3.247781223047381e+000	 2.265704975795809e+000	 1.095599374574250e+001
 3.222741032766358e+000	 2.301182750341904e+000	 1.096605134347601e+001
 3.477412956534195e+000	 1.949622206562376e+000	 1.104192096577726e+001
 3.456059990888607e+000	 1.987228334193261e+000	 1.102355991859909e+001
 3.434268722257934e+000	 2.024654262244012e+000	 1.098505905714180e+001
 3.412041226210740e+000	 2.061892478644770e+000	 1.095515352673613e+001
 3.389379747337627e+000	 2.098935497592009e+000	 1.093553843750924e+001
 3.366286699042418e+000	 2.135775864237826e+000	 1.092548175919744e+001
 3.342764663178889e+000	 2.172406159388485e+000	 1.092424709775133e+001
 3.318816389532113e+000	 2.208819004206358e+000	 1.093033024265026e+001
 3.294444795143723e+000	 2.245007064909298e+000	 1.093944348286062e+001
 3.269652963480678e+000	 2.280963057461482e+000	 1.094950697023948e+001
 3.244444143447349e+000	 2.316679752249656e+000	 1.095873433790630e+001
 3.500674469123442e+000	 1.962663844717872e+000	 1.102468202476909e+001
 3.479178666752395e+000	 2.000521531603535e+000	 1.099997001531349e+001
 3.457241629449238e+000	 2.038197813497221e+000	 1.096560783322554e+001
 3.434865446666673e+000	 2.075685128078454e+000	 1.094048221042948e+001
 3.412052378010083e+000	 2.112975939468804e+000	 1.092394056243624e+001
 3.388804853027324e+000	 2.150062742952529e+000	 1.091533514129024e+001
 3.365125470843007e+000	 2.186938069706559e+000	 1.091402288909927e+001
 3.341016999636398e+000	 2.223594491533885e+000	 1.091936479098924e+001
 3.316482375962149e+000	 2.260024625594372e+000	 1.092960588480342e+001
 3.291524703913511e+000	 2.296221139126977e+000	 1.094019190186293e+001
 3.266147254127807e+000	 2.332176754157270e+000	 1.094922940882252e+001
 3.523935981712723e+000	 1.975705482872835e+000	 1.100360170058376e+001
 3.502297342616207e+000	 2.013814729013301e+000	 1.097480532775770e+001
 3.480214536640536e+000	 2.051741364749952e+000	 1.094633689895955e+001
 3.457689667122557e+000	 2.089477777511701e+000	 1.092558490323446e+001
 3.434725008682438e+000	 2.127016381345206e+000	 1.091194368599117e+001
 3.411323007012064e+000	 2.164349621666887e+000	 1.090482032498863e+001
 3.387486278506896e+000	 2.201469980024336e+000	 1.090363450429721e+001
 3.363217609740386e+000	 2.238369978861166e+000	 1.090781784786901e+001
 3.338519956780215e+000	 2.275042186279247e+000	 1.091681269857098e+001
 3.313396444345926e+000	 2.311479220792314e+000	 1.092838465270296e+001
 3.287850364807801e+000	 2.347673756064768e+000	 1.093784433490267e+001
 3.547197494301936e+000	 1.988747121027364e+000	 1.097944710805117e+001
 3.525416018479945e+000	 2.027107926422647e+000	 1.095088381216846e+001
 3.503187443831741e+000	 2.065284916002287e+000	 1.092770996808477e+001
 3.480513887578316e+000	 2.103270426944581e+000	 1.091097984377016e+001
 3.457397639354630e+000	 2.141056823221275e+000	 1.090010690639870e+001
 3.433841160996598e+000	 2.178636500380949e+000	 1.089452408699510e+001
 3.409847086170532e+000	 2.216001890341861e+000	 1.089368372193778e+001
 3.385418219844079e+000	 2.253145466188234e+000	 1.089705691548284e+001
 3.360557537597944e+000	 2.290059746963950e+000	 1.090413230783840e+001
 3.335268184777967e+000	 2.326737302457518e+000	 1.091441423951399e+001
 3.309553475487395e+000	 2.363170757972164e+000	 1.092486445712418e+001
 3.570459006890980e+000	 2.001788759181559e+000	 1.095299304766956e+001
 3.548534694343512e+000	 2.040401123831664e+000	 1.092855757128529e+001
 3.526160351022761e+000	 2.078828467254305e+000	 1.091014597180461e+001
 3.503338108033874e+000	 2.117063076377164e+000	 1.089713907516026e+001
 3.480070270026597e+000	 2.155097265097074e+000	 1.088894210910956e+001
 3.456359314980884e+000	 2.192923379094772e+000	 1.088498535266843e+001
 3.432207893833895e+000	 2.230533800659177e+000	 1.088472419221085e+001
 3.407618829947475e+000	 2.267920953515127e+000	 1.088763856115887e+001
 3.382595118415355e+000	 2.305077307648510e+000	 1.089323174633685e+001
 3.357139925209682e+000	 2.341995384122610e+000	 1.090102855056475e+001
 3.331256586166656e+000	 2.378667759879475e+000	 1.091055358030898e+001
 3.593720519479760e+000	 2.014830397335523e+000	 1.092749770861484e+001
 3.571653370206811e+000	 2.053694321240442e+000	 1.090813642645546e+001
 3.549133258213510e+000	 2.092372018506088e+000	 1.089401981924537e+001
 3.526162328489153e+000	 2.130855725809522e+000	 1.088448927573815e+001
 3.502742900698278e+000	 2.169137706972663e+000	 1.087891485374565e+001
 3.478877468964877e+000	 2.207210257808406e+000	 1.087669612564651e+001
 3.454568701496962e+000	 2.245065710976327e+000	 1.087726239610034e+001
 3.429819440050576e+000	 2.282696440841880e+000	 1.088007226701190e+001
 3.404632699232478e+000	 2.320094868332957e+000	 1.088461253122698e+001
 3.379011665641112e+000	 2.357253465787613e+000	 1.089039638325617e+001
 3.352959696845650e+000	 2.394164761786719e+000	 1.089696094245550e+001
 3.616982032068172e+000	 2.027872035489355e+000	 1.090481232079393e+001
 3.594772046069744e+000	 2.066987518649074e+000	 1.088988860068451e+001
 3.572106165403897e+000	 2.105915569757717e+000	 1.087966316245503e+001
 3.548986548944076e+000	 2.144648375241726e+000	 1.087341259208184e+001
 3.525415531369613e+000	 2.183178148848105e+000	 1.087044526166631e+001
 3.501395622948538e+000	 2.221497136521904e+000	 1.087010241686206e+001
 3.476929509159713e+000	 2.259597621293357e+000	 1.087175860320850e+001
 3.452020050153380e+000	 2.297471928168530e+000	 1.087482140439107e+001
 3.426670280049329e+000	 2.335112429017319e+000	 1.087873047218444e+001
 3.400883406072305e+000	 2.372511547452548e+000	 1.088295583496260e+001
 3.374662807524445e+000	 2.409661763693914e+000	 1.088699547912828e+001
 3.640243544656117e+000	 2.040913673643154e+000	 1.088508940557982e+001
 3.617890721932214e+000	 2.080280716057648e+000	 1.087404140862555e+001
 3.595079072593832e+000	 2.119459121009271e+000	 1.086736516573712e+001
 3.571810769398565e+000	 2.158441024673847e+000	 1.086424747427458e+001
 3.548088162040541e+000	 2.197218590723461e+000	 1.086390890412739e+001
 3.523913776931821e+000	 2.235784015235318e+000	 1.086560517297928e+001
 3.499290316822126e+000	 2.274129531610310e+000	 1.086862782826959e+001
 3.474220660255889e+000	 2.312247415495113e+000	 1.087230420670833e+001
 3.448707860865933e+000	 2.350129989701623e+000	 1.087599664923381e+001
 3.422755146503306e+000	 2.387769629117440e+000	 1.087910095675349e+001
 3.396365918203102e+000	 2.425158765601074e+000	 1.088104407981536e+001
 3.663505057243499e+000	 2.053955311797023e+000	 1.086844314776496e+001
 3.641009397794123e+000	 2.093573913466255e+000	 1.086078195319897e+001
 3.618051979783225e+000	 2.133002672260832e+000	 1.085737327912747e+001
 3.594634989852544e+000	 2.172233674105955e+000	 1.085728951329215e+001
 3.570760792710999e+000	 2.211259032598792e+000	 1.085963769100767e+001
 3.546431930914687e+000	 2.250070893948702e+000	 1.086356120427601e+001
 3.521651124484179e+000	 2.288661441927230e+000	 1.086824078641102e+001
 3.496421270358106e+000	 2.327022902821665e+000	 1.087289474072047e+001
 3.470745441682316e+000	 2.365147550385902e+000	 1.087677838912809e+001
 3.444626886934158e+000	 2.403027710782309e+000	 1.087918272439609e+001
 3.418069028881693e+000	 2.440655767508218e+000	 1.087943225776212e+001
 3.201037922084772e+000	 2.285685748434004e+000	 1.097084930738294e+001
 3.175758318549517e+000	 2.320681431073920e+000	 1.097932716947260e+001
 3.150074195862331e+000	 2.355426926386116e+000	 1.098257032532267e+001
 3.123989236422097e+000	 2.389915285194917e+000	 1.098102991121616e+001
 3.097507280498922e+000	 2.424139630075088e+000	 1.097527116311667e+001
 3.070632324500330e+000	 2.458093159808781e+000	 1.096598065610524e+001
 3.043368519087291e+000	 2.491769153792504e+000	 1.095397314654678e+001
 3.015720167141756e+000	 2.525160976388238e+000	 1.094019794402993e+001
 2.987691721587631e+000	 2.558262081212876e+000	 1.092574474243868e+001
 2.959287783067377e+000	 2.591066015360246e+000	 1.091184884243880e+001
 2.930513097476696e+000	 2.623566423550066e+000	 1.089989570117633e+001
 3.222741032766358e+000	 2.301182750341904e+000	 1.096605134347601e+001
 3.197290032937910e+000	 2.336415704514344e+000	 1.097297356462004e+001
 3.171431771308376e+000	 2.371396775083201e+000	 1.097517548609331e+001
 3.145169955243394e+000	 2.406118965757234e+000	 1.097300289708643e+001
 3.118508451050198e+000	 2.440575352482112e+000	 1.096691145194284e+001
 3.091451282232049e+000	 2.474759087927573e+000	 1.095747450458607e+001
 3.064002627591507e+000	 2.508663405924287e+000	 1.094539054535581e+001
 3.036166819184162e+000	 2.542281625844456e+000	 1.093149016353469e+001
 3.007948340124858e+000	 2.575607156920352e+000	 1.091674246122979e+001
 2.979351822248521e+000	 2.608633502494952e+000	 1.090226084729486e+001
 2.950382043628141e+000	 2.641354264199035e+000	 1.088930814361535e+001
 3.244444143447349e+000	 2.316679752249656e+000	 1.095873433790630e+001
 3.218821747325636e+000	 2.352149977954659e+000	 1.096470773598610e+001
 3.192789346753698e+000	 2.387366623780209e+000	 1.096631965655973e+001
 3.166350674063928e+000	 2.422322646319497e+000	 1.096382177736856e+001
 3.139509621600685e+000	 2.457011074889095e+000	 1.095757188212021e+001
 3.112270239962972e+000	 2.491425016046331e+000	 1.094804228842002e+001
 3.084636736094925e+000	 2.525557658056029e+000	 1.093582787644922e+001
 3.056613471225788e+000	 2.559402275300625e+000	 1.092165363781993e+001
 3.028204958661326e+000	 2.592952232627757e+000	 1.090638166649563e+001
 2.999415861428939e+000	 2.626200989629562e+000	 1.089101751678845e+001
 2.970250989778902e+000	 2.659142104847870e+000	 1.087671585721486e+001
 3.266147254127807e+000	 2.332176754157270e+000	 1.094922940882252e+001
 3.240353461712776e+000	 2.367884251394873e+000	 1.095482894719768e+001
 3.214146922198397e+000	 2.403336472477147e+000	 1.095627702592047e+001
 3.187531392883817e+000	 2.438526326881711e+000	 1.095374206265158e+001
 3.160510792150514e+000	 2.473446797296040e+000	 1.094749529339893e+001
 3.133089197693234e+000	 2.508090944165058e+000	 1.093791979337265e+001
 3.105270844597697e+000	 2.542451910187743e+000	 1.092551909557214e+001
 3.077060123266782e+000	 2.576522924756755e+000	 1.091092532259067e+001
 3.048461577197192e+000	 2.610297308335112e+000	 1.089490674966268e+001
 3.019479900608787e+000	 2.643768476764097e+000	 1.087837472021404e+001
 2.990119935929130e+000	 2.676929945496605e+000	 1.086282098069680e+001
 3.287850364807801e+000	 2.347673756064768e+000	 1.093784433490267e+001
 3.261885176099419e+000	 2.383618524835003e+000	 1.094361465276141e+001
 3.235504497642578e+000	 2.419306321174022e+000	 1.094530132911677e+001
 3.208712111703173e+000	 2.454730007443882e+000	 1.094299999270668e+001
 3.181511962699815e+000	 2.489882519702957e+000	 1.093690627106498e+001
 3.153908155422980e+000	 2.524756872283762e+000	 1.092732540463167e+001
 3.125904953099966e+000	 2.559346162319434e+000	 1.091468145421622e+001
 3.097506775307298e+000	 2.593643574212859e+000	 1.089952601325694e+001
 3.068718195732605e+000	 2.627642384042430e+000	 1.088254633894849e+001
 3.039543939788214e+000	 2.661335963898584e+000	 1.086457281966129e+001
 3.009988882078974e+000	 2.694717786145272e+000	 1.084975129898741e+001
 3.309553475487395e+000	 2.363170757972164e+000	 1.092486445712418e+001
 3.283416890485646e+000	 2.399352798275059e+000	 1.093132138841585e+001
 3.256862073086340e+000	 2.435276169870848e+000	 1.093362673027728e+001
 3.229892830522119e+000	 2.470933688006018e+000	 1.093181341725982e+001
 3.202513133248716e+000	 2.506318242109850e+000	 1.092601202799788e+001
 3.174727113152346e+000	 2.541422800402450e+000	 1.091646099382601e+001
 3.146539061601881e+000	 2.576240414451112e+000	 1.090351639499204e+001
 3.117953427347487e+000	 2.610764223668948e+000	 1.088766125176666e+001
 3.088974814267724e+000	 2.644987459749731e+000	 1.086951422047222e+001
 3.059607978967379e+000	 2.678903451033047e+000	 1.085040467442290e+001
 3.029857828228584e+000	 2.712505626793908e+000	 1.083782394819852e+001
 3.331256586166656e+000	 2.378667759879475e+000	 1.091055358030898e+001
 3.304948604871547e+000	 2.415087071715054e+000	 1.091818566232544e+001
 3.278219648529785e+000	 2.451246018567628e+000	 1.092146870786295e+001
 3.251073549340771e+000	 2.487137368568124e+000	 1.092038267912389e+001
 3.223514303797350e+000	 2.522753964516725e+000	 1.091500328955830e+001
 3.195546070881469e+000	 2.558088728521126e+000	 1.090551280916516e+001
 3.167173170103585e+000	 2.593134666582783e+000	 1.089221045024291e+001
 3.138400079387502e+000	 2.627884873125036e+000	 1.087552223663951e+001
 3.109231432802700e+000	 2.662332535457032e+000	 1.085601026237784e+001
 3.079672018146432e+000	 2.696470938167512e+000	 1.083767745986169e+001
 3.049726774378111e+000	 2.730293467442543e+000	 1.082710374264157e+001
 3.352959696845650e+000	 2.394164761786719e+000	 1.089696094245550e+001
 3.326480319257204e+000	 2.430821345154998e+000	 1.090442484707843e+001
 3.299577223973019e+000	 2.467215867264375e+000	 1.090902494143484e+001
 3.272254268159244e+000	 2.503341049130208e+000	 1.090889149958369e+001
 3.244515474345840e+000	 2.539189686923587e+000	 1.090405518117694e+001
 3.216365028610494e+000	 2.574754656639799e+000	 1.089465236855700e+001
 3.187807278605230e+000	 2.610028918714459e+000	 1.088093614375177e+001
 3.158846731427493e+000	 2.645005522581133e+000	 1.086328673605723e+001
 3.129488051337689e+000	 2.679677611164347e+000	 1.084280821884318e+001
 3.099736057325528e+000	 2.714038425301999e+000	 1.082653915006771e+001
 3.069595720527704e+000	 2.748081308091211e+000	 1.081764372513380e+001
 3.374662807524445e+000	 2.409661763693914e+000	 1.088699547912828e+001
 3.348012033642701e+000	 2.446555618594907e+000	 1.089129982036348e+001
 3.320934799416141e+000	 2.483185715961096e+000	 1.089647619997231e+001
 3.293434986977655e+000	 2.519544729692277e+000	 1.089750786593204e+001
 3.265516644894319e+000	 2.555625409330442e+000	 1.089332811852351e+001
 3.237183986339556e+000	 2.591420584758473e+000	 1.088403735557053e+001
 3.208441387106961e+000	 2.626923170846145e+000	 1.086985289540311e+001
 3.179293383467613e+000	 2.662126172037250e+000	 1.085112000387215e+001
 3.149744669872843e+000	 2.697022686871697e+000	 1.083144319839310e+001
 3.119800096504819e+000	 2.731605912436534e+000	 1.081701445895211e+001
 3.089464666677513e+000	 2.765869148739946e+000	 1.080948537631120e+001
 3.396365918203102e+000	 2.425158765601074e+000	 1.088104407981536e+001
 3.369543748028126e+000	 2.462289892034790e+000	 1.088232088539486e+001
 3.342292374859253e+000	 2.499155564657801e+000	 1.088440044354631e+001
 3.314615705796120e+000	 2.535748410254336e+000	 1.088638492106114e+001
 3.286517815442918e+000	 2.572061131737296e+000	 1.088296870014010e+001
 3.258002944068795e+000	 2.608086512877155e+000	 1.087381251811594e+001
 3.229075495608925e+000	 2.643817422977850e+000	 1.085910792866702e+001
 3.199740035508015e+000	 2.679246821493403e+000	 1.083967204992381e+001
 3.170001288408318e+000	 2.714367762579098e+000	 1.082198418373570e+001
 3.139864135684460e+000	 2.749173399571143e+000	 1.080911718199093e+001
 3.109333612827688e+000	 2.783656989388781e+000	 1.080265882588034e+001
 3.418069028881693e+000	 2.440655767508218e+000	 1.087943225776212e+001
 3.391075462413564e+000	 2.478024165474663e+000	 1.087801235967819e+001
 3.363649950302459e+000	 2.515125413354499e+000	 1.087645337719571e+001
 3.335796424614757e+000	 2.551952090816394e+000	 1.087569478689381e+001
 3.307518985991763e+000	 2.588496854144156e+000	 1.087311060242969e+001
 3.278821901798352e+000	 2.624752440995851e+000	 1.086411056972121e+001
 3.249709604111268e+000	 2.660711675109584e+000	 1.084883718078012e+001
 3.220186687548849e+000	 2.696367470949601e+000	 1.083029099802279e+001
 3.190257906944267e+000	 2.731712838286569e+000	 1.081442160169015e+001
 3.159928174864604e+000	 2.766740886705849e+000	 1.080285041550580e+001
 3.129202558978380e+000	 2.801444830037749e+000	 1.079718306572307e+001
 2.930513097476696e+000	 2.623566423550066e+000	 1.089989570117633e+001
 2.901376951840289e+000	 2.655752247797149e+000	 1.088503688143852e+001
 2.871880086178356e+000	 2.687622242784177e+000	 1.086307058061164e+001
 2.842027666154427e+000	 2.719170375440287e+000	 1.084047943537671e+001
 2.811824991326779e+000	 2.750390726063579e+000	 1.081775374846923e+001
 2.781277492018158e+000	 2.781277492018158e+000	 1.079483795967954e+001
 2.750390726063578e+000	 2.811824991326778e+000	 1.077165751424077e+001
 2.719170375440287e+000	 2.842027666154426e+000	 1.074810581685421e+001
 2.687622242784177e+000	 2.871880086178356e+000	 1.072403135048218e+001
 2.655752247797149e+000	 2.901376951840288e+000	 1.069954383717238e+001
 2.623566423550066e+000	 2.930513097476694e+000	 1.067813518346760e+001
 2.950382043628141e+000	 2.641354264199035e+000	 1.088930814361535e+001
 2.921048354254667e+000	 2.673758309074019e+000	 1.087297531408740e+001
 2.891351499165647e+000	 2.705844383359315e+000	 1.085319247806402e+001
 2.861296679047927e+000	 2.737606413079703e+000	 1.083276384410534e+001
 2.830889229390904e+000	 2.769038438397574e+000	 1.081174243727093e+001
 2.800134617335034e+000	 2.800134617335034e+000	 1.079017615475952e+001
 2.769038438397575e+000	 2.830889229390904e+000	 1.076809389581999e+001
 2.737606413079704e+000	 2.861296679047927e+000	 1.074549173171523e+001
 2.705844383359315e+000	 2.891351499165647e+000	 1.072231924496628e+001
 2.673758309074018e+000	 2.921048354254666e+000	 1.069846616640973e+001
 2.641354264199035e+000	 2.950382043628141e+000	 1.067534612899194e+001
 2.970250989778902e+000	 2.659142104847870e+000	 1.087671585721486e+001
 2.940719756668409e+000	 2.691764370350712e+000	 1.086083921199420e+001
 2.910822912152358e+000	 2.724066523934227e+000	 1.084341534147456e+001
 2.880565691940904e+000	 2.756042450718837e+000	 1.082482325861463e+001
 2.849953467454567e+000	 2.787686150731229e+000	 1.080521187071419e+001
 2.818991742651509e+000	 2.818991742651508e+000	 1.078472575191127e+001
 2.787686150731230e+000	 2.849953467454566e+000	 1.076349047610917e+001
 2.756042450718838e+000	 2.880565691940904e+000	 1.074159798831052e+001
 2.724066523934227e+000	 2.910822912152358e+000	 1.071909214976768e+001
 2.691764370350712e+000	 2.940719756668409e+000	 1.069595459165346e+001
 2.659142104847869e+000	 2.970250989778902e+000	 1.067223001388628e+001
 2.990119935929130e+000	 2.676929945496605e+000	 1.086282098069680e+001
 2.960391159081659e+000	 2.709770431627274e+000	 1.084929062056842e+001
 2.930294325138621e+000	 2.742288664508966e+000	 1.083388207950519e+001
 2.899834704833481e+000	 2.774478488357760e+000	 1.081682169098440e+001
 2.869017705517879e+000	 2.806333863064627e+000	 1.079834764132431e+001
 2.837848867967678e+000	 2.837848867967678e+000	 1.077869459489138e+001
 2.806333863064627e+000	 2.869017705517878e+000	 1.075807821460760e+001
 2.774478488357759e+000	 2.899834704833481e+000	 1.073667971904776e+001
 2.742288664508966e+000	 2.930294325138621e+000	 1.071463061791073e+001
 2.709770431627273e+000	 2.960391159081659e+000	 1.069199776693417e+001
 2.676929945496605e+000	 2.990119935929130e+000	 1.066876888139842e+001
 3.009988882078974e+000	 2.694717786145272e+000	 1.084975129898741e+001
 2.980062561494562e+000	 2.727776492903745e+000	 1.083843877957054e+001
 2.949765738124572e+000	 2.760510805083593e+000	 1.082472228396793e+001
 2.919103717725782e+000	 2.792914525996539e+000	 1.080890936419654e+001
 2.888081943580947e+000	 2.824981575397850e+000	 1.079132107426784e+001
 2.856705993283643e+000	 2.856705993283643e+000	 1.077227577502151e+001
 2.824981575397851e+000	 2.888081943580947e+000	 1.075207282572982e+001
 2.792914525996538e+000	 2.919103717725782e+000	 1.073097631029508e+001
 2.760510805083593e+000	 2.949765738124572e+000	 1.070919894640024e+001
 2.727776492903746e+000	 2.980062561494562e+000	 1.068688632524676e+001
 2.694717786145272e+000	 3.009988882078973e+000	 1.066410162752904e+001
 3.029857828228584e+000	 2.712505626793908e+000	 1.083782394819852e+001
 2.999733963907260e+000	 2.745782554180174e+000	 1.082838027884864e+001
 2.969237151110346e+000	 2.778732945658162e+000	 1.081605242603511e+001
 2.938372730617930e+000	 2.811350563635247e+000	 1.080122290435369e+001
 2.907146181643887e+000	 2.843629287730986e+000	 1.078428941539580e+001
 2.875563118599497e+000	 2.875563118599497e+000	 1.076564781505134e+001
 2.843629287730986e+000	 2.907146181643888e+000	 1.074567495866191e+001
 2.811350563635246e+000	 2.938372730617930e+000	 1.072471157858386e+001
 2.778732945658162e+000	 2.969237151110347e+000	 1.070304534930262e+001
 2.745782554180173e+000	 2.999733963907259e+000	 1.068089429450485e+001
 2.712505626793908e+000	 3.029857828228585e+000	 1.065839068846623e+001
 3.049726774378111e+000	 2.730293467442543e+000	 1.082710374264157e+001
 3.019405366319895e+000	 2.763788615456600e+000	 1.081919925989082e+001
 2.988708564096076e+000	 2.796955086232729e+000	 1.080797605365284e+001
 2.957641743510049e+000	 2.829786601273951e+000	 1.079388553359306e+001
 2.926210419706810e+000	 2.862277000064116e+000	 1.077739601946946e+001
 2.894420243915343e+000	 2.894420243915343e+000	 1.075897485268112e+001
 2.862277000064116e+000	 2.926210419706810e+000	 1.073907037634058e+001
 2.829786601273951e+000	 2.957641743510049e+000	 1.071809394537807e+001
 2.796955086232729e+000	 2.988708564096076e+000	 1.069640212881364e+001
 2.763788615456600e+000	 3.019405366319896e+000	 1.067427926558874e+001
 2.730293467442543e+000	 3.049726774378111e+000	 1.065192053323665e+001
 3.069595720527704e+000	 2.748081308091211e+000	 1.081764372513380e+001
 3.039076768732614e+000	 2.781794676733072e+000	 1.081096761901194e+001
 3.008179977081899e+000	 2.815177226807353e+000	 1.080058399010383e+001
 2.976910756402264e+000	 2.848222638912723e+000	 1.078700726366367e+001
 2.945274657769825e+000	 2.880924712397324e+000	 1.077077053855942e+001
 2.913277369231275e+000	 2.913277369231274e+000	 1.075240682375925e+001
 2.880924712397324e+000	 2.945274657769825e+000	 1.073243013359482e+001
 2.848222638912722e+000	 2.976910756402263e+000	 1.071131661047570e+001
 2.815177226807354e+000	 3.008179977081899e+000	 1.068948584440453e+001
 2.781794676733072e+000	 3.039076768732615e+000	 1.066728255789020e+001
 2.748081308091210e+000	 3.069595720527704e+000	 1.064495882267872e+001
 3.089464666677513e+000	 2.765869148739946e+000	 1.080948537631120e+001
 3.058748171145560e+000	 2.799800738009633e+000	 1.080374521210179e+001
 3.027651390067949e+000	 2.833399367382091e+000	 1.079395453366713e+001
 2.996179769294696e+000	 2.866658676551633e+000	 1.078068509013745e+001
 2.964338895833045e+000	 2.899572424730694e+000	 1.076452911061097e+001
 2.932134494547392e+000	 2.932134494547392e+000	 1.074607964516937e+001
 2.899572424730695e+000	 2.964338895833045e+000	 1.072591075448779e+001
 2.866658676551633e+000	 2.996179769294697e+000	 1.070455772410341e+001
 2.833399367382091e+000	 3.027651390067948e+000	 1.068249748013260e+001
 2.799800738009632e+000	 3.058748171145560e+000	 1.066012938246691e+001
 2.765869148739947e+000	 3.089464666677513e+000	 1.063775656923247e+001
 3.109333612827688e+000	 2.783656989388781e+000	 1.080265882588034e+001
 3.078419573558874e+000	 2.817806799286326e+000	 1.079758006086458e+001
 3.047122803054358e+000	 2.851621507956997e+000	 1.078815365832646e+001
 3.015448782187471e+000	 2.885094714190751e+000	 1.077500318722576e+001
 2.983403133896581e+000	 2.918220137064311e+000	 1.075877454816791e+001
 2.950991619863794e+000	 2.950991619863793e+000	 1.074011539742116e+001
 2.918220137064311e+000	 2.983403133896581e+000	 1.071965440889476e+001
 2.885094714190750e+000	 3.015448782187472e+000	 1.069798055776299e+001
 2.851621507956998e+000	 3.047122803054358e+000	 1.067562261019872e+001
 2.817806799286325e+000	 3.078419573558874e+000	 1.065302900291346e+001
 2.783656989388781e+000	 3.109333612827688e+000	 1.063054829388666e+001
 3.129202558978380e+000	 2.801444830037749e+000	 1.079718306572307e+001
 3.098090975972703e+000	 2.835812860563197e+000	 1.079250856048326e+001
 3.066594216041264e+000	 2.869843648532129e+000	 1.078323521547975e+001
 3.034717795080713e+000	 2.903530751830148e+000	 1.077003310317415e+001
 3.002467371960544e+000	 2.936867849398260e+000	 1.075359652724791e+001
 2.969848745180577e+000	 2.969848745180577e+000	 1.073462250695767e+001
 2.936867849398259e+000	 3.002467371960544e+000	 1.071378908835092e+001
 2.903530751830149e+000	 3.034717795080715e+000	 1.069173367388517e+001
 2.869843648532129e+000	 3.066594216041264e+000	 1.066903156282928e+001
 2.835812860563195e+000	 3.098090975972702e+000	 1.064617489405063e+001
 2.801444830037748e+000	 3.129202558978380e+000	 1.062355218040926e+001
 2.623566423550066e+000	 2.930513097476694e+000	 1.067813518346760e+001
 2.591066015360247e+000	 2.959287783067377e+000	 1.065538922661984e+001
 2.558262081212877e+000	 2.987691721587632e+000	 1.062737370866104e+001
 2.525160976388239e+000	 3.015720167141756e+000	 1.059555880674514e+001
 2.491769153792504e+000	 3.043368519087291e+000	 1.056125301486957e+001
 2.458093159808781e+000	 3.070632324500330e+000	 1.052561657359541e+001
 2.424139630075088e+000	 3.097507280498923e+000	 1.048967579595460e+001
 2.389915285194917e+000	 3.123989236422097e+000	 1.045433813260367e+001
 2.355426926386115e+000	 3.150074195862330e+000	 1.042040781512336e+001
 2.320681431073919e+000	 3.175758318549517e+000	 1.038860191360200e+001
 2.285685748434003e+000	 3.201037922084772e+000	 1.035956664328610e+001
 2.641354264199035e+000	 2.950382043628141e+000	 1.067534612899194e+001
 2.608633502494953e+000	 2.979351822248522e+000	 1.065133230643666e+001
 2.575607156920352e+000	 3.007948340124857e+000	 1.062270227323650e+001
 2.542281625844456e+000	 3.036166819184163e+000	 1.059080751165312e+001
 2.508663405924287e+000	 3.064002627591506e+000	 1.055683341163340e+001
 2.474759087927574e+000	 3.091451282232050e+000	 1.052181374761842e+001
 2.440575352482112e+000	 3.118508451050198e+000	 1.048664608576742e+001
 2.406118965757234e+000	 3.145169955243393e+000	 1.045210795671118e+001
 2.371396775083201e+000	 3.171431771308376e+000	 1.041887362461588e+001
 2.336415704514343e+000	 3.197290032937910e+000	 1.038753128046332e+001
 2.301182750341905e+000	 3.222741032766358e+000	 1.035860048604994e+001
 2.659142104847869e+000	 2.970250989778902e+000	 1.067223001388628e+001
 2.626200989629562e+000	 2.999415861428939e+000	 1.064672228660603e+001
 2.592952232627758e+000	 3.028204958661326e+000	 1.061728616030253e+001
 2.559402275300624e+000	 3.056613471225787e+000	 1.058516151394144e+001
 2.525557658056029e+000	 3.084636736094926e+000	 1.055141714956174e+001
 2.491425016046331e+000	 3.112270239962971e+000	 1.051696634142448e+001
 2.457011074889095e+000	 3.139509621600685e+000	 1.048258335201678e+001
 2.422322646319498e+000	 3.166350674063928e+000	 1.044892074182103e+001
 2.387366623780208e+000	 3.192789346753697e+000	 1.041652729524055e+001
 2.352149977954658e+000	 3.218821747325635e+000	 1.038586638207829e+001
 2.316679752249655e+000	 3.244444143447348e+000	 1.035733457250685e+001
 2.676929945496605e+000	 2.990119935929130e+000	 1.066876888139842e+001
 2.643768476764097e+000	 3.019479900608787e+000	 1.064180797142488e+001
 2.610297308335112e+000	 3.048461577197192e+000	 1.061138898400510e+001
 2.576522924756755e+000	 3.077060123266782e+000	 1.057889647407652e+001
 2.542451910187743e+000	 3.105270844597697e+000	 1.054528883148168e+001
 2.508090944165058e+000	 3.133089197693234e+000	 1.051136444966313e+001
 2.473446797296041e+000	 3.160510792150513e+000	 1.047777937937661e+001
 2.438526326881711e+000	 3.187531392883816e+000	 1.044506580639700e+001
 2.403336472477147e+000	 3.214146922198397e+000	 1.041365116693931e+001
 2.367884251394874e+000	 3.240353461712777e+000	 1.038387771139632e+001
 2.332176754157270e+000	 3.266147254127807e+000	 1.035602232547540e+001
 2.694717786145272e+000	 3.009988882078973e+000	 1.066410162752904e+001
 2.661335963898585e+000	 3.039543939788214e+000	 1.063683238360498e+001
 2.627642384042430e+000	 3.068718195732604e+000	 1.060526913213365e+001
 2.593643574212858e+000	 3.097506775307298e+000	 1.057228355797125e+001
 2.559346162319434e+000	 3.125904953099965e+000	 1.053872947334914e+001
 2.524756872283762e+000	 3.153908155422980e+000	 1.050529566258127e+001
 2.489882519702958e+000	 3.181511962699814e+000	 1.047252470390435e+001
 2.454730007443883e+000	 3.208712111703173e+000	 1.044083264757025e+001
 2.419306321174022e+000	 3.235504497642577e+000	 1.041052935495772e+001
 2.383618524835003e+000	 3.261885176099418e+000	 1.038183930021387e+001
 2.347673756064768e+000	 3.287850364807801e+000	 1.035492263435297e+001
 2.712505626793908e+000	 3.029857828228585e+000	 1.065839068846623e+001
 2.678903451033047e+000	 3.059607978967379e+000	 1.063170950979822e+001
 2.644987459749730e+000	 3.088974814267723e+000	 1.059917813627527e+001
 2.610764223668948e+000	 3.117953427347487e+000	 1.056558784032537e+001
 2.576240414451112e+000	 3.146539061601881e+000	 1.053201493895602e+001
 2.541422800402450e+000	 3.174727113152346e+000	 1.049904353006177e+001
 2.506318242109850e+000	 3.202513133248717e+000	 1.046710710415979e+001
 2.470933688006018e+000	 3.229892830522120e+000	 1.043650945687249e+001
 2.435276169870846e+000	 3.256862073086340e+000	 1.040744628751174e+001
 2.399352798275060e+000	 3.283416890485647e+000	 1.038002727588105e+001
 2.363170757972164e+000	 3.309553475487395e+000	 1.035429842775815e+001
 2.730293467442543e+000	 3.049726774378111e+000	 1.065192053323665e+001
 2.696470938167511e+000	 3.079672018146433e+000	 1.062575568088308e+001
 2.662332535457031e+000	 3.109231432802700e+000	 1.059335903762550e+001
 2.627884873125035e+000	 3.138400079387501e+000	 1.055906670327292e+001
 2.593134666582783e+000	 3.167173170103586e+000	 1.052541436973021e+001
 2.558088728521126e+000	 3.195546070881469e+000	 1.049288602068122e+001
 2.522753964516725e+000	 3.223514303797348e+000	 1.046181008741558e+001
 2.487137368568124e+000	 3.251073549340771e+000	 1.043238163128389e+001
 2.451246018567628e+000	 3.278219648529786e+000	 1.040468523914928e+001
 2.415087071715054e+000	 3.304948604871548e+000	 1.037871841424527e+001
 2.378667759879475e+000	 3.331256586166656e+000	 1.035441524311884e+001
 2.748081308091210e+000	 3.069595720527704e+000	 1.064495882267872e+001
 2.714038425301999e+000	 3.099736057325528e+000	 1.061920109494215e+001
 2.679677611164348e+000	 3.129488051337687e+000	 1.058771939826689e+001
 2.645005522581133e+000	 3.158846731427493e+000	 1.055296823054986e+001
 2.610028918714459e+000	 3.187807278605231e+000	 1.051918860985104e+001
 2.574754656639798e+000	 3.216365028610493e+000	 1.048709397601258e+001
 2.539189686923587e+000	 3.244515474345840e+000	 1.045691137118145e+001
 2.503341049130209e+000	 3.272254268159244e+000	 1.042873027980857e+001
 2.467215867264374e+000	 3.299577223973019e+000	 1.040252686000237e+001
 2.430821345154999e+000	 3.326480319257203e+000	 1.037818868900285e+001
 2.394164761786720e+000	 3.352959696845651e+000	 1.035446242839733e+001
 2.765869148739947e+000	 3.089464666677513e+000	 1.063775656923247e+001
 2.731605912436535e+000	 3.119800096504819e+000	 1.061232226232833e+001
 2.697022686871698e+000	 3.149744669872843e+000	 1.058171923367077e+001
 2.662126172037251e+000	 3.179293383467614e+000	 1.054752959738319e+001
 2.626923170846145e+000	 3.208441387106961e+000	 1.051358862689100e+001
 2.591420584758473e+000	 3.237183986339555e+000	 1.048192956038695e+001
 2.555625409330443e+000	 3.265516644894320e+000	 1.045268136025324e+001
 2.519544729692277e+000	 3.293434986977655e+000	 1.042583072577861e+001
 2.483185715961096e+000	 3.320934799416142e+000	 1.040124770111461e+001
 2.446555618594906e+000	 3.348012033642701e+000	 1.037799526730305e+001
 2.409661763693914e+000	 3.374662807524445e+000	 1.035287696430969e+001
 2.783656989388781e+000	 3.109333612827688e+000	 1.063054829388666e+001
 2.749173399571143e+000	 3.139864135684460e+000	 1.060537870414072e+001
 2.714367762579100e+000	 3.170001288408317e+000	 1.057560310523991e+001
 2.679246821493404e+000	 3.199740035508015e+000	 1.054270744462387e+001
 2.643817422977850e+000	 3.229075495608925e+000	 1.050885392818372e+001
 2.608086512877154e+000	 3.258002944068795e+000	 1.047764470631725e+001
 2.572061131737296e+000	 3.286517815442916e+000	 1.044938161948704e+001
 2.535748410254337e+000	 3.314615705796119e+000	 1.042395100507800e+001
 2.499155564657801e+000	 3.342292374859254e+000	 1.040081143992602e+001
 2.462289892034790e+000	 3.369543748028127e+000	 1.037599696765578e+001
 2.425158765601074e+000	 3.396365918203103e+000	 1.034944492748771e+001
 2.801444830037748e+000	 3.129202558978380e+000	 1.062355218040927e+001
 2.766740886705849e+000	 3.159928174864604e+000	 1.059861310121520e+001
 2.731712838286569e+000	 3.190257906944266e+000	 1.056963601457163e+001
 2.696367470949601e+000	 3.220186687548849e+000	 1.053805466884703e+001
 2.660711675109584e+000	 3.249709604111268e+000	 1.050521097310850e+001
 2.624752440995853e+000	 3.278821901798352e+000	 1.047447955577690e+001
 2.588496854144156e+000	 3.307518985991762e+000	 1.044726334248824e+001
 2.551952090816394e+000	 3.335796424614757e+000	 1.042332386945458e+001
 2.515125413354498e+000	 3.363649950302459e+000	 1.039876524232527e+001
 2.478024165474663e+000	 3.391075462413564e+000	 1.037187783674500e+001
 2.440655767508217e+000	 3.418069028881693e+000	 1.034398298467400e+001
 2.285685748434003e+000	 3.201037922084772e+000	 1.035956664328610e+001
 2.250446894129934e+000	 3.225909482613576e+000	 1.033420523944241e+001
 2.214971943538431e+000	 3.250369633505693e+000	 1.031087421331876e+001
 2.179268029550415e+000	 3.274415169322649e+000	 1.028637155217939e+001
 2.143342338751272e+000	 3.298043047850051e+000	 1.025753278421658e+001
 2.107202106807173e+000	 3.321250391072290e+000	 1.022125205385337e+001
 2.070854613836993e+000	 3.344034485992657e+000	 1.017461115387933e+001
 2.034307179775804e+000	 3.366392785299043e+000	 1.011583970471727e+001
 1.997567159735842e+000	 3.388322907875671e+000	 1.004340640418753e+001
 1.960641939370820e+000	 3.409822639161488e+000	 9.972927143270677e+000
 1.923538930249378e+000	 3.430889931356199e+000	 9.915408808808108e+000
 2.301182750341905e+000	 3.222741032766358e+000	 1.035860048604994e+001
 2.265704975795809e+000	 3.247781223047380e+000	 1.033302261233263e+001
 2.229989504223994e+000	 3.272407214324913e+000	 1.030939276513224e+001
 2.194043516878546e+000	 3.296615779427530e+000	 1.028468359565301e+001
 2.157874249070071e+000	 3.320403855514564e+000	 1.025590351960051e+001
 2.121488985522725e+000	 3.343768545057394e+000	 1.022015497422188e+001
 2.084895055714760e+000	 3.366707116665132e+000	 1.017530755937073e+001
 2.048099829210577e+000	 3.389217005754840e+000	 1.011984192959220e+001
 2.011110710990247e+000	 3.411295815066718e+000	 1.005225607345183e+001
 1.973935136782386e+000	 3.432941315024939e+000	 9.978494335037873e+000
 1.936580568406245e+000	 3.454151443945082e+000	 9.918039782021051e+000
 2.316679752249655e+000	 3.244444143447348e+000	 1.035733457250685e+001
 2.280963057461482e+000	 3.269652963480678e+000	 1.033186630345225e+001
 2.245007064909297e+000	 3.294444795143722e+000	 1.030822880422575e+001
 2.208819004206357e+000	 3.318816389532113e+000	 1.028354113017053e+001
 2.172406159388486e+000	 3.342764663178889e+000	 1.025493223237402e+001
 2.135775864237826e+000	 3.366286699042419e+000	 1.021983703486610e+001
 2.098935497592009e+000	 3.389379747337628e+000	 1.017676249748504e+001
 2.061892478644770e+000	 3.412041226210741e+000	 1.012435893572119e+001
 2.024654262244012e+000	 3.434268722257935e+000	 1.006127546670605e+001
 1.987228334193261e+000	 3.456059990888608e+000	 9.987891384360626e+000
 1.949622206562376e+000	 3.477412956534195e+000	 9.924113551805677e+000
 2.332176754157270e+000	 3.266147254127807e+000	 1.035602232547540e+001
 2.296221139126976e+000	 3.291524703913511e+000	 1.033097246631301e+001
 2.260024625594372e+000	 3.316482375962150e+000	 1.030760646138769e+001
 2.223594491533885e+000	 3.341016999636398e+000	 1.028310931167779e+001
 2.186938069706560e+000	 3.365125470843009e+000	 1.025443305988369e+001
 2.150062742952529e+000	 3.388804853027323e+000	 1.022000666740360e+001
 2.112975939468804e+000	 3.412052378010083e+000	 1.017861848601252e+001
 2.075685128078455e+000	 3.434865446666672e+000	 1.012905174589162e+001
 2.038197813497221e+000	 3.457241629449239e+000	 1.007008388510985e+001
 2.000521531603536e+000	 3.479178666752396e+000	 1.000048628364930e+001
 1.962663844717872e+000	 3.500674469123442e+000	 9.933070493998532e+000
 2.347673756064768e+000	 3.287850364807801e+000	 1.035492263435297e+001
 2.311479220792314e+000	 3.313396444345925e+000	 1.033058466802539e+001
 2.275042186279247e+000	 3.338519956780215e+000	 1.030771888649636e+001
 2.238369978861165e+000	 3.363217609740386e+000	 1.028281363213146e+001
 2.201469980024336e+000	 3.387486278506896e+000	 1.025404396363231e+001
 2.164349621666887e+000	 3.411323007012064e+000	 1.022031950168589e+001
 2.127016381345206e+000	 3.434725008682438e+000	 1.018054224408110e+001
 2.089477777511701e+000	 3.457689667122556e+000	 1.013360527950302e+001
 2.051741364749952e+000	 3.480214536640536e+000	 1.007839193637317e+001
 2.013814729013301e+000	 3.502297342616207e+000	 1.001377536670695e+001
 1.975705482872835e+000	 3.523935981712723e+000	 9.944358453554512e+000
 2.363170757972164e+000	 3.309553475487395e+000	 1.035429842775815e+001
 2.326737302457517e+000	 3.335268184777968e+000	 1.033094452079905e+001
 2.290059746963950e+000	 3.360557537597944e+000	 1.030769211108891e+001
 2.253145466188234e+000	 3.385418219844079e+000	 1.028218666888257e+001
 2.216001890341861e+000	 3.409847086170533e+000	 1.025343996677066e+001
 2.178636500380949e+000	 3.433841160996598e+000	 1.022045504571745e+001
 2.141056823221275e+000	 3.457397639354630e+000	 1.018222429197559e+001
 2.103270426944581e+000	 3.480513887578316e+000	 1.013772797402204e+001
 2.065284916002286e+000	 3.503187443831742e+000	 1.008593324472147e+001
 2.027107926422647e+000	 3.525416018479945e+000	 1.002579360858818e+001
 1.988747121027364e+000	 3.547197494301935e+000	 9.957435445170448e+000
 2.378667759879475e+000	 3.331256586166656e+000	 1.035441524311884e+001
 2.341995384122610e+000	 3.357139925209682e+000	 1.033105894080246e+001
 2.305077307648510e+000	 3.382595118415356e+000	 1.030686934609336e+001
 2.267920953515127e+000	 3.407618829947475e+000	 1.028092814078940e+001
 2.230533800659176e+000	 3.432207893833895e+000	 1.025231943238124e+001
 2.192923379094772e+000	 3.456359314980883e+000	 1.022011627002167e+001
 2.155097265097074e+000	 3.480070270026597e+000	 1.018337854873199e+001
 2.117063076377164e+000	 3.503338108033873e+000	 1.014115140345604e+001
 2.078828467254304e+000	 3.526160351022762e+000	 1.009246409825987e+001
 2.040401123831664e+000	 3.548534694343511e+000	 1.003632941037298e+001
 2.001788759181560e+000	 3.570459006890981e+000	 9.971743503314132e+000
 2.394164761786720e+000	 3.352959696845651e+000	 1.035446242839733e+001
 2.357253465787613e+000	 3.379011665641112e+000	 1.032992778156470e+001
 2.320094868332957e+000	 3.404632699232478e+000	 1.030497940876876e+001
 2.282696440841880e+000	 3.429819440050575e+000	 1.027876038771239e+001
 2.245065710976327e+000	 3.454568701496963e+000	 1.025040364042357e+001
 2.207210257808406e+000	 3.478877468964878e+000	 1.021902919033573e+001
 2.169137706972663e+000	 3.502742900698278e+000	 1.018374192760797e+001
 2.130855725809523e+000	 3.526162328489153e+000	 1.014362989398062e+001
 2.092372018506088e+000	 3.549133258213510e+000	 1.009776309248533e+001
 2.053694321240442e+000	 3.571653370206810e+000	 1.004519282145515e+001
 2.014830397335523e+000	 3.593720519479760e+000	 9.984951526562854e+000
 2.409661763693914e+000	 3.374662807524445e+000	 1.035287696430969e+001
 2.372511547452549e+000	 3.400883406072305e+000	 1.032731253531500e+001
 2.335112429017319e+000	 3.426670280049329e+000	 1.030177286915442e+001
 2.297471928168530e+000	 3.452020050153380e+000	 1.027542794692512e+001
 2.259597621293357e+000	 3.476929509159713e+000	 1.024743636327411e+001
 2.221497136521904e+000	 3.501395622948537e+000	 1.021694244871049e+001
 2.183178148848105e+000	 3.525415531369613e+000	 1.018307392952507e+001
 2.144648375241727e+000	 3.548986548944076e+000	 1.014494013684895e+001
 2.105915569757716e+000	 3.572106165403896e+000	 1.010163077012068e+001
 2.066987518649074e+000	 3.594772046069743e+000	 1.005221521408079e+001
 2.027872035489354e+000	 3.616982032068171e+000	 9.995742402425758e+000
 2.425158765601074e+000	 3.396365918203103e+000	 1.034944492748771e+001
 2.387769629117440e+000	 3.422755146503306e+000	 1.032299545824897e+001
 2.350129989701624e+000	 3.448707860865934e+000	 1.029702163180184e+001
 2.312247415495113e+000	 3.474220660255889e+000	 1.027069712814620e+001
 2.274129531610309e+000	 3.499290316822126e+000	 1.024318343992379e+001
 2.235784015235318e+000	 3.523913776931821e+000	 1.021362689308619e+001
 2.197218590723461e+000	 3.548088162040541e+000	 1.018115623457334e+001
 2.158441024673848e+000	 3.571810769398565e+000	 1.014488079870487e+001
 2.119459121009271e+000	 3.595079072593830e+000	 1.010388925743476e+001
 2.080280716057648e+000	 3.617890721932214e+000	 1.005724895318424e+001
 2.040913673643154e+000	 3.640243544656117e+000	 1.000400580670602e+001
 2.440655767508217e+000	 3.418069028881693e+000	 1.034398298467400e+001
 2.403027710782309e+000	 3.444626886934158e+000	 1.031677916250981e+001
 2.365147550385903e+000	 3.470745441682317e+000	 1.029051851595798e+001
 2.327022902821665e+000	 3.496421270358104e+000	 1.026435558725315e+001
 2.288661441927230e+000	 3.521651124484178e+000	 1.023743234889260e+001
 2.250070893948702e+000	 3.546431930914687e+000	 1.020887515541192e+001
 2.211259032598793e+000	 3.570760792711000e+000	 1.017779229166448e+001
 2.172233674105955e+000	 3.594634989852545e+000	 1.014327212941466e+001
 2.133002672260832e+000	 3.618051979783225e+000	 1.010438189720509e+001
 2.093573913466255e+000	 3.641009397794124e+000	 1.006016706173090e+001
 2.053955311797024e+000	 3.663505057243499e+000	 1.000965131241332e+001
 1.923538930249378e+000	 3.430889931356199e+000	 9.915408808808106e+000
 1.886271168719185e+000	 3.451519841804724e+000	 9.868739683213248e+000
 1.848840550700881e+000	 3.471713851746570e+000	 9.831192166914182e+000
 1.811254536557092e+000	 3.491470416868223e+000	 9.800721404923344e+000
 1.773520594178441e+000	 3.510788158857956e+000	 9.775335925863145e+000
 1.735646194488917e+000	 3.529665864868950e+000	 9.753098095554719e+000
 1.697638806993271e+000	 3.548102486840682e+000	 9.732124500594392e+000
 1.659505895371513e+000	 3.566097140681105e+000	 9.710586344961675e+000
 1.621254913125377e+000	 3.583649105312324e+000	 9.686709935523874e+000
 1.582893299281493e+000	 3.600757821582674e+000	 9.658777324441694e+000
 1.544428474155829e+000	 3.617422891048259e+000	 9.625127168046875e+000
 1.936580568406245e+000	 3.454151443945082e+000	 9.918039782021051e+000
 1.899060130596229e+000	 3.474921225660750e+000	 9.870080270255500e+000
 1.861375732127374e+000	 3.495252151454281e+000	 9.832541287879588e+000
 1.823534883943736e+000	 3.515142666541675e+000	 9.803064704535434e+000
 1.785545104568417e+000	 3.534591383266208e+000	 9.779353999429336e+000
 1.747413915578442e+000	 3.553597080557927e+000	 9.759174674513494e+000
 1.709148837121985e+000	 3.572158703250428e+000	 9.740354603344073e+000
 1.670757383482980e+000	 3.590275361257489e+000	 9.720784403784181e+000
 1.632247058698082e+000	 3.607946328612285e+000	 9.698417915106019e+000
 1.593625352230694e+000	 3.625171042372080e+000	 9.671272851713427e+000
 1.554899734706702e+000	 3.641949101391516e+000	 9.637431696773234e+000
 1.949622206562376e+000	 3.477412956534195e+000	 9.924113551805677e+000
 1.911849092472506e+000	 3.498322609516991e+000	 9.874296265136954e+000
 1.873910913553071e+000	 3.518790451162160e+000	 9.836104726603077e+000
 1.835815231329566e+000	 3.538814916215224e+000	 9.806906246034734e+000
 1.797569614957565e+000	 3.558394607674471e+000	 9.784137649642606e+000
 1.759181636667133e+000	 3.577528296246814e+000	 9.765305555775626e+000
 1.720658867249861e+000	 3.596214919659974e+000	 9.747986595209220e+000
 1.682008871593610e+000	 3.614453581833564e+000	 9.729827669627916e+000
 1.643239204269950e+000	 3.632243551911827e+000	 9.708546333888606e+000
 1.604357405179059e+000	 3.649584263160969e+000	 9.681931378815460e+000
 1.565370995256741e+000	 3.666475311734168e+000	 9.647843681814770e+000
 1.962663844717872e+000	 3.500674469123442e+000	 9.933070493998532e+000
 1.924638054348121e+000	 3.521723993373348e+000	 9.880901180075961e+000
 1.886446094978093e+000	 3.542328750870120e+000	 9.841467198055650e+000
 1.848095578714712e+000	 3.562487165888798e+000	 9.811899456357041e+000
 1.809594125346025e+000	 3.582197832082684e+000	 9.789405970163916e+000
 1.770949357755138e+000	 3.601459511935572e+000	 9.771271901669065e+000
 1.732168897377055e+000	 3.620271136069303e+000	 9.754859556921929e+000
 1.693260359703563e+000	 3.638631802409330e+000	 9.737608438819194e+000
 1.654231349841147e+000	 3.656540775210977e+000	 9.717035447204946e+000
 1.615089458126757e+000	 3.673997483949385e+000	 9.690735307682859e+000
 1.575842255806114e+000	 3.691001522076283e+000	 9.656381300716406e+000
 1.975705482872835e+000	 3.523935981712723e+000	 9.944358453554512e+000
 1.937427016223188e+000	 3.545125377229726e+000	 9.889412638458765e+000
 1.898981276402560e+000	 3.565867050578072e+000	 9.848214165186224e+000
 1.860375926099302e+000	 3.586159415562315e+000	 9.817695172776434e+000
 1.821618635733935e+000	 3.606001056490789e+000	 9.794872183403017e+000
 1.782717078842601e+000	 3.625390727624157e+000	 9.776845807876951e+000
 1.743678927503718e+000	 3.644327352478393e+000	 9.760800423101479e+000
 1.704511847812996e+000	 3.662810022984794e+000	 9.744003927281060e+000
 1.665223495411833e+000	 3.680837998509759e+000	 9.723807669589645e+000
 1.625821511073953e+000	 3.698410704737381e+000	 9.697646641079169e+000
 1.586313516354986e+000	 3.715527732417929e+000	 9.663040002986982e+000
 1.988747121027364e+000	 3.547197494301935e+000	 9.957435445170450e+000
 1.950215978097817e+000	 3.568526761086030e+000	 9.899355041562600e+000
 1.911516457826590e+000	 3.589405350285925e+000	 9.855934470170116e+000
 1.872656273483467e+000	 3.609831665235706e+000	 9.823944236633279e+000
 1.833643146121435e+000	 3.629804280898727e+000	 9.800246194212942e+000
 1.794484799929670e+000	 3.649321943312530e+000	 9.781792814121886e+000
 1.755188957630005e+000	 3.668383568887227e+000	 9.765626446490938e+000
 1.715763335922069e+000	 3.686988243559954e+000	 9.748878684428700e+000
 1.676215640982173e+000	 3.705135221808200e+000	 9.728769933986618e+000
 1.636553564020811e+000	 3.722823925524999e+000	 9.702609282321857e+000
 1.596784776903525e+000	 3.740053942759174e+000	 9.667794745101688e+000
 2.001788759181560e+000	 3.570459006890981e+000	 9.971743503314132e+000
 1.963004939972117e+000	 3.591928144942161e+000	 9.910262226339814e+000
 1.924051639250307e+000	 3.612943649993593e+000	 9.864222954901525e+000
 1.884936620867336e+000	 3.633503914908892e+000	 9.830300074548166e+000
 1.845667656508661e+000	 3.653607505306437e+000	 9.805237129396128e+000
 1.806252521016491e+000	 3.673253159000651e+000	 9.785874399096725e+000
 1.766698987756068e+000	 3.692439785295785e+000	 9.769147645009491e+000
 1.727014824030942e+000	 3.711166464134818e+000	 9.752086988608266e+000
 1.687207786552331e+000	 3.729432445106324e+000	 9.731816031410842e+000
 1.647285616967498e+000	 3.747237146312289e+000	 9.705551314578573e+000
 1.607256037451896e+000	 3.764580153100085e+000	 9.670602204422742e+000
 2.014830397335523e+000	 3.593720519479760e+000	 9.984951526562854e+000
 1.975793901846201e+000	 3.615329528798024e+000	 9.921680114668085e+000
 1.936586820673828e+000	 3.636481949700988e+000	 9.872683071217679e+000
 1.897216968251039e+000	 3.657176164581797e+000	 9.836421267688946e+000
 1.857692166895753e+000	 3.677410729713860e+000	 9.809555863665821e+000
 1.818020242103209e+000	 3.697184374688481e+000	 9.788850460356050e+000
 1.778209017882060e+000	 3.716496001704045e+000	 9.771169232399004e+000
 1.738266312139771e+000	 3.735344684709383e+000	 9.753475224914945e+000
 1.698199932122467e+000	 3.753729668404155e+000	 9.732828931949072e+000
 1.658017669914180e+000	 3.771650367099296e+000	 9.706387260659492e+000
 1.617727298000268e+000	 3.789106363440732e+000	 9.671402972994247e+000
 2.027872035489354e+000	 3.616982032068171e+000	 9.995742402425758e+000
 1.988582863720177e+000	 3.638730912653521e+000	 9.933169354450211e+000
 1.949122002097276e+000	 3.660020249408020e+000	 9.880929481316564e+000
 1.909497315634706e+000	 3.680848414254348e+000	 9.841974109628739e+000
 1.869716677282848e+000	 3.701213954120939e+000	 9.812917532671493e+000
 1.829787963189973e+000	 3.721115590375979e+000	 9.790481779845354e+000
 1.789719048008136e+000	 3.740552218111991e+000	 9.771494033203574e+000
 1.749517800248717e+000	 3.759522905283656e+000	 9.752884246183795e+000
 1.709192077692748e+000	 3.778026891701722e+000	 9.731683087939899e+000
 1.668749722861022e+000	 3.796063587886068e+000	 9.705020324184572e+000
 1.628198558548805e+000	 3.813632573781181e+000	 9.670123732116636e+000
 2.040913673643154e+000	 3.640243544656117e+000	 1.000400580670602e+001
 2.001371825594157e+000	 3.662132296508555e+000	 9.944293371743600e+000
 1.961657183520769e+000	 3.683558549114604e+000	 9.888590648807368e+000
 1.921777663018466e+000	 3.704520663926468e+000	 9.846635153305188e+000
 1.881741187670086e+000	 3.725017178527611e+000	 9.815044033667892e+000
 1.841555684276927e+000	 3.745046806063103e+000	 9.790532475710208e+000
 1.801229078134447e+000	 3.764608434519604e+000	 9.769924882782702e+000
 1.760769288357938e+000	 3.783701125857639e+000	 9.750151717905776e+000
 1.720184223263335e+000	 3.802324114999045e+000	 9.728246720129988e+000
 1.679481775808191e+000	 3.820476808672654e+000	 9.701344612957835e+000
 1.638669819097675e+000	 3.838158784121502e+000	 9.666679408560919e+000
 2.053955311797024e+000	 3.663505057243499e+000	 1.000965131241332e+001
 2.014160787468252e+000	 3.685533680363033e+000	 9.953211461358890e+000
 1.974192364944430e+000	 3.707096848820648e+000	 9.895311420809534e+000
 1.934058010402449e+000	 3.728192913598081e+000	 9.850093747565376e+000
 1.893765698057606e+000	 3.748820402933820e+000	 9.815666514376160e+000
 1.853323405364218e+000	 3.768978021749815e+000	 9.788772440995427e+000
 1.812739108261148e+000	 3.788664650926862e+000	 9.766267013023146e+000
 1.772020776467593e+000	 3.807879346431334e+000	 9.745114447783788e+000
 1.731176368834391e+000	 3.826621338296152e+000	 9.722384087563391e+000
 1.690213828755852e+000	 3.844890029459100e+000	 9.695247345340308e+000
 1.649141079647045e+000	 3.862684994461763e+000	 9.660975313238376e+000
 1.544428474155829e+000	 3.617422891048259e+000	 9.625127168046875e+000
 1.505862044005179e+000	 3.633646475212943e+000	 9.585300385483954e+000
 1.467207146887432e+000	 3.649425961916560e+000	 9.539495624617976e+000
 1.428471127328698e+000	 3.664761429167448e+000	 9.487175856402484e+000
 1.389661294793495e+000	 3.679653109660585e+000	 9.427952406220674e+000
 1.350784919814787e+000	 3.694101388953216e+000	 9.361585121197994e+000
 1.311849230209201e+000	 3.708106803531543e+000	 9.291551689400126e+000
 1.272861407380663e+000	 3.721670038772552e+000	 9.234354836102687e+000
 1.233828582715532e+000	 3.734791926805090e+000	 9.189654990756852e+000
 1.194757834072111e+000	 3.747473444274481e+000	 9.154560508723160e+000
 1.155656182367169e+000	 3.759715710014934e+000	 9.126190104969599e+000
 1.554899734706702e+000	 3.641949101391516e+000	 9.637431696773234e+000
 1.516071823273362e+000	 3.658282681829495e+000	 9.596955381096375e+000
 1.477154845064890e+000	 3.674169153815358e+000	 9.550894337001221e+000
 1.438156194403447e+000	 3.689608595886352e+000	 9.498955363120647e+000
 1.399083230311878e+000	 3.704601242315142e+000	 9.440988600153144e+000
 1.359943272617522e+000	 3.719147481273074e+000	 9.376987276472418e+000
 1.320743598141761e+000	 3.733247852883756e+000	 9.308215929357358e+000
 1.281491436978598e+000	 3.746903047171049e+000	 9.249860006022365e+000
 1.242193968865346e+000	 3.760113901905669e+000	 9.204481180797320e+000
 1.202858319648345e+000	 3.772881400354630e+000	 9.169269305211396e+000
 1.163491557846333e+000	 3.785206668937872e+000	 9.141450103217144e+000
 1.565370995256741e+000	 3.666475311734168e+000	 9.647843681814770e+000
 1.526281602540710e+000	 3.682918888445374e+000	 9.606821939501012e+000
 1.487102543241513e+000	 3.698912345713429e+000	 9.560682352050067e+000
 1.447841261477359e+000	 3.714455762604492e+000	 9.509342600717487e+000
 1.408505165829424e+000	 3.729549374968920e+000	 9.452857139580775e+000
 1.369101625419422e+000	 3.744193573592156e+000	 9.391416581094427e+000
 1.329637966073492e+000	 3.758388902235207e+000	 9.325435797305312e+000
 1.290121466575712e+000	 3.772136055568817e+000	 9.266724316526368e+000
 1.250559355014358e+000	 3.785435877005572e+000	 9.221440880363945e+000
 1.210958805223801e+000	 3.798289356434168e+000	 9.186830710516029e+000
 1.171326933324751e+000	 3.810697627860288e+000	 9.160202198599263e+000
 1.575842255806114e+000	 3.691001522076283e+000	 9.656381300716406e+000
 1.536491381807390e+000	 3.707555095060664e+000	 9.614939013193597e+000
 1.497050241417462e+000	 3.723655537610877e+000	 9.568896628604788e+000
 1.457526328550590e+000	 3.739302929321990e+000	 9.518350511908794e+000
 1.417927101346283e+000	 3.754497507622050e+000	 9.463525673470642e+000
 1.378259978220630e+000	 3.769239665910598e+000	 9.404774854640525e+000
 1.338532334004527e+000	 3.783529951586039e+000	 9.342578102552197e+000
 1.298751496172133e+000	 3.797369063966007e+000	 9.284315924681835e+000
 1.258924741162678e+000	 3.810757852104945e+000	 9.239712663455384e+000
 1.219059290798574e+000	 3.823697312513241e+000	 9.206209863457660e+000
 1.179162308802503e+000	 3.836188586782309e+000	 9.181175991149841e+000
 1.586313516354986e+000	 3.715527732417929e+000	 9.663040002986980e+000
 1.546701161073566e+000	 3.732191301675452e+000	 9.621320966899885e+000
 1.506997939592899e+000	 3.748398729507804e+000	 9.575548363568379e+000
 1.467211395623298e+000	 3.764150096038961e+000	 9.525965779392804e+000
 1.427349036862606e+000	 3.779445640274658e+000	 9.472935758387093e+000
 1.387418331021288e+000	 3.794285758228537e+000	 9.416938646290753e+000
 1.347426701935000e+000	 3.808671000936399e+000	 9.358572006069126e+000
 1.307381525767979e+000	 3.822602072362762e+000	 9.302011891729018e+000
 1.267290127310417e+000	 3.836079827203932e+000	 9.258488581291728e+000
 1.227159776372762e+000	 3.849105268591987e+000	 9.226389976518441e+000
 1.186997684279672e+000	 3.861679545704069e+000	 9.203123781734515e+000
 1.596784776903525e+000	 3.740053942759174e+000	 9.667794745101688e+000
 1.556910940339404e+000	 3.756827508289827e+000	 9.625959735174460e+000
 1.516945637767987e+000	 3.773141921404314e+000	 9.580625052763516e+000
 1.476896462695642e+000	 3.788997262755524e+000	 9.532150771333715e+000
 1.436770972378545e+000	 3.804393772926877e+000	 9.481004670684918e+000
 1.396576683821540e+000	 3.819331850546112e+000	 9.427760896533922e+000
 1.356321069865043e+000	 3.833812050286429e+000	 9.373099278242348e+000
 1.316011555363373e+000	 3.847835080759229e+000	 9.319198601294517e+000
 1.275655513457684e+000	 3.861401802302679e+000	 9.276974520470569e+000
 1.235260261946462e+000	 3.874513224670545e+000	 9.246372608783290e+000
 1.194833059756341e+000	 3.887170504625702e+000	 9.224820735541103e+000
 1.607256037451896e+000	 3.764580153100085e+000	 9.670602204422742e+000
 1.567120719605069e+000	 3.781463714903873e+000	 9.628826958792894e+000
 1.526893335942890e+000	 3.797885113300513e+000	 9.584092531251708e+000
 1.486581529767779e+000	 3.813844429471796e+000	 9.536845467747996e+000
 1.446192907894250e+000	 3.829341905578835e+000	 9.487627201794494e+000
 1.405735036621528e+000	 3.844377942863460e+000	 9.437072584880728e+000
 1.365215437794790e+000	 3.858953099636274e+000	 9.385909166509078e+000
 1.324641584958439e+000	 3.873068089155554e+000	 9.335272171526272e+000
 1.284020899604590e+000	 3.886723777401333e+000	 9.294390559996929e+000
 1.243360747519771e+000	 3.899921180749059e+000	 9.265177943336475e+000
 1.202668435232591e+000	 3.912661463547339e+000	 9.245065056213017e+000
 1.617727298000268e+000	 3.789106363440732e+000	 9.671402972994247e+000
 1.577330498870728e+000	 3.806099921517680e+000	 9.629876100898521e+000
 1.536841034117768e+000	 3.822628305196501e+000	 9.585896994044820e+000
 1.496266596839867e+000	 3.838691596187896e+000	 9.539969368658001e+000
 1.455614843409874e+000	 3.854290038230659e+000	 9.492677437364426e+000
 1.414893389421396e+000	 3.869424035180721e+000	 9.444684364217942e+000
 1.374109805724376e+000	 3.884094148986077e+000	 9.396731565677237e+000
 1.333271614553298e+000	 3.898301097551884e+000	 9.349638861425662e+000
 1.292386285751244e+000	 3.912045752500035e+000	 9.309971327238065e+000
 1.251461233092784e+000	 3.925329136827668e+000	 9.281845068912570e+000
 1.210503810708504e+000	 3.938152422469113e+000	 9.262678170142651e+000
 1.628198558548805e+000	 3.813632573781181e+000	 9.670123732116636e+000
 1.587540278136545e+000	 3.830736128131332e+000	 9.629044543814723e+000
 1.546788732292785e+000	 3.847371497092383e+000	 9.585966998092301e+000
 1.505951663912061e+000	 3.863538762903940e+000	 9.541423384834298e+000
 1.465036778925567e+000	 3.879238170882482e+000	 9.496010520989263e+000
 1.424051742221288e+000	 3.894470127498032e+000	 9.450388182405467e+000
 1.383004173653933e+000	 3.909235198335982e+000	 9.405278482934763e+000
 1.341901644148074e+000	 3.923534105948366e+000	 9.361466201063763e+000
 1.300751671897757e+000	 3.937367727598935e+000	 9.322966352851315e+000
 1.259561718665599e+000	 3.950737092906512e+000	 9.295432265609289e+000
 1.218339186184163e+000	 3.963643381391156e+000	 9.276504920467600e+000
 1.638669819097675e+000	 3.838158784121502e+000	 9.666679408560919e+000
 1.597750057402686e+000	 3.855372334744917e+000	 9.626255667388170e+000
 1.556736430468104e+000	 3.872114688988262e+000	 9.584215446381206e+000
 1.515636730984523e+000	 3.888385929620046e+000	 9.541091711905224e+000
 1.474458714441479e+000	 3.904186303534432e+000	 9.497464403210897e+000
 1.433210095021344e+000	 3.919516219815531e+000	 9.453958891686817e+000
 1.391898541583594e+000	 3.934376247686132e+000	 9.411245493823511e+000
 1.350531673742887e+000	 3.948767114345144e+000	 9.370040037422102e+000
 1.309117058044239e+000	 3.962689702698176e+000	 9.332640424730457e+000
 1.267662204238311e+000	 3.976145048985732e+000	 9.305017294480889e+000
 1.226174561659649e+000	 3.989134340313600e+000	 9.285413770335078e+000
 1.649141079647045e+000	 3.862684994461763e+000	 9.660975313238376e+000
 1.607959836669317e+000	 3.880008541358522e+000	 9.621420909683542e+000
 1.566684128643885e+000	 3.896857880884244e+000	 9.580541554944118e+000
 1.525321798057408e+000	 3.913233096336334e+000	 9.538843688572925e+000
 1.483880649957763e+000	 3.929134436186638e+000	 9.496861576448891e+000
 1.442368447821710e+000	 3.944562312133359e+000	 9.455155846454749e+000
 1.400792909513493e+000	 3.959517297036671e+000	 9.414313189579262e+000
 1.359161703337863e+000	 3.974000122742366e+000	 9.374947225122186e+000
 1.317482444190801e+000	 3.988011677797904e+000	 9.338273941014252e+000
 1.275762689811018e+000	 4.001553005065471e+000	 9.309702951132323e+000
 1.234009937135045e+000	 4.014625299236578e+000	 9.288975007045163e+000
 1.155656182367169e+000	 3.759715710014934e+000	 9.126190104969599e+000
 1.116530587703505e+000	 3.771519981695344e+000	 9.103005003344263e+000
 1.077387944538932e+000	 3.782887650511029e+000	 9.084050684174116e+000
 1.038235080352055e+000	 3.793820241437709e+000	 9.067516250971393e+000
 9.990787532115453e-001	 3.804319411526238e+000	 9.051804947950506e+000
 9.599256488797626e-001	 3.814386947187074e+000	 9.035589835882810e+000
 9.207823780247851e-001	 3.824024761409275e+000	 9.017827393759896e+000
 8.816554735420569e-001	 3.833234890918529e+000	 8.997792982040863e+000
 8.425513879866883e-001	 3.842019493278808e+000	 8.975094889745188e+000
 8.034764911172414e-001	 3.850380843942109e+000	 8.949684294514187e+000
 7.644370675516263e-001	 3.858321333250832e+000	 8.921859394805862e+000
 1.163491557846333e+000	 3.785206668937872e+000	 9.141450103217144e+000
 1.124100690751761e+000	 3.797090973851327e+000	 9.119114743997070e+000
 1.084692659567023e+000	 3.808535715722647e+000	 9.100829847818238e+000
 1.045274338061189e+000	 3.819542429866925e+000	 9.084759940923412e+000
 1.005852530122790e+000	 3.830112784569851e+000	 9.069299972276983e+000
 9.664339668438114e-001	 3.840248578353792e+000	 9.053126638102983e+000
 9.270253037128128e-001	 3.849951737177909e+000	 9.035211841856377e+000
 8.876331179184214e-001	 3.859224311576942e+000	 9.014853546132365e+000
 8.482639057642203e-001	 3.868068473743193e+000	 8.991686933236236e+000
 8.089240801958820e-001	 3.876486514556273e+000	 8.965690935146570e+000
 7.696199684411721e-001	 3.884480840565159e+000	 8.937188803482444e+000
 1.171326933324751e+000	 3.810697627860288e+000	 9.160202198599263e+000
 1.131670793799310e+000	 3.822661966006884e+000	 9.139225606234831e+000
 1.091997374594454e+000	 3.834183780933947e+000	 9.121958396066129e+000
 1.052313595769715e+000	 3.845264618295934e+000	 9.106550878639348e+000
 1.012626307033486e+000	 3.855906157613378e+000	 9.091406248096483e+000
 9.729422848073700e-001	 3.866110209520529e+000	 9.075212638521787e+000
 9.332682294004113e-001	 3.875878712946665e+000	 9.056985661589307e+000
 8.936107622944156e-001	 3.885213732235561e+000	 9.036064788398006e+000
 8.539764235414393e-001	 3.894117454207846e+000	 9.012136191601913e+000
 8.143716692742630e-001	 3.902592185170743e+000	 8.985232585430516e+000
 7.748028693305061e-001	 3.910640347879802e+000	 8.955729946820224e+000
 1.179162308802503e+000	 3.836188586782309e+000	 9.181175991149841e+000
 1.139240896846218e+000	 3.848232958162135e+000	 9.161829915744878e+000
 1.099302089621277e+000	 3.859831846145037e+000	 9.145709688446859e+000
 1.059352853477670e+000	 3.870986806724833e+000	 9.130963170425563e+000
 1.019400083943650e+000	 3.881699530656881e+000	 9.116013436681801e+000
 9.794506027704419e-001	 3.891971840687340e+000	 9.099588515848975e+000
 9.395111550875679e-001	 3.901805688715573e+000	 9.080758448955356e+000
 8.995884066700155e-001	 3.911203152894399e+000	 9.058931110694816e+000
 8.596889413183100e-001	 3.920166434672770e+000	 9.033869398315613e+000
 8.198192583523397e-001	 3.928697855785512e+000	 9.005687491902924e+000
 7.799857702195771e-001	 3.936799855194743e+000	 8.974843430559670e+000
 1.186997684279672e+000	 3.861679545704069e+000	 9.203123781734515e+000
 1.146810999892553e+000	 3.873803950317198e+000	 9.185446878167999e+000
 1.106606804647542e+000	 3.885479911356019e+000	 9.170387230433372e+000
 1.066392111185087e+000	 3.896708995153701e+000	 9.156103453181355e+000
 1.026173860853301e+000	 3.907492903700438e+000	 9.141055097358768e+000
 9.859589207330294e-001	 3.917833471854272e+000	 9.124029744151345e+000
 9.457540807742724e-001	 3.927732664484666e+000	 9.104174551628555e+000
 9.055660510451961e-001	 3.937192573553473e+000	 9.080990892696711e+000
 8.654014590947963e-001	 3.946215415137962e+000	 9.054345803374227e+000
 8.252668474300681e-001	 3.954803526400567e+000	 9.024464313199834e+000
 7.851686711083348e-001	 3.962959362509964e+000	 8.991917570623020e+000
 1.194833059756341e+000	 3.887170504625702e+000	 9.224820735541103e+000
 1.154381102938380e+000	 3.899374942472197e+000	 9.208622625882965e+000
 1.113911519673297e+000	 3.911127976566997e+000	 9.194324612905460e+000
 1.073431368892000e+000	 3.922431183582631e+000	 9.180110736376319e+000
 1.032947637762457e+000	 3.933286276744112e+000	 9.164495156856090e+000
 9.924672386951353e-001	 3.943695103021376e+000	 9.146346271238334e+000
 9.519970064605124e-001	 3.953659640253977e+000	 9.124912682155838e+000
 9.115436954199336e-001	 3.963181994212798e+000	 9.099816051611997e+000
 8.711139768708629e-001	 3.972264395603426e+000	 9.071056691728487e+000
 8.307144365074037e-001	 3.980909197015899e+000	 9.039001609868862e+000
 7.903515719967293e-001	 3.989118869825450e+000	 9.004367867454219e+000
 1.202668435232591e+000	 3.912661463547339e+000	 9.245065056213017e+000
 1.161951205983767e+000	 3.924945934627250e+000	 9.229930281573450e+000
 1.121216234698595e+000	 3.936776041778079e+000	 9.215885473850703e+000
 1.080470626598442e+000	 3.948153372011706e+000	 9.201156271033927e+000
 1.039721414671136e+000	 3.959079649787976e+000	 9.184331150857343e+000
 9.989755566567614e-001	 3.969556734188701e+000	 9.164382231518115e+000
 9.582399321462762e-001	 3.979586616023536e+000	 9.140685568315927e+000
 9.175213397942027e-001	 3.989171414872387e+000	 9.113011641062949e+000
 8.768264946464748e-001	 3.998313376069162e+000	 9.081524942179064e+000
 8.361620255843021e-001	 4.007014867631495e+000	 9.047244368524257e+000
 7.955344728847096e-001	 4.015278377141183e+000	 9.011953384164110e+000
 1.210503810708504e+000	 3.938152422469113e+000	 9.262678170142651e+000
 1.169521309028779e+000	 3.950516926782475e+000	 9.247970037816435e+000
 1.128520949723485e+000	 3.962424106989368e+000	 9.233463481295932e+000
 1.087509884304450e+000	 3.973875560441019e+000	 9.217443444497912e+000
 1.046495191579356e+000	 3.984873022832095e+000	 9.198594039549306e+000
 1.005483874617912e+000	 3.995418365356301e+000	 9.176015691762222e+000
 9.644828578315521e-001	 4.005513591793374e+000	 9.149489674638314e+000
 9.234989841679795e-001	 4.015160835532258e+000	 9.120261050379108e+000
 8.825390124215962e-001	 4.024362356535170e+000	 9.088908681512239e+000
 8.416096146607194e-001	 4.033120538247348e+000	 9.056044500852437e+000
 8.007173737722254e-001	 4.041437884457145e+000	 9.022451224383547e+000
 1.218339186184163e+000	 3.963643381391156e+000	 9.276504920467600e+000
 1.177091412073484e+000	 3.976087918937997e+000	 9.261369251971443e+000
 1.135825664748019e+000	 3.988072172200968e+000	 9.245482336512813e+000
 1.094549142010054e+000	 3.999597748870652e+000	 9.227207699820564e+000
 1.053268968487136e+000	 4.010666395876541e+000	 9.206114944404661e+000
 1.011992192578588e+000	 4.021279996524220e+000	 9.182607878931565e+000
 9.707257835163287e-001	 4.031440567563524e+000	 9.156653407746029e+000
 9.294766285412390e-001	 4.041150256192425e+000	 9.128445385211375e+000
 8.882515301961914e-001	 4.050411337001454e+000	 9.098371805275628e+000
 8.470572037366110e-001	 4.059226208863447e+000	 9.067001684824977e+000
 8.059002746592268e-001	 4.067597391773322e+000	 9.035064848371722e+000
 1.226174561659649e+000	 3.989134340313600e+000	 9.285413770335078e+000
 1.184661515117946e+000	 4.001658911093932e+000	 9.268793516517366e+000
 1.143130379772245e+000	 4.013720237412986e+000	 9.251336341581560e+000
 1.101588399715292e+000	 4.025319937300696e+000	 9.232553185693895e+000
 1.060042745394492e+000	 4.036459768921380e+000	 9.211895567025168e+000
 1.018500510538793e+000	 4.047141627692513e+000	 9.189078129262803e+000
 9.769687092005943e-001	 4.057367543334020e+000	 9.164050828448710e+000
 9.354542729139564e-001	 4.067139676852902e+000	 9.136982092009554e+000
 8.939640479702249e-001	 4.076460317468011e+000	 9.108226928159075e+000
 8.525047928119328e-001	 4.085331879479782e+000	 9.078312414157937e+000
 8.110831755456627e-001	 4.093756899089693e+000	 9.047917613508039e+000
 1.234009937135045e+000	 4.014625299236578e+000	 9.288975007045163e+000
 1.192231618162235e+000	 4.027229903250403e+000	 9.271992015649932e+000
 1.150435094796215e+000	 4.039368302625527e+000	 9.254733037142710e+000
 1.108627657420195e+000	 4.051042125731239e+000	 9.236360052083946e+000
 1.066816522301443e+000	 4.062253141966685e+000	 9.216319323520056e+000
 1.025008828498531e+000	 4.073003258861230e+000	 9.194313443231222e+000
 9.832116348843374e-001	 4.083294519104892e+000	 9.170273689824898e+000
 9.414319172861082e-001	 4.093129097513706e+000	 9.144341744443748e+000
 8.996765657436613e-001	 4.102509297934844e+000	 9.116839364757061e+000
 8.579523818866406e-001	 4.111437550096344e+000	 9.088252644136784e+000
 8.162660764314832e-001	 4.119916406406245e+000	 9.059212004157931e+000
 7.644370675516263e-001	 3.858321333250832e+000	 8.921859394805862e+000
 7.254451589814354e-001	 3.865842366926856e+000	 8.884063047432040e+000
 6.865010045823983e-001	 3.872947779998714e+000	 8.834313133673167e+000
 6.476106092149704e-001	 3.879640291078204e+000	 8.783491368677856e+000
 6.087798846073803e-001	 3.885922721176180e+000	 8.745971532284560e+000
 5.700146475776188e-001	 3.891797990537994e+000	 8.719630189028525e+000
 5.313206183671851e-001	 3.897269115457639e+000	 8.701003034879745e+000
 4.927034190860264e-001	 3.902339205074782e+000	 8.687670398789576e+000
 4.541685722679184e-001	 3.907011458158686e+000	 8.678180187767401e+000
 4.157214995353986e-001	 3.911289159882991e+000	 8.671951984932676e+000
 3.773675203732346e-001	 3.915175678595245e+000	 8.669167508381680e+000
 7.696199684411721e-001	 3.884480840565159e+000	 8.937188803482444e+000
 7.303636938346297e-001	 3.892052867022554e+000	 8.899832876805016e+000
 6.911554971736030e-001	 3.899206454958563e+000	 8.852338756466029e+000
 6.520014240316410e-001	 3.905944341417220e+000	 8.804050111653840e+000
 6.129074262186264e-001	 3.912269366535887e+000	 8.768309095254717e+000
 5.738793599907122e-001	 3.918184470359234e+000	 8.743494972043946e+000
 5.349229843727678e-001	 3.923692689631786e+000	 8.725794235314194e+000
 4.960439595927762e-001	 3.928797154573237e+000	 8.712517189448576e+000
 4.572478456274206e-001	 3.933501085640565e+000	 8.701992728397125e+000
 4.185401008579657e-001	 3.937807790280956e+000	 8.693444368857334e+000
 3.799260808354098e-001	 3.941720659679418e+000	 8.686853012480343e+000
 7.748028693305061e-001	 3.910640347879802e+000	 8.955729946820224e+000
 7.352822286876530e-001	 3.918263367118544e+000	 8.918424396470364e+000
 6.958099897646695e-001	 3.925465129918650e+000	 8.872683115313238e+000
 6.563922388481979e-001	 3.932248391756403e+000	 8.826655498844559e+000
 6.170349678297755e-001	 3.938616011895684e+000	 8.792427923568182e+000
 5.777440724037148e-001	 3.944570950180484e+000	 8.769111786858437e+000
 5.385253503782560e-001	 3.950116263805866e+000	 8.752773776785995e+000
 4.993845000994172e-001	 3.955255104071564e+000	 8.740688219284170e+000
 4.603271189867887e-001	 3.959990713122276e+000	 8.731201799903996e+000
 4.213587021803617e-001	 3.964326420678744e+000	 8.723579672691722e+000
 3.824846412973639e-001	 3.968265640763441e+000	 8.717838707364573e+000
 7.799857702195771e-001	 3.936799855194743e+000	 8.974843430559670e+000
 7.402007635404505e-001	 3.944473867214804e+000	 8.937214689556987e+000
 7.004644823555437e-001	 3.951723804878959e+000	 8.892776780109386e+000
 6.607830536645897e-001	 3.958552442095747e+000	 8.848767843518084e+000
 6.211625094407802e-001	 3.964962657255565e+000	 8.815886099801990e+000
 5.816087848165875e-001	 3.970957430001741e+000	 8.794149152391002e+000
 5.421277163836210e-001	 3.976539837979888e+000	 8.779743740645650e+000
 5.027250406059334e-001	 3.981713053569776e+000	 8.770152854457159e+000
 4.634063923460216e-001	 3.986480340603840e+000	 8.763988445553521e+000
 4.241773035026020e-001	 3.990845051076375e+000	 8.760805690274619e+000
 3.850432017591321e-001	 3.994810621847332e+000	 8.760904842499377e+000
 7.851686711083348e-001	 3.962959362509964e+000	 8.991917570623020e+000
 7.451192983929696e-001	 3.970684367311316e+000	 8.953605254669160e+000
 7.051189749461714e-001	 3.977982479839472e+000	 8.910070863195820e+000
 6.651738684807651e-001	 3.984856492435232e+000	 8.867869297370998e+000
 6.252900510515949e-001	 3.991309302615523e+000	 8.836262311926500e+000
 5.854734972292921e-001	 3.997343909823010e+000	 8.816292822938078e+000
 5.457300823888345e-001	 4.002963412153861e+000	 8.804571986875615e+000
 5.060655811123092e-001	 4.008171003067890e+000	 8.799138123279832e+000
 4.664856657051182e-001	 4.012969968085276e+000	 8.798618959617205e+000
 4.269959048247031e-001	 4.017363681473869e+000	 8.802408625601325e+000
 3.876017622207496e-001	 4.021355602931107e+000	 8.810528037472070e+000
 7.903515719967293e-001	 3.989118869825450e+000	 9.004367867454219e+000
 7.500378332451563e-001	 3.996894867408061e+000	 8.965021479769259e+000
 7.097734675364987e-001	 4.004241154800174e+000	 8.922211449673862e+000
 6.695646832966722e-001	 4.011160542774849e+000	 8.882610429692408e+000
 6.294175926621726e-001	 4.017655947975553e+000	 8.853881610449234e+000
 5.893382096417900e-001	 4.023730389644293e+000	 8.837593654811641e+000
 5.493324483938681e-001	 4.029386986327793e+000	 8.830205544315730e+000
 5.094061216185285e-001	 4.034628952565923e+000	 8.829373781084250e+000
 4.695649390640774e-001	 4.039459595566599e+000	 8.833748495357696e+000
 4.298145061466805e-001	 4.043882311871244e+000	 8.842767279532415e+000
 3.901603226822515e-001	 4.047900584014783e+000	 8.856464607990743e+000
 7.955344728847096e-001	 4.015278377141183e+000	 9.011953384164110e+000
 7.549563680969569e-001	 4.023105367505020e+000	 8.974234662056006e+000
 7.144279601264719e-001	 4.030499829761045e+000	 8.935289115772170e+000
 6.739554981122601e-001	 4.037464593114587e+000	 8.900199012094699e+000
 6.335451342724675e-001	 4.044002593335647e+000	 8.875189644263605e+000
 5.932029220540419e-001	 4.050116869465589e+000	 8.862170564236664e+000
 5.529348143986934e-001	 4.055810560501691e+000	 8.857860894318998e+000
 5.127466621245758e-001	 4.061086902063884e+000	 8.860052926902522e+000
 4.726442124228987e-001	 4.065949223047830e+000	 8.867494956883645e+000
 4.326331074685508e-001	 4.070400942268520e+000	 8.879688635709689e+000
 3.927188831436725e-001	 4.074445565098373e+000	 8.896702129783410e+000
 8.007173737722254e-001	 4.041437884457145e+000	 9.022451224383547e+000
 7.598749029483174e-001	 4.049315867602173e+000	 8.987263950801827e+000
 7.190824527160368e-001	 4.056758504722065e+000	 8.951856402638141e+000
 6.783463129274767e-001	 4.063768643454428e+000	 8.920626617290253e+000
 6.376726758824334e-001	 4.070349238695802e+000	 8.898672772158577e+000
 5.970676344660097e-001	 4.076503349286900e+000	 8.887936907976037e+000
 5.565371804032823e-001	 4.082234134675567e+000	 8.885449431600414e+000
 5.160872026304350e-001	 4.087544851561791e+000	 8.889158115774688e+000
 4.757234857815805e-001	 4.092438850528989e+000	 8.897927962793075e+000
 4.354517087903297e-001	 4.096919572665722e+000	 8.911342420793464e+000
 3.952774436050484e-001	 4.100990546181900e+000	 8.929520618154536e+000
 8.059002746592268e-001	 4.067597391773322e+000	 9.035064848371722e+000
 7.647934377991849e-001	 4.075526367699502e+000	 9.002192837424371e+000
 7.237369453051394e-001	 4.083017179683221e+000	 8.969867354823556e+000
 6.827371277422707e-001	 4.090072693794364e+000	 8.941832259739195e+000
 6.418002174920232e-001	 4.096695884056009e+000	 8.922236184625152e+000
 6.009323468776550e-001	 4.102889829108227e+000	 8.912823954192048e+000
 5.601395464076058e-001	 4.108657708849426e+000	 8.910949754335045e+000
 5.194277431360902e-001	 4.114002801059661e+000	 8.914733665865196e+000
 4.788027591401222e-001	 4.118928478010091e+000	 8.923173040812843e+000
 4.382703101120333e-001	 4.123438203062862e+000	 8.935947940242805e+000
 3.978360040664137e-001	 4.127535527265377e+000	 8.953242798659653e+000
 8.110831755456627e-001	 4.093756899089693e+000	 9.047917613508039e+000
 7.697119726495051e-001	 4.101736867796985e+000	 9.017089480556741e+000
 7.283914378937261e-001	 4.109275854644495e+000	 8.987353930257996e+000
 6.871279425565910e-001	 4.116376744134380e+000	 8.961830243648722e+000
 6.459277591011915e-001	 4.123042529416265e+000	 8.943860724717148e+000
 6.047970592889386e-001	 4.129276308929572e+000	 8.934833958047797e+000
 5.637419124116360e-001	 4.135081283023280e+000	 8.932406513754753e+000
 5.227682836415258e-001	 4.140460750557502e+000	 8.934884681270534e+000
 4.818820324985227e-001	 4.145418105491159e+000	 8.941410839631800e+000
 4.410889114336774e-001	 4.149956833459963e+000	 8.951773493472100e+000
 4.003945645278038e-001	 4.154080508348820e+000	 8.966233738374708e+000
 8.162660764314832e-001	 4.119916406406245e+000	 9.059212004157931e+000
 7.746305074992251e-001	 4.127947367894609e+000	 9.030100129845996e+000
 7.330459304817425e-001	 4.135534529605869e+000	 9.002424410410830e+000
 6.915187573703857e-001	 4.142680794474465e+000	 8.978708707885787e+000
 6.500553007098910e-001	 4.149389174776561e+000	 8.961601472234161e+000
 6.086617716998224e-001	 4.155662788750935e+000	 8.952038879715010e+000
 5.673442784153442e-001	 4.161504857197135e+000	 8.947929284247662e+000
 5.261088241467260e-001	 4.166918700055335e+000	 8.947776090978703e+000
 4.849613058567812e-001	 4.171907732972209e+000	 8.950876351990717e+000
 4.439075127552784e-001	 4.176475463857045e+000	 8.957135794844019e+000
 4.029531249892538e-001	 4.180625489432248e+000	 8.966900477072754e+000
 3.773675203732346e-001	 3.915175678595245e+000	 8.669167508381680e+000
 3.391061330280596e-001	 3.918674958673670e+000	 8.655170359953099e+000
 3.009482782972789e-001	 3.921789915098675e+000	 8.617963801636048e+000
 2.628990420740376e-001	 3.924524148878315e+000	 8.562556026574621e+000
 2.249634018290041e-001	 3.926881331380236e+000	 8.494304864421913e+000
 1.871462259189420e-001	 3.928865201095816e+000	 8.418801651716349e+000
 1.494522729974377e-001	 3.930479560421402e+000	 8.341766436087088e+000
 1.118861915258198e-001	 3.931728272459813e+000	 8.268957464409487e+000
 7.445251938222409e-002	 3.932615257845103e+000	 8.206097536932216e+000
 3.715568356668002e-002	 3.933144491593509e+000	 8.158819441189474e+000
 0.000000000000000e+000	 3.933319999983334e+000	 8.132632318564577e+000
 3.799260808354098e-001	 3.941720659679418e+000	 8.686853012480345e+000
 3.414052804044881e-001	 3.945243664957141e+000	 8.668405050661033e+000
 3.029887145414698e-001	 3.948379740858184e+000	 8.627214172678549e+000
 2.646815036219775e-001	 3.951132512805529e+000	 8.568398189732534e+000
 2.264886588640513e-001	 3.953505677058801e+000	 8.497312927768356e+000
 1.884150816320309e-001	 3.955502997456446e+000	 8.419412905331623e+000
 1.504655628432893e-001	 3.957128302175167e+000	 8.340124975231239e+000
 1.126447824758348e-001	 3.958385480509716e+000	 8.264738019332818e+000
 7.495730917472680e-002	 3.959278479676159e+000	 8.198311397886055e+000
 3.740759995516190e-002	 3.959811301641445e+000	 8.145604466955986e+000
 0.000000000000000e+000	 3.959987999982150e+000	 8.111029096276248e+000
 3.824846412973639e-001	 3.968265640763441e+000	 8.717838707364573e+000
 3.437044277806350e-001	 3.971812371240532e+000	 8.701250794836124e+000
 3.050291507853137e-001	 3.974969566617713e+000	 8.664182562781654e+000
 2.664639651695104e-001	 3.977740876732895e+000	 8.611944652267544e+000
 2.280139158986443e-001	 3.980130022737658e+000	 8.549967714470627e+000
 1.896839373446401e-001	 3.982140793817518e+000	 8.483638593250070e+000
 1.514788526886652e-001	 3.983777043929510e+000	 8.418151182721978e+000
 1.134033734254162e-001	 3.985042688560327e+000	 8.358375193485692e+000
 7.546209896688400e-002	 3.985941701508024e+000	 8.308745652679555e+000
 3.765951634344023e-002	 3.986478111690256e+000	 8.273175554819213e+000
 0.000000000000000e+000	 3.986655999981866e+000	 8.254993678150528e+000
 3.850432017591321e-001	 3.994810621847332e+000	 8.760904842499377e+000
 3.460035751565559e-001	 3.998381077523853e+000	 8.752887193411976e+000
 3.070695870288875e-001	 4.001559392377267e+000	 8.728457822302673e+000
 2.682464267167312e-001	 4.004349240660396e+000	 8.692739253157077e+000
 2.295391729328923e-001	 4.006754368416778e+000	 8.650989428172506e+000
 1.909527930568868e-001	 4.008778590178979e+000	 8.608419013350872e+000
 1.524921425336830e-001	 4.010425785684370e+000	 8.570013035022754e+000
 1.141619643746719e-001	 4.011699896611567e+000	 8.540403309706582e+000
 7.596688875878188e-002	 4.012604923340605e+000	 8.523748512925410e+000
 3.791143273156587e-002	 4.013144921739845e+000	 8.523621171477830e+000
 0.000000000000000e+000	 4.013323999982382e+000	 8.542900926710880e+000
 3.876017622207496e-001	 4.021355602931107e+000	 8.810528037472070e+000
 3.483027225323065e-001	 4.024949783807112e+000	 8.812278283291308e+000
 3.091100232722676e-001	 4.028149218136837e+000	 8.800114996521019e+000
 2.700288882637348e-001	 4.030957604588014e+000	 8.779275748711834e+000
 2.310644299669047e-001	 4.033378714096125e+000	 8.755036864973434e+000
 1.922216487688887e-001	 4.035416386540782e+000	 8.732571346713188e+000
 1.535054323784604e-001	 4.037074527439684e+000	 8.716815935143867e+000
 1.149205553237097e-001	 4.038357104663355e+000	 8.712346441778172e+000
 7.647167855050675e-002	 4.039268145173817e+000	 8.723260533739804e+000
 3.816334911958967e-002	 4.039811731790116e+000	 8.753067225792723e+000
 0.000000000000000e+000	 4.039991999983599e+000	 8.804582398259424e+000
 3.901603226822515e-001	 4.047900584014783e+000	 8.856464607990743e+000
 3.506018699079427e-001	 4.051518490090317e+000	 8.865180830376477e+000
 3.111504595155301e-001	 4.054739043896424e+000	 8.862345237118856e+000
 2.718113498106161e-001	 4.057565968515733e+000	 8.853079424689474e+000
 2.325896870007905e-001	 4.060003059775668e+000	 8.842528777883445e+000
 1.934905044807632e-001	 4.062054182902880e+000	 8.835723975752378e+000
 1.545187222231151e-001	 4.063723269195385e+000	 8.837451509677939e+000
 1.156791462726375e-001	 4.065014312715616e+000	 8.852132296738830e+000
 7.697646834214469e-002	 4.065931367007567e+000	 8.883707537861366e+000
 3.841526550756252e-002	 4.066478541840969e+000	 8.935531039039663e+000
 0.000000000000000e+000	 4.066659999985416e+000	 9.010267285632883e+000
 3.927188831436725e-001	 4.074445565098373e+000	 8.896702129783410e+000
 3.529010172835206e-001	 4.078087196373478e+000	 8.909906049445695e+000
 3.131908957587517e-001	 4.081328869656023e+000	 8.913608381828027e+000
 2.735938113574701e-001	 4.084174332443537e+000	 8.912705863770933e+000
 2.341149440346593e-001	 4.086627405455375e+000	 8.912105942818011e+000
 1.947593601926277e-001	 4.088691979265223e+000	 8.916592307617929e+000
 1.555320120677647e-001	 4.090372010951406e+000	 8.930699277931259e+000
 1.164377372215631e-001	 4.091671520768268e+000	 8.958594092858117e+000
 7.748125813378200e-002	 4.092594588841764e+000	 9.003966207179539e+000
 3.866718189553529e-002	 4.093145351892309e+000	 9.069922779442399e+000
 0.000000000000000e+000	 4.093327999987731e+000	 9.158889611828073e+000
 3.952774436050484e-001	 4.100990546181900e+000	 8.929520618154536e+000
 3.552001646590955e-001	 4.104655902656603e+000	 8.944843135341689e+000
 3.152313320020088e-001	 4.107918695415634e+000	 8.952392125599793e+000
 2.753762729043917e-001	 4.110782696371410e+000	 8.956730372194384e+000
 2.356402010686201e-001	 4.113251751135212e+000	 8.962420213168883e+000
 1.960282159045999e-001	 4.115329775627761e+000	 8.973893548933162e+000
 1.565453019125270e-001	 4.117020752707689e+000	 8.995330532316419e+000
 1.171963281705945e-001	 4.118328728821235e+000	 9.030545933654100e+000
 7.798604792550493e-002	 4.119257810676323e+000	 9.082882249920798e+000
 3.891909828355884e-002	 4.119812161944039e+000	 9.155108705820005e+000
 0.000000000000000e+000	 4.119995999990449e+000	 9.249325376072806e+000
 3.978360040664137e-001	 4.127535527265377e+000	 8.953242798659653e+000
 3.574993120347237e-001	 4.131224608939702e+000	 8.968416741936316e+000
 3.172717682453777e-001	 4.134508521175254e+000	 8.977212103127586e+000
 2.771587344514757e-001	 4.137391060299332e+000	 8.983748284539329e+000
 2.371654581027822e-001	 4.139876096815146e+000	 8.992135045586958e+000
 1.972970716167970e-001	 4.141967571990445e+000	 9.006347452031953e+000
 1.575585917575194e-001	 4.143669494464162e+000	 9.030109305218112e+000
 1.179549191198395e-001	 4.144985936874437e+000	 9.066783996290919e+000
 7.849083771739961e-002	 4.145921032511149e+000	 9.119271812217075e+000
 3.917101467168404e-002	 4.146478971996061e+000	 9.189912804706744e+000
 0.000000000000000e+000	 4.146663999993465e+000	 9.280394419637945e+000
 4.003945645278038e-001	 4.154080508348820e+000	 8.966233738374712e+000
 3.597984594104606e-001	 4.157793315222784e+000	 8.979086833884281e+000
 3.193122044889351e-001	 4.161098346934876e+000	 8.986611958408904e+000
 2.789411959988171e-001	 4.163999424227288e+000	 8.992375249066766e+000
 2.386907151372550e-001	 4.166500442495146e+000	 8.999925999722050e+000
 1.985659273293368e-001	 4.168605368353228e+000	 9.012677028371609e+000
 1.585718816028598e-001	 4.170318236220767e+000	 9.033793296012812e+000
 1.187135100694059e-001	 4.171643144927797e+000	 9.066087672807418e+000
 7.899562750955232e-002	 4.172584254346155e+000	 9.111922834820799e+000
 3.942293105996174e-002	 4.173145782048278e+000	 9.173118364518162e+000
 0.000000000000000e+000	 4.173331999996682e+000	 9.250862220112227e+000
 4.029531249892538e-001	 4.180625489432248e+000	 8.966900477072754e+000
 3.620976067863624e-001	 4.184362021505855e+000	 8.975348532134216e+000
 3.213526407327571e-001	 4.187688172694503e+000	 8.979163401922317e+000
 2.807236575465107e-001	 4.190607788155261e+000	 8.981247494481661e+000
 2.402159721721477e-001	 4.193124788175180e+000	 8.984481213076863e+000
 1.998347830423366e-001	 4.195243164716059e+000	 8.991609230580902e+000
 1.595851714486658e-001	 4.196966977977436e+000	 9.005134760015377e+000
 1.194721010194017e-001	 4.198300352981236e+000	 9.027220666275328e+000
 7.950041730204928e-002	 4.199247476181253e+000	 9.059596357406443e+000
 3.967484744844285e-002	 4.199812592100591e+000	 9.103469489558778e+000
 0.000000000000000e+000	 4.200000000000001e+000	 9.159441617320754e+000
 4.200000000000001e+000	 0.000000000000000e+000	 1.038612158713676e+001
 4.199812592100591e+000	 3.967484744844298e-002	 1.041796018929127e+001
 4.199247476181254e+000	 7.950041730204951e-002	 1.043609676873670e+001
 4.198300352981237e+000	 1.194721010194014e-001	 1.044380102169406e+001
 4.196966977977437e+000	 1.595851714486656e-001	 1.044426010345338e+001
 4.195243164716060e+000	 1.998347830423366e-001	 1.044055970576577e+001
 4.193124788175180e+000	 2.402159721721477e-001	 1.043566286946160e+001
 4.190607788155260e+000	 2.807236575465109e-001	 1.043238623246215e+001
 4.187688172694504e+000	 3.213526407327567e-001	 1.043337337617924e+001
 4.184362021505856e+000	 3.620976067863622e-001	 1.044106489610042e+001
 4.180625489432249e+000	 4.029531249892535e-001	 1.045766478444768e+001
 4.226668000003317e+000	 0.000000000000000e+000	 1.041119036871085e+001
 4.226479402152905e+000	 3.992676383716136e-002	 1.043476584283290e+001
 4.225910698016349e+000	 8.000520709494818e-002	 1.044703884639429e+001
 4.224957561034674e+000	 1.202306919698985e-001	 1.045081453591549e+001
 4.223615719734106e+000	 1.605984612950158e-001	 1.044882725615620e+001
 4.221880961078891e+000	 2.011036387558750e-001	 1.044372317687203e+001
 4.219749133855213e+000	 2.417412292075336e-001	 1.043804081766690e+001
 4.217216152083234e+000	 2.825061190946210e-001	 1.043418915724996e+001
 4.214277998454134e+000	 3.233930769768958e-001	 1.043442298432829e+001
 4.210930727788929e+000	 3.643967541624678e-001	 1.044081510795945e+001
 4.207170470515677e+000	 4.055116854507894e-001	 1.045522500495848e+001
 4.253336000006533e+000	 0.000000000000000e+000	 1.043271349456868e+001
 4.253146212205121e+000	 4.017868022608315e-002	 1.044962584571591e+001
 4.252573919851357e+000	 8.050999688819119e-002	 1.045731452797052e+001
 4.251614769088036e+000	 1.209892829208253e-001	 1.045815315138749e+001
 4.250264461490711e+000	 1.616117511418325e-001	 1.045445643095206e+001
 4.248518757441675e+000	 2.023724944698755e-001	 1.044846439300466e+001
 4.246373479535218e+000	 2.432664862433427e-001	 1.044232463232090e+001
 4.243824516011197e+000	 2.842885806430889e-001	 1.043807231256953e+001
 4.240867824213766e+000	 3.254335132213078e-001	 1.043760756179256e+001
 4.237499434072025e+000	 3.666959015387498e-001	 1.044266987285242e+001
 4.233715451599139e+000	 4.080702459124010e-001	 1.045480907616090e+001
 4.280004000009551e+000	 0.000000000000000e+000	 1.045008757314348e+001
 4.279813022257142e+000	 4.043059661515750e-002	 1.046184529533981e+001
 4.279237141686183e+000	 8.101478668169247e-002	 1.046616045714249e+001
 4.278271977141237e+000	 1.217478738720743e-001	 1.046500766305805e+001
 4.276913203247188e+000	 1.626250409889992e-001	 1.046031462761904e+001
 4.275156553804367e+000	 2.036413501842226e-001	 1.045394796154751e+001
 4.272997825215164e+000	 2.447917432794693e-001	 1.044769718130170e+001
 4.270432879939135e+000	 2.860710421918251e-001	 1.044325663142986e+001
 4.267457649973411e+000	 3.274739494659243e-001	 1.044220496597569e+001
 4.264068140355160e+000	 3.689950489151640e-001	 1.044598179111486e+001
 4.260260432682666e+000	 4.106288063740697e-001	 1.045586102607576e+001
 4.306672000012267e+000	 0.000000000000000e+000	 1.046284022267761e+001
 4.306479832308872e+000	 4.068251300433352e-002	 1.047084463037901e+001
 4.305900363520743e+000	 8.151957647536590e-002	 1.047291349733913e+001
 4.304929185194208e+000	 1.225064648235383e-001	 1.047065452186207e+001
 4.303561945003476e+000	 1.636383308363991e-001	 1.046564050433046e+001
 4.301794350166916e+000	 2.049102058988005e-001	 1.045939672291743e+001
 4.299622170895022e+000	 2.463170003158075e-001	 1.045338671606298e+001
 4.297041243867040e+000	 2.878535037407402e-001	 1.044899615814405e+001
 4.294047475733072e+000	 3.295143857106775e-001	 1.044751446938901e+001
 4.290636846638357e+000	 3.712941962916665e-001	 1.045011375457187e+001
 4.286805413766293e+000	 4.131873668357764e-001	 1.045782461731332e+001
 4.333340000014584e+000	 0.000000000000000e+000	 1.047062603995726e+001
 4.333146642360213e+000	 4.093442939356041e-002	 1.047615577660819e+001
 4.332563585354944e+000	 8.202436626912543e-002	 1.047700707629839e+001
 4.331586393246865e+000	 1.232650557751097e-001	 1.047445239916662e+001
 4.330210686759509e+000	 1.646516206839158e-001	 1.046974118261950e+001
 4.328432146529278e+000	 2.061790616134940e-001	 1.046408881610857e+001
 4.326246516574763e+000	 2.478422573522515e-001	 1.045866421720381e+001
 4.323649607794899e+000	 2.896359652897447e-001	 1.045457569271529e+001
 4.320637301492754e+000	 3.315548219554990e-001	 1.045285472094340e+001
 4.317205552921638e+000	 3.735933436682132e-001	 1.045443724208439e+001
 4.313350394850049e+000	 4.157459272975019e-001	 1.046014199343637e+001
 4.360008000016401e+000	 0.000000000000000e+000	 1.047322271699030e+001
 4.359813452411068e+000	 4.118634578278727e-002	 1.047741843442271e+001
 4.359226807188694e+000	 8.252915606288491e-002	 1.047796766577574e+001
 4.358243601299131e+000	 1.240236467266810e-001	 1.047583887954485e+001
 4.356859428515223e+000	 1.656649105314324e-001	 1.047198917358229e+001
 4.355069942891405e+000	 2.074479173281874e-001	 1.046735485813472e+001
 4.352870862254358e+000	 2.493675143886955e-001	 1.046284084636271e+001
 4.350257971722702e+000	 2.914184268387492e-001	 1.045930853375422e+001
 4.347227127252464e+000	 3.335952582003203e-001	 1.045756179777906e+001
 4.343774259205020e+000	 3.758924910447598e-001	 1.045833069745330e+001
 4.339895375933968e+000	 4.183044877592276e-001	 1.046225239933344e+001
 4.386676000017618e+000	 0.000000000000000e+000	 1.047052729933184e+001
 4.386480262461337e+000	 4.143826217196327e-002	 1.047437650202328e+001
 4.385890029021907e+000	 8.303394585655828e-002	 1.047541139065256e+001
 4.384900809350929e+000	 1.247822376781449e-001	 1.047432727641558e+001
 4.383508170270558e+000	 1.666782003788322e-001	 1.047181942015970e+001
 4.381707739253251e+000	 2.087167730427653e-001	 1.046857523252312e+001
 4.379495207933779e+000	 2.508927714250337e-001	 1.046526549991148e+001
 4.376866335650435e+000	 2.932008883876641e-001	 1.046253431573553e+001
 4.373816953012211e+000	 3.356356944450734e-001	 1.046098734377976e+001
 4.370342965488526e+000	 3.781916384212622e-001	 1.046117798617727e+001
 4.366440357018084e+000	 4.208630482209341e-001	 1.046359097245328e+001
 4.413344000018133e+000	 0.000000000000000e+000	 1.046255258006588e+001
 4.413147072510928e+000	 4.169017856103756e-002	 1.046687462852782e+001
 4.412553250854495e+000	 8.353873565005951e-002	 1.046904076197094e+001
 4.411558017402181e+000	 1.255408286293939e-001	 1.046950356535254e+001
 4.410156912025450e+000	 1.676914902259988e-001	 1.046872645058753e+001
 4.408345535614768e+000	 2.099856287571122e-001	 1.046717748224710e+001
 4.406119553612993e+000	 2.524180284611601e-001	 1.046532246014282e+001
 4.403474699578092e+000	 2.949833499364003e-001	 1.046361693660296e+001
 4.400406778771991e+000	 3.376761306896900e-001	 1.046249679110522e+001
 4.396911671772176e+000	 3.804907857976765e-001	 1.046236692772780e+001
 4.392985338102428e+000	 4.234216086826028e-001	 1.046358760190282e+001
 4.440012000017850e+000	 0.000000000000000e+000	 1.044942362373961e+001
 4.439813882559738e+000	 4.194209494995928e-002	 1.045485489154678e+001
 4.439216472686361e+000	 8.404352544330236e-002	 1.045864152868465e+001
 4.438215225452806e+000	 1.262994195803206e-001	 1.046102343011542e+001
 4.436805653779830e+000	 1.687047800728155e-001	 1.046226163834177e+001
 4.434983331975912e+000	 2.112544844711125e-001	 1.046263380270640e+001
 4.432743899291975e+000	 2.539432854969692e-001	 1.046242913985262e+001
 4.430083063505655e+000	 2.967658114848681e-001	 1.046194257192408e+001
 4.426996604531820e+000	 3.397165669341018e-001	 1.046146766125113e+001
 4.423480378055991e+000	 3.827899331739585e-001	 1.046128790016741e+001
 4.419530319187035e+000	 4.259801691442145e-001	 1.046166585255538e+001
 4.466680000016666e+000	 0.000000000000000e+000	 1.043137441481912e+001
 4.466480692607678e+000	 4.219401133867761e-002	 1.043835359402092e+001
 4.465879694517425e+000	 8.454831523620093e-002	 1.044407964316467e+001
 4.464872433502731e+000	 1.270580105308174e-001	 1.044860941669216e+001
 4.463454395533637e+000	 1.697180699191653e-001	 1.045203056412769e+001
 4.461621128336632e+000	 2.125233401846509e-001	 1.045445863057369e+001
 4.459368244970698e+000	 2.554685425323549e-001	 1.045603391641346e+001
 4.456691427433116e+000	 2.985482730329781e-001	 1.045691777197756e+001
 4.453586430291698e+000	 3.417570031782408e-001	 1.045728794231254e+001
 4.450049084339993e+000	 3.850890805500641e-001	 1.045733251408659e+001
 4.446075300271936e+000	 4.285387296057503e-001	 1.045724195145181e+001
 4.180625489432249e+000	 4.029531249892535e-001	 1.045766478444768e+001
 4.176475463857044e+000	 4.439075127552786e-001	 1.047640361184832e+001
 4.171907732972210e+000	 4.849613058567809e-001	 1.049013893482819e+001
 4.166918700055335e+000	 5.261088241467261e-001	 1.050014268815916e+001
 4.161504857197135e+000	 5.673442784153436e-001	 1.050742920834558e+001
 4.155662788750936e+000	 6.086617716998225e-001	 1.051269961888466e+001
 4.149389174776560e+000	 6.500553007098914e-001	 1.051627910903104e+001
 4.142680794474464e+000	 6.915187573703855e-001	 1.051833581282724e+001
 4.135534529605870e+000	 7.330459304817428e-001	 1.052048403116300e+001
 4.127947367894608e+000	 7.746305074992249e-001	 1.052432247328997e+001
 4.119916406406245e+000	 8.162660764314833e-001	 1.053124978671979e+001
 4.207170470515677e+000	 4.055116854507894e-001	 1.045522500495848e+001
 4.202994094254132e+000	 4.467261140768506e-001	 1.047179330217986e+001
 4.198397360453264e+000	 4.880405792149010e-001	 1.048442104053051e+001
 4.193376649553178e+000	 5.294493646516859e-001	 1.049427642541550e+001
 4.187928431371006e+000	 5.709466444187180e-001	 1.050229927941050e+001
 4.182049268572324e+000	 6.125264841102887e-001	 1.050914773836048e+001
 4.175735820136896e+000	 6.541828423181010e-001	 1.051513784873152e+001
 4.168984844814609e+000	 6.959095721836307e-001	 1.052028020426048e+001
 4.161793204567331e+000	 7.377004230691650e-001	 1.052533974304782e+001
 4.154157867992349e+000	 7.795490423483209e-001	 1.053161542691080e+001
 4.146075913722957e+000	 8.214489773166679e-001	 1.054030235635944e+001
 4.233715451599139e+000	 4.080702459124010e-001	 1.045480907616090e+001
 4.229512724651258e+000	 4.495447153984008e-001	 1.046905699752826e+001
 4.224886987934366e+000	 4.911198525729065e-001	 1.048032522065645e+001
 4.219834599051070e+000	 5.327899051564446e-001	 1.048969184309006e+001
 4.214352005544933e+000	 5.745490104218120e-001	 1.049803520369316e+001
 4.208435748393774e+000	 6.163911965204039e-001	 1.050598299942435e+001
 4.202082465497299e+000	 6.583103839258993e-001	 1.051385432162623e+001
 4.195288895154834e+000	 7.003003869964145e-001	 1.052138931708128e+001
 4.188051879528886e+000	 7.423549156560877e-001	 1.052865472722880e+001
 4.180368368090208e+000	 7.844675771968940e-001	 1.053673307825176e+001
 4.172235421039816e+000	 8.266318782013202e-001	 1.054663288750180e+001
 4.260260432682666e+000	 4.106288063740697e-001	 1.045586102607576e+001
 4.256031355048466e+000	 4.523633167199346e-001	 1.046773751325008e+001
 4.251376615415561e+000	 4.941991259308262e-001	 1.047749128075790e+001
 4.246292548549062e+000	 5.361304456610526e-001	 1.048612289654482e+001
 4.240775579718958e+000	 5.781513764246955e-001	 1.049446114096450e+001
 4.234822228215323e+000	 6.202559089302560e-001	 1.050311465907297e+001
 4.228429110857804e+000	 6.624379255333882e-001	 1.051241656172166e+001
 4.221592945495160e+000	 7.046912018088519e-001	 1.052171939184673e+001
 4.214310554490549e+000	 7.470094082426364e-001	 1.053058355969981e+001
 4.206578868188181e+000	 7.893861120450735e-001	 1.053991953419469e+001
 4.198394928356806e+000	 8.318147790855721e-001	 1.055056581586595e+001
 4.286805413766293e+000	 4.131873668357764e-001	 1.045782461731332e+001
 4.282549985445800e+000	 4.551819180414574e-001	 1.046736760260254e+001
 4.277866242896896e+000	 4.972783992886886e-001	 1.047554011035204e+001
 4.272750498047201e+000	 5.394709861655601e-001	 1.048327669253300e+001
 4.267199153893132e+000	 5.817537424274391e-001	 1.049136736720284e+001
 4.261208708037016e+000	 6.241206213399325e-001	 1.050041192624076e+001
 4.254775756218444e+000	 6.665654671406718e-001	 1.051076723271465e+001
 4.247896995835610e+000	 7.090820166210586e-001	 1.052128351143513e+001
 4.240569229452331e+000	 7.516639008289350e-001	 1.053123195184178e+001
 4.232789368286272e+000	 7.943046468929923e-001	 1.054136498892589e+001
 4.224554435673913e+000	 8.369976799695581e-001	 1.055236727035597e+001
 4.313350394850049e+000	 4.157459272975019e-001	 1.046014199343637e+001
 4.309068615843296e+000	 4.580005193629748e-001	 1.046746896344051e+001
 4.304355870378412e+000	 5.003576726465224e-001	 1.047407305266387e+001
 4.299208447545528e+000	 5.428115266700171e-001	 1.048083322405597e+001
 4.293622728067492e+000	 5.853561084301129e-001	 1.048851037596438e+001
 4.287595187858888e+000	 6.279853337495214e-001	 1.049770443038812e+001
 4.281122401579249e+000	 6.706930087478523e-001	 1.050878962717361e+001
 4.274201046176213e+000	 7.134728314331501e-001	 1.052005193417988e+001
 4.266827904414244e+000	 7.563183934151092e-001	 1.053065735827707e+001
 4.258999868384476e+000	 7.992231817407798e-001	 1.054120660206197e+001
 4.250713942991122e+000	 8.421805808534110e-001	 1.055224621660847e+001
 4.339895375933968e+000	 4.183044877592276e-001	 1.046225239933344e+001
 4.335587246240998e+000	 4.608191206844922e-001	 1.046755131065380e+001
 4.330845497860159e+000	 5.034369460043562e-001	 1.047267133215156e+001
 4.325666397044096e+000	 5.461520671744742e-001	 1.047844515536756e+001
 4.320046302242091e+000	 5.889584744327863e-001	 1.048561302259590e+001
 4.313981667680984e+000	 6.318500461591105e-001	 1.049478272596429e+001
 4.307469046940256e+000	 6.748205503550326e-001	 1.050631275669491e+001
 4.300505096516986e+000	 7.178636462452411e-001	 1.051795244999734e+001
 4.293086579376300e+000	 7.609728860012833e-001	 1.052886960180999e+001
 4.285210368482795e+000	 8.041417165885675e-001	 1.053952938832158e+001
 4.276873450308417e+000	 8.473634817372634e-001	 1.055035560692016e+001
 4.366440357018084e+000	 4.208630482209341e-001	 1.046359097245328e+001
 4.362105876638948e+000	 4.636377220060151e-001	 1.046711151154672e+001
 4.357335125342182e+000	 5.065162193622186e-001	 1.047089553735563e+001
 4.352124346542950e+000	 5.494926076789815e-001	 1.047573765499149e+001
 4.346469876416969e+000	 5.925608404355300e-001	 1.048236470946594e+001
 4.340368147503342e+000	 6.357147585687870e-001	 1.049139883121795e+001
 4.333815692301494e+000	 6.789480919623160e-001	 1.050313936628720e+001
 4.326809146857958e+000	 7.222544610574481e-001	 1.051487075853046e+001
 4.319345254338513e+000	 7.656273785875819e-001	 1.052583151472616e+001
 4.311420868581225e+000	 8.090602514364861e-001	 1.053636711825164e+001
 4.303032957625782e+000	 8.525463826212496e-001	 1.054679353628455e+001
 4.392985338102428e+000	 4.234216086826028e-001	 1.046358760190282e+001
 4.388624507037182e+000	 4.664563233275488e-001	 1.046563278149740e+001
 4.383824752824527e+000	 5.095954927201384e-001	 1.046828515673168e+001
 4.378582296042137e+000	 5.528331481835895e-001	 1.047230827472119e+001
 4.372893450592175e+000	 5.961632064384138e-001	 1.047842161047978e+001
 4.366754627326002e+000	 6.395794709786391e-001	 1.048726679990267e+001
 4.360162337663001e+000	 6.830756335698054e-001	 1.049903581385475e+001
 4.353113197199151e+000	 7.266452758698855e-001	 1.051065086837684e+001
 4.345603929300892e+000	 7.702818711741306e-001	 1.052145959575944e+001
 4.337631368679769e+000	 8.139787862846662e-001	 1.053170322954068e+001
 4.329192464943203e+000	 8.577292835055018e-001	 1.054160440427910e+001
 4.419530319187035e+000	 4.259801691442145e-001	 1.046166585255538e+001
 4.415143137435748e+000	 4.692749246490990e-001	 1.046258393736272e+001
 4.410314380307235e+000	 5.126747660781439e-001	 1.046435816523893e+001
 4.405040245541704e+000	 5.561736886883483e-001	 1.046772687266847e+001
 4.399317024767751e+000	 5.997655724415077e-001	 1.047340693322606e+001
 4.393141107149004e+000	 6.434441833887548e-001	 1.048206332449437e+001
 4.386508983024807e+000	 6.872031751776035e-001	 1.049373222106528e+001
 4.379417247540587e+000	 7.310360906826693e-001	 1.050509551651510e+001
 4.371862604263452e+000	 7.749363637610534e-001	 1.051562468206721e+001
 4.363841868778422e+000	 8.188973211332392e-001	 1.052547174847440e+001
 4.355351972260665e+000	 8.629121843901541e-001	 1.053478008255700e+001
 4.446075300271936e+000	 4.285387296057503e-001	 1.045724195145181e+001
 4.441661767834682e+000	 4.720935259706711e-001	 1.045741870621485e+001
 4.436804007790361e+000	 5.157540394362641e-001	 1.045861065956311e+001
 4.431498195041699e+000	 5.595142291933083e-001	 1.046153557852000e+001
 4.425740598943744e+000	 6.033679384448822e-001	 1.046691121718272e+001
 4.419527586972393e+000	 6.473088957992210e-001	 1.047542836960381e+001
 4.412855628386947e+000	 6.913307167858135e-001	 1.048692266215122e+001
 4.405721297882294e+000	 7.354269054959151e-001	 1.049796660708524e+001
 4.398121279226208e+000	 7.795908563484759e-001	 1.050815263558722e+001
 4.390052368877188e+000	 8.238158559823358e-001	 1.051755822110932e+001
 4.381511479578153e+000	 8.680950852753392e-001	 1.052626108770970e+001
 4.119916406406245e+000	 8.162660764314833e-001	 1.053124978671979e+001
 4.111437550096344e+000	 8.579523818866409e-001	 1.053986569874979e+001
 4.102509297934843e+000	 8.996765657436617e-001	 1.054857211237605e+001
 4.093129097513706e+000	 9.414319172861080e-001	 1.055826717397172e+001
 4.083294519104891e+000	 9.832116348843372e-001	 1.056969691505983e+001
 4.073003258861229e+000	 1.025008828498531e+000	 1.058342849269140e+001
 4.062253141966685e+000	 1.066816522301443e+000	 1.059982706355956e+001
 4.051042125731239e+000	 1.108627657420195e+000	 1.061901456404447e+001
 4.039368302625527e+000	 1.150435094796214e+000	 1.064084089166768e+001
 4.027229903250404e+000	 1.192231618162235e+000	 1.066484254042353e+001
 4.014625299236578e+000	 1.234009937135045e+000	 1.069019912184012e+001
 4.146075913722957e+000	 8.214489773166679e-001	 1.054030235635944e+001
 4.137543220713117e+000	 8.633999709607193e-001	 1.055021975175478e+001
 4.128558278401947e+000	 9.053890835164926e-001	 1.056006361148434e+001
 4.119118518174838e+000	 9.474095616576926e-001	 1.057066220118911e+001
 4.109221494876151e+000	 9.894545605675654e-001	 1.058270277230179e+001
 4.098864890030392e+000	 1.031517146457817e+000	 1.059670543682001e+001
 4.088046515012491e+000	 1.073590299208018e+000	 1.061299952116463e+001
 4.076764314162331e+000	 1.115666915124804e+000	 1.063168424300915e+001
 4.065016367838656e+000	 1.157739809819977e+000	 1.065259911425060e+001
 4.052800895407486e+000	 1.199801721206408e+000	 1.067528317720363e+001
 4.040116258160177e+000	 1.241845312610418e+000	 1.069893175315594e+001
 4.172235421039816e+000	 8.266318782013202e-001	 1.054663288750180e+001
 4.163648891330076e+000	 8.688475600342713e-001	 1.055734086194024e+001
 4.154607258869276e+000	 9.111016012888170e-001	 1.056779026519972e+001
 4.145107938836247e+000	 9.533872060288049e-001	 1.057874862351417e+001
 4.135148470647740e+000	 9.956974862503657e-001	 1.059085386008623e+001
 4.124726521199935e+000	 1.038025464416730e+000	 1.060458881699066e+001
 4.113839888058725e+000	 1.080364076114282e+000	 1.062025727534741e+001
 4.102486502593892e+000	 1.122706172829172e+000	 1.063794635571846e+001
 4.090664433052283e+000	 1.165044524843574e+000	 1.065749636017318e+001
 4.078371887565092e+000	 1.207371824250492e+000	 1.067846062127197e+001
 4.065607217084311e+000	 1.249680688085785e+000	 1.070006253674851e+001
 4.198394928356806e+000	 8.318147790855721e-001	 1.055056581586595e+001
 4.189754561947186e+000	 8.742951491074279e-001	 1.056163281992201e+001
 4.180656239336789e+000	 9.168141190607618e-001	 1.057224253780499e+001
 4.171097359497876e+000	 9.593648503995625e-001	 1.058311058454225e+001
 4.161075446419581e+000	 1.001940411932846e+000	 1.059483465988863e+001
 4.150588152369765e+000	 1.044533782375364e+000	 1.060786973629298e+001
 4.139633261105279e+000	 1.087137853020315e+000	 1.062250391627410e+001
 4.128208691025804e+000	 1.129745430533360e+000	 1.063882241432672e+001
 4.116312498266289e+000	 1.172349239867047e+000	 1.065667703782449e+001
 4.103942879723094e+000	 1.214941927294513e+000	 1.067564666911617e+001
 4.091098176008842e+000	 1.257516063561146e+000	 1.069499464804876e+001
 4.224554435673913e+000	 8.369976799695581e-001	 1.055236727035597e+001
 4.215860232564423e+000	 8.797427381803210e-001	 1.056343714842542e+001
 4.206705219804441e+000	 9.225266368324538e-001	 1.057384487374273e+001
 4.197086780159656e+000	 9.653424947700836e-001	 1.058426265207188e+001
 4.187002422191599e+000	 1.008183337615112e+000	 1.059525670323792e+001
 4.176449783539792e+000	 1.051042100333811e+000	 1.060726313987572e+001
 4.165426634152051e+000	 1.093911629926192e+000	 1.062056381918948e+001
 4.153930879457953e+000	 1.136784688237429e+000	 1.063525179250357e+001
 4.141960563480546e+000	 1.179653954890438e+000	 1.065120060909041e+001
 4.129513871881355e+000	 1.222512030338490e+000	 1.066802545961312e+001
 4.116589134933640e+000	 1.265351439036504e+000	 1.068504097135976e+001
 4.250713942991122e+000	 8.421805808534110e-001	 1.055224621660847e+001
 4.241965903181751e+000	 8.851903272530826e-001	 1.056303451261840e+001
 4.232754200272183e+000	 9.282391546040192e-001	 1.057295738230876e+001
 4.223076200821531e+000	 9.713201391404873e-001	 1.058265178442431e+001
 4.212929397963710e+000	 1.014426263297271e+000	 1.059266007113345e+001
 4.202311414709921e+000	 1.057550418292166e+000	 1.060341036502292e+001
 4.191220007198933e+000	 1.100685406831993e+000	 1.061518499587169e+001
 4.179653067890218e+000	 1.143823945941438e+000	 1.062809488411541e+001
 4.167608628694930e+000	 1.186958669913788e+000	 1.064204506071351e+001
 4.155084864039748e+000	 1.230082133382446e+000	 1.065669726310811e+001
 4.142080093858573e+000	 1.273186814511861e+000	 1.067142821127086e+001
 4.276873450308417e+000	 8.473634817372634e-001	 1.055035560692016e+001
 4.268071573799144e+000	 8.906379163258444e-001	 1.056064613179843e+001
 4.258803180739969e+000	 9.339516723755845e-001	 1.056987751857485e+001
 4.249065621483434e+000	 9.772977835108906e-001	 1.057865928777026e+001
 4.238856373735842e+000	 1.020669188979430e+000	 1.058751879348861e+001
 4.228173045880061e+000	 1.064058736250520e+000	 1.059688167151001e+001
 4.217013380245823e+000	 1.107459183737793e+000	 1.060704192086790e+001
 4.205375256322487e+000	 1.150863203645447e+000	 1.061813623110031e+001
 4.193256693909314e+000	 1.194263384937138e+000	 1.063011033917372e+001
 4.180655856198142e+000	 1.237652236426401e+000	 1.064268222825893e+001
 4.167571052783504e+000	 1.281022189987216e+000	 1.065530095599963e+001
 4.303032957625782e+000	 8.525463826212496e-001	 1.054679353628455e+001
 4.294177244416570e+000	 8.960855053987377e-001	 1.055643519237570e+001
 4.284852161207753e+000	 9.396641901472765e-001	 1.056484176070054e+001
 4.275055042145304e+000	 9.832754278814120e-001	 1.057260276484692e+001
 4.264783349507913e+000	 1.026912114661696e+000	 1.058023810984543e+001
 4.254034677050120e+000	 1.070567054208968e+000	 1.058817875307932e+001
 4.242806753292610e+000	 1.114232960643671e+000	 1.059673833358410e+001
 4.231097444754642e+000	 1.157902461349516e+000	 1.060608762184760e+001
 4.218904759123573e+000	 1.201568099960529e+000	 1.061622175064194e+001
 4.206226848356404e+000	 1.245222339470378e+000	 1.062692408844142e+001
 4.193062011708302e+000	 1.288857565462575e+000	 1.063772569470722e+001
 4.329192464943203e+000	 8.577292835055018e-001	 1.054160440427910e+001
 4.320282915033995e+000	 9.015330944718943e-001	 1.055050826209804e+001
 4.310901141675489e+000	 9.453767079192216e-001	 1.055802728378754e+001
 4.301044462807080e+000	 9.892530722521699e-001	 1.056473805542919e+001
 4.290710325279849e+000	 1.033155040344177e+000	 1.057116016384474e+001
 4.279896308220005e+000	 1.077075372167601e+000	 1.057773723083357e+001
 4.268600126339194e+000	 1.121006737549704e+000	 1.058481001725030e+001
 4.256819633186567e+000	 1.164941719053704e+000	 1.059259116132955e+001
 4.244552824337582e+000	 1.208872814984002e+000	 1.060113332748385e+001
 4.231797840514404e+000	 1.252792442514398e+000	 1.061029382942752e+001
 4.218552970632834e+000	 1.296692940937936e+000	 1.061969479073418e+001
 4.355351972260665e+000	 8.629121843901541e-001	 1.053478008255700e+001
 4.346388585651393e+000	 9.069806835454463e-001	 1.054291670546508e+001
 4.336950122143130e+000	 9.510892256915464e-001	 1.054955363042164e+001
 4.327033883468699e+000	 9.952307166232823e-001	 1.055526116890226e+001
 4.316637301051570e+000	 1.039397966026977e+000	 1.056056528608679e+001
 4.305757939389625e+000	 1.083583690126515e+000	 1.056592912930741e+001
 4.294393499385466e+000	 1.127780514455969e+000	 1.057172755573350e+001
 4.282541821618144e+000	 1.171980976758072e+000	 1.057822231417299e+001
 4.270200889551217e+000	 1.216177530007600e+000	 1.058553116272057e+001
 4.257368832672011e+000	 1.260362545558484e+000	 1.059359331996343e+001
 4.244043929556965e+000	 1.304528316413302e+000	 1.060213041260955e+001
 4.381511479578153e+000	 8.680950852753392e-001	 1.052626108770970e+001
 4.372494256268734e+000	 9.124282726195251e-001	 1.053365810028241e+001
 4.362999102610631e+000	 9.568017434643775e-001	 1.053948437804104e+001
 4.353023304130100e+000	 1.001208360994867e+000	 1.054431020926535e+001
 4.342564276822998e+000	 1.045640891710206e+000	 1.054867418330497e+001
 4.331619570558887e+000	 1.090092008085801e+000	 1.055306533594153e+001
 4.320186872431323e+000	 1.134554291362543e+000	 1.055789906912417e+001
 4.308264010049258e+000	 1.179020234462681e+000	 1.056349292180146e+001
 4.295848954764352e+000	 1.223482245031362e+000	 1.057003671378498e+001
 4.282939824829096e+000	 1.267932648602656e+000	 1.057755890679893e+001
 4.269534888480566e+000	 1.312363691888676e+000	 1.058588842459816e+001
 4.014625299236578e+000	 1.234009937135045e+000	 1.069019912184012e+001
 4.001553005065471e+000	 1.275762689811019e+000	 1.071283185008069e+001
 3.988011677797905e+000	 1.317482444190801e+000	 1.072814772250170e+001
 3.974000122742365e+000	 1.359161703337862e+000	 1.073579859663640e+001
 3.959517297036671e+000	 1.400792909513493e+000	 1.074266161159595e+001
 3.944562312133359e+000	 1.442368447821711e+000	 1.074939104504506e+001
 3.929134436186638e+000	 1.483880649957763e+000	 1.075570944719390e+001
 3.913233096336334e+000	 1.525321798057408e+000	 1.076116662197297e+001
 3.896857880884244e+000	 1.566684128643885e+000	 1.076513447823162e+001
 3.880008541358523e+000	 1.607959836669317e+000	 1.076680280318439e+001
 3.862684994461763e+000	 1.649141079647046e+000	 1.076517611397107e+001
 4.040116258160177e+000	 1.241845312610418e+000	 1.069893175315594e+001
 4.026960961145822e+000	 1.283863175383798e+000	 1.071950651135370e+001
 4.013333652898217e+000	 1.325847830337527e+000	 1.073259097086469e+001
 3.999233131140133e+000	 1.367791732933090e+000	 1.073959816848210e+001
 3.984658346387703e+000	 1.409687277443729e+000	 1.074620927226108e+001
 3.969608404451609e+000	 1.451526800622489e+000	 1.075253019060924e+001
 3.954082568839193e+000	 1.493302585474527e+000	 1.075836277288572e+001
 3.938080263052889e+000	 1.535006865130829e+000	 1.076335168586866e+001
 3.921601072780403e+000	 1.576631826820246e+000	 1.076697867286396e+001
 3.904644747972214e+000	 1.618169615936556e+000	 1.076855769952879e+001
 3.887211204802014e+000	 1.659612340197034e+000	 1.076723114924562e+001
 4.065607217084311e+000	 1.249680688085785e+000	 1.070006253674851e+001
 4.052368917226699e+000	 1.291963660956650e+000	 1.071843497060007e+001
 4.038655627999037e+000	 1.334213216484404e+000	 1.072939639662533e+001
 4.024466139538371e+000	 1.376421762528545e+000	 1.073562579009249e+001
 4.009799395739160e+000	 1.418581645374264e+000	 1.074108357139052e+001
 3.994654496770230e+000	 1.460685153423632e+000	 1.074633390686826e+001
 3.979030701492055e+000	 1.502724520991713e+000	 1.075138878603791e+001
 3.962927429769677e+000	 1.544691932204722e+000	 1.075593024472362e+001
 3.946344264676717e+000	 1.586579524997117e+000	 1.075952519117870e+001
 3.929280954585979e+000	 1.628379395204330e+000	 1.076158349731532e+001
 3.911737415142254e+000	 1.670083600747572e+000	 1.076135348290563e+001
 4.091098176008842e+000	 1.257516063561146e+000	 1.069499464804876e+001
 4.077776873307970e+000	 1.300064146529557e+000	 1.071112955646578e+001
 4.063977603100237e+000	 1.342578602631396e+000	 1.072034742098365e+001
 4.049699147936962e+000	 1.385051792124171e+000	 1.072594850234683e+001
 4.034940445090934e+000	 1.427476013305023e+000	 1.073035575552775e+001
 4.019700589089125e+000	 1.469843506225049e+000	 1.073418799012711e+001
 4.003978834145141e+000	 1.512146456509219e+000	 1.073796766728420e+001
 3.987774596486632e+000	 1.554376999278973e+000	 1.074193612336883e+001
 3.971087456573137e+000	 1.596527223174379e+000	 1.074562623380795e+001
 3.953917161199784e+000	 1.638589174472521e+000	 1.074850445101848e+001
 3.936263625482468e+000	 1.680554861298542e+000	 1.074989393474150e+001
 4.116589134933640e+000	 1.265351439036504e+000	 1.068504097135976e+001
 4.103184829389506e+000	 1.308164632102501e+000	 1.069901036718346e+001
 4.089299578201687e+000	 1.350943988778463e+000	 1.070691902409765e+001
 4.074932156335789e+000	 1.393681821719911e+000	 1.071197536764035e+001
 4.060081494442918e+000	 1.436370381235934e+000	 1.071566559514281e+001
 4.044746681408201e+000	 1.479001859026653e+000	 1.071862300728719e+001
 4.028926966798368e+000	 1.521568392026945e+000	 1.072139651451557e+001
 4.012621763203688e+000	 1.564062066353473e+000	 1.072443613395054e+001
 3.995830648469615e+000	 1.606474921351917e+000	 1.072805900079847e+001
 3.978553367813597e+000	 1.648798953741010e+000	 1.073187195560585e+001
 3.960789835822633e+000	 1.691026121849827e+000	 1.073513374710310e+001
 4.142080093858573e+000	 1.273186814511861e+000	 1.067142821127086e+001
 4.128592785471174e+000	 1.316265117675463e+000	 1.068340968890973e+001
 4.114621553303264e+000	 1.359309374925568e+000	 1.069038528395630e+001
 4.100165164734732e+000	 1.402311851315711e+000	 1.069505657555974e+001
 4.085222543795005e+000	 1.445264749166923e+000	 1.069839321459875e+001
 4.069792773727361e+000	 1.488160211828356e+000	 1.070102604019761e+001
 4.053875099451659e+000	 1.530990327544788e+000	 1.070351022271240e+001
 4.037468929920784e+000	 1.573747133428113e+000	 1.070631069953795e+001
 4.020573840366099e+000	 1.616422619529614e+000	 1.070978654844873e+001
 4.003189574427382e+000	 1.659008733009677e+000	 1.071417428600235e+001
 3.985316046162736e+000	 1.701497382401312e+000	 1.071928409169873e+001
 4.167571052783504e+000	 1.281022189987216e+000	 1.065530095599963e+001
 4.154000741552841e+000	 1.324365603248425e+000	 1.066557636079476e+001
 4.139943528404841e+000	 1.367674761072674e+000	 1.067196548720164e+001
 4.125398173133672e+000	 1.410941880911511e+000	 1.067648578452042e+001
 4.110363593147087e+000	 1.454159117097919e+000	 1.067986159545067e+001
 4.094838866046510e+000	 1.497318564630069e+000	 1.068270454617977e+001
 4.078823232104933e+000	 1.540412263062650e+000	 1.068555612124380e+001
 4.062316096637851e+000	 1.583432200502780e+000	 1.068887302460392e+001
 4.045317032262542e+000	 1.626370317707352e+000	 1.069301144344077e+001
 4.027825781041109e+000	 1.669218512278404e+000	 1.069821019967881e+001
 4.009842256502755e+000	 1.711968642952877e+000	 1.070457277919676e+001
 4.193062011708302e+000	 1.288857565462575e+000	 1.063772569470722e+001
 4.179408697634375e+000	 1.332466088821368e+000	 1.064668008905078e+001
 4.165265503506290e+000	 1.376040147219743e+000	 1.065282608202794e+001
 4.150631181532491e+000	 1.419571910507259e+000	 1.065750216575050e+001
 4.135504642499055e+000	 1.463053485028845e+000	 1.066133867770054e+001
 4.119884958365555e+000	 1.506476917431703e+000	 1.066491147143418e+001
 4.103771364758109e+000	 1.549834198580428e+000	 1.066872863294204e+001
 4.087163263354824e+000	 1.593117267577364e+000	 1.067321575423339e+001
 4.070060224158895e+000	 1.636318015885015e+000	 1.067870007986366e+001
 4.052461987654741e+000	 1.679428291547071e+000	 1.068539350892556e+001
 4.034368466842676e+000	 1.722439903504408e+000	 1.069337443999983e+001
 4.218552970632834e+000	 1.296692940937936e+000	 1.061969479073418e+001
 4.204816653715645e+000	 1.340566574394276e+000	 1.062783145224221e+001
 4.190587478607484e+000	 1.384405533366737e+000	 1.063408257871660e+001
 4.175864189931072e+000	 1.428201940102895e+000	 1.063929239263238e+001
 4.160645691850804e+000	 1.471947852959630e+000	 1.064403940536755e+001
 4.144931050684400e+000	 1.515635270233172e+000	 1.064884732038085e+001
 4.128719497411106e+000	 1.559256134098022e+000	 1.065417133490267e+001
 4.112010430071639e+000	 1.602802334651755e+000	 1.066038331412998e+001
 4.094803416055106e+000	 1.646265714062486e+000	 1.066775581359518e+001
 4.077098194268249e+000	 1.689638070815560e+000	 1.067644492975747e+001
 4.058894677182479e+000	 1.732911164055787e+000	 1.068647196386219e+001
 4.244043929556965e+000	 1.304528316413302e+000	 1.060213041260955e+001
 4.230224609796522e+000	 1.348667059967129e+000	 1.061004030984743e+001
 4.215909453708299e+000	 1.392770919513618e+000	 1.061680140000832e+001
 4.201097198329294e+000	 1.436831969698365e+000	 1.062299257770012e+001
 4.185786741202223e+000	 1.480842220890200e+000	 1.062912771871532e+001
 4.169977143002949e+000	 1.524793623034385e+000	 1.063566217183427e+001
 4.153667630063845e+000	 1.568678069615330e+000	 1.064297896746680e+001
 4.136857596788231e+000	 1.612487401725842e+000	 1.065137388143432e+001
 4.119546607951128e+000	 1.656213412239648e+000	 1.066103932712723e+001
 4.101734400881598e+000	 1.699847850083750e+000	 1.067204705363208e+001
 4.083420887522148e+000	 1.743382424606897e+000	 1.068432963242245e+001
 4.269534888480566e+000	 1.312363691888676e+000	 1.058588842459816e+001
 4.255632565876872e+000	 1.356767545539909e+000	 1.059421684773704e+001
 4.241231428808608e+000	 1.401136305660351e+000	 1.060200168340902e+001
 4.226330206727042e+000	 1.445461999293613e+000	 1.060969015947976e+001
 4.210927790553208e+000	 1.489736588820483e+000	 1.061771849536529e+001
 4.195023235321111e+000	 1.533951975835254e+000	 1.062645764423524e+001
 4.178615762716243e+000	 1.578100005132252e+000	 1.063619939355053e+001
 4.161704763504535e+000	 1.622172468799514e+000	 1.064714130829137e+001
 4.144289799846913e+000	 1.666161110416385e+000	 1.065937048770169e+001
 4.126370607494755e+000	 1.710057629351524e+000	 1.067284611069971e+001
 4.107947097861664e+000	 1.753853685157622e+000	 1.068738075009567e+001
 3.862684994461763e+000	 1.649141079647046e+000	 1.076517611397107e+001
 3.844890029459100e+000	 1.690213828755853e+000	 1.076848127154594e+001
 3.826621338296152e+000	 1.731176368834391e+000	 1.078347820879066e+001
 3.807879346431334e+000	 1.772020776467594e+000	 1.080660712738165e+001
 3.788664650926863e+000	 1.812739108261148e+000	 1.083401150902045e+001
 3.768978021749815e+000	 1.853323405364218e+000	 1.086154453397426e+001
 3.748820402933820e+000	 1.893765698057605e+000	 1.088477774789538e+001
 3.728192913598082e+000	 1.934058010402449e+000	 1.089901212406714e+001
 3.707096848820650e+000	 1.974192364944430e+000	 1.089929165986064e+001
 3.685533680363033e+000	 2.014160787468251e+000	 1.088250758083368e+001
 3.663505057243499e+000	 2.053955311797023e+000	 1.086844314776496e+001
 3.887211204802014e+000	 1.659612340197034e+000	 1.076723114924562e+001
 3.869303250245444e+000	 1.700945881704125e+000	 1.077063751094079e+001
 3.850918561593066e+000	 1.742168514406036e+000	 1.078489435634676e+001
 3.832057567004748e+000	 1.783272264577802e+000	 1.080650031135146e+001
 3.812720867333758e+000	 1.824249138388355e+000	 1.083164587122220e+001
 3.792909237436087e+000	 1.865091126451960e+000	 1.085621905650298e+001
 3.772623627339523e+000	 1.905790208445514e+000	 1.087581337715060e+001
 3.751865163269136e+000	 1.946338357786760e+000	 1.088573826162322e+001
 3.730635148526093e+000	 1.986727546368357e+000	 1.088103209917042e+001
 3.708935064216884e+000	 2.026949749342556e+000	 1.086370992860055e+001
 3.686766569830242e+000	 2.066996949951050e+000	 1.085309224525332e+001
 3.911737415142254e+000	 1.670083600747572e+000	 1.076135348290563e+001
 3.893716471031692e+000	 1.711677934652946e+000	 1.076572491746785e+001
 3.875215784889801e+000	 1.753160659978216e+000	 1.078003488664142e+001
 3.856235787577899e+000	 1.794523752688520e+000	 1.080083993030463e+001
 3.836777083740312e+000	 1.835759168516035e+000	 1.082437871452764e+001
 3.816840453121951e+000	 1.876858847540135e+000	 1.084657690031919e+001
 3.796426851744760e+000	 1.917814718833813e+000	 1.086305437834552e+001
 3.775537412939671e+000	 1.958618705171413e+000	 1.086913503619422e+001
 3.754173448230980e+000	 1.999262727792576e+000	 1.085985921620419e+001
 3.732336448070155e+000	 2.039738711217104e+000	 1.084501155432508e+001
 3.710028082416403e+000	 2.080038588105279e+000	 1.083750138557355e+001
 3.936263625482468e+000	 1.680554861298542e+000	 1.074989393474150e+001
 3.918129691817839e+000	 1.722409987602205e+000	 1.075581260514348e+001
 3.899513008186363e+000	 1.764152805550830e+000	 1.077071573863553e+001
 3.880414008150813e+000	 1.805775240799661e+000	 1.079121763588269e+001
 3.860833300146564e+000	 1.847269198644123e+000	 1.081360661802385e+001
 3.840771668807452e+000	 1.888626568628696e+000	 1.083384908150229e+001
 3.820230076149580e+000	 1.929839229222470e+000	 1.084759597440344e+001
 3.799209662609751e+000	 1.970899052556393e+000	 1.085019187104017e+001
 3.777711747935383e+000	 2.011797909217094e+000	 1.083789544828168e+001
 3.755737831922926e+000	 2.052527673091919e+000	 1.082685197294146e+001
 3.733289595002064e+000	 2.093080226259743e+000	 1.082209016418549e+001
 3.960789835822633e+000	 1.691026121849827e+000	 1.073513374710310e+001
 3.942542912603886e+000	 1.733142040551793e+000	 1.074290363171990e+001
 3.923810231482769e+000	 1.775144951123781e+000	 1.075868966269741e+001
 3.904592228723509e+000	 1.817026728911143e+000	 1.077916411583916e+001
 3.884889516552546e+000	 1.858779228772551e+000	 1.080066678976190e+001
 3.864702884492635e+000	 1.900394289717593e+000	 1.081920821774831e+001
 3.844033300554041e+000	 1.941863739611454e+000	 1.083047535447241e+001
 3.822881912279439e+000	 1.983179399941691e+000	 1.082983992482539e+001
 3.801250047639373e+000	 2.024333090641914e+000	 1.081725296476461e+001
 3.779139215775277e+000	 2.065316634967020e+000	 1.080962396861927e+001
 3.756551107587308e+000	 2.106121864414475e+000	 1.080723203264639e+001
 3.985316046162736e+000	 1.701497382401312e+000	 1.071928409169873e+001
 3.966956133389826e+000	 1.743874093501599e+000	 1.072893425175528e+001
 3.948107454779023e+000	 1.786137096696969e+000	 1.074564524127152e+001
 3.928770449296013e+000	 1.828278217022881e+000	 1.076614790379531e+001
 3.908945732958295e+000	 1.870289258901252e+000	 1.078683568723036e+001
 3.888634100177546e+000	 1.912162010806776e+000	 1.080376698131539e+001
 3.867836524958197e+000	 1.953888250000736e+000	 1.081266998119905e+001
 3.846554161948798e+000	 1.995459747327294e+000	 1.080895027515951e+001
 3.824788347343020e+000	 2.036868272067042e+000	 1.079833013271050e+001
 3.802540599627279e+000	 2.078105596842430e+000	 1.079367454819479e+001
 3.779812620172218e+000	 2.119163502569507e+000	 1.079325526473023e+001
 4.009842256502755e+000	 1.711968642952877e+000	 1.070457277919676e+001
 3.991369354175657e+000	 1.754606146451514e+000	 1.071577313691065e+001
 3.972404678075141e+000	 1.797129242270298e+000	 1.073320588300182e+001
 3.952948669868348e+000	 1.839529705134791e+000	 1.075357416791006e+001
 3.933001949363844e+000	 1.881799289030159e+000	 1.077332762143382e+001
 3.912565315862232e+000	 1.923929731896198e+000	 1.078857653949637e+001
 3.891639749362105e+000	 1.965912760390285e+000	 1.079509588868606e+001
 3.870226411617892e+000	 2.007740094713190e+000	 1.078875455369819e+001
 3.848326647046395e+000	 2.049403453492485e+000	 1.078147428900622e+001
 3.825941983479015e+000	 2.090894558718166e+000	 1.077930589018324e+001
 3.803074132756878e+000	 2.132205140724873e+000	 1.078044391824904e+001
 4.034368466842676e+000	 1.722439903504408e+000	 1.069337443999983e+001
 4.015782574961378e+000	 1.765338199401428e+000	 1.070542529563252e+001
 3.996701901371128e+000	 1.808121387843667e+000	 1.072292879143972e+001
 3.977126890440536e+000	 1.850781193246789e+000	 1.074278347936094e+001
 3.957058165769226e+000	 1.893309319159202e+000	 1.076129334527335e+001
 3.936496531546734e+000	 1.935697452985806e+000	 1.077462498314995e+001
 3.915442973765818e+000	 1.977937270780072e+000	 1.077860597153011e+001
 3.893898661286784e+000	 2.020020442099369e+000	 1.077139572541903e+001
 3.871864946749569e+000	 2.061938634918248e+000	 1.076698765095725e+001
 3.849343367330560e+000	 2.103683520594251e+000	 1.076677628956062e+001
 3.826335645341370e+000	 2.145246778880603e+000	 1.076903879275879e+001
 4.058894677182479e+000	 1.732911164055787e+000	 1.068647196386219e+001
 4.040195795746983e+000	 1.776070252351231e+000	 1.069968102183378e+001
 4.020999124666998e+000	 1.819113533416977e+000	 1.071663375092390e+001
 4.001305111012599e+000	 1.862032681358789e+000	 1.073505236170288e+001
 3.981114382174480e+000	 1.904819349288316e+000	 1.075181862689343e+001
 3.960427747231099e+000	 1.947465174075554e+000	 1.076283574379456e+001
 3.939246198169390e+000	 1.989961781170066e+000	 1.076398826531730e+001
 3.917570910955537e+000	 2.032300789485816e+000	 1.075735451732289e+001
 3.895403246452611e+000	 2.074473816344336e+000	 1.075512826143699e+001
 3.872744751181992e+000	 2.116472482470704e+000	 1.075630109849358e+001
 3.849597157925777e+000	 2.158288417036733e+000	 1.075923838332413e+001
 4.083420887522148e+000	 1.743382424606897e+000	 1.068432963242245e+001
 4.064609016532470e+000	 1.786802305300813e+000	 1.069886966168794e+001
 4.045296347962761e+000	 1.830105678990131e+000	 1.071549237082666e+001
 4.025483331584564e+000	 1.873284169470709e+000	 1.073202542202789e+001
 4.005170598579635e+000	 1.916329379417432e+000	 1.074594897545032e+001
 3.984358962915372e+000	 1.959232895165391e+000	 1.075406599974693e+001
 3.963049422572877e+000	 2.001986291560236e+000	 1.075198619077321e+001
 3.941243160624216e+000	 2.044581136872523e+000	 1.074691273375523e+001
 3.918941546155594e+000	 2.087008997770753e+000	 1.074611092938684e+001
 3.896146135033390e+000	 2.129261444347548e+000	 1.074805366318797e+001
 3.872858670510183e+000	 2.171330055193294e+000	 1.075119983050775e+001
 4.107947097861664e+000	 1.753853685157622e+000	 1.068738075009567e+001
 4.089022237317836e+000	 1.797534358250065e+000	 1.070320329368347e+001
 4.069593571258428e+000	 1.841097824563030e+000	 1.071953027878777e+001
 4.049661552156451e+000	 1.884535657582464e+000	 1.073429268046721e+001
 4.029226814984733e+000	 1.927839409546484e+000	 1.074509026183909e+001
 4.008290178599602e+000	 1.971000616255271e+000	 1.074916760995329e+001
 3.986852646976334e+000	 2.014010801950552e+000	 1.074421023190656e+001
 3.964915410292882e+000	 2.056861484259474e+000	 1.074030809631980e+001
 3.942479845858591e+000	 2.099544179197508e+000	 1.074010816586208e+001
 3.919547518884828e+000	 2.142050406224803e+000	 1.074216625701821e+001
 3.896120183094670e+000	 2.184371693350319e+000	 1.074503986674177e+001
 3.663505057243499e+000	 2.053955311797023e+000	 1.086844314776496e+001
 3.641009397794123e+000	 2.093573913466255e+000	 1.086078195319897e+001
 3.618051979783225e+000	 2.133002672260832e+000	 1.085737327912747e+001
 3.594634989852544e+000	 2.172233674105955e+000	 1.085728951329215e+001
 3.570760792710999e+000	 2.211259032598792e+000	 1.085963769100767e+001
 3.546431930914687e+000	 2.250070893948702e+000	 1.086356120427601e+001
 3.521651124484179e+000	 2.288661441927230e+000	 1.086824078641102e+001
 3.496421270358106e+000	 2.327022902821665e+000	 1.087289474072047e+001
 3.470745441682316e+000	 2.365147550385902e+000	 1.087677838912809e+001
 3.444626886934158e+000	 2.403027710782309e+000	 1.087918272439609e+001
 3.418069028881693e+000	 2.440655767508218e+000	 1.087943225776212e+001
 3.686766569830242e+000	 2.066996949951050e+000	 1.085309224525332e+001
 3.664128073655406e+000	 2.106867110874977e+000	 1.084841849228885e+001
 3.641024886972017e+000	 2.146546223512473e+000	 1.084797892298484e+001
 3.617459210305964e+000	 2.186026323538118e+000	 1.085072794891327e+001
 3.593433423380952e+000	 2.225299474474158e+000	 1.085565492862648e+001
 3.568950084897113e+000	 2.264357772662105e+000	 1.086178622236163e+001
 3.544011932145869e+000	 2.303193352244160e+000	 1.086818649079615e+001
 3.518621880460040e+000	 2.341798390148221e+000	 1.087395920400535e+001
 3.492783022498507e+000	 2.380165111070182e+000	 1.087824633442014e+001
 3.466498627364912e+000	 2.418285792447179e+000	 1.088022721569851e+001
 3.439772139560280e+000	 2.456152769415361e+000	 1.087911655793219e+001
 3.710028082416403e+000	 2.080038588105279e+000	 1.083750138557355e+001
 3.687246749516120e+000	 2.120160308283865e+000	 1.083545368222741e+001
 3.663997794160270e+000	 2.160089774764248e+000	 1.083762415454993e+001
 3.640283430758890e+000	 2.199818972970387e+000	 1.084286617523100e+001
 3.616106054050469e+000	 2.239339916349607e+000	 1.085006831452226e+001
 3.591468238879172e+000	 2.278644651375573e+000	 1.085815671850053e+001
 3.566372739807267e+000	 2.317725262561141e+000	 1.086609669836803e+001
 3.540822490561769e+000	 2.356573877474814e+000	 1.087289349451733e+001
 3.514820603314580e+000	 2.395182671754490e+000	 1.087759218706047e+001
 3.488370367795640e+000	 2.433543874112070e+000	 1.087927673298612e+001
 3.461475250238931e+000	 2.471649771322522e+000	 1.087706811898675e+001
 3.733289595002064e+000	 2.093080226259743e+000	 1.082209016418549e+001
 3.710365425376351e+000	 2.133453505692957e+000	 1.082230149117559e+001
 3.686970701348076e+000	 2.173633326016202e+000	 1.082671679980261e+001
 3.663107651211413e+000	 2.213611622402809e+000	 1.083410489373193e+001
 3.638778684719642e+000	 2.253380358225186e+000	 1.084326998186006e+001
 3.613986392860958e+000	 2.292931530089150e+000	 1.085305435896434e+001
 3.588733547468467e+000	 2.332257172878211e+000	 1.086234026277441e+001
 3.563023100663378e+000	 2.371349364801481e+000	 1.087005086873764e+001
 3.536858184130617e+000	 2.410200232438856e+000	 1.087515039206254e+001
 3.510242108226416e+000	 2.448801955777007e+000	 1.087664327544863e+001
 3.483178360917712e+000	 2.487146773229715e+000	 1.087357245017521e+001
 3.756551107587308e+000	 2.106121864414475e+000	 1.080723203264639e+001
 3.733484101236188e+000	 2.146746703102298e+000	 1.080933002052436e+001
 3.709943608535523e+000	 2.187176877268379e+000	 1.081561914615400e+001
 3.685931871663629e+000	 2.227404271835431e+000	 1.082479965252672e+001
 3.661451315388570e+000	 2.267420800100942e+000	 1.083560735870912e+001
 3.636504546842562e+000	 2.307218408802882e+000	 1.084681662256789e+001
 3.611094355129560e+000	 2.346789083195411e+000	 1.085724244365163e+001
 3.585223710764961e+000	 2.386124852128256e+000	 1.086574166501274e+001
 3.558895764946704e+000	 2.425217793123311e+000	 1.087121324141426e+001
 3.532113848657316e+000	 2.464060037442009e+000	 1.087259755056751e+001
 3.504881471596689e+000	 2.502643775136960e+000	 1.086887473370982e+001
 3.779812620172218e+000	 2.119163502569507e+000	 1.079325526473023e+001
 3.756602777095718e+000	 2.160039900511925e+000	 1.079686249217396e+001
 3.732916515722703e+000	 2.200720428520828e+000	 1.080464894811179e+001
 3.708756092115631e+000	 2.241196921268303e+000	 1.081526186731573e+001
 3.684123946057342e+000	 2.281461241976923e+000	 1.082738420091475e+001
 3.659022700824080e+000	 2.321505287516809e+000	 1.083973784174784e+001
 3.633455162790639e+000	 2.361320993512781e+000	 1.085108595191143e+001
 3.607424320866600e+000	 2.400900339455173e+000	 1.086023434875578e+001
 3.580933345762922e+000	 2.440235353807876e+000	 1.086603191461033e+001
 3.553985589088418e+000	 2.479318119107103e+000	 1.086737000511073e+001
 3.526584582275933e+000	 2.518140777044271e+000	 1.086318084107688e+001
 3.803074132756878e+000	 2.132205140724873e+000	 1.078044391824904e+001
 3.779721452955027e+000	 2.173333097921881e+000	 1.078517823128985e+001
 3.755889422909708e+000	 2.214263979773591e+000	 1.079408042826294e+001
 3.731580312567512e+000	 2.254989570701472e+000	 1.080575983758820e+001
 3.706796576726056e+000	 2.295501683853173e+000	 1.081886162020495e+001
 3.681540854805605e+000	 2.335792166230978e+000	 1.083207023897406e+001
 3.655815970451795e+000	 2.375852903830360e+000	 1.084411199056375e+001
 3.629624930968386e+000	 2.415675826782265e+000	 1.085375655350196e+001
 3.602970926579353e+000	 2.455252914492587e+000	 1.085981751548175e+001
 3.575857329519796e+000	 2.494576200772307e+000	 1.086115185300394e+001
 3.548287692955508e+000	 2.533637778951668e+000	 1.085665834694774e+001
 3.826335645341370e+000	 2.145246778880603e+000	 1.076903879275879e+001
 3.802840128814207e+000	 2.186626295332207e+000	 1.077451364472798e+001
 3.778862330096631e+000	 2.227807531026718e+000	 1.078414527377298e+001
 3.754404533019363e+000	 2.268782220134982e+000	 1.079651975825773e+001
 3.729469207394803e+000	 2.309542125729742e+000	 1.081025910773540e+001
 3.704059008787232e+000	 2.350079044945431e+000	 1.082402495869221e+001
 3.678176778113120e+000	 2.390384814148187e+000	 1.083652129126459e+001
 3.651825541070408e+000	 2.430451314109565e+000	 1.084649611799420e+001
 3.625008507396081e+000	 2.470270475177468e+000	 1.085274210548073e+001
 3.597729069951527e+000	 2.509834282437646e+000	 1.085409610021062e+001
 3.569990803635482e+000	 2.549134780859165e+000	 1.084943754079130e+001
 3.849597157925777e+000	 2.158288417036733e+000	 1.075923838332413e+001
 3.825958804673342e+000	 2.199919492742945e+000	 1.076506319531271e+001
 3.801835237283558e+000	 2.241351082280251e+000	 1.077503362859182e+001
 3.777228753471282e+000	 2.282574869568885e+000	 1.078772672692713e+001
 3.752141838063679e+000	 2.323582567606674e+000	 1.080175555326520e+001
 3.726577162769054e+000	 2.364365923660214e+000	 1.081577309498652e+001
 3.700537585774705e+000	 2.404916724466300e+000	 1.082847514677061e+001
 3.674026151172752e+000	 2.445226801437110e+000	 1.083860211946713e+001
 3.647046088213190e+000	 2.485288035862547e+000	 1.084493973357041e+001
 3.619600810383686e+000	 2.525092364103141e+000	 1.084631856674787e+001
 3.591693914315921e+000	 2.564631782766781e+000	 1.084161243628537e+001
 3.872858670510183e+000	 2.171330055193294e+000	 1.075119983050775e+001
 3.849077480532519e+000	 2.213212690154133e+000	 1.075698037214139e+001
 3.824808144470582e+000	 2.254894633534237e+000	 1.076689508154584e+001
 3.800052973923359e+000	 2.296367519003227e+000	 1.077952574696641e+001
 3.774814468732779e+000	 2.337623009484017e+000	 1.079349026014745e+001
 3.749095316751165e+000	 2.378652802375369e+000	 1.080744671514281e+001
 3.722898393436643e+000	 2.419448634784743e+000	 1.082009643947183e+001
 3.696226761275508e+000	 2.460002288764933e+000	 1.083018590328908e+001
 3.669083669030763e+000	 2.500305596547855e+000	 1.083650746286260e+001
 3.641472550816348e+000	 2.540350445768814e+000	 1.083789890595837e+001
 3.613397024996892e+000	 2.580128784674530e+000	 1.083324177861953e+001
 3.896120183094670e+000	 2.184371693350319e+000	 1.074503986674177e+001
 3.872196156391829e+000	 2.226505887565815e+000	 1.075037865708199e+001
 3.847781051657800e+000	 2.268438184788724e+000	 1.075983965048932e+001
 3.822877194375688e+000	 2.310160168438054e+000	 1.077202272657900e+001
 3.797487099402197e+000	 2.351663451361818e+000	 1.078556395630934e+001
 3.771613470733660e+000	 2.392939681090943e+000	 1.079913987928306e+001
 3.745259201099025e+000	 2.433980545103553e+000	 1.081147066616689e+001
 3.718427371378763e+000	 2.474777776093069e+000	 1.082132210911452e+001
 3.691121249848879e+000	 2.515323157233418e+000	 1.082750639413905e+001
 3.663344291249592e+000	 2.555608527434690e+000	 1.082888162115286e+001
 3.635100135678463e+000	 2.595625786582434e+000	 1.082435004977737e+001
 3.418069028881693e+000	 2.440655767508218e+000	 1.087943225776212e+001
 3.391075462413564e+000	 2.478024165474663e+000	 1.087801235967819e+001
 3.363649950302459e+000	 2.515125413354499e+000	 1.087645337719571e+001
 3.335796424614757e+000	 2.551952090816394e+000	 1.087569478689381e+001
 3.307518985991763e+000	 2.588496854144156e+000	 1.087311060242969e+001
 3.278821901798352e+000	 2.624752440995851e+000	 1.086411056972121e+001
 3.249709604111268e+000	 2.660711675109584e+000	 1.084883718078012e+001
 3.220186687548849e+000	 2.696367470949601e+000	 1.083029099802279e+001
 3.190257906944267e+000	 2.731712838286569e+000	 1.081442160169015e+001
 3.159928174864604e+000	 2.766740886705849e+000	 1.080285041550580e+001
 3.129202558978380e+000	 2.801444830037749e+000	 1.079718306572307e+001
 3.439772139560280e+000	 2.456152769415361e+000	 1.087911655793219e+001
 3.412607176799093e+000	 2.493758438914534e+000	 1.087536035686616e+001
 3.385007525745849e+000	 2.531095262051197e+000	 1.087052007369436e+001
 3.356977143433667e+000	 2.568155771378457e+000	 1.086553204981648e+001
 3.328520156540966e+000	 2.604932576551026e+000	 1.086123343408856e+001
 3.299640859528343e+000	 2.641418369114569e+000	 1.085271717491889e+001
 3.270343712614111e+000	 2.677605927241352e+000	 1.083748960619204e+001
 3.240633339590238e+000	 2.713488120405851e+000	 1.082132929028455e+001
 3.210514525480813e+000	 2.749057913994119e+000	 1.080735623347553e+001
 3.179992214045370e+000	 2.784308373840670e+000	 1.079709904052522e+001
 3.149071505129704e+000	 2.819232670686875e+000	 1.079217691513218e+001
 3.461475250238931e+000	 2.471649771322522e+000	 1.087706811898675e+001
 3.434138891184774e+000	 2.509492712354418e+000	 1.087136427213093e+001
 3.406365101189477e+000	 2.547065110747905e+000	 1.086372153092493e+001
 3.378157862252897e+000	 2.584359451940527e+000	 1.085504782600843e+001
 3.349521327090561e+000	 2.621368298957909e+000	 1.084627515465810e+001
 3.320459817258791e+000	 2.658084297233306e+000	 1.083743859313388e+001
 3.290977821117469e+000	 2.694500179373152e+000	 1.082429344381178e+001
 3.261079991632188e+000	 2.730608769862155e+000	 1.081108028470126e+001
 3.230771144017953e+000	 2.766402989701747e+000	 1.079939240258157e+001
 3.200056253226749e+000	 2.801875860975600e+000	 1.079074749910902e+001
 3.168940451281643e+000	 2.837020511336151e+000	 1.078675650314174e+001
 3.483178360917712e+000	 2.487146773229715e+000	 1.087357245017521e+001
 3.455670605570664e+000	 2.525226985794328e+000	 1.086628245437763e+001
 3.427722676633387e+000	 2.563034959444631e+000	 1.085629216739281e+001
 3.399338581072477e+000	 2.600563132502615e+000	 1.084445622634282e+001
 3.370522497640568e+000	 2.637804021364807e+000	 1.083165285638272e+001
 3.341278774989704e+000	 2.674750225352066e+000	 1.081893506746497e+001
 3.311611929621332e+000	 2.711394431504984e+000	 1.080933597595604e+001
 3.281526643674674e+000	 2.747729419318505e+000	 1.079952338629942e+001
 3.251027762555652e+000	 2.783748065409441e+000	 1.079051062849210e+001
 3.220120292408699e+000	 2.819443348110628e+000	 1.078378257444560e+001
 3.188809397434150e+000	 2.854808351985561e+000	 1.078092050353228e+001
 3.504881471596689e+000	 2.502643775136960e+000	 1.086887473370982e+001
 3.477202319956819e+000	 2.540961259234274e+000	 1.086033390736664e+001
 3.449080252077624e+000	 2.579004808141385e+000	 1.084842795683544e+001
 3.420519299892435e+000	 2.616766813064722e+000	 1.083393372436993e+001
 3.391523668190996e+000	 2.654239743771722e+000	 1.081765138267087e+001
 3.362097732721078e+000	 2.691416153470843e+000	 1.080185007353446e+001
 3.332246038125687e+000	 2.728288683636842e+000	 1.079259029285308e+001
 3.301973295717675e+000	 2.764850068774896e+000	 1.078662817634994e+001
 3.271284381093876e+000	 2.801093141117198e+000	 1.078068151446572e+001
 3.240184331591173e+000	 2.837010835245739e+000	 1.077618089026939e+001
 3.208678343587173e+000	 2.872596192635086e+000	 1.077465702936957e+001
 3.526584582275933e+000	 2.518140777044271e+000	 1.086318084107688e+001
 3.498734034343295e+000	 2.556695532674269e+000	 1.085369928879852e+001
 3.470437827522229e+000	 2.594974656838175e+000	 1.084028741054100e+001
 3.441700018712804e+000	 2.632970493626855e+000	 1.082362012265673e+001
 3.412524838741869e+000	 2.670675466178660e+000	 1.080442944628159e+001
 3.382916690452920e+000	 2.708082081589644e+000	 1.078724290998411e+001
 3.352880146630525e+000	 2.745182935768729e+000	 1.077615697710713e+001
 3.322419947761166e+000	 2.781970718231322e+000	 1.077235468314617e+001
 3.291540999632590e+000	 2.818438216825004e+000	 1.076986600125317e+001
 3.260248370774131e+000	 2.854578322380924e+000	 1.076790915093515e+001
 3.228547289740663e+000	 2.890384033284712e+000	 1.076794386321726e+001
 3.548287692955508e+000	 2.533637778951668e+000	 1.085665834694774e+001
 3.520265748730149e+000	 2.572429806114325e+000	 1.084652190777056e+001
 3.491795402967247e+000	 2.610944505535007e+000	 1.083199255874874e+001
 3.462880737533611e+000	 2.649174174189020e+000	 1.081361951884459e+001
 3.433526009293199e+000	 2.687111188585622e+000	 1.079282731735393e+001
 3.403735648185229e+000	 2.724748009708466e+000	 1.077503584004748e+001
 3.373514255135836e+000	 2.762077187900637e+000	 1.076256264413059e+001
 3.342866599805126e+000	 2.799091367687780e+000	 1.075716425098269e+001
 3.311797618171760e+000	 2.835783292532855e+000	 1.075801562218090e+001
 3.280312409957527e+000	 2.872145809516171e+000	 1.075892438279881e+001
 3.248416235894569e+000	 2.908171873934421e+000	 1.076074868843848e+001
 3.569990803635482e+000	 2.549134780859165e+000	 1.084943754079130e+001
 3.541797463117435e+000	 2.588164079554456e+000	 1.083890872067420e+001
 3.513152978412721e+000	 2.626914354231893e+000	 1.082362993117016e+001
 3.484061456354890e+000	 2.665377854751221e+000	 1.080400127143668e+001
 3.454527179845004e+000	 2.703546910992610e+000	 1.078309503724839e+001
 3.424554605918008e+000	 2.741413937827308e+000	 1.076511844107468e+001
 3.394148363641605e+000	 2.778971440032568e+000	 1.075169317022515e+001
 3.363313251849526e+000	 2.816212017144263e+000	 1.074446400600615e+001
 3.332054236711354e+000	 2.853128368240739e+000	 1.074507275954332e+001
 3.300376449141319e+000	 2.889713296651466e+000	 1.074917417684900e+001
 3.268285182048842e+000	 2.925959714584197e+000	 1.075302932154000e+001
 3.591693914315921e+000	 2.564631782766781e+000	 1.084161243628537e+001
 3.563329177505210e+000	 2.603898352994673e+000	 1.083093132559904e+001
 3.534510553858697e+000	 2.642884202928837e+000	 1.081525153666790e+001
 3.505242175176668e+000	 2.681581535313464e+000	 1.079518073147430e+001
 3.475528350397301e+000	 2.719982633399626e+000	 1.077510416776023e+001
 3.445373563651263e+000	 2.758079865946172e+000	 1.075734925246209e+001
 3.414782472147824e+000	 2.795865692164516e+000	 1.074339769879148e+001
 3.383759903894348e+000	 2.833332666600768e+000	 1.073476133424943e+001
 3.352310855251333e+000	 2.870473443948652e+000	 1.073296114641048e+001
 3.320440488325464e+000	 2.907280783786796e+000	 1.073859693253634e+001
 3.288154128203432e+000	 2.943747555234022e+000	 1.074473394551480e+001
 3.613397024996892e+000	 2.580128784674530e+000	 1.083324177861953e+001
 3.584860891893530e+000	 2.619632626434988e+000	 1.082262695530640e+001
 3.555868129305216e+000	 2.658854051625854e+000	 1.080687584212826e+001
 3.526422893998978e+000	 2.697785215875753e+000	 1.078758938060662e+001
 3.496529520950103e+000	 2.736418355806673e+000	 1.076869621605172e+001
 3.466192521384992e+000	 2.774745794065057e+000	 1.075155742421434e+001
 3.435416580654481e+000	 2.812759944296481e+000	 1.073749649099975e+001
 3.404206555939567e+000	 2.850453316057287e+000	 1.072787142737559e+001
 3.372567473791665e+000	 2.887818519656581e+000	 1.072405349715239e+001
 3.340504527509917e+000	 2.924848270922151e+000	 1.072740421435360e+001
 3.308023074358290e+000	 2.961535395883882e+000	 1.073580134414126e+001
 3.635100135678463e+000	 2.595625786582434e+000	 1.082435004977737e+001
 3.606392606282453e+000	 2.635366899875415e+000	 1.081399946883227e+001
 3.577225704752324e+000	 2.674823900322948e+000	 1.079858093886777e+001
 3.547603612821848e+000	 2.713988896438097e+000	 1.078105816797244e+001
 3.517530691503431e+000	 2.752854078213755e+000	 1.076368429016834e+001
 3.487011479119200e+000	 2.791411722183962e+000	 1.074754436611219e+001
 3.456050689161567e+000	 2.829654196428459e+000	 1.073378256910349e+001
 3.424653207985159e+000	 2.867573965513815e+000	 1.072358257293923e+001
 3.392824092332316e+000	 2.905163595364521e+000	 1.071814598644207e+001
 3.360568566694637e+000	 2.942415758057519e+000	 1.071866896474187e+001
 3.327892020513366e+000	 2.979323236533758e+000	 1.072616113719884e+001
 3.129202558978380e+000	 2.801444830037749e+000	 1.079718306572307e+001
 3.098090975972703e+000	 2.835812860563197e+000	 1.079250856048326e+001
 3.066594216041264e+000	 2.869843648532129e+000	 1.078323521547975e+001
 3.034717795080713e+000	 2.903530751830148e+000	 1.077003310317415e+001
 3.002467371960544e+000	 2.936867849398260e+000	 1.075359652724791e+001
 2.969848745180577e+000	 2.969848745180577e+000	 1.073462250695767e+001
 2.936867849398259e+000	 3.002467371960544e+000	 1.071378908835092e+001
 2.903530751830149e+000	 3.034717795080715e+000	 1.069173367388517e+001
 2.869843648532129e+000	 3.066594216041264e+000	 1.066903156282928e+001
 2.835812860563195e+000	 3.098090975972702e+000	 1.064617489405063e+001
 2.801444830037748e+000	 3.129202558978380e+000	 1.062355218040926e+001
 3.149071505129704e+000	 2.819232670686875e+000	 1.079217691513218e+001
 3.117762378387155e+000	 2.853818921840275e+000	 1.078781888513153e+001
 3.086065629028769e+000	 2.888065789107530e+000	 1.077859867957819e+001
 3.053986807974516e+000	 2.921966789469875e+000	 1.076524097722180e+001
 3.021531610025019e+000	 2.955515561732601e+000	 1.074849669584503e+001
 2.988705870497814e+000	 2.988705870497813e+000	 1.072912048883541e+001
 2.955515561732601e+000	 3.021531610025019e+000	 1.070784805695897e+001
 2.921966789469875e+000	 3.053986807974516e+000	 1.068537347503451e+001
 2.888065789107531e+000	 3.086065629028768e+000	 1.066232673410119e+001
 2.853818921840275e+000	 3.117762378387155e+000	 1.063925169889068e+001
 2.819232670686875e+000	 3.149071505129704e+000	 1.061658467796159e+001
 3.168940451281643e+000	 2.837020511336151e+000	 1.078675650314174e+001
 3.137433780802209e+000	 2.871824983117554e+000	 1.078279591911118e+001
 3.105537042016849e+000	 2.906287929683184e+000	 1.077364068602346e+001
 3.073255820868855e+000	 2.940402827109916e+000	 1.076009127913953e+001
 3.040595848089982e+000	 2.974163274067317e+000	 1.074297658850496e+001
 3.007562995815484e+000	 3.007562995815484e+000	 1.072313035447753e+001
 2.974163274067317e+000	 3.040595848089982e+000	 1.070136740615043e+001
 2.940402827109914e+000	 3.073255820868856e+000	 1.067845991088093e+001
 2.906287929683185e+000	 3.105537042016849e+000	 1.065511384408944e+001
 2.871824983117554e+000	 3.137433780802210e+000	 1.063194588770693e+001
 2.837020511336150e+000	 3.168940451281644e+000	 1.060946096312153e+001
 3.188809397434150e+000	 2.854808351985561e+000	 1.078092050353228e+001
 3.157105183217814e+000	 2.889831044395010e+000	 1.077745409130290e+001
 3.125008455005451e+000	 2.924510070259066e+000	 1.076839300510253e+001
 3.092524833763677e+000	 2.958838864750235e+000	 1.075463440696027e+001
 3.059660086155382e+000	 2.992810986402366e+000	 1.073710621913676e+001
 3.026420121133540e+000	 3.026420121133540e+000	 1.071674242465228e+001
 2.992810986402366e+000	 3.059660086155382e+000	 1.069445815774017e+001
 2.958838864750234e+000	 3.092524833763677e+000	 1.067112480130904e+001
 2.924510070259066e+000	 3.125008455005450e+000	 1.064754530951542e+001
 2.889831044395010e+000	 3.157105183217814e+000	 1.062442997275710e+001
 2.854808351985561e+000	 3.188809397434150e+000	 1.060237283979454e+001
 3.208678343587173e+000	 2.872596192635086e+000	 1.077465702936957e+001
 3.176776585633916e+000	 2.907837105672620e+000	 1.077179675910507e+001
 3.144479867994520e+000	 2.942732210835146e+000	 1.076287577686253e+001
 3.111793846658930e+000	 2.977274902390801e+000	 1.074890853446737e+001
 3.078724324221172e+000	 3.011458698737709e+000	 1.073094276099006e+001
 3.045277246451941e+000	 3.045277246451941e+000	 1.071003355359290e+001
 3.011458698737709e+000	 3.078724324221171e+000	 1.068721724465221e+001
 2.977274902390800e+000	 3.111793846658930e+000	 1.066348527148060e+001
 2.942732210835144e+000	 3.144479867994519e+000	 1.063975827606032e+001
 2.907837105672620e+000	 3.176776585633916e+000	 1.061686066140119e+001
 2.872596192635086e+000	 3.208678343587173e+000	 1.059549582845795e+001
 3.228547289740663e+000	 2.890384033284712e+000	 1.076794386321726e+001
 3.196447988050458e+000	 2.925843166950362e+000	 1.076581643122183e+001
 3.163951280984001e+000	 2.960954351411395e+000	 1.075709772716659e+001
 3.131062859554559e+000	 2.995710940031576e+000	 1.074293982097474e+001
 3.097788562287297e+000	 3.030106411073305e+000	 1.072453075037997e+001
 3.064134371770637e+000	 3.064134371770636e+000	 1.070306732665291e+001
 3.030106411073305e+000	 3.097788562287298e+000	 1.067972770225598e+001
 2.995710940031576e+000	 3.131062859554560e+000	 1.065564393636853e+001
 2.960954351411395e+000	 3.163951280984001e+000	 1.063187479538004e+001
 2.925843166950362e+000	 3.196447988050459e+000	 1.060937902464760e+001
 2.890384033284712e+000	 3.228547289740663e+000	 1.058898932505669e+001
 3.248416235894569e+000	 2.908171873934421e+000	 1.076074868843848e+001
 3.216119390467393e+000	 2.943849228228216e+000	 1.075949499121655e+001
 3.183422693973840e+000	 2.979176491987786e+000	 1.075105638415139e+001
 3.150331872450513e+000	 3.014146977672529e+000	 1.073674262111490e+001
 3.116852800353711e+000	 3.048754123409113e+000	 1.071790229000735e+001
 3.082991497089581e+000	 3.082991497089581e+000	 1.069589425713537e+001
 3.048754123409115e+000	 3.116852800353711e+000	 1.067205885845774e+001
 3.014146977672528e+000	 3.150331872450513e+000	 1.064768908363969e+001
 2.979176491987786e+000	 3.183422693973840e+000	 1.062400200008571e+001
 2.943849228228216e+000	 3.216119390467392e+000	 1.060211066331561e+001
 2.908171873934421e+000	 3.248416235894569e+000	 1.058299675721061e+001
 3.268285182048842e+000	 2.925959714584197e+000	 1.075302932154000e+001
 3.235790792884662e+000	 2.961855289506158e+000	 1.075280392179832e+001
 3.202894106963983e+000	 2.997398632564291e+000	 1.074473829506920e+001
 3.169600885346736e+000	 3.032583015313622e+000	 1.073031969463484e+001
 3.135917038420363e+000	 3.067401835745095e+000	 1.071107725189166e+001
 3.101848622408732e+000	 3.101848622408731e+000	 1.068855198233173e+001
 3.067401835745095e+000	 3.135917038420363e+000	 1.066426652260008e+001
 3.032583015313622e+000	 3.169600885346737e+000	 1.063969485495660e+001
 2.997398632564291e+000	 3.202894106963983e+000	 1.061623227677652e+001
 2.961855289506158e+000	 3.235790792884662e+000	 1.059516587191591e+001
 2.925959714584196e+000	 3.268285182048841e+000	 1.057764573784790e+001
 3.288154128203432e+000	 2.943747555234022e+000	 1.074473394551480e+001
 3.255462195302213e+000	 2.979861350784167e+000	 1.074570452981014e+001
 3.222365519954375e+000	 3.015620773140882e+000	 1.073811924349817e+001
 3.188869898243178e+000	 3.051019052954823e+000	 1.072366241619935e+001
 3.154981276487200e+000	 3.086049548081208e+000	 1.070406347993302e+001
 3.120705747728039e+000	 3.120705747728038e+000	 1.068106545880344e+001
 3.086049548081208e+000	 3.154981276487199e+000	 1.065639317322003e+001
 3.051019052954824e+000	 3.188869898243179e+000	 1.063172142576518e+001
 3.015620773140882e+000	 3.222365519954374e+000	 1.060864343720708e+001
 2.979861350784166e+000	 3.255462195302214e+000	 1.058863980034554e+001
 2.943747555234023e+000	 3.288154128203432e+000	 1.057304821637366e+001
 3.308023074358290e+000	 2.961535395883882e+000	 1.073580134414126e+001
 3.275133597719994e+000	 2.997867412062219e+000	 1.073814817188939e+001
 3.241836932944962e+000	 3.033842913717531e+000	 1.073116446690542e+001
 3.208138911139784e+000	 3.069455090596099e+000	 1.071675098520130e+001
 3.174045514554174e+000	 3.104697260417412e+000	 1.069685699211873e+001
 3.139562873047459e+000	 3.139562873047459e+000	 1.067344715693823e+001
 3.104697260417412e+000	 3.174045514554175e+000	 1.064846814471358e+001
 3.069455090596098e+000	 3.208138911139783e+000	 1.062381518363192e+001
 3.033842913717530e+000	 3.241836932944962e+000	 1.060129888766795e+001
 2.997867412062220e+000	 3.275133597719995e+000	 1.058261261348908e+001
 2.961535395883882e+000	 3.308023074358290e+000	 1.056930062747688e+001
 3.327892020513366e+000	 2.979323236533758e+000	 1.072616113719884e+001
 3.294805000137952e+000	 3.015873473340294e+000	 1.073007648077263e+001
 3.261308345935689e+000	 3.052065054294208e+000	 1.072382887454810e+001
 3.227407924036499e+000	 3.087891128237413e+000	 1.070955463557896e+001
 3.193109752621236e+000	 3.123344972753669e+000	 1.068944218238931e+001
 3.158419998366947e+000	 3.158419998366946e+000	 1.066569725481136e+001
 3.123344972753669e+000	 3.193109752621236e+000	 1.064050781295260e+001
 3.087891128237412e+000	 3.227407924036499e+000	 1.061600890519137e+001
 3.052065054294209e+000	 3.261308345935690e+000	 1.059424779665391e+001
 3.015873473340295e+000	 3.294805000137951e+000	 1.057714964881383e+001
 2.979323236533757e+000	 3.327892020513365e+000	 1.056648403767492e+001
 2.801444830037748e+000	 3.129202558978380e+000	 1.062355218040927e+001
 2.766740886705849e+000	 3.159928174864604e+000	 1.059861310121520e+001
 2.731712838286569e+000	 3.190257906944266e+000	 1.056963601457163e+001
 2.696367470949601e+000	 3.220186687548849e+000	 1.053805466884703e+001
 2.660711675109584e+000	 3.249709604111268e+000	 1.050521097310850e+001
 2.624752440995853e+000	 3.278821901798352e+000	 1.047447955577690e+001
 2.588496854144156e+000	 3.307518985991762e+000	 1.044726334248824e+001
 2.551952090816394e+000	 3.335796424614757e+000	 1.042332386945458e+001
 2.515125413354498e+000	 3.363649950302459e+000	 1.039876524232527e+001
 2.478024165474663e+000	 3.391075462413564e+000	 1.037187783674500e+001
 2.440655767508217e+000	 3.418069028881693e+000	 1.034398298467400e+001
 2.819232670686875e+000	 3.149071505129704e+000	 1.061658467796159e+001
 2.784308373840670e+000	 3.179992214045370e+000	 1.059203020359282e+001
 2.749057913994120e+000	 3.210514525480813e+000	 1.056405643422165e+001
 2.713488120405852e+000	 3.240633339590237e+000	 1.053403861826369e+001
 2.677605927241350e+000	 3.270343712614112e+000	 1.050319833069029e+001
 2.641418369114568e+000	 3.299640859528343e+000	 1.047343501987574e+001
 2.604932576551026e+000	 3.328520156540966e+000	 1.044760478038106e+001
 2.568155771378458e+000	 3.356977143433668e+000	 1.042310096214932e+001
 2.531095262051196e+000	 3.385007525745849e+000	 1.039590113888197e+001
 2.493758438914534e+000	 3.412607176799092e+000	 1.036714007598931e+001
 2.456152769415361e+000	 3.439772139560280e+000	 1.033807999183357e+001
 2.837020511336150e+000	 3.168940451281644e+000	 1.060946096312153e+001
 2.801875860975600e+000	 3.200056253226749e+000	 1.058562876165991e+001
 2.766402989701746e+000	 3.230771144017952e+000	 1.055909090884005e+001
 2.730608769862155e+000	 3.261079991632188e+000	 1.053114443314740e+001
 2.694500179373152e+000	 3.290977821117469e+000	 1.050292458620114e+001
 2.658084297233307e+000	 3.320459817258793e+000	 1.047548120406312e+001
 2.621368298957908e+000	 3.349521327090561e+000	 1.045039042701046e+001
 2.584359451940528e+000	 3.378157862252897e+000	 1.042297915792057e+001
 2.547065110747905e+000	 3.406365101189477e+000	 1.039354996481110e+001
 2.509492712354418e+000	 3.434138891184774e+000	 1.036326272490842e+001
 2.471649771322522e+000	 3.461475250238931e+000	 1.033329856215911e+001
 2.854808351985561e+000	 3.188809397434150e+000	 1.060237283979454e+001
 2.819443348110627e+000	 3.220120292408698e+000	 1.057961733104368e+001
 2.783748065409441e+000	 3.251027762555651e+000	 1.055496094898285e+001
 2.747729419318505e+000	 3.281526643674674e+000	 1.052960320205541e+001
 2.711394431504983e+000	 3.311611929621332e+000	 1.050457311083004e+001
 2.674750225352066e+000	 3.341278774989703e+000	 1.048038374053830e+001
 2.637804021364806e+000	 3.370522497640566e+000	 1.045278948118829e+001
 2.600563132502615e+000	 3.399338581072477e+000	 1.042280960229678e+001
 2.563034959444631e+000	 3.427722676633387e+000	 1.039155069322708e+001
 2.525226985794328e+000	 3.455670605570664e+000	 1.036006988993814e+001
 2.487146773229715e+000	 3.483178360917711e+000	 1.032944559809567e+001
 2.872596192635086e+000	 3.208678343587173e+000	 1.059549582845795e+001
 2.837010835245739e+000	 3.240184331591172e+000	 1.057418780893297e+001
 2.801093141117197e+000	 3.271284381093875e+000	 1.055187117136013e+001
 2.764850068774895e+000	 3.301973295717676e+000	 1.052962901815982e+001
 2.728288683636842e+000	 3.332246038125688e+000	 1.050836464071861e+001
 2.691416153470845e+000	 3.362097732721078e+000	 1.048445888195272e+001
 2.654239743771723e+000	 3.391523668190996e+000	 1.045457299758317e+001
 2.616766813064722e+000	 3.420519299892435e+000	 1.042246114784658e+001
 2.579004808141385e+000	 3.449080252077623e+000	 1.038976061636423e+001
 2.540961259234273e+000	 3.477202319956819e+000	 1.035740467667053e+001
 2.502643775136960e+000	 3.504881471596689e+000	 1.032634774012121e+001
 2.890384033284712e+000	 3.228547289740663e+000	 1.058898932505669e+001
 2.854578322380925e+000	 3.260248370774131e+000	 1.056951558081660e+001
 2.818438216825004e+000	 3.291540999632588e+000	 1.055000942996219e+001
 2.781970718231322e+000	 3.322419947761167e+000	 1.053141909163630e+001
 2.745182935768730e+000	 3.352880146630527e+000	 1.051240455634851e+001
 2.708082081589644e+000	 3.382916690452919e+000	 1.048675544992130e+001
 2.670675466178660e+000	 3.412524838741869e+000	 1.045561900784124e+001
 2.632970493626855e+000	 3.441700018712804e+000	 1.042181995698773e+001
 2.594974656838174e+000	 3.470437827522229e+000	 1.038805493058377e+001
 2.556695532674268e+000	 3.498734034343295e+000	 1.035512875615432e+001
 2.518140777044271e+000	 3.526584582275933e+000	 1.032385091373592e+001
 2.908171873934421e+000	 3.248416235894569e+000	 1.058299675721061e+001
 2.872145809516170e+000	 3.280312409957526e+000	 1.056575966432392e+001
 2.835783292532855e+000	 3.311797618171761e+000	 1.054954694420981e+001
 2.799091367687780e+000	 3.342866599805125e+000	 1.053463404114424e+001
 2.762077187900638e+000	 3.373514255135836e+000	 1.051420638137908e+001
 2.724748009708466e+000	 3.403735648185227e+000	 1.048726094972807e+001
 2.687111188585623e+000	 3.433526009293199e+000	 1.045547750304647e+001
 2.649174174189020e+000	 3.462880737533612e+000	 1.042078910304999e+001
 2.610944505535007e+000	 3.491795402967248e+000	 1.038632632013173e+001
 2.572429806114326e+000	 3.520265748730149e+000	 1.035312193050222e+001
 2.533637778951669e+000	 3.548287692955509e+000	 1.032181987636327e+001
 2.925959714584196e+000	 3.268285182048841e+000	 1.057764573784790e+001
 2.889713296651465e+000	 3.300376449141319e+000	 1.056306285029046e+001
 2.853128368240741e+000	 3.332054236711353e+000	 1.055063842425498e+001
 2.816212017144263e+000	 3.363313251849527e+000	 1.053583147410297e+001
 2.778971440032567e+000	 3.394148363641605e+000	 1.051377275401247e+001
 2.741413937827308e+000	 3.424554605918009e+000	 1.048597896418771e+001
 2.703546910992609e+000	 3.454527179845005e+000	 1.045397835950311e+001
 2.665377854751221e+000	 3.484061456354890e+000	 1.041928816966605e+001
 2.626914354231892e+000	 3.513152978412723e+000	 1.038448453970076e+001
 2.588164079554456e+000	 3.541797463117435e+000	 1.035128169783457e+001
 2.549134780859165e+000	 3.569990803635482e+000	 1.032013776416622e+001
 2.943747555234023e+000	 3.288154128203432e+000	 1.057304821637366e+001
 2.907280783786796e+000	 3.320440488325464e+000	 1.056155184116624e+001
 2.870473443948652e+000	 3.352310855251332e+000	 1.055130074066910e+001
 2.833332666600767e+000	 3.383759903894349e+000	 1.053437123371402e+001
 2.795865692164516e+000	 3.414782472147824e+000	 1.051112718769315e+001
 2.758079865946173e+000	 3.445373563651262e+000	 1.048292831851525e+001
 2.719982633399626e+000	 3.475528350397300e+000	 1.045113281961647e+001
 2.681581535313463e+000	 3.505242175176668e+000	 1.041708230869029e+001
 2.642884202928838e+000	 3.534510553858697e+000	 1.038245599584673e+001
 2.603898352994673e+000	 3.563329177505211e+000	 1.034952281658784e+001
 2.564631782766780e+000	 3.591693914315921e+000	 1.031870563878225e+001
 2.961535395883882e+000	 3.308023074358290e+000	 1.056930062747688e+001
 2.924848270922151e+000	 3.340504527509917e+000	 1.056102832454169e+001
 2.887818519656582e+000	 3.372567473791665e+000	 1.054892101738613e+001
 2.850453316057286e+000	 3.404206555939566e+000	 1.053029212563550e+001
 2.812759944296481e+000	 3.435416580654481e+000	 1.050630724892008e+001
 2.774745794065056e+000	 3.466192521384992e+000	 1.047814224298149e+001
 2.736418355806673e+000	 3.496529520950103e+000	 1.044696699417030e+001
 2.697785215875753e+000	 3.526422893998977e+000	 1.041393028320169e+001
 2.658854051625854e+000	 3.555868129305217e+000	 1.038018332730804e+001
 2.619632626434987e+000	 3.584860891893531e+000	 1.034777686921392e+001
 2.580128784674530e+000	 3.613397024996892e+000	 1.031744203398076e+001
 2.979323236533757e+000	 3.327892020513365e+000	 1.056648403767492e+001
 2.942415758057520e+000	 3.360568566694637e+000	 1.055807605596848e+001
 2.905163595364522e+000	 3.392824092332316e+000	 1.054353972202894e+001
 2.867573965513814e+000	 3.424653207985159e+000	 1.052364595004657e+001
 2.829654196428458e+000	 3.456050689161565e+000	 1.049936372538616e+001
 2.791411722183963e+000	 3.487011479119200e+000	 1.047166753344713e+001
 2.752854078213755e+000	 3.517530691503430e+000	 1.044152101433542e+001
 2.713988896438097e+000	 3.547603612821848e+000	 1.040986176670954e+001
 2.674823900322948e+000	 3.577225704752323e+000	 1.037758739999397e+001
 2.635366899875414e+000	 3.606392606282453e+000	 1.034599182529655e+001
 2.595625786582433e+000	 3.635100135678463e+000	 1.031628250224589e+001
 2.440655767508217e+000	 3.418069028881693e+000	 1.034398298467400e+001
 2.403027710782309e+000	 3.444626886934158e+000	 1.031677916250981e+001
 2.365147550385903e+000	 3.470745441682317e+000	 1.029051851595798e+001
 2.327022902821665e+000	 3.496421270358104e+000	 1.026435558725315e+001
 2.288661441927230e+000	 3.521651124484178e+000	 1.023743234889260e+001
 2.250070893948702e+000	 3.546431930914687e+000	 1.020887515541192e+001
 2.211259032598793e+000	 3.570760792711000e+000	 1.017779229166448e+001
 2.172233674105955e+000	 3.594634989852545e+000	 1.014327212941466e+001
 2.133002672260832e+000	 3.618051979783225e+000	 1.010438189720509e+001
 2.093573913466255e+000	 3.641009397794124e+000	 1.006016706173090e+001
 2.053955311797024e+000	 3.663505057243499e+000	 1.000965131241332e+001
 2.456152769415361e+000	 3.439772139560280e+000	 1.033807999183357e+001
 2.418285792447178e+000	 3.466498627364912e+000	 1.031026886320087e+001
 2.380165111070181e+000	 3.492783022498506e+000	 1.028383192020983e+001
 2.341798390148221e+000	 3.518621880460040e+000	 1.025790006916881e+001
 2.303193352244160e+000	 3.544011932145869e+000	 1.023159151013737e+001
 2.264357772662105e+000	 3.568950084897113e+000	 1.020400862114721e+001
 2.225299474474157e+000	 3.593433423380952e+000	 1.017423546918972e+001
 2.186026323538119e+000	 3.617459210305963e+000	 1.014133595988238e+001
 2.146546223512473e+000	 3.641024886972018e+000	 1.010435263056839e+001
 2.106867110874978e+000	 3.664128073655407e+000	 1.006230608457657e+001
 2.066996949951050e+000	 3.686766569830242e+000	 1.001419505753765e+001
 2.471649771322522e+000	 3.461475250238931e+000	 1.033329856215911e+001
 2.433543874112069e+000	 3.488370367795640e+000	 1.030504083919546e+001
 2.395182671754490e+000	 3.514820603314579e+000	 1.027849734073578e+001
 2.356573877474814e+000	 3.540822490561769e+000	 1.025278871746705e+001
 2.317725262561141e+000	 3.566372739807267e+000	 1.022702285374653e+001
 2.278644651375573e+000	 3.591468238879172e+000	 1.020029165462714e+001
 2.239339916349607e+000	 3.616106054050469e+000	 1.017166849135496e+001
 2.199818972970387e+000	 3.640283430758890e+000	 1.014020631740361e+001
 2.160089774764248e+000	 3.663997794160270e+000	 1.010493645963356e+001
 2.120160308283865e+000	 3.687246749516119e+000	 1.006486808182479e+001
 2.080038588105280e+000	 3.710028082416403e+000	 1.001898831069809e+001
 2.487146773229715e+000	 3.483178360917711e+000	 1.032944559809567e+001
 2.448801955777006e+000	 3.510242108226416e+000	 1.030088495718534e+001
 2.410200232438857e+000	 3.536858184130617e+000	 1.027428983314553e+001
 2.371349364801481e+000	 3.563023100663378e+000	 1.024878367648787e+001
 2.332257172878211e+000	 3.588733547468468e+000	 1.022347718112925e+001
 2.292931530089150e+000	 3.613986392860957e+000	 1.019746494486536e+001
 2.253380358225186e+000	 3.638778684719643e+000	 1.016982282150877e+001
 2.213611622402809e+000	 3.663107651211413e+000	 1.013960597696033e+001
 2.173633326016202e+000	 3.686970701348076e+000	 1.010584765367324e+001
 2.133453505692958e+000	 3.710365425376351e+000	 1.006755864030512e+001
 2.093080226259744e+000	 3.733289595002065e+000	 1.002372743590621e+001
 2.502643775136960e+000	 3.504881471596689e+000	 1.032634774012121e+001
 2.464060037442010e+000	 3.532113848657317e+000	 1.029761155698154e+001
 2.425217793123311e+000	 3.558895764946705e+000	 1.027100560565610e+001
 2.386124852128256e+000	 3.585223710764960e+000	 1.024566887393453e+001
 2.346789083195411e+000	 3.611094355129560e+000	 1.022072766580266e+001
 2.307218408802882e+000	 3.636504546842562e+000	 1.019529210628371e+001
 2.267420800100942e+000	 3.661451315388569e+000	 1.016845337267029e+001
 2.227404271835432e+000	 3.685931871663630e+000	 1.013928166467037e+001
 2.187176877268379e+000	 3.709943608535522e+000	 1.010682491783427e+001
 2.146746703102297e+000	 3.733484101236188e+000	 1.007010825662879e+001
 2.106121864414475e+000	 3.756551107587308e+000	 1.002813417575137e+001
 2.518140777044271e+000	 3.526584582275933e+000	 1.032385091373592e+001
 2.479318119107102e+000	 3.553985589088418e+000	 1.029505098052811e+001
 2.440235353807877e+000	 3.580933345762920e+000	 1.026846153306330e+001
 2.400900339455172e+000	 3.607424320866600e+000	 1.024324952252193e+001
 2.361320993512781e+000	 3.633455162790639e+000	 1.021856934521792e+001
 2.321505287516809e+000	 3.659022700824079e+000	 1.019355916299527e+001
 2.281461241976922e+000	 3.684123946057341e+000	 1.016733798632422e+001
 2.241196921268304e+000	 3.708756092115631e+000	 1.013900353292219e+001
 2.200720428520828e+000	 3.732916515722704e+000	 1.010763086621047e+001
 2.160039900511925e+000	 3.756602777095718e+000	 1.007227180956592e+001
 2.119163502569507e+000	 3.779812620172219e+000	 1.003195512421484e+001
 2.533637778951669e+000	 3.548287692955509e+000	 1.032181987636327e+001
 2.494576200772307e+000	 3.575857329519796e+000	 1.029305310140938e+001
 2.455252914492587e+000	 3.602970926579353e+000	 1.026649467170833e+001
 2.415675826782263e+000	 3.629624930968387e+000	 1.024135162304862e+001
 2.375852903830360e+000	 3.655815970451795e+000	 1.021681861437338e+001
 2.335792166230977e+000	 3.681540854805605e+000	 1.019207403518163e+001
 2.295501683853174e+000	 3.706796576726056e+000	 1.016627691356865e+001
 2.254989570701472e+000	 3.731580312567512e+000	 1.013856463808058e+001
 2.214263979773591e+000	 3.755889422909708e+000	 1.010805149767211e+001
 2.173333097921881e+000	 3.779721452955029e+000	 1.007382803534092e+001
 2.132205140724873e+000	 3.803074132756878e+000	 1.003496120254748e+001
 2.549134780859165e+000	 3.569990803635482e+000	 1.032013776416622e+001
 2.509834282437646e+000	 3.597729069951527e+000	 1.029148685482988e+001
 2.470270475177469e+000	 3.625008507396082e+000	 1.026496177539682e+001
 2.430451314109564e+000	 3.651825541070408e+000	 1.023982146883151e+001
 2.390384814148186e+000	 3.678176778113120e+000	 1.021531272113917e+001
 2.350079044945431e+000	 3.704059008787232e+000	 1.019066602747551e+001
 2.309542125729742e+000	 3.729469207394803e+000	 1.016509229851561e+001
 2.268782220134983e+000	 3.754404533019364e+000	 1.013778042065381e+001
 2.227807531026718e+000	 3.778862330096631e+000	 1.010789567433475e+001
 2.186626295332208e+000	 3.802840128814207e+000	 1.007457900572184e+001
 2.145246778880603e+000	 3.826335645341369e+000	 1.003694713808075e+001
 2.564631782766780e+000	 3.591693914315921e+000	 1.031870563878225e+001
 2.525092364103141e+000	 3.619600810383686e+000	 1.029023976804700e+001
 2.485288035862548e+000	 3.647046088213191e+000	 1.026373881223048e+001
 2.445226801437110e+000	 3.674026151172752e+000	 1.023852515144596e+001
 2.404916724466301e+000	 3.700537585774706e+000	 1.021390926322036e+001
 2.364365923660214e+000	 3.726577162769055e+000	 1.018918531926365e+001
 2.323582567606674e+000	 3.752141838063679e+000	 1.016362766384895e+001
 2.282574869568885e+000	 3.777228753471282e+000	 1.013648818781830e+001
 2.241351082280251e+000	 3.801835237283559e+000	 1.010699460255561e+001
 2.199919492742944e+000	 3.825958804673341e+000	 1.007434960878559e+001
 2.158288417036733e+000	 3.849597157925777e+000	 1.003773094584679e+001
 2.580128784674530e+000	 3.613397024996892e+000	 1.031744203398076e+001
 2.540350445768814e+000	 3.641472550816348e+000	 1.028921749123723e+001
 2.500305596547855e+000	 3.669083669030762e+000	 1.026272048231246e+001
 2.460002288764932e+000	 3.696226761275509e+000	 1.023734806771626e+001
 2.419448634784743e+000	 3.722898393436643e+000	 1.021248568669022e+001
 2.378652802375369e+000	 3.749095316751165e+000	 1.018750245682932e+001
 2.337623009484017e+000	 3.774814468732779e+000	 1.016174739844915e+001
 2.296367519003227e+000	 3.800052973923358e+000	 1.013454659820132e+001
 2.254894633534237e+000	 3.824808144470584e+000	 1.010520131635161e+001
 2.213212690154133e+000	 3.849077480532520e+000	 1.007298703224632e+001
 2.171330055193294e+000	 3.872858670510183e+000	 1.003715341288959e+001
 2.595625786582433e+000	 3.635100135678463e+000	 1.031628250224589e+001
 2.555608527434690e+000	 3.663344291249593e+000	 1.028834332877786e+001
 2.515323157233419e+000	 3.691121249848880e+000	 1.026181973629038e+001
 2.474777776093069e+000	 3.718427371378763e+000	 1.023619442790414e+001
 2.433980545103553e+000	 3.745259201099026e+000	 1.021093878602754e+001
 2.392939681090943e+000	 3.771613470733660e+000	 1.018550784725767e+001
 2.351663451361818e+000	 3.797487099402197e+000	 1.015933624699813e+001
 2.310160168438054e+000	 3.822877194375687e+000	 1.013183514882781e+001
 2.268438184788723e+000	 3.847781051657798e+000	 1.010239016313738e+001
 2.226505887565815e+000	 3.872196156391829e+000	 1.007036024924018e+001
 2.184371693350319e+000	 3.896120183094671e+000	 1.003507758515469e+001
 2.053955311797024e+000	 3.663505057243499e+000	 1.000965131241332e+001
 2.014160787468252e+000	 3.685533680363033e+000	 9.953211461358890e+000
 1.974192364944430e+000	 3.707096848820648e+000	 9.895311420809534e+000
 1.934058010402449e+000	 3.728192913598081e+000	 9.850093747565376e+000
 1.893765698057606e+000	 3.748820402933820e+000	 9.815666514376160e+000
 1.853323405364218e+000	 3.768978021749815e+000	 9.788772440995427e+000
 1.812739108261148e+000	 3.788664650926862e+000	 9.766267013023146e+000
 1.772020776467593e+000	 3.807879346431334e+000	 9.745114447783788e+000
 1.731176368834391e+000	 3.826621338296152e+000	 9.722384087563391e+000
 1.690213828755852e+000	 3.844890029459100e+000	 9.695247345340308e+000
 1.649141079647045e+000	 3.862684994461763e+000	 9.660975313238376e+000
 2.066996949951050e+000	 3.686766569830242e+000	 1.001419505753765e+001
 2.026949749342556e+000	 3.708935064216883e+000	 9.960655233488849e+000
 1.986727546368358e+000	 3.730635148526094e+000	 9.902887536882551e+000
 1.946338357786760e+000	 3.751865163269136e+000	 9.854558856238054e+000
 1.905790208445515e+000	 3.772623627339524e+000	 9.817448027396820e+000
 1.865091126451960e+000	 3.792909237436087e+000	 9.788341359297851e+000
 1.824249138388354e+000	 3.812720867333757e+000	 9.764140433988455e+000
 1.783272264577802e+000	 3.832057567004748e+000	 9.741857132569043e+000
 1.742168514406036e+000	 3.850918561593067e+000	 9.718609146568882e+000
 1.700945881704125e+000	 3.869303250245444e+000	 9.691616107485745e+000
 1.659612340197034e+000	 3.887211204802014e+000	 9.658196451475460e+000
 2.080038588105280e+000	 3.710028082416403e+000	 1.001898831069809e+001
 2.039738711217104e+000	 3.732336448070155e+000	 9.968208434959387e+000
 1.999262727792577e+000	 3.754173448230980e+000	 9.912861623086661e+000
 1.958618705171412e+000	 3.775537412939670e+000	 9.861918400224774e+000
 1.917814718833813e+000	 3.796426851744760e+000	 9.822650573463914e+000
 1.876858847540136e+000	 3.816840453121951e+000	 9.791886228209050e+000
 1.835759168516035e+000	 3.836777083740311e+000	 9.766569672523174e+000
 1.794523752688518e+000	 3.856235787577900e+000	 9.743755494871616e+000
 1.753160659978216e+000	 3.875215784889800e+000	 9.720603170737919e+000
 1.711677934652947e+000	 3.893716471031692e+000	 9.694372358668955e+000
 1.670083600747572e+000	 3.911737415142255e+000	 9.662419009682404e+000
 2.093080226259744e+000	 3.733289595002065e+000	 1.002372743590621e+001
 2.052527673091920e+000	 3.755737831922926e+000	 9.975547299970833e+000
 2.011797909217094e+000	 3.777711747935385e+000	 9.923680821869205e+000
 1.970899052556393e+000	 3.799209662609751e+000	 9.871416416085143e+000
 1.929839229222469e+000	 3.820230076149579e+000	 9.830436647421079e+000
 1.888626568628697e+000	 3.840771668807451e+000	 9.798467935132551e+000
 1.847269198644123e+000	 3.860833300146565e+000	 9.772494310959583e+000
 1.805775240799660e+000	 3.880414008150812e+000	 9.749608488765864e+000
 1.764152805550830e+000	 3.899513008186364e+000	 9.727005541271947e+000
 1.722409987602206e+000	 3.918129691817841e+000	 9.701977343178060e+000
 1.680554861298542e+000	 3.936263625482468e+000	 9.671907911755353e+000
 2.106121864414475e+000	 3.756551107587308e+000	 1.002813417575137e+001
 2.065316634967021e+000	 3.779139215775277e+000	 9.982374158167858e+000
 2.024333090641914e+000	 3.801250047639374e+000	 9.933810553759418e+000
 1.983179399941691e+000	 3.822881912279439e+000	 9.882332142511528e+000
 1.941863739611455e+000	 3.844033300554042e+000	 9.840002981483679e+000
 1.900394289717594e+000	 3.864702884492636e+000	 9.807181127094440e+000
 1.858779228772551e+000	 3.884889516552547e+000	 9.780887710762844e+000
 1.817026728911142e+000	 3.904592228723509e+000	 9.758249373744869e+000
 1.775144951123781e+000	 3.923810231482768e+000	 9.736490986597866e+000
 1.733142040551793e+000	 3.942542912603885e+000	 9.712929217792564e+000
 1.691026121849827e+000	 3.960789835822633e+000	 9.684967089904200e+000
 2.119163502569507e+000	 3.779812620172219e+000	 1.003195512421484e+001
 2.078105596842430e+000	 3.802540599627279e+000	 9.988416901164962e+000
 2.036868272067042e+000	 3.824788347343020e+000	 9.942936365512070e+000
 1.995459747327293e+000	 3.846554161948798e+000	 9.893982131077054e+000
 1.953888250000736e+000	 3.867836524958197e+000	 9.850582516529691e+000
 1.912162010806777e+000	 3.888634100177547e+000	 9.817156027381403e+000
 1.870289258901252e+000	 3.908945732958296e+000	 9.790758659552870e+000
 1.828278217022880e+000	 3.928770449296013e+000	 9.768547177405766e+000
 1.786137096696969e+000	 3.948107454779024e+000	 9.747770846248894e+000
 1.743874093501599e+000	 3.966956133389826e+000	 9.725764102652329e+000
 1.701497382401312e+000	 3.985316046162736e+000	 9.699940308571916e+000
 2.132205140724873e+000	 3.803074132756878e+000	 1.003496120254748e+001
 2.090894558718166e+000	 3.825941983479015e+000	 9.993428452552903e+000
 2.049403453492485e+000	 3.848326647046395e+000	 9.950773545638974e+000
 2.007740094713190e+000	 3.870226411617892e+000	 9.905422356394880e+000
 1.965912760390286e+000	 3.891639749362105e+000	 9.861446381444152e+000
 1.923929731896198e+000	 3.912565315862232e+000	 9.827560262859842e+000
 1.881799289030159e+000	 3.933001949363844e+000	 9.801153031983889e+000
 1.839529705134790e+000	 3.952948669868349e+000	 9.779408175715718e+000
 1.797129242270298e+000	 3.972404678075140e+000	 9.759594356591718e+000
 1.754606146451515e+000	 3.991369354175658e+000	 9.739057158778698e+000
 1.711968642952877e+000	 4.009842256502755e+000	 9.715002974191522e+000
 2.145246778880603e+000	 3.826335645341369e+000	 1.003694713808075e+001
 2.103683520594251e+000	 3.849343367330560e+000	 9.997186241237406e+000
 2.061938634918248e+000	 3.871864946749569e+000	 9.957063041896854e+000
 2.020020442099368e+000	 3.893898661286785e+000	 9.915067597471404e+000
 1.977937270780072e+000	 3.915442973765817e+000	 9.871905880173980e+000
 1.935697452985807e+000	 3.936496531546734e+000	 9.837600701521762e+000
 1.893309319159202e+000	 3.957058165769227e+000	 9.811155463892053e+000
 1.850781193246788e+000	 3.977126890440536e+000	 9.789777390110025e+000
 1.808121387843667e+000	 3.996701901371128e+000	 9.770749957470507e+000
 1.765338199401428e+000	 4.015782574961377e+000	 9.750867169918292e+000
 1.722439903504408e+000	 4.034368466842676e+000	 9.726978213910869e+000
 2.158288417036733e+000	 3.849597157925777e+000	 1.003773094584679e+001
 2.116472482470704e+000	 3.872744751181992e+000	 9.999491677969624e+000
 2.074473816344336e+000	 3.895403246452611e+000	 9.961570919885237e+000
 2.032300789485816e+000	 3.917570910955538e+000	 9.922519943448242e+000
 1.989961781170066e+000	 3.939246198169390e+000	 9.881314486167510e+000
 1.947465174075554e+000	 3.960427747231099e+000	 9.846525299824609e+000
 1.904819349288316e+000	 3.981114382174480e+000	 9.819891039149939e+000
 1.862032681358789e+000	 4.001305111012600e+000	 9.798635773350139e+000
 1.819113533416977e+000	 4.020999124666999e+000	 9.779064734355291e+000
 1.776070252351231e+000	 4.040195795746982e+000	 9.758343546775697e+000
 1.732911164055787e+000	 4.058894677182480e+000	 9.734779864004359e+000
 2.171330055193294e+000	 3.872858670510183e+000	 1.003715341288959e+001
 2.129261444347548e+000	 3.896146135033388e+000	 1.000016963493414e+001
 2.087008997770753e+000	 3.918941546155594e+000	 9.964087825554719e+000
 2.044581136872522e+000	 3.941243160624216e+000	 9.927517421690533e+000
 2.001986291560236e+000	 3.963049422572876e+000	 9.889054227328344e+000
 1.959232895165393e+000	 3.984358962915372e+000	 9.853624959413471e+000
 1.916329379417432e+000	 4.005170598579635e+000	 9.826459632105209e+000
 1.873284169470709e+000	 4.025483331584564e+000	 9.803542455949399e+000
 1.830105678990131e+000	 4.045296347962762e+000	 9.782294055093830e+000
 1.786802305300814e+000	 4.064609016532470e+000	 9.760947088944587e+000
 1.743382424606897e+000	 4.083420887522147e+000	 9.737875597367996e+000
 2.184371693350319e+000	 3.896120183094671e+000	 1.003507758515469e+001
 2.142050406224803e+000	 3.919547518884829e+000	 9.999067928266365e+000
 2.099544179197507e+000	 3.942479845858591e+000	 9.964428451462254e+000
 2.056861484259474e+000	 3.964915410292883e+000	 9.929823623988121e+000
 2.014010801950552e+000	 3.986852646976335e+000	 9.893892387630350e+000
 1.971000616255271e+000	 4.008290178599602e+000	 9.858064638952415e+000
 1.927839409546484e+000	 4.029226814984732e+000	 9.828336471918176e+000
 1.884535657582464e+000	 4.049661552156452e+000	 9.803004911915913e+000
 1.841097824563030e+000	 4.069593571258429e+000	 9.780241308889423e+000
 1.797534358250065e+000	 4.089022237317836e+000	 9.758349272388561e+000
 1.753853685157622e+000	 4.107947097861665e+000	 9.735761635636155e+000
 1.649141079647045e+000	 3.862684994461763e+000	 9.660975313238376e+000
 1.607959836669317e+000	 3.880008541358522e+000	 9.621420909683542e+000
 1.566684128643885e+000	 3.896857880884244e+000	 9.580541554944118e+000
 1.525321798057408e+000	 3.913233096336334e+000	 9.538843688572925e+000
 1.483880649957763e+000	 3.929134436186638e+000	 9.496861576448891e+000
 1.442368447821710e+000	 3.944562312133359e+000	 9.455155846454749e+000
 1.400792909513493e+000	 3.959517297036671e+000	 9.414313189579262e+000
 1.359161703337863e+000	 3.974000122742366e+000	 9.374947225122186e+000
 1.317482444190801e+000	 3.988011677797904e+000	 9.338273941014252e+000
 1.275762689811018e+000	 4.001553005065471e+000	 9.309702951132323e+000
 1.234009937135045e+000	 4.014625299236578e+000	 9.288975007045163e+000
 1.659612340197034e+000	 3.887211204802014e+000	 9.658196451475460e+000
 1.618169615936555e+000	 3.904644747972214e+000	 9.619928303276089e+000
 1.576631826820247e+000	 3.921601072780403e+000	 9.580438906142907e+000
 1.535006865130829e+000	 3.938080263052890e+000	 9.540184356328892e+000
 1.493302585474527e+000	 3.954082568839195e+000	 9.499629767989751e+000
 1.451526800622489e+000	 3.969608404451610e+000	 9.459247892198343e+000
 1.409687277443730e+000	 3.984658346387703e+000	 9.419519015952350e+000
 1.367791732933090e+000	 3.999233131140132e+000	 9.380932139006989e+000
 1.325847830337527e+000	 4.013333652898218e+000	 9.344357167641412e+000
 1.283863175383798e+000	 4.026960961145822e+000	 9.315007677565315e+000
 1.241845312610418e+000	 4.040116258160178e+000	 9.293917332894603e+000
 1.670083600747572e+000	 3.911737415142255e+000	 9.662419009682404e+000
 1.628379395204329e+000	 3.929280954585979e+000	 9.625928411344438e+000
 1.586579524997117e+000	 3.946344264676716e+000	 9.588071901074041e+000
 1.544691932204722e+000	 3.962927429769678e+000	 9.549234614406917e+000
 1.502724520991713e+000	 3.979030701492055e+000	 9.509794132979891e+000
 1.460685153423631e+000	 3.994654496770230e+000	 9.470119152291487e+000
 1.418581645374264e+000	 4.009799395739160e+000	 9.430574059394502e+000
 1.376421762528546e+000	 4.024466139538372e+000	 9.391992107765935e+000
 1.334213216484404e+000	 4.038655627999038e+000	 9.355761995649097e+000
 1.291963660956650e+000	 4.052368917226700e+000	 9.325746123487145e+000
 1.249680688085785e+000	 4.065607217084311e+000	 9.304004741719311e+000
 1.680554861298542e+000	 3.936263625482468e+000	 9.671907911755353e+000
 1.638589174472520e+000	 3.953917161199783e+000	 9.637499123478987e+000
 1.596527223174380e+000	 3.971087456573137e+000	 9.601368260863568e+000
 1.554376999278973e+000	 3.987774596486632e+000	 9.563809292136149e+000
 1.512146456509218e+000	 4.003978834145139e+000	 9.525077709953022e+000
 1.469843506225049e+000	 4.019700589089125e+000	 9.485312110634510e+000
 1.427476013305023e+000	 4.034940445090934e+000	 9.445519520090789e+000
 1.385051792124171e+000	 4.049699147936963e+000	 9.407001305143696e+000
 1.342578602631395e+000	 4.063977603100238e+000	 9.371106909965659e+000
 1.300064146529557e+000	 4.077776873307971e+000	 9.340526479137985e+000
 1.257516063561146e+000	 4.091098176008841e+000	 9.317926564281013e+000
 1.691026121849827e+000	 3.960789835822633e+000	 9.684967089904200e+000
 1.648798953741009e+000	 3.978553367813596e+000	 9.652759298781930e+000
 1.606474921351918e+000	 3.995830648469615e+000	 9.618297834644281e+000
 1.564062066353473e+000	 4.012621763203689e+000	 9.581550444788622e+000
 1.521568392026944e+000	 4.028926966798368e+000	 9.542652557632605e+000
 1.479001859026653e+000	 4.044746681408201e+000	 9.502725467664130e+000
 1.436370381235935e+000	 4.060081494442918e+000	 9.462972117151866e+000
 1.393681821719912e+000	 4.074932156335789e+000	 9.424639666412523e+000
 1.350943988778462e+000	 4.089299578201687e+000	 9.389014483876080e+000
 1.308164632102501e+000	 4.103184829389508e+000	 9.358030360833105e+000
 1.265351439036504e+000	 4.116589134933640e+000	 9.334444075302120e+000
 1.701497382401312e+000	 3.985316046162736e+000	 9.699940308571916e+000
 1.659008733009677e+000	 4.003189574427382e+000	 9.669848670677414e+000
 1.616422619529614e+000	 4.020573840366099e+000	 9.636200469537142e+000
 1.573747133428113e+000	 4.037468929920784e+000	 9.599475479487680e+000
 1.530990327544788e+000	 4.053875099451660e+000	 9.560730729776731e+000
 1.488160211828356e+000	 4.069792773727361e+000	 9.521071271734122e+000
 1.445264749166924e+000	 4.085222543795005e+000	 9.481644955712293e+000
 1.402311851315711e+000	 4.100165164734731e+000	 9.443637363825067e+000
 1.359309374925568e+000	 4.114621553303265e+000	 9.408266899503630e+000
 1.316265117675463e+000	 4.128592785471173e+000	 9.377009428745119e+000
 1.273186814511861e+000	 4.142080093858573e+000	 9.352387350754077e+000
 1.711968642952877e+000	 4.009842256502755e+000	 9.715002974191522e+000
 1.669218512278404e+000	 4.027825781041109e+000	 9.685665362842077e+000
 1.626370317707353e+000	 4.045317032262544e+000	 9.652433866306149e+000
 1.583432200502779e+000	 4.062316096637850e+000	 9.616259790619271e+000
 1.540412263062650e+000	 4.078823232104933e+000	 9.578143571244310e+000
 1.497318564630068e+000	 4.094838866046509e+000	 9.539129489252728e+000
 1.454159117097919e+000	 4.110363593147087e+000	 9.500300538296070e+000
 1.410941880911512e+000	 4.125398173133672e+000	 9.462773439862437e+000
 1.367674761072674e+000	 4.139943528404842e+000	 9.427693807172917e+000
 1.324365603248425e+000	 4.154000741552840e+000	 9.396282046565259e+000
 1.281022189987216e+000	 4.167571052783504e+000	 9.370652163055102e+000
 1.722439903504408e+000	 4.034368466842676e+000	 9.726978213910869e+000
 1.679428291547071e+000	 4.052461987654741e+000	 9.698374325469443e+000
 1.636318015885016e+000	 4.070060224158895e+000	 9.666042280016574e+000
 1.593117267577364e+000	 4.087163263354825e+000	 9.630863936716470e+000
 1.549834198580428e+000	 4.103771364758110e+000	 9.593768512753551e+000
 1.506476917431703e+000	 4.119884958365555e+000	 9.555727386464112e+000
 1.463053485028845e+000	 4.135504642499055e+000	 9.517749039579535e+000
 1.419571910507259e+000	 4.150631181532491e+000	 9.480874135269335e+000
 1.376040147219742e+000	 4.165265503506291e+000	 9.446170731777103e+000
 1.332466088821368e+000	 4.179408697634375e+000	 9.414729981261475e+000
 1.288857565462575e+000	 4.193062011708301e+000	 9.388196912563975e+000
 1.732911164055787e+000	 4.058894677182480e+000	 9.734779864004358e+000
 1.689638070815559e+000	 4.077098194268250e+000	 9.707236568200113e+000
 1.646265714062487e+000	 4.094803416055106e+000	 9.676141731051720e+000
 1.602802334651755e+000	 4.112010430071640e+000	 9.642290817928673e+000
 1.559256134098022e+000	 4.128719497411107e+000	 9.606527356885795e+000
 1.515635270233171e+000	 4.144931050684400e+000	 9.569737819634391e+000
 1.471947852959630e+000	 4.160645691850804e+000	 9.532846624877061e+000
 1.428201940102896e+000	 4.175864189931072e+000	 9.496811259971311e+000
 1.384405533366737e+000	 4.190587478607486e+000	 9.462617520254067e+000
 1.340566574394276e+000	 4.204816653715645e+000	 9.431274868667533e+000
 1.296692940937935e+000	 4.218552970632833e+000	 9.404039593834755e+000
 1.743382424606897e+000	 4.083420887522147e+000	 9.737875597367996e+000
 1.699847850083750e+000	 4.101734400881598e+000	 9.711547422269732e+000
 1.656213412239648e+000	 4.119546607951128e+000	 9.681886131502218e+000
 1.612487401725841e+000	 4.136857596788231e+000	 9.649584020886149e+000
 1.568678069615330e+000	 4.153667630063846e+000	 9.615384604912050e+000
 1.524793623034385e+000	 4.169977143002951e+000	 9.580077567036398e+000
 1.480842220890201e+000	 4.185786741202223e+000	 9.544493810511550e+000
 1.436831969698366e+000	 4.201097198329295e+000	 9.509500605071265e+000
 1.392770919513618e+000	 4.215909453708301e+000	 9.475996828442908e+000
 1.348667059967129e+000	 4.230224609796522e+000	 9.444908305242528e+000
 1.304528316413302e+000	 4.244043929556965e+000	 9.417254795170907e+000
 1.753853685157622e+000	 4.107947097861665e+000	 9.735761635636155e+000
 1.710057629351524e+000	 4.126370607494756e+000	 9.710635022047821e+000
 1.666161110416385e+000	 4.144289799846914e+000	 9.682465705917053e+000
 1.622172468799514e+000	 4.161704763504537e+000	 9.651826200897158e+000
 1.578100005132252e+000	 4.178615762716244e+000	 9.619345822735827e+000
 1.533951975835255e+000	 4.195023235321111e+000	 9.585705700985457e+000
 1.489736588820484e+000	 4.210927790553209e+000	 9.551633864318873e+000
 1.445461999293614e+000	 4.226330206727043e+000	 9.517900394208326e+000
 1.401136305660350e+000	 4.241231428808610e+000	 9.485312645675364e+000
 1.356767545539909e+000	 4.255632565876874e+000	 9.454710537698373e+000
 1.312363691888676e+000	 4.269534888480566e+000	 9.426970730087485e+000
 1.234009937135045e+000	 4.014625299236578e+000	 9.288975007045163e+000
 1.192231618162235e+000	 4.027229903250403e+000	 9.271992015649932e+000
 1.150435094796215e+000	 4.039368302625527e+000	 9.254733037142710e+000
 1.108627657420195e+000	 4.051042125731239e+000	 9.236360052083946e+000
 1.066816522301443e+000	 4.062253141966685e+000	 9.216319323520056e+000
 1.025008828498531e+000	 4.073003258861230e+000	 9.194313443231222e+000
 9.832116348843374e-001	 4.083294519104892e+000	 9.170273689824898e+000
 9.414319172861082e-001	 4.093129097513706e+000	 9.144341744443748e+000
 8.996765657436613e-001	 4.102509297934844e+000	 9.116839364757061e+000
 8.579523818866406e-001	 4.111437550096344e+000	 9.088252644136784e+000
 8.162660764314832e-001	 4.119916406406245e+000	 9.059212004157931e+000
 1.241845312610418e+000	 4.040116258160178e+000	 9.293917332894603e+000
 1.199801721206407e+000	 4.052800895407485e+000	 9.276779413897085e+000
 1.157739809819977e+000	 4.065016367838656e+000	 9.259555195466408e+000
 1.115666915124803e+000	 4.076764314162330e+000	 9.241409550102363e+000
 1.073590299208018e+000	 4.088046515012492e+000	 9.221785468262114e+000
 1.031517146457816e+000	 4.098864890030392e+000	 9.200375929683998e+000
 9.894545605675654e-001	 4.109221494876151e+000	 9.177096394341687e+000
 9.474095616576930e-001	 4.119118518174838e+000	 9.152065265814928e+000
 9.053890835164922e-001	 4.128558278401947e+000	 9.125574880854742e+000
 8.633999709607189e-001	 4.137543220713116e+000	 9.098074696055805e+000
 8.214489773166679e-001	 4.146075913722957e+000	 9.070151315746275e+000
 1.249680688085785e+000	 4.065607217084311e+000	 9.304004741719311e+000
 1.207371824250493e+000	 4.078371887565093e+000	 9.286305129442102e+000
 1.165044524843574e+000	 4.090664433052284e+000	 9.268697603867462e+000
 1.122706172829171e+000	 4.102486502593892e+000	 9.250359124148259e+000
 1.080364076114282e+000	 4.113839888058725e+000	 9.230738310174401e+000
 1.038025464416730e+000	 4.124726521199935e+000	 9.209527162302562e+000
 9.956974862503660e-001	 4.135148470647740e+000	 9.186633661519197e+000
 9.533872060288052e-001	 4.145107938836248e+000	 9.162161159732083e+000
 9.111016012888167e-001	 4.154607258869276e+000	 9.136380476861975e+000
 8.688475600342709e-001	 4.163648891330075e+000	 9.109712164013034e+000
 8.266318782013200e-001	 4.172235421039815e+000	 9.082706543458329e+000
 1.257516063561146e+000	 4.091098176008841e+000	 9.317926564281013e+000
 1.214941927294513e+000	 4.103942879723094e+000	 9.299355361234245e+000
 1.172349239867047e+000	 4.116312498266290e+000	 9.281039080919184e+000
 1.129745430533360e+000	 4.128208691025804e+000	 9.262175763229548e+000
 1.087137853020315e+000	 4.139633261105280e+000	 9.242228382463949e+000
 1.044533782375364e+000	 4.150588152369766e+000	 9.220896440147763e+000
 1.001940411932846e+000	 4.161075446419583e+000	 9.198088657164856e+000
 9.593648503995628e-001	 4.171097359497876e+000	 9.173901451694505e+000
 9.168141190607614e-001	 4.180656239336790e+000	 9.148591963986382e+000
 8.742951491074273e-001	 4.189754561947185e+000	 9.122559528525338e+000
 8.318147790855720e-001	 4.198394928356807e+000	 9.096325707291108e+000
 1.265351439036504e+000	 4.116589134933640e+000	 9.334444075302120e+000
 1.222512030338491e+000	 4.129513871881357e+000	 9.314786219415147e+000
 1.179653954890438e+000	 4.141960563480546e+000	 9.295526248971330e+000
 1.136784688237429e+000	 4.153930879457952e+000	 9.275892065482639e+000
 1.093911629926192e+000	 4.165426634152051e+000	 9.255369533730899e+000
 1.051042100333811e+000	 4.176449783539791e+000	 9.233673973762683e+000
 1.008183337615112e+000	 4.187002422191599e+000	 9.210722933703641e+000
 9.653424947700844e-001	 4.197086780159657e+000	 9.186613899449768e+000
 9.225266368324533e-001	 4.206705219804441e+000	 9.161598092805283e+000
 8.797427381803207e-001	 4.215860232564423e+000	 9.136061270378979e+000
 8.369976799695581e-001	 4.224554435673913e+000	 9.110503735374506e+000
 1.273186814511861e+000	 4.142080093858573e+000	 9.352387350754077e+000
 1.230082133382446e+000	 4.155084864039749e+000	 9.331520832420303e+000
 1.186958669913788e+000	 4.167608628694931e+000	 9.311170886045732e+000
 1.143823945941437e+000	 4.179653067890219e+000	 9.290603829586157e+000
 1.100685406831993e+000	 4.191220007198934e+000	 9.269336753379978e+000
 1.057550418292166e+000	 4.202311414709921e+000	 9.247108938832922e+000
 1.014426263297271e+000	 4.212929397963709e+000	 9.223855211605518e+000
 9.713201391404875e-001	 4.223076200821530e+000	 9.199680485093772e+000
 9.282391546040187e-001	 4.232754200272183e+000	 9.174839255134891e+000
 8.851903272530822e-001	 4.241965903181751e+000	 9.149710775746307e+000
 8.421805808534109e-001	 4.250713942991122e+000	 9.124781565657587e+000
 1.281022189987216e+000	 4.167571052783504e+000	 9.370652163055102e+000
 1.237652236426401e+000	 4.180655856198142e+000	 9.348546487555479e+000
 1.194263384937138e+000	 4.193256693909315e+000	 9.327047306861417e+000
 1.150863203645446e+000	 4.205375256322486e+000	 9.305467671047836e+000
 1.107459183737793e+000	 4.217013380245822e+000	 9.283364017739997e+000
 1.064058736250520e+000	 4.228173045880061e+000	 9.260507546479252e+000
 1.020669188979431e+000	 4.238856373735842e+000	 9.236857518502902e+000
 9.772977835108908e-001	 4.249065621483434e+000	 9.212535915924637e+000
 9.339516723755841e-001	 4.258803180739971e+000	 9.187806190852221e+000
 8.906379163258440e-001	 4.268071573799145e+000	 9.163049242545325e+000
 8.473634817372634e-001	 4.276873450308417e+000	 9.138745245220985e+000
 1.288857565462575e+000	 4.193062011708301e+000	 9.388196912563975e+000
 1.245222339470378e+000	 4.206226848356404e+000	 9.364911803623686e+000
 1.201568099960529e+000	 4.218904759123572e+000	 9.342289771749657e+000
 1.157902461349515e+000	 4.231097444754642e+000	 9.319698662306848e+000
 1.114232960643671e+000	 4.242806753292610e+000	 9.296742156009531e+000
 1.070567054208968e+000	 4.254034677050119e+000	 9.273231129474830e+000
 1.026912114661696e+000	 4.264783349507912e+000	 9.249156928413811e+000
 9.832754278814122e-001	 4.275055042145304e+000	 9.224666133677568e+000
 9.396641901472760e-001	 4.284852161207754e+000	 9.200038699458645e+000
 8.960855053987374e-001	 4.294177244416569e+000	 9.175664587989509e+000
 8.525463826212494e-001	 4.303032957625782e+000	 9.152025027315577e+000
 1.296692940937935e+000	 4.218552970632833e+000	 9.404039593834755e+000
 1.252792442514398e+000	 4.231797840514404e+000	 9.379723934247094e+000
 1.208872814984002e+000	 4.244552824337582e+000	 9.356089922279301e+000
 1.164941719053704e+000	 4.256819633186568e+000	 9.332567995643567e+000
 1.121006737549704e+000	 4.268600126339194e+000	 9.308816735190510e+000
 1.077075372167601e+000	 4.279896308220005e+000	 9.284694243713382e+000
 1.033155040344177e+000	 4.290710325279848e+000	 9.260231420723097e+000
 9.892530722521703e-001	 4.301044462807081e+000	 9.235606831786178e+000
 9.453767079192210e-001	 4.310901141675489e+000	 9.211124356184405e+000
 9.015330944718941e-001	 4.320282915033996e+000	 9.187190357277512e+000
 8.577292835055019e-001	 4.329192464943204e+000	 9.164294466224096e+000
 1.304528316413302e+000	 4.244043929556965e+000	 9.417254795170907e+000
 1.260362545558484e+000	 4.257368832672012e+000	 9.392145800593266e+000
 1.216177530007600e+000	 4.270200889551218e+000	 9.367694242469387e+000
 1.171980976758072e+000	 4.282541821618144e+000	 9.343400667938267e+000
 1.127780514455968e+000	 4.294393499385465e+000	 9.318985963211205e+000
 1.083583690126515e+000	 4.305757939389624e+000	 9.294362784287102e+000
 1.039397966026977e+000	 4.316637301051570e+000	 9.269608862874391e+000
 9.952307166232824e-001	 4.327033883468700e+000	 9.244941980332767e+000
 9.510892256915459e-001	 4.336950122143130e+000	 9.220697232443252e+000
 9.069806835454459e-001	 4.346388585651395e+000	 9.197304633374424e+000
 8.629121843901538e-001	 4.355351972260665e+000	 9.175269510036868e+000
 1.312363691888676e+000	 4.269534888480566e+000	 9.426970730087485e+000
 1.267932648602657e+000	 4.282939824829096e+000	 9.401393352276884e+000
 1.223482245031363e+000	 4.295848954764352e+000	 9.376401544519688e+000
 1.179020234462681e+000	 4.308264010049258e+000	 9.351573186365407e+000
 1.134554291362543e+000	 4.320186872431324e+000	 9.326698609478436e+000
 1.090092008085801e+000	 4.331619570558885e+000	 9.301752115563659e+000
 1.045640891710206e+000	 4.342564276822999e+000	 9.276865344425453e+000
 1.001208360994867e+000	 4.353023304130099e+000	 9.252302358366244e+000
 9.568017434643769e-001	 4.362999102610631e+000	 9.228436620455154e+000
 9.124282726195250e-001	 4.372494256268735e+000	 9.205728947839349e+000
 8.680950852753391e-001	 4.381511479578151e+000	 9.184707591428849e+000
 8.162660764314832e-001	 4.119916406406245e+000	 9.059212004157931e+000
 7.746305074992251e-001	 4.127947367894609e+000	 9.030100129845996e+000
 7.330459304817425e-001	 4.135534529605869e+000	 9.002424410410830e+000
 6.915187573703857e-001	 4.142680794474465e+000	 8.978708707885787e+000
 6.500553007098910e-001	 4.149389174776561e+000	 8.961601472234161e+000
 6.086617716998224e-001	 4.155662788750935e+000	 8.952038879715010e+000
 5.673442784153442e-001	 4.161504857197135e+000	 8.947929284247662e+000
 5.261088241467260e-001	 4.166918700055335e+000	 8.947776090978703e+000
 4.849613058567812e-001	 4.171907732972209e+000	 8.950876351990717e+000
 4.439075127552784e-001	 4.176475463857045e+000	 8.957135794844019e+000
 4.029531249892538e-001	 4.180625489432248e+000	 8.966900477072754e+000
 8.214489773166679e-001	 4.146075913722957e+000	 9.070151315746275e+000
 7.795490423483210e-001	 4.154157867992348e+000	 9.042449265790321e+000
 7.377004230691648e-001	 4.161793204567332e+000	 9.016404645252436e+000
 6.959095721836308e-001	 4.168984844814609e+000	 8.993983316558612e+000
 6.541828423181006e-001	 4.175735820136897e+000	 8.977233495339679e+000
 6.125264841102887e-001	 4.182049268572325e+000	 8.966606068772634e+000
 5.709466444187183e-001	 4.187928431371006e+000	 8.960193721485874e+000
 5.294493646516858e-001	 4.193376649553176e+000	 8.956712240259721e+000
 4.880405792149012e-001	 4.198397360453264e+000	 8.955626988088429e+000
 4.467261140768504e-001	 4.202994094254131e+000	 8.956973334358457e+000
 4.055116854507895e-001	 4.207170470515678e+000	 8.961193901523588e+000
 8.266318782013200e-001	 4.172235421039815e+000	 9.082706543458329e+000
 7.844675771968939e-001	 4.180368368090208e+000	 9.056206570908095e+000
 7.423549156560875e-001	 4.188051879528887e+000	 9.031538847124637e+000
 7.003003869964146e-001	 4.195288895154834e+000	 9.010156741585883e+000
 6.583103839258989e-001	 4.202082465497299e+000	 8.993586221832281e+000
 6.163911965204039e-001	 4.208435748393775e+000	 8.981815675784011e+000
 5.745490104218124e-001	 4.214352005544932e+000	 8.973042177112665e+000
 5.327899051564446e-001	 4.219834599051070e+000	 8.966213287747692e+000
 4.911198525729068e-001	 4.224886987934367e+000	 8.960980085335223e+000
 4.495447153984006e-001	 4.229512724651258e+000	 8.957523419246847e+000
 4.080702459124012e-001	 4.233715451599140e+000	 8.956397167682228e+000
 8.318147790855720e-001	 4.198394928356807e+000	 9.096325707291108e+000
 7.893861120450737e-001	 4.206578868188181e+000	 9.070876663814797e+000
 7.470094082426360e-001	 4.214310554490548e+000	 9.047399024468769e+000
 7.046912018088520e-001	 4.221592945495159e+000	 9.026878490638438e+000
 6.624379255333880e-001	 4.228429110857804e+000	 9.010375960541863e+000
 6.202559089302560e-001	 4.234822228215323e+000	 8.997480381028588e+000
 5.781513764246962e-001	 4.240775579718960e+000	 8.986397415243086e+000
 5.361304456610525e-001	 4.246292548549063e+000	 8.976322354172948e+000
 4.941991259308264e-001	 4.251376615415562e+000	 8.967105924451408e+000
 4.523633167199344e-001	 4.256031355048466e+000	 8.959086813215675e+000
 4.106288063740699e-001	 4.260260432682666e+000	 8.952941372202947e+000
 8.369976799695581e-001	 4.224554435673913e+000	 9.110503735374506e+000
 7.943046468929925e-001	 4.232789368286273e+000	 9.086007618068056e+000
 7.516639008289349e-001	 4.240569229452331e+000	 9.063596630796347e+000
 7.090820166210586e-001	 4.247896995835609e+000	 9.043832964567129e+000
 6.665654671406717e-001	 4.254775756218443e+000	 9.027352010591928e+000
 6.241206213399322e-001	 4.261208708037015e+000	 9.013439542819551e+000
 5.817537424274395e-001	 4.267199153893132e+000	 9.000202541292710e+000
 5.394709861655601e-001	 4.272750498047199e+000	 8.987096474152127e+000
 4.972783992886888e-001	 4.277866242896895e+000	 8.974182115681511e+000
 4.551819180414574e-001	 4.282549985445801e+000	 8.961964802214441e+000
 4.131873668357766e-001	 4.286805413766293e+000	 8.951251038450417e+000
 8.421805808534109e-001	 4.250713942991122e+000	 9.124781565657587e+000
 7.992231817407802e-001	 4.258999868384477e+000	 9.101190259814127e+000
 7.563183934151089e-001	 4.266827904414242e+000	 9.079782063443076e+000
 7.134728314331503e-001	 4.274201046176213e+000	 9.060739161728197e+000
 6.706930087478520e-001	 4.281122401579249e+000	 9.044307334170089e+000
 6.279853337495213e-001	 4.287595187858888e+000	 9.029559194918850e+000
 5.853561084301131e-001	 4.293622728067493e+000	 9.014421200396161e+000
 5.428115266700170e-001	 4.299208447545529e+000	 8.998607004868772e+000
 5.003576726465228e-001	 4.304355870378412e+000	 8.982394225403468e+000
 4.580005193629747e-001	 4.309068615843296e+000	 8.966460045057421e+000
 4.157459272975020e-001	 4.313350394850049e+000	 8.951745195647945e+000
 8.473634817372634e-001	 4.276873450308417e+000	 9.138745245220985e+000
 8.041417165885678e-001	 4.285210368482794e+000	 9.116057459305845e+000
 7.609728860012828e-001	 4.293086579376300e+000	 9.095644152088928e+000
 7.178636462452411e-001	 4.300505096516986e+000	 9.077350367637880e+000
 6.748205503550323e-001	 4.307469046940256e+000	 9.061075487237160e+000
 6.318500461591106e-001	 4.313981667680984e+000	 9.045732019505877e+000
 5.889584744327866e-001	 4.320046302242091e+000	 9.029037746076112e+000
 5.461520671744742e-001	 4.325666397044096e+000	 9.010939999453715e+000
 5.034369460043564e-001	 4.330845497860159e+000	 8.991936361661324e+000
 4.608191206844920e-001	 4.335587246240998e+000	 8.972877376986936e+000
 4.183044877592277e-001	 4.339895375933969e+000	 8.954838404800624e+000
 8.525463826212494e-001	 4.303032957625782e+000	 9.152025027315577e+000
 8.090602514364863e-001	 4.311420868581226e+000	 9.130283416553111e+000
 7.656273785875816e-001	 4.319345254338512e+000	 9.110909637479633e+000
 7.222544610574481e-001	 4.326809146857958e+000	 9.093453830580337e+000
 6.789480919623159e-001	 4.333815692301495e+000	 9.077511603688610e+000
 6.357147585687870e-001	 4.340368147503342e+000	 9.061877296741008e+000
 5.925608404355304e-001	 4.346469876416972e+000	 9.044057380428573e+000
 5.494926076789813e-001	 4.352124346542950e+000	 9.024196546567177e+000
 5.065162193622189e-001	 4.357335125342182e+000	 9.003011720368521e+000
 4.636377220060149e-001	 4.362105876638947e+000	 8.981524568180818e+000
 4.208630482209342e-001	 4.366440357018083e+000	 8.960941733660192e+000
 8.577292835055019e-001	 4.329192464943204e+000	 9.164294466224096e+000
 8.139787862846666e-001	 4.337631368679769e+000	 9.143582941354092e+000
 7.702818711741304e-001	 4.345603929300893e+000	 9.125342640764032e+000
 7.266452758698856e-001	 4.353113197199152e+000	 9.108870423763372e+000
 6.830756335698049e-001	 4.360162337663001e+000	 9.093500164058366e+000
 6.395794709786391e-001	 4.366754627326000e+000	 9.077940831913367e+000
 5.961632064384143e-001	 4.372893450592176e+000	 9.059506267029519e+000
 5.528331481835894e-001	 4.378582296042136e+000	 9.038493077612683e+000
 5.095954927201386e-001	 4.383824752824525e+000	 9.015833093846242e+000
 4.664563233275486e-001	 4.388624507037183e+000	 8.992713039109953e+000
 4.234216086826029e-001	 4.392985338102428e+000	 8.970463682886043e+000
 8.629121843901538e-001	 4.355351972260665e+000	 9.175269510036868e+000
 8.188973211332394e-001	 4.363841868778422e+000	 9.155710727943005e+000
 7.749363637610531e-001	 4.371862604263454e+000	 9.138744123841494e+000
 7.310360906826695e-001	 4.379417247540587e+000	 9.123454294586995e+000
 6.872031751776031e-001	 4.386508983024806e+000	 9.108954846177216e+000
 6.434441833887548e-001	 4.393141107149004e+000	 9.093894861115720e+000
 5.997655724415082e-001	 4.399317024767751e+000	 9.075431617709551e+000
 5.561736886883482e-001	 4.405040245541704e+000	 9.053961642943207e+000
 5.126747660781442e-001	 4.410314380307236e+000	 9.030623343280073e+000
 4.692749246490988e-001	 4.415143137435748e+000	 9.006758534559845e+000
 4.259801691442147e-001	 4.419530319187034e+000	 8.983811065455136e+000
 8.680950852753391e-001	 4.381511479578151e+000	 9.184707591428849e+000
 8.238158559823361e-001	 4.390052368877189e+000	 9.166460624479651e+000
 7.795908563484760e-001	 4.398121279226209e+000	 9.150951341095373e+000
 7.354269054959154e-001	 4.405721297882294e+000	 9.137092501563759e+000
 6.913307167858134e-001	 4.412855628386947e+000	 9.123818349646868e+000
 6.473088957992209e-001	 4.419527586972392e+000	 9.109737936343793e+000
 6.033679384448826e-001	 4.425740598943745e+000	 9.091901754289193e+000
 5.595142291933083e-001	 4.431498195041700e+000	 9.070750158356169e+000
 5.157540394362644e-001	 4.436804007790360e+000	 9.047615836603134e+000
 4.720935259706708e-001	 4.441661767834681e+000	 9.023981758044517e+000
 4.285387296057504e-001	 4.446075300271935e+000	 9.001389841274149e+000
 4.029531249892538e-001	 4.180625489432248e+000	 8.966900477072754e+000
 3.620976067863624e-001	 4.184362021505855e+000	 8.975348532134216e+000
 3.213526407327571e-001	 4.187688172694503e+000	 8.979163401922317e+000
 2.807236575465107e-001	 4.190607788155261e+000	 8.981247494481661e+000
 2.402159721721477e-001	 4.193124788175180e+000	 8.984481213076863e+000
 1.998347830423366e-001	 4.195243164716059e+000	 8.991609230580902e+000
 1.595851714486658e-001	 4.196966977977436e+000	 9.005134760015377e+000
 1.194721010194017e-001	 4.198300352981236e+000	 9.027220666275328e+000
 7.950041730204928e-002	 4.199247476181253e+000	 9.059596357406443e+000
 3.967484744844285e-002	 4.199812592100591e+000	 9.103469489558778e+000
 0.000000000000000e+000	 4.200000000000001e+000	 9.159441617320754e+000
 4.055116854507895e-001	 4.207170470515678e+000	 8.961193901523588e+000
 3.643967541624681e-001	 4.210930727788929e+000	 8.964309357203778e+000
 3.233930769768961e-001	 4.214277998454132e+000	 8.963354988192782e+000
 2.825061190946209e-001	 4.217216152083235e+000	 8.960562203362731e+000
 2.417412292075336e-001	 4.219749133855214e+000	 8.958135576272806e+000
 2.011036387558750e-001	 4.221880961078892e+000	 8.958145409727100e+000
 1.605984612950160e-001	 4.223615719734105e+000	 8.962428019873443e+000
 1.202306919698988e-001	 4.224957561034674e+000	 8.972492532447308e+000
 8.000520709494793e-002	 4.225910698016350e+000	 8.989433083204911e+000
 3.992676383716123e-002	 4.226479402152904e+000	 9.013845416429119e+000
 0.000000000000000e+000	 4.226668000003317e+000	 9.045746978882534e+000
 4.080702459124012e-001	 4.233715451599140e+000	 8.956397167682228e+000
 3.666959015387499e-001	 4.237499434072024e+000	 8.954439443160334e+000
 3.254335132213082e-001	 4.240867824213765e+000	 8.949065732656553e+000
 2.842885806430887e-001	 4.243824516011196e+000	 8.941929620217969e+000
 2.432664862433427e-001	 4.246373479535219e+000	 8.934651683654295e+000
 2.023724944698756e-001	 4.248518757441675e+000	 8.928718628587840e+000
 1.616117511418327e-001	 4.250264461490711e+000	 8.925389849581135e+000
 1.209892829208255e-001	 4.251614769088035e+000	 8.925610156843444e+000
 8.050999688819097e-002	 4.252573919851358e+000	 8.929927512779395e+000
 4.017868022608303e-002	 4.253146212205121e+000	 8.938414730797769e+000
 0.000000000000000e+000	 4.253336000006533e+000	 8.950594198430100e+000
 4.106288063740699e-001	 4.260260432682666e+000	 8.952941372202947e+000
 3.689950489151643e-001	 4.264068140355160e+000	 8.946292840925803e+000
 3.274739494659248e-001	 4.267457649973411e+000	 8.936957047476845e+000
 2.860710421918249e-001	 4.270432879939134e+000	 8.926098112652076e+000
 2.447917432794692e-001	 4.272997825215163e+000	 8.914839738711077e+000
 2.036413501842226e-001	 4.275156553804367e+000	 8.904171207763044e+000
 1.626250409889994e-001	 4.276913203247188e+000	 8.894860497991687e+000
 1.217478738720746e-001	 4.278271977141238e+000	 8.887373200396359e+000
 8.101478668169221e-002	 4.279237141686184e+000	 8.881796031054590e+000
 4.043059661515737e-002	 4.279813022257143e+000	 8.877763848600496e+000
 0.000000000000000e+000	 4.280004000009551e+000	 8.874389202633378e+000
 4.131873668357766e-001	 4.286805413766293e+000	 8.951251038450417e+000
 3.712941962916668e-001	 4.290636846638357e+000	 8.940409672946387e+000
 3.295143857106780e-001	 4.294047475733071e+000	 8.927668858027790e+000
 2.878535037407400e-001	 4.297041243867040e+000	 8.913786774807608e+000
 2.463170003158075e-001	 4.299622170895022e+000	 8.899472632476103e+000
 2.049102058988005e-001	 4.301794350166915e+000	 8.885299841644304e+000
 1.636383308363993e-001	 4.303561945003477e+000	 8.871625978566103e+000
 1.225064648235386e-001	 4.304929185194208e+000	 8.858518165342366e+000
 8.151957647536566e-002	 4.305900363520745e+000	 8.845682610335052e+000
 4.068251300433339e-002	 4.306479832308872e+000	 8.832397174487074e+000
 0.000000000000000e+000	 4.306672000012267e+000	 8.817445951892520e+000
 4.157459272975020e-001	 4.313350394850049e+000	 8.951745195647945e+000
 3.735933436682135e-001	 4.317205552921639e+000	 8.937317440964266e+000
 3.315548219554992e-001	 4.320637301492754e+000	 8.921821134170527e+000
 2.896359652897446e-001	 4.323649607794899e+000	 8.905687174397102e+000
 2.478422573522515e-001	 4.326246516574762e+000	 8.889287895982685e+000
 2.061790616134940e-001	 4.328432146529279e+000	 8.872857743428508e+000
 1.646516206839160e-001	 4.330210686759509e+000	 8.856420391594748e+000
 1.232650557751100e-001	 4.331586393246865e+000	 8.839720876872223e+000
 8.202436626912517e-002	 4.332563585354943e+000	 8.822161431236367e+000
 4.093442939356026e-002	 4.333146642360212e+000	 8.802739839573782e+000
 0.000000000000000e+000	 4.333340000014584e+000	 8.779989270205620e+000
 4.183044877592277e-001	 4.339895375933969e+000	 8.954838404800624e+000
 3.758924910447601e-001	 4.343774259205020e+000	 8.937532274342528e+000
 3.335952582003206e-001	 4.347227127252465e+000	 8.920015355956261e+000
 2.914184268387489e-001	 4.350257971722702e+000	 8.902465028196122e+000
 2.493675143886955e-001	 4.352870862254359e+000	 8.884989575435176e+000
 2.074479173281874e-001	 4.355069942891405e+000	 8.867556707380462e+000
 1.656649105314326e-001	 4.356859428515224e+000	 8.849928158539624e+000
 1.240236467266813e-001	 4.358243601299131e+000	 8.831598872172195e+000
 8.252915606288463e-002	 4.359226807188695e+000	 8.811739406729950e+000
 4.118634578278713e-002	 4.359813452411068e+000	 8.789140338543412e+000
 0.000000000000000e+000	 4.360008000016401e+000	 8.762157571183362e+000
 4.208630482209342e-001	 4.366440357018083e+000	 8.960941733660192e+000
 3.781916384212626e-001	 4.370342965488527e+000	 8.941560121471580e+000
 3.356356944450737e-001	 4.373816953012210e+000	 8.922835916547296e+000
 2.932008883876640e-001	 4.376866335650436e+000	 8.904761809041442e+000
 2.508927714250336e-001	 4.379495207933778e+000	 8.887250033383728e+000
 2.087167730427654e-001	 4.381707739253252e+000	 8.870069091864645e+000
 1.666782003788324e-001	 4.383508170270559e+000	 8.852786172237241e+000
 1.247822376781452e-001	 4.384900809350929e+000	 8.834713700796360e+000
 8.303394585655800e-002	 4.385890029021907e+000	 8.814858613425235e+000
 4.143826217196314e-002	 4.386480262461337e+000	 8.791873070376647e+000
 0.000000000000000e+000	 4.386676000017618e+000	 8.764005484629745e+000
 4.234216086826029e-001	 4.392985338102428e+000	 8.970463682886043e+000
 3.804907857976769e-001	 4.396911671772176e+000	 8.949897886666589e+000
 3.376761306896904e-001	 4.400406778771993e+000	 8.930851465010933e+000
 2.949833499364001e-001	 4.403474699578090e+000	 8.913196287231585e+000
 2.524180284611601e-001	 4.406119553612994e+000	 8.896711679032013e+000
 2.099856287571123e-001	 4.408345535614769e+000	 8.881029726498266e+000
 1.676914902259990e-001	 4.410156912025449e+000	 8.865585866520771e+000
 1.255408286293942e-001	 4.411558017402181e+000	 8.849573140120901e+000
 8.353873565005922e-002	 4.412553250854495e+000	 8.831898634011880e+000
 4.169017856103743e-002	 4.413147072510928e+000	 8.811140786790229e+000
 0.000000000000000e+000	 4.413344000018133e+000	 8.785506387894925e+000
 4.259801691442147e-001	 4.419530319187034e+000	 8.983811065455136e+000
 3.827899331739587e-001	 4.423480378055990e+000	 8.963034514846367e+000
 3.397165669341023e-001	 4.426996604531820e+000	 8.944616191514585e+000
 2.967658114848678e-001	 4.430083063505653e+000	 8.928366009087791e+000
 2.539432854969691e-001	 4.432743899291976e+000	 8.913988630657956e+000
 2.112544844711126e-001	 4.434983331975912e+000	 8.901037746615428e+000
 1.687047800728156e-001	 4.436805653779828e+000	 8.888875208649793e+000
 1.262994195803208e-001	 4.438215225452806e+000	 8.876633329450495e+000
 8.404352544330211e-002	 4.439216472686363e+000	 8.863178814598435e+000
 4.194209494995915e-002	 4.439813882559738e+000	 8.847076952263008e+000
 0.000000000000000e+000	 4.440012000017850e+000	 8.826554846004035e+000
 4.285387296057504e-001	 4.446075300271935e+000	 9.001389841274149e+000
 3.850890805500643e-001	 4.450049084339991e+000	 8.981452026176777e+000
 3.417570031782413e-001	 4.453586430291698e+000	 8.964671057329754e+000
 2.985482730329779e-001	 4.456691427433116e+000	 8.950848715301810e+000
 2.554685425323549e-001	 4.459368244970696e+000	 8.939668312984582e+000
 2.125233401846509e-001	 4.461621128336633e+000	 8.930658358080574e+000
 1.697180699191656e-001	 4.463454395533640e+000	 8.923160617773180e+000
 1.270580105308178e-001	 4.464872433502731e+000	 8.916300826176679e+000
 8.454831523620064e-002	 4.465879694517425e+000	 8.908960440503094e+000
 4.219401133867746e-002	 4.466480692607675e+000	 8.899748019344493e+000
 0.000000000000000e+000	 4.466680000016666e+000	 8.886968964374182e+000
 4.466680000016666e+000	 0.000000000000000e+000	 1.043137441481912e+001
 4.466480692607678e+000	 4.219401133867761e-002	 1.043835359402092e+001
 4.465879694517425e+000	 8.454831523620093e-002	 1.044407964316467e+001
 4.464872433502731e+000	 1.270580105308174e-001	 1.044860941669216e+001
 4.463454395533637e+000	 1.697180699191653e-001	 1.045203056412769e+001
 4.461621128336632e+000	 2.125233401846509e-001	 1.045445863057369e+001
 4.459368244970698e+000	 2.554685425323549e-001	 1.045603391641346e+001
 4.456691427433116e+000	 2.985482730329781e-001	 1.045691777197756e+001
 4.453586430291698e+000	 3.417570031782408e-001	 1.045728794231254e+001
 4.450049084339993e+000	 3.850890805500641e-001	 1.045733251408659e+001
 4.446075300271936e+000	 4.285387296057503e-001	 1.045724195145181e+001
 4.493344001125478e+000	 0.000000000000000e+000	 1.041204889175719e+001
 4.493143503944068e+000	 4.244588995207979e-002	 1.042034581139904e+001
 4.492538918175068e+000	 8.505302933503604e-002	 1.042774326198171e+001
 4.491525644281115e+000	 1.278164877294522e-001	 1.043414508026459e+001
 4.490099141285576e+000	 1.707312078212957e-001	 1.043949352822344e+001
 4.488254930336908e+000	 2.137920056316579e-001	 1.044376800995244e+001
 4.485988598306077e+000	 2.569935708536612e-001	 1.044698382113815e+001
 4.483295801413886e+000	 3.003304672990532e-001	 1.044919060655648e+001
 4.480172268884857e+000	 3.437971334569228e-001	 1.045047013754191e+001
 4.476613806624296e+000	 3.873878831668750e-001	 1.045093295517448e+001
 4.472616300914868e+000	 4.310969064089002e-001	 1.045071335643751e+001
 4.520008008899155e+000	 0.000000000000000e+000	 1.039496675908597e+001
 4.519806321945047e+000	 4.269776862821971e-002	 1.040387153683336e+001
 4.519198148496463e+000	 8.555774355965612e-002	 1.041224866326321e+001
 4.518178861721835e+000	 1.285749651172135e-001	 1.041987927533422e+001
 4.516743893697841e+000	 1.717443459761730e-001	 1.042658722258221e+001
 4.514888738994899e+000	 2.150606713952958e-001	 1.043223934415294e+001
 4.512608958295947e+000	 2.585185995557294e-001	 1.043674606871476e+001
 4.509900182045277e+000	 3.021126620102522e-001	 1.044006201302548e+001
 4.506758114124131e+000	 3.458372642453049e-001	 1.044218618843991e+001
 4.503178535549549e+000	 3.896866863581595e-001	 1.044316135524134e+001
 4.499157308192905e+000	 4.336550838514770e-001	 1.044307199280159e+001
 4.546672030003566e+000	 0.000000000000000e+000	 1.038034455585986e+001
 4.546469153276179e+000	 4.294964743008928e-002	 1.038920561690332e+001
 4.545857392146254e+000	 8.606245803627632e-002	 1.039791903162933e+001
 4.544832092488003e+000	 1.293334428837648e-001	 1.040617313836232e+001
 4.543388659431392e+000	 1.727574846371274e-001	 1.041369983611556e+001
 4.541522560968784e+000	 2.163293377927727e-001	 1.042027636557881e+001
 4.539229331595075e+000	 2.600436290198506e-001	 1.042572772079547e+001
 4.536504575978026e+000	 3.038948576121461e-001	 1.042992936827108e+001
 4.533343972655578e+000	 3.478773960534280e-001	 1.043280988068366e+001
 4.529743277756488e+000	 3.919854906986114e-001	 1.043435301965807e+001
 4.525698328740825e+000	 4.362132625730023e-001	 1.043459872669074e+001
 4.573336071104578e+000	 0.000000000000000e+000	 1.036850298895094e+001
 4.573132004603027e+000	 4.320152642068042e-002	 1.037670594793580e+001
 4.572516655789086e+000	 8.656717289111188e-002	 1.038514115434237e+001
 4.571485343242733e+000	 1.300919212187695e-001	 1.039343363997488e+001
 4.570033445147191e+000	 1.737706240574890e-001	 1.040124930632252e+001
 4.568156402916756e+000	 2.175980051412970e-001	 1.040829815337967e+001
 4.565849724858240e+000	 2.615686596273152e-001	 1.041433846503311e+001
 4.563108989862871e+000	 3.056770545503059e-001	 1.041918162939226e+001
 4.559929851125256e+000	 3.499175293913336e-001	 1.042269719967864e+001
 4.556308039885856e+000	 3.942842967629248e-001	 1.042481772517457e+001
 4.552239369193409e+000	 4.387714432129977e-001	 1.042554280274057e+001
 4.600000138868055e+000	 0.000000000000000e+000	 1.035986392515009e+001
 4.599794882591152e+000	 4.345340566298505e-002	 1.036681079423812e+001
 4.599175946089608e+000	 8.707188825037808e-002	 1.037436305826071e+001
 4.598138620649134e+000	 1.308504003118912e-001	 1.038211153282816e+001
 4.596678257506200e+000	 1.747837644905879e-001	 1.038968156983885e+001
 4.594790271496990e+000	 2.188666737580766e-001	 1.039673767801513e+001
 4.592470144740218e+000	 2.630936917594146e-001	 1.040298944453106e+001
 4.589713430350549e+000	 3.074592532703026e-001	 1.040819843842584e+001
 4.586515756179225e+000	 3.519576647690627e-001	 1.041218570044813e+001
 4.582872828578392e+000	 3.965831051257931e-001	 1.041483934434131e+001
 4.578780436185433e+000	 4.413296264109848e-001	 1.041612171185892e+001
 4.626664239959867e+000	 0.000000000000000e+000	 1.035494748780022e+001
 4.626457793906115e+000	 4.370528521999508e-002	 1.036003619972005e+001
 4.625835269712468e+000	 8.757660424029021e-002	 1.036609172977275e+001
 4.624791931370330e+000	 1.316088803527934e-001	 1.037269937279051e+001
 4.623323103169381e+000	 1.757969061897542e-001	 1.037946887739332e+001
 4.621424173367672e+000	 2.201353439603201e-001	 1.038604040208265e+001
 4.619090597895790e+000	 2.646187257974394e-001	 1.039209213618758e+001
 4.616317904091795e+000	 3.092414542177068e-001	 1.039734926938066e+001
 4.613101694463548e+000	 3.539978026966565e-001	 1.040159391403785e+001
 4.609437650474842e+000	 3.988819163619110e-001	 1.040467550145310e+001
 4.605321536351673e+000	 4.438878128064857e-001	 1.040652108634500e+001
 4.653328381045878e+000	 0.000000000000000e+000	 1.035436925376400e+001
 4.653120745213482e+000	 4.395716515470247e-002	 1.035697348915263e+001
 4.652494633322307e+000	 8.808132098706338e-002	 1.036089091437511e+001
 4.651445282069430e+000	 1.323673615311397e-001	 1.036572961049107e+001
 4.649967988797696e+000	 1.768100494083182e-001	 1.037110817057914e+001
 4.648058115186988e+000	 2.214040160652356e-001	 1.037666293514271e+001
 4.645711090979728e+000	 2.661437621226807e-001	 1.038205727596424e+001
 4.642922417737346e+000	 3.110236578380899e-001	 1.038699261587462e+001
 4.639687672624278e+000	 3.560379436841560e-001	 1.039122078896284e+001
 4.636002512215940e+000	 4.011807310459719e-001	 1.039455725874201e+001
 4.631862676326912e+000	 4.464460030390216e-001	 1.039689462124114e+001
 4.679992568791956e+000	 0.000000000000000e+000	 1.035889944951255e+001
 4.679783743178811e+000	 4.420904553009910e-002	 1.035851022725838e+001
 4.679154043583775e+000	 8.858603861691294e-002	 1.035970440612559e+001
 4.678098679409549e+000	 1.331258440365935e-001	 1.036212844795361e+001
 4.676612921052107e+000	 1.778231943996098e-001	 1.036543711951052e+001
 4.674692103613120e+000	 2.226726903900312e-001	 1.036930109011400e+001
 4.672331630646809e+000	 2.676688011164292e-001	 1.037341509373877e+001
 4.669526977937935e+000	 3.128058645770228e-001	 1.037750671773367e+001
 4.666273697307479e+000	 3.580780882416026e-001	 1.038134516629027e+001
 4.662567420442431e+000	 4.034795497526699e-001	 1.038468883160613e+001
 4.658403862745927e+000	 4.490041977481146e-001	 1.038736402086404e+001
 4.706656809863968e+000	 0.000000000000000e+000	 1.036795339643234e+001
 4.706446794467666e+000	 4.446092640917691e-002	 1.036521432770951e+001
 4.705813507161521e+000	 8.909075725605414e-002	 1.036409200199870e+001
 4.704752130053802e+000	 1.338843280588184e-001	 1.036427270346188e+001
 4.703257906593572e+000	 1.788363414169591e-001	 1.036545002620032e+001
 4.701326145304251e+000	 2.239413672519153e-001	 1.036733221172569e+001
 4.698952223551813e+000	 2.691938431599761e-001	 1.036965003555823e+001
 4.696131591344302e+000	 3.145880748800765e-001	 1.037216530707062e+001
 4.692859775159207e+000	 3.601182368790375e-001	 1.037468005202106e+001
 4.689132381795057e+000	 4.057783730566991e-001	 1.037704645242244e+001
 4.684945102243493e+000	 4.515623975732859e-001	 1.037917762341303e+001
 4.733321110927780e+000	 0.000000000000000e+000	 1.037798253547344e+001
 4.733109905745614e+000	 4.471280785492782e-002	 1.037410958841578e+001
 4.732473030720188e+000	 8.959547703070217e-002	 1.037163775083091e+001
 4.731405640665302e+000	 1.346428137874779e-001	 1.037031829343596e+001
 4.729902952083056e+000	 1.798494907136964e-001	 1.036990762183225e+001
 4.727960246918567e+000	 2.252100469680961e-001	 1.037017427361248e+001
 4.725572876349514e+000	 2.707188886346120e-001	 1.037090644811338e+001
 4.722736264607185e+000	 3.163702891928218e-001	 1.037192013509203e+001
 4.719445912825525e+000	 3.621583901065016e-001	 1.037306791424752e+001
 4.715697402914556e+000	 4.080772015327532e-001	 1.037424850303410e+001
 4.711486401454396e+000	 4.541206031540578e-001	 1.037541713555747e+001
 4.446075300271936e+000	 4.285387296057503e-001	 1.045724195145181e+001
 4.441661767834682e+000	 4.720935259706711e-001	 1.045741870621485e+001
 4.436804007790361e+000	 5.157540394362641e-001	 1.045861065956311e+001
 4.431498195041699e+000	 5.595142291933083e-001	 1.046153557852000e+001
 4.425740598943744e+000	 6.033679384448822e-001	 1.046691121718272e+001
 4.419527586972393e+000	 6.473088957992210e-001	 1.047542836960381e+001
 4.412855628386947e+000	 6.913307167858135e-001	 1.048692266215122e+001
 4.405721297882294e+000	 7.354269054959151e-001	 1.049796660708524e+001
 4.398121279226208e+000	 7.795908563484759e-001	 1.050815263558722e+001
 4.390052368877188e+000	 8.238158559823358e-001	 1.051755822110932e+001
 4.381511479578153e+000	 8.680950852753392e-001	 1.052626108770970e+001
 4.472616300914868e+000	 4.310969064089002e-001	 1.045071335643751e+001
 4.468176421743035e+000	 4.749117046406274e-001	 1.045053237920519e+001
 4.463289663131958e+000	 5.188328510548873e-001	 1.045146032246774e+001
 4.457952177150323e+000	 5.628542687816454e-001	 1.045419568165486e+001
 4.452160210882960e+000	 6.069697642707739e-001	 1.045945712672861e+001
 4.445910110121298e+000	 6.511730286932238e-001	 1.046796020045911e+001
 4.439198323047760e+000	 6.954576394661729e-001	 1.047929985623455e+001
 4.432021403909766e+000	 7.398170619033307e-001	 1.049006828913070e+001
 4.424376016678721e+000	 7.842446509914089e-001	 1.049996164065914e+001
 4.416258938689485e+000	 8.287336532936123e-001	 1.050899489221419e+001
 4.407667064255488e+000	 8.732772089808063e-001	 1.051719112665048e+001
 4.499157308192905e+000	 4.336550838514770e-001	 1.044307199280159e+001
 4.494691082279964e+000	 4.777298840151175e-001	 1.044285696823661e+001
 4.489775325094918e+000	 5.219116634433038e-001	 1.044380517866616e+001
 4.484406165872398e+000	 5.661943092051770e-001	 1.044659380307957e+001
 4.478579829427026e+000	 6.105715909973927e-001	 1.045193902018555e+001
 4.472292639865749e+000	 6.550371625536072e-001	 1.046057652003638e+001
 4.465541024294119e+000	 6.995845631786763e-001	 1.047182734463499e+001
 4.458321516512072e+000	 7.442072194087523e-001	 1.048242332419760e+001
 4.450630760694662e+000	 7.888984467982982e-001	 1.049213747360152e+001
 4.442465515053096e+000	 8.336514518348713e-001	 1.050093177297458e+001
 4.433822655471317e+000	 8.784593339823469e-001	 1.050878304877556e+001
 4.525698328740825e+000	 4.362132625730023e-001	 1.043459872669074e+001
 4.521205756073643e+000	 4.805480647986484e-001	 1.043461510085352e+001
 4.516261000300145e+000	 5.249904773711638e-001	 1.043581793536692e+001
 4.510860167820908e+000	 5.695343512988462e-001	 1.043885981069269e+001
 4.504999461180328e+000	 6.141734195251155e-001	 1.044444968129822e+001
 4.498675182800866e+000	 6.589012983463134e-001	 1.045333737434036e+001
 4.491883738711193e+000	 7.037114889549527e-001	 1.046454738215318e+001
 4.484621642263761e+000	 7.485973791096093e-001	 1.047505844105961e+001
 4.476885517837253e+000	 7.935522449324756e-001	 1.048469020298738e+001
 4.468672104519222e+000	 8.385692528354408e-001	 1.049336076464756e+001
 4.459978259764122e+000	 8.836414615753685e-001	 1.050100866482218e+001
 4.552239369193409e+000	 4.387714432129977e-001	 1.042554280274057e+001
 4.547720449752237e+000	 4.833662476957265e-001	 1.042599299585975e+001
 4.542746695368543e+000	 5.280692936081171e-001	 1.042763107334166e+001
 4.537314189608826e+000	 5.728743958975963e-001	 1.043108046919497e+001
 4.531419112747249e+000	 6.177752507543191e-001	 1.043703682333063e+001
 4.525057745521771e+000	 6.627654370372837e-001	 1.044625664685877e+001
 4.518226472884162e+000	 7.078384178266318e-001	 1.045745657504162e+001
 4.510921787739378e+000	 7.529875421033310e-001	 1.046795253249315e+001
 4.503140294669723e+000	 7.982060465572731e-001	 1.047758049060397e+001
 4.494878713639076e+000	 8.434870575246495e-001	 1.048622339943709e+001
 4.486133883672388e+000	 8.888235930552790e-001	 1.049378905299954e+001
 4.578780436185433e+000	 4.413296264109848e-001	 1.041612171185892e+001
 4.574235169943915e+000	 4.861844334108586e-001	 1.041714057169272e+001
 4.569232416921015e+000	 5.311481129238141e-001	 1.041933720161201e+001
 4.563768237849136e+000	 5.762144438363704e-001	 1.042330004626796e+001
 4.557838790732178e+000	 6.213770855853804e-001	 1.042970395134378e+001
 4.551440334623584e+000	 6.666295795924608e-001	 1.043930318094754e+001
 4.544569233398201e+000	 7.119653508253427e-001	 1.045050648613941e+001
 4.537221959513468e+000	 7.573777094873466e-001	 1.046103743903550e+001
 4.529395097755288e+000	 8.028598528360238e-001	 1.047072055335040e+001
 4.521085348963855e+000	 8.484048671318256e-001	 1.047941197974863e+001
 4.512289533734597e+000	 8.940057297174857e-001	 1.048699587450680e+001
 4.605321536351673e+000	 4.438878128064857e-001	 1.040652108634500e+001
 4.600749923276847e+000	 4.890026226485517e-001	 1.040817157845131e+001
 4.595718171578466e+000	 5.342269360879051e-001	 1.041098943230491e+001
 4.590222319154813e+000	 5.795544959501117e-001	 1.041552093563690e+001
 4.584258501739503e+000	 6.249789249186765e-001	 1.042241123827919e+001
 4.577822956701428e+000	 6.704937269777870e-001	 1.043238712745102e+001
 4.570912026838485e+000	 7.160922889827146e-001	 1.044360424828396e+001
 4.563522164160577e+000	 7.617678823590853e-001	 1.045419873856408e+001
 4.555649933657178e+000	 8.075136649320591e-001	 1.046397512871963e+001
 4.547292017044766e+000	 8.533226828862969e-001	 1.047277071901417e+001
 4.538445216489230e+000	 8.991878728573967e-001	 1.048045268883320e+001
 4.631862676326912e+000	 4.464460030390216e-001	 1.039689462124114e+001
 4.627264716379196e+000	 4.918208161133120e-001	 1.039916375262295e+001
 4.622203965961801e+000	 5.373057638700399e-001	 1.040260177486320e+001
 4.616676440138840e+000	 5.828945530737638e-001	 1.040770429633844e+001
 4.610678252373610e+000	 6.285807696545841e-001	 1.041507641429391e+001
 4.604205618350422e+000	 6.743578801592035e-001	 1.042537894119258e+001
 4.597254859790193e+000	 7.202192333303771e-001	 1.043661318566485e+001
 4.589822408255249e+000	 7.661580618159762e-001	 1.044727654146172e+001
 4.581904808938610e+000	 8.121674840087109e-001	 1.045716244372057e+001
 4.573498724433014e+000	 8.582405060173919e-001	 1.046609688402522e+001
 4.564600938474771e+000	 9.043700237704185e-001	 1.047393626885141e+001
 4.658403862745927e+000	 4.490041977481146e-001	 1.038736402086404e+001
 4.653779555879138e+000	 4.946390145096463e-001	 1.039015899359929e+001
 4.648689806691922e+000	 5.403845970398687e-001	 1.039414954883578e+001
 4.643130607414196e+000	 5.862346160422692e-001	 1.039977070754472e+001
 4.637098049238887e+000	 6.321826206934798e-001	 1.040757566881861e+001
 4.630588326165689e+000	 6.782220401026525e-001	 1.041812577327990e+001
 4.623597738838499e+000	 7.243461848999591e-001	 1.042935344279990e+001
 4.616122698372031e+000	 7.705482489554486e-001	 1.044006629114306e+001
 4.608159730162813e+000	 8.168213112293123e-001	 1.045005518710265e+001
 4.599705477679802e+000	 8.631583377544388e-001	 1.045914193871501e+001
 4.590756706229706e+000	 9.095521837519599e-001	 1.046717791571501e+001
 4.684945102243493e+000	 4.515623975732859e-001	 1.037917762341303e+001
 4.680294448404837e+000	 4.974572185420616e-001	 1.038177668666561e+001
 4.675175700389737e+000	 5.434634363670420e-001	 1.038579260616212e+001
 4.669584827593855e+000	 5.895746856905717e-001	 1.039162453829829e+001
 4.663517898939720e+000	 6.357844789357413e-001	 1.039974456483457e+001
 4.656971086742348e+000	 6.820862077740765e-001	 1.041043417862710e+001
 4.649940670568578e+000	 7.284731447230901e-001	 1.042160262082911e+001
 4.642423041085466e+000	 7.749384448749320e-001	 1.043231956972875e+001
 4.634414703893005e+000	 8.214751477571947e-001	 1.044238148475227e+001
 4.625912283336335e+000	 8.680761793267663e-001	 1.045161268933388e+001
 4.616912526292515e+000	 9.147343540974277e-001	 1.045986477357128e+001
 4.711486401454396e+000	 4.541206031540578e-001	 1.037541713555747e+001
 4.706809400584461e+000	 5.002754289150643e-001	 1.037718521469235e+001
 4.701661653676148e+000	 5.465422826212096e-001	 1.038038350281867e+001
 4.696039107290806e+000	 5.929147628536142e-001	 1.038540583032070e+001
 4.689937808080498e+000	 6.393863452817449e-001	 1.039273867836168e+001
 4.683353906675524e+000	 6.859503841394172e-001	 1.040270184361413e+001
 4.676283661565610e+000	 7.326001138313998e-001	 1.041328365644849e+001
 4.668723442970103e+000	 7.793286506718558e-001	 1.042375230240845e+001
 4.660669736692414e+000	 8.261289947556906e-001	 1.043382587813645e+001
 4.652119147953820e+000	 8.729940319637025e-001	 1.044317243096529e+001
 4.643068405201682e+000	 9.199165361022299e-001	 1.045164114410017e+001
 4.381511479578153e+000	 8.680950852753392e-001	 1.052626108770970e+001
 4.372494256268734e+000	 9.124282726195251e-001	 1.053365810028241e+001
 4.362999102610631e+000	 9.568017434643775e-001	 1.053948437804104e+001
 4.353023304130100e+000	 1.001208360994867e+000	 1.054431020926535e+001
 4.342564276822998e+000	 1.045640891710206e+000	 1.054867418330497e+001
 4.331619570558887e+000	 1.090092008085801e+000	 1.055306533594153e+001
 4.320186872431323e+000	 1.134554291362543e+000	 1.055789906912417e+001
 4.308264010049258e+000	 1.179020234462681e+000	 1.056349292180146e+001
 4.295848954764352e+000	 1.223482245031362e+000	 1.057003671378498e+001
 4.282939824829096e+000	 1.267932648602656e+000	 1.057755890679893e+001
 4.269534888480566e+000	 1.312363691888676e+000	 1.058588842459816e+001
 4.407667064255488e+000	 8.732772089808063e-001	 1.051719112665048e+001
 4.398596012318690e+000	 9.178750448236624e-001	 1.052398764353899e+001
 4.389044177011387e+000	 9.625134046409613e-001	 1.052918725113150e+001
 4.379008827655715e+000	 1.007185109014209e+000	 1.053336092897428e+001
 4.368487364822227e+000	 1.051882881261982e+000	 1.053705992079883e+001
 4.357477323754350e+000	 1.096599350117776e+000	 1.054079860646978e+001
 4.345976377738679e+000	 1.141327052535939e+000	 1.054503179453735e+001
 4.333982341416010e+000	 1.186058436624959e+000	 1.055013121548516e+001
 4.321493174027922e+000	 1.230785864707158e+000	 1.055635675204006e+001
 4.308506982593759e+000	 1.275501616503612e+000	 1.056382379303585e+001
 4.295022025012785e+000	 1.320197892442914e+000	 1.057246601396396e+001
 4.433822655471317e+000	 8.784593339823469e-001	 1.050878304877556e+001
 4.424697774893605e+000	 9.233218183900277e-001	 1.051517635193685e+001
 4.415089257922868e+000	 9.682250672459721e-001	 1.051998190397491e+001
 4.404994357677095e+000	 1.013161858528212e+000	 1.052376634790948e+001
 4.394410459301542e+000	 1.058124872374679e+000	 1.052708819682371e+001
 4.383335083413516e+000	 1.103106693776948e+000	 1.053047904666606e+001
 4.371765889492628e+000	 1.148099815402816e+000	 1.053442471732075e+001
 4.359700679211524e+000	 1.193096640547001e+000	 1.053934134919713e+001
 4.347137399701697e+000	 1.238089486208987e+000	 1.054554803158277e+001
 4.334074146749346e+000	 1.283070586296851e+000	 1.055323523392204e+001
 4.320509167915921e+000	 1.328032094955653e+000	 1.056242863767106e+001
 4.459978259764122e+000	 8.836414615753685e-001	 1.050100866482218e+001
 4.450799550518535e+000	 9.287685946801909e-001	 1.050717184508668e+001
 4.441134351855977e+000	 9.739367327072045e-001	 1.051178555947772e+001
 4.430979900690285e+000	 1.019138611030946e+000	 1.051540726250015e+001
 4.420333566741421e+000	 1.064366866608685e+000	 1.051859530268113e+001
 4.409192856000539e+000	 1.109614040690050e+000	 1.052189157468046e+001
 4.397555414140287e+000	 1.154872581656271e+000	 1.052580351038968e+001
 4.385419029865138e+000	 1.200134847988272e+000	 1.053078139892193e+001
 4.372781638196507e+000	 1.245393111362680e+000	 1.053719218150079e+001
 4.359641323687431e+000	 1.290639559874549e+000	 1.054528904845681e+001
 4.345996323561553e+000	 1.335866301385387e+000	 1.055517436151071e+001
 4.486133883672388e+000	 8.888235930552790e-001	 1.049378905299954e+001
 4.476901345718530e+000	 9.342153750557224e-001	 1.049987127419300e+001
 4.467179465321620e+000	 9.796484024524531e-001	 1.050446588867523e+001
 4.456965463191335e+000	 1.025115368016482e+000	 1.050811560851992e+001
 4.446256693622319e+000	 1.070608865524384e+000	 1.051137169382942e+001
 4.435050647979574e+000	 1.116121392483815e+000	 1.051477803168901e+001
 4.423344958128768e+000	 1.161645352989399e+000	 1.051885409925755e+001
 4.411137399806195e+000	 1.207173060708235e+000	 1.052407356944141e+001
 4.398425895923182e+000	 1.252696741994063e+000	 1.053083935709631e+001
 4.385208519799599e+000	 1.298208539128881e+000	 1.053945447382301e+001
 4.371483498321260e+000	 1.343700513690607e+000	 1.055005085317952e+001
 4.512289533734597e+000	 8.940057297174857e-001	 1.048699587450680e+001
 4.503003167018644e+000	 9.396621608781911e-001	 1.049312281128392e+001
 4.493224604830710e+000	 9.853600779095113e-001	 1.049784266967129e+001
 4.482951051676290e+000	 1.031092130978891e+000	 1.050167745760609e+001
 4.472179846424698e+000	 1.076850870682165e+000	 1.050516397530048e+001
 4.460908465814776e+000	 1.122628750784973e+000	 1.050883932355212e+001
 4.449134527905187e+000	 1.168418131095294e+000	 1.051322495493799e+001
 4.436855795464037e+000	 1.214211280466358e+000	 1.051880663321692e+001
 4.424070179292549e+000	 1.260000379928967e+000	 1.052601081921489e+001
 4.410775741477422e+000	 1.305777525952022e+000	 1.053517687935450e+001
 4.396970698566631e+000	 1.351534733829807e+000	 1.054640393789868e+001
 4.538445216489230e+000	 8.991878728573967e-001	 1.048045268883320e+001
 4.529105020943929e+000	 9.451089535091676e-001	 1.048672713670440e+001
 4.519269776894151e+000	 9.910717605061750e-001	 1.049168944363250e+001
 4.508936672641196e+000	 1.037068901412242e+000	 1.049583452508766e+001
 4.498103031629028e+000	 1.083092883642414e+000	 1.049967688267883e+001
 4.486766315970298e+000	 1.129136117220259e+000	 1.050373755775118e+001
 4.474924129916655e+000	 1.175190917667052e+000	 1.050852938214598e+001
 4.462574223268007e+000	 1.221249509022102e+000	 1.051453836489492e+001
 4.449714494715444e+000	 1.267304026993219e+000	 1.052220150982260e+001
 4.436342995112481e+000	 1.313346522236146e+000	 1.053188047767501e+001
 4.422457930669241e+000	 1.359368963761479e+000	 1.054358186003648e+001
 4.564600938474771e+000	 9.043700237704185e-001	 1.047393626885141e+001
 4.555206914019435e+000	 9.505557543102214e-001	 1.048043892494620e+001
 4.545314988022852e+000	 9.967834516702375e-001	 1.048573516796069e+001
 4.534922332582100e+000	 1.043045680810607e+000	 1.049028598689045e+001
 4.524026255715766e+000	 1.089334905965518e+000	 1.049457525883062e+001
 4.512624204910296e+000	 1.135643493416402e+000	 1.049909817580413e+001
 4.500713770610291e+000	 1.181963714397768e+000	 1.050434780300006e+001
 4.488292689647441e+000	 1.228287748134932e+000	 1.051079797162672e+001
 4.475358848602695e+000	 1.274607685012647e+000	 1.051888262399967e+001
 4.461910287096350e+000	 1.320915529873429e+000	 1.052897103314230e+001
 4.447945201000673e+000	 1.367203205444115e+000	 1.054092855068107e+001
 4.590756706229706e+000	 9.095521837519599e-001	 1.046717791571501e+001
 4.581308852770215e+000	 9.560025646429226e-001	 1.047396832888525e+001
 4.571360244727722e+000	 1.002495152829494e+000	 1.047966586676253e+001
 4.560908037995049e+000	 1.049022470668055e+000	 1.048469029291246e+001
 4.549949525165379e+000	 1.095576939211864e+000	 1.048948602656193e+001
 4.538482139098918e+000	 1.142150881000136e+000	 1.049451208135247e+001
 4.526503456433209e+000	 1.188736522980538e+000	 1.050023003641935e+001
 4.514011201031685e+000	 1.235325999564314e+000	 1.050708851938603e+001
 4.501003247365126e+000	 1.281911355813081e+000	 1.051550417851208e+001
 4.487477623820609e+000	 1.328484550756046e+000	 1.052583856772575e+001
 4.473432515932508e+000	 1.375037460836209e+000	 1.053778411903346e+001
 4.616912526292515e+000	 9.147343540974277e-001	 1.045986477357128e+001
 4.607410843721322e+000	 9.614493858688408e-001	 1.046698246249495e+001
 4.597405553519670e+000	 1.008206865411738e+000	 1.047312627873006e+001
 4.586893795376091e+000	 1.054999272478657e+000	 1.047866697701839e+001
 4.575872846458330e+000	 1.101818984941837e+000	 1.048400015737863e+001
 4.564340125000325e+000	 1.148658281598193e+000	 1.048953776410396e+001
 4.552293193832522e+000	 1.195509345108456e+000	 1.049569757340098e+001
 4.539729763850074e+000	 1.242364265069712e+000	 1.050288935545998e+001
 4.526647697413574e+000	 1.289215041220347e+000	 1.051149757711643e+001
 4.513045011676836e+000	 1.336053586776172e+000	 1.052185766001418e+001
 4.498919881836328e+000	 1.382871731896253e+000	 1.053348534242043e+001
 4.643068405201682e+000	 9.199165361022299e-001	 1.045164114410017e+001
 4.633512893397807e+000	 9.668962193495462e-001	 1.045910688210072e+001
 4.623450920909602e+000	 1.013918590844765e+000	 1.046572145336273e+001
 4.612879611221273e+000	 1.060976087736484e+000	 1.047179846379562e+001
 4.601796226075082e+000	 1.108061044715826e+000	 1.047767463651280e+001
 4.590198169078671e+000	 1.155165696837305e+000	 1.048370341980822e+001
 4.578082989255348e+000	 1.202282182474619e+000	 1.049024584835605e+001
 4.565448384531957e+000	 1.249402546410591e+000	 1.049765852728257e+001
 4.552292205158868e+000	 1.296518743060276e+000	 1.050627817274707e+001
 4.538612457056609e+000	 1.343622639825983e+000	 1.051637261917991e+001
 4.524407305083716e+000	 1.390706020582740e+000	 1.052736615498571e+001
 4.269534888480566e+000	 1.312363691888676e+000	 1.058588842459816e+001
 4.255632565876872e+000	 1.356767545539909e+000	 1.059421684773704e+001
 4.241231428808608e+000	 1.401136305660351e+000	 1.060200168340902e+001
 4.226330206727042e+000	 1.445461999293613e+000	 1.060969015947976e+001
 4.210927790553208e+000	 1.489736588820483e+000	 1.061771849536529e+001
 4.195023235321111e+000	 1.533951975835254e+000	 1.062645764423524e+001
 4.178615762716243e+000	 1.578100005132252e+000	 1.063619939355053e+001
 4.161704763504535e+000	 1.622172468799514e+000	 1.064714130829137e+001
 4.144289799846913e+000	 1.666161110416385e+000	 1.065937048770169e+001
 4.126370607494755e+000	 1.710057629351524e+000	 1.067284611069971e+001
 4.107947097861664e+000	 1.753853685157622e+000	 1.068738075009567e+001
 4.295022025012785e+000	 1.320197892442914e+000	 1.057246601396396e+001
 4.281036712012197e+000	 1.364866816437977e+000	 1.058160819381264e+001
 4.266549606856836e+000	 1.409500437410215e+000	 1.059065691575366e+001
 4.251559431413378e+000	 1.454090734808399e+000	 1.059999694574071e+001
 4.236065069982165e+000	 1.498629623032470e+000	 1.060998568010393e+001
 4.220065571956186e+000	 1.543108955333008e+000	 1.062090791663500e+001
 4.203560154374750e+000	 1.587520527821554e+000	 1.063296185123845e+001
 4.186548204366940e+000	 1.631856083588732e+000	 1.064624390584118e+001
 4.169029281479970e+000	 1.676107316926896e+000	 1.066073235588737e+001
 4.151003119887775e+000	 1.720265877653798e+000	 1.067626973002753e+001
 4.132469630475130e+000	 1.764323375533540e+000	 1.069254395958619e+001
 4.320509167915921e+000	 1.328032094955653e+000	 1.056242863767106e+001
 4.306440864497702e+000	 1.372966089360724e+000	 1.057241674234468e+001
 4.291867791233776e+000	 1.417864571250883e+000	 1.058260450806857e+001
 4.276788662406223e+000	 1.462719472480056e+000	 1.059333892969183e+001
 4.261202355694691e+000	 1.507522659467327e+000	 1.060490902866096e+001
 4.245107914851145e+000	 1.552265937119550e+000	 1.061752568878271e+001
 4.228504552268713e+000	 1.596941052865475e+000	 1.063130757215964e+001
 4.211391651439615e+000	 1.641539700798301e+000	 1.064626585211709e+001
 4.193768769297368e+000	 1.686053525923383e+000	 1.066228772874542e+001
 4.175635638438451e+000	 1.730474128507555e+000	 1.067911869692215e+001
 4.156992169218810e+000	 1.774793068526321e+000	 1.069634354163741e+001
 4.345996323561553e+000	 1.335866301385387e+000	 1.055517436151071e+001
 4.331845029684224e+000	 1.381065366332917e+000	 1.056595567303090e+001
 4.317185988268775e+000	 1.426228709273348e+000	 1.057712842024137e+001
 4.302017906012684e+000	 1.471348214465735e+000	 1.058899241891239e+001
 4.286339653974895e+000	 1.516415700348281e+000	 1.060177856246107e+001
 4.270150270266356e+000	 1.561422923484098e+000	 1.061563584015142e+001
 4.253448962634001e+000	 1.606361582619120e+000	 1.063061719598847e+001
 4.236235110933194e+000	 1.651223322849098e+000	 1.064666418754494e+001
 4.218508269483743e+000	 1.695999739892365e+000	 1.066359040743535e+001
 4.200268169304669e+000	 1.740682384464818e+000	 1.068106363434930e+001
 4.181514720223089e+000	 1.785262766753336e+000	 1.069858668550076e+001
 4.371483498321260e+000	 1.343700513690607e+000	 1.055005085317952e+001
 4.357249213922601e+000	 1.389164649379327e+000	 1.056153397445467e+001
 4.342504204291177e+000	 1.434592853568603e+000	 1.057350953258044e+001
 4.327247168539863e+000	 1.479976962922586e+000	 1.058623125795183e+001
 4.311476971106893e+000	 1.525308747898565e+000	 1.059988196055849e+001
 4.295192644462189e+000	 1.570579916715873e+000	 1.061456053209687e+001
 4.278393391706491e+000	 1.615782119437594e+000	 1.063026777201884e+001
 4.261078589058305e+000	 1.660906952161998e+000	 1.064689099370696e+001
 4.243247788223721e+000	 1.705945961320360e+000	 1.066418737037099e+001
 4.224900718644309e+000	 1.750890648077604e+000	 1.068176598441417e+001
 4.206037289618354e+000	 1.795732472831950e+000	 1.069906854894870e+001
 4.396970698566631e+000	 1.351534733829807e+000	 1.054640393789868e+001
 4.382653423563671e+000	 1.397263940524723e+000	 1.055845693619066e+001
 4.367822445630329e+000	 1.442957006227640e+000	 1.057102614929629e+001
 4.352476456294863e+000	 1.488605720007758e+000	 1.058432735823349e+001
 4.336614313374794e+000	 1.534201804341407e+000	 1.059850513086195e+001
 4.320235043699010e+000	 1.579736919104094e+000	 1.061361983513822e+001
 4.303337845722058e+000	 1.625202665676005e+000	 1.062963345705705e+001
 4.285922092025571e+000	 1.670590591157880e+000	 1.064639417620911e+001
 4.267987331701934e+000	 1.715892192693890e+000	 1.066361965521637e+001
 4.249533292615256e+000	 1.761098921897935e+000	 1.068087900341596e+001
 4.230559883534988e+000	 1.806202189379531e+000	 1.069757338008047e+001
 4.422457930669241e+000	 1.359368963761479e+000	 1.054358186003648e+001
 4.408057664958273e+000	 1.405363241793874e+000	 1.055602664042768e+001
 4.393140718615578e+000	 1.451321169341453e+000	 1.056895450207599e+001
 4.377705775584789e+000	 1.497234487878403e+000	 1.058255122811764e+001
 4.361751687062711e+000	 1.543094871900039e+000	 1.059693278107754e+001
 4.345277474237193e+000	 1.588893932937980e+000	 1.061213235501249e+001
 4.328282330916576e+000	 1.634623223689457e+000	 1.062808621064443e+001
 4.310765626045626e+000	 1.680274242257618e+000	 1.064461824293926e+001
 4.292726906103013e+000	 1.725838436499470e+000	 1.066142323384305e+001
 4.274165897375392e+000	 1.771307208477830e+000	 1.067804874695020e+001
 4.255082508103374e+000	 1.816671919013446e+000	 1.069387562578225e+001
 4.447945201000673e+000	 1.367203205444115e+000	 1.054092855068107e+001
 4.433461944457242e+000	 1.413462555211549e+000	 1.055354245313210e+001
 4.418459029576267e+000	 1.459685345001031e+000	 1.056656925375137e+001
 4.402935132716746e+000	 1.505863268691669e+000	 1.058017250312182e+001
 4.386889098454756e+000	 1.551987952797688e+000	 1.059444898938624e+001
 4.370319942337102e+000	 1.598050960506750e+000	 1.060941585755744e+001
 4.353226853525914e+000	 1.644043795833055e+000	 1.062499648772275e+001
 4.335609197329095e+000	 1.689957907882090e+000	 1.064100507790737e+001
 4.317466517611591e+000	 1.735784695223622e+000	 1.065712988053816e+001
 4.298798539082598e+000	 1.781515510369310e+000	 1.067291504546474e+001
 4.279605169453902e+000	 1.827141664351063e+000	 1.068774102738515e+001
 4.473432515932508e+000	 1.375037460836209e+000	 1.053778411903346e+001
 4.458866268411421e+000	 1.421561882802518e+000	 1.055030151477380e+001
 4.443777384841743e+000	 1.468049535297369e+000	 1.056314400206136e+001
 4.428164533997837e+000	 1.514492064604708e+000	 1.057646047629695e+001
 4.412026553835039e+000	 1.560881049257587e+000	 1.059033777487161e+001
 4.395362454259105e+000	 1.607208004099624e+000	 1.060478789247484e+001
 4.378171419785953e+000	 1.653464384461907e+000	 1.061973392885012e+001
 4.360452812086606e+000	 1.699641590452172e+000	 1.063499471085003e+001
 4.342206172412295e+000	 1.745730971352862e+000	 1.065026803373905e+001
 4.323431223894759e+000	 1.791723830124395e+000	 1.066511247065799e+001
 4.304127873716955e+000	 1.837611428009748e+000	 1.067892770403953e+001
 4.498919881836328e+000	 1.382871731896253e+000	 1.053348534242043e+001
 4.484270643171641e+000	 1.429661226591549e+000	 1.054559923063648e+001
 4.469095790741352e+000	 1.476413742321459e+000	 1.055795178350922e+001
 4.453393985735166e+000	 1.523120877774670e+000	 1.057068462875782e+001
 4.437164059487675e+000	 1.569774163502965e+000	 1.058388366771258e+001
 4.420405016263574e+000	 1.616365066005822e+000	 1.059756641602455e+001
 4.403116035932563e+000	 1.662884991931116e+000	 1.061166804807117e+001
 4.385296476528788e+000	 1.709325292388740e+000	 1.062602608277434e+001
 4.366945876689758e+000	 1.755677267373712e+000	 1.064036365155852e+001
 4.348063957969758e+000	 1.801932170295104e+000	 1.065427129309032e+001
 4.328650627022915e+000	 1.848081212606869e+000	 1.066718722430098e+001
 4.524407305083716e+000	 1.390706020582740e+000	 1.052736615498571e+001
 4.509675075088746e+000	 1.437760588603412e+000	 1.053872976073262e+001
 4.494414253604441e+000	 1.484777968164294e+000	 1.055026557731568e+001
 4.478623494235841e+000	 1.531749710358706e+000	 1.056211516036714e+001
 4.462301621696776e+000	 1.578667297757051e+000	 1.057437227915670e+001
 4.445447634610877e+000	 1.625522148514563e+000	 1.058707041269745e+001
 4.428060708201621e+000	 1.672305620595791e+000	 1.060016891853987e+001
 4.410140196866269e+000	 1.719009016112672e+000	 1.061353780760788e+001
 4.391685636628613e+000	 1.765623585772688e+000	 1.062694106135299e+001
 4.372696747465477e+000	 1.812140533433459e+000	 1.064001843136263e+001
 4.353173435502172e+000	 1.858551020759794e+000	 1.065226566640120e+001
 4.107947097861664e+000	 1.753853685157622e+000	 1.068738075009567e+001
 4.089022237317836e+000	 1.797534358250065e+000	 1.070320329368347e+001
 4.069593571258428e+000	 1.841097824563030e+000	 1.071953027878777e+001
 4.049661552156451e+000	 1.884535657582464e+000	 1.073429268046721e+001
 4.029226814984733e+000	 1.927839409546484e+000	 1.074509026183909e+001
 4.008290178599602e+000	 1.971000616255271e+000	 1.074916760995329e+001
 3.986852646976334e+000	 2.014010801950552e+000	 1.074421023190656e+001
 3.964915410292882e+000	 2.056861484259474e+000	 1.074030809631980e+001
 3.942479845858591e+000	 2.099544179197508e+000	 1.074010816586208e+001
 3.919547518884828e+000	 2.142050406224803e+000	 1.074216625701821e+001
 3.896120183094670e+000	 2.184371693350319e+000	 1.074503986674177e+001
 4.132469630475130e+000	 1.764323375533540e+000	 1.069254395958619e+001
 4.113431797320074e+000	 1.808264801918528e+000	 1.070918287305271e+001
 4.093887151164926e+000	 1.852088321854113e+000	 1.072494680512022e+001
 4.073836147183756e+000	 1.895785458523871e+000	 1.073786498762414e+001
 4.053279424139898e+000	 1.939347713736705e+000	 1.074565172952964e+001
 4.032217805777887e+000	 1.982766572765458e+000	 1.074568207244051e+001
 4.010652302066275e+000	 2.026033509255521e+000	 1.073826796106120e+001
 3.988584110287832e+000	 2.069139990198221e+000	 1.073464468605932e+001
 3.966014615973810e+000	 2.112077480963578e+000	 1.073448738935687e+001
 3.942945393679174e+000	 2.154837450386865e+000	 1.073632609641589e+001
 3.919378207595922e+000	 2.197411375903190e+000	 1.073880475730606e+001
 4.156992169218810e+000	 1.774793068526321e+000	 1.069634354163741e+001
 4.137841363424330e+000	 1.818995248269089e+000	 1.071314949932807e+001
 4.118180737144486e+000	 1.863078821892374e+000	 1.072798141288463e+001
 4.098010748254415e+000	 1.907035262277361e+000	 1.073895893492535e+001
 4.077332039307959e+000	 1.950856020803727e+000	 1.074390112613136e+001
 4.056145438937857e+000	 1.994532532216958e+000	 1.074030172853732e+001
 4.034451963105935e+000	 2.038056219566090e+000	 1.073188642227907e+001
 4.012252816199793e+000	 2.081418499206607e+000	 1.072763862446230e+001
 3.989549391972591e+000	 2.124610785863070e+000	 1.072710675192812e+001
 3.966343274322895e+000	 2.167624497745854e+000	 1.072867795731102e+001
 3.942636237911626e+000	 2.210451061716201e+000	 1.073093279609128e+001
 4.181514720223089e+000	 1.785262766753336e+000	 1.069858668550076e+001
 4.162250941732745e+000	 1.829725699984286e+000	 1.071504228856018e+001
 4.142474335270258e+000	 1.874069327425340e+000	 1.072867645605117e+001
 4.122185361411839e+000	 1.918285071655267e+000	 1.073769155566348e+001
 4.101384666501830e+000	 1.962364333624481e+000	 1.074000176820296e+001
 4.080073084061181e+000	 2.006298497551087e+000	 1.073336605068793e+001
 4.058251636045005e+000	 2.050078935887735e+000	 1.072519110706344e+001
 4.035921533945723e+000	 2.093697014354039e+000	 1.072049838295713e+001
 4.013084179738415e+000	 2.137144097029069e+000	 1.071893340422097e+001
 3.989741166665249e+000	 2.180411551498271e+000	 1.071997061580043e+001
 3.965894279856078e+000	 2.223490754048992e+000	 1.072206193458037e+001
 4.206037289618354e+000	 1.795732472831950e+000	 1.069906854894870e+001
 4.186660538347462e+000	 1.840456159746657e+000	 1.071478554526088e+001
 4.166767951615396e+000	 1.885059841200544e+000	 1.072705732307381e+001
 4.146359992699433e+000	 1.929534889469920e+000	 1.073416138147792e+001
 4.125437311734429e+000	 1.973872655075903e+000	 1.073409754357396e+001
 4.104000747129545e+000	 2.018064471709167e+000	 1.072576935763230e+001
 4.082051326833178e+000	 2.062101661225940e+000	 1.071811038997700e+001
 4.059590269442583e+000	 2.105975538709923e+000	 1.071328460694924e+001
 4.036618985154762e+000	 2.149677417594655e+000	 1.071102976527144e+001
 4.013139076555490e+000	 2.193198614840611e+000	 1.071102531356527e+001
 3.989152339243564e+000	 2.236530456161203e+000	 1.071277866440223e+001
 4.230559883534988e+000	 1.806202189379531e+000	 1.069757338008047e+001
 4.211070159370624e+000	 1.851186630238740e+000	 1.071229000813759e+001
 4.191061592253049e+000	 1.896050365965515e+000	 1.072313378745063e+001
 4.170534648160610e+000	 1.940784718533653e+000	 1.072844987869192e+001
 4.149489981018677e+000	 1.985380988034921e+000	 1.072631441448268e+001
 4.127928434124628e+000	 2.029830457632516e+000	 1.071755756933374e+001
 4.105851041420148e+000	 2.074124398586184e+000	 1.071057823800756e+001
 4.083259028607333e+000	 2.118254075343664e+000	 1.070592097339575e+001
 4.060153814105110e+000	 2.162210750692910e+000	 1.070339641200681e+001
 4.036537009842877e+000	 2.205985690969373e+000	 1.070276404372705e+001
 4.012410421888376e+000	 2.249570171312477e+000	 1.070372866374025e+001
 4.255082508103374e+000	 1.816671919013446e+000	 1.069387562578225e+001
 4.235479810904371e+000	 1.861917114143071e+000	 1.070745407917990e+001
 4.215355263256366e+000	 1.907040904467783e+000	 1.071690133898509e+001
 4.194709333838777e+000	 1.952034561658800e+000	 1.072062286334781e+001
 4.173542680367494e+000	 1.996889335378473e+000	 1.071676189805157e+001
 4.151856151028107e+000	 2.041596458262454e+000	 1.070865452670352e+001
 4.129650785755607e+000	 2.086147150973949e+000	 1.070253469829145e+001
 4.106927817356930e+000	 2.130532627324669e+000	 1.069833787146437e+001
 4.083688672472943e+000	 2.174744099456915e+000	 1.069592851194248e+001
 4.059934972376665e+000	 2.218772783081055e+000	 1.069512509461138e+001
 4.035668533604805e+000	 2.262609902762454e+000	 1.069569644911416e+001
 4.279605169453902e+000	 1.827141664351063e+000	 1.068774102738515e+001
 4.259889499050845e+000	 1.872647614142192e+000	 1.070016503677432e+001
 4.239648970698495e+000	 1.918031459454879e+000	 1.070834249653175e+001
 4.218884055777344e+000	 1.963284421657692e+000	 1.071073189580363e+001
 4.197595415793796e+000	 2.008397699983488e+000	 1.070572682682685e+001
 4.175783903821666e+000	 2.053362476540301e+000	 1.069899055595635e+001
 4.153450565789250e+000	 2.098169921394717e+000	 1.069392636340659e+001
 4.130596641608336e+000	 2.142811197722343e+000	 1.069047284945554e+001
 4.107223566141736e+000	 2.187277467019753e+000	 1.068852955283575e+001
 4.083332970006111e+000	 2.231559894372153e+000	 1.068795319705770e+001
 4.058926680207141e+000	 2.275649653770777e+000	 1.068855393824320e+001
 4.304127873716955e+000	 1.837611428009748e+000	 1.067892770403953e+001
 4.284299229912194e+000	 1.883378132918639e+000	 1.069030023349270e+001
 4.263942720652592e+000	 1.929022033674333e+000	 1.069742810297348e+001
 4.243058820019718e+000	 1.974534301342661e+000	 1.069881565571636e+001
 4.221648193310499e+000	 2.019906084726900e+000	 1.069370543674014e+001
 4.199711698486983e+000	 2.065128515407376e+000	 1.068850291415857e+001
 4.177250387470769e+000	 2.110192712853969e+000	 1.068470681513466e+001
 4.154265507278509e+000	 2.155089789606091e+000	 1.068227104068230e+001
 4.130758500994972e+000	 2.199810856514507e+000	 1.068111173478856e+001
 4.106731008580471e+000	 2.244347028039165e+000	 1.068110344662327e+001
 4.082184867509671e+000	 2.288689427597086e+000	 1.068207528901240e+001
 4.328650627022915e+000	 1.848081212606869e+000	 1.066718722430098e+001
 4.308709009590553e+000	 1.894108673154950e+000	 1.067772827917092e+001
 4.288236519191803e+000	 1.940012629873676e+000	 1.068411860314434e+001
 4.267233632609309e+000	 1.985784203526040e+000	 1.068490129819847e+001
 4.245701018930528e+000	 2.031414492485641e+000	 1.068063011691018e+001
 4.223639541005738e+000	 2.076894577804998e+000	 1.067713621418736e+001
 4.201050256749856e+000	 2.122215528357184e+000	 1.067483704755109e+001
 4.177934420284409e+000	 2.167368406045322e+000	 1.067368556914765e+001
 4.154293482916130e+000	 2.212344271074256e+000	 1.067359634316346e+001
 4.130129093949002e+000	 2.257134187278590e+000	 1.067444162859866e+001
 4.105443101326692e+000	 2.301729227501026e+000	 1.067604745660810e+001
 4.353173435502172e+000	 1.858551020759794e+000	 1.065226566640120e+001
 4.333118844188068e+000	 1.904839237533664e+000	 1.066231020986671e+001
 4.312530372389279e+000	 1.951003250800439e+000	 1.066836530537969e+001
 4.291408499589530e+000	 1.997034131020163e+000	 1.066900579190094e+001
 4.269753898666800e+000	 2.042922926136646e+000	 1.066641280801398e+001
 4.247567437359612e+000	 2.088660666674489e+000	 1.066484282991768e+001
 4.224850179576209e+000	 2.134238370909848e+000	 1.066428587026290e+001
 4.201603386542995e+000	 2.179647050109439e+000	 1.066467793582058e+001
 4.177828517788692e+000	 2.224877713832085e+000	 1.066591410307360e+001
 4.153527231960959e+000	 2.269921375286926e+000	 1.066784452609082e+001
 4.128701387472490e+000	 2.314769056742235e+000	 1.067027044079084e+001
 3.896120183094670e+000	 2.184371693350319e+000	 1.074503986674177e+001
 3.872196156391829e+000	 2.226505887565815e+000	 1.075037865708199e+001
 3.847781051657800e+000	 2.268438184788724e+000	 1.075983965048932e+001
 3.822877194375688e+000	 2.310160168438054e+000	 1.077202272657900e+001
 3.797487099402197e+000	 2.351663451361818e+000	 1.078556395630934e+001
 3.771613470733660e+000	 2.392939681090943e+000	 1.079913987928306e+001
 3.745259201099025e+000	 2.433980545103553e+000	 1.081147066616689e+001
 3.718427371378763e+000	 2.474777776093069e+000	 1.082132210911452e+001
 3.691121249848879e+000	 2.515323157233418e+000	 1.082750639413905e+001
 3.663344291249592e+000	 2.555608527434690e+000	 1.082888162115286e+001
 3.635100135678463e+000	 2.595625786582434e+000	 1.082435004977737e+001
 3.919378207595922e+000	 2.197411375903190e+000	 1.073880475730606e+001
 3.895311365586440e+000	 2.239797091651857e+000	 1.074367812893890e+001
 3.870750514038508e+000	 2.281979705176810e+000	 1.075265611268746e+001
 3.845697992317274e+000	 2.323950749653989e+000	 1.076435870988140e+001
 3.820156330291953e+000	 2.365701787864013e+000	 1.077744267725175e+001
 3.794128248100461e+000	 2.407224417477454e+000	 1.079060599038604e+001
 3.767616655739987e+000	 2.448510276350555e+000	 1.080259114241582e+001
 3.740624652482406e+000	 2.489551047824762e+000	 1.081218721792279e+001
 3.713155526113802e+000	 2.530338466023375e+000	 1.081823069356295e+001
 3.685212751997570e+000	 2.570864321138577e+000	 1.081960492916648e+001
 3.656799991960951e+000	 2.611120464702003e+000	 1.081523832596788e+001
 3.942636237911626e+000	 2.210451061716201e+000	 1.073093279609128e+001
 3.918426580559851e+000	 2.253088299060945e+000	 1.073561348587922e+001
 3.893719982161631e+000	 2.295521228950526e+000	 1.074437898512933e+001
 3.868518795964158e+000	 2.337741334317804e+000	 1.075586037174755e+001
 3.842825566849163e+000	 2.379740127875997e+000	 1.076872698512071e+001
 3.816643031096151e+000	 2.421509157435315e+000	 1.078169110589629e+001
 3.789974115970546e+000	 2.463040011230107e+000	 1.079351141774176e+001
 3.762821939135638e+000	 2.504324323249834e+000	 1.080299518799963e+001
 3.735189807887587e+000	 2.545353778567168e+000	 1.080899911613932e+001
 3.707081218212969e+000	 2.586120118656368e+000	 1.081042881167010e+001
 3.678499853668706e+000	 2.626615146695153e+000	 1.080623687660891e+001
 3.965894279856078e+000	 2.223490754048992e+000	 1.072206193458037e+001
 3.941541807090636e+000	 2.266379513115587e+000	 1.072670631249800e+001
 3.916689461769292e+000	 2.309062759494951e+000	 1.073542589362464e+001
 3.891339611021287e+000	 2.351531925876843e+000	 1.074685370509788e+001
 3.865494814740869e+000	 2.393778474907056e+000	 1.075966348096327e+001
 3.839157825349139e+000	 2.435793904535413e+000	 1.077257458893811e+001
 3.812331587379767e+000	 2.477569753374350e+000	 1.078435568248842e+001
 3.785019236887463e+000	 2.519097606061324e+000	 1.079382701189025e+001
 3.757224100678466e+000	 2.560369098618346e+000	 1.079986134042292e+001
 3.728949695362553e+000	 2.601375923801743e+000	 1.080138342512826e+001
 3.700199726226330e+000	 2.642109836435286e+000	 1.079736803555602e+001
 3.989152339243564e+000	 2.236530456161203e+000	 1.071277866440223e+001
 3.964657050957377e+000	 2.279670737138295e+000	 1.071742988030053e+001
 3.939658958603628e+000	 2.322604300195173e+000	 1.072616903156112e+001
 3.914160443193614e+000	 2.365322527778455e+000	 1.073762188030683e+001
 3.888164079634114e+000	 2.407816832466474e+000	 1.075045827812020e+001
 3.861672636487839e+000	 2.450078662348639e+000	 1.076339737095631e+001
 3.834689075556711e+000	 2.492099506415425e+000	 1.077521146923910e+001
 3.807216551286875e+000	 2.533870899952260e+000	 1.078472851339054e+001
 3.779258409994675e+000	 2.575384429930460e+000	 1.079083307802724e+001
 3.750818188913088e+000	 2.616631740388381e+000	 1.079246587189070e+001
 3.721899615058423e+000	 2.657604537795814e+000	 1.078862170513908e+001
 4.012410421888376e+000	 2.249570171312477e+000	 1.070372866374025e+001
 3.987772317938652e+000	 2.292961974451581e+000	 1.070821044932982e+001
 3.962628478406766e+000	 2.336145854436272e+000	 1.071693640968569e+001
 3.936981298186090e+000	 2.379113143469984e+000	 1.072840644938230e+001
 3.910833367195940e+000	 2.421855204063538e+000	 1.074127816704581e+001
 3.884187470140660e+000	 2.464363434445877e+000	 1.075426308341126e+001
 3.857046586090441e+000	 2.506629273985478e+000	 1.076613075761113e+001
 3.829413887882881e+000	 2.548644208615681e+000	 1.077571143165086e+001
 3.801292741344446e+000	 2.590399776257064e+000	 1.078189714323119e+001
 3.772686704331336e+000	 2.631887572229962e+000	 1.078364126147364e+001
 3.743599525589591e+000	 2.673099254650146e+000	 1.077998651979294e+001
 4.035668533604805e+000	 2.262609902762454e+000	 1.069569644911416e+001
 4.010887613813039e+000	 2.306253228377955e+000	 1.069951015393690e+001
 3.985598026920840e+000	 2.349687425603333e+000	 1.070801309282452e+001
 3.959802181703660e+000	 2.392903776398775e+000	 1.071940853911633e+001
 3.933502683093391e+000	 2.435893593207532e+000	 1.073225177087785e+001
 3.906702331936014e+000	 2.478648224398017e+000	 1.074523918174916e+001
 3.879404124570022e+000	 2.521159059716648e+000	 1.075713107259645e+001
 3.851611252224484e+000	 2.563417535744618e+000	 1.076675449984267e+001
 3.823327100236012e+000	 2.605415141351707e+000	 1.077300451790913e+001
 3.794555247084062e+000	 2.647143423140168e+000	 1.077484376767054e+001
 3.765299463244429e+000	 2.688593990871691e+000	 1.077161647674748e+001
 4.058926680207141e+000	 2.275649653770777e+000	 1.068855393824320e+001
 4.034002944359119e+000	 2.319544502239928e+000	 1.069198709564840e+001
 4.008567609887977e+000	 2.363229017081439e+000	 1.069969162348529e+001
 3.982623099451280e+000	 2.406694430012176e+000	 1.071079003365177e+001
 3.956172032993508e+000	 2.449932003407742e+000	 1.072347069213134e+001
 3.929217227502315e+000	 2.492933035775949e+000	 1.073635806196042e+001
 3.901761696584512e+000	 2.535688867241081e+000	 1.074819657671032e+001
 3.873808649860681e+000	 2.578190885032107e+000	 1.075780451860833e+001
 3.845361492177609e+000	 2.620430528967939e+000	 1.076407541197513e+001
 3.816423822638035e+000	 2.662399296932676e+000	 1.076597768166305e+001
 3.786999433447542e+000	 2.704088750333855e+000	 1.076337187332691e+001
 4.082184867509671e+000	 2.288689427597086e+000	 1.068207528901240e+001
 4.057118315355471e+000	 2.332835799360011e+000	 1.068546084344689e+001
 4.031537233050311e+000	 2.376770632255675e+000	 1.069251632025412e+001
 4.005444057133899e+000	 2.420485107757529e+000	 1.070269413210805e+001
 3.978841422563335e+000	 2.463970438173453e+000	 1.071499065087296e+001
 3.951732162467971e+000	 2.507217872150561e+000	 1.072761817002460e+001
 3.924119307722977e+000	 2.550218700190915e+000	 1.073927915619804e+001
 3.896006086340478e+000	 2.592964260171184e+000	 1.074877742450578e+001
 3.867395922677467e+000	 2.635445942859313e+000	 1.075500031952367e+001
 3.838292436460014e+000	 2.677655197421170e+000	 1.075696860522838e+001
 3.808699441623531e+000	 2.719583536910049e+000	 1.075502476939698e+001
 4.105443101326692e+000	 2.301729227501026e+000	 1.067604745660810e+001
 4.080233732580672e+000	 2.346127123060713e+000	 1.067963210243338e+001
 4.054506902149972e+000	 2.390312274511121e+000	 1.068628787165179e+001
 4.028265060456468e+000	 2.434275813082186e+000	 1.069554457001399e+001
 4.001510857469911e+000	 2.478008901013949e+000	 1.070683407286010e+001
 3.974247142461394e+000	 2.521502737092740e+000	 1.071898510452750e+001
 3.946476963574480e+000	 2.564748562198295e+000	 1.073029950153910e+001
 3.918203567212872e+000	 2.607737664854879e+000	 1.073955935365033e+001
 3.889430397243821e+000	 2.650461386779379e+000	 1.074564107084140e+001
 3.860161094016767e+000	 2.692911128419327e+000	 1.074775632611323e+001
 3.830399493196997e+000	 2.735078354473679e+000	 1.074632797187019e+001
 4.128701387472490e+000	 2.314769056742235e+000	 1.067027044079084e+001
 4.103349201813303e+000	 2.359418476664549e+000	 1.067421680015444e+001
 4.077476622929091e+000	 2.403853947232864e+000	 1.068064624223940e+001
 4.051086115123939e+000	 2.448066549433488e+000	 1.068916188485028e+001
 4.024180343380284e+000	 2.492047395438518e+000	 1.069927463120440e+001
 3.996762173110999e+000	 2.535787634173376e+000	 1.071039271272329e+001
 3.968834669728083e+000	 2.579278456895365e+000	 1.072114818247732e+001
 3.940401098026868e+000	 2.622511102776230e+000	 1.073000770074668e+001
 3.911464921384907e+000	 2.665476864481691e+000	 1.073583188045682e+001
 3.882029800775059e+000	 2.708167093740830e+000	 1.073808541390490e+001
 3.852099593592544e+000	 2.750573206898158e+000	 1.073701675049996e+001
 3.635100135678463e+000	 2.595625786582434e+000	 1.082435004977737e+001
 3.606392606282453e+000	 2.635366899875415e+000	 1.081399946883227e+001
 3.577225704752324e+000	 2.674823900322948e+000	 1.079858093886777e+001
 3.547603612821848e+000	 2.713988896438097e+000	 1.078105816797244e+001
 3.517530691503431e+000	 2.752854078213755e+000	 1.076368429016834e+001
 3.487011479119200e+000	 2.791411722183962e+000	 1.074754436611219e+001
 3.456050689161567e+000	 2.829654196428459e+000	 1.073378256910349e+001
 3.424653207985159e+000	 2.867573965513815e+000	 1.072358257293923e+001
 3.392824092332316e+000	 2.905163595364521e+000	 1.071814598644207e+001
 3.360568566694637e+000	 2.942415758057519e+000	 1.071866896474187e+001
 3.327892020513366e+000	 2.979323236533758e+000	 1.072616113719884e+001
 3.656799991960951e+000	 2.611120464702003e+000	 1.081523832596788e+001
 3.627921091973301e+000	 2.651098813948400e+000	 1.080523095329646e+001
 3.598580077613613e+000	 2.690791354327859e+000	 1.079084877987045e+001
 3.568781155578661e+000	 2.730190147244944e+000	 1.077522083584599e+001
 3.538528712914067e+000	 2.769287336070452e+000	 1.075945206998755e+001
 3.507827315033624e+000	 2.808075151232928e+000	 1.074444251134445e+001
 3.476681703567104e+000	 2.846545915253110e+000	 1.073115697056084e+001
 3.445096794038395e+000	 2.884692047714543e+000	 1.072060522079097e+001
 3.413077673376231e+000	 2.922506070163753e+000	 1.071382012522085e+001
 3.380629597259997e+000	 2.959980610933397e+000	 1.071183384430621e+001
 3.347757987303395e+000	 2.997108409881948e+000	 1.071565227775791e+001
 3.678499853668706e+000	 2.626615146695153e+000	 1.080623687660890e+001
 3.649449583046558e+000	 2.666830731954233e+000	 1.079654531331729e+001
 3.619934455813749e+000	 2.706758812324470e+000	 1.078369039104054e+001
 3.589958703630073e+000	 2.746391402101920e+000	 1.076978110770915e+001
 3.559526739574368e+000	 2.785720598035260e+000	 1.075546372429549e+001
 3.528643156152110e+000	 2.824738584447534e+000	 1.074147321430163e+001
 3.497312723130439e+000	 2.863437638300464e+000	 1.072861546094341e+001
 3.465540385202507e+000	 2.901810134194557e+000	 1.071774718371456e+001
 3.433331259483469e+000	 2.939848549298364e+000	 1.070975370705789e+001
 3.400690632840491e+000	 2.977545468200245e+000	 1.070552470743932e+001
 3.367623959059742e+000	 3.014893587676185e+000	 1.070592809799406e+001
 3.700199726226330e+000	 2.642109836435286e+000	 1.079736803555602e+001
 3.670978084883970e+000	 2.682562657825637e+000	 1.078821827183824e+001
 3.641288844690951e+000	 2.722726278304399e+000	 1.077699896024689e+001
 3.611136262270088e+000	 2.762592665059089e+000	 1.076463309722300e+001
 3.580524776733460e+000	 2.802153868216250e+000	 1.075161464004520e+001
 3.549459007678244e+000	 2.841402025993399e+000	 1.073853305317166e+001
 3.517943753008951e+000	 2.880329369793212e+000	 1.072605531529636e+001
 3.485983986588032e+000	 2.918928229233141e+000	 1.071490554439013e+001
 3.453584855717059e+000	 2.957191037103733e+000	 1.070584235579392e+001
 3.420751678451020e+000	 2.995110334249034e+000	 1.069963409300132e+001
 3.387489940748560e+000	 3.032678774362513e+000	 1.069703209462921e+001
 3.721899615058423e+000	 2.657604537795814e+000	 1.078862170513908e+001
 3.692506602867291e+000	 2.698294595495337e+000	 1.078040312988773e+001
 3.662643249583429e+000	 2.738693756259258e+000	 1.077064122809525e+001
 3.632313836792711e+000	 2.778793940166521e+000	 1.075964503342457e+001
 3.601522829640472e+000	 2.818587150721498e+000	 1.074777478775692e+001
 3.570274874815602e+000	 2.858065480036140e+000	 1.073549357109059e+001
 3.538574798360021e+000	 2.897221113954047e+000	 1.072334907633130e+001
 3.506427603305496e+000	 2.936046337109576e+000	 1.071195288586922e+001
 3.473838467140046e+000	 2.974533537915240e+000	 1.070195736747065e+001
 3.440812739106494e+000	 3.012675213470732e+000	 1.069403033262119e+001
 3.407355937335999e+000	 3.050463974386978e+000	 1.068882762533975e+001
 3.743599525589591e+000	 2.673099254650146e+000	 1.077998651979294e+001
 3.714035142378266e+000	 2.714026548896057e+000	 1.077294046291442e+001
 3.683997675829406e+000	 2.754661250180662e+000	 1.076445923797317e+001
 3.653491432491949e+000	 2.794995231474284e+000	 1.075466101706034e+001
 3.622520903544523e+000	 2.835020449659075e+000	 1.074379048249618e+001
 3.591090762767767e+000	 2.874728950741376e+000	 1.073220303985578e+001
 3.559205864341032e+000	 2.914112875005660e+000	 1.072034631870525e+001
 3.526871240465430e+000	 2.953164462103145e+000	 1.070873905399422e+001
 3.494092098815462e+000	 2.991876056068264e+000	 1.069794746821634e+001
 3.460873819821821e+000	 3.030240110256312e+000	 1.068855930113012e+001
 3.427221953788212e+000	 3.068249192195625e+000	 1.068115565977388e+001
 3.765299463244429e+000	 2.688593990871691e+000	 1.077161647674748e+001
 3.735563708798650e+000	 2.729758521960522e+000	 1.076564721588590e+001
 3.705352128767096e+000	 2.770628764060227e+000	 1.075827208239726e+001
 3.674669054661810e+000	 2.811196543032450e+000	 1.074950277327930e+001
 3.643519003694747e+000	 2.851453769137058e+000	 1.073948614125685e+001
 3.611906676738323e+000	 2.891392442274725e+000	 1.072848822008663e+001
 3.579836956109366e+000	 2.931004657170744e+000	 1.071687540979398e+001
 3.547314903178364e+000	 2.970282608493129e+000	 1.070509291637391e+001
 3.514345755806345e+000	 3.009218595898184e+000	 1.069364056877183e+001
 3.480934925611909e+000	 3.047805028996744e+000	 1.068304616375126e+001
 3.447087995071351e+000	 3.086034432234503e+000	 1.067383651628993e+001
 3.786999433447542e+000	 2.704088750333855e+000	 1.076337187332691e+001
 3.757092307510190e+000	 2.745490518621454e+000	 1.075831843828107e+001
 3.726706613734713e+000	 2.786596301889565e+000	 1.075187764582170e+001
 3.695846708596300e+000	 2.827397878891083e+000	 1.074397140084334e+001
 3.664517135340263e+000	 2.867887113263518e+000	 1.073466603690538e+001
 3.632722621930851e+000	 2.908055958801806e+000	 1.072415611798613e+001
 3.600468078822399e+000	 2.947896464671987e+000	 1.071274526711207e+001
 3.567758596554828e+000	 2.987400780558812e+000	 1.070082411806442e+001
 3.534599443175730e+000	 3.026561161740376e+000	 1.068884551580304e+001
 3.500996061491667e+000	 3.065369974082997e+000	 1.067729712018794e+001
 3.466954066151565e+000	 3.103819698949656e+000	 1.066667159574378e+001
 3.808699441623531e+000	 2.719583536910049e+000	 1.075502476939698e+001
 3.778620943894639e+000	 2.761222542811580e+000	 1.075072901562374e+001
 3.748061136070473e+000	 2.802563867660294e+000	 1.074505434406116e+001
 3.717024399589421e+000	 2.843599243100253e+000	 1.073784911800504e+001
 3.685515303730202e+000	 2.884320486146530e+000	 1.072911604883452e+001
 3.653538603548932e+000	 2.924719504488238e+000	 1.071899573885132e+001
 3.621099237637516e+000	 2.964788301732086e+000	 1.070774711252522e+001
 3.588202325705353e+000	 3.004518982579476e+000	 1.069572483409946e+001
 3.554853165986656e+000	 3.043903757930221e+000	 1.068335384014067e+001
 3.521057232475999e+000	 3.082934949906039e+000	 1.067110114574614e+001
 3.486820171995006e+000	 3.121604996787129e+000	 1.065944511245482e+001
 3.830399493196997e+000	 2.735078354473679e+000	 1.074632797187019e+001
 3.800149623333742e+000	 2.776954598463621e+000	 1.074263539770678e+001
 3.769415701112595e+000	 2.818531465364028e+000	 1.073756286047433e+001
 3.738202132935184e+000	 2.859800639710028e+000	 1.073090100519804e+001
 3.706513514113687e+000	 2.900753891894165e+000	 1.072260541047027e+001
 3.674354626796148e+000	 2.941383083499638e+000	 1.071277983747402e+001
 3.641730437712097e+000	 2.981680172573729e+000	 1.070165622339514e+001
 3.608646095740468e+000	 3.021637218834404e+000	 1.068957151900739e+001
 3.575106929302158e+000	 3.061246388803097e+000	 1.067694150208136e+001
 3.541118443579816e+000	 3.100499960856845e+000	 1.066423172962115e+001
 3.506686317567826e+000	 3.139390330192968e+000	 1.065192582247540e+001
 3.852099593592544e+000	 2.750573206898158e+000	 1.073701675049996e+001
 3.821678351209255e+000	 2.792686689510306e+000	 1.073377732364966e+001
 3.790770314199296e+000	 2.834499098992382e+000	 1.072914787904881e+001
 3.759379913927593e+000	 2.876002072770478e+000	 1.072287674467836e+001
 3.727511771739844e+000	 2.917187334614500e+000	 1.071488845376872e+001
 3.695170696876085e+000	 2.958046700001626e+000	 1.070526666556781e+001
 3.662361684203526e+000	 2.998572081419612e+000	 1.069423368079085e+001
 3.629089911770705e+000	 3.038755493602876e+000	 1.068212665344716e+001
 3.595360738185273e+000	 3.078589058694386e+000	 1.066937063387975e+001
 3.561179699818027e+000	 3.118065011326384e+000	 1.065644861047412e+001
 3.526552507836178e+000	 3.157175703613221e+000	 1.064386874928288e+001
 3.327892020513366e+000	 2.979323236533758e+000	 1.072616113719884e+001
 3.294805000137952e+000	 3.015873473340294e+000	 1.073007648077263e+001
 3.261308345935689e+000	 3.052065054294208e+000	 1.072382887454810e+001
 3.227407924036499e+000	 3.087891128237413e+000	 1.070955463557896e+001
 3.193109752621236e+000	 3.123344972753669e+000	 1.068944218238931e+001
 3.158419998366947e+000	 3.158419998366946e+000	 1.066569725481136e+001
 3.123344972753669e+000	 3.193109752621236e+000	 1.064050781295260e+001
 3.087891128237412e+000	 3.227407924036499e+000	 1.061600890519137e+001
 3.052065054294209e+000	 3.261308345935690e+000	 1.059424779665391e+001
 3.015873473340295e+000	 3.294805000137951e+000	 1.057714964881383e+001
 2.979323236533757e+000	 3.327892020513365e+000	 1.056648403767492e+001
 3.347757987303395e+000	 2.997108409881948e+000	 1.071565227775791e+001
 3.314473452812669e+000	 3.033876834594318e+000	 1.072039688865170e+001
 3.280776839171726e+000	 3.070284462445565e+000	 1.071528524528118e+001
 3.246674047528561e+000	 3.106324401379362e+000	 1.070158336603665e+001
 3.212171131989779e+000	 3.141989888849766e+000	 1.068171392468076e+001
 3.177274296044633e+000	 3.177274296044633e+000	 1.065811880461463e+001
 3.141989888849765e+000	 3.212171131989779e+000	 1.063322226730277e+001
 3.106324401379361e+000	 3.246674047528561e+000	 1.060939408302544e+001
 3.070284462445565e+000	 3.280776839171725e+000	 1.058891292742325e+001
 3.033876834594319e+000	 3.314473452812669e+000	 1.057393034648674e+001
 2.997108409881948e+000	 3.347757987303394e+000	 1.056518379358486e+001
 3.367623959059742e+000	 3.014893587676185e+000	 1.070592809799406e+001
 3.334141910404290e+000	 3.051880200348930e+000	 1.070810389990388e+001
 3.300245337274650e+000	 3.088503875151511e+000	 1.070477377791923e+001
 3.265940175836902e+000	 3.124757679129364e+000	 1.069239590702350e+001
 3.231232516123408e+000	 3.160634809606826e+000	 1.067359510439535e+001
 3.196128598435629e+000	 3.196128598435629e+000	 1.065102076048072e+001
 3.160634809606826e+000	 3.231232516123408e+000	 1.062730464458096e+001
 3.124757679129364e+000	 3.265940175836902e+000	 1.060502230234131e+001
 3.088503875151512e+000	 3.300245337274650e+000	 1.058665472455135e+001
 3.051880200348930e+000	 3.334141910404290e+000	 1.057454637610108e+001
 3.014893587676185e+000	 3.367623959059741e+000	 1.056384258479052e+001
 3.387489940748560e+000	 3.032678774362513e+000	 1.069703209462921e+001
 3.353810377829602e+000	 3.069883575104714e+000	 1.069536557329780e+001
 3.319713845111269e+000	 3.106723296966643e+000	 1.069233698243020e+001
 3.285206313777744e+000	 3.143190966095471e+000	 1.068202046975651e+001
 3.250293909787164e+000	 3.179279739685799e+000	 1.066509760481820e+001
 3.214982910253217e+000	 3.214982910253217e+000	 1.064439729114413e+001
 3.179279739685799e+000	 3.250293909787164e+000	 1.062273065777188e+001
 3.143190966095470e+000	 3.285206313777744e+000	 1.060285072557830e+001
 3.106723296966643e+000	 3.319713845111268e+000	 1.058741235064443e+001
 3.069883575104714e+000	 3.353810377829601e+000	 1.057643412323393e+001
 3.032678774362512e+000	 3.387489940748560e+000	 1.056222489880275e+001
 3.407355937335999e+000	 3.050463974386978e+000	 1.068882762533975e+001
 3.373478860005382e+000	 3.087886963362258e+000	 1.068388275167847e+001
 3.339182367548385e+000	 3.124942732445551e+000	 1.067817413414080e+001
 3.304472466167311e+000	 3.161624266885730e+000	 1.067047304317579e+001
 3.269355317746096e+000	 3.197924683747635e+000	 1.065622107981402e+001
 3.233837236210685e+000	 3.233837236210685e+000	 1.063823036500689e+001
 3.197924683747635e+000	 3.269355317746097e+000	 1.061946387678445e+001
 3.161624266885730e+000	 3.304472466167311e+000	 1.060282444946038e+001
 3.124942732445551e+000	 3.339182367548385e+000	 1.059091039921632e+001
 3.087886963362259e+000	 3.373478860005382e+000	 1.057744344945149e+001
 3.050463974386978e+000	 3.407355937335999e+000	 1.056028320813705e+001
 3.427221953788212e+000	 3.068249192195625e+000	 1.068115565977388e+001
 3.393147361848419e+000	 3.105890369622151e+000	 1.067348848100444e+001
 3.358650909452801e+000	 3.143162186142826e+000	 1.066487733351923e+001
 3.323738637821821e+000	 3.180057586108190e+000	 1.065775766467974e+001
 3.288416744765252e+000	 3.216569646453285e+000	 1.064695319516632e+001
 3.252691581021320e+000	 3.252691581021320e+000	 1.063248996065794e+001
 3.216569646453285e+000	 3.288416744765251e+000	 1.061745590713709e+001
 3.180057586108189e+000	 3.323738637821821e+000	 1.060487665124421e+001
 3.143162186142825e+000	 3.358650909452801e+000	 1.059393640569763e+001
 3.105890369622150e+000	 3.393147361848419e+000	 1.057755509354182e+001
 3.068249192195627e+000	 3.427221953788212e+000	 1.055798186968918e+001
 3.447087995071351e+000	 3.086034432234503e+000	 1.067383651628993e+001
 3.412815888275492e+000	 3.123893798384978e+000	 1.066399519212103e+001
 3.378119475691321e+000	 3.161381662613056e+000	 1.065316495340288e+001
 3.343004833557501e+000	 3.198490928370902e+000	 1.064429960562084e+001
 3.307478195609674e+000	 3.235214632463700e+000	 1.063726986816956e+001
 3.271545949398408e+000	 3.271545949398408e+000	 1.062713427610313e+001
 3.235214632463700e+000	 3.307478195609674e+000	 1.061664656783999e+001
 3.198490928370902e+000	 3.343004833557501e+000	 1.060839439322669e+001
 3.161381662613058e+000	 3.378119475691321e+000	 1.059541116003232e+001
 3.123893798384977e+000	 3.412815888275493e+000	 1.057676041410350e+001
 3.086034432234504e+000	 3.447087995071351e+000	 1.055529621436787e+001
 3.466954066151565e+000	 3.103819698949656e+000	 1.066667159574378e+001
 3.432484444203388e+000	 3.141897254151326e+000	 1.065519642052104e+001
 3.397588071130751e+000	 3.179601166410839e+000	 1.064281923997166e+001
 3.362271058190569e+000	 3.216924298281913e+000	 1.063255753708358e+001
 3.326539675044415e+000	 3.253859646439833e+000	 1.062713550554455e+001
 3.290400346055237e+000	 3.290400346055237e+000	 1.062210993675739e+001
 3.253859646439832e+000	 3.326539675044415e+000	 1.061696406850549e+001
 3.216924298281913e+000	 3.362271058190569e+000	 1.061017971166991e+001
 3.179601166410840e+000	 3.397588071130752e+000	 1.059535250543672e+001
 3.141897254151326e+000	 3.432484444203388e+000	 1.057506050058316e+001
 3.103819698949656e+000	 3.466954066151564e+000	 1.055221163795735e+001
 3.486820171995006e+000	 3.121604996787129e+000	 1.065944511245482e+001
 3.452153034548887e+000	 3.159900741421783e+000	 1.064686852348979e+001
 3.417056700637892e+000	 3.197820702090761e+000	 1.063360525221514e+001
 3.381537316537248e+000	 3.235357700449275e+000	 1.062271128933366e+001
 3.345601187834515e+000	 3.272504693042630e+000	 1.061715072487989e+001
 3.309254775705090e+000	 3.309254775705090e+000	 1.061735220224771e+001
 3.272504693042630e+000	 3.345601187834515e+000	 1.061750458563641e+001
 3.235357700449274e+000	 3.381537316537249e+000	 1.060975222326831e+001
 3.197820702090761e+000	 3.417056700637892e+000	 1.059378684108192e+001
 3.159900741421783e+000	 3.452153034548888e+000	 1.057246528504670e+001
 3.121604996787129e+000	 3.486820171995005e+000	 1.054872269315469e+001
 3.506686317567826e+000	 3.139390330192968e+000	 1.065192582247540e+001
 3.471821664228771e+000	 3.177904264696934e+000	 1.063877239474997e+001
 3.436525369079552e+000	 3.216040274207416e+000	 1.062527255909403e+001
 3.400803613413762e+000	 3.253791139481034e+000	 1.061449619248908e+001
 3.364662738745025e+000	 3.291149776933046e+000	 1.060942249202257e+001
 3.328109243061256e+000	 3.328109243061256e+000	 1.061278517207387e+001
 3.291149776933045e+000	 3.364662738745025e+000	 1.061537796699105e+001
 3.253791139481035e+000	 3.400803613413763e+000	 1.060716281412958e+001
 3.216040274207415e+000	 3.436525369079551e+000	 1.059074825543122e+001
 3.177904264696934e+000	 3.471821664228771e+000	 1.056899265464837e+001
 3.139390330192968e+000	 3.506686317567826e+000	 1.054483218272848e+001
 3.526552507836178e+000	 3.157175703613221e+000	 1.064386874928288e+001
 3.491490338159828e+000	 3.195907828477368e+000	 1.063065517671831e+001
 3.455994081322530e+000	 3.234259887315395e+000	 1.061755693456737e+001
 3.420069953636332e+000	 3.272224619985245e+000	 1.060763370574207e+001
 3.383724332540992e+000	 3.309794902772032e+000	 1.060385580109693e+001
 3.346963752837024e+000	 3.346963752837023e+000	 1.060810286454561e+001
 3.309794902772032e+000	 3.383724332540992e+000	 1.061040720272047e+001
 3.272224619985245e+000	 3.420069953636333e+000	 1.060246898675510e+001
 3.234259887315396e+000	 3.455994081322531e+000	 1.058627765981701e+001
 3.195907828477369e+000	 3.491490338159829e+000	 1.056466756476351e+001
 3.157175703613221e+000	 3.526552507836178e+000	 1.054055025374793e+001
 2.979323236533757e+000	 3.327892020513365e+000	 1.056648403767492e+001
 2.942415758057520e+000	 3.360568566694637e+000	 1.055807605596848e+001
 2.905163595364522e+000	 3.392824092332316e+000	 1.054353972202894e+001
 2.867573965513814e+000	 3.424653207985159e+000	 1.052364595004657e+001
 2.829654196428458e+000	 3.456050689161565e+000	 1.049936372538616e+001
 2.791411722183963e+000	 3.487011479119200e+000	 1.047166753344713e+001
 2.752854078213755e+000	 3.517530691503430e+000	 1.044152101433542e+001
 2.713988896438097e+000	 3.547603612821848e+000	 1.040986176670954e+001
 2.674823900322948e+000	 3.577225704752323e+000	 1.037758739999397e+001
 2.635366899875414e+000	 3.606392606282453e+000	 1.034599182529655e+001
 2.595625786582433e+000	 3.635100135678463e+000	 1.031628250224589e+001
 2.997108409881948e+000	 3.347757987303394e+000	 1.056518379358486e+001
 2.959980610933398e+000	 3.380629597259997e+000	 1.055357027641874e+001
 2.922506070163753e+000	 3.413077673376230e+000	 1.053694742001845e+001
 2.884692047714542e+000	 3.445096794038394e+000	 1.051607428395942e+001
 2.846545915253110e+000	 3.476681703567104e+000	 1.049172801581355e+001
 2.808075151232929e+000	 3.507827315033624e+000	 1.046468626893598e+001
 2.769287336070453e+000	 3.538528712914067e+000	 1.043571071665308e+001
 2.730190147244945e+000	 3.568781155578661e+000	 1.040553177807512e+001
 2.690791354327859e+000	 3.598580077613613e+000	 1.037483465704601e+001
 2.651098813948400e+000	 3.627921091973301e+000	 1.034434894962919e+001
 2.611120464702003e+000	 3.656799991960951e+000	 1.031530043968789e+001
 3.014893587676185e+000	 3.367623959059741e+000	 1.056384258479052e+001
 2.977545468200246e+000	 3.400690632840491e+000	 1.054927415563587e+001
 2.939848549298365e+000	 3.433331259483467e+000	 1.053082963060730e+001
 2.901810134194557e+000	 3.465540385202508e+000	 1.050910702904249e+001
 2.863437638300464e+000	 3.497312723130438e+000	 1.048471769598907e+001
 2.824738584447536e+000	 3.528643156152111e+000	 1.045826845638673e+001
 2.785720598035260e+000	 3.559526739574368e+000	 1.043034492749419e+001
 2.746391402101920e+000	 3.589958703630074e+000	 1.040149610787521e+001
 2.706758812324470e+000	 3.619934455813751e+000	 1.037222034695291e+001
 2.666830731954233e+000	 3.649449583046558e+000	 1.034295278421137e+001
 2.626615146695152e+000	 3.678499853668705e+000	 1.031450455294981e+001
 3.032678774362512e+000	 3.387489940748560e+000	 1.056222489880275e+001
 2.995110334249033e+000	 3.420751678451020e+000	 1.054511300941267e+001
 2.957191037103733e+000	 3.453584855717059e+000	 1.052510126596908e+001
 2.918928229233141e+000	 3.485983986588032e+000	 1.050265221252472e+001
 2.880329369793212e+000	 3.517943753008950e+000	 1.047823697638536e+001
 2.841402025993399e+000	 3.549459007678244e+000	 1.045231709516401e+001
 2.802153868216250e+000	 3.580524776733461e+000	 1.042532756628254e+001
 2.762592665059089e+000	 3.611136262270088e+000	 1.039766124052495e+001
 2.722726278304399e+000	 3.641288844690951e+000	 1.036965466632804e+001
 2.682562657825637e+000	 3.670978084883970e+000	 1.034157547593340e+001
 2.642109836435286e+000	 3.700199726226330e+000	 1.031376015020485e+001
 3.050463974386978e+000	 3.407355937335999e+000	 1.056028320813705e+001
 3.012675213470734e+000	 3.440812739106494e+000	 1.054102532689091e+001
 2.974533537915240e+000	 3.473838467140046e+000	 1.051969074537840e+001
 2.936046337109576e+000	 3.506427603305496e+000	 1.049663167090475e+001
 2.897221113954047e+000	 3.538574798360020e+000	 1.047220415909225e+001
 2.858065480036139e+000	 3.570274874815601e+000	 1.044674955030395e+001
 2.818587150721498e+000	 3.601522829640471e+000	 1.042057719515079e+001
 2.778793940166522e+000	 3.632313836792711e+000	 1.039394859417788e+001
 2.738693756259257e+000	 3.662643249583430e+000	 1.036706306127187e+001
 2.698294595495338e+000	 3.692506602867291e+000	 1.034004500411653e+001
 2.657604537795815e+000	 3.721899615058424e+000	 1.031295049994199e+001
 3.068249192195627e+000	 3.427221953788212e+000	 1.055798186968918e+001
 3.030240110256312e+000	 3.460873819821820e+000	 1.053696184065700e+001
 2.991876056068266e+000	 3.494092098815463e+000	 1.051453905070908e+001
 2.953164462103144e+000	 3.526871240465430e+000	 1.049098009420804e+001
 2.914112875005661e+000	 3.559205864341033e+000	 1.046655067388977e+001
 2.874728950741376e+000	 3.591090762767767e+000	 1.044149658315582e+001
 2.835020449659075e+000	 3.622520903544523e+000	 1.041602604659516e+001
 2.794995231474285e+000	 3.653491432491950e+000	 1.039029354752552e+001
 2.754661250180662e+000	 3.683997675829406e+000	 1.036438525513256e+001
 2.714026548896058e+000	 3.714035142378267e+000	 1.033830614689570e+001
 2.673099254650146e+000	 3.743599525589590e+000	 1.031196890458497e+001
 3.086034432234504e+000	 3.447087995071351e+000	 1.055529621436787e+001
 3.047805028996744e+000	 3.480934925611909e+000	 1.053288459854211e+001
 3.009218595898184e+000	 3.514345755806345e+000	 1.050959878396429e+001
 2.970282608493129e+000	 3.547314903178364e+000	 1.048564407252595e+001
 2.931004657170742e+000	 3.579836956109365e+000	 1.046122011678624e+001
 2.891392442274725e+000	 3.611906676738323e+000	 1.043650138461578e+001
 2.851453769137057e+000	 3.643519003694747e+000	 1.041161905380415e+001
 2.811196543032450e+000	 3.674669054661810e+000	 1.038664446931895e+001
 2.770628764060226e+000	 3.705352128767094e+000	 1.036157427901299e+001
 2.729758521960522e+000	 3.735563708798650e+000	 1.033631734598867e+001
 2.688593990871690e+000	 3.765299463244428e+000	 1.031068351771264e+001
 3.103819698949656e+000	 3.466954066151564e+000	 1.055221163795735e+001
 3.065369974082997e+000	 3.500996061491667e+000	 1.052876603705191e+001
 3.026561161740377e+000	 3.534599443175730e+000	 1.050483322675127e+001
 2.987400780558812e+000	 3.567758596554827e+000	 1.048058114473942e+001
 2.947896464671988e+000	 3.600468078822398e+000	 1.045616729091643e+001
 2.908055958801806e+000	 3.632722621930851e+000	 1.043171861084259e+001
 2.867887113263519e+000	 3.664517135340264e+000	 1.040731288354777e+001
 2.827397878891083e+000	 3.695846708596299e+000	 1.038296175049673e+001
 2.786596301889565e+000	 3.726706613734713e+000	 1.035859550490824e+001
 2.745490518621454e+000	 3.757092307510191e+000	 1.033404974231569e+001
 2.704088750333855e+000	 3.786999433447542e+000	 1.030905395440644e+001
 3.121604996787129e+000	 3.486820171995005e+000	 1.054872269315469e+001
 3.082934949906041e+000	 3.521057232476000e+000	 1.052458805635484e+001
 3.043903757930221e+000	 3.554853165986655e+000	 1.050021540161645e+001
 3.004518982579476e+000	 3.588202325705353e+000	 1.047575884933328e+001
 2.964788301732086e+000	 3.621099237637516e+000	 1.045135724969920e+001
 2.924719504488238e+000	 3.653538603548932e+000	 1.042711342134986e+001
 2.884320486146530e+000	 3.685515303730201e+000	 1.040307497151882e+001
 2.843599243100252e+000	 3.717024399589421e+000	 1.037921683880910e+001
 2.802563867660294e+000	 3.748061136070473e+000	 1.035542568136211e+001
 2.761222542811580e+000	 3.778620943894639e+000	 1.033148621415029e+001
 2.719583536910048e+000	 3.808699441623531e+000	 1.030706957950914e+001
 3.139390330192968e+000	 3.506686317567826e+000	 1.054483218272848e+001
 3.100499960856846e+000	 3.541118443579816e+000	 1.052034109676017e+001
 3.061246388803097e+000	 3.575106929302157e+000	 1.049572713516053e+001
 3.021637218834404e+000	 3.608646095740469e+000	 1.047115377721169e+001
 2.981680172573729e+000	 3.641730437712096e+000	 1.044676434215809e+001
 2.941383083499637e+000	 3.674354626796148e+000	 1.042266051937353e+001
 2.900753891894165e+000	 3.706513514113686e+000	 1.039888256002216e+001
 2.859800639710027e+000	 3.738202132935184e+000	 1.037539127583263e+001
 2.818531465364027e+000	 3.769415701112596e+000	 1.035205197153625e+001
 2.776954598463622e+000	 3.800149623333742e+000	 1.032862041769386e+001
 2.735078354473680e+000	 3.830399493196998e+000	 1.030473095024011e+001
 3.157175703613221e+000	 3.526552507836178e+000	 1.054055025374793e+001
 3.118065011326384e+000	 3.561179699818027e+000	 1.051602321662047e+001
 3.078589058694385e+000	 3.595360738185272e+000	 1.049135812285631e+001
 3.038755493602876e+000	 3.629089911770705e+000	 1.046675062642873e+001
 2.998572081419611e+000	 3.662361684203525e+000	 1.044237126031260e+001
 2.958046700001627e+000	 3.695170696876085e+000	 1.041834319441822e+001
 2.917187334614500e+000	 3.727511771739845e+000	 1.039472173791242e+001
 2.876002072770478e+000	 3.759379913927594e+000	 1.037147573627410e+001
 2.834499098992381e+000	 3.790770314199297e+000	 1.034847099358976e+001
 2.792686689510306e+000	 3.821678351209255e+000	 1.032545582997195e+001
 2.750573206898158e+000	 3.852099593592544e+000	 1.030204886277743e+001
 2.595625786582433e+000	 3.635100135678463e+000	 1.031628250224589e+001
 2.555608527434690e+000	 3.663344291249593e+000	 1.028834332877786e+001
 2.515323157233419e+000	 3.691121249848880e+000	 1.026181973629038e+001
 2.474777776093069e+000	 3.718427371378763e+000	 1.023619442790414e+001
 2.433980545103553e+000	 3.745259201099026e+000	 1.021093878602754e+001
 2.392939681090943e+000	 3.771613470733660e+000	 1.018550784725767e+001
 2.351663451361818e+000	 3.797487099402197e+000	 1.015933624699813e+001
 2.310160168438054e+000	 3.822877194375687e+000	 1.013183514882781e+001
 2.268438184788723e+000	 3.847781051657798e+000	 1.010239016313738e+001
 2.226505887565815e+000	 3.872196156391829e+000	 1.007036024924018e+001
 2.184371693350319e+000	 3.896120183094671e+000	 1.003507758515469e+001
 2.611120464702003e+000	 3.656799991960951e+000	 1.031530043968789e+001
 2.570864321138576e+000	 3.685212751997569e+000	 1.028767291193301e+001
 2.530338466023376e+000	 3.713155526113802e+000	 1.026115996030550e+001
 2.489551047824762e+000	 3.740624652482407e+000	 1.023532958884303e+001
 2.448510276350555e+000	 3.767616655739987e+000	 1.020973836188826e+001
 2.407224417477455e+000	 3.794128248100461e+000	 1.018392605064743e+001
 2.365701787864013e+000	 3.820156330291954e+000	 1.015741129683305e+001
 2.323950749653989e+000	 3.845697992317275e+000	 1.012968830894345e+001
 2.281979705176810e+000	 3.870750514038510e+000	 1.010022459576994e+001
 2.239797091651857e+000	 3.895311365586440e+000	 1.006845973097589e+001
 2.197411375903191e+000	 3.919378207595922e+000	 1.003380513216134e+001
 2.626615146695152e+000	 3.678499853668705e+000	 1.031450455294981e+001
 2.586120118656368e+000	 3.707081218212970e+000	 1.028720535450557e+001
 2.545353778567168e+000	 3.735189807887587e+000	 1.026080812581750e+001
 2.504324323249834e+000	 3.762821939135639e+000	 1.023495482295088e+001
 2.463040011230107e+000	 3.789974115970545e+000	 1.020927499105972e+001
 2.421509157435315e+000	 3.816643031096151e+000	 1.018338010251654e+001
 2.379740127875997e+000	 3.842825566849163e+000	 1.015685896245755e+001
 2.337741334317804e+000	 3.868518795964159e+000	 1.012927419774693e+001
 2.295521228950525e+000	 3.893719982161630e+000	 1.010015983393931e+001
 2.253088299060944e+000	 3.918426580559851e+000	 1.006901995362228e+001
 2.210451061716201e+000	 3.942636237911626e+000	 1.003532841865169e+001
 2.642109836435286e+000	 3.700199726226330e+000	 1.031376015020485e+001
 2.601375923801742e+000	 3.728949695362553e+000	 1.028680655019613e+001
 2.560369098618346e+000	 3.757224100678466e+000	 1.026062081726708e+001
 2.519097606061323e+000	 3.785019236887461e+000	 1.023490763476946e+001
 2.477569753374350e+000	 3.812331587379766e+000	 1.020935745255064e+001
 2.435793904535414e+000	 3.839157825349139e+000	 1.018364053632921e+001
 2.393778474907056e+000	 3.865494814740869e+000	 1.015740213782967e+001
 2.351531925876844e+000	 3.891339611021289e+000	 1.013025880206234e+001
 2.309062759494951e+000	 3.916689461769292e+000	 1.010179581623078e+001
 2.266379513115586e+000	 3.941541807090635e+000	 1.007156579308381e+001
 2.223490754048992e+000	 3.965894279856078e+000	 1.003908837020752e+001
 2.657604537795815e+000	 3.721899615058424e+000	 1.031295049994199e+001
 2.616631740388380e+000	 3.750818188913088e+000	 1.028636067440411e+001
 2.575384429930460e+000	 3.779258409994674e+000	 1.026047346505616e+001
 2.533870899952260e+000	 3.807216551286875e+000	 1.023504517791800e+001
 2.492099506415425e+000	 3.834689075556711e+000	 1.020981521200171e+001
 2.450078662348638e+000	 3.861672636487839e+000	 1.018449983937409e+001
 2.407816832466474e+000	 3.888164079634114e+000	 1.015878716238335e+001
 2.365322527778456e+000	 3.914160443193614e+000	 1.013233326475008e+001
 2.322604300195172e+000	 3.939658958603628e+000	 1.010475956082238e+001
 2.279670737138295e+000	 3.964657050957376e+000	 1.007565133514484e+001
 2.236530456161203e+000	 3.989152339243565e+000	 1.004455745270083e+001
 2.673099254650146e+000	 3.743599525589590e+000	 1.031196890458497e+001
 2.631887572229961e+000	 3.772686704331335e+000	 1.028576964502271e+001
 2.590399776257064e+000	 3.801292741344445e+000	 1.026025979502885e+001
 2.548644208615680e+000	 3.829413887882882e+000	 1.023524368773568e+001
 2.506629273985478e+000	 3.857046586090442e+000	 1.021049783208323e+001
 2.464363434445877e+000	 3.884187470140660e+000	 1.018577183563152e+001
 2.421855204063538e+000	 3.910833367195940e+000	 1.016078317120309e+001
 2.379113143469984e+000	 3.936981298186089e+000	 1.013521319715249e+001
 2.336145854436271e+000	 3.962628478406766e+000	 1.010870443529354e+001
 2.292961974451582e+000	 3.987772317938653e+000	 1.008085909786381e+001
 2.249570171312477e+000	 4.012410421888376e+000	 1.005088783389240e+001
 2.688593990871690e+000	 3.765299463244428e+000	 1.031068351771264e+001
 2.647143423140168e+000	 3.794555247084063e+000	 1.028495258614621e+001
 2.605415141351708e+000	 3.823327100236014e+000	 1.025989128121009e+001
 2.563417535744618e+000	 3.851611252224485e+000	 1.023539791774415e+001
 2.521159059716648e+000	 3.879404124570021e+000	 1.021127438748788e+001
 2.478648224398018e+000	 3.906702331936015e+000	 1.018729107421924e+001
 2.435893593207532e+000	 3.933502683093391e+000	 1.016318145196448e+001
 2.392903776398776e+000	 3.959802181703660e+000	 1.013863799969244e+001
 2.349687425603333e+000	 3.985598026920839e+000	 1.011330943616868e+001
 2.306253228377954e+000	 4.010887613813039e+000	 1.008653467057987e+001
 2.262609902762454e+000	 4.035668533604806e+000	 1.005597969006121e+001
 2.704088750333855e+000	 3.786999433447542e+000	 1.030905395440644e+001
 2.662399296932676e+000	 3.816423822638034e+000	 1.028384529457151e+001
 2.620430528967939e+000	 3.845361492177609e+000	 1.025929660167021e+001
 2.578190885032107e+000	 3.873808649860682e+000	 1.023542057977578e+001
 2.535688867241081e+000	 3.901761696584513e+000	 1.021203288433297e+001
 2.492933035775950e+000	 3.929217227502316e+000	 1.018891222319171e+001
 2.449932003407742e+000	 3.956172032993508e+000	 1.016579480836830e+001
 2.406694430012176e+000	 3.982623099451280e+000	 1.014237019029686e+001
 2.363229017081439e+000	 4.008567609887977e+000	 1.011811830415672e+001
 2.319544502239928e+000	 4.034002944359120e+000	 1.009070756754253e+001
 2.275649653770777e+000	 4.058926680207140e+000	 1.005963117240865e+001
 2.719583536910048e+000	 3.808699441623531e+000	 1.030706957950914e+001
 2.677655197421170e+000	 3.838292436460014e+000	 1.028239877330899e+001
 2.635445942859313e+000	 3.867395922677467e+000	 1.025842109738935e+001
 2.592964260171184e+000	 3.896006086340477e+000	 1.023524178761965e+001
 2.550218700190915e+000	 3.924119307722978e+000	 1.021267968379483e+001
 2.507217872150561e+000	 3.951732162467970e+000	 1.019050946847792e+001
 2.463970438173452e+000	 3.978841422563334e+000	 1.016845692980744e+001
 2.420485107757531e+000	 4.005444057133899e+000	 1.014613165360513e+001
 2.376770632255675e+000	 4.031537233050311e+000	 1.012131157833161e+001
 2.332835799360011e+000	 4.057118315355471e+000	 1.009316227754366e+001
 2.288689427597086e+000	 4.082184867509672e+000	 1.006191885879699e+001
 2.735078354473680e+000	 3.830399493196998e+000	 1.030473095024011e+001
 2.692911128419328e+000	 3.860161094016767e+000	 1.028059492430091e+001
 2.650461386779380e+000	 3.889430397243821e+000	 1.025722623400083e+001
 2.607737664854879e+000	 3.918203567212871e+000	 1.023480850404448e+001
 2.564748562198296e+000	 3.946476963574480e+000	 1.021313892980596e+001
 2.521502737092740e+000	 3.974247142461395e+000	 1.019197591775235e+001
 2.478008901013948e+000	 4.001510857469911e+000	 1.017101703863291e+001
 2.434275813082186e+000	 4.028265060456468e+000	 1.014832266564043e+001
 2.390312274511121e+000	 4.054506902149972e+000	 1.012259390433218e+001
 2.346127123060713e+000	 4.080233732580672e+000	 1.009402905429630e+001
 2.301729227501026e+000	 4.105443101326692e+000	 1.006290897822549e+001
 2.750573206898158e+000	 3.852099593592544e+000	 1.030204886277743e+001
 2.708167093740830e+000	 3.882029800775059e+000	 1.027844741875887e+001
 2.665476864481691e+000	 3.911464921384907e+000	 1.025568906629837e+001
 2.622511102776230e+000	 3.940401098026868e+000	 1.023408399106336e+001
 2.579278456895366e+000	 3.968834669728083e+000	 1.021335198065289e+001
 2.535787634173377e+000	 3.996762173110999e+000	 1.019322300904294e+001
 2.492047395438517e+000	 4.024180343380285e+000	 1.017222186024488e+001
 2.448066549433489e+000	 4.051086115123940e+000	 1.014848377201772e+001
 2.403853947232864e+000	 4.077476622929091e+000	 1.012213976190180e+001
 2.359418476664550e+000	 4.103349201813303e+000	 1.009342601133854e+001
 2.314769056742236e+000	 4.128701387472491e+000	 1.006265728241269e+001
 2.184371693350319e+000	 3.896120183094671e+000	 1.003507758515469e+001
 2.142050406224803e+000	 3.919547518884829e+000	 9.999067928266365e+000
 2.099544179197507e+000	 3.942479845858591e+000	 9.964428451462254e+000
 2.056861484259474e+000	 3.964915410292883e+000	 9.929823623988122e+000
 2.014010801950552e+000	 3.986852646976335e+000	 9.893892387630350e+000
 1.971000616255271e+000	 4.008290178599602e+000	 9.858064638952415e+000
 1.927839409546484e+000	 4.029226814984732e+000	 9.828336471918176e+000
 1.884535657582464e+000	 4.049661552156452e+000	 9.803004911915913e+000
 1.841097824563030e+000	 4.069593571258429e+000	 9.780241308889423e+000
 1.797534358250065e+000	 4.089022237317836e+000	 9.758349272388561e+000
 1.753853685157622e+000	 4.107947097861665e+000	 9.735761635636155e+000
 2.197411375903191e+000	 3.919378207595922e+000	 1.003380513216134e+001
 2.154837450386865e+000	 3.942945393679175e+000	 9.998765863155406e+000
 2.112077480963578e+000	 3.966014615973811e+000	 9.965402552065322e+000
 2.069139990198221e+000	 3.988584110287832e+000	 9.932424691031388e+000
 2.026033509255522e+000	 4.010652302066275e+000	 9.898226995158602e+000
 1.982766572765459e+000	 4.032217805777887e+000	 9.860927943032912e+000
 1.939347713736705e+000	 4.053279424139899e+000	 9.828258996877446e+000
 1.895785458523871e+000	 4.073836147183757e+000	 9.800668304871392e+000
 1.852088321854113e+000	 4.093887151164926e+000	 9.776405928213949e+000
 1.808264801918528e+000	 4.113431797320074e+000	 9.753842117328576e+000
 1.764323375533540e+000	 4.132469630475131e+000	 9.731464384094126e+000
 2.210451061716201e+000	 3.942636237911626e+000	 1.003532841865169e+001
 2.167624497745855e+000	 3.966343274322894e+000	 1.000148981187096e+001
 2.124610785863071e+000	 3.989549391972592e+000	 9.969448090397403e+000
 2.081418499206607e+000	 4.012252816199792e+000	 9.937579843528749e+000
 2.038056219566090e+000	 4.034451963105934e+000	 9.903021545986103e+000
 1.994532532216958e+000	 4.056145438937855e+000	 9.864991836748775e+000
 1.950856020803727e+000	 4.077332039307960e+000	 9.829733490412609e+000
 1.907035262277360e+000	 4.098010748254415e+000	 9.800061564702357e+000
 1.863078821892374e+000	 4.118180737144485e+000	 9.774300968869415e+000
 1.818995248269089e+000	 4.137841363424329e+000	 9.750886327156310e+000
 1.774793068526321e+000	 4.156992169218810e+000	 9.728359156994713e+000
 2.223490754048992e+000	 3.965894279856078e+000	 1.003908837020752e+001
 2.180411551498271e+000	 3.989741166665249e+000	 1.000660184603171e+001
 2.137144097029070e+000	 4.013084179738415e+000	 9.975462400211805e+000
 2.093697014354038e+000	 4.035921533945723e+000	 9.942799259819235e+000
 2.050078935887736e+000	 4.058251636045005e+000	 9.907792378050317e+000
 2.006298497551088e+000	 4.080073084061181e+000	 9.869927842147158e+000
 1.962364333624481e+000	 4.101384666501830e+000	 9.832554065857639e+000
 1.918285071655266e+000	 4.122185361411838e+000	 9.801011008205325e+000
 1.874069327425340e+000	 4.142474335270259e+000	 9.773806437823771e+000
 1.829725699984286e+000	 4.162250941732745e+000	 9.749437090541752e+000
 1.785262766753336e+000	 4.181514720223090e+000	 9.726497804636972e+000
 2.236530456161203e+000	 3.989152339243565e+000	 1.004455745270083e+001
 2.193198614840611e+000	 4.013139076555489e+000	 1.001309671090370e+001
 2.149677417594655e+000	 4.036618985154762e+000	 9.981087262469428e+000
 2.105975538709923e+000	 4.059590269442583e+000	 9.947719950399563e+000
 2.062101661225939e+000	 4.082051326833177e+000	 9.912513378220329e+000
 2.018064471709168e+000	 4.104000747129544e+000	 9.875022158906941e+000
 1.973872655075903e+000	 4.125437311734431e+000	 9.836531412481751e+000
 1.929534889469919e+000	 4.146359992699434e+000	 9.803359093302007e+000
 1.885059841200544e+000	 4.166767951615396e+000	 9.774817558353172e+000
 1.840456159746657e+000	 4.186660538347462e+000	 9.749463392091501e+000
 1.795732472831950e+000	 4.206037289618354e+000	 9.725944052358392e+000
 2.249570171312477e+000	 4.012410421888376e+000	 1.005088783389240e+001
 2.205985690969373e+000	 4.036537009842877e+000	 1.001874650871075e+001
 2.162210750692910e+000	 4.060153814105111e+000	 9.986039858162558e+000
 2.118254075343664e+000	 4.083259028607333e+000	 9.952314838254900e+000
 2.074124398586184e+000	 4.105851041420147e+000	 9.917153283514981e+000
 2.029830457632516e+000	 4.127928434124628e+000	 9.880168659557389e+000
 1.985380988034921e+000	 4.149489981018679e+000	 9.841491460070781e+000
 1.940784718533653e+000	 4.170534648160611e+000	 9.806963148464897e+000
 1.896050365965514e+000	 4.191061592253049e+000	 9.777243578446285e+000
 1.851186630238740e+000	 4.211070159370624e+000	 9.750946913839144e+000
 1.806202189379531e+000	 4.230559883534988e+000	 9.726772509180460e+000
 2.262609902762454e+000	 4.035668533604806e+000	 1.005597969006121e+001
 2.218772783081055e+000	 4.059934972376666e+000	 1.002332100500488e+001
 2.174744099456915e+000	 4.083688672472943e+000	 9.990310806775460e+000
 2.130532627324668e+000	 4.106927817356930e+000	 9.956550925889928e+000
 2.086147150973949e+000	 4.129650785755607e+000	 9.921675361035122e+000
 2.041596458262454e+000	 4.151856151028106e+000	 9.885346895463838e+000
 1.996889335378473e+000	 4.173542680367493e+000	 9.847274060555018e+000
 1.952034561658799e+000	 4.194709333838777e+000	 9.811694118109637e+000
 1.907040904467783e+000	 4.215355263256366e+000	 9.781006593604014e+000
 1.861917114143072e+000	 4.235479810904370e+000	 9.753880949066931e+000
 1.816671919013446e+000	 4.255082508103376e+000	 9.729067686227214e+000
 2.275649653770777e+000	 4.058926680207140e+000	 1.005963117240865e+001
 2.231559894372153e+000	 4.083332970006111e+000	 1.002684580625040e+001
 2.187277467019754e+000	 4.107223566141736e+000	 9.993883658874266e+000
 2.142811197722343e+000	 4.130596641608336e+000	 9.960389007892937e+000
 2.098169921394717e+000	 4.153450565789250e+000	 9.926037104836851e+000
 2.053362476540301e+000	 4.175783903821666e+000	 9.890530651312098e+000
 2.008397699983487e+000	 4.197595415793795e+000	 9.853596338836054e+000
 1.963284421657691e+000	 4.218884055777343e+000	 9.817435323305380e+000
 1.918031459454879e+000	 4.239648970698496e+000	 9.786040383449699e+000
 1.872647614142193e+000	 4.259889499050847e+000	 9.758269327957013e+000
 1.827141664351063e+000	 4.279605169453904e+000	 9.732923024518200e+000
 2.288689427597086e+000	 4.082184867509672e+000	 1.006191885879699e+001
 2.244347028039166e+000	 4.106731008580471e+000	 1.002933796196381e+001
 2.199810856514507e+000	 4.130758500994972e+000	 9.996734652348515e+000
 2.155089789606092e+000	 4.154265507278510e+000	 9.963783399413074e+000
 2.110192712853969e+000	 4.177250387470769e+000	 9.930189949066445e+000
 2.065128515407376e+000	 4.199711698486983e+000	 9.895687655421837e+000
 2.019906084726899e+000	 4.221648193310500e+000	 9.860033882949594e+000
 1.974534301342661e+000	 4.243058820019718e+000	 9.824081237183780e+000
 1.929022033674333e+000	 4.263942720652591e+000	 9.792289261590852e+000
 1.883378132918639e+000	 4.284299229912193e+000	 9.764125354592695e+000
 1.837611428009748e+000	 4.304127873716954e+000	 9.738439931754932e+000
 2.301729227501026e+000	 4.105443101326692e+000	 1.006290897822549e+001
 2.257134187278591e+000	 4.130129093949001e+000	 1.003080577436594e+001
 2.212344271074256e+000	 4.154293482916130e+000	 9.998832483170716e+000
 2.167368406045321e+000	 4.177934420284410e+000	 9.966681679916244e+000
 2.122215528357185e+000	 4.201050256749856e+000	 9.934078996708902e+000
 2.076894577804999e+000	 4.223639541005737e+000	 9.900779305579862e+000
 2.031414492485641e+000	 4.245701018930528e+000	 9.866562976284987e+000
 1.985784203526040e+000	 4.267233632609310e+000	 9.831536274454770e+000
 1.940012629873676e+000	 4.288236519191803e+000	 9.799706938198717e+000
 1.894108673154950e+000	 4.308709009590554e+000	 9.771470754852336e+000
 1.848081212606869e+000	 4.328650627022916e+000	 9.745726827737245e+000
 2.314769056742236e+000	 4.128701387472491e+000	 1.006265728241269e+001
 2.269921375286927e+000	 4.153527231960959e+000	 1.003124862084029e+001
 2.224877713832085e+000	 4.177828517788692e+000	 1.000013809009841e+001
 2.179647050109438e+000	 4.201603386542996e+000	 9.969024451613974e+000
 2.134238370909848e+000	 4.224850179576209e+000	 9.937642763330818e+000
 2.088660666674489e+000	 4.247567437359611e+000	 9.905760409777512e+000
 2.042922926136646e+000	 4.269753898666801e+000	 9.873173208768797e+000
 1.997034131020162e+000	 4.291408499589529e+000	 9.839713594464177e+000
 1.951003250800438e+000	 4.312530372389278e+000	 9.808255394795667e+000
 1.904839237533663e+000	 4.333118844188068e+000	 9.780334634758070e+000
 1.858551020759794e+000	 4.353173435502171e+000	 9.754898198061735e+000
 1.753853685157622e+000	 4.107947097861665e+000	 9.735761635636155e+000
 1.710057629351524e+000	 4.126370607494756e+000	 9.710635022047821e+000
 1.666161110416385e+000	 4.144289799846914e+000	 9.682465705917053e+000
 1.622172468799514e+000	 4.161704763504537e+000	 9.651826200897158e+000
 1.578100005132252e+000	 4.178615762716244e+000	 9.619345822735827e+000
 1.533951975835255e+000	 4.195023235321111e+000	 9.585705700985457e+000
 1.489736588820484e+000	 4.210927790553209e+000	 9.551633864318873e+000
 1.445461999293614e+000	 4.226330206727043e+000	 9.517900394208326e+000
 1.401136305660350e+000	 4.241231428808610e+000	 9.485312645675363e+000
 1.356767545539909e+000	 4.255632565876874e+000	 9.454710537698373e+000
 1.312363691888676e+000	 4.269534888480566e+000	 9.426970730087485e+000
 1.764323375533540e+000	 4.132469630475131e+000	 9.731464384094126e+000
 1.720265877653797e+000	 4.151003119887775e+000	 9.707224050002701e+000
 1.676107316926896e+000	 4.169029281479971e+000	 9.680297074083102e+000
 1.631856083588732e+000	 4.186548204366939e+000	 9.651134074348265e+000
 1.587520527821553e+000	 4.203560154374750e+000	 9.620248605273094e+000
 1.543108955333008e+000	 4.220065571956186e+000	 9.588212234904175e+000
 1.498629623032470e+000	 4.236065069982164e+000	 9.555649666517825e+000
 1.454090734808400e+000	 4.251559431413378e+000	 9.523233899009124e+000
 1.409500437410214e+000	 4.266549606856837e+000	 9.491681424458873e+000
 1.364866816437977e+000	 4.281036712012199e+000	 9.461747465513376e+000
 1.320197892442914e+000	 4.295022025012785e+000	 9.434216028300428e+000
 1.774793068526321e+000	 4.156992169218810e+000	 9.728359156994713e+000
 1.730474128507555e+000	 4.175635638438452e+000	 9.704565718996367e+000
 1.686053525923382e+000	 4.193768769297368e+000	 9.678470433853450e+000
 1.641539700798301e+000	 4.211391651439615e+000	 9.650414165519941e+000
 1.596941052865475e+000	 4.228504552268712e+000	 9.620805554946097e+000
 1.552265937119550e+000	 4.245107914851144e+000	 9.590116178290069e+000
 1.507522659467327e+000	 4.261202355694691e+000	 9.558875721415388e+000
 1.462719472480057e+000	 4.276788662406223e+000	 9.527667164182960e+000
 1.417864571250882e+000	 4.291867791233776e+000	 9.497121972632895e+000
 1.372966089360723e+000	 4.306440864497702e+000	 9.467915301658273e+000
 1.328032094955653e+000	 4.320509167915921e+000	 9.440759364472543e+000
 1.785262766753336e+000	 4.181514720223090e+000	 9.726497804636972e+000
 1.740682384464818e+000	 4.200268169304669e+000	 9.702811295671520e+000
 1.695999739892365e+000	 4.218508269483743e+000	 9.677220369369701e+000
 1.651223322849097e+000	 4.236235110933195e+000	 9.649968125211938e+000
 1.606361582619119e+000	 4.253448962634002e+000	 9.621369007520912e+000
 1.561422923484098e+000	 4.270150270266356e+000	 9.591804060800659e+000
 1.516415700348281e+000	 4.286339653974895e+000	 9.561716173823347e+000
 1.471348214465735e+000	 4.302017906012684e+000	 9.531605305196608e+000
 1.426228709273348e+000	 4.317185988268775e+000	 9.502023688065274e+000
 1.381065366332916e+000	 4.331845029684224e+000	 9.473571016435459e+000
 1.335866301385387e+000	 4.345996323561552e+000	 9.446889620292634e+000
 1.795732472831950e+000	 4.206037289618354e+000	 9.725944052358392e+000
 1.750890648077604e+000	 4.224900718644310e+000	 9.702121932007456e+000
 1.705945961320361e+000	 4.243247788223719e+000	 9.676789726465531e+000
 1.660906952161998e+000	 4.261078589058305e+000	 9.650104607377349e+000
 1.615782119437594e+000	 4.278393391706492e+000	 9.622297407346494e+000
 1.570579916715873e+000	 4.295192644462189e+000	 9.593667988766439e+000
 1.525308747898565e+000	 4.311476971106893e+000	 9.564580574511846e+000
 1.479976962922586e+000	 4.327247168539862e+000	 9.535459032346660e+000
 1.434592853568603e+000	 4.342504204291177e+000	 9.506782110169917e+000
 1.389164649379327e+000	 4.357249213922600e+000	 9.479078624392702e+000
 1.343700513690607e+000	 4.371483498321261e+000	 9.452922608752091e+000
 1.806202189379531e+000	 4.230559883534988e+000	 9.726772509180460e+000
 1.761098921897934e+000	 4.249533292615256e+000	 9.702667782507902e+000
 1.715892192693890e+000	 4.267987331701934e+000	 9.677428827001648e+000
 1.670590591157879e+000	 4.285922092025571e+000	 9.651138569073344e+000
 1.625202665676004e+000	 4.303337845722058e+000	 9.623954681267627e+000
 1.579736919104094e+000	 4.320235043699012e+000	 9.596105081302140e+000
 1.534201804341407e+000	 4.336614313374795e+000	 9.567883366658688e+000
 1.488605720007758e+000	 4.352476456294862e+000	 9.539644175603016e+000
 1.442957006227640e+000	 4.367822445630329e+000	 9.511798471130657e+000
 1.397263940524723e+000	 4.382653423563673e+000	 9.484808749856372e+000
 1.351534733829807e+000	 4.396970698566631e+000	 9.459184183217994e+000
 1.816671919013446e+000	 4.255082508103376e+000	 9.729067686227214e+000
 1.771307208477830e+000	 4.274165897375390e+000	 9.704627128546303e+000
 1.725838436499470e+000	 4.292726906103013e+000	 9.679394688125695e+000
 1.680274242257617e+000	 4.310765626045626e+000	 9.653390573490302e+000
 1.634623223689456e+000	 4.328282330916574e+000	 9.626709614156777e+000
 1.588893932937980e+000	 4.345277474237194e+000	 9.599516906967340e+000
 1.543094871900039e+000	 4.361751687062710e+000	 9.572043372169336e+000
 1.497234487878402e+000	 4.377705775584788e+000	 9.544581209036872e+000
 1.451321169341452e+000	 4.393140718615578e+000	 9.517479246815952e+000
 1.405363241793874e+000	 4.408057664958274e+000	 9.491138192655104e+000
 1.359368963761479e+000	 4.422457930669241e+000	 9.466005783886907e+000
 1.827141664351063e+000	 4.279605169453904e+000	 9.732923024518200e+000
 1.781515510369310e+000	 4.298798539082597e+000	 9.708185509575628e+000
 1.735784695223622e+000	 4.317466517611590e+000	 9.682950246254269e+000
 1.689957907882089e+000	 4.335609197329096e+000	 9.657186095930546e+000
 1.644043795833055e+000	 4.353226853525915e+000	 9.630935225995632e+000
 1.598050960506749e+000	 4.370319942337101e+000	 9.604308920950341e+000
 1.551987952797689e+000	 4.386889098454755e+000	 9.577483277869348e+000
 1.505863268691669e+000	 4.402935132716745e+000	 9.550694774846285e+000
 1.459685345001030e+000	 4.418459029576267e+000	 9.524235707393801e+000
 1.413462555211549e+000	 4.433461944457243e+000	 9.498449494023619e+000
 1.367203205444115e+000	 4.447945201000673e+000	 9.473725858298293e+000
 1.837611428009748e+000	 4.304127873716954e+000	 9.738439931754932e+000
 1.791723830124394e+000	 4.323431223894759e+000	 9.713534860922319e+000
 1.745730971352862e+000	 4.342206172412294e+000	 9.688363585582795e+000
 1.699641590452171e+000	 4.360452812086607e+000	 9.662854832613794e+000
 1.653464384461906e+000	 4.378171419785954e+000	 9.637008150439321e+000
 1.607208004099624e+000	 4.395362454259105e+000	 9.610889902750108e+000
 1.560881049257587e+000	 4.412026553835040e+000	 9.584629121570098e+000
 1.514492064604708e+000	 4.428164533997836e+000	 9.558413206992055e+000
 1.468049535297369e+000	 4.443777384841744e+000	 9.532483467655625e+000
 1.421561882802517e+000	 4.458866268411420e+000	 9.507130502676750e+000
 1.375037460836209e+000	 4.473432515932509e+000	 9.482689432176759e+000
 1.848081212606869e+000	 4.328650627022916e+000	 9.745726827737245e+000
 1.801932170295104e+000	 4.348063957969758e+000	 9.720872657896976e+000
 1.755677267373712e+000	 4.366945876689758e+000	 9.695907170937691e+000
 1.709325292388740e+000	 4.385296476528788e+000	 9.670730012191832e+000
 1.662884991931116e+000	 4.403116035932563e+000	 9.645308014799873e+000
 1.616365066005822e+000	 4.420405016263575e+000	 9.619671394331764e+000
 1.569774163502965e+000	 4.437164059487676e+000	 9.593909778009008e+000
 1.523120877774671e+000	 4.453393985735167e+000	 9.568168054455452e+000
 1.476413742321459e+000	 4.469095790741354e+000	 9.542642037057334e+000
 1.429661226591549e+000	 4.484270643171642e+000	 9.517573941043825e+000
 1.382871731896253e+000	 4.498919881836328e+000	 9.493247681225913e+000
 1.858551020759794e+000	 4.353173435502171e+000	 9.754898198061735e+000
 1.812140533433458e+000	 4.372696747465477e+000	 9.730401065965683e+000
 1.765623585772689e+000	 4.391685636628613e+000	 9.705857084793266e+000
 1.719009016112671e+000	 4.410140196866270e+000	 9.681147709859657e+000
 1.672305620595791e+000	 4.428060708201621e+000	 9.656216821387414e+000
 1.625522148514562e+000	 4.445447634610877e+000	 9.631067138732487e+000
 1.578667297757052e+000	 4.462301621696777e+000	 9.605756444664554e+000
 1.531749710358706e+000	 4.478623494235841e+000	 9.580393604129034e+000
 1.484777968164294e+000	 4.494414253604442e+000	 9.555134369485286e+000
 1.437760588603412e+000	 4.509675075088746e+000	 9.530176971654022e+000
 1.390706020582741e+000	 4.524407305083716e+000	 9.505757503833507e+000
 1.312363691888676e+000	 4.269534888480566e+000	 9.426970730087485e+000
 1.267932648602657e+000	 4.282939824829096e+000	 9.401393352276884e+000
 1.223482245031363e+000	 4.295848954764352e+000	 9.376401544519688e+000
 1.179020234462681e+000	 4.308264010049258e+000	 9.351573186365405e+000
 1.134554291362543e+000	 4.320186872431324e+000	 9.326698609478436e+000
 1.090092008085801e+000	 4.331619570558885e+000	 9.301752115563659e+000
 1.045640891710206e+000	 4.342564276822999e+000	 9.276865344425453e+000
 1.001208360994867e+000	 4.353023304130099e+000	 9.252302358366244e+000
 9.568017434643769e-001	 4.362999102610631e+000	 9.228436620455154e+000
 9.124282726195250e-001	 4.372494256268735e+000	 9.205728947839349e+000
 8.680950852753391e-001	 4.381511479578151e+000	 9.184707591428849e+000
 1.320197892442914e+000	 4.295022025012785e+000	 9.434216028300428e+000
 1.275501616503612e+000	 4.308506982593760e+000	 9.408516368108804e+000
 1.230785864707158e+000	 4.321493174027922e+000	 9.383305958205080e+000
 1.186058436624959e+000	 4.333982341416011e+000	 9.358238055762707e+000
 1.141327052535938e+000	 4.345976377738679e+000	 9.333170916241700e+000
 1.096599350117776e+000	 4.357477323754349e+000	 9.308139437674317e+000
 1.051882881261982e+000	 4.368487364822227e+000	 9.283328624638664e+000
 1.007185109014209e+000	 4.379008827655715e+000	 9.259048793678893e+000
 9.625134046409606e-001	 4.389044177011387e+000	 9.235712351261702e+000
 9.178750448236620e-001	 4.398596012318689e+000	 9.213812026986904e+000
 8.732772089808063e-001	 4.407667064255488e+000	 9.193900702677190e+000
 1.328032094955653e+000	 4.320509167915921e+000	 9.440759364472543e+000
 1.283070586296851e+000	 4.334074146749346e+000	 9.415191229471132e+000
 1.238089486208987e+000	 4.347137399701696e+000	 9.390021620520004e+000
 1.193096640547000e+000	 4.359700679211523e+000	 9.364968184865578e+000
 1.148099815402816e+000	 4.371765889492630e+000	 9.339947054307368e+000
 1.103106693776948e+000	 4.383335083413516e+000	 9.315044658914788e+000
 1.058124872374679e+000	 4.394410459301542e+000	 9.290491323547700e+000
 1.013161858528212e+000	 4.404994357677095e+000	 9.266636530635577e+000
 9.682250672459715e-001	 4.415089257922869e+000	 9.243925968513452e+000
 9.233218183900274e-001	 4.424697774893605e+000	 9.222879201318092e+000
 8.784593339823467e-001	 4.433822655471317e+000	 9.204070089004798e+000
 1.335866301385387e+000	 4.345996323561552e+000	 9.446889620292634e+000
 1.290639559874550e+000	 4.359641323687433e+000	 9.421626684559348e+000
 1.245393111362680e+000	 4.372781638196507e+000	 9.396682826369561e+000
 1.200134847988272e+000	 4.385419029865138e+000	 9.371828364711467e+000
 1.154872581656271e+000	 4.397555414140287e+000	 9.347027142213591e+000
 1.109614040690050e+000	 4.409192856000539e+000	 9.322407960794074e+000
 1.064366866608685e+000	 4.420333566741420e+000	 9.298238348910644e+000
 1.019138611030946e+000	 4.430979900690285e+000	 9.274899946176124e+000
 9.739367327072042e-001	 4.441134351855978e+000	 9.252865663053832e+000
 9.287685946801907e-001	 4.450799550518534e+000	 9.232677201415969e+000
 8.836414615753684e-001	 4.459978259764122e+000	 9.214925655957369e+000
 1.343700513690607e+000	 4.371483498321261e+000	 9.452922608752091e+000
 1.298208539128881e+000	 4.385208519799600e+000	 9.428053967892902e+000
 1.252696741994064e+000	 4.398425895923181e+000	 9.403450173061374e+000
 1.207173060708235e+000	 4.411137399806195e+000	 9.378913123873113e+000
 1.161645352989398e+000	 4.423344958128768e+000	 9.354444071588604e+000
 1.116121392483815e+000	 4.435050647979575e+000	 9.330204916417017e+000
 1.070608865524384e+000	 4.446256693622319e+000	 9.306492185266256e+000
 1.025115368016482e+000	 4.456965463191335e+000	 9.283712570965092e+000
 9.796484024524523e-001	 4.467179465321619e+000	 9.262360213677228e+000
 9.342153750557217e-001	 4.476901345718529e+000	 9.242994145787650e+000
 8.888235930552790e-001	 4.486133883672388e+000	 9.226219011136237e+000
 1.351534733829807e+000	 4.396970698566631e+000	 9.459184183217994e+000
 1.305777525952022e+000	 4.410775741477424e+000	 9.434724762746473e+000
 1.260000379928967e+000	 4.424070179292549e+000	 9.410508625424139e+000
 1.214211280466357e+000	 4.436855795464039e+000	 9.386344898819882e+000
 1.168418131095294e+000	 4.449134527905186e+000	 9.362261785198479e+000
 1.122628750784974e+000	 4.460908465814775e+000	 9.338444878555793e+000
 1.076850870682165e+000	 4.472179846424699e+000	 9.315211394266520e+000
 1.031092130978891e+000	 4.482951051676290e+000	 9.292985897084089e+000
 9.853600779095110e-001	 4.493224604830711e+000	 9.272277718353983e+000
 9.396621608781907e-001	 4.503003167018645e+000	 9.253658390531708e+000
 8.940057297174856e-001	 4.512289533734595e+000	 9.237742434213621e+000
 1.359368963761479e+000	 4.422457930669241e+000	 9.466005783886907e+000
 1.313346522236146e+000	 4.436342995112480e+000	 9.441909165701416e+000
 1.267304026993219e+000	 4.449714494715444e+000	 9.418065583877853e+000
 1.221249509022101e+000	 4.462574223268007e+000	 9.394272207874472e+000
 1.175190917667051e+000	 4.474924129916656e+000	 9.370573559041764e+000
 1.129136117220259e+000	 4.486766315970297e+000	 9.347169372023865e+000
 1.083092883642415e+000	 4.498103031629028e+000	 9.324389119367588e+000
 1.037068901412243e+000	 4.508936672641196e+000	 9.302667963905938e+000
 9.910717605061742e-001	 4.519269776894150e+000	 9.282524329312395e+000
 9.451089535091670e-001	 4.529105020943928e+000	 9.264537382299725e+000
 8.991878728573962e-001	 4.538445216489230e+000	 9.249327849466853e+000
 1.367203205444115e+000	 4.447945201000673e+000	 9.473725858298293e+000
 1.320915529873429e+000	 4.461910287096349e+000	 9.449893653218119e+000
 1.274607685012648e+000	 4.475358848602692e+000	 9.426348955324716e+000
 1.228287748134932e+000	 4.488292689647440e+000	 9.402867828609631e+000
 1.181963714397768e+000	 4.500713770610291e+000	 9.379500288319111e+000
 1.135643493416402e+000	 4.512624204910294e+000	 9.356450490171799e+000
 1.089334905965519e+000	 4.524026255715766e+000	 9.334051594697952e+000
 1.043045680810607e+000	 4.534922332582100e+000	 9.312741981080871e+000
 9.967834516702370e-001	 4.545314988022852e+000	 9.293042991818876e+000
 9.505557543102210e-001	 4.555206914019435e+000	 9.275536514417253e+000
 9.043700237704184e-001	 4.564600938474771e+000	 9.260845800729586e+000
 1.375037460836209e+000	 4.473432515932509e+000	 9.482689432176759e+000
 1.328484550756046e+000	 4.487477623820608e+000	 9.458979050133294e+000
 1.281911355813081e+000	 4.501003247365126e+000	 9.435605226734849e+000
 1.235325999564314e+000	 4.514011201031684e+000	 9.412326978535926e+000
 1.188736522980537e+000	 4.526503456433209e+000	 9.389188777113244e+000
 1.142150881000136e+000	 4.538482139098919e+000	 9.366389295332144e+000
 1.095576939211864e+000	 4.549949525165379e+000	 9.344256657930123e+000
 1.049022470668055e+000	 4.560908037995049e+000	 9.323224955393686e+000
 1.002495152829493e+000	 4.571360244727723e+000	 9.303812186504866e+000
 9.560025646429224e-001	 4.581308852770217e+000	 9.286597986035316e+000
 9.095521837519596e-001	 4.590756706229706e+000	 9.272204428661473e+000
 1.382871731896253e+000	 4.498919881836328e+000	 9.493247681225913e+000
 1.336053586776172e+000	 4.513045011676836e+000	 9.469479500623656e+000
 1.289215041220348e+000	 4.526647697413575e+000	 9.446097541305498e+000
 1.242364265069711e+000	 4.539729763850075e+000	 9.422865498937746e+000
 1.195509345108456e+000	 4.552293193832522e+000	 9.399810031621636e+000
 1.148658281598193e+000	 4.564340125000327e+000	 9.377114223047695e+000
 1.101818984941837e+000	 4.575872846458329e+000	 9.355092266989784e+000
 1.054999272478657e+000	 4.586893795376091e+000	 9.334166321332290e+000
 1.008206865411738e+000	 4.597405553519671e+000	 9.314844675095159e+000
 9.614493858688403e-001	 4.607410843721321e+000	 9.297699664189162e+000
 9.147343540974272e-001	 4.616912526292514e+000	 9.283348450242825e+000
 1.390706020582741e+000	 4.524407305083716e+000	 9.505757503833507e+000
 1.343622639825983e+000	 4.538612457056611e+000	 9.481725737852621e+000
 1.296518743060277e+000	 4.552292205158869e+000	 9.458103777078089e+000
 1.249402546410590e+000	 4.565448384531957e+000	 9.434718041720577e+000
 1.202282182474618e+000	 4.578082989255348e+000	 9.411557556790420e+000
 1.155165696837305e+000	 4.590198169078671e+000	 9.388779489924501e+000
 1.108061044715827e+000	 4.601796226075082e+000	 9.366675020442983e+000
 1.060976087736485e+000	 4.612879611221273e+000	 9.345646575214852e+000
 1.013918590844765e+000	 4.623450920909603e+000	 9.326185991542427e+000
 9.668962193495460e-001	 4.633512893397808e+000	 9.308853948645689e+000
 9.199165361022298e-001	 4.643068405201682e+000	 9.294258140403626e+000
 8.680950852753391e-001	 4.381511479578151e+000	 9.184707591428849e+000
 8.238158559823361e-001	 4.390052368877189e+000	 9.166460624479651e+000
 7.795908563484760e-001	 4.398121279226209e+000	 9.150951341095373e+000
 7.354269054959154e-001	 4.405721297882294e+000	 9.137092501563759e+000
 6.913307167858134e-001	 4.412855628386947e+000	 9.123818349646868e+000
 6.473088957992209e-001	 4.419527586972392e+000	 9.109737936343793e+000
 6.033679384448826e-001	 4.425740598943745e+000	 9.091901754289193e+000
 5.595142291933083e-001	 4.431498195041700e+000	 9.070750158356169e+000
 5.157540394362644e-001	 4.436804007790360e+000	 9.047615836603134e+000
 4.720935259706708e-001	 4.441661767834681e+000	 9.023981758044517e+000
 4.285387296057504e-001	 4.446075300271935e+000	 9.001389841274149e+000
 8.732772089808063e-001	 4.407667064255488e+000	 9.193900702677190e+000
 8.287336532936124e-001	 4.416258938689484e+000	 9.177033697592409e+000
 7.842446509914092e-001	 4.424376016678724e+000	 9.163043917316390e+000
 7.398170619033307e-001	 4.432021403909765e+000	 9.150711053660611e+000
 6.954576394661727e-001	 4.439198323047760e+000	 9.138829344082497e+000
 6.511730286932236e-001	 4.445910110121298e+000	 9.125982659334929e+000
 6.069697642707742e-001	 4.452160210882961e+000	 9.109173878783595e+000
 5.628542687816454e-001	 4.457952177150323e+000	 9.088828562459964e+000
 5.188328510548876e-001	 4.463289663131957e+000	 9.066456590206936e+000
 4.749117046406270e-001	 4.468176421743034e+000	 9.043663420586443e+000
 4.310969064089004e-001	 4.472616300914868e+000	 9.022069397882655e+000
 8.784593339823467e-001	 4.433822655471317e+000	 9.204070089004798e+000
 8.336514518348716e-001	 4.442465515053096e+000	 9.188517097767161e+000
 7.888984467982979e-001	 4.450630760694662e+000	 9.175944918612670e+000
 7.442072194087525e-001	 4.458321516512071e+000	 9.165037258845908e+000
 6.995845631786759e-001	 4.465541024294118e+000	 9.154486127760288e+000
 6.550371625536070e-001	 4.472292639865747e+000	 9.142861493770891e+000
 6.105715909973929e-001	 4.478579829427027e+000	 9.127183976095218e+000
 5.661943092051769e-001	 4.484406165872398e+000	 9.107805440990486e+000
 5.219116634433041e-001	 4.489775325094919e+000	 9.086391059098336e+000
 4.777298840151175e-001	 4.494691082279965e+000	 9.064645357867910e+000
 4.336550838514772e-001	 4.499157308192906e+000	 9.044242782230629e+000
 8.836414615753684e-001	 4.459978259764122e+000	 9.214925655957369e+000
 8.385692528354413e-001	 4.468672104519223e+000	 9.200589885950574e+000
 7.935522449324753e-001	 4.476885517837254e+000	 9.189309456696590e+000
 7.485973791096096e-001	 4.484621642263762e+000	 9.179708625284579e+000
 7.037114889549524e-001	 4.491883738711194e+000	 9.170414435300197e+000
 6.589012983463134e-001	 4.498675182800865e+000	 9.159992915353982e+000
 6.141734195251157e-001	 4.504999461180328e+000	 9.145551899660500e+000
 5.695343512988461e-001	 4.510860167820907e+000	 9.127313312584462e+000
 5.249904773711640e-001	 4.516261000300146e+000	 9.107071522609704e+000
 4.805480647986481e-001	 4.521205756073643e+000	 9.086602504603361e+000
 4.362132625730023e-001	 4.525698328740825e+000	 9.067606291386404e+000
 8.888235930552790e-001	 4.486133883672388e+000	 9.226219011136237e+000
 8.434870575246498e-001	 4.494878713639076e+000	 9.212972613784837e+000
 7.982060465572729e-001	 4.503140294669722e+000	 9.202833369237116e+000
 7.529875421033313e-001	 4.510921787739378e+000	 9.194402077278054e+000
 7.078384178266317e-001	 4.518226472884164e+000	 9.186277572040844e+000
 6.627654370372837e-001	 4.525057745521771e+000	 9.177031762983740e+000
 6.177752507543193e-001	 4.531419112747249e+000	 9.163930586085774e+000
 5.728743958975961e-001	 4.537314189608826e+000	 9.147014455098258e+000
 5.280692936081175e-001	 4.542746695368543e+000	 9.128176569843053e+000
 4.833662476957264e-001	 4.547720449752236e+000	 9.109232449158483e+000
 4.387714432129979e-001	 4.552239369193409e+000	 9.091874932902366e+000
 8.940057297174856e-001	 4.512289533734595e+000	 9.237742434213621e+000
 8.484048671318258e-001	 4.521085348963855e+000	 9.225426416657328e+000
 8.028598528360235e-001	 4.529395097755289e+000	 9.216252439152886e+000
 7.573777094873467e-001	 4.537221959513468e+000	 9.208833303508982e+000
 7.119653508253424e-001	 4.544569233398201e+000	 9.201775893454478e+000
 6.666295795924608e-001	 4.551440334623584e+000	 9.193668722484029e+000
 6.213770855853806e-001	 4.557838790732177e+000	 9.182005659102140e+000
 5.762144438363704e-001	 4.563768237849135e+000	 9.166600638037240e+000
 5.311481129238144e-001	 4.569232416921015e+000	 9.149410967400257e+000
 4.861844334108584e-001	 4.574235169943914e+000	 9.132255441994246e+000
 4.413296264109850e-001	 4.578780436185433e+000	 9.116782577984061e+000
 8.991878728573962e-001	 4.538445216489230e+000	 9.249327849466853e+000
 8.533226828862972e-001	 4.547292017044767e+000	 9.237752108249786e+000
 8.075136649320586e-001	 4.555649933657177e+000	 9.229341614118651e+000
 7.617678823590857e-001	 4.563522164160577e+000	 9.222756103959688e+000
 7.160922889827143e-001	 4.570912026838485e+000	 9.216646281456605e+000
 6.704937269777868e-001	 4.577822956701428e+000	 9.209640938448978e+000
 6.249789249186767e-001	 4.584258501739503e+000	 9.199495026197214e+000
 5.795544959501117e-001	 4.590222319154812e+000	 9.185792845244514e+000
 5.342269360879054e-001	 4.595718171578467e+000	 9.170505514770882e+000
 4.890026226485514e-001	 4.600749923276846e+000	 9.155414388996315e+000
 4.438878128064858e-001	 4.605321536351674e+000	 9.142082096614857e+000
 9.043700237704184e-001	 4.564600938474771e+000	 9.260845800729586e+000
 8.582405060173920e-001	 4.573498724433014e+000	 9.249789276526670e+000
 8.121674840087108e-001	 4.581904808938609e+000	 9.241914226277270e+000
 7.661580618159765e-001	 4.589822408255249e+000	 9.235961735559396e+000
 7.202192333303767e-001	 4.597254859790194e+000	 9.230661617736955e+000
 6.743578801592034e-001	 4.604205618350421e+000	 9.224719033638626e+000
 6.285807696545844e-001	 4.610678252373612e+000	 9.216148468220258e+000
 5.828945530737637e-001	 4.616676440138839e+000	 9.204340988242739e+000
 5.373057638700403e-001	 4.622203965961802e+000	 9.191216887876619e+000
 4.918208161133116e-001	 4.627264716379196e+000	 9.178474830300488e+000
 4.464460030390218e-001	 4.631862676326913e+000	 9.167545475364690e+000
 9.095521837519596e-001	 4.590756706229706e+000	 9.272204428661473e+000
 8.631583377544390e-001	 4.599705477679803e+000	 9.261415381104715e+000
 8.168213112293120e-001	 4.608159730162813e+000	 9.253821212149342e+000
 7.705482489554487e-001	 4.616122698372030e+000	 9.248278256612119e+000
 7.243461848999587e-001	 4.623597738838499e+000	 9.243630254233162e+000
 6.782220401026525e-001	 4.630588326165689e+000	 9.238694396228672e+000
 6.321826206934803e-001	 4.637098049238887e+000	 9.231747222243319e+000
 5.862346160422692e-001	 4.643130607414196e+000	 9.222023610604902e+000
 5.403845970398691e-001	 4.648689806691922e+000	 9.211327471248017e+000
 4.946390145096462e-001	 4.653779555879138e+000	 9.201224905196519e+000
 4.490041977481147e-001	 4.658403862745925e+000	 9.192963918578023e+000
 9.147343540974272e-001	 4.616912526292514e+000	 9.283348450242825e+000
 8.680761793267666e-001	 4.625912283336335e+000	 9.272544851947991e+000
 8.214751477571944e-001	 4.634414703893005e+000	 9.264950332733136e+000
 7.749384448749321e-001	 4.642423041085466e+000	 9.259569870054797e+000
 7.284731447230899e-001	 4.649940670568578e+000	 9.255395480862065e+000
 6.820862077740764e-001	 4.656971086742350e+000	 9.251391623622686e+000
 6.357844789357414e-001	 4.663517898939720e+000	 9.246103557948047e+000
 5.895746856905716e-001	 4.669584827593856e+000	 9.238536446960060e+000
 5.434634363670423e-001	 4.675175700389738e+000	 9.229598230632973e+000
 4.974572185420614e-001	 4.680294448404837e+000	 9.220571669374198e+000
 4.515623975732861e-001	 4.684945102243493e+000	 9.212587811391380e+000
 9.199165361022298e-001	 4.643068405201682e+000	 9.294258140403626e+000
 8.729940319637027e-001	 4.652119147953820e+000	 9.283128189334981e+000
 8.261289947556902e-001	 4.660669736692415e+000	 9.275225393786744e+000
 7.793286506718555e-001	 4.668723442970103e+000	 9.269700275782466e+000
 7.326001138313993e-001	 4.676283661565610e+000	 9.264937336315908e+000
 6.859503841394172e-001	 4.683353906675524e+000	 9.259660423124341e+000
 6.393863452817451e-001	 4.689937808080498e+000	 9.252577662881977e+000
 5.929147628536142e-001	 4.696039107290805e+000	 9.242670208310736e+000
 5.465422826212100e-001	 4.701661653676148e+000	 9.231383854959759e+000
 5.002754289150642e-001	 4.706809400584463e+000	 9.220076194361598e+000
 4.541206031540580e-001	 4.711486401454395e+000	 9.209839616131728e+000
 4.285387296057504e-001	 4.446075300271935e+000	 9.001389841274149e+000
 3.850890805500643e-001	 4.450049084339991e+000	 8.981452026176777e+000
 3.417570031782413e-001	 4.453586430291698e+000	 8.964671057329754e+000
 2.985482730329779e-001	 4.456691427433116e+000	 8.950848715301810e+000
 2.554685425323549e-001	 4.459368244970696e+000	 8.939668312984582e+000
 2.125233401846509e-001	 4.461621128336633e+000	 8.930658358080574e+000
 1.697180699191656e-001	 4.463454395533640e+000	 8.923160617773180e+000
 1.270580105308178e-001	 4.464872433502731e+000	 8.916300826176679e+000
 8.454831523620064e-002	 4.465879694517425e+000	 8.908960440503094e+000
 4.219401133867746e-002	 4.466480692607675e+000	 8.899748019344493e+000
 0.000000000000000e+000	 4.466680000016666e+000	 8.886968964374182e+000
 4.310969064089004e-001	 4.472616300914868e+000	 9.022069397882655e+000
 3.873878831668753e-001	 4.476613806624297e+000	 9.003552017547641e+000
 3.437971334569232e-001	 4.480172268884856e+000	 8.988863642373387e+000
 3.003304672990531e-001	 4.483295801413886e+000	 8.977819071088389e+000
 2.569935708536610e-001	 4.485988598306078e+000	 8.970102324989993e+000
 2.137920056316580e-001	 4.488254930336909e+000	 8.965240130083489e+000
 1.707312078212959e-001	 4.490099141285577e+000	 8.962579320434550e+000
 1.278164877294525e-001	 4.491525644281117e+000	 8.961266332429968e+000
 8.505302933503577e-002	 4.492538918175070e+000	 8.960227133655593e+000
 4.244588995207965e-002	 4.493143503944065e+000	 8.958146106183959e+000
 0.000000000000000e+000	 4.493344001125478e+000	 8.953442580476892e+000
 4.336550838514772e-001	 4.499157308192906e+000	 9.044242782230629e+000
 3.896866863581598e-001	 4.503178535549549e+000	 9.027231586201550e+000
 3.458372642453053e-001	 4.506758114124130e+000	 9.014527064262667e+000
 3.021126620102520e-001	 4.509900182045276e+000	 9.005946072356613e+000
 2.585185995557294e-001	 4.512608958295947e+000	 9.001164680731208e+000
 2.150606713952958e-001	 4.514888738994899e+000	 8.999701938012187e+000
 1.717443459761731e-001	 4.516743893697840e+000	 9.000907045139101e+000
 1.285749651172138e-001	 4.518178861721836e+000	 9.003948035998725e+000
 8.555774355965584e-002	 4.519198148496463e+000	 9.007800244579491e+000
 4.269776862821956e-002	 4.519806321945047e+000	 9.011233023475343e+000
 0.000000000000000e+000	 4.520008008899155e+000	 9.012793363781652e+000
 4.362132625730023e-001	 4.525698328740825e+000	 9.067606291386404e+000
 3.919854906986117e-001	 4.529743277756488e+000	 9.052212300221294e+000
 3.478773960534283e-001	 4.533343972655577e+000	 9.041417146889316e+000
 3.038948576121460e-001	 4.536504575978025e+000	 9.035024489443650e+000
 2.600436290198505e-001	 4.539229331595073e+000	 9.032689576064865e+000
 2.163293377927728e-001	 4.541522560968785e+000	 9.033913771476344e+000
 1.727574846371275e-001	 4.543388659431392e+000	 9.038041950435064e+000
 1.293334428837651e-001	 4.544832092488000e+000	 9.044260780268104e+000
 8.606245803627605e-002	 4.545857392146253e+000	 9.051596106700314e+000
 4.294964743008914e-002	 4.546469153276179e+000	 9.058907851448421e+000
 0.000000000000000e+000	 4.546672030003566e+000	 9.064881024376271e+000
 4.387714432129979e-001	 4.552239369193409e+000	 9.091874932902366e+000
 3.942842967629250e-001	 4.556308039885857e+000	 9.078229909922158e+000
 3.499175293913340e-001	 4.559929851125254e+000	 9.069298491759662e+000
 3.056770545503056e-001	 4.563108989862871e+000	 9.064851519653248e+000
 2.615686596273151e-001	 4.565849724858241e+000	 9.064506269882021e+000
 2.175980051412969e-001	 4.568156402916755e+000	 9.067732241350461e+000
 1.737706240574891e-001	 4.570033445147191e+000	 9.073859234947282e+000
 1.300919212187698e-001	 4.571485343242732e+000	 9.082085669736751e+000
 8.656717289111159e-002	 4.572516655789086e+000	 9.091485282919088e+000
 4.320152642068027e-002	 4.573132004603027e+000	 9.101010564264991e+000
 0.000000000000000e+000	 4.573336071104578e+000	 9.109491479460536e+000
 4.413296264109850e-001	 4.578780436185433e+000	 9.116782577984061e+000
 3.965831051257935e-001	 4.582872828578392e+000	 9.105034654714890e+000
 3.519576647690631e-001	 4.586515756179225e+000	 9.097944952334730e+000
 3.074592532703023e-001	 4.589713430350549e+000	 9.095227441326268e+000
 2.630936917594145e-001	 4.592470144740219e+000	 9.096439928649977e+000
 2.188666737580767e-001	 4.594790271496990e+000	 9.101001624035982e+000
 1.747837644905881e-001	 4.596678257506201e+000	 9.108212389140549e+000
 1.308504003118915e-001	 4.598138620649134e+000	 9.117271535620118e+000
 8.707188825037780e-002	 4.599175946089609e+000	 9.127294249982102e+000
 4.345340566298491e-002	 4.599794882591152e+000	 9.137323936699740e+000
 0.000000000000000e+000	 4.600000138868055e+000	 9.146338984536087e+000
 4.438878128064858e-001	 4.605321536351674e+000	 9.142082096614857e+000
 3.988819163619112e-001	 4.609437650474841e+000	 9.132391548630652e+000
 3.539978026966568e-001	 4.613101694463545e+000	 9.127140083173245e+000
 3.092414542177066e-001	 4.616317904091794e+000	 9.125956238309165e+000
 2.646187257974394e-001	 4.619090597895789e+000	 9.128312436420989e+000
 2.201353439603201e-001	 4.621424173367672e+000	 9.133554865752570e+000
 1.757969061897544e-001	 4.623323103169382e+000	 9.140934401187350e+000
 1.316088803527938e-001	 4.624791931370332e+000	 9.149636349166729e+000
 8.757660424028992e-002	 4.625835269712468e+000	 9.158807023724700e+000
 4.370528521999494e-002	 4.626457793906114e+000	 9.167575384430016e+000
 0.000000000000000e+000	 4.626664239959867e+000	 9.175068190533292e+000
 4.464460030390218e-001	 4.631862676326913e+000	 9.167545475364690e+000
 4.011807310459722e-001	 4.636002512215940e+000	 9.160080645368796e+000
 3.560379436841565e-001	 4.639687672624278e+000	 9.156677564893776e+000
 3.110236578380897e-001	 4.642922417737343e+000	 9.156846196013969e+000
 2.661437621226806e-001	 4.645711090979727e+000	 9.159943171699103e+000
 2.214040160652356e-001	 4.648058115186988e+000	 9.165214548467777e+000
 1.768100494083184e-001	 4.649967988797697e+000	 9.171838918786646e+000
 1.323673615311400e-001	 4.651445282069431e+000	 9.178968584789660e+000
 8.808132098706309e-002	 4.652494633322308e+000	 9.185766727565776e+000
 4.395716515470233e-002	 4.653120745213482e+000	 9.191438740601457e+000
 0.000000000000000e+000	 4.653328381045878e+000	 9.195256129848884e+000
 4.490041977481147e-001	 4.658403862745925e+000	 9.192963918578023e+000
 4.034795497526701e-001	 4.662567420442431e+000	 9.187897283689297e+000
 3.580780882416032e-001	 4.666273697307478e+000	 9.186361605925804e+000
 3.128058645770226e-001	 4.669526977937935e+000	 9.187562758818064e+000
 2.676688011164292e-001	 4.672331630646809e+000	 9.190568847152933e+000
 2.226726903900313e-001	 4.674692103613121e+000	 9.194662564239840e+000
 1.778231943996100e-001	 4.676612921052107e+000	 9.199088925088178e+000
 1.331258440365939e-001	 4.678098679409549e+000	 9.203083596540731e+000
 8.858603861691267e-002	 4.679154043583776e+000	 9.205902598098495e+000
 4.420904553009895e-002	 4.679783743178811e+000	 9.206850264102158e+000
 0.000000000000000e+000	 4.679992568791956e+000	 9.205305662187499e+000
 4.515623975732861e-001	 4.684945102243493e+000	 9.212587811391380e+000
 4.057783730566993e-001	 4.689132381795057e+000	 9.206853629795923e+000
 3.601182368790378e-001	 4.692859775159207e+000	 9.203691800454301e+000
 3.145880748800762e-001	 4.696131591344303e+000	 9.202622457904345e+000
 2.691938431599759e-001	 4.698952223551812e+000	 9.203057952365457e+000
 2.239413672519154e-001	 4.701326145304251e+000	 9.204338181188494e+000
 1.788363414169593e-001	 4.703257906593571e+000	 9.205763517934201e+000
 1.338843280588187e-001	 4.704752130053802e+000	 9.206625588485936e+000
 8.909075725605382e-002	 4.705813507161520e+000	 9.206236129116926e+000
 4.446092640917675e-002	 4.706446794467667e+000	 9.203954145935061e+000
 0.000000000000000e+000	 4.706656809863968e+000	 9.199211578821480e+000
 4.541206031540580e-001	 4.711486401454395e+000	 9.209839616131728e+000
 4.080772015327535e-001	 4.715697402914556e+000	 9.201758332114007e+000
 3.621583901065020e-001	 4.719445912825524e+000	 9.196112885174756e+000
 3.163702891928216e-001	 4.722736264607185e+000	 9.192514780053315e+000
 2.707188886346119e-001	 4.725572876349515e+000	 9.190471803262946e+000
 2.252100469680961e-001	 4.727960246918567e+000	 9.189422301185090e+000
 1.798494907136967e-001	 4.729902952083056e+000	 9.188767069136508e+000
 1.346428137874782e-001	 4.731405640665301e+000	 9.187899112338322e+000
 8.959547703070191e-002	 4.732473030720189e+000	 9.186231524245816e+000
 4.471280785492766e-002	 4.733109905745613e+000	 9.183223711195515e+000
 0.000000000000000e+000	 4.733321110927780e+000	 9.178406175013047e+000
 4.733321110927780e+000	 0.000000000000000e+000	 1.037798253547344e+001
 4.733109905745614e+000	 4.471280785492782e-002	 1.037410958841578e+001
 4.732473030720188e+000	 8.959547703070217e-002	 1.037163775083091e+001
 4.731405640665302e+000	 1.346428137874779e-001	 1.037031829343596e+001
 4.729902952083056e+000	 1.798494907136964e-001	 1.036990762183225e+001
 4.727960246918567e+000	 2.252100469680961e-001	 1.037017427361248e+001
 4.725572876349514e+000	 2.707188886346120e-001	 1.037090644811338e+001
 4.722736264607185e+000	 3.163702891928218e-001	 1.037192013509203e+001
 4.719445912825525e+000	 3.621583901065016e-001	 1.037306791424752e+001
 4.715697402914556e+000	 4.080772015327532e-001	 1.037424850303410e+001
 4.711486401454396e+000	 4.541206031540578e-001	 1.037541713555747e+001
 4.759989469820151e+000	 0.000000000000000e+000	 1.038373323493802e+001
 4.759777074671016e+000	 4.496472763253102e-002	 1.037990622629295e+001
 4.759136611380217e+000	 9.010027361466881e-002	 1.037713262938663e+001
 4.758063207462941e+000	 1.354014149440845e-001	 1.037523712375003e+001
 4.756552052470238e+000	 1.808627941936055e-001	 1.037404698742846e+001
 4.754598401764884e+000	 2.264789197545885e-001	 1.037339871680624e+001
 4.752197580332300e+000	 2.722441661938199e-001	 1.037314516132902e+001
 4.749344986623096e+000	 3.181527747266116e-001	 1.037316324164324e+001
 4.746036096423839e+000	 3.641988538086731e-001	 1.037336232564525e+001
 4.742266466752271e+000	 4.103763798492339e-001	 1.037369334279376e+001
 4.738031739773277e+000	 4.566791980477859e-001	 1.037415872272243e+001
 4.786657848721421e+000	 0.000000000000000e+000	 1.038330737345106e+001
 4.786444263604396e+000	 4.521664759929026e-002	 1.038025934784057e+001
 4.785800212045456e+000	 9.060507057761931e-002	 1.037792480135435e+001
 4.784720794261157e+000	 1.361600166701585e-001	 1.037619380625077e+001
 4.783201172851483e+000	 1.818760984341038e-001	 1.037495694273920e+001
 4.781236576596880e+000	 2.277477934934140e-001	 1.037411154745687e+001
 4.778822304290480e+000	 2.737694448977088e-001	 1.037356845769004e+001
 4.775953728602227e+000	 3.199352615980164e-001	 1.037325932209849e+001
 4.772626299971281e+000	 3.662393190419610e-001	 1.037314455501520e+001
 4.768835550523108e+000	 4.126755598908812e-001	 1.037322201760088e+001
 4.764577098007343e+000	 4.592377948612594e-001	 1.037353651516520e+001
 4.813326200962828e+000	 0.000000000000000e+000	 1.037797692262604e+001
 4.813111425879085e+000	 4.546856731450769e-002	 1.037623105371808e+001
 4.812463786055540e+000	 9.110986703643684e-002	 1.037487368126230e+001
 4.811378354410160e+000	 1.369186176384996e-001	 1.037385242970597e+001
 4.809850266591902e+000	 1.828894016623030e-001	 1.037311378864140e+001
 4.807874724798891e+000	 2.290166659644496e-001	 1.037260899534601e+001
 4.805447001632020e+000	 2.752947220774363e-001	 1.037230039246445e+001
 4.802562443980586e+000	 3.217177466880521e-001	 1.037216833382925e+001
 4.799216476936393e+000	 3.682797822358816e-001	 1.037221871808050e+001
 4.795404607732644e+000	 4.149747376344186e-001	 1.037249123631014e+001
 4.791122429703764e+000	 4.617963891171834e-001	 1.037306842634820e+001
 4.839994479875599e+000	 0.000000000000000e+000	 1.036898555035397e+001
 4.839778514828407e+000	 4.572048633748538e-002	 1.036886014469857e+001
 4.839127286750117e+000	 9.161466210800462e-002	 1.036882016693207e+001
 4.838035841260179e+000	 1.376772165219083e-001	 1.036886312832998e+001
 4.836499287056592e+000	 1.839027021053143e-001	 1.036898421248677e+001
 4.834512799755251e+000	 2.302855349475718e-001	 1.036918179680673e+001
 4.832071625764876e+000	 2.768199950641596e-001	 1.036946342704051e+001
 4.829171086194195e+000	 3.235002268777344e-001	 1.036985232010004e+001
 4.825806580787717e+000	 3.703202398199507e-001	 1.037039447741146e+001
 4.821973591886459e+000	 4.172739090565691e-001	 1.037116649799730e+001
 4.817667688409711e+000	 4.643549763382627e-001	 1.037228418724419e+001
 4.866662638790971e+000	 0.000000000000000e+000	 1.035754939487427e+001
 4.866445483785694e+000	 4.597240422752544e-002	 1.035916276456398e+001
 4.865790667468827e+000	 9.211945490920574e-002	 1.036058715550356e+001
 4.864693208161425e+000	 1.384358119931847e-001	 1.036186247532235e+001
 4.863148187610657e+000	 1.849159979902493e-001	 1.036302556361612e+001
 4.861150754850293e+000	 2.315543982226573e-001	 1.036411535675205e+001
 4.858696130097010e+000	 2.783452611890360e-001	 1.036517848208296e+001
 4.855779608679063e+000	 3.252826990480789e-001	 1.036627535903990e+001
 4.852396564993790e+000	 3.723606882236841e-001	 1.036748689197128e+001
 4.848542456490132e+000	 4.195730701340565e-001	 1.036892184690882e+001
 4.844212827672349e+000	 4.669135520472020e-001	 1.037072501158748e+001
 4.893330631040176e+000	 0.000000000000000e+000	 1.034485781376906e+001
 4.893112286084271e+000	 4.622432054392998e-002	 1.034813302215223e+001
 4.892453881551311e+000	 9.262424455692345e-002	 1.035098004268312e+001
 4.891350408464123e+000	 1.391944027251289e-001	 1.035347386354215e+001
 4.889796921619200e+000	 1.859292875442192e-001	 1.035568611976093e+001
 4.887788543468358e+000	 2.328232535695832e-001	 1.035768990517944e+001
 4.885320468036373e+000	 2.798705177832224e-001	 1.035956498858980e+001
 4.882387964871203e+000	 3.270651600801012e-001	 1.036140351377218e+001
 4.878986383023156e+000	 3.744011238765979e-001	 1.036331627091076e+001
 4.875111155049246e+000	 4.218722168436039e-001	 1.036543963458145e+001
 4.870757801038845e+000	 4.694721117667059e-001	 1.036794327104514e+001
 4.919998409954449e+000	 0.000000000000000e+000	 1.033207410882372e+001
 4.919778875057467e+000	 4.647623484600112e-002	 1.033674359333952e+001
 4.919116882337212e+000	 9.312903016804093e-002	 1.034078720584498e+001
 4.918007395518489e+000	 1.399529873905411e-001	 1.034430787380102e+001
 4.916445442447325e+000	 1.869425689943357e-001	 1.034740534467425e+001
 4.914426118993778e+000	 2.340920987682258e-001	 1.035018064835868e+001
 4.911944592990930e+000	 2.813957621778768e-001	 1.035274093692787e+001
 4.908996108206632e+000	 3.288476068548174e-001	 1.035520478365943e+001
 4.905575988344355e+000	 3.764415432082078e-001	 1.035770803145216e+001
 4.901679641069378e+000	 4.241713451619347e-001	 1.036041028886242e+001
 4.897302562056371e+000	 4.720306510194794e-001	 1.036350217993628e+001
 4.946665928865022e+000	 0.000000000000000e+000	 1.032033622765594e+001
 4.946445204038611e+000	 4.672814669304094e-002	 1.032594630370786e+001
 4.945779623166172e+000	 9.363381085944132e-002	 1.033078047158961e+001
 4.944664122674740e+000	 1.407115646622214e-001	 1.033496263123739e+001
 4.943093703460129e+000	 1.879558405677100e-001	 1.033861413731816e+001
 4.941063434810887e+000	 2.353609315984621e-001	 1.034185791490135e+001
 4.938568458368636e+000	 2.829209917041559e-001	 1.034482292392288e+001
 4.935603992121361e+000	 3.306300362532426e-001	 1.034764905662109e+001
 4.932165334425927e+000	 3.784819426480299e-001	 1.035049256070948e+001
 4.928247868056106e+000	 4.264704510657721e-001	 1.035353208957286e+001
 4.923847064272091e+000	 4.745891653282273e-001	 1.035697548914346e+001
 4.973333141103128e+000	 0.000000000000000e+000	 1.031075744297751e+001
 4.973111226361028e+000	 4.698005564435157e-002	 1.031667269261607e+001
 4.972442057377832e+000	 9.413858574800782e-002	 1.032171556833633e+001
 4.971320543283099e+000	 1.414701332129701e-001	 1.032602415021457e+001
 4.969741658022721e+000	 1.889691004914536e-001	 1.032973507292157e+001
 4.967700444304020e+000	 2.366297498401687e-001	 1.033298729690171e+001
 4.965192017577452e+000	 2.844462036932173e-001	 1.033592619807553e+001
 4.962211570051403e+000	 3.324124451563927e-001	 1.033870806248425e+001
 4.958754374736414e+000	 3.805223186255800e-001	 1.034150508129911e+001
 4.954815789515014e+000	 4.287695305318400e-001	 1.034451095056804e+001
 4.950391261233177e+000	 4.771476502156544e-001	 1.034794718887494e+001
 5.000000000000000e+000	 0.000000000000000e+000	 1.030442701031642e+001
 4.999776895358052e+000	 4.723196125923512e-002	 1.030983455936199e+001
 4.999104138311836e+000	 9.464335395062359e-002	 1.031433256450374e+001
 4.997976610693785e+000	 1.422286917155873e-001	 1.031806666816691e+001
 4.996389259500201e+000	 1.899823469926779e-001	 1.032118263620832e+001
 4.994337100857515e+000	 2.378985512732224e-001	 1.032382978633101e+001
 4.991815224025335e+000	 2.859713954762181e-001	 1.032616470297307e+001
 4.988818795432773e+000	 3.341948304452838e-001	 1.032835532732923e+001
 4.985343062744358e+000	 3.825626675703741e-001	 1.033058552060073e+001
 4.981383358951679e+000	 4.310685795368612e-001	 1.033306020795822e+001
 4.976935106486797e+000	 4.797061012044654e-001	 1.033601121995185e+001
 4.711486401454396e+000	 4.541206031540578e-001	 1.037541713555747e+001
 4.706809400584461e+000	 5.002754289150643e-001	 1.037718521469235e+001
 4.701661653676148e+000	 5.465422826212096e-001	 1.038038350281867e+001
 4.696039107290806e+000	 5.929147628536142e-001	 1.038540583032070e+001
 4.689937808080498e+000	 6.393863452817449e-001	 1.039273867836168e+001
 4.683353906675524e+000	 6.859503841394172e-001	 1.040270184361413e+001
 4.676283661565610e+000	 7.326001138313998e-001	 1.041328365644849e+001
 4.668723442970103e+000	 7.793286506718558e-001	 1.042375230240845e+001
 4.660669736692414e+000	 8.261289947556906e-001	 1.043382587813645e+001
 4.652119147953820e+000	 8.729940319637025e-001	 1.044317243096529e+001
 4.643068405201682e+000	 9.199165361022299e-001	 1.045164114410017e+001
 4.738031739773277e+000	 4.566791980477859e-001	 1.037415872272243e+001
 4.733328387862385e+000	 5.030940681690770e-001	 1.037528631616546e+001
 4.728151637647651e+000	 5.496215974204831e-001	 1.037779491719081e+001
 4.722497412852645e+000	 5.962553483164128e-001	 1.038207476297506e+001
 4.716361737855573e+000	 6.429887597671158e-001	 1.038860256710574e+001
 4.709740741598712e+000	 6.898151485630015e-001	 1.039759583955063e+001
 4.702630661491456e+000	 7.367277109902937e-001	 1.040717414507953e+001
 4.695027847302340e+000	 7.837195245792673e-001	 1.041680335374683e+001
 4.686928765035166e+000	 8.307835499861415e-001	 1.042629647783825e+001
 4.678330000784434e+000	 8.779126330095242e-001	 1.043547070222955e+001
 4.669228264565003e+000	 9.250995067421184e-001	 1.044414614014441e+001
 4.764577098007343e+000	 4.592377948612594e-001	 1.037353651516520e+001
 4.759847395035628e+000	 5.059127095378930e-001	 1.037453517828614e+001
 4.754641641492657e+000	 5.527009145300991e-001	 1.037682513886407e+001
 4.748955738264196e+000	 5.995959362855475e-001	 1.038078509364030e+001
 4.742785687454573e+000	 6.465911769552420e-001	 1.038687478961998e+001
 4.736127596318020e+000	 6.936799158861571e-001	 1.039520367032672e+001
 4.728977681183593e+000	 7.408553112459421e-001	 1.040405099973851e+001
 4.721332271368975e+000	 7.881104017809547e-001	 1.041303705202759e+001
 4.713187813078357e+000	 8.354381087086968e-001	 1.042200776367764e+001
 4.704540873279440e+000	 8.828312377455565e-001	 1.043081038327685e+001
 4.695388143554560e+000	 9.302824812705676e-001	 1.043929215932885e+001
 4.791122429703764e+000	 4.617963891171834e-001	 1.037306842634820e+001
 4.786366375697530e+000	 5.087313480891076e-001	 1.037432217558323e+001
 4.781131618855300e+000	 5.557802285614466e-001	 1.037675092666251e+001
 4.775414037225055e+000	 6.029365209151659e-001	 1.038071415117818e+001
 4.769209610637268e+000	 6.501935905420583e-001	 1.038664768488222e+001
 4.762514424658146e+000	 6.975446793456980e-001	 1.039455081659244e+001
 4.755324674536412e+000	 7.449829073751971e-001	 1.040288121695413e+001
 4.747636669138935e+000	 7.925012745930328e-001	 1.041137648306348e+001
 4.739446834870297e+000	 8.400926627780260e-001	 1.041991091670170e+001
 4.730751719571419e+000	 8.877498375643830e-001	 1.042835826994134e+001
 4.721547996392131e+000	 9.354654506175090e-001	 1.043659039644831e+001
 4.817667688409711e+000	 4.643549763382627e-001	 1.037228418724419e+001
 4.812885283441428e+000	 5.115499788903157e-001	 1.037405225858399e+001
 4.807621523379715e+000	 5.588595341259147e-001	 1.037686605201325e+001
 4.801872263434824e+000	 6.062770963594154e-001	 1.038105839182536e+001
 4.795633461163435e+000	 6.537959942234990e-001	 1.038703451253452e+001
 4.788901180443781e+000	 7.014094321784387e-001	 1.039468456707006e+001
 4.781671595444322e+000	 7.491104921549108e-001	 1.040265476326263e+001
 4.773940994581147e+000	 7.968921353316147e-001	 1.041076852991747e+001
 4.765705784459295e+000	 8.447472040487973e-001	 1.041892405095089e+001
 4.756962493792951e+000	 8.926684238585888e-001	 1.042701808913214e+001
 4.747707777299494e+000	 9.406484057128738e-001	 1.043494463219701e+001
 4.844212827672349e+000	 4.669135520472020e-001	 1.037072501158748e+001
 4.839404071860662e+000	 5.143685970091132e-001	 1.037314453582491e+001
 4.834111308710036e+000	 5.619388258348922e-001	 1.037648080574676e+001
 4.828330370593108e+000	 6.096176567724444e-001	 1.038103283893237e+001
 4.822057192792849e+000	 6.573983816954989e-001	 1.038716883382534e+001
 4.815287817499625e+000	 7.052741676211931e-001	 1.039467337900491e+001
 4.808018397801715e+000	 7.532380583619343e-001	 1.040238389628846e+001
 4.800245201664535e+000	 8.012829763128148e-001	 1.041018316303598e+001
 4.791964615893655e+000	 8.494017243756789e-001	 1.041798883547577e+001
 4.783173150076617e+000	 8.975869880207577e-001	 1.042571725964232e+001
 4.773867440498422e+000	 9.458313374865937e-001	 1.043328214351441e+001
 4.870757801038845e+000	 4.694721117667059e-001	 1.036794327104514e+001
 4.865922694548569e+000	 5.171871975130948e-001	 1.037103186831240e+001
 4.860600928490404e+000	 5.650180982997678e-001	 1.037492151960674e+001
 4.854788312399505e+000	 6.129581963083999e-001	 1.037987053939864e+001
 4.848480759285287e+000	 6.610007466539924e-001	 1.038620391095767e+001
 4.841674289650374e+000	 7.091388789107757e-001	 1.039360625847220e+001
 4.834365035503001e+000	 7.573655987731198e-001	 1.040110250683084e+001
 4.826549244358028e+000	 8.056737898527467e-001	 1.040861275225552e+001
 4.818223283221691e+000	 8.540562156133400e-001	 1.041606978445639e+001
 4.809383642555000e+000	 9.025055214434747e-001	 1.042340616862086e+001
 4.800026940210696e+000	 9.510142368686005e-001	 1.043055297469035e+001
 4.897302562056371e+000	 4.720306510194794e-001	 1.036350217993628e+001
 4.892441105098484e+000	 5.200057754698558e-001	 1.036716047596703e+001
 4.887090336364951e+000	 5.680973461319306e-001	 1.037153010191840e+001
 4.881246042553618e+000	 6.162987091214294e-001	 1.037682203617801e+001
 4.874904114400523e+000	 6.646030827949143e-001	 1.038331212415430e+001
 4.868060550720721e+000	 7.130035592839998e-001	 1.039059215979558e+001
 4.860711462442573e+000	 7.614931061653185e-001	 1.039786548116943e+001
 4.852853076630552e+000	 8.100645682675247e-001	 1.040507139986372e+001
 4.844481740491708e+000	 8.587106696164488e-001	 1.041215356893780e+001
 4.835593925360677e+000	 9.074240155193241e-001	 1.041905746994673e+001
 4.826186230658091e+000	 9.561970947888256e-001	 1.042572923038238e+001
 4.923847064272091e+000	 4.745891653282273e-001	 1.035697548914346e+001
 4.918959257103752e+000	 5.228243259469916e-001	 1.036098955560442e+001
 4.913579485977811e+000	 5.711765639427692e-001	 1.036566358688802e+001
 4.907703514755047e+000	 6.196391893656807e-001	 1.037115485625649e+001
 4.901327211898328e+000	 6.682053838141988e-001	 1.037768375844344e+001
 4.894446554535365e+000	 7.168682019776804e-001	 1.038475940336526e+001
 4.887057632514837e+000	 7.656205733153826e-001	 1.039174808283582e+001
 4.879156652451032e+000	 8.144553038732628e-001	 1.039859429393080e+001
 4.870739941752015e+000	 8.633650782396735e-001	 1.040524834937694e+001
 4.861803952626233e+000	 9.123424616408908e-001	 1.041166540369102e+001
 4.852345266062381e+000	 9.613799021772007e-001	 1.041780438973089e+001
 4.950391261233177e+000	 4.771476502156544e-001	 1.034794718887494e+001
 4.945477104157705e+000	 5.256428440120975e-001	 1.035199091002519e+001
 4.940068330973120e+000	 5.742557463436725e-001	 1.035669369702816e+001
 4.934160682703396e+000	 6.229796311953015e-001	 1.036215301352917e+001
 4.927750005538484e+000	 6.718076434077811e-001	 1.036852314278530e+001
 4.920832254918999e+000	 7.207328002286313e-001	 1.037525511117383e+001
 4.913403499614191e+000	 7.697479930001636e-001	 1.038184535312969e+001
 4.905459925788396e+000	 8.188459889860744e-001	 1.038823708116081e+001
 4.896997841050921e+000	 8.680194333376835e-001	 1.039438312823110e+001
 4.888013678484247e+000	 9.172608512007584e-001	 1.040024513588680e+001
 4.878504000645348e+000	 9.665626499636572e-001	 1.040579264079237e+001
 4.976935106486797e+000	 4.797061012044654e-001	 1.033601121995185e+001
 4.971994599853684e+000	 5.284613247327683e-001	 1.033964858780448e+001
 4.966556824995020e+000	 5.773348879460297e-001	 1.034400641822552e+001
 4.960617500098262e+000	 6.263200287644395e-001	 1.034911652602773e+001
 4.954172449080763e+000	 6.754098552715953e-001	 1.035505771207913e+001
 4.947217605696318e+000	 7.245973472736667e-001	 1.036124465941668e+001
 4.939749017635035e+000	 7.738753579965135e-001	 1.036727152968923e+001
 4.931762850611571e+000	 8.232366159220740e-001	 1.037307525854405e+001
 4.923255392436735e+000	 8.726737267651470e-001	 1.037860712185015e+001
 4.914223057067300e+000	 9.221791755915121e-001	 1.038383211786026e+001
 4.904662388628768e+000	 9.717453290781268e-001	 1.038872823454446e+001
 4.643068405201682e+000	 9.199165361022299e-001	 1.045164114410017e+001
 4.633512893397807e+000	 9.668962193495462e-001	 1.045910688210072e+001
 4.623450920909602e+000	 1.013918590844765e+000	 1.046572145336273e+001
 4.612879611221273e+000	 1.060976087736484e+000	 1.047179846379562e+001
 4.601796226075082e+000	 1.108061044715826e+000	 1.047767463651280e+001
 4.590198169078671e+000	 1.155165696837305e+000	 1.048370341980822e+001
 4.578082989255348e+000	 1.202282182474619e+000	 1.049024584835605e+001
 4.565448384531957e+000	 1.249402546410591e+000	 1.049765852728257e+001
 4.552292205158868e+000	 1.296518743060276e+000	 1.050627817274707e+001
 4.538612457056609e+000	 1.343622639825983e+000	 1.051637261917991e+001
 4.524407305083716e+000	 1.390706020582740e+000	 1.052736615498571e+001
 4.669228264565003e+000	 9.250995067421184e-001	 1.044414614014441e+001
 4.659618915336746e+000	 9.723438817405616e-001	 1.045210293626626e+001
 4.649500251936108e+000	 1.019631185499926e+000	 1.045929734374598e+001
 4.638869381640498e+000	 1.066953812558382e+000	 1.046597431339770e+001
 4.627723550764356e+000	 1.114304054419368e+000	 1.047240806826920e+001
 4.616060148286781e+000	 1.161674102388337e+000	 1.047888933381160e+001
 4.603876709421853e+000	 1.209056050545213e+000	 1.048571797924593e+001
 4.591170919126121e+000	 1.256441898851737e+000	 1.049319287678968e+001
 4.577940615537888e+000	 1.303823556392735e+000	 1.050159840233835e+001
 4.564183793342687e+000	 1.351192844750042e+000	 1.051111219534659e+001
 4.549898607059532e+000	 1.398541501507601e+000	 1.052116771878474e+001
 4.695388143554560e+000	 9.302824812705676e-001	 1.043929215932885e+001
 4.685724956861634e+000	 9.777915482187314e-001	 1.044731683503898e+001
 4.675549602506141e+000	 1.025343784441016e+000	 1.045493085906876e+001
 4.664859171558672e+000	 1.072931541865137e+000	 1.046225567189159e+001
 4.653650894905826e+000	 1.120547068806811e+000	 1.046931120512068e+001
 4.641922146898159e+000	 1.168182512822401e+000	 1.047624922187816e+001
 4.629670448940495e+000	 1.215829923698024e+000	 1.048331238776087e+001
 4.616893473019093e+000	 1.263481256574304e+000	 1.049074686433812e+001
 4.603589045160168e+000	 1.311128375205806e+000	 1.049879090622645e+001
 4.589755148814240e+000	 1.358763055353852e+000	 1.050753757058854e+001
 4.575389928160807e+000	 1.406376988311272e+000	 1.051651327921145e+001
 4.721547996392131e+000	 9.354654506175090e-001	 1.043659039644831e+001
 4.711830972288418e+000	 9.832392092507670e-001	 1.044449380864360e+001
 4.701598927034792e+000	 1.031056377671105e+000	 1.045210838732544e+001
 4.690848935495056e+000	 1.078909265195828e+000	 1.045953483028817e+001
 4.679578213127978e+000	 1.126790076952974e+000	 1.046686854193645e+001
 4.667784119655580e+000	 1.174690916749863e+000	 1.047419767824570e+001
 4.655464162673451e+000	 1.222603790078849e+000	 1.048153796294372e+001
 4.642616001197560e+000	 1.270520607259488e+000	 1.048895068123665e+001
 4.629237449142049e+000	 1.318433186716127e+000	 1.049663240162803e+001
 4.615326478722450e+000	 1.366333258389628e+000	 1.050461152902671e+001
 4.600881223778736e+000	 1.414212467281752e+000	 1.051255669999771e+001
 4.747707777299494e+000	 9.406484057128738e-001	 1.043494463219701e+001
 4.737936915933036e+000	 9.886868553033804e-001	 1.044260726643833e+001
 4.727648179937163e+000	 1.036768955193263e+000	 1.045003955108615e+001
 4.716838627968923e+000	 1.084886972089533e+000	 1.045732696844443e+001
 4.705505460059300e+000	 1.133033067932675e+000	 1.046454778082166e+001
 4.693646021301823e+000	 1.181199302781087e+000	 1.047177104199047e+001
 4.681257805482885e+000	 1.229377637833485e+000	 1.047905433108415e+001
 4.668338458648202e+000	 1.277559938588484e+000	 1.048644138589998e+001
 4.654885782599884e+000	 1.325737978140340e+000	 1.049390705621088e+001
 4.640897738318490e+000	 1.373903440609585e+000	 1.050130311854626e+001
 4.626372449304512e+000	 1.422047924707039e+000	 1.050845470171762e+001
 4.773867440498422e+000	 9.458313374865937e-001	 1.043328214351441e+001
 4.764042742111434e+000	 9.941344768432839e-001	 1.044060081960206e+001
 4.753697315628352e+000	 1.042481507010558e+000	 1.044770305995387e+001
 4.742828203499542e+000	 1.090864652085331e+000	 1.045466740021664e+001
 4.731432590328278e+000	 1.139276030820732e+000	 1.046156477022106e+001
 4.719507806579668e+000	 1.187707659526438e+000	 1.046845649504622e+001
 4.707051332230972e+000	 1.236151455107730e+000	 1.047539202803597e+001
 4.694060800357711e+000	 1.284599238242489e+000	 1.048240656684554e+001
 4.680534000650018e+000	 1.333042736695088e+000	 1.048951852292535e+001
 4.666468882853537e+000	 1.381473588765937e+000	 1.049658790224752e+001
 4.651863560129326e+000	 1.429883346875132e+000	 1.050336725464194e+001
 4.800026940210696e+000	 9.510142368686005e-001	 1.043055297469035e+001
 4.790148405139556e+000	 9.995820643371889e-001	 1.043744026946671e+001
 4.779746288523451e+000	 1.048194023126059e+000	 1.044409881033062e+001
 4.768817616606178e+000	 1.096842294722300e+000	 1.045060838134264e+001
 4.757359558563400e+000	 1.145518954691962e+000	 1.045704230299983e+001
 4.745369430231897e+000	 1.194215975596279e+000	 1.046346544555555e+001
 4.732844697779878e+000	 1.242925230047382e+000	 1.046993197763614e+001
 4.719782981312769e+000	 1.291638493902698e+000	 1.047648297934056e+001
 4.706182058408797e+000	 1.340347449597011e+000	 1.048314264295576e+001
 4.692039867578769e+000	 1.389043689610899e+000	 1.048984166964311e+001
 4.677354511644375e+000	 1.437718720074028e+000	 1.049651031316548e+001
 4.826186230658091e+000	 9.561970947888256e-001	 1.042572923038238e+001
 4.816253859333342e+000	 1.005029608251808e+000	 1.043211290458569e+001
 4.805795053037557e+000	 1.053906493542835e+000	 1.043824719730279e+001
 4.794806821808104e+000	 1.102819889539520e+000	 1.044422126399333e+001
 4.783286319393154e+000	 1.151761828621185e+000	 1.045012045460530e+001
 4.771230847001283e+000	 1.200724239600977e+000	 1.045602436137193e+001
 4.758637856991777e+000	 1.249698950798238e+000	 1.046200459948381e+001
 4.745504956500062e+000	 1.298677693250309e+000	 1.046812243144372e+001
 4.731829910992569e+000	 1.347652104062751e+000	 1.047442666576342e+001
 4.717610647745362e+000	 1.396613729896686e+000	 1.048095994402762e+001
 4.702845259240852e+000	 1.445554030591728e+000	 1.048774358323181e+001
 4.852345266062381e+000	 9.613799021772007e-001	 1.041780438973089e+001
 4.842359059008737e+000	 1.010477099053851e+000	 1.042362680039444e+001
 4.831843563585774e+000	 1.059618908263955e+000	 1.042918844666743e+001
 4.820795773624588e+000	 1.108797426076069e+000	 1.043459585333180e+001
 4.809212827446027e+000	 1.158004641683217e+000	 1.043995597448278e+001
 4.797092011630610e+000	 1.207232440150896e+000	 1.044537420659935e+001
 4.784430764728838e+000	 1.256472605506095e+000	 1.045095223590761e+001
 4.771226680906277e+000	 1.305716823966516e+000	 1.045678568808983e+001
 4.757477513517682e+000	 1.354956687308949e+000	 1.046297307627459e+001
 4.743181178604490e+000	 1.404183696375512e+000	 1.046968759348196e+001
 4.728335758309949e+000	 1.453389264716227e+000	 1.047703094013243e+001
 4.878504000645348e+000	 9.665626499636572e-001	 1.040579264079237e+001
 4.868463958481681e+000	 1.015924527210032e+000	 1.041101023175559e+001
 4.857891774583191e+000	 1.065331257292488e+000	 1.041598196635649e+001
 4.846784426574896e+000	 1.114774893871026e+000	 1.042083978249953e+001
 4.835139037350504e+000	 1.164247382952877e+000	 1.042572169460886e+001
 4.822952878862654e+000	 1.213740565856399e+000	 1.043076989360359e+001
 4.810223375853233e+000	 1.263246182316751e+000	 1.043612865732247e+001
 4.796948109518097e+000	 1.312755873732517e+000	 1.044194203958823e+001
 4.783124821100483e+000	 1.362261186552246e+000	 1.044838662511454e+001
 4.768751415407335e+000	 1.411753575799593e+000	 1.045576870804951e+001
 4.753825964242860e+000	 1.461224408735526e+000	 1.046427247091872e+001
 4.904662388628768e+000	 9.717453290781268e-001	 1.038872823454446e+001
 4.894568512068120e+000	 1.021371883187062e+000	 1.039331091503229e+001
 4.883939640444909e+000	 1.071043530631502e+000	 1.039770571654813e+001
 4.872772735178299e+000	 1.120752282463470e+000	 1.040207790535535e+001
 4.861064903735073e+000	 1.170490041504983e+000	 1.040660595451747e+001
 4.848813403440197e+000	 1.220248605327853e+000	 1.041147974993169e+001
 4.836015645227128e+000	 1.270019669376003e+000	 1.041689858058820e+001
 4.822669197322209e+000	 1.319794830229507e+000	 1.042306888089729e+001
 4.808771788857317e+000	 1.369565589009283e+000	 1.043027430910163e+001
 4.794321313405072e+000	 1.419323354921142e+000	 1.043894670919854e+001
 4.779315832430783e+000	 1.469059448937622e+000	 1.044936435364386e+001
 4.524407305083716e+000	 1.390706020582740e+000	 1.052736615498571e+001
 4.509675075088746e+000	 1.437760588603412e+000	 1.053872976073262e+001
 4.494414253604441e+000	 1.484777968164294e+000	 1.055026557731568e+001
 4.478623494235841e+000	 1.531749710358706e+000	 1.056211516036714e+001
 4.462301621696776e+000	 1.578667297757051e+000	 1.057437227915670e+001
 4.445447634610877e+000	 1.625522148514563e+000	 1.058707041269745e+001
 4.428060708201621e+000	 1.672305620595791e+000	 1.060016891853987e+001
 4.410140196866269e+000	 1.719009016112672e+000	 1.061353780760788e+001
 4.391685636628613e+000	 1.765623585772688e+000	 1.062694106135299e+001
 4.372696747465477e+000	 1.812140533433459e+000	 1.064001843136263e+001
 4.353173435502172e+000	 1.858551020759794e+000	 1.065226566640120e+001
 4.549898607059532e+000	 1.398541501507601e+000	 1.052116771878474e+001
 4.535083373104526e+000	 1.445861183193071e+000	 1.053148205754533e+001
 4.519736569483269e+000	 1.493143466892460e+000	 1.054197229682853e+001
 4.503856842214986e+000	 1.540379856096477e+000	 1.055278097676056e+001
 4.487443009391756e+000	 1.587561785386847e+000	 1.056401034089910e+001
 4.470494063995282e+000	 1.634680624567193e+000	 1.057570999652701e+001
 4.453009176602114e+000	 1.681727682911336e+000	 1.058786321761403e+001
 4.434987697972090e+000	 1.728694213525793e+000	 1.060037181931262e+001
 4.416429161514877e+000	 1.775571417823013e+000	 1.061303953567776e+001
 4.397333285629620e+000	 1.822350450101617e+000	 1.062555383609688e+001
 4.377699975912726e+000	 1.869022422229697e+000	 1.063746612073438e+001
 4.575389928160807e+000	 1.406376988311272e+000	 1.051651327921145e+001
 4.560491690183496e+000	 1.453961783860481e+000	 1.052567770066179e+001
 4.545058904360769e+000	 1.501508971897163e+000	 1.053510806418302e+001
 4.529090209126037e+000	 1.549010008309379e+000	 1.054494291683718e+001
 4.512584415949610e+000	 1.596456279690133e+000	 1.055528551806288e+001
 4.495540512171280e+000	 1.643839107491402e+000	 1.056619165201852e+001
 4.477957663720667e+000	 1.691149752296235e+000	 1.057765605677987e+001
 4.459835217720181e+000	 1.738379418205699e+000	 1.058959739474762e+001
 4.441172704965378e+000	 1.785519257337162e+000	 1.060184169132887e+001
 4.421969842277712e+000	 1.832560374430207e+000	 1.061410417267550e+001
 4.402226534724702e+000	 1.879493831556170e+000	 1.062596943803977e+001
 4.600881223778736e+000	 1.414212467281752e+000	 1.051255669999771e+001
 4.585899981862074e+000	 1.462062376429718e+000	 1.052065486754387e+001
 4.570381213923802e+000	 1.509874468538930e+000	 1.052916325762058e+001
 4.554323550811519e+000	 1.557640151894844e+000	 1.053821140749766e+001
 4.537725797373788e+000	 1.605350765101788e+000	 1.054789612171004e+001
 4.520586935308484e+000	 1.652997581260137e+000	 1.055826942541118e+001
 4.502906125898312e+000	 1.700571812262213e+000	 1.056932511297126e+001
 4.484682712628256e+000	 1.748064613203672e+000	 1.058098381163623e+001
 4.465916223679772e+000	 1.795467086906851e+000	 1.059307648264240e+001
 4.446606374296626e+000	 1.842770288552342e+000	 1.060532628580515e+001
 4.426753069017446e+000	 1.889965230414766e+000	 1.061732873832374e+001
 4.626372449304512e+000	 1.422047924707039e+000	 1.050845470171762e+001
 4.611308203676677e+000	 1.470162946724857e+000	 1.051575136386878e+001
 4.595703453859223e+000	 1.518239942178288e+000	 1.052362538525830e+001
 4.579556823113963e+000	 1.566270271750308e+000	 1.053219223140907e+001
 4.562867109667729e+000	 1.614245226056694e+000	 1.054153476195608e+001
 4.545633289576500e+000	 1.662156029846346e+000	 1.055169131507931e+001
 4.527854519476074e+000	 1.709993846320988e+000	 1.056264236977420e+001
 4.509530139214028e+000	 1.757749781570994e+000	 1.057429570120308e+001
 4.490659674357717e+000	 1.805414889123798e+000	 1.058646994680237e+001
 4.471242838573231e+000	 1.852980174601130e+000	 1.059887650433473e+001
 4.451279535870309e+000	 1.900436600481029e+000	 1.061109968772807e+001
 4.651863560129326e+000	 1.429883346875132e+000	 1.050336725464194e+001
 4.636716311163720e+000	 1.478263480569973e+000	 1.051030515404151e+001
 4.621025579853891e+000	 1.526605378175764e+000	 1.051797973421605e+001
 4.604789981875902e+000	 1.574900352773203e+000	 1.052648727569032e+001
 4.588008308834882e+000	 1.623139646989730e+000	 1.053588917716033e+001
 4.570679531144937e+000	 1.671314437222977e+000	 1.054620016219297e+001
 4.552802800794987e+000	 1.719415837984281e+000	 1.055737505055892e+001
 4.534377453995210e+000	 1.767434906358946e+000	 1.056929400483044e+001
 4.515403013698872e+000	 1.815362646579719e+000	 1.058174616514380e+001
 4.495879191994396e+000	 1.863190014709682e+000	 1.059441158841399e+001
 4.475805892362633e+000	 1.910907923430507e+000	 1.060684141285716e+001
 4.677354511644375e+000	 1.437718720074028e+000	 1.049651031316548e+001
 4.662124259859619e+000	 1.486363963789141e+000	 1.050365489042510e+001
 4.646347547594663e+000	 1.534970761891882e+000	 1.051171001549078e+001
 4.630022982939863e+000	 1.583530379860966e+000	 1.052069527400134e+001
 4.613149350878688e+000	 1.632034012335777e+000	 1.053064305480182e+001
 4.595725616183406e+000	 1.680472787362977e+000	 1.054153453196896e+001
 4.577750926196078e+000	 1.728837770763812e+000	 1.055328654172661e+001
 4.559224613489509e+000	 1.777119970618810e+000	 1.056573692097030e+001
 4.540146198402895e+000	 1.825310341866332e+000	 1.057862821546447e+001
 4.520515391446991e+000	 1.873399791011110e+000	 1.059158966902141e+001
 4.500332095573771e+000	 1.921379180938751e+000	 1.060411740943700e+001
 4.702845259240852e+000	 1.445554030591728e+000	 1.048774358323181e+001
 4.687532005300790e+000	 1.494464382206437e+000	 1.049535772811652e+001
 4.671669312768399e+000	 1.543336078687172e+000	 1.050430783254731e+001
 4.655255782148381e+000	 1.592160337911028e+000	 1.051441254224594e+001
 4.638290191802595e+000	 1.640928306529714e+000	 1.052547684431225e+001
 4.620771500861515e+000	 1.689631064239296e+000	 1.053742958582165e+001
 4.602698852020377e+000	 1.738259628171301e+000	 1.055013730639556e+001
 4.584071574214639e+000	 1.786804957401869e+000	 1.056338084262826e+001
 4.564889185169442e+000	 1.835257957575353e+000	 1.057683911563048e+001
 4.545151393817889e+000	 1.883609485638523e+000	 1.059007118009218e+001
 4.524858102583068e+000	 1.931850354681308e+000	 1.060249644546042e+001
 4.728335758309949e+000	 1.453389264716227e+000	 1.047703094013243e+001
 4.712939503023649e+000	 1.502564721645936e+000	 1.048556747655917e+001
 4.696990831061950e+000	 1.551701313922157e+000	 1.049572262783461e+001
 4.680488335343984e+000	 1.600790211820825e+000	 1.050730914980354e+001
 4.663430787610049e+000	 1.649822514006423e+000	 1.052006856212431e+001
 4.645817141348873e+000	 1.698789251824879e+000	 1.053361794470861e+001
 4.627646534608913e+000	 1.747681393718468e+000	 1.054768578883575e+001
 4.608918292688312e+000	 1.796489849759405e+000	 1.056198128572066e+001
 4.589631930698174e+000	 1.845205476298499e+000	 1.057610275874648e+001
 4.569787155993959e+000	 1.893819080725033e+000	 1.058951978346557e+001
 4.549383870469874e+000	 1.942321426333725e+000	 1.060155345896413e+001
 4.753825964242860e+000	 1.461224408735526e+000	 1.046427247091872e+001
 4.738346708564612e+000	 1.510664967931713e+000	 1.047434114517758e+001
 4.722312058162186e+000	 1.560066452957368e+000	 1.048620010682921e+001
 4.705720598369203e+000	 1.609419986487791e+000	 1.049962310895469e+001
 4.688571094304491e+000	 1.658716619200784e+000	 1.051430164453769e+001
 4.670862493815088e+000	 1.707947334092675e+000	 1.052983574149498e+001
 4.652593930302718e+000	 1.757103050917035e+000	 1.054568930994605e+001
 4.633764725428239e+000	 1.806174630742699e+000	 1.056129380859100e+001
 4.614374391688747e+000	 1.855152880627489e+000	 1.057614484014849e+001
 4.594422634862072e+000	 1.904028558403749e+000	 1.058960328685962e+001
 4.573909356313535e+000	 1.952792377571551e+000	 1.060087045057508e+001
 4.779315832430783e+000	 1.469059448937622e+000	 1.044936435364386e+001
 4.763753577460099e+000	 1.518765106887844e+000	 1.046172213722271e+001
 4.747632949755955e+000	 1.568431481153328e+000	 1.047590365209808e+001
 4.730952527066571e+000	 1.618049646809360e+000	 1.049163938951505e+001
 4.713711067889371e+000	 1.667610606547676e+000	 1.050856145130797e+001
 4.695907514429774e+000	 1.717105295015633e+000	 1.052619424260047e+001
 4.677540995442822e+000	 1.766524583278722e+000	 1.054394421829757e+001
 4.658610828952133e+000	 1.815859283403033e+000	 1.056107492295900e+001
 4.639116524840821e+000	 1.865100153154037e+000	 1.057669377646432e+001
 4.619057787309097e+000	 1.914237900807783e+000	 1.058999455507065e+001
 4.598434517193399e+000	 1.963263190070334e+000	 1.060003737095626e+001
 4.353173435502172e+000	 1.858551020759794e+000	 1.065226566640120e+001
 4.333118844188068e+000	 1.904839237533664e+000	 1.066231020986671e+001
 4.312530372389279e+000	 1.951003250800439e+000	 1.066836530537969e+001
 4.291408499589530e+000	 1.997034131020163e+000	 1.066900579190094e+001
 4.269753898666800e+000	 2.042922926136646e+000	 1.066641280801398e+001
 4.247567437359612e+000	 2.088660666674489e+000	 1.066484282991768e+001
 4.224850179576209e+000	 2.134238370909848e+000	 1.066428587026290e+001
 4.201603386542995e+000	 2.179647050109439e+000	 1.066467793582058e+001
 4.177828517788692e+000	 2.224877713832085e+000	 1.066591410307360e+001
 4.153527231960959e+000	 2.269921375286926e+000	 1.066784452609082e+001
 4.128701387472490e+000	 2.314769056742235e+000	 1.067027044079084e+001
 4.377699975912726e+000	 1.869022422229697e+000	 1.063746612073438e+001
 4.357532393524315e+000	 1.915571434911691e+000	 1.064736459004866e+001
 4.336827922675254e+000	 1.961995544302362e+000	 1.065340472556463e+001
 4.315587045550744e+000	 2.008285770551152e+000	 1.065431613748828e+001
 4.293810438819873e+000	 2.054433111164409e+000	 1.065374450847699e+001
 4.271498975110129e+000	 2.100428546131130e+000	 1.065402590809664e+001
 4.248653724323997e+000	 2.146263043122858e+000	 1.065511977876905e+001
 4.225275954793839e+000	 2.191927562762203e+000	 1.065694610587831e+001
 4.201367134271600e+000	 2.237413063954258e+000	 1.065938136849529e+001
 4.176928930750042e+000	 2.282710509275001e+000	 1.066225446775225e+001
 4.151963213112460e+000	 2.327810870410583e+000	 1.066534265348100e+001
 4.402226534724702e+000	 1.879493831556170e+000	 1.062596943803977e+001
 4.381945961177230e+000	 1.926303640341893e+000	 1.063593754328072e+001
 4.361125491190895e+000	 1.972987846051518e+000	 1.064208015955700e+001
 4.339765609652384e+000	 2.019537418523855e+000	 1.064365884623443e+001
 4.317866997021875e+000	 2.065943304827759e+000	 1.064478513727069e+001
 4.295430530815842e+000	 2.112196434416587e+000	 1.064652260716689e+001
 4.272457286930998e+000	 2.158287724357238e+000	 1.064883286571947e+001
 4.248948540805664e+000	 2.204208084628180e+000	 1.065163739743445e+001
 4.224905768415010e+000	 2.249948423480746e+000	 1.065481342132852e+001
 4.200330647096902e+000	 2.295499652857716e+000	 1.065818972616452e+001
 4.175225056205250e+000	 2.340852693863086e+000	 1.066154250244771e+001
 4.426753069017446e+000	 1.889965230414766e+000	 1.061732873832374e+001
 4.406359504423866e+000	 1.937035835043452e+000	 1.062747259917144e+001
 4.385423035416232e+000	 1.983980136811944e+000	 1.063374509106738e+001
 4.363944149582699e+000	 2.030789055248471e+000	 1.063621622476553e+001
 4.341923531174544e+000	 2.077453486984452e+000	 1.063867022261410e+001
 4.319362062597205e+000	 2.123964310937663e+000	 1.064145763934051e+001
 4.296260825741616e+000	 2.170312393570410e+000	 1.064455772086218e+001
 4.272621103152047e+000	 2.216488594217080e+000	 1.064791072844937e+001
 4.248444379026887e+000	 2.262483770475299e+000	 1.065141369728003e+001
 4.223732340049086e+000	 2.308288783654709e+000	 1.065491616486321e+001
 4.198486876043155e+000	 2.353894504277207e+000	 1.065821589137080e+001
 4.451279535870309e+000	 1.900436600481029e+000	 1.061109968772807e+001
 4.430772980541286e+000	 1.947768000235553e+000	 1.062141898118926e+001
 4.409720512831290e+000	 1.994972397347677e+000	 1.062776136423573e+001
 4.388122623029949e+000	 2.042040661035201e+000	 1.063117957017702e+001
 4.365979999179608e+000	 2.088963637492247e+000	 1.063456247517213e+001
 4.343293528574663e+000	 2.135732155101159e+000	 1.063798358847542e+001
 4.320064299100253e+000	 2.182337029719798e+000	 1.064145504213232e+001
 4.296293600406571e+000	 2.228769070038614e+000	 1.064495291532010e+001
 4.271982924915197e+000	 2.275019083001672e+000	 1.064841288126947e+001
 4.247133968654143e+000	 2.321077879285622e+000	 1.065172581516485e+001
 4.221748631918484e+000	 2.366936278830407e+000	 1.065473338577750e+001
 4.475805892362633e+000	 1.910907923430507e+000	 1.060684141285716e+001
 4.455186346806543e+000	 1.958500117137379e+000	 1.061723248501735e+001
 4.434017880916100e+000	 2.005964608422758e+000	 1.062353710084150e+001
 4.412300987682382e+000	 2.053292216194244e+000	 1.062776608323509e+001
 4.390036358938797e+000	 2.100473736208904e+000	 1.063165162478983e+001
 4.367224886868669e+000	 2.147499946313880e+000	 1.063528072680055e+001
 4.343867665351314e+000	 2.194361611762826e+000	 1.063871344448935e+001
 4.319965991142815e+000	 2.241049490602491e+000	 1.064197848580824e+001
 4.295521364887908e+000	 2.287554339123615e+000	 1.064506873627210e+001
 4.270535491959617e+000	 2.333866917370093e+000	 1.064793673258140e+001
 4.245010283123539e+000	 2.379977994700152e+000	 1.065049010850606e+001
 4.500332095573771e+000	 1.921379180938751e+000	 1.060411740943700e+001
 4.479599560496697e+000	 1.969232166968115e+000	 1.061437635329943e+001
 4.458315097150689e+000	 2.016956750801223e+000	 1.062060709443030e+001
 4.436479201228257e+000	 2.064543701035800e+000	 1.062521873620791e+001
 4.414092568353847e+000	 2.111983762992179e+000	 1.062915425694754e+001
 4.391156095599677e+000	 2.159267663982629e+000	 1.063255683185401e+001
 4.367670882839205e+000	 2.206386118656919e+000	 1.063554926907228e+001
 4.343638233934361e+000	 2.253329834418422e+000	 1.063822949200897e+001
 4.319059657752982e+000	 2.300089516904883e+000	 1.064066593154866e+001
 4.293936869013054e+000	 2.346655875527764e+000	 1.064289285159697e+001
 4.268271788950622e+000	 2.393019629063903e+000	 1.064490563214208e+001
 4.524858102583068e+000	 1.931850354681308e+000	 1.060249644546042e+001
 4.504012578888808e+000	 1.979964130946945e+000	 1.061232214685037e+001
 4.482612119015089e+000	 2.027948805247112e+000	 1.061831224622579e+001
 4.460657221355826e+000	 2.075795095870069e+000	 1.062280613955229e+001
 4.438148585326482e+000	 2.123493697699832e+000	 1.062631364892173e+001
 4.415087112888133e+000	 2.171035287514209e+000	 1.062904700360106e+001
 4.391473909908328e+000	 2.218410529359499e+000	 1.063120639263622e+001
 4.367310287354787e+000	 2.265610079996117e+000	 1.063297532333482e+001
 4.342597762318389e+000	 2.312624594409228e+000	 1.063451587026116e+001
 4.317338058861998e+000	 2.359444731378275e+000	 1.063596383884435e+001
 4.291533108692034e+000	 2.406061159099123e+000	 1.063742386851730e+001
 4.549383870469874e+000	 1.942321426333725e+000	 1.060155345896413e+001
 4.528425359259934e+000	 1.990695990293054e+000	 1.061055061240068e+001
 4.506908903989322e+000	 2.038940752524462e+000	 1.061598790412186e+001
 4.484835005753348e+000	 2.087046381007252e+000	 1.061982240747349e+001
 4.462204367758439e+000	 2.135003520189621e+000	 1.062239960563852e+001
 4.439017896854491e+000	 2.182802796315421e+000	 1.062401348170080e+001
 4.415276704903087e+000	 2.230434822827990e+000	 1.062495603723507e+001
 4.390982109977674e+000	 2.277890205845287e+000	 1.062551251948956e+001
 4.366135637392091e+000	 2.325159549700400e+000	 1.062595651647332e+001
 4.340739020553997e+000	 2.372233462541265e+000	 1.062654494471715e+001
 4.314794201640082e+000	 2.419102561983274e+000	 1.062751295535675e+001
 4.573909356313535e+000	 1.952792377571551e+000	 1.060087045057508e+001
 4.552837858887132e+000	 2.001427726225625e+000	 1.060855363966017e+001
 4.531205409553421e+000	 2.049932573397313e+000	 1.061299338323869e+001
 4.509012512109073e+000	 2.098297536757549e+000	 1.061558702237631e+001
 4.486259873551445e+000	 2.146513210319305e+000	 1.061670829520693e+001
 4.462948405619200e+000	 2.194570169793071e+000	 1.061674546289212e+001
 4.439079226167888e+000	 2.242458978019816e+000	 1.061609658011807e+001
 4.414653660376605e+000	 2.290170190475642e+000	 1.061516458340898e+001
 4.389673241782057e+000	 2.337694360842154e+000	 1.061435222153533e+001
 4.364139713136595e+000	 2.385022046636375e+000	 1.061405685345257e+001
 4.338055027087065e+000	 2.432143814893820e+000	 1.061466514015752e+001
 4.598434517193399e+000	 1.963263190070334e+000	 1.060003737095626e+001
 4.577250035047463e+000	 2.012159319963842e+000	 1.060589681675344e+001
 4.555501593187413e+000	 2.060924248629703e+000	 1.060871186797297e+001
 4.533189698111257e+000	 2.109548543431159e+000	 1.060944469822471e+001
 4.510315060607234e+000	 2.158022747946641e+000	 1.060856208412039e+001
 4.486878597302711e+000	 2.206337387353961e+000	 1.060655891847130e+001
 4.462881432047135e+000	 2.254482973892403e+000	 1.060395336380850e+001
 4.438324897125158e+000	 2.302450012396893e+000	 1.060128179414677e+001
 4.413210534296251e+000	 2.350229005898243e+000	 1.059909354985264e+001
 4.387540095657340e+000	 2.397810461283245e+000	 1.059794553171872e+001
 4.361315544325288e+000	 2.445184895008222e+000	 1.059839666137888e+001
 4.128701387472490e+000	 2.314769056742235e+000	 1.067027044079084e+001
 4.103349201813303e+000	 2.359418476664549e+000	 1.067421680015444e+001
 4.077476622929091e+000	 2.403853947232864e+000	 1.068064624223940e+001
 4.051086115123939e+000	 2.448066549433488e+000	 1.068916188485028e+001
 4.024180343380284e+000	 2.492047395438518e+000	 1.069927463120440e+001
 3.996762173110999e+000	 2.535787634173376e+000	 1.071039271272329e+001
 3.968834669728083e+000	 2.579278456895365e+000	 1.072114818247732e+001
 3.940401098026868e+000	 2.622511102776230e+000	 1.073000770074668e+001
 3.911464921384907e+000	 2.665476864481691e+000	 1.073583188045682e+001
 3.882029800775059e+000	 2.708167093740830e+000	 1.073808541390490e+001
 3.852099593592544e+000	 2.750573206898158e+000	 1.073701675049996e+001
 4.151963213112460e+000	 2.327810870410583e+000	 1.066534265348100e+001
 4.126468188805896e+000	 2.372711852972974e+000	 1.066952882095311e+001
 4.100449839287810e+000	 2.417397680753247e+000	 1.067569125825676e+001
 4.073910642746603e+000	 2.461859384486436e+000	 1.068349805508556e+001
 4.046853279179697e+000	 2.506088026269067e+000	 1.069253065098125e+001
 4.019280630144203e+000	 2.550074705158072e+000	 1.070227975996673e+001
 3.991195778323188e+000	 2.593810562780759e+000	 1.071209437224551e+001
 3.962602006906415e+000	 2.637286788948846e+000	 1.072044901773308e+001
 3.933502798784717e+000	 2.680494627269417e+000	 1.072601802612780e+001
 3.903901835557514e+000	 2.723425380745691e+000	 1.072840726847056e+001
 3.873802996353269e+000	 2.766070417360369e+000	 1.072766898597722e+001
 4.175225056205250e+000	 2.340852693863086e+000	 1.066154250244771e+001
 4.149587193144094e+000	 2.386005239254254e+000	 1.066567213469555e+001
 4.123423072882692e+000	 2.430941424434304e+000	 1.067140827486819e+001
 4.096735187493784e+000	 2.475652229886951e+000	 1.067847149339531e+001
 4.069526231989785e+000	 2.520128667633114e+000	 1.068650017696100e+001
 4.041799104072064e+000	 2.564361786861186e+000	 1.069504631146976e+001
 4.013556903694774e+000	 2.608342679568453e+000	 1.070357141296396e+001
 3.984802932442126e+000	 2.652062486206557e+000	 1.071130641310602e+001
 3.955540692718248e+000	 2.695512401323906e+000	 1.071671970631062e+001
 3.925773886749148e+000	 2.738683679197817e+000	 1.071928619766838e+001
 3.895506415396551e+000	 2.781567639449147e+000	 1.071895897311758e+001
 4.198486876043155e+000	 2.353894504277207e+000	 1.065821589137080e+001
 4.172706174370148e+000	 2.399298612245635e+000	 1.066207428241706e+001
 4.146396283511082e+000	 2.444485154575171e+000	 1.066729239726541e+001
 4.119559709423028e+000	 2.489445061498262e+000	 1.067363105200587e+001
 4.092199162133382e+000	 2.534169294960265e+000	 1.068077226129498e+001
 4.064317555487758e+000	 2.578648854281084e+000	 1.068831489214399e+001
 4.035918006711386e+000	 2.622874781828017e+000	 1.069577045972584e+001
 4.007003835782910e+000	 2.666838168692685e+000	 1.070255908740972e+001
 3.977578564619736e+000	 2.710530160364864e+000	 1.070782326222853e+001
 3.947645916074441e+000	 2.753941962396012e+000	 1.071059669310538e+001
 3.917209812741994e+000	 2.797064846045182e+000	 1.071073828511026e+001
 4.221748631918484e+000	 2.366936278830407e+000	 1.065473338577750e+001
 4.195825092026315e+000	 2.412591948684358e+000	 1.065818589067989e+001
 4.169369430970327e+000	 2.458028847474985e+000	 1.066286051567429e+001
 4.142384168591881e+000	 2.503237855183603e+000	 1.066854633868520e+001
 4.114872029933324e+000	 2.548209883680131e+000	 1.067495594803757e+001
 4.086835944984467e+000	 2.592935882416122e+000	 1.068172097931258e+001
 4.058279048241575e+000	 2.637406844129022e+000	 1.068838779047928e+001
 4.029204678077674e+000	 2.681613810550553e+000	 1.069440245852015e+001
 3.999616375923409e+000	 2.725547878111994e+000	 1.069919727316369e+001
 3.969517885257865e+000	 2.769200203639073e+000	 1.070219729155974e+001
 3.938913150409198e+000	 2.812562010029166e+000	 1.070284418135412e+001
 4.245010283123539e+000	 2.379977994700152e+000	 1.065049010850606e+001
 4.218943905654852e+000	 2.425885225307669e+000	 1.065348060789074e+001
 4.192342475057771e+000	 2.471572479432886e+000	 1.065765127486792e+001
 4.165208525057892e+000	 2.517030586806201e+000	 1.066280771194393e+001
 4.137544795712442e+000	 2.562250409222323e+000	 1.066868028668701e+001
 4.109354233155368e+000	 2.607222846264664e+000	 1.067491956365175e+001
 4.080639989153886e+000	 2.651938841041037e+000	 1.068109187301460e+001
 4.051405420475334e+000	 2.696389385923487e+000	 1.068660079232591e+001
 4.021654088063499e+000	 2.740565528285002e+000	 1.069089357841514e+001
 3.991389756023894e+000	 2.784458376225799e+000	 1.069393238949930e+001
 3.960616390417768e+000	 2.828059104281789e+000	 1.069510141479954e+001
 4.268271788950622e+000	 2.393019629063903e+000	 1.064490563214208e+001
 4.242062574798013e+000	 2.439178418852811e+000	 1.064745503615029e+001
 4.215315375570760e+000	 2.485116026748010e+000	 1.065122503802599e+001
 4.188032738878609e+000	 2.530823232229287e+000	 1.065602626964862e+001
 4.160217419793572e+000	 2.576290847016447e+000	 1.066159433844983e+001
 4.131872380593638e+000	 2.621509720825070e+000	 1.066758516616502e+001
 4.103000790316869e+000	 2.666470747133635e+000	 1.067357046489616e+001
 4.073606024124797e+000	 2.711164868954810e+000	 1.067880376162491e+001
 4.043691662474240e+000	 2.755583084603597e+000	 1.068284531799252e+001
 4.013261490097003e+000	 2.799716453454992e+000	 1.068570943273453e+001
 3.982319494787302e+000	 2.843556101683741e+000	 1.068732403383077e+001
 4.291533108692034e+000	 2.406061159099123e+000	 1.063742386851730e+001
 4.265181058998054e+000	 2.452471506057028e+000	 1.063962865877820e+001
 4.238288092306640e+000	 2.498659465719494e+000	 1.064316384512929e+001
 4.210856770111574e+000	 2.544615767316092e+000	 1.064783383127111e+001
 4.182889862499549e+000	 2.590331172492116e+000	 1.065336717547947e+001
 4.154390347892455e+000	 2.635796481095701e+000	 1.065941184770080e+001
 4.125361412599069e+000	 2.681002536976384e+000	 1.066549285095917e+001
 4.095806450174976e+000	 2.725940233787844e+000	 1.067068921750399e+001
 4.065729060589863e+000	 2.770600520787480e+000	 1.067472743687081e+001
 4.035133049201670e+000	 2.814974408625452e+000	 1.067759107775263e+001
 4.004022425537404e+000	 2.859052975115712e+000	 1.067932408465846e+001
 4.314794201640082e+000	 2.419102561983274e+000	 1.062751295535675e+001
 4.288299317797230e+000	 2.465764463657564e+000	 1.062954376365210e+001
 4.261260585062755e+000	 2.512202772646476e+000	 1.063307136607041e+001
 4.233680578814340e+000	 2.558408167929847e+000	 1.063788291398851e+001
 4.205562084153207e+000	 2.604371361078937e+000	 1.064368787332816e+001
 4.176908095644997e+000	 2.650083102074917e+000	 1.065011321126973e+001
 4.147721816869038e+000	 2.695534185138858e+000	 1.065652747847507e+001
 4.118006659774780e+000	 2.740715454565915e+000	 1.066196252860636e+001
 4.087766243844597e+000	 2.785617810556358e+000	 1.066624237741228e+001
 4.057004395062369e+000	 2.830232215035975e+000	 1.066930210992331e+001
 4.025725144687676e+000	 2.874549697458392e+000	 1.067113534755121e+001
 4.338055027087065e+000	 2.432143814893820e+000	 1.061466514015752e+001
 4.311417310737799e+000	 2.479057268391663e+000	 1.061676536249319e+001
 4.284232813636448e+000	 2.525745923828093e+000	 1.062057284865414e+001
 4.256504125044452e+000	 2.572200409933782e+000	 1.062584670284054e+001
 4.228234045077379e+000	 2.618411388206522e+000	 1.063226549684274e+001
 4.199425584444444e+000	 2.664369558761082e+000	 1.063942239740698e+001
 4.170081963995317e+000	 2.710065666190624e+000	 1.064639867068951e+001
 4.140206614073119e+000	 2.755490505432348e+000	 1.065235591306451e+001
 4.109803173672678e+000	 2.800634927629938e+000	 1.065711946646855e+001
 4.078875489403575e+000	 2.845489845985365e+000	 1.066055850338178e+001
 4.047427614257718e+000	 2.890046241592473e+000	 1.066259783500835e+001
 4.361315544325288e+000	 2.445184895008222e+000	 1.059839666137888e+001
 4.334534997362014e+000	 2.492349896996569e+000	 1.060088110622629e+001
 4.307204737825070e+000	 2.539288895563483e+000	 1.060531506165502e+001
 4.279327368859456e+000	 2.585992469191127e+000	 1.061141901514170e+001
 4.250905705594900e+000	 2.632451229304479e+000	 1.061882907972485e+001
 4.221942774883971e+000	 2.678655826152554e+000	 1.062705439663343e+001
 4.192441814846461e+000	 2.724596954701255e+000	 1.063485715378268e+001
 4.162406274218904e+000	 2.770265360530463e+000	 1.064162776338168e+001
 4.131839811508336e+000	 2.815651845727923e+000	 1.064711422300378e+001
 4.100746293949762e+000	 2.860747274772420e+000	 1.065110267579809e+001
 4.069129796267132e+000	 2.905542580398644e+000	 1.065343095055345e+001
 3.852099593592544e+000	 2.750573206898158e+000	 1.073701675049996e+001
 3.821678351209255e+000	 2.792686689510306e+000	 1.073377732364966e+001
 3.790770314199296e+000	 2.834499098992382e+000	 1.072914787904881e+001
 3.759379913927593e+000	 2.876002072770478e+000	 1.072287674467836e+001
 3.727511771739844e+000	 2.917187334614500e+000	 1.071488845376872e+001
 3.695170696876085e+000	 2.958046700001626e+000	 1.070526666556781e+001
 3.662361684203526e+000	 2.998572081419612e+000	 1.069423368079085e+001
 3.629089911770705e+000	 3.038755493602876e+000	 1.068212665344716e+001
 3.595360738185273e+000	 3.078589058694386e+000	 1.066937063387975e+001
 3.561179699818027e+000	 3.118065011326384e+000	 1.065644861047412e+001
 3.526552507836178e+000	 3.157175703613221e+000	 1.064386874928288e+001
 3.873802996353269e+000	 2.766070417360369e+000	 1.072766898597722e+001
 3.843210355370016e+000	 2.808421174698224e+000	 1.072485700829238e+001
 3.812128177074004e+000	 2.850469162607365e+000	 1.072062693493425e+001
 3.780560917797259e+000	 2.892205971397670e+000	 1.071469682102887e+001
 3.748513224922961e+000	 2.933623278209317e+000	 1.070697305837865e+001
 3.715989934787253e+000	 2.974712852406442e+000	 1.069753293931640e+001
 3.682996070399315e+000	 3.015466560910336e+000	 1.068660365942865e+001
 3.649536838981732e+000	 3.055876373465035e+000	 1.067453786282060e+001
 3.615617629333495e+000	 3.095934367828269e+000	 1.066178586805213e+001
 3.581244009018294e+000	 3.135632734880840e+000	 1.064886474680382e+001
 3.546421721381069e+000	 3.174963783647567e+000	 1.063632446041235e+001
 3.895506415396551e+000	 2.781567639449147e+000	 1.071895897311758e+001
 3.864742375684650e+000	 2.824155671690768e+000	 1.071665101724630e+001
 3.833486055971865e+000	 2.866439238203753e+000	 1.071287212625508e+001
 3.801741937557329e+000	 2.908409882181733e+000	 1.070731884019394e+001
 3.769514693861728e+000	 2.950059234135116e+000	 1.069988919540356e+001
 3.736809188317338e+000	 2.991379017314970e+000	 1.069066490861613e+001
 3.703630472075320e+000	 3.032361053076081e+000	 1.067988983763729e+001
 3.669983781532329e+000	 3.072997266172066e+000	 1.066794482431047e+001
 3.635874535678719e+000	 3.113279689975391e+000	 1.065531906128307e+001
 3.601308333271101e+000	 3.153200471615381e+000	 1.064257815937574e+001
 3.566290949832161e+000	 3.192751877027289e+000	 1.063032912676966e+001
 3.917209812741994e+000	 2.797064846045182e+000	 1.071073828511026e+001
 3.886274374472733e+000	 2.839890152953399e+000	 1.070898430852261e+001
 3.854843913517218e+000	 2.882409297834738e+000	 1.070568544130436e+001
 3.822922936141673e+000	 2.924613776766639e+000	 1.070052514010924e+001
 3.790516141804253e+000	 2.966495173629784e+000	 1.069340256428262e+001
 3.757628421033338e+000	 3.008045165562214e+000	 1.068441435773129e+001
 3.724264853122052e+000	 3.049255528352266e+000	 1.067383253846676e+001
 3.690430703641079e+000	 3.090118141763178e+000	 1.066207860360419e+001
 3.656131421772110e+000	 3.130624994782196e+000	 1.064969399482193e+001
 3.621372637464639e+000	 3.170768190787212e+000	 1.063730710596600e+001
 3.586160158419070e+000	 3.210539952623959e+000	 1.062559705027448e+001
 3.938913150409198e+000	 2.812562010029166e+000	 1.070284418135412e+001
 3.907806314053837e+000	 2.855624590951576e+000	 1.070166913594096e+001
 3.876201712334408e+000	 2.898379313553518e+000	 1.069885757482929e+001
 3.844103876484156e+000	 2.940817626796362e+000	 1.069408797944805e+001
 3.811517531998638e+000	 2.982931067931204e+000	 1.068726980634232e+001
 3.778447596502258e+000	 3.024711267983181e+000	 1.067852484469534e+001
 3.744899177430023e+000	 3.066149957174311e+000	 1.066816450585156e+001
 3.710877569526564e+000	 3.107238970277573e+000	 1.065666315475361e+001
 3.676388252164828e+000	 3.147970251895124e+000	 1.064462763188008e+001
 3.641436886487100e+000	 3.188335861653542e+000	 1.063276315239227e+001
 3.606029312371414e+000	 3.228327979309159e+000	 1.062183580641204e+001
 3.960616390417768e+000	 2.828059104281789e+000	 1.069510141479954e+001
 3.929338156747529e+000	 2.871358958150761e+000	 1.069450684560975e+001
 3.897559415047773e+000	 2.914349257413284e+000	 1.069216971445376e+001
 3.865284721518648e+000	 2.957021403914880e+000	 1.068777131464004e+001
 3.832518827692987e+000	 2.999366888277262e+000	 1.068124027291767e+001
 3.799266678291103e+000	 3.041377295412881e+000	 1.067273346089581e+001
 3.765533408889745e+000	 3.083044309977635e+000	 1.066261265587785e+001
 3.731324343407371e+000	 3.124359721754460e+000	 1.065141706320365e+001
 3.696644991408034e+000	 3.165315430960619e+000	 1.063983185236368e+001
 3.661501045226677e+000	 3.205903453471577e+000	 1.062865289876021e+001
 3.625898376918811e+000	 3.246115925954463e+000	 1.061874796167222e+001
 3.982319494787302e+000	 2.843556101683741e+000	 1.068732403383077e+001
 3.950869864873384e+000	 2.887093227016413e+000	 1.068728966764520e+001
 3.918916984281657e+000	 2.930319101467231e+000	 1.068539532295356e+001
 3.886465434179013e+000	 2.973225079766164e+000	 1.068133257327576e+001
 3.853519992135404e+000	 3.015802605905841e+000	 1.067505779031589e+001
 3.820085629966870e+000	 3.058043218686316e+000	 1.066677258788626e+001
 3.786167511391733e+000	 3.099938557197659e+000	 1.065689982559524e+001
 3.751770989502083e+000	 3.141480366233044e+000	 1.064605528662016e+001
 3.716901604052891e+000	 3.182660501625122e+000	 1.063501518560224e+001
 3.681565078571562e+000	 3.223470935498525e+000	 1.062467970384837e+001
 3.645767317290876e+000	 3.263903761431448e+000	 1.061603278922136e+001
 4.004022425537404e+000	 2.859052975115712e+000	 1.067932408465846e+001
 3.972401400750971e+000	 2.902827370013992e+000	 1.067980250321300e+001
 3.940274382660400e+000	 2.946288817768555e+000	 1.067830191644285e+001
 3.907645977399121e+000	 2.989428625994191e+000	 1.067452442393408e+001
 3.874520988573994e+000	 3.032238192054827e+000	 1.066846242164153e+001
 3.840904415096563e+000	 3.074709008638496e+000	 1.066037165142955e+001
 3.806801448826499e+000	 3.116832669269804e+000	 1.065074651936473e+001
 3.772217472029282e+000	 3.158600873752531e+000	 1.064029089349884e+001
 3.737158054650565e+000	 3.200005433535078e+000	 1.062988454104715e+001
 3.701628951409946e+000	 3.241038276991590e+000	 1.062054540760094e+001
 3.665636098717228e+000	 3.281691454611689e+000	 1.061338798277278e+001
 4.025725144687676e+000	 2.874549697458392e+000	 1.067113534755121e+001
 3.993932726699862e+000	 2.918561359608961e+000	 1.067182470696720e+001
 3.961631572808341e+000	 2.962258378370446e+000	 1.067065283852376e+001
 3.928826314112840e+000	 3.005632014242935e+000	 1.066709654246394e+001
 3.895521780256860e+000	 3.048673617962106e+000	 1.066119222549707e+001
 3.861722997247186e+000	 3.091374636104424e+000	 1.065325887277140e+001
 3.827435185084556e+000	 3.133726616629490e+000	 1.064387265273028e+001
 3.792663755207555e+000	 3.175721214352128e+000	 1.063383679953324e+001
 3.757414307752212e+000	 3.217350196336925e+000	 1.062414693691149e+001
 3.721692628630024e+000	 3.258605447207982e+000	 1.061595205169473e+001
 3.685504686427484e+000	 3.299478974366764e+000	 1.061051136861962e+001
 4.047427614257718e+000	 2.890046241592473e+000	 1.066259783500835e+001
 4.015463805039629e+000	 2.934295168266779e+000	 1.066322472228148e+001
 3.982988517349825e+000	 2.978227755326101e+000	 1.066220903044415e+001
 3.950006407254037e+000	 3.021835216156370e+000	 1.065879737474604e+001
 3.916522330432105e+000	 3.065108854865561e+000	 1.065298501156774e+001
 3.882541339985741e+000	 3.108040071919109e+000	 1.064516301713948e+001
 3.848068684056416e+000	 3.150620369712136e+000	 1.063599929379754e+001
 3.813109803255483e+000	 3.192841358071038e+000	 1.062640750171648e+001
 3.777670327908999e+000	 3.234694759677108e+000	 1.061751122671877e+001
 3.741756075119985e+000	 3.276172415404907e+000	 1.061060359814338e+001
 3.705373045651260e+000	 3.317266289568248e+000	 1.060710261579055e+001
 4.069129796267132e+000	 2.905542580398644e+000	 1.065343095055345e+001
 4.036994598089843e+000	 2.950028768452905e+000	 1.065399490648008e+001
 4.004345178909193e+000	 2.994196920688713e+000	 1.065273798408985e+001
 3.971186219756580e+000	 3.038038203378471e+000	 1.064937589595484e+001
 3.937522602347835e+000	 3.081543874003077e+000	 1.064358009309526e+001
 3.903359406879230e+000	 3.124705286917557e+000	 1.063581513945889e+001
 3.868701909632592e+000	 3.167513898953164e+000	 1.062685040209991e+001
 3.833555580391654e+000	 3.209961274948470e+000	 1.061772081014806e+001
 3.797926079672085e+000	 3.252039093202069e+000	 1.060968982372588e+001
 3.761819255768023e+000	 3.293739150839572e+000	 1.060420764589961e+001
 3.725241141618175e+000	 3.335053369087720e+000	 1.060285592313448e+001
 3.526552507836178e+000	 3.157175703613221e+000	 1.064386874928288e+001
 3.491490338159828e+000	 3.195907828477368e+000	 1.063065517671831e+001
 3.455994081322530e+000	 3.234259887315395e+000	 1.061755693456737e+001
 3.420069953636332e+000	 3.272224619985245e+000	 1.060763370574207e+001
 3.383724332540992e+000	 3.309794902772032e+000	 1.060385580109693e+001
 3.346963752837024e+000	 3.346963752837023e+000	 1.060810286454561e+001
 3.309794902772032e+000	 3.383724332540992e+000	 1.061040720272047e+001
 3.272224619985245e+000	 3.420069953636333e+000	 1.060246898675510e+001
 3.234259887315396e+000	 3.455994081322531e+000	 1.058627765981701e+001
 3.195907828477369e+000	 3.491490338159829e+000	 1.056466756476351e+001
 3.157175703613221e+000	 3.526552507836178e+000	 1.054055025374793e+001
 3.546421721381069e+000	 3.174963783647567e+000	 1.063632446041235e+001
 3.511162005309020e+000	 3.213914132076515e+000	 1.062347292489337e+001
 3.475465756353109e+000	 3.252482273120869e+000	 1.061129219704188e+001
 3.439339225849170e+000	 3.290660905733674e+000	 1.060281455570921e+001
 3.402788827168555e+000	 3.328442866063796e+000	 1.060098431519199e+001
 3.365821131929980e+000	 3.365821131929980e+000	 1.060330423025630e+001
 3.328442866063796e+000	 3.402788827168555e+000	 1.060322161921144e+001
 3.290660905733673e+000	 3.439339225849170e+000	 1.059614600237289e+001
 3.252482273120868e+000	 3.475465756353109e+000	 1.058070980418130e+001
 3.213914132076515e+000	 3.511162005309020e+000	 1.055970444059512e+001
 3.174963783647567e+000	 3.546421721381069e+000	 1.053599774058947e+001
 3.566290949832161e+000	 3.192751877027289e+000	 1.063032912676966e+001
 3.530833687216242e+000	 3.231920449184716e+000	 1.061816911712150e+001
 3.494937445991728e+000	 3.270704672597463e+000	 1.060730114332166e+001
 3.458608512518249e+000	 3.309097205313643e+000	 1.060071960028519e+001
 3.421853336098788e+000	 3.347090843345853e+000	 1.060043104885236e+001
 3.384678525170281e+000	 3.384678525170280e+000	 1.059892668984961e+001
 3.347090843345852e+000	 3.421853336098788e+000	 1.059513783246693e+001
 3.309097205313644e+000	 3.458608512518250e+000	 1.058867631011312e+001
 3.270704672597464e+000	 3.494937445991728e+000	 1.057438510116301e+001
 3.231920449184716e+000	 3.530833687216242e+000	 1.055432087746650e+001
 3.192751877027288e+000	 3.566290949832161e+000	 1.053129505552368e+001
 3.586160158419070e+000	 3.210539952623959e+000	 1.062559705027448e+001
 3.550505349456825e+000	 3.249926748291658e+000	 1.061445287787084e+001
 3.514409116163698e+000	 3.288927053856720e+000	 1.060528402702287e+001
 3.477877779923087e+000	 3.327533486462375e+000	 1.060103684300574e+001
 3.440917825969560e+000	 3.365738801984989e+000	 1.059969794131911e+001
 3.403535899558242e+000	 3.403535899558242e+000	 1.059484684051252e+001
 3.365738801984989e+000	 3.440917825969561e+000	 1.058785114088058e+001
 3.327533486462375e+000	 3.477877779923087e+000	 1.058013298282034e+001
 3.288927053856719e+000	 3.514409116163698e+000	 1.056735828232283e+001
 3.249926748291657e+000	 3.550505349456825e+000	 1.054855248163241e+001
 3.210539952623960e+000	 3.586160158419070e+000	 1.052645818465178e+001
 3.606029312371414e+000	 3.228327979309159e+000	 1.062183580641204e+001
 3.570176957606095e+000	 3.267932997887018e+000	 1.061202647530257e+001
 3.533880732794333e+000	 3.307149385010174e+000	 1.060493407903347e+001
 3.497146994343197e+000	 3.345969716917085e+000	 1.060275282259406e+001
 3.459982263418742e+000	 3.384386709347995e+000	 1.059856531526049e+001
 3.422393222094180e+000	 3.422393222094181e+000	 1.059094524580597e+001
 3.384386709347995e+000	 3.459982263418742e+000	 1.058131294150665e+001
 3.345969716917085e+000	 3.497146994343197e+000	 1.057110528900116e+001
 3.307149385010175e+000	 3.533880732794334e+000	 1.055968745919271e+001
 3.267932997887018e+000	 3.570176957606095e+000	 1.054243849439686e+001
 3.228327979309159e+000	 3.606029312371414e+000	 1.052150707859534e+001
 3.625898376918811e+000	 3.246115925954463e+000	 1.061874796167222e+001
 3.589848477239379e+000	 3.285939166460482e+000	 1.061058702787669e+001
 3.553352261808945e+000	 3.325371634169370e+000	 1.060593919973653e+001
 3.516416122058093e+000	 3.364405864414994e+000	 1.060355382800518e+001
 3.479046615084206e+000	 3.403034532801657e+000	 1.059693157402255e+001
 3.441250459778411e+000	 3.441250459778410e+000	 1.058710646944949e+001
 3.403034532801657e+000	 3.479046615084205e+000	 1.057539197197620e+001
 3.364405864414993e+000	 3.516416122058093e+000	 1.056311762795848e+001
 3.325371634169370e+000	 3.553352261808945e+000	 1.055143325476102e+001
 3.285939166460482e+000	 3.589848477239380e+000	 1.053602090274204e+001
 3.246115925954463e+000	 3.625898376918810e+000	 1.051646474266686e+001
 3.645767317290876e+000	 3.263903761431448e+000	 1.061603278922136e+001
 3.609519873932002e+000	 3.303945222501730e+000	 1.060982820929129e+001
 3.572823669132848e+000	 3.343593769445843e+000	 1.060757278358730e+001
 3.535685129347288e+000	 3.382841896693317e+000	 1.060320597655351e+001
 3.498110847603819e+000	 3.421682239712764e+000	 1.059469898136277e+001
 3.460107579611251e+000	 3.460107579611250e+000	 1.058321910808476e+001
 3.421682239712764e+000	 3.498110847603818e+000	 1.056996121082578e+001
 3.382841896693318e+000	 3.535685129347289e+000	 1.055613562478951e+001
 3.343593769445843e+000	 3.572823669132847e+000	 1.054295598516121e+001
 3.303945222501731e+000	 3.609519873932002e+000	 1.052934355053174e+001
 3.263903761431447e+000	 3.645767317290875e+000	 1.051135632804684e+001
 3.665636098717228e+000	 3.281691454611689e+000	 1.061338798277278e+001
 3.629191113259290e+000	 3.321951134500448e+000	 1.060944195171882e+001
 3.592294920691352e+000	 3.361815758951137e+000	 1.060769731456078e+001
 3.554953982490301e+000	 3.401277781489275e+000	 1.060162679720315e+001
 3.517174927615451e+000	 3.440329797448102e+000	 1.059177370429154e+001
 3.478964548593018e+000	 3.478964548593018e+000	 1.057917582304989e+001
 3.440329797448102e+000	 3.517174927615451e+000	 1.056489789712651e+001
 3.401277781489275e+000	 3.554953982490301e+000	 1.055001940922504e+001
 3.361815758951137e+000	 3.592294920691351e+000	 1.053562224317327e+001
 3.321951134500448e+000	 3.629191113259292e+000	 1.052245125031955e+001
 3.281691454611689e+000	 3.665636098717227e+000	 1.050620822398207e+001
 3.685504686427484e+000	 3.299478974366764e+000	 1.061051136861962e+001
 3.648862160796576e+000	 3.339956870946316e+000	 1.060896904805265e+001
 3.611765982409771e+000	 3.380037570796788e+000	 1.060599163328928e+001
 3.574222647766643e+000	 3.419713486540085e+000	 1.059873764996550e+001
 3.536238821756975e+000	 3.458977173374460e+000	 1.058806585468774e+001
 3.497821333724026e+000	 3.497821333724026e+000	 1.057487337119425e+001
 3.458977173374461e+000	 3.536238821756975e+000	 1.056008354945487e+001
 3.419713486540085e+000	 3.574222647766643e+000	 1.054463360434591e+001
 3.380037570796788e+000	 3.611765982409771e+000	 1.052946213153410e+001
 3.339956870946316e+000	 3.648862160796576e+000	 1.051549659913509e+001
 3.299478974366763e+000	 3.685504686427483e+000	 1.050104715102136e+001
 3.705373045651260e+000	 3.317266289568248e+000	 1.060710261579055e+001
 3.668532982119181e+000	 3.357962400329018e+000	 1.060655979898059e+001
 3.631236820213418e+000	 3.398259173094338e+000	 1.060238983571747e+001
 3.593491091455829e+000	 3.438148979582966e+000	 1.059446377574093e+001
 3.555302496666260e+000	 3.477624334858628e+000	 1.058348952972726e+001
 3.516677902004593e+000	 3.516677902004593e+000	 1.057021263476293e+001
 3.477624334858627e+000	 3.555302496666260e+000	 1.055540398422305e+001
 3.438148979582966e+000	 3.593491091455829e+000	 1.053984733247126e+001
 3.398259173094338e+000	 3.631236820213418e+000	 1.052432667469159e+001
 3.357962400329018e+000	 3.668532982119181e+000	 1.050961360311928e+001
 3.317266289568248e+000	 3.705373045651260e+000	 1.049589925530677e+001
 3.725241141618175e+000	 3.335053369087720e+000	 1.060285592313448e+001
 3.688203542802433e+000	 3.375967691138236e+000	 1.060170298384108e+001
 3.650707400027606e+000	 3.416480533955327e+000	 1.059682988975134e+001
 3.612759279837374e+000	 3.456584228355136e+000	 1.058873434479791e+001
 3.574365918981176e+000	 3.496271249267390e+000	 1.057796285116086e+001
 3.535534220435035e+000	 3.535534220435034e+000	 1.056509865037829e+001
 3.496271249267390e+000	 3.574365918981176e+000	 1.055074933338642e+001
 3.456584228355136e+000	 3.612759279837374e+000	 1.053553422073200e+001
 3.416480533955327e+000	 3.650707400027606e+000	 1.052007161598728e+001
 3.375967691138236e+000	 3.688203542802433e+000	 1.050496603637695e+001
 3.335053369087720e+000	 3.725241141618175e+000	 1.049079552478906e+001
 3.157175703613221e+000	 3.526552507836178e+000	 1.054055025374793e+001
 3.118065011326384e+000	 3.561179699818027e+000	 1.051602321662047e+001
 3.078589058694385e+000	 3.595360738185272e+000	 1.049135812285631e+001
 3.038755493602876e+000	 3.629089911770705e+000	 1.046675062642873e+001
 2.998572081419611e+000	 3.662361684203525e+000	 1.044237126031260e+001
 2.958046700001627e+000	 3.695170696876085e+000	 1.041834319441822e+001
 2.917187334614500e+000	 3.727511771739845e+000	 1.039472173791242e+001
 2.876002072770478e+000	 3.759379913927594e+000	 1.037147573627410e+001
 2.834499098992381e+000	 3.790770314199297e+000	 1.034847099358976e+001
 2.792686689510306e+000	 3.821678351209255e+000	 1.032545582997195e+001
 2.750573206898158e+000	 3.852099593592544e+000	 1.030204886277743e+001
 3.174963783647567e+000	 3.546421721381069e+000	 1.053599774058947e+001
 3.135632734880840e+000	 3.581244009018294e+000	 1.051169435495820e+001
 3.095934367828270e+000	 3.615617629333495e+000	 1.048713929387030e+001
 3.055876373465033e+000	 3.649536838981733e+000	 1.046257941625002e+001
 3.015466560910336e+000	 3.682996070399315e+000	 1.043823134074398e+001
 2.974712852406443e+000	 3.715989934787254e+000	 1.041425837385816e+001
 2.933623278209317e+000	 3.748513224922959e+000	 1.039074926847564e+001
 2.892205971397670e+000	 3.780560917797260e+000	 1.036769896802934e+001
 2.850469162607365e+000	 3.812128177074004e+000	 1.034499147096222e+001
 2.808421174698224e+000	 3.843210355370014e+000	 1.032238492866365e+001
 2.766070417360369e+000	 3.873802996353269e+000	 1.029949906802689e+001
 3.192751877027288e+000	 3.566290949832161e+000	 1.053129505552368e+001
 3.153200471615381e+000	 3.601308333271101e+000	 1.050740921053238e+001
 3.113279689975391e+000	 3.635874535678719e+000	 1.048309030144692e+001
 3.072997266172066e+000	 3.669983781532329e+000	 1.045865170728951e+001
 3.032361053076081e+000	 3.703630472075320e+000	 1.043437120418508e+001
 2.991379017314971e+000	 3.736809188317337e+000	 1.041046701247942e+001
 2.950059234135116e+000	 3.769514693861728e+000	 1.038707576349472e+001
 2.908409882181733e+000	 3.801741937557330e+000	 1.036423254630801e+001
 2.866439238203751e+000	 3.833486055971865e+000	 1.034185317347227e+001
 2.824155671690768e+000	 3.864742375684651e+000	 1.031971878230697e+001
 2.781567639449146e+000	 3.895506415396550e+000	 1.029746286547736e+001
 3.210539952623960e+000	 3.586160158419070e+000	 1.052645818465178e+001
 3.170768190787212e+000	 3.621372637464638e+000	 1.050316499818613e+001
 3.130624994782196e+000	 3.656131421772108e+000	 1.047919145808112e+001
 3.090118141763177e+000	 3.690430703641078e+000	 1.045493255661118e+001
 3.049255528352266e+000	 3.724264853122051e+000	 1.043074206410256e+001
 3.008045165562214e+000	 3.757628421033338e+000	 1.040690764356009e+001
 2.966495173629784e+000	 3.790516141804253e+000	 1.038362797753680e+001
 2.924613776766639e+000	 3.822922936141672e+000	 1.036099207293137e+001
 2.882409297834738e+000	 3.854843913517219e+000	 1.033896088708005e+001
 2.839890152953399e+000	 3.886274374472734e+000	 1.031735139534264e+001
 2.797064846045182e+000	 3.917209812741993e+000	 1.029582319658173e+001
 3.228327979309159e+000	 3.606029312371414e+000	 1.052150707859534e+001
 3.188335861653542e+000	 3.641436886487099e+000	 1.049896327472308e+001
 3.147970251895125e+000	 3.676388252164827e+000	 1.047542782406424e+001
 3.107238970277573e+000	 3.710877569526563e+000	 1.045139221058789e+001
 3.066149957174312e+000	 3.744899177430023e+000	 1.042730080745466e+001
 3.024711267983182e+000	 3.778447596502260e+000	 1.040352500741405e+001
 2.982931067931204e+000	 3.811517531998638e+000	 1.038033946148802e+001
 2.940817626796362e+000	 3.844103876484156e+000	 1.035790059711320e+001
 2.898379313553517e+000	 3.876201712334408e+000	 1.033622756371880e+001
 2.855624590951576e+000	 3.907806314053837e+000	 1.031518572964582e+001
 2.812562010029165e+000	 3.938913150409198e+000	 1.029447282959398e+001
 3.246115925954463e+000	 3.625898376918810e+000	 1.051646474266686e+001
 3.205903453471578e+000	 3.661501045226677e+000	 1.049480900981446e+001
 3.165315430960621e+000	 3.696644991408035e+000	 1.047178826092991e+001
 3.124359721754459e+000	 3.731324343407371e+000	 1.044800514254892e+001
 3.083044309977635e+000	 3.765533408889745e+000	 1.042400901805997e+001
 3.041377295412882e+000	 3.799266678291102e+000	 1.040026906185515e+001
 2.999366888277262e+000	 3.832518827692987e+000	 1.037714956133761e+001
 2.957021403914880e+000	 3.865284721518647e+000	 1.035488760363703e+001
 2.914349257413283e+000	 3.897559415047773e+000	 1.033357329978346e+001
 2.871358958150760e+000	 3.929338156747529e+000	 1.031313267408721e+001
 2.828059104281789e+000	 3.960616390417767e+000	 1.029331332080427e+001
 3.263903761431447e+000	 3.645767317290875e+000	 1.051135632804684e+001
 3.223470935498525e+000	 3.681565078571562e+000	 1.049070965833791e+001
 3.182660501625123e+000	 3.716901604052892e+000	 1.046826448673095e+001
 3.141480366233044e+000	 3.751770989502083e+000	 1.044474909263689e+001
 3.099938557197659e+000	 3.786167511391734e+000	 1.042083200253868e+001
 3.058043218686317e+000	 3.820085629966870e+000	 1.039709399558572e+001
 3.015802605905841e+000	 3.853519992135404e+000	 1.037400242023319e+001
 2.973225079766165e+000	 3.886465434179013e+000	 1.035188800465049e+001
 2.930319101467231e+000	 3.918916984281657e+000	 1.033092431858721e+001
 2.887093227016413e+000	 3.950869864873384e+000	 1.031111001842253e+001
 2.843556101683741e+000	 3.982319494787302e+000	 1.029225398047751e+001
 3.281691454611689e+000	 3.665636098717227e+000	 1.050620822398207e+001
 3.241038276991591e+000	 3.701628951409947e+000	 1.048667423414707e+001
 3.200005433535079e+000	 3.737158054650565e+000	 1.046485013313199e+001
 3.158600873752532e+000	 3.772217472029283e+000	 1.044160410984495e+001
 3.116832669269804e+000	 3.806801448826499e+000	 1.041773781878311e+001
 3.074709008638497e+000	 3.840904415096564e+000	 1.039395724445336e+001
 3.032238192054828e+000	 3.874520988573996e+000	 1.037084598373756e+001
 2.989428625994191e+000	 3.907645977399120e+000	 1.034884113499412e+001
 2.946288817768555e+000	 3.940274382660400e+000	 1.032821195668938e+001
 2.902827370013992e+000	 3.972401400750971e+000	 1.030904143139953e+001
 2.859052975115711e+000	 4.004022425537404e+000	 1.029118611827742e+001
 3.299478974366763e+000	 3.685504686427483e+000	 1.050104715102136e+001
 3.258605447207982e+000	 3.721692628630023e+000	 1.048271238527367e+001
 3.217350196336926e+000	 3.757414307752213e+000	 1.046153980430503e+001
 3.175721214352127e+000	 3.792663755207555e+000	 1.043855159620827e+001
 3.133726616629490e+000	 3.827435185084556e+000	 1.041469630691898e+001
 3.091374636104424e+000	 3.861722997247187e+000	 1.039081851052463e+001
 3.048673617962106e+000	 3.895521780256860e+000	 1.036763100822304e+001
 3.005632014242934e+000	 3.928826314112840e+000	 1.034568975098751e+001
 2.962258378370446e+000	 3.961631572808341e+000	 1.032537165400466e+001
 2.918561359608961e+000	 3.993932726699862e+000	 1.030685544297896e+001
 2.874549697458392e+000	 4.025725144687677e+000	 1.028913030880374e+001
 3.317266289568248e+000	 3.705373045651260e+000	 1.049589925530677e+001
 3.276172415404907e+000	 3.741756075119985e+000	 1.047883347056597e+001
 3.234694759677108e+000	 3.777670327908998e+000	 1.045832813761887e+001
 3.192841358071037e+000	 3.813109803255483e+000	 1.043557335312749e+001
 3.150620369712136e+000	 3.848068684056416e+000	 1.041167812272254e+001
 3.108040071919110e+000	 3.882541339985742e+000	 1.038763878392848e+001
 3.065108854865560e+000	 3.916522330432104e+000	 1.036431007234422e+001
 3.021835216156370e+000	 3.950006407254037e+000	 1.034237903260152e+001
 2.978227755326099e+000	 3.982988517349826e+000	 1.032234194760973e+001
 2.934295168266778e+000	 4.015463805039629e+000	 1.030414781997985e+001
 2.890046241592473e+000	 4.047427614257718e+000	 1.028566336683371e+001
 3.335053369087720e+000	 3.725241141618175e+000	 1.049079552478906e+001
 3.293739150839573e+000	 3.761819255768024e+000	 1.047504563776929e+001
 3.252039093202069e+000	 3.797926079672084e+000	 1.045520886611512e+001
 3.209961274948469e+000	 3.833555580391654e+000	 1.043265062980508e+001
 3.167513898953163e+000	 3.868701909632593e+000	 1.040865377346254e+001
 3.124705286917558e+000	 3.903359406879230e+000	 1.038437936742686e+001
 3.081543874003077e+000	 3.937522602347834e+000	 1.036083659153471e+001
 3.038038203378471e+000	 3.971186219756580e+000	 1.033885558895059e+001
 2.994196920688713e+000	 4.004345178909193e+000	 1.031903828687960e+001
 2.950028768452905e+000	 4.036994598089843e+000	 1.029999885578754e+001
 2.905542580398644e+000	 4.069129796267133e+000	 1.028084107299132e+001
 2.750573206898158e+000	 3.852099593592544e+000	 1.030204886277743e+001
 2.708167093740830e+000	 3.882029800775059e+000	 1.027844741875887e+001
 2.665476864481691e+000	 3.911464921384907e+000	 1.025568906629837e+001
 2.622511102776230e+000	 3.940401098026868e+000	 1.023408399106336e+001
 2.579278456895366e+000	 3.968834669728083e+000	 1.021335198065289e+001
 2.535787634173377e+000	 3.996762173110999e+000	 1.019322300904294e+001
 2.492047395438517e+000	 4.024180343380285e+000	 1.017222186024488e+001
 2.448066549433489e+000	 4.051086115123940e+000	 1.014848377201772e+001
 2.403853947232864e+000	 4.077476622929091e+000	 1.012213976190180e+001
 2.359418476664550e+000	 4.103349201813303e+000	 1.009342601133854e+001
 2.314769056742236e+000	 4.128701387472491e+000	 1.006265728241269e+001
 2.766070417360369e+000	 3.873802996353269e+000	 1.029949906802689e+001
 2.723425380745691e+000	 3.903901835557514e+000	 1.027650767697452e+001
 2.680494627269417e+000	 3.933502798784716e+000	 1.025441679495211e+001
 2.637286788948846e+000	 3.962602006906416e+000	 1.023368699476159e+001
 2.593810562780759e+000	 3.991195778323189e+000	 1.021394696175399e+001
 2.550074705158071e+000	 4.019280630144203e+000	 1.019415047854814e+001
 2.506088026269068e+000	 4.046853279179696e+000	 1.017199775736451e+001
 2.461859384486437e+000	 4.073910642746603e+000	 1.014743322246091e+001
 2.417397680753247e+000	 4.100449839287810e+000	 1.012063802803029e+001
 2.372711852972975e+000	 4.126468188805896e+000	 1.009187370999008e+001
 2.327810870410583e+000	 4.151963213112461e+000	 1.006147654223799e+001
 2.781567639449146e+000	 3.895506415396550e+000	 1.029746286547736e+001
 2.738683679197817e+000	 3.925773886749149e+000	 1.027522451264790e+001
 2.695512401323906e+000	 3.955540692718250e+000	 1.025394367531615e+001
 2.652062486206556e+000	 3.984802932442126e+000	 1.023415301876570e+001
 2.608342679568453e+000	 4.013556903694774e+000	 1.021515214674942e+001
 2.564361786861187e+000	 4.041799104072063e+000	 1.019431716036130e+001
 2.520128667633114e+000	 4.069526231989785e+000	 1.017123839578707e+001
 2.475652229886951e+000	 4.096735187493784e+000	 1.014602837932294e+001
 2.430941424434304e+000	 4.123423072882693e+000	 1.011888279658696e+001
 2.386005239254254e+000	 4.149587193144094e+000	 1.009007482296927e+001
 2.340852693863086e+000	 4.175225056205249e+000	 1.005994935683992e+001
 2.797064846045182e+000	 3.917209812741993e+000	 1.029582319658173e+001
 2.753941962396011e+000	 3.947645916074441e+000	 1.027447345023932e+001
 2.710530160364864e+000	 3.977578564619736e+000	 1.025414591619132e+001
 2.666838168692685e+000	 4.007003835782910e+000	 1.023525762666856e+001
 2.622874781828017e+000	 4.035918006711387e+000	 1.021559983326060e+001
 2.578648854281084e+000	 4.064317555487758e+000	 1.019389262636021e+001
 2.534169294960265e+000	 4.092199162133383e+000	 1.017016393385274e+001
 2.489445061498263e+000	 4.119559709423028e+000	 1.014452853295056e+001
 2.444485154575171e+000	 4.146396283511083e+000	 1.011718238757250e+001
 2.399298612245635e+000	 4.172706174370148e+000	 1.008839686295202e+001
 2.353894504277207e+000	 4.198486876043154e+000	 1.005851284910169e+001
 2.812562010029165e+000	 3.938913150409198e+000	 1.029447282959398e+001
 2.769200203639073e+000	 3.969517885257865e+000	 1.027414069908257e+001
 2.725547878111994e+000	 3.999616375923409e+000	 1.025491099392056e+001
 2.681613810550553e+000	 4.029204678077674e+000	 1.023573984923409e+001
 2.637406844129022e+000	 4.058279048241575e+000	 1.021529477341679e+001
 2.592935882416122e+000	 4.086835944984467e+000	 1.019305225241151e+001
 2.548209883680132e+000	 4.114872029933324e+000	 1.016897871277996e+001
 2.503237855183603e+000	 4.142384168591883e+000	 1.014317642174943e+001
 2.458028847474985e+000	 4.169369430970327e+000	 1.011582763926720e+001
 2.412591948684358e+000	 4.195825092026315e+000	 1.008718873132659e+001
 2.366936278830408e+000	 4.221748631918484e+000	 1.005758419666544e+001
 2.828059104281789e+000	 3.960616390417767e+000	 1.029331332080427e+001
 2.784458376225800e+000	 3.991389756023894e+000	 1.027412210930287e+001
 2.740565528285003e+000	 4.021654088063499e+000	 1.025536190220133e+001
 2.696389385923487e+000	 4.051405420475334e+000	 1.023535068972583e+001
 2.651938841041037e+000	 4.080639989153886e+000	 1.021437767309823e+001
 2.607222846264664e+000	 4.109354233155368e+000	 1.019195620313030e+001
 2.562250409222322e+000	 4.137544795712441e+000	 1.016787132735370e+001
 2.517030586806201e+000	 4.165208525057891e+000	 1.014219831780950e+001
 2.471572479432886e+000	 4.192342475057773e+000	 1.011509201416053e+001
 2.425885225307669e+000	 4.218943905654851e+000	 1.008678084995358e+001
 2.379977994700152e+000	 4.245010283123538e+000	 1.005756079520375e+001
 2.843556101683741e+000	 3.982319494787302e+000	 1.029225398047751e+001
 2.799716453454992e+000	 4.013261490097004e+000	 1.027404189208887e+001
 2.755583084603597e+000	 4.043691662474240e+000	 1.025470746166086e+001
 2.711164868954809e+000	 4.073606024124798e+000	 1.023421114117630e+001
 2.666470747133636e+000	 4.103000790316870e+000	 1.021297444469182e+001
 2.621509720825070e+000	 4.131872380593638e+000	 1.019074949845334e+001
 2.576290847016447e+000	 4.160217419793572e+000	 1.016701470177300e+001
 2.530823232229287e+000	 4.188032738878607e+000	 1.014180411705337e+001
 2.485116026748009e+000	 4.215315375570761e+000	 1.011523170858649e+001
 2.439178418852812e+000	 4.242062574798013e+000	 1.008748529563054e+001
 2.393019629063903e+000	 4.268271788950621e+000	 1.005882042320467e+001
 2.859052975115711e+000	 4.004022425537404e+000	 1.029118611827742e+001
 2.814974408625451e+000	 4.035133049201670e+000	 1.027276137756569e+001
 2.770600520787481e+000	 4.065729060589862e+000	 1.025304401230224e+001
 2.725940233787844e+000	 4.095806450174977e+000	 1.023242314755667e+001
 2.681002536976385e+000	 4.125361412599069e+000	 1.021125326850674e+001
 2.635796481095702e+000	 4.154390347892455e+000	 1.018956208563532e+001
 2.590331172492116e+000	 4.182889862499548e+000	 1.016656617047778e+001
 2.544615767316093e+000	 4.210856770111573e+000	 1.014218743375128e+001
 2.498659465719494e+000	 4.238288092306640e+000	 1.011648576594057e+001
 2.452471506057028e+000	 4.265181058998053e+000	 1.008959593717420e+001
 2.406061159099123e+000	 4.291533108692034e+000	 1.006172140822868e+001
 2.874549697458392e+000	 4.025725144687677e+000	 1.028913030880374e+001
 2.830232215035976e+000	 4.057004395062370e+000	 1.027023834449409e+001
 2.785617810556359e+000	 4.087766243844597e+000	 1.025044993462749e+001
 2.740715454565916e+000	 4.118006659774781e+000	 1.023007020012348e+001
 2.695534185138857e+000	 4.147721816869036e+000	 1.020937058556596e+001
 2.650083102074918e+000	 4.176908095644997e+000	 1.018850891647836e+001
 2.604371361078937e+000	 4.205562084153207e+000	 1.016666756378171e+001
 2.558408167929847e+000	 4.233680578814339e+000	 1.014352569925312e+001
 2.512202772646476e+000	 4.261260585062754e+000	 1.011907619335732e+001
 2.465764463657564e+000	 4.288299317797230e+000	 1.009338857503678e+001
 2.419102561983274e+000	 4.314794201640082e+000	 1.006660279459692e+001
 2.890046241592473e+000	 4.047427614257718e+000	 1.028566336683371e+001
 2.845489845985365e+000	 4.078875489403575e+000	 1.026653604324607e+001
 2.800634927629938e+000	 4.109803173672678e+000	 1.024698600964434e+001
 2.755490505432347e+000	 4.140206614073120e+000	 1.022721793926504e+001
 2.710065666190624e+000	 4.170081963995318e+000	 1.020740454931088e+001
 2.664369558761082e+000	 4.199425584444443e+000	 1.018769002961212e+001
 2.618411388206522e+000	 4.228234045077379e+000	 1.016744529814490e+001
 2.572200409933783e+000	 4.256504125044452e+000	 1.014598026479341e+001
 2.525745923828092e+000	 4.284232813636448e+000	 1.012320808173383e+001
 2.479057268391664e+000	 4.311417310737799e+000	 1.009912108337538e+001
 2.432143814893819e+000	 4.338055027087065e+000	 1.007378451247128e+001
 2.905542580398644e+000	 4.069129796267133e+000	 1.028084107299132e+001
 2.860747274772420e+000	 4.100746293949762e+000	 1.026170083884788e+001
 2.815651845727925e+000	 4.131839811508338e+000	 1.024269603816132e+001
 2.770265360530463e+000	 4.162406274218905e+000	 1.022391476162558e+001
 2.724596954701255e+000	 4.192441814846461e+000	 1.020541561899884e+001
 2.678655826152554e+000	 4.221942774883971e+000	 1.018723299011163e+001
 2.632451229304479e+000	 4.250905705594900e+000	 1.016901047092663e+001
 2.585992469191127e+000	 4.279327368859455e+000	 1.014969650823072e+001
 2.539288895563483e+000	 4.307204737825071e+000	 1.012906972898736e+001
 2.492349896996570e+000	 4.334534997362014e+000	 1.010703355449694e+001
 2.445184895008223e+000	 4.361315544325288e+000	 1.008356754828823e+001
 2.314769056742236e+000	 4.128701387472491e+000	 1.006265728241269e+001
 2.269921375286927e+000	 4.153527231960959e+000	 1.003124862084029e+001
 2.224877713832085e+000	 4.177828517788692e+000	 1.000013809009841e+001
 2.179647050109438e+000	 4.201603386542996e+000	 9.969024451613974e+000
 2.134238370909848e+000	 4.224850179576209e+000	 9.937642763330818e+000
 2.088660666674489e+000	 4.247567437359611e+000	 9.905760409777512e+000
 2.042922926136646e+000	 4.269753898666801e+000	 9.873173208768797e+000
 1.997034131020162e+000	 4.291408499589529e+000	 9.839713594464177e+000
 1.951003250800438e+000	 4.312530372389278e+000	 9.808255394795667e+000
 1.904839237533663e+000	 4.333118844188068e+000	 9.780334634758070e+000
 1.858551020759794e+000	 4.353173435502171e+000	 9.754898198061735e+000
 2.327810870410583e+000	 4.151963213112461e+000	 1.006147654223799e+001
 2.282710509275002e+000	 4.176928930750042e+000	 1.003074163514445e+001
 2.237413063954258e+000	 4.201367134271600e+000	 1.000047695551149e+001
 2.191927562762202e+000	 4.225275954793839e+000	 9.970386810409517e+000
 2.146263043122858e+000	 4.248653724323997e+000	 9.940215011002463e+000
 2.100428546131131e+000	 4.271498975110129e+000	 9.909740747007968e+000
 2.054433111164409e+000	 4.293810438819873e+000	 9.878774539952920e+000
 2.008285770551152e+000	 4.315587045550745e+000	 9.847154298048981e+000
 1.961995544302362e+000	 4.336827922675253e+000	 9.816400462508710e+000
 1.915571434911692e+000	 4.357532393524315e+000	 9.789058523830571e+000
 1.869022422229697e+000	 4.377699975912726e+000	 9.764207453198832e+000
 2.340852693863086e+000	 4.175225056205249e+000	 1.005994935683992e+001
 2.295499652857716e+000	 4.200330647096901e+000	 1.002971169705847e+001
 2.249948423480745e+000	 4.224905768415010e+000	 1.000008568391541e+001
 2.204208084628181e+000	 4.248948540805665e+000	 9.970791626285079e+000
 2.158287724357238e+000	 4.272457286930998e+000	 9.941591042293091e+000
 2.112196434416588e+000	 4.295430530815842e+000	 9.912282377362345e+000
 2.065943304827759e+000	 4.317866997021875e+000	 9.882696806033243e+000
 2.019537418523855e+000	 4.339765609652385e+000	 9.852694141294196e+000
 1.972987846051518e+000	 4.361125491190895e+000	 9.822909090288585e+000
 1.926303640341893e+000	 4.381945961177230e+000	 9.796184069346644e+000
 1.879493831556171e+000	 4.402226534724702e+000	 9.771983771816920e+000
 2.353894504277207e+000	 4.198486876043154e+000	 1.005851284910169e+001
 2.308288783654709e+000	 4.223732340049086e+000	 1.002866296404055e+001
 2.262483770475299e+000	 4.248444379026887e+000	 9.999519678305925e+000
 2.216488594217080e+000	 4.272621103152047e+000	 9.970829652108915e+000
 2.170312393570410e+000	 4.296260825741617e+000	 9.942380972523990e+000
 2.123964310937664e+000	 4.319362062597204e+000	 9.913998714120700e+000
 2.077453486984452e+000	 4.341923531174544e+000	 9.885540591151244e+000
 2.030789055248471e+000	 4.363944149582699e+000	 9.856892725921075e+000
 1.983980136811944e+000	 4.385423035416231e+000	 9.828200753043069e+000
 1.937035835043453e+000	 4.406359504423866e+000	 9.802048008046491e+000
 1.889965230414765e+000	 4.426753069017446e+000	 9.778464347882238e+000
 2.366936278830408e+000	 4.221748631918484e+000	 1.005758419666544e+001
 2.321077879285621e+000	 4.247133968654143e+000	 1.002807839733614e+001
 2.275019083001671e+000	 4.271982924915197e+000	 9.999312269896993e+000
 2.228769070038613e+000	 4.296293600406571e+000	 9.971069072314407e+000
 2.182337029719799e+000	 4.320064299100254e+000	 9.943172233969689e+000
 2.135732155101160e+000	 4.343293528574663e+000	 9.915480757680953e+000
 2.088963637492247e+000	 4.365979999179607e+000	 9.887884723850931e+000
 2.042040661035200e+000	 4.388122623029947e+000	 9.860300922239846e+000
 1.994972397347677e+000	 4.409720512831290e+000	 9.832689186542400e+000
 1.947768000235553e+000	 4.430772980541284e+000	 9.806984015670782e+000
 1.900436600481028e+000	 4.451279535870308e+000	 9.783886358251907e+000
 2.379977994700152e+000	 4.245010283123538e+000	 1.005756079520375e+001
 2.333866917370094e+000	 4.270535491959619e+000	 1.002841995459923e+001
 2.287554339123615e+000	 4.295521364887908e+000	 9.999974929953236e+000
 2.241049490602490e+000	 4.319965991142815e+000	 9.972055723743685e+000
 2.194361611762827e+000	 4.343867665351315e+000	 9.944529795462108e+000
 2.147499946313881e+000	 4.367224886868669e+000	 9.917297303632493e+000
 2.100473736208903e+000	 4.390036358938797e+000	 9.890286463299976e+000
 2.053292216194243e+000	 4.412300987682381e+000	 9.863449045344373e+000
 2.005964608422758e+000	 4.434017880916100e+000	 9.836756041857420e+000
 1.958500117137380e+000	 4.455186346806542e+000	 9.811321878083056e+000
 1.910907923430507e+000	 4.475805892362633e+000	 9.788486109927511e+000
 2.393019629063903e+000	 4.268271788950621e+000	 1.005882042320467e+001
 2.346655875527765e+000	 4.293936869013054e+000	 1.003012878290170e+001
 2.300089516904883e+000	 4.319059657752982e+000	 1.000199748120800e+001
 2.253329834418422e+000	 4.343638233934360e+000	 9.974313315600742e+000
 2.206386118656919e+000	 4.367670882839204e+000	 9.946996380956666e+000
 2.159267663982630e+000	 4.391156095599676e+000	 9.919995149973824e+000
 2.111983762992179e+000	 4.414092568353846e+000	 9.893281685168466e+000
 2.064543701035800e+000	 4.436479201228258e+000	 9.866847009641512e+000
 2.016956750801223e+000	 4.458315097150689e+000	 9.840696661591286e+000
 1.969232166968115e+000	 4.479599560496697e+000	 9.815386665151795e+000
 1.921379180938751e+000	 4.500332095573771e+000	 9.792498191882583e+000
 2.406061159099123e+000	 4.291533108692034e+000	 1.006172140822868e+001
 2.359444731378276e+000	 4.317338058861998e+000	 1.003362541213091e+001
 2.312624594409227e+000	 4.342597762318389e+000	 1.000584830889819e+001
 2.265610079996117e+000	 4.367310287354787e+000	 9.978343648563838e+000
 2.218410529359499e+000	 4.391473909908328e+000	 9.951092687115631e+000
 2.171035287514209e+000	 4.415087112888133e+000	 9.924099303523233e+000
 2.123493697699832e+000	 4.438148585326483e+000	 9.897385067194934e+000
 2.075795095870068e+000	 4.460657221355827e+000	 9.870984483882303e+000
 2.027948805247112e+000	 4.482612119015087e+000	 9.844940445724975e+000
 1.979964130946946e+000	 4.504012578888808e+000	 9.819497907343719e+000
 1.931850354681307e+000	 4.524858102583068e+000	 9.796154631344471e+000
 2.419102561983274e+000	 4.314794201640082e+000	 1.006660279459692e+001
 2.372233462541266e+000	 4.340739020553997e+000	 1.003930994877629e+001
 2.325159549700400e+000	 4.366135637392092e+000	 1.001197457144556e+001
 2.277890205845287e+000	 4.390982109977675e+000	 9.984626833103899e+000
 2.230434822827990e+000	 4.415276704903087e+000	 9.957317599961211e+000
 2.182802796315422e+000	 4.439017896854491e+000	 9.930113185568530e+000
 2.135003520189621e+000	 4.462204367758440e+000	 9.903090274468054e+000
 2.087046381007252e+000	 4.484835005753348e+000	 9.876331046692663e+000
 2.038940752524462e+000	 4.506908903989322e+000	 9.849918529501146e+000
 1.990695990293054e+000	 4.528425359259935e+000	 9.823968774984531e+000
 1.942321426333725e+000	 4.549383870469874e+000	 9.799684054417758e+000
 2.432143814893819e+000	 4.338055027087065e+000	 1.007378451247128e+001
 2.385022046636375e+000	 4.364139713136595e+000	 1.004756227010439e+001
 2.337694360842154e+000	 4.389673241782057e+000	 1.002080241081194e+001
 2.290170190475642e+000	 4.414653660376604e+000	 9.993621507053293e+000
 2.242458978019817e+000	 4.439079226167888e+000	 9.966148410648312e+000
 2.194570169793072e+000	 4.462948405619200e+000	 9.938518836799693e+000
 2.146513210319304e+000	 4.486259873551445e+000	 9.910870144449788e+000
 2.098297536757549e+000	 4.509012512109074e+000	 9.883336342601115e+000
 2.049932573397312e+000	 4.531205409553420e+000	 9.856043349660935e+000
 2.001427726225625e+000	 4.552837858887132e+000	 9.829104530133513e+000
 1.952792377571551e+000	 4.573909356313535e+000	 9.803310850942939e+000
 2.445184895008223e+000	 4.361315544325288e+000	 1.008356754828823e+001
 2.397810461283245e+000	 4.387540095657339e+000	 1.005874221872177e+001
 2.350229005898243e+000	 4.413210534296250e+000	 1.003273716255469e+001
 2.302450012396893e+000	 4.438324897125159e+000	 1.000576505246720e+001
 2.254482973892404e+000	 4.462881432047135e+000	 9.978041030403972e+000
 2.206337387353962e+000	 4.486878597302711e+000	 9.949777121565969e+000
 2.158022747946641e+000	 4.510315060607234e+000	 9.921176871765352e+000
 2.109548543431158e+000	 4.533189698111257e+000	 9.892430238560792e+000
 2.060924248629702e+000	 4.555501593187414e+000	 9.863708763889502e+000
 2.012159319963842e+000	 4.577250035047464e+000	 9.835161053037590e+000
 1.963263190070333e+000	 4.598434517193399e+000	 9.807254343490774e+000
 1.858551020759794e+000	 4.353173435502171e+000	 9.754898198061735e+000
 1.812140533433458e+000	 4.372696747465477e+000	 9.730401065965683e+000
 1.765623585772689e+000	 4.391685636628613e+000	 9.705857084793266e+000
 1.719009016112671e+000	 4.410140196866270e+000	 9.681147709859657e+000
 1.672305620595791e+000	 4.428060708201621e+000	 9.656216821387414e+000
 1.625522148514562e+000	 4.445447634610877e+000	 9.631067138732487e+000
 1.578667297757052e+000	 4.462301621696777e+000	 9.605756444664554e+000
 1.531749710358706e+000	 4.478623494235841e+000	 9.580393604129034e+000
 1.484777968164294e+000	 4.494414253604442e+000	 9.555134369485286e+000
 1.437760588603412e+000	 4.509675075088746e+000	 9.530176971654022e+000
 1.390706020582741e+000	 4.524407305083716e+000	 9.505757503833507e+000
 1.869022422229697e+000	 4.377699975912726e+000	 9.764207453198832e+000
 1.822350450101617e+000	 4.397333285629620e+000	 9.740311032379996e+000
 1.775571417823013e+000	 4.416429161514879e+000	 9.716353676320461e+000
 1.728694213525793e+000	 4.434987697972089e+000	 9.692205696547159e+000
 1.681727682911335e+000	 4.453009176602113e+000	 9.667795608401317e+000
 1.634680624567193e+000	 4.470494063995282e+000	 9.643106758804558e+000
 1.587561785386847e+000	 4.487443009391756e+000	 9.618173737276015e+000
 1.540379856096477e+000	 4.503856842214985e+000	 9.593078553122645e+000
 1.493143466892459e+000	 4.519736569483269e+000	 9.567946569722189e+000
 1.445861183193071e+000	 4.535083373104527e+000	 9.542942194682626e+000
 1.398541501507601e+000	 4.549898607059533e+000	 9.518264332302532e+000
 1.879493831556171e+000	 4.402226534724702e+000	 9.771983771816920e+000
 1.832560374430207e+000	 4.421969842277712e+000	 9.748746754580825e+000
 1.785519257337162e+000	 4.441172704965379e+000	 9.725395097790381e+000
 1.738379418205698e+000	 4.459835217720181e+000	 9.701791146950853e+000
 1.691149752296235e+000	 4.477957663720667e+000	 9.677853420443034e+000
 1.643839107491402e+000	 4.495540512171281e+000	 9.653553420298346e+000
 1.596456279690133e+000	 4.512584415949611e+000	 9.628912194740320e+000
 1.549010008309379e+000	 4.529090209126037e+000	 9.603996634004931e+000
 1.501508971897163e+000	 4.545058904360770e+000	 9.578915489400902e+000
 1.453961783860480e+000	 4.560491690183496e+000	 9.553815113879733e+000
 1.406376988311272e+000	 4.575389928160809e+000	 9.528874930459805e+000
 1.889965230414765e+000	 4.426753069017446e+000	 9.778464347882238e+000
 1.842770288552342e+000	 4.446606374296625e+000	 9.755850804013814e+000
 1.795467086906851e+000	 4.465916223679772e+000	 9.733055907435665e+000
 1.748064613203671e+000	 4.484682712628255e+000	 9.709937011144287e+000
 1.700571812262212e+000	 4.502906125898311e+000	 9.686407784486557e+000
 1.652997581260137e+000	 4.520586935308484e+000	 9.662435177407454e+000
 1.605350765101788e+000	 4.537725797373788e+000	 9.638036100255903e+000
 1.557640151894845e+000	 4.554323550811518e+000	 9.613273799344404e+000
 1.509874468538930e+000	 4.570381213923803e+000	 9.588253917379166e+000
 1.462062376429717e+000	 4.585899981862074e+000	 9.563120236650610e+000
 1.414212467281752e+000	 4.600881223778737e+000	 9.538050111401118e+000
 1.900436600481028e+000	 4.451279535870308e+000	 9.783886358251907e+000
 1.852980174601130e+000	 4.471242838573231e+000	 9.761768659427874e+000
 1.805414889123797e+000	 4.490659674357718e+000	 9.739415891335153e+000
 1.757749781570993e+000	 4.509530139214029e+000	 9.716683182344838e+000
 1.709993846320988e+000	 4.527854519476076e+000	 9.693484280058794e+000
 1.662156029846346e+000	 4.545633289576499e+000	 9.669788640492092e+000
 1.614245226056694e+000	 4.562867109667729e+000	 9.645618191836949e+000
 1.566270271750308e+000	 4.579556823113962e+000	 9.621043751777860e+000
 1.518239942178288e+000	 4.595703453859223e+000	 9.596181086742165e+000
 1.470162946724856e+000	 4.611308203676677e+000	 9.571186610727839e+000
 1.422047924707039e+000	 4.626372449304512e+000	 9.546252730349883e+000
 1.910907923430507e+000	 4.475805892362633e+000	 9.788486109927511e+000
 1.863190014709682e+000	 4.495879191994394e+000	 9.766647832854385e+000
 1.815362646579719e+000	 4.515403013698873e+000	 9.744559183798376e+000
 1.767434906358945e+000	 4.534377453995209e+000	 9.722075627247936e+000
 1.719415837984281e+000	 4.552802800794987e+000	 9.699115694921925e+000
 1.671314437222977e+000	 4.570679531144937e+000	 9.675658172350243e+000
 1.623139646989730e+000	 4.588008308834882e+000	 9.651738914245323e+000
 1.574900352773204e+000	 4.604789981875901e+000	 9.627447266496159e+000
 1.526605378175763e+000	 4.621025579853892e+000	 9.602922082545920e+000
 1.478263480569972e+000	 4.636716311163720e+000	 9.578347331677431e+000
 1.429883346875132e+000	 4.651863560129327e+000	 9.553947306222746e+000
 1.921379180938751e+000	 4.500332095573771e+000	 9.792498191882583e+000
 1.873399791011110e+000	 4.520515391446992e+000	 9.770637001882918e+000
 1.825310341866332e+000	 4.540146198402895e+000	 9.748573395250610e+000
 1.777119970618810e+000	 4.559224613489509e+000	 9.726165524550815e+000
 1.728837770763811e+000	 4.577750926196077e+000	 9.703341189121556e+000
 1.680472787362977e+000	 4.595725616183406e+000	 9.680095092521718e+000
 1.632034012335777e+000	 4.613149350878687e+000	 9.656485678117537e+000
 1.583530379860965e+000	 4.630022982939862e+000	 9.632631519586280e+000
 1.534970761891882e+000	 4.646347547594663e+000	 9.608707253582164e+000
 1.486363963789141e+000	 4.662124259859619e+000	 9.584939052100381e+000
 1.437718720074029e+000	 4.677354511644375e+000	 9.561311998069328e+000
 1.931850354681307e+000	 4.524858102583068e+000	 9.796154631344471e+000
 1.883609485638523e+000	 4.545151393817890e+000	 9.773885148045535e+000
 1.835257957575353e+000	 4.564889185169442e+000	 9.751548747382318e+000
 1.786804957401869e+000	 4.584071574214638e+000	 9.729008411400095e+000
 1.738259628171301e+000	 4.602698852020377e+000	 9.706205467125090e+000
 1.689631064239296e+000	 4.620771500861515e+000	 9.683156889359198e+000
 1.640928306529714e+000	 4.638290191802595e+000	 9.659952126049321e+000
 1.592160337911028e+000	 4.655255782148380e+000	 9.636749422039511e+000
 1.543336078687171e+000	 4.671669312768398e+000	 9.613717416595822e+000
 1.494464382206437e+000	 4.687532005300789e+000	 9.590256393782376e+000
 1.445554030591727e+000	 4.702845259240850e+000	 9.566224120575733e+000
 1.942321426333725e+000	 4.549383870469874e+000	 9.799684054417758e+000
 1.893819080725033e+000	 4.569787155993959e+000	 9.776540701131554e+000
 1.845205476298500e+000	 4.589631930698174e+000	 9.753577215338130e+000
 1.796489849759405e+000	 4.608918292688313e+000	 9.730663337510569e+000
 1.747681393718468e+000	 4.627646534608914e+000	 9.707757957788354e+000
 1.698789251824879e+000	 4.645817141348874e+000	 9.684906439612997e+000
 1.649822514006423e+000	 4.663430787610048e+000	 9.662237405411414e+000
 1.600790211820825e+000	 4.680488335343983e+000	 9.639558127997496e+000
 1.551701313922157e+000	 4.696990831061952e+000	 9.616241804146164e+000
 1.502564721645936e+000	 4.712939503023649e+000	 9.592397634881136e+000
 1.453389264716227e+000	 4.728335758309949e+000	 9.568195214705858e+000
 1.952792377571551e+000	 4.573909356313535e+000	 9.803310850942939e+000
 1.904028558403749e+000	 4.594422634862072e+000	 9.778750689264058e+000
 1.855152880627489e+000	 4.614374391688747e+000	 9.754751676731981e+000
 1.806174630742698e+000	 4.633764725428240e+000	 9.731192026714908e+000
 1.757103050917035e+000	 4.652593930302718e+000	 9.708052001900851e+000
 1.707947334092676e+000	 4.670862493815091e+000	 9.685378751541267e+000
 1.658716619200784e+000	 4.688571094304492e+000	 9.662471324920242e+000
 1.609419986487791e+000	 4.705720598369203e+000	 9.639051614590626e+000
 1.560066452957367e+000	 4.722312058162185e+000	 9.615247912145245e+000
 1.510664967931713e+000	 4.738346708564613e+000	 9.591244181814201e+000
 1.461224408735526e+000	 4.753825964242861e+000	 9.567273691567584e+000
 1.963263190070333e+000	 4.598434517193399e+000	 9.807254343490774e+000
 1.914237900807783e+000	 4.619057787309098e+000	 9.780659894578315e+000
 1.865100153154037e+000	 4.639116524840821e+000	 9.755165067285576e+000
 1.815859283403032e+000	 4.658610828952133e+000	 9.730658045715483e+000
 1.766524583278722e+000	 4.677540995442822e+000	 9.706929253336019e+000
 1.717105295015633e+000	 4.695907514429774e+000	 9.683056150124566e+000
 1.667610606547676e+000	 4.713711067889371e+000	 9.658954562655477e+000
 1.618049646809361e+000	 4.730952527066571e+000	 9.634733238526172e+000
 1.568431481153328e+000	 4.747632949755955e+000	 9.610575288672298e+000
 1.518765106887843e+000	 4.763753577460099e+000	 9.586730932225189e+000
 1.469059448937622e+000	 4.779315832430783e+000	 9.563510885289677e+000
 1.390706020582741e+000	 4.524407305083716e+000	 9.505757503833507e+000
 1.343622639825983e+000	 4.538612457056611e+000	 9.481725737852621e+000
 1.296518743060277e+000	 4.552292205158869e+000	 9.458103777078089e+000
 1.249402546410590e+000	 4.565448384531957e+000	 9.434718041720577e+000
 1.202282182474618e+000	 4.578082989255348e+000	 9.411557556790420e+000
 1.155165696837305e+000	 4.590198169078671e+000	 9.388779489924501e+000
 1.108061044715827e+000	 4.601796226075082e+000	 9.366675020442983e+000
 1.060976087736485e+000	 4.612879611221273e+000	 9.345646575214852e+000
 1.013918590844765e+000	 4.623450920909603e+000	 9.326185991542427e+000
 9.668962193495460e-001	 4.633512893397808e+000	 9.308853948645689e+000
 9.199165361022298e-001	 4.643068405201682e+000	 9.294258140403626e+000
 1.398541501507601e+000	 4.549898607059533e+000	 9.518264332302532e+000
 1.351192844750042e+000	 4.564183793342687e+000	 9.493850486163563e+000
 1.303823556392736e+000	 4.577940615537889e+000	 9.469901592529373e+000
 1.256441898851737e+000	 4.591170919126120e+000	 9.446361955926296e+000
 1.209056050545213e+000	 4.603876709421853e+000	 9.423181296743143e+000
 1.161674102388337e+000	 4.616060148286783e+000	 9.400489132525898e+000
 1.114304054419368e+000	 4.627723550764355e+000	 9.378552267268455e+000
 1.066953812558383e+000	 4.638869381640499e+000	 9.357752458798839e+000
 1.019631185499925e+000	 4.649500251936108e+000	 9.338564898087123e+000
 9.723438817405614e-001	 4.659618915336745e+000	 9.321537795176779e+000
 9.250995067421181e-001	 4.669228264565003e+000	 9.307230241224968e+000
 1.406376988311272e+000	 4.575389928160809e+000	 9.528874930459805e+000
 1.358763055353852e+000	 4.589755148814241e+000	 9.504168731301411e+000
 1.311128375205806e+000	 4.603589045160168e+000	 9.480069372514715e+000
 1.263481256574304e+000	 4.616893473019093e+000	 9.456675922915588e+000
 1.215829923698024e+000	 4.629670448940495e+000	 9.433918979708682e+000
 1.168182512822401e+000	 4.641922146898160e+000	 9.411907131140428e+000
 1.120547068806810e+000	 4.653650894905825e+000	 9.390889042717321e+000
 1.072931541865138e+000	 4.664859171558672e+000	 9.371231613603490e+000
 1.025343784441015e+000	 4.675549602506140e+000	 9.352996831764639e+000
 9.777915482187310e-001	 4.685724956861635e+000	 9.335861046025160e+000
 9.302824812705675e-001	 4.695388143554560e+000	 9.320185041757007e+000
 1.414212467281752e+000	 4.600881223778737e+000	 9.538050111401118e+000
 1.366333258389628e+000	 4.615326478722449e+000	 9.513282837608170e+000
 1.318433186716127e+000	 4.629237449142049e+000	 9.489350887476832e+000
 1.270520607259488e+000	 4.642616001197559e+000	 9.466515314836201e+000
 1.222603790078848e+000	 4.655464162673450e+000	 9.444718217917989e+000
 1.174690916749863e+000	 4.667784119655579e+000	 9.424049063099817e+000
 1.126790076952974e+000	 4.679578213127977e+000	 9.404059699554287e+000
 1.078909265195828e+000	 4.690848935495056e+000	 9.384460443202329e+000
 1.031056377671105e+000	 4.701598927034792e+000	 9.365474513352998e+000
 9.832392092507666e-001	 4.711830972288416e+000	 9.347390606141634e+000
 9.354654506175086e-001	 4.721547996392132e+000	 9.330544897542030e+000
 1.422047924707039e+000	 4.626372449304512e+000	 9.546252730349883e+000
 1.373903440609585e+000	 4.640897738318490e+000	 9.521794543093451e+000
 1.325737978140341e+000	 4.654885782599885e+000	 9.498487406563093e+000
 1.277559938588484e+000	 4.668338458648202e+000	 9.476725890896166e+000
 1.229377637833484e+000	 4.681257805482884e+000	 9.455784189250258e+000
 1.181199302781087e+000	 4.693646021301823e+000	 9.435132210218216e+000
 1.133033067932675e+000	 4.705505460059300e+000	 9.414763726060018e+000
 1.084886972089533e+000	 4.716838627968924e+000	 9.394776565280116e+000
 1.036768955193263e+000	 4.727648179937164e+000	 9.375352849365706e+000
 9.886868553033802e-001	 4.737936915933037e+000	 9.356741103445927e+000
 9.406484057128736e-001	 4.747707777299493e+000	 9.339238585319508e+000
 1.429883346875132e+000	 4.651863560129327e+000	 9.553947306222746e+000
 1.381473588765937e+000	 4.666468882853536e+000	 9.530304697641670e+000
 1.333042736695088e+000	 4.680534000650019e+000	 9.507648865979897e+000
 1.284599238242489e+000	 4.694060800357713e+000	 9.485735479091138e+000
 1.236151455107730e+000	 4.707051332230971e+000	 9.464415497392276e+000
 1.187707659526437e+000	 4.719507806579669e+000	 9.443521605725763e+000
 1.139276030820732e+000	 4.731432590328278e+000	 9.423011264704375e+000
 1.090864652085331e+000	 4.742828203499541e+000	 9.402945358889783e+000
 1.042481507010558e+000	 4.753697315628349e+000	 9.383468572686091e+000
 9.941344768432837e-001	 4.764042742111435e+000	 9.364791664900496e+000
 9.458313374865938e-001	 4.773867440498423e+000	 9.347174151372256e+000
 1.437718720074029e+000	 4.677354511644375e+000	 9.561311998069328e+000
 1.389043689610899e+000	 4.692039867578768e+000	 9.537620922484749e+000
 1.340347449597012e+000	 4.706182058408798e+000	 9.514476189517835e+000
 1.291638493902698e+000	 4.719782981312770e+000	 9.492189092052518e+000
 1.242925230047382e+000	 4.732844697779878e+000	 9.470705965291602e+000
 1.194215975596279e+000	 4.745369430231895e+000	 9.449833368366308e+000
 1.145518954691962e+000	 4.757359558563401e+000	 9.429498626210023e+000
 1.096842294722300e+000	 4.768817616606178e+000	 9.409730523715579e+000
 1.048194023126059e+000	 4.779746288523452e+000	 9.390639855497978e+000
 9.995820643371887e-001	 4.790148405139557e+000	 9.372401905881265e+000
 9.510142368686004e-001	 4.800026940210696e+000	 9.355239514650119e+000
 1.445554030591727e+000	 4.702845259240850e+000	 9.566224120575733e+000
 1.396613729896686e+000	 4.717610647745360e+000	 9.542201846376829e+000
 1.347652104062751e+000	 4.731829910992570e+000	 9.518858859502917e+000
 1.298677693250309e+000	 4.745504956500064e+000	 9.496496212930738e+000
 1.249698950798238e+000	 4.758637856991777e+000	 9.475167926046131e+000
 1.200724239600977e+000	 4.771230847001283e+000	 9.454670440557122e+000
 1.151761828621185e+000	 4.783286319393155e+000	 9.434907007744691e+000
 1.102819889539521e+000	 4.794806821808105e+000	 9.415879042416988e+000
 1.053906493542834e+000	 4.805795053037559e+000	 9.397666881845296e+000
 1.005029608251807e+000	 4.816253859333343e+000	 9.380412512994978e+000
 9.561970947888254e-001	 4.826186230658090e+000	 9.364303052762942e+000
 1.453389264716227e+000	 4.728335758309949e+000	 9.568195214705858e+000
 1.404183696375512e+000	 4.743181178604490e+000	 9.544218688872359e+000
 1.354956687308949e+000	 4.757477513517681e+000	 9.521081721376294e+000
 1.305716823966516e+000	 4.771226680906276e+000	 9.499058434757449e+000
 1.256472605506095e+000	 4.784430764728838e+000	 9.478303259163917e+000
 1.207232440150895e+000	 4.797092011630609e+000	 9.458623075957240e+000
 1.158004641683217e+000	 4.809212827446026e+000	 9.439903010459510e+000
 1.108797426076070e+000	 4.820795773624587e+000	 9.422121721368974e+000
 1.059618908263954e+000	 4.831843563585775e+000	 9.405332404780493e+000
 1.010477099053851e+000	 4.842359059008735e+000	 9.389645627346303e+000
 9.613799021772006e-001	 4.852345266062382e+000	 9.375214171480190e+000
 1.461224408735526e+000	 4.753825964242861e+000	 9.567273691567584e+000
 1.411753575799593e+000	 4.768751415407335e+000	 9.543843281115585e+000
 1.362261186552246e+000	 4.783124821100481e+000	 9.521427723154140e+000
 1.312755873732517e+000	 4.796948109518096e+000	 9.500269859878049e+000
 1.263246182316751e+000	 4.810223375853232e+000	 9.480603831562110e+000
 1.213740565856399e+000	 4.822952878862654e+000	 9.462269315567717e+000
 1.164247382952877e+000	 4.835139037350503e+000	 9.445139144192870e+000
 1.114774893871027e+000	 4.846784426574896e+000	 9.429173717442591e+000
 1.065331257292487e+000	 4.857891774583192e+000	 9.414402288670011e+000
 1.015924527210032e+000	 4.868463958481681e+000	 9.400906149893309e+000
 9.665626499636570e-001	 4.878504000645348e+000	 9.388803858347776e+000
 1.469059448937622e+000	 4.779315832430783e+000	 9.563510885289677e+000
 1.419323354921142e+000	 4.794321313405072e+000	 9.541247849633203e+000
 1.369565589009284e+000	 4.808771788857317e+000	 9.520177921381263e+000
 1.319794830229506e+000	 4.822669197322210e+000	 9.500517491655044e+000
 1.270019669376002e+000	 4.836015645227129e+000	 9.482551929059593e+000
 1.220248605327853e+000	 4.848813403440197e+000	 9.466175452779414e+000
 1.170490041504983e+000	 4.861064903735073e+000	 9.451254319807125e+000
 1.120752282463471e+000	 4.872772735178299e+000	 9.437735051336178e+000
 1.071043530631502e+000	 4.883939640444909e+000	 9.425626037200937e+000
 1.021371883187062e+000	 4.894568512068119e+000	 9.414981114061048e+000
 9.717453290781267e-001	 4.904662388628768e+000	 9.405885221006107e+000
 9.199165361022298e-001	 4.643068405201682e+000	 9.294258140403626e+000
 8.729940319637027e-001	 4.652119147953820e+000	 9.283128189334981e+000
 8.261289947556902e-001	 4.660669736692415e+000	 9.275225393786744e+000
 7.793286506718555e-001	 4.668723442970103e+000	 9.269700275782466e+000
 7.326001138313993e-001	 4.676283661565610e+000	 9.264937336315908e+000
 6.859503841394172e-001	 4.683353906675524e+000	 9.259660423124341e+000
 6.393863452817451e-001	 4.689937808080498e+000	 9.252577662881977e+000
 5.929147628536142e-001	 4.696039107290805e+000	 9.242670208310736e+000
 5.465422826212100e-001	 4.701661653676148e+000	 9.231383854959759e+000
 5.002754289150642e-001	 4.706809400584463e+000	 9.220076194361598e+000
 4.541206031540580e-001	 4.711486401454395e+000	 9.209839616131728e+000
 9.250995067421181e-001	 4.669228264565003e+000	 9.307230241224968e+000
 8.779126330095246e-001	 4.678330000784435e+000	 9.295517865342372e+000
 8.307835499861411e-001	 4.686928765035168e+000	 9.285797703058481e+000
 7.837195245792673e-001	 4.695027847302340e+000	 9.277259506292538e+000
 7.367277109902933e-001	 4.702630661491456e+000	 9.269090719152572e+000
 6.898151485630014e-001	 4.709740741598712e+000	 9.260466488286362e+000
 6.429887597671163e-001	 4.716361737855575e+000	 9.250343868123713e+000
 5.962553483164127e-001	 4.722497412852645e+000	 9.237711163633597e+000
 5.496215974204833e-001	 4.728151637647651e+000	 9.223884961883361e+000
 5.030940681690768e-001	 4.733328387862385e+000	 9.210179974517349e+000
 4.566791980477861e-001	 4.738031739773277e+000	 9.197655124905211e+000
 9.302824812705675e-001	 4.695388143554560e+000	 9.320185041757007e+000
 8.828312377455568e-001	 4.704540873279440e+000	 9.306438942775404e+000
 8.354381087086966e-001	 4.713187813078358e+000	 9.294366705374806e+000
 7.881104017809549e-001	 4.721332271368976e+000	 9.283294267413941e+000
 7.408553112459415e-001	 4.728977681183592e+000	 9.272547689580476e+000
 6.936799158861571e-001	 4.736127596318021e+000	 9.261443205226566e+000
 6.465911769552424e-001	 4.742785687454572e+000	 9.249146032318617e+000
 5.995959362855475e-001	 4.748955738264196e+000	 9.234677159883248e+000
 5.527009145300994e-001	 4.754641641492657e+000	 9.219201530319008e+000
 5.059127095378927e-001	 4.759847395035628e+000	 9.203969972498095e+000
 4.592377948612595e-001	 4.764577098007342e+000	 9.189986927882632e+000
 9.354654506175086e-001	 4.721547996392132e+000	 9.330544897542030e+000
 8.877498375643833e-001	 4.730751719571418e+000	 9.315354875338455e+000
 8.400926627780257e-001	 4.739446834870297e+000	 9.301612675091254e+000
 7.925012745930328e-001	 4.747636669138935e+000	 9.288758839056142e+000
 7.449829073751970e-001	 4.755324674536412e+000	 9.276235683356653e+000
 6.975446793456980e-001	 4.762514424658146e+000	 9.263477461094963e+000
 6.501935905420585e-001	 4.769209610637268e+000	 9.249818706506970e+000
 6.029365209151658e-001	 4.775414037225054e+000	 9.234332298747946e+000
 5.557802285614469e-001	 4.781131618855300e+000	 9.218013343229675e+000
 5.087313480891073e-001	 4.786366375697530e+000	 9.202028560123512e+000
 4.617963891171836e-001	 4.791122429703765e+000	 9.187307684051456e+000
 9.406484057128736e-001	 4.747707777299493e+000	 9.339238585319508e+000
 8.926684238585888e-001	 4.756962493792949e+000	 9.323209908491197e+000
 8.447472040487972e-001	 4.765705784459295e+000	 9.308481233580395e+000
 7.968921353316149e-001	 4.773940994581146e+000	 9.294586357020835e+000
 7.491104921549106e-001	 4.781671595444320e+000	 9.281061722229435e+000
 7.014094321784385e-001	 4.788901180443780e+000	 9.267436770231829e+000
 6.537959942234994e-001	 4.795633461163435e+000	 9.253178488948441e+000
 6.062770963594154e-001	 4.801872263434825e+000	 9.237424560067227e+000
 5.588595341259153e-001	 4.807621523379716e+000	 9.220986078055649e+000
 5.115499788903155e-001	 4.812885283441428e+000	 9.204926206643567e+000
 4.643549763382629e-001	 4.817667688409712e+000	 9.190080540652289e+000
 9.458313374865938e-001	 4.773867440498423e+000	 9.347174151372256e+000
 8.975869880207580e-001	 4.783173150076617e+000	 9.330927280822467e+000
 8.494017243756786e-001	 4.791964615893654e+000	 9.315897056811979e+000
 8.012829763128150e-001	 4.800245201664534e+000	 9.301689400079312e+000
 7.532380583619339e-001	 4.808018397801716e+000	 9.287912974895113e+000
 7.052741676211933e-001	 4.815287817499627e+000	 9.274169801918935e+000
 6.573983816954993e-001	 4.822057192792849e+000	 9.260024485266344e+000
 6.096176567724443e-001	 4.828330370593107e+000	 9.244686223035558e+000
 5.619388258348925e-001	 4.834111308710037e+000	 9.228771681066254e+000
 5.143685970091130e-001	 4.839404071860662e+000	 9.213221798669157e+000
 4.669135520472021e-001	 4.844212827672349e+000	 9.198759391465014e+000
 9.510142368686004e-001	 4.800026940210696e+000	 9.355239514650119e+000
 9.025055214434751e-001	 4.809383642555000e+000	 9.339409823335803e+000
 8.540562156133398e-001	 4.818223283221690e+000	 9.324764463389403e+000
 8.056737898527467e-001	 4.826549244358027e+000	 9.310960559538701e+000
 7.573655987731195e-001	 4.834365035503001e+000	 9.297657301065620e+000
 7.091388789107757e-001	 4.841674289650374e+000	 9.284506892115262e+000
 6.610007466539928e-001	 4.848480759285287e+000	 9.271138753693007e+000
 6.129581963083997e-001	 4.854788312399506e+000	 9.256834273853123e+000
 5.650180982997681e-001	 4.860600928490404e+000	 9.242008729736458e+000
 5.171871975130945e-001	 4.865922694548567e+000	 9.227462949929274e+000
 4.694721117667061e-001	 4.870757801038844e+000	 9.213789126938359e+000
 9.561970947888254e-001	 4.826186230658090e+000	 9.364303052762942e+000
 9.074240155193247e-001	 4.835593925360678e+000	 9.349540541436422e+000
 8.587106696164484e-001	 4.844481740491709e+000	 9.335967985381924e+000
 8.100645682675248e-001	 4.852853076630551e+000	 9.323272991954381e+000
 7.614931061653182e-001	 4.860711462442573e+000	 9.311143779281595e+000
 7.130035592839998e-001	 4.868060550720722e+000	 9.299260539778887e+000
 6.646030827949145e-001	 4.874904114400521e+000	 9.287286735977947e+000
 6.162987091214293e-001	 4.881246042553617e+000	 9.274570800334123e+000
 5.680973461319310e-001	 4.887090336364951e+000	 9.261322783599226e+000
 5.200057754698557e-001	 4.892441105098486e+000	 9.248186301237585e+000
 4.720306510194796e-001	 4.897302562056369e+000	 9.235605876469862e+000
 9.613799021772006e-001	 4.852345266062382e+000	 9.375214171480190e+000
 9.123424616408911e-001	 4.861803952626235e+000	 9.362183180263896e+000
 8.633650782396735e-001	 4.870739941752015e+000	 9.350372922594477e+000
 8.144553038732627e-001	 4.879156652451032e+000	 9.339480955617654e+000
 7.656205733153824e-001	 4.887057632514837e+000	 9.329203219077865e+000
 7.168682019776804e-001	 4.894446554535365e+000	 9.319225888351346e+000
 6.682053838141991e-001	 4.901327211898328e+000	 9.309218104223803e+000
 6.196391893656806e-001	 4.907703514755047e+000	 9.298583373961725e+000
 5.711765639427697e-001	 4.913579485977811e+000	 9.287326724005483e+000
 5.228243259469914e-001	 4.918959257103752e+000	 9.275917811034928e+000
 4.745891653282275e-001	 4.923847064272092e+000	 9.264637243130027e+000
 9.665626499636570e-001	 4.878504000645348e+000	 9.388803858347776e+000
 9.172608512007585e-001	 4.888013678484246e+000	 9.378182773987742e+000
 8.680194333376832e-001	 4.896997841050921e+000	 9.368825880889141e+000
 8.188459889860744e-001	 4.905459925788397e+000	 9.360420331420944e+000
 7.697479930001633e-001	 4.913403499614190e+000	 9.352648658082655e+000
 7.207328002286312e-001	 4.920832254918998e+000	 9.345181192955817e+000
 6.718076434077814e-001	 4.927750005538484e+000	 9.337669382397998e+000
 6.229796311953014e-001	 4.934160682703395e+000	 9.329545419857396e+000
 5.742557463436729e-001	 4.940068330973121e+000	 9.320621083204772e+000
 5.256428440120972e-001	 4.945477104157705e+000	 9.311173036858840e+000
 4.771476502156546e-001	 4.950391261233177e+000	 9.301302531111915e+000
 9.717453290781267e-001	 4.904662388628768e+000	 9.405885221006107e+000
 9.221791755915123e-001	 4.914223057067299e+000	 9.398366179656641e+000
 8.726737267651468e-001	 4.923255392436735e+000	 9.392155295146649e+000
 8.232366159220739e-001	 4.931762850611570e+000	 9.386909128677146e+000
 7.738753579965130e-001	 4.939749017635035e+000	 9.382275844607145e+000
 7.245973472736665e-001	 4.947217605696317e+000	 9.377888273837179e+000
 6.754098552715956e-001	 4.954172449080763e+000	 9.373357891159275e+000
 6.263200287644393e-001	 4.960617500098262e+000	 9.368116575113104e+000
 5.773348879460301e-001	 4.966556824995019e+000	 9.361794363142469e+000
 5.284613247327682e-001	 4.971994599853685e+000	 9.354457408075929e+000
 4.797061012044656e-001	 4.976935106486796e+000	 9.346012966175579e+000
 4.541206031540580e-001	 4.711486401454395e+000	 9.209839616131728e+000
 4.080772015327535e-001	 4.715697402914556e+000	 9.201758332114007e+000
 3.621583901065020e-001	 4.719445912825524e+000	 9.196112885174756e+000
 3.163702891928216e-001	 4.722736264607185e+000	 9.192514780053315e+000
 2.707188886346119e-001	 4.725572876349515e+000	 9.190471803262946e+000
 2.252100469680961e-001	 4.727960246918567e+000	 9.189422301185090e+000
 1.798494907136967e-001	 4.729902952083056e+000	 9.188767069136508e+000
 1.346428137874782e-001	 4.731405640665301e+000	 9.187899112338322e+000
 8.959547703070191e-002	 4.732473030720189e+000	 9.186231524245816e+000
 4.471280785492766e-002	 4.733109905745613e+000	 9.183223711195515e+000
 0.000000000000000e+000	 4.733321110927780e+000	 9.178406175013047e+000
 4.566791980477861e-001	 4.738031739773277e+000	 9.197655124905211e+000
 4.103763798492342e-001	 4.742266466752270e+000	 9.187284223419885e+000
 3.641988538086733e-001	 4.746036096423838e+000	 9.179329193585060e+000
 3.181527747266113e-001	 4.749344986623094e+000	 9.173515247983140e+000
 2.722441661938198e-001	 4.752197580332298e+000	 9.169468271592438e+000
 2.264789197545885e-001	 4.754598401764885e+000	 9.166747939271275e+000
 1.808627941936057e-001	 4.756552052470236e+000	 9.164878460784916e+000
 1.354014149440849e-001	 4.758063207462941e+000	 9.163377226228615e+000
 9.010027361466855e-002	 4.759136611380218e+000	 9.161781608205411e+000
 4.496472763253088e-002	 4.759777074671015e+000	 9.159674159570665e+000
 0.000000000000000e+000	 4.759989469820151e+000	 9.156706427193360e+000
 4.592377948612595e-001	 4.764577098007342e+000	 9.189986927882632e+000
 4.126755598908816e-001	 4.768835550523108e+000	 9.178106751899438e+000
 3.662393190419615e-001	 4.772626299971283e+000	 9.168578861249644e+000
 3.199352615980161e-001	 4.775953728602224e+000	 9.161244179724681e+000
 2.737694448977087e-001	 4.778822304290480e+000	 9.155848554953669e+000
 2.277477934934141e-001	 4.781236576596879e+000	 9.152074649855889e+000
 1.818760984341040e-001	 4.783201172851484e+000	 9.149571480978073e+000
 1.361600166701588e-001	 4.784720794261157e+000	 9.147981888838572e+000
 9.060507057761903e-002	 4.785800212045456e+000	 9.146968207844717e+000
 4.521664759929012e-002	 4.786444263604397e+000	 9.146236384721822e+000
 0.000000000000000e+000	 4.786657848721421e+000	 9.145558774942908e+000
 4.617963891171836e-001	 4.791122429703765e+000	 9.187307684051456e+000
 4.149747376344188e-001	 4.795404607732642e+000	 9.174580130252602e+000
 3.682797822358820e-001	 4.799216476936393e+000	 9.164092261264944e+000
 3.217177466880519e-001	 4.802562443980586e+000	 9.155803124118096e+000
 2.752947220774362e-001	 4.805447001632021e+000	 9.149580804756555e+000
 2.290166659644496e-001	 4.807874724798890e+000	 9.145233025601753e+000
 1.828894016623032e-001	 4.809850266591902e+000	 9.142535412205243e+000
 1.369186176384999e-001	 4.811378354410161e+000	 9.141257726737011e+000
 9.110986703643656e-002	 4.812463786055542e+000	 9.141188347397677e+000
 4.546856731450755e-002	 4.813111425879084e+000	 9.142157253096359e+000
 0.000000000000000e+000	 4.813326200962828e+000	 9.144057752161881e+000
 4.643549763382629e-001	 4.817667688409712e+000	 9.190080540652289e+000
 4.172739090565695e-001	 4.821973591886457e+000	 9.177051578388610e+000
 3.703202398199511e-001	 4.825806580787716e+000	 9.166095366638359e+000
 3.235002268777343e-001	 4.829171086194195e+000	 9.157291906644822e+000
 2.768199950641594e-001	 4.832071625764876e+000	 9.150634219944168e+000
 2.302855349475718e-001	 4.834512799755250e+000	 9.146057581701557e+000
 1.839027021053145e-001	 4.836499287056593e+000	 9.143466448302883e+000
 1.376772165219087e-001	 4.838035841260179e+000	 9.142759389930163e+000
 9.161466210800430e-002	 4.839127286750117e+000	 9.143852319053403e+000
 4.572048633748523e-002	 4.839778514828407e+000	 9.146700284868325e+000
 0.000000000000000e+000	 4.839994479875599e+000	 9.151318081968968e+000
 4.669135520472021e-001	 4.844212827672349e+000	 9.198759391465014e+000
 4.195730701340568e-001	 4.848542456490133e+000	 9.185861514864810e+000
 3.723606882236846e-001	 4.852396564993791e+000	 9.174809871555487e+000
 3.252826990480787e-001	 4.855779608679061e+000	 9.165808677304201e+000
 2.783452611890358e-001	 4.858696130097008e+000	 9.158979018366852e+000
 2.315543982226574e-001	 4.861150754850294e+000	 9.154386647744971e+000
 1.849159979902495e-001	 4.863148187610658e+000	 9.152067503918540e+000
 1.384358119931851e-001	 4.864693208161425e+000	 9.152051276134680e+000
 9.211945490920545e-002	 4.865790667468827e+000	 9.154383319359775e+000
 4.597240422752529e-002	 4.866445483785694e+000	 9.159145199901300e+000
 0.000000000000000e+000	 4.866662638790971e+000	 9.166474129760804e+000
 4.694721117667061e-001	 4.870757801038844e+000	 9.213789126938359e+000
 4.218722168436042e-001	 4.875111155049245e+000	 9.201343742338732e+000
 3.744011238765984e-001	 4.878986383023154e+000	 9.190453308924994e+000
 3.270651600801012e-001	 4.882387964871204e+000	 9.181449957126795e+000
 2.798705177832224e-001	 4.885320468036373e+000	 9.174586409245011e+000
 2.328232535695833e-001	 4.887788543468358e+000	 9.170062263219585e+000
 1.859292875442194e-001	 4.889796921619200e+000	 9.168048030245998e+000
 1.391944027251293e-001	 4.891350408464122e+000	 9.168707264050823e+000
 9.262424455692317e-002	 4.892453881551312e+000	 9.172217097445632e+000
 4.622432054392983e-002	 4.893112286084270e+000	 9.178787478439139e+000
 0.000000000000000e+000	 4.893330631040176e+000	 9.188679373996141e+000
 4.720306510194796e-001	 4.897302562056369e+000	 9.235605876469862e+000
 4.241713451619350e-001	 4.901679641069377e+000	 9.223825627258606e+000
 3.764415432082083e-001	 4.905575988344355e+000	 9.213239164341431e+000
 3.288476068548171e-001	 4.908996108206632e+000	 9.204310683375198e+000
 2.813957621778767e-001	 4.911944592990930e+000	 9.197428566679974e+000
 2.340920987682259e-001	 4.914426118993778e+000	 9.192930076509475e+000
 1.869425689943359e-001	 4.916445442447325e+000	 9.191123836796114e+000
 1.399529873905414e-001	 4.918007395518488e+000	 9.192310455297269e+000
 9.312903016804063e-002	 4.919116882337212e+000	 9.196801614618469e+000
 4.647623484600098e-002	 4.919778875057467e+000	 9.204937935970630e+000
 0.000000000000000e+000	 4.919998409954449e+000	 9.217105894038497e+000
 4.745891653282275e-001	 4.923847064272092e+000	 9.264637243130027e+000
 4.264704510657725e-001	 4.928247868056106e+000	 9.253628274007999e+000
 3.784819426480304e-001	 4.932165334425926e+000	 9.243376986599893e+000
 3.306300362532424e-001	 4.935603992121360e+000	 9.234484253482462e+000
 2.829209917041558e-001	 4.938568458368636e+000	 9.227478604174024e+000
 2.353609315984621e-001	 4.941063434810887e+000	 9.222839247260930e+000
 1.879558405677102e-001	 4.943093703460130e+000	 9.221016918978483e+000
 1.407115646622218e-001	 4.944664122674740e+000	 9.222452924684610e+000
 9.363381085944102e-002	 4.945779623166171e+000	 9.227596714911604e+000
 4.672814669304079e-002	 4.946445204038611e+000	 9.236922311738720e+000
 0.000000000000000e+000	 4.946665928865022e+000	 9.250943874419630e+000
 4.771476502156546e-001	 4.950391261233177e+000	 9.301302531111915e+000
 4.287695305318403e-001	 4.954815789515013e+000	 9.291066693710921e+000
 3.805223186255805e-001	 4.958754374736414e+000	 9.281072494891154e+000
 3.324124451563926e-001	 4.962211570051403e+000	 9.272062567774450e+000
 2.844462036932172e-001	 4.965192017577452e+000	 9.264710550122246e+000
 2.366297498401687e-001	 4.967700444304020e+000	 9.259642351990562e+000
 1.889691004914538e-001	 4.969741658022721e+000	 9.257455291277562e+000
 1.414701332129704e-001	 4.971320543283099e+000	 9.258735478517526e+000
 9.413858574800750e-002	 4.972442057377831e+000	 9.264073806175150e+000
 4.698005564435141e-002	 4.973111226361029e+000	 9.274080870387040e+000
 0.000000000000000e+000	 4.973333141103128e+000	 9.289401124913209e+000
 4.797061012044656e-001	 4.976935106486796e+000	 9.346012966175579e+000
 4.310685795368616e-001	 4.981383358951680e+000	 9.336449967895353e+000
 3.825626675703746e-001	 4.985343062744358e+000	 9.326527682799933e+000
 3.341948304452835e-001	 4.988818795432772e+000	 9.317136071021992e+000
 2.859713954762180e-001	 4.991815224025334e+000	 9.309099324240636e+000
 2.378985512732225e-001	 4.994337100857515e+000	 9.303195292815923e+000
 1.899823469926781e-001	 4.996389259500201e+000	 9.300172825817439e+000
 1.422286917155876e-001	 4.997976610693785e+000	 9.300767420628926e+000
 9.464335395062330e-002	 4.999104138311836e+000	 9.305715551319871e+000
 4.723196125923496e-002	 4.999776895358052e+000	 9.315768016258023e+000
 0.000000000000000e+000	 5.000000000000000e+000	 9.331702615833653e+000
