patch_n	x	y	stress_yy
0	 0.000000000000000e+000	 0.000000000000000e+000	 2.588823043322858e-001
0	 0.000000000000000e+000	 6.666714722864756e-002	 6.619141646139190e-002
0	 0.000000000000000e+000	 1.333351778131789e-001	-6.891549254503905e-002
0	 0.000000000000000e+000	 2.000039750814772e-001	-1.513167790089003e-001
0	 0.000000000000000e+000	 2.666734223614256e-001	-1.858903541738642e-001
0	 0.000000000000000e+000	 3.333434029809069e-001	-1.775136842625237e-001
0	 0.000000000000000e+000	 4.000138002678044e-001	-1.310637905218491e-001
0	 0.000000000000000e+000	 4.666844975500011e-001	-5.141724925696256e-002
0	 0.000000000000000e+000	 5.333553781553803e-001	 5.654980814676898e-002
0	 0.000000000000000e+000	 6.000263254118248e-001	 1.879616952133195e-001
0	 0.000000000000000e+000	 6.666972226472175e-001	 3.379431703772696e-001
0	 6.666714722864756e-002	 0.000000000000000e+000	 2.776312734872458e-001
0	 6.666714722864756e-002	 6.666714722864756e-002	 1.022007441564760e-001
0	 6.666714722864754e-002	 1.333351778131789e-001	-2.376032329096967e-002
0	 6.666714722864754e-002	 2.000039750814772e-001	-1.040973442942895e-001
0	 6.666714722864757e-002	 2.666734223614254e-001	-1.426553430483732e-001
0	 6.666714722864760e-002	 3.333434029809069e-001	-1.432789525541398e-001
0	 6.666714722864757e-002	 4.000138002678046e-001	-1.098124146586048e-001
0	 6.666714722864756e-002	 4.666844975500011e-001	-4.609958008467664e-002
0	 6.666714722864754e-002	 5.333553781553803e-001	 4.401609154931351e-002
0	 6.666714722864757e-002	 6.000263254118247e-001	 1.566915317203502e-001
0	 6.666714722864757e-002	 6.666972226472178e-001	 2.880840630017371e-001
0	 1.333351778131789e-001	 0.000000000000000e+000	 2.578274090695074e-001
0	 1.333351778131789e-001	 6.666714722864753e-002	 1.100616311695217e-001
0	 1.333351778131789e-001	 1.333351778131789e-001	 2.212447216137562e-003
0	 1.333351778131789e-001	 2.000039750814772e-001	-6.863949152401053e-002
0	 1.333351778131789e-001	 2.666734223614256e-001	-1.054132143696917e-001
0	 1.333351778131790e-001	 3.333434029809069e-001	-1.110274312661876e-001
0	 1.333351778131789e-001	 4.000138002678044e-001	-8.840053281801649e-002
0	 1.333351778131790e-001	 4.666844975500011e-001	-4.045059031327153e-002
0	 1.333351778131789e-001	 5.333553781553803e-001	 2.990464426042207e-002
0	 1.333351778131789e-001	 6.000263254118246e-001	 1.197477382083329e-001
0	 1.333351778131790e-001	 6.666972226472178e-001	 2.261615781294302e-001
0	 2.000039750814772e-001	 0.000000000000000e+000	 2.090576512776281e-001
0	 2.000039750814772e-001	 6.666714722864756e-002	 9.612169868071678e-002
0	 2.000039750814772e-001	 1.333351778131789e-001	 1.273877225074148e-002
0	 2.000039750814772e-001	 2.000039750814772e-001	-4.319131239840591e-002
0	 2.000039750814772e-001	 2.666734223614255e-001	-7.376850347183686e-002
0	 2.000039750814773e-001	 3.333434029809069e-001	-8.109251302400349e-002
0	 2.000039750814773e-001	 4.000138002678044e-001	-6.726281698283508e-002
0	 2.000039750814772e-001	 4.666844975500011e-001	-3.437865516767527e-002
0	 2.000039750814772e-001	 5.333553781553803e-001	 1.546096869897905e-002
0	 2.000039750814773e-001	 6.000263254118247e-001	 8.015728698593698e-002
0	 2.000039750814773e-001	 6.666972226472178e-001	 1.576117681539697e-001
0	 2.666734223614256e-001	 0.000000000000000e+000	 1.409088308241074e-001
0	 2.666734223614255e-001	 6.666714722864758e-002	 6.672847292944631e-002
0	 2.666734223614256e-001	 1.333351778131790e-001	 1.155452758210543e-002
0	 2.666734223614256e-001	 2.000039750814772e-001	-2.600095692061786e-002
0	 2.666734223614255e-001	 2.666734223614256e-001	-4.732578414600496e-002
0	 2.666734223614256e-001	 3.333434029809070e-001	-5.380760954482083e-002
0	 2.666734223614255e-001	 4.000138002678043e-001	-4.683394046632983e-002
0	 2.666734223614256e-001	 4.666844975500010e-001	-2.779213616942276e-002
0	 2.666734223614256e-001	 5.333553781553803e-001	 1.930592170143361e-003
0	 2.666734223614256e-001	 6.000263254118247e-001	 4.094718145639316e-002
0	 2.666734223614255e-001	 6.666972226472174e-001	 8.787071667366744e-002
0	 3.333434029809069e-001	 0.000000000000000e+000	 6.296766894959488e-002
0	 3.333434029809069e-001	 6.666714722864757e-002	 2.822938522676829e-002
0	 3.333434029809069e-001	 1.333351778131790e-001	 2.395511484510507e-003
0	 3.333434029809069e-001	 2.000039750814773e-001	-1.531663338897367e-002
0	 3.333434029809070e-001	 2.666734223614256e-001	-2.568966863569713e-002
0	 3.333434029809070e-001	 3.333434029809070e-001	-2.950615163558474e-002
0	 3.333434029809069e-001	 4.000138002678044e-001	-2.754857791254363e-002
0	 3.333434029809069e-001	 4.666844975500011e-001	-2.059938113890916e-002
0	 3.333434029809070e-001	 5.333553781553805e-001	-9.440933138267367e-003
0	 3.333434029809069e-001	 6.000263254118248e-001	 5.144456113346349e-003
0	 3.333434029809069e-001	 6.666972226472177e-001	 2.237453848787170e-002
0	 4.000138002678044e-001	 0.000000000000000e+000	-1.517922256577790e-002
0	 4.000138002678045e-001	 6.666714722864756e-002	-1.302822803460304e-002
0	 4.000138002678044e-001	 1.333351778131789e-001	-1.100255525456560e-002
0	 4.000138002678044e-001	 2.000039750814773e-001	-9.386608390901767e-003
0	 4.000138002678042e-001	 2.666734223614255e-001	-8.464807632855485e-003
0	 4.000138002678042e-001	 3.333434029809068e-001	-8.521589191267030e-003
0	 4.000138002678044e-001	 4.000138002678044e-001	-9.841405296582551e-003
0	 4.000138002678044e-001	 4.666844975500011e-001	-1.270872419728408e-002
0	 4.000138002678043e-001	 5.333553781553800e-001	-1.740803015873999e-002
0	 4.000138002678045e-001	 6.000263254118249e-001	-2.422382346247621e-002
0	 4.000138002678044e-001	 6.666972226472177e-001	-3.344062040586738e-002
0	 4.666844975500011e-001	 0.000000000000000e+000	-8.394534139393799e-002
0	 4.666844975500011e-001	 6.666714722864756e-002	-5.069712537280603e-002
0	 4.666844975500012e-001	 1.333351778131790e-001	-2.490402932830465e-002
0	 4.666844975500012e-001	 2.000039750814773e-001	-6.459206798378239e-003
0	 4.666844975500011e-001	 2.666734223614255e-001	 4.744109724991797e-003
0	 4.666844975500011e-001	 3.333434029809069e-001	 8.812608806317152e-003
0	 4.666844975500011e-001	 4.000138002678044e-001	 5.852900075059345e-003
0	 4.666844975500012e-001	 4.666844975500012e-001	-4.028485767985682e-003
0	 4.666844975500011e-001	 5.333553781553804e-001	-2.072509694637531e-002
0	 4.666844975500012e-001	 6.000263254118249e-001	-4.413056060577959e-002
0	 4.666844975500012e-001	 6.666972226472175e-001	-7.413858281381239e-002
0	 5.333553781553803e-001	 0.000000000000000e+000	-1.337442946532856e-001
0	 5.333553781553805e-001	 6.666714722864757e-002	-7.843016021183212e-002
0	 5.333553781553803e-001	 1.333351778131789e-001	-3.557334490643747e-002
0	 5.333553781553804e-001	 2.000039750814772e-001	-4.782811764903226e-003
0	 5.333553781553800e-001	 2.666734223614255e-001	 1.433235585657610e-002
0	 5.333553781553805e-001	 3.333434029809070e-001	 2.216295428919190e-002
0	 5.333553781553801e-001	 4.000138002678044e-001	 1.909965956414055e-002
0	 5.333553781553804e-001	 4.666844975500011e-001	 5.533027422084485e-003
0	 5.333553781553803e-001	 5.333553781553803e-001	-1.814650668054473e-002
0	 5.333553781553803e-001	 6.000263254118248e-001	-5.154862756840110e-002
0	 5.333553781553801e-001	 6.666972226472177e-001	-9.428314034723598e-002
0	 6.000263254118248e-001	 0.000000000000000e+000	-1.549897989059821e-001
0	 6.000263254118247e-001	 6.666714722864756e-002	-8.988028087901752e-002
0	 6.000263254118247e-001	 1.333351778131789e-001	-3.927501363316779e-002
0	 6.000263254118248e-001	 2.000039750814773e-001	-2.605864724007599e-003
0	 6.000263254118248e-001	 2.666734223614256e-001	 2.069516473772462e-002
0	 6.000263254118247e-001	 3.333434029809070e-001	 3.119594010340190e-002
0	 6.000263254118248e-001	 4.000138002678045e-001	 2.946419320027726e-002
0	 6.000263254118248e-001	 4.666844975500011e-001	 1.606752234174655e-002
0	 6.000263254118247e-001	 5.333553781553800e-001	-8.426607665893583e-003
0	 6.000263254118247e-001	 6.000263254118247e-001	-4.345086552019280e-002
0	 6.000263254118247e-001	 6.666972226472175e-001	-8.843805342279794e-002
0	 6.666972226472175e-001	 0.000000000000000e+000	-1.380956801581101e-001
0	 6.666972226472178e-001	 6.666714722864757e-002	-7.870053060502663e-002
0	 6.666972226472178e-001	 1.333351778131789e-001	-3.227362462712944e-002
0	 6.666972226472178e-001	 2.000039750814772e-001	 1.823134610711001e-003
0	 6.666972226472178e-001	 2.666734223614256e-001	 2.422773190118767e-002
0	 6.666972226472177e-001	 3.333434029809069e-001	 3.557804000869301e-002
0	 6.666972226472179e-001	 4.000138002678045e-001	 3.651181968051419e-002
0	 6.666972226472175e-001	 4.666844975500010e-001	 2.766671965508668e-002
0	 6.666972226472177e-001	 5.333553781553801e-001	 9.680276667307969e-003
0	 6.666972226472178e-001	 6.000263254118248e-001	-1.681008454908927e-002
0	 6.666972226472177e-001	 6.666972226472177e-001	-5.116705126210396e-002
0	 0.000000000000000e+000	 6.666972226472175e-001	 3.379431703772695e-001
0	 0.000000000000000e+000	 7.333579753122049e-001	 4.012616337813426e-001
0	 0.000000000000000e+000	 8.000185779984417e-001	 3.043239262667106e-001
0	 0.000000000000000e+000	 8.666790473703454e-001	 8.964356181217179e-002
0	 0.000000000000000e+000	 9.333394000923322e-001	-2.002656844723037e-001
0	 0.000000000000000e+000	 9.999996528288191e-001	-5.228897763411007e-001
0	 0.000000000000000e+000	 1.066659822244222e+000	-8.357144164094604e-001
0	 0.000000000000000e+000	 1.133319925002959e+000	-1.096225046150970e+000
0	 0.000000000000000e+000	 1.199979977769445e+000	-1.261906845896015e+000
0	 0.000000000000000e+000	 1.266639997208098e+000	-1.290244734831236e+000
0	 0.000000000000000e+000	 1.333299999983334e+000	-1.138723370999937e+000
0	 6.666714722864757e-002	 6.666972226472178e-001	 2.880840630017372e-001
0	 6.666714722864757e-002	 7.333579753122048e-001	 3.411361110440596e-001
0	 6.666714722864754e-002	 8.000185779984415e-001	 2.462276741601068e-001
0	 6.666714722864754e-002	 8.666790473703453e-001	 4.061015194071525e-002
0	 6.666714722864754e-002	 9.333394000923321e-001	-2.384648117722867e-001
0	 6.666714722864757e-002	 9.999996528288190e-001	-5.537453288819203e-001
0	 6.666714722864756e-002	 1.066659822244222e+000	-8.679792670328086e-001
0	 6.666714722864756e-002	 1.133319925002959e+000	-1.143914249608848e+000
0	 6.666714722864757e-002	 1.199979977769445e+000	-1.344297655731799e+000
0	 6.666714722864756e-002	 1.266639997208098e+000	-1.431876620260778e+000
0	 6.666714722864757e-002	 1.333299999983334e+000	-1.369398033792698e+000
0	 1.333351778131790e-001	 6.666972226472178e-001	 2.261615781294302e-001
0	 1.333351778131790e-001	 7.333579753122046e-001	 2.656353160683854e-001
0	 1.333351778131790e-001	 8.000185779984417e-001	 1.781660340250955e-001
0	 1.333351778131790e-001	 8.666790473703454e-001	-3.952261266038808e-003
0	 1.333351778131789e-001	 9.333394000923321e-001	-2.484253493556723e-001
0	 1.333351778131789e-001	 9.999996528288191e-001	-5.229587960758954e-001
0	 1.333351778131789e-001	 1.066659822244222e+000	-7.952579535374134e-001
0	 1.333351778131790e-001	 1.133319925002959e+000	-1.033027960127534e+000
0	 1.333351778131790e-001	 1.199979977769445e+000	-1.203973740508940e+000
0	 1.333351778131789e-001	 1.266639997208097e+000	-1.275800005619292e+000
0	 1.333351778131789e-001	 1.333299999983334e+000	-1.216211252671606e+000
0	 2.000039750814773e-001	 6.666972226472178e-001	 1.576117681539697e-001
0	 2.000039750814772e-001	 7.333579753122048e-001	 1.820024974810297e-001
0	 2.000039750814773e-001	 8.000185779984419e-001	 1.073588403559537e-001
0	 2.000039750814772e-001	 8.666790473703453e-001	-3.867791680174919e-002
0	 2.000039750814772e-001	 9.333394000923322e-001	-2.284663153037783e-001
0	 2.000039750814773e-001	 9.999996528288189e-001	-4.343647241901446e-001
0	 2.000039750814772e-001	 1.066659822244222e+000	-6.287313402269104e-001
0	 2.000039750814772e-001	 1.133319925002958e+000	-7.839241879045900e-001
0	 2.000039750814772e-001	 1.199979977769445e+000	-8.723011194371707e-001
0	 2.000039750814772e-001	 1.266639997208098e+000	-8.662198147618204e-001
0	 2.000039750814772e-001	 1.333299999983334e+000	-7.380377815391855e-001
0	 2.666734223614255e-001	 6.666972226472174e-001	 8.787071667366744e-002
0	 2.666734223614256e-001	 7.333579753122047e-001	 9.748092872403101e-002
0	 2.666734223614255e-001	 8.000185779984416e-001	 4.102594205371308e-002
0	 2.666734223614256e-001	 8.666790473703452e-001	-5.820105048075788e-002
0	 2.666734223614257e-001	 9.333394000923323e-001	-1.769067333645678e-001
0	 2.666734223614255e-001	 9.999996528288188e-001	-2.917976684225683e-001
0	 2.666734223614256e-001	 1.066659822244222e+000	-3.795802948176840e-001
0	 2.666734223614256e-001	 1.133319925002959e+000	-4.169609290497837e-001
0	 2.666734223614256e-001	 1.199979977769445e+000	-3.806457649550170e-001
0	 2.666734223614255e-001	 1.266639997208098e+000	-2.473408737055889e-001
0	 2.666734223614254e-001	 1.333299999983334e+000	 6.247796189983891e-003
0	 3.333434029809069e-001	 6.666972226472177e-001	 2.237453848787169e-002
0	 3.333434029809069e-001	 7.333579753122046e-001	 1.931390805265531e-002
0	 3.333434029809069e-001	 8.000185779984415e-001	-1.361279757393316e-002
0	 3.333434029809068e-001	 8.666790473703451e-001	-5.715589493649453e-002
0	 3.333434029809070e-001	 9.333394000923321e-001	-9.206563295044182e-002
0	 3.333434029809069e-001	 9.999996528288191e-001	-9.909219290088291e-002
0	 3.333434029809068e-001	 1.066659822244222e+000	-5.898568844176237e-002
0	 3.333434029809069e-001	 1.133319925002959e+000	 4.750383440476023e-002
0	 3.333434029809069e-001	 1.199979977769445e+000	 2.396263972486499e-001
0	 3.333434029809068e-001	 1.266639997208097e+000	 5.366320893321122e-001
0	 3.333434029809069e-001	 1.333299999983334e+000	 9.577710675294322e-001
0	 4.000138002678044e-001	 6.666972226472177e-001	-3.344062040586738e-002
0	 4.000138002678044e-001	 7.333579753122048e-001	-4.525524146605175e-002
0	 4.000138002678044e-001	 8.000185779984415e-001	-4.933750081234705e-002
0	 4.000138002678044e-001	 8.666790473703453e-001	-3.017667961979647e-002
0	 4.000138002678043e-001	 9.333394000923319e-001	 2.773795086381292e-002
0	 4.000138002678044e-001	 9.999996528288191e-001	 1.399171293180989e-001
0	 4.000138002678044e-001	 1.066659822244222e+000	 3.218716043501928e-001
0	 4.000138002678044e-001	 1.133319925002958e+000	 5.891121344948168e-001
0	 4.000138002678044e-001	 1.199979977769445e+000	 9.571494882143176e-001
0	 4.000138002678043e-001	 1.266639997208098e+000	 1.441494443898661e+000
0	 4.000138002678044e-001	 1.333299999983334e+000	 2.057657789865413e+000
0	 4.666844975500012e-001	 6.666972226472175e-001	-7.413858281381239e-002
0	 4.666844975500011e-001	 7.333579753122047e-001	-8.898317195406198e-002
0	 4.666844975500012e-001	 8.000185779984417e-001	-5.892827553928381e-002
0	 4.666844975500010e-001	 8.666790473703451e-001	 2.810236920285490e-002
0	 4.666844975500011e-001	 9.333394000923321e-001	 1.841849773429344e-001
0	 4.666844975500012e-001	 9.999996528288191e-001	 4.213957162489754e-001
0	 4.666844975500012e-001	 1.066659822244222e+000	 7.518107055858113e-001
0	 4.666844975500012e-001	 1.133319925002959e+000	 1.187506017314636e+000
0	 4.666844975500012e-001	 1.199979977769445e+000	 1.740557675692736e+000
0	 4.666844975500011e-001	 1.266639997208098e+000	 2.423041657273397e+000
0	 4.666844975500012e-001	 1.333299999983334e+000	 3.247033890905998e+000
0	 5.333553781553801e-001	 6.666972226472177e-001	-9.428314034723595e-002
0	 5.333553781553801e-001	 7.333579753122047e-001	-1.046265107225115e-001
0	 5.333553781553803e-001	 8.000185779984418e-001	-3.516521522385174e-002
0	 5.333553781553803e-001	 8.666790473703456e-001	 1.230470284511800e-001
0	 5.333553781553803e-001	 9.333394000923324e-001	 3.789564000929401e-001
0	 5.333553781553803e-001	 9.999996528288188e-001	 7.415089769780049e-001
0	 5.333553781553801e-001	 1.066659822244222e+000	 1.219650733867850e+000
0	 5.333553781553804e-001	 1.133319925002959e+000	 1.822327543007922e+000
0	 5.333553781553803e-001	 1.199979977769445e+000	 2.558485174127084e+000
0	 5.333553781553803e-001	 1.266639997208098e+000	 3.437069294437454e+000
0	 5.333553781553803e-001	 1.333299999983334e+000	 4.467025468634644e+000
0	 6.000263254118247e-001	 6.666972226472175e-001	-8.843805342279792e-002
0	 6.000263254118247e-001	 7.333579753122048e-001	-8.494186027119541e-002
0	 6.000263254118247e-001	 8.000185779984417e-001	 2.917160107490582e-002
0	 6.000263254118247e-001	 8.666790473703451e-001	 2.600230782330321e-001
0	 6.000263254118247e-001	 9.333394000923321e-001	 6.137331670627408e-001
0	 6.000263254118246e-001	 9.999996528288189e-001	 1.096422311663135e+000
0	 6.000263254118248e-001	 1.066659822244222e+000	 1.714210804370942e+000
0	 6.000263254118249e-001	 1.133319925002959e+000	 2.473218785759173e+000
0	 6.000263254118246e-001	 1.199979977769445e+000	 3.379566244636331e+000
0	 6.000263254118248e-001	 1.266639997208098e+000	 4.439373018046210e+000
0	 6.000263254118247e-001	 1.333299999983334e+000	 5.658758791268256e+000
0	 6.666972226472177e-001	 6.666972226472177e-001	-5.116705126210396e-002
0	 6.666972226472175e-001	 7.333579753122045e-001	-2.268579828741136e-002
0	 6.666972226472177e-001	 8.000185779984415e-001	 1.413021087098073e-001
0	 6.666972226472177e-001	 8.666790473703451e-001	 4.443963018464113e-001
0	 6.666972226472177e-001	 9.333394000923322e-001	 8.901962205455984e-001
0	 6.666972226472177e-001	 9.999996528288189e-001	 1.482301111533793e+000
0	 6.666972226472174e-001	 1.066659822244222e+000	 2.224310028838250e+000
0	 6.666972226472178e-001	 1.133319925002959e+000	 3.119821833785388e+000
0	 6.666972226472177e-001	 1.199979977769445e+000	 4.172435194999844e+000
0	 6.666972226472175e-001	 1.266639997208098e+000	 5.385748588404236e+000
0	 6.666972226472175e-001	 1.333299999983334e+000	 6.763360297219679e+000
0	 0.000000000000000e+000	 1.333299999983334e+000	-1.138723370999937e+000
0	 0.000000000000000e+000	 1.399969999982150e+000	-7.348493793965796e-001
0	 0.000000000000000e+000	 1.466639999981866e+000	-5.954794020172220e-002
0	 0.000000000000000e+000	 1.533309999982383e+000	 8.496836933987839e-001
0	 0.000000000000000e+000	 1.599979999983599e+000	 1.955348268218307e+000
0	 0.000000000000000e+000	 1.666649999985416e+000	 3.219948531069415e+000
0	 0.000000000000000e+000	 1.733319999987733e+000	 4.605987228763894e+000
0	 0.000000000000000e+000	 1.799989999990450e+000	 6.075967108112736e+000
0	 0.000000000000000e+000	 1.866659999993466e+000	 7.592390915926151e+000
0	 0.000000000000000e+000	 1.933329999996683e+000	 9.117761399013547e+000
0	 0.000000000000000e+000	 2.000000000000000e+000	 1.061458130418357e+001
0	 6.666714722864757e-002	 1.333299999983334e+000	-1.369398033792698e+000
0	 6.666714722864754e-002	 1.399969999982149e+000	-1.015136538540969e+000
0	 6.666714722864754e-002	 1.466639999981867e+000	-2.750797363351165e-001
0	 6.666714722864756e-002	 1.533309999982382e+000	 8.165236990543390e-001
0	 6.666714722864754e-002	 1.599979999983599e+000	 2.225425093857484e+000
0	 6.666714722864756e-002	 1.666649999985416e+000	 3.917375774305052e+000
0	 6.666714722864756e-002	 1.733319999987733e+000	 5.858127066628381e+000
0	 6.666714722864756e-002	 1.799989999990450e+000	 8.013430297059495e+000
0	 6.666714722864756e-002	 1.866659999993467e+000	 1.034903679183094e+001
0	 6.666714722864756e-002	 1.933329999996682e+000	 1.283069787717602e+001
0	 6.666714722864756e-002	 2.000000000000000e+000	 1.542416487932853e+001
0	 1.333351778131789e-001	 1.333299999983334e+000	-1.216211252671605e+000
0	 1.333351778131790e-001	 1.399969999982150e+000	-8.421751874965998e-001
0	 1.333351778131789e-001	 1.466639999981867e+000	-1.295595927091152e-002
0	 1.333351778131790e-001	 1.533309999982383e+000	 1.240358663858368e+000
0	 1.333351778131789e-001	 1.599979999983599e+000	 2.886680913745822e+000
0	 1.333351778131790e-001	 1.666649999985416e+000	 4.894923022247609e+000
0	 1.333351778131789e-001	 1.733319999987733e+000	 7.233997221221518e+000
0	 1.333351778131789e-001	 1.799989999990450e+000	 9.872815742526971e+000
0	 1.333351778131789e-001	 1.866659999993466e+000	 1.278029081802498e+001
0	 1.333351778131789e-001	 1.933329999996683e+000	 1.592533467957822e+001
0	 1.333351778131789e-001	 2.000000000000000e+000	 1.927685955905095e+001
0	 2.000039750814772e-001	 1.333299999983334e+000	-7.380377815391861e-001
0	 2.000039750814773e-001	 1.399969999982150e+000	-2.874300430371796e-001
0	 2.000039750814773e-001	 1.466639999981867e+000	 6.487640788649992e-001
0	 2.000039750814773e-001	 1.533309999982383e+000	 2.042530067701384e+000
0	 2.000039750814772e-001	 1.599979999983599e+000	 3.865853407008277e+000
0	 2.000039750814773e-001	 1.666649999985417e+000	 6.090719580324203e+000
0	 2.000039750814772e-001	 1.733319999987733e+000	 8.689114071189900e+000
0	 2.000039750814772e-001	 1.799989999990449e+000	 1.163302236314839e+001
0	 2.000039750814772e-001	 1.866659999993466e+000	 1.489442993974490e+001
0	 2.000039750814773e-001	 1.933329999996683e+000	 1.844532228452693e+001
0	 2.000039750814773e-001	 2.000000000000000e+000	 2.225768488104424e+001
0	 2.666734223614254e-001	 1.333299999983334e+000	 6.247796189983891e-003
0	 2.666734223614255e-001	 1.399969999982150e+000	 5.776344453150256e-001
0	 2.666734223614255e-001	 1.466639999981867e+000	 1.632021453831766e+000
0	 2.666734223614256e-001	 1.533309999982383e+000	 3.144379921941213e+000
0	 2.666734223614256e-001	 1.599979999983599e+000	 5.089680949846948e+000
0	 2.666734223614256e-001	 1.666649999985416e+000	 7.442895637755083e+000
0	 2.666734223614254e-001	 1.733319999987733e+000	 1.017899508587425e+001
0	 2.666734223614255e-001	 1.799989999990449e+000	 1.327295039441565e+001
0	 2.666734223614256e-001	 1.866659999993467e+000	 1.669973266359301e+001
0	 2.666734223614256e-001	 1.933329999996683e+000	 2.043431299362263e+001
0	 2.666734223614255e-001	 2.000000000000000e+000	 2.445166248472334e+001
0	 3.333434029809069e-001	 1.333299999983334e+000	 9.577710675294322e-001
0	 3.333434029809069e-001	 1.399969999982150e+000	 1.681554095201095e+000
0	 3.333434029809069e-001	 1.466639999981866e+000	 2.858757629151052e+000
0	 3.333434029809068e-001	 1.533309999982383e+000	 4.467250769240490e+000
0	 3.333434029809069e-001	 1.599979999983599e+000	 6.484902615333198e+000
0	 3.333434029809069e-001	 1.666649999985416e+000	 8.889582267295502e+000
0	 3.333434029809069e-001	 1.733319999987733e+000	 1.165915882499636e+001
0	 3.333434029809069e-001	 1.799989999990450e+000	 1.477150138830729e+001
0	 3.333434029809069e-001	 1.866659999993467e+000	 1.820447905710238e+001
0	 3.333434029809068e-001	 1.933329999996683e+000	 2.193596093125834e+001
0	 3.333434029809069e-001	 2.000000000000000e+000	 2.594381611065444e+001
0	 4.000138002678044e-001	 1.333299999983334e+000	 2.057657789865413e+000
0	 4.000138002678045e-001	 1.399969999982150e+000	 2.952864991344331e+000
0	 4.000138002678044e-001	 1.466639999981866e+000	 4.250914455994793e+000
0	 4.000138002678043e-001	 1.533309999982383e+000	 5.932485683418114e+000
0	 4.000138002678044e-001	 1.599979999983599e+000	 7.978258173218058e+000
0	 4.000138002678043e-001	 1.666649999985415e+000	 1.036891142500074e+001
0	 4.000138002678042e-001	 1.733319999987733e+000	 1.308512493837476e+001
0	 4.000138002678044e-001	 1.799989999990450e+000	 1.610757821295107e+001
0	 4.000138002678043e-001	 1.866659999993466e+000	 1.941695074834306e+001
0	 4.000138002678044e-001	 1.933329999996683e+000	 2.299392204416653e+001
0	 4.000138002678044e-001	 2.000000000000000e+000	 2.681917160003974e+001
0	 4.666844975500012e-001	 1.333299999983334e+000	 3.247033890905998e+000
0	 4.666844975500012e-001	 1.399969999982150e+000	 4.320103485476167e+000
0	 4.666844975500011e-001	 1.466639999981866e+000	 5.730434173083052e+000
0	 4.666844975500012e-001	 1.533309999982383e+000	 7.461428269314638e+000
0	 4.666844975500011e-001	 1.599979999983599e+000	 9.496488089761023e+000
0	 4.666844975500012e-001	 1.666649999985416e+000	 1.181901595001434e+001
0	 4.666844975500011e-001	 1.733319999987733e+000	 1.441241416566890e+001
0	 4.666844975500011e-001	 1.799989999990450e+000	 1.726008505232100e+001
0	 4.666844975500012e-001	 1.866659999993466e+000	 2.034543092556908e+001
0	 4.666844975500010e-001	 1.933329999996683e+000	 2.365185410101368e+001
0	 4.666844975500011e-001	 2.000000000000000e+000	 2.716275689425742e+001
0	 5.333553781553803e-001	 1.333299999983334e+000	 4.467025468634644e+000
0	 5.333553781553803e-001	 1.399969999982150e+000	 5.711806196269096e+000
0	 5.333553781553801e-001	 1.466639999981867e+000	 7.219259406592122e+000
0	 5.333553781553803e-001	 1.533309999982383e+000	 8.975422662671591e+000
0	 5.333553781553803e-001	 1.599979999983599e+000	 1.096633352757703e+001
0	 5.333553781553801e-001	 1.666649999985417e+000	 1.317802956437958e+001
0	 5.333553781553803e-001	 1.733319999987733e+000	 1.559654833615212e+001
0	 5.333553781553803e-001	 1.799989999990450e+000	 1.820792740596911e+001
0	 5.333553781553803e-001	 1.866659999993466e+000	 2.099820433690675e+001
0	 5.333553781553800e-001	 1.933329999996683e+000	 2.395341669204280e+001
0	 5.333553781553803e-001	 2.000000000000000e+000	 2.705960203445685e+001
0	 6.000263254118247e-001	 1.333299999983334e+000	 5.658758791268257e+000
0	 6.000263254118247e-001	 1.399969999982150e+000	 7.056510009276580e+000
0	 6.000263254118249e-001	 1.466639999981866e+000	 8.639333170072773e+000
0	 6.000263254118246e-001	 1.533309999982383e+000	 1.039581353002478e+001
0	 6.000263254118247e-001	 1.599979999983600e+000	 1.231453634550175e+001
0	 6.000263254118249e-001	 1.666649999985417e+000	 1.438408687287399e+001
0	 6.000263254118248e-001	 1.733319999987733e+000	 1.659305036851303e+001
0	 6.000263254118246e-001	 1.799989999990450e+000	 1.893001208879154e+001
0	 6.000263254118247e-001	 1.866659999993466e+000	 2.138355729008342e+001
0	 6.000263254118247e-001	 1.933329999996683e+000	 2.394227122876377e+001
0	 6.000263254118247e-001	 2.000000000000000e+000	 2.659473916120881e+001
0	 6.666972226472175e-001	 1.333299999983334e+000	 6.763360297219680e+000
0	 6.666972226472177e-001	 1.399969999982150e+000	 8.282752076880035e+000
0	 6.666972226472177e-001	 1.466639999981867e+000	 9.912598864378650e+000
0	 6.666972226472178e-001	 1.533309999982383e+000	 1.164394606861148e+001
0	 6.666972226472177e-001	 1.599979999983600e+000	 1.346783909847521e+001
0	 6.666972226472177e-001	 1.666649999985416e+000	 1.537532336286724e+001
0	 6.666972226472177e-001	 1.733319999987733e+000	 1.735744427068567e+001
0	 6.666972226472177e-001	 1.799989999990450e+000	 1.940524723082934e+001
0	 6.666972226472178e-001	 1.866659999993466e+000	 2.150977765219778e+001
0	 6.666972226472175e-001	 1.933329999996683e+000	 2.366208094369131e+001
0	 6.666972226472177e-001	 2.000000000000000e+000	 2.585320251421090e+001
0	 0.000000000000000e+000	 2.000000000000000e+000	 1.061458130418357e+001
0	 0.000000000000000e+000	 2.066670000003316e+000	 1.310380673264129e+001
0	 0.000000000000000e+000	 2.133340000006534e+000	 1.758607000517825e+001
0	 0.000000000000000e+000	 2.200010000009550e+000	 2.399338819799605e+001
0	 0.000000000000000e+000	 2.266680000012268e+000	 3.225777838731462e+001
0	 0.000000000000000e+000	 2.333350000014584e+000	 4.231125764937225e+001
0	 0.000000000000000e+000	 2.400020000016401e+000	 5.408584306042557e+001
0	 0.000000000000000e+000	 2.466690000017617e+000	 6.751355169674959e+001
0	 0.000000000000000e+000	 2.533360000018134e+000	 8.252640063463757e+001
0	 0.000000000000000e+000	 2.600030000017850e+000	 9.905640695040144e+001
0	 0.000000000000000e+000	 2.666700000016666e+000	 1.170355877203710e+002
0	 6.666714722864756e-002	 2.000000000000000e+000	 1.542416487932853e+001
0	 6.666714722864756e-002	 2.066670000003317e+000	 1.879009173154514e+001
0	 6.666714722864754e-002	 2.133340000006534e+000	 2.357291627597176e+001
0	 6.666714722864757e-002	 2.200010000009551e+000	 2.971406570218677e+001
0	 6.666714722864756e-002	 2.266680000012268e+000	 3.715496719978174e+001
0	 6.666714722864756e-002	 2.333350000014584e+000	 4.583704795836142e+001
0	 6.666714722864756e-002	 2.400020000016402e+000	 5.570173516754378e+001
0	 6.666714722864757e-002	 2.466690000017617e+000	 6.669045601696006e+001
0	 6.666714722864754e-002	 2.533360000018134e+000	 7.874463769625453e+001
0	 6.666714722864757e-002	 2.600030000017850e+000	 9.180570739508491e+001
0	 6.666714722864756e-002	 2.666700000016667e+000	 1.058150923031220e+002
0	 1.333351778131789e-001	 2.000000000000000e+000	 1.927685955905095e+001
0	 1.333351778131789e-001	 2.066670000003317e+000	 2.321062700433932e+001
0	 1.333351778131789e-001	 2.133340000006535e+000	 2.808999006724390e+001
0	 1.333351778131789e-001	 2.200010000009550e+000	 3.386524823549350e+001
0	 1.333351778131790e-001	 2.266680000012268e+000	 4.048670099682602e+001
0	 1.333351778131790e-001	 2.333350000014585e+000	 4.790464783898835e+001
0	 1.333351778131790e-001	 2.400020000016402e+000	 5.606938824973627e+001
0	 1.333351778131789e-001	 2.466690000017618e+000	 6.493122171683471e+001
0	 1.333351778131790e-001	 2.533360000018134e+000	 7.444044772805745e+001
0	 1.333351778131790e-001	 2.600030000017851e+000	 8.454736577118753e+001
0	 1.333351778131789e-001	 2.666700000016666e+000	 9.520227533401652e+001
0	 2.000039750814773e-001	 2.000000000000000e+000	 2.225768488104424e+001
0	 2.000039750814773e-001	 2.066670000003318e+000	 2.648955604580575e+001
0	 2.000039750814773e-001	 2.133340000006534e+000	 3.129007313108297e+001
0	 2.000039750814773e-001	 2.200010000009550e+000	 3.661787017407519e+001
0	 2.000039750814773e-001	 2.266680000012268e+000	 4.243158121198740e+001
0	 2.000039750814773e-001	 2.333350000014585e+000	 4.868984028203013e+001
0	 2.000039750814772e-001	 2.400020000016401e+000	 5.535128142141960e+001
0	 2.000039750814773e-001	 2.466690000017618e+000	 6.237453866737769e+001
0	 2.000039750814772e-001	 2.533360000018133e+000	 6.971824605713178e+001
0	 2.000039750814772e-001	 2.600030000017851e+000	 7.734103762791507e+001
0	 2.000039750814772e-001	 2.666700000016666e+000	 8.520154741696619e+001
0	 2.666734223614255e-001	 2.000000000000000e+000	 2.445166248472334e+001
0	 2.666734223614255e-001	 2.066670000003317e+000	 2.875102474566623e+001
0	 2.666734223614256e-001	 2.133340000006534e+000	 3.332594991766477e+001
0	 2.666734223614256e-001	 2.200010000009550e+000	 3.814286889960540e+001
0	 2.666734223614256e-001	 2.266680000012267e+000	 4.316821259037769e+001
0	 2.666734223614256e-001	 2.333350000014583e+000	 4.836841188887408e+001
0	 2.666734223614256e-001	 2.400020000016402e+000	 5.370989769399012e+001
0	 2.666734223614255e-001	 2.466690000017618e+000	 5.915910090462429e+001
0	 2.666734223614255e-001	 2.533360000018133e+000	 6.468245241967813e+001
0	 2.666734223614255e-001	 2.600030000017850e+000	 7.024638313805617e+001
0	 2.666734223614256e-001	 2.666700000016667e+000	 7.581732395866592e+001
0	 3.333434029809069e-001	 2.000000000000000e+000	 2.594381611065444e+001
0	 3.333434029809069e-001	 2.066670000003317e+000	 3.011918138794036e+001
0	 3.333434029809069e-001	 2.133340000006534e+000	 3.435040757453719e+001
0	 3.333434029809069e-001	 2.200010000009550e+000	 3.861118479848399e+001
0	 3.333434029809069e-001	 2.266680000012267e+000	 4.287520318782095e+001
0	 3.333434029809069e-001	 2.333350000014584e+000	 4.711615287058919e+001
0	 3.333434029809068e-001	 2.400020000016401e+000	 5.130772397483089e+001
0	 3.333434029809068e-001	 2.466690000017617e+000	 5.542360662858927e+001
0	 3.333434029809069e-001	 2.533360000018134e+000	 5.943749095990861e+001
0	 3.333434029809070e-001	 2.600030000017851e+000	 6.332306709683420e+001
0	 3.333434029809069e-001	 2.666700000016666e+000	 6.705402516741236e+001
0	 4.000138002678044e-001	 2.000000000000000e+000	 2.681917160003974e+001
0	 4.000138002678045e-001	 2.066670000003317e+000	 3.071817665036631e+001
0	 4.000138002678044e-001	 2.133340000006534e+000	 3.451623594597609e+001
0	 4.000138002678044e-001	 2.200010000009551e+000	 3.819376126112804e+001
0	 4.000138002678043e-001	 2.266680000012267e+000	 4.173116437008078e+001
0	 4.000138002678044e-001	 2.333350000014584e+000	 4.510885704709256e+001
0	 4.000138002678044e-001	 2.400020000016401e+000	 4.830725106642117e+001
0	 4.000138002678044e-001	 2.466690000017617e+000	 5.130675820232408e+001
0	 4.000138002678044e-001	 2.533360000018134e+000	 5.408779022905839e+001
0	 4.000138002678045e-001	 2.600030000017851e+000	 5.663075892088084e+001
0	 4.000138002678044e-001	 2.666700000016665e+000	 5.891607605204767e+001
0	 4.666844975500011e-001	 2.000000000000000e+000	 2.716275689425742e+001
0	 4.666844975500009e-001	 2.066670000003316e+000	 3.067216360388444e+001
0	 4.666844975500012e-001	 2.133340000006534e+000	 3.397622757241167e+001
0	 4.666844975500011e-001	 2.200010000009550e+000	 3.706154468134139e+001
0	 4.666844975500011e-001	 2.266680000012267e+000	 3.991471081217453e+001
0	 4.666844975500012e-001	 2.333350000014585e+000	 4.252232184641066e+001
0	 4.666844975500011e-001	 2.400020000016400e+000	 4.487097366554811e+001
0	 4.666844975500012e-001	 2.466690000017617e+000	 4.694726215108376e+001
0	 4.666844975500011e-001	 2.533360000018134e+000	 4.873778318451329e+001
0	 4.666844975500012e-001	 2.600030000017851e+000	 5.022913264733096e+001
0	 4.666844975500012e-001	 2.666700000016666e+000	 5.140790642102968e+001
0	 5.333553781553803e-001	 2.000000000000000e+000	 2.705960203445685e+001
0	 5.333553781553804e-001	 2.066670000003317e+000	 3.010529771218379e+001
0	 5.333553781553803e-001	 2.133340000006534e+000	 3.288317768992587e+001
0	 5.333553781553804e-001	 2.200010000009550e+000	 3.538548445576326e+001
0	 5.333553781553801e-001	 2.266680000012267e+000	 3.760446049777426e+001
0	 5.333553781553804e-001	 2.333350000014584e+000	 3.953234830403522e+001
0	 5.333553781553804e-001	 2.400020000016401e+000	 4.116139036262060e+001
0	 5.333553781553801e-001	 2.466690000017616e+000	 4.248382916160289e+001
0	 5.333553781553803e-001	 2.533360000018133e+000	 4.349190718905275e+001
0	 5.333553781553803e-001	 2.600030000017851e+000	 4.417786693303889e+001
0	 5.333553781553803e-001	 2.666700000016666e+000	 4.453395088162812e+001
0	 6.000263254118247e-001	 2.000000000000000e+000	 2.659473916120881e+001
0	 6.000263254118248e-001	 2.066670000003317e+000	 2.914173683131130e+001
0	 6.000263254118247e-001	 2.133340000006534e+000	 3.138988422982028e+001
0	 6.000263254118247e-001	 2.200010000009550e+000	 3.333653298339562e+001
0	 6.000263254118247e-001	 2.266680000012267e+000	 3.497903471869499e+001
0	 6.000263254118246e-001	 2.333350000014584e+000	 3.631474106237388e+001
0	 6.000263254118247e-001	 2.400020000016400e+000	 3.734100364108553e+001
0	 6.000263254118248e-001	 2.466690000017617e+000	 3.805517408148094e+001
0	 6.000263254118247e-001	 2.533360000018134e+000	 3.845460401020890e+001
0	 6.000263254118247e-001	 2.600030000017850e+000	 3.853664505391603e+001
0	 6.000263254118247e-001	 2.666700000016666e+000	 3.829864883924668e+001
0	 6.666972226472177e-001	 2.000000000000000e+000	 2.585320251421090e+001
0	 6.666972226472177e-001	 2.066670000003317e+000	 2.790564120934404e+001
0	 6.666972226472178e-001	 2.133340000006534e+000	 2.964914781825513e+001
0	 6.666972226472177e-001	 2.200010000009550e+000	 3.108564566520927e+001
0	 6.666972226472177e-001	 2.266680000012268e+000	 3.221705807446926e+001
0	 6.666972226472175e-001	 2.333350000014584e+000	 3.304530837029551e+001
0	 6.666972226472175e-001	 2.400020000016400e+000	 3.357231987694609e+001
0	 6.666972226472178e-001	 2.466690000017616e+000	 3.380001591867674e+001
0	 6.666972226472178e-001	 2.533360000018134e+000	 3.373031981974083e+001
0	 6.666972226472177e-001	 2.600030000017850e+000	 3.336515490438939e+001
0	 6.666972226472177e-001	 2.666700000016667e+000	 3.270644449687114e+001
0	 0.000000000000000e+000	 2.666700000016666e+000	 1.170355877203710e+002
0	 0.000000000000000e+000	 2.733360000014533e+000	 1.337909558425855e+002
0	 0.000000000000000e+000	 2.800020000011600e+000	 1.467270327659502e+002
0	 0.000000000000000e+000	 2.866680000008067e+000	 1.558836923152956e+002
0	 0.000000000000000e+000	 2.933340000004133e+000	 1.613008083155097e+002
0	 0.000000000000000e+000	 3.000000000000000e+000	 1.630182545915382e+002
0	 0.000000000000000e+000	 3.066659999995867e+000	 1.610759049683841e+002
0	 0.000000000000000e+000	 3.133319999991933e+000	 1.555136332711084e+002
0	 0.000000000000000e+000	 3.199979999988401e+000	 1.463713133248295e+002
0	 0.000000000000000e+000	 3.266639999985467e+000	 1.336888189547235e+002
0	 0.000000000000000e+000	 3.333299999983334e+000	 1.175060239860241e+002
0	 6.666714722864756e-002	 2.666700000016667e+000	 1.058150923031220e+002
0	 6.666714722864754e-002	 2.733360000014533e+000	 1.187386247156265e+002
0	 6.666714722864756e-002	 2.800020000011599e+000	 1.286100057278797e+002
0	 6.666714722864754e-002	 2.866680000008067e+000	 1.354659572468420e+002
0	 6.666714722864758e-002	 2.933340000004133e+000	 1.393432011795190e+002
0	 6.666714722864757e-002	 3.000000000000000e+000	 1.402784594329614e+002
0	 6.666714722864757e-002	 3.066659999995867e+000	 1.383084539142652e+002
0	 6.666714722864756e-002	 3.133319999991933e+000	 1.334699065305716e+002
0	 6.666714722864756e-002	 3.199979999988400e+000	 1.257995391890669e+002
0	 6.666714722864756e-002	 3.266639999985467e+000	 1.153340737969827e+002
0	 6.666714722864756e-002	 3.333299999983333e+000	 1.021102322615958e+002
0	 1.333351778131789e-001	 2.666700000016666e+000	 9.520227533401652e+001
0	 1.333351778131790e-001	 2.733360000014533e+000	 1.049022257356755e+002
0	 1.333351778131789e-001	 2.800020000011600e+000	 1.122030064778932e+002
0	 1.333351778131789e-001	 2.866680000008067e+000	 1.171381170155885e+002
0	 1.333351778131789e-001	 2.933340000004134e+000	 1.197410568037152e+002
0	 1.333351778131789e-001	 3.000000000000000e+000	 1.200453252972615e+002
0	 1.333351778131789e-001	 3.066659999995868e+000	 1.180844219512507e+002
0	 1.333351778131790e-001	 3.133319999991934e+000	 1.138918462207406e+002
0	 1.333351778131790e-001	 3.199979999988401e+000	 1.075010975608240e+002
0	 1.333351778131789e-001	 3.266639999985468e+000	 9.894567542662821e+001
0	 1.333351778131789e-001	 3.333299999983334e+000	 8.825907927331549e+001
0	 2.000039750814772e-001	 2.666700000016666e+000	 8.520154741696619e+001
0	 2.000039750814772e-001	 2.733360000014533e+000	 9.223082867199886e+001
0	 2.000039750814773e-001	 2.800020000011600e+000	 9.741003914008526e+001
0	 2.000039750814773e-001	 2.866680000008066e+000	 1.007693852756325e+002
0	 2.000039750814773e-001	 2.933340000004133e+000	 1.023390735330736e+002
0	 2.000039750814773e-001	 3.000000000000000e+000	 1.021493103668682e+002
0	 2.000039750814772e-001	 3.066659999995867e+000	 1.002303022315016e+002
0	 2.000039750814772e-001	 3.133319999991933e+000	 9.661225558148541e+001
0	 2.000039750814772e-001	 3.199979999988401e+000	 9.132537687135729e+001
0	 2.000039750814772e-001	 3.266639999985467e+000	 8.439987255568097e+001
0	 2.000039750814772e-001	 3.333299999983334e+000	 7.586594908904658e+001
0	 2.666734223614256e-001	 2.666700000016667e+000	 7.581732395866592e+001
0	 2.666734223614256e-001	 2.733360000014533e+000	 8.067350823573236e+001
0	 2.666734223614255e-001	 2.800020000011599e+000	 8.413511287786184e+001
0	 2.666734223614255e-001	 2.866680000008067e+000	 8.622898077544060e+001
0	 2.666734223614256e-001	 2.933340000004134e+000	 8.698195481887386e+001
0	 2.666734223614255e-001	 2.999999999999999e+000	 8.642087789858597e+001
0	 2.666734223614254e-001	 3.066659999995866e+000	 8.457259290502044e+001
0	 2.666734223614255e-001	 3.133319999991933e+000	 8.146394272863985e+001
0	 2.666734223614256e-001	 3.199979999988401e+000	 7.712177025992575e+001
0	 2.666734223614255e-001	 3.266639999985467e+000	 7.157291838937891e+001
0	 2.666734223614255e-001	 3.333299999983333e+000	 6.484423000751933e+001
0	 3.333434029809069e-001	 2.666700000016666e+000	 6.705402516741238e+001
0	 3.333434029809069e-001	 2.733360000014533e+000	 7.017934407867529e+001
0	 3.333434029809069e-001	 2.800020000011600e+000	 7.228224189272189e+001
0	 3.333434029809069e-001	 2.866680000008067e+000	 7.338612735662905e+001
0	 3.333434029809069e-001	 2.933340000004133e+000	 7.351440921748724e+001
0	 3.333434029809070e-001	 3.000000000000000e+000	 7.269049622240034e+001
0	 3.333434029809069e-001	 3.066659999995867e+000	 7.093779711848580e+001
0	 3.333434029809069e-001	 3.133319999991934e+000	 6.827972065287463e+001
0	 3.333434029809069e-001	 3.199979999988400e+000	 6.473967557271115e+001
0	 3.333434029809069e-001	 3.266639999985467e+000	 6.034107062515335e+001
0	 3.333434029809069e-001	 3.333299999983334e+000	 5.510731455737261e+001
0	 4.000138002678044e-001	 2.666700000016665e+000	 5.891607605204768e+001
0	 4.000138002678044e-001	 2.733360000014533e+000	 6.069742079221498e+001
0	 4.000138002678044e-001	 2.800020000011600e+000	 6.175544542317142e+001
0	 4.000138002678043e-001	 2.866680000008066e+000	 6.211005395287663e+001
0	 4.000138002678044e-001	 2.933340000004134e+000	 6.178115038929938e+001
0	 4.000138002678044e-001	 3.000000000000000e+000	 6.078863874041750e+001
0	 4.000138002678043e-001	 3.066659999995866e+000	 5.915242301421814e+001
0	 4.000138002678044e-001	 3.133319999991934e+000	 5.689240721869746e+001
0	 4.000138002678044e-001	 3.199979999988400e+000	 5.402849536186078e+001
0	 4.000138002678044e-001	 3.266639999985467e+000	 5.058059145172262e+001
0	 4.000138002678044e-001	 3.333299999983334e+000	 4.656859949630663e+001
0	 4.666844975500012e-001	 2.666700000016666e+000	 5.140790642102968e+001
0	 4.666844975500011e-001	 2.733360000014533e+000	 5.217682790638056e+001
0	 4.666844975500012e-001	 2.800020000011600e+000	 5.245874774377017e+001
0	 4.666844975500011e-001	 2.866680000008067e+000	 5.226999458897219e+001
0	 4.666844975500011e-001	 2.933340000004133e+000	 5.162689709776604e+001
0	 4.666844975500010e-001	 3.000000000000000e+000	 5.054578392593707e+001
0	 4.666844975500011e-001	 3.066659999995867e+000	 4.904298372927649e+001
0	 4.666844975500011e-001	 3.133319999991933e+000	 4.713482516358126e+001
0	 4.666844975500012e-001	 3.199979999988400e+000	 4.483763688465436e+001
0	 4.666844975500011e-001	 3.266639999985468e+000	 4.216774754830446e+001
0	 4.666844975500011e-001	 3.333299999983334e+000	 3.914148581034618e+001
0	 5.333553781553803e-001	 2.666700000016666e+000	 4.453395088162812e+001
0	 5.333553781553801e-001	 2.733360000014532e+000	 4.456665988902684e+001
0	 5.333553781553803e-001	 2.800020000011600e+000	 4.429617816431014e+001
0	 5.333553781553803e-001	 2.866680000008067e+000	 4.373518837999536e+001
0	 5.333553781553801e-001	 2.933340000004133e+000	 4.289637320860313e+001
0	 5.333553781553803e-001	 3.000000000000000e+000	 4.179241532265766e+001
0	 5.333553781553803e-001	 3.066659999995867e+000	 4.043599739468642e+001
0	 5.333553781553801e-001	 3.133319999991934e+000	 3.883980209722049e+001
0	 5.333553781553801e-001	 3.199979999988401e+000	 3.701651210279429e+001
0	 5.333553781553801e-001	 3.266639999985467e+000	 3.497881008394568e+001
0	 5.333553781553803e-001	 3.333299999983335e+000	 3.273937871321591e+001
0	 6.000263254118247e-001	 2.666700000016666e+000	 3.829864883924668e+001
0	 6.000263254118247e-001	 2.733360000014532e+000	 3.781601614514739e+001
0	 6.000263254118247e-001	 2.800020000011599e+000	 3.717177102912640e+001
0	 6.000263254118247e-001	 2.866680000008067e+000	 3.637487953063111e+001
0	 6.000263254118248e-001	 2.933340000004133e+000	 3.543430768911068e+001
0	 6.000263254118248e-001	 3.000000000000000e+000	 3.435902154401594e+001
0	 6.000263254118246e-001	 3.066659999995866e+000	 3.315798713479939e+001
0	 6.000263254118249e-001	 3.133319999991934e+000	 3.184017050091532e+001
0	 6.000263254118247e-001	 3.199979999988401e+000	 3.041453768181965e+001
0	 6.000263254118248e-001	 3.266639999985468e+000	 2.889005471696997e+001
0	 6.000263254118246e-001	 3.333299999983333e+000	 2.727568764582569e+001
0	 6.666972226472177e-001	 2.666700000016667e+000	 3.270644449687114e+001
0	 6.666972226472175e-001	 2.733360000014533e+000	 3.187400101631764e+001
0	 6.666972226472178e-001	 2.800020000011599e+000	 3.098956571654015e+001
0	 6.666972226472177e-001	 2.866680000008067e+000	 3.005831733461795e+001
0	 6.666972226472178e-001	 2.933340000004133e+000	 2.908543460763076e+001
0	 6.666972226472175e-001	 3.000000000000000e+000	 2.807609627265878e+001
0	 6.666972226472178e-001	 3.066659999995867e+000	 2.703548106678270e+001
0	 6.666972226472175e-001	 3.133319999991933e+000	 2.596876772708365e+001
0	 6.666972226472178e-001	 3.199979999988400e+000	 2.488113499064329e+001
0	 6.666972226472177e-001	 3.266639999985467e+000	 2.377776159454368e+001
0	 6.666972226472175e-001	 3.333299999983334e+000	 2.266382627586739e+001
0	 0.000000000000000e+000	 3.333299999983334e+000	 1.175060239860241e+002
0	 0.000000000000000e+000	 3.399969999982150e+000	 1.001920345637012e+002
0	 0.000000000000000e+000	 3.466639999981866e+000	 8.414652990123526e+001
0	 0.000000000000000e+000	 3.533309999982383e+000	 6.944717877591759e+001
0	 0.000000000000000e+000	 3.599979999983600e+000	 5.617164996505202e+001
0	 0.000000000000000e+000	 3.666649999985416e+000	 4.439761224595593e+001
0	 0.000000000000000e+000	 3.733319999987733e+000	 3.420273439595937e+001
0	 0.000000000000000e+000	 3.799989999990449e+000	 2.566468519240554e+001
0	 0.000000000000000e+000	 3.866659999993467e+000	 1.886113341265088e+001
0	 0.000000000000000e+000	 3.933329999996684e+000	 1.386974783406463e+001
0	 0.000000000000000e+000	 4.000000000000000e+000	 1.076819723402925e+001
0	 6.666714722864756e-002	 3.333299999983333e+000	 1.021102322615958e+002
0	 6.666714722864756e-002	 3.399969999982149e+000	 8.798097266562385e+001
0	 6.666714722864754e-002	 3.466639999981866e+000	 7.482273795962261e+001
0	 6.666714722864756e-002	 3.533309999982382e+000	 6.270091084097981e+001
0	 6.666714722864754e-002	 3.599979999983600e+000	 5.168087400709261e+001
0	 6.666714722864756e-002	 3.666649999985416e+000	 4.182801015536875e+001
0	 6.666714722864756e-002	 3.733319999987732e+000	 3.320770198322569e+001
0	 6.666714722864754e-002	 3.799989999990449e+000	 2.588533218809093e+001
0	 6.666714722864756e-002	 3.866659999993467e+000	 1.992628346740233e+001
0	 6.666714722864756e-002	 3.933329999996683e+000	 1.539593851860741e+001
0	 6.666714722864757e-002	 4.000000000000001e+000	 1.235968003916403e+001
0	 1.333351778131789e-001	 3.333299999983334e+000	 8.825907927331551e+001
0	 1.333351778131789e-001	 3.399969999982150e+000	 7.686180922361680e+001
0	 1.333351778131789e-001	 3.466639999981866e+000	 6.619161015726644e+001
0	 1.333351778131789e-001	 3.533309999982381e+000	 5.630256467906015e+001
0	 1.333351778131789e-001	 3.599979999983600e+000	 4.724875539380082e+001
0	 1.333351778131790e-001	 3.666649999985417e+000	 3.908426490629930e+001
0	 1.333351778131790e-001	 3.733319999987733e+000	 3.186317582137362e+001
0	 1.333351778131789e-001	 3.799989999990449e+000	 2.563957074384952e+001
0	 1.333351778131789e-001	 3.866659999993466e+000	 2.046753227856047e+001
0	 1.333351778131789e-001	 3.933329999996684e+000	 1.640114303034719e+001
0	 1.333351778131789e-001	 4.000000000000000e+000	 1.349448560405820e+001
0	 2.000039750814772e-001	 3.333299999983334e+000	 7.586594908904658e+001
0	 2.000039750814772e-001	 3.399969999982150e+000	 6.678739547300695e+001
0	 2.000039750814773e-001	 3.466639999981866e+000	 5.823984070756658e+001
0	 2.000039750814772e-001	 3.533309999982382e+000	 5.026705319631094e+001
0	 2.000039750814772e-001	 3.599979999983600e+000	 4.291280134283087e+001
0	 2.000039750814773e-001	 3.666649999985417e+000	 3.622085355072291e+001
0	 2.000039750814773e-001	 3.733319999987733e+000	 3.023497822358901e+001
0	 2.000039750814773e-001	 3.799989999990450e+000	 2.499894376503661e+001
0	 2.000039750814772e-001	 3.866659999993467e+000	 2.055651857867888e+001
0	 2.000039750814773e-001	 3.933329999996684e+000	 1.695147106813429e+001
0	 2.000039750814773e-001	 4.000000000000000e+000	 1.422756963702698e+001
0	 2.666734223614255e-001	 3.333299999983333e+000	 6.484423000751932e+001
0	 2.666734223614255e-001	 3.399969999982149e+000	 5.771058657113269e+001
0	 2.666734223614256e-001	 3.466639999981866e+000	 5.095412739911622e+001
0	 2.666734223614256e-001	 3.533309999982383e+000	 4.460929249965331e+001
0	 2.666734223614256e-001	 3.599979999983600e+000	 3.871052188093110e+001
0	 2.666734223614256e-001	 3.666649999985417e+000	 3.329225555114078e+001
0	 2.666734223614255e-001	 3.733319999987733e+000	 2.838893351847737e+001
0	 2.666734223614256e-001	 3.799989999990450e+000	 2.403499579113980e+001
0	 2.666734223614256e-001	 3.866659999993466e+000	 2.026488237733102e+001
0	 2.666734223614255e-001	 3.933329999996683e+000	 1.711303328525774e+001
0	 2.666734223614255e-001	 4.000000000000001e+000	 1.461388852313071e+001
0	 3.333434029809069e-001	 3.333299999983334e+000	 5.510731455737262e+001
0	 3.333434029809069e-001	 3.399969999982149e+000	 4.958424159645954e+001
0	 3.333434029809069e-001	 3.466639999981867e+000	 4.432117159489834e+001
0	 3.333434029809069e-001	 3.533309999982384e+000	 3.934420189605893e+001
0	 3.333434029809068e-001	 3.599979999983599e+000	 3.467942984331371e+001
0	 3.333434029809069e-001	 3.666649999985416e+000	 3.035295278003780e+001
0	 3.333434029809069e-001	 3.733319999987733e+000	 2.639086804960896e+001
0	 3.333434029809068e-001	 3.799989999990450e+000	 2.281927299540761e+001
0	 3.333434029809069e-001	 3.866659999993467e+000	 1.966426496081682e+001
0	 3.333434029809069e-001	 3.933329999996685e+000	 1.695194128922233e+001
0	 3.333434029809069e-001	 4.000000000000000e+000	 1.470839932401261e+001
0	 4.000138002678044e-001	 3.333299999983334e+000	 4.656859949630663e+001
0	 4.000138002678045e-001	 3.399969999982150e+000	 4.236122354779851e+001
0	 4.000138002678044e-001	 3.466639999981866e+000	 3.832767823157548e+001
0	 4.000138002678043e-001	 3.533309999982383e+000	 3.448670389191547e+001
0	 4.000138002678045e-001	 3.599979999983599e+000	 3.085704087309785e+001
0	 4.000138002678043e-001	 3.666649999985415e+000	 2.745742951940397e+001
0	 4.000138002678043e-001	 3.733319999987732e+000	 2.430661017511676e+001
0	 4.000138002678043e-001	 3.799989999990449e+000	 2.142332318452087e+001
0	 4.000138002678043e-001	 3.866659999993466e+000	 1.882630889190275e+001
0	 4.000138002678043e-001	 3.933329999996683e+000	 1.653430764155047e+001
0	 4.000138002678044e-001	 4.000000000000000e+000	 1.456605977775393e+001
0	 4.666844975500011e-001	 3.333299999983334e+000	 3.914148581034618e+001
0	 4.666844975500011e-001	 3.399969999982150e+000	 3.599439934362768e+001
0	 4.666844975500011e-001	 3.466639999981867e+000	 3.296035581887384e+001
0	 4.666844975500012e-001	 3.533309999982384e+000	 3.005172419247605e+001
0	 4.666844975500011e-001	 3.599979999983599e+000	 2.728087342082657e+001
0	 4.666844975500012e-001	 3.666649999985417e+000	 2.466017246031883e+001
0	 4.666844975500011e-001	 3.733319999987733e+000	 2.220199026734727e+001
0	 4.666844975500011e-001	 3.799989999990451e+000	 1.991869579830726e+001
0	 4.666844975500011e-001	 3.866659999993466e+000	 1.782265800959538e+001
0	 4.666844975500010e-001	 3.933329999996683e+000	 1.592624585760915e+001
0	 4.666844975500010e-001	 3.999999999999999e+000	 1.424182829874715e+001
0	 5.333553781553803e-001	 3.333299999983335e+000	 3.273937871321591e+001
0	 5.333553781553803e-001	 3.399969999982150e+000	 3.043663982151644e+001
0	 5.333553781553801e-001	 3.466639999981867e+000	 2.820591643906082e+001
0	 5.333553781553803e-001	 3.533309999982383e+000	 2.605419170139299e+001
0	 5.333553781553800e-001	 3.599979999983599e+000	 2.398844874405750e+001
0	 5.333553781553803e-001	 3.666649999985416e+000	 2.201567070259936e+001
0	 5.333553781553801e-001	 3.733319999987733e+000	 2.014284071256428e+001
0	 5.333553781553803e-001	 3.799989999990450e+000	 1.837694190949842e+001
0	 5.333553781553803e-001	 3.866659999993466e+000	 1.672495742894859e+001
0	 5.333553781553803e-001	 3.933329999996683e+000	 1.519387040646208e+001
0	 5.333553781553803e-001	 4.000000000000000e+000	 1.379066397758691e+001
0	 6.000263254118246e-001	 3.333299999983333e+000	 2.727568764582568e+001
0	 6.000263254118247e-001	 3.399969999982150e+000	 2.564081973765277e+001
0	 6.000263254118248e-001	 3.466639999981867e+000	 2.405107574651660e+001
0	 6.000263254118246e-001	 3.533309999982382e+000	 2.250903852033529e+001
0	 6.000263254118248e-001	 3.599979999983600e+000	 2.101729090702726e+001
0	 6.000263254118247e-001	 3.666649999985416e+000	 1.957841575451107e+001
0	 6.000263254118249e-001	 3.733319999987733e+000	 1.819499591070567e+001
0	 6.000263254118247e-001	 3.799989999990450e+000	 1.686961422353019e+001
0	 6.000263254118247e-001	 3.866659999993467e+000	 1.560485354090398e+001
0	 6.000263254118247e-001	 3.933329999996683e+000	 1.440329671074679e+001
0	 6.000263254118247e-001	 4.000000000000000e+000	 1.326752658097849e+001
0	 6.666972226472175e-001	 3.333299999983334e+000	 2.266382627586739e+001
0	 6.666972226472177e-001	 3.399969999982150e+000	 2.155981776647329e+001
0	 6.666972226472177e-001	 3.466639999981867e+000	 2.048255296739935e+001
0	 6.666972226472177e-001	 3.533309999982382e+000	 1.943119994868994e+001
0	 6.666972226472177e-001	 3.599979999983599e+000	 1.840492678038937e+001
0	 6.666972226472175e-001	 3.666649999985416e+000	 1.740290153254215e+001
0	 6.666972226472175e-001	 3.733319999987733e+000	 1.642429227519265e+001
0	 6.666972226472175e-001	 3.799989999990450e+000	 1.546826707838551e+001
0	 6.666972226472177e-001	 3.866659999993467e+000	 1.453399401216528e+001
0	 6.666972226472175e-001	 3.933329999996683e+000	 1.362064114657661e+001
0	 6.666972226472175e-001	 4.000000000000001e+000	 1.272737655166429e+001
0	 0.000000000000000e+000	 4.000000000000000e+000	 1.076819723402925e+001
0	 0.000000000000000e+000	 4.066670000003317e+000	 8.890236487389382e+000
0	 0.000000000000000e+000	 4.133340000006535e+000	 7.483393049160983e+000
0	 0.000000000000000e+000	 4.200010000009550e+000	 6.495994566993271e+000
0	 0.000000000000000e+000	 4.266680000012268e+000	 5.876368688535485e+000
0	 0.000000000000000e+000	 4.333350000014584e+000	 5.572843061436903e+000
0	 0.000000000000000e+000	 4.400020000016401e+000	 5.533745333346878e+000
0	 0.000000000000000e+000	 4.466690000017617e+000	 5.707403151914786e+000
0	 0.000000000000000e+000	 4.533360000018134e+000	 6.042144164790074e+000
0	 0.000000000000000e+000	 4.600030000017850e+000	 6.486296019622235e+000
0	 0.000000000000000e+000	 4.666700000016666e+000	 6.988186364060792e+000
0	 6.666714722864757e-002	 4.000000000000001e+000	 1.235968003916403e+001
0	 6.666714722864756e-002	 4.066670000003317e+000	 1.033278139104792e+001
0	 6.666714722864757e-002	 4.133340000006534e+000	 8.757521578484667e+000
0	 6.666714722864756e-002	 4.200010000009550e+000	 7.589791762314610e+000
0	 6.666714722864756e-002	 4.266680000012267e+000	 6.785483103378510e+000
0	 6.666714722864757e-002	 4.333350000014583e+000	 6.300486762517630e+000
0	 6.666714722864754e-002	 4.400020000016402e+000	 6.090693900573704e+000
0	 6.666714722864756e-002	 4.466690000017618e+000	 6.111995678388920e+000
0	 6.666714722864754e-002	 4.533360000018135e+000	 6.320283256805972e+000
0	 6.666714722864756e-002	 4.600030000017849e+000	 6.671447796668018e+000
0	 6.666714722864756e-002	 4.666700000016666e+000	 7.121380458818647e+000
0	 1.333351778131789e-001	 4.000000000000000e+000	 1.349448560405820e+001
0	 1.333351778131789e-001	 4.066670000003315e+000	 1.141014237416916e+001
0	 1.333351778131789e-001	 4.133340000006534e+000	 9.749910414376677e+000
0	 1.333351778131789e-001	 4.200010000009550e+000	 8.476694378366842e+000
0	 1.333351778131790e-001	 4.266680000012268e+000	 7.553398919826451e+000
0	 1.333351778131789e-001	 4.333350000014582e+000	 6.942928692443144e+000
0	 1.333351778131790e-001	 4.400020000016403e+000	 6.608188349905289e+000
0	 1.333351778131789e-001	 4.466690000017618e+000	 6.512082545902091e+000
0	 1.333351778131790e-001	 4.533360000018134e+000	 6.617515934123490e+000
0	 1.333351778131789e-001	 4.600030000017852e+000	 6.887393168260237e+000
0	 1.333351778131790e-001	 4.666700000016667e+000	 7.284618902003841e+000
0	 2.000039750814773e-001	 4.000000000000000e+000	 1.422756963702698e+001
0	 2.000039750814773e-001	 4.066670000003317e+000	 1.216408897263206e+001
0	 2.000039750814772e-001	 4.133340000006534e+000	 1.049070361542318e+001
0	 2.000039750814772e-001	 4.200010000009551e+000	 9.176781748827192e+000
0	 2.000039750814773e-001	 4.266680000012268e+000	 8.191691556271824e+000
0	 2.000039750814773e-001	 4.333350000014583e+000	 7.504801221185880e+000
0	 2.000039750814772e-001	 4.400020000016401e+000	 7.085478926999096e+000
0	 2.000039750814773e-001	 4.466690000017619e+000	 6.903092857142244e+000
0	 2.000039750814773e-001	 4.533360000018134e+000	 6.927011195047077e+000
0	 2.000039750814772e-001	 4.600030000017852e+000	 7.126602124146308e+000
0	 2.000039750814772e-001	 4.666700000016667e+000	 7.471233827873675e+000
0	 2.666734223614255e-001	 4.000000000000001e+000	 1.461388852313071e+001
0	 2.666734223614255e-001	 4.066670000003317e+000	 1.263639117392209e+001
0	 2.666734223614256e-001	 4.133340000006534e+000	 1.101004551614478e+001
0	 2.666734223614255e-001	 4.200010000009550e+000	 9.710133351324496e+000
0	 2.666734223614255e-001	 4.266680000012268e+000	 8.711936480988028e+000
0	 2.666734223614255e-001	 4.333350000014584e+000	 7.990736706663281e+000
0	 2.666734223614256e-001	 4.400020000016402e+000	 7.521815829879264e+000
0	 2.666734223614256e-001	 4.466690000017617e+000	 7.280455652166114e+000
0	 2.666734223614256e-001	 4.533360000018133e+000	 7.241937975055053e+000
0	 2.666734223614256e-001	 4.600030000017850e+000	 7.381544600078446e+000
0	 2.666734223614255e-001	 4.666700000016667e+000	 7.674557328769763e+000
0	 3.333434029809069e-001	 4.000000000000000e+000	 1.470839932401261e+001
0	 3.333434029809069e-001	 4.066670000003318e+000	 1.286881941701831e+001
0	 3.333434029809069e-001	 4.133340000006533e+000	 1.133808072692252e+001
0	 3.333434029809069e-001	 4.200010000009550e+000	 1.009682880739505e+001
0	 3.333434029809069e-001	 4.266680000012268e+000	 9.125709212106846e+000
0	 3.333434029809069e-001	 4.333350000014583e+000	 8.405367494730051e+000
0	 3.333434029809069e-001	 4.400020000016400e+000	 7.916449208937948e+000
0	 3.333434029809069e-001	 4.466690000017617e+000	 7.639599908404993e+000
0	 3.333434029809069e-001	 4.533360000018134e+000	 7.555465146806772e+000
0	 3.333434029809070e-001	 4.600030000017851e+000	 7.644690477820077e+000
0	 3.333434029809069e-001	 4.666700000016667e+000	 7.887921455122826e+000
0	 4.000138002678044e-001	 4.000000000000000e+000	 1.456605977775393e+001
0	 4.000138002678044e-001	 4.066670000003318e+000	 1.290314459229238e+001
0	 4.000138002678045e-001	 4.133340000006535e+000	 1.150495413393136e+001
0	 4.000138002678043e-001	 4.200010000009550e+000	 1.035694788244212e+001
0	 4.000138002678043e-001	 4.266680000012268e+000	 9.444585317597113e+000
0	 4.000138002678044e-001	 4.333350000014584e+000	 8.753325919169891e+000
0	 4.000138002678044e-001	 4.400020000016402e+000	 8.268629166935199e+000
0	 4.000138002678044e-001	 4.466690000017617e+000	 7.975954540668915e+000
0	 4.000138002678044e-001	 4.533360000018134e+000	 7.860761520148053e+000
0	 4.000138002678044e-001	 4.600030000017851e+000	 7.908509585150813e+000
0	 4.000138002678044e-001	 4.666700000016665e+000	 8.104658215456524e+000
0	 4.666844975500010e-001	 3.999999999999999e+000	 1.424182829874715e+001
0	 4.666844975500010e-001	 4.066670000003317e+000	 1.278113804141928e+001
0	 4.666844975500011e-001	 4.133340000006535e+000	 1.154081089908064e+001
0	 4.666844975500011e-001	 4.200010000009551e+000	 1.051057048569940e+001
0	 4.666844975500011e-001	 4.266680000012267e+000	 9.680140415244775e+000
0	 4.666844975500011e-001	 4.333350000014584e+000	 9.039244301687068e+000
0	 4.666844975500011e-001	 4.400020000016402e+000	 8.577605758997683e+000
0	 4.666844975500012e-001	 4.466690000017619e+000	 8.284948401149144e+000
0	 4.666844975500011e-001	 4.533360000018135e+000	 8.150995842115039e+000
0	 4.666844975500011e-001	 4.600030000017849e+000	 8.165471695870076e+000
0	 4.666844975500011e-001	 4.666700000016666e+000	 8.318099576390038e+000
0	 5.333553781553803e-001	 4.000000000000000e+000	 1.379066397758691e+001
0	 5.333553781553803e-001	 4.066670000003318e+000	 1.254457155729991e+001
0	 5.333553781553804e-001	 4.133340000006535e+000	 1.147579645996195e+001
0	 5.333553781553803e-001	 4.200010000009550e+000	 1.057777667019805e+001
0	 5.333553781553801e-001	 4.266680000012268e+000	 9.843950172634253e+000
0	 5.333553781553803e-001	 4.333350000014583e+000	 9.267754951897617e+000
0	 5.333553781553803e-001	 4.400020000016401e+000	 8.842628992616204e+000
0	 5.333553781553804e-001	 4.466690000017618e+000	 8.562010279419109e+000
0	 5.333553781553804e-001	 4.533360000018134e+000	 8.419336796936412e+000
0	 5.333553781553804e-001	 4.600030000017851e+000	 8.408046529799204e+000
0	 5.333553781553803e-001	 4.666700000016666e+000	 8.521577462639618e+000
0	 6.000263254118247e-001	 4.000000000000000e+000	 1.326752658097849e+001
0	 6.000263254118247e-001	 4.066670000003318e+000	 1.223521738399581e+001
0	 6.000263254118248e-001	 4.133340000006535e+000	 1.134005652980419e+001
0	 6.000263254118246e-001	 4.200010000009550e+000	 1.057864663273764e+001
0	 6.000263254118247e-001	 4.266680000012267e+000	 9.947590307131048e+000
0	 6.000263254118248e-001	 4.333350000014584e+000	 9.443490167320205e+000
0	 6.000263254118246e-001	 4.400020000016401e+000	 9.062948827641822e+000
0	 6.000263254118247e-001	 4.466690000017618e+000	 8.802568902433533e+000
0	 6.000263254118248e-001	 4.533360000018133e+000	 8.658953006033864e+000
0	 6.000263254118247e-001	 4.600030000017850e+000	 8.628703752782256e+000
0	 6.000263254118248e-001	 4.666700000016667e+000	 8.708423757019068e+000
0	 6.666972226472175e-001	 4.000000000000001e+000	 1.272737655166429e+001
0	 6.666972226472178e-001	 4.066670000003317e+000	 1.189484821667523e+001
0	 6.666972226472177e-001	 4.133340000006535e+000	 1.116373709743587e+001
0	 6.666972226472177e-001	 4.200010000009550e+000	 1.053326071386091e+001
0	 6.666972226472177e-001	 4.266680000012267e+000	 1.000263658586576e+001
0	 6.666972226472175e-001	 4.333350000014583e+000	 9.571082233366742e+000
0	 6.666972226472175e-001	 4.400020000016400e+000	 9.237815176280892e+000
0	 6.666972226472175e-001	 4.466690000017618e+000	 9.002052934526105e+000
0	 6.666972226472177e-001	 4.533360000018134e+000	 8.863013028021085e+000
0	 6.666972226472177e-001	 4.600030000017851e+000	 8.819912976685295e+000
0	 6.666972226472178e-001	 4.666700000016666e+000	 8.871970300439051e+000
0	 0.000000000000000e+000	 4.666700000016666e+000	 6.988186364060794e+000
0	 0.000000000000000e+000	 4.733360000014534e+000	 7.475087292840651e+000
0	 0.000000000000000e+000	 4.800020000011600e+000	 7.908889782022093e+000
0	 0.000000000000000e+000	 4.866680000008066e+000	 8.289618721835172e+000
0	 0.000000000000000e+000	 4.933340000004134e+000	 8.617299002510933e+000
0	 0.000000000000000e+000	 5.000000000000000e+000	 8.891955514281388e+000
0	 0.000000000000000e+000	 5.066659999995866e+000	 9.113613147379482e+000
0	 0.000000000000000e+000	 5.133319999991934e+000	 9.282296792039160e+000
0	 0.000000000000000e+000	 5.199979999988400e+000	 9.398031338495349e+000
0	 0.000000000000000e+000	 5.266639999985467e+000	 9.460841676983893e+000
0	 0.000000000000000e+000	 5.333299999983334e+000	 9.470752697741624e+000
0	 6.666714722864756e-002	 4.666700000016666e+000	 7.121380458818647e+000
0	 6.666714722864754e-002	 4.733360000014533e+000	 7.581193278201495e+000
0	 6.666714722864757e-002	 4.800020000011601e+000	 7.991451941124391e+000
0	 6.666714722864756e-002	 4.866680000008067e+000	 8.352010020181988e+000
0	 6.666714722864756e-002	 4.933340000004133e+000	 8.662721087969882e+000
0	 6.666714722864756e-002	 5.000000000000001e+000	 8.923438717084560e+000
0	 6.666714722864757e-002	 5.066659999995869e+000	 9.134016480123487e+000
0	 6.666714722864756e-002	 5.133319999991934e+000	 9.294307949685019e+000
0	 6.666714722864756e-002	 5.199979999988400e+000	 9.404166698368460e+000
0	 6.666714722864756e-002	 5.266639999985467e+000	 9.463446298774002e+000
0	 6.666714722864757e-002	 5.333299999983336e+000	 9.472000323502817e+000
0	 1.333351778131790e-001	 4.666700000016667e+000	 7.284618902003841e+000
0	 1.333351778131790e-001	 4.733360000014534e+000	 7.710546488273419e+000
0	 1.333351778131789e-001	 4.800020000011599e+000	 8.091199097786172e+000
0	 1.333351778131790e-001	 4.866680000008067e+000	 8.426284280332990e+000
0	 1.333351778131789e-001	 4.933340000004133e+000	 8.715509585705597e+000
0	 1.333351778131789e-001	 5.000000000000001e+000	 8.958582563696609e+000
0	 1.333351778131789e-001	 5.066659999995866e+000	 9.155210764099500e+000
0	 1.333351778131789e-001	 5.133319999991935e+000	 9.305101736708602e+000
0	 1.333351778131790e-001	 5.199979999988402e+000	 9.407963031319140e+000
0	 1.333351778131789e-001	 5.266639999985468e+000	 9.463502197727209e+000
0	 1.333351778131789e-001	 5.333299999983333e+000	 9.471426785729754e+000
0	 2.000039750814772e-001	 4.666700000016667e+000	 7.471233827873676e+000
0	 2.000039750814772e-001	 4.733360000014534e+000	 7.858029111464520e+000
0	 2.000039750814772e-001	 4.800020000011601e+000	 8.204378614281286e+000
0	 2.000039750814773e-001	 4.866680000008068e+000	 8.509869156436961e+000
0	 2.000039750814772e-001	 4.933340000004133e+000	 8.774087558045334e+000
0	 2.000039750814773e-001	 4.999999999999999e+000	 8.996620639220973e+000
0	 2.000039750814772e-001	 5.066659999995867e+000	 9.177055220079291e+000
0	 2.000039750814772e-001	 5.133319999991935e+000	 9.314978120736443e+000
0	 2.000039750814773e-001	 5.199979999988400e+000	 9.409976161309427e+000
0	 2.000039750814772e-001	 5.266639999985467e+000	 9.461636161916013e+000
0	 2.000039750814772e-001	 5.333299999983335e+000	 9.469544942674801e+000
0	 2.666734223614255e-001	 4.666700000016667e+000	 7.674557328769764e+000
0	 2.666734223614256e-001	 4.733360000014533e+000	 8.018523304823873e+000
0	 2.666734223614255e-001	 4.800020000011599e+000	 8.327237829818849e+000
0	 2.666734223614255e-001	 4.866680000008066e+000	 8.600192285875686e+000
0	 2.666734223614256e-001	 4.933340000004134e+000	 8.836878055116065e+000
0	 2.666734223614256e-001	 5.000000000000000e+000	 9.036786519662382e+000
0	 2.666734223614255e-001	 5.066659999995866e+000	 9.199409061637782e+000
0	 2.666734223614255e-001	 5.133319999991935e+000	 9.324237063166105e+000
0	 2.666734223614256e-001	 5.199979999988402e+000	 9.410761906371899e+000
0	 2.666734223614254e-001	 5.266639999985468e+000	 9.458474973380460e+000
0	 2.666734223614254e-001	 5.333299999983333e+000	 9.466867646317789e+000
0	 3.333434029809069e-001	 4.666700000016667e+000	 7.887921455122827e+000
0	 3.333434029809069e-001	 4.733360000014533e+000	 8.186911194044816e+000
0	 3.333434029809068e-001	 4.800020000011599e+000	 8.456024060545554e+000
0	 3.333434029809069e-001	 4.866680000008066e+000	 8.694681289265448e+000
0	 3.333434029809069e-001	 4.933340000004134e+000	 8.902304114845524e+000
0	 3.333434029809070e-001	 5.000000000000000e+000	 9.078313771927432e+000
0	 3.333434029809069e-001	 5.066659999995866e+000	 9.222131495153457e+000
0	 3.333434029809069e-001	 5.133319999991934e+000	 9.333178519166520e+000
0	 3.333434029809069e-001	 5.199979999988400e+000	 9.410876078610155e+000
0	 3.333434029809069e-001	 5.266639999985467e+000	 9.454645408128547e+000
0	 3.333434029809069e-001	 5.333299999983335e+000	 9.463907742366487e+000
0	 4.000138002678044e-001	 4.666700000016665e+000	 8.104658215456523e+000
0	 4.000138002678044e-001	 4.733360000014533e+000	 8.358074873467643e+000
0	 4.000138002678044e-001	 4.800020000011599e+000	 8.586984599547385e+000
0	 4.000138002678045e-001	 4.866680000008067e+000	 8.790763770458122e+000
0	 4.000138002678044e-001	 4.933340000004134e+000	 8.968788762962838e+000
0	 4.000138002678044e-001	 5.000000000000000e+000	 9.120435953824988e+000
0	 4.000138002678044e-001	 5.066659999995868e+000	 9.245081719808594e+000
0	 4.000138002678045e-001	 5.133319999991935e+000	 9.342102437678241e+000
0	 4.000138002678044e-001	 5.199979999988400e+000	 9.410874484199008e+000
0	 4.000138002678044e-001	 5.266639999985467e+000	 9.450774236136539e+000
0	 4.000138002678044e-001	 5.333299999983333e+000	 9.461178070257001e+000
0	 4.666844975500011e-001	 4.666700000016666e+000	 8.318099576390040e+000
0	 4.666844975500011e-001	 4.733360000014533e+000	 8.526896406081423e+000
0	 4.666844975500011e-001	 4.800020000011597e+000	 8.716366716850789e+000
0	 4.666844975500012e-001	 4.866680000008068e+000	 8.885867316541875e+000
0	 4.666844975500011e-001	 4.933340000004134e+000	 9.034755012998840e+000
0	 4.666844975500011e-001	 5.000000000000000e+000	 9.162386614066307e+000
0	 4.666844975500011e-001	 5.066659999995867e+000	 9.268118927589335e+000
0	 4.666844975500012e-001	 5.133319999991935e+000	 9.351308761413439e+000
0	 4.666844975500011e-001	 5.199979999988399e+000	 9.411312923384575e+000
0	 4.666844975500012e-001	 5.266639999985468e+000	 9.447488221349143e+000
0	 4.666844975500012e-001	 5.333299999983334e+000	 9.459191463153969e+000
0	 5.333553781553803e-001	 4.666700000016666e+000	 8.521577462639618e+000
0	 5.333553781553800e-001	 4.733360000014533e+000	 8.688257823524847e+000
0	 5.333553781553804e-001	 4.800020000011601e+000	 8.840417659423215e+000
0	 5.333553781553803e-001	 4.866680000008067e+000	 8.977419497841323e+000
0	 5.333553781553803e-001	 4.933340000004133e+000	 9.098625866286142e+000
0	 5.333553781553803e-001	 5.000000000000000e+000	 9.203399292264988e+000
0	 5.333553781553804e-001	 5.066659999995867e+000	 9.291102303285522e+000
0	 5.333553781553805e-001	 5.133319999991935e+000	 9.361097426855796e+000
0	 5.333553781553803e-001	 5.199979999988401e+000	 9.412747190484170e+000
0	 5.333553781553801e-001	 5.266639999985467e+000	 9.445414121679420e+000
0	 5.333553781553803e-001	 5.333299999983334e+000	 9.458460747950607e+000
0	 6.000263254118248e-001	 4.666700000016667e+000	 8.708423757019068e+000
0	 6.000263254118247e-001	 4.733360000014531e+000	 8.837041126086488e+000
0	 6.000263254118247e-001	 4.800020000011600e+000	 8.955384651172990e+000
0	 6.000263254118248e-001	 4.866680000008066e+000	 9.062847867917387e+000
0	 6.000263254118248e-001	 4.933340000004134e+000	 9.158824311958792e+000
0	 6.000263254118247e-001	 5.000000000000000e+000	 9.242707518936582e+000
0	 6.000263254118246e-001	 5.066659999995867e+000	 9.313891024490411e+000
0	 6.000263254118247e-001	 5.133319999991935e+000	 9.371768364260191e+000
0	 6.000263254118247e-001	 5.199979999988401e+000	 9.415733073886120e+000
0	 6.000263254118247e-001	 5.266639999985467e+000	 9.445178689008666e+000
0	 6.000263254118248e-001	 5.333299999983335e+000	 9.459498745268581e+000
0	 6.666972226472178e-001	 4.666700000016666e+000	 8.871970300439052e+000
0	 6.666972226472177e-001	 4.733360000014533e+000	 8.968128282704075e+000
0	 6.666972226472177e-001	 4.800020000011600e+000	 9.057514892948673e+000
0	 6.666972226472178e-001	 4.866680000008067e+000	 9.139579963566554e+000
0	 6.666972226472175e-001	 4.933340000004133e+000	 9.213773326951653e+000
0	 6.666972226472174e-001	 4.999999999999999e+000	 9.279544815498058e+000
0	 6.666972226472178e-001	 5.066659999995868e+000	 9.336344261600107e+000
0	 6.666972226472177e-001	 5.133319999991935e+000	 9.383621497652285e+000
0	 6.666972226472178e-001	 5.199979999988400e+000	 9.420826356049309e+000
0	 6.666972226472177e-001	 5.266639999985468e+000	 9.447408669186077e+000
0	 6.666972226472175e-001	 5.333299999983334e+000	 9.462818269457705e+000
0	 0.000000000000000e+000	 5.333299999983334e+000	 9.470752697741624e+000
0	 0.000000000000000e+000	 5.399969999982149e+000	 9.456694811222677e+000
0	 0.000000000000000e+000	 5.466639999981866e+000	 9.447515407889830e+000
0	 0.000000000000000e+000	 5.533309999982383e+000	 9.443107408596173e+000
0	 0.000000000000000e+000	 5.599979999983600e+000	 9.443363734194788e+000
0	 0.000000000000000e+000	 5.666649999985417e+000	 9.448177305538847e+000
0	 0.000000000000000e+000	 5.733319999987733e+000	 9.457441043481488e+000
0	 0.000000000000000e+000	 5.799989999990450e+000	 9.471047868875980e+000
0	 0.000000000000000e+000	 5.866659999993467e+000	 9.488890702575523e+000
0	 0.000000000000000e+000	 5.933329999996683e+000	 9.510862465433444e+000
0	 0.000000000000000e+000	 6.000000000000000e+000	 9.536856078303035e+000
0	 6.666714722864757e-002	 5.333299999983336e+000	 9.472000323502817e+000
0	 6.666714722864756e-002	 5.399969999982148e+000	 9.457582259793520e+000
0	 6.666714722864756e-002	 5.466639999981866e+000	 9.447996460036428e+000
0	 6.666714722864756e-002	 5.533309999982381e+000	 9.443165207894944e+000
0	 6.666714722864753e-002	 5.599979999983598e+000	 9.443010787032458e+000
0	 6.666714722864757e-002	 5.666649999985415e+000	 9.447455481112419e+000
0	 6.666714722864756e-002	 5.733319999987733e+000	 9.456421573798275e+000
0	 6.666714722864757e-002	 5.799989999990449e+000	 9.469831348753578e+000
0	 6.666714722864756e-002	 5.866659999993468e+000	 9.487607089641873e+000
0	 6.666714722864757e-002	 5.933329999996683e+000	 9.509671080126747e+000
0	 6.666714722864756e-002	 6.000000000000000e+000	 9.535945603871840e+000
0	 1.333351778131789e-001	 5.333299999983333e+000	 9.471426785729754e+000
0	 1.333351778131789e-001	 5.399969999982151e+000	 9.457772411772270e+000
0	 1.333351778131789e-001	 5.466639999981865e+000	 9.448741219961462e+000
0	 1.333351778131789e-001	 5.533309999982383e+000	 9.444283359784562e+000
0	 1.333351778131790e-001	 5.599979999983600e+000	 9.444348980728829e+000
0	 1.333351778131790e-001	 5.666649999985418e+000	 9.448888232281561e+000
0	 1.333351778131789e-001	 5.733319999987733e+000	 9.457851263930099e+000
0	 1.333351778131789e-001	 5.799989999990448e+000	 9.471188225161816e+000
0	 1.333351778131789e-001	 5.866659999993466e+000	 9.488849265464138e+000
0	 1.333351778131789e-001	 5.933329999996686e+000	 9.510784534324509e+000
0	 1.333351778131789e-001	 6.000000000000000e+000	 9.536944181230417e+000
0	 2.000039750814772e-001	 5.333299999983335e+000	 9.469544942674803e+000
0	 2.000039750814772e-001	 5.399969999982151e+000	 9.457585363678616e+000
0	 2.000039750814772e-001	 5.466639999981867e+000	 9.449904315748423e+000
0	 2.000039750814772e-001	 5.533309999982384e+000	 9.446478317410731e+000
0	 2.000039750814772e-001	 5.599979999983600e+000	 9.447283887192105e+000
0	 2.000039750814772e-001	 5.666649999985415e+000	 9.452297543619137e+000
0	 2.000039750814772e-001	 5.733319999987732e+000	 9.461495805218462e+000
0	 2.000039750814773e-001	 5.799989999990449e+000	 9.474855190516747e+000
0	 2.000039750814772e-001	 5.866659999993465e+000	 9.492352218040695e+000
0	 2.000039750814773e-001	 5.933329999996684e+000	 9.513963406317037e+000
0	 2.000039750814772e-001	 5.999999999999999e+000	 9.539665273872563e+000
0	 2.666734223614254e-001	 5.333299999983333e+000	 9.466867646317789e+000
0	 2.666734223614254e-001	 5.399969999982147e+000	 9.457341205601304e+000
0	 2.666734223614255e-001	 5.466639999981866e+000	 9.451640369004460e+000
0	 2.666734223614256e-001	 5.533309999982383e+000	 9.449766527494694e+000
0	 2.666734223614255e-001	 5.599979999983599e+000	 9.451721072039389e+000
0	 2.666734223614255e-001	 5.666649999985415e+000	 9.457505393606034e+000
0	 2.666734223614255e-001	 5.733319999987732e+000	 9.467120883162144e+000
0	 2.666734223614255e-001	 5.799989999990449e+000	 9.480568931675235e+000
0	 2.666734223614255e-001	 5.866659999993464e+000	 9.497850930112863e+000
0	 2.666734223614255e-001	 5.933329999996683e+000	 9.518968269442652e+000
0	 2.666734223614256e-001	 6.000000000000001e+000	 9.543922340632218e+000
0	 3.333434029809069e-001	 5.333299999983335e+000	 9.463907742366487e+000
0	 3.333434029809069e-001	 5.399969999982149e+000	 9.457360021198717e+000
0	 3.333434029809069e-001	 5.466639999981866e+000	 9.454103994861075e+000
0	 3.333434029809068e-001	 5.533309999982383e+000	 9.454164430333826e+000
0	 3.333434029809069e-001	 5.599979999983598e+000	 9.457566094597285e+000
0	 3.333434029809069e-001	 5.666649999985415e+000	 9.464333754631790e+000
0	 3.333434029809070e-001	 5.733319999987733e+000	 9.474492177417707e+000
0	 3.333434029809068e-001	 5.799989999990449e+000	 9.488066129935429e+000
0	 3.333434029809068e-001	 5.866659999993468e+000	 9.505080379165388e+000
0	 3.333434029809068e-001	 5.933329999996682e+000	 9.525559692088056e+000
0	 3.333434029809069e-001	 6.000000000000000e+000	 9.549528835683908e+000
0	 4.000138002678044e-001	 5.333299999983333e+000	 9.461178070257001e+000
0	 4.000138002678045e-001	 5.399969999982150e+000	 9.457961887699355e+000
0	 4.000138002678044e-001	 5.466639999981865e+000	 9.457449801974461e+000
0	 4.000138002678043e-001	 5.533309999982383e+000	 9.459688459802152e+000
0	 4.000138002678045e-001	 5.599979999983599e+000	 9.464724507902337e+000
0	 4.000138002678043e-001	 5.666649999985415e+000	 9.472604592994923e+000
0	 4.000138002678043e-001	 5.733319999987731e+000	 9.483375361799862e+000
0	 4.000138002678044e-001	 5.799989999990450e+000	 9.497083461037116e+000
0	 4.000138002678043e-001	 5.866659999993467e+000	 9.513775537426705e+000
0	 4.000138002678044e-001	 5.933329999996684e+000	 9.533498237688626e+000
0	 4.000138002678044e-001	 6.000000000000001e+000	 9.556298208542927e+000
0	 4.666844975500012e-001	 5.333299999983334e+000	 9.459191463153966e+000
0	 4.666844975500011e-001	 5.399969999982149e+000	 9.459466875902056e+000
0	 4.666844975500011e-001	 5.466639999981864e+000	 9.461832392525862e+000
0	 4.666844975500012e-001	 5.533309999982383e+000	 9.466355043350553e+000
0	 4.666844975500011e-001	 5.599979999983600e+000	 9.473101858701297e+000
0	 4.666844975500012e-001	 5.666649999985417e+000	 9.482139868903301e+000
0	 4.666844975500012e-001	 5.733319999987733e+000	 9.493536104281763e+000
0	 4.666844975500011e-001	 5.799989999990449e+000	 9.507357595161947e+000
0	 4.666844975500012e-001	 5.866659999993467e+000	 9.523671371869099e+000
0	 4.666844975500012e-001	 5.933329999996683e+000	 9.542544464728511e+000
0	 4.666844975500011e-001	 5.999999999999999e+000	 9.564043904065468e+000
0	 5.333553781553803e-001	 5.333299999983334e+000	 9.458460747950607e+000
0	 5.333553781553804e-001	 5.399969999982151e+000	 9.462195050176010e+000
0	 5.333553781553801e-001	 5.466639999981866e+000	 9.467406362221636e+000
0	 5.333553781553801e-001	 5.533309999982382e+000	 9.474180602006912e+000
0	 5.333553781553801e-001	 5.599979999983598e+000	 9.482603687451261e+000
0	 5.333553781553803e-001	 5.666649999985417e+000	 9.492761536474148e+000
0	 5.333553781553803e-001	 5.733319999987733e+000	 9.504740066995026e+000
0	 5.333553781553803e-001	 5.799989999990449e+000	 9.518625196933398e+000
0	 5.333553781553801e-001	 5.866659999993465e+000	 9.534502844208776e+000
0	 5.333553781553804e-001	 5.933329999996683e+000	 9.552458926740673e+000
0	 5.333553781553801e-001	 5.999999999999998e+000	 9.572579362448625e+000
0	 6.000263254118248e-001	 5.333299999983335e+000	 9.459498745268579e+000
0	 6.000263254118247e-001	 5.399969999982149e+000	 9.466466468460805e+000
0	 6.000263254118247e-001	 5.466639999981865e+000	 9.474326300293225e+000
0	 6.000263254118246e-001	 5.533309999982383e+000	 9.483181550376068e+000
0	 6.000263254118247e-001	 5.599979999983601e+000	 9.493135528319577e+000
0	 6.000263254118247e-001	 5.666649999985416e+000	 9.504291543734025e+000
0	 6.000263254118248e-001	 5.733319999987733e+000	 9.516752906229666e+000
0	 6.000263254118248e-001	 5.799989999990451e+000	 9.530622925416807e+000
0	 6.000263254118247e-001	 5.866659999993466e+000	 9.546004910905735e+000
0	 6.000263254118246e-001	 5.933329999996682e+000	 9.563002172306748e+000
0	 6.000263254118248e-001	 6.000000000000001e+000	 9.581718019230189e+000
0	 6.666972226472175e-001	 5.333299999983334e+000	 9.462818269457703e+000
0	 6.666972226472177e-001	 5.399969999982150e+000	 9.472601182266052e+000
0	 6.666972226472175e-001	 5.466639999981865e+000	 9.482746789496860e+000
0	 6.666972226472177e-001	 5.533309999982382e+000	 9.493374296639562e+000
0	 6.666972226472177e-001	 5.599979999983599e+000	 9.504602909183648e+000
0	 6.666972226472174e-001	 5.666649999985414e+000	 9.516551832618598e+000
0	 6.666972226472177e-001	 5.733319999987732e+000	 9.529340272433888e+000
0	 6.666972226472177e-001	 5.799989999990449e+000	 9.543087434119013e+000
0	 6.666972226472178e-001	 5.866659999993467e+000	 9.557912523163481e+000
0	 6.666972226472177e-001	 5.933329999996684e+000	 9.573934745056800e+000
0	 6.666972226472177e-001	 6.000000000000000e+000	 9.591273305288503e+000
0	 0.000000000000000e+000	 6.000000000000000e+000	 9.536856078303035e+000
0	 0.000000000000000e+000	 6.066670000003317e+000	 9.563639570236871e+000
0	 0.000000000000000e+000	 6.133340000006534e+000	 9.588094041182766e+000
0	 0.000000000000000e+000	 6.200010000009551e+000	 9.610282018337029e+000
0	 0.000000000000000e+000	 6.266680000012268e+000	 9.630266028895953e+000
0	 0.000000000000000e+000	 6.333350000014584e+000	 9.648108600055846e+000
0	 0.000000000000000e+000	 6.400020000016401e+000	 9.663872259012916e+000
0	 0.000000000000000e+000	 6.466690000017618e+000	 9.677619532963435e+000
0	 0.000000000000000e+000	 6.533360000018134e+000	 9.689412949103611e+000
0	 0.000000000000000e+000	 6.600030000017850e+000	 9.699315034629626e+000
0	 0.000000000000000e+000	 6.666700000016666e+000	 9.707388316737685e+000
0	 6.666714722864756e-002	 6.000000000000000e+000	 9.535945603871840e+000
0	 6.666714722864754e-002	 6.066670000003317e+000	 9.563112335927137e+000
0	 6.666714722864756e-002	 6.133340000006531e+000	 9.587938357870620e+000
0	 6.666714722864756e-002	 6.200010000009550e+000	 9.610474063157875e+000
0	 6.666714722864756e-002	 6.266680000012269e+000	 9.630769845244528e+000
0	 6.666714722864756e-002	 6.333350000014582e+000	 9.648876097586149e+000
0	 6.666714722864754e-002	 6.400020000016401e+000	 9.664843213638267e+000
0	 6.666714722864757e-002	 6.466690000017620e+000	 9.678721586856451e+000
0	 6.666714722864756e-002	 6.533360000018132e+000	 9.690561610696177e+000
0	 6.666714722864756e-002	 6.600030000017848e+000	 9.700413678612959e+000
0	 6.666714722864757e-002	 6.666700000016668e+000	 9.708328184062269e+000
0	 1.333351778131789e-001	 6.000000000000000e+000	 9.536944181230417e+000
0	 1.333351778131789e-001	 6.066670000003318e+000	 9.564040795494146e+000
0	 1.333351778131790e-001	 6.133340000006535e+000	 9.588845851873014e+000
0	 1.333351778131789e-001	 6.200010000009550e+000	 9.611397828022152e+000
0	 1.333351778131789e-001	 6.266680000012267e+000	 9.631735201596642e+000
0	 1.333351778131790e-001	 6.333350000014583e+000	 9.649896450251529e+000
0	 1.333351778131789e-001	 6.400020000016401e+000	 9.665920051641878e+000
0	 1.333351778131789e-001	 6.466690000017617e+000	 9.679844483422727e+000
0	 1.333351778131790e-001	 6.533360000018136e+000	 9.691708223249060e+000
0	 1.333351778131790e-001	 6.600030000017853e+000	 9.701549748775900e+000
0	 1.333351778131789e-001	 6.666700000016666e+000	 9.709407537658152e+000
0	 2.000039750814772e-001	 5.999999999999999e+000	 9.539665273872563e+000
0	 2.000039750814773e-001	 6.066670000003318e+000	 9.566300603524690e+000
0	 2.000039750814772e-001	 6.133340000006531e+000	 9.590745685555778e+000
0	 2.000039750814773e-001	 6.200010000009552e+000	 9.613027299689961e+000
0	 2.000039750814772e-001	 6.266680000012267e+000	 9.633172225651370e+000
0	 2.000039750814773e-001	 6.333350000014584e+000	 9.651207243164116e+000
0	 2.000039750814772e-001	 6.400020000016400e+000	 9.667159131952282e+000
0	 2.000039750814773e-001	 6.466690000017618e+000	 9.681054671739945e+000
0	 2.000039750814772e-001	 6.533360000018134e+000	 9.692920642251144e+000
0	 2.000039750814773e-001	 6.600030000017851e+000	 9.702783823209902e+000
0	 2.000039750814772e-001	 6.666700000016666e+000	 9.710670994340243e+000
0	 2.666734223614256e-001	 6.000000000000001e+000	 9.543922340632218e+000
0	 2.666734223614255e-001	 6.066670000003315e+000	 9.569767410212400e+000
0	 2.666734223614256e-001	 6.133340000006533e+000	 9.593567017131864e+000
0	 2.666734223614254e-001	 6.200010000009550e+000	 9.615336460984983e+000
0	 2.666734223614255e-001	 6.266680000012266e+000	 9.635091041366108e+000
0	 2.666734223614256e-001	 6.333350000014583e+000	 9.652846057869585e+000
0	 2.666734223614255e-001	 6.400020000016399e+000	 9.668616810089713e+000
0	 2.666734223614255e-001	 6.466690000017617e+000	 9.682418597620819e+000
0	 2.666734223614256e-001	 6.533360000018133e+000	 9.694266720057136e+000
0	 2.666734223614255e-001	 6.600030000017849e+000	 9.704176476992965e+000
0	 2.666734223614256e-001	 6.666700000016667e+000	 9.712163168022528e+000
0	 3.333434029809069e-001	 6.000000000000000e+000	 9.549528835683908e+000
0	 3.333434029809069e-001	 6.066670000003317e+000	 9.574316861358058e+000
0	 3.333434029809069e-001	 6.133340000006532e+000	 9.597239000661775e+000
0	 3.333434029809069e-001	 6.200010000009552e+000	 9.618299290794777e+000
0	 3.333434029809070e-001	 6.266680000012269e+000	 9.637501768956749e+000
0	 3.333434029809069e-001	 6.333350000014584e+000	 9.654850472347397e+000
0	 3.333434029809069e-001	 6.400020000016399e+000	 9.670349438166374e+000
0	 3.333434029809069e-001	 6.466690000017618e+000	 9.684002703613340e+000
0	 3.333434029809069e-001	 6.533360000018135e+000	 9.695814305887916e+000
0	 3.333434029809070e-001	 6.600030000017851e+000	 9.705788282189712e+000
0	 3.333434029809068e-001	 6.666700000016665e+000	 9.713928669718312e+000
0	 4.000138002678044e-001	 6.000000000000001e+000	 9.556298208542927e+000
0	 4.000138002678044e-001	 6.066670000003316e+000	 9.579824598369804e+000
0	 4.000138002678044e-001	 6.133340000006533e+000	 9.601690786053656e+000
0	 4.000138002678045e-001	 6.200010000009552e+000	 9.621889764070888e+000
0	 4.000138002678044e-001	 6.266680000012268e+000	 9.640414524897892e+000
0	 4.000138002678044e-001	 6.333350000014584e+000	 9.657258061011023e+000
0	 4.000138002678044e-001	 6.400020000016401e+000	 9.672413364886639e+000
0	 4.000138002678044e-001	 6.466690000017616e+000	 9.685873429001084e+000
0	 4.000138002678043e-001	 6.533360000018133e+000	 9.697631245830676e+000
0	 4.000138002678044e-001	 6.600030000017851e+000	 9.707679807851703e+000
0	 4.000138002678044e-001	 6.666700000016665e+000	 9.716012107540465e+000
0	 4.666844975500011e-001	 5.999999999999999e+000	 9.564043904065468e+000
0	 4.666844975500010e-001	 6.066670000003315e+000	 9.586166258263237e+000
0	 4.666844975500012e-001	 6.133340000006535e+000	 9.606851519063451e+000
0	 4.666844975500011e-001	 6.200010000009551e+000	 9.626081851829026e+000
0	 4.666844975500011e-001	 6.266680000012268e+000	 9.643839421922898e+000
0	 4.666844975500012e-001	 6.333350000014587e+000	 9.660106394707960e+000
0	 4.666844975500011e-001	 6.400020000016400e+000	 9.674864935547083e+000
0	 4.666844975500011e-001	 6.466690000017615e+000	 9.688097209803155e+000
0	 4.666844975500011e-001	 6.533360000018134e+000	 9.699785382839016e+000
0	 4.666844975500012e-001	 6.600030000017849e+000	 9.709911620017509e+000
0	 4.666844975500011e-001	 6.666700000016666e+000	 9.718458086701453e+000
0	 5.333553781553801e-001	 5.999999999999998e+000	 9.572579362448625e+000
0	 5.333553781553803e-001	 6.066670000003319e+000	 9.593217473661399e+000
0	 5.333553781553803e-001	 6.133340000006533e+000	 9.612650341294819e+000
0	 5.333553781553804e-001	 6.200010000009550e+000	 9.630849521148967e+000
0	 5.333553781553801e-001	 6.266680000012267e+000	 9.647786569023928e+000
0	 5.333553781553804e-001	 6.333350000014582e+000	 9.663433040719765e+000
0	 5.333553781553801e-001	 6.400020000016399e+000	 9.677760492036533e+000
0	 5.333553781553804e-001	 6.466690000017618e+000	 9.690740478774268e+000
0	 5.333553781553801e-001	 6.533360000018132e+000	 9.702344556732999e+000
0	 5.333553781553801e-001	 6.600030000017849e+000	 9.712544281712734e+000
0	 5.333553781553803e-001	 6.666700000016667e+000	 9.721311209513473e+000
0	 6.000263254118248e-001	 6.000000000000001e+000	 9.581718019230189e+000
0	 6.000263254118247e-001	 6.066670000003315e+000	 9.600853872794621e+000
0	 6.000263254118248e-001	 6.133340000006534e+000	 9.619016390199047e+000
0	 6.000263254118248e-001	 6.200010000009551e+000	 9.636166735174442e+000
0	 6.000263254118248e-001	 6.266680000012269e+000	 9.652266071451770e+000
0	 6.000263254118246e-001	 6.333350000014585e+000	 9.667275562761960e+000
0	 6.000263254118247e-001	 6.400020000016399e+000	 9.681156372835968e+000
0	 6.000263254118248e-001	 6.466690000017618e+000	 9.693869665404700e+000
0	 6.000263254118247e-001	 6.533360000018133e+000	 9.705376604199079e+000
0	 6.000263254118248e-001	 6.600030000017851e+000	 9.715638352950004e+000
0	 6.000263254118246e-001	 6.666700000016665e+000	 9.724616075388351e+000
0	 6.666972226472177e-001	 6.000000000000000e+000	 9.591273305288503e+000
0	 6.666972226472178e-001	 6.066670000003318e+000	 9.608951079500280e+000
0	 6.666972226472178e-001	 6.133340000006534e+000	 9.625878799074773e+000
0	 6.666972226472177e-001	 6.200010000009551e+000	 9.642007453112917e+000
0	 6.666972226472178e-001	 6.266680000012268e+000	 9.657288030715620e+000
0	 6.666972226472175e-001	 6.333350000014583e+000	 9.671671520983781e+000
0	 6.666972226472175e-001	 6.400020000016400e+000	 9.685108913018306e+000
0	 6.666972226472177e-001	 6.466690000017618e+000	 9.697551195920065e+000
0	 6.666972226472174e-001	 6.533360000018134e+000	 9.708949358789928e+000
0	 6.666972226472178e-001	 6.600030000017851e+000	 9.719254390728771e+000
0	 6.666972226472178e-001	 6.666700000016667e+000	 9.728417280837421e+000
0	 0.000000000000000e+000	 6.666700000016666e+000	 9.707388316737685e+000
0	 0.000000000000000e+000	 6.733360000014533e+000	 9.714851438617380e+000
0	 0.000000000000000e+000	 6.800020000011600e+000	 9.722855222519087e+000
0	 0.000000000000000e+000	 6.866680000008066e+000	 9.731357233516526e+000
0	 0.000000000000000e+000	 6.933340000004133e+000	 9.740315036683370e+000
0	 0.000000000000000e+000	 7.000000000000000e+000	 9.749686197093245e+000
0	 0.000000000000000e+000	 7.066659999995865e+000	 9.759428279819867e+000
0	 0.000000000000000e+000	 7.133319999991934e+000	 9.769498849936900e+000
0	 0.000000000000000e+000	 7.199979999988400e+000	 9.779855472517964e+000
0	 0.000000000000000e+000	 7.266639999985467e+000	 9.790455712636758e+000
0	 0.000000000000000e+000	 7.333299999983335e+000	 9.801257135366921e+000
0	 6.666714722864757e-002	 6.666700000016668e+000	 9.708328184062271e+000
0	 6.666714722864754e-002	 6.733360000014533e+000	 9.715575299364684e+000
0	 6.666714722864757e-002	 6.800020000011601e+000	 9.723369483344127e+000
0	 6.666714722864756e-002	 6.866680000008067e+000	 9.731674426232802e+000
0	 6.666714722864757e-002	 6.933340000004135e+000	 9.740453818262880e+000
0	 6.666714722864757e-002	 7.000000000000002e+000	 9.749671349666549e+000
0	 6.666714722864758e-002	 7.066659999995868e+000	 9.759290710675995e+000
0	 6.666714722864756e-002	 7.133319999991934e+000	 9.769275591523394e+000
0	 6.666714722864757e-002	 7.199979999988400e+000	 9.779589682440921e+000
0	 6.666714722864754e-002	 7.266639999985467e+000	 9.790196673660757e+000
0	 6.666714722864756e-002	 7.333299999983333e+000	 9.801060255415038e+000
0	 1.333351778131789e-001	 6.666700000016666e+000	 9.709407537658152e+000
0	 1.333351778131789e-001	 6.733360000014533e+000	 9.716561882499205e+000
0	 1.333351778131789e-001	 6.800020000011598e+000	 9.724249389168914e+000
0	 1.333351778131789e-001	 6.866680000008065e+000	 9.732439909940865e+000
0	 1.333351778131789e-001	 6.933340000004130e+000	 9.741103297088651e+000
0	 1.333351778131789e-001	 7.000000000000000e+000	 9.750209402885833e+000
0	 1.333351778131789e-001	 7.066659999995866e+000	 9.759728079606013e+000
0	 1.333351778131790e-001	 7.133319999991935e+000	 9.769629179522758e+000
0	 1.333351778131790e-001	 7.199979999988401e+000	 9.779882554909639e+000
0	 1.333351778131790e-001	 7.266639999985467e+000	 9.790458058040210e+000
0	 1.333351778131789e-001	 7.333299999983334e+000	 9.801325541188035e+000
0	 2.000039750814772e-001	 6.666700000016666e+000	 9.710670994340243e+000
0	 2.000039750814772e-001	 6.733360000014534e+000	 9.717836818140095e+000
0	 2.000039750814773e-001	 6.800020000011600e+000	 9.725504210434824e+000
0	 2.000039750814773e-001	 6.866680000008068e+000	 9.733649222453296e+000
0	 2.000039750814772e-001	 6.933340000004133e+000	 9.742247905424362e+000
0	 2.000039750814773e-001	 7.000000000000001e+000	 9.751276310576873e+000
0	 2.000039750814772e-001	 7.066659999995867e+000	 9.760710489139665e+000
0	 2.000039750814772e-001	 7.133319999991936e+000	 9.770526492341563e+000
0	 2.000039750814773e-001	 7.199979999988401e+000	 9.780700371411424e+000
0	 2.000039750814773e-001	 7.266639999985467e+000	 9.791208177578055e+000
0	 2.000039750814772e-001	 7.333299999983335e+000	 9.802025962070282e+000
0	 2.666734223614256e-001	 6.666700000016667e+000	 9.712163168022528e+000
0	 2.666734223614254e-001	 6.733360000014532e+000	 9.719425733612187e+000
0	 2.666734223614255e-001	 6.800020000011598e+000	 9.727143214890296e+000
0	 2.666734223614255e-001	 6.866680000008067e+000	 9.735297898986220e+000
0	 2.666734223614256e-001	 6.933340000004135e+000	 9.743872073029294e+000
0	 2.666734223614256e-001	 6.999999999999999e+000	 9.752848024148872e+000
0	 2.666734223614256e-001	 7.066659999995866e+000	 9.762208039474270e+000
0	 2.666734223614255e-001	 7.133319999991935e+000	 9.771934406134832e+000
0	 2.666734223614256e-001	 7.199979999988401e+000	 9.782009411259892e+000
0	 2.666734223614256e-001	 7.266639999985467e+000	 9.792415341978767e+000
0	 2.666734223614256e-001	 7.333299999983333e+000	 9.803134485420779e+000
0	 3.333434029809068e-001	 6.666700000016665e+000	 9.713928669718312e+000
0	 3.333434029809069e-001	 6.733360000014531e+000	 9.721354253446334e+000
0	 3.333434029809069e-001	 6.800020000011599e+000	 9.729175667591136e+000
0	 3.333434029809070e-001	 6.866680000008065e+000	 9.737381472159576e+000
0	 3.333434029809069e-001	 6.933340000004132e+000	 9.745960227158470e+000
0	 3.333434029809070e-001	 7.000000000000001e+000	 9.754900492594658e+000
0	 3.333434029809069e-001	 7.066659999995866e+000	 9.764190828474934e+000
0	 3.333434029809069e-001	 7.133319999991934e+000	 9.773819794806142e+000
0	 3.333434029809069e-001	 7.199979999988399e+000	 9.783775951595079e+000
0	 3.333434029809069e-001	 7.266639999985466e+000	 9.794047858848568e+000
0	 3.333434029809069e-001	 7.333299999983336e+000	 9.804624076573408e+000
0	 4.000138002678044e-001	 6.666700000016665e+000	 9.716012107540465e+000
0	 4.000138002678042e-001	 6.733360000014530e+000	 9.723647999379521e+000
0	 4.000138002678044e-001	 6.800020000011601e+000	 9.731610830900657e+000
0	 4.000138002678043e-001	 6.866680000008066e+000	 9.739895471997301e+000
0	 4.000138002678043e-001	 6.933340000004133e+000	 9.748496792562909e+000
0	 4.000138002678044e-001	 7.000000000000001e+000	 9.757409662490906e+000
0	 4.000138002678044e-001	 7.066659999995867e+000	 9.766628951674736e+000
0	 4.000138002678044e-001	 7.133319999991936e+000	 9.776149530007819e+000
0	 4.000138002678044e-001	 7.199979999988400e+000	 9.785966267383605e+000
0	 4.000138002678045e-001	 7.266639999985468e+000	 9.796074033695508e+000
0	 4.000138002678045e-001	 7.333299999983335e+000	 9.806467698836952e+000
0	 4.666844975500011e-001	 6.666700000016666e+000	 9.718458086701453e+000
0	 4.666844975500012e-001	 6.733360000014534e+000	 9.726332590355057e+000
0	 4.666844975500012e-001	 6.800020000011600e+000	 9.734457964489806e+000
0	 4.666844975500010e-001	 6.866680000008067e+000	 9.742835425927433e+000
0	 4.666844975500011e-001	 6.933340000004133e+000	 9.751466191489662e+000
0	 4.666844975500011e-001	 6.999999999999999e+000	 9.760351477998194e+000
0	 4.666844975500011e-001	 7.066659999995867e+000	 9.769492502274735e+000
0	 4.666844975500011e-001	 7.133319999991935e+000	 9.778890481141021e+000
0	 4.666844975500012e-001	 7.199979999988400e+000	 9.788546631418715e+000
0	 4.666844975500012e-001	 7.266639999985467e+000	 9.798462169929570e+000
0	 4.666844975500011e-001	 7.333299999983333e+000	 9.808638313495234e+000
0	 5.333553781553803e-001	 6.666700000016667e+000	 9.721311209513473e+000
0	 5.333553781553803e-001	 6.733360000014532e+000	 9.729433642522489e+000
0	 5.333553781553803e-001	 6.800020000011601e+000	 9.737726325337182e+000
0	 5.333553781553803e-001	 6.866680000008066e+000	 9.746196858782133e+000
0	 5.333553781553803e-001	 6.933340000004135e+000	 9.754852843681888e+000
0	 5.333553781553803e-001	 7.000000000000000e+000	 9.763701880861033e+000
0	 5.333553781553803e-001	 7.066659999995868e+000	 9.772751571144108e+000
0	 5.333553781553803e-001	 7.133319999991937e+000	 9.782009515355687e+000
0	 5.333553781553803e-001	 7.199979999988400e+000	 9.791483314320329e+000
0	 5.333553781553804e-001	 7.266639999985468e+000	 9.801180568862598e+000
0	 5.333553781553803e-001	 7.333299999983335e+000	 9.811108879807033e+000
0	 6.000263254118246e-001	 6.666700000016665e+000	 9.724616075388351e+000
0	 6.000263254118248e-001	 6.733360000014534e+000	 9.732976769237748e+000
0	 6.000263254118247e-001	 6.800020000011600e+000	 9.741425167729089e+000
0	 6.000263254118248e-001	 6.866680000008067e+000	 9.749975292797689e+000
0	 6.000263254118249e-001	 6.933340000004134e+000	 9.758641166378832e+000
0	 6.000263254118247e-001	 7.000000000000000e+000	 9.767436810407833e+000
0	 6.000263254118249e-001	 7.066659999995869e+000	 9.776376246819979e+000
0	 6.000263254118248e-001	 7.133319999991934e+000	 9.785473497550585e+000
0	 6.000263254118248e-001	 7.199979999988401e+000	 9.794742584534941e+000
0	 6.000263254118248e-001	 7.266639999985467e+000	 9.804197529708336e+000
0	 6.000263254118248e-001	 7.333299999983334e+000	 9.813852355006082e+000
0	 6.666972226472178e-001	 6.666700000016667e+000	 9.728417280837423e+000
0	 6.666972226472175e-001	 6.733360000014532e+000	 9.736987581062882e+000
0	 6.666972226472177e-001	 6.800020000011597e+000	 9.745563743259330e+000
0	 6.666972226472177e-001	 6.866680000008066e+000	 9.754166247614386e+000
0	 6.666972226472177e-001	 6.933340000004131e+000	 9.762815574315678e+000
0	 6.666972226472175e-001	 6.999999999999999e+000	 9.771532203550828e+000
0	 6.666972226472178e-001	 7.066659999995868e+000	 9.780336615507439e+000
0	 6.666972226472177e-001	 7.133319999991935e+000	 9.789249290373132e+000
0	 6.666972226472177e-001	 7.199979999988400e+000	 9.798290708335545e+000
0	 6.666972226472175e-001	 7.266639999985466e+000	 9.807481349582274e+000
0	 6.666972226472177e-001	 7.333299999983333e+000	 9.816841694300953e+000
0	 0.000000000000000e+000	 7.333299999983335e+000	 9.801257135366921e+000
0	 0.000000000000000e+000	 7.399969999982150e+000	 9.811863370331162e+000
0	 0.000000000000000e+000	 7.466639999981865e+000	 9.821919840167263e+000
0	 0.000000000000000e+000	 7.533309999982385e+000	 9.831451699502511e+000
0	 0.000000000000000e+000	 7.599979999983599e+000	 9.840484102964210e+000
0	 0.000000000000000e+000	 7.666649999985417e+000	 9.849042205179696e+000
0	 0.000000000000000e+000	 7.733319999987733e+000	 9.857151160776251e+000
0	 0.000000000000000e+000	 7.799989999990449e+000	 9.864836124381171e+000
0	 0.000000000000000e+000	 7.866659999993465e+000	 9.872122250621739e+000
0	 0.000000000000000e+000	 7.933329999996683e+000	 9.879034694125222e+000
0	 0.000000000000000e+000	 8.000000000000000e+000	 9.885598609518929e+000
0	 6.666714722864756e-002	 7.333299999983333e+000	 9.801060255415038e+000
0	 6.666714722864756e-002	 7.399969999982149e+000	 9.811757983765888e+000
0	 6.666714722864756e-002	 7.466639999981865e+000	 9.821903106093840e+000
0	 6.666714722864757e-002	 7.533309999982386e+000	 9.831517791001136e+000
0	 6.666714722864754e-002	 7.599979999983599e+000	 9.840624207089958e+000
0	 6.666714722864756e-002	 7.666649999985415e+000	 9.849244522962525e+000
0	 6.666714722864756e-002	 7.733319999987732e+000	 9.857400907221008e+000
0	 6.666714722864756e-002	 7.799989999990451e+000	 9.865115528467625e+000
0	 6.666714722864756e-002	 7.866659999993467e+000	 9.872410555304501e+000
0	 6.666714722864756e-002	 7.933329999996682e+000	 9.879308156333885e+000
0	 6.666714722864756e-002	 8.000000000000002e+000	 9.885830500157896e+000
0	 1.333351778131789e-001	 7.333299999983334e+000	 9.801325541188035e+000
0	 1.333351778131789e-001	 7.399969999982150e+000	 9.812050111797387e+000
0	 1.333351778131789e-001	 7.466639999981865e+000	 9.822226440579936e+000
0	 1.333351778131789e-001	 7.533309999982381e+000	 9.831873676746387e+000
0	 1.333351778131789e-001	 7.599979999983598e+000	 9.841010969507446e+000
0	 1.333351778131790e-001	 7.666649999985415e+000	 9.849657468073763e+000
0	 1.333351778131789e-001	 7.733319999987733e+000	 9.857832321656039e+000
0	 1.333351778131789e-001	 7.799989999990448e+000	 9.865554679464948e+000
0	 1.333351778131790e-001	 7.866659999993467e+000	 9.872843690711147e+000
0	 1.333351778131789e-001	 7.933329999996682e+000	 9.879718504605297e+000
0	 1.333351778131789e-001	 7.999999999999999e+000	 9.886198270358072e+000
0	 2.000039750814772e-001	 7.333299999983335e+000	 9.802025962070282e+000
0	 2.000039750814772e-001	 7.399969999982151e+000	 9.812718377680254e+000
0	 2.000039750814772e-001	 7.466639999981868e+000	 9.822873484240155e+000
0	 2.000039750814773e-001	 7.533309999982383e+000	 9.832507378188135e+000
0	 2.000039750814772e-001	 7.599979999983599e+000	 9.841636155962327e+000
0	 2.000039750814773e-001	 7.666649999985417e+000	 9.850275914000914e+000
0	 2.000039750814772e-001	 7.733319999987731e+000	 9.858442748742000e+000
0	 2.000039750814773e-001	 7.799989999990449e+000	 9.866152756623745e+000
0	 2.000039750814772e-001	 7.866659999993469e+000	 9.873422034084268e+000
0	 2.000039750814773e-001	 7.933329999996684e+000	 9.880266677561689e+000
0	 2.000039750814773e-001	 8.000000000000002e+000	 9.886702783494133e+000
0	 2.666734223614256e-001	 7.333299999983333e+000	 9.803134485420777e+000
0	 2.666734223614255e-001	 7.399969999982150e+000	 9.813741402714937e+000
0	 2.666734223614256e-001	 7.466639999981866e+000	 9.823827875804049e+000
0	 2.666734223614256e-001	 7.533309999982385e+000	 9.833406914957712e+000
0	 2.666734223614256e-001	 7.599979999983598e+000	 9.842491530445560e+000
0	 2.666734223614256e-001	 7.666649999985416e+000	 9.851094732537220e+000
0	 2.666734223614254e-001	 7.733319999987733e+000	 9.859229531502319e+000
0	 2.666734223614254e-001	 7.799989999990450e+000	 9.866908937610447e+000
0	 2.666734223614256e-001	 7.866659999993468e+000	 9.874145961131223e+000
0	 2.666734223614256e-001	 7.933329999996682e+000	 9.880953612334210e+000
0	 2.666734223614255e-001	 8.000000000000002e+000	 9.887344901489051e+000
0	 3.333434029809069e-001	 7.333299999983336e+000	 9.804624076573404e+000
0	 3.333434029809069e-001	 7.399969999982151e+000	 9.815097806247959e+000
0	 3.333434029809069e-001	 7.466639999981866e+000	 9.825073252116283e+000
0	 3.333434029809069e-001	 7.533309999982384e+000	 9.834560304868191e+000
0	 3.333434029809068e-001	 7.599979999983598e+000	 9.843568855193466e+000
0	 3.333434029809069e-001	 7.666649999985418e+000	 9.852108793781911e+000
0	 3.333434029809070e-001	 7.733319999987734e+000	 9.860190011323329e+000
0	 3.333434029809068e-001	 7.799989999990449e+000	 9.867822398507485e+000
0	 3.333434029809069e-001	 7.866659999993466e+000	 9.875015846024169e+000
0	 3.333434029809069e-001	 7.933329999996684e+000	 9.881780244563149e+000
0	 3.333434029809069e-001	 7.999999999999999e+000	 9.888125484814200e+000
0	 4.000138002678045e-001	 7.333299999983335e+000	 9.806467698836949e+000
0	 4.000138002678045e-001	 7.399969999982150e+000	 9.816766205671934e+000
0	 4.000138002678043e-001	 7.466639999981865e+000	 9.826593248136714e+000
0	 4.000138002678043e-001	 7.533309999982381e+000	 9.835955563914338e+000
0	 4.000138002678045e-001	 7.599979999983600e+000	 9.844859890687811e+000
0	 4.000138002678044e-001	 7.666649999985416e+000	 9.853312966140141e+000
0	 4.000138002678044e-001	 7.733319999987733e+000	 9.861321527954322e+000
0	 4.000138002678045e-001	 7.799989999990448e+000	 9.868892313813349e+000
0	 4.000138002678043e-001	 7.866659999993465e+000	 9.876032061400219e+000
0	 4.000138002678044e-001	 7.933329999996683e+000	 9.882747508397920e+000
0	 4.000138002678044e-001	 8.000000000000000e+000	 9.889045392489427e+000
0	 4.666844975500011e-001	 7.333299999983333e+000	 9.808638313495232e+000
0	 4.666844975500010e-001	 7.399969999982147e+000	 9.818725216425667e+000
0	 4.666844975500011e-001	 7.466639999981866e+000	 9.828371496940425e+000
0	 4.666844975500012e-001	 7.533309999982382e+000	 9.837580706272760e+000
0	 4.666844975500011e-001	 7.599979999983599e+000	 9.846356395655914e+000
0	 4.666844975500012e-001	 7.666649999985417e+000	 9.854702116323125e+000
0	 4.666844975500011e-001	 7.733319999987733e+000	 9.862621419507645e+000
0	 4.666844975500011e-001	 7.799989999990450e+000	 9.870117856442676e+000
0	 4.666844975500012e-001	 7.866659999993467e+000	 9.877194978361471e+000
0	 4.666844975500010e-001	 7.933329999996682e+000	 9.883856336497233e+000
0	 4.666844975500011e-001	 8.000000000000000e+000	 9.890105482083186e+000
0	 5.333553781553803e-001	 7.333299999983335e+000	 9.811108879807033e+000
0	 5.333553781553803e-001	 7.399969999982151e+000	 9.820953451994186e+000
0	 5.333553781553801e-001	 7.466639999981864e+000	 9.830391629717722e+000
0	 5.333553781553801e-001	 7.533309999982384e+000	 9.839423744301813e+000
0	 5.333553781553800e-001	 7.599979999983598e+000	 9.848050127070572e+000
0	 5.333553781553803e-001	 7.666649999985416e+000	 9.856271109348144e+000
0	 5.333553781553801e-001	 7.733319999987733e+000	 9.864087022458659e+000
0	 5.333553781553804e-001	 7.799989999990451e+000	 9.871498197726227e+000
0	 5.333553781553801e-001	 7.866659999993466e+000	 9.878504966474983e+000
0	 5.333553781553803e-001	 7.933329999996682e+000	 9.885107660029034e+000
0	 5.333553781553804e-001	 8.000000000000000e+000	 9.891306609712466e+000
0	 6.000263254118248e-001	 7.333299999983334e+000	 9.813852355006082e+000
0	 6.000263254118247e-001	 7.399969999982150e+000	 9.823429523908583e+000
0	 6.000263254118246e-001	 7.466639999981863e+000	 9.832637275774102e+000
0	 6.000263254118246e-001	 7.533309999982382e+000	 9.841472688541597e+000
0	 6.000263254118248e-001	 7.599979999983600e+000	 9.849932840150055e+000
0	 6.000263254118248e-001	 7.666649999985419e+000	 9.858014808538453e+000
0	 6.000263254118248e-001	 7.733319999987734e+000	 9.865715671645713e+000
0	 6.000263254118248e-001	 7.799989999990450e+000	 9.873032507410843e+000
0	 6.000263254118247e-001	 7.866659999993466e+000	 9.879962393772757e+000
0	 6.000263254118247e-001	 7.933329999996684e+000	 9.886502408670420e+000
0	 6.000263254118246e-001	 7.999999999999999e+000	 9.892649630042765e+000
0	 6.666972226472177e-001	 7.333299999983333e+000	 9.816841694300953e+000
0	 6.666972226472178e-001	 7.399969999982152e+000	 9.826132041746027e+000
0	 6.666972226472177e-001	 7.466639999981865e+000	 9.835092062530107e+000
0	 6.666972226472175e-001	 7.533309999982382e+000	 9.843715547713874e+000
0	 6.666972226472175e-001	 7.599979999983599e+000	 9.851996288358022e+000
0	 6.666972226472177e-001	 7.666649999985417e+000	 9.859928075523197e+000
0	 6.666972226472175e-001	 7.733319999987731e+000	 9.867504700270109e+000
0	 6.666972226472177e-001	 7.799989999990449e+000	 9.874719953659382e+000
0	 6.666972226472177e-001	 7.866659999993466e+000	 9.881567626751709e+000
0	 6.666972226472177e-001	 7.933329999996682e+000	 9.888041510607728e+000
0	 6.666972226472177e-001	 8.000000000000000e+000	 9.894135396288107e+000
0	 0.000000000000000e+000	 8.000000000000000e+000	 9.885598609518929e+000
0	 0.000000000000000e+000	 8.066670000003317e+000	 9.891958119285240e+000
0	 0.000000000000000e+000	 8.133340000006534e+000	 9.898235458811440e+000
0	 0.000000000000000e+000	 8.200010000009550e+000	 9.904422952082252e+000
0	 0.000000000000000e+000	 8.266680000012267e+000	 9.910512923082330e+000
0	 0.000000000000000e+000	 8.333350000014583e+000	 9.916497695796329e+000
0	 0.000000000000000e+000	 8.400020000016401e+000	 9.922369594208897e+000
0	 0.000000000000000e+000	 8.466690000017616e+000	 9.928120942304750e+000
0	 0.000000000000000e+000	 8.533360000018133e+000	 9.933744064068499e+000
0	 0.000000000000000e+000	 8.600030000017851e+000	 9.939231283484835e+000
0	 0.000000000000000e+000	 8.666700000016666e+000	 9.944574924538394e+000
0	 6.666714722864756e-002	 8.000000000000002e+000	 9.885830500157896e+000
0	 6.666714722864753e-002	 8.066670000003313e+000	 9.892135080681181e+000
0	 6.666714722864754e-002	 8.133340000006532e+000	 9.898360377542529e+000
0	 6.666714722864756e-002	 8.200010000009552e+000	 9.904500037945427e+000
0	 6.666714722864754e-002	 8.266680000012265e+000	 9.910547709093342e+000
0	 6.666714722864756e-002	 8.333350000014582e+000	 9.916497038189748e+000
0	 6.666714722864754e-002	 8.400020000016403e+000	 9.922341672438098e+000
0	 6.666714722864756e-002	 8.466690000017618e+000	 9.928075259041851e+000
0	 6.666714722864754e-002	 8.533360000018135e+000	 9.933691445204454e+000
0	 6.666714722864757e-002	 8.600030000017849e+000	 9.939183878129390e+000
0	 6.666714722864757e-002	 8.666700000016668e+000	 9.944546205020087e+000
0	 1.333351778131789e-001	 7.999999999999999e+000	 9.886198270358072e+000
0	 1.333351778131789e-001	 8.066670000003317e+000	 9.892449648974257e+000
0	 1.333351778131790e-001	 8.133340000006534e+000	 9.898623210681345e+000
0	 1.333351778131789e-001	 8.200010000009552e+000	 9.904713968524044e+000
0	 1.333351778131789e-001	 8.266680000012270e+000	 9.910716935547065e+000
0	 1.333351778131790e-001	 8.333350000014583e+000	 9.916627124795088e+000
0	 1.333351778131789e-001	 8.400020000016401e+000	 9.922439549312822e+000
0	 1.333351778131789e-001	 8.466690000017618e+000	 9.928149222144961e+000
0	 1.333351778131790e-001	 8.533360000018133e+000	 9.933751156336166e+000
0	 1.333351778131789e-001	 8.600030000017851e+000	 9.939240364931168e+000
0	 1.333351778131789e-001	 8.666700000016666e+000	 9.944611860974620e+000
0	 2.000039750814773e-001	 8.000000000000002e+000	 9.886702783494133e+000
0	 2.000039750814773e-001	 8.066670000003317e+000	 9.892902296291421e+000
0	 2.000039750814772e-001	 8.133340000006530e+000	 9.899024043747277e+000
0	 2.000039750814773e-001	 8.200010000009552e+000	 9.905064447375644e+000
0	 2.000039750814772e-001	 8.266680000012267e+000	 9.911019928690504e+000
0	 2.000039750814772e-001	 8.333350000014583e+000	 9.916886909205767e+000
0	 2.000039750814772e-001	 8.400020000016403e+000	 9.922661810435418e+000
0	 2.000039750814772e-001	 8.466690000017618e+000	 9.928341053893393e+000
0	 2.000039750814772e-001	 8.533360000018135e+000	 9.933921061093633e+000
0	 2.000039750814772e-001	 8.600030000017851e+000	 9.939398253550079e+000
0	 2.000039750814772e-001	 8.666700000016666e+000	 9.944769052776680e+000
0	 2.666734223614255e-001	 8.000000000000002e+000	 9.887344901489051e+000
0	 2.666734223614255e-001	 8.066670000003315e+000	 9.893493493342078e+000
0	 2.666734223614256e-001	 8.133340000006532e+000	 9.899562960871437e+000
0	 2.666734223614255e-001	 8.200010000009550e+000	 9.905551176694429e+000
0	 2.666734223614256e-001	 8.266680000012267e+000	 9.911456013428273e+000
0	 2.666734223614256e-001	 8.333350000014582e+000	 9.917275343690271e+000
0	 2.666734223614255e-001	 8.400020000016399e+000	 9.923007040097666e+000
0	 2.666734223614256e-001	 8.466690000017618e+000	 9.928648975267716e+000
0	 2.666734223614255e-001	 8.533360000018133e+000	 9.934199021817685e+000
0	 2.666734223614256e-001	 8.600030000017849e+000	 9.939655052364824e+000
0	 2.666734223614255e-001	 8.666700000016668e+000	 9.945014939526375e+000
0	 3.333434029809069e-001	 7.999999999999999e+000	 9.888125484814200e+000
0	 3.333434029809069e-001	 8.066670000003319e+000	 9.894223709418164e+000
0	 3.333434029809068e-001	 8.133340000006532e+000	 9.900240044796842e+000
0	 3.333434029809069e-001	 8.200010000009549e+000	 9.906173857311330e+000
0	 3.333434029809069e-001	 8.266680000012267e+000	 9.912024513322777e+000
0	 3.333434029809069e-001	 8.333350000014582e+000	 9.917791379192277e+000
0	 3.333434029809069e-001	 8.400020000016399e+000	 9.923473821280936e+000
0	 3.333434029809068e-001	 8.466690000017618e+000	 9.929071205949876e+000
0	 3.333434029809069e-001	 8.533360000018137e+000	 9.934582899560201e+000
0	 3.333434029809070e-001	 8.600030000017853e+000	 9.940008268473028e+000
0	 3.333434029809069e-001	 8.666700000016665e+000	 9.945346679049449e+000
0	 4.000138002678044e-001	 8.000000000000000e+000	 9.889045392489427e+000
0	 4.000138002678044e-001	 8.066670000003317e+000	 9.895093412394305e+000
0	 4.000138002678044e-001	 8.133340000006534e+000	 9.901055376878432e+000
0	 4.000138002678044e-001	 8.200010000009550e+000	 9.906932188694254e+000
0	 4.000138002678043e-001	 8.266680000012268e+000	 9.912724750594203e+000
0	 4.000138002678044e-001	 8.333350000014585e+000	 9.918433965330735e+000
0	 4.000138002678044e-001	 8.400020000016399e+000	 9.924060735656282e+000
0	 4.000138002678044e-001	 8.466690000017620e+000	 9.929605964323278e+000
0	 4.000138002678044e-001	 8.533360000018133e+000	 9.935070554084152e+000
0	 4.000138002678044e-001	 8.600030000017851e+000	 9.940455407691328e+000
0	 4.000138002678044e-001	 8.666700000016668e+000	 9.945761427897244e+000
0	 4.666844975500011e-001	 8.000000000000000e+000	 9.890105482083186e+000
0	 4.666844975500010e-001	 8.066670000003317e+000	 9.896103068727806e+000
0	 4.666844975500012e-001	 8.133340000006536e+000	 9.902009037083182e+000
0	 4.666844975500012e-001	 8.200010000009552e+000	 9.907825868947921e+000
0	 4.666844975500011e-001	 8.266680000012268e+000	 9.913556046120645e+000
0	 4.666844975500012e-001	 8.333350000014585e+000	 9.919202050399964e+000
0	 4.666844975500011e-001	 8.400020000016399e+000	 9.924766363584499e+000
0	 4.666844975500011e-001	 8.466690000017618e+000	 9.930251467472834e+000
0	 4.666844975500011e-001	 8.533360000018133e+000	 9.935659843863606e+000
0	 4.666844975500012e-001	 8.600030000017851e+000	 9.940993974555388e+000
0	 4.666844975500011e-001	 8.666700000016665e+000	 9.946256341346809e+000
0	 5.333553781553804e-001	 8.000000000000000e+000	 9.891306609712466e+000
0	 5.333553781553803e-001	 8.066670000003319e+000	 9.897253143458721e+000
0	 5.333553781553803e-001	 8.133340000006536e+000	 9.903101103990084e+000
0	 5.333553781553803e-001	 8.200010000009550e+000	 9.908854594814034e+000
0	 5.333553781553801e-001	 8.266680000012268e+000	 9.914517719438031e+000
0	 5.333553781553803e-001	 8.333350000014585e+000	 9.920094581369556e+000
0	 5.333553781553801e-001	 8.400020000016399e+000	 9.925589284116049e+000
0	 5.333553781553804e-001	 8.466690000017620e+000	 9.931005931184972e+000
0	 5.333553781553804e-001	 8.533360000018135e+000	 9.936348626083795e+000
0	 5.333553781553803e-001	 8.600030000017849e+000	 9.941621472319941e+000
0	 5.333553781553803e-001	 8.666700000016666e+000	 9.946828573400889e+000
0	 6.000263254118246e-001	 7.999999999999999e+000	 9.892649630042765e+000
0	 6.000263254118246e-001	 8.066670000003315e+000	 9.898544100209735e+000
0	 6.000263254118248e-001	 8.133340000006534e+000	 9.904331654790118e+000
0	 6.000263254118248e-001	 8.200010000009550e+000	 9.910018061671185e+000
0	 6.000263254118248e-001	 8.266680000012267e+000	 9.915609088740224e+000
0	 6.000263254118248e-001	 8.333350000014583e+000	 9.921110503884455e+000
0	 6.000263254118248e-001	 8.400020000016401e+000	 9.926528074991172e+000
0	 6.000263254118249e-001	 8.466690000017620e+000	 9.931867569947610e+000
0	 6.000263254118248e-001	 8.533360000018135e+000	 9.937134756641042e+000
0	 6.000263254118247e-001	 8.600030000017849e+000	 9.942335402958697e+000
0	 6.000263254118247e-001	 8.666700000016668e+000	 9.947475276787856e+000
0	 6.666972226472177e-001	 8.000000000000000e+000	 9.894135396288107e+000
0	 6.666972226472178e-001	 8.066670000003317e+000	 9.899976401186221e+000
0	 6.666972226472177e-001	 8.133340000006532e+000	 9.905700765286216e+000
0	 6.666972226472175e-001	 8.200010000009550e+000	 9.911315963534833e+000
0	 6.666972226472178e-001	 8.266680000012267e+000	 9.916829470878790e+000
0	 6.666972226472177e-001	 8.333350000014583e+000	 9.922248762264832e+000
0	 6.666972226472177e-001	 8.400020000016401e+000	 9.927581312639692e+000
0	 6.666972226472177e-001	 8.466690000017616e+000	 9.932834596950082e+000
0	 6.666972226472173e-001	 8.533360000018133e+000	 9.938016090142737e+000
0	 6.666972226472178e-001	 8.600030000017851e+000	 9.943133267164372e+000
0	 6.666972226472177e-001	 8.666700000016666e+000	 9.948193602961725e+000
0	 0.000000000000000e+000	 8.666700000016666e+000	 9.944574924538392e+000
0	 0.000000000000000e+000	 8.733360002791903e+000	 9.949696592857819e+000
0	 0.000000000000000e+000	 8.800020022230555e+000	 9.954534246684871e+000
0	 0.000000000000000e+000	 8.866680074997042e+000	 9.959102368384384e+000
0	 0.000000000000000e+000	 8.933340177755779e+000	 9.963415441019514e+000
0	 0.000000000000000e+000	 9.000000347171183e+000	 9.967487948351831e+000
0	 0.000000000000000e+000	 9.066660599907667e+000	 9.971334374841359e+000
0	 0.000000000000000e+000	 9.133320952629655e+000	 9.974969205646422e+000
0	 0.000000000000000e+000	 9.199981422001557e+000	 9.978406926623784e+000
0	 0.000000000000000e+000	 9.266642024687796e+000	 9.981662024328527e+000
0	 0.000000000000000e+000	 9.333302777352781e+000	 9.984748986014063e+000
0	 6.666714722864757e-002	 8.666700000016668e+000	 9.944546205020087e+000
0	 6.666714722864754e-002	 8.733360002791905e+000	 9.949692466378254e+000
0	 6.666714722864758e-002	 8.800020022230559e+000	 9.954551833686905e+000
0	 6.666714722864754e-002	 8.866680074997040e+000	 9.959138268450879e+000
0	 6.666714722864758e-002	 8.933340177755779e+000	 9.963465732882446e+000
0	 6.666714722864756e-002	 9.000000347171183e+000	 9.967548189901292e+000
0	 6.666714722864757e-002	 9.066660599907671e+000	 9.971399603134607e+000
0	 6.666714722864756e-002	 9.133320952629656e+000	 9.975033936916949e+000
0	 6.666714722864754e-002	 9.199981422001560e+000	 9.978465156290335e+000
0	 6.666714722864754e-002	 9.266642024687792e+000	 9.981707227004170e+000
0	 6.666714722864757e-002	 9.333302777352785e+000	 9.984774115515227e+000
0	 1.333351778131789e-001	 8.666700000016666e+000	 9.944611860974620e+000
0	 1.333351778131789e-001	 8.733360002791903e+000	 9.949773063365518e+000
0	 1.333351778131789e-001	 8.800020022230553e+000	 9.954645233143637e+000
0	 1.333351778131790e-001	 8.866680074997039e+000	 9.959241757280857e+000
0	 1.333351778131790e-001	 8.933340177755779e+000	 9.963576023464274e+000
0	 1.333351778131789e-001	 9.000000347171183e+000	 9.967661420096148e+000
0	 1.333351778131789e-001	 9.066660599907666e+000	 9.971511336293908e+000
0	 1.333351778131790e-001	 9.133320952629656e+000	 9.975139161890157e+000
0	 1.333351778131790e-001	 9.199981422001562e+000	 9.978558287432668e+000
0	 1.333351778131789e-001	 9.266642024687798e+000	 9.981782104184278e+000
0	 1.333351778131789e-001	 9.333302777352783e+000	 9.984824004123029e+000
0	 2.000039750814772e-001	 8.666700000016666e+000	 9.944769052776680e+000
0	 2.000039750814772e-001	 8.733360002791903e+000	 9.949935246946552e+000
0	 2.000039750814773e-001	 8.800020022230557e+000	 9.954811110216047e+000
0	 2.000039750814772e-001	 8.866680074997040e+000	 9.959409401350142e+000
0	 2.000039750814773e-001	 8.933340177755779e+000	 9.963742879835353e+000
0	 2.000039750814773e-001	 9.000000347171184e+000	 9.967824305879573e+000
0	 2.000039750814772e-001	 9.066660599907669e+000	 9.971666440412218e+000
0	 2.000039750814772e-001	 9.133320952629655e+000	 9.975282045084093e+000
0	 2.000039750814773e-001	 9.199981422001558e+000	 9.978683882267479e+000
0	 2.000039750814773e-001	 9.266642024687794e+000	 9.981884715056026e+000
0	 2.000039750814772e-001	 9.333302777352783e+000	 9.984897307264832e+000
0	 2.666734223614255e-001	 8.666700000016668e+000	 9.945014939526377e+000
0	 2.666734223614254e-001	 8.733360002791899e+000	 9.950175878979461e+000
0	 2.666734223614256e-001	 8.800020022230552e+000	 9.955046128800570e+000
0	 2.666734223614256e-001	 8.866680074997042e+000	 9.959637765872344e+000
0	 2.666734223614254e-001	 8.933340177755778e+000	 9.963962867803540e+000
0	 2.666734223614256e-001	 9.000000347171181e+000	 9.968033512929052e+000
0	 2.666734223614255e-001	 9.066660599907669e+000	 9.971861780309862e+000
0	 2.666734223614256e-001	 9.133320952629655e+000	 9.975459749733131e+000
0	 2.666734223614255e-001	 9.199981422001558e+000	 9.978839501712050e+000
0	 2.666734223614255e-001	 9.266642024687796e+000	 9.982013117485952e+000
0	 2.666734223614256e-001	 9.333302777352781e+000	 9.984992679020222e+000
0	 3.333434029809069e-001	 8.666700000016665e+000	 9.945346679049447e+000
0	 3.333434029809069e-001	 8.733360002791903e+000	 9.950491820053538e+000
0	 3.333434029809068e-001	 8.800020022230553e+000	 9.955346951529133e+000
0	 3.333434029809069e-001	 8.866680074997040e+000	 9.959923414798871e+000
0	 3.333434029809069e-001	 8.933340177755776e+000	 9.964232551914396e+000
0	 3.333434029809069e-001	 9.000000347171179e+000	 9.968285705656424e+000
0	 3.333434029809069e-001	 9.066660599907667e+000	 9.972094219534711e+000
0	 3.333434029809069e-001	 9.133320952629655e+000	 9.975669437788016e+000
0	 3.333434029809070e-001	 9.199981422001560e+000	 9.979022705384164e+000
0	 3.333434029809070e-001	 9.266642024687798e+000	 9.982165368019933e+000
0	 3.333434029809070e-001	 9.333302777352783e+000	 9.985108772121114e+000
0	 4.000138002678044e-001	 8.666700000016668e+000	 9.945761427897248e+000
0	 4.000138002678044e-001	 8.733360002791903e+000	 9.950879929489423e+000
0	 4.000138002678044e-001	 8.800020022230557e+000	 9.955710239769259e+000
0	 4.000138002678045e-001	 8.866680074997040e+000	 9.960262910819060e+000
0	 4.000138002678044e-001	 8.933340177755779e+000	 9.964548495451183e+000
0	 4.000138002678045e-001	 9.000000347171184e+000	 9.968577547208074e+000
0	 4.000138002678045e-001	 9.066660599907666e+000	 9.972360620362219e+000
0	 4.000138002678044e-001	 9.133320952629656e+000	 9.975908269916095e+000
0	 4.000138002678044e-001	 9.199981422001560e+000	 9.979231051602303e+000
0	 4.000138002678044e-001	 9.266642024687798e+000	 9.982339521883342e+000
0	 4.000138002678044e-001	 9.333302777352781e+000	 9.985244237951804e+000
0	 4.666844975500011e-001	 8.666700000016665e+000	 9.946256341346809e+000
0	 4.666844975500012e-001	 8.733360002791903e+000	 9.951337065339093e+000
0	 4.666844975500012e-001	 8.800020022230561e+000	 9.956132653624067e+000
0	 4.666844975500012e-001	 8.866680074997040e+000	 9.960652815360197e+000
0	 4.666844975500011e-001	 8.933340177755778e+000	 9.964907260434977e+000
0	 4.666844975500011e-001	 9.000000347171181e+000	 9.968905699464914e+000
0	 4.666844975500010e-001	 9.066660599907666e+000	 9.972657843795489e+000
0	 4.666844975500012e-001	 9.133320952629656e+000	 9.976173405501216e+000
0	 4.666844975500011e-001	 9.199981422001558e+000	 9.979462097385595e+000
0	 4.666844975500012e-001	 9.266642024687798e+000	 9.982533632981088e+000
0	 4.666844975500012e-001	 9.333302777352783e+000	 9.985397726549076e+000
0	 5.333553781553803e-001	 8.666700000016666e+000	 9.946828573400891e+000
0	 5.333553781553801e-001	 8.733360002791901e+000	 9.951860084385848e+000
0	 5.333553781553801e-001	 8.800020022230555e+000	 9.956610851932302e+000
0	 5.333553781553801e-001	 8.866680074997039e+000	 9.961089688587553e+000
0	 5.333553781553801e-001	 8.933340177755778e+000	 9.965305407624594e+000
0	 5.333553781553800e-001	 9.000000347171181e+000	 9.969266823042304e+000
0	 5.333553781553803e-001	 9.066660599907667e+000	 9.972982749565244e+000
0	 5.333553781553803e-001	 9.133320952629656e+000	 9.976462002643759e+000
0	 5.333553781553803e-001	 9.199981422001560e+000	 9.979713398453914e+000
0	 5.333553781553804e-001	 9.266642024687796e+000	 9.982745753897527e+000
0	 5.333553781553800e-001	 9.333302777352779e+000	 9.985567886602118e+000
0	 6.000263254118247e-001	 8.666700000016668e+000	 9.947475276787856e+000
0	 6.000263254118248e-001	 8.733360002791901e+000	 9.952445842144323e+000
0	 6.000263254118248e-001	 8.800020022230557e+000	 9.957141492268319e+000
0	 6.000263254118247e-001	 8.866680074997042e+000	 9.961570089404225e+000
0	 6.000263254118247e-001	 8.933340177755779e+000	 9.965739496516596e+000
0	 6.000263254118249e-001	 9.000000347171184e+000	 9.969657577290159e+000
0	 6.000263254118247e-001	 9.066660599907667e+000	 9.973332196129825e+000
0	 6.000263254118247e-001	 9.133320952629656e+000	 9.976771218160636e+000
0	 6.000263254118248e-001	 9.199981422001558e+000	 9.979982509227801e+000
0	 6.000263254118248e-001	 9.266642024687798e+000	 9.982973935896650e+000
0	 6.000263254118248e-001	 9.333302777352785e+000	 9.985753365452643e+000
0	 6.666972226472177e-001	 8.666700000016666e+000	 9.948193602961725e+000
0	 6.666972226472175e-001	 8.733360002791901e+000	 9.953091192860422e+000
0	 6.666972226472177e-001	 8.800020022230555e+000	 9.957721230942003e+000
0	 6.666972226472177e-001	 8.866680074997042e+000	 9.962090575451313e+000
0	 6.666972226472178e-001	 8.933340177755779e+000	 9.966206085345259e+000
0	 6.666972226472177e-001	 9.000000347171181e+000	 9.970074620292820e+000
0	 6.666972226472178e-001	 9.066660599907667e+000	 9.973703040675114e+000
0	 6.666972226472175e-001	 9.133320952629656e+000	 9.977098207585238e+000
0	 6.666972226472179e-001	 9.199981422001560e+000	 9.980266982828381e+000
0	 6.666972226472177e-001	 9.266642024687796e+000	 9.983216228921753e+000
0	 6.666972226472177e-001	 9.333302777352785e+000	 9.985952809094602e+000
0	 0.000000000000000e+000	 9.333302777352781e+000	 9.984748986014065e+000
0	 0.000000000000000e+000	 9.399973674588175e+000	 9.987595488502228e+000
0	 0.000000000000000e+000	 9.466644621844621e+000	 9.990125446304145e+000
0	 0.000000000000000e+000	 9.533315502450000e+000	 9.992349052311351e+000
0	 0.000000000000000e+000	 9.599986199732198e+000	 9.994276492707625e+000
0	 0.000000000000000e+000	 9.666656597019093e+000	 9.995917946968472e+000
0	 0.000000000000000e+000	 9.733326577638575e+000	 9.997283587860355e+000
0	 0.000000000000000e+000	 9.799996024918523e+000	 9.998383581439805e+000
0	 0.000000000000000e+000	 9.866664822186824e+000	 9.999228087052334e+000
0	 0.000000000000000e+000	 9.933332852771354e+000	 9.999827257330725e+000
0	 0.000000000000000e+000	 1.000000000000000e+001	 1.000019123819428e+001
0	 6.666714722864757e-002	 9.333302777352785e+000	 9.984774115515229e+000
0	 6.666714722864754e-002	 9.399973674588171e+000	 9.987599243480270e+000
0	 6.666714722864756e-002	 9.466644621844621e+000	 9.990112680095120e+000
0	 6.666714722864756e-002	 9.533315502450000e+000	 9.992324701588004e+000
0	 6.666714722864756e-002	 9.599986199732193e+000	 9.994245577545682e+000
0	 6.666714722864758e-002	 9.666656597019101e+000	 9.995885570912970e+000
0	 6.666714722864757e-002	 9.733326577638577e+000	 9.997254937991782e+000
0	 6.666714722864757e-002	 9.799996024918523e+000	 9.998363928440300e+000
0	 6.666714722864756e-002	 9.866664822186820e+000	 9.999222785271897e+000
0	 6.666714722864757e-002	 9.933332852771352e+000	 9.999841744853729e+000
0	 6.666714722864756e-002	 1.000000000000000e+001	 1.000023103690529e+001
0	 1.333351778131789e-001	 9.333302777352783e+000	 9.984824004123025e+000
0	 1.333351778131789e-001	 9.399973674588175e+000	 9.987623225090406e+000
0	 1.333351778131789e-001	 9.466644621844619e+000	 9.990116133938319e+000
0	 1.333351778131790e-001	 9.533315502450002e+000	 9.992313141839887e+000
0	 1.333351778131789e-001	 9.599986199732193e+000	 9.994224653404300e+000
0	 1.333351778131790e-001	 9.666656597019093e+000	 9.995861066676527e+000
0	 1.333351778131789e-001	 9.733326577638577e+000	 9.997232773136290e+000
0	 1.333351778131789e-001	 9.799996024918523e+000	 9.998350157697271e+000
0	 1.333351778131789e-001	 9.866664822186818e+000	 9.999223598706026e+000
0	 1.333351778131789e-001	 9.933332852771352e+000	 9.999863467940434e+000
0	 1.333351778131789e-001	 9.999999999999998e+000	 1.000028013060880e+001
0	 2.000039750814772e-001	 9.333302777352783e+000	 9.984897307264831e+000
0	 2.000039750814772e-001	 9.399973674588173e+000	 9.987666650639545e+000
0	 2.000039750814773e-001	 9.466644621844623e+000	 9.990135418838602e+000
0	 2.000039750814772e-001	 9.533315502449998e+000	 9.992314209588697e+000
0	 2.000039750814773e-001	 9.599986199732200e+000	 9.994213614140135e+000
0	 2.000039750814773e-001	 9.666656597019092e+000	 9.995844217266088e+000
0	 2.000039750814772e-001	 9.733326577638573e+000	 9.997216597262023e+000
0	 2.000039750814772e-001	 9.799996024918523e+000	 9.998341325944622e+000
0	 2.000039750814772e-001	 9.866664822186822e+000	 9.999228968650764e+000
0	 2.000039750814772e-001	 9.933332852771354e+000	 9.999890084236123e+000
0	 2.000039750814772e-001	 1.000000000000000e+001	 1.000033522507401e+001
0	 2.666734223614256e-001	 9.333302777352781e+000	 9.984992679020222e+000
0	 2.666734223614256e-001	 9.399973674588173e+000	 9.987728736053551e+000
0	 2.666734223614256e-001	 9.466644621844623e+000	 9.990170144380365e+000
0	 2.666734223614256e-001	 9.533315502450003e+000	 9.992327739891184e+000
0	 2.666734223614256e-001	 9.599986199732198e+000	 9.994212352095341e+000
0	 2.666734223614255e-001	 9.666656597019093e+000	 9.995834804120424e+000
0	 2.666734223614254e-001	 9.733326577638573e+000	 9.997205912711404e+000
0	 2.666734223614256e-001	 9.799996024918526e+000	 9.998336488229752e+000
0	 2.666734223614256e-001	 9.866664822186824e+000	 9.999237334652406e+000
0	 2.666734223614256e-001	 9.933332852771352e+000	 9.999919249570471e+000
0	 2.666734223614256e-001	 1.000000000000000e+001	 1.000039302418772e+001
0	 3.333434029809070e-001	 9.333302777352783e+000	 9.985108772121111e+000
0	 3.333434029809068e-001	 9.399973674588173e+000	 9.987808695877250e+000
0	 3.333434029809068e-001	 9.466644621844619e+000	 9.990219918727767e+000
0	 3.333434029809069e-001	 9.533315502450002e+000	 9.992353566339064e+000
0	 3.333434029809069e-001	 9.599986199732195e+000	 9.994220758097782e+000
0	 3.333434029809069e-001	 9.666656597019092e+000	 9.995832607110142e+000
0	 3.333434029809069e-001	 9.733326577638573e+000	 9.997200220201121e+000
0	 3.333434029809068e-001	 9.799996024918523e+000	 9.998334697913670e+000
0	 3.333434029809068e-001	 9.866664822186822e+000	 9.999247134507527e+000
0	 3.333434029809069e-001	 9.933332852771354e+000	 9.999948617958010e+000
0	 3.333434029809069e-001	 1.000000000000000e+001	 1.000045022995462e+001
0	 4.000138002678044e-001	 9.333302777352781e+000	 9.985244237951802e+000
0	 4.000138002678045e-001	 9.399973674588177e+000	 9.987905743274519e+000
0	 4.000138002678044e-001	 9.466644621844621e+000	 9.990284348624744e+000
0	 4.000138002678043e-001	 9.533315502449998e+000	 9.992391521059288e+000
0	 4.000138002678044e-001	 9.599986199732197e+000	 9.994238721460953e+000
0	 4.000138002678044e-001	 9.666656597019092e+000	 9.995837404537774e+000
0	 4.000138002678043e-001	 9.733326577638575e+000	 9.997199018822389e+000
0	 4.000138002678044e-001	 9.799996024918523e+000	 9.998335006671182e+000
0	 4.000138002678044e-001	 9.866664822186820e+000	 9.999256804263025e+000
0	 4.000138002678045e-001	 9.933332852771352e+000	 9.999975841598181e+000
0	 4.000138002678044e-001	 1.000000000000000e+001	 1.000050354249698e+001
0	 4.666844975500012e-001	 9.333302777352783e+000	 9.985397726549074e+000
0	 4.666844975500012e-001	 9.399973674588175e+000	 9.988019090028312e+000
0	 4.666844975500012e-001	 9.466644621844619e+000	 9.990363039395092e+000
0	 4.666844975500011e-001	 9.533315502450000e+000	 9.992441434714023e+000
0	 4.666844975500011e-001	 9.599986199732197e+000	 9.994266129984068e+000
0	 4.666844975500011e-001	 9.666656597019092e+000	 9.995848973137846e+000
0	 4.666844975500012e-001	 9.733326577638575e+000	 9.997201806040890e+000
0	 4.666844975500012e-001	 9.799996024918524e+000	 9.998336464490839e+000
0	 4.666844975500010e-001	 9.866664822186822e+000	 9.999264778216240e+000
0	 4.666844975500012e-001	 9.933332852771352e+000	 9.999998570875395e+000
0	 4.666844975500011e-001	 1.000000000000000e+001	 1.000054966005512e+001
0	 5.333553781553800e-001	 9.333302777352779e+000	 9.985567886602114e+000
0	 5.333553781553801e-001	 9.399973674588175e+000	 9.988147946540730e+000
0	 5.333553781553803e-001	 9.466644621844619e+000	 9.990455594942416e+000
0	 5.333553781553803e-001	 9.533315502450002e+000	 9.992503136500595e+000
0	 5.333553781553804e-001	 9.599986199732197e+000	 9.994302869952167e+000
0	 5.333553781553804e-001	 9.666656597019095e+000	 9.995867088076949e+000
0	 5.333553781553801e-001	 9.733326577638575e+000	 9.997208077696856e+000
0	 5.333553781553801e-001	 9.799996024918524e+000	 9.998338119675070e+000
0	 5.333553781553801e-001	 9.866664822186822e+000	 9.999269488914942e+000
0	 5.333553781553803e-001	 9.933332852771356e+000	 1.000001445435894e+001
0	 5.333553781553803e-001	 1.000000000000000e+001	 1.000058527898706e+001
0	 6.000263254118248e-001	 9.333302777352785e+000	 9.985753365452647e+000
0	 6.000263254118247e-001	 9.399973674588178e+000	 9.988291521832965e+000
0	 6.000263254118248e-001	 9.466644621844621e+000	 9.990561617750199e+000
0	 6.000263254118246e-001	 9.533315502450002e+000	 9.992576454151578e+000
0	 6.000263254118248e-001	 9.599986199732195e+000	 9.994348826136012e+000
0	 6.000263254118249e-001	 9.666656597019095e+000	 9.995891522953604e+000
0	 6.000263254118247e-001	 9.733326577638575e+000	 9.997217328004895e+000
0	 6.000263254118246e-001	 9.799996024918523e+000	 9.998339018839983e+000
0	 6.000263254118247e-001	 9.866664822186820e+000	 9.999269367157423e+000
0	 6.000263254118247e-001	 9.933332852771351e+000	 1.000002113880309e+001
0	 6.000263254118248e-001	 1.000000000000000e+001	 1.000060709376881e+001
0	 6.666972226472177e-001	 9.333302777352785e+000	 9.985952809094600e+000
0	 6.666972226472175e-001	 9.399973674588177e+000	 9.988449023545210e+000
0	 6.666972226472177e-001	 9.466644621844619e+000	 9.990680708881705e+000
0	 6.666972226472178e-001	 9.533315502450000e+000	 9.992661213934678e+000
0	 6.666972226472177e-001	 9.599986199732195e+000	 9.994403881791950e+000
0	 6.666972226472175e-001	 9.666656597019095e+000	 9.995922049798221e+000
0	 6.666972226472178e-001	 9.733326577638577e+000	 9.997229049554150e+000
0	 6.666972226472177e-001	 9.799996024918521e+000	 9.998338206915458e+000
0	 6.666972226472177e-001	 9.866664822186822e+000	 9.999262841992142e+000
0	 6.666972226472177e-001	 9.933332852771352e+000	 1.000001626914686e+001
0	 6.666972226472175e-001	 1.000000000000000e+001	 1.000061179699412e+001
0	 6.666972226472175e-001	 0.000000000000000e+000	-1.380956801581101e-001
0	 6.666972226472178e-001	 6.666714722864757e-002	-7.870053060502663e-002
0	 6.666972226472178e-001	 1.333351778131789e-001	-3.227362462712945e-002
0	 6.666972226472178e-001	 2.000039750814772e-001	 1.823134610711001e-003
0	 6.666972226472178e-001	 2.666734223614256e-001	 2.422773190118767e-002
0	 6.666972226472177e-001	 3.333434029809069e-001	 3.557804000869301e-002
0	 6.666972226472179e-001	 4.000138002678045e-001	 3.651181968051419e-002
0	 6.666972226472175e-001	 4.666844975500010e-001	 2.766671965508668e-002
0	 6.666972226472177e-001	 5.333553781553801e-001	 9.680276667307967e-003
0	 6.666972226472178e-001	 6.000263254118248e-001	-1.681008454908926e-002
0	 6.666972226472177e-001	 6.666972226472177e-001	-5.116705126210396e-002
0	 7.333579753122049e-001	 0.000000000000000e+000	-6.218137361013080e-002
0	 7.333579753122049e-001	 6.666714722864756e-002	-2.607307958802313e-002
0	 7.333579753122048e-001	 1.333351778131790e-001	 1.331702695092210e-003
0	 7.333579753122048e-001	 2.000039750814772e-001	 2.086381575989521e-002
0	 7.333579753122046e-001	 2.666734223614255e-001	 3.335404996708913e-002
0	 7.333579753122047e-001	 3.333434029809069e-001	 3.963314352335261e-002
0	 7.333579753122048e-001	 4.000138002678045e-001	 4.053178248592264e-002
0	 7.333579753122048e-001	 4.666844975500012e-001	 3.688060076580719e-002
0	 7.333579753122046e-001	 5.333553781553801e-001	 2.951018012963057e-002
0	 7.333579753122050e-001	 6.000263254118248e-001	 1.925105020010862e-002
0	 7.333579753122046e-001	 6.666972226472175e-001	 6.933688455155708e-003
0	 8.000185779984418e-001	 0.000000000000000e+000	 4.465892020031845e-002
0	 8.000185779984416e-001	 6.666714722864754e-002	 4.689652849101520e-002
0	 8.000185779984417e-001	 1.333351778131790e-001	 4.544765463534198e-002
0	 8.000185779984420e-001	 2.000039750814773e-001	 4.168867017999556e-002
0	 8.000185779984416e-001	 2.666734223614255e-001	 3.699598460918809e-002
0	 8.000185779984417e-001	 3.333434029809069e-001	 3.274604533883412e-002
0	 8.000185779984419e-001	 4.000138002678044e-001	 3.031533771173387e-002
0	 8.000185779984418e-001	 4.666844975500011e-001	 3.108038499375291e-002
0	 8.000185779984419e-001	 5.333553781553804e-001	 3.641774837099650e-002
0	 8.000185779984420e-001	 6.000263254118249e-001	 4.770402694798014e-002
0	 8.000185779984416e-001	 6.666972226472175e-001	 6.631585774679522e-002
0	 8.666790473703455e-001	 0.000000000000000e+000	 1.185314831052058e-001
0	 8.666790473703454e-001	 6.666714722864754e-002	 8.665900454077155e-002
0	 8.666790473703455e-001	 1.333351778131789e-001	 5.581213665644874e-002
0	 8.666790473703456e-001	 2.000039750814772e-001	 2.826565321298444e-002
0	 8.666790473703454e-001	 2.666734223614256e-001	 6.294475117183286e-003
0	 8.666790473703452e-001	 3.333434029809069e-001	-7.826329597314281e-003
0	 8.666790473703454e-001	 4.000138002678044e-001	-1.182154578539000e-002
0	 8.666790473703455e-001	 4.666844975500011e-001	-3.415811201944757e-003
0	 8.666790473703454e-001	 5.333553781553801e-001	 1.966638349046851e-002
0	 8.666790473703453e-001	 6.000263254118247e-001	 5.970069471787030e-002
0	 8.666790473703452e-001	 6.666972226472177e-001	 1.189629259949436e-001
0	 9.333394000923323e-001	 0.000000000000000e+000	 9.554254190846034e-002
0	 9.333394000923324e-001	 6.666714722864756e-002	 3.966500564241611e-002
0	 9.333394000923321e-001	 1.333351778131789e-001	-1.183699521868336e-002
0	 9.333394000923321e-001	 2.000039750814772e-001	-5.543732219379872e-002
0	 9.333394000923324e-001	 2.666734223614256e-001	-8.760957244022023e-002
0	 9.333394000923324e-001	 3.333434029809070e-001	-1.048270787859069e-001
0	 9.333394000923322e-001	 4.000138002678044e-001	-1.035629097548857e-001
0	 9.333394000923321e-001	 4.666844975500011e-001	-8.028986958570995e-002
0	 9.333394000923324e-001	 5.333553781553803e-001	-3.148049824298342e-002
0	 9.333394000923323e-001	 6.000263254118248e-001	 4.639292857805834e-002
0	 9.333394000923322e-001	 6.666972226472175e-001	 1.568583994538979e-001
0	 9.999996528288190e-001	 0.000000000000000e+000	-8.820173161498120e-002
0	 9.999996528288194e-001	 6.666714722864756e-002	-1.476348649513121e-001
0	 9.999996528288192e-001	 1.333351778131789e-001	-2.017619344079109e-001
0	 9.999996528288191e-001	 2.000039750814772e-001	-2.454523854883596e-001
0	 9.999996528288191e-001	 2.666734223614255e-001	-2.735752852158656e-001
0	 9.999996528288190e-001	 3.333434029809069e-001	-2.809993221764949e-001
0	 9.999996528288192e-001	 4.000138002678044e-001	-2.625928065524628e-001
0	 9.999996528288191e-001	 4.666844975500012e-001	-2.132236701454938e-001
0	 9.999996528288192e-001	 5.333553781553803e-001	-1.277594663902473e-001
0	 9.999996528288190e-001	 6.000263254118247e-001	-1.067370357812096e-003
0	 9.999996528288192e-001	 6.666972226472177e-001	 1.719858212507333e-001
0	 1.066659822244222e+000	 0.000000000000000e+000	-4.965952207199222e-001
0	 1.066659822244222e+000	 6.666714722864757e-002	-5.287900578168245e-001
0	 1.066659822244223e+000	 1.333351778131789e-001	-5.582249237705025e-001
0	 1.066659822244223e+000	 2.000039750814772e-001	-5.778117085145995e-001
0	 1.066659822244222e+000	 2.666734223614254e-001	-5.804618235845727e-001
0	 1.066659822244222e+000	 3.333434029809069e-001	-5.590862021676534e-001
0	 1.066659822244223e+000	 4.000138002678044e-001	-5.065952991402414e-001
0	 1.066659822244223e+000	 4.666844975500011e-001	-4.158990910927495e-001
0	 1.066659822244222e+000	 5.333553781553801e-001	-2.799070763418883e-001
0	 1.066659822244223e+000	 6.000263254118248e-001	-9.152827493039718e-002
0	 1.066659822244223e+000	 6.666972226472177e-001	 1.563287713857786e-001
0	 1.133319925002959e+000	 0.000000000000000e+000	-1.193531863691446e+000
0	 1.133319925002959e+000	 6.666714722864757e-002	-1.157350077360196e+000
0	 1.133319925002959e+000	 1.333351778131790e-001	-1.125488255607602e+000
0	 1.133319925002959e+000	 2.000039750814772e-001	-1.088547505512712e+000
0	 1.133319925002959e+000	 2.666734223614256e-001	-1.037128381143448e+000
0	 1.133319925002959e+000	 3.333434029809069e-001	-9.618308836071886e-001
0	 1.133319925002959e+000	 4.000138002678045e-001	-8.532544610868470e-001
0	 1.133319925002959e+000	 4.666844975500011e-001	-7.019980088624175e-001
0	 1.133319925002959e+000	 5.333553781553804e-001	-4.986598693180180e-001
0	 1.133319925002959e+000	 6.000263254118248e-001	-2.338378319344195e-001
0	 1.133319925002959e+000	 6.666972226472178e-001	 1.018708667329464e-001
0	 1.199979977769445e+000	 0.000000000000000e+000	-2.242905653845254e+000
0	 1.199979977769445e+000	 6.666714722864757e-002	-2.086864481817482e+000
0	 1.199979977769445e+000	 1.333351778131789e-001	-1.947814271662510e+000
0	 1.199979977769445e+000	 2.000039750814772e-001	-1.813692033119417e+000
0	 1.199979977769445e+000	 2.666734223614256e-001	-1.672434184712055e+000
0	 1.199979977769445e+000	 3.333434029809070e-001	-1.511976553792254e+000
0	 1.199979977769445e+000	 4.000138002678043e-001	-1.320254376567466e+000
0	 1.199979977769445e+000	 4.666844975500011e-001	-1.085202298112914e+000
0	 1.199979977769445e+000	 5.333553781553801e-001	-7.947543723682229e-001
0	 1.199979977769445e+000	 6.000263254118248e-001	-4.368440621185282e-001
0	 1.199979977769445e+000	 6.666972226472177e-001	 5.957610399362786e-004
0	 1.266639997208098e+000	 0.000000000000000e+000	-3.708610639527786e+000
0	 1.266639997208098e+000	 6.666714722864756e-002	-3.370882883254826e+000
0	 1.266639997208098e+000	 1.333351778131789e-001	-3.069465363120775e+000
0	 1.266639997208098e+000	 2.000039750814773e-001	-2.789277590368025e+000
0	 1.266639997208098e+000	 2.666734223614256e-001	-2.515238494332484e+000
0	 1.266639997208098e+000	 3.333434029809069e-001	-2.232266422469393e+000
0	 1.266639997208098e+000	 4.000138002678044e-001	-1.925279140363864e+000
0	 1.266639997208098e+000	 4.666844975500012e-001	-1.579193831726130e+000
0	 1.266639997208098e+000	 5.333553781553803e-001	-1.178927098371536e+000
0	 1.266639997208098e+000	 6.000263254118247e-001	-7.093949601852556e-001
0	 1.266639997208098e+000	 6.666972226472177e-001	-1.555128550717201e-001
0	 1.333299999983334e+000	 0.000000000000000e+000	-5.654540924116148e+000
0	 1.333299999983334e+000	 6.666714722864758e-002	-5.062954947568363e+000
0	 1.333299999983334e+000	 1.333351778131789e-001	-4.534703970610103e+000
0	 1.333299999983334e+000	 2.000039750814772e-001	-4.051336518688373e+000
0	 1.333299999983334e+000	 2.666734223614255e-001	-3.594400603269270e+000
0	 1.333299999983334e+000	 3.333434029809069e-001	-3.145443721834485e+000
0	 1.333299999983334e+000	 4.000138002678044e-001	-2.686012857864363e+000
0	 1.333299999983334e+000	 4.666844975500012e-001	-2.197654480807431e+000
0	 1.333299999983334e+000	 5.333553781553803e-001	-1.661914546036474e+000
0	 1.333299999983334e+000	 6.000263254118247e-001	-1.060338494791080e+000
0	 1.333299999983334e+000	 6.666972226472174e-001	-3.744712541067177e-001
0	 6.666972226472177e-001	 6.666972226472177e-001	-5.116705126210396e-002
0	 6.666972226472175e-001	 7.333579753122045e-001	-2.268579828741136e-002
0	 6.666972226472177e-001	 8.000185779984415e-001	 1.413021087098073e-001
0	 6.666972226472177e-001	 8.666790473703451e-001	 4.443963018464113e-001
0	 6.666972226472177e-001	 9.333394000923322e-001	 8.901962205455984e-001
0	 6.666972226472177e-001	 9.999996528288189e-001	 1.482301111533793e+000
0	 6.666972226472174e-001	 1.066659822244222e+000	 2.224310028838250e+000
0	 6.666972226472178e-001	 1.133319925002959e+000	 3.119821833785388e+000
0	 6.666972226472177e-001	 1.199979977769445e+000	 4.172435194999844e+000
0	 6.666972226472175e-001	 1.266639997208098e+000	 5.385748588404236e+000
0	 6.666972226472175e-001	 1.333299999983334e+000	 6.763360297219679e+000
0	 7.333579753122046e-001	 6.666972226472175e-001	 6.933688455155712e-003
0	 7.333579753122049e-001	 7.333579753122049e-001	 7.034159699614039e-002
0	 7.333579753122049e-001	 8.000185779984419e-001	 2.875624352440235e-001
0	 7.333579753122049e-001	 8.666790473703454e-001	 6.598885912328700e-001
0	 7.333579753122048e-001	 9.333394000923321e-001	 1.188612229835276e+000
0	 7.333579753122048e-001	 9.999996528288190e-001	 1.875025292758819e+000
0	 7.333579753122049e-001	 1.066659822244222e+000	 2.720419498543349e+000
0	 7.333579753122050e-001	 1.133319925002959e+000	 3.726086342559114e+000
0	 7.333579753122048e-001	 1.199979977769445e+000	 4.893317097005720e+000
0	 7.333579753122049e-001	 1.266639997208098e+000	 6.223402810911931e+000
0	 7.333579753122049e-001	 1.333299999983334e+000	 7.717634310136310e+000
0	 8.000185779984416e-001	 6.666972226472175e-001	 6.631585774679522e-002
0	 8.000185779984418e-001	 7.333579753122048e-001	 1.725737055150194e-001
0	 8.000185779984416e-001	 8.000185779984416e-001	 4.452923837779915e-001
0	 8.000185779984419e-001	 8.666790473703455e-001	 8.835796690676747e-001
0	 8.000185779984418e-001	 9.333394000923323e-001	 1.486543094534390e+000
0	 8.000185779984416e-001	 9.999996528288186e-001	 2.253289949943031e+000
0	 8.000185779984420e-001	 1.066659822244222e+000	 3.182927281670184e+000
0	 8.000185779984418e-001	 1.133319925002959e+000	 4.274561892702174e+000
0	 8.000185779984420e-001	 1.199979977769445e+000	 5.527300342634000e+000
0	 8.000185779984419e-001	 1.266639997208098e+000	 6.940248947669209e+000
0	 8.000185779984420e-001	 1.333299999983334e+000	 8.512513780620667e+000
0	 8.666790473703452e-001	 6.666972226472177e-001	 1.189629259949436e-001
0	 8.666790473703455e-001	 7.333579753122048e-001	 2.765655117003569e-001
0	 8.666790473703453e-001	 8.000185779984416e-001	 6.081551618868214e-001
0	 8.666790473703455e-001	 8.666790473703453e-001	 1.110777679175512e+000
0	 8.666790473703456e-001	 9.333394000923325e-001	 1.781478612028429e+000
0	 8.666790473703456e-001	 9.999996528288190e-001	 2.617303254744547e+000
0	 8.666790473703455e-001	 1.066659822244222e+000	 3.615296647456913e+000
0	 8.666790473703455e-001	 1.133319925002959e+000	 4.772503576130731e+000
0	 8.666790473703454e-001	 1.199979977769445e+000	 6.085968572562349e+000
0	 8.666790473703454e-001	 1.266639997208098e+000	 7.552735914379225e+000
0	 8.666790473703456e-001	 1.333299999983334e+000	 9.169849625040863e+000
0	 9.333394000923322e-001	 6.666972226472175e-001	 1.568583994538978e-001
0	 9.333394000923324e-001	 7.333579753122048e-001	 3.748720461618139e-001
0	 9.333394000923323e-001	 8.000185779984417e-001	 7.698140308698387e-001
0	 9.333394000923325e-001	 8.666790473703453e-001	 1.336790824706300e+000
0	 9.333394000923324e-001	 9.333394000923323e-001	 2.070908642500442e+000
0	 9.333394000923322e-001	 9.999996528288189e-001	 2.967273442778696e+000
0	 9.333394000923323e-001	 1.066659822244223e+000	 4.020990927761900e+000
0	 9.333394000923323e-001	 1.133319925002959e+000	 5.227166543363479e+000
0	 9.333394000923324e-001	 1.199979977769445e+000	 6.580905479188608e+000
0	 9.333394000923325e-001	 1.266639997208098e+000	 8.077312668534285e+000
0	 9.333394000923323e-001	 1.333299999983334e+000	 9.711492788390448e+000
0	 9.999996528288192e-001	 6.666972226472177e-001	 1.719858212507333e-001
0	 9.999996528288195e-001	 7.333579753122050e-001	 4.600483856883471e-001
0	 9.999996528288193e-001	 8.000185779984418e-001	 9.239323057514740e-001
0	 9.999996528288192e-001	 8.666790473703453e-001	 1.556927368136147e+000
0	 9.999996528288192e-001	 9.333394000923323e-001	 2.352323108932048e+000
0	 9.999996528288191e-001	 9.999996528288190e-001	 3.303408813619036e+000
0	 9.999996528288193e-001	 1.066659822244222e+000	 4.403473517064626e+000
0	 9.999996528288192e-001	 1.133319925002959e+000	 5.645806003522392e+000
0	 9.999996528288191e-001	 1.199979977769445e+000	 7.023694806631316e+000
0	 9.999996528288194e-001	 1.266639997208098e+000	 8.530428209416071e+000
0	 9.999996528288190e-001	 1.333299999983334e+000	 1.015929424428826e+001
0	 1.066659822244223e+000	 6.666972226472177e-001	 1.563287713857786e-001
0	 1.066659822244222e+000	 7.333579753122046e-001	 5.246496532488000e-001
0	 1.066659822244223e+000	 8.000185779984418e-001	 1.064173355281947e+000
0	 1.066659822244223e+000	 8.666790473703454e-001	 1.766495631268113e+000
0	 1.066659822244222e+000	 9.333394000923321e-001	 2.623211997104202e+000
0	 1.066659822244222e+000	 9.999996528288189e-001	 3.625917730798073e+000
0	 1.066659822244223e+000	 1.066659822244222e+000	 4.766207872466378e+000
0	 1.066659822244223e+000	 1.133319925002959e+000	 6.035677224333274e+000
0	 1.066659822244222e+000	 1.199979977769445e+000	 7.425920350730068e+000
0	 1.066659822244223e+000	 1.266639997208098e+000	 8.928531578095685e+000
0	 1.066659822244223e+000	 1.333299999983334e+000	 1.053510499497811e+001
0	 1.133319925002959e+000	 6.666972226472178e-001	 1.018708667329463e-001
0	 1.133319925002959e+000	 7.333579753122049e-001	 5.612310179923267e-001
0	 1.133319925002959e+000	 8.000185779984417e-001	 1.184200601937754e+000
0	 1.133319925002959e+000	 8.666790473703453e-001	 1.960803995232726e+000
0	 1.133319925002959e+000	 9.333394000923322e-001	 2.881065355597739e+000
0	 1.133319925002959e+000	 9.999996528288191e-001	 3.935008621807789e+000
0	 1.133319925002959e+000	 1.066659822244222e+000	 5.112657513690659e+000
0	 1.133319925002959e+000	 1.133319925002959e+000	 6.404035532126075e+000
0	 1.133319925002959e+000	 1.199979977769445e+000	 7.799165959045636e+000
0	 1.133319925002959e+000	 1.266639997208098e+000	 9.288071857433581e+000
0	 1.133319925002959e+000	 1.333299999983334e+000	 1.086077607132840e+001
0	 1.199979977769445e+000	 6.666972226472177e-001	 5.957610399362786e-004
0	 1.199979977769445e+000	 7.333579753122046e-001	 5.623476952486322e-001
0	 1.199979977769445e+000	 8.000185779984419e-001	 1.277677521921953e+000
0	 1.199979977769445e+000	 8.666790473703453e-001	 2.135160900488291e+000
0	 1.199979977769445e+000	 9.333394000923322e-001	 3.123373295793671e+000
0	 1.199979977769445e+000	 9.999996528288190e-001	 4.230889978099893e+000
0	 1.199979977769445e+000	 1.066659822244222e+000	 5.446286023083419e+000
0	 1.199979977769446e+000	 1.133319925002959e+000	 6.758136311834986e+000
0	 1.199979977769445e+000	 1.199979977769445e+000	 8.155015530859945e+000
0	 1.199979977769445e+000	 1.266639997208098e+000	 9.625498172079324e+000
0	 1.199979977769445e+000	 1.333299999983334e+000	 1.115815853283164e+001
0	 1.266639997208098e+000	 6.666972226472177e-001	-1.555128550717201e-001
0	 1.266639997208098e+000	 7.333579753122048e-001	 5.205549465280484e-001
0	 1.266639997208098e+000	 8.000185779984419e-001	 1.338267645164237e+000
0	 1.266639997208098e+000	 8.666790473703452e-001	 2.284874846820968e+000
0	 1.266639997208098e+000	 9.333394000923321e-001	 3.347625991873246e+000
0	 1.266639997208098e+000	 9.999996528288190e-001	 4.513770355085875e+000
0	 1.266639997208098e+000	 1.066659822244222e+000	 5.770557045613006e+000
0	 1.266639997208098e+000	 1.133319925002959e+000	 7.105235006998319e+000
0	 1.266639997208098e+000	 1.199979977769445e+000	 8.505053017175802e+000
0	 1.266639997208098e+000	 1.266639997208098e+000	 9.957259688471151e+000
0	 1.266639997208098e+000	 1.333299999983334e+000	 1.144910346760382e+001
0	 1.333299999983334e+000	 6.666972226472174e-001	-3.744712541067177e-001
0	 1.333299999983334e+000	 7.333579753122047e-001	 4.284080795214369e-001
0	 1.333299999983334e+000	 8.000185779984418e-001	 1.359634555320826e+000
0	 1.333299999983334e+000	 8.666790473703454e-001	 2.405254393344630e+000
0	 1.333299999983334e+000	 9.333394000923321e-001	 3.551313680817780e+000
0	 1.333299999983334e+000	 9.999996528288189e-001	 4.783858372136763e+000
0	 1.333299999983334e+000	 1.066659822244222e+000	 6.088934288869902e+000
0	 1.333299999983334e+000	 1.133319925002959e+000	 7.452587119758171e+000
0	 1.333299999983334e+000	 1.199979977769445e+000	 8.860862420716479e+000
0	 1.333299999983334e+000	 1.266639997208098e+000	 1.029980561483545e+001
0	 1.333299999983334e+000	 1.333299999983334e+000	 1.175546199238372e+001
0	 6.666972226472175e-001	 1.333299999983334e+000	 6.763360297219680e+000
0	 6.666972226472177e-001	 1.399969999982150e+000	 8.282752076880035e+000
0	 6.666972226472177e-001	 1.466639999981867e+000	 9.912598864378650e+000
0	 6.666972226472178e-001	 1.533309999982383e+000	 1.164394606861148e+001
0	 6.666972226472177e-001	 1.599979999983600e+000	 1.346783909847521e+001
0	 6.666972226472177e-001	 1.666649999985416e+000	 1.537532336286724e+001
0	 6.666972226472177e-001	 1.733319999987733e+000	 1.735744427068567e+001
0	 6.666972226472177e-001	 1.799989999990450e+000	 1.940524723082934e+001
0	 6.666972226472178e-001	 1.866659999993466e+000	 2.150977765219778e+001
0	 6.666972226472175e-001	 1.933329999996683e+000	 2.366208094369131e+001
0	 6.666972226472177e-001	 2.000000000000000e+000	 2.585320251421090e+001
0	 7.333579753122049e-001	 1.333299999983334e+000	 7.717634310136311e+000
0	 7.333579753122047e-001	 1.399969999982150e+000	 9.318643510250688e+000
0	 7.333579753122046e-001	 1.466639999981867e+000	 1.096331615850312e+001
0	 7.333579753122048e-001	 1.533309999982383e+000	 1.264503326242515e+001
0	 7.333579753122049e-001	 1.599979999983599e+000	 1.435717582954863e+001
0	 7.333579753122046e-001	 1.666649999985416e+000	 1.609312486740570e+001
0	 7.333579753122048e-001	 1.733319999987733e+000	 1.784626138352884e+001
0	 7.333579753122049e-001	 1.799989999990450e+000	 1.960996638545081e+001
0	 7.333579753122047e-001	 1.866659999993466e+000	 2.137762088070462e+001
0	 7.333579753122046e-001	 1.933329999996684e+000	 2.314260587682366e+001
0	 7.333579753122047e-001	 2.000000000000000e+000	 2.489830238134163e+001
0	 8.000185779984420e-001	 1.333299999983334e+000	 8.512513780620667e+000
0	 8.000185779984420e-001	 1.399969999982150e+000	 1.015845252558583e+001
0	 8.000185779984417e-001	 1.466639999981866e+000	 1.178956057189731e+001
0	 8.000185779984417e-001	 1.533309999982383e+000	 1.340139367321877e+001
0	 8.000185779984418e-001	 1.599979999983600e+000	 1.498950758321388e+001
0	 8.000185779984419e-001	 1.666649999985416e+000	 1.654945805554617e+001
0	 8.000185779984416e-001	 1.733319999987733e+000	 1.807680084387917e+001
0	 8.000185779984418e-001	 1.799989999990449e+000	 1.956709170187630e+001
0	 8.000185779984417e-001	 1.866659999993466e+000	 2.101588638320095e+001
0	 8.000185779984418e-001	 1.933329999996683e+000	 2.241874064151651e+001
0	 8.000185779984419e-001	 2.000000000000000e+000	 2.377121023048619e+001
0	 8.666790473703456e-001	 1.333299999983334e+000	 9.169849625040865e+000
0	 8.666790473703454e-001	 1.399969999982150e+000	 1.082943773206372e+001
0	 8.666790473703453e-001	 1.466639999981866e+000	 1.242347136296954e+001
0	 8.666790473703456e-001	 1.533309999982383e+000	 1.394952016239430e+001
0	 8.666790473703454e-001	 1.599979999983599e+000	 1.540515377497372e+001
0	 8.666790473703456e-001	 1.666649999985416e+000	 1.678794184534307e+001
0	 8.666790473703456e-001	 1.733319999987733e+000	 1.809545401813727e+001
0	 8.666790473703453e-001	 1.799989999990449e+000	 1.932525993799088e+001
0	 8.666790473703452e-001	 1.866659999993466e+000	 2.047492924953807e+001
0	 8.666790473703454e-001	 1.933329999996682e+000	 2.154203159741268e+001
0	 8.666790473703455e-001	 2.000000000000000e+000	 2.252413662624814e+001
0	 9.333394000923323e-001	 1.333299999983334e+000	 9.711492788390448e+000
0	 9.333394000923319e-001	 1.399969999982150e+000	 1.135885775097587e+001
0	 9.333394000923323e-001	 1.466639999981866e+000	 1.289718778255266e+001
0	 9.333394000923321e-001	 1.533309999982383e+000	 1.432590556115434e+001
0	 9.333394000923323e-001	 1.599979999983599e+000	 1.564443376481377e+001
0	 9.333394000923322e-001	 1.666649999985416e+000	 1.685219507156322e+001
0	 9.333394000923320e-001	 1.733319999987733e+000	 1.794861215943426e+001
0	 9.333394000923321e-001	 1.799989999990449e+000	 1.893310770645789e+001
0	 9.333394000923321e-001	 1.866659999993466e+000	 1.980510439066443e+001
0	 9.333394000923323e-001	 1.933329999996683e+000	 2.056402489008360e+001
0	 9.333394000923323e-001	 2.000000000000000e+000	 2.120929188274445e+001
0	 9.999996528288190e-001	 1.333299999983334e+000	 1.015929424428826e+001
0	 9.999996528288189e-001	 1.399969999982150e+000	 1.177397121572627e+001
0	 9.999996528288191e-001	 1.466639999981866e+000	 1.324284907390283e+001
0	 9.999996528288189e-001	 1.533309999982383e+000	 1.456704267050021e+001
0	 9.999996528288189e-001	 1.599979999983600e+000	 1.574766685719986e+001
0	 9.999996528288190e-001	 1.666649999985416e+000	 1.678583648568233e+001
0	 9.999996528288191e-001	 1.733319999987733e+000	 1.768266640762737e+001
0	 9.999996528288191e-001	 1.799989999990450e+000	 1.843927147471378e+001
0	 9.999996528288191e-001	 1.866659999993466e+000	 1.905676653861961e+001
0	 9.999996528288192e-001	 1.933329999996683e+000	 1.953626645102200e+001
0	 9.999996528288191e-001	 2.000000000000000e+000	 1.987888606359722e+001
0	 1.066659822244223e+000	 1.333299999983334e+000	 1.053510499497811e+001
0	 1.066659822244223e+000	 1.399969999982150e+000	 1.210203677183081e+001
0	 1.066659822244222e+000	 1.466639999981866e+000	 1.349259447269824e+001
0	 1.066659822244222e+000	 1.533309999982383e+000	 1.470942426123021e+001
0	 1.066659822244222e+000	 1.599979999983599e+000	 1.575517230107551e+001
0	 1.066659822244222e+000	 1.666649999985416e+000	 1.663248475588186e+001
0	 1.066659822244222e+000	 1.733319999987733e+000	 1.734400778929592e+001
0	 1.066659822244222e+000	 1.799989999990450e+000	 1.789238756496334e+001
0	 1.066659822244222e+000	 1.866659999993466e+000	 1.828027024652874e+001
0	 1.066659822244222e+000	 1.933329999996683e+000	 1.851030199763564e+001
0	 1.066659822244223e+000	 2.000000000000000e+000	 1.858512898192657e+001
0	 1.133319925002959e+000	 1.333299999983334e+000	 1.086077607132840e+001
0	 1.133319925002959e+000	 1.399969999982150e+000	 1.237031307691637e+001
0	 1.133319925002959e+000	 1.466639999981866e+000	 1.367856320703791e+001
0	 1.133319925002959e+000	 1.533309999982383e+000	 1.478954307393784e+001
0	 1.133319925002959e+000	 1.599979999983600e+000	 1.570726928985976e+001
0	 1.133319925002959e+000	 1.666649999985416e+000	 1.643575846704609e+001
0	 1.133319925002959e+000	 1.733319999987733e+000	 1.697902721773803e+001
0	 1.133319925002959e+000	 1.799989999990449e+000	 1.734109215417559e+001
0	 1.133319925002959e+000	 1.866659999993466e+000	 1.752596988859760e+001
0	 1.133319925002959e+000	 1.933329999996683e+000	 1.753767703324167e+001
0	 1.133319925002959e+000	 2.000000000000000e+000	 1.738023020034423e+001
0	 1.199979977769445e+000	 1.333299999983334e+000	 1.115815853283164e+001
0	 1.199979977769445e+000	 1.399969999982150e+000	 1.260605880072012e+001
0	 1.199979977769445e+000	 1.466639999981866e+000	 1.383289449744057e+001
0	 1.199979977769445e+000	 1.533309999982383e+000	 1.484389181901024e+001
0	 1.199979977769445e+000	 1.599979999983599e+000	 1.564427696144509e+001
0	 1.199979977769445e+000	 1.666649999985416e+000	 1.623927612075972e+001
0	 1.199979977769445e+000	 1.733319999987733e+000	 1.663411549296741e+001
0	 1.199979977769445e+000	 1.799989999990450e+000	 1.683402127408013e+001
0	 1.199979977769446e+000	 1.866659999993466e+000	 1.684421966010852e+001
0	 1.199979977769445e+000	 1.933329999996684e+000	 1.666993684706187e+001
0	 1.199979977769445e+000	 2.000000000000000e+000	 1.631639903094818e+001
0	 1.266639997208098e+000	 1.333299999983334e+000	 1.144910346760382e+001
0	 1.266639997208098e+000	 1.399969999982150e+000	 1.283653262508862e+001
0	 1.266639997208098e+000	 1.466639999981867e+000	 1.398772755684344e+001
0	 1.266639997208098e+000	 1.533309999982383e+000	 1.490896317662674e+001
0	 1.266639997208098e+000	 1.599979999983600e+000	 1.560651439819557e+001
0	 1.266639997208098e+000	 1.666649999985416e+000	 1.608665613530554e+001
0	 1.266639997208098e+000	 1.733319999987733e+000	 1.635566330171080e+001
0	 1.266639997208098e+000	 1.799989999990450e+000	 1.641981081116411e+001
0	 1.266639997208098e+000	 1.866659999993466e+000	 1.628537357741679e+001
0	 1.266639997208098e+000	 1.933329999996683e+000	 1.595862651421870e+001
0	 1.266639997208098e+000	 2.000000000000000e+000	 1.544584453531832e+001
0	 1.333299999983334e+000	 1.333299999983334e+000	 1.175546199238372e+001
0	 1.333299999983334e+000	 1.399969999982150e+000	 1.308899324397691e+001
0	 1.333299999983334e+000	 1.466639999981867e+000	 1.417520159060118e+001
0	 1.333299999983334e+000	 1.533309999982383e+000	 1.502124979675747e+001
0	 1.333299999983334e+000	 1.599979999983599e+000	 1.563430062694528e+001
0	 1.333299999983334e+000	 1.666649999985416e+000	 1.602151684566255e+001
0	 1.333299999983334e+000	 1.733319999987733e+000	 1.619006121740571e+001
0	 1.333299999983334e+000	 1.799989999990449e+000	 1.614709650666969e+001
0	 1.333299999983334e+000	 1.866659999993466e+000	 1.589978547794787e+001
0	 1.333299999983334e+000	 1.933329999996683e+000	 1.545529089573212e+001
0	 1.333299999983334e+000	 2.000000000000000e+000	 1.482077552451283e+001
0	 6.666972226472177e-001	 2.000000000000000e+000	 2.585320251421090e+001
0	 6.666972226472177e-001	 2.066670000003317e+000	 2.790564120934404e+001
0	 6.666972226472178e-001	 2.133340000006534e+000	 2.964914781825513e+001
0	 6.666972226472177e-001	 2.200010000009550e+000	 3.108564566520927e+001
0	 6.666972226472177e-001	 2.266680000012268e+000	 3.221705807446926e+001
0	 6.666972226472175e-001	 2.333350000014584e+000	 3.304530837029551e+001
0	 6.666972226472175e-001	 2.400020000016400e+000	 3.357231987694609e+001
0	 6.666972226472178e-001	 2.466690000017616e+000	 3.380001591867674e+001
0	 6.666972226472178e-001	 2.533360000018134e+000	 3.373031981974083e+001
0	 6.666972226472177e-001	 2.600030000017850e+000	 3.336515490438939e+001
0	 6.666972226472177e-001	 2.666700000016667e+000	 3.270644449687114e+001
0	 7.333579753122047e-001	 2.000000000000000e+000	 2.489830238134163e+001
0	 7.333579753122047e-001	 2.066670000003317e+000	 2.649144560613464e+001
0	 7.333579753122048e-001	 2.133340000006534e+000	 2.777715520490349e+001
0	 7.333579753122048e-001	 2.200010000009550e+000	 2.876138884791713e+001
0	 7.333579753122047e-001	 2.266680000012267e+000	 2.945010420544217e+001
0	 7.333579753122047e-001	 2.333350000014584e+000	 2.984925894774286e+001
0	 7.333579753122050e-001	 2.400020000016402e+000	 2.996481074508104e+001
0	 7.333579753122049e-001	 2.466690000017618e+000	 2.980271726771623e+001
0	 7.333579753122047e-001	 2.533360000018133e+000	 2.936893618590551e+001
0	 7.333579753122049e-001	 2.600030000017851e+000	 2.866942516990364e+001
0	 7.333579753122047e-001	 2.666700000016666e+000	 2.771014188996295e+001
0	 8.000185779984419e-001	 2.000000000000000e+000	 2.377121023048619e+001
0	 8.000185779984416e-001	 2.066670000003316e+000	 2.494502926829301e+001
0	 8.000185779984416e-001	 2.133340000006534e+000	 2.582119872084725e+001
0	 8.000185779984418e-001	 2.200010000009550e+000	 2.640917461340122e+001
0	 8.000185779984417e-001	 2.266680000012266e+000	 2.671841297120487e+001
0	 8.000185779984419e-001	 2.333350000014585e+000	 2.675836981950594e+001
0	 8.000185779984418e-001	 2.400020000016401e+000	 2.653850118354971e+001
0	 8.000185779984418e-001	 2.466690000017617e+000	 2.606826308857923e+001
0	 8.000185779984418e-001	 2.533360000018134e+000	 2.535711155983515e+001
0	 8.000185779984420e-001	 2.600030000017851e+000	 2.441450262255583e+001
0	 8.000185779984420e-001	 2.666700000016666e+000	 2.324989230197731e+001
0	 8.666790473703455e-001	 2.000000000000000e+000	 2.252413662624814e+001
0	 8.666790473703454e-001	 2.066670000003316e+000	 2.331831966113020e+001
0	 8.666790473703452e-001	 2.133340000006534e+000	 2.383155518617341e+001
0	 8.666790473703455e-001	 2.200010000009550e+000	 2.407626158455244e+001
0	 8.666790473703454e-001	 2.266680000012267e+000	 2.406485723943979e+001
0	 8.666790473703454e-001	 2.333350000014584e+000	 2.380976053400568e+001
0	 8.666790473703452e-001	 2.400020000016400e+000	 2.332338985141810e+001
0	 8.666790473703456e-001	 2.466690000017618e+000	 2.261816357484289e+001
0	 8.666790473703454e-001	 2.533360000018134e+000	 2.170650008744361e+001
0	 8.666790473703453e-001	 2.600030000017850e+000	 2.060081777238162e+001
0	 8.666790473703455e-001	 2.666700000016666e+000	 1.931353501281605e+001
0	 9.333394000923323e-001	 2.000000000000000e+000	 2.120929188274445e+001
0	 9.333394000923324e-001	 2.066670000003317e+000	 2.166324396214409e+001
0	 9.333394000923322e-001	 2.133340000006534e+000	 2.185850109562799e+001
0	 9.333394000923323e-001	 2.200010000009550e+000	 2.180990802199566e+001
0	 9.333394000923322e-001	 2.266680000012267e+000	 2.153230948004459e+001
0	 9.333394000923324e-001	 2.333350000014584e+000	 2.104055020857016e+001
0	 9.333394000923320e-001	 2.400020000016400e+000	 2.034947494636573e+001
0	 9.333394000923324e-001	 2.466690000017617e+000	 1.947392843222252e+001
0	 9.333394000923321e-001	 2.533360000018133e+000	 1.842875540492976e+001
0	 9.333394000923323e-001	 2.600030000017851e+000	 1.722880060327456e+001
0	 9.333394000923324e-001	 2.666700000016666e+000	 1.588890876604198e+001
0	 9.999996528288191e-001	 2.000000000000000e+000	 1.987888606359722e+001
0	 9.999996528288192e-001	 2.066670000003317e+000	 2.003172906101017e+001
0	 9.999996528288192e-001	 2.133340000006534e+000	 1.995231261860577e+001
0	 9.999996528288193e-001	 2.200010000009550e+000	 1.965737182407827e+001
0	 9.999996528288192e-001	 2.266680000012268e+000	 1.916364176512007e+001
0	 9.999996528288190e-001	 2.333350000014584e+000	 1.848785752942167e+001
0	 9.999996528288191e-001	 2.400020000016401e+000	 1.764675420467171e+001
0	 9.999996528288190e-001	 2.466690000017617e+000	 1.665706687855693e+001
0	 9.999996528288192e-001	 2.533360000018134e+000	 1.553553063876225e+001
0	 9.999996528288190e-001	 2.600030000017850e+000	 1.429888057297064e+001
0	 9.999996528288191e-001	 2.666700000016666e+000	 1.296385176886325e+001
0	 1.066659822244223e+000	 2.000000000000000e+000	 1.858512898192657e+001
0	 1.066659822244222e+000	 2.066670000003317e+000	 1.847570155957343e+001
0	 1.066659822244223e+000	 2.133340000006533e+000	 1.816326559914132e+001
0	 1.066659822244222e+000	 2.200010000009550e+000	 1.766591052686047e+001
0	 1.066659822244222e+000	 2.266680000012267e+000	 1.700172576895942e+001
0	 1.066659822244223e+000	 2.333350000014584e+000	 1.618880075166510e+001
0	 1.066659822244223e+000	 2.400020000016401e+000	 1.524522490120274e+001
0	 1.066659822244223e+000	 2.466690000017617e+000	 1.418908764379591e+001
0	 1.066659822244223e+000	 2.533360000018134e+000	 1.303847840566655e+001
0	 1.066659822244223e+000	 2.600030000017851e+000	 1.181148661303492e+001
0	 1.066659822244223e+000	 2.666700000016667e+000	 1.052620169211961e+001
0	 1.133319925002959e+000	 2.000000000000000e+000	 1.738023020034423e+001
0	 1.133319925002959e+000	 2.066670000003318e+000	 1.704708777184132e+001
0	 1.133319925002959e+000	 2.133340000006534e+000	 1.654163555590126e+001
0	 1.133319925002959e+000	 2.200010000009551e+000	 1.588278130410680e+001
0	 1.133319925002959e+000	 2.266680000012267e+000	 1.508943276803918e+001
0	 1.133319925002959e+000	 2.333350000014585e+000	 1.418049769927835e+001
0	 1.133319925002959e+000	 2.400020000016401e+000	 1.317488384940273e+001
0	 1.133319925002959e+000	 2.466690000017617e+000	 1.209149896998928e+001
0	 1.133319925002959e+000	 2.533360000018134e+000	 1.094925081261364e+001
0	 1.133319925002959e+000	 2.600030000017850e+000	 9.767047128849924e+000
0	 1.133319925002959e+000	 2.666700000016666e+000	 8.563795670270835e+000
0	 1.199979977769445e+000	 2.000000000000000e+000	 1.631639903094818e+001
0	 1.199979977769445e+000	 2.066670000003316e+000	 1.579781372397777e+001
0	 1.199979977769445e+000	 2.133340000006533e+000	 1.513769768217765e+001
0	 1.199979977769445e+000	 2.200010000009551e+000	 1.435524096727892e+001
0	 1.199979977769445e+000	 2.266680000012267e+000	 1.346963364101149e+001
0	 1.199979977769445e+000	 2.333350000014584e+000	 1.250006576510408e+001
0	 1.199979977769445e+000	 2.400020000016401e+000	 1.146572740128414e+001
0	 1.199979977769445e+000	 2.466690000017617e+000	 1.038580861127800e+001
0	 1.199979977769445e+000	 2.533360000018134e+000	 9.279499456810733e+000
0	 1.199979977769445e+000	 2.600030000017850e+000	 8.165989999606197e+000
0	 1.199979977769445e+000	 2.666700000016666e+000	 7.064470301387099e+000
0	 1.266639997208098e+000	 2.000000000000000e+000	 1.544584453531832e+001
0	 1.266639997208098e+000	 2.066670000003317e+000	 1.477980515429828e+001
0	 1.266639997208098e+000	 2.133340000006534e+000	 1.400172684588262e+001
0	 1.266639997208098e+000	 2.200010000009550e+000	 1.313054596552994e+001
0	 1.266639997208098e+000	 2.266680000012267e+000	 1.218519886869788e+001
0	 1.266639997208098e+000	 2.333350000014584e+000	 1.118462191084309e+001
0	 1.266639997208098e+000	 2.400020000016400e+000	 1.014775144742121e+001
0	 1.266639997208098e+000	 2.466690000017617e+000	 9.093523833886913e+000
0	 1.266639997208098e+000	 2.533360000018133e+000	 8.040875425693876e+000
0	 1.266639997208098e+000	 2.600030000017851e+000	 7.008742578294744e+000
0	 1.266639997208098e+000	 2.666700000016666e+000	 6.016061647141253e+000
0	 1.333299999983334e+000	 2.000000000000000e+000	 1.482077552451283e+001
0	 1.333299999983334e+000	 2.066670000003317e+000	 1.404498751326618e+001
0	 1.333299999983334e+000	 2.133340000006534e+000	 1.318399758954436e+001
0	 1.333299999983334e+000	 2.200010000009550e+000	 1.225595238569994e+001
0	 1.333299999983334e+000	 2.266680000012267e+000	 1.127899853408466e+001
0	 1.333299999983334e+000	 2.333350000014584e+000	 1.027128266704952e+001
0	 1.333299999983334e+000	 2.400020000016401e+000	 9.250951416944677e+000
0	 1.333299999983334e+000	 2.466690000017617e+000	 8.236151416119496e+000
0	 1.333299999983334e+000	 2.533360000018134e+000	 7.245029296922509e+000
0	 1.333299999983334e+000	 2.600030000017851e+000	 6.295731691701477e+000
0	 1.333299999983334e+000	 2.666700000016666e+000	 5.406405232803396e+000
0	 6.666972226472177e-001	 2.666700000016667e+000	 3.270644449687114e+001
0	 6.666972226472175e-001	 2.733360000014533e+000	 3.187400101631764e+001
0	 6.666972226472178e-001	 2.800020000011599e+000	 3.098956571654015e+001
0	 6.666972226472177e-001	 2.866680000008067e+000	 3.005831733461795e+001
0	 6.666972226472178e-001	 2.933340000004133e+000	 2.908543460763076e+001
0	 6.666972226472175e-001	 3.000000000000000e+000	 2.807609627265878e+001
0	 6.666972226472178e-001	 3.066659999995867e+000	 2.703548106678270e+001
0	 6.666972226472175e-001	 3.133319999991933e+000	 2.596876772708365e+001
0	 6.666972226472178e-001	 3.199979999988400e+000	 2.488113499064329e+001
0	 6.666972226472177e-001	 3.266639999985467e+000	 2.377776159454368e+001
0	 6.666972226472175e-001	 3.333299999983334e+000	 2.266382627586739e+001
0	 7.333579753122047e-001	 2.666700000016666e+000	 2.771014188996296e+001
0	 7.333579753122049e-001	 2.733360000014534e+000	 2.663981134718757e+001
0	 7.333579753122047e-001	 2.800020000011599e+000	 2.560390268270047e+001
0	 7.333579753122050e-001	 2.866680000008067e+000	 2.460397898490474e+001
0	 7.333579753122048e-001	 2.933340000004133e+000	 2.364160334220301e+001
0	 7.333579753122049e-001	 3.000000000000000e+000	 2.271833884299758e+001
0	 7.333579753122047e-001	 3.066659999995868e+000	 2.183574857569028e+001
0	 7.333579753122048e-001	 3.133319999991934e+000	 2.099539562868248e+001
0	 7.333579753122047e-001	 3.199979999988400e+000	 2.019884309037524e+001
0	 7.333579753122049e-001	 3.266639999985468e+000	 1.944765404916917e+001
0	 7.333579753122049e-001	 3.333299999983334e+000	 1.874339159346440e+001
0	 8.000185779984420e-001	 2.666700000016666e+000	 2.324989230197731e+001
0	 8.000185779984419e-001	 2.733360000014533e+000	 2.202866517473662e+001
0	 8.000185779984418e-001	 2.800020000011599e+000	 2.090842693983321e+001
0	 8.000185779984419e-001	 2.866680000008066e+000	 1.988753788396694e+001
0	 8.000185779984418e-001	 2.933340000004134e+000	 1.896435829383666e+001
0	 8.000185779984419e-001	 3.000000000000000e+000	 1.813724845614026e+001
0	 8.000185779984419e-001	 3.066659999995868e+000	 1.740456865757455e+001
0	 8.000185779984420e-001	 3.133319999991934e+000	 1.676467918483530e+001
0	 8.000185779984418e-001	 3.199979999988400e+000	 1.621594032461742e+001
0	 8.000185779984419e-001	 3.266639999985467e+000	 1.575671236361463e+001
0	 8.000185779984420e-001	 3.333299999983334e+000	 1.538535558851967e+001
0	 8.666790473703455e-001	 2.666700000016666e+000	 1.931353501281605e+001
0	 8.666790473703455e-001	 2.733360000014534e+000	 1.801620140059653e+001
0	 8.666790473703452e-001	 2.800020000011599e+000	 1.686872233435610e+001
0	 8.666790473703454e-001	 2.866680000008067e+000	 1.586666815109836e+001
0	 8.666790473703455e-001	 2.933340000004133e+000	 1.500560918782555e+001
0	 8.666790473703453e-001	 3.000000000000000e+000	 1.428111578153856e+001
0	 8.666790473703453e-001	 3.066659999995866e+000	 1.368875826923683e+001
0	 8.666790473703455e-001	 3.133319999991934e+000	 1.322410698791849e+001
0	 8.666790473703455e-001	 3.199979999988401e+000	 1.288273227458025e+001
0	 8.666790473703454e-001	 3.266639999985467e+000	 1.266020446621750e+001
0	 8.666790473703454e-001	 3.333299999983333e+000	 1.255209389982415e+001
0	 9.333394000923324e-001	 2.666700000016666e+000	 1.588890876604199e+001
0	 9.333394000923323e-001	 2.733360000014533e+000	 1.457805838665978e+001
0	 9.333394000923322e-001	 2.800020000011600e+000	 1.345037217596011e+001
0	 9.333394000923322e-001	 2.866680000008067e+000	 1.249904337767199e+001
0	 9.333394000923324e-001	 2.933340000004133e+000	 1.171726523552289e+001
0	 9.333394000923324e-001	 3.000000000000000e+000	 1.109823099323870e+001
0	 9.333394000923324e-001	 3.066659999995867e+000	 1.063513389454383e+001
0	 9.333394000923321e-001	 3.133319999991933e+000	 1.032116718316118e+001
0	 9.333394000923322e-001	 3.199979999988401e+000	 1.014952410281202e+001
0	 9.333394000923324e-001	 3.266639999985467e+000	 1.011339789721614e+001
0	 9.333394000923324e-001	 3.333299999983334e+000	 1.020598181009181e+001
0	 9.999996528288191e-001	 2.666700000016666e+000	 1.296385176886325e+001
0	 9.999996528288191e-001	 2.733360000014533e+000	 1.168987395506394e+001
0	 9.999996528288192e-001	 2.800020000011600e+000	 1.061895923759390e+001
0	 9.999996528288192e-001	 2.866680000008067e+000	 9.742336627124660e+000
0	 9.999996528288193e-001	 2.933340000004133e+000	 9.051235134326243e+000
0	 9.999996528288189e-001	 2.999999999999999e+000	 8.536883769867071e+000
0	 9.999996528288193e-001	 3.066659999995867e+000	 8.190511544414102e+000
0	 9.999996528288191e-001	 3.133319999991934e+000	 8.003347468632752e+000
0	 9.999996528288192e-001	 3.199979999988401e+000	 7.966620553186870e+000
0	 9.999996528288191e-001	 3.266639999985467e+000	 8.071559808738794e+000
0	 9.999996528288191e-001	 3.333299999983334e+000	 8.309394245949378e+000
0	 1.066659822244223e+000	 2.666700000016667e+000	 1.052620169211961e+001
0	 1.066659822244223e+000	 2.733360000014533e+000	 9.327285388177968e+000
0	 1.066659822244223e+000	 2.800020000011600e+000	 8.340065755450205e+000
0	 1.066659822244222e+000	 2.866680000008066e+000	 7.554220434943828e+000
0	 1.066659822244223e+000	 2.933340000004133e+000	 6.959427067664798e+000
0	 1.066659822244222e+000	 2.999999999999999e+000	 6.545363294617800e+000
0	 1.066659822244222e+000	 3.066659999995865e+000	 6.301706756806036e+000
0	 1.066659822244223e+000	 3.133319999991933e+000	 6.218135095231379e+000
0	 1.066659822244223e+000	 3.199979999988401e+000	 6.284325950894221e+000
0	 1.066659822244222e+000	 3.266639999985466e+000	 6.489956964793681e+000
0	 1.066659822244222e+000	 3.333299999983333e+000	 6.824705777927320e+000
0	 1.133319925002959e+000	 2.666700000016666e+000	 8.563795670270840e+000
0	 1.133319925002959e+000	 2.733360000014532e+000	 7.465929428590535e+000
0	 1.133319925002959e+000	 2.800020000011601e+000	 6.579273428954388e+000
0	 1.133319925002959e+000	 2.866680000008066e+000	 5.892366808656096e+000
0	 1.133319925002959e+000	 2.933340000004133e+000	 5.393748704988193e+000
0	 1.133319925002959e+000	 3.000000000000000e+000	 5.071958255242059e+000
0	 1.133319925002959e+000	 3.066659999995867e+000	 4.915534596707867e+000
0	 1.133319925002959e+000	 3.133319999991934e+000	 4.913016866674535e+000
0	 1.133319925002959e+000	 3.199979999988400e+000	 5.052944202429979e+000
0	 1.133319925002959e+000	 3.266639999985467e+000	 5.323855741260763e+000
0	 1.133319925002959e+000	 3.333299999983334e+000	 5.714290620452357e+000
0	 1.199979977769445e+000	 2.666700000016666e+000	 7.064470301387104e+000
0	 1.199979977769445e+000	 2.733360000014534e+000	 6.081442279100459e+000
0	 1.199979977769445e+000	 2.800020000011600e+000	 5.302163420754755e+000
0	 1.199979977769446e+000	 2.866680000008067e+000	 4.714447227818043e+000
0	 1.199979977769445e+000	 2.933340000004133e+000	 4.306107201757524e+000
0	 1.199979977769445e+000	 3.000000000000000e+000	 4.064956844039465e+000
0	 1.199979977769445e+000	 3.066659999995865e+000	 3.978809656129174e+000
0	 1.199979977769445e+000	 3.133319999991933e+000	 4.035479139491152e+000
0	 1.199979977769445e+000	 3.199979999988401e+000	 4.222778795588869e+000
0	 1.199979977769445e+000	 3.266639999985467e+000	 4.528522125884985e+000
0	 1.199979977769445e+000	 3.333299999983334e+000	 4.940522631841143e+000
0	 1.266639997208098e+000	 2.666700000016666e+000	 6.016061647141253e+000
0	 1.266639997208098e+000	 2.733360000014533e+000	 5.149459602708975e+000
0	 1.266639997208098e+000	 2.800020000011600e+000	 4.474316356715113e+000
0	 1.266639997208098e+000	 2.866680000008066e+000	 3.978132644008711e+000
0	 1.266639997208098e+000	 2.933340000004134e+000	 3.648409199438094e+000
0	 1.266639997208098e+000	 3.000000000000000e+000	 3.472646757851039e+000
0	 1.266639997208098e+000	 3.066659999995867e+000	 3.438346054094640e+000
0	 1.266639997208098e+000	 3.133319999991934e+000	 3.533007823015330e+000
0	 1.266639997208098e+000	 3.199979999988401e+000	 3.744132799458979e+000
0	 1.266639997208098e+000	 3.266639999985467e+000	 4.059221718270734e+000
0	 1.266639997208098e+000	 3.333299999983334e+000	 4.465775314295167e+000
0	 1.333299999983334e+000	 2.666700000016666e+000	 5.406405232803396e+000
0	 1.333299999983334e+000	 2.733360000014532e+000	 4.645616522614215e+000
0	 1.333299999983334e+000	 2.800020000011599e+000	 4.061312325909276e+000
0	 1.333299999983334e+000	 2.866680000008067e+000	 3.641093480824213e+000
0	 1.333299999983334e+000	 2.933340000004133e+000	 3.372560825494296e+000
0	 1.333299999983334e+000	 3.000000000000000e+000	 3.243315198054351e+000
0	 1.333299999983334e+000	 3.066659999995867e+000	 3.240957436638875e+000
0	 1.333299999983334e+000	 3.133319999991934e+000	 3.353088379381931e+000
0	 1.333299999983334e+000	 3.199979999988401e+000	 3.567308864417231e+000
0	 1.333299999983334e+000	 3.266639999985467e+000	 3.871219729878056e+000
0	 1.333299999983334e+000	 3.333299999983334e+000	 4.252421813897335e+000
0	 6.666972226472175e-001	 3.333299999983334e+000	 2.266382627586739e+001
0	 6.666972226472177e-001	 3.399969999982150e+000	 2.155981776647329e+001
0	 6.666972226472177e-001	 3.466639999981867e+000	 2.048255296739935e+001
0	 6.666972226472177e-001	 3.533309999982382e+000	 1.943119994868994e+001
0	 6.666972226472177e-001	 3.599979999983599e+000	 1.840492678038937e+001
0	 6.666972226472175e-001	 3.666649999985416e+000	 1.740290153254215e+001
0	 6.666972226472175e-001	 3.733319999987733e+000	 1.642429227519265e+001
0	 6.666972226472175e-001	 3.799989999990450e+000	 1.546826707838551e+001
0	 6.666972226472177e-001	 3.866659999993467e+000	 1.453399401216528e+001
0	 6.666972226472175e-001	 3.933329999996683e+000	 1.362064114657661e+001
0	 6.666972226472175e-001	 4.000000000000001e+000	 1.272737655166429e+001
0	 7.333579753122049e-001	 3.333299999983334e+000	 1.874339159346440e+001
0	 7.333579753122048e-001	 3.399969999982150e+000	 1.807107932462684e+001
0	 7.333579753122047e-001	 3.466639999981868e+000	 1.741250072110933e+001
0	 7.333579753122048e-001	 3.533309999982382e+000	 1.676405253116662e+001
0	 7.333579753122049e-001	 3.599979999983600e+000	 1.612213150305337e+001
0	 7.333579753122046e-001	 3.666649999985416e+000	 1.548313438502419e+001
0	 7.333579753122047e-001	 3.733319999987733e+000	 1.484345792533359e+001
0	 7.333579753122048e-001	 3.799989999990450e+000	 1.419949887223598e+001
0	 7.333579753122048e-001	 3.866659999993467e+000	 1.354765397398584e+001
0	 7.333579753122047e-001	 3.933329999996684e+000	 1.288431997883735e+001
0	 7.333579753122048e-001	 4.000000000000002e+000	 1.220589363504479e+001
0	 8.000185779984420e-001	 3.333299999983334e+000	 1.538535558851967e+001
0	 8.000185779984421e-001	 3.399969999982151e+000	 1.506244730971553e+001
0	 8.000185779984418e-001	 3.466639999981866e+000	 1.474570702364146e+001
0	 8.000185779984418e-001	 3.533309999982383e+000	 1.442906069582489e+001
0	 8.000185779984419e-001	 3.599979999983600e+000	 1.410643429179324e+001
0	 8.000185779984420e-001	 3.666649999985417e+000	 1.377175377707360e+001
0	 8.000185779984417e-001	 3.733319999987733e+000	 1.341894511719303e+001
0	 8.000185779984418e-001	 3.799989999990451e+000	 1.304193427767832e+001
0	 8.000185779984416e-001	 3.866659999993466e+000	 1.263464722405623e+001
0	 8.000185779984418e-001	 3.933329999996683e+000	 1.219100992185322e+001
0	 8.000185779984418e-001	 4.000000000000001e+000	 1.170494833659571e+001
0	 8.666790473703454e-001	 3.333299999983333e+000	 1.255209389982415e+001
0	 8.666790473703452e-001	 3.399969999982150e+000	 1.250408191418133e+001
0	 8.666790473703453e-001	 3.466639999981866e+000	 1.245932248895055e+001
0	 8.666790473703455e-001	 3.533309999982383e+000	 1.240957134976322e+001
0	 8.666790473703453e-001	 3.599979999983600e+000	 1.234658422225063e+001
0	 8.666790473703453e-001	 3.666649999985416e+000	 1.226211683204377e+001
0	 8.666790473703456e-001	 3.733319999987733e+000	 1.214792490477349e+001
0	 8.666790473703456e-001	 3.799989999990451e+000	 1.199576416607045e+001
0	 8.666790473703452e-001	 3.866659999993467e+000	 1.179739034156508e+001
0	 8.666790473703453e-001	 3.933329999996683e+000	 1.154455915688764e+001
0	 8.666790473703455e-001	 4.000000000000001e+000	 1.122902633766815e+001
0	 9.333394000923324e-001	 3.333299999983334e+000	 1.020598181009181e+001
0	 9.333394000923320e-001	 3.399969999982149e+000	 1.036614300728413e+001
0	 9.333394000923324e-001	 3.466639999981867e+000	 1.053049744109343e+001
0	 9.333394000923322e-001	 3.533309999982383e+000	 1.068893114340449e+001
0	 9.333394000923324e-001	 3.599979999983600e+000	 1.083133014610186e+001
0	 9.333394000923322e-001	 3.666649999985416e+000	 1.094758048106988e+001
0	 9.333394000923323e-001	 3.733319999987733e+000	 1.102756818019273e+001
0	 9.333394000923319e-001	 3.799989999990449e+000	 1.106117927535430e+001
0	 9.333394000923324e-001	 3.866659999993468e+000	 1.103829979843837e+001
0	 9.333394000923323e-001	 3.933329999996683e+000	 1.094881578132849e+001
0	 9.333394000923324e-001	 4.000000000000000e+000	 1.078261325590798e+001
0	 9.999996528288191e-001	 3.333299999983334e+000	 8.309394245949376e+000
0	 9.999996528288189e-001	 3.399969999982150e+000	 8.618790135092327e+000
0	 9.999996528288191e-001	 3.466639999981867e+000	 8.936381914220519e+000
0	 9.999996528288190e-001	 3.533309999982383e+000	 9.250486470488756e+000
0	 9.999996528288191e-001	 3.599979999983600e+000	 9.549420691051600e+000
0	 9.999996528288190e-001	 3.666649999985416e+000	 9.821501463063553e+000
0	 9.999996528288191e-001	 3.733319999987733e+000	 1.005504567367891e+001
0	 9.999996528288192e-001	 3.799989999990450e+000	 1.023837021005176e+001
0	 9.999996528288191e-001	 3.866659999993466e+000	 1.035979195933603e+001
0	 9.999996528288193e-001	 3.933329999996685e+000	 1.040762780868547e+001
0	 9.999996528288191e-001	 4.000000000000000e+000	 1.037019464525370e+001
0	 1.066659822244222e+000	 3.333299999983333e+000	 6.824705777927317e+000
0	 1.066659822244222e+000	 3.399969999982150e+000	 7.232182520474804e+000
0	 1.066659822244222e+000	 3.466639999981866e+000	 7.654125652568501e+000
0	 1.066659822244222e+000	 3.533309999982383e+000	 8.077583468066543e+000
0	 1.066659822244222e+000	 3.599979999983600e+000	 8.489604260826958e+000
0	 1.066659822244222e+000	 3.666649999985416e+000	 8.877236324707697e+000
0	 1.066659822244222e+000	 3.733319999987733e+000	 9.227527953566574e+000
0	 1.066659822244223e+000	 3.799989999990450e+000	 9.527527441261238e+000
0	 1.066659822244222e+000	 3.866659999993466e+000	 9.764283081649241e+000
0	 1.066659822244223e+000	 3.933329999996684e+000	 9.924843168588005e+000
0	 1.066659822244223e+000	 4.000000000000000e+000	 9.996255995934890e+000
0	 1.133319925002959e+000	 3.333299999983334e+000	 5.714290620452355e+000
0	 1.133319925002959e+000	 3.399969999982149e+000	 6.176479063093887e+000
0	 1.133319925002959e+000	 3.466639999981866e+000	 6.660878110454070e+000
0	 1.133319925002959e+000	 3.533309999982382e+000	 7.153568016493503e+000
0	 1.133319925002959e+000	 3.599979999983600e+000	 7.640629035172806e+000
0	 1.133319925002959e+000	 3.666649999985416e+000	 8.108141420452450e+000
0	 1.133319925002959e+000	 3.733319999987733e+000	 8.542185426292978e+000
0	 1.133319925002959e+000	 3.799989999990450e+000	 8.928841306654723e+000
0	 1.133319925002959e+000	 3.866659999993466e+000	 9.254189315498085e+000
0	 1.133319925002959e+000	 3.933329999996684e+000	 9.504309706783335e+000
0	 1.133319925002959e+000	 4.000000000000000e+000	 9.665282734470731e+000
0	 1.199979977769445e+000	 3.333299999983334e+000	 4.940522631841140e+000
0	 1.199979977769446e+000	 3.399969999982150e+000	 5.421838339399693e+000
0	 1.199979977769445e+000	 3.466639999981866e+000	 5.933788452268878e+000
0	 1.199979977769445e+000	 3.533309999982383e+000	 6.461785739425820e+000
0	 1.199979977769445e+000	 3.599979999983599e+000	 6.991242969847683e+000
0	 1.199979977769445e+000	 3.666649999985416e+000	 7.507572912511773e+000
0	 1.199979977769445e+000	 3.733319999987733e+000	 7.996188336395250e+000
0	 1.199979977769445e+000	 3.799989999990450e+000	 8.442502010475417e+000
0	 1.199979977769445e+000	 3.866659999993466e+000	 8.831926703729513e+000
0	 1.199979977769445e+000	 3.933329999996684e+000	 9.149875185134862e+000
0	 1.199979977769445e+000	 4.000000000000000e+000	 9.381760223668730e+000
0	 1.266639997208098e+000	 3.333299999983334e+000	 4.465775314295167e+000
0	 1.266639997208098e+000	 3.399969999982151e+000	 4.938418602625665e+000
0	 1.266639997208098e+000	 3.466639999981867e+000	 5.450005552475437e+000
0	 1.266639997208098e+000	 3.533309999982383e+000	 5.985582003816455e+000
0	 1.266639997208098e+000	 3.599979999983599e+000	 6.530193796620794e+000
0	 1.266639997208098e+000	 3.666649999985415e+000	 7.068886770860582e+000
0	 1.266639997208098e+000	 3.733319999987732e+000	 7.586706766508112e+000
0	 1.266639997208098e+000	 3.799989999990451e+000	 8.068699623535718e+000
0	 1.266639997208098e+000	 3.866659999993466e+000	 8.499911181915799e+000
0	 1.266639997208098e+000	 3.933329999996684e+000	 8.865387281620956e+000
0	 1.266639997208098e+000	 4.000000000000001e+000	 9.150173762623778e+000
0	 1.333299999983334e+000	 3.333299999983334e+000	 4.252421813897338e+000
0	 1.333299999983334e+000	 3.399969999982149e+000	 4.696377782785130e+000
0	 1.333299999983334e+000	 3.466639999981867e+000	 5.186677995604160e+000
0	 1.333299999983334e+000	 3.533309999982383e+000	 5.708301919912773e+000
0	 1.333299999983334e+000	 3.599979999983599e+000	 6.246229023269446e+000
0	 1.333299999983334e+000	 3.666649999985416e+000	 6.785438773232935e+000
0	 1.333299999983334e+000	 3.733319999987733e+000	 7.310910637362027e+000
0	 1.333299999983334e+000	 3.799989999990450e+000	 7.807624083215787e+000
0	 1.333299999983334e+000	 3.866659999993467e+000	 8.260558578353335e+000
0	 1.333299999983334e+000	 3.933329999996683e+000	 8.654693590334043e+000
0	 1.333299999983334e+000	 4.000000000000000e+000	 8.975008586717395e+000
0	 6.666972226472175e-001	 4.000000000000001e+000	 1.272737655166429e+001
0	 6.666972226472178e-001	 4.066670000003317e+000	 1.189484821667523e+001
0	 6.666972226472177e-001	 4.133340000006535e+000	 1.116373709743587e+001
0	 6.666972226472177e-001	 4.200010000009550e+000	 1.053326071386091e+001
0	 6.666972226472177e-001	 4.266680000012267e+000	 1.000263658586576e+001
0	 6.666972226472175e-001	 4.333350000014583e+000	 9.571082233366740e+000
0	 6.666972226472175e-001	 4.400020000016400e+000	 9.237815176280892e+000
0	 6.666972226472175e-001	 4.466690000017618e+000	 9.002052934526105e+000
0	 6.666972226472177e-001	 4.533360000018134e+000	 8.863013028021085e+000
0	 6.666972226472177e-001	 4.600030000017851e+000	 8.819912976685295e+000
0	 6.666972226472178e-001	 4.666700000016666e+000	 8.871970300439051e+000
0	 7.333579753122048e-001	 4.000000000000002e+000	 1.220589363504479e+001
0	 7.333579753122047e-001	 4.066670000003317e+000	 1.155332264671367e+001
0	 7.333579753122047e-001	 4.133340000006533e+000	 1.097091286474460e+001
0	 7.333579753122049e-001	 4.200010000009551e+000	 1.046009825758507e+001
0	 7.333579753122048e-001	 4.266680000012269e+000	 1.002231279368320e+001
0	 7.333579753122047e-001	 4.333350000014584e+000	 9.658990441487873e+000
0	 7.333579753122049e-001	 4.400020000016401e+000	 9.371565169448630e+000
0	 7.333579753122048e-001	 4.466690000017619e+000	 9.161470946015774e+000
0	 7.333579753122048e-001	 4.533360000018134e+000	 9.030141739640301e+000
0	 7.333579753122048e-001	 4.600030000017851e+000	 8.979011518773929e+000
0	 7.333579753122047e-001	 4.666700000016665e+000	 9.009514251869057e+000
0	 8.000185779984418e-001	 4.000000000000001e+000	 1.170494833659571e+001
0	 8.000185779984417e-001	 4.066670000003316e+000	 1.121566985906093e+001
0	 8.000185779984416e-001	 4.133340000006532e+000	 1.076870051530661e+001
0	 8.000185779984419e-001	 4.200010000009551e+000	 1.036744422378018e+001
0	 8.000185779984417e-001	 4.266680000012266e+000	 1.001530490292973e+001
0	 8.000185779984419e-001	 4.333350000014585e+000	 9.715686471203926e+000
0	 8.000185779984417e-001	 4.400020000016400e+000	 9.471992847052107e+000
0	 8.000185779984417e-001	 4.466690000017619e+000	 9.287627948924232e+000
0	 8.000185779984417e-001	 4.533360000018134e+000	 9.165995695270862e+000
0	 8.000185779984419e-001	 4.600030000017849e+000	 9.110500004543214e+000
0	 8.000185779984419e-001	 4.666700000016666e+000	 9.124544795193136e+000
0	 8.666790473703455e-001	 4.000000000000001e+000	 1.122902633766815e+001
0	 8.666790473703453e-001	 4.066670000003318e+000	 1.088657261310254e+001
0	 8.666790473703454e-001	 4.133340000006533e+000	 1.056189313987711e+001
0	 8.666790473703454e-001	 4.200010000009550e+000	 1.026011528485773e+001
0	 8.666790473703454e-001	 4.266680000012267e+000	 9.986366414910902e+000
0	 8.666790473703457e-001	 4.333350000014586e+000	 9.745773896903634e+000
0	 8.666790473703452e-001	 4.400020000016400e+000	 9.543465097703503e+000
0	 8.666790473703454e-001	 4.466690000017617e+000	 9.384567384178636e+000
0	 8.666790473703456e-001	 4.533360000018134e+000	 9.274208123197719e+000
0	 8.666790473703452e-001	 4.600030000017849e+000	 9.217514681629989e+000
0	 8.666790473703454e-001	 4.666700000016665e+000	 9.219614426345244e+000
0	 9.333394000923324e-001	 4.000000000000000e+000	 1.078261325590798e+001
0	 9.333394000923323e-001	 4.066670000003316e+000	 1.057071362115804e+001
0	 9.333394000923321e-001	 4.133340000006535e+000	 1.035528379548668e+001
0	 9.333394000923322e-001	 4.200010000009551e+000	 1.014292808991770e+001
0	 9.333394000923320e-001	 4.266680000012266e+000	 9.940250815475404e+000
0	 9.333394000923321e-001	 4.333350000014583e+000	 9.753856283184597e+000
0	 9.333394000923320e-001	 4.400020000016400e+000	 9.590348804070558e+000
0	 9.333394000923323e-001	 4.466690000017618e+000	 9.456332689159037e+000
0	 9.333394000923325e-001	 4.533360000018133e+000	 9.358412249476318e+000
0	 9.333394000923320e-001	 4.600030000017850e+000	 9.303191796049141e+000
0	 9.333394000923324e-001	 4.666700000016667e+000	 9.297275639904758e+000
0	 9.999996528288191e-001	 4.000000000000000e+000	 1.037019464525370e+001
0	 9.999996528288191e-001	 4.066670000003318e+000	 1.027277554847946e+001
0	 9.999996528288190e-001	 4.133340000006534e+000	 1.015366550544023e+001
0	 9.999996528288192e-001	 4.200010000009551e+000	 1.002069926474784e+001
0	 9.999996528288191e-001	 4.266680000012268e+000	 9.881711575014521e+000
0	 9.999996528288192e-001	 4.333350000014583e+000	 9.744537184852989e+000
0	 9.999996528288192e-001	 4.400020000016402e+000	 9.617010842876358e+000
0	 9.999996528288190e-001	 4.466690000017617e+000	 9.506967297698168e+000
0	 9.999996528288191e-001	 4.533360000018134e+000	 9.422241297932439e+000
0	 9.999996528288189e-001	 4.600030000017849e+000	 9.370667592193565e+000
0	 9.999996528288191e-001	 4.666700000016665e+000	 9.360080929096430e+000
0	 1.066659822244223e+000	 4.000000000000000e+000	 9.996255995934890e+000
0	 1.066659822244223e+000	 4.066670000003318e+000	 9.997441013250169e+000
0	 1.066659822244223e+000	 4.133340000006535e+000	 9.961831259316101e+000
0	 1.066659822244222e+000	 4.200010000009551e+000	 9.898245411823021e+000
0	 1.066659822244222e+000	 4.266680000012267e+000	 9.815502148461679e+000
0	 1.066659822244223e+000	 4.333350000014584e+000	 9.722420146923220e+000
0	 1.066659822244222e+000	 4.400020000016401e+000	 9.627818084899126e+000
0	 1.066659822244223e+000	 4.466690000017619e+000	 9.540514640081319e+000
0	 1.066659822244223e+000	 4.533360000018134e+000	 9.469328490162065e+000
0	 1.066659822244223e+000	 4.600030000017851e+000	 9.423078312834059e+000
0	 1.066659822244223e+000	 4.666700000016665e+000	 9.410582785790329e+000
0	 1.133319925002959e+000	 4.000000000000000e+000	 9.665282734470731e+000
0	 1.133319925002959e+000	 4.066670000003318e+000	 9.749392586583706e+000
0	 1.133319925002959e+000	 4.133340000006535e+000	 9.784574012965141e+000
0	 1.133319925002959e+000	 4.200010000009551e+000	 9.780383110304612e+000
0	 1.133319925002959e+000	 4.266680000012268e+000	 9.746375975292009e+000
0	 1.133319925002959e+000	 4.333350000014584e+000	 9.692108704617617e+000
0	 1.133319925002959e+000	 4.400020000016400e+000	 9.627137394972017e+000
0	 1.133319925002959e+000	 4.466690000017617e+000	 9.561018143046169e+000
0	 1.133319925002959e+000	 4.533360000018133e+000	 9.503307045531372e+000
0	 1.133319925002959e+000	 4.600030000017849e+000	 9.463560199119252e+000
0	 1.133319925002959e+000	 4.666700000016667e+000	 9.451333700501792e+000
0	 1.199979977769445e+000	 4.000000000000000e+000	 9.381760223668730e+000
0	 1.199979977769445e+000	 4.066670000003318e+000	 9.533312792522841e+000
0	 1.199979977769445e+000	 4.133340000006533e+000	 9.626686688510143e+000
0	 1.199979977769445e+000	 4.200010000009551e+000	 9.671928916039969e+000
0	 1.199979977769445e+000	 4.266680000012268e+000	 9.679086479522013e+000
0	 1.199979977769445e+000	 4.333350000014583e+000	 9.658206383366231e+000
0	 1.199979977769445e+000	 4.400020000016402e+000	 9.619335631982954e+000
0	 1.199979977769446e+000	 4.466690000017618e+000	 9.572521229782751e+000
0	 1.199979977769445e+000	 4.533360000018133e+000	 9.527810181176559e+000
0	 1.199979977769445e+000	 4.600030000017851e+000	 9.495249490575580e+000
0	 1.199979977769445e+000	 4.666700000016665e+000	 9.484886162391350e+000
0	 1.266639997208098e+000	 4.000000000000001e+000	 9.150173762623778e+000
0	 1.266639997208098e+000	 4.066670000003318e+000	 9.353884108038876e+000
0	 1.266639997208098e+000	 4.133340000006534e+000	 9.492962174345191e+000
0	 1.266639997208098e+000	 4.200010000009551e+000	 9.577699361562095e+000
0	 1.266639997208098e+000	 4.266680000012267e+000	 9.618387069709264e+000
0	 1.266639997208098e+000	 4.333350000014585e+000	 9.625316698806651e+000
0	 1.266639997208098e+000	 4.400020000016401e+000	 9.608779648874481e+000
0	 1.266639997208098e+000	 4.466690000017618e+000	 9.579067319933280e+000
0	 1.266639997208098e+000	 4.533360000018133e+000	 9.546471112003808e+000
0	 1.266639997208098e+000	 4.600030000017850e+000	 9.521282425107151e+000
0	 1.266639997208098e+000	 4.666700000016666e+000	 9.513792659264668e+000
0	 1.333299999983334e+000	 4.000000000000000e+000	 8.975008586717395e+000
0	 1.333299999983334e+000	 4.066670000003317e+000	 9.215788963030988e+000
0	 1.333299999983334e+000	 4.133340000006535e+000	 9.388193325135227e+000
0	 1.333299999983334e+000	 4.200010000009550e+000	 9.502510956089195e+000
0	 1.333299999983334e+000	 4.266680000012268e+000	 9.569031138952157e+000
0	 1.333299999983334e+000	 4.333350000014584e+000	 9.598043156783717e+000
0	 1.333299999983334e+000	 4.400020000016402e+000	 9.599836292643651e+000
0	 1.333299999983334e+000	 4.466690000017619e+000	 9.584699829592053e+000
0	 1.333299999983334e+000	 4.533360000018134e+000	 9.562923050689239e+000
0	 1.333299999983334e+000	 4.600030000017851e+000	 9.544795238995789e+000
0	 1.333299999983334e+000	 4.666700000016667e+000	 9.540605677572547e+000
0	 6.666972226472178e-001	 4.666700000016666e+000	 8.871970300439052e+000
0	 6.666972226472177e-001	 4.733360000014533e+000	 8.968128282704075e+000
0	 6.666972226472177e-001	 4.800020000011600e+000	 9.057514892948673e+000
0	 6.666972226472178e-001	 4.866680000008067e+000	 9.139579963566554e+000
0	 6.666972226472175e-001	 4.933340000004133e+000	 9.213773326951653e+000
0	 6.666972226472174e-001	 4.999999999999999e+000	 9.279544815498058e+000
0	 6.666972226472178e-001	 5.066659999995868e+000	 9.336344261600107e+000
0	 6.666972226472177e-001	 5.133319999991935e+000	 9.383621497652285e+000
0	 6.666972226472178e-001	 5.199979999988400e+000	 9.420826356049309e+000
0	 6.666972226472177e-001	 5.266639999985468e+000	 9.447408669186077e+000
0	 6.666972226472175e-001	 5.333299999983334e+000	 9.462818269457705e+000
0	 7.333579753122047e-001	 4.666700000016665e+000	 9.009514251869057e+000
0	 7.333579753122049e-001	 4.733360000014534e+000	 9.079432470737340e+000
0	 7.333579753122046e-001	 4.800020000011598e+000	 9.145295383436958e+000
0	 7.333579753122049e-001	 4.866680000008067e+000	 9.206624665666306e+000
0	 7.333579753122049e-001	 4.933340000004135e+000	 9.262941993123933e+000
0	 7.333579753122050e-001	 5.000000000000000e+000	 9.313769041508513e+000
0	 7.333579753122047e-001	 5.066659999995867e+000	 9.358627486518842e+000
0	 7.333579753122048e-001	 5.133319999991935e+000	 9.397039003853893e+000
0	 7.333579753122048e-001	 5.199979999988400e+000	 9.428525269212715e+000
0	 7.333579753122052e-001	 5.266639999985467e+000	 9.452607958294555e+000
0	 7.333579753122048e-001	 5.333299999983334e+000	 9.468808746798754e+000
0	 8.000185779984419e-001	 4.666700000016666e+000	 9.124544795193140e+000
0	 8.000185779984421e-001	 4.733360000014534e+000	 9.173621617764887e+000
0	 8.000185779984419e-001	 4.800020000011602e+000	 9.220700623930961e+000
0	 8.000185779984418e-001	 4.866680000008066e+000	 9.265381157608061e+000
0	 8.000185779984419e-001	 4.933340000004133e+000	 9.307262562712941e+000
0	 8.000185779984418e-001	 5.000000000000000e+000	 9.345944183162473e+000
0	 8.000185779984419e-001	 5.066659999995867e+000	 9.381025362873590e+000
0	 8.000185779984420e-001	 5.133319999991934e+000	 9.412105445763324e+000
0	 8.000185779984418e-001	 5.199979999988401e+000	 9.438783775748771e+000
0	 8.000185779984418e-001	 5.266639999985467e+000	 9.460659696747145e+000
0	 8.000185779984419e-001	 5.333299999983336e+000	 9.477332552675737e+000
0	 8.666790473703454e-001	 4.666700000016665e+000	 9.219614426345245e+000
0	 8.666790473703455e-001	 4.733360000014535e+000	 9.252655556530588e+000
0	 8.666790473703452e-001	 4.800020000011600e+000	 9.285166545951265e+000
0	 8.666790473703454e-001	 4.866680000008067e+000	 9.316830231634706e+000
0	 8.666790473703455e-001	 4.933340000004133e+000	 9.347329450608422e+000
0	 8.666790473703455e-001	 5.000000000000000e+000	 9.376347039899963e+000
0	 8.666790473703454e-001	 5.066659999995865e+000	 9.403565836536915e+000
0	 8.666790473703455e-001	 5.133319999991934e+000	 9.428668677546913e+000
0	 8.666790473703455e-001	 5.199979999988401e+000	 9.451338399957633e+000
0	 8.666790473703455e-001	 5.266639999985467e+000	 9.471257840796799e+000
0	 8.666790473703454e-001	 5.333299999983334e+000	 9.488109837092191e+000
0	 9.333394000923324e-001	 4.666700000016667e+000	 9.297275639904758e+000
0	 9.333394000923324e-001	 4.733360000014534e+000	 9.318494118657496e+000
0	 9.333394000923323e-001	 4.800020000011600e+000	 9.340129080151995e+000
0	 9.333394000923324e-001	 4.866680000008067e+000	 9.361952679389141e+000
0	 9.333394000923324e-001	 4.933340000004133e+000	 9.383737071369765e+000
0	 9.333394000923323e-001	 5.000000000000000e+000	 9.405254411094797e+000
0	 9.333394000923324e-001	 5.066659999995867e+000	 9.426276853565119e+000
0	 9.333394000923325e-001	 5.133319999991934e+000	 9.446576553781652e+000
0	 9.333394000923323e-001	 5.199979999988401e+000	 9.465925666745342e+000
0	 9.333394000923325e-001	 5.266639999985470e+000	 9.484096347457113e+000
0	 9.333394000923324e-001	 5.333299999983335e+000	 9.500860750917955e+000
0	 9.999996528288191e-001	 4.666700000016665e+000	 9.360080929096430e+000
0	 9.999996528288191e-001	 4.733360000014534e+000	 9.373097134647736e+000
0	 9.999996528288190e-001	 4.800020000011599e+000	 9.387024156320893e+000
0	 9.999996528288191e-001	 4.866680000008067e+000	 9.401729291914208e+000
0	 9.999996528288193e-001	 4.933340000004134e+000	 9.417079839225991e+000
0	 9.999996528288190e-001	 4.999999999999999e+000	 9.432943096054551e+000
0	 9.999996528288192e-001	 5.066659999995866e+000	 9.449186360198185e+000
0	 9.999996528288191e-001	 5.133319999991935e+000	 9.465676929455178e+000
0	 9.999996528288192e-001	 5.199979999988400e+000	 9.482282101623815e+000
0	 9.999996528288192e-001	 5.266639999985466e+000	 9.498869174502376e+000
0	 9.999996528288190e-001	 5.333299999983333e+000	 9.515305445889114e+000
0	 1.066659822244223e+000	 4.666700000016665e+000	 9.410582785790330e+000
0	 1.066659822244223e+000	 4.733360000014534e+000	 9.418424433882535e+000
0	 1.066659822244223e+000	 4.800020000011601e+000	 9.427287703379164e+000
0	 1.066659822244222e+000	 4.866680000008065e+000	 9.437140859652722e+000
0	 1.066659822244223e+000	 4.933340000004134e+000	 9.447952168075704e+000
0	 1.066659822244223e+000	 5.000000000000001e+000	 9.459689894020588e+000
0	 1.066659822244223e+000	 5.066659999995867e+000	 9.472322302859801e+000
0	 1.066659822244223e+000	 5.133319999991935e+000	 9.485817659965774e+000
0	 1.066659822244222e+000	 5.199979999988401e+000	 9.500144230710893e+000
0	 1.066659822244223e+000	 5.266639999985467e+000	 9.515270280467538e+000
0	 1.066659822244222e+000	 5.333299999983333e+000	 9.531164074608055e+000
0	 1.133319925002959e+000	 4.666700000016667e+000	 9.451333700501792e+000
0	 1.133319925002959e+000	 4.733360000014533e+000	 9.456435844622099e+000
0	 1.133319925002959e+000	 4.800020000011601e+000	 9.462355649381498e+000
0	 1.133319925002959e+000	 4.866680000008065e+000	 9.469168172447384e+000
0	 1.133319925002959e+000	 4.933340000004135e+000	 9.476948471487122e+000
0	 1.133319925002959e+000	 5.000000000000000e+000	 9.485771604168006e+000
0	 1.133319925002959e+000	 5.066659999995867e+000	 9.495712628157337e+000
0	 1.133319925002959e+000	 5.133319999991935e+000	 9.506846601122343e+000
0	 1.133319925002959e+000	 5.199979999988400e+000	 9.519248580730249e+000
0	 1.133319925002959e+000	 5.266639999985467e+000	 9.532993624648224e+000
0	 1.133319925002959e+000	 5.333299999983335e+000	 9.548156790543409e+000
0	 1.199979977769445e+000	 4.666700000016665e+000	 9.484886162391350e+000
0	 1.199979977769445e+000	 4.733360000014533e+000	 9.489091194005583e+000
0	 1.199979977769445e+000	 4.800020000011599e+000	 9.493663921516012e+000
0	 1.199979977769446e+000	 4.866680000008067e+000	 9.498792019540774e+000
0	 1.199979977769445e+000	 4.933340000004133e+000	 9.504663162697966e+000
0	 1.199979977769445e+000	 4.999999999999999e+000	 9.511465025605633e+000
0	 1.199979977769445e+000	 5.066659999995866e+000	 9.519385282881784e+000
0	 1.199979977769445e+000	 5.133319999991933e+000	 9.528611609144399e+000
0	 1.199979977769445e+000	 5.199979999988399e+000	 9.539331679011410e+000
0	 1.199979977769445e+000	 5.266639999985467e+000	 9.551733167100696e+000
0	 1.199979977769445e+000	 5.333299999983335e+000	 9.566003748030093e+000
0	 1.266639997208098e+000	 4.666700000016666e+000	 9.513792659264668e+000
0	 1.266639997208098e+000	 4.733360000014533e+000	 9.518350308051094e+000
0	 1.266639997208098e+000	 4.800020000011601e+000	 9.522648446104229e+000
0	 1.266639997208098e+000	 4.866680000008067e+000	 9.526993189575309e+000
0	 1.266639997208098e+000	 4.933340000004135e+000	 9.531690654615508e+000
0	 1.266639997208098e+000	 4.999999999999999e+000	 9.537046957375981e+000
0	 1.266639997208098e+000	 5.066659999995866e+000	 9.543368214007828e+000
0	 1.266639997208098e+000	 5.133319999991934e+000	 9.550960540662089e+000
0	 1.266639997208098e+000	 5.199979999988400e+000	 9.560130053489775e+000
0	 1.266639997208098e+000	 5.266639999985467e+000	 9.571182868641870e+000
0	 1.266639997208098e+000	 5.333299999983331e+000	 9.584425102269256e+000
0	 1.333299999983334e+000	 4.666700000016667e+000	 9.540605677572550e+000
0	 1.333299999983334e+000	 4.733360000014533e+000	 9.546173011655620e+000
0	 1.333299999983334e+000	 4.800020000011600e+000	 9.550745148601044e+000
0	 1.333299999983334e+000	 4.866680000008067e+000	 9.554752470593231e+000
0	 1.333299999983334e+000	 4.933340000004134e+000	 9.558625359816531e+000
0	 1.333299999983334e+000	 5.000000000000000e+000	 9.562794198455276e+000
0	 1.333299999983334e+000	 5.066659999995867e+000	 9.567689368693724e+000
0	 1.333299999983334e+000	 5.133319999991934e+000	 9.573741252716102e+000
0	 1.333299999983334e+000	 5.199979999988400e+000	 9.581380232706579e+000
0	 1.333299999983334e+000	 5.266639999985467e+000	 9.591036690849279e+000
0	 1.333299999983334e+000	 5.333299999983335e+000	 9.603141009328301e+000
0	 6.666972226472175e-001	 5.333299999983334e+000	 9.462818269457703e+000
0	 6.666972226472177e-001	 5.399969999982150e+000	 9.472601182266052e+000
0	 6.666972226472175e-001	 5.466639999981865e+000	 9.482746789496860e+000
0	 6.666972226472177e-001	 5.533309999982382e+000	 9.493374296639562e+000
0	 6.666972226472177e-001	 5.599979999983599e+000	 9.504602909183648e+000
0	 6.666972226472174e-001	 5.666649999985414e+000	 9.516551832618598e+000
0	 6.666972226472177e-001	 5.733319999987732e+000	 9.529340272433887e+000
0	 6.666972226472177e-001	 5.799989999990449e+000	 9.543087434119013e+000
0	 6.666972226472178e-001	 5.866659999993467e+000	 9.557912523163481e+000
0	 6.666972226472177e-001	 5.933329999996684e+000	 9.573934745056800e+000
0	 6.666972226472177e-001	 6.000000000000000e+000	 9.591273305288503e+000
0	 7.333579753122048e-001	 5.333299999983334e+000	 9.468808746798755e+000
0	 7.333579753122048e-001	 5.399969999982151e+000	 9.480827861140218e+000
0	 7.333579753122047e-001	 5.466639999981865e+000	 9.492768387629877e+000
0	 7.333579753122048e-001	 5.533309999982381e+000	 9.504761737534345e+000
0	 7.333579753122049e-001	 5.599979999983600e+000	 9.516939322120257e+000
0	 7.333579753122046e-001	 5.666649999985414e+000	 9.529432552654226e+000
0	 7.333579753122048e-001	 5.733319999987733e+000	 9.542372840402912e+000
0	 7.333579753122049e-001	 5.799989999990450e+000	 9.555891596632938e+000
0	 7.333579753122047e-001	 5.866659999993466e+000	 9.570120232610980e+000
0	 7.333579753122047e-001	 5.933329999996683e+000	 9.585190159603663e+000
0	 7.333579753122048e-001	 6.000000000000002e+000	 9.601232788877647e+000
0	 8.000185779984419e-001	 5.333299999983336e+000	 9.477332552675735e+000
0	 8.000185779984421e-001	 5.399969999982150e+000	 9.491015455467467e+000
0	 8.000185779984415e-001	 5.466639999981865e+000	 9.504276264100437e+000
0	 8.000185779984418e-001	 5.533309999982385e+000	 9.517252715684121e+000
0	 8.000185779984419e-001	 5.599979999983599e+000	 9.530082547327975e+000
0	 8.000185779984419e-001	 5.666649999985417e+000	 9.542903496141475e+000
0	 8.000185779984418e-001	 5.733319999987733e+000	 9.555853299234087e+000
0	 8.000185779984419e-001	 5.799989999990450e+000	 9.569069693715296e+000
0	 8.000185779984416e-001	 5.866659999993466e+000	 9.582690416694550e+000
0	 8.000185779984419e-001	 5.933329999996683e+000	 9.596853205281354e+000
0	 8.000185779984420e-001	 6.000000000000001e+000	 9.611695796585188e+000
0	 8.666790473703454e-001	 5.333299999983334e+000	 9.488109837092191e+000
0	 8.666790473703452e-001	 5.399969999982148e+000	 9.502941206167609e+000
0	 8.666790473703453e-001	 5.466639999981866e+000	 9.517097765089833e+000
0	 8.666790473703455e-001	 5.533309999982383e+000	 9.530717696834611e+000
0	 8.666790473703454e-001	 5.599979999983598e+000	 9.543939184377724e+000
0	 8.666790473703456e-001	 5.666649999985415e+000	 9.556900410694906e+000
0	 8.666790473703454e-001	 5.733319999987732e+000	 9.569739558761958e+000
0	 8.666790473703453e-001	 5.799989999990449e+000	 9.582594811554612e+000
0	 8.666790473703452e-001	 5.866659999993465e+000	 9.595604352048634e+000
0	 8.666790473703455e-001	 5.933329999996685e+000	 9.608906363219798e+000
0	 8.666790473703456e-001	 6.000000000000002e+000	 9.622639028043867e+000
0	 9.333394000923324e-001	 5.333299999983335e+000	 9.500860750917955e+000
0	 9.333394000923320e-001	 5.399969999982149e+000	 9.516382355077351e+000
0	 9.333394000923324e-001	 5.466639999981867e+000	 9.531060237697698e+000
0	 9.333394000923321e-001	 5.533309999982382e+000	 9.545027147611078e+000
0	 9.333394000923323e-001	 5.599979999983601e+000	 9.558415833649613e+000
0	 9.333394000923322e-001	 5.666649999985417e+000	 9.571359044645394e+000
0	 9.333394000923321e-001	 5.733319999987733e+000	 9.583989529430545e+000
0	 9.333394000923323e-001	 5.799989999990450e+000	 9.596440036837146e+000
0	 9.333394000923324e-001	 5.866659999993468e+000	 9.608843315697321e+000
0	 9.333394000923324e-001	 5.933329999996683e+000	 9.621332114843138e+000
0	 9.333394000923322e-001	 5.999999999999998e+000	 9.634039183106710e+000
0	 9.999996528288190e-001	 5.333299999983333e+000	 9.515305445889116e+000
0	 9.999996528288190e-001	 5.399969999982149e+000	 9.531116144950278e+000
0	 9.999996528288192e-001	 5.466639999981866e+000	 9.545991029942059e+000
0	 9.999996528288191e-001	 5.533309999982384e+000	 9.560051535518355e+000
0	 9.999996528288190e-001	 5.599979999983600e+000	 9.573419096333073e+000
0	 9.999996528288191e-001	 5.666649999985416e+000	 9.586215147040123e+000
0	 9.999996528288192e-001	 5.733319999987734e+000	 9.598561122293427e+000
0	 9.999996528288192e-001	 5.799989999990449e+000	 9.610578456746866e+000
0	 9.999996528288192e-001	 5.866659999993467e+000	 9.622388585054356e+000
0	 9.999996528288192e-001	 5.933329999996683e+000	 9.634112941869779e+000
0	 9.999996528288192e-001	 6.000000000000000e+000	 9.645872961847035e+000
0	 1.066659822244222e+000	 5.333299999983333e+000	 9.531164074608055e+000
0	 1.066659822244222e+000	 5.399969999982149e+000	 9.546919819456869e+000
0	 1.066659822244222e+000	 5.466639999981865e+000	 9.561717490759325e+000
0	 1.066659822244223e+000	 5.533309999982383e+000	 9.575661328940820e+000
0	 1.066659822244223e+000	 5.599979999983600e+000	 9.588855574426777e+000
0	 1.066659822244222e+000	 5.666649999985417e+000	 9.601404467642581e+000
0	 1.066659822244223e+000	 5.733319999987733e+000	 9.613412249013658e+000
0	 1.066659822244223e+000	 5.799989999990450e+000	 9.624983158965394e+000
0	 1.066659822244222e+000	 5.866659999993467e+000	 9.636221437923169e+000
0	 1.066659822244223e+000	 5.933329999996684e+000	 9.647231326312380e+000
0	 1.066659822244223e+000	 6.000000000000000e+000	 9.658117064558425e+000
0	 1.133319925002959e+000	 5.333299999983335e+000	 9.548156790543411e+000
0	 1.133319925002959e+000	 5.399969999982148e+000	 9.563570623184464e+000
0	 1.133319925002959e+000	 5.466639999981866e+000	 9.578066970004254e+000
0	 1.133319925002959e+000	 5.533309999982384e+000	 9.591726997142438e+000
0	 1.133319925002959e+000	 5.599979999983599e+000	 9.604631870738658e+000
0	 1.133319925002959e+000	 5.666649999985415e+000	 9.616862756932576e+000
0	 1.133319925002959e+000	 5.733319999987733e+000	 9.628500821863822e+000
0	 1.133319925002959e+000	 5.799989999990451e+000	 9.639627231672035e+000
0	 1.133319925002959e+000	 5.866659999993467e+000	 9.650323152496837e+000
0	 1.133319925002959e+000	 5.933329999996683e+000	 9.660669750477863e+000
0	 1.133319925002959e+000	 6.000000000000000e+000	 9.670748191754718e+000
0	 1.199979977769445e+000	 5.333299999983335e+000	 9.566003748030092e+000
0	 1.199979977769445e+000	 5.399969999982148e+000	 9.580845801637285e+000
0	 1.199979977769445e+000	 5.466639999981866e+000	 9.594866818449978e+000
0	 1.199979977769445e+000	 5.533309999982383e+000	 9.608119010266687e+000
0	 1.199979977769445e+000	 5.599979999983600e+000	 9.620654588885927e+000
0	 1.199979977769445e+000	 5.666649999985417e+000	 9.632525766106193e+000
0	 1.199979977769445e+000	 5.733319999987733e+000	 9.643784753725974e+000
0	 1.199979977769445e+000	 5.799989999990449e+000	 9.654483763543762e+000
0	 1.199979977769445e+000	 5.866659999993467e+000	 9.664675007358062e+000
0	 1.199979977769445e+000	 5.933329999996683e+000	 9.674410696967327e+000
0	 1.199979977769445e+000	 6.000000000000000e+000	 9.683743044170029e+000
0	 1.266639997208098e+000	 5.333299999983331e+000	 9.584425102269254e+000
0	 1.266639997208098e+000	 5.399969999982151e+000	 9.598522601236411e+000
0	 1.266639997208098e+000	 5.466639999981866e+000	 9.611944387787982e+000
0	 1.266639997208098e+000	 5.533309999982383e+000	 9.624707839336619e+000
0	 1.266639997208098e+000	 5.599979999983598e+000	 9.636830333295011e+000
0	 1.266639997208098e+000	 5.666649999985416e+000	 9.648329247075806e+000
0	 1.266639997208098e+000	 5.733319999987733e+000	 9.659221958091669e+000
0	 1.266639997208098e+000	 5.799989999990449e+000	 9.669525843755260e+000
0	 1.266639997208098e+000	 5.866659999993467e+000	 9.679258281479191e+000
0	 1.266639997208098e+000	 5.933329999996684e+000	 9.688436648676149e+000
0	 1.266639997208098e+000	 5.999999999999999e+000	 9.697078322758726e+000
0	 1.333299999983334e+000	 5.333299999983335e+000	 9.603141009328297e+000
0	 1.333299999983334e+000	 5.399969999982149e+000	 9.616378269319807e+000
0	 1.333299999983334e+000	 5.466639999981867e+000	 9.629127030628089e+000
0	 1.333299999983334e+000	 5.533309999982383e+000	 9.641363956254811e+000
0	 1.333299999983334e+000	 5.599979999983599e+000	 9.653065709201584e+000
0	 1.333299999983334e+000	 5.666649999985414e+000	 9.664208952470089e+000
0	 1.333299999983334e+000	 5.733319999987733e+000	 9.674770349061953e+000
0	 1.333299999983334e+000	 5.799989999990448e+000	 9.684726561978787e+000
0	 1.333299999983334e+000	 5.866659999993467e+000	 9.694054254222227e+000
0	 1.333299999983334e+000	 5.933329999996684e+000	 9.702730088793892e+000
0	 1.333299999983334e+000	 6.000000000000000e+000	 9.710730728695380e+000
0	 6.666972226472177e-001	 6.000000000000000e+000	 9.591273305288503e+000
0	 6.666972226472178e-001	 6.066670000003318e+000	 9.608951079500278e+000
0	 6.666972226472178e-001	 6.133340000006534e+000	 9.625878799074773e+000
0	 6.666972226472177e-001	 6.200010000009551e+000	 9.642007453112917e+000
0	 6.666972226472178e-001	 6.266680000012268e+000	 9.657288030715620e+000
0	 6.666972226472175e-001	 6.333350000014583e+000	 9.671671520983781e+000
0	 6.666972226472175e-001	 6.400020000016400e+000	 9.685108913018306e+000
0	 6.666972226472177e-001	 6.466690000017618e+000	 9.697551195920065e+000
0	 6.666972226472174e-001	 6.533360000018134e+000	 9.708949358789930e+000
0	 6.666972226472178e-001	 6.600030000017851e+000	 9.719254390728771e+000
0	 6.666972226472178e-001	 6.666700000016667e+000	 9.728417280837421e+000
0	 7.333579753122048e-001	 6.000000000000002e+000	 9.601232788877647e+000
0	 7.333579753122047e-001	 6.066670000003317e+000	 9.617549883364600e+000
0	 7.333579753122047e-001	 6.133340000006530e+000	 9.633317219106582e+000
0	 7.333579753122049e-001	 6.200010000009551e+000	 9.648477227035977e+000
0	 7.333579753122048e-001	 6.266680000012270e+000	 9.662972338085110e+000
0	 7.333579753122047e-001	 6.333350000014585e+000	 9.676744983186316e+000
0	 7.333579753122048e-001	 6.400020000016402e+000	 9.689737593271923e+000
0	 7.333579753122049e-001	 6.466690000017619e+000	 9.701892599274229e+000
0	 7.333579753122047e-001	 6.533360000018132e+000	 9.713152432125552e+000
0	 7.333579753122048e-001	 6.600030000017850e+000	 9.723459522758164e+000
0	 7.333579753122049e-001	 6.666700000016668e+000	 9.732756302104377e+000
0	 8.000185779984420e-001	 6.000000000000001e+000	 9.611695796585188e+000
0	 8.000185779984419e-001	 6.066670000003318e+000	 9.626755236323612e+000
0	 8.000185779984416e-001	 6.133340000006532e+000	 9.641434668995263e+000
0	 8.000185779984418e-001	 6.200010000009551e+000	 9.655670979881300e+000
0	 8.000185779984418e-001	 6.266680000012267e+000	 9.669401054262831e+000
0	 8.000185779984419e-001	 6.333350000014585e+000	 9.682561777420983e+000
0	 8.000185779984418e-001	 6.400020000016401e+000	 9.695090034636850e+000
0	 8.000185779984418e-001	 6.466690000017617e+000	 9.706922711191538e+000
0	 8.000185779984418e-001	 6.533360000018135e+000	 9.717996692366121e+000
0	 8.000185779984420e-001	 6.600030000017851e+000	 9.728248863441694e+000
0	 8.000185779984418e-001	 6.666700000016666e+000	 9.737616109699340e+000
0	 8.666790473703456e-001	 6.000000000000002e+000	 9.622639028043867e+000
0	 8.666790473703456e-001	 6.066670000003319e+000	 9.636535273993928e+000
0	 8.666790473703452e-001	 6.133340000006531e+000	 9.650192141339662e+000
0	 8.666790473703453e-001	 6.200010000009550e+000	 9.663543982251694e+000
0	 8.666790473703455e-001	 6.266680000012268e+000	 9.676525148900669e+000
0	 8.666790473703453e-001	 6.333350000014582e+000	 9.689069993457167e+000
0	 8.666790473703453e-001	 6.400020000016399e+000	 9.701112868091828e+000
0	 8.666790473703456e-001	 6.466690000017619e+000	 9.712588124975234e+000
0	 8.666790473703454e-001	 6.533360000018134e+000	 9.723430116278015e+000
0	 8.666790473703452e-001	 6.600030000017849e+000	 9.733573194170718e+000
0	 8.666790473703456e-001	 6.666700000016668e+000	 9.742951710823956e+000
0	 9.333394000923322e-001	 5.999999999999998e+000	 9.634039183106710e+000
0	 9.333394000923323e-001	 6.066670000003318e+000	 9.646858132166514e+000
0	 9.333394000923321e-001	 6.133340000006531e+000	 9.659550628892756e+000
0	 9.333394000923323e-001	 6.200010000009551e+000	 9.672051504905125e+000
0	 9.333394000923323e-001	 6.266680000012268e+000	 9.684295591823309e+000
0	 9.333394000923324e-001	 6.333350000014584e+000	 9.696217721267011e+000
0	 9.333394000923324e-001	 6.400020000016402e+000	 9.707752724855892e+000
0	 9.333394000923322e-001	 6.466690000017617e+000	 9.718835434209623e+000
0	 9.333394000923323e-001	 6.533360000018134e+000	 9.729400680947880e+000
0	 9.333394000923321e-001	 6.600030000017849e+000	 9.739383296690319e+000
0	 9.333394000923324e-001	 6.666700000016668e+000	 9.748718113056603e+000
0	 9.999996528288192e-001	 6.000000000000000e+000	 9.645872961847035e+000
0	 9.999996528288192e-001	 6.066670000003318e+000	 9.657691946806644e+000
0	 9.999996528288191e-001	 6.133340000006532e+000	 9.669471124561637e+000
0	 9.999996528288191e-001	 6.200010000009550e+000	 9.681148818754675e+000
0	 9.999996528288193e-001	 6.266680000012268e+000	 9.692663353028383e+000
0	 9.999996528288189e-001	 6.333350000014584e+000	 9.703953051025410e+000
0	 9.999996528288189e-001	 6.400020000016401e+000	 9.714956236388380e+000
0	 9.999996528288191e-001	 6.466690000017617e+000	 9.725611232759952e+000
0	 9.999996528288192e-001	 6.533360000018134e+000	 9.735856363782730e+000
0	 9.999996528288191e-001	 6.600030000017850e+000	 9.745629953099350e+000
0	 9.999996528288190e-001	 6.666700000016665e+000	 9.754870324352428e+000
0	 1.066659822244223e+000	 6.000000000000000e+000	 9.658117064558425e+000
0	 1.066659822244223e+000	 6.066670000003317e+000	 9.669004854053938e+000
0	 1.066659822244223e+000	 6.133340000006535e+000	 9.679914621407550e+000
0	 1.066659822244223e+000	 6.200010000009552e+000	 9.690791194868554e+000
0	 1.066659822244222e+000	 6.266680000012267e+000	 9.701579402686265e+000
0	 1.066659822244222e+000	 6.333350000014584e+000	 9.712224073109947e+000
0	 1.066659822244222e+000	 6.400020000016401e+000	 9.722670034388921e+000
0	 1.066659822244223e+000	 6.466690000017617e+000	 9.732862114772452e+000
0	 1.066659822244223e+000	 6.533360000018135e+000	 9.742745142509845e+000
0	 1.066659822244223e+000	 6.600030000017850e+000	 9.752263945850368e+000
0	 1.066659822244222e+000	 6.666700000016665e+000	 9.761363353043302e+000
0	 1.133319925002959e+000	 6.000000000000000e+000	 9.670748191754718e+000
0	 1.133319925002959e+000	 6.066670000003318e+000	 9.680764990222336e+000
0	 1.133319925002959e+000	 6.133340000006534e+000	 9.690842112645823e+000
0	 1.133319925002959e+000	 6.200010000009550e+000	 9.700933904470157e+000
0	 1.133319925002959e+000	 6.266680000012268e+000	 9.710994711140229e+000
0	 1.133319925002959e+000	 6.333350000014582e+000	 9.720978878101017e+000
0	 1.133319925002959e+000	 6.400020000016401e+000	 9.730840750797418e+000
0	 1.133319925002959e+000	 6.466690000017617e+000	 9.740534674674382e+000
0	 1.133319925002959e+000	 6.533360000018135e+000	 9.750014995176835e+000
0	 1.133319925002959e+000	 6.600030000017851e+000	 9.759236057749694e+000
0	 1.133319925002959e+000	 6.666700000016667e+000	 9.768152207837893e+000
0	 1.199979977769445e+000	 6.000000000000000e+000	 9.683743044170029e+000
0	 1.199979977769445e+000	 6.066670000003318e+000	 9.692940491800080e+000
0	 1.199979977769445e+000	 6.133340000006534e+000	 9.702214591645927e+000
0	 1.199979977769445e+000	 6.200010000009551e+000	 9.711532218937924e+000
0	 1.199979977769445e+000	 6.266680000012268e+000	 9.720860248906398e+000
0	 1.199979977769445e+000	 6.333350000014584e+000	 9.730165556781662e+000
0	 1.199979977769445e+000	 6.400020000016401e+000	 9.739415017794070e+000
0	 1.199979977769445e+000	 6.466690000017616e+000	 9.748575507173937e+000
0	 1.199979977769445e+000	 6.533360000018132e+000	 9.757613900151590e+000
0	 1.199979977769445e+000	 6.600030000017849e+000	 9.766497071957364e+000
0	 1.199979977769445e+000	 6.666700000016666e+000	 9.775191897821566e+000
0	 1.266639997208098e+000	 5.999999999999999e+000	 9.697078322758726e+000
0	 1.266639997208098e+000	 6.066670000003318e+000	 9.705499495449743e+000
0	 1.266639997208098e+000	 6.133340000006534e+000	 9.713993051931407e+000
0	 1.266639997208098e+000	 6.200010000009550e+000	 9.722541409805475e+000
0	 1.266639997208098e+000	 6.266680000012267e+000	 9.731126986673663e+000
0	 1.266639997208098e+000	 6.333350000014583e+000	 9.739732200137709e+000
0	 1.266639997208098e+000	 6.400020000016400e+000	 9.748339467799340e+000
0	 1.266639997208098e+000	 6.466690000017618e+000	 9.756931207260312e+000
0	 1.266639997208098e+000	 6.533360000018132e+000	 9.765489836122331e+000
0	 1.266639997208098e+000	 6.600030000017851e+000	 9.773997771987137e+000
0	 1.266639997208098e+000	 6.666700000016667e+000	 9.782437432456472e+000
0	 1.333299999983334e+000	 6.000000000000000e+000	 9.710730728695380e+000
0	 1.333299999983334e+000	 6.066670000003319e+000	 9.718410138008171e+000
0	 1.333299999983334e+000	 6.133340000006530e+000	 9.726138487179911e+000
0	 1.333299999983334e+000	 6.200010000009551e+000	 9.733916748761498e+000
0	 1.333299999983334e+000	 6.266680000012268e+000	 9.741745895303788e+000
0	 1.333299999983334e+000	 6.333350000014583e+000	 9.749626899357647e+000
0	 1.333299999983334e+000	 6.400020000016402e+000	 9.757560733473971e+000
0	 1.333299999983334e+000	 6.466690000017617e+000	 9.765548370203639e+000
0	 1.333299999983334e+000	 6.533360000018134e+000	 9.773590782097532e+000
0	 1.333299999983334e+000	 6.600030000017851e+000	 9.781688941706515e+000
0	 1.333299999983334e+000	 6.666700000016665e+000	 9.789843821581481e+000
0	 6.666972226472178e-001	 6.666700000016667e+000	 9.728417280837423e+000
0	 6.666972226472175e-001	 6.733360000014532e+000	 9.736987581062882e+000
0	 6.666972226472177e-001	 6.800020000011597e+000	 9.745563743259330e+000
0	 6.666972226472177e-001	 6.866680000008066e+000	 9.754166247614386e+000
0	 6.666972226472177e-001	 6.933340000004131e+000	 9.762815574315678e+000
0	 6.666972226472175e-001	 6.999999999999999e+000	 9.771532203550828e+000
0	 6.666972226472178e-001	 7.066659999995868e+000	 9.780336615507439e+000
0	 6.666972226472177e-001	 7.133319999991935e+000	 9.789249290373132e+000
0	 6.666972226472177e-001	 7.199979999988400e+000	 9.798290708335545e+000
0	 6.666972226472175e-001	 7.266639999985466e+000	 9.807481349582274e+000
0	 6.666972226472177e-001	 7.333299999983333e+000	 9.816841694300953e+000
0	 7.333579753122049e-001	 6.666700000016668e+000	 9.732756302104377e+000
0	 7.333579753122050e-001	 6.733360000014534e+000	 9.741484351334954e+000
0	 7.333579753122046e-001	 6.800020000011598e+000	 9.750143729003961e+000
0	 7.333579753122050e-001	 6.866680000008069e+000	 9.758760634720707e+000
0	 7.333579753122049e-001	 6.933340000004136e+000	 9.767361268094453e+000
0	 7.333579753122050e-001	 7.000000000000000e+000	 9.775971828734486e+000
0	 7.333579753122049e-001	 7.066659999995869e+000	 9.784618516250106e+000
0	 7.333579753122048e-001	 7.133319999991936e+000	 9.793327530250600e+000
0	 7.333579753122047e-001	 7.199979999988400e+000	 9.802125070345243e+000
0	 7.333579753122048e-001	 7.266639999985467e+000	 9.811037336143338e+000
0	 7.333579753122048e-001	 7.333299999983334e+000	 9.820090527254164e+000
0	 8.000185779984418e-001	 6.666700000016666e+000	 9.737616109699340e+000
0	 8.000185779984419e-001	 6.733360000014533e+000	 9.746442721474008e+000
0	 8.000185779984419e-001	 6.800020000011601e+000	 9.755138007329206e+000
0	 8.000185779984418e-001	 6.866680000008067e+000	 9.763732373403620e+000
0	 8.000185779984419e-001	 6.933340000004136e+000	 9.772256225835955e+000
0	 8.000185779984420e-001	 7.000000000000001e+000	 9.780739970764884e+000
0	 8.000185779984417e-001	 7.066659999995866e+000	 9.789214014329120e+000
0	 8.000185779984419e-001	 7.133319999991935e+000	 9.797708762667362e+000
0	 8.000185779984420e-001	 7.199979999988401e+000	 9.806254621918294e+000
0	 8.000185779984420e-001	 7.266639999985467e+000	 9.814881998220608e+000
0	 8.000185779984419e-001	 7.333299999983335e+000	 9.823621297713016e+000
0	 8.666790473703456e-001	 6.666700000016668e+000	 9.742951710823956e+000
0	 8.666790473703455e-001	 6.733360000014534e+000	 9.751822438520625e+000
0	 8.666790473703452e-001	 6.800020000011600e+000	 9.760510673443328e+000
0	 8.666790473703453e-001	 6.866680000008065e+000	 9.769049515355119e+000
0	 8.666790473703455e-001	 6.933340000004133e+000	 9.777472064019042e+000
0	 8.666790473703453e-001	 6.999999999999998e+000	 9.785811419198113e+000
0	 8.666790473703452e-001	 7.066659999995864e+000	 9.794100680655413e+000
0	 8.666790473703455e-001	 7.133319999991935e+000	 9.802372948153977e+000
0	 8.666790473703452e-001	 7.199979999988401e+000	 9.810661321456838e+000
0	 8.666790473703453e-001	 7.266639999985466e+000	 9.818998900327062e+000
0	 8.666790473703453e-001	 7.333299999983334e+000	 9.827418784527710e+000
0	 9.333394000923324e-001	 6.666700000016668e+000	 9.748718113056603e+000
0	 9.333394000923325e-001	 6.733360000014534e+000	 9.757583249901314e+000
0	 9.333394000923323e-001	 6.800020000011601e+000	 9.766225822937130e+000
0	 9.333394000923325e-001	 6.866680000008069e+000	 9.774680112635858e+000
0	 9.333394000923325e-001	 6.933340000004134e+000	 9.782980399469288e+000
0	 9.333394000923325e-001	 7.000000000000001e+000	 9.791160963909233e+000
0	 9.333394000923325e-001	 7.066659999995868e+000	 9.799256086427508e+000
0	 9.333394000923326e-001	 7.133319999991935e+000	 9.807300047495913e+000
0	 9.333394000923323e-001	 7.199979999988400e+000	 9.815327127586272e+000
0	 9.333394000923324e-001	 7.266639999985466e+000	 9.823371607170392e+000
0	 9.333394000923324e-001	 7.333299999983335e+000	 9.831467766720078e+000
0	 9.999996528288190e-001	 6.666700000016665e+000	 9.754870324352426e+000
0	 9.999996528288192e-001	 6.733360000014532e+000	 9.763684903428585e+000
0	 9.999996528288191e-001	 6.800020000011600e+000	 9.772247551783941e+000
0	 9.999996528288192e-001	 6.866680000008067e+000	 9.780592217675189e+000
0	 9.999996528288193e-001	 6.933340000004134e+000	 9.788752849359044e+000
0	 9.999996528288190e-001	 7.000000000000000e+000	 9.796763395092237e+000
0	 9.999996528288193e-001	 7.066659999995867e+000	 9.804657803131487e+000
0	 9.999996528288190e-001	 7.133319999991936e+000	 9.812470021733523e+000
0	 9.999996528288192e-001	 7.199979999988400e+000	 9.820233999155070e+000
0	 9.999996528288193e-001	 7.266639999985468e+000	 9.827983683652853e+000
0	 9.999996528288190e-001	 7.333299999983335e+000	 9.835753023483612e+000
0	 1.066659822244222e+000	 6.666700000016665e+000	 9.761363353043302e+000
0	 1.066659822244222e+000	 6.733360000014532e+000	 9.770087147300911e+000
0	 1.066659822244223e+000	 6.800020000011600e+000	 9.778539956339603e+000
0	 1.066659822244222e+000	 6.866680000008065e+000	 9.786753883271160e+000
0	 1.066659822244223e+000	 6.933340000004135e+000	 9.794761031207392e+000
0	 1.066659822244223e+000	 7.000000000000000e+000	 9.802593503260088e+000
0	 1.066659822244222e+000	 7.066659999995867e+000	 9.810283402541032e+000
0	 1.066659822244222e+000	 7.133319999991934e+000	 9.817862832162046e+000
0	 1.066659822244222e+000	 7.199979999988400e+000	 9.825363895234897e+000
0	 1.066659822244222e+000	 7.266639999985466e+000	 9.832818694871429e+000
0	 1.066659822244223e+000	 7.333299999983334e+000	 9.840259334183426e+000
0	 1.133319925002959e+000	 6.666700000016667e+000	 9.768152207837893e+000
0	 1.133319925002959e+000	 6.733360000014532e+000	 9.776749730102706e+000
0	 1.133319925002959e+000	 6.800020000011600e+000	 9.785067133342505e+000
0	 1.133319925002959e+000	 6.866680000008067e+000	 9.793133162590559e+000
0	 1.133319925002959e+000	 6.933340000004134e+000	 9.800976562880186e+000
0	 1.133319925002959e+000	 6.999999999999999e+000	 9.808626079244684e+000
0	 1.133319925002959e+000	 7.066659999995867e+000	 9.816110456717388e+000
0	 1.133319925002959e+000	 7.133319999991935e+000	 9.823458440331576e+000
0	 1.133319925002959e+000	 7.199979999988401e+000	 9.830698775120577e+000
0	 1.133319925002959e+000	 7.266639999985467e+000	 9.837860206117727e+000
0	 1.133319925002959e+000	 7.333299999983335e+000	 9.844971478356332e+000
0	 1.199979977769445e+000	 6.666700000016666e+000	 9.775191897821566e+000
0	 1.199979977769445e+000	 6.733360000014533e+000	 9.783632400804388e+000
0	 1.199979977769445e+000	 6.800020000011598e+000	 9.791793179913530e+000
0	 1.199979977769445e+000	 6.866680000008068e+000	 9.799698109168814e+000
0	 1.199979977769445e+000	 6.933340000004135e+000	 9.807371062589997e+000
0	 1.199979977769445e+000	 7.000000000000000e+000	 9.814835914196909e+000
0	 1.199979977769445e+000	 7.066659999995867e+000	 9.822116538009345e+000
0	 1.199979977769445e+000	 7.133319999991934e+000	 9.829236808047135e+000
0	 1.199979977769445e+000	 7.199979999988400e+000	 9.836220598330078e+000
0	 1.199979977769445e+000	 7.266639999985467e+000	 9.843091782878002e+000
0	 1.199979977769445e+000	 7.333299999983334e+000	 9.849874235710725e+000
0	 1.266639997208098e+000	 6.666700000016667e+000	 9.782437432456472e+000
0	 1.266639997208098e+000	 6.733360000014533e+000	 9.790694908762312e+000
0	 1.266639997208098e+000	 6.800020000011600e+000	 9.798682193556143e+000
0	 1.266639997208098e+000	 6.866680000008067e+000	 9.806416776910053e+000
0	 1.266639997208098e+000	 6.933340000004133e+000	 9.813916148896155e+000
0	 1.266639997208098e+000	 7.000000000000000e+000	 9.821197799586532e+000
0	 1.266639997208098e+000	 7.066659999995868e+000	 9.828279219053304e+000
0	 1.266639997208098e+000	 7.133319999991935e+000	 9.835177897368594e+000
0	 1.266639997208098e+000	 7.199979999988400e+000	 9.841911324604498e+000
0	 1.266639997208098e+000	 7.266639999985467e+000	 9.848496990833141e+000
0	 1.266639997208098e+000	 7.333299999983334e+000	 9.854952386126668e+000
0	 1.333299999983334e+000	 6.666700000016665e+000	 9.789843821581483e+000
0	 1.333299999983334e+000	 6.733360000014534e+000	 9.797897003718788e+000
0	 1.333299999983334e+000	 6.800020000011599e+000	 9.805698272156240e+000
0	 1.333299999983334e+000	 6.866680000008066e+000	 9.813257220087129e+000
0	 1.333299999983334e+000	 6.933340000004134e+000	 9.820583440704723e+000
0	 1.333299999983334e+000	 6.999999999999999e+000	 9.827686527202312e+000
0	 1.333299999983334e+000	 7.066659999995867e+000	 9.834576072773210e+000
0	 1.333299999983334e+000	 7.133319999991935e+000	 9.841261670610695e+000
0	 1.333299999983334e+000	 7.199979999988400e+000	 9.847752913908090e+000
0	 1.333299999983334e+000	 7.266639999985467e+000	 9.854059395858707e+000
0	 1.333299999983334e+000	 7.333299999983336e+000	 9.860190709655837e+000
0	 6.666972226472177e-001	 7.333299999983333e+000	 9.816841694300953e+000
0	 6.666972226472178e-001	 7.399969999982152e+000	 9.826132041746027e+000
0	 6.666972226472177e-001	 7.466639999981865e+000	 9.835092062530107e+000
0	 6.666972226472175e-001	 7.533309999982382e+000	 9.843715547713874e+000
0	 6.666972226472175e-001	 7.599979999983599e+000	 9.851996288358022e+000
0	 6.666972226472177e-001	 7.666649999985417e+000	 9.859928075523197e+000
0	 6.666972226472175e-001	 7.733319999987731e+000	 9.867504700270109e+000
0	 6.666972226472177e-001	 7.799989999990449e+000	 9.874719953659383e+000
0	 6.666972226472177e-001	 7.866659999993466e+000	 9.881567626751709e+000
0	 6.666972226472177e-001	 7.933329999996682e+000	 9.888041510607728e+000
0	 6.666972226472177e-001	 8.000000000000000e+000	 9.894135396288107e+000
0	 7.333579753122048e-001	 7.333299999983334e+000	 9.820090527254164e+000
0	 7.333579753122048e-001	 7.399969999982150e+000	 9.829081433075944e+000
0	 7.333579753122046e-001	 7.466639999981865e+000	 9.837780538489657e+000
0	 7.333579753122047e-001	 7.533309999982383e+000	 9.846178696313869e+000
0	 7.333579753122050e-001	 7.599979999983603e+000	 9.854266759367135e+000
0	 7.333579753122045e-001	 7.666649999985414e+000	 9.862035580468007e+000
0	 7.333579753122047e-001	 7.733319999987733e+000	 9.869476012435033e+000
0	 7.333579753122050e-001	 7.799989999990451e+000	 9.876578908086756e+000
0	 7.333579753122048e-001	 7.866659999993465e+000	 9.883335120241725e+000
0	 7.333579753122046e-001	 7.933329999996684e+000	 9.889735501718466e+000
0	 7.333579753122048e-001	 8.000000000000000e+000	 9.895770905335493e+000
0	 8.000185779984419e-001	 7.333299999983335e+000	 9.823621297713016e+000
0	 8.000185779984419e-001	 7.399969999982151e+000	 9.832303726211450e+000
0	 8.000185779984416e-001	 7.466639999981866e+000	 9.840730006467664e+000
0	 8.000185779984418e-001	 7.533309999982384e+000	 9.848888782848846e+000
0	 8.000185779984419e-001	 7.599979999983601e+000	 9.856768699722142e+000
0	 8.000185779984420e-001	 7.666649999985416e+000	 9.864358401454743e+000
0	 8.000185779984418e-001	 7.733319999987733e+000	 9.871646532413786e+000
0	 8.000185779984419e-001	 7.799989999990449e+000	 9.878621736966434e+000
0	 8.000185779984416e-001	 7.866659999993466e+000	 9.885272659479835e+000
0	 8.000185779984417e-001	 7.933329999996681e+000	 9.891587944321129e+000
0	 8.000185779984418e-001	 8.000000000000000e+000	 9.897556235857477e+000
0	 8.666790473703453e-001	 7.333299999983334e+000	 9.827418784527710e+000
0	 8.666790473703453e-001	 7.399969999982150e+000	 9.835784666685123e+000
0	 8.666790473703454e-001	 7.466639999981866e+000	 9.843927074850308e+000
0	 8.666790473703456e-001	 7.533309999982384e+000	 9.851833174736075e+000
0	 8.666790473703453e-001	 7.599979999983600e+000	 9.859490132055251e+000
0	 8.666790473703455e-001	 7.666649999985417e+000	 9.866885112520636e+000
0	 8.666790473703455e-001	 7.733319999987733e+000	 9.874005281845051e+000
0	 8.666790473703453e-001	 7.799989999990448e+000	 9.880837805741294e+000
0	 8.666790473703453e-001	 7.866659999993467e+000	 9.887369849922163e+000
0	 8.666790473703456e-001	 7.933329999996683e+000	 9.893588580100468e+000
0	 8.666790473703455e-001	 8.000000000000002e+000	 9.899481161989002e+000
0	 9.333394000923324e-001	 7.333299999983335e+000	 9.831467766720078e+000
0	 9.333394000923321e-001	 7.399969999982149e+000	 9.839510000185431e+000
0	 9.333394000923323e-001	 7.466639999981867e+000	 9.847358352170501e+000
0	 9.333394000923322e-001	 7.533309999982382e+000	 9.854999239536022e+000
0	 9.333394000923323e-001	 7.599979999983601e+000	 9.862419079142727e+000
0	 9.333394000923323e-001	 7.666649999985417e+000	 9.869604287851320e+000
0	 9.333394000923321e-001	 7.733319999987733e+000	 9.876541282522551e+000
0	 9.333394000923321e-001	 7.799989999990448e+000	 9.883216480017074e+000
0	 9.333394000923323e-001	 7.866659999993468e+000	 9.889616297195635e+000
0	 9.333394000923323e-001	 7.933329999996683e+000	 9.895727150918919e+000
0	 9.333394000923323e-001	 7.999999999999999e+000	 9.901535458047642e+000
0	 9.999996528288190e-001	 7.333299999983335e+000	 9.835753023483612e+000
0	 9.999996528288190e-001	 7.399969999982150e+000	 9.843465472556597e+000
0	 9.999996528288192e-001	 7.466639999981867e+000	 9.851010447107845e+000
0	 9.999996528288191e-001	 7.533309999982383e+000	 9.858374344952297e+000
0	 9.999996528288192e-001	 7.599979999983600e+000	 9.865543563904986e+000
0	 9.999996528288190e-001	 7.666649999985415e+000	 9.872504501780886e+000
0	 9.999996528288190e-001	 7.733319999987733e+000	 9.879243556395036e+000
0	 9.999996528288191e-001	 7.799989999990450e+000	 9.885747125562375e+000
0	 9.999996528288192e-001	 7.866659999993467e+000	 9.892001607097919e+000
0	 9.999996528288191e-001	 7.933329999996683e+000	 9.897993398816638e+000
0	 9.999996528288192e-001	 8.000000000000000e+000	 9.903708898533527e+000
0	 1.066659822244223e+000	 7.333299999983334e+000	 9.840259334183426e+000
0	 1.066659822244222e+000	 7.399969999982150e+000	 9.847636829798827e+000
0	 1.066659822244222e+000	 7.466639999981867e+000	 9.854869968488675e+000
0	 1.066659822244223e+000	 7.533309999982382e+000	 9.861945858831671e+000
0	 1.066659822244222e+000	 7.599979999983601e+000	 9.868851609406503e+000
0	 1.066659822244222e+000	 7.666649999985417e+000	 9.875574328791824e+000
0	 1.066659822244222e+000	 7.733319999987732e+000	 9.882101125566319e+000
0	 1.066659822244223e+000	 7.799989999990450e+000	 9.888419108308668e+000
0	 1.066659822244222e+000	 7.866659999993468e+000	 9.894515385597510e+000
0	 1.066659822244223e+000	 7.933329999996684e+000	 9.900377066011524e+000
0	 1.066659822244222e+000	 7.999999999999999e+000	 9.905991258129365e+000
0	 1.133319925002959e+000	 7.333299999983335e+000	 9.844971478356330e+000
0	 1.133319925002959e+000	 7.399969999982150e+000	 9.852009818068018e+000
0	 1.133319925002959e+000	 7.466639999981867e+000	 9.858923525286043e+000
0	 1.133319925002959e+000	 7.533309999982384e+000	 9.865701149164101e+000
0	 1.133319925002959e+000	 7.599979999983599e+000	 9.872331238855875e+000
0	 1.133319925002959e+000	 7.666649999985417e+000	 9.878802343515041e+000
0	 1.133319925002959e+000	 7.733319999987733e+000	 9.885103012295289e+000
0	 1.133319925002959e+000	 7.799989999990447e+000	 9.891221794350281e+000
0	 1.133319925002959e+000	 7.866659999993467e+000	 9.897147238833696e+000
0	 1.133319925002959e+000	 7.933329999996683e+000	 9.902867894899210e+000
0	 1.133319925002959e+000	 8.000000000000000e+000	 9.908372311700475e+000
0	 1.199979977769445e+000	 7.333299999983334e+000	 9.849874235710722e+000
0	 1.199979977769445e+000	 7.399969999982150e+000	 9.856570183676009e+000
0	 1.199979977769445e+000	 7.466639999981867e+000	 9.863157726619704e+000
0	 1.199979977769445e+000	 7.533309999982383e+000	 9.869627584082680e+000
0	 1.199979977769445e+000	 7.599979999983599e+000	 9.875970475605797e+000
0	 1.199979977769445e+000	 7.666649999985416e+000	 9.882177120729878e+000
0	 1.199979977769445e+000	 7.733319999987733e+000	 9.888238238995809e+000
0	 1.199979977769446e+000	 7.799989999990450e+000	 9.894144549944409e+000
0	 1.199979977769445e+000	 7.866659999993466e+000	 9.899886773116535e+000
0	 1.199979977769445e+000	 7.933329999996684e+000	 9.905455628053023e+000
0	 1.199979977769445e+000	 8.000000000000000e+000	 9.910841834294715e+000
0	 1.266639997208098e+000	 7.333299999983334e+000	 9.854952386126668e+000
0	 1.266639997208098e+000	 7.399969999982150e+000	 9.861303673090422e+000
0	 1.266639997208098e+000	 7.466639999981867e+000	 9.867559181756104e+000
0	 1.266639997208098e+000	 7.533309999982384e+000	 9.873712531863665e+000
0	 1.266639997208098e+000	 7.599979999983599e+000	 9.879757343153022e+000
0	 1.266639997208098e+000	 7.666649999985416e+000	 9.885687235364104e+000
0	 1.266639997208098e+000	 7.733319999987733e+000	 9.891495828236826e+000
0	 1.266639997208098e+000	 7.799989999990449e+000	 9.897176741511107e+000
0	 1.266639997208098e+000	 7.866659999993467e+000	 9.902723594926879e+000
0	 1.266639997208098e+000	 7.933329999996682e+000	 9.908130008224047e+000
0	 1.266639997208098e+000	 8.000000000000000e+000	 9.913389601142525e+000
0	 1.333299999983334e+000	 7.333299999983336e+000	 9.860190709655837e+000
0	 1.333299999983334e+000	 7.399969999982149e+000	 9.866196032934724e+000
0	 1.333299999983334e+000	 7.466639999981866e+000	 9.872114500108422e+000
0	 1.333299999983334e+000	 7.533309999982384e+000	 9.877943360926471e+000
0	 1.333299999983334e+000	 7.599979999983600e+000	 9.883679865138436e+000
0	 1.333299999983334e+000	 7.666649999985415e+000	 9.889321262493867e+000
0	 1.333299999983334e+000	 7.733319999987733e+000	 9.894864802742291e+000
0	 1.333299999983334e+000	 7.799989999990449e+000	 9.900307735633271e+000
0	 1.333299999983334e+000	 7.866659999993466e+000	 9.905647310916347e+000
0	 1.333299999983334e+000	 7.933329999996683e+000	 9.910880778341049e+000
0	 1.333299999983334e+000	 8.000000000000000e+000	 9.916005387656934e+000
0	 6.666972226472177e-001	 8.000000000000000e+000	 9.894135396288107e+000
0	 6.666972226472178e-001	 8.066670000003317e+000	 9.899976401186221e+000
0	 6.666972226472177e-001	 8.133340000006532e+000	 9.905700765286216e+000
0	 6.666972226472175e-001	 8.200010000009550e+000	 9.911315963534833e+000
0	 6.666972226472178e-001	 8.266680000012267e+000	 9.916829470878790e+000
0	 6.666972226472177e-001	 8.333350000014583e+000	 9.922248762264832e+000
0	 6.666972226472177e-001	 8.400020000016401e+000	 9.927581312639692e+000
0	 6.666972226472177e-001	 8.466690000017616e+000	 9.932834596950082e+000
0	 6.666972226472173e-001	 8.533360000018133e+000	 9.938016090142739e+000
0	 6.666972226472178e-001	 8.600030000017851e+000	 9.943133267164372e+000
0	 6.666972226472177e-001	 8.666700000016666e+000	 9.948193602961725e+000
0	 7.333579753122048e-001	 8.000000000000000e+000	 9.895770905335493e+000
0	 7.333579753122047e-001	 8.066670000003317e+000	 9.901554455934130e+000
0	 7.333579753122047e-001	 8.133340000006532e+000	 9.907211398808748e+000
0	 7.333579753122048e-001	 8.200010000009550e+000	 9.912750767457562e+000
0	 7.333579753122048e-001	 8.266680000012268e+000	 9.918181595378750e+000
0	 7.333579753122047e-001	 8.333350000014583e+000	 9.923512916070497e+000
0	 7.333579753122049e-001	 8.400020000016403e+000	 9.928753763031008e+000
0	 7.333579753122047e-001	 8.466690000017616e+000	 9.933913169758448e+000
0	 7.333579753122047e-001	 8.533360000018133e+000	 9.939000169751019e+000
0	 7.333579753122049e-001	 8.600030000017853e+000	 9.944023796506883e+000
0	 7.333579753122048e-001	 8.666700000016665e+000	 9.948993083524231e+000
0	 8.000185779984418e-001	 8.000000000000000e+000	 9.897556235857477e+000
0	 8.000185779984418e-001	 8.066670000003319e+000	 9.903276016770482e+000
0	 8.000185779984417e-001	 8.133340000006530e+000	 9.908860175406430e+000
0	 8.000185779984418e-001	 8.200010000009552e+000	 9.914318964629439e+000
0	 8.000185779984417e-001	 8.266680000012265e+000	 9.919662637303585e+000
0	 8.000185779984419e-001	 8.333350000014585e+000	 9.924901446292980e+000
0	 8.000185779984417e-001	 8.400020000016399e+000	 9.930045644461707e+000
0	 8.000185779984417e-001	 8.466690000017618e+000	 9.935105484673882e+000
0	 8.000185779984416e-001	 8.533360000018133e+000	 9.940091219793574e+000
0	 8.000185779984417e-001	 8.600030000017847e+000	 9.945013102684897e+000
0	 8.000185779984420e-001	 8.666700000016666e+000	 9.949881386211906e+000
0	 8.666790473703455e-001	 8.000000000000002e+000	 9.899481161989002e+000
0	 8.666790473703453e-001	 8.066670000003317e+000	 9.905130882759300e+000
0	 8.666790473703453e-001	 8.133340000006532e+000	 9.910637007801968e+000
0	 8.666790473703454e-001	 8.200010000009547e+000	 9.916010670158405e+000
0	 8.666790473703455e-001	 8.266680000012265e+000	 9.921263002869978e+000
0	 8.666790473703455e-001	 8.333350000014585e+000	 9.926405138978078e+000
0	 8.666790473703453e-001	 8.400020000016401e+000	 9.931448211524092e+000
0	 8.666790473703455e-001	 8.466690000017618e+000	 9.936403353549375e+000
0	 8.666790473703455e-001	 8.533360000018133e+000	 9.941281698095336e+000
0	 8.666790473703452e-001	 8.600030000017847e+000	 9.946094378203329e+000
0	 8.666790473703455e-001	 8.666700000016665e+000	 9.950852526914737e+000
0	 9.333394000923323e-001	 7.999999999999999e+000	 9.901535458047642e+000
0	 9.333394000923323e-001	 8.066670000003317e+000	 9.907108853149122e+000
0	 9.333394000923321e-001	 8.133340000006534e+000	 9.912531808901843e+000
0	 9.333394000923323e-001	 8.200010000009550e+000	 9.917815999333309e+000
0	 9.333394000923323e-001	 8.266680000012267e+000	 9.922973098470974e+000
0	 9.333394000923323e-001	 8.333350000014587e+000	 9.928014780342316e+000
0	 9.333394000923321e-001	 8.400020000016399e+000	 9.932952718974809e+000
0	 9.333394000923322e-001	 8.466690000017616e+000	 9.937798588395935e+000
0	 9.333394000923323e-001	 8.533360000018131e+000	 9.942564062633140e+000
0	 9.333394000923321e-001	 8.600030000017849e+000	 9.947260815713891e+000
0	 9.333394000923324e-001	 8.666700000016668e+000	 9.951900521665664e+000
0	 9.999996528288192e-001	 8.000000000000000e+000	 9.903708898533527e+000
0	 9.999996528288194e-001	 8.066670000003319e+000	 9.909199727372990e+000
0	 9.999996528288192e-001	 8.133340000006532e+000	 9.914534491796351e+000
0	 9.999996528288192e-001	 8.200010000009552e+000	 9.919725067623899e+000
0	 9.999996528288192e-001	 8.266680000012267e+000	 9.924783330675975e+000
0	 9.999996528288191e-001	 8.333350000014582e+000	 9.929721156772866e+000
0	 9.999996528288192e-001	 8.400020000016401e+000	 9.934550421734906e+000
0	 9.999996528288189e-001	 8.466690000017616e+000	 9.939283001382401e+000
0	 9.999996528288192e-001	 8.533360000018133e+000	 9.943930771535630e+000
0	 9.999996528288189e-001	 8.600030000017846e+000	 9.948505608014942e+000
0	 9.999996528288188e-001	 8.666700000016665e+000	 9.953019386640605e+000
0	 1.066659822244222e+000	 7.999999999999999e+000	 9.905991258129365e+000
0	 1.066659822244222e+000	 8.066670000003319e+000	 9.911393305048522e+000
0	 1.066659822244223e+000	 8.133340000006534e+000	 9.916634969759574e+000
0	 1.066659822244222e+000	 8.200010000009552e+000	 9.921727990680864e+000
0	 1.066659822244222e+000	 8.266680000012267e+000	 9.926684106230765e+000
0	 1.066659822244222e+000	 8.333350000014585e+000	 9.931515054827619e+000
0	 1.066659822244222e+000	 8.400020000016401e+000	 9.936232574889781e+000
0	 1.066659822244222e+000	 8.466690000017618e+000	 9.940848404835593e+000
0	 1.066659822244223e+000	 8.533360000018133e+000	 9.945374283083400e+000
0	 1.066659822244223e+000	 8.600030000017851e+000	 9.949821948051538e+000
0	 1.066659822244223e+000	 8.666700000016663e+000	 9.954203138158336e+000
0	 1.133319925002959e+000	 8.000000000000000e+000	 9.908372311700475e+000
0	 1.133319925002959e+000	 8.066670000003319e+000	 9.913679385977799e+000
0	 1.133319925002959e+000	 8.133340000006532e+000	 9.918823156249381e+000
0	 1.133319925002959e+000	 8.200010000009552e+000	 9.923814884335769e+000
0	 1.133319925002959e+000	 8.266680000012268e+000	 9.928665832057511e+000
0	 1.133319925002959e+000	 8.333350000014585e+000	 9.933387261235165e+000
0	 1.133319925002959e+000	 8.400020000016403e+000	 9.937990433689244e+000
0	 1.133319925002959e+000	 8.466690000017618e+000	 9.942486611240289e+000
0	 1.133319925002959e+000	 8.533360000018137e+000	 9.946887055708855e+000
0	 1.133319925002959e+000	 8.600030000017849e+000	 9.951203028915467e+000
0	 1.133319925002959e+000	 8.666700000016668e+000	 9.955445792680663e+000
0	 1.199979977769445e+000	 8.000000000000000e+000	 9.910841834294715e+000
0	 1.199979977769445e+000	 8.066670000003317e+000	 9.916047770147458e+000
0	 1.199979977769445e+000	 8.133340000006532e+000	 9.921088964907467e+000
0	 1.199979977769445e+000	 8.200010000009550e+000	 9.925975864601107e+000
0	 1.199979977769445e+000	 8.266680000012267e+000	 9.930718915254731e+000
0	 1.199979977769445e+000	 8.333350000014585e+000	 9.935328562894723e+000
0	 1.199979977769445e+000	 8.400020000016399e+000	 9.939815253547412e+000
0	 1.199979977769446e+000	 8.466690000017618e+000	 9.944189433239146e+000
0	 1.199979977769445e+000	 8.533360000018133e+000	 9.948461547996310e+000
0	 1.199979977769445e+000	 8.600030000017851e+000	 9.952642043845239e+000
0	 1.199979977769445e+000	 8.666700000016666e+000	 9.956741366812279e+000
0	 1.266639997208098e+000	 8.000000000000000e+000	 9.913389601142525e+000
0	 1.266639997208098e+000	 8.066670000003319e+000	 9.918488257728654e+000
0	 1.266639997208098e+000	 8.133340000006534e+000	 9.923422309559291e+000
0	 1.266639997208098e+000	 8.200010000009550e+000	 9.928201047670266e+000
0	 1.266639997208098e+000	 8.266680000012268e+000	 9.932833763097321e+000
0	 1.266639997208098e+000	 8.333350000014583e+000	 9.937329746876257e+000
0	 1.266639997208098e+000	 8.400020000016399e+000	 9.941698290042824e+000
0	 1.266639997208098e+000	 8.466690000017618e+000	 9.945948683632778e+000
0	 1.266639997208098e+000	 8.533360000018135e+000	 9.950090218681927e+000
0	 1.266639997208098e+000	 8.600030000017853e+000	 9.954132186226008e+000
0	 1.266639997208098e+000	 8.666700000016668e+000	 9.958083877300798e+000
0	 1.333299999983334e+000	 8.000000000000000e+000	 9.916005387656934e+000
0	 1.333299999983334e+000	 8.066670000003317e+000	 9.920990649077025e+000
0	 1.333299999983334e+000	 8.133340000006532e+000	 9.925813104214125e+000
0	 1.333299999983334e+000	 8.200010000009550e+000	 9.930480549917528e+000
0	 1.333299999983334e+000	 8.266680000012268e+000	 9.935000783036537e+000
0	 1.333299999983334e+000	 8.333350000014587e+000	 9.939381600420367e+000
0	 1.333299999983334e+000	 8.400020000016399e+000	 9.943630798918354e+000
0	 1.333299999983334e+000	 8.466690000017618e+000	 9.947756175379716e+000
0	 1.333299999983334e+000	 8.533360000018135e+000	 9.951765526653736e+000
0	 1.333299999983334e+000	 8.600030000017851e+000	 9.955666649589690e+000
0	 1.333299999983334e+000	 8.666700000016666e+000	 9.959467341036817e+000
0	 6.666972226472177e-001	 8.666700000016666e+000	 9.948193602961725e+000
0	 6.666972226472175e-001	 8.733360002791901e+000	 9.953091192860422e+000
0	 6.666972226472177e-001	 8.800020022230555e+000	 9.957721230942003e+000
0	 6.666972226472177e-001	 8.866680074997042e+000	 9.962090575451313e+000
0	 6.666972226472178e-001	 8.933340177755779e+000	 9.966206085345259e+000
0	 6.666972226472177e-001	 9.000000347171181e+000	 9.970074620292820e+000
0	 6.666972226472178e-001	 9.066660599907667e+000	 9.973703040675114e+000
0	 6.666972226472175e-001	 9.133320952629656e+000	 9.977098207585238e+000
0	 6.666972226472179e-001	 9.199981422001560e+000	 9.980266982828381e+000
0	 6.666972226472177e-001	 9.266642024687796e+000	 9.983216228921755e+000
0	 6.666972226472177e-001	 9.333302777352785e+000	 9.985952809094602e+000
0	 7.333579753122048e-001	 8.666700000016665e+000	 9.948993083524229e+000
0	 7.333579753122047e-001	 8.733360002791901e+000	 9.953805959579997e+000
0	 7.333579753122047e-001	 8.800020022230552e+000	 9.958359750721835e+000
0	 7.333579753122052e-001	 8.866680074997042e+000	 9.962660361683545e+000
0	 7.333579753122048e-001	 8.933340177755776e+000	 9.966713697900325e+000
0	 7.333579753122049e-001	 9.000000347171183e+000	 9.970525665508738e+000
0	 7.333579753122047e-001	 9.066660599907669e+000	 9.974102171346805e+000
0	 7.333579753122048e-001	 9.133320952629655e+000	 9.977449122953862e+000
0	 7.333579753122049e-001	 9.199981422001557e+000	 9.980572428570619e+000
0	 7.333579753122048e-001	 9.266642024687794e+000	 9.983477997139106e+000
0	 7.333579753122046e-001	 9.333302777352783e+000	 9.986171738302749e+000
0	 8.000185779984420e-001	 8.666700000016666e+000	 9.949881386211903e+000
0	 8.000185779984418e-001	 8.733360002791903e+000	 9.954598815189128e+000
0	 8.000185779984419e-001	 8.800020022230555e+000	 9.959066155969811e+000
0	 8.000185779984417e-001	 8.866680074997040e+000	 9.963288514145628e+000
0	 8.000185779984420e-001	 8.933340177755779e+000	 9.967270995996524e+000
0	 8.000185779984418e-001	 9.000000347171183e+000	 9.971018708490631e+000
0	 8.000185779984417e-001	 9.066660599907667e+000	 9.974536759284339e+000
0	 8.000185779984416e-001	 9.133320952629653e+000	 9.977830256722223e+000
0	 8.000185779984418e-001	 9.199981422001558e+000	 9.980904309837088e+000
0	 8.000185779984418e-001	 9.266642024687796e+000	 9.983764028349938e+000
0	 8.000185779984417e-001	 9.333302777352781e+000	 9.986414522669893e+000
0	 8.666790473703455e-001	 8.666700000016665e+000	 9.950852526914735e+000
0	 8.666790473703456e-001	 8.733360002791905e+000	 9.955464584519080e+000
0	 8.666790473703456e-001	 8.800020022230555e+000	 9.959835963128951e+000
0	 8.666790473703454e-001	 8.866680074997042e+000	 9.963971123564024e+000
0	 8.666790473703454e-001	 8.933340177755779e+000	 9.967874527316756e+000
0	 8.666790473703455e-001	 9.000000347171183e+000	 9.971550636552404e+000
0	 8.666790473703454e-001	 9.066660599907667e+000	 9.975003914108974e+000
0	 8.666790473703455e-001	 9.133320952629655e+000	 9.978238823497229e+000
0	 8.666790473703455e-001	 9.199981422001557e+000	 9.981259828900656e+000
0	 8.666790473703454e-001	 9.266642024687794e+000	 9.984071395175523e+000
0	 8.666790473703451e-001	 9.333302777352781e+000	 9.986677987850783e+000
0	 9.333394000923324e-001	 8.666700000016668e+000	 9.951900521665660e+000
0	 9.333394000923324e-001	 8.733360002791905e+000	 9.956398092542091e+000
0	 9.333394000923323e-001	 8.800020022230557e+000	 9.960664688782916e+000
0	 9.333394000923323e-001	 8.866680074997044e+000	 9.964704280806936e+000
0	 9.333394000923321e-001	 8.933340177755776e+000	 9.968520839688088e+000
0	 9.333394000923322e-001	 9.000000347171181e+000	 9.972118337155569e+000
0	 9.333394000923322e-001	 9.066660599907667e+000	 9.975500745593697e+000
0	 9.333394000923325e-001	 9.133320952629655e+000	 9.978672038042010e+000
0	 9.333394000923322e-001	 9.199981422001558e+000	 9.981636188195237e+000
0	 9.333394000923324e-001	 9.266642024687796e+000	 9.984397170403213e+000
0	 9.333394000923323e-001	 9.333302777352783e+000	 9.986958959670917e+000
0	 9.999996528288188e-001	 8.666700000016665e+000	 9.953019386640605e+000
0	 9.999996528288193e-001	 8.733360002791901e+000	 9.957394164371314e+000
0	 9.999996528288191e-001	 8.800020022230557e+000	 9.961547849656027e+000
0	 9.999996528288191e-001	 8.866680074997042e+000	 9.965484076884389e+000
0	 9.999996528288191e-001	 8.933340177755776e+000	 9.969206481081720e+000
0	 9.999996528288189e-001	 9.000000347171181e+000	 9.972718697909029e+000
0	 9.999996528288190e-001	 9.066660599907667e+000	 9.976024363662983e+000
0	 9.999996528288191e-001	 9.133320952629656e+000	 9.979127115275929e+000
0	 9.999996528288193e-001	 9.199981422001560e+000	 9.982030590315869e+000
0	 9.999996528288192e-001	 9.266642024687796e+000	 9.984738426986390e+000
0	 9.999996528288191e-001	 9.333302777352783e+000	 9.987254264126738e+000
0	 1.066659822244223e+000	 8.666700000016663e+000	 9.954203138158334e+000
0	 1.066659822244223e+000	 8.733360002791901e+000	 9.958447625260938e+000
0	 1.066659822244223e+000	 8.800020022230557e+000	 9.962480962613286e+000
0	 1.066659822244222e+000	 8.866680074997042e+000	 9.966306602948228e+000
0	 1.066659822244223e+000	 8.933340177755781e+000	 9.969927999613002e+000
0	 1.066659822244223e+000	 9.000000347171181e+000	 9.973348606569253e+000
0	 1.066659822244222e+000	 9.066660599907667e+000	 9.976571878392978e+000
0	 1.066659822244223e+000	 9.133320952629658e+000	 9.979601270274531e+000
0	 1.066659822244222e+000	 9.199981422001558e+000	 9.982440238018695e+000
0	 1.066659822244222e+000	 9.266642024687794e+000	 9.985092238044546e+000
0	 1.066659822244222e+000	 9.333302777352781e+000	 9.987560727385480e+000
0	 1.133319925002959e+000	 8.666700000016668e+000	 9.955445792680663e+000
0	 1.133319925002959e+000	 8.733360002791903e+000	 9.959553300606059e+000
0	 1.133319925002959e+000	 8.800020022230557e+000	 9.963459544660324e+000
0	 1.133319925002959e+000	 8.866680074997040e+000	 9.967167950292087e+000
0	 1.133319925002959e+000	 8.933340177755778e+000	 9.970681943541484e+000
0	 1.133319925002959e+000	 9.000000347171183e+000	 9.974004951040200e+000
0	 1.133319925002959e+000	 9.066660599907669e+000	 9.977140400011345e+000
0	 1.133319925002959e+000	 9.133320952629656e+000	 9.980091718269579e+000
0	 1.133319925002959e+000	 9.199981422001557e+000	 9.982862334220993e+000
0	 1.133319925002959e+000	 9.266642024687798e+000	 9.985455676863200e+000
0	 1.133319925002959e+000	 9.333302777352781e+000	 9.987875175785206e+000
0	 1.199979977769445e+000	 8.666700000016666e+000	 9.956741366812279e+000
0	 1.199979977769445e+000	 8.733360002791903e+000	 9.960706015942742e+000
0	 1.199979977769445e+000	 8.800020022230557e+000	 9.964479112943435e+000
0	 1.199979977769445e+000	 8.866680074997040e+000	 9.968064210351397e+000
0	 1.199979977769445e+000	 8.933340177755781e+000	 9.971464861270867e+000
0	 1.199979977769446e+000	 9.000000347171183e+000	 9.974684619373317e+000
0	 1.199979977769445e+000	 9.066660599907666e+000	 9.977727038897420e+000
0	 1.199979977769445e+000	 9.133320952629653e+000	 9.980595674648992e+000
0	 1.199979977769445e+000	 9.199981422001560e+000	 9.983294082001114e+000
0	 1.199979977769446e+000	 9.266642024687794e+000	 9.985825816893961e+000
0	 1.199979977769445e+000	 9.333302777352785e+000	 9.988194435834895e+000
0	 1.266639997208098e+000	 8.666700000016668e+000	 9.958083877300801e+000
0	 1.266639997208098e+000	 8.733360002791903e+000	 9.961900596948009e+000
0	 1.266639997208098e+000	 8.800020022230557e+000	 9.965535184749587e+000
0	 1.266639997208098e+000	 8.866680074997042e+000	 9.968991474703381e+000
0	 1.266639997208098e+000	 8.933340177755776e+000	 9.972273301348977e+000
0	 1.266639997208098e+000	 9.000000347171183e+000	 9.975384499767587e+000
0	 1.266639997208098e+000	 9.066660599907666e+000	 9.978328905582055e+000
0	 1.266639997208098e+000	 9.133320952629656e+000	 9.981110354956970e+000
0	 1.266639997208098e+000	 9.199981422001558e+000	 9.983732684598509e+000
0	 1.266639997208098e+000	 9.266642024687796e+000	 9.986199731754450e+000
0	 1.266639997208098e+000	 9.333302777352781e+000	 9.988515334214265e+000
0	 1.333299999983334e+000	 8.666700000016666e+000	 9.959467341036815e+000
0	 1.333299999983334e+000	 8.733360002791903e+000	 9.963131869439851e+000
0	 1.333299999983334e+000	 8.800020022230553e+000	 9.966623277506368e+000
0	 1.333299999983334e+000	 8.866680074997040e+000	 9.969945835067092e+000
0	 1.333299999983334e+000	 8.933340177755781e+000	 9.973103812467812e+000
0	 1.333299999983334e+000	 9.000000347171181e+000	 9.976101480569410e+000
0	 1.333299999983334e+000	 9.066660599907669e+000	 9.978943110747759e+000
0	 1.333299999983334e+000	 9.133320952629656e+000	 9.981632974893852e+000
0	 1.333299999983334e+000	 9.199981422001560e+000	 9.984175345413734e+000
0	 1.333299999983334e+000	 9.266642024687796e+000	 9.986574495228398e+000
0	 1.333299999983334e+000	 9.333302777352785e+000	 9.988834697773951e+000
0	 6.666972226472177e-001	 9.333302777352785e+000	 9.985952809094600e+000
0	 6.666972226472175e-001	 9.399973674588177e+000	 9.988449023545210e+000
0	 6.666972226472177e-001	 9.466644621844619e+000	 9.990680708881705e+000
0	 6.666972226472178e-001	 9.533315502450000e+000	 9.992661213934678e+000
0	 6.666972226472177e-001	 9.599986199732195e+000	 9.994403881791950e+000
0	 6.666972226472175e-001	 9.666656597019095e+000	 9.995922049798221e+000
0	 6.666972226472178e-001	 9.733326577638577e+000	 9.997229049554150e+000
0	 6.666972226472177e-001	 9.799996024918521e+000	 9.998338206915458e+000
0	 6.666972226472177e-001	 9.866664822186822e+000	 9.999262841992142e+000
0	 6.666972226472177e-001	 9.933332852771352e+000	 1.000001626914686e+001
0	 6.666972226472175e-001	 1.000000000000000e+001	 1.000061179699412e+001
0	 7.333579753122046e-001	 9.333302777352783e+000	 9.986171738302748e+000
0	 7.333579753122048e-001	 9.399973674588171e+000	 9.988626505658317e+000
0	 7.333579753122045e-001	 9.466644621844619e+000	 9.990819672456073e+000
0	 7.333579753122048e-001	 9.533315502450000e+000	 9.992765089640317e+000
0	 7.333579753122049e-001	 9.599986199732198e+000	 9.994476602514208e+000
0	 7.333579753122047e-001	 9.666656597019093e+000	 9.995968050739185e+000
0	 7.333579753122049e-001	 9.733326577638579e+000	 9.997253268334278e+000
0	 7.333579753122048e-001	 9.799996024918523e+000	 9.998346083675182e+000
0	 7.333579753122047e-001	 9.866664822186820e+000	 9.999260319493217e+000
0	 7.333579753122048e-001	 9.933332852771354e+000	 1.000000979287414e+001
0	 7.333579753122049e-001	 1.000000000000000e+001	 1.000060831525709e+001
0	 8.000185779984417e-001	 9.333302777352781e+000	 9.986414522669895e+000
0	 8.000185779984417e-001	 9.399973674588173e+000	 9.988828303828260e+000
0	 8.000185779984416e-001	 9.466644621844619e+000	 9.990983187363096e+000
0	 8.000185779984419e-001	 9.533315502450002e+000	 9.992893383330854e+000
0	 8.000185779984417e-001	 9.599986199732195e+000	 9.994573096244709e+000
0	 8.000185779984416e-001	 9.666656597019090e+000	 9.996036525073874e+000
0	 8.000185779984417e-001	 9.733326577638577e+000	 9.997297863243007e+000
0	 8.000185779984419e-001	 9.799996024918524e+000	 9.998371298631172e+000
0	 8.000185779984416e-001	 9.866664822186820e+000	 9.999271013571052e+000
0	 8.000185779984415e-001	 9.933332852771351e+000	 1.000001118484760e+001
0	 8.000185779984418e-001	 1.000000000000000e+001	 1.000060598369681e+001
0	 8.666790473703451e-001	 9.333302777352781e+000	 9.986677987850781e+000
0	 8.666790473703452e-001	 9.399973674588178e+000	 9.989050973416946e+000
0	 8.666790473703455e-001	 9.466644621844619e+000	 9.991167609422689e+000
0	 8.666790473703456e-001	 9.533315502450003e+000	 9.993042322032817e+000
0	 8.666790473703454e-001	 9.599986199732195e+000	 9.994689531963713e+000
0	 8.666790473703454e-001	 9.666656597019093e+000	 9.996123654482643e+000
0	 8.666790473703452e-001	 9.733326577638573e+000	 9.997359099407134e+000
0	 8.666790473703456e-001	 9.799996024918523e+000	 9.998410271104042e+000
0	 8.666790473703454e-001	 9.866664822186824e+000	 9.999291568488681e+000
0	 8.666790473703453e-001	 9.933332852771354e+000	 1.000001738502349e+001
0	 8.666790473703455e-001	 1.000000000000000e+001	 1.000060210871693e+001
0	 9.333394000923323e-001	 9.333302777352783e+000	 9.986958959670917e+000
0	 9.333394000923324e-001	 9.399973674588177e+000	 9.989291069961618e+000
0	 9.333394000923323e-001	 9.466644621844619e+000	 9.991369294634373e+000
0	 9.333394000923323e-001	 9.533315502450003e+000	 9.993208132956598e+000
0	 9.333394000923320e-001	 9.599986199732195e+000	 9.994822078839793e+000
0	 9.333394000923324e-001	 9.666656597019095e+000	 9.996225620839089e+000
0	 9.333394000923323e-001	 9.733326577638575e+000	 9.997433242152473e+000
0	 9.333394000923322e-001	 9.799996024918523e+000	 9.998459420619783e+000
0	 9.333394000923321e-001	 9.866664822186822e+000	 9.999318628722117e+000
0	 9.333394000923324e-001	 9.933332852771354e+000	 1.000002533358023e+001
0	 9.333394000923323e-001	 1.000000000000000e+001	 1.000059399695360e+001
0	 9.999996528288191e-001	 9.333302777352783e+000	 9.987254264126737e+000
0	 9.999996528288192e-001	 9.399973674588178e+000	 9.989545149174798e+000
0	 9.999996528288191e-001	 9.466644621844619e+000	 9.991584599177200e+000
0	 9.999996528288193e-001	 9.533315502450002e+000	 9.993387043496355e+000
0	 9.999996528288191e-001	 9.599986199732198e+000	 9.994966906229896e+000
0	 9.999996528288189e-001	 9.666656597019090e+000	 9.996338606210250e+000
0	 9.999996528288190e-001	 9.733326577638575e+000	 9.997516557003747e+000
0	 9.999996528288193e-001	 9.799996024918523e+000	 9.998515166909952e+000
0	 9.999996528288191e-001	 9.866664822186824e+000	 9.999348838960483e+000
0	 9.999996528288192e-001	 9.933332852771354e+000	 1.000003197091818e+001
0	 9.999996528288190e-001	 1.000000000000000e+001	 1.000057895527553e+001
0	 1.066659822244222e+000	 9.333302777352781e+000	 9.987560727385477e+000
0	 1.066659822244222e+000	 9.399973674588175e+000	 9.989809766944333e+000
0	 1.066659822244222e+000	 9.466644621844619e+000	 9.991809879409789e+000
0	 1.066659822244222e+000	 9.533315502450000e+000	 9.993575281230125e+000
0	 1.066659822244222e+000	 9.599986199732197e+000	 9.995120183679317e+000
0	 1.066659822244222e+000	 9.666656597019092e+000	 9.996458792856368e+000
0	 1.066659822244223e+000	 9.733326577638575e+000	 9.997605309684776e+000
0	 1.066659822244223e+000	 9.799996024918524e+000	 9.998573929911503e+000
0	 1.066659822244222e+000	 9.866664822186822e+000	 9.999378844106163e+000
0	 1.066659822244223e+000	 9.933332852771352e+000	 1.000003423765974e+001
0	 1.066659822244222e+000	 9.999999999999998e+000	 1.000055429078375e+001
0	 1.133319925002959e+000	 9.333302777352781e+000	 9.987875175785204e+000
0	 1.133319925002959e+000	 9.399973674588175e+000	 9.990081479333341e+000
0	 1.133319925002958e+000	 9.466644621844619e+000	 9.992041491870291e+000
0	 1.133319925002959e+000	 9.533315502450000e+000	 9.993769073919832e+000
0	 1.133319925002959e+000	 9.599986199732197e+000	 9.995278080921672e+000
0	 1.133319925002959e+000	 9.666656597019095e+000	 9.996582363231092e+000
0	 1.133319925002959e+000	 9.733326577638579e+000	 9.997695766118149e+000
0	 1.133319925002959e+000	 9.799996024918523e+000	 9.998632129766868e+000
0	 1.133319925002959e+000	 9.866664822186822e+000	 9.999405289274261e+000
0	 1.133319925002959e+000	 9.933332852771356e+000	 1.000002907464933e+001
0	 1.133319925002959e+000	 1.000000000000000e+001	 1.000051731081165e+001
0	 1.199979977769445e+000	 9.333302777352785e+000	 9.988194435834895e+000
0	 1.199979977769445e+000	 9.399973674588178e+000	 9.990356842580228e+000
0	 1.199979977769445e+000	 9.466644621844619e+000	 9.992275793276434e+000
0	 1.199979977769445e+000	 9.533315502450002e+000	 9.993964649511119e+000
0	 1.199979977769446e+000	 9.599986199732195e+000	 9.995436767878974e+000
0	 1.199979977769445e+000	 9.666656597019093e+000	 9.996705499981351e+000
0	 1.199979977769445e+000	 9.733326577638575e+000	 9.997784192425570e+000
0	 1.199979977769445e+000	 9.799996024918523e+000	 9.998686186824022e+000
0	 1.199979977769446e+000	 9.866664822186822e+000	 9.999424819793401e+000
0	 1.199979977769445e+000	 9.933332852771354e+000	 1.000001342295329e+001
0	 1.199979977769445e+000	 1.000000000000000e+001	 1.000046532292533e+001
0	 1.266639997208098e+000	 9.333302777352781e+000	 9.988515334214268e+000
0	 1.266639997208098e+000	 9.399973674588178e+000	 9.990632413098675e+000
0	 1.266639997208098e+000	 9.466644621844617e+000	 9.992509140525492e+000
0	 1.266639997208098e+000	 9.533315502449998e+000	 9.994158236133563e+000
0	 1.266639997208098e+000	 9.599986199732198e+000	 9.995592414661557e+000
0	 1.266639997208098e+000	 9.666656597019095e+000	 9.996824385947397e+000
0	 1.266639997208098e+000	 9.733326577638577e+000	 9.997866854927576e+000
0	 1.266639997208098e+000	 9.799996024918524e+000	 9.998732521636397e+000
0	 1.266639997208098e+000	 9.866664822186822e+000	 9.999434081204916e+000
0	 1.266639997208098e+000	 9.933332852771354e+000	 9.999984223860063e+000
0	 1.266639997208098e+000	 1.000000000000000e+001	 1.000039563492311e+001
0	 1.333299999983334e+000	 9.333302777352785e+000	 9.988834697773951e+000
0	 1.333299999983334e+000	 9.399973674588177e+000	 9.990904747477739e+000
0	 1.333299999983334e+000	 9.466644621844619e+000	 9.992737890694267e+000
0	 1.333299999983334e+000	 9.533315502450002e+000	 9.994346062100490e+000
0	 1.333299999983334e+000	 9.599986199732198e+000	 9.995741191568101e+000
0	 1.333299999983334e+000	 9.666656597019093e+000	 9.996935204162758e+000
0	 1.333299999983334e+000	 9.733326577638575e+000	 9.997940020143723e+000
0	 1.333299999983334e+000	 9.799996024918523e+000	 9.998767554962798e+000
0	 1.333299999983334e+000	 9.866664822186824e+000	 9.999429719263473e+000
0	 1.333299999983334e+000	 9.933332852771356e+000	 9.999938418879941e+000
0	 1.333299999983334e+000	 1.000000000000000e+001	 1.000030555483592e+001
0	 1.333299999983334e+000	 0.000000000000000e+000	-5.654540924116148e+000
0	 1.333299999983334e+000	 6.666714722864758e-002	-5.062954947568363e+000
0	 1.333299999983334e+000	 1.333351778131789e-001	-4.534703970610103e+000
0	 1.333299999983334e+000	 2.000039750814772e-001	-4.051336518688373e+000
0	 1.333299999983334e+000	 2.666734223614255e-001	-3.594400603269270e+000
0	 1.333299999983334e+000	 3.333434029809069e-001	-3.145443721834485e+000
0	 1.333299999983334e+000	 4.000138002678044e-001	-2.686012857864363e+000
0	 1.333299999983334e+000	 4.666844975500012e-001	-2.197654480807431e+000
0	 1.333299999983334e+000	 5.333553781553803e-001	-1.661914546036474e+000
0	 1.333299999983334e+000	 6.000263254118247e-001	-1.060338494791080e+000
0	 1.333299999983334e+000	 6.666972226472174e-001	-3.744712541067178e-001
0	 1.399969999982150e+000	 0.000000000000000e+000	-8.115619242400854e+000
0	 1.399969999982150e+000	 6.666714722864754e-002	-7.212747425772799e+000
0	 1.399969999982150e+000	 1.333351778131789e-001	-6.401409144144405e+000
0	 1.399969999982150e+000	 2.000039750814772e-001	-5.660377043959999e+000
0	 1.399969999982150e+000	 2.666734223614255e-001	-4.968423392409575e+000
0	 1.399969999982150e+000	 3.333434029809069e-001	-4.304320077382792e+000
0	 1.399969999982150e+000	 4.000138002678045e-001	-3.646838607412931e+000
0	 1.399969999982150e+000	 4.666844975500012e-001	-2.974750111610946e+000
0	 1.399969999982150e+000	 5.333553781553803e-001	-2.266825339589524e+000
0	 1.399969999982150e+000	 6.000263254118247e-001	-1.501834661377221e+000
0	 1.399969999982150e+000	 6.666972226472177e-001	-6.585480673226035e-001
0	 1.466639999981866e+000	 0.000000000000000e+000	-1.104228566982190e+001
0	 1.466639999981866e+000	 6.666714722864756e-002	-9.797696741232302e+000
0	 1.466639999981866e+000	 1.333351778131789e-001	-8.666350886195531e+000
0	 1.466639999981866e+000	 2.000039750814773e-001	-7.625789735579290e+000
0	 1.466639999981866e+000	 2.666734223614254e-001	-6.653554738897398e+000
0	 1.466639999981867e+000	 3.333434029809070e-001	-5.727187164208521e+000
0	 1.466639999981866e+000	 4.000138002678044e-001	-4.824228098010297e+000
0	 1.466639999981867e+000	 4.666844975500011e-001	-3.922218445128605e+000
0	 1.466639999981867e+000	 5.333553781553803e-001	-2.998698928602110e+000
0	 1.466639999981866e+000	 6.000263254118248e-001	-2.031210089562026e+000
0	 1.466639999981867e+000	 6.666972226472175e-001	-9.972922871071382e-001
0	 1.533309999982383e+000	 0.000000000000000e+000	-1.437270376478542e+001
0	 1.533309999982383e+000	 6.666714722864754e-002	-1.276386847183492e+001
0	 1.533309999982383e+000	 1.333351778131789e-001	-1.128287148143367e+001
0	 1.533309999982383e+000	 2.000039750814772e-001	-9.907568333716371e+000
0	 1.533309999982383e+000	 2.666734223614256e-001	-8.615814641969950e+000
0	 1.533309999982383e+000	 3.333434029809069e-001	-7.385466092465991e+000
0	 1.533309999982383e+000	 4.000138002678044e-001	-6.194378444295183e+000
0	 1.533309999982383e+000	 4.666844975500011e-001	-5.020407529203578e+000
0	 1.533309999982383e+000	 5.333553781553803e-001	-3.841409251430830e+000
0	 1.533309999982383e+000	 6.000263254118248e-001	-2.635239587550368e+000
0	 1.533309999982383e+000	 6.666972226472177e-001	-1.379754586311386e+000
0	 1.599979999983600e+000	 0.000000000000000e+000	-1.804503708569707e+001
0	 1.599979999983599e+000	 6.666714722864754e-002	-1.605732819546861e+001
0	 1.599979999983600e+000	 1.333351778131790e-001	-1.420431321452928e+001
0	 1.599979999983600e+000	 2.000039750814772e-001	-1.246570657854176e+001
0	 1.599979999983600e+000	 2.666734223614256e-001	-1.082122310086495e+001
0	 1.599979999983600e+000	 3.333434029809069e-001	-9.250577972310076e+000
0	 1.599979999983600e+000	 4.000138002678044e-001	-7.733486760906854e+000
0	 1.599979999983599e+000	 4.666844975500011e-001	-6.249665411679505e+000
0	 1.599979999983600e+000	 5.333553781553801e-001	-4.778830246432703e+000
0	 1.599979999983600e+000	 6.000263254118248e-001	-3.300697963547403e+000
0	 1.599979999983600e+000	 6.666972226472177e-001	-1.794985637786578e+000
0	 1.666649999985417e+000	 0.000000000000000e+000	-2.199744919096203e+001
0	 1.666649999985416e+000	 6.666714722864757e-002	-1.962414149002126e+001
0	 1.666649999985417e+000	 1.333351778131790e-001	-1.738401837015298e+001
0	 1.666649999985416e+000	 2.000039750814773e-001	-1.526019821022638e+001
0	 1.666649999985416e+000	 2.666734223614256e-001	-1.323580011482065e+001
0	 1.666649999985416e+000	 3.333434029809069e-001	-1.129394391389621e+001
0	 1.666649999985416e+000	 4.000138002678043e-001	-9.417750162485117e+000
0	 1.666649999985417e+000	 4.666844975500012e-001	-7.590340140400522e+000
0	 1.666649999985416e+000	 5.333553781553800e-001	-5.794835851965102e+000
0	 1.666649999985416e+000	 6.000263254118247e-001	-4.014360025758561e+000
0	 1.666649999985416e+000	 6.666972226472175e-001	-2.232036114384133e+000
0	 1.733319999987733e+000	 0.000000000000000e+000	-2.616810363898500e+001
0	 1.733319999987733e+000	 6.666714722864756e-002	-2.341037393338067e+001
0	 1.733319999987733e+000	 1.333351778131789e-001	-2.077532923297563e+001
0	 1.733319999987733e+000	 2.000039750814772e-001	-1.825103696894160e+001
0	 1.733319999987734e+000	 2.666734223614256e-001	-1.582556568307582e+001
0	 1.733319999987733e+000	 3.333434029809068e-001	-1.348698502738036e+001
0	 1.733319999987733e+000	 4.000138002678043e-001	-1.122336576367031e+001
0	 1.733319999987733e+000	 4.666844975500011e-001	-9.022779763211220e+000
0	 1.733319999987733e+000	 5.333553781553801e-001	-6.873300006385812e+000
0	 1.733319999987733e+000	 6.000263254118248e-001	-4.763000582389561e+000
0	 1.733319999987733e+000	 6.666972226472177e-001	-2.679956688955612e+000
0	 1.799989999990450e+000	 0.000000000000000e+000	-3.049516398817017e+001
0	 1.799989999990450e+000	 6.666714722864754e-002	-2.736209110343455e+001
0	 1.799989999990450e+000	 1.333351778131789e-001	-2.433158808766833e+001
0	 1.799989999990450e+000	 2.000039750814773e-001	-2.139821659485913e+001
0	 1.799989999990450e+000	 2.666734223614256e-001	-1.855653980486974e+001
0	 1.799989999990450e+000	 3.333434029809069e-001	-1.580112242291910e+001
0	 1.799989999990450e+000	 4.000138002678043e-001	-1.312653067910329e+001
0	 1.799989999990450e+000	 4.666844975500012e-001	-1.052733232795669e+001
0	 1.799989999990450e+000	 5.333553781553804e-001	-7.998096648052982e+000
0	 1.799989999990450e+000	 6.000263254118247e-001	-5.533394441646403e+000
0	 1.799989999990450e+000	 6.666972226472177e-001	-3.127798034352794e+000
0	 1.866659999993467e+000	 0.000000000000000e+000	-3.491679379692130e+001
0	 1.866659999993467e+000	 6.666714722864756e-002	-3.142535857807058e+001
0	 1.866659999993467e+000	 1.333351778131790e-001	-2.800613721890235e+001
0	 1.866659999993467e+000	 2.000039750814772e-001	-2.466173082815114e+001
0	 1.866659999993467e+000	 2.666734223614254e-001	-2.139474247944220e+001
0	 1.866659999993467e+000	 3.333434029809069e-001	-1.820777721066950e+001
0	 1.866659999993466e+000	 4.000138002678043e-001	-1.510344202342552e+001
0	 1.866659999993467e+000	 4.666844975500012e-001	-1.208434588248248e+001
0	 1.866659999993466e+000	 5.333553781553801e-001	-9.153099715325167e+000
0	 1.866659999993467e+000	 6.000263254118247e-001	-6.312316411735350e+000
0	 1.866659999993467e+000	 6.666972226472177e-001	-3.564610823427592e+000
0	 1.933329999996684e+000	 0.000000000000000e+000	-3.937115662364163e+001
0	 1.933329999996684e+000	 6.666714722864757e-002	-3.554624193517632e+001
0	 1.933329999996684e+000	 1.333351778131789e-001	-3.175231891134919e+001
0	 1.933329999996684e+000	 2.000039750814773e-001	-2.800157340899021e+001
0	 1.933329999996684e+000	 2.666734223614255e-001	-2.430619370603353e+001
0	 1.933329999996683e+000	 3.333434029809069e-001	-2.067837050078924e+001
0	 1.933329999996684e+000	 4.000138002678044e-001	-1.713029691127893e+001
0	 1.933329999996684e+000	 4.666844975500011e-001	-1.367416847463463e+001
0	 1.933329999996684e+000	 5.333553781553804e-001	-1.032218314656130e+001
0	 1.933329999996683e+000	 6.000263254118246e-001	-7.086541300862973e+000
0	 1.933329999996683e+000	 6.666972226472177e-001	-3.979445729032122e+000
0	 2.000000000000000e+000	 0.000000000000000e+000	-4.379641602673387e+001
0	 2.000000000000000e+000	 6.666714722864757e-002	-3.967080675263925e+001
0	 2.000000000000000e+000	 1.333351778131789e-001	-3.552347544968058e+001
0	 2.000000000000000e+000	 2.000039750814773e-001	-3.137773807754932e+001
0	 2.000000000000000e+000	 2.666734223614256e-001	-2.725691348388455e+001
0	 2.000000000000000e+000	 3.333434029809069e-001	-2.318432340343651e+001
0	 2.000000000000000e+000	 4.000138002678043e-001	-1.918329245730600e+001
0	 2.000000000000000e+000	 4.666844975500010e-001	-1.527714815225961e+001
0	 2.000000000000000e+000	 5.333553781553803e-001	-1.148922088012069e+001
0	 2.000000000000000e+000	 6.000263254118246e-001	-7.842843917236105e+000
0	 2.000000000000000e+000	 6.666972226472177e-001	-4.361353424018655e+000
0	 1.333299999983334e+000	 6.666972226472174e-001	-3.744712541067178e-001
0	 1.333299999983334e+000	 7.333579753122047e-001	 4.284080795214369e-001
0	 1.333299999983334e+000	 8.000185779984418e-001	 1.359634555320826e+000
0	 1.333299999983334e+000	 8.666790473703454e-001	 2.405254393344630e+000
0	 1.333299999983334e+000	 9.333394000923321e-001	 3.551313680817780e+000
0	 1.333299999983334e+000	 9.999996528288189e-001	 4.783858372136763e+000
0	 1.333299999983334e+000	 1.066659822244222e+000	 6.088934288869902e+000
0	 1.333299999983334e+000	 1.133319925002959e+000	 7.452587119758170e+000
0	 1.333299999983334e+000	 1.199979977769445e+000	 8.860862420716479e+000
0	 1.333299999983334e+000	 1.266639997208098e+000	 1.029980561483545e+001
0	 1.333299999983334e+000	 1.333299999983334e+000	 1.175546199238372e+001
0	 1.399969999982150e+000	 6.666972226472177e-001	-6.585480673226035e-001
0	 1.399969999982150e+000	 7.333579753122047e-001	 2.923050255501161e-001
0	 1.399969999982150e+000	 8.000185779984417e-001	 1.356098752502093e+000
0	 1.399969999982150e+000	 8.666790473703450e-001	 2.517818403655018e+000
0	 1.399969999982150e+000	 9.333394000923321e-001	 3.762449172196647e+000
0	 1.399969999982150e+000	 9.999996528288191e-001	 5.074976154381582e+000
0	 1.399969999982150e+000	 1.066659822244222e+000	 6.440384349532346e+000
0	 1.399969999982150e+000	 1.133319925002959e+000	 7.843658660040928e+000
0	 1.399969999982150e+000	 1.199979977769445e+000	 9.269783891370574e+000
0	 1.399969999982150e+000	 1.266639997208098e+000	 1.070374475205803e+001
0	 1.399969999982150e+000	 1.333299999983334e+000	 1.213052585371609e+001
0	 1.466639999981867e+000	 6.666972226472175e-001	-9.972922871071382e-001
0	 1.466639999981867e+000	 7.333579753122048e-001	 1.296722187062541e-001
0	 1.466639999981866e+000	 8.000185779984416e-001	 1.351041679018359e+000
0	 1.466639999981866e+000	 8.666790473703453e-001	 2.650903040151804e+000
0	 1.466639999981866e+000	 9.333394000923321e-001	 4.013343190219357e+000
0	 1.466639999981866e+000	 9.999996528288190e-001	 5.422448959125775e+000
0	 1.466639999981867e+000	 1.066659822244222e+000	 6.862307118569770e+000
0	 1.466639999981867e+000	 1.133319925002959e+000	 8.317004382046280e+000
0	 1.466639999981866e+000	 1.199979977769445e+000	 9.770627404848877e+000
0	 1.466639999981866e+000	 1.266639997208097e+000	 1.120726278407245e+001
0	 1.466639999981866e+000	 1.333299999983334e+000	 1.261099705861611e+001
0	 1.533309999982383e+000	 6.666972226472177e-001	-1.379754586311386e+000
0	 1.533309999982383e+000	 7.333579753122047e-001	-5.044616238504279e-002
0	 1.533309999982383e+000	 8.000185779984417e-001	 1.351718211534664e+000
0	 1.533309999982383e+000	 8.666790473703455e-001	 2.810089726184083e+000
0	 1.533309999982383e+000	 9.333394000923321e-001	 4.308019555469859e+000
0	 1.533309999982383e+000	 9.999996528288192e-001	 5.828858856471836e+000
0	 1.533309999982383e+000	 1.066659822244222e+000	 7.355958769446030e+000
0	 1.533309999982383e+000	 1.133319925002958e+000	 8.872670417827617e+000
0	 1.533309999982383e+000	 1.199979977769445e+000	 1.036234490823408e+001
0	 1.533309999982383e+000	 1.266639997208098e+000	 1.180833333046833e+001
0	 1.533309999982383e+000	 1.333299999983334e+000	 1.319398675752189e+001
0	 1.599979999983600e+000	 6.666972226472177e-001	-1.794985637786578e+000
0	 1.599979999983600e+000	 7.333579753122049e-001	-2.390059390987309e-001
0	 1.599979999983600e+000	 8.000185779984417e-001	 1.365383226716042e+000
0	 1.599979999983599e+000	 8.666790473703451e-001	 3.000959885101045e+000
0	 1.599979999983600e+000	 9.333394000923322e-001	 4.650502088532272e+000
0	 1.599979999983600e+000	 9.999996528288191e-001	 6.296787916522495e+000
0	 1.599979999983600e+000	 1.066659822244222e+000	 7.922595475625243e+000
0	 1.599979999983599e+000	 1.133319925002958e+000	 9.510702899438652e+000
0	 1.599979999983600e+000	 1.199979977769445e+000	 1.104388834860926e+001
0	 1.599979999983600e+000	 1.266639997208098e+000	 1.250493001083565e+001
0	 1.599979999983600e+000	 1.333299999983334e+000	 1.387660610087204e+001
0	 1.666649999985416e+000	 6.666972226472175e-001	-2.232036114384133e+000
0	 1.666649999985416e+000	 7.333579753122048e-001	-4.269629328098658e-001
0	 1.666649999985417e+000	 8.000185779984420e-001	 1.399291601227537e+000
0	 1.666649999985416e+000	 8.666790473703451e-001	 3.229094940251938e+000
0	 1.666649999985416e+000	 9.333394000923321e-001	 5.044814609990835e+000
0	 1.666649999985417e+000	 9.999996528288191e-001	 6.828818209380657e+000
0	 1.666649999985416e+000	 1.066659822244222e+000	 8.563473410571804e+000
0	 1.666649999985417e+000	 1.133319925002959e+000	 1.023114795893341e+001
0	 1.666649999985416e+000	 1.199979977769445e+000	 1.181420967305784e+001
0	 1.666649999985416e+000	 1.266639997208098e+000	 1.329502644476487e+001
0	 1.666649999985417e+000	 1.333299999983334e+000	 1.465596623910561e+001
0	 1.733319999987733e+000	 6.666972226472177e-001	-2.679956688955612e+000
0	 1.733319999987733e+000	 7.333579753122046e-001	-6.052729648935571e-001
0	 1.733319999987733e+000	 8.000185779984415e-001	 1.460698211734214e+000
0	 1.733319999987733e+000	 8.666790473703454e-001	 3.500076314986138e+000
0	 1.733319999987733e+000	 9.333394000923320e-001	 5.494980940429983e+000
0	 1.733319999987733e+000	 9.999996528288189e-001	 7.427531805149464e+000
0	 1.733319999987733e+000	 1.066659822244222e+000	 9.279848747750378e+000
0	 1.733319999987733e+000	 1.133319925002959e+000	 1.103405172836627e+001
0	 1.733319999987733e+000	 1.199979977769445e+000	 1.267226082866366e+001
0	 1.733319999987733e+000	 1.266639997208098e+000	 1.417659625184682e+001
0	 1.733319999987733e+000	 1.333299999983334e+000	 1.552917832266214e+001
0	 1.799989999990450e+000	 6.666972226472177e-001	-3.127798034352794e+000
0	 1.799989999990450e+000	 7.333579753122047e-001	-7.648918567249951e-001
0	 1.799989999990450e+000	 8.000185779984418e-001	 1.556857934901130e+000
0	 1.799989999990450e+000	 8.666790473703450e-001	 3.819485432653052e+000
0	 1.799989999990450e+000	 9.333394000923322e-001	 6.005024900434262e+000
0	 1.799989999990450e+000	 9.999996528288190e-001	 8.095510773932276e+000
0	 1.799989999990450e+000	 1.066659822244222e+000	 1.007297766062590e+001
0	 1.799989999990450e+000	 1.133319925002959e+000	 1.191946033979189e+001
0	 1.799989999990450e+000	 1.199979977769445e+000	 1.361699376251087e+001
0	 1.799989999990450e+000	 1.266639997208098e+000	 1.514761305167280e+001
0	 1.799989999990450e+000	 1.333299999983334e+000	 1.649335350198159e+001
0	 1.866659999993467e+000	 6.666972226472177e-001	-3.564610823427592e+000
0	 1.866659999993467e+000	 7.333579753122049e-001	-8.967754296794743e-001
0	 1.866659999993467e+000	 8.000185779984415e-001	 1.695025647393381e+000
0	 1.866659999993467e+000	 8.666790473703453e-001	 4.192903716602220e+000
0	 1.866659999993467e+000	 9.333394000923321e-001	 6.578970310588395e+000
0	 1.866659999993467e+000	 9.999996528288186e-001	 8.835337185832648e+000
0	 1.866659999993467e+000	 1.066659822244222e+000	 1.094411632266357e+001
0	 1.866659999993467e+000	 1.133319925002958e+000	 1.288741992526526e+001
0	 1.866659999993467e+000	 1.199979977769445e+000	 1.464736042168405e+001
0	 1.866659999993467e+000	 1.266639997208098e+000	 1.620605046383449e+001
0	 1.866659999993467e+000	 1.333299999983334e+000	 1.754560292750445e+001
0	 1.933329999996683e+000	 6.666972226472177e-001	-3.979445729032122e+000
0	 1.933329999996684e+000	 7.333579753122047e-001	-9.918795051323190e-001
0	 1.933329999996683e+000	 8.000185779984416e-001	 1.882456225876034e+000
0	 1.933329999996683e+000	 8.666790473703453e-001	 4.625912590183243e+000
0	 1.933329999996684e+000	 9.333394000923321e-001	 7.220840991477250e+000
0	 1.933329999996683e+000	 9.999996528288188e-001	 9.649593110954347e+000
0	 1.933329999996683e+000	 1.066659822244222e+000	 1.189452090732886e+001
0	 1.933329999996684e+000	 1.133319925002958e+000	 1.393797661684170e+001
0	 1.933329999996684e+000	 1.199979977769445e+000	 1.576231275326810e+001
0	 1.933329999996684e+000	 1.266639997208098e+000	 1.734988210792399e+001
0	 1.933329999996684e+000	 1.333299999983334e+000	 1.868303774967164e+001
0	 2.000000000000000e+000	 6.666972226472177e-001	-4.361353424018655e+000
0	 2.000000000000000e+000	 7.333579753122048e-001	-1.041159904458980e+000
0	 2.000000000000000e+000	 8.000185779984418e-001	 2.126404547014176e+000
0	 2.000000000000000e+000	 8.666790473703454e-001	 5.124093476745807e+000
0	 2.000000000000000e+000	 9.333394000923323e-001	 7.934660763685856e+000
0	 2.000000000000000e+000	 9.999996528288190e-001	 1.054086061940139e+001
0	 2.000000000000000e+000	 1.066659822244222e+000	 1.292544758808747e+001
0	 2.000000000000000e+000	 1.133319925002958e+000	 1.507117654657685e+001
0	 2.000000000000000e+000	 1.199979977769445e+000	 1.696080270434830e+001
0	 2.000000000000000e+000	 1.266639997208097e+000	 1.857708160353383e+001
0	 2.000000000000000e+000	 1.333299999983334e+000	 1.990276911892453e+001
0	 1.333299999983334e+000	 1.333299999983334e+000	 1.175546199238372e+001
0	 1.333299999983334e+000	 1.399969999982150e+000	 1.308899324397691e+001
0	 1.333299999983334e+000	 1.466639999981867e+000	 1.417520159060118e+001
0	 1.333299999983334e+000	 1.533309999982383e+000	 1.502124979675747e+001
0	 1.333299999983334e+000	 1.599979999983599e+000	 1.563430062694528e+001
0	 1.333299999983334e+000	 1.666649999985416e+000	 1.602151684566255e+001
0	 1.333299999983334e+000	 1.733319999987733e+000	 1.619006121740571e+001
0	 1.333299999983334e+000	 1.799989999990449e+000	 1.614709650666969e+001
0	 1.333299999983334e+000	 1.866659999993466e+000	 1.589978547794787e+001
0	 1.333299999983334e+000	 1.933329999996683e+000	 1.545529089573212e+001
0	 1.333299999983334e+000	 2.000000000000000e+000	 1.482077552451283e+001
0	 1.399969999982150e+000	 1.333299999983334e+000	 1.213052585371609e+001
0	 1.399969999982150e+000	 1.399969999982150e+000	 1.341839235854542e+001
0	 1.399969999982150e+000	 1.466639999981866e+000	 1.445048398945312e+001
0	 1.399969999982150e+000	 1.533309999982383e+000	 1.523473537397471e+001
0	 1.399969999982150e+000	 1.599979999983599e+000	 1.577908113964414e+001
0	 1.399969999982150e+000	 1.666649999985416e+000	 1.609145591399381e+001
0	 1.399969999982150e+000	 1.733319999987733e+000	 1.617979432455446e+001
0	 1.399969999982150e+000	 1.799989999990450e+000	 1.605203099885527e+001
0	 1.399969999982150e+000	 1.866659999993466e+000	 1.571610056442384e+001
0	 1.399969999982150e+000	 1.933329999996683e+000	 1.517993764878617e+001
0	 1.399969999982150e+000	 2.000000000000000e+000	 1.445147687946663e+001
0	 1.466639999981866e+000	 1.333299999983334e+000	 1.261099705861611e+001
0	 1.466639999981866e+000	 1.399969999982150e+000	 1.385892557985091e+001
0	 1.466639999981867e+000	 1.466639999981866e+000	 1.484409482736824e+001
0	 1.466639999981867e+000	 1.533309999982383e+000	 1.557513994159594e+001
0	 1.466639999981866e+000	 1.599979999983599e+000	 1.606069606296025e+001
0	 1.466639999981867e+000	 1.666649999985416e+000	 1.630939833188571e+001
0	 1.466639999981867e+000	 1.733319999987733e+000	 1.632988188879521e+001
0	 1.466639999981867e+000	 1.799989999990450e+000	 1.613078187411000e+001
0	 1.466639999981866e+000	 1.866659999993466e+000	 1.572073342824968e+001
0	 1.466639999981867e+000	 1.933329999996683e+000	 1.510837169163216e+001
0	 1.466639999981866e+000	 2.000000000000000e+000	 1.430233180467376e+001
0	 1.533309999982383e+000	 1.333299999983334e+000	 1.319398675752189e+001
0	 1.533309999982383e+000	 1.399969999982150e+000	 1.440684013115243e+001
0	 1.533309999982383e+000	 1.466639999981866e+000	 1.535129886692665e+001
0	 1.533309999982383e+000	 1.533309999982383e+000	 1.603662726802252e+001
0	 1.533309999982383e+000	 1.599979999983600e+000	 1.647208963761626e+001
0	 1.533309999982383e+000	 1.666649999985416e+000	 1.666695027888239e+001
0	 1.533309999982383e+000	 1.733319999987733e+000	 1.663047349499372e+001
0	 1.533309999982383e+000	 1.799989999990450e+000	 1.637192358912138e+001
0	 1.533309999982383e+000	 1.866659999993466e+000	 1.590056486443479e+001
0	 1.533309999982383e+000	 1.933329999996683e+000	 1.522566162410160e+001
0	 1.533309999982383e+000	 2.000000000000000e+000	 1.435647817128787e+001
0	 1.599979999983600e+000	 1.333299999983334e+000	 1.387660610087204e+001
0	 1.599979999983600e+000	 1.399969999982150e+000	 1.505838323570956e+001
0	 1.599979999983600e+000	 1.466639999981866e+000	 1.596736087070908e+001
0	 1.599979999983600e+000	 1.533309999982383e+000	 1.661336112165637e+001
0	 1.599979999983600e+000	 1.599979999983599e+000	 1.700620610433548e+001
0	 1.599979999983599e+000	 1.666649999985416e+000	 1.715571793452868e+001
0	 1.599979999983600e+000	 1.733319999987733e+000	 1.707171872801651e+001
0	 1.599979999983600e+000	 1.799989999990450e+000	 1.676403060057774e+001
0	 1.599979999983600e+000	 1.866659999993467e+000	 1.624247566798944e+001
0	 1.599979999983600e+000	 1.933329999996683e+000	 1.551687604602687e+001
0	 1.599979999983600e+000	 2.000000000000000e+000	 1.459705385046358e+001
0	 1.666649999985417e+000	 1.333299999983334e+000	 1.465596623910562e+001
0	 1.666649999985416e+000	 1.399969999982150e+000	 1.580980211678240e+001
0	 1.666649999985416e+000	 1.466639999981866e+000	 1.668754560129677e+001
0	 1.666649999985417e+000	 1.533309999982383e+000	 1.729950527090006e+001
0	 1.666649999985416e+000	 1.599979999983599e+000	 1.765598970384194e+001
0	 1.666649999985416e+000	 1.666649999985416e+000	 1.776730747837021e+001
0	 1.666649999985417e+000	 1.733319999987733e+000	 1.764376717273089e+001
0	 1.666649999985416e+000	 1.799989999990449e+000	 1.729567736516826e+001
0	 1.666649999985416e+000	 1.866659999993466e+000	 1.673334663392482e+001
0	 1.666649999985417e+000	 1.933329999996683e+000	 1.596708355724125e+001
0	 1.666649999985416e+000	 2.000000000000000e+000	 1.500719671335647e+001
0	 1.733319999987733e+000	 1.333299999983334e+000	 1.552917832266214e+001
0	 1.733319999987733e+000	 1.399969999982150e+000	 1.665734399763157e+001
0	 1.733319999987733e+000	 1.466639999981866e+000	 1.750711782127155e+001
0	 1.733319999987733e+000	 1.533309999982383e+000	 1.808922348415680e+001
0	 1.733319999987733e+000	 1.599979999983599e+000	 1.841438467686032e+001
0	 1.733319999987733e+000	 1.666649999985416e+000	 1.849332508995324e+001
0	 1.733319999987733e+000	 1.733319999987733e+000	 1.833676841400493e+001
0	 1.733319999987733e+000	 1.799989999990449e+000	 1.795543833958290e+001
0	 1.733319999987733e+000	 1.866659999993466e+000	 1.736005855725293e+001
0	 1.733319999987733e+000	 1.933329999996683e+000	 1.656135275757897e+001
0	 1.733319999987733e+000	 2.000000000000000e+000	 1.557004463112309e+001
0	 1.799989999990450e+000	 1.333299999983334e+000	 1.649335350198160e+001
0	 1.799989999990450e+000	 1.399969999982150e+000	 1.759725610151822e+001
0	 1.799989999990450e+000	 1.466639999981867e+000	 1.842134229321584e+001
0	 1.799989999990450e+000	 1.533309999982383e+000	 1.897667952983040e+001
0	 1.799989999990450e+000	 1.599979999983599e+000	 1.927433526411597e+001
0	 1.799989999990450e+000	 1.666649999985417e+000	 1.932537694882483e+001
0	 1.799989999990450e+000	 1.733319999987733e+000	 1.914087203670748e+001
0	 1.799989999990450e+000	 1.799989999990450e+000	 1.873188798051251e+001
0	 1.799989999990450e+000	 1.866659999993466e+000	 1.810949223298675e+001
0	 1.799989999990450e+000	 1.933329999996683e+000	 1.728475224687515e+001
0	 1.799989999990450e+000	 2.000000000000000e+000	 1.626873547492092e+001
0	 1.866659999993467e+000	 1.333299999983334e+000	 1.754560292750445e+001
0	 1.866659999993467e+000	 1.399969999982150e+000	 1.862578565170398e+001
0	 1.866659999993467e+000	 1.466639999981866e+000	 1.942548377971264e+001
0	 1.866659999993467e+000	 1.533309999982383e+000	 1.995603717632527e+001
0	 1.866659999993466e+000	 1.599979999983599e+000	 2.022878570633493e+001
0	 1.866659999993467e+000	 1.666649999985416e+000	 2.025506923453279e+001
0	 1.866659999993467e+000	 1.733319999987733e+000	 2.004622762570823e+001
0	 1.866659999993467e+000	 1.799989999990449e+000	 1.961360074464872e+001
0	 1.866659999993467e+000	 1.866659999993467e+000	 1.896852845614001e+001
0	 1.866659999993467e+000	 1.933329999996683e+000	 1.812235062496590e+001
0	 1.866659999993466e+000	 2.000000000000000e+000	 1.708640711590840e+001
0	 1.933329999996684e+000	 1.333299999983334e+000	 1.868303774967164e+001
0	 1.933329999996684e+000	 1.399969999982150e+000	 1.973917987145104e+001
0	 1.933329999996684e+000	 1.466639999981866e+000	 2.051480704334546e+001
0	 1.933329999996684e+000	 1.533309999982383e+000	 2.102146019204650e+001
0	 1.933329999996683e+000	 1.599979999983599e+000	 2.127068024424391e+001
0	 1.933329999996683e+000	 1.666649999985416e+000	 2.127400812662557e+001
0	 1.933329999996684e+000	 1.733319999987733e+000	 2.104298476587753e+001
0	 1.933329999996683e+000	 1.799989999990449e+000	 2.058915108868402e+001
0	 1.933329999996684e+000	 1.866659999993466e+000	 1.992404802172738e+001
0	 1.933329999996684e+000	 1.933329999996684e+000	 1.905921649168813e+001
0	 1.933329999996684e+000	 2.000000000000000e+000	 1.800619742524496e+001
0	 2.000000000000000e+000	 1.333299999983334e+000	 1.990276911892454e+001
0	 2.000000000000000e+000	 1.399969999982150e+000	 2.093368598402206e+001
0	 2.000000000000000e+000	 1.466639999981866e+000	 2.168457684669843e+001
0	 2.000000000000000e+000	 1.533309999982383e+000	 2.216711234539976e+001
0	 2.000000000000000e+000	 1.599979999983599e+000	 2.239296311857028e+001
0	 2.000000000000000e+000	 1.666649999985416e+000	 2.237379980465239e+001
0	 2.000000000000000e+000	 1.733319999987733e+000	 2.212129304208661e+001
0	 2.000000000000000e+000	 1.799989999990450e+000	 2.164711346931166e+001
0	 2.000000000000000e+000	 1.866659999993467e+000	 2.096293172476439e+001
0	 2.000000000000000e+000	 1.933329999996683e+000	 2.008041844687976e+001
0	 2.000000000000000e+000	 2.000000000000000e+000	 1.901124427409093e+001
0	 1.333299999983334e+000	 2.000000000000000e+000	 1.482077552451283e+001
0	 1.333299999983334e+000	 2.066670000003317e+000	 1.404498751326618e+001
0	 1.333299999983334e+000	 2.133340000006534e+000	 1.318399758954436e+001
0	 1.333299999983334e+000	 2.200010000009550e+000	 1.225595238569993e+001
0	 1.333299999983334e+000	 2.266680000012267e+000	 1.127899853408466e+001
0	 1.333299999983334e+000	 2.333350000014584e+000	 1.027128266704952e+001
0	 1.333299999983334e+000	 2.400020000016401e+000	 9.250951416944677e+000
0	 1.333299999983334e+000	 2.466690000017617e+000	 8.236151416119494e+000
0	 1.333299999983334e+000	 2.533360000018134e+000	 7.245029296922507e+000
0	 1.333299999983334e+000	 2.600030000017851e+000	 6.295731691701475e+000
0	 1.333299999983334e+000	 2.666700000016666e+000	 5.406405232803393e+000
0	 1.399969999982150e+000	 2.000000000000000e+000	 1.445147687946663e+001
0	 1.399969999982150e+000	 2.066670000003317e+000	 1.359262156692172e+001
0	 1.399969999982150e+000	 2.133340000006534e+000	 1.267137337983654e+001
0	 1.399969999982150e+000	 2.200010000009551e+000	 1.170481448307687e+001
0	 1.399969999982150e+000	 2.266680000012268e+000	 1.071002704150781e+001
0	 1.399969999982150e+000	 2.333350000014584e+000	 9.704093219993796e+000
0	 1.399969999982150e+000	 2.400020000016400e+000	 8.704095183398646e+000
0	 1.399969999982150e+000	 2.466690000017617e+000	 7.727115096585525e+000
0	 1.399969999982150e+000	 2.533360000018133e+000	 6.790235124416931e+000
0	 1.399969999982150e+000	 2.600030000017851e+000	 5.910537431754732e+000
0	 1.399969999982150e+000	 2.666700000016667e+000	 5.105104183460160e+000
0	 1.466639999981866e+000	 2.000000000000000e+000	 1.430233180467376e+001
0	 1.466639999981866e+000	 2.066670000003317e+000	 1.337512228856890e+001
0	 1.466639999981866e+000	 2.133340000006534e+000	 1.240416459935252e+001
0	 1.466639999981866e+000	 2.200010000009550e+000	 1.140546327969983e+001
0	 1.466639999981867e+000	 2.266680000012266e+000	 1.039502287228567e+001
0	 1.466639999981866e+000	 2.333350000014585e+000	 9.388847919784235e+000
0	 1.466639999981866e+000	 2.400020000016400e+000	 8.402942964869284e+000
0	 1.466639999981866e+000	 2.466690000017618e+000	 7.453312550213948e+000
0	 1.466639999981867e+000	 2.533360000018134e+000	 6.555961218490902e+000
0	 1.466639999981866e+000	 2.600030000017850e+000	 5.726893512372284e+000
0	 1.466639999981867e+000	 2.666700000016667e+000	 4.982113974529715e+000
0	 1.533309999982383e+000	 2.000000000000000e+000	 1.435647817128787e+001
0	 1.533309999982383e+000	 2.066670000003316e+000	 1.337388703656347e+001
0	 1.533309999982383e+000	 2.133340000006534e+000	 1.236252705890950e+001
0	 1.533309999982383e+000	 2.200010000009551e+000	 1.133731200410716e+001
0	 1.533309999982383e+000	 2.266680000012267e+000	 1.031315563793719e+001
0	 1.533309999982383e+000	 2.333350000014584e+000	 9.304971726179902e+000
0	 1.533309999982383e+000	 2.400020000016400e+000	 8.327674034615207e+000
0	 1.533309999982383e+000	 2.466690000017617e+000	 7.396176329022539e+000
0	 1.533309999982383e+000	 2.533360000018134e+000	 6.525392375180926e+000
0	 1.533309999982383e+000	 2.600030000017850e+000	 5.730235938868921e+000
0	 1.533309999982383e+000	 2.666700000016667e+000	 5.025620785864738e+000
0	 1.599979999983600e+000	 2.000000000000000e+000	 1.459705385046358e+001
0	 1.599979999983599e+000	 2.066670000003317e+000	 1.357031316926207e+001
0	 1.599979999983600e+000	 2.133340000006534e+000	 1.252661656932582e+001
0	 1.599979999983600e+000	 2.200010000009550e+000	 1.147977388483820e+001
0	 1.599979999983600e+000	 2.266680000012267e+000	 1.044359494998232e+001
0	 1.599979999983600e+000	 2.333350000014584e+000	 9.431889598940884e+000
0	 1.599979999983600e+000	 2.400020000016400e+000	 8.458467665896162e+000
0	 1.599979999983600e+000	 2.466690000017617e+000	 7.537138985030211e+000
0	 1.599979999983600e+000	 2.533360000018133e+000	 6.681713390524592e+000
0	 1.599979999983600e+000	 2.600030000017851e+000	 5.906000716560571e+000
0	 1.599979999983599e+000	 2.666700000016666e+000	 5.223810797319002e+000
0	 1.666649999985416e+000	 2.000000000000000e+000	 1.500719671335647e+001
0	 1.666649999985417e+000	 2.066670000003317e+000	 1.394579804502242e+001
0	 1.666649999985416e+000	 2.133340000006534e+000	 1.287658894142072e+001
0	 1.666649999985416e+000	 2.200010000009550e+000	 1.181226215043339e+001
0	 1.666649999985417e+000	 2.266680000012267e+000	 1.076551041994214e+001
0	 1.666649999985416e+000	 2.333350000014584e+000	 9.749026497828327e+000
0	 1.666649999985417e+000	 2.400020000016401e+000	 8.775503131973009e+000
0	 1.666649999985417e+000	 2.466690000017617e+000	 7.857633070256994e+000
0	 1.666649999985416e+000	 2.533360000018133e+000	 7.008109060560672e+000
0	 1.666649999985416e+000	 2.600030000017850e+000	 6.239623850764185e+000
0	 1.666649999985417e+000	 2.666700000016666e+000	 5.564870188747312e+000
0	 1.733319999987733e+000	 2.000000000000000e+000	 1.557004463112309e+001
0	 1.733319999987734e+000	 2.066670000003317e+000	 1.448173902220315e+001
0	 1.733319999987733e+000	 2.133340000006533e+000	 1.339259998601454e+001
0	 1.733319999987733e+000	 2.200010000009550e+000	 1.231419002943420e+001
0	 1.733319999987733e+000	 2.266680000012267e+000	 1.125807165933872e+001
0	 1.733319999987733e+000	 2.333350000014583e+000	 1.023580738260451e+001
0	 1.733319999987733e+000	 2.400020000016401e+000	 9.258959706107657e+000
0	 1.733319999987733e+000	 2.466690000017618e+000	 8.339091136723960e+000
0	 1.733319999987733e+000	 2.533360000018134e+000	 7.487764181328955e+000
0	 1.733319999987733e+000	 2.600030000017851e+000	 6.716541346797869e+000
0	 1.733319999987733e+000	 2.666700000016666e+000	 6.036985140005688e+000
0	 1.799989999990450e+000	 2.000000000000000e+000	 1.626873547492092e+001
0	 1.799989999990450e+000	 2.066670000003318e+000	 1.515953345916398e+001
0	 1.799989999990450e+000	 2.133340000006533e+000	 1.405480551392865e+001
0	 1.799989999990450e+000	 2.200010000009550e+000	 1.296497075038314e+001
0	 1.799989999990450e+000	 2.266680000012268e+000	 1.190044827969530e+001
0	 1.799989999990450e+000	 2.333350000014584e+000	 1.087165721303284e+001
0	 1.799989999990450e+000	 2.400020000016400e+000	 9.889016661563145e+000
0	 1.799989999990450e+000	 2.466690000017617e+000	 8.962945736453365e+000
0	 1.799989999990450e+000	 2.533360000018134e+000	 8.103863548870393e+000
0	 1.799989999990450e+000	 2.600030000017851e+000	 7.322189209980822e+000
0	 1.799989999990450e+000	 2.666700000016667e+000	 6.628341830951116e+000
0	 1.866659999993466e+000	 2.000000000000000e+000	 1.708640711590840e+001
0	 1.866659999993467e+000	 2.066670000003317e+000	 1.596057871426551e+001
0	 1.866659999993467e+000	 2.133340000006534e+000	 1.484336133598540e+001
0	 1.866659999993467e+000	 2.200010000009550e+000	 1.374401754182378e+001
0	 1.866659999993466e+000	 2.266680000012266e+000	 1.267180989253612e+001
0	 1.866659999993467e+000	 2.333350000014583e+000	 1.163600094887773e+001
0	 1.866659999993467e+000	 2.400020000016401e+000	 1.064585327160358e+001
0	 1.866659999993467e+000	 2.466690000017618e+000	 9.710629421468484e+000
0	 1.866659999993467e+000	 2.533360000018134e+000	 8.839591959226979e+000
0	 1.866659999993467e+000	 2.600030000017850e+000	 8.042003445633366e+000
0	 1.866659999993467e+000	 2.666700000016666e+000	 7.327126441441737e+000
0	 1.933329999996684e+000	 2.000000000000000e+000	 1.800619742524496e+001
0	 1.933329999996684e+000	 2.066670000003317e+000	 1.686627214586943e+001
0	 1.933329999996684e+000	 2.133340000006534e+000	 1.573842326300816e+001
0	 1.933329999996684e+000	 2.200010000009550e+000	 1.463074363230072e+001
0	 1.933329999996684e+000	 2.266680000012268e+000	 1.355132610938651e+001
0	 1.933329999996684e+000	 2.333350000014584e+000	 1.250826354990470e+001
0	 1.933329999996684e+000	 2.400020000016401e+000	 1.150964880949421e+001
0	 1.933329999996684e+000	 2.466690000017617e+000	 1.056357474379378e+001
0	 1.933329999996684e+000	 2.533360000018134e+000	 9.678134208441909e+000
0	 1.933329999996683e+000	 2.600030000017850e+000	 8.861420059076872e+000
0	 1.933329999996684e+000	 2.666700000016667e+000	 8.121525151336764e+000
0	 2.000000000000000e+000	 2.000000000000000e+000	 1.901124427409093e+001
0	 2.000000000000000e+000	 2.066670000003317e+000	 1.785801111233837e+001
0	 2.000000000000000e+000	 2.133340000006534e+000	 1.672014710582135e+001
0	 2.000000000000000e+000	 2.200010000009551e+000	 1.560456225035967e+001
0	 2.000000000000000e+000	 2.266680000012268e+000	 1.451816654177287e+001
0	 2.000000000000000e+000	 2.333350000014584e+000	 1.346786997588036e+001
0	 2.000000000000000e+000	 2.400020000016401e+000	 1.246058254850132e+001
0	 2.000000000000000e+000	 2.466690000017618e+000	 1.150321425545474e+001
0	 2.000000000000000e+000	 2.533360000018133e+000	 1.060267509255938e+001
0	 2.000000000000000e+000	 2.600030000017851e+000	 9.765875055633819e+000
0	 2.000000000000000e+000	 2.666700000016667e+000	 8.999724140496499e+000
0	 1.333299999983334e+000	 2.666700000016666e+000	 5.406405232803393e+000
0	 1.333299999983334e+000	 2.733360000014532e+000	 4.645616522614215e+000
0	 1.333299999983334e+000	 2.800020000011599e+000	 4.061312325909274e+000
0	 1.333299999983334e+000	 2.866680000008067e+000	 3.641093480824213e+000
0	 1.333299999983334e+000	 2.933340000004133e+000	 3.372560825494294e+000
0	 1.333299999983334e+000	 3.000000000000000e+000	 3.243315198054349e+000
0	 1.333299999983334e+000	 3.066659999995867e+000	 3.240957436638875e+000
0	 1.333299999983334e+000	 3.133319999991934e+000	 3.353088379381931e+000
0	 1.333299999983334e+000	 3.199979999988401e+000	 3.567308864417230e+000
0	 1.333299999983334e+000	 3.266639999985467e+000	 3.871219729878054e+000
0	 1.333299999983334e+000	 3.333299999983334e+000	 4.252421813897334e+000
0	 1.399969999982150e+000	 2.666700000016667e+000	 5.105104183460164e+000
0	 1.399969999982150e+000	 2.733360000014533e+000	 4.427832941793181e+000
0	 1.399969999982150e+000	 2.800020000011600e+000	 3.912954383165540e+000
0	 1.399969999982150e+000	 2.866680000008067e+000	 3.548393499644420e+000
0	 1.399969999982150e+000	 2.933340000004134e+000	 3.322075283296933e+000
0	 1.399969999982150e+000	 3.000000000000000e+000	 3.221924726189931e+000
0	 1.399969999982150e+000	 3.066659999995866e+000	 3.235866820390081e+000
0	 1.399969999982150e+000	 3.133319999991934e+000	 3.351826557963852e+000
0	 1.399969999982150e+000	 3.199979999988400e+000	 3.557728930977485e+000
0	 1.399969999982150e+000	 3.266639999985468e+000	 3.841498931497062e+000
0	 1.399969999982150e+000	 3.333299999983334e+000	 4.191061551588418e+000
0	 1.466639999981867e+000	 2.666700000016667e+000	 4.982113974529715e+000
0	 1.466639999981866e+000	 2.733360000014534e+000	 4.364358846970363e+000
0	 1.466639999981866e+000	 2.800020000011599e+000	 3.897675020368444e+000
0	 1.466639999981866e+000	 2.866680000008066e+000	 3.570346779979958e+000
0	 1.466639999981866e+000	 2.933340000004133e+000	 3.370658411060842e+000
0	 1.466639999981866e+000	 2.999999999999999e+000	 3.286894198866944e+000
0	 1.466639999981866e+000	 3.066659999995866e+000	 3.307338428654048e+000
0	 1.466639999981866e+000	 3.133319999991933e+000	 3.420275385677889e+000
0	 1.466639999981866e+000	 3.199979999988400e+000	 3.613989355194073e+000
0	 1.466639999981866e+000	 3.266639999985467e+000	 3.876764622458164e+000
0	 1.466639999981867e+000	 3.333299999983334e+000	 4.196885472725640e+000
0	 1.533309999982383e+000	 2.666700000016667e+000	 5.025620785864738e+000
0	 1.533309999982383e+000	 2.733360000014533e+000	 4.446190015935301e+000
0	 1.533309999982383e+000	 2.800020000011600e+000	 4.008900394635197e+000
0	 1.533309999982383e+000	 2.866680000008067e+000	 3.702430639666234e+000
0	 1.533309999982383e+000	 2.933340000004134e+000	 3.515459468730244e+000
0	 1.533309999982383e+000	 3.000000000000000e+000	 3.436665599528981e+000
0	 1.533309999982383e+000	 3.066659999995867e+000	 3.454727749764309e+000
0	 1.533309999982383e+000	 3.133319999991934e+000	 3.558324637138029e+000
0	 1.533309999982383e+000	 3.199979999988400e+000	 3.736134979351926e+000
0	 1.533309999982383e+000	 3.266639999985467e+000	 3.976837494107865e+000
0	 1.533309999982383e+000	 3.333299999983335e+000	 4.269110899107641e+000
0	 1.599979999983599e+000	 2.666700000016666e+000	 5.223810797319008e+000
0	 1.599979999983600e+000	 2.733360000014533e+000	 4.664322226478732e+000
0	 1.599979999983600e+000	 2.800020000011600e+000	 4.240056663084095e+000
0	 1.599979999983599e+000	 2.866680000008066e+000	 3.940122396539721e+000
0	 1.599979999983600e+000	 2.933340000004134e+000	 3.753627716250307e+000
0	 1.599979999983600e+000	 3.000000000000000e+000	 3.669680911620564e+000
0	 1.599979999983600e+000	 3.066659999995867e+000	 3.677390272055239e+000
0	 1.599979999983599e+000	 3.133319999991933e+000	 3.765864086959089e+000
0	 1.599979999983600e+000	 3.199979999988400e+000	 3.924210645736903e+000
0	 1.599979999983600e+000	 3.266639999985468e+000	 4.141538237793561e+000
0	 1.599979999983600e+000	 3.333299999983334e+000	 4.406955152533877e+000
0	 1.666649999985417e+000	 2.666700000016666e+000	 5.564870188747312e+000
0	 1.666649999985416e+000	 2.733360000014533e+000	 5.009751256392419e+000
0	 1.666649999985417e+000	 2.800020000011601e+000	 4.584569982834428e+000
0	 1.666649999985416e+000	 2.866680000008067e+000	 4.278899368437868e+000
0	 1.666649999985416e+000	 2.933340000004133e+000	 4.082312413567306e+000
0	 1.666649999985416e+000	 3.000000000000000e+000	 3.984382118587199e+000
0	 1.666649999985417e+000	 3.066659999995867e+000	 3.974681483862182e+000
0	 1.666649999985416e+000	 3.133319999991934e+000	 4.042783509756800e+000
0	 1.666649999985417e+000	 3.199979999988400e+000	 4.178261196635657e+000
0	 1.666649999985416e+000	 3.266639999985466e+000	 4.370687544863349e+000
0	 1.666649999985417e+000	 3.333299999983334e+000	 4.609635554804509e+000
0	 1.733319999987733e+000	 2.666700000016666e+000	 6.036985140005693e+000
0	 1.733319999987733e+000	 2.733360000014533e+000	 5.473472883469198e+000
0	 1.733319999987733e+000	 2.800020000011600e+000	 5.035866511006579e+000
0	 1.733319999987733e+000	 2.866680000008067e+000	 4.714238873199230e+000
0	 1.733319999987733e+000	 2.933340000004133e+000	 4.498662820628407e+000
0	 1.733319999987733e+000	 3.000000000000000e+000	 4.379211203875371e+000
0	 1.733319999987733e+000	 3.066659999995867e+000	 4.345956873521446e+000
0	 1.733319999987733e+000	 3.133319999991933e+000	 4.388972680147805e+000
0	 1.733319999987733e+000	 3.199979999988401e+000	 4.498331474335635e+000
0	 1.733319999987733e+000	 3.266639999985467e+000	 4.664106106666131e+000
0	 1.733319999987733e+000	 3.333299999983334e+000	 4.876369427720395e+000
0	 1.799989999990450e+000	 2.666700000016667e+000	 6.628341830951110e+000
0	 1.799989999990450e+000	 2.733360000014534e+000	 6.046482885503004e+000
0	 1.799989999990450e+000	 2.800020000011600e+000	 5.587372404722006e+000
0	 1.799989999990449e+000	 2.866680000008066e+000	 5.241618228663259e+000
0	 1.799989999990450e+000	 2.933340000004133e+000	 4.999828197381778e+000
0	 1.799989999990450e+000	 3.000000000000000e+000	 4.852610150932500e+000
0	 1.799989999990450e+000	 3.066659999995868e+000	 4.790571929370184e+000
0	 1.799989999990450e+000	 3.133319999991933e+000	 4.804321372749536e+000
0	 1.799989999990450e+000	 3.199979999988400e+000	 4.884466321125169e+000
0	 1.799989999990450e+000	 3.266639999985468e+000	 5.021614614551588e+000
0	 1.799989999990450e+000	 3.333299999983335e+000	 5.206374093083208e+000
0	 1.866659999993467e+000	 2.666700000016666e+000	 7.327126441441737e+000
0	 1.866659999993467e+000	 2.733360000014533e+000	 6.719777040288781e+000
0	 1.866659999993467e+000	 2.800020000011600e+000	 6.232513821103126e+000
0	 1.866659999993467e+000	 2.866680000008067e+000	 5.856514752670587e+000
0	 1.866659999993467e+000	 2.933340000004134e+000	 5.582957803776734e+000
0	 1.866659999993467e+000	 2.999999999999999e+000	 5.403020943206967e+000
0	 1.866659999993467e+000	 3.066659999995866e+000	 5.307882139746499e+000
0	 1.866659999993467e+000	 3.133319999991933e+000	 5.288719362180379e+000
0	 1.866659999993466e+000	 3.199979999988400e+000	 5.336710579293401e+000
0	 1.866659999993467e+000	 3.266639999985467e+000	 5.443033759870219e+000
0	 1.866659999993467e+000	 3.333299999983334e+000	 5.598866872695272e+000
0	 1.933329999996684e+000	 2.666700000016667e+000	 8.121525151336764e+000
0	 1.933329999996684e+000	 2.733360000014532e+000	 7.484351125622664e+000
0	 1.933329999996684e+000	 2.800020000011600e+000	 6.964716917273549e+000
0	 1.933329999996683e+000	 2.866680000008066e+000	 6.554405763062767e+000
0	 1.933329999996684e+000	 2.933340000004133e+000	 6.245200899763367e+000
0	 1.933329999996684e+000	 3.000000000000000e+000	 6.028885564148121e+000
0	 1.933329999996684e+000	 3.066659999995866e+000	 5.897242992989485e+000
0	 1.933329999996684e+000	 3.133319999991934e+000	 5.842056423059613e+000
0	 1.933329999996684e+000	 3.199979999988401e+000	 5.855109091130357e+000
0	 1.933329999996684e+000	 3.266639999985467e+000	 5.928184233973302e+000
0	 1.933329999996684e+000	 3.333299999983334e+000	 6.053065088359709e+000
0	 2.000000000000000e+000	 2.666700000016667e+000	 8.999724140496502e+000
0	 2.000000000000000e+000	 2.733360000014533e+000	 8.331200919301752e+000
0	 2.000000000000000e+000	 2.800020000011600e+000	 7.777407850357803e+000
0	 2.000000000000000e+000	 2.866680000008067e+000	 7.330768577682405e+000
0	 2.000000000000000e+000	 2.933340000004133e+000	 6.983706745292935e+000
0	 2.000000000000000e+000	 3.000000000000000e+000	 6.728645997206308e+000
0	 2.000000000000000e+000	 3.066659999995867e+000	 6.558009977439061e+000
0	 2.000000000000000e+000	 3.133319999991934e+000	 6.464222330007311e+000
0	 2.000000000000000e+000	 3.199979999988400e+000	 6.439706698926814e+000
0	 2.000000000000000e+000	 3.266639999985468e+000	 6.476886728212858e+000
0	 2.000000000000000e+000	 3.333299999983334e+000	 6.568186061880348e+000
0	 1.333299999983334e+000	 3.333299999983334e+000	 4.252421813897335e+000
0	 1.333299999983334e+000	 3.399969999982149e+000	 4.696377782785132e+000
0	 1.333299999983334e+000	 3.466639999981867e+000	 5.186677995604158e+000
0	 1.333299999983334e+000	 3.533309999982383e+000	 5.708301919912771e+000
0	 1.333299999983334e+000	 3.599979999983599e+000	 6.246229023269446e+000
0	 1.333299999983334e+000	 3.666649999985416e+000	 6.785438773232934e+000
0	 1.333299999983334e+000	 3.733319999987733e+000	 7.310910637362026e+000
0	 1.333299999983334e+000	 3.799989999990450e+000	 7.807624083215786e+000
0	 1.333299999983334e+000	 3.866659999993467e+000	 8.260558578353333e+000
0	 1.333299999983334e+000	 3.933329999996683e+000	 8.654693590334043e+000
0	 1.333299999983334e+000	 4.000000000000000e+000	 8.975008586717395e+000
0	 1.399969999982150e+000	 3.333299999983334e+000	 4.191061551588418e+000
0	 1.399969999982150e+000	 3.399969999982151e+000	 4.600633017138438e+000
0	 1.399969999982150e+000	 3.466639999981866e+000	 5.062436278858187e+000
0	 1.399969999982150e+000	 3.533309999982383e+000	 5.561576728348291e+000
0	 1.399969999982150e+000	 3.599979999983601e+000	 6.083159757209721e+000
0	 1.399969999982150e+000	 3.666649999985416e+000	 6.612290757043539e+000
0	 1.399969999982150e+000	 3.733319999987733e+000	 7.134075119451070e+000
0	 1.399969999982150e+000	 3.799989999990450e+000	 7.633618236033886e+000
0	 1.399969999982150e+000	 3.866659999993467e+000	 8.096025498393768e+000
0	 1.399969999982150e+000	 3.933329999996683e+000	 8.506402298132727e+000
0	 1.399969999982150e+000	 4.000000000000000e+000	 8.849854026852924e+000
0	 1.466639999981867e+000	 3.333299999983334e+000	 4.196885472725642e+000
0	 1.466639999981866e+000	 3.399969999982150e+000	 4.575027403572249e+000
0	 1.466639999981867e+000	 3.466639999981867e+000	 5.009783129938127e+000
0	 1.466639999981866e+000	 3.533309999982383e+000	 5.486467978428795e+000
0	 1.466639999981866e+000	 3.599979999983600e+000	 5.990397275649877e+000
0	 1.466639999981866e+000	 3.666649999985417e+000	 6.506886348207384e+000
0	 1.466639999981867e+000	 3.733319999987733e+000	 7.021250522707587e+000
0	 1.466639999981866e+000	 3.799989999990451e+000	 7.518805125756957e+000
0	 1.466639999981866e+000	 3.866659999993467e+000	 7.984865483962250e+000
0	 1.466639999981866e+000	 3.933329999996683e+000	 8.404746923930560e+000
0	 1.466639999981867e+000	 4.000000000000002e+000	 8.763764772269177e+000
0	 1.533309999982383e+000	 3.333299999983335e+000	 4.269110899107641e+000
0	 1.533309999982383e+000	 3.399969999982150e+000	 4.618048480254979e+000
0	 1.533309999982383e+000	 3.466639999981866e+000	 5.026602931744420e+000
0	 1.533309999982383e+000	 3.533309999982383e+000	 5.480383526148592e+000
0	 1.533309999982383e+000	 3.599979999983599e+000	 5.964999536040472e+000
0	 1.533309999982383e+000	 3.666649999985415e+000	 6.466060233993315e+000
0	 1.533309999982383e+000	 3.733319999987733e+000	 6.969174892580666e+000
0	 1.533309999982383e+000	 3.799989999990450e+000	 7.459952784376434e+000
0	 1.533309999982383e+000	 3.866659999993466e+000	 7.924003181954796e+000
0	 1.533309999982383e+000	 3.933329999996684e+000	 8.346935357890182e+000
0	 1.533309999982383e+000	 4.000000000000002e+000	 8.714358584757408e+000
0	 1.599979999983600e+000	 3.333299999983334e+000	 4.406955152533880e+000
0	 1.599979999983600e+000	 3.399969999982150e+000	 4.728183785355840e+000
0	 1.599979999983600e+000	 3.466639999981867e+000	 5.110780067177998e+000
0	 1.599979999983599e+000	 3.533309999982383e+000	 5.540731227502668e+000
0	 1.599979999983600e+000	 3.599979999983600e+000	 6.004024495832491e+000
0	 1.599979999983599e+000	 3.666649999985416e+000	 6.486647101670447e+000
0	 1.599979999983600e+000	 3.733319999987733e+000	 6.974586274519818e+000
0	 1.599979999983600e+000	 3.799989999990449e+000	 7.453829243884242e+000
0	 1.599979999983600e+000	 3.866659999993467e+000	 7.910363239267679e+000
0	 1.599979999983600e+000	 3.933329999996683e+000	 8.330175490174410e+000
0	 1.599979999983599e+000	 4.000000000000000e+000	 8.699253226109079e+000
0	 1.666649999985417e+000	 3.333299999983334e+000	 4.609635554804509e+000
0	 1.666649999985416e+000	 3.399969999982150e+000	 4.903920857044630e+000
0	 1.666649999985417e+000	 3.466639999981867e+000	 5.260198919140501e+000
0	 1.666649999985416e+000	 3.533309999982383e+000	 5.664918938486568e+000
0	 1.666649999985417e+000	 3.599979999983600e+000	 6.104530112477525e+000
0	 1.666649999985416e+000	 3.666649999985417e+000	 6.565481638508470e+000
0	 1.666649999985417e+000	 3.733319999987733e+000	 7.034222713974890e+000
0	 1.666649999985416e+000	 3.799989999990450e+000	 7.497202536272527e+000
0	 1.666649999985416e+000	 3.866659999993467e+000	 7.940870302797534e+000
0	 1.666649999985417e+000	 3.933329999996684e+000	 8.351675210946368e+000
0	 1.666649999985417e+000	 4.000000000000000e+000	 8.716066458115870e+000
0	 1.733319999987733e+000	 3.333299999983334e+000	 4.876369427720393e+000
0	 1.733319999987733e+000	 3.399969999982150e+000	 5.143747233491832e+000
0	 1.733319999987733e+000	 3.466639999981866e+000	 5.472743870534204e+000
0	 1.733319999987733e+000	 3.533309999982383e+000	 5.850354515096370e+000
0	 1.733319999987733e+000	 3.599979999983599e+000	 6.263574343427610e+000
0	 1.733319999987733e+000	 3.666649999985417e+000	 6.699398531777562e+000
0	 1.733319999987733e+000	 3.733319999987733e+000	 7.144822256396205e+000
0	 1.733319999987733e+000	 3.799989999990450e+000	 7.586840693533845e+000
0	 1.733319999987733e+000	 3.866659999993466e+000	 8.012449019441226e+000
0	 1.733319999987733e+000	 3.933329999996684e+000	 8.408642410369364e+000
0	 1.733319999987733e+000	 4.000000000000000e+000	 8.762416042569669e+000
0	 1.799989999990450e+000	 3.333299999983335e+000	 5.206374093083211e+000
0	 1.799989999990450e+000	 3.399969999982150e+000	 5.446150452868700e+000
0	 1.799989999990450e+000	 3.466639999981866e+000	 5.746299304261934e+000
0	 1.799989999990450e+000	 3.533309999982383e+000	 6.094445813328748e+000
0	 1.799989999990450e+000	 3.599979999983600e+000	 6.478215146135340e+000
0	 1.799989999990450e+000	 3.666649999985416e+000	 6.885232468748262e+000
0	 1.799989999990450e+000	 3.733319999987733e+000	 7.303122947234434e+000
0	 1.799989999990450e+000	 3.799989999990450e+000	 7.719511747661121e+000
0	 1.799989999990450e+000	 3.866659999993466e+000	 8.122024036095985e+000
0	 1.799989999990450e+000	 3.933329999996684e+000	 8.498284978607012e+000
0	 1.799989999990450e+000	 4.000000000000000e+000	 8.835919741262558e+000
0	 1.866659999993467e+000	 3.333299999983334e+000	 5.598866872695269e+000
0	 1.866659999993466e+000	 3.399969999982150e+000	 5.809618053347022e+000
0	 1.866659999993467e+000	 3.466639999981866e+000	 6.078749603227183e+000
0	 1.866659999993467e+000	 3.533309999982383e+000	 6.394600689180919e+000
0	 1.866659999993466e+000	 3.599979999983599e+000	 6.745510478053757e+000
0	 1.866659999993467e+000	 3.666649999985416e+000	 7.119818136691579e+000
0	 1.866659999993467e+000	 3.733319999987733e+000	 7.505862831940648e+000
0	 1.866659999993466e+000	 3.799989999990449e+000	 7.891983730647556e+000
0	 1.866659999993467e+000	 3.866659999993466e+000	 8.266519999659277e+000
0	 1.866659999993467e+000	 3.933329999996685e+000	 8.617810805823162e+000
0	 1.866659999993467e+000	 4.000000000000000e+000	 8.934195315986861e+000
0	 1.933329999996684e+000	 3.333299999983334e+000	 6.053065088359711e+000
0	 1.933329999996684e+000	 3.399969999982150e+000	 6.232637573099418e+000
0	 1.933329999996684e+000	 3.466639999981867e+000	 6.467979150334116e+000
0	 1.933329999996684e+000	 3.533309999982382e+000	 6.748226998650707e+000
0	 1.933329999996684e+000	 3.599979999983600e+000	 7.062518296636494e+000
0	 1.933329999996684e+000	 3.666649999985416e+000	 7.399990222879029e+000
0	 1.933329999996684e+000	 3.733319999987733e+000	 7.749779955966337e+000
0	 1.933329999996684e+000	 3.799989999990449e+000	 8.101024674486737e+000
0	 1.933329999996684e+000	 3.866659999993467e+000	 8.442861557028895e+000
0	 1.933329999996684e+000	 3.933329999996684e+000	 8.764427782181876e+000
0	 1.933329999996684e+000	 4.000000000000000e+000	 9.054860528535054e+000
0	 2.000000000000000e+000	 3.333299999983334e+000	 6.568186061880346e+000
0	 2.000000000000000e+000	 3.399969999982150e+000	 6.713696550299070e+000
0	 2.000000000000000e+000	 3.466639999981867e+000	 6.911872328487441e+000
0	 2.000000000000000e+000	 3.533309999982383e+000	 7.152732597736485e+000
0	 2.000000000000000e+000	 3.599979999983600e+000	 7.426296559337616e+000
0	 2.000000000000000e+000	 3.666649999985416e+000	 7.722583414582553e+000
0	 2.000000000000000e+000	 3.733319999987733e+000	 8.031612364763399e+000
0	 2.000000000000000e+000	 3.799989999990449e+000	 8.343402611172587e+000
0	 2.000000000000000e+000	 3.866659999993466e+000	 8.647973355102918e+000
0	 2.000000000000000e+000	 3.933329999996683e+000	 8.935343797847514e+000
0	 2.000000000000000e+000	 4.000000000000001e+000	 9.195533140699862e+000
0	 1.333299999983334e+000	 4.000000000000000e+000	 8.975008586717395e+000
0	 1.333299999983334e+000	 4.066670000003317e+000	 9.215788963030988e+000
0	 1.333299999983334e+000	 4.133340000006535e+000	 9.388193325135227e+000
0	 1.333299999983334e+000	 4.200010000009550e+000	 9.502510956089195e+000
0	 1.333299999983334e+000	 4.266680000012268e+000	 9.569031138952157e+000
0	 1.333299999983334e+000	 4.333350000014584e+000	 9.598043156783717e+000
0	 1.333299999983334e+000	 4.400020000016402e+000	 9.599836292643651e+000
0	 1.333299999983334e+000	 4.466690000017619e+000	 9.584699829592053e+000
0	 1.333299999983334e+000	 4.533360000018134e+000	 9.562923050689239e+000
0	 1.333299999983334e+000	 4.600030000017851e+000	 9.544795238995789e+000
0	 1.333299999983334e+000	 4.666700000016667e+000	 9.540605677572547e+000
0	 1.399969999982150e+000	 4.000000000000000e+000	 8.849854026852926e+000
0	 1.399969999982150e+000	 4.066670000003317e+000	 9.116334222938315e+000
0	 1.399969999982150e+000	 4.133340000006534e+000	 9.312489538629782e+000
0	 1.399969999982150e+000	 4.200010000009550e+000	 9.448465036315334e+000
0	 1.399969999982150e+000	 4.266680000012268e+000	 9.534405778383281e+000
0	 1.399969999982150e+000	 4.333350000014584e+000	 9.580456827222138e+000
0	 1.399969999982150e+000	 4.400020000016401e+000	 9.596763245220640e+000
0	 1.399969999982150e+000	 4.466690000017615e+000	 9.593470094767769e+000
0	 1.399969999982150e+000	 4.533360000018132e+000	 9.580722438252753e+000
0	 1.399969999982150e+000	 4.600030000017851e+000	 9.568665338065017e+000
0	 1.399969999982150e+000	 4.666700000016665e+000	 9.567443856594263e+000
0	 1.466639999981867e+000	 4.000000000000002e+000	 8.763764772269179e+000
0	 1.466639999981866e+000	 4.066670000003318e+000	 9.048451435780841e+000
0	 1.466639999981866e+000	 4.133340000006533e+000	 9.261771226599189e+000
0	 1.466639999981866e+000	 4.200010000009550e+000	 9.413687329328232e+000
0	 1.466639999981867e+000	 4.266680000012267e+000	 9.514162928572185e+000
0	 1.466639999981866e+000	 4.333350000014583e+000	 9.573161208935522e+000
0	 1.466639999981866e+000	 4.400020000016402e+000	 9.600645355022900e+000
0	 1.466639999981866e+000	 4.466690000017617e+000	 9.606578551439197e+000
0	 1.466639999981867e+000	 4.533360000018134e+000	 9.600923982789515e+000
0	 1.466639999981866e+000	 4.600030000017851e+000	 9.593644833679143e+000
0	 1.466639999981867e+000	 4.666700000016667e+000	 9.594704288713631e+000
0	 1.533309999982383e+000	 4.000000000000002e+000	 8.714358584757411e+000
0	 1.533309999982383e+000	 4.066670000003317e+000	 9.010207874400514e+000
0	 1.533309999982383e+000	 4.133340000006534e+000	 9.234507823418127e+000
0	 1.533309999982383e+000	 4.200010000009553e+000	 9.397002081517167e+000
0	 1.533309999982383e+000	 4.266680000012266e+000	 9.507434298404833e+000
0	 1.533309999982383e+000	 4.333350000014584e+000	 9.575548123788476e+000
0	 1.533309999982383e+000	 4.400020000016401e+000	 9.611087207375670e+000
0	 1.533309999982383e+000	 4.466690000017617e+000	 9.623795198874186e+000
0	 1.533309999982383e+000	 4.533360000018135e+000	 9.623415747991988e+000
0	 1.533309999982383e+000	 4.600030000017851e+000	 9.619692504437241e+000
0	 1.533309999982383e+000	 4.666700000016666e+000	 9.622369117918321e+000
0	 1.599979999983599e+000	 4.000000000000000e+000	 8.699253226109081e+000
0	 1.599979999983600e+000	 4.066670000003317e+000	 8.999670811639472e+000
0	 1.599979999983600e+000	 4.133340000006533e+000	 9.229168763461349e+000
0	 1.599979999983600e+000	 4.200010000009550e+000	 9.397233539271586e+000
0	 1.599979999983600e+000	 4.266680000012268e+000	 9.513351596767270e+000
0	 1.599979999983599e+000	 4.333350000014583e+000	 9.587009393645673e+000
0	 1.599979999983600e+000	 4.400020000016401e+000	 9.627693387604248e+000
0	 1.599979999983600e+000	 4.466690000017618e+000	 9.644890036340630e+000
0	 1.599979999983600e+000	 4.533360000018133e+000	 9.648085797552673e+000
0	 1.599979999983600e+000	 4.600030000017851e+000	 9.646767128938391e+000
0	 1.599979999983599e+000	 4.666700000016665e+000	 9.650420488195984e+000
0	 1.666649999985417e+000	 4.000000000000000e+000	 8.716066458115870e+000
0	 1.666649999985417e+000	 4.066670000003319e+000	 9.014907520340010e+000
0	 1.666649999985416e+000	 4.133340000006533e+000	 9.244223481103782e+000
0	 1.666649999985416e+000	 4.200010000009550e+000	 9.413205948981004e+000
0	 1.666649999985417e+000	 4.266680000012268e+000	 9.531046532545629e+000
0	 1.666649999985416e+000	 4.333350000014583e+000	 9.606936840371834e+000
0	 1.666649999985417e+000	 4.400020000016402e+000	 9.650068481033944e+000
0	 1.666649999985416e+000	 4.466690000017618e+000	 9.669633063106465e+000
0	 1.666649999985416e+000	 4.533360000018133e+000	 9.674822195164090e+000
0	 1.666649999985416e+000	 4.600030000017851e+000	 9.674827485781691e+000
0	 1.666649999985416e+000	 4.666700000016667e+000	 9.678840543534301e+000
0	 1.733319999987733e+000	 4.000000000000000e+000	 8.762416042569669e+000
0	 1.733319999987733e+000	 4.066670000003318e+000	 9.053985273344589e+000
0	 1.733319999987733e+000	 4.133340000006534e+000	 9.278141410720487e+000
0	 1.733319999987733e+000	 4.200010000009550e+000	 9.443743557035056e+000
0	 1.733319999987733e+000	 4.266680000012268e+000	 9.559650814626137e+000
0	 1.733319999987733e+000	 4.333350000014584e+000	 9.634722285831771e+000
0	 1.733319999987733e+000	 4.400020000016402e+000	 9.677817072990154e+000
0	 1.733319999987733e+000	 4.466690000017617e+000	 9.697794278439636e+000
0	 1.733319999987733e+000	 4.533360000018133e+000	 9.703513004518776e+000
0	 1.733319999987733e+000	 4.600030000017850e+000	 9.703832353566254e+000
0	 1.733319999987733e+000	 4.666700000016665e+000	 9.707611427920954e+000
0	 1.799989999990450e+000	 4.000000000000000e+000	 8.835919741262558e+000
0	 1.799989999990450e+000	 4.066670000003317e+000	 9.114971343495862e+000
0	 1.799989999990450e+000	 4.133340000006535e+000	 9.329391986686659e+000
0	 1.799989999990450e+000	 4.200010000009550e+000	 9.487670609823482e+000
0	 1.799989999990450e+000	 4.266680000012267e+000	 9.598296151895090e+000
0	 1.799989999990450e+000	 4.333350000014583e+000	 9.669757551890351e+000
0	 1.799989999990450e+000	 4.400020000016400e+000	 9.710543748798299e+000
0	 1.799989999990450e+000	 4.466690000017618e+000	 9.729143681608154e+000
0	 1.799989999990450e+000	 4.533360000018134e+000	 9.734046289309282e+000
0	 1.799989999990450e+000	 4.600030000017851e+000	 9.733740510891209e+000
0	 1.799989999990449e+000	 4.666700000016665e+000	 9.736715285343635e+000
0	 1.866659999993467e+000	 4.000000000000000e+000	 8.934195315986859e+000
0	 1.866659999993467e+000	 4.066670000003316e+000	 9.195933003636634e+000
0	 1.866659999993467e+000	 4.133340000006534e+000	 9.396444643377601e+000
0	 1.866659999993467e+000	 4.200010000009551e+000	 9.543811353736160e+000
0	 1.866659999993467e+000	 4.266680000012268e+000	 9.646114253238883e+000
0	 1.866659999993467e+000	 4.333350000014583e+000	 9.711434460412496e+000
0	 1.866659999993467e+000	 4.400020000016400e+000	 9.747853093783874e+000
0	 1.866659999993467e+000	 4.466690000017617e+000	 9.763451271880042e+000
0	 1.866659999993467e+000	 4.533360000018134e+000	 9.766310113228208e+000
0	 1.866659999993466e+000	 4.600030000017848e+000	 9.764510736355703e+000
0	 1.866659999993467e+000	 4.666700000016665e+000	 9.766134259790027e+000
0	 1.933329999996684e+000	 4.000000000000000e+000	 9.054860528535052e+000
0	 1.933329999996684e+000	 4.066670000003317e+000	 9.294937526609884e+000
0	 1.933329999996684e+000	 4.133340000006534e+000	 9.477768815168799e+000
0	 1.933329999996683e+000	 4.200010000009551e+000	 9.610990035163036e+000
0	 1.933329999996684e+000	 4.266680000012267e+000	 9.702236827543986e+000
0	 1.933329999996684e+000	 4.333350000014584e+000	 9.759144833263211e+000
0	 1.933329999996684e+000	 4.400020000016401e+000	 9.789349693272380e+000
0	 1.933329999996684e+000	 4.466690000017616e+000	 9.800487048523372e+000
0	 1.933329999996684e+000	 4.533360000018133e+000	 9.800192539968153e+000
0	 1.933329999996684e+000	 4.600030000017850e+000	 9.796101808558886e+000
0	 1.933329999996684e+000	 4.666700000016666e+000	 9.795850495247860e+000
0	 2.000000000000000e+000	 4.000000000000001e+000	 9.195533140699862e+000
0	 2.000000000000000e+000	 4.066670000003318e+000	 9.410052185258769e+000
0	 2.000000000000000e+000	 4.133340000006533e+000	 9.571833936435858e+000
0	 2.000000000000000e+000	 4.200010000009550e+000	 9.688030900494184e+000
0	 2.000000000000000e+000	 4.266680000012268e+000	 9.765795583696958e+000
0	 2.000000000000000e+000	 4.333350000014584e+000	 9.812280492307535e+000
0	 2.000000000000000e+000	 4.400020000016401e+000	 9.834638132589411e+000
0	 2.000000000000000e+000	 4.466690000017617e+000	 9.840021010806220e+000
0	 2.000000000000000e+000	 4.533360000018134e+000	 9.835581633221748e+000
0	 2.000000000000000e+000	 4.600030000017851e+000	 9.828472506099933e+000
0	 2.000000000000000e+000	 4.666700000016665e+000	 9.825846135704822e+000
0	 1.333299999983334e+000	 4.666700000016667e+000	 9.540605677572549e+000
0	 1.333299999983334e+000	 4.733360000014533e+000	 9.546173011655620e+000
0	 1.333299999983334e+000	 4.800020000011600e+000	 9.550745148601044e+000
0	 1.333299999983334e+000	 4.866680000008067e+000	 9.554752470593231e+000
0	 1.333299999983334e+000	 4.933340000004134e+000	 9.558625359816531e+000
0	 1.333299999983334e+000	 5.000000000000000e+000	 9.562794198455276e+000
0	 1.333299999983334e+000	 5.066659999995867e+000	 9.567689368693726e+000
0	 1.333299999983334e+000	 5.133319999991934e+000	 9.573741252716102e+000
0	 1.333299999983334e+000	 5.199979999988400e+000	 9.581380232706579e+000
0	 1.333299999983334e+000	 5.266639999985467e+000	 9.591036690849279e+000
0	 1.333299999983334e+000	 5.333299999983335e+000	 9.603141009328301e+000
0	 1.399969999982150e+000	 4.666700000016665e+000	 9.567443856594263e+000
0	 1.399969999982150e+000	 4.733360000014534e+000	 9.573992902033128e+000
0	 1.399969999982150e+000	 4.800020000011601e+000	 9.578850080585902e+000
0	 1.399969999982150e+000	 4.866680000008066e+000	 9.582561091723408e+000
0	 1.399969999982150e+000	 4.933340000004133e+000	 9.585671634916432e+000
0	 1.399969999982150e+000	 5.000000000000000e+000	 9.588727409635709e+000
0	 1.399969999982150e+000	 5.066659999995867e+000	 9.592274115351943e+000
0	 1.399969999982150e+000	 5.133319999991936e+000	 9.596857451535744e+000
0	 1.399969999982150e+000	 5.199979999988400e+000	 9.603023117657717e+000
0	 1.399969999982150e+000	 5.266639999985468e+000	 9.611316813188404e+000
0	 1.399969999982150e+000	 5.333299999983333e+000	 9.622284237598299e+000
0	 1.466639999981867e+000	 4.666700000016667e+000	 9.594704288713631e+000
0	 1.466639999981866e+000	 4.733360000014533e+000	 9.601916165563349e+000
0	 1.466639999981866e+000	 4.800020000011600e+000	 9.606879561422668e+000
0	 1.466639999981866e+000	 4.866680000008065e+000	 9.610231732957184e+000
0	 1.466639999981866e+000	 4.933340000004134e+000	 9.612609936832429e+000
0	 1.466639999981866e+000	 4.999999999999997e+000	 9.614651429713909e+000
0	 1.466639999981866e+000	 5.066659999995866e+000	 9.616993468267076e+000
0	 1.466639999981866e+000	 5.133319999991933e+000	 9.620273309157303e+000
0	 1.466639999981866e+000	 5.199979999988401e+000	 9.625128209049970e+000
0	 1.466639999981866e+000	 5.266639999985467e+000	 9.632195424610343e+000
0	 1.466639999981867e+000	 5.333299999983335e+000	 9.642112212503683e+000
0	 1.533309999982383e+000	 4.666700000016666e+000	 9.622369117918323e+000
0	 1.533309999982383e+000	 4.733360000014534e+000	 9.629924002298134e+000
0	 1.533309999982383e+000	 4.800020000011601e+000	 9.634812578003791e+000
0	 1.533309999982383e+000	 4.866680000008068e+000	 9.637739898803988e+000
0	 1.533309999982383e+000	 4.933340000004134e+000	 9.639411018467362e+000
0	 1.533309999982383e+000	 5.000000000000002e+000	 9.640530990762514e+000
0	 1.533309999982383e+000	 5.066659999995866e+000	 9.641804869457980e+000
0	 1.533309999982383e+000	 5.133319999991934e+000	 9.643937708322282e+000
0	 1.533309999982383e+000	 5.199979999988400e+000	 9.647634561123846e+000
0	 1.533309999982383e+000	 5.266639999985467e+000	 9.653600481631049e+000
0	 1.533309999982383e+000	 5.333299999983333e+000	 9.662540523612272e+000
0	 1.599979999983599e+000	 4.666700000016665e+000	 9.650420488195984e+000
0	 1.599979999983600e+000	 4.733360000014534e+000	 9.657997612289314e+000
0	 1.599979999983600e+000	 4.800020000011599e+000	 9.662628117221697e+000
0	 1.599979999983599e+000	 4.866680000008065e+000	 9.665061093773236e+000
0	 1.599979999983599e+000	 4.933340000004134e+000	 9.666045632724048e+000
0	 1.599979999983600e+000	 5.000000000000000e+000	 9.666330824854146e+000
0	 1.599979999983600e+000	 5.066659999995866e+000	 9.666665760943527e+000
0	 1.599979999983599e+000	 5.133319999991934e+000	 9.667799531772131e+000
0	 1.599979999983599e+000	 5.199979999988400e+000	 9.670481228119840e+000
0	 1.599979999983600e+000	 5.266639999985468e+000	 9.675459940766505e+000
0	 1.599979999983600e+000	 5.333299999983335e+000	 9.683484760491895e+000
0	 1.666649999985416e+000	 4.666700000016667e+000	 9.678840543534303e+000
0	 1.666649999985416e+000	 4.733360000014534e+000	 9.686118195588762e+000
0	 1.666649999985416e+000	 4.800020000011599e+000	 9.690305165968812e+000
0	 1.666649999985416e+000	 4.866680000008066e+000	 9.692170822374374e+000
0	 1.666649999985416e+000	 4.933340000004134e+000	 9.692484532505304e+000
0	 1.666649999985417e+000	 4.999999999999999e+000	 9.692015664061438e+000
0	 1.666649999985417e+000	 5.066659999995866e+000	 9.691533584742542e+000
0	 1.666649999985416e+000	 5.133319999991935e+000	 9.691807662248335e+000
0	 1.666649999985417e+000	 5.199979999988400e+000	 9.693607264278503e+000
0	 1.666649999985416e+000	 5.266639999985467e+000	 9.697701758532659e+000
0	 1.666649999985416e+000	 5.333299999983334e+000	 9.704860512710390e+000
0	 1.733319999987733e+000	 4.666700000016665e+000	 9.707611427920956e+000
0	 1.733319999987733e+000	 4.733360000014532e+000	 9.714266952248316e+000
0	 1.733319999987733e+000	 4.800020000011601e+000	 9.717822711137595e+000
0	 1.733319999987733e+000	 4.866680000008066e+000	 9.719044589116798e+000
0	 1.733319999987733e+000	 4.933340000004133e+000	 9.718698470713962e+000
0	 1.733319999987733e+000	 4.999999999999999e+000	 9.717550240457021e+000
0	 1.733319999987733e+000	 5.066659999995868e+000	 9.716365782873865e+000
0	 1.733319999987733e+000	 5.133319999991935e+000	 9.715910982492369e+000
0	 1.733319999987733e+000	 5.199979999988402e+000	 9.716951723840323e+000
0	 1.733319999987733e+000	 5.266639999985469e+000	 9.720253891445488e+000
0	 1.733319999987733e+000	 5.333299999983333e+000	 9.726583369835582e+000
0	 1.799989999990449e+000	 4.666700000016665e+000	 9.736715285343637e+000
0	 1.799989999990450e+000	 4.733360000014533e+000	 9.742425082319835e+000
0	 1.799989999990450e+000	 4.800020000011599e+000	 9.745159739620441e+000
0	 1.799989999990450e+000	 4.866680000008066e+000	 9.745657898509945e+000
0	 1.799989999990450e+000	 4.933340000004132e+000	 9.744658200252824e+000
0	 1.799989999990450e+000	 4.999999999999999e+000	 9.742899286113508e+000
0	 1.799989999990450e+000	 5.066659999995867e+000	 9.741119797356355e+000
0	 1.799989999990450e+000	 5.133319999991935e+000	 9.740058375245688e+000
0	 1.799989999990449e+000	 5.199979999988399e+000	 9.740453661045811e+000
0	 1.799989999990450e+000	 5.266639999985467e+000	 9.743044296020955e+000
0	 1.799989999990450e+000	 5.333299999983334e+000	 9.748568921435313e+000
0	 1.866659999993467e+000	 4.666700000016665e+000	 9.766134259790027e+000
0	 1.866659999993467e+000	 4.733360000014532e+000	 9.770573785855186e+000
0	 1.866659999993467e+000	 4.800020000011599e+000	 9.772295238309805e+000
0	 1.866659999993467e+000	 4.866680000008066e+000	 9.771986255063228e+000
0	 1.866659999993467e+000	 4.933340000004133e+000	 9.770334474024722e+000
0	 1.866659999993467e+000	 5.000000000000000e+000	 9.768027533103515e+000
0	 1.866659999993467e+000	 5.066659999995867e+000	 9.765753070208822e+000
0	 1.866659999993467e+000	 5.133319999991935e+000	 9.764198723249777e+000
0	 1.866659999993467e+000	 5.199979999988400e+000	 9.764052130135489e+000
0	 1.866659999993467e+000	 5.266639999985467e+000	 9.766000928775032e+000
0	 1.866659999993467e+000	 5.333299999983333e+000	 9.770732757077413e+000
0	 1.933329999996684e+000	 4.666700000016666e+000	 9.795850495247862e+000
0	 1.933329999996684e+000	 4.733360000014534e+000	 9.798694262906224e+000
0	 1.933329999996684e+000	 4.800020000011601e+000	 9.799208194098117e+000
0	 1.933329999996683e+000	 4.866680000008066e+000	 9.798005163286048e+000
0	 1.933329999996684e+000	 4.933340000004135e+000	 9.795698044932435e+000
0	 1.933329999996683e+000	 5.000000000000000e+000	 9.792899713499679e+000
0	 1.933329999996683e+000	 5.066659999995865e+000	 9.790223043450123e+000
0	 1.933329999996684e+000	 5.133319999991934e+000	 9.788280909246089e+000
0	 1.933329999996684e+000	 5.199979999988401e+000	 9.787686185349868e+000
0	 1.933329999996684e+000	 5.266639999985469e+000	 9.789051746223684e+000
0	 1.933329999996684e+000	 5.333299999983335e+000	 9.792990466329725e+000
0	 2.000000000000000e+000	 4.666700000016665e+000	 9.825846135704826e+000
0	 2.000000000000000e+000	 4.733360000014533e+000	 9.826767713524804e+000
0	 2.000000000000000e+000	 4.800020000011601e+000	 9.825877593877815e+000
0	 2.000000000000000e+000	 4.866680000008067e+000	 9.823690127687833e+000
0	 2.000000000000000e+000	 4.933340000004134e+000	 9.820719665878784e+000
0	 2.000000000000000e+000	 5.000000000000001e+000	 9.817480559374587e+000
0	 2.000000000000000e+000	 5.066659999995866e+000	 9.814487159099077e+000
0	 2.000000000000000e+000	 5.133319999991934e+000	 9.812253815976103e+000
0	 2.000000000000000e+000	 5.199979999988400e+000	 9.811294880929445e+000
0	 2.000000000000000e+000	 5.266639999985468e+000	 9.812124704882864e+000
0	 2.000000000000000e+000	 5.333299999983333e+000	 9.815257638760084e+000
0	 1.333299999983334e+000	 5.333299999983335e+000	 9.603141009328297e+000
0	 1.333299999983334e+000	 5.399969999982149e+000	 9.616378269319807e+000
0	 1.333299999983334e+000	 5.466639999981867e+000	 9.629127030628089e+000
0	 1.333299999983334e+000	 5.533309999982383e+000	 9.641363956254811e+000
0	 1.333299999983334e+000	 5.599979999983599e+000	 9.653065709201584e+000
0	 1.333299999983334e+000	 5.666649999985414e+000	 9.664208952470089e+000
0	 1.333299999983334e+000	 5.733319999987733e+000	 9.674770349061953e+000
0	 1.333299999983334e+000	 5.799989999990448e+000	 9.684726561978787e+000
0	 1.333299999983334e+000	 5.866659999993467e+000	 9.694054254222227e+000
0	 1.333299999983334e+000	 5.933329999996684e+000	 9.702730088793892e+000
0	 1.333299999983334e+000	 6.000000000000000e+000	 9.710730728695380e+000
0	 1.399969999982150e+000	 5.333299999983333e+000	 9.622284237598299e+000
0	 1.399969999982150e+000	 5.399969999982149e+000	 9.634642991381023e+000
0	 1.399969999982150e+000	 5.466639999981864e+000	 9.646700678376561e+000
0	 1.399969999982150e+000	 5.533309999982382e+000	 9.658393622421778e+000
0	 1.399969999982150e+000	 5.599979999983600e+000	 9.669658147353514e+000
0	 1.399969999982150e+000	 5.666649999985418e+000	 9.680430577008620e+000
0	 1.399969999982150e+000	 5.733319999987733e+000	 9.690647235223924e+000
0	 1.399969999982150e+000	 5.799989999990447e+000	 9.700244445836249e+000
0	 1.399969999982150e+000	 5.866659999993465e+000	 9.709158532682427e+000
0	 1.399969999982150e+000	 5.933329999996682e+000	 9.717325819599259e+000
0	 1.399969999982150e+000	 5.999999999999999e+000	 9.724682630423551e+000
0	 1.466639999981867e+000	 5.333299999983335e+000	 9.642112212503683e+000
0	 1.466639999981867e+000	 5.399969999982150e+000	 9.653626100626884e+000
0	 1.466639999981867e+000	 5.466639999981866e+000	 9.664991398068770e+000
0	 1.466639999981866e+000	 5.533309999982383e+000	 9.676110733099220e+000
0	 1.466639999981866e+000	 5.599979999983599e+000	 9.686886733988144e+000
0	 1.466639999981867e+000	 5.666649999985417e+000	 9.697222029005394e+000
0	 1.466639999981867e+000	 5.733319999987733e+000	 9.707019246420853e+000
0	 1.466639999981866e+000	 5.799989999990450e+000	 9.716181014504384e+000
0	 1.466639999981866e+000	 5.866659999993467e+000	 9.724609961525855e+000
0	 1.466639999981867e+000	 5.933329999996683e+000	 9.732208715755100e+000
0	 1.466639999981867e+000	 6.000000000000001e+000	 9.738879905461982e+000
0	 1.533309999982383e+000	 5.333299999983333e+000	 9.662540523612272e+000
0	 1.533309999982383e+000	 5.399969999982150e+000	 9.673231609340396e+000
0	 1.533309999982383e+000	 5.466639999981866e+000	 9.683894477153894e+000
0	 1.533309999982383e+000	 5.533309999982384e+000	 9.694404703353525e+000
0	 1.533309999982383e+000	 5.599979999983599e+000	 9.704637864240047e+000
0	 1.533309999982383e+000	 5.666649999985416e+000	 9.714469536114221e+000
0	 1.533309999982383e+000	 5.733319999987732e+000	 9.723775295276814e+000
0	 1.533309999982383e+000	 5.799989999990449e+000	 9.732430718028542e+000
0	 1.533309999982383e+000	 5.866659999993467e+000	 9.740311380670164e+000
0	 1.533309999982383e+000	 5.933329999996683e+000	 9.747292859502393e+000
0	 1.533309999982383e+000	 6.000000000000000e+000	 9.753250730825943e+000
0	 1.599979999983600e+000	 5.333299999983335e+000	 9.683484760491895e+000
0	 1.599979999983600e+000	 5.399969999982149e+000	 9.693363529804531e+000
0	 1.599979999983600e+000	 5.466639999981866e+000	 9.703305203081067e+000
0	 1.599979999983600e+000	 5.533309999982384e+000	 9.713164948250997e+000
0	 1.599979999983600e+000	 5.599979999983600e+000	 9.722797933243790e+000
0	 1.599979999983599e+000	 5.666649999985416e+000	 9.732059325988924e+000
0	 1.599979999983600e+000	 5.733319999987732e+000	 9.740804294415867e+000
0	 1.599979999983600e+000	 5.799989999990450e+000	 9.748888006454074e+000
0	 1.599979999983600e+000	 5.866659999993466e+000	 9.756165630032996e+000
0	 1.599979999983600e+000	 5.933329999996685e+000	 9.762492333082077e+000
0	 1.599979999983599e+000	 6.000000000000000e+000	 9.767723283530744e+000
0	 1.666649999985416e+000	 5.333299999983334e+000	 9.704860512710390e+000
0	 1.666649999985416e+000	 5.399969999982150e+000	 9.713925874302285e+000
0	 1.666649999985416e+000	 5.466639999981865e+000	 9.723118863299487e+000
0	 1.666649999985416e+000	 5.533309999982384e+000	 9.732280882858033e+000
0	 1.666649999985416e+000	 5.599979999983598e+000	 9.741253336133969e+000
0	 1.666649999985416e+000	 5.666649999985416e+000	 9.749877626283315e+000
0	 1.666649999985416e+000	 5.733319999987733e+000	 9.757995156462101e+000
0	 1.666649999985416e+000	 5.799989999990448e+000	 9.765447329826321e+000
0	 1.666649999985417e+000	 5.866659999993467e+000	 9.772075549532000e+000
0	 1.666649999985416e+000	 5.933329999996683e+000	 9.777721218735117e+000
0	 1.666649999985416e+000	 6.000000000000000e+000	 9.782225740591676e+000
0	 1.733319999987733e+000	 5.333299999983333e+000	 9.726583369835579e+000
0	 1.733319999987733e+000	 5.399969999982151e+000	 9.734822655116636e+000
0	 1.733319999987733e+000	 5.466639999981866e+000	 9.743230745258293e+000
0	 1.733319999987733e+000	 5.533309999982383e+000	 9.751641922240991e+000
0	 1.733319999987733e+000	 5.599979999983599e+000	 9.759890468045160e+000
0	 1.733319999987733e+000	 5.666649999985415e+000	 9.767810664651218e+000
0	 1.733319999987733e+000	 5.733319999987733e+000	 9.775236794039572e+000
0	 1.733319999987733e+000	 5.799989999990450e+000	 9.782003138190639e+000
0	 1.733319999987733e+000	 5.866659999993468e+000	 9.787943979084814e+000
0	 1.733319999987733e+000	 5.933329999996683e+000	 9.792893598702481e+000
0	 1.733319999987733e+000	 6.000000000000001e+000	 9.796686279024019e+000
0	 1.799989999990450e+000	 5.333299999983334e+000	 9.748568921435309e+000
0	 1.799989999990450e+000	 5.399969999982148e+000	 9.755957884530575e+000
0	 1.799989999990450e+000	 5.466639999981866e+000	 9.763536136406669e+000
0	 1.799989999990450e+000	 5.533309999982383e+000	 9.771137481466230e+000
0	 1.799989999990450e+000	 5.599979999983600e+000	 9.778595724111947e+000
0	 1.799989999990450e+000	 5.666649999985416e+000	 9.785744668746450e+000
0	 1.799989999990450e+000	 5.733319999987733e+000	 9.792418119772385e+000
0	 1.799989999990450e+000	 5.799989999990449e+000	 9.798449881592392e+000
0	 1.799989999990450e+000	 5.866659999993467e+000	 9.803673758609092e+000
0	 1.799989999990450e+000	 5.933329999996685e+000	 9.807923555225111e+000
0	 1.799989999990450e+000	 6.000000000000000e+000	 9.811033075843076e+000
0	 1.866659999993467e+000	 5.333299999983333e+000	 9.770732757077409e+000
0	 1.866659999993466e+000	 5.399969999982148e+000	 9.777235574827099e+000
0	 1.866659999993467e+000	 5.466639999981867e+000	 9.783930324193763e+000
0	 1.866659999993467e+000	 5.533309999982382e+000	 9.790656975600118e+000
0	 1.866659999993466e+000	 5.599979999983599e+000	 9.797255499468909e+000
0	 1.866659999993467e+000	 5.666649999985415e+000	 9.803565866222815e+000
0	 1.866659999993467e+000	 5.733319999987733e+000	 9.809428046284593e+000
0	 1.866659999993466e+000	 5.799989999990448e+000	 9.814682010076901e+000
0	 1.866659999993467e+000	 5.866659999993466e+000	 9.819167728022475e+000
0	 1.866659999993467e+000	 5.933329999996682e+000	 9.822725170543976e+000
0	 1.866659999993466e+000	 5.999999999999998e+000	 9.825194308064114e+000
0	 1.933329999996684e+000	 5.333299999983335e+000	 9.792990466329725e+000
0	 1.933329999996684e+000	 5.399969999982150e+000	 9.798559738289217e+000
0	 1.933329999996684e+000	 5.466639999981866e+000	 9.804308596068784e+000
0	 1.933329999996684e+000	 5.533309999982384e+000	 9.810089819709049e+000
0	 1.933329999996684e+000	 5.599979999983600e+000	 9.815756189250635e+000
0	 1.933329999996684e+000	 5.666649999985418e+000	 9.821160484734170e+000
0	 1.933329999996684e+000	 5.733319999987733e+000	 9.826155486200269e+000
0	 1.933329999996684e+000	 5.799989999990450e+000	 9.830593973689537e+000
0	 1.933329999996684e+000	 5.866659999993466e+000	 9.834328727242600e+000
0	 1.933329999996684e+000	 5.933329999996683e+000	 9.837212526900025e+000
0	 1.933329999996684e+000	 6.000000000000000e+000	 9.839098152702436e+000
0	 2.000000000000000e+000	 5.333299999983333e+000	 9.815257638760084e+000
0	 2.000000000000000e+000	 5.399969999982149e+000	 9.819834387199913e+000
0	 2.000000000000000e+000	 5.466639999981868e+000	 9.824566239480889e+000
0	 2.000000000000000e+000	 5.533309999982383e+000	 9.829325428859361e+000
0	 2.000000000000000e+000	 5.599979999983600e+000	 9.833984188591719e+000
0	 2.000000000000000e+000	 5.666649999985416e+000	 9.838414751934320e+000
0	 2.000000000000000e+000	 5.733319999987732e+000	 9.842489352143510e+000
0	 2.000000000000000e+000	 5.799989999990449e+000	 9.846080222475658e+000
0	 1.999999999999999e+000	 5.866659999993466e+000	 9.849059596187114e+000
0	 2.000000000000000e+000	 5.933329999996682e+000	 9.851299706534228e+000
0	 2.000000000000000e+000	 6.000000000000000e+000	 9.852672786773312e+000
0	 1.333299999983334e+000	 6.000000000000000e+000	 9.710730728695380e+000
0	 1.333299999983334e+000	 6.066670000003319e+000	 9.718410138008171e+000
0	 1.333299999983334e+000	 6.133340000006530e+000	 9.726138487179911e+000
0	 1.333299999983334e+000	 6.200010000009551e+000	 9.733916748761496e+000
0	 1.333299999983334e+000	 6.266680000012268e+000	 9.741745895303788e+000
0	 1.333299999983334e+000	 6.333350000014583e+000	 9.749626899357647e+000
0	 1.333299999983334e+000	 6.400020000016402e+000	 9.757560733473971e+000
0	 1.333299999983334e+000	 6.466690000017617e+000	 9.765548370203639e+000
0	 1.333299999983334e+000	 6.533360000018134e+000	 9.773590782097532e+000
0	 1.333299999983334e+000	 6.600030000017851e+000	 9.781688941706516e+000
0	 1.333299999983334e+000	 6.666700000016665e+000	 9.789843821581481e+000
0	 1.399969999982150e+000	 5.999999999999999e+000	 9.724682630423551e+000
0	 1.399969999982150e+000	 6.066670000003315e+000	 9.731618545008663e+000
0	 1.399969999982150e+000	 6.133340000006533e+000	 9.738578679425132e+000
0	 1.399969999982150e+000	 6.200010000009551e+000	 9.745582661835545e+000
0	 1.399969999982150e+000	 6.266680000012269e+000	 9.752650120402471e+000
0	 1.399969999982150e+000	 6.333350000014585e+000	 9.759800683288525e+000
0	 1.399969999982150e+000	 6.400020000016401e+000	 9.767053978656284e+000
0	 1.399969999982150e+000	 6.466690000017618e+000	 9.774429634668339e+000
0	 1.399969999982150e+000	 6.533360000018132e+000	 9.781947279487293e+000
0	 1.399969999982150e+000	 6.600030000017851e+000	 9.789626541275721e+000
0	 1.399969999982150e+000	 6.666700000016667e+000	 9.797487048196242e+000
0	 1.466639999981867e+000	 6.000000000000001e+000	 9.738879905461982e+000
0	 1.466639999981866e+000	 6.066670000003318e+000	 9.745049895973750e+000
0	 1.466639999981866e+000	 6.133340000006535e+000	 9.751233611444796e+000
0	 1.466639999981866e+000	 6.200010000009550e+000	 9.757466518385604e+000
0	 1.466639999981867e+000	 6.266680000012265e+000	 9.763784083306673e+000
0	 1.466639999981866e+000	 6.333350000014585e+000	 9.770221772718490e+000
0	 1.466639999981866e+000	 6.400020000016399e+000	 9.776815053131561e+000
0	 1.466639999981866e+000	 6.466690000017616e+000	 9.783599391056377e+000
0	 1.466639999981867e+000	 6.533360000018135e+000	 9.790610253003459e+000
0	 1.466639999981867e+000	 6.600030000017850e+000	 9.797883105483297e+000
0	 1.466639999981867e+000	 6.666700000016667e+000	 9.805453415006411e+000
0	 1.533309999982383e+000	 6.000000000000000e+000	 9.753250730825943e+000
0	 1.533309999982383e+000	 6.066670000003318e+000	 9.758646793571774e+000
0	 1.533309999982383e+000	 6.133340000006530e+000	 9.764058120866764e+000
0	 1.533309999982383e+000	 6.200010000009550e+000	 9.769533200305480e+000
0	 1.533309999982383e+000	 6.266680000012267e+000	 9.775120519482519e+000
0	 1.533309999982383e+000	 6.333350000014584e+000	 9.780868565992510e+000
0	 1.533309999982383e+000	 6.400020000016400e+000	 9.786825827430027e+000
0	 1.533309999982383e+000	 6.466690000017615e+000	 9.793040791389689e+000
0	 1.533309999982383e+000	 6.533360000018136e+000	 9.799561945466115e+000
0	 1.533309999982383e+000	 6.600030000017851e+000	 9.806437777253898e+000
0	 1.533309999982383e+000	 6.666700000016665e+000	 9.813716774347659e+000
0	 1.599979999983599e+000	 6.000000000000000e+000	 9.767723283530744e+000
0	 1.599979999983600e+000	 6.066670000003319e+000	 9.772351840471110e+000
0	 1.599979999983600e+000	 6.133340000006534e+000	 9.777007045318868e+000
0	 1.599979999983600e+000	 6.200010000009550e+000	 9.781747589488932e+000
0	 1.599979999983599e+000	 6.266680000012266e+000	 9.786632164396192e+000
0	 1.599979999983600e+000	 6.333350000014583e+000	 9.791719461455557e+000
0	 1.599979999983600e+000	 6.400020000016402e+000	 9.797068172081927e+000
0	 1.599979999983600e+000	 6.466690000017618e+000	 9.802736987690205e+000
0	 1.599979999983599e+000	 6.533360000018133e+000	 9.808784599695297e+000
0	 1.599979999983600e+000	 6.600030000017849e+000	 9.815269699512129e+000
0	 1.599979999983599e+000	 6.666700000016665e+000	 9.822250978555619e+000
0	 1.666649999985416e+000	 6.000000000000000e+000	 9.782225740591676e+000
0	 1.666649999985417e+000	 6.066670000003318e+000	 9.786107639340077e+000
0	 1.666649999985417e+000	 6.133340000006535e+000	 9.790035222428974e+000
0	 1.666649999985416e+000	 6.200010000009550e+000	 9.794074567829773e+000
0	 1.666649999985417e+000	 6.266680000012268e+000	 9.798291753513862e+000
0	 1.666649999985416e+000	 6.333350000014584e+000	 9.802752857452637e+000
0	 1.666649999985416e+000	 6.400020000016402e+000	 9.807523957617494e+000
0	 1.666649999985416e+000	 6.466690000017618e+000	 9.812671131979839e+000
0	 1.666649999985416e+000	 6.533360000018134e+000	 9.818260458511086e+000
0	 1.666649999985417e+000	 6.600030000017852e+000	 9.824358015182664e+000
0	 1.666649999985416e+000	 6.666700000016665e+000	 9.831029879965950e+000
0	 1.733319999987733e+000	 6.000000000000001e+000	 9.796686279024019e+000
0	 1.733319999987733e+000	 6.066670000003316e+000	 9.799856792847045e+000
0	 1.733319999987733e+000	 6.133340000006531e+000	 9.803097489824941e+000
0	 1.733319999987733e+000	 6.200010000009552e+000	 9.806479017221790e+000
0	 1.733319999987733e+000	 6.266680000012268e+000	 9.810072022301689e+000
0	 1.733319999987733e+000	 6.333350000014583e+000	 9.813947152328716e+000
0	 1.733319999987733e+000	 6.400020000016398e+000	 9.818175054566977e+000
0	 1.733319999987733e+000	 6.466690000017615e+000	 9.822826376280538e+000
0	 1.733319999987733e+000	 6.533360000018136e+000	 9.827971764733551e+000
0	 1.733319999987733e+000	 6.600030000017851e+000	 9.833681867190089e+000
0	 1.733319999987733e+000	 6.666700000016665e+000	 9.840027330914285e+000
0	 1.799989999990450e+000	 6.000000000000000e+000	 9.811033075843076e+000
0	 1.799989999990450e+000	 6.066670000003319e+000	 9.813541903660356e+000
0	 1.799989999990450e+000	 6.133340000006533e+000	 9.816148685134602e+000
0	 1.799989999990450e+000	 6.200010000009552e+000	 9.818925819558766e+000
0	 1.799989999990450e+000	 6.266680000012267e+000	 9.821945706225819e+000
0	 1.799989999990450e+000	 6.333350000014584e+000	 9.825280744428770e+000
0	 1.799989999990450e+000	 6.400020000016401e+000	 9.829003333460575e+000
0	 1.799989999990450e+000	 6.466690000017616e+000	 9.833185872614219e+000
0	 1.799989999990450e+000	 6.533360000018134e+000	 9.837900761182731e+000
0	 1.799989999990450e+000	 6.600030000017851e+000	 9.843220398459069e+000
0	 1.799989999990450e+000	 6.666700000016666e+000	 9.849217183736274e+000
0	 1.866659999993466e+000	 5.999999999999998e+000	 9.825194308064114e+000
0	 1.866659999993467e+000	 6.066670000003315e+000	 9.827105574448362e+000
0	 1.866659999993467e+000	 6.133340000006532e+000	 9.829143645985790e+000
0	 1.866659999993467e+000	 6.200010000009551e+000	 9.831379856734463e+000
0	 1.866659999993467e+000	 6.266680000012268e+000	 9.833885540752441e+000
0	 1.866659999993467e+000	 6.333350000014583e+000	 9.836732032097768e+000
0	 1.866659999993467e+000	 6.400020000016403e+000	 9.839990664828539e+000
0	 1.866659999993467e+000	 6.466690000017616e+000	 9.843732773002815e+000
0	 1.866659999993467e+000	 6.533360000018133e+000	 9.848029690678688e+000
0	 1.866659999993466e+000	 6.600030000017850e+000	 9.852952751914236e+000
0	 1.866659999993467e+000	 6.666700000016665e+000	 9.858573290767556e+000
0	 1.933329999996684e+000	 6.000000000000000e+000	 9.839098152702436e+000
0	 1.933329999996684e+000	 6.066670000003315e+000	 9.840490407879409e+000
0	 1.933329999996683e+000	 6.133340000006533e+000	 9.842037210006382e+000
0	 1.933329999996684e+000	 6.200010000009551e+000	 9.843806010642695e+000
0	 1.933329999996683e+000	 6.266680000012266e+000	 9.845864261347680e+000
0	 1.933329999996684e+000	 6.333350000014586e+000	 9.848279413680704e+000
0	 1.933329999996684e+000	 6.400020000016400e+000	 9.851118919201102e+000
0	 1.933329999996684e+000	 6.466690000017617e+000	 9.854450229468240e+000
0	 1.933329999996684e+000	 6.533360000018135e+000	 9.858340796041487e+000
0	 1.933329999996684e+000	 6.600030000017852e+000	 9.862858070480202e+000
0	 1.933329999996684e+000	 6.666700000016668e+000	 9.868069504343785e+000
0	 2.000000000000000e+000	 6.000000000000000e+000	 9.852672786773312e+000
0	 2.000000000000000e+000	 6.066670000003317e+000	 9.853639006621833e+000
0	 2.000000000000000e+000	 6.133340000006534e+000	 9.854784214824200e+000
0	 2.000000000000000e+000	 6.200010000009550e+000	 9.856169163177219e+000
0	 1.999999999999999e+000	 6.266680000012266e+000	 9.857854603477724e+000
0	 2.000000000000000e+000	 6.333350000014585e+000	 9.859901287522535e+000
0	 2.000000000000000e+000	 6.400020000016401e+000	 9.862369967108496e+000
0	 2.000000000000000e+000	 6.466690000017618e+000	 9.865321394032430e+000
0	 2.000000000000000e+000	 6.533360000018136e+000	 9.868816320091192e+000
0	 2.000000000000000e+000	 6.600030000017848e+000	 9.872915497081632e+000
0	 2.000000000000000e+000	 6.666700000016668e+000	 9.877679676800602e+000
0	 1.333299999983334e+000	 6.666700000016665e+000	 9.789843821581483e+000
0	 1.333299999983334e+000	 6.733360000014534e+000	 9.797897003718788e+000
0	 1.333299999983334e+000	 6.800020000011599e+000	 9.805698272156240e+000
0	 1.333299999983334e+000	 6.866680000008066e+000	 9.813257220087129e+000
0	 1.333299999983334e+000	 6.933340000004134e+000	 9.820583440704723e+000
0	 1.333299999983334e+000	 6.999999999999999e+000	 9.827686527202312e+000
0	 1.333299999983334e+000	 7.066659999995867e+000	 9.834576072773210e+000
0	 1.333299999983334e+000	 7.133319999991935e+000	 9.841261670610695e+000
0	 1.333299999983334e+000	 7.199979999988400e+000	 9.847752913908090e+000
0	 1.333299999983334e+000	 7.266639999985467e+000	 9.854059395858707e+000
0	 1.333299999983334e+000	 7.333299999983336e+000	 9.860190709655837e+000
0	 1.399969999982150e+000	 6.666700000016667e+000	 9.797487048196242e+000
0	 1.399969999982150e+000	 6.733360000014532e+000	 9.805326614725461e+000
0	 1.399969999982150e+000	 6.800020000011600e+000	 9.812933383160075e+000
0	 1.399969999982150e+000	 6.866680000008066e+000	 9.820308892619247e+000
0	 1.399969999982150e+000	 6.933340000004133e+000	 9.827454682222175e+000
0	 1.399969999982150e+000	 7.000000000000000e+000	 9.834372291088084e+000
0	 1.399969999982150e+000	 7.066659999995866e+000	 9.841063258336144e+000
0	 1.399969999982150e+000	 7.133319999991933e+000	 9.847529123085575e+000
0	 1.399969999982150e+000	 7.199979999988401e+000	 9.853771424455601e+000
0	 1.399969999982150e+000	 7.266639999985465e+000	 9.859791701565445e+000
0	 1.399969999982150e+000	 7.333299999983334e+000	 9.865591493534314e+000
0	 1.466639999981867e+000	 6.666700000016667e+000	 9.805453415006411e+000
0	 1.466639999981866e+000	 6.733360000014534e+000	 9.813075047445199e+000
0	 1.466639999981867e+000	 6.800020000011599e+000	 9.820477000926315e+000
0	 1.466639999981866e+000	 6.866680000008066e+000	 9.827653961628482e+000
0	 1.466639999981866e+000	 6.933340000004134e+000	 9.834600615730439e+000
0	 1.466639999981866e+000	 6.999999999999999e+000	 9.841311649410907e+000
0	 1.466639999981866e+000	 7.066659999995866e+000	 9.847781748848634e+000
0	 1.466639999981866e+000	 7.133319999991934e+000	 9.854005600222362e+000
0	 1.466639999981866e+000	 7.199979999988401e+000	 9.859977889710830e+000
0	 1.466639999981867e+000	 7.266639999985466e+000	 9.865693303492812e+000
0	 1.466639999981867e+000	 7.333299999983336e+000	 9.871146527747062e+000
0	 1.533309999982383e+000	 6.666700000016665e+000	 9.813716774347659e+000
0	 1.533309999982383e+000	 6.733360000014534e+000	 9.821110383465591e+000
0	 1.533309999982383e+000	 6.800020000011601e+000	 9.828292664754278e+000
0	 1.533309999982383e+000	 6.866680000008064e+000	 9.835252652585632e+000
0	 1.533309999982383e+000	 6.933340000004133e+000	 9.841979381331516e+000
0	 1.533309999982383e+000	 7.000000000000001e+000	 9.848461885363825e+000
0	 1.533309999982383e+000	 7.066659999995868e+000	 9.854689199054478e+000
0	 1.533309999982383e+000	 7.133319999991935e+000	 9.860650356775365e+000
0	 1.533309999982383e+000	 7.199979999988402e+000	 9.866334392898381e+000
0	 1.533309999982383e+000	 7.266639999985466e+000	 9.871730341795471e+000
0	 1.533309999982383e+000	 7.333299999983335e+000	 9.876827237838553e+000
0	 1.599979999983599e+000	 6.666700000016665e+000	 9.822250978555619e+000
0	 1.599979999983600e+000	 6.733360000014532e+000	 9.829400704374242e+000
0	 1.599979999983600e+000	 6.800020000011601e+000	 9.836343913943297e+000
0	 1.599979999983599e+000	 6.866680000008064e+000	 9.843065190961490e+000
0	 1.599979999983600e+000	 6.933340000004133e+000	 9.849549119127458e+000
0	 1.599979999983600e+000	 7.000000000000000e+000	 9.855780282139893e+000
0	 1.599979999983599e+000	 7.066659999995867e+000	 9.861743263697475e+000
0	 1.599979999983599e+000	 7.133319999991931e+000	 9.867422647498909e+000
0	 1.599979999983600e+000	 7.199979999988400e+000	 9.872803017242879e+000
0	 1.599979999983600e+000	 7.266639999985469e+000	 9.877868956628090e+000
0	 1.599979999983600e+000	 7.333299999983336e+000	 9.882605049353263e+000
0	 1.666649999985416e+000	 6.666700000016665e+000	 9.831029879965950e+000
0	 1.666649999985416e+000	 6.733360000014533e+000	 9.837914091758751e+000
0	 1.666649999985416e+000	 6.800020000011599e+000	 9.844594287792695e+000
0	 1.666649999985416e+000	 6.866680000008067e+000	 9.851051802226845e+000
0	 1.666649999985416e+000	 6.933340000004131e+000	 9.857267969220285e+000
0	 1.666649999985417e+000	 6.999999999999999e+000	 9.863224122932108e+000
0	 1.666649999985416e+000	 7.066659999995867e+000	 9.868901597521425e+000
0	 1.666649999985416e+000	 7.133319999991934e+000	 9.874281727147325e+000
0	 1.666649999985417e+000	 7.199979999988401e+000	 9.879345845968915e+000
0	 1.666649999985416e+000	 7.266639999985467e+000	 9.884075288145308e+000
0	 1.666649999985416e+000	 7.333299999983333e+000	 9.888451387835643e+000
0	 1.733319999987733e+000	 6.666700000016665e+000	 9.840027330914285e+000
0	 1.733319999987733e+000	 6.733360000014534e+000	 9.846618627206732e+000
0	 1.733319999987733e+000	 6.800020000011600e+000	 9.853007325601757e+000
0	 1.733319999987733e+000	 6.866680000008067e+000	 9.859172711852501e+000
0	 1.733319999987733e+000	 6.933340000004132e+000	 9.865094071712045e+000
0	 1.733319999987733e+000	 6.999999999999998e+000	 9.870750690933546e+000
0	 1.733319999987733e+000	 7.066659999995868e+000	 9.876121855270130e+000
0	 1.733319999987733e+000	 7.133319999991935e+000	 9.881186850474935e+000
0	 1.733319999987733e+000	 7.199979999988400e+000	 9.885924962301102e+000
0	 1.733319999987733e+000	 7.266639999985467e+000	 9.890315476501799e+000
0	 1.733319999987733e+000	 7.333299999983335e+000	 9.894337678830182e+000
0	 1.799989999990450e+000	 6.666700000016666e+000	 9.849217183736277e+000
0	 1.799989999990450e+000	 6.733360000014534e+000	 9.855482392305763e+000
0	 1.799989999990450e+000	 6.800020000011600e+000	 9.861546566669828e+000
0	 1.799989999990450e+000	 6.866680000008068e+000	 9.867388145309221e+000
0	 1.799989999990450e+000	 6.933340000004134e+000	 9.872985566704754e+000
0	 1.799989999990450e+000	 7.000000000000001e+000	 9.878317269337195e+000
0	 1.799989999990450e+000	 7.066659999995868e+000	 9.883361691687366e+000
0	 1.799989999990450e+000	 7.133319999991935e+000	 9.888097272236045e+000
0	 1.799989999990450e+000	 7.199979999988400e+000	 9.892502449464049e+000
0	 1.799989999990450e+000	 7.266639999985467e+000	 9.896555661852212e+000
0	 1.799989999990450e+000	 7.333299999983335e+000	 9.900235347881322e+000
0	 1.866659999993467e+000	 6.666700000016665e+000	 9.858573290767554e+000
0	 1.866659999993467e+000	 6.733360000014532e+000	 9.864473468643460e+000
0	 1.866659999993467e+000	 6.800020000011601e+000	 9.870175550296199e+000
0	 1.866659999993467e+000	 6.866680000008066e+000	 9.875658328067852e+000
0	 1.866659999993467e+000	 6.933340000004133e+000	 9.880900594300458e+000
0	 1.866659999993467e+000	 6.999999999999998e+000	 9.885881141336148e+000
0	 1.866659999993467e+000	 7.066659999995866e+000	 9.890578761516959e+000
0	 1.866659999993467e+000	 7.133319999991935e+000	 9.894972247185008e+000
0	 1.866659999993467e+000	 7.199979999988400e+000	 9.899040390682371e+000
0	 1.866659999993467e+000	 7.266639999985466e+000	 9.902761984351180e+000
0	 1.866659999993467e+000	 7.333299999983333e+000	 9.906115820533529e+000
0	 1.933329999996684e+000	 6.666700000016668e+000	 9.868069504343785e+000
0	 1.933329999996683e+000	 6.733360000014531e+000	 9.873559937807418e+000
0	 1.933329999996684e+000	 6.800020000011601e+000	 9.878857815780203e+000
0	 1.933329999996684e+000	 6.866680000008067e+000	 9.883943485599124e+000
0	 1.933329999996684e+000	 6.933340000004133e+000	 9.888797294601204e+000
0	 1.933329999996684e+000	 7.000000000000000e+000	 9.893399590123376e+000
0	 1.933329999996683e+000	 7.066659999995864e+000	 9.897730719502688e+000
0	 1.933329999996684e+000	 7.133319999991936e+000	 9.901771030076116e+000
0	 1.933329999996684e+000	 7.199979999988401e+000	 9.905500869180683e+000
0	 1.933329999996684e+000	 7.266639999985467e+000	 9.908900584153390e+000
0	 1.933329999996684e+000	 7.333299999983332e+000	 9.911950522331274e+000
0	 2.000000000000000e+000	 6.666700000016668e+000	 9.877679676800598e+000
0	 2.000000000000000e+000	 6.733360000014532e+000	 9.882709881385221e+000
0	 2.000000000000000e+000	 6.800020000011601e+000	 9.887556902421148e+000
0	 2.000000000000000e+000	 6.866680000008068e+000	 9.892203843373896e+000
0	 2.000000000000000e+000	 6.933340000004133e+000	 9.896633807708987e+000
0	 2.000000000000000e+000	 6.999999999999999e+000	 9.900829898891965e+000
0	 2.000000000000000e+000	 7.066659999995867e+000	 9.904775220388350e+000
0	 2.000000000000000e+000	 7.133319999991933e+000	 9.908452875663702e+000
0	 2.000000000000000e+000	 7.199979999988401e+000	 9.911845968183567e+000
0	 2.000000000000000e+000	 7.266639999985467e+000	 9.914937601413485e+000
0	 2.000000000000000e+000	 7.333299999983335e+000	 9.917710878819019e+000
0	 1.333299999983334e+000	 7.333299999983336e+000	 9.860190709655837e+000
0	 1.333299999983334e+000	 7.399969999982149e+000	 9.866196032934724e+000
0	 1.333299999983334e+000	 7.466639999981866e+000	 9.872114500108422e+000
0	 1.333299999983334e+000	 7.533309999982384e+000	 9.877943360926471e+000
0	 1.333299999983334e+000	 7.599979999983600e+000	 9.883679865138436e+000
0	 1.333299999983334e+000	 7.666649999985415e+000	 9.889321262493866e+000
0	 1.333299999983334e+000	 7.733319999987733e+000	 9.894864802742291e+000
0	 1.333299999983334e+000	 7.799989999990449e+000	 9.900307735633271e+000
0	 1.333299999983334e+000	 7.866659999993466e+000	 9.905647310916347e+000
0	 1.333299999983334e+000	 7.933329999996683e+000	 9.910880778341049e+000
0	 1.333299999983334e+000	 8.000000000000000e+000	 9.916005387656934e+000
0	 1.399969999982150e+000	 7.333299999983334e+000	 9.865591493534312e+000
0	 1.399969999982150e+000	 7.399969999982150e+000	 9.871243054297860e+000
0	 1.399969999982150e+000	 7.466639999981867e+000	 9.876816561104707e+000
0	 1.399969999982150e+000	 7.533309999982385e+000	 9.882312998827702e+000
0	 1.399969999982150e+000	 7.599979999983598e+000	 9.887733352339707e+000
0	 1.399969999982150e+000	 7.666649999985416e+000	 9.893078606513582e+000
0	 1.399969999982150e+000	 7.733319999987733e+000	 9.898349746222149e+000
0	 1.399969999982150e+000	 7.799989999990451e+000	 9.903547756338293e+000
0	 1.399969999982150e+000	 7.866659999993467e+000	 9.908673621734849e+000
0	 1.399969999982150e+000	 7.933329999996682e+000	 9.913728327284664e+000
0	 1.399969999982150e+000	 7.999999999999999e+000	 9.918712857860578e+000
0	 1.466639999981867e+000	 7.333299999983336e+000	 9.871146527747062e+000
0	 1.466639999981866e+000	 7.399969999982151e+000	 9.876433163821627e+000
0	 1.466639999981867e+000	 7.466639999981866e+000	 9.881653558822169e+000
0	 1.466639999981866e+000	 7.533309999982383e+000	 9.886811911964525e+000
0	 1.466639999981866e+000	 7.599979999983600e+000	 9.891912422464515e+000
0	 1.466639999981866e+000	 7.666649999985419e+000	 9.896959289537966e+000
0	 1.466639999981866e+000	 7.733319999987731e+000	 9.901956712400709e+000
0	 1.466639999981867e+000	 7.799989999990449e+000	 9.906908890268550e+000
0	 1.466639999981866e+000	 7.866659999993466e+000	 9.911820022357340e+000
0	 1.466639999981867e+000	 7.933329999996684e+000	 9.916694307882876e+000
0	 1.466639999981866e+000	 8.000000000000000e+000	 9.921535946060981e+000
0	 1.533309999982383e+000	 7.333299999983335e+000	 9.876827237838553e+000
0	 1.533309999982383e+000	 7.399969999982148e+000	 9.881743296968994e+000
0	 1.533309999982383e+000	 7.466639999981864e+000	 9.886607157469896e+000
0	 1.533309999982383e+000	 7.533309999982384e+000	 9.891425712119714e+000
0	 1.533309999982383e+000	 7.599979999983599e+000	 9.896205853696916e+000
0	 1.533309999982383e+000	 7.666649999985414e+000	 9.900954474979972e+000
0	 1.533309999982383e+000	 7.733319999987733e+000	 9.905678468747345e+000
0	 1.533309999982383e+000	 7.799989999990449e+000	 9.910384727777492e+000
0	 1.533309999982383e+000	 7.866659999993468e+000	 9.915080144848899e+000
0	 1.533309999982383e+000	 7.933329999996682e+000	 9.919771612739998e+000
0	 1.533309999982383e+000	 8.000000000000000e+000	 9.924466024229258e+000
0	 1.599979999983600e+000	 7.333299999983336e+000	 9.882605049353263e+000
0	 1.599979999983600e+000	 7.399969999982152e+000	 9.887150389202962e+000
0	 1.599979999983600e+000	 7.466639999981867e+000	 9.891659021256970e+000
0	 1.599979999983600e+000	 7.533309999982383e+000	 9.896140011076046e+000
0	 1.599979999983600e+000	 7.599979999983600e+000	 9.900602424220985e+000
0	 1.599979999983599e+000	 7.666649999985414e+000	 9.905055326252521e+000
0	 1.599979999983600e+000	 7.733319999987733e+000	 9.909507782731458e+000
0	 1.599979999983600e+000	 7.799989999990450e+000	 9.913968859218555e+000
0	 1.599979999983600e+000	 7.866659999993468e+000	 9.918447621274568e+000
0	 1.599979999983600e+000	 7.933329999996683e+000	 9.922953134460292e+000
0	 1.599979999983600e+000	 8.000000000000000e+000	 9.927494464336476e+000
0	 1.666649999985416e+000	 7.333299999983333e+000	 9.888451387835641e+000
0	 1.666649999985416e+000	 7.399969999982151e+000	 9.892631375986509e+000
0	 1.666649999985416e+000	 7.466639999981865e+000	 9.896790814392491e+000
0	 1.666649999985416e+000	 7.533309999982385e+000	 9.900940420616328e+000
0	 1.666649999985417e+000	 7.599979999983598e+000	 9.905090912220750e+000
0	 1.666649999985416e+000	 7.666649999985418e+000	 9.909253006768532e+000
0	 1.666649999985417e+000	 7.733319999987733e+000	 9.913437421822419e+000
0	 1.666649999985416e+000	 7.799989999990450e+000	 9.917654874945139e+000
0	 1.666649999985416e+000	 7.866659999993466e+000	 9.921916083699431e+000
0	 1.666649999985417e+000	 7.933329999996684e+000	 9.926231765648074e+000
0	 1.666649999985416e+000	 8.000000000000000e+000	 9.930612638353770e+000
0	 1.733319999987733e+000	 7.333299999983335e+000	 9.894337678830180e+000
0	 1.733319999987733e+000	 7.399969999982150e+000	 9.898163192782610e+000
0	 1.733319999987733e+000	 7.466639999981866e+000	 9.901984201085515e+000
0	 1.733319999987733e+000	 7.533309999982383e+000	 9.905812552523289e+000
0	 1.733319999987733e+000	 7.599979999983598e+000	 9.909660095880296e+000
0	 1.733319999987733e+000	 7.666649999985417e+000	 9.913538679940949e+000
0	 1.733319999987733e+000	 7.733319999987733e+000	 9.917460153489609e+000
0	 1.733319999987733e+000	 7.799989999990450e+000	 9.921436365310688e+000
0	 1.733319999987733e+000	 7.866659999993465e+000	 9.925479164188550e+000
0	 1.733319999987733e+000	 7.933329999996684e+000	 9.929600398907612e+000
0	 1.733319999987733e+000	 7.999999999999999e+000	 9.933811918252239e+000
0	 1.799989999990450e+000	 7.333299999983335e+000	 9.900235347881321e+000
0	 1.799989999990450e+000	 7.399969999982150e+000	 9.903722775054252e+000
0	 1.799989999990450e+000	 7.466639999981866e+000	 9.907220845545155e+000
0	 1.799989999990450e+000	 7.533309999982384e+000	 9.910742018579729e+000
0	 1.799989999990450e+000	 7.599979999983599e+000	 9.914298753383660e+000
0	 1.799989999990450e+000	 7.666649999985416e+000	 9.917903509182660e+000
0	 1.799989999990450e+000	 7.733319999987732e+000	 9.921568745202425e+000
0	 1.799989999990450e+000	 7.799989999990450e+000	 9.925306920668636e+000
0	 1.799989999990450e+000	 7.866659999993468e+000	 9.929130494806984e+000
0	 1.799989999990450e+000	 7.933329999996683e+000	 9.933051926843191e+000
0	 1.799989999990450e+000	 8.000000000000002e+000	 9.937083676002965e+000
0	 1.866659999993467e+000	 7.333299999983333e+000	 9.906115820533529e+000
0	 1.866659999993467e+000	 7.399969999982151e+000	 9.909287058264406e+000
0	 1.866659999993467e+000	 7.466639999981866e+000	 9.912482411980474e+000
0	 1.866659999993467e+000	 7.533309999982383e+000	 9.915714430568423e+000
0	 1.866659999993466e+000	 7.599979999983599e+000	 9.918995662914915e+000
0	 1.866659999993467e+000	 7.666649999985416e+000	 9.922338657906625e+000
0	 1.866659999993467e+000	 7.733319999987733e+000	 9.925755964430232e+000
0	 1.866659999993466e+000	 7.799989999990448e+000	 9.929260131372402e+000
0	 1.866659999993467e+000	 7.866659999993466e+000	 9.932863707619802e+000
0	 1.866659999993467e+000	 7.933329999996684e+000	 9.936579242059128e+000
0	 1.866659999993467e+000	 7.999999999999998e+000	 9.940419283577047e+000
0	 1.933329999996684e+000	 7.333299999983332e+000	 9.911950522331274e+000
0	 1.933329999996684e+000	 7.399969999982151e+000	 9.914832977876047e+000
0	 1.933329999996684e+000	 7.466639999981867e+000	 9.917750564600571e+000
0	 1.933329999996684e+000	 7.533309999982384e+000	 9.920715400272146e+000
0	 1.933329999996684e+000	 7.599979999983602e+000	 9.923739602658104e+000
0	 1.933329999996684e+000	 7.666649999985416e+000	 9.926835289525762e+000
0	 1.933329999996684e+000	 7.733319999987734e+000	 9.930014578642423e+000
0	 1.933329999996684e+000	 7.799989999990451e+000	 9.933289587775416e+000
0	 1.933329999996684e+000	 7.866659999993467e+000	 9.936672434692062e+000
0	 1.933329999996684e+000	 7.933329999996685e+000	 9.940175237159691e+000
0	 1.933329999996683e+000	 8.000000000000000e+000	 9.943810112945599e+000
0	 2.000000000000000e+000	 7.333299999983335e+000	 9.917710878819019e+000
0	 2.000000000000000e+000	 7.399969999982151e+000	 9.920337469352166e+000
0	 2.000000000000000e+000	 7.466639999981867e+000	 9.923006967614509e+000
0	 2.000000000000000e+000	 7.533309999982384e+000	 9.925730539473671e+000
0	 2.000000000000000e+000	 7.599979999983599e+000	 9.928519350797282e+000
0	 2.000000000000000e+000	 7.666649999985416e+000	 9.931384567452966e+000
0	 2.000000000000000e+000	 7.733319999987733e+000	 9.934337355308371e+000
0	 2.000000000000000e+000	 7.799989999990449e+000	 9.937388880231113e+000
0	 2.000000000000000e+000	 7.866659999993466e+000	 9.940550308088819e+000
0	 2.000000000000000e+000	 7.933329999996684e+000	 9.943832804749135e+000
0	 2.000000000000000e+000	 7.999999999999999e+000	 9.947247536079702e+000
0	 1.333299999983334e+000	 8.000000000000000e+000	 9.916005387656934e+000
0	 1.333299999983334e+000	 8.066670000003317e+000	 9.920990649077025e+000
0	 1.333299999983334e+000	 8.133340000006532e+000	 9.925813104214125e+000
0	 1.333299999983334e+000	 8.200010000009550e+000	 9.930480549917528e+000
0	 1.333299999983334e+000	 8.266680000012268e+000	 9.935000783036537e+000
0	 1.333299999983334e+000	 8.333350000014587e+000	 9.939381600420367e+000
0	 1.333299999983334e+000	 8.400020000016399e+000	 9.943630798918354e+000
0	 1.333299999983334e+000	 8.466690000017618e+000	 9.947756175379716e+000
0	 1.333299999983334e+000	 8.533360000018135e+000	 9.951765526653736e+000
0	 1.333299999983334e+000	 8.600030000017851e+000	 9.955666649589690e+000
0	 1.333299999983334e+000	 8.666700000016666e+000	 9.959467341036817e+000
0	 1.399969999982150e+000	 7.999999999999999e+000	 9.918712857860578e+000
0	 1.399969999982150e+000	 8.066670000003315e+000	 9.923580167980658e+000
0	 1.399969999982150e+000	 8.133340000006530e+000	 9.928286711881102e+000
0	 1.399969999982150e+000	 8.200010000009547e+000	 9.932838724012093e+000
0	 1.399969999982150e+000	 8.266680000012268e+000	 9.937242438823757e+000
0	 1.399969999982150e+000	 8.333350000014583e+000	 9.941504090766262e+000
0	 1.399969999982150e+000	 8.400020000016399e+000	 9.945629914289716e+000
0	 1.399969999982150e+000	 8.466690000017616e+000	 9.949626143844290e+000
0	 1.399969999982150e+000	 8.533360000018131e+000	 9.953499013880114e+000
0	 1.399969999982150e+000	 8.600030000017849e+000	 9.957254758847299e+000
0	 1.399969999982150e+000	 8.666700000016668e+000	 9.960899613196011e+000
0	 1.466639999981866e+000	 8.000000000000000e+000	 9.921535946060981e+000
0	 1.466639999981866e+000	 8.066670000003317e+000	 9.926281175759732e+000
0	 1.466639999981866e+000	 8.133340000006534e+000	 9.930866686583471e+000
0	 1.466639999981867e+000	 8.200010000009552e+000	 9.935297353852514e+000
0	 1.466639999981867e+000	 8.266680000012267e+000	 9.939578052887139e+000
0	 1.466639999981866e+000	 8.333350000014585e+000	 9.943713659007633e+000
0	 1.466639999981866e+000	 8.400020000016401e+000	 9.947709047534273e+000
0	 1.466639999981866e+000	 8.466690000017618e+000	 9.951569093787358e+000
0	 1.466639999981867e+000	 8.533360000018135e+000	 9.955298673087169e+000
0	 1.466639999981866e+000	 8.600030000017849e+000	 9.958902660753966e+000
0	 1.466639999981866e+000	 8.666700000016666e+000	 9.962385932108031e+000
0	 1.533309999982383e+000	 8.000000000000000e+000	 9.924466024229258e+000
0	 1.533309999982383e+000	 8.066670000003315e+000	 9.929083317794865e+000
0	 1.533309999982383e+000	 8.133340000006529e+000	 9.933541316369153e+000
0	 1.533309999982383e+000	 8.200010000009552e+000	 9.937843739411843e+000
0	 1.533309999982383e+000	 8.266680000012267e+000	 9.941994306382625e+000
0	 1.533309999982383e+000	 8.333350000014583e+000	 9.945996736741190e+000
0	 1.533309999982383e+000	 8.400020000016401e+000	 9.949854749947281e+000
0	 1.533309999982383e+000	 8.466690000017614e+000	 9.953572065460532e+000
0	 1.533309999982383e+000	 8.533360000018135e+000	 9.957152402740682e+000
0	 1.533309999982383e+000	 8.600030000017849e+000	 9.960599481247380e+000
0	 1.533309999982383e+000	 8.666700000016666e+000	 9.963917020440359e+000
0	 1.599979999983600e+000	 8.000000000000000e+000	 9.927494464336476e+000
0	 1.599979999983600e+000	 8.066670000003319e+000	 9.931976239466671e+000
0	 1.599979999983600e+000	 8.133340000006534e+000	 9.936298889286073e+000
0	 1.599979999983599e+000	 8.200010000009550e+000	 9.940465180663141e+000
0	 1.599979999983600e+000	 8.266680000012267e+000	 9.944477880466215e+000
0	 1.599979999983600e+000	 8.333350000014585e+000	 9.948339755563696e+000
0	 1.599979999983600e+000	 8.400020000016401e+000	 9.952053572823964e+000
0	 1.599979999983600e+000	 8.466690000017616e+000	 9.955622099115406e+000
0	 1.599979999983599e+000	 8.533360000018133e+000	 9.959048101306383e+000
0	 1.599979999983600e+000	 8.600030000017853e+000	 9.962334346265282e+000
0	 1.599979999983600e+000	 8.666700000016668e+000	 9.965483600860477e+000
0	 1.666649999985416e+000	 8.000000000000000e+000	 9.930612638353770e+000
0	 1.666649999985417e+000	 8.066670000003317e+000	 9.934949586155735e+000
0	 1.666649999985417e+000	 8.133340000006534e+000	 9.939127693382178e+000
0	 1.666649999985416e+000	 8.200010000009549e+000	 9.943148977579433e+000
0	 1.666649999985417e+000	 8.266680000012268e+000	 9.947015456293883e+000
0	 1.666649999985416e+000	 8.333350000014587e+000	 9.950729147071824e+000
0	 1.666649999985416e+000	 8.400020000016403e+000	 9.954292067459615e+000
0	 1.666649999985416e+000	 8.466690000017614e+000	 9.957706235003576e+000
0	 1.666649999985416e+000	 8.533360000018133e+000	 9.960973667250052e+000
0	 1.666649999985416e+000	 8.600030000017849e+000	 9.964096381745366e+000
0	 1.666649999985417e+000	 8.666700000016666e+000	 9.967076396035857e+000
0	 1.733319999987733e+000	 7.999999999999999e+000	 9.933811918252239e+000
0	 1.733319999987733e+000	 8.066670000003317e+000	 9.937993003242694e+000
0	 1.733319999987733e+000	 8.133340000006534e+000	 9.942016016705365e+000
0	 1.733319999987733e+000	 8.200010000009554e+000	 9.945882430133814e+000
0	 1.733319999987733e+000	 8.266680000012268e+000	 9.949593715021601e+000
0	 1.733319999987733e+000	 8.333350000014583e+000	 9.953151342862293e+000
0	 1.733319999987733e+000	 8.400020000016401e+000	 9.956556785149456e+000
0	 1.733319999987733e+000	 8.466690000017618e+000	 9.959811513376661e+000
0	 1.733319999987733e+000	 8.533360000018135e+000	 9.962916999037443e+000
0	 1.733319999987733e+000	 8.600030000017851e+000	 9.965874713625370e+000
0	 1.733319999987733e+000	 8.666700000016668e+000	 9.968686128633985e+000
0	 1.799989999990450e+000	 8.000000000000002e+000	 9.937083676002965e+000
0	 1.799989999990450e+000	 8.066670000003319e+000	 9.941096136108156e+000
0	 1.799989999990450e+000	 8.133340000006534e+000	 9.944952147303564e+000
0	 1.799989999990450e+000	 8.200010000009554e+000	 9.948652838299271e+000
0	 1.799989999990450e+000	 8.266680000012265e+000	 9.952199337805347e+000
0	 1.799989999990450e+000	 8.333350000014585e+000	 9.955592774531823e+000
0	 1.799989999990450e+000	 8.400020000016399e+000	 9.958834277188768e+000
0	 1.799989999990450e+000	 8.466690000017616e+000	 9.961924974486241e+000
0	 1.799989999990450e+000	 8.533360000018133e+000	 9.964865995134295e+000
0	 1.799989999990450e+000	 8.600030000017851e+000	 9.967658467842989e+000
0	 1.799989999990450e+000	 8.666700000016666e+000	 9.970303521322350e+000
0	 1.866659999993467e+000	 7.999999999999998e+000	 9.940419283577047e+000
0	 1.866659999993467e+000	 8.066670000003315e+000	 9.944248630132709e+000
0	 1.866659999993467e+000	 8.133340000006532e+000	 9.947924373224719e+000
0	 1.866659999993467e+000	 8.200010000009552e+000	 9.951447502048902e+000
0	 1.866659999993467e+000	 8.266680000012267e+000	 9.954819005801104e+000
0	 1.866659999993467e+000	 8.333350000014582e+000	 9.958039873677127e+000
0	 1.866659999993467e+000	 8.400020000016401e+000	 9.961111094872790e+000
0	 1.866659999993467e+000	 8.466690000017618e+000	 9.964033658583935e+000
0	 1.866659999993467e+000	 8.533360000018137e+000	 9.966808554006386e+000
0	 1.866659999993467e+000	 8.600030000017849e+000	 9.969436770335939e+000
0	 1.866659999993466e+000	 8.666700000016663e+000	 9.971919296768430e+000
0	 1.933329999996683e+000	 8.000000000000000e+000	 9.943810112945599e+000
0	 1.933329999996684e+000	 8.066670000003313e+000	 9.947440130696993e+000
0	 1.933329999996683e+000	 8.133340000006534e+000	 9.950920982516745e+000
0	 1.933329999996684e+000	 8.200010000009552e+000	 9.954253721355737e+000
0	 1.933329999996683e+000	 8.266680000012267e+000	 9.957439400164828e+000
0	 1.933329999996684e+000	 8.333350000014585e+000	 9.960479071894884e+000
0	 1.933329999996684e+000	 8.400020000016401e+000	 9.963373789496776e+000
0	 1.933329999996684e+000	 8.466690000017614e+000	 9.966124605921348e+000
0	 1.933329999996684e+000	 8.533360000018135e+000	 9.968732574119439e+000
0	 1.933329999996683e+000	 8.600030000017849e+000	 9.971198747041944e+000
0	 1.933329999996684e+000	 8.666700000016666e+000	 9.973524177639701e+000
0	 2.000000000000000e+000	 7.999999999999999e+000	 9.947247536079702e+000
0	 2.000000000000000e+000	 8.066670000003319e+000	 9.950660283181579e+000
0	 2.000000000000000e+000	 8.133340000006534e+000	 9.953930263227562e+000
0	 2.000000000000000e+000	 8.200010000009549e+000	 9.957058796192827e+000
0	 2.000000000000000e+000	 8.266680000012267e+000	 9.960047202052527e+000
0	 2.000000000000000e+000	 8.333350000014585e+000	 9.962896800781845e+000
0	 1.999999999999999e+000	 8.400020000016397e+000	 9.965608912355959e+000
0	 2.000000000000000e+000	 8.466690000017618e+000	 9.968184856750025e+000
0	 2.000000000000000e+000	 8.533360000018131e+000	 9.970625953939228e+000
0	 2.000000000000000e+000	 8.600030000017851e+000	 9.972933523898718e+000
0	 2.000000000000000e+000	 8.666700000016666e+000	 9.975108886603646e+000
0	 1.333299999983334e+000	 8.666700000016666e+000	 9.959467341036815e+000
0	 1.333299999983334e+000	 8.733360002791903e+000	 9.963131869439851e+000
0	 1.333299999983334e+000	 8.800020022230553e+000	 9.966623277506368e+000
0	 1.333299999983334e+000	 8.866680074997040e+000	 9.969945835067092e+000
0	 1.333299999983334e+000	 8.933340177755781e+000	 9.973103812467812e+000
0	 1.333299999983334e+000	 9.000000347171181e+000	 9.976101480569410e+000
0	 1.333299999983334e+000	 9.066660599907669e+000	 9.978943110747759e+000
0	 1.333299999983334e+000	 9.133320952629656e+000	 9.981632974893852e+000
0	 1.333299999983334e+000	 9.199981422001560e+000	 9.984175345413734e+000
0	 1.333299999983334e+000	 9.266642024687796e+000	 9.986574495228398e+000
0	 1.333299999983334e+000	 9.333302777352785e+000	 9.988834697773951e+000
0	 1.399969999982150e+000	 8.666700000016668e+000	 9.960899613196009e+000
0	 1.399969999982150e+000	 8.733360002791905e+000	 9.964407035634460e+000
0	 1.399969999982150e+000	 8.800020022230555e+000	 9.967750563695580e+000
0	 1.399969999982150e+000	 8.866680074997044e+000	 9.970934934343900e+000
0	 1.399969999982150e+000	 8.933340177755778e+000	 9.973964885031558e+000
0	 1.399969999982150e+000	 9.000000347171181e+000	 9.976845153698260e+000
0	 1.399969999982150e+000	 9.066660599907667e+000	 9.979580478771352e+000
0	 1.399969999982150e+000	 9.133320952629653e+000	 9.982175599165775e+000
0	 1.399969999982150e+000	 9.199981422001560e+000	 9.984635254284031e+000
0	 1.399969999982150e+000	 9.266642024687794e+000	 9.986964184016195e+000
0	 1.399969999982150e+000	 9.333302777352783e+000	 9.989167128739895e+000
0	 1.466639999981866e+000	 8.666700000016666e+000	 9.962385932108031e+000
0	 1.466639999981867e+000	 8.733360002791901e+000	 9.965731291860962e+000
0	 1.466639999981866e+000	 8.800020022230552e+000	 9.968922729707227e+000
0	 1.466639999981867e+000	 8.866680074997040e+000	 9.971965357821018e+000
0	 1.466639999981867e+000	 8.933340177755781e+000	 9.974864288836166e+000
0	 1.466639999981866e+000	 9.000000347171183e+000	 9.977624635846080e+000
0	 1.466639999981866e+000	 9.066660599907669e+000	 9.980251512403891e+000
0	 1.466639999981866e+000	 9.133320952629655e+000	 9.982750032522265e+000
0	 1.466639999981867e+000	 9.199981422001558e+000	 9.985125310673492e+000
0	 1.466639999981867e+000	 9.266642024687799e+000	 9.987382461789501e+000
0	 1.466639999981866e+000	 9.333302777352783e+000	 9.989526601261742e+000
0	 1.533309999982383e+000	 8.666700000016666e+000	 9.963917020440361e+000
0	 1.533309999982383e+000	 8.733360002791901e+000	 9.967097016820656e+000
0	 1.533309999982383e+000	 8.800020022230557e+000	 9.970133560160404e+000
0	 1.533309999982383e+000	 8.866680074997040e+000	 9.973032045918570e+000
0	 1.533309999982383e+000	 8.933340177755779e+000	 9.975797869985589e+000
0	 1.533309999982383e+000	 9.000000347171184e+000	 9.978436428683457e+000
0	 1.533309999982383e+000	 9.066660599907669e+000	 9.980953118765688e+000
0	 1.533309999982383e+000	 9.133320952629656e+000	 9.983353337417272e+000
0	 1.533309999982383e+000	 9.199981422001560e+000	 9.985642482254722e+000
0	 1.533309999982383e+000	 9.266642024687798e+000	 9.987825951326000e+000
0	 1.533309999982383e+000	 9.333302777352783e+000	 9.989909143110593e+000
0	 1.599979999983600e+000	 8.666700000016668e+000	 9.965483600860477e+000
0	 1.599979999983600e+000	 8.733360002791901e+000	 9.968496589214858e+000
0	 1.599979999983600e+000	 8.800020022230555e+000	 9.971376839674257e+000
0	 1.599979999983600e+000	 8.866680074997042e+000	 9.974129939056679e+000
0	 1.599979999983600e+000	 8.933340177755779e+000	 9.976761474583805e+000
0	 1.599979999983600e+000	 9.000000347171183e+000	 9.979277033880965e+000
0	 1.599979999983600e+000	 9.066660599907669e+000	 9.981682204977096e+000
0	 1.599979999983599e+000	 9.133320952629655e+000	 9.983982576304804e+000
0	 1.599979999983600e+000	 9.199981422001557e+000	 9.986183736700282e+000
0	 1.599979999983600e+000	 9.266642024687799e+000	 9.988291275403329e+000
0	 1.599979999983600e+000	 9.333302777352785e+000	 9.990310782057387e+000
0	 1.666649999985417e+000	 8.666700000016666e+000	 9.967076396035857e+000
0	 1.666649999985416e+000	 8.733360002791903e+000	 9.969922387744861e+000
0	 1.666649999985417e+000	 8.800020022230555e+000	 9.972646352867860e+000
0	 1.666649999985417e+000	 8.866680074997042e+000	 9.975253977655484e+000
0	 1.666649999985416e+000	 8.933340177755779e+000	 9.977750948734762e+000
0	 1.666649999985416e+000	 9.000000347171183e+000	 9.980142953109175e+000
0	 1.666649999985417e+000	 9.066660599907669e+000	 9.982435678158462e+000
0	 1.666649999985417e+000	 9.133320952629658e+000	 9.984634811638827e+000
0	 1.666649999985416e+000	 9.199981422001558e+000	 9.986746041682773e+000
0	 1.666649999985416e+000	 9.266642024687796e+000	 9.988775056799163e+000
0	 1.666649999985417e+000	 9.333302777352783e+000	 9.990727545873162e+000
0	 1.733319999987733e+000	 8.666700000016668e+000	 9.968686128633985e+000
0	 1.733319999987733e+000	 8.733360002791901e+000	 9.971366791111990e+000
0	 1.733319999987733e+000	 8.800020022230557e+000	 9.973935884360341e+000
0	 1.733319999987733e+000	 8.866680074997044e+000	 9.976399102135101e+000
0	 1.733319999987733e+000	 8.933340177755776e+000	 9.978762138542454e+000
0	 1.733319999987733e+000	 9.000000347171181e+000	 9.981030688038670e+000
0	 1.733319999987733e+000	 9.066660599907671e+000	 9.983210445430146e+000
0	 1.733319999987733e+000	 9.133320952629653e+000	 9.985307105873327e+000
0	 1.733319999987733e+000	 9.199981422001558e+000	 9.987326364874765e+000
0	 1.733319999987733e+000	 9.266642024687798e+000	 9.989273918291085e+000
0	 1.733319999987734e+000	 9.333302777352785e+000	 9.991155462328917e+000
0	 1.799989999990450e+000	 8.666700000016666e+000	 9.970303521322350e+000
0	 1.799989999990450e+000	 8.733360002791903e+000	 9.972822178017530e+000
0	 1.799989999990450e+000	 8.800020022230557e+000	 9.975239218770826e+000
0	 1.799989999990450e+000	 8.866680074997042e+000	 9.977560252915685e+000
0	 1.799989999990450e+000	 8.933340177755776e+000	 9.979790890110809e+000
0	 1.799989999990450e+000	 9.000000347171181e+000	 9.981936740340045e+000
0	 1.799989999990450e+000	 9.066660599907669e+000	 9.984003413912477e+000
0	 1.799989999990450e+000	 9.133320952629656e+000	 9.985996521462292e+000
0	 1.799989999990450e+000	 9.199981422001560e+000	 9.987921673948879e+000
0	 1.799989999990450e+000	 9.266642024687798e+000	 9.989784482656798e+000
0	 1.799989999990450e+000	 9.333302777352781e+000	 9.991590559195689e+000
0	 1.866659999993466e+000	 8.666700000016663e+000	 9.971919296768430e+000
0	 1.866659999993467e+000	 8.733360002791903e+000	 9.974280927162795e+000
0	 1.866659999993466e+000	 8.800020022230553e+000	 9.976550140718381e+000
0	 1.866659999993467e+000	 8.866680074997042e+000	 9.978732370417326e+000
0	 1.866659999993467e+000	 8.933340177755779e+000	 9.980833049543778e+000
0	 1.866659999993467e+000	 9.000000347171183e+000	 9.982857611683897e+000
0	 1.866659999993467e+000	 9.066660599907667e+000	 9.984811490725809e+000
0	 1.866659999993467e+000	 9.133320952629656e+000	 9.986700120859691e+000
0	 1.866659999993467e+000	 9.199981422001557e+000	 9.988528936577689e+000
0	 1.866659999993467e+000	 9.266642024687796e+000	 9.990303372673912e+000
0	 1.866659999993467e+000	 9.333302777352783e+000	 9.992028864244444e+000
0	 1.933329999996684e+000	 8.666700000016666e+000	 9.973524177639701e+000
0	 1.933329999996683e+000	 8.733360002791899e+000	 9.975735417249073e+000
0	 1.933329999996683e+000	 8.800020022230555e+000	 9.977862434822159e+000
0	 1.933329999996684e+000	 8.866680074997040e+000	 9.979910395060198e+000
0	 1.933329999996684e+000	 8.933340177755781e+000	 9.981884462945352e+000
0	 1.933329999996684e+000	 9.000000347171183e+000	 9.983789803740756e+000
0	 1.933329999996684e+000	 9.066660599907669e+000	 9.985631582990472e+000
0	 1.933329999996683e+000	 9.133320952629656e+000	 9.987414966519507e+000
0	 1.933329999996684e+000	 9.199981422001557e+000	 9.989145120433763e+000
0	 1.933329999996684e+000	 9.266642024687798e+000	 9.990827211120095e+000
0	 1.933329999996684e+000	 9.333302777352785e+000	 9.992466405246232e+000
0	 2.000000000000000e+000	 8.666700000016666e+000	 9.975108886603646e+000
0	 2.000000000000000e+000	 8.733360002791905e+000	 9.977178026977677e+000
0	 2.000000000000000e+000	 8.800020022230555e+000	 9.979169885701252e+000
0	 2.000000000000000e+000	 8.866680074997039e+000	 9.981089267264391e+000
0	 2.000000000000000e+000	 8.933340177755779e+000	 9.982940976419473e+000
0	 2.000000000000000e+000	 9.000000347171183e+000	 9.984729818181235e+000
0	 2.000000000000000e+000	 9.066660599907667e+000	 9.986460597826820e+000
0	 2.000000000000000e+000	 9.133320952629653e+000	 9.988138120895707e+000
0	 2.000000000000000e+000	 9.199981422001558e+000	 9.989767193189703e+000
0	 2.000000000000000e+000	 9.266642024687796e+000	 9.991352620772995e+000
0	 2.000000000000000e+000	 9.333302777352783e+000	 9.992899209972043e+000
0	 1.333299999983334e+000	 9.333302777352785e+000	 9.988834697773951e+000
0	 1.333299999983334e+000	 9.399973674588177e+000	 9.990904747477739e+000
0	 1.333299999983334e+000	 9.466644621844619e+000	 9.992737890694267e+000
0	 1.333299999983334e+000	 9.533315502450002e+000	 9.994346062100490e+000
0	 1.333299999983334e+000	 9.599986199732198e+000	 9.995741191568099e+000
0	 1.333299999983334e+000	 9.666656597019093e+000	 9.996935204162758e+000
0	 1.333299999983334e+000	 9.733326577638575e+000	 9.997940020143721e+000
0	 1.333299999983334e+000	 9.799996024918523e+000	 9.998767554962797e+000
0	 1.333299999983334e+000	 9.866664822186824e+000	 9.999429719263473e+000
0	 1.333299999983334e+000	 9.933332852771356e+000	 9.999938418879941e+000
0	 1.333299999983334e+000	 1.000000000000000e+001	 1.000030555483592e+001
0	 1.399969999982150e+000	 9.333302777352783e+000	 9.989167128739894e+000
0	 1.399969999982150e+000	 9.399973674588177e+000	 9.991188636436819e+000
0	 1.399969999982150e+000	 9.466644621844623e+000	 9.992976855587335e+000
0	 1.399969999982150e+000	 9.533315502449998e+000	 9.994542887938408e+000
0	 1.399969999982150e+000	 9.599986199732197e+000	 9.995897830529648e+000
0	 1.399969999982150e+000	 9.666656597019095e+000	 9.997052775692737e+000
0	 1.399969999982150e+000	 9.733326577638573e+000	 9.998018811050789e+000
0	 1.399969999982150e+000	 9.799996024918523e+000	 9.998807019517610e+000
0	 1.399969999982150e+000	 9.866664822186824e+000	 9.999428479296615e+000
0	 1.399969999982150e+000	 9.933332852771354e+000	 9.999894263879995e+000
0	 1.399969999982150e+000	 1.000000000000000e+001	 1.000021544204743e+001
0	 1.466639999981866e+000	 9.333302777352783e+000	 9.989526601261739e+000
0	 1.466639999981867e+000	 9.399973674588177e+000	 9.991498007133458e+000
0	 1.466639999981867e+000	 9.466644621844619e+000	 9.993239799828018e+000
0	 1.466639999981867e+000	 9.533315502450003e+000	 9.994762295494983e+000
0	 1.466639999981867e+000	 9.599986199732198e+000	 9.996075805679094e+000
0	 1.466639999981867e+000	 9.666656597019093e+000	 9.997190637319681e+000
0	 1.466639999981867e+000	 9.733326577638577e+000	 9.998117092750093e+000
0	 1.466639999981867e+000	 9.799996024918523e+000	 9.998865469696776e+000
0	 1.466639999981867e+000	 9.866664822186822e+000	 9.999446061278492e+000
0	 1.466639999981867e+000	 9.933332852771354e+000	 9.999869156005349e+000
0	 1.466639999981866e+000	 1.000000000000000e+001	 1.000014503777754e+001
0	 1.533309999982383e+000	 9.333302777352783e+000	 9.989909143110593e+000
0	 1.533309999982383e+000	 9.399973674588175e+000	 9.991828242263289e+000
0	 1.533309999982383e+000	 9.466644621844619e+000	 9.993521611222834e+000
0	 1.533309999982383e+000	 9.533315502450002e+000	 9.994998827871418e+000
0	 1.533309999982383e+000	 9.599986199732197e+000	 9.996269465595086e+000
0	 1.533309999982383e+000	 9.666656597019092e+000	 9.997343093283112e+000
0	 1.533309999982383e+000	 9.733326577638577e+000	 9.998229275327518e+000
0	 1.533309999982383e+000	 9.799996024918526e+000	 9.998937571622012e+000
0	 1.533309999982383e+000	 9.866664822186824e+000	 9.999477537561413e+000
0	 1.533309999982383e+000	 9.933332852771354e+000	 9.999858724040527e+000
0	 1.533309999982383e+000	 1.000000000000000e+001	 1.000009067745288e+001
0	 1.599979999983600e+000	 9.333302777352785e+000	 9.990310782057385e+000
0	 1.599979999983600e+000	 9.399973674588175e+000	 9.992174724521938e+000
0	 1.599979999983600e+000	 9.466644621844617e+000	 9.993817177578311e+000
0	 1.599979999983600e+000	 9.533315502450000e+000	 9.995247028168885e+000
0	 1.599979999983600e+000	 9.599986199732197e+000	 9.996473158856224e+000
0	 1.599979999983600e+000	 9.666656597019097e+000	 9.997504447822550e+000
0	 1.599979999983600e+000	 9.733326577638575e+000	 9.998349768869010e+000
0	 1.599979999983600e+000	 9.799996024918524e+000	 9.999017991415157e+000
0	 1.599979999983600e+000	 9.866664822186824e+000	 9.999517980497677e+000
0	 1.599979999983600e+000	 9.933332852771352e+000	 9.999858596769935e+000
0	 1.599979999983600e+000	 1.000000000000000e+001	 1.000004869650030e+001
0	 1.666649999985417e+000	 9.333302777352783e+000	 9.990727545873160e+000
0	 1.666649999985416e+000	 9.399973674588177e+000	 9.992532836604983e+000
0	 1.666649999985416e+000	 9.466644621844619e+000	 9.994121386700941e+000
0	 1.666649999985417e+000	 9.533315502450002e+000	 9.995501439488537e+000
0	 1.666649999985416e+000	 9.599986199732197e+000	 9.996681234041164e+000
0	 1.666649999985416e+000	 9.666656597019090e+000	 9.997669005177404e+000
0	 1.666649999985417e+000	 9.733326577638577e+000	 9.998472983460609e+000
0	 1.666649999985416e+000	 9.799996024918523e+000	 9.999101395197890e+000
0	 1.666649999985416e+000	 9.866664822186824e+000	 9.999562462439620e+000
0	 1.666649999985416e+000	 9.933332852771352e+000	 9.999864402977986e+000
0	 1.666649999985417e+000	 1.000000000000000e+001	 1.000001543034643e+001
0	 1.733319999987734e+000	 9.333302777352785e+000	 9.991155462328916e+000
0	 1.733319999987733e+000	 9.399973674588175e+000	 9.992897961208040e+000
0	 1.733319999987733e+000	 9.466644621844623e+000	 9.994429126397208e+000
0	 1.733319999987733e+000	 9.533315502450002e+000	 9.995756604931570e+000
0	 1.733319999987733e+000	 9.599986199732198e+000	 9.996888039728511e+000
0	 1.733319999987733e+000	 9.666656597019095e+000	 9.997831069587219e+000
0	 1.733319999987733e+000	 9.733326577638579e+000	 9.998593329188157e+000
0	 1.733319999987734e+000	 9.799996024918524e+000	 9.999182449092064e+000
0	 1.733319999987733e+000	 9.866664822186820e+000	 9.999606055739386e+000
0	 1.733319999987733e+000	 9.933332852771352e+000	 9.999871771449088e+000
0	 1.733319999987733e+000	 1.000000000000000e+001	 9.999987214417930e+000
0	 1.799989999990450e+000	 9.333302777352781e+000	 9.991590559195688e+000
0	 1.799989999990450e+000	 9.399973674588177e+000	 9.993265481026743e+000
0	 1.799989999990450e+000	 9.466644621844617e+000	 9.994735284473693e+000
0	 1.799989999990450e+000	 9.533315502450003e+000	 9.996007067599143e+000
0	 1.799989999990450e+000	 9.599986199732193e+000	 9.997087924496887e+000
0	 1.799989999990450e+000	 9.666656597019097e+000	 9.997984945291508e+000
0	 1.799989999990450e+000	 9.733326577638577e+000	 9.998705216137674e+000
0	 1.799989999990450e+000	 9.799996024918524e+000	 9.999255819219400e+000
0	 1.799989999990450e+000	 9.866664822186824e+000	 9.999643832749346e+000
0	 1.799989999990450e+000	 9.933332852771352e+000	 9.999876330967783e+000
0	 1.799989999990450e+000	 1.000000000000000e+001	 9.999960384141618e+000
0	 1.866659999993467e+000	 9.333302777352783e+000	 9.992028864244444e+000
0	 1.866659999993467e+000	 9.399973674588173e+000	 9.993630778756664e+000
0	 1.866659999993467e+000	 9.466644621844623e+000	 9.995034748736844e+000
0	 1.866659999993467e+000	 9.533315502450003e+000	 9.996247370592398e+000
0	 1.866659999993467e+000	 9.599986199732197e+000	 9.997275236924928e+000
0	 1.866659999993467e+000	 9.666656597019093e+000	 9.998124936529694e+000
0	 1.866659999993466e+000	 9.733326577638575e+000	 9.998803054395049e+000
0	 1.866659999993467e+000	 9.799996024918523e+000	 9.999316171701629e+000
0	 1.866659999993467e+000	 9.866664822186822e+000	 9.999670865821786e+000
0	 1.866659999993467e+000	 9.933332852771352e+000	 9.999873710318443e+000
0	 1.866659999993467e+000	 1.000000000000000e+001	 9.999931274944030e+000
0	 1.933329999996684e+000	 9.333302777352785e+000	 9.992466405246235e+000
0	 1.933329999996684e+000	 9.399973674588178e+000	 9.993989237093429e+000
0	 1.933329999996684e+000	 9.466644621844621e+000	 9.995322406993191e+000
0	 1.933329999996684e+000	 9.533315502450000e+000	 9.996472057012539e+000
0	 1.933329999996684e+000	 9.599986199732197e+000	 9.997444325591276e+000
0	 1.933329999996684e+000	 9.666656597019093e+000	 9.998245347541287e+000
0	 1.933329999996684e+000	 9.733326577638575e+000	 9.998881254046252e+000
0	 1.933329999996684e+000	 9.799996024918524e+000	 9.999358172660608e+000
0	 1.933329999996684e+000	 9.866664822186822e+000	 9.999682227309028e+000
0	 1.933329999996684e+000	 9.933332852771352e+000	 9.999859538285451e+000
0	 1.933329999996684e+000	 1.000000000000000e+001	 9.999896222252074e+000
0	 2.000000000000000e+000	 9.333302777352783e+000	 9.992899209972043e+000
0	 2.000000000000000e+000	 9.399973674588177e+000	 9.994336238732656e+000
0	 2.000000000000000e+000	 9.466644621844621e+000	 9.995593147049242e+000
0	 2.000000000000000e+000	 9.533315502449998e+000	 9.996675669960752e+000
0	 2.000000000000000e+000	 9.599986199732198e+000	 9.997589539074514e+000
0	 2.000000000000000e+000	 9.666656597019093e+000	 9.998340482565808e+000
0	 2.000000000000000e+000	 9.733326577638575e+000	 9.998934225177212e+000
0	 2.000000000000000e+000	 9.799996024918524e+000	 9.999376488218022e+000
0	 2.000000000000000e+000	 9.866664822186822e+000	 9.999672989563344e+000
0	 2.000000000000000e+000	 9.933332852771352e+000	 9.999829443653317e+000
0	 2.000000000000000e+000	 1.000000000000000e+001	 9.999851561492378e+000
0	 2.000000000000000e+000	 0.000000000000000e+000	-4.379641602673387e+001
0	 2.000000000000000e+000	 6.666714722864757e-002	-3.967080675263925e+001
0	 2.000000000000000e+000	 1.333351778131789e-001	-3.552347544968058e+001
0	 2.000000000000000e+000	 2.000039750814773e-001	-3.137773807754932e+001
0	 2.000000000000000e+000	 2.666734223614256e-001	-2.725691348388455e+001
0	 2.000000000000000e+000	 3.333434029809069e-001	-2.318432340343651e+001
0	 2.000000000000000e+000	 4.000138002678043e-001	-1.918329245730600e+001
0	 2.000000000000000e+000	 4.666844975500010e-001	-1.527714815225961e+001
0	 2.000000000000000e+000	 5.333553781553803e-001	-1.148922088012069e+001
0	 2.000000000000000e+000	 6.000263254118246e-001	-7.842843917236105e+000
0	 2.000000000000000e+000	 6.666972226472177e-001	-4.361353424018655e+000
0	 2.066670000003316e+000	 0.000000000000000e+000	-4.841616978862627e+001
0	 2.066670000003316e+000	 6.666714722864756e-002	-4.393557616578418e+001
0	 2.066670000003317e+000	 1.333351778131789e-001	-3.938814688325552e+001
0	 2.066670000003318e+000	 2.000039750814773e-001	-3.480772201056532e+001
0	 2.066670000003317e+000	 2.666734223614255e-001	-3.022814497615945e+001
0	 2.066670000003317e+000	 3.333434029809069e-001	-2.568326256645920e+001
0	 2.066670000003317e+000	 4.000138002678045e-001	-2.120692492500414e+001
0	 2.066670000003317e+000	 4.666844975500010e-001	-1.683298555168297e+001
0	 2.066670000003316e+000	 5.333553781553803e-001	-1.259530130205263e+001
0	 2.066670000003317e+000	 6.000263254118247e-001	-8.527732386745493e+000
0	 2.066670000003317e+000	 6.666972226472175e-001	-4.664142370964539e+000
0	 2.133340000006534e+000	 0.000000000000000e+000	-5.343638278920954e+001
0	 2.133340000006534e+000	 6.666714722864753e-002	-4.846202461998739e+001
0	 2.133340000006534e+000	 1.333351778131789e-001	-4.340243465798307e+001
0	 2.133340000006534e+000	 2.000039750814772e-001	-3.829921975447564e+001
0	 2.133340000006534e+000	 2.666734223614256e-001	-3.319399058853913e+001
0	 2.133340000006534e+000	 3.333434029809069e-001	-2.812836166598909e+001
0	 2.133340000006534e+000	 4.000138002678044e-001	-2.314395131842958e+001
0	 2.133340000006534e+000	 4.666844975500012e-001	-1.828238170240051e+001
0	 2.133340000006534e+000	 5.333553781553801e-001	-1.358527879862556e+001
0	 2.133340000006535e+000	 6.000263254118247e-001	-9.094272411360423e+000
0	 2.133340000006534e+000	 6.666972226472177e-001	-4.850996167841448e+000
0	 2.200010000009550e+000	 0.000000000000000e+000	-5.876876923308355e+001
0	 2.200010000009550e+000	 6.666714722864756e-002	-5.317364465821625e+001
0	 2.200010000009551e+000	 1.333351778131789e-001	-4.750102315336197e+001
0	 2.200010000009550e+000	 2.000039750814772e-001	-4.179752110400546e+001
0	 2.200010000009551e+000	 2.666734223614255e-001	-3.610975918404058e+001
0	 2.200010000009551e+000	 3.333434029809069e-001	-3.048436235461094e+001
0	 2.200010000009550e+000	 4.000138002678043e-001	-2.496795986306351e+001
0	 2.200010000009550e+000	 4.666844975500011e-001	-1.960718524201441e+001
0	 2.200010000009551e+000	 5.333553781553804e-001	-1.444867630852751e+001
0	 2.200010000009551e+000	 6.000263254118248e-001	-9.539075163405423e+000
0	 2.200010000009551e+000	 6.666972226472177e-001	-4.925028190592887e+000
0	 2.266680000012268e+000	 0.000000000000000e+000	-6.432504332485294e+001
0	 2.266680000012267e+000	 6.666714722864756e-002	-5.799392882344169e+001
0	 2.266680000012268e+000	 1.333351778131789e-001	-5.161859674889328e+001
0	 2.266680000012268e+000	 2.000039750814772e-001	-4.524791585388151e+001
0	 2.266680000012267e+000	 2.666734223614255e-001	-3.893075962568161e+001
0	 2.266680000012268e+000	 3.333434029809069e-001	-3.271600628490988e+001
0	 2.266680000012267e+000	 4.000138002678044e-001	-2.665253878438713e+001
0	 2.266680000012268e+000	 4.666844975500011e-001	-2.078924480812660e+001
0	 2.266680000012268e+000	 5.333553781553801e-001	-1.517501677044615e+001
0	 2.266680000012268e+000	 6.000263254118248e-001	-9.858751815204517e+000
0	 2.266680000012268e+000	 6.666972226472177e-001	-4.889351815161866e+000
0	 2.333350000014584e+000	 0.000000000000000e+000	-7.001691926912700e+001
0	 2.333350000014584e+000	 6.666714722864756e-002	-6.284636965863781e+001
0	 2.333350000014585e+000	 1.333351778131789e-001	-5.568983982408043e+001
0	 2.333350000014585e+000	 2.000039750814772e-001	-4.859569379883188e+001
0	 2.333350000014584e+000	 2.666734223614256e-001	-4.161230077648086e+001
0	 2.333350000014584e+000	 3.333434029809068e-001	-3.478803510947132e+001
0	 2.333350000014584e+000	 4.000138002678044e-001	-2.817127630788158e+001
0	 2.333350000014585e+000	 4.666844975500012e-001	-2.181040903833876e+001
0	 2.333350000014584e+000	 5.333553781553804e-001	-1.575382312306870e+001
0	 2.333350000014584e+000	 6.000263254118247e-001	-1.004991353908128e+001
0	 2.333350000014584e+000	 6.666972226472177e-001	-4.747080417490901e+000
0	 2.400020000016401e+000	 0.000000000000000e+000	-7.575611127051988e+001
0	 2.400020000016401e+000	 6.666714722864756e-002	-6.765445970678236e+001
0	 2.400020000016401e+000	 1.333351778131790e-001	-5.964943675842920e+001
0	 2.400020000016400e+000	 2.000039750814772e-001	-5.178614473358633e+001
0	 2.400020000016401e+000	 2.666734223614256e-001	-4.410969149945779e+001
0	 2.400020000016401e+000	 3.333434029809069e-001	-3.666519048088103e+001
0	 2.400020000016401e+000	 4.000138002678044e-001	-2.949776065902800e+001
0	 2.400020000016401e+000	 4.666844975500011e-001	-2.265252657025229e+001
0	 2.400020000016400e+000	 5.333553781553801e-001	-1.617461830508206e+001
0	 2.400020000016402e+000	 6.000263254118247e-001	-1.010917150735881e+001
0	 2.400020000016400e+000	 6.666972226472178e-001	-4.501327373521979e+000
0	 2.466690000017618e+000	 0.000000000000000e+000	-8.145433353365036e+001
0	 2.466690000017618e+000	 6.666714722864757e-002	-7.234169151085636e+001
0	 2.466690000017617e+000	 1.333351778131789e-001	-6.343207193144770e+001
0	 2.466690000017618e+000	 2.000039750814773e-001	-5.476455845287600e+001
0	 2.466690000017618e+000	 2.666734223614256e-001	-4.637824065763272e+001
0	 2.466690000017618e+000	 3.333434029809068e-001	-3.831221405172511e+001
0	 2.466690000017617e+000	 4.000138002678044e-001	-3.060558006330749e+001
0	 2.466690000017617e+000	 4.666844975500011e-001	-2.329744604146834e+001
0	 2.466690000017618e+000	 5.333553781553803e-001	-1.642692525517263e+001
0	 2.466690000017618e+000	 6.000263254118246e-001	-1.003313689235973e+001
0	 2.466690000017618e+000	 6.666972226472177e-001	-4.155206059196627e+000
0	 2.533360000018134e+000	 0.000000000000000e+000	-8.702330026314201e+001
0	 2.533360000018134e+000	 6.666714722864753e-002	-7.683155761384433e+001
0	 2.533360000018134e+000	 1.333351778131789e-001	-6.697242972264640e+001
0	 2.533360000018133e+000	 2.000039750814772e-001	-5.747622475143349e+001
0	 2.533360000018134e+000	 2.666734223614255e-001	-4.837325711402674e+001
0	 2.533360000018134e+000	 3.333434029809068e-001	-3.969384747458995e+001
0	 2.533360000018134e+000	 4.000138002678043e-001	-3.146832274620114e+001
0	 2.533360000018134e+000	 4.666844975500011e-001	-2.372701608958780e+001
0	 2.533360000018134e+000	 5.333553781553804e-001	-1.650026691202648e+001
0	 2.533360000018134e+000	 6.000263254118248e-001	-9.818420866406182e+000
0	 2.533360000018134e+000	 6.666972226472177e-001	-3.711829850455831e+000
0	 2.600030000017850e+000	 0.000000000000000e+000	-9.237472566362308e+001
0	 2.600030000017850e+000	 6.666714722864756e-002	-8.104755055873419e+001
0	 2.600030000017851e+000	 1.333351778131790e-001	-7.020519451153804e+001
0	 2.600030000017851e+000	 2.000039750814772e-001	-5.986643342399299e+001
0	 2.600030000017850e+000	 2.666734223614255e-001	-5.005004973166179e+001
0	 2.600030000017851e+000	 3.333434029809069e-001	-4.077483240206234e+001
0	 2.600030000017850e+000	 4.000138002678045e-001	-3.205957693319000e+001
0	 2.600030000017851e+000	 4.666844975500011e-001	-2.392308535221132e+001
0	 2.600030000017851e+000	 5.333553781553803e-001	-1.638416621432925e+001
0	 2.600030000017850e+000	 6.000263254118247e-001	-9.461634601819840e+000
0	 2.600030000017851e+000	 6.666972226472178e-001	-3.174312123240092e+000
0	 2.666700000016666e+000	 0.000000000000000e+000	-9.742032393972660e+001
0	 2.666700000016666e+000	 6.666714722864756e-002	-8.491316288851726e+001
0	 2.666700000016666e+000	 1.333351778131789e-001	-7.306505067763786e+001
0	 2.666700000016666e+000	 2.000039750814772e-001	-6.188047426529010e+001
0	 2.666700000016666e+000	 2.666734223614255e-001	-5.136392737356062e+001
0	 2.666700000016666e+000	 3.333434029809069e-001	-4.151991048672932e+001
0	 2.666700000016666e+000	 4.000138002678045e-001	-3.235293084975511e+001
0	 2.666700000016666e+000	 4.666844975500011e-001	-2.386750246693925e+001
0	 2.666700000016666e+000	 5.333553781553803e-001	-1.606814610076621e+001
0	 2.666700000016666e+000	 6.000263254118247e-001	-8.959389270921912e+000
0	 2.666700000016666e+000	 6.666972226472175e-001	-2.545766253489406e+000
0	 2.000000000000000e+000	 6.666972226472177e-001	-4.361353424018655e+000
0	 2.000000000000000e+000	 7.333579753122048e-001	-1.041159904458980e+000
0	 2.000000000000000e+000	 8.000185779984418e-001	 2.126404547014176e+000
0	 2.000000000000000e+000	 8.666790473703454e-001	 5.124093476745807e+000
0	 2.000000000000000e+000	 9.333394000923323e-001	 7.934660763685856e+000
0	 2.000000000000000e+000	 9.999996528288190e-001	 1.054086061940139e+001
0	 2.000000000000000e+000	 1.066659822244222e+000	 1.292544758808747e+001
0	 2.000000000000000e+000	 1.133319925002958e+000	 1.507117654657685e+001
0	 2.000000000000000e+000	 1.199979977769445e+000	 1.696080270434830e+001
0	 2.000000000000000e+000	 1.266639997208097e+000	 1.857708160353383e+001
0	 2.000000000000000e+000	 1.333299999983334e+000	 1.990276911892453e+001
0	 2.066670000003317e+000	 6.666972226472175e-001	-4.664142370964539e+000
0	 2.066670000003317e+000	 7.333579753122047e-001	-1.005997104817601e+000
0	 2.066670000003316e+000	 8.000185779984413e-001	 2.457866148307107e+000
0	 2.066670000003316e+000	 8.666790473703450e-001	 5.710836923254537e+000
0	 2.066670000003317e+000	 9.333394000923323e-001	 8.736305143684712e+000
0	 2.066670000003317e+000	 9.999996528288190e-001	 1.151766112208645e+001
0	 2.066670000003317e+000	 1.066659822244222e+000	 1.403829555978935e+001
0	 2.066670000003317e+000	 1.133319925002959e+000	 1.628159954697462e+001
0	 2.066670000003316e+000	 1.199979977769445e+000	 1.823096456268418e+001
0	 2.066670000003318e+000	 1.266639997208098e+000	 1.986978247482849e+001
0	 2.066670000003317e+000	 1.333299999983333e+000	 2.118144554019282e+001
0	 2.133340000006534e+000	 6.666972226472177e-001	-4.850996167841448e+000
0	 2.133340000006534e+000	 7.333579753122046e-001	-8.597592322688844e-001
0	 2.133340000006534e+000	 8.000185779984417e-001	 2.893671643955441e+000
0	 2.133340000006534e+000	 8.666790473703452e-001	 6.393626522498732e+000
0	 2.133340000006534e+000	 9.333394000923321e-001	 9.624435910166513e+000
0	 2.133340000006534e+000	 9.999996528288190e-001	 1.257043075891772e+001
0	 2.133340000006534e+000	 1.066659822244222e+000	 1.521594246587808e+001
0	 2.133340000006534e+000	 1.133319925002959e+000	 1.754530287335174e+001
0	 2.133340000006534e+000	 1.199979977769445e+000	 1.954284426883141e+001
0	 2.133340000006534e+000	 1.266639997208098e+000	 2.119289938500657e+001
0	 2.133340000006534e+000	 1.333299999983334e+000	 2.247980139977031e+001
0	 2.200010000009551e+000	 6.666972226472177e-001	-4.925028190592887e+000
0	 2.200010000009551e+000	 7.333579753122049e-001	-6.113835815417614e-001
0	 2.200010000009551e+000	 8.000185779984419e-001	 3.419828525676637e+000
0	 2.200010000009550e+000	 8.666790473703452e-001	 7.154183266565559e+000
0	 2.200010000009550e+000	 9.333394000923322e-001	 1.057725627704997e+001
0	 2.200010000009550e+000	 9.999996528288191e-001	 1.367462369349300e+001
0	 2.200010000009551e+000	 1.066659822244222e+000	 1.643186215271046e+001
0	 2.200010000009551e+000	 1.133319925002959e+000	 1.883454879198364e+001
0	 2.200010000009551e+000	 1.199979977769445e+000	 2.086826124907004e+001
0	 2.200010000009551e+000	 1.266639997208098e+000	 2.251857766221225e+001
0	 2.200010000009552e+000	 1.333299999983334e+000	 2.377107667014517e+001
0	 2.266680000012268e+000	 6.666972226472177e-001	-4.889351815161865e+000
0	 2.266680000012267e+000	 7.333579753122047e-001	-2.698074473646352e-001
0	 2.266680000012267e+000	 8.000185779984413e-001	 4.022344285188636e+000
0	 2.266680000012267e+000	 8.666790473703453e-001	 7.974228147542628e+000
0	 2.266680000012268e+000	 9.333394000923323e-001	 1.157296945825423e+001
0	 2.266680000012268e+000	 9.999996528288190e-001	 1.480569408941036e+001
0	 2.266680000012268e+000	 1.066659822244222e+000	 1.765952846664363e+001
0	 2.266680000012268e+000	 1.133319925002958e+000	 2.012159956914601e+001
0	 2.266680000012267e+000	 1.199979977769445e+000	 2.217903492968037e+001
0	 2.266680000012268e+000	 1.266639997208098e+000	 2.381896263458992e+001
0	 2.266680000012267e+000	 1.333299999983334e+000	 2.502851132380567e+001
0	 2.333350000014584e+000	 6.666972226472177e-001	-4.747080417490901e+000
0	 2.333350000014585e+000	 7.333579753122047e-001	 1.560318755345757e-001
0	 2.333350000014585e+000	 8.000185779984416e-001	 4.687226414209904e+000
0	 2.333350000014584e+000	 8.666790473703452e-001	 8.835482157518049e+000
0	 2.333350000014585e+000	 9.333394000923322e-001	 1.258977866769891e+001
0	 2.333350000014584e+000	 9.999996528288191e-001	 1.593909611026838e+001
0	 2.333350000014585e+000	 1.066659822244222e+000	 1.887241525403508e+001
0	 2.333350000014584e+000	 1.133319925002959e+000	 2.137871747111484e+001
0	 2.333350000014585e+000	 1.199979977769445e+000	 2.344698473694297e+001
0	 2.333350000014585e+000	 1.266639997208098e+000	 2.506619963028419e+001
0	 2.333350000014584e+000	 1.333299999983334e+000	 2.622534533324034e+001
0	 2.400020000016400e+000	 6.666972226472178e-001	-4.501327373521979e+000
0	 2.400020000016402e+000	 7.333579753122050e-001	 6.571970924284863e-001
0	 2.400020000016400e+000	 8.000185779984415e-001	 5.400482404459399e+000
0	 2.400020000016401e+000	 8.666790473703453e-001	 9.719666288580399e+000
0	 2.400020000016401e+000	 9.333394000923321e-001	 1.360588711930406e+001
0	 2.400020000016401e+000	 9.999996528288186e-001	 1.705028391966602e+001
0	 2.400020000016402e+000	 1.066659822244223e+000	 2.004399636124266e+001
0	 2.400020000016400e+000	 1.133319925002958e+000	 2.257816476416647e+001
0	 2.400020000016401e+000	 1.199979977769445e+000	 2.464393009713866e+001
0	 2.400020000016401e+000	 1.266639997208098e+000	 2.623243397743986e+001
0	 2.400020000016401e+000	 1.333299999983334e+000	 2.733481867093780e+001
0	 2.466690000017618e+000	 6.666972226472177e-001	-4.155206059196627e+000
0	 2.466690000017618e+000	 7.333579753122049e-001	 1.224750908590207e+000
0	 2.466690000017617e+000	 8.000185779984419e-001	 6.148119747656566e+000
0	 2.466690000017618e+000	 8.666790473703456e-001	 1.060850153281873e+001
0	 2.466690000017618e+000	 9.333394000923322e-001	 1.459949802699015e+001
0	 2.466690000017618e+000	 9.999996528288190e-001	 1.811471168120259e+001
0	 2.466690000017617e+000	 1.066659822244222e+000	 2.114774563462461e+001
0	 2.466690000017617e+000	 1.133319925002959e+000	 2.369220371457747e+001
0	 2.466690000017618e+000	 1.199979977769445e+000	 2.574169043654853e+001
0	 2.466690000017617e+000	 1.266639997208098e+000	 2.728981100420194e+001
0	 2.466690000017618e+000	 1.333299999983334e+000	 2.833017130938690e+001
0	 2.533360000018134e+000	 6.666972226472177e-001	-3.711829850455831e+000
0	 2.533360000018134e+000	 7.333579753122047e-001	 1.849756029293351e+000
0	 2.533360000018134e+000	 8.000185779984416e-001	 6.916145935521374e+000
0	 2.533360000018134e+000	 8.666790473703454e-001	 1.148370888232258e+001
0	 2.533360000018134e+000	 9.333394000923322e-001	 1.554881460467814e+001
0	 2.533360000018134e+000	 9.999996528288191e-001	 1.910783355847788e+001
0	 2.533360000018134e+000	 1.066659822244222e+000	 2.215713692053946e+001
0	 2.533360000018134e+000	 1.133319925002959e+000	 2.469309658862481e+001
0	 2.533360000018134e+000	 1.199979977769445e+000	 2.671208518145390e+001
0	 2.533360000018134e+000	 1.266639997208098e+000	 2.821047603871570e+001
0	 2.533360000018134e+000	 1.333299999983334e+000	 2.918464322107662e+001
0	 2.600030000017851e+000	 6.666972226472178e-001	-3.174312123240092e+000
0	 2.600030000017851e+000	 7.333579753122048e-001	 2.523275159812062e+000
0	 2.600030000017851e+000	 8.000185779984418e-001	 7.690568459774258e+000
0	 2.600030000017851e+000	 8.666790473703451e-001	 1.232700932918196e+001
0	 2.600030000017851e+000	 9.333394000923320e-001	 1.643204006628938e+001
0	 2.600030000017851e+000	 9.999996528288191e-001	 2.000510371509199e+001
0	 2.600030000017851e+000	 1.066659822244223e+000	 2.304564406534611e+001
0	 2.600030000017850e+000	 1.133319925002959e+000	 2.555310565258569e+001
0	 2.600030000017851e+000	 1.199979977769445e+000	 2.752693375813635e+001
0	 2.600030000017851e+000	 1.266639997208098e+000	 2.896657440912657e+001
0	 2.600030000017851e+000	 1.333299999983334e+000	 2.987147437849611e+001
0	 2.666700000016666e+000	 6.666972226472175e-001	-2.545766253489406e+000
0	 2.666700000016666e+000	 7.333579753122047e-001	 3.236371005420966e+000
0	 2.666700000016666e+000	 8.000185779984416e-001	 8.457394812136194e+000
0	 2.666700000016666e+000	 8.666790473703453e-001	 1.312012386548735e+001
0	 2.666700000016666e+000	 9.333394000923323e-001	 1.722737762574569e+001
0	 2.666700000016665e+000	 9.999996528288190e-001	 2.078197631464554e+001
0	 2.666700000016666e+000	 1.066659822244222e+000	 2.378674091540388e+001
0	 2.666700000016667e+000	 1.133319925002959e+000	 2.624449317273768e+001
0	 2.666700000016667e+000	 1.199979977769445e+000	 2.815805559287774e+001
0	 2.666700000016666e+000	 1.266639997208098e+000	 2.953025144358019e+001
0	 2.666700000016667e+000	 1.333299999983334e+000	 3.036390475413476e+001
0	 2.000000000000000e+000	 1.333299999983334e+000	 1.990276911892454e+001
0	 2.000000000000000e+000	 1.399969999982150e+000	 2.093368598402206e+001
0	 2.000000000000000e+000	 1.466639999981866e+000	 2.168457684669843e+001
0	 2.000000000000000e+000	 1.533309999982383e+000	 2.216711234539976e+001
0	 2.000000000000000e+000	 1.599979999983599e+000	 2.239296311857028e+001
0	 2.000000000000000e+000	 1.666649999985416e+000	 2.237379980465239e+001
0	 2.000000000000000e+000	 1.733319999987733e+000	 2.212129304208661e+001
0	 2.000000000000000e+000	 1.799989999990450e+000	 2.164711346931166e+001
0	 2.000000000000000e+000	 1.866659999993467e+000	 2.096293172476439e+001
0	 2.000000000000000e+000	 1.933329999996683e+000	 2.008041844687976e+001
0	 2.000000000000000e+000	 2.000000000000000e+000	 1.901124427409093e+001
0	 2.066670000003317e+000	 1.333299999983333e+000	 2.118144554019283e+001
0	 2.066670000003317e+000	 1.399969999982150e+000	 2.218087738486515e+001
0	 2.066670000003317e+000	 1.466639999981867e+000	 2.290152533611507e+001
0	 2.066670000003317e+000	 1.533309999982383e+000	 2.335508169299922e+001
0	 2.066670000003317e+000	 1.599979999983599e+000	 2.355323875457236e+001
0	 2.066670000003317e+000	 1.666649999985416e+000	 2.350768881988740e+001
0	 2.066670000003317e+000	 1.733319999987733e+000	 2.323012418799538e+001
0	 2.066670000003317e+000	 1.799989999990450e+000	 2.273223715794549e+001
0	 2.066670000003317e+000	 1.866659999993466e+000	 2.202572002878510e+001
0	 2.066670000003317e+000	 1.933329999996683e+000	 2.112226509955966e+001
0	 2.066670000003317e+000	 2.000000000000000e+000	 2.003356466931287e+001
0	 2.133340000006534e+000	 1.333299999983334e+000	 2.247980139977031e+001
0	 2.133340000006534e+000	 1.399969999982150e+000	 2.343798985306249e+001
0	 2.133340000006534e+000	 1.466639999981866e+000	 2.411973135130873e+001
0	 2.133340000006534e+000	 1.533309999982383e+000	 2.453659510203036e+001
0	 2.133340000006534e+000	 1.599979999983600e+000	 2.470015031274694e+001
0	 2.133340000006534e+000	 1.666649999985416e+000	 2.462196619097609e+001
0	 2.133340000006534e+000	 1.733319999987733e+000	 2.431361194423370e+001
0	 2.133340000006534e+000	 1.799989999990450e+000	 2.378665678003360e+001
0	 2.133340000006534e+000	 1.866659999993466e+000	 2.305266990588804e+001
0	 2.133340000006534e+000	 1.933329999996683e+000	 2.212322052930716e+001
0	 2.133340000006534e+000	 2.000000000000000e+000	 2.100987785779939e+001
0	 2.200010000009552e+000	 1.333299999983334e+000	 2.377107667014517e+001
0	 2.200010000009551e+000	 1.399969999982150e+000	 2.467976418732855e+001
0	 2.200010000009551e+000	 1.466639999981867e+000	 2.531547969491880e+001
0	 2.200010000009551e+000	 1.533309999982383e+000	 2.568952455675631e+001
0	 2.200010000009550e+000	 1.599979999983599e+000	 2.581320013667959e+001
0	 2.200010000009551e+000	 1.666649999985416e+000	 2.569780779852533e+001
0	 2.200010000009550e+000	 1.733319999987732e+000	 2.535464890612833e+001
0	 2.200010000009551e+000	 1.799989999990449e+000	 2.479502482332157e+001
0	 2.200010000009550e+000	 1.866659999993466e+000	 2.403023691393620e+001
0	 2.200010000009550e+000	 1.933329999996683e+000	 2.307158654180142e+001
0	 2.200010000009551e+000	 2.000000000000000e+000	 2.193037507074471e+001
0	 2.266680000012267e+000	 1.333299999983334e+000	 2.502851132380567e+001
0	 2.266680000012268e+000	 1.399969999982150e+000	 2.588094118637785e+001
0	 2.266680000012267e+000	 1.466639999981867e+000	 2.646505516958484e+001
0	 2.266680000012268e+000	 1.533309999982383e+000	 2.679174204144033e+001
0	 2.266680000012267e+000	 1.599979999983599e+000	 2.687189056995606e+001
0	 2.266680000012268e+000	 1.666649999985416e+000	 2.671638952314200e+001
0	 2.266680000012268e+000	 1.733319999987733e+000	 2.633612766900619e+001
0	 2.266680000012268e+000	 1.799989999990449e+000	 2.574199377555491e+001
0	 2.266680000012267e+000	 1.866659999993466e+000	 2.494487661079258e+001
0	 2.266680000012267e+000	 1.933329999996683e+000	 2.395566494272170e+001
0	 2.266680000012268e+000	 2.000000000000000e+000	 2.278524753934304e+001
0	 2.333350000014584e+000	 1.333299999983334e+000	 2.622534533324034e+001
0	 2.333350000014585e+000	 1.399969999982150e+000	 2.701626164892507e+001
0	 2.333350000014585e+000	 1.466639999981867e+000	 2.754474257794649e+001
0	 2.333350000014584e+000	 1.533309999982383e+000	 2.782111954034576e+001
0	 2.333350000014584e+000	 1.599979999983599e+000	 2.785572395616212e+001
0	 2.333350000014584e+000	 1.666649999985416e+000	 2.765888724543304e+001
0	 2.333350000014584e+000	 1.733319999987732e+000	 2.724094082819417e+001
0	 2.333350000014584e+000	 1.799989999990449e+000	 2.661221612447924e+001
0	 2.333350000014585e+000	 1.866659999993466e+000	 2.578304455432025e+001
0	 2.333350000014584e+000	 1.933329999996683e+000	 2.476375753774729e+001
0	 2.333350000014584e+000	 2.000000000000000e+000	 2.356468649478863e+001
0	 2.400020000016401e+000	 1.333299999983334e+000	 2.733481867093780e+001
0	 2.400020000016402e+000	 1.399969999982151e+000	 2.806046637368508e+001
0	 2.400020000016401e+000	 1.466639999981867e+000	 2.853082672264352e+001
0	 2.400020000016401e+000	 1.533309999982382e+000	 2.875552903773603e+001
0	 2.400020000016401e+000	 1.599979999983599e+000	 2.874420263888363e+001
0	 2.400020000016401e+000	 1.666649999985416e+000	 2.850647684600557e+001
0	 2.400020000016401e+000	 1.733319999987733e+000	 2.805198097901922e+001
0	 2.400020000016401e+000	 1.799989999990450e+000	 2.739034435784026e+001
0	 2.400020000016400e+000	 1.866659999993466e+000	 2.653119630238233e+001
0	 2.400020000016401e+000	 1.933329999996683e+000	 2.548416613255747e+001
0	 2.400020000016401e+000	 2.000000000000000e+000	 2.425888316827577e+001
0	 2.466690000017618e+000	 1.333299999983334e+000	 2.833017130938690e+001
0	 2.466690000017618e+000	 1.399969999982150e+000	 2.898829615937281e+001
0	 2.466690000017618e+000	 1.466639999981867e+000	 2.939959240631578e+001
0	 2.466690000017618e+000	 1.533309999982383e+000	 2.957284251787467e+001
0	 2.466690000017617e+000	 1.599979999983599e+000	 2.951682896170653e+001
0	 2.466690000017618e+000	 1.666649999985416e+000	 2.924033420546664e+001
0	 2.466690000017617e+000	 1.733319999987733e+000	 2.875214071680845e+001
0	 2.466690000017617e+000	 1.799989999990449e+000	 2.806103096338359e+001
0	 2.466690000017617e+000	 1.866659999993466e+000	 2.717578741284196e+001
0	 2.466690000017618e+000	 1.933329999996684e+000	 2.610519253283159e+001
0	 2.466690000017618e+000	 2.000000000000000e+000	 2.485802879099870e+001
0	 2.533360000018134e+000	 1.333299999983334e+000	 2.918464322107662e+001
0	 2.533360000018133e+000	 1.399969999982150e+000	 2.977449180470340e+001
0	 2.533360000018134e+000	 1.466639999981867e+000	 3.012732443160325e+001
0	 2.533360000018134e+000	 1.533309999982383e+000	 3.025093196502532e+001
0	 2.533360000018134e+000	 1.599979999983599e+000	 3.015310526821686e+001
0	 2.533360000018134e+000	 1.666649999985416e+000	 2.984163520442345e+001
0	 2.533360000018134e+000	 1.733319999987733e+000	 2.932431263688887e+001
0	 2.533360000018134e+000	 1.799989999990450e+000	 2.860892842885508e+001
0	 2.533360000018134e+000	 1.866659999993466e+000	 2.770327344356230e+001
0	 2.533360000018134e+000	 1.933329999996683e+000	 2.661513854424896e+001
0	 2.533360000018134e+000	 2.000000000000000e+000	 2.535231459415173e+001
0	 2.600030000017851e+000	 1.333299999983334e+000	 2.987147437849612e+001
0	 2.600030000017851e+000	 1.399969999982150e+000	 3.039379410839208e+001
0	 2.600030000017850e+000	 1.466639999981866e+000	 3.069030760114607e+001
0	 2.600030000017850e+000	 1.533309999982383e+000	 3.076766936345166e+001
0	 2.600030000017850e+000	 1.599979999983599e+000	 3.063253390200071e+001
0	 2.600030000017851e+000	 1.666649999985416e+000	 3.029155572348327e+001
0	 2.600030000017851e+000	 1.733319999987733e+000	 2.975138933458766e+001
0	 2.600030000017850e+000	 1.799989999990449e+000	 2.901868924200050e+001
0	 2.600030000017851e+000	 1.866659999993466e+000	 2.810010995240661e+001
0	 2.600030000017850e+000	 1.933329999996683e+000	 2.700230597248904e+001
0	 2.600030000017851e+000	 2.000000000000000e+000	 2.573193180892916e+001
0	 2.666700000016667e+000	 1.333299999983334e+000	 3.036390475413476e+001
0	 2.666700000016667e+000	 1.399969999982150e+000	 3.082094386915424e+001
0	 2.666700000016666e+000	 1.466639999981867e+000	 3.106482671758441e+001
0	 2.666700000016667e+000	 1.533309999982383e+000	 3.110092669741755e+001
0	 2.666700000016667e+000	 1.599979999983600e+000	 3.093461720664425e+001
0	 2.666700000016665e+000	 1.666649999985416e+000	 3.057127164325337e+001
0	 2.666700000016667e+000	 1.733319999987733e+000	 3.001626340523205e+001
0	 2.666700000016667e+000	 1.799989999990450e+000	 2.927496589056572e+001
0	 2.666700000016666e+000	 1.866659999993466e+000	 2.835275249723812e+001
0	 2.666700000016667e+000	 1.933329999996683e+000	 2.725499662323121e+001
0	 2.666700000016667e+000	 2.000000000000000e+000	 2.598707166652532e+001
0	 2.000000000000000e+000	 2.000000000000000e+000	 1.901124427409093e+001
0	 2.000000000000000e+000	 2.066670000003317e+000	 1.785801111233837e+001
0	 2.000000000000000e+000	 2.133340000006534e+000	 1.672014710582135e+001
0	 2.000000000000000e+000	 2.200010000009551e+000	 1.560456225035967e+001
0	 2.000000000000000e+000	 2.266680000012268e+000	 1.451816654177287e+001
0	 2.000000000000000e+000	 2.333350000014584e+000	 1.346786997588036e+001
0	 2.000000000000000e+000	 2.400020000016401e+000	 1.246058254850132e+001
0	 2.000000000000000e+000	 2.466690000017618e+000	 1.150321425545474e+001
0	 2.000000000000000e+000	 2.533360000018133e+000	 1.060267509255938e+001
0	 2.000000000000000e+000	 2.600030000017851e+000	 9.765875055633819e+000
0	 2.000000000000000e+000	 2.666700000016667e+000	 8.999724140496499e+000
0	 2.066670000003317e+000	 2.000000000000000e+000	 2.003356466931287e+001
0	 2.066670000003317e+000	 2.066670000003317e+000	 1.886368152191474e+001
0	 2.066670000003317e+000	 2.133340000006534e+000	 1.771272956366232e+001
0	 2.066670000003317e+000	 2.200010000009551e+000	 1.658647777723808e+001
0	 2.066670000003317e+000	 2.266680000012268e+000	 1.549069514532440e+001
0	 2.066670000003316e+000	 2.333350000014584e+000	 1.443115065060340e+001
0	 2.066670000003318e+000	 2.400020000016401e+000	 1.341361327575711e+001
0	 2.066670000003317e+000	 2.466690000017617e+000	 1.244385200346734e+001
0	 2.066670000003317e+000	 2.533360000018134e+000	 1.152763581641578e+001
0	 2.066670000003317e+000	 2.600030000017850e+000	 1.067073369728383e+001
0	 2.066670000003317e+000	 2.666700000016667e+000	 9.878914628752836e+000
0	 2.133340000006534e+000	 2.000000000000000e+000	 2.100987785779939e+001
0	 2.133340000006534e+000	 2.066670000003317e+000	 1.981825777601521e+001
0	 2.133340000006534e+000	 2.133340000006534e+000	 1.864941324200993e+001
0	 2.133340000006534e+000	 2.200010000009551e+000	 1.750806907339758e+001
0	 2.133340000006534e+000	 2.266680000012268e+000	 1.639895008779205e+001
0	 2.133340000006534e+000	 2.333350000014584e+000	 1.532678110280716e+001
0	 2.133340000006534e+000	 2.400020000016400e+000	 1.429628693605655e+001
0	 2.133340000006534e+000	 2.466690000017617e+000	 1.331219240515367e+001
0	 2.133340000006534e+000	 2.533360000018133e+000	 1.237922232771193e+001
0	 2.133340000006534e+000	 2.600030000017851e+000	 1.150210152134451e+001
0	 2.133340000006534e+000	 2.666700000016666e+000	 1.068555480366450e+001
0	 2.200010000009551e+000	 2.000000000000000e+000	 2.193037507074471e+001
0	 2.200010000009551e+000	 2.066670000003317e+000	 2.071376997276452e+001
0	 2.200010000009551e+000	 2.133340000006534e+000	 1.952392281105172e+001
0	 2.200010000009551e+000	 2.200010000009551e+000	 1.836461108622068e+001
0	 2.200010000009551e+000	 2.266680000012268e+000	 1.723961229888575e+001
0	 2.200010000009550e+000	 2.333350000014583e+000	 1.615270394966111e+001
0	 2.200010000009550e+000	 2.400020000016400e+000	 1.510766353916090e+001
0	 2.200010000009551e+000	 2.466690000017618e+000	 1.410826856799909e+001
0	 2.200010000009550e+000	 2.533360000018133e+000	 1.315829653678960e+001
0	 2.200010000009551e+000	 2.600030000017851e+000	 1.226152494614624e+001
0	 2.200010000009551e+000	 2.666700000016666e+000	 1.142173129668268e+001
0	 2.266680000012268e+000	 2.000000000000000e+000	 2.278524753934304e+001
0	 2.266680000012267e+000	 2.066670000003317e+000	 2.154224821028740e+001
0	 2.266680000012267e+000	 2.133340000006534e+000	 2.032998294097516e+001
0	 2.266680000012267e+000	 2.200010000009550e+000	 1.915137876308994e+001
0	 2.266680000012267e+000	 2.266680000012267e+000	 1.800936270831526e+001
0	 2.266680000012268e+000	 2.333350000014584e+000	 1.690686180833458e+001
0	 2.266680000012267e+000	 2.400020000016400e+000	 1.584680309483133e+001
0	 2.266680000012267e+000	 2.466690000017617e+000	 1.483211359948881e+001
0	 2.266680000012268e+000	 2.533360000018134e+000	 1.386572035399036e+001
0	 2.266680000012268e+000	 2.600030000017851e+000	 1.295055039001916e+001
0	 2.266680000012268e+000	 2.666700000016667e+000	 1.208953073925838e+001
0	 2.333350000014584e+000	 2.000000000000000e+000	 2.356468649478863e+001
0	 2.333350000014584e+000	 2.066670000003316e+000	 2.229572258670853e+001
0	 2.333350000014585e+000	 2.133340000006534e+000	 2.106131830196771e+001
0	 2.333350000014585e+000	 2.200010000009551e+000	 1.986364705138777e+001
0	 2.333350000014584e+000	 2.266680000012267e+000	 1.870488224579029e+001
0	 2.333350000014584e+000	 2.333350000014584e+000	 1.758719729599680e+001
0	 2.333350000014584e+000	 2.400020000016401e+000	 1.651276561282882e+001
0	 2.333350000014584e+000	 2.466690000017617e+000	 1.548376060710791e+001
0	 2.333350000014585e+000	 2.533360000018134e+000	 1.450235568965553e+001
0	 2.333350000014585e+000	 2.600030000017851e+000	 1.357072427129319e+001
0	 2.333350000014584e+000	 2.666700000016666e+000	 1.269103976284232e+001
0	 2.400020000016401e+000	 2.000000000000000e+000	 2.425888316827577e+001
0	 2.400020000016401e+000	 2.066670000003317e+000	 2.296622320015269e+001
0	 2.400020000016400e+000	 2.133340000006534e+000	 2.171165356421684e+001
0	 2.400020000016401e+000	 2.200010000009550e+000	 2.049669089849665e+001
0	 2.400020000016401e+000	 2.266680000012267e+000	 1.932285184102051e+001
0	 2.400020000016401e+000	 2.333350000014584e+000	 1.819165302981691e+001
0	 2.400020000016401e+000	 2.400020000016400e+000	 1.710461110291431e+001
0	 2.400020000016401e+000	 2.466690000017617e+000	 1.606324269834127e+001
0	 2.400020000016401e+000	 2.533360000018134e+000	 1.506906445412635e+001
0	 2.400020000016402e+000	 2.600030000017852e+000	 1.412359300829805e+001
0	 2.400020000016401e+000	 2.666700000016666e+000	 1.322834499888501e+001
0	 2.466690000017618e+000	 2.000000000000000e+000	 2.485802879099870e+001
0	 2.466690000017618e+000	 2.066670000003317e+000	 2.354578014874459e+001
0	 2.466690000017617e+000	 2.133340000006534e+000	 2.227471339790995e+001
0	 2.466690000017618e+000	 2.200010000009551e+000	 2.104578525179885e+001
0	 2.466690000017618e+000	 2.266680000012268e+000	 1.985995242371543e+001
0	 2.466690000017617e+000	 2.333350000014584e+000	 1.871817162696388e+001
0	 2.466690000017617e+000	 2.400020000016400e+000	 1.762139957484852e+001
0	 2.466690000017618e+000	 2.466690000017618e+000	 1.657059298067366e+001
0	 2.466690000017617e+000	 2.533360000018134e+000	 1.556670855774375e+001
0	 2.466690000017618e+000	 2.600030000017851e+000	 1.461070301936326e+001
0	 2.466690000017618e+000	 2.666700000016666e+000	 1.370353307883676e+001
0	 2.533360000018134e+000	 2.000000000000000e+000	 2.535231459415173e+001
0	 2.533360000018134e+000	 2.066670000003317e+000	 2.402642353060894e+001
0	 2.533360000018134e+000	 2.133340000006534e+000	 2.274422247323441e+001
0	 2.533360000018134e+000	 2.200010000009550e+000	 2.150620505867675e+001
0	 2.533360000018134e+000	 2.266680000012268e+000	 2.031286492358457e+001
0	 2.533360000018135e+000	 2.333350000014585e+000	 1.916469570460670e+001
0	 2.533360000018134e+000	 2.400020000016401e+000	 1.806219103839207e+001
0	 2.533360000018134e+000	 2.466690000017617e+000	 1.700584456158963e+001
0	 2.533360000018134e+000	 2.533360000018134e+000	 1.599614991084856e+001
0	 2.533360000018134e+000	 2.600030000017850e+000	 1.503360072281809e+001
0	 2.533360000018134e+000	 2.666700000016666e+000	 1.411869063414759e+001
0	 2.600030000017851e+000	 2.000000000000000e+000	 2.573193180892916e+001
0	 2.600030000017850e+000	 2.066670000003317e+000	 2.440018344387045e+001
0	 2.600030000017851e+000	 2.133340000006534e+000	 2.311390546037762e+001
0	 2.600030000017851e+000	 2.200010000009550e+000	 2.187322526651254e+001
0	 2.600030000017850e+000	 2.266680000012267e+000	 2.067827027033733e+001
0	 2.600030000017850e+000	 2.333350000014584e+000	 1.952916787991416e+001
0	 2.600030000017851e+000	 2.400020000016400e+000	 1.842604550330541e+001
0	 2.600030000017850e+000	 2.466690000017618e+000	 1.736903054857362e+001
0	 2.600030000017850e+000	 2.533360000018134e+000	 1.635825042378144e+001
0	 2.600030000017851e+000	 2.600030000017851e+000	 1.539383253699168e+001
0	 2.600030000017850e+000	 2.666700000016666e+000	 1.447590429626735e+001
0	 2.666700000016667e+000	 2.000000000000000e+000	 2.598707166652532e+001
0	 2.666700000016667e+000	 2.066670000003317e+000	 2.465908998665385e+001
0	 2.666700000016666e+000	 2.133340000006534e+000	 2.337748702952688e+001
0	 2.666700000016666e+000	 2.200010000009550e+000	 2.214212082268851e+001
0	 2.666700000016667e+000	 2.266680000012268e+000	 2.095284939368304e+001
0	 2.666700000016666e+000	 2.333350000014584e+000	 1.980953077005495e+001
0	 2.666700000016667e+000	 2.400020000016401e+000	 1.871202297934894e+001
0	 2.666700000016666e+000	 2.466690000017618e+000	 1.766018404910987e+001
0	 2.666700000016666e+000	 2.533360000018134e+000	 1.665387200688277e+001
0	 2.666700000016666e+000	 2.600030000017850e+000	 1.569294488021289e+001
0	 2.666700000016667e+000	 2.666700000016667e+000	 1.477726069664565e+001
0	 2.000000000000000e+000	 2.666700000016667e+000	 8.999724140496502e+000
0	 2.000000000000000e+000	 2.733360000014533e+000	 8.331200919301752e+000
0	 2.000000000000000e+000	 2.800020000011600e+000	 7.777407850357803e+000
0	 2.000000000000000e+000	 2.866680000008067e+000	 7.330768577682405e+000
0	 2.000000000000000e+000	 2.933340000004133e+000	 6.983706745292935e+000
0	 2.000000000000000e+000	 3.000000000000000e+000	 6.728645997206308e+000
0	 2.000000000000000e+000	 3.066659999995867e+000	 6.558009977439061e+000
0	 2.000000000000000e+000	 3.133319999991934e+000	 6.464222330007311e+000
0	 2.000000000000000e+000	 3.199979999988400e+000	 6.439706698926814e+000
0	 2.000000000000000e+000	 3.266639999985468e+000	 6.476886728212858e+000
0	 2.000000000000000e+000	 3.333299999983334e+000	 6.568186061880348e+000
0	 2.066670000003317e+000	 2.666700000016667e+000	 9.878914628752836e+000
0	 2.066670000003318e+000	 2.733360000014533e+000	 9.179905536386153e+000
0	 2.066670000003317e+000	 2.800020000011600e+000	 8.592739281294909e+000
0	 2.066670000003316e+000	 2.866680000008066e+000	 8.110484541988940e+000
0	 2.066670000003317e+000	 2.933340000004133e+000	 7.726209996977602e+000
0	 2.066670000003318e+000	 3.000000000000000e+000	 7.432984324769712e+000
0	 2.066670000003317e+000	 3.066659999995867e+000	 7.223876203873532e+000
0	 2.066670000003317e+000	 3.133319999991933e+000	 7.091954312796899e+000
0	 2.066670000003317e+000	 3.199979999988401e+000	 7.030287330047060e+000
0	 2.066670000003317e+000	 3.266639999985467e+000	 7.031943934130770e+000
0	 2.066670000003317e+000	 3.333299999983333e+000	 7.089992803554276e+000
0	 2.133340000006534e+000	 2.666700000016666e+000	 1.068555480366449e+001
0	 2.133340000006534e+000	 2.733360000014533e+000	 9.957724381027132e+000
0	 2.133340000006534e+000	 2.800020000011600e+000	 9.339159073222421e+000
0	 2.133340000006534e+000	 2.866680000008067e+000	 8.823546708490873e+000
0	 2.133340000006534e+000	 2.933340000004133e+000	 8.404575115072362e+000
0	 2.133340000006535e+000	 3.000000000000001e+000	 8.075932121206153e+000
0	 2.133340000006534e+000	 3.066659999995868e+000	 7.831305555130891e+000
0	 2.133340000006534e+000	 3.133319999991934e+000	 7.664383245084572e+000
0	 2.133340000006534e+000	 3.199979999988401e+000	 7.568853019304566e+000
0	 2.133340000006534e+000	 3.266639999985467e+000	 7.538402706027664e+000
0	 2.133340000006534e+000	 3.333299999983334e+000	 7.566720133489993e+000
0	 2.200010000009551e+000	 2.666700000016666e+000	 1.142173129668268e+001
0	 2.200010000009551e+000	 2.733360000014533e+000	 1.066717366465915e+001
0	 2.200010000009551e+000	 2.800020000011601e+000	 1.001953618656335e+001
0	 2.200010000009550e+000	 2.866680000008066e+000	 9.473099955605012e+000
0	 2.200010000009550e+000	 2.933340000004133e+000	 9.022146064993146e+000
0	 2.200010000009551e+000	 3.000000000000000e+000	 8.660955607935978e+000
0	 2.200010000009550e+000	 3.066659999995866e+000	 8.383809677641068e+000
0	 2.200010000009550e+000	 3.133319999991934e+000	 8.184989367315183e+000
0	 2.200010000009551e+000	 3.199979999988400e+000	 8.058775770164409e+000
0	 2.200010000009551e+000	 3.266639999985467e+000	 7.999449979394080e+000
0	 2.200010000009551e+000	 3.333299999983335e+000	 8.001293088208827e+000
0	 2.266680000012268e+000	 2.666700000016667e+000	 1.208953073925838e+001
0	 2.266680000012267e+000	 2.733360000014533e+000	 1.131076959871641e+001
0	 2.266680000012267e+000	 2.800020000011599e+000	 1.063673958174045e+001
0	 2.266680000012267e+000	 2.866680000008067e+000	 1.006228916174799e+001
0	 2.266680000012268e+000	 2.933340000004134e+000	 9.582266812155639e+000
0	 2.266680000012268e+000	 3.000000000000000e+000	 9.191521006379222e+000
0	 2.266680000012268e+000	 3.066659999995868e+000	 8.884900217833744e+000
0	 2.266680000012268e+000	 3.133319999991934e+000	 8.657252919933345e+000
0	 2.266680000012267e+000	 3.199979999988400e+000	 8.503427586091362e+000
0	 2.266680000012268e+000	 3.266639999985468e+000	 8.418272689720306e+000
0	 2.266680000012267e+000	 3.333299999983333e+000	 8.396636704231863e+000
0	 2.333350000014584e+000	 2.666700000016666e+000	 1.269103976284233e+001
0	 2.333350000014584e+000	 2.733360000014533e+000	 1.189102839463295e+001
0	 2.333350000014585e+000	 2.800020000011600e+000	 1.119363821917627e+001
0	 2.333350000014584e+000	 2.866680000008067e+000	 1.059425920533609e+001
0	 2.333350000014585e+000	 2.933340000004134e+000	 1.008828132197523e+001
0	 2.333350000014585e+000	 3.000000000000000e+000	 9.671094537955652e+000
0	 2.333350000014585e+000	 3.066659999995868e+000	 9.338088822138332e+000
0	 2.333350000014584e+000	 3.133319999991934e+000	 9.084654143383396e+000
0	 2.333350000014585e+000	 3.199979999988401e+000	 8.906180470549982e+000
0	 2.333350000014585e+000	 3.266639999985466e+000	 8.798057772496380e+000
0	 2.333350000014584e+000	 3.333299999983333e+000	 8.755676018079919e+000
0	 2.400020000016401e+000	 2.666700000016666e+000	 1.322834499888502e+001
0	 2.400020000016402e+000	 2.733360000014533e+000	 1.241046626384245e+001
0	 2.400020000016401e+000	 2.800020000011600e+000	 1.169310105929304e+001
0	 2.400020000016401e+000	 2.866680000008067e+000	 1.107215496478538e+001
0	 2.400020000016402e+000	 2.933340000004134e+000	 1.054353355986707e+001
0	 2.400020000016401e+000	 2.999999999999999e+000	 1.010314242408474e+001
0	 2.400020000016402e+000	 3.066659999995868e+000	 9.746887136983979e+000
0	 2.400020000016401e+000	 3.133319999991934e+000	 9.470673278109395e+000
0	 2.400020000016401e+000	 3.199979999988401e+000	 9.270406427004573e+000
0	 2.400020000016401e+000	 3.266639999985467e+000	 9.141992163212112e+000
0	 2.400020000016401e+000	 3.333299999983334e+000	 9.081336066273613e+000
0	 2.466690000017618e+000	 2.666700000016666e+000	 1.370353307883676e+001
0	 2.466690000017617e+000	 2.733360000014533e+000	 1.287159941777846e+001
0	 2.466690000017618e+000	 2.800020000011601e+000	 1.213799706251276e+001
0	 2.466690000017618e+000	 2.866680000008067e+000	 1.149912131851164e+001
0	 2.466690000017618e+000	 2.933340000004134e+000	 1.095136749124601e+001
0	 2.466690000017618e+000	 3.000000000000000e+000	 1.049113088618573e+001
0	 2.466690000017617e+000	 3.066659999995866e+000	 1.011480680879955e+001
0	 2.466690000017617e+000	 3.133319999991934e+000	 9.818790564555144e+000
0	 2.466690000017618e+000	 3.199979999988401e+000	 9.599477458919134e+000
0	 2.466690000017618e+000	 3.266639999985467e+000	 9.453262797357043e+000
0	 2.466690000017617e+000	 3.333299999983334e+000	 9.376541885333298e+000
0	 2.533360000018134e+000	 2.666700000016666e+000	 1.411869063414759e+001
0	 2.533360000018134e+000	 2.733360000014533e+000	 1.327694406787420e+001
0	 2.533360000018134e+000	 2.800020000011600e+000	 1.253119518925715e+001
0	 2.533360000018134e+000	 2.866680000008067e+000	 1.187830314493037e+001
0	 2.533360000018134e+000	 2.933340000004133e+000	 1.131512708152663e+001
0	 2.533360000018134e+000	 3.000000000000000e+000	 1.083852614567757e+001
0	 2.533360000018134e+000	 3.066659999995867e+000	 1.044535948401364e+001
0	 2.533360000018134e+000	 3.133319999991934e+000	 1.013248624316420e+001
0	 2.533360000018134e+000	 3.199979999988400e+000	 9.896765569757454e+000
0	 2.533360000018134e+000	 3.266639999985467e+000	 9.735056610420450e+000
0	 2.533360000018134e+000	 3.333299999983334e+000	 9.644218511779100e+000
0	 2.600030000017850e+000	 2.666700000016666e+000	 1.447590429626735e+001
0	 2.600030000017850e+000	 2.733360000014533e+000	 1.362901642556266e+001
0	 2.600030000017850e+000	 2.800020000011599e+000	 1.287556439994771e+001
0	 2.600030000017850e+000	 2.866680000008066e+000	 1.221284532245685e+001
0	 2.600030000017850e+000	 2.933340000004134e+000	 1.163815629612327e+001
0	 2.600030000017851e+000	 3.000000000000000e+000	 1.114879442397892e+001
0	 2.600030000017850e+000	 3.066659999995866e+000	 1.074205680905458e+001
0	 2.600030000017851e+000	 3.133319999991933e+000	 1.041524055437982e+001
0	 2.600030000017850e+000	 3.199979999988400e+000	 1.016564276298303e+001
0	 2.600030000017851e+000	 3.266639999985467e+000	 9.990560537891387e+000
0	 2.600030000017851e+000	 3.333299999983334e+000	 9.887290982130898e+000
0	 2.666700000016667e+000	 2.666700000016667e+000	 1.477726069664565e+001
0	 2.666700000016666e+000	 2.733360000014533e+000	 1.393033270227663e+001
0	 2.666700000016666e+000	 2.800020000011599e+000	 1.317397365500565e+001
0	 2.666700000016667e+000	 2.866680000008067e+000	 1.250589272950607e+001
0	 2.666700000016666e+000	 2.933340000004133e+000	 1.192379910044997e+001
0	 2.666700000016666e+000	 3.000000000000000e+000	 1.142540194250821e+001
0	 2.666700000016666e+000	 3.066659999995867e+000	 1.100841043035042e+001
0	 2.666700000016666e+000	 3.133319999991934e+000	 1.067053373864500e+001
0	 2.666700000016667e+000	 3.199979999988401e+000	 1.040948104205910e+001
0	 2.666700000016666e+000	 3.266639999985468e+000	 1.022296151525865e+001
0	 2.666700000016667e+000	 3.333299999983334e+000	 1.010868433290835e+001
0	 2.000000000000000e+000	 3.333299999983334e+000	 6.568186061880346e+000
0	 2.000000000000000e+000	 3.399969999982150e+000	 6.713696550299070e+000
0	 2.000000000000000e+000	 3.466639999981867e+000	 6.911872328487441e+000
0	 2.000000000000000e+000	 3.533309999982383e+000	 7.152732597736485e+000
0	 2.000000000000000e+000	 3.599979999983600e+000	 7.426296559337616e+000
0	 2.000000000000000e+000	 3.666649999985416e+000	 7.722583414582553e+000
0	 2.000000000000000e+000	 3.733319999987733e+000	 8.031612364763399e+000
0	 2.000000000000000e+000	 3.799989999990449e+000	 8.343402611172587e+000
0	 2.000000000000000e+000	 3.866659999993466e+000	 8.647973355102918e+000
0	 2.000000000000000e+000	 3.933329999996683e+000	 8.935343797847514e+000
0	 2.000000000000000e+000	 4.000000000000001e+000	 9.195533140699862e+000
0	 2.066670000003317e+000	 3.333299999983333e+000	 7.089992803554273e+000
0	 2.066670000003317e+000	 3.399969999982150e+000	 7.201643496316367e+000
0	 2.066670000003317e+000	 3.466639999981866e+000	 7.362650829685793e+000
0	 2.066670000003316e+000	 3.533309999982382e+000	 7.563939145403610e+000
0	 2.066670000003317e+000	 3.599979999983600e+000	 7.796432785211267e+000
0	 2.066670000003317e+000	 3.666649999985415e+000	 8.051056090850514e+000
0	 2.066670000003317e+000	 3.733319999987733e+000	 8.318733404063432e+000
0	 2.066670000003317e+000	 3.799989999990450e+000	 8.590389066592504e+000
0	 2.066670000003317e+000	 3.866659999993466e+000	 8.856947420180493e+000
0	 2.066670000003318e+000	 3.933329999996684e+000	 9.109332806570496e+000
0	 2.066670000003317e+000	 4.000000000000001e+000	 9.338469567506003e+000
0	 2.133340000006534e+000	 3.333299999983334e+000	 7.566720133489990e+000
0	 2.133340000006534e+000	 3.399969999982150e+000	 7.648091242920056e+000
0	 2.133340000006534e+000	 3.466639999981867e+000	 7.775521213695857e+000
0	 2.133340000006534e+000	 3.533309999982382e+000	 7.940801752537928e+000
0	 2.133340000006534e+000	 3.599979999983601e+000	 8.135724566167113e+000
0	 2.133340000006534e+000	 3.666649999985416e+000	 8.352081361304624e+000
0	 2.133340000006534e+000	 3.733319999987733e+000	 8.581663844671956e+000
0	 2.133340000006534e+000	 3.799989999990450e+000	 8.816263722990954e+000
0	 2.133340000006534e+000	 3.866659999993468e+000	 9.047672702983785e+000
0	 2.133340000006534e+000	 3.933329999996684e+000	 9.267682491372973e+000
0	 2.133340000006533e+000	 4.000000000000000e+000	 9.468084794881323e+000
0	 2.200010000009551e+000	 3.333299999983335e+000	 8.001293088208829e+000
0	 2.200010000009551e+000	 3.399969999982150e+000	 8.055673808881274e+000
0	 2.200010000009550e+000	 3.466639999981866e+000	 8.152845165074785e+000
0	 2.200010000009551e+000	 3.533309999982383e+000	 8.285428453018735e+000
0	 2.200010000009550e+000	 3.599979999983600e+000	 8.446044968942831e+000
0	 2.200010000009551e+000	 3.666649999985416e+000	 8.627316009077090e+000
0	 2.200010000009551e+000	 3.733319999987733e+000	 8.821862869651820e+000
0	 2.200010000009551e+000	 3.799989999990451e+000	 9.022306846897688e+000
0	 2.200010000009551e+000	 3.866659999993467e+000	 9.221269237045650e+000
0	 2.200010000009551e+000	 3.933329999996683e+000	 9.411371336326990e+000
0	 2.200010000009551e+000	 4.000000000000000e+000	 9.585234440973284e+000
0	 2.266680000012267e+000	 3.333299999983333e+000	 8.396636704231861e+000
0	 2.266680000012268e+000	 3.399969999982151e+000	 8.427025212970943e+000
0	 2.266680000012267e+000	 3.466639999981866e+000	 8.496984368379504e+000
0	 2.266680000012268e+000	 3.533309999982383e+000	 8.599927280725160e+000
0	 2.266680000012267e+000	 3.599979999983600e+000	 8.729267060275886e+000
0	 2.266680000012268e+000	 3.666649999985417e+000	 8.878416817299899e+000
0	 2.266680000012267e+000	 3.733319999987733e+000	 9.040789662065759e+000
0	 2.266680000012268e+000	 3.799989999990450e+000	 9.209798704842328e+000
0	 2.266680000012268e+000	 3.866659999993466e+000	 9.378857055898749e+000
0	 2.266680000012268e+000	 3.933329999996684e+000	 9.541377825504473e+000
0	 2.266680000012268e+000	 4.000000000000001e+000	 9.690774123929288e+000
0	 2.333350000014584e+000	 3.333299999983333e+000	 8.755676018079917e+000
0	 2.333350000014584e+000	 3.399969999982150e+000	 8.764779473959756e+000
0	 2.333350000014585e+000	 3.466639999981867e+000	 8.810300508166728e+000
0	 2.333350000014585e+000	 3.533309999982384e+000	 8.886406269536131e+000
0	 2.333350000014584e+000	 3.599979999983600e+000	 8.987263906903577e+000
0	 2.333350000014584e+000	 3.666649999985416e+000	 9.107040569104928e+000
0	 2.333350000014585e+000	 3.733319999987733e+000	 9.239903404976372e+000
0	 2.333350000014584e+000	 3.799989999990450e+000	 9.380019563354360e+000
0	 2.333350000014585e+000	 3.866659999993466e+000	 9.521556193075666e+000
0	 2.333350000014585e+000	 3.933329999996684e+000	 9.658680442977317e+000
0	 2.333350000014584e+000	 3.999999999999999e+000	 9.785559461896643e+000
0	 2.400020000016401e+000	 3.333299999983334e+000	 9.081336066273613e+000
0	 2.400020000016401e+000	 3.399969999982150e+000	 9.071570610618192e+000
0	 2.400020000016401e+000	 3.466639999981866e+000	 9.095155268992988e+000
0	 2.400020000016401e+000	 3.533309999982383e+000	 9.146973453330384e+000
0	 2.400020000016401e+000	 3.599979999983600e+000	 9.221908575563038e+000
0	 2.400020000016401e+000	 3.666649999985416e+000	 9.314844047623858e+000
0	 2.400020000016401e+000	 3.733319999987733e+000	 9.420663281446080e+000
0	 2.400020000016401e+000	 3.799989999990449e+000	 9.534249688963174e+000
0	 2.400020000016401e+000	 3.866659999993466e+000	 9.650486682108895e+000
0	 2.400020000016401e+000	 3.933329999996684e+000	 9.764257672817255e+000
0	 2.400020000016401e+000	 4.000000000000000e+000	 9.870446073022597e+000
0	 2.466690000017617e+000	 3.333299999983334e+000	 9.376541885333296e+000
0	 2.466690000017618e+000	 3.399969999982150e+000	 9.350032641716489e+000
0	 2.466690000017618e+000	 3.466639999981867e+000	 9.353910335414584e+000
0	 2.466690000017617e+000	 3.533309999982382e+000	 9.383736865986450e+000
0	 2.466690000017618e+000	 3.599979999983600e+000	 9.435074132991209e+000
0	 2.466690000017617e+000	 3.666649999985417e+000	 9.503484035988238e+000
0	 2.466690000017617e+000	 3.733319999987733e+000	 9.584528474537200e+000
0	 2.466690000017617e+000	 3.799989999990450e+000	 9.673769348197986e+000
0	 2.466690000017618e+000	 3.866659999993467e+000	 9.766768556530780e+000
0	 2.466690000017618e+000	 3.933329999996684e+000	 9.859087999095994e+000
0	 2.466690000017617e+000	 4.000000000000000e+000	 9.946289575454301e+000
0	 2.533360000018134e+000	 3.333299999983334e+000	 9.644218511779100e+000
0	 2.533360000018134e+000	 3.399969999982150e+000	 9.602799586024666e+000
0	 2.533360000018134e+000	 3.466639999981866e+000	 9.588927391987609e+000
0	 2.533360000018134e+000	 3.533309999982383e+000	 9.598804541382666e+000
0	 2.533360000018134e+000	 3.599979999983600e+000	 9.628633645924857e+000
0	 2.533360000018134e+000	 3.666649999985416e+000	 9.674617317329439e+000
0	 2.533360000018134e+000	 3.733319999987733e+000	 9.732958167311884e+000
0	 2.533360000018134e+000	 3.799989999990449e+000	 9.799858807587940e+000
0	 2.533360000018134e+000	 3.866659999993467e+000	 9.871521849873593e+000
0	 2.533360000018134e+000	 3.933329999996683e+000	 9.944149905885073e+000
0	 2.533360000018134e+000	 4.000000000000000e+000	 1.001394558733883e+001
0	 2.600030000017851e+000	 3.333299999983334e+000	 9.887290982130899e+000
0	 2.600030000017851e+000	 3.399969999982150e+000	 9.832505462312531e+000
0	 2.600030000017849e+000	 3.466639999981866e+000	 9.802568123267935e+000
0	 2.600030000017850e+000	 3.533309999982382e+000	 9.794284513397185e+000
0	 2.600030000017851e+000	 3.599979999983600e+000	 9.804460181100589e+000
0	 2.600030000017851e+000	 3.666649999985416e+000	 9.829900674778649e+000
0	 2.600030000017850e+000	 3.733319999987733e+000	 9.867411542832127e+000
0	 2.600030000017851e+000	 3.799989999990450e+000	 9.913798333661996e+000
0	 2.600030000017850e+000	 3.866659999993465e+000	 9.965866595669471e+000
0	 2.600030000017850e+000	 3.933329999996684e+000	 1.002042187725599e+001
0	 2.600030000017850e+000	 4.000000000000000e+000	 1.007426972682321e+001
0	 2.666700000016667e+000	 3.333299999983334e+000	 1.010868433290835e+001
0	 2.666700000016666e+000	 3.399969999982150e+000	 1.004178428934963e+001
0	 2.666700000016666e+000	 3.466639999981867e+000	 9.997194213811239e+000
0	 2.666700000016666e+000	 3.533309999982383e+000	 9.972284815907965e+000
0	 2.666700000016666e+000	 3.599979999983599e+000	 9.964426805254796e+000
0	 2.666700000016666e+000	 3.666649999985416e+000	 9.970990891466935e+000
0	 2.666700000016667e+000	 3.733319999987733e+000	 9.989347784159808e+000
0	 2.666700000016667e+000	 3.799989999990450e+000	 1.001686819294903e+001
0	 2.666700000016666e+000	 3.866659999993467e+000	 1.005092282745046e+001
0	 2.666700000016666e+000	 3.933329999996684e+000	 1.008888239728014e+001
0	 2.666700000016666e+000	 4.000000000000001e+000	 1.012811761205433e+001
0	 2.000000000000000e+000	 4.000000000000001e+000	 9.195533140699862e+000
0	 2.000000000000000e+000	 4.066670000003318e+000	 9.410052185258769e+000
0	 2.000000000000000e+000	 4.133340000006533e+000	 9.571833936435858e+000
0	 2.000000000000000e+000	 4.200010000009550e+000	 9.688030900494184e+000
0	 2.000000000000000e+000	 4.266680000012268e+000	 9.765795583696958e+000
0	 2.000000000000000e+000	 4.333350000014584e+000	 9.812280492307535e+000
0	 2.000000000000000e+000	 4.400020000016401e+000	 9.834638132589411e+000
0	 2.000000000000000e+000	 4.466690000017617e+000	 9.840021010806220e+000
0	 2.000000000000000e+000	 4.533360000018134e+000	 9.835581633221748e+000
0	 2.000000000000000e+000	 4.600030000017851e+000	 9.828472506099933e+000
0	 2.000000000000000e+000	 4.666700000016665e+000	 9.825846135704822e+000
0	 2.066670000003317e+000	 4.000000000000001e+000	 9.338469567506003e+000
0	 2.066670000003318e+000	 4.066670000003317e+000	 9.526695923180776e+000
0	 2.066670000003316e+000	 4.133340000006534e+000	 9.666837289902773e+000
0	 2.066670000003317e+000	 4.200010000009550e+000	 9.765548803587054e+000
0	 2.066670000003317e+000	 4.266680000012267e+000	 9.829485600148834e+000
0	 2.066670000003317e+000	 4.333350000014584e+000	 9.865302815503485e+000
0	 2.066670000003318e+000	 4.400020000016401e+000	 9.879655585566477e+000
0	 2.066670000003317e+000	 4.466690000017618e+000	 9.879199046253444e+000
0	 2.066670000003317e+000	 4.533360000018134e+000	 9.870588333480148e+000
0	 2.066670000003318e+000	 4.600030000017852e+000	 9.860478583162488e+000
0	 2.066670000003317e+000	 4.666700000016667e+000	 9.855524931216497e+000
0	 2.133340000006533e+000	 4.000000000000000e+000	 9.468084794881325e+000
0	 2.133340000006534e+000	 4.066670000003317e+000	 9.632072586038794e+000
0	 2.133340000006534e+000	 4.133340000006534e+000	 9.752422333800233e+000
0	 2.133340000006534e+000	 4.200010000009550e+000	 9.835300989526125e+000
0	 2.133340000006534e+000	 4.266680000012269e+000	 9.886875504577093e+000
0	 2.133340000006534e+000	 4.333350000014584e+000	 9.913312830313913e+000
0	 2.133340000006534e+000	 4.400020000016402e+000	 9.920779918097448e+000
0	 2.133340000006534e+000	 4.466690000017618e+000	 9.915443719288726e+000
0	 2.133340000006534e+000	 4.533360000018134e+000	 9.903471185248888e+000
0	 2.133340000006534e+000	 4.600030000017850e+000	 9.891029267339217e+000
0	 2.133340000006534e+000	 4.666700000016666e+000	 9.884284916921112e+000
0	 2.200010000009551e+000	 4.000000000000000e+000	 9.585234440973284e+000
0	 2.200010000009551e+000	 4.066670000003318e+000	 9.726926799774100e+000
0	 2.200010000009550e+000	 4.133340000006534e+000	 9.829227765763942e+000
0	 2.200010000009551e+000	 4.200010000009551e+000	 9.897825291542089e+000
0	 2.200010000009551e+000	 4.266680000012268e+000	 9.938407329707989e+000
0	 2.200010000009551e+000	 4.333350000014583e+000	 9.956661832861217e+000
0	 2.200010000009550e+000	 4.400020000016401e+000	 9.958276753601444e+000
0	 2.200010000009551e+000	 4.466690000017618e+000	 9.948940044528488e+000
0	 2.200010000009550e+000	 4.533360000018135e+000	 9.934339658242259e+000
0	 2.200010000009550e+000	 4.600030000017850e+000	 9.920163547342833e+000
0	 2.200010000009551e+000	 4.666700000016667e+000	 9.912099664430382e+000
0	 2.266680000012268e+000	 4.000000000000001e+000	 9.690774123929288e+000
0	 2.266680000012268e+000	 4.066670000003317e+000	 9.812003190327941e+000
0	 2.266680000012268e+000	 4.133340000006534e+000	 9.897892283429524e+000
0	 2.266680000012267e+000	 4.200010000009550e+000	 9.953659542865568e+000
0	 2.266680000012267e+000	 4.266680000012268e+000	 9.984523108267723e+000
0	 2.266680000012267e+000	 4.333350000014583e+000	 9.995701119267759e+000
0	 2.266680000012267e+000	 4.400020000016401e+000	 9.992411715497548e+000
0	 2.266680000012267e+000	 4.466690000017616e+000	 9.979873036589101e+000
0	 2.266680000012267e+000	 4.533360000018134e+000	 9.963303222174519e+000
0	 2.266680000012268e+000	 4.600030000017852e+000	 9.947920411886038e+000
0	 2.266680000012268e+000	 4.666700000016667e+000	 9.938942745356004e+000
0	 2.333350000014584e+000	 3.999999999999999e+000	 9.785559461896643e+000
0	 2.333350000014584e+000	 4.066670000003318e+000	 9.888046383641454e+000
0	 2.333350000014585e+000	 4.133340000006535e+000	 9.959054584432577e+000
0	 2.333350000014585e+000	 4.200010000009550e+000	 1.000334157672718e+001
0	 2.333350000014584e+000	 4.266680000012268e+000	 1.002566487298249e+001
0	 2.333350000014584e+000	 4.333350000014584e+000	 1.003078198565589e+001
0	 2.333350000014584e+000	 4.400020000016402e+000	 1.002345042720486e+001
0	 2.333350000014585e+000	 4.466690000017618e+000	 1.000842771008697e+001
0	 2.333350000014585e+000	 4.533360000018135e+000	 9.990471346759932e+000
0	 2.333350000014585e+000	 4.600030000017850e+000	 9.974338849681535e+000
0	 2.333350000014584e+000	 4.666700000016666e+000	 9.964787731309690e+000
0	 2.400020000016401e+000	 4.000000000000000e+000	 9.870446073022597e+000
0	 2.400020000016401e+000	 4.066670000003317e+000	 9.955801005655754e+000
0	 2.400020000016401e+000	 4.133340000006534e+000	 1.001335336640865e+001
0	 2.400020000016401e+000	 4.200010000009550e+000	 1.004740922635745e+001
0	 2.400020000016401e+000	 4.266680000012268e+000	 1.006227465657842e+001
0	 2.400020000016402e+000	 4.333350000014583e+000	 1.006225572814792e+001
0	 2.400020000016401e+000	 4.400020000016401e+000	 1.005165851214241e+001
0	 2.400020000016401e+000	 4.466690000017616e+000	 1.003478907963846e+001
0	 2.400020000016400e+000	 4.533360000018133e+000	 1.001595350171275e+001
0	 2.400020000016401e+000	 4.600030000017851e+000	 9.999457849442010e+000
0	 2.400020000016401e+000	 4.666700000016665e+000	 9.989608193903134e+000
0	 2.466690000017617e+000	 4.000000000000000e+000	 9.946289575454301e+000
0	 2.466690000017618e+000	 4.066670000003317e+000	 1.001601168231186e+001
0	 2.466690000017618e+000	 4.133340000006535e+000	 1.006142732699320e+001
0	 2.466690000017618e+000	 4.200010000009550e+000	 1.008640032498690e+001
0	 2.466690000017618e+000	 4.266680000012268e+000	 1.009479449178163e+001
0	 2.466690000017618e+000	 4.333350000014583e+000	 1.009047364286613e+001
0	 2.466690000017617e+000	 4.400020000016402e+000	 1.007730159372925e+001
0	 2.466690000017617e+000	 4.466690000017618e+000	 1.005914215985992e+001
0	 2.466690000017617e+000	 4.533360000018133e+000	 1.003985915674720e+001
0	 2.466690000017617e+000	 4.600030000017849e+000	 1.002331639988015e+001
0	 2.466690000017617e+000	 4.666700000016666e+000	 1.001337770474805e+001
0	 2.533360000018134e+000	 4.000000000000000e+000	 1.001394558733884e+001
0	 2.533360000018134e+000	 4.066670000003318e+000	 1.006942303955073e+001
0	 2.533360000018134e+000	 4.133340000006535e+000	 1.010391516382166e+001
0	 2.533360000018134e+000	 4.200010000009550e+000	 1.012085270584600e+001
0	 2.533360000018135e+000	 4.266680000012268e+000	 1.012366641131820e+001
0	 2.533360000018134e+000	 4.333350000014584e+000	 1.011578702593279e+001
0	 2.533360000018134e+000	 4.400020000016402e+000	 1.010064529538439e+001
0	 2.533360000018134e+000	 4.466690000017617e+000	 1.008167196536770e+001
0	 2.533360000018134e+000	 4.533360000018135e+000	 1.006229778157750e+001
0	 2.533360000018134e+000	 4.600030000017849e+000	 1.004595348970866e+001
0	 2.533360000018134e+000	 4.666700000016666e+000	 1.003606983545613e+001
0	 2.600030000017850e+000	 4.000000000000000e+000	 1.007426972682321e+001
0	 2.600030000017850e+000	 4.066670000003316e+000	 1.011677970331326e+001
0	 2.600030000017851e+000	 4.133340000006535e+000	 1.014145557452939e+001
0	 2.600030000017851e+000	 4.200010000009550e+000	 1.015130420216516e+001
0	 2.600030000017851e+000	 4.266680000012268e+000	 1.014933244791417e+001
0	 2.600030000017851e+000	 4.333350000014584e+000	 1.013854717347014e+001
0	 2.600030000017850e+000	 4.400020000016400e+000	 1.012195524052684e+001
0	 2.600030000017850e+000	 4.466690000017617e+000	 1.010256351077811e+001
0	 2.600030000017850e+000	 4.533360000018132e+000	 1.008337884591790e+001
0	 2.600030000017851e+000	 4.600030000017849e+000	 1.006740810764019e+001
0	 2.600030000017851e+000	 4.666700000016666e+000	 1.005765815763907e+001
0	 2.666700000016666e+000	 4.000000000000001e+000	 1.012811761205433e+001
0	 2.666700000016667e+000	 4.066670000003317e+000	 1.015882629954030e+001
0	 2.666700000016666e+000	 4.133340000006535e+000	 1.017468725675173e+001
0	 2.666700000016666e+000	 4.200010000009551e+000	 1.017829264717475e+001
0	 2.666700000016667e+000	 4.266680000012267e+000	 1.017223463429555e+001
0	 2.666700000016667e+000	 4.333350000014584e+000	 1.015910538160038e+001
0	 2.666700000016666e+000	 4.400020000016401e+000	 1.014149705257555e+001
0	 2.666700000016667e+000	 4.466690000017619e+000	 1.012200181070747e+001
0	 2.666700000016666e+000	 4.533360000018133e+000	 1.010321181948259e+001
0	 2.666700000016666e+000	 4.600030000017851e+000	 1.008771924238742e+001
0	 2.666700000016666e+000	 4.666700000016666e+000	 1.007811624290857e+001
0	 2.000000000000000e+000	 4.666700000016665e+000	 9.825846135704826e+000
0	 2.000000000000000e+000	 4.733360000014533e+000	 9.826767713524804e+000
0	 2.000000000000000e+000	 4.800020000011601e+000	 9.825877593877815e+000
0	 2.000000000000000e+000	 4.866680000008067e+000	 9.823690127687833e+000
0	 2.000000000000000e+000	 4.933340000004134e+000	 9.820719665878784e+000
0	 2.000000000000000e+000	 5.000000000000001e+000	 9.817480559374587e+000
0	 2.000000000000000e+000	 5.066659999995866e+000	 9.814487159099077e+000
0	 2.000000000000000e+000	 5.133319999991934e+000	 9.812253815976103e+000
0	 2.000000000000000e+000	 5.199979999988400e+000	 9.811294880929445e+000
0	 2.000000000000000e+000	 5.266639999985468e+000	 9.812124704882864e+000
0	 2.000000000000000e+000	 5.333299999983333e+000	 9.815257638760084e+000
0	 2.066670000003317e+000	 4.666700000016667e+000	 9.855524931216499e+000
0	 2.066670000003317e+000	 4.733360000014534e+000	 9.854590927945548e+000
0	 2.066670000003316e+000	 4.800020000011599e+000	 9.852375516677700e+000
0	 2.066670000003317e+000	 4.866680000008067e+000	 9.849286993613495e+000
0	 2.066670000003317e+000	 4.933340000004134e+000	 9.845733654953421e+000
0	 2.066670000003318e+000	 5.000000000000000e+000	 9.842123796897935e+000
0	 2.066670000003317e+000	 5.066659999995868e+000	 9.838865715647474e+000
0	 2.066670000003317e+000	 5.133319999991933e+000	 9.836367707402442e+000
0	 2.066670000003316e+000	 5.199979999988400e+000	 9.835038068363202e+000
0	 2.066670000003317e+000	 5.266639999985467e+000	 9.835285094730095e+000
0	 2.066670000003317e+000	 5.333299999983333e+000	 9.837517082703426e+000
0	 2.133340000006534e+000	 4.666700000016666e+000	 9.884284916921116e+000
0	 2.133340000006534e+000	 4.733360000014533e+000	 9.881917332399159e+000
0	 2.133340000006533e+000	 4.800020000011598e+000	 9.878701152122229e+000
0	 2.133340000006534e+000	 4.866680000008067e+000	 9.874947315289175e+000
0	 2.133340000006534e+000	 4.933340000004134e+000	 9.870966761098837e+000
0	 2.133340000006534e+000	 5.000000000000002e+000	 9.867070428750017e+000
0	 2.133340000006534e+000	 5.066659999995867e+000	 9.863569257441478e+000
0	 2.133340000006534e+000	 5.133319999991935e+000	 9.860774186371986e+000
0	 2.133340000006534e+000	 5.199979999988400e+000	 9.858996154740268e+000
0	 2.133340000006534e+000	 5.266639999985467e+000	 9.858546101745001e+000
0	 2.133340000006533e+000	 5.333299999983334e+000	 9.859734966584881e+000
0	 2.200010000009551e+000	 4.666700000016667e+000	 9.912099664430382e+000
0	 2.200010000009551e+000	 4.733360000014534e+000	 9.908663080931689e+000
0	 2.200010000009551e+000	 4.800020000011601e+000	 9.904724152997302e+000
0	 2.200010000009550e+000	 4.866680000008064e+000	 9.900505160546159e+000
0	 2.200010000009550e+000	 4.933340000004133e+000	 9.896228383497206e+000
0	 2.200010000009551e+000	 5.000000000000002e+000	 9.892116101769366e+000
0	 2.200010000009550e+000	 5.066659999995866e+000	 9.888390595281543e+000
0	 2.200010000009551e+000	 5.133319999991936e+000	 9.885274143952595e+000
0	 2.200010000009551e+000	 5.199979999988402e+000	 9.882989027701406e+000
0	 2.200010000009550e+000	 5.266639999985466e+000	 9.881757526446796e+000
0	 2.200010000009551e+000	 5.333299999983335e+000	 9.881801920107584e+000
0	 2.266680000012268e+000	 4.666700000016667e+000	 9.938942745356005e+000
0	 2.266680000012268e+000	 4.733360000014534e+000	 9.934744327589202e+000
0	 2.266680000012267e+000	 4.800020000011600e+000	 9.930314172088819e+000
0	 2.266680000012268e+000	 4.866680000008068e+000	 9.925794597215697e+000
0	 2.266680000012268e+000	 4.933340000004133e+000	 9.921327921330656e+000
0	 2.266680000012267e+000	 4.999999999999999e+000	 9.917056462794520e+000
0	 2.266680000012268e+000	 5.066659999995868e+000	 9.913122539968079e+000
0	 2.266680000012267e+000	 5.133319999991935e+000	 9.909668471212111e+000
0	 2.266680000012268e+000	 5.199979999988401e+000	 9.906836574887400e+000
0	 2.266680000012268e+000	 5.266639999985469e+000	 9.904769169354669e+000
0	 2.266680000012268e+000	 5.333299999983335e+000	 9.903608572974681e+000
0	 2.333350000014584e+000	 4.666700000016666e+000	 9.964787731309690e+000
0	 2.333350000014584e+000	 4.733360000014534e+000	 9.960077226417729e+000
0	 2.333350000014585e+000	 4.800020000011601e+000	 9.955340862182689e+000
0	 2.333350000014584e+000	 4.866680000008066e+000	 9.950649693129062e+000
0	 2.333350000014585e+000	 4.933340000004134e+000	 9.946074773781342e+000
0	 2.333350000014584e+000	 4.999999999999999e+000	 9.941687158664001e+000
0	 2.333350000014584e+000	 5.066659999995866e+000	 9.937557902301526e+000
0	 2.333350000014585e+000	 5.133319999991935e+000	 9.933758059218384e+000
0	 2.333350000014584e+000	 5.199979999988400e+000	 9.930358683939002e+000
0	 2.333350000014585e+000	 5.266639999985466e+000	 9.927430830987838e+000
0	 2.333350000014583e+000	 5.333299999983333e+000	 9.925045554889319e+000
0	 2.400020000016401e+000	 4.666700000016665e+000	 9.989608193903134e+000
0	 2.400020000016401e+000	 4.733360000014533e+000	 9.984577931463333e+000
0	 2.400020000016401e+000	 4.800020000011599e+000	 9.979673876064823e+000
0	 2.400020000016401e+000	 4.866680000008067e+000	 9.974904516117535e+000
0	 2.400020000016401e+000	 4.933340000004132e+000	 9.970278340031403e+000
0	 2.400020000016401e+000	 5.000000000000000e+000	 9.965803836216372e+000
0	 2.400020000016402e+000	 5.066659999995868e+000	 9.961489493082347e+000
0	 2.400020000016401e+000	 5.133319999991934e+000	 9.957343799039258e+000
0	 2.400020000016401e+000	 5.199979999988400e+000	 9.953375242497003e+000
0	 2.400020000016402e+000	 5.266639999985467e+000	 9.949592311865505e+000
0	 2.400020000016401e+000	 5.333299999983335e+000	 9.946003495554653e+000
0	 2.466690000017617e+000	 4.666700000016666e+000	 1.001337770474805e+001
0	 2.466690000017617e+000	 4.733360000014532e+000	 1.000816259677206e+001
0	 2.466690000017617e+000	 4.800020000011599e+000	 1.000318286652112e+001
0	 2.466690000017618e+000	 4.866680000008068e+000	 9.998393134012389e+000
0	 2.466690000017617e+000	 4.933340000004134e+000	 9.993748019263020e+000
0	 2.466690000017618e+000	 5.000000000000000e+000	 9.989202142290161e+000
0	 2.466690000017618e+000	 5.066659999995866e+000	 9.984710123110974e+000
0	 2.466690000017618e+000	 5.133319999991934e+000	 9.980226581742588e+000
0	 2.466690000017618e+000	 5.199979999988400e+000	 9.975706138202174e+000
0	 2.466690000017618e+000	 5.266639999985469e+000	 9.971103412506880e+000
0	 2.466690000017618e+000	 5.333299999983335e+000	 9.966373024673841e+000
0	 2.533360000018134e+000	 4.666700000016666e+000	 1.003606983545613e+001
0	 2.533360000018134e+000	 4.733360000014534e+000	 1.003074737638995e+001
0	 2.533360000018134e+000	 4.800020000011600e+000	 1.002573748633750e+001
0	 2.533360000018134e+000	 4.866680000008065e+000	 1.002094961464490e+001
0	 2.533360000018133e+000	 4.933340000004133e+000	 1.001629321065833e+001
0	 2.533360000018134e+000	 5.000000000000000e+000	 1.001167772372393e+001
0	 2.533360000018134e+000	 5.066659999995868e+000	 1.000701260318785e+001
0	 2.533360000018134e+000	 5.133319999991934e+000	 1.000220729839626e+001
0	 2.533360000018134e+000	 5.199979999988400e+000	 9.997171258695310e+000
0	 2.533360000018134e+000	 5.266639999985468e+000	 9.991813933431182e+000
0	 2.533360000018134e+000	 5.333299999983333e+000	 9.986044771950027e+000
0	 2.600030000017851e+000	 4.666700000016666e+000	 1.005765815763907e+001
0	 2.600030000017851e+000	 4.733360000014534e+000	 1.005224842436307e+001
0	 2.600030000017850e+000	 4.800020000011600e+000	 1.004720738829986e+001
0	 2.600030000017851e+000	 4.866680000008067e+000	 1.004240802584636e+001
0	 2.600030000017851e+000	 4.933340000004134e+000	 1.003772331339951e+001
0	 2.600030000017851e+000	 5.000000000000000e+000	 1.003302622735622e+001
0	 2.600030000017850e+000	 5.066659999995866e+000	 1.002818974411344e+001
0	 2.600030000017850e+000	 5.133319999991935e+000	 1.002308684006812e+001
0	 2.600030000017850e+000	 5.199979999988400e+000	 1.001759049161719e+001
0	 2.600030000017851e+000	 5.266639999985468e+000	 1.001157367515763e+001
0	 2.600030000017851e+000	 5.333299999983334e+000	 1.000490936708638e+001
0	 2.666700000016666e+000	 4.666700000016666e+000	 1.007811624290857e+001
0	 2.666700000016666e+000	 4.733360000014533e+000	 1.007258189473745e+001
0	 2.666700000016666e+000	 4.800020000011600e+000	 1.006746222519413e+001
0	 2.666700000016667e+000	 4.866680000008069e+000	 1.006260243544806e+001
0	 2.666700000016666e+000	 4.933340000004133e+000	 1.005784772666871e+001
0	 2.666700000016666e+000	 5.000000000000001e+000	 1.005304330002560e+001
0	 2.666700000016667e+000	 5.066659999995868e+000	 1.004803435668820e+001
0	 2.666700000016666e+000	 5.133319999991934e+000	 1.004266609782602e+001
0	 2.666700000016667e+000	 5.199979999988402e+000	 1.003678372460860e+001
0	 2.666700000016667e+000	 5.266639999985468e+000	 1.003023243820543e+001
0	 2.666700000016666e+000	 5.333299999983335e+000	 1.002285743978605e+001
0	 2.000000000000000e+000	 5.333299999983333e+000	 9.815257638760084e+000
0	 2.000000000000000e+000	 5.399969999982149e+000	 9.819834387199913e+000
0	 2.000000000000000e+000	 5.466639999981868e+000	 9.824566239480889e+000
0	 2.000000000000000e+000	 5.533309999982383e+000	 9.829325428859361e+000
0	 2.000000000000000e+000	 5.599979999983600e+000	 9.833984188591719e+000
0	 2.000000000000000e+000	 5.666649999985416e+000	 9.838414751934320e+000
0	 2.000000000000000e+000	 5.733319999987732e+000	 9.842489352143510e+000
0	 2.000000000000000e+000	 5.799989999990449e+000	 9.846080222475658e+000
0	 1.999999999999999e+000	 5.866659999993466e+000	 9.849059596187114e+000
0	 2.000000000000000e+000	 5.933329999996682e+000	 9.851299706534228e+000
0	 2.000000000000000e+000	 6.000000000000000e+000	 9.852672786773312e+000
0	 2.066670000003317e+000	 5.333299999983333e+000	 9.837517082703425e+000
0	 2.066670000003317e+000	 5.399969999982150e+000	 9.840985018692143e+000
0	 2.066670000003317e+000	 5.466639999981866e+000	 9.844596364769688e+000
0	 2.066670000003317e+000	 5.533309999982385e+000	 9.848245643039643e+000
0	 2.066670000003317e+000	 5.599979999983599e+000	 9.851827375605611e+000
0	 2.066670000003317e+000	 5.666649999985414e+000	 9.855236084571168e+000
0	 2.066670000003317e+000	 5.733319999987733e+000	 9.858366292039936e+000
0	 2.066670000003317e+000	 5.799989999990450e+000	 9.861112520115460e+000
0	 2.066670000003317e+000	 5.866659999993467e+000	 9.863369290901346e+000
0	 2.066670000003317e+000	 5.933329999996684e+000	 9.865031126501153e+000
0	 2.066670000003317e+000	 5.999999999999999e+000	 9.865992549018481e+000
0	 2.133340000006533e+000	 5.333299999983334e+000	 9.859734966584881e+000
0	 2.133340000006534e+000	 5.399969999982150e+000	 9.861956671011043e+000
0	 2.133340000006534e+000	 5.466639999981865e+000	 9.864341102731776e+000
0	 2.133340000006534e+000	 5.533309999982383e+000	 9.866804100363064e+000
0	 2.133340000006534e+000	 5.599979999983600e+000	 9.869261502520825e+000
0	 2.133340000006534e+000	 5.666649999985418e+000	 9.871629147821029e+000
0	 2.133340000006534e+000	 5.733319999987733e+000	 9.873822874879616e+000
0	 2.133340000006534e+000	 5.799989999990448e+000	 9.875758522312546e+000
0	 2.133340000006534e+000	 5.866659999993466e+000	 9.877351928735758e+000
0	 2.133340000006534e+000	 5.933329999996684e+000	 9.878518932765205e+000
0	 2.133340000006533e+000	 5.999999999999998e+000	 9.879175373016819e+000
0	 2.200010000009551e+000	 5.333299999983335e+000	 9.881801920107582e+000
0	 2.200010000009551e+000	 5.399969999982152e+000	 9.882682668107858e+000
0	 2.200010000009551e+000	 5.466639999981866e+000	 9.883769271501810e+000
0	 2.200010000009551e+000	 5.533309999982383e+000	 9.884997913082888e+000
0	 2.200010000009550e+000	 5.599979999983599e+000	 9.886304775644540e+000
0	 2.200010000009551e+000	 5.666649999985415e+000	 9.887626041980203e+000
0	 2.200010000009550e+000	 5.733319999987733e+000	 9.888897894883332e+000
0	 2.200010000009551e+000	 5.799989999990449e+000	 9.890056517147366e+000
0	 2.200010000009550e+000	 5.866659999993466e+000	 9.891038091565758e+000
0	 2.200010000009551e+000	 5.933329999996686e+000	 9.891778800931951e+000
0	 2.200010000009551e+000	 6.000000000000000e+000	 9.892214828039387e+000
0	 2.266680000012268e+000	 5.333299999983335e+000	 9.903608572974681e+000
0	 2.266680000012268e+000	 5.399969999982151e+000	 9.903096333933865e+000
0	 2.266680000012268e+000	 5.466639999981866e+000	 9.902849689214420e+000
0	 2.266680000012268e+000	 5.533309999982383e+000	 9.902824193452426e+000
0	 2.266680000012267e+000	 5.599979999983599e+000	 9.902975401283944e+000
0	 2.266680000012268e+000	 5.666649999985416e+000	 9.903258867345057e+000
0	 2.266680000012267e+000	 5.733319999987733e+000	 9.903630146271846e+000
0	 2.266680000012268e+000	 5.799989999990450e+000	 9.904044792700368e+000
0	 2.266680000012267e+000	 5.866659999993466e+000	 9.904458361266736e+000
0	 2.266680000012268e+000	 5.933329999996684e+000	 9.904826406607000e+000
0	 2.266680000012268e+000	 6.000000000000000e+000	 9.905104483357251e+000
0	 2.333350000014583e+000	 5.333299999983333e+000	 9.925045554889321e+000
0	 2.333350000014585e+000	 5.399969999982150e+000	 9.923130992440326e+000
0	 2.333350000014584e+000	 5.466639999981866e+000	 9.921551174004259e+000
0	 2.333350000014584e+000	 5.533309999982384e+000	 9.920280053724953e+000
0	 2.333350000014584e+000	 5.599979999983599e+000	 9.919291585746233e+000
0	 2.333350000014584e+000	 5.666649999985417e+000	 9.918559724211939e+000
0	 2.333350000014584e+000	 5.733319999987733e+000	 9.918058423265917e+000
0	 2.333350000014584e+000	 5.799989999990448e+000	 9.917761637052006e+000
0	 2.333350000014585e+000	 5.866659999993468e+000	 9.917643319714058e+000
0	 2.333350000014585e+000	 5.933329999996683e+000	 9.917677425395926e+000
0	 2.333350000014584e+000	 6.000000000000000e+000	 9.917837908241465e+000
0	 2.400020000016401e+000	 5.333299999983335e+000	 9.946003495554653e+000
0	 2.400020000016401e+000	 5.399969999982150e+000	 9.942719967578526e+000
0	 2.400020000016401e+000	 5.466639999981866e+000	 9.939842544005984e+000
0	 2.400020000016401e+000	 5.533309999982383e+000	 9.937362606153764e+000
0	 2.400020000016401e+000	 5.599979999983598e+000	 9.935271535338583e+000
0	 2.400020000016401e+000	 5.666649999985414e+000	 9.933560712877181e+000
0	 2.400020000016401e+000	 5.733319999987733e+000	 9.932221520086319e+000
0	 2.400020000016401e+000	 5.799989999990450e+000	 9.931245338282722e+000
0	 2.400020000016401e+000	 5.866659999993468e+000	 9.930623548783146e+000
0	 2.400020000016401e+000	 5.933329999996683e+000	 9.930347532904349e+000
0	 2.400020000016401e+000	 6.000000000000000e+000	 9.930408671963097e+000
0	 2.466690000017618e+000	 5.333299999983335e+000	 9.966373024673841e+000
0	 2.466690000017617e+000	 5.399969999982149e+000	 9.961796583299732e+000
0	 2.466690000017618e+000	 5.466639999981865e+000	 9.957692617354246e+000
0	 2.466690000017617e+000	 5.533309999982382e+000	 9.954068962992141e+000
0	 2.466690000017617e+000	 5.599979999983598e+000	 9.950933456368196e+000
0	 2.466690000017617e+000	 5.666649999985414e+000	 9.948293933637155e+000
0	 2.466690000017618e+000	 5.733319999987732e+000	 9.946158230953817e+000
0	 2.466690000017618e+000	 5.799989999990450e+000	 9.944534184472966e+000
0	 2.466690000017617e+000	 5.866659999993468e+000	 9.943429630349385e+000
0	 2.466690000017618e+000	 5.933329999996683e+000	 9.942852404737856e+000
0	 2.466690000017618e+000	 6.000000000000000e+000	 9.942810343793196e+000
0	 2.533360000018134e+000	 5.333299999983333e+000	 9.986044771950027e+000
0	 2.533360000018134e+000	 5.399969999982148e+000	 9.980294163555202e+000
0	 2.533360000018134e+000	 5.466639999981866e+000	 9.975070212183685e+000
0	 2.533360000018134e+000	 5.533309999982383e+000	 9.970396236493384e+000
0	 2.533360000018133e+000	 5.599979999983598e+000	 9.966295555142246e+000
0	 2.533360000018134e+000	 5.666649999985417e+000	 9.962791486788207e+000
0	 2.533360000018134e+000	 5.733319999987734e+000	 9.959907350089207e+000
0	 2.533360000018134e+000	 5.799989999990449e+000	 9.957666463703198e+000
0	 2.533360000018134e+000	 5.866659999993467e+000	 9.956092146288162e+000
0	 2.533360000018134e+000	 5.933329999996683e+000	 9.955207716502052e+000
0	 2.533360000018134e+000	 6.000000000000000e+000	 9.955036493002837e+000
0	 2.600030000017851e+000	 5.333299999983334e+000	 1.000490936708638e+001
0	 2.600030000017851e+000	 5.399969999982149e+000	 9.998146032296242e+000
0	 2.600030000017849e+000	 5.466639999981865e+000	 9.991944146628969e+000
0	 2.600030000017850e+000	 5.533309999982384e+000	 9.986341538910800e+000
0	 2.600030000017850e+000	 5.599979999983599e+000	 9.981376037967955e+000
0	 2.600030000017850e+000	 5.666649999985417e+000	 9.977085472626674e+000
0	 2.600030000017851e+000	 5.733319999987734e+000	 9.973507671713231e+000
0	 2.600030000017850e+000	 5.799989999990451e+000	 9.970680464053867e+000
0	 2.600030000017851e+000	 5.866659999993467e+000	 9.968641678474874e+000
0	 2.600030000017851e+000	 5.933329999996685e+000	 9.967429143802512e+000
0	 2.600030000017851e+000	 6.000000000000000e+000	 9.967080688863085e+000
0	 2.666700000016666e+000	 5.333299999983335e+000	 1.002285743978605e+001
0	 2.666700000016666e+000	 5.399969999982150e+000	 1.001528551347412e+001
0	 2.666700000016666e+000	 5.466639999981865e+000	 1.000828323882477e+001
0	 2.666700000016666e+000	 5.533309999982384e+000	 1.000190198249767e+001
0	 2.666700000016666e+000	 5.599979999983598e+000	 9.996193111152502e+000
0	 2.666700000016665e+000	 5.666649999985414e+000	 9.991207991448935e+000
0	 2.666700000016667e+000	 5.733319999987733e+000	 9.986997990046683e+000
0	 2.666700000016667e+000	 5.799989999990448e+000	 9.983614473605442e+000
0	 2.666700000016665e+000	 5.866659999993467e+000	 9.981108808784928e+000
0	 2.666700000016666e+000	 5.933329999996683e+000	 9.979532362244880e+000
0	 2.666700000016666e+000	 6.000000000000001e+000	 9.978936500645007e+000
0	 2.000000000000000e+000	 6.000000000000000e+000	 9.852672786773312e+000
0	 2.000000000000000e+000	 6.066670000003317e+000	 9.853639006621833e+000
0	 2.000000000000000e+000	 6.133340000006534e+000	 9.854784214824200e+000
0	 2.000000000000000e+000	 6.200010000009550e+000	 9.856169163177219e+000
0	 1.999999999999999e+000	 6.266680000012266e+000	 9.857854603477724e+000
0	 2.000000000000000e+000	 6.333350000014585e+000	 9.859901287522535e+000
0	 2.000000000000000e+000	 6.400020000016401e+000	 9.862369967108496e+000
0	 2.000000000000000e+000	 6.466690000017618e+000	 9.865321394032430e+000
0	 2.000000000000000e+000	 6.533360000018136e+000	 9.868816320091192e+000
0	 2.000000000000000e+000	 6.600030000017848e+000	 9.872915497081632e+000
0	 2.000000000000000e+000	 6.666700000016668e+000	 9.877679676800602e+000
0	 2.066670000003317e+000	 5.999999999999999e+000	 9.865992549018481e+000
0	 2.066670000003317e+000	 6.066670000003316e+000	 9.866646028215852e+000
0	 2.066670000003317e+000	 6.133340000006533e+000	 9.867489529699741e+000
0	 2.066670000003317e+000	 6.200010000009550e+000	 9.868575819339572e+000
0	 2.066670000003317e+000	 6.266680000012268e+000	 9.869957663004797e+000
0	 2.066670000003316e+000	 6.333350000014582e+000	 9.871687826564862e+000
0	 2.066670000003318e+000	 6.400020000016401e+000	 9.873819075889227e+000
0	 2.066670000003318e+000	 6.466690000017618e+000	 9.876404176847355e+000
0	 2.066670000003316e+000	 6.533360000018132e+000	 9.879495895308690e+000
0	 2.066670000003317e+000	 6.600030000017851e+000	 9.883146997142722e+000
0	 2.066670000003317e+000	 6.666700000016665e+000	 9.887410248218910e+000
0	 2.133340000006533e+000	 5.999999999999998e+000	 9.879175373016819e+000
0	 2.133340000006534e+000	 6.066670000003318e+000	 9.879624393801018e+000
0	 2.133340000006534e+000	 6.133340000006535e+000	 9.880255263601702e+000
0	 2.133340000006534e+000	 6.200010000009550e+000	 9.881113007294990e+000
0	 2.133340000006533e+000	 6.266680000012268e+000	 9.882242649757075e+000
0	 2.133340000006534e+000	 6.333350000014584e+000	 9.883689215864068e+000
0	 2.133340000006534e+000	 6.400020000016400e+000	 9.885497730492165e+000
0	 2.133340000006534e+000	 6.466690000017617e+000	 9.887713218517527e+000
0	 2.133340000006534e+000	 6.533360000018135e+000	 9.890380704816316e+000
0	 2.133340000006535e+000	 6.600030000017850e+000	 9.893545214264712e+000
0	 2.133340000006534e+000	 6.666700000016665e+000	 9.897251771738880e+000
0	 2.200010000009551e+000	 6.000000000000000e+000	 9.892214828039387e+000
0	 2.200010000009551e+000	 6.066670000003318e+000	 9.892544101444713e+000
0	 2.200010000009551e+000	 6.133340000006534e+000	 9.893032113720210e+000
0	 2.200010000009551e+000	 6.200010000009551e+000	 9.893716393682864e+000
0	 2.200010000009551e+000	 6.266680000012268e+000	 9.894634470149580e+000
0	 2.200010000009550e+000	 6.333350000014584e+000	 9.895823871937322e+000
0	 2.200010000009550e+000	 6.400020000016403e+000	 9.897322127863047e+000
0	 2.200010000009551e+000	 6.466690000017617e+000	 9.899166766743722e+000
0	 2.200010000009550e+000	 6.533360000018132e+000	 9.901395317396291e+000
0	 2.200010000009551e+000	 6.600030000017851e+000	 9.904045308637736e+000
0	 2.200010000009551e+000	 6.666700000016667e+000	 9.907154269285019e+000
0	 2.266680000012268e+000	 6.000000000000000e+000	 9.905104483357251e+000
0	 2.266680000012267e+000	 6.066670000003316e+000	 9.905375149214301e+000
0	 2.266680000012267e+000	 6.133340000006531e+000	 9.905770777245454e+000
0	 2.266680000012268e+000	 6.200010000009551e+000	 9.906321645142526e+000
0	 2.266680000012267e+000	 6.266680000012268e+000	 9.907058030597359e+000
0	 2.266680000012268e+000	 6.333350000014584e+000	 9.908010211301756e+000
0	 2.266680000012268e+000	 6.400020000016402e+000	 9.909208464947584e+000
0	 2.266680000012267e+000	 6.466690000017616e+000	 9.910683069226668e+000
0	 2.266680000012267e+000	 6.533360000018132e+000	 9.912464301830839e+000
0	 2.266680000012267e+000	 6.600030000017849e+000	 9.914582440451955e+000
0	 2.266680000012268e+000	 6.666700000016666e+000	 9.917067762781844e+000
0	 2.333350000014584e+000	 6.000000000000000e+000	 9.917837908241465e+000
0	 2.333350000014584e+000	 6.066670000003316e+000	 9.918087535177190e+000
0	 2.333350000014585e+000	 6.133340000006532e+000	 9.918421951367568e+000
0	 2.333350000014584e+000	 6.200010000009550e+000	 9.918864428313388e+000
0	 2.333350000014584e+000	 6.266680000012268e+000	 9.919438237515465e+000
0	 2.333350000014584e+000	 6.333350000014583e+000	 9.920166650474570e+000
0	 2.333350000014584e+000	 6.400020000016401e+000	 9.921072938691530e+000
0	 2.333350000014585e+000	 6.466690000017619e+000	 9.922180373667132e+000
0	 2.333350000014584e+000	 6.533360000018132e+000	 9.923512226902183e+000
0	 2.333350000014585e+000	 6.600030000017851e+000	 9.925091769897499e+000
0	 2.333350000014584e+000	 6.666700000016665e+000	 9.926942274153884e+000
0	 2.400020000016401e+000	 6.000000000000000e+000	 9.930408671963097e+000
0	 2.400020000016401e+000	 6.066670000003318e+000	 9.930651257400738e+000
0	 2.400020000016401e+000	 6.133340000006532e+000	 9.930936333276698e+000
0	 2.400020000016401e+000	 6.200010000009550e+000	 9.931280409834804e+000
0	 2.400020000016401e+000	 6.266680000012267e+000	 9.931699997318926e+000
0	 2.400020000016401e+000	 6.333350000014582e+000	 9.932211605972920e+000
0	 2.400020000016400e+000	 6.400020000016400e+000	 9.932831746040613e+000
0	 2.400020000016401e+000	 6.466690000017618e+000	 9.933576927765882e+000
0	 2.400020000016401e+000	 6.533360000018134e+000	 9.934463661392570e+000
0	 2.400020000016401e+000	 6.600030000017850e+000	 9.935508457164529e+000
0	 2.400020000016401e+000	 6.666700000016667e+000	 9.936727825325642e+000
0	 2.466690000017618e+000	 6.000000000000000e+000	 9.942810343793196e+000
0	 2.466690000017618e+000	 6.066670000003317e+000	 9.943036313952335e+000
0	 2.466690000017617e+000	 6.133340000006533e+000	 9.943264620162989e+000
0	 2.466690000017618e+000	 6.200010000009551e+000	 9.943505256346167e+000
0	 2.466690000017617e+000	 6.266680000012268e+000	 9.943768216422809e+000
0	 2.466690000017617e+000	 6.333350000014583e+000	 9.944063494313951e+000
0	 2.466690000017618e+000	 6.400020000016401e+000	 9.944401083940578e+000
0	 2.466690000017617e+000	 6.466690000017616e+000	 9.944790979223660e+000
0	 2.466690000017617e+000	 6.533360000018134e+000	 9.945243174084201e+000
0	 2.466690000017618e+000	 6.600030000017852e+000	 9.945767662443203e+000
0	 2.466690000017617e+000	 6.666700000016665e+000	 9.946374438221643e+000
0	 2.533360000018134e+000	 6.000000000000000e+000	 9.955036493002837e+000
0	 2.533360000018133e+000	 6.066670000003315e+000	 9.955212702899379e+000
0	 2.533360000018134e+000	 6.133340000006535e+000	 9.955357509216626e+000
0	 2.533360000018134e+000	 6.200010000009550e+000	 9.955474634486809e+000
0	 2.533360000018134e+000	 6.266680000012267e+000	 9.955567801242154e+000
0	 2.533360000018135e+000	 6.333350000014584e+000	 9.955640732014851e+000
0	 2.533360000018134e+000	 6.400020000016399e+000	 9.955697149337130e+000
0	 2.533360000018134e+000	 6.466690000017617e+000	 9.955740775741218e+000
0	 2.533360000018134e+000	 6.533360000018134e+000	 9.955775333759300e+000
0	 2.533360000018134e+000	 6.600030000017850e+000	 9.955804545923630e+000
0	 2.533360000018134e+000	 6.666700000016665e+000	 9.955832134766414e+000
0	 2.600030000017851e+000	 6.000000000000000e+000	 9.967080688863085e+000
0	 2.600030000017851e+000	 6.066670000003318e+000	 9.967150422309228e+000
0	 2.600030000017850e+000	 6.133340000006532e+000	 9.967165697627744e+000
0	 2.600030000017850e+000	 6.200010000009550e+000	 9.967124210896152e+000
0	 2.600030000017851e+000	 6.266680000012268e+000	 9.967023658191987e+000
0	 2.600030000017851e+000	 6.333350000014585e+000	 9.966861735592776e+000
0	 2.600030000017850e+000	 6.400020000016400e+000	 9.966636139176050e+000
0	 2.600030000017850e+000	 6.466690000017617e+000	 9.966344565019314e+000
0	 2.600030000017850e+000	 6.533360000018133e+000	 9.965984709200122e+000
0	 2.600030000017851e+000	 6.600030000017850e+000	 9.965554267795994e+000
0	 2.600030000017850e+000	 6.666700000016665e+000	 9.965050936884444e+000
0	 2.666700000016666e+000	 6.000000000000001e+000	 9.978936500645007e+000
0	 2.666700000016666e+000	 6.066670000003318e+000	 9.978819470249299e+000
0	 2.666700000016666e+000	 6.133340000006533e+000	 9.978639882586505e+000
0	 2.666700000016667e+000	 6.200010000009550e+000	 9.978389652213556e+000
0	 2.666700000016667e+000	 6.266680000012268e+000	 9.978060693687381e+000
0	 2.666700000016666e+000	 6.333350000014584e+000	 9.977644921564901e+000
0	 2.666700000016667e+000	 6.400020000016400e+000	 9.977134250403047e+000
0	 2.666700000016666e+000	 6.466690000017617e+000	 9.976520594758719e+000
0	 2.666700000016666e+000	 6.533360000018133e+000	 9.975795869188884e+000
0	 2.666700000016667e+000	 6.600030000017850e+000	 9.974951988250435e+000
0	 2.666700000016667e+000	 6.666700000016667e+000	 9.973980866500284e+000
0	 2.000000000000000e+000	 6.666700000016668e+000	 9.877679676800598e+000
0	 2.000000000000000e+000	 6.733360000014532e+000	 9.882709881385221e+000
0	 2.000000000000000e+000	 6.800020000011601e+000	 9.887556902421148e+000
0	 2.000000000000000e+000	 6.866680000008068e+000	 9.892203843373896e+000
0	 2.000000000000000e+000	 6.933340000004133e+000	 9.896633807708987e+000
0	 2.000000000000000e+000	 6.999999999999999e+000	 9.900829898891965e+000
0	 2.000000000000000e+000	 7.066659999995867e+000	 9.904775220388350e+000
0	 2.000000000000000e+000	 7.133319999991933e+000	 9.908452875663702e+000
0	 2.000000000000000e+000	 7.199979999988401e+000	 9.911845968183567e+000
0	 2.000000000000000e+000	 7.266639999985467e+000	 9.914937601413485e+000
0	 2.000000000000000e+000	 7.333299999983335e+000	 9.917710878819019e+000
0	 2.066670000003317e+000	 6.666700000016665e+000	 9.887410248218911e+000
0	 2.066670000003317e+000	 6.733360000014534e+000	 9.891918381571946e+000
0	 2.066670000003317e+000	 6.800020000011601e+000	 9.896261250461373e+000
0	 2.066670000003316e+000	 6.866680000008066e+000	 9.900425237085837e+000
0	 2.066670000003317e+000	 6.933340000004136e+000	 9.904396723643940e+000
0	 2.066670000003317e+000	 7.000000000000001e+000	 9.908162092334306e+000
0	 2.066670000003317e+000	 7.066659999995869e+000	 9.911707725355550e+000
0	 2.066670000003318e+000	 7.133319999991935e+000	 9.915020004906296e+000
0	 2.066670000003316e+000	 7.199979999988399e+000	 9.918085313185186e+000
0	 2.066670000003318e+000	 7.266639999985467e+000	 9.920890032390863e+000
0	 2.066670000003316e+000	 7.333299999983331e+000	 9.923420544721964e+000
0	 2.133340000006534e+000	 6.666700000016665e+000	 9.897251771738882e+000
0	 2.133340000006534e+000	 6.733360000014533e+000	 9.901178981377472e+000
0	 2.133340000006534e+000	 6.800020000011600e+000	 9.904969631790127e+000
0	 2.133340000006534e+000	 6.866680000008066e+000	 9.908613227984045e+000
0	 2.133340000006534e+000	 6.933340000004134e+000	 9.912099274966373e+000
0	 2.133340000006534e+000	 7.000000000000000e+000	 9.915417277744318e+000
0	 2.133340000006534e+000	 7.066659999995868e+000	 9.918556741325030e+000
0	 2.133340000006534e+000	 7.133319999991935e+000	 9.921507170715710e+000
0	 2.133340000006534e+000	 7.199979999988400e+000	 9.924258070923552e+000
0	 2.133340000006534e+000	 7.266639999985467e+000	 9.926798946955731e+000
0	 2.133340000006534e+000	 7.333299999983335e+000	 9.929119303819469e+000
0	 2.200010000009551e+000	 6.666700000016667e+000	 9.907154269285019e+000
0	 2.200010000009551e+000	 6.733360000014533e+000	 9.910457453611706e+000
0	 2.200010000009551e+000	 6.800020000011601e+000	 9.913661083177086e+000
0	 2.200010000009550e+000	 6.866680000008067e+000	 9.916757629872331e+000
0	 2.200010000009550e+000	 6.933340000004134e+000	 9.919739565588655e+000
0	 2.200010000009551e+000	 7.000000000000000e+000	 9.922599362217284e+000
0	 2.200010000009550e+000	 7.066659999995867e+000	 9.925329491649402e+000
0	 2.200010000009550e+000	 7.133319999991934e+000	 9.927922425776231e+000
0	 2.200010000009551e+000	 7.199979999988401e+000	 9.930370636488997e+000
0	 2.200010000009552e+000	 7.266639999985468e+000	 9.932666595678915e+000
0	 2.200010000009551e+000	 7.333299999983335e+000	 9.934802775237184e+000
0	 2.266680000012268e+000	 6.666700000016666e+000	 9.917067762781846e+000
0	 2.266680000012267e+000	 6.733360000014531e+000	 9.919719571084569e+000
0	 2.266680000012267e+000	 6.800020000011599e+000	 9.922314641391894e+000
0	 2.266680000012267e+000	 6.866680000008067e+000	 9.924848256554503e+000
0	 2.266680000012268e+000	 6.933340000004134e+000	 9.927315699423140e+000
0	 2.266680000012268e+000	 7.000000000000001e+000	 9.929712252848484e+000
0	 2.266680000012267e+000	 7.066659999995865e+000	 9.932033199681261e+000
0	 2.266680000012267e+000	 7.133319999991934e+000	 9.934273822772150e+000
0	 2.266680000012267e+000	 7.199979999988401e+000	 9.936429404971920e+000
0	 2.266680000012268e+000	 7.266639999985467e+000	 9.938495229131219e+000
0	 2.266680000012267e+000	 7.333299999983333e+000	 9.940466578100807e+000
0	 2.333350000014584e+000	 6.666700000016665e+000	 9.926942274153884e+000
0	 2.333350000014585e+000	 6.733360000014533e+000	 9.928931106605935e+000
0	 2.333350000014585e+000	 6.800020000011600e+000	 9.930909343204219e+000
0	 2.333350000014584e+000	 6.866680000008066e+000	 9.932874921834399e+000
0	 2.333350000014584e+000	 6.933340000004132e+000	 9.934825780382173e+000
0	 2.333350000014585e+000	 6.999999999999999e+000	 9.936759856733216e+000
0	 2.333350000014585e+000	 7.066659999995865e+000	 9.938675088773172e+000
0	 2.333350000014584e+000	 7.133319999991935e+000	 9.940569414387763e+000
0	 2.333350000014584e+000	 7.199979999988400e+000	 9.942440771462657e+000
0	 2.333350000014585e+000	 7.266639999985468e+000	 9.944287097883496e+000
0	 2.333350000014584e+000	 7.333299999983333e+000	 9.946106331536003e+000
0	 2.400020000016401e+000	 6.666700000016667e+000	 9.936727825325646e+000
0	 2.400020000016401e+000	 6.733360000014533e+000	 9.938057832985717e+000
0	 2.400020000016401e+000	 6.800020000011598e+000	 9.939424225383743e+000
0	 2.400020000016401e+000	 6.866680000008064e+000	 9.940827439515855e+000
0	 2.400020000016402e+000	 6.933340000004134e+000	 9.942267912378133e+000
0	 2.400020000016402e+000	 7.000000000000000e+000	 9.943746080966745e+000
0	 2.400020000016401e+000	 7.066659999995866e+000	 9.945262382277775e+000
0	 2.400020000016401e+000	 7.133319999991936e+000	 9.946817253307339e+000
0	 2.400020000016400e+000	 7.199979999988400e+000	 9.948411131051572e+000
0	 2.400020000016402e+000	 7.266639999985467e+000	 9.950044452506575e+000
0	 2.400020000016401e+000	 7.333299999983335e+000	 9.951717654668464e+000
0	 2.466690000017617e+000	 6.666700000016665e+000	 9.946374438221644e+000
0	 2.466690000017618e+000	 6.733360000014534e+000	 9.947065523033805e+000
0	 2.466690000017618e+000	 6.800020000011600e+000	 9.947838324700127e+000
0	 2.466690000017617e+000	 6.866680000008068e+000	 9.948695623402635e+000
0	 2.466690000017617e+000	 6.933340000004133e+000	 9.949640199323376e+000
0	 2.466690000017618e+000	 6.999999999999999e+000	 9.950674832644351e+000
0	 2.466690000017617e+000	 7.066659999995868e+000	 9.951802303547613e+000
0	 2.466690000017617e+000	 7.133319999991935e+000	 9.953025392215169e+000
0	 2.466690000017618e+000	 7.199979999988401e+000	 9.954346878829044e+000
0	 2.466690000017618e+000	 7.266639999985467e+000	 9.955769543571289e+000
0	 2.466690000017617e+000	 7.333299999983336e+000	 9.957296166623861e+000
0	 2.533360000018134e+000	 6.666700000016665e+000	 9.955832134766414e+000
0	 2.533360000018134e+000	 6.733360000014532e+000	 9.955919949560109e+000
0	 2.533360000018134e+000	 6.800020000011599e+000	 9.956130677923058e+000
0	 2.533360000018134e+000	 6.866680000008065e+000	 9.956469287298626e+000
0	 2.533360000018134e+000	 6.933340000004132e+000	 9.956940745130256e+000
0	 2.533360000018133e+000	 6.999999999999999e+000	 9.957550018861333e+000
0	 2.533360000018134e+000	 7.066659999995868e+000	 9.958302075935301e+000
0	 2.533360000018134e+000	 7.133319999991935e+000	 9.959201883795542e+000
0	 2.533360000018134e+000	 7.199979999988400e+000	 9.960254409885449e+000
0	 2.533360000018134e+000	 7.266639999985466e+000	 9.961464621648435e+000
0	 2.533360000018134e+000	 7.333299999983334e+000	 9.962837486527878e+000
0	 2.600030000017850e+000	 6.666700000016665e+000	 9.965050936884442e+000
0	 2.600030000017851e+000	 6.733360000014532e+000	 9.964586885374528e+000
0	 2.600030000017850e+000	 6.800020000011601e+000	 9.964280321822164e+000
0	 2.600030000017851e+000	 6.866680000008067e+000	 9.964138245007613e+000
0	 2.600030000017851e+000	 6.933340000004134e+000	 9.964167653711131e+000
0	 2.600030000017851e+000	 7.000000000000000e+000	 9.964375546712990e+000
0	 2.600030000017851e+000	 7.066659999995867e+000	 9.964768922793443e+000
0	 2.600030000017850e+000	 7.133319999991934e+000	 9.965354780732739e+000
0	 2.600030000017851e+000	 7.199979999988402e+000	 9.966140119311133e+000
0	 2.600030000017851e+000	 7.266639999985467e+000	 9.967131937308871e+000
0	 2.600030000017851e+000	 7.333299999983335e+000	 9.968337233506196e+000
0	 2.666700000016667e+000	 6.666700000016667e+000	 9.973980866500286e+000
0	 2.666700000016666e+000	 6.733360000014533e+000	 9.973032103286977e+000
0	 2.666700000016666e+000	 6.800020000011599e+000	 9.972266293167159e+000
0	 2.666700000016666e+000	 6.866680000008068e+000	 9.971692310333435e+000
0	 2.666700000016667e+000	 6.933340000004134e+000	 9.971319028978369e+000
0	 2.666700000016667e+000	 7.000000000000000e+000	 9.971155323294568e+000
0	 2.666700000016667e+000	 7.066659999995867e+000	 9.971210067474614e+000
0	 2.666700000016666e+000	 7.133319999991936e+000	 9.971492135711051e+000
0	 2.666700000016666e+000	 7.199979999988401e+000	 9.972010402196467e+000
0	 2.666700000016666e+000	 7.266639999985467e+000	 9.972773741123431e+000
0	 2.666700000016667e+000	 7.333299999983335e+000	 9.973791026684481e+000
0	 2.000000000000000e+000	 7.333299999983335e+000	 9.917710878819019e+000
0	 2.000000000000000e+000	 7.399969999982151e+000	 9.920337469352166e+000
0	 2.000000000000000e+000	 7.466639999981867e+000	 9.923006967614509e+000
0	 2.000000000000000e+000	 7.533309999982384e+000	 9.925730539473671e+000
0	 2.000000000000000e+000	 7.599979999983599e+000	 9.928519350797282e+000
0	 2.000000000000000e+000	 7.666649999985416e+000	 9.931384567452966e+000
0	 2.000000000000000e+000	 7.733319999987733e+000	 9.934337355308371e+000
0	 2.000000000000000e+000	 7.799989999990449e+000	 9.937388880231113e+000
0	 2.000000000000000e+000	 7.866659999993466e+000	 9.940550308088819e+000
0	 2.000000000000000e+000	 7.933329999996684e+000	 9.943832804749135e+000
0	 2.000000000000000e+000	 7.999999999999999e+000	 9.947247536079702e+000
0	 2.066670000003316e+000	 7.333299999983331e+000	 9.923420544721964e+000
0	 2.066670000003317e+000	 7.399969999982150e+000	 9.925829095516681e+000
0	 2.066670000003317e+000	 7.466639999981865e+000	 9.928282951287718e+000
0	 2.066670000003317e+000	 7.533309999982384e+000	 9.930792101094273e+000
0	 2.066670000003318e+000	 7.599979999983600e+000	 9.933366533995583e+000
0	 2.066670000003317e+000	 7.666649999985414e+000	 9.936016239050870e+000
0	 2.066670000003317e+000	 7.733319999987731e+000	 9.938751205319385e+000
0	 2.066670000003317e+000	 7.799989999990450e+000	 9.941581421860340e+000
0	 2.066670000003317e+000	 7.866659999993468e+000	 9.944516877732955e+000
0	 2.066670000003318e+000	 7.933329999996684e+000	 9.947567561996483e+000
0	 2.066670000003317e+000	 7.999999999999999e+000	 9.950743463710134e+000
0	 2.133340000006534e+000	 7.333299999983335e+000	 9.929119303819469e+000
0	 2.133340000006534e+000	 7.399969999982150e+000	 9.931344054453817e+000
0	 2.133340000006534e+000	 7.466639999981867e+000	 9.933610368556325e+000
0	 2.133340000006533e+000	 7.533309999982382e+000	 9.935927129340691e+000
0	 2.133340000006534e+000	 7.599979999983600e+000	 9.938303220020680e+000
0	 2.133340000006534e+000	 7.666649999985416e+000	 9.940747523810005e+000
0	 2.133340000006534e+000	 7.733319999987731e+000	 9.943268923922389e+000
0	 2.133340000006534e+000	 7.799989999990448e+000	 9.945876303571573e+000
0	 2.133340000006534e+000	 7.866659999993466e+000	 9.948578545971261e+000
0	 2.133340000006534e+000	 7.933329999996685e+000	 9.951384534335192e+000
0	 2.133340000006534e+000	 8.000000000000000e+000	 9.954303151877115e+000
0	 2.200010000009551e+000	 7.333299999983335e+000	 9.934802775237182e+000
0	 2.200010000009551e+000	 7.399969999982150e+000	 9.936870734516944e+000
0	 2.200010000009551e+000	 7.466639999981867e+000	 9.938971667635475e+000
0	 2.200010000009551e+000	 7.533309999982385e+000	 9.941113422923946e+000
0	 2.200010000009550e+000	 7.599979999983601e+000	 9.943303848713468e+000
0	 2.200010000009550e+000	 7.666649999985416e+000	 9.945550793335160e+000
0	 2.200010000009551e+000	 7.733319999987732e+000	 9.947862105120173e+000
0	 2.200010000009551e+000	 7.799989999990449e+000	 9.950245632399634e+000
0	 2.200010000009551e+000	 7.866659999993468e+000	 9.952709223504662e+000
0	 2.200010000009551e+000	 7.933329999996684e+000	 9.955260726766406e+000
0	 2.200010000009551e+000	 8.000000000000000e+000	 9.957907990515999e+000
0	 2.266680000012267e+000	 7.333299999983333e+000	 9.940466578100809e+000
0	 2.266680000012267e+000	 7.399969999982149e+000	 9.942397524059457e+000
0	 2.266680000012267e+000	 7.466639999981863e+000	 9.944349296740359e+000
0	 2.266680000012267e+000	 7.533309999982382e+000	 9.946328780554998e+000
0	 2.266680000012267e+000	 7.599979999983599e+000	 9.948342859914781e+000
0	 2.266680000012268e+000	 7.666649999985416e+000	 9.950398419231144e+000
0	 2.266680000012267e+000	 7.733319999987733e+000	 9.952502342915549e+000
0	 2.266680000012268e+000	 7.799989999990449e+000	 9.954661515379380e+000
0	 2.266680000012267e+000	 7.866659999993468e+000	 9.956882821034132e+000
0	 2.266680000012267e+000	 7.933329999996682e+000	 9.959173144291190e+000
0	 2.266680000012267e+000	 7.999999999999998e+000	 9.961539369562038e+000
0	 2.333350000014584e+000	 7.333299999983333e+000	 9.946106331536001e+000
0	 2.333350000014584e+000	 7.399969999982148e+000	 9.947912811434733e+000
0	 2.333350000014584e+000	 7.466639999981866e+000	 9.949725704086148e+000
0	 2.333350000014584e+000	 7.533309999982383e+000	 9.951551000944860e+000
0	 2.333350000014584e+000	 7.599979999983599e+000	 9.953394693465516e+000
0	 2.333350000014585e+000	 7.666649999985417e+000	 9.955262773102788e+000
0	 2.333350000014584e+000	 7.733319999987733e+000	 9.957161231311282e+000
0	 2.333350000014584e+000	 7.799989999990449e+000	 9.959096059545658e+000
0	 2.333350000014585e+000	 7.866659999993465e+000	 9.961073249260585e+000
0	 2.333350000014584e+000	 7.933329999996682e+000	 9.963098791910673e+000
0	 2.333350000014583e+000	 8.000000000000000e+000	 9.965178678950561e+000
0	 2.400020000016401e+000	 7.333299999983335e+000	 9.951717654668462e+000
0	 2.400020000016401e+000	 7.399969999982149e+000	 9.953404984996215e+000
0	 2.400020000016401e+000	 7.466639999981866e+000	 9.955083337887983e+000
0	 2.400020000016401e+000	 7.533309999982383e+000	 9.956757882804503e+000
0	 2.400020000016401e+000	 7.599979999983599e+000	 9.958433789206545e+000
0	 2.400020000016401e+000	 7.666649999985415e+000	 9.960116226554863e+000
0	 2.400020000016401e+000	 7.733319999987733e+000	 9.961810364310210e+000
0	 2.400020000016400e+000	 7.799989999990447e+000	 9.963521371933334e+000
0	 2.400020000016401e+000	 7.866659999993467e+000	 9.965254418884987e+000
0	 2.400020000016401e+000	 7.933329999996683e+000	 9.967014674625917e+000
0	 2.400020000016401e+000	 8.000000000000000e+000	 9.968807308616910e+000
0	 2.466690000017617e+000	 7.333299999983336e+000	 9.957296166623857e+000
0	 2.466690000017618e+000	 7.399969999982151e+000	 9.958862433097261e+000
0	 2.466690000017618e+000	 7.466639999981866e+000	 9.960404646361027e+000
0	 2.466690000017617e+000	 7.533309999982383e+000	 9.961927224844933e+000
0	 2.466690000017618e+000	 7.599979999983601e+000	 9.963434586978741e+000
0	 2.466690000017618e+000	 7.666649999985418e+000	 9.964931151192200e+000
0	 2.466690000017617e+000	 7.733319999987734e+000	 9.966421335915106e+000
0	 2.466690000017618e+000	 7.799989999990449e+000	 9.967909559577212e+000
0	 2.466690000017617e+000	 7.866659999993468e+000	 9.969400240608264e+000
0	 2.466690000017618e+000	 7.933329999996683e+000	 9.970897797438068e+000
0	 2.466690000017618e+000	 8.000000000000000e+000	 9.972406648496362e+000
0	 2.533360000018134e+000	 7.333299999983334e+000	 9.962837486527878e+000
0	 2.533360000018134e+000	 7.399969999982149e+000	 9.964273544091281e+000
0	 2.533360000018134e+000	 7.466639999981867e+000	 9.965672077720473e+000
0	 2.533360000018134e+000	 7.533309999982385e+000	 9.967036825777141e+000
0	 2.533360000018134e+000	 7.599979999983598e+000	 9.968371526622963e+000
0	 2.533360000018134e+000	 7.666649999985415e+000	 9.969679918619608e+000
0	 2.533360000018134e+000	 7.733319999987733e+000	 9.970965740128763e+000
0	 2.533360000018134e+000	 7.799989999990449e+000	 9.972232729512141e+000
0	 2.533360000018134e+000	 7.866659999993467e+000	 9.973484625131379e+000
0	 2.533360000018134e+000	 7.933329999996683e+000	 9.974725165348188e+000
0	 2.533360000018133e+000	 8.000000000000000e+000	 9.975958088524223e+000
0	 2.600030000017851e+000	 7.333299999983335e+000	 9.968337233506196e+000
0	 2.600030000017851e+000	 7.399969999982149e+000	 9.969626706331653e+000
0	 2.600030000017850e+000	 7.466639999981865e+000	 9.970868080181470e+000
0	 2.600030000017851e+000	 7.533309999982384e+000	 9.972064484312114e+000
0	 2.600030000017851e+000	 7.599979999983599e+000	 9.973219047980082e+000
0	 2.600030000017851e+000	 7.666649999985416e+000	 9.974334900441885e+000
0	 2.600030000017850e+000	 7.733319999987733e+000	 9.975415170954024e+000
0	 2.600030000017850e+000	 7.799989999990449e+000	 9.976462988772974e+000
0	 2.600030000017851e+000	 7.866659999993467e+000	 9.977481483155264e+000
0	 2.600030000017850e+000	 7.933329999996685e+000	 9.978473783357387e+000
0	 2.600030000017851e+000	 8.000000000000000e+000	 9.979443018635823e+000
0	 2.666700000016667e+000	 7.333299999983335e+000	 9.973791026684479e+000
0	 2.666700000016667e+000	 7.399969999982151e+000	 9.974910308171804e+000
0	 2.666700000016666e+000	 7.466639999981866e+000	 9.975975101959177e+000
0	 2.666700000016666e+000	 7.533309999982383e+000	 9.976987999160835e+000
0	 2.666700000016666e+000	 7.599979999983598e+000	 9.977951590890980e+000
0	 2.666700000016666e+000	 7.666649999985416e+000	 9.978868468263835e+000
0	 2.666700000016667e+000	 7.733319999987733e+000	 9.979741222393633e+000
0	 2.666700000016667e+000	 7.799989999990449e+000	 9.980572444394564e+000
0	 2.666700000016665e+000	 7.866659999993464e+000	 9.981364725380882e+000
0	 2.666700000016666e+000	 7.933329999996683e+000	 9.982120656466769e+000
0	 2.666700000016667e+000	 8.000000000000000e+000	 9.982842828766458e+000
0	 2.000000000000000e+000	 7.999999999999999e+000	 9.947247536079702e+000
0	 2.000000000000000e+000	 8.066670000003319e+000	 9.950660283181579e+000
0	 2.000000000000000e+000	 8.133340000006534e+000	 9.953930263227562e+000
0	 2.000000000000000e+000	 8.200010000009549e+000	 9.957058796192827e+000
0	 2.000000000000000e+000	 8.266680000012267e+000	 9.960047202052527e+000
0	 2.000000000000000e+000	 8.333350000014585e+000	 9.962896800781845e+000
0	 1.999999999999999e+000	 8.400020000016397e+000	 9.965608912355959e+000
0	 2.000000000000000e+000	 8.466690000017618e+000	 9.968184856750025e+000
0	 2.000000000000000e+000	 8.533360000018131e+000	 9.970625953939228e+000
0	 2.000000000000000e+000	 8.600030000017851e+000	 9.972933523898718e+000
0	 2.000000000000000e+000	 8.666700000016666e+000	 9.975108886603646e+000
0	 2.066670000003317e+000	 7.999999999999999e+000	 9.950743463710134e+000
0	 2.066670000003317e+000	 8.066670000003317e+000	 9.953918056751199e+000
0	 2.066670000003316e+000	 8.133340000006532e+000	 9.956959262899289e+000
0	 2.066670000003317e+000	 8.200010000009549e+000	 9.959868743067025e+000
0	 2.066670000003317e+000	 8.266680000012268e+000	 9.962648158167063e+000
0	 2.066670000003317e+000	 8.333350000014583e+000	 9.965299169112084e+000
0	 2.066670000003318e+000	 8.400020000016401e+000	 9.967823436814747e+000
0	 2.066670000003316e+000	 8.466690000017616e+000	 9.970222622187661e+000
0	 2.066670000003317e+000	 8.533360000018135e+000	 9.972498386143510e+000
0	 2.066670000003317e+000	 8.600030000017851e+000	 9.974652389594919e+000
0	 2.066670000003317e+000	 8.666700000016666e+000	 9.976686293454554e+000
0	 2.133340000006534e+000	 8.000000000000000e+000	 9.954303151877115e+000
0	 2.133340000006534e+000	 8.066670000003317e+000	 9.957220037493322e+000
0	 2.133340000006534e+000	 8.133340000006536e+000	 9.960016205542415e+000
0	 2.133340000006534e+000	 8.200010000009550e+000	 9.962693602431637e+000
0	 2.133340000006534e+000	 8.266680000012268e+000	 9.965254174568187e+000
0	 2.133340000006534e+000	 8.333350000014583e+000	 9.967699868359304e+000
0	 2.133340000006534e+000	 8.400020000016401e+000	 9.970032630212184e+000
0	 2.133340000006534e+000	 8.466690000017616e+000	 9.972254406534043e+000
0	 2.133340000006534e+000	 8.533360000018135e+000	 9.974367143732117e+000
0	 2.133340000006535e+000	 8.600030000017851e+000	 9.976372788213599e+000
0	 2.133340000006534e+000	 8.666700000016668e+000	 9.978273286385718e+000
0	 2.200010000009551e+000	 8.000000000000000e+000	 9.957907990515999e+000
0	 2.200010000009551e+000	 8.066670000003319e+000	 9.960552296172658e+000
0	 2.200010000009551e+000	 8.133340000006532e+000	 9.963091143907485e+000
0	 2.200010000009551e+000	 8.200010000009550e+000	 9.965526710179329e+000
0	 2.200010000009551e+000	 8.266680000012268e+000	 9.967861171447057e+000
0	 2.200010000009550e+000	 8.333350000014583e+000	 9.970096704169523e+000
0	 2.200010000009550e+000	 8.400020000016399e+000	 9.972235484805589e+000
0	 2.200010000009551e+000	 8.466690000017618e+000	 9.974279689814129e+000
0	 2.200010000009550e+000	 8.533360000018135e+000	 9.976231495653986e+000
0	 2.200010000009550e+000	 8.600030000017851e+000	 9.978093078784021e+000
0	 2.200010000009551e+000	 8.666700000016666e+000	 9.979866615663081e+000
0	 2.266680000012267e+000	 7.999999999999998e+000	 9.961539369562038e+000
0	 2.266680000012268e+000	 8.066670000003319e+000	 9.963900903553942e+000
0	 2.266680000012267e+000	 8.133340000006530e+000	 9.966174130744991e+000
0	 2.266680000012268e+000	 8.200010000009554e+000	 9.968361402202751e+000
0	 2.266680000012266e+000	 8.266680000012265e+000	 9.970465068994850e+000
0	 2.266680000012268e+000	 8.333350000014583e+000	 9.972487482188832e+000
0	 2.266680000012268e+000	 8.400020000016403e+000	 9.974430992852293e+000
0	 2.266680000012267e+000	 8.466690000017618e+000	 9.976297952052827e+000
0	 2.266680000012268e+000	 8.533360000018135e+000	 9.978090710858004e+000
0	 2.266680000012268e+000	 8.600030000017849e+000	 9.979811620335420e+000
0	 2.266680000012268e+000	 8.666700000016670e+000	 9.981463031552620e+000
0	 2.333350000014583e+000	 8.000000000000000e+000	 9.965178678950561e+000
0	 2.333350000014584e+000	 8.066670000003315e+000	 9.967251930401906e+000
0	 2.333350000014585e+000	 8.133340000006532e+000	 9.969255218805452e+000
0	 2.333350000014584e+000	 8.200010000009552e+000	 9.971191014394618e+000
0	 2.333350000014583e+000	 8.266680000012267e+000	 9.973061787402770e+000
0	 2.333350000014584e+000	 8.333350000014583e+000	 9.974870008063293e+000
0	 2.333350000014584e+000	 8.400020000016401e+000	 9.976618146609608e+000
0	 2.333350000014584e+000	 8.466690000017618e+000	 9.978308673275073e+000
0	 2.333350000014585e+000	 8.533360000018135e+000	 9.979944058293082e+000
0	 2.333350000014585e+000	 8.600030000017851e+000	 9.981526771897022e+000
0	 2.333350000014584e+000	 8.666700000016668e+000	 9.983059284320275e+000
0	 2.400020000016401e+000	 8.000000000000000e+000	 9.968807308616910e+000
0	 2.400020000016401e+000	 8.066670000003317e+000	 9.970591447481290e+000
0	 2.400020000016401e+000	 8.133340000006534e+000	 9.972324460839397e+000
0	 2.400020000016401e+000	 8.200010000009550e+000	 9.974008882647544e+000
0	 2.400020000016402e+000	 8.266680000012268e+000	 9.975647246861984e+000
0	 2.400020000016402e+000	 8.333350000014583e+000	 9.977242087438995e+000
0	 2.400020000016401e+000	 8.400020000016397e+000	 9.978795938334830e+000
0	 2.400020000016401e+000	 8.466690000017618e+000	 9.980311333505791e+000
0	 2.400020000016401e+000	 8.533360000018135e+000	 9.981790806908130e+000
0	 2.400020000016401e+000	 8.600030000017851e+000	 9.983236892498107e+000
0	 2.400020000016401e+000	 8.666700000016665e+000	 9.984652124232026e+000
0	 2.466690000017618e+000	 8.000000000000000e+000	 9.972406648496362e+000
0	 2.466690000017617e+000	 8.066670000003317e+000	 9.973905525556795e+000
0	 2.466690000017617e+000	 8.133340000006534e+000	 9.975371909597335e+000
0	 2.466690000017619e+000	 8.200010000009552e+000	 9.976808342854222e+000
0	 2.466690000017618e+000	 8.266680000012268e+000	 9.978217367563680e+000
0	 2.466690000017617e+000	 8.333350000014585e+000	 9.979601525961963e+000
0	 2.466690000017617e+000	 8.400020000016401e+000	 9.980963360285296e+000
0	 2.466690000017617e+000	 8.466690000017616e+000	 9.982305412769909e+000
0	 2.466690000017618e+000	 8.533360000018135e+000	 9.983630225652043e+000
0	 2.466690000017618e+000	 8.600030000017849e+000	 9.984940341167915e+000
0	 2.466690000017618e+000	 8.666700000016668e+000	 9.986238301553794e+000
0	 2.533360000018133e+000	 8.000000000000000e+000	 9.975958088524223e+000
0	 2.533360000018134e+000	 8.066670000003315e+000	 9.977180235393179e+000
0	 2.533360000018134e+000	 8.133340000006534e+000	 9.978387617829778e+000
0	 2.533360000018133e+000	 8.200010000009549e+000	 9.979582730907305e+000
0	 2.533360000018134e+000	 8.266680000012268e+000	 9.980768069699041e+000
0	 2.533360000018135e+000	 8.333350000014585e+000	 9.981946129278290e+000
0	 2.533360000018134e+000	 8.400020000016403e+000	 9.983119404718293e+000
0	 2.533360000018134e+000	 8.466690000017616e+000	 9.984290391092344e+000
0	 2.533360000018134e+000	 8.533360000018133e+000	 9.985461583473716e+000
0	 2.533360000018134e+000	 8.600030000017851e+000	 9.986635476935707e+000
0	 2.533360000018134e+000	 8.666700000016666e+000	 9.987814566551574e+000
0	 2.600030000017851e+000	 8.000000000000000e+000	 9.979443018635823e+000
0	 2.600030000017851e+000	 8.066670000003317e+000	 9.980401647755153e+000
0	 2.600030000017850e+000	 8.133340000006532e+000	 9.981361638287245e+000
0	 2.600030000017851e+000	 8.200010000009552e+000	 9.982325382699489e+000
0	 2.600030000017851e+000	 8.266680000012268e+000	 9.983295273459273e+000
0	 2.600030000017851e+000	 8.333350000014585e+000	 9.984273703034029e+000
0	 2.600030000017850e+000	 8.400020000016401e+000	 9.985263063891146e+000
0	 2.600030000017850e+000	 8.466690000017618e+000	 9.986265748498033e+000
0	 2.600030000017850e+000	 8.533360000018133e+000	 9.987284149322081e+000
0	 2.600030000017850e+000	 8.600030000017849e+000	 9.988320658830713e+000
0	 2.600030000017851e+000	 8.666700000016668e+000	 9.989377669491304e+000
0	 2.666700000016667e+000	 8.000000000000000e+000	 9.982842828766458e+000
0	 2.666700000016666e+000	 8.066670000003317e+000	 9.983555833407475e+000
0	 2.666700000016666e+000	 8.133340000006532e+000	 9.984284023720246e+000
0	 2.666700000016666e+000	 8.200010000009550e+000	 9.985029634123402e+000
0	 2.666700000016666e+000	 8.266680000012267e+000	 9.985794899035543e+000
0	 2.666700000016666e+000	 8.333350000014583e+000	 9.986582052875246e+000
0	 2.666700000016665e+000	 8.400020000016399e+000	 9.987393330061167e+000
0	 2.666700000016666e+000	 8.466690000017618e+000	 9.988230965011894e+000
0	 2.666700000016666e+000	 8.533360000018133e+000	 9.989097192146028e+000
0	 2.666700000016666e+000	 8.600030000017851e+000	 9.989994245882180e+000
0	 2.666700000016666e+000	 8.666700000016668e+000	 9.990924360638941e+000
0	 2.000000000000000e+000	 8.666700000016666e+000	 9.975108886603646e+000
0	 2.000000000000000e+000	 8.733360002791905e+000	 9.977178026977677e+000
0	 2.000000000000000e+000	 8.800020022230555e+000	 9.979169885701252e+000
0	 2.000000000000000e+000	 8.866680074997039e+000	 9.981089267264391e+000
0	 2.000000000000000e+000	 8.933340177755779e+000	 9.982940976419473e+000
0	 2.000000000000000e+000	 9.000000347171183e+000	 9.984729818181235e+000
0	 2.000000000000000e+000	 9.066660599907667e+000	 9.986460597826820e+000
0	 2.000000000000000e+000	 9.133320952629653e+000	 9.988138120895707e+000
0	 2.000000000000000e+000	 9.199981422001558e+000	 9.989767193189703e+000
0	 2.000000000000000e+000	 9.266642024687796e+000	 9.991352620772995e+000
0	 2.000000000000000e+000	 9.333302777352783e+000	 9.992899209972043e+000
0	 2.066670000003317e+000	 8.666700000016666e+000	 9.976686293454554e+000
0	 2.066670000003317e+000	 8.733360002791905e+000	 9.978622923174612e+000
0	 2.066670000003317e+000	 8.800020022230557e+000	 9.980487532535744e+000
0	 2.066670000003318e+000	 8.866680074997042e+000	 9.982284536689097e+000
0	 2.066670000003317e+000	 8.933340177755779e+000	 9.984018351032315e+000
0	 2.066670000003317e+000	 9.000000347171184e+000	 9.985693391209621e+000
0	 2.066670000003317e+000	 9.066660599907671e+000	 9.987314073111682e+000
0	 2.066670000003316e+000	 9.133320952629656e+000	 9.988884812875654e+000
0	 2.066670000003317e+000	 9.199981422001560e+000	 9.990410026885204e+000
0	 2.066670000003317e+000	 9.266642024687798e+000	 9.991894131770501e+000
0	 2.066670000003317e+000	 9.333302777352783e+000	 9.993341544408137e+000
0	 2.133340000006534e+000	 8.666700000016668e+000	 9.978273286385718e+000
0	 2.133340000006534e+000	 8.733360002791903e+000	 9.980085994482813e+000
0	 2.133340000006534e+000	 8.800020022230553e+000	 9.981830231887908e+000
0	 2.133340000006534e+000	 8.866680074997042e+000	 9.983510058089314e+000
0	 2.133340000006534e+000	 8.933340177755776e+000	 9.985129532808351e+000
0	 2.133340000006534e+000	 9.000000347171181e+000	 9.986692715999361e+000
0	 2.133340000006534e+000	 9.066660599907666e+000	 9.988203667849657e+000
0	 2.133340000006534e+000	 9.133320952629655e+000	 9.989666448779570e+000
0	 2.133340000006534e+000	 9.199981422001558e+000	 9.991085119442404e+000
0	 2.133340000006534e+000	 9.266642024687796e+000	 9.992463740724435e+000
0	 2.133340000006534e+000	 9.333302777352783e+000	 9.993806373744887e+000
0	 2.200010000009551e+000	 8.666700000016666e+000	 9.979866615663081e+000
0	 2.200010000009551e+000	 8.733360002791905e+000	 9.981562202328986e+000
0	 2.200010000009551e+000	 8.800020022230557e+000	 9.983191494450216e+000
0	 2.200010000009550e+000	 8.866680074997039e+000	 9.984758229528982e+000
0	 2.200010000009551e+000	 8.933340177755778e+000	 9.986266145288866e+000
0	 2.200010000009550e+000	 9.000000347171183e+000	 9.987718979674717e+000
0	 2.200010000009550e+000	 9.066660599907667e+000	 9.989120470852852e+000
0	 2.200010000009551e+000	 9.133320952629656e+000	 9.990474357210800e+000
0	 2.200010000009551e+000	 9.199981422001558e+000	 9.991784377357522e+000
0	 2.200010000009551e+000	 9.266642024687799e+000	 9.993054270123229e+000
0	 2.200010000009551e+000	 9.333302777352783e+000	 9.994287774559435e+000
0	 2.266680000012268e+000	 8.666700000016670e+000	 9.981463031552620e+000
0	 2.266680000012267e+000	 8.733360002791901e+000	 9.983046508139825e+000
0	 2.266680000012267e+000	 8.800020022230553e+000	 9.984564830915122e+000
0	 2.266680000012267e+000	 8.866680074997042e+000	 9.986021449072048e+000
0	 2.266680000012268e+000	 8.933340177755781e+000	 9.987419812015149e+000
0	 2.266680000012268e+000	 9.000000347171181e+000	 9.988763369360028e+000
0	 2.266680000012267e+000	 9.066660599907669e+000	 9.990055570933336e+000
0	 2.266680000012268e+000	 9.133320952629653e+000	 9.991299866772716e+000
0	 2.266680000012267e+000	 9.199981422001558e+000	 9.992499707126823e+000
0	 2.266680000012267e+000	 9.266642024687796e+000	 9.993658542455323e+000
0	 2.266680000012268e+000	 9.333302777352783e+000	 9.994779823428921e+000
0	 2.333350000014584e+000	 8.666700000016668e+000	 9.983059284320273e+000
0	 2.333350000014585e+000	 8.733360002791905e+000	 9.984533873342031e+000
0	 2.333350000014585e+000	 8.800020022230557e+000	 9.985943751975087e+000
0	 2.333350000014584e+000	 8.866680074997040e+000	 9.987292114782392e+000
0	 2.333350000014585e+000	 8.933340177755779e+000	 9.988582156528517e+000
0	 2.333350000014585e+000	 9.000000347171183e+000	 9.989817072179566e+000
0	 2.333350000014585e+000	 9.066660599907669e+000	 9.991000056903189e+000
0	 2.333350000014584e+000	 9.133320952629658e+000	 9.992134306068611e+000
0	 2.333350000014585e+000	 9.199981422001560e+000	 9.993223015246537e+000
0	 2.333350000014584e+000	 9.266642024687796e+000	 9.994269380209227e+000
0	 2.333350000014584e+000	 9.333302777352781e+000	 9.995276596930458e+000
0	 2.400020000016401e+000	 8.666700000016665e+000	 9.984652124232024e+000
0	 2.400020000016400e+000	 8.733360002791899e+000	 9.986019259362346e+000
0	 2.400020000016401e+000	 8.800020022230555e+000	 9.987321768322550e+000
0	 2.400020000016401e+000	 8.866680074997040e+000	 9.988562624723963e+000
0	 2.400020000016402e+000	 8.933340177755779e+000	 9.989744802370293e+000
0	 2.400020000016401e+000	 9.000000347171181e+000	 9.990871275257616e+000
0	 2.400020000016401e+000	 9.066660599907667e+000	 9.991945017574514e+000
0	 2.400020000016401e+000	 9.133320952629655e+000	 9.992969003701841e+000
0	 2.400020000016401e+000	 9.199981422001558e+000	 9.993946208212904e+000
0	 2.400020000016402e+000	 9.266642024687796e+000	 9.994879605873377e+000
0	 2.400020000016400e+000	 9.333302777352781e+000	 9.995772171641237e+000
0	 2.466690000017618e+000	 8.666700000016668e+000	 9.986238301553794e+000
0	 2.466690000017617e+000	 8.733360002791901e+000	 9.987497627627414e+000
0	 2.466690000017618e+000	 8.800020022230559e+000	 9.988692390649987e+000
0	 2.466690000017618e+000	 8.866680074997042e+000	 9.989825376960679e+000
0	 2.466690000017617e+000	 8.933340177755776e+000	 9.990899373081746e+000
0	 2.466690000017618e+000	 9.000000347171183e+000	 9.991917165718515e+000
0	 2.466690000017617e+000	 9.066660599907667e+000	 9.992881541759354e+000
0	 2.466690000017618e+000	 9.133320952629656e+000	 9.993795288275740e+000
0	 2.466690000017618e+000	 9.199981422001557e+000	 9.994661192522166e+000
0	 2.466690000017618e+000	 9.266642024687798e+000	 9.995482041936189e+000
0	 2.466690000017618e+000	 9.333302777352783e+000	 9.996260624138328e+000
0	 2.533360000018134e+000	 8.666700000016666e+000	 9.987814566551572e+000
0	 2.533360000018134e+000	 8.733360002791899e+000	 9.988963939563986e+000
0	 2.533360000018134e+000	 8.800020022230557e+000	 9.990049129649847e+000
0	 2.533360000018134e+000	 8.866680074997042e+000	 9.991072769556455e+000
0	 2.533360000018135e+000	 8.933340177755779e+000	 9.992037492204199e+000
0	 2.533360000018135e+000	 9.000000347171181e+000	 9.992945930686490e+000
0	 2.533360000018134e+000	 9.066660599907667e+000	 9.993800718269807e+000
0	 2.533360000018135e+000	 9.133320952629656e+000	 9.994604488393652e+000
0	 2.533360000018134e+000	 9.199981422001557e+000	 9.995359874670594e+000
0	 2.533360000018134e+000	 9.266642024687798e+000	 9.996069510886159e+000
0	 2.533360000018134e+000	 9.333302777352783e+000	 9.996736030998944e+000
0	 2.600030000017851e+000	 8.666700000016668e+000	 9.989377669491303e+000
0	 2.600030000017851e+000	 8.733360002791903e+000	 9.990413156598750e+000
0	 2.600030000017850e+000	 8.800020022230555e+000	 9.991385496014594e+000
0	 2.600030000017850e+000	 8.866680074997042e+000	 9.992297200575232e+000
0	 2.600030000017851e+000	 8.933340177755778e+000	 9.993150783278956e+000
0	 2.600030000017851e+000	 9.000000347171183e+000	 9.993948757285876e+000
0	 2.600030000017851e+000	 9.066660599907669e+000	 9.994693635917928e+000
0	 2.600030000017851e+000	 9.133320952629655e+000	 9.995387932658909e+000
0	 2.600030000017851e+000	 9.199981422001558e+000	 9.996034161154388e+000
0	 2.600030000017851e+000	 9.266642024687798e+000	 9.996634835211737e+000
0	 2.600030000017850e+000	 9.333302777352781e+000	 9.997192468800188e+000
0	 2.666700000016666e+000	 8.666700000016668e+000	 9.990924360638937e+000
0	 2.666700000016667e+000	 8.733360002791903e+000	 9.991840240158389e+000
0	 2.666700000016667e+000	 8.800020022230555e+000	 9.992695000436646e+000
0	 2.666700000016666e+000	 8.866680074997040e+000	 9.993491068080903e+000
0	 2.666700000016667e+000	 8.933340177755779e+000	 9.994230869847327e+000
0	 2.666700000016666e+000	 9.000000347171183e+000	 9.994916832640968e+000
0	 2.666700000016666e+000	 9.066660599907667e+000	 9.995551383515833e+000
0	 2.666700000016666e+000	 9.133320952629655e+000	 9.996136949674844e+000
0	 2.666700000016667e+000	 9.199981422001557e+000	 9.996675958469790e+000
0	 2.666700000016667e+000	 9.266642024687794e+000	 9.997170837401372e+000
0	 2.666700000016666e+000	 9.333302777352785e+000	 9.997624014119191e+000
0	 2.000000000000000e+000	 9.333302777352783e+000	 9.992899209972043e+000
0	 2.000000000000000e+000	 9.399973674588177e+000	 9.994336238732656e+000
0	 2.000000000000000e+000	 9.466644621844621e+000	 9.995593147049242e+000
0	 2.000000000000000e+000	 9.533315502449998e+000	 9.996675669960752e+000
0	 2.000000000000000e+000	 9.599986199732198e+000	 9.997589539074514e+000
0	 2.000000000000000e+000	 9.666656597019093e+000	 9.998340482565808e+000
0	 2.000000000000000e+000	 9.733326577638575e+000	 9.998934225177212e+000
0	 2.000000000000000e+000	 9.799996024918524e+000	 9.999376488218022e+000
0	 2.000000000000000e+000	 9.866664822186822e+000	 9.999672989563344e+000
0	 2.000000000000000e+000	 9.933332852771352e+000	 9.999829443653317e+000
0	 2.000000000000000e+000	 1.000000000000000e+001	 9.999851561492378e+000
0	 2.066670000003317e+000	 9.333302777352783e+000	 9.993341544408136e+000
0	 2.066670000003317e+000	 9.399973674588177e+000	 9.994686019678639e+000
0	 2.066670000003317e+000	 9.466644621844623e+000	 9.995861494621188e+000
0	 2.066670000003317e+000	 9.533315502450000e+000	 9.996873300928815e+000
0	 2.066670000003317e+000	 9.599986199732197e+000	 9.997726767076545e+000
0	 2.066670000003318e+000	 9.666656597019095e+000	 9.998427218320927e+000
0	 2.066670000003317e+000	 9.733326577638573e+000	 9.998979976699442e+000
0	 2.066670000003318e+000	 9.799996024918524e+000	 9.999390361029940e+000
0	 2.066670000003318e+000	 9.866664822186822e+000	 9.999663686909695e+000
0	 2.066670000003317e+000	 9.933332852771352e+000	 9.999805266714871e+000
0	 2.066670000003316e+000	 9.999999999999998e+000	 9.999820409599385e+000
0	 2.133340000006534e+000	 9.333302777352783e+000	 9.993806373744883e+000
0	 2.133340000006534e+000	 9.399973674588177e+000	 9.995052784986390e+000
0	 2.133340000006534e+000	 9.466644621844621e+000	 9.996142895995144e+000
0	 2.133340000006534e+000	 9.533315502450003e+000	 9.997081595175169e+000
0	 2.133340000006534e+000	 9.599986199732195e+000	 9.997873767941478e+000
0	 2.133340000006534e+000	 9.666656597019093e+000	 9.998524296719495e+000
0	 2.133340000006534e+000	 9.733326577638577e+000	 9.999038060944503e+000
0	 2.133340000006534e+000	 9.799996024918523e+000	 9.999419937061060e+000
0	 2.133340000006534e+000	 9.866664822186820e+000	 9.999674798522245e+000
0	 2.133340000006534e+000	 9.933332852771351e+000	 9.999807515788806e+000
0	 2.133340000006534e+000	 1.000000000000000e+001	 9.999822956328412e+000
0	 2.200010000009551e+000	 9.333302777352783e+000	 9.994287774559433e+000
0	 2.200010000009551e+000	 9.399973674588173e+000	 9.995431870927567e+000
0	 2.200010000009550e+000	 9.466644621844621e+000	 9.996433619832406e+000
0	 2.200010000009551e+000	 9.533315502450000e+000	 9.997297426450837e+000
0	 2.200010000009550e+000	 9.599986199732197e+000	 9.998027693211398e+000
0	 2.200010000009551e+000	 9.666656597019095e+000	 9.998628819793836e+000
0	 2.200010000009551e+000	 9.733326577638573e+000	 9.999105203128639e+000
0	 2.200010000009551e+000	 9.799996024918523e+000	 9.999461237396277e+000
0	 2.200010000009550e+000	 9.866664822186822e+000	 9.999701314026614e+000
0	 2.200010000009551e+000	 9.933332852771354e+000	 9.999829821698141e+000
0	 2.200010000009550e+000	 1.000000000000000e+001	 9.999851146337086e+000
0	 2.266680000012268e+000	 9.333302777352783e+000	 9.994779823428925e+000
0	 2.266680000012267e+000	 9.399973674588175e+000	 9.995818613773775e+000
0	 2.266680000012268e+000	 9.466644621844619e+000	 9.996729934794365e+000
0	 2.266680000012268e+000	 9.533315502450002e+000	 9.997517668506873e+000
0	 2.266680000012268e+000	 9.599986199732197e+000	 9.998185694428342e+000
0	 2.266680000012267e+000	 9.666656597019093e+000	 9.998737889576267e+000
0	 2.266680000012268e+000	 9.733326577638575e+000	 9.999178128468031e+000
0	 2.266680000012268e+000	 9.799996024918526e+000	 9.999510283120374e+000
0	 2.266680000012268e+000	 9.866664822186824e+000	 9.999738223048663e+000
0	 2.266680000012268e+000	 9.933332852771354e+000	 9.999865815266094e+000
0	 2.266680000012268e+000	 1.000000000000000e+001	 9.999896924283062e+000
0	 2.333350000014584e+000	 9.333302777352781e+000	 9.995276596930461e+000
0	 2.333350000014584e+000	 9.399973674588173e+000	 9.996208349796660e+000
0	 2.333350000014584e+000	 9.466644621844621e+000	 9.997028109542326e+000
0	 2.333350000014584e+000	 9.533315502450002e+000	 9.997739195094251e+000
0	 2.333350000014584e+000	 9.599986199732197e+000	 9.998344923134296e+000
0	 2.333350000014585e+000	 9.666656597019093e+000	 9.998848608098967e+000
0	 2.333350000014584e+000	 9.733326577638575e+000	 9.999253562178854e+000
0	 2.333350000014584e+000	 9.799996024918523e+000	 9.999563095318187e+000
0	 2.333350000014584e+000	 9.866664822186822e+000	 9.999780515214036e+000
0	 2.333350000014584e+000	 9.933332852771352e+000	 9.999909127315704e+000
0	 2.333350000014584e+000	 1.000000000000000e+001	 9.999952234824017e+000
0	 2.400020000016400e+000	 9.333302777352781e+000	 9.995772171641239e+000
0	 2.400020000016401e+000	 9.399973674588178e+000	 9.996596415267819e+000
0	 2.400020000016401e+000	 9.466644621844623e+000	 9.997324412737630e+000
0	 2.400020000016401e+000	 9.533315502450002e+000	 9.997958879964081e+000
0	 2.400020000016401e+000	 9.599986199732197e+000	 9.998502530871376e+000
0	 2.400020000016402e+000	 9.666656597019093e+000	 9.998958077394281e+000
0	 2.400020000016401e+000	 9.733326577638579e+000	 9.999328229477326e+000
0	 2.400020000016401e+000	 9.799996024918523e+000	 9.999615695074517e+000
0	 2.400020000016401e+000	 9.866664822186822e+000	 9.999823180148562e+000
0	 2.400020000016401e+000	 9.933332852771351e+000	 9.999953388670184e+000
0	 2.400020000016401e+000	 1.000000000000000e+001	 1.000000902261760e+001
0	 2.466690000017618e+000	 9.333302777352783e+000	 9.996260624138330e+000
0	 2.466690000017618e+000	 9.399973674588177e+000	 9.996978146458933e+000
0	 2.466690000017618e+000	 9.466644621844623e+000	 9.997615113041622e+000
0	 2.466690000017617e+000	 9.533315502450000e+000	 9.998173596867275e+000
0	 2.466690000017617e+000	 9.599986199732198e+000	 9.998655669181588e+000
0	 2.466690000017618e+000	 9.666656597019095e+000	 9.999063399494432e+000
0	 2.466690000017618e+000	 9.733326577638577e+000	 9.999398855579624e+000
0	 2.466690000017617e+000	 9.799996024918523e+000	 9.999664103474171e+000
0	 2.466690000017617e+000	 9.866664822186822e+000	 9.999861207477871e+000
0	 2.466690000017618e+000	 9.933332852771354e+000	 9.999992230152518e+000
0	 2.466690000017618e+000	 1.000000000000000e+001	 1.000005923232149e+001
0	 2.533360000018134e+000	 9.333302777352783e+000	 9.996736030998942e+000
0	 2.533360000018134e+000	 9.399973674588177e+000	 9.997348879641592e+000
0	 2.533360000018134e+000	 9.466644621844621e+000	 9.997896479115619e+000
0	 2.533360000018134e+000	 9.533315502450002e+000	 9.998380219554973e+000
0	 2.533360000018134e+000	 9.599986199732197e+000	 9.998801489606949e+000
0	 2.533360000018134e+000	 9.666656597019095e+000	 9.999161676431767e+000
0	 2.533360000018135e+000	 9.733326577638575e+000	 9.999462165701944e+000
0	 2.533360000018134e+000	 9.799996024918524e+000	 9.999704341602032e+000
0	 2.533360000018134e+000	 9.866664822186824e+000	 9.999889586827852e+000
0	 2.533360000018134e+000	 9.933332852771354e+000	 1.000001928258603e+001
0	 2.533360000018134e+000	 1.000000000000000e+001	 1.000009480859323e+001
0	 2.600030000017850e+000	 9.333302777352781e+000	 9.997192468800186e+000
0	 2.600030000017851e+000	 9.399973674588177e+000	 9.997703951087454e+000
0	 2.600030000017850e+000	 9.466644621844619e+000	 9.998164779620955e+000
0	 2.600030000017850e+000	 9.533315502450002e+000	 9.998575621778123e+000
0	 2.600030000017850e+000	 9.599986199732197e+000	 9.998937143689526e+000
0	 2.600030000017850e+000	 9.666656597019093e+000	 9.999250010238455e+000
0	 2.600030000017850e+000	 9.733326577638575e+000	 9.999514885060492e+000
0	 2.600030000017850e+000	 9.799996024918523e+000	 9.999732430542887e+000
0	 2.600030000017851e+000	 9.866664822186824e+000	 9.999903307824210e+000
0	 2.600030000017850e+000	 9.933332852771351e+000	 1.000002817679365e+001
0	 2.600030000017850e+000	 1.000000000000000e+001	 1.000010769609060e+001
0	 2.666700000016666e+000	 9.333302777352785e+000	 9.997624014119195e+000
0	 2.666700000016666e+000	 9.399973674588178e+000	 9.998038697068138e+000
0	 2.666700000016666e+000	 9.466644621844617e+000	 9.998416283219003e+000
0	 2.666700000016666e+000	 9.533315502450000e+000	 9.998756677287801e+000
0	 2.666700000016666e+000	 9.599986199732197e+000	 9.999059782971365e+000
0	 2.666700000016667e+000	 9.666656597019095e+000	 9.999325502946864e+000
0	 2.666700000016666e+000	 9.733326577638575e+000	 9.999553738871414e+000
0	 2.666700000016667e+000	 9.799996024918521e+000	 9.999744391381499e+000
0	 2.666700000016666e+000	 9.866664822186822e+000	 9.999897360092625e+000
0	 2.666700000016666e+000	 9.933332852771351e+000	 1.000001254359864e+001
0	 2.666700000016666e+000	 1.000000000000000e+001	 1.000008983947121e+001
0	 2.666700000016666e+000	 0.000000000000000e+000	-9.742032393972660e+001
0	 2.666700000016666e+000	 6.666714722864756e-002	-8.491316288851726e+001
0	 2.666700000016666e+000	 1.333351778131789e-001	-7.306505067763786e+001
0	 2.666700000016666e+000	 2.000039750814772e-001	-6.188047426529010e+001
0	 2.666700000016666e+000	 2.666734223614255e-001	-5.136392737356062e+001
0	 2.666700000016666e+000	 3.333434029809069e-001	-4.151991048672932e+001
0	 2.666700000016666e+000	 4.000138002678045e-001	-3.235293084975511e+001
0	 2.666700000016666e+000	 4.666844975500011e-001	-2.386750246693925e+001
0	 2.666700000016666e+000	 5.333553781553803e-001	-1.606814610076621e+001
0	 2.666700000016666e+000	 6.000263254118247e-001	-8.959389270921912e+000
0	 2.666700000016666e+000	 6.666972226472175e-001	-2.545766253489407e+000
0	 2.733360000014533e+000	 0.000000000000000e+000	-1.014446043379106e+002
0	 2.733360000014533e+000	 6.666714722864756e-002	-8.788067015619879e+001
0	 2.733360000014533e+000	 1.333351778131789e-001	-7.514419624822608e+001
0	 2.733360000014533e+000	 2.000039750814772e-001	-6.322530692171032e+001
0	 2.733360000014532e+000	 2.666734223614255e-001	-5.211413342189090e+001
0	 2.733360000014533e+000	 3.333434029809069e-001	-4.180081392980942e+001
0	 2.733360000014533e+000	 4.000138002678044e-001	-3.227549356077284e+001
0	 2.733360000014533e+000	 4.666844975500011e-001	-2.352832436299861e+001
0	 2.733360000014533e+000	 5.333553781553801e-001	-1.554946531644175e+001
0	 2.733360000014533e+000	 6.000263254118246e-001	-8.329082331804095e+000
0	 2.733360000014533e+000	 6.666972226472175e-001	-1.857348249725388e+000
0	 2.800020000011600e+000	 0.000000000000000e+000	-1.038326456175155e+002
0	 2.800020000011600e+000	 6.666714722864754e-002	-8.949135518587019e+001
0	 2.800020000011600e+000	 1.333351778131790e-001	-7.611268264146436e+001
0	 2.800020000011600e+000	 2.000039750814773e-001	-6.367499414190333e+001
0	 2.800020000011600e+000	 2.666734223614255e-001	-5.215666289781839e+001
0	 2.800020000011600e+000	 3.333434029809069e-001	-4.153606917113518e+001
0	 2.800020000011600e+000	 4.000138002678044e-001	-3.179160027352764e+001
0	 2.800020000011600e+000	 4.666844975500012e-001	-2.290165056505702e+001
0	 2.800020000011600e+000	 5.333553781553803e-001	-1.484462145299588e+001
0	 2.800020000011599e+000	 6.000263254118249e-001	-7.598921390837260e+000
0	 2.800020000011599e+000	 6.666972226472175e-001	-1.142965877488524e+000
0	 2.866680000008067e+000	 0.000000000000000e+000	-1.046448278966778e+002
0	 2.866680000008066e+000	 6.666714722864754e-002	-8.980057229582768e+001
0	 2.866680000008067e+000	 1.333351778131790e-001	-7.602078114936511e+001
0	 2.866680000008066e+000	 2.000039750814772e-001	-6.327466694059276e+001
0	 2.866680000008067e+000	 2.666734223614255e-001	-5.153144926261147e+001
0	 2.866680000008067e+000	 3.333434029809069e-001	-4.076035481659138e+001
0	 2.866680000008067e+000	 4.000138002678044e-001	-3.093061741022962e+001
0	 2.866680000008067e+000	 4.666844975500011e-001	-2.201147795639497e+001
0	 2.866680000008066e+000	 5.333553781553803e-001	-1.397218447195877e+001
0	 2.866680000008067e+000	 6.000263254118248e-001	-6.781992076812442e+000
0	 2.866680000008067e+000	 6.666972226472177e-001	-4.101629930715323e-001
0	 2.933340000004133e+000	 0.000000000000000e+000	-1.039415312935483e+002
0	 2.933340000004133e+000	 6.666714722864756e-002	-8.886367580437849e+001
0	 2.933340000004133e+000	 1.333351778131789e-001	-7.491876306394907e+001
0	 2.933340000004133e+000	 2.000039750814772e-001	-6.206945633250835e+001
0	 2.933340000004134e+000	 2.666734223614256e-001	-5.027842597754292e+001
0	 2.933340000004133e+000	 3.333434029809070e-001	-3.950834947206582e+001
0	 2.933340000004133e+000	 4.000138002678044e-001	-2.972191139309095e+001
0	 2.933340000004133e+000	 4.666844975500011e-001	-2.088180342029421e+001
0	 2.933340000004134e+000	 5.333553781553803e-001	-1.295072433486117e+001
0	 2.933340000004133e+000	 6.000263254118248e-001	-5.891380018521033e+000
0	 2.933340000004133e+000	 6.666972226472175e-001	 3.335165472328265e-001
0	 3.000000000000000e+000	 0.000000000000000e+000	-1.017831359262914e+002
0	 3.000000000000000e+000	 6.666714722864756e-002	-8.673602002984067e+001
0	 3.000000000000000e+000	 1.333351778131790e-001	-7.285689967724537e+001
0	 3.000000000000000e+000	 2.000039750814773e-001	-6.010449333238607e+001
0	 3.000000000000000e+000	 2.666734223614255e-001	-4.843752650388996e+001
0	 3.000000000000001e+000	 3.333434029809069e-001	-3.781473174344945e+001
0	 3.000000000000000e+000	 4.000138002678044e-001	-2.819484864432583e+001
0	 3.000000000000000e+000	 4.666844975500011e-001	-1.953662384003775e+001
0	 3.000000000000000e+000	 5.333553781553801e-001	-1.179881100323459e+001
0	 3.000000000000000e+000	 6.000263254118247e-001	-4.940170844754687e+000
0	 3.000000000000001e+000	 6.666972226472178e-001	 1.080528887131800e+000
0	 3.066659999995866e+000	 0.000000000000000e+000	-9.823002191308575e+001
0	 3.066659999995867e+000	 6.666714722864757e-002	-8.347295929054324e+001
0	 3.066659999995868e+000	 1.333351778131789e-001	-6.988546228129138e+001
0	 3.066659999995867e+000	 2.000039750814772e-001	-5.742490895496815e+001
0	 3.066659999995867e+000	 2.666734223614256e-001	-4.604868430293433e+001
0	 3.066659999995867e+000	 3.333434029809069e-001	-3.571418023663634e+001
0	 3.066659999995868e+000	 4.000138002678044e-001	-2.637879558615058e+001
0	 3.066659999995868e+000	 4.666844975500012e-001	-1.799993609890987e+001
0	 3.066659999995868e+000	 5.333553781553801e-001	-1.053501443861125e+001
0	 3.066659999995868e+000	 6.000263254118249e-001	-3.941450184305369e+000
0	 3.066659999995867e+000	 6.666972226472177e-001	 1.823330170332536e+000
0	 3.133319999991934e+000	 0.000000000000000e+000	-9.334256937212385e+001
0	 3.133319999991935e+000	 6.666714722864757e-002	-7.912984790482612e+001
0	 3.133319999991934e+000	 1.333351778131790e-001	-6.605472216813281e+001
0	 3.133319999991934e+000	 2.000039750814772e-001	-5.407583421500293e+001
0	 3.133319999991934e+000	 2.666734223614255e-001	-4.315183283596227e+001
0	 3.133319999991933e+000	 3.333434029809069e-001	-3.324137355752361e+001
0	 3.133319999991933e+000	 4.000138002678043e-001	-2.430311864078348e+001
0	 3.133319999991934e+000	 4.666844975500011e-001	-1.629573708019614e+001
0	 3.133319999991934e+000	 5.333553781553804e-001	-9.177904602524070e+000
0	 3.133319999991935e+000	 6.000263254118247e-001	-2.908303665965341e+000
0	 3.133319999991934e+000	 6.666972226472177e-001	 2.554376540542255e+000
0	 3.199979999988401e+000	 0.000000000000000e+000	-8.718115842161222e+001
0	 3.199979999988400e+000	 6.666714722864756e-002	-7.376204019104004e+001
0	 3.199979999988400e+000	 1.333351778131789e-001	-6.141495062982373e+001
0	 3.199979999988401e+000	 2.000039750814773e-001	-5.010240012724498e+001
0	 3.199979999988400e+000	 2.666734223614255e-001	-3.978690556426445e+001
0	 3.199979999988401e+000	 3.333434029809070e-001	-3.043099031201156e+001
0	 3.199979999988401e+000	 4.000138002678044e-001	-2.199718423044498e+001
0	 3.199979999988401e+000	 4.666844975500011e-001	-1.444802366718337e+001
0	 3.199979999988401e+000	 5.333553781553801e-001	-7.746051456506621e+000
0	 3.199979999988401e+000	 6.000263254118249e-001	-1.853816918527181e+000
0	 3.199979999988400e+000	 6.666972226472175e-001	 3.266124141468072e+000
0	 3.266639999985468e+000	 0.000000000000000e+000	-7.980616917977135e+001
0	 3.266639999985468e+000	 6.666714722864756e-002	-6.742489046754673e+001
0	 3.266639999985467e+000	 1.333351778131789e-001	-5.601641895842645e+001
0	 3.266639999985468e+000	 2.000039750814772e-001	-4.554973770645508e+001
0	 3.266639999985468e+000	 2.666734223614255e-001	-3.599383594913601e+001
0	 3.266639999985467e+000	 3.333434029809068e-001	-2.731770910600355e+001
0	 3.266639999985467e+000	 4.000138002678043e-001	-1.949035877735749e+001
0	 3.266639999985468e+000	 4.666844975500012e-001	-1.248079274315967e+001
0	 3.266639999985467e+000	 5.333553781553803e-001	-6.258024962093217e+000
0	 3.266639999985467e+000	 6.000263254118246e-001	-7.910755707837659e-001
0	 3.266639999985468e+000	 6.666972226472178e-001	 3.951029116817129e+000
0	 3.333299999983334e+000	 0.000000000000000e+000	-7.127798176483577e+001
0	 3.333299999983333e+000	 6.666714722864756e-002	-6.017375305271888e+001
0	 3.333299999983333e+000	 1.333351778131789e-001	-4.990939844601174e+001
0	 3.333299999983334e+000	 2.000039750814772e-001	-4.046297796740018e+001
0	 3.333299999983334e+000	 2.666734223614256e-001	-3.181255745187659e+001
0	 3.333299999983334e+000	 3.333434029809069e-001	-2.393620854540614e+001
0	 3.333299999983334e+000	 4.000138002678044e-001	-1.681200870374557e+001
0	 3.333299999983333e+000	 4.666844975500011e-001	-1.041804119141440e+001
0	 3.333299999983335e+000	 5.333553781553803e-001	-4.732395080818886e+000
0	 3.333299999983334e+000	 6.000263254118248e-001	 2.668347484717207e-001
0	 3.333299999983334e+000	 6.666972226472175e-001	 4.601547610296466e+000
0	 2.666700000016666e+000	 6.666972226472175e-001	-2.545766253489407e+000
0	 2.666700000016666e+000	 7.333579753122047e-001	 3.236371005420966e+000
0	 2.666700000016666e+000	 8.000185779984416e-001	 8.457394812136194e+000
0	 2.666700000016666e+000	 8.666790473703453e-001	 1.312012386548735e+001
0	 2.666700000016666e+000	 9.333394000923323e-001	 1.722737762574569e+001
0	 2.666700000016665e+000	 9.999996528288190e-001	 2.078197631464553e+001
0	 2.666700000016666e+000	 1.066659822244222e+000	 2.378674091540388e+001
0	 2.666700000016667e+000	 1.133319925002959e+000	 2.624449317273768e+001
0	 2.666700000016667e+000	 1.199979977769445e+000	 2.815805559287774e+001
0	 2.666700000016666e+000	 1.266639997208098e+000	 2.953025144358019e+001
0	 2.666700000016667e+000	 1.333299999983334e+000	 3.036390475413476e+001
0	 2.733360000014533e+000	 6.666972226472175e-001	-1.857348249725388e+000
0	 2.733360000014533e+000	 7.333579753122049e-001	 3.948221860537112e+000
0	 2.733360000014532e+000	 8.000185779984417e-001	 9.169437075553965e+000
0	 2.733360000014533e+000	 8.666790473703454e-001	 1.381236098141424e+001
0	 2.733360000014533e+000	 9.333394000923319e-001	 1.788305793144805e+001
0	 2.733360000014533e+000	 9.999996528288192e-001	 2.138759304624931e+001
0	 2.733360000014532e+000	 1.066659822244222e+000	 2.433203221369565e+001
0	 2.733360000014533e+000	 1.133319925002959e+000	 2.672244208896541e+001
0	 2.733360000014533e+000	 1.199979977769445e+000	 2.856489009455170e+001
0	 2.733360000014533e+000	 1.266639997208098e+000	 2.986544442027371e+001
0	 2.733360000014532e+000	 1.333299999983334e+000	 3.063017402328499e+001
0	 2.800020000011599e+000	 6.666972226472175e-001	-1.142965877488524e+000
0	 2.800020000011599e+000	 7.333579753122049e-001	 4.622665914726698e+000
0	 2.800020000011599e+000	 8.000185779984415e-001	 9.790655608916316e+000
0	 2.800020000011600e+000	 8.666790473703455e-001	 1.436974360058966e+001
0	 2.800020000011600e+000	 9.333394000923321e-001	 1.836867104894246e+001
0	 2.800020000011600e+000	 9.999996528288189e-001	 2.179617987687954e+001
0	 2.800020000011600e+000	 1.066659822244222e+000	 2.466101277103434e+001
0	 2.800020000011600e+000	 1.133319925002959e+000	 2.697191318178586e+001
0	 2.800020000011600e+000	 1.199979977769445e+000	 2.873762532327251e+001
0	 2.800020000011600e+000	 1.266639997208098e+000	 2.996689417340329e+001
0	 2.800020000011600e+000	 1.333299999983334e+000	 3.066846547386590e+001
0	 2.866680000008067e+000	 6.666972226472177e-001	-4.101629930715328e-001
0	 2.866680000008067e+000	 7.333579753122049e-001	 5.257427275113427e+000
0	 2.866680000008066e+000	 8.000185779984417e-001	 1.032343907107635e+001
0	 2.866680000008067e+000	 8.666790473703453e-001	 1.479872151456415e+001
0	 2.866680000008067e+000	 9.333394000923322e-001	 1.869412447700524e+001
0	 2.866680000008067e+000	 9.999996528288191e-001	 2.202049858153164e+001
0	 2.866680000008066e+000	 1.066659822244222e+000	 2.478869520299826e+001
0	 2.866680000008066e+000	 1.133319925002958e+000	 2.700956646799939e+001
0	 2.866680000008067e+000	 1.199979977769445e+000	 2.869396525488225e+001
0	 2.866680000008067e+000	 1.266639997208098e+000	 2.985274519375795e+001
0	 2.866680000008067e+000	 1.333299999983334e+000	 3.049676066650940e+001
0	 2.933340000004133e+000	 6.666972226472175e-001	 3.335165472328265e-001
0	 2.933340000004133e+000	 7.333579753122048e-001	 5.850230048821196e+000
0	 2.933340000004134e+000	 8.000185779984418e-001	 1.077017612088746e+001
0	 2.933340000004133e+000	 8.666790473703455e-001	 1.510574451488867e+001
0	 2.933340000004133e+000	 9.333394000923322e-001	 1.886932571441303e+001
0	 2.933340000004134e+000	 9.999996528288188e-001	 2.207331093520143e+001
0	 2.933340000004133e+000	 1.066659822244222e+000	 2.473009212516610e+001
0	 2.933340000004133e+000	 1.133319925002958e+000	 2.685206196440663e+001
0	 2.933340000004133e+000	 1.199979977769445e+000	 2.845161386522315e+001
0	 2.933340000004133e+000	 1.266639997208098e+000	 2.954114197212681e+001
0	 2.933340000004133e+000	 1.333299999983334e+000	 3.013304116184758e+001
0	 3.000000000000001e+000	 6.666972226472178e-001	 1.080528887131800e+000
0	 3.000000000000000e+000	 7.333579753122049e-001	 6.398798342974060e+000
0	 3.000000000000001e+000	 8.000185779984418e-001	 1.113325541720336e+001
0	 3.000000000000001e+000	 8.666790473703453e-001	 1.529726239311450e+001
0	 3.000000000000000e+000	 9.333394000923321e-001	 1.890418225994288e+001
0	 3.000000000000000e+000	 9.999996528288189e-001	 2.196737871288504e+001
0	 3.000000000000000e+000	 1.066659822244222e+000	 2.450021615311679e+001
0	 3.000000000000000e+000	 1.133319925002959e+000	 2.651605968780847e+001
0	 3.000000000000001e+000	 1.199979977769445e+000	 2.802827513013761e+001
0	 3.000000000000000e+000	 1.266639997208098e+000	 2.905022899929914e+001
0	 3.000000000000000e+000	 1.333299999983334e+000	 2.959528852051262e+001
0	 3.066659999995867e+000	 6.666972226472177e-001	 1.823330170332536e+000
0	 3.066659999995867e+000	 7.333579753122047e-001	 6.900856264696229e+000
0	 3.066659999995868e+000	 8.000185779984420e-001	 1.141506561887800e+001
0	 3.066659999995867e+000	 8.666790473703452e-001	 1.537972494079334e+001
0	 3.066659999995867e+000	 9.333394000923320e-001	 1.880860161237220e+001
0	 3.066659999995868e+000	 9.999996528288190e-001	 2.171546368957903e+001
0	 3.066659999995867e+000	 1.066659822244222e+000	 2.411407990242968e+001
0	 3.066659999995868e+000	 1.133319925002959e+000	 2.601821965500604e+001
0	 3.066659999995867e+000	 1.199979977769445e+000	 2.744165302546832e+001
0	 3.066659999995868e+000	 1.266639997208098e+000	 2.839815076606433e+001
0	 3.066659999995867e+000	 1.333299999983334e+000	 2.890148430313679e+001
0	 3.133319999991934e+000	 6.666972226472177e-001	 2.554376540542255e+000
0	 3.133319999991934e+000	 7.333579753122048e-001	 7.354127921112099e+000
0	 3.133319999991934e+000	 8.000185779984418e-001	 1.161799538476573e+001
0	 3.133319999991934e+000	 8.666790473703455e-001	 1.535958194947715e+001
0	 3.133319999991934e+000	 9.333394000923323e-001	 1.859249127047881e+001
0	 3.133319999991934e+000	 9.999996528288190e-001	 2.133032764028027e+001
0	 3.133319999991934e+000	 1.066659822244222e+000	 2.358669598868430e+001
0	 3.133319999991934e+000	 1.133319925002959e+000	 2.537520188280081e+001
0	 3.133319999991933e+000	 1.199979977769445e+000	 2.670945152705807e+001
0	 3.133319999991934e+000	 1.266639997208098e+000	 2.760305176321199e+001
0	 3.133319999991933e+000	 1.333299999983334e+000	 2.806961007035246e+001
0	 3.199979999988400e+000	 6.666972226472175e-001	 3.266124141468072e+000
0	 3.199979999988401e+000	 7.333579753122048e-001	 7.756337419346180e+000
0	 3.199979999988401e+000	 8.000185779984419e-001	 1.174443337372104e+001
0	 3.199979999988400e+000	 8.666790473703452e-001	 1.524328321071833e+001
0	 3.199979999988402e+000	 9.333394000923322e-001	 1.826575873304090e+001
0	 3.199979999988401e+000	 9.999996528288190e-001	 2.082473233998602e+001
0	 3.199979999988401e+000	 1.066659822244222e+000	 2.293307702746069e+001
0	 3.199979999988401e+000	 1.133319925002959e+000	 2.460366638799442e+001
0	 3.199979999988401e+000	 1.199979977769445e+000	 2.584937461075000e+001
0	 3.199979999988401e+000	 1.266639997208098e+000	 2.668307648153180e+001
0	 3.199979999988401e+000	 1.333299999983334e+000	 2.711764738279210e+001
0	 3.266639999985468e+000	 6.666972226472178e-001	 3.951029116817129e+000
0	 3.266639999985468e+000	 7.333579753122048e-001	 8.105208866523219e+000
0	 3.266639999985468e+000	 8.000185779984418e-001	 1.179676824459882e+001
0	 3.266639999985467e+000	 8.666790473703451e-001	 1.503727851606963e+001
0	 3.266639999985467e+000	 9.333394000923321e-001	 1.783831149883698e+001
0	 3.266639999985467e+000	 9.999996528288189e-001	 2.021143956369389e+001
0	 3.266639999985468e+000	 1.066659822244222e+000	 2.216823563433905e+001
0	 3.266639999985468e+000	 1.133319925002959e+000	 2.372027318738887e+001
0	 3.266639999985467e+000	 1.199979977769445e+000	 2.487912625238731e+001
0	 3.266639999985468e+000	 1.266639997208098e+000	 2.565636941181369e+001
0	 3.266639999985468e+000	 1.333299999983334e+000	 2.606357780108835e+001
0	 3.333299999983334e+000	 6.666972226472175e-001	 4.601547610296464e+000
0	 3.333299999983334e+000	 7.333579753122049e-001	 8.398466369768087e+000
0	 3.333299999983334e+000	 8.000185779984418e-001	 1.177738865625419e+001
0	 3.333299999983334e+000	 8.666790473703455e-001	 1.474801765708413e+001
0	 3.333299999983334e+000	 9.333394000923322e-001	 1.732005706664606e+001
0	 3.333299999983334e+000	 9.999996528288189e-001	 1.950321108640187e+001
0	 3.333299999983335e+000	 1.066659822244222e+000	 2.130718442490001e+001
0	 3.333299999983334e+000	 1.133319925002958e+000	 2.274168229778639e+001
0	 3.333299999983334e+000	 1.199979977769445e+000	 2.381641042781351e+001
0	 3.333299999983334e+000	 1.266639997208098e+000	 2.454107504484760e+001
0	 3.333299999983334e+000	 1.333299999983334e+000	 2.492538288587389e+001
0	 2.666700000016667e+000	 1.333299999983334e+000	 3.036390475413476e+001
0	 2.666700000016667e+000	 1.399969999982150e+000	 3.082094386915423e+001
0	 2.666700000016666e+000	 1.466639999981867e+000	 3.106482671758441e+001
0	 2.666700000016667e+000	 1.533309999982383e+000	 3.110092669741755e+001
0	 2.666700000016667e+000	 1.599979999983600e+000	 3.093461720664425e+001
0	 2.666700000016665e+000	 1.666649999985416e+000	 3.057127164325337e+001
0	 2.666700000016667e+000	 1.733319999987733e+000	 3.001626340523205e+001
0	 2.666700000016667e+000	 1.799989999990450e+000	 2.927496589056572e+001
0	 2.666700000016666e+000	 1.866659999993466e+000	 2.835275249723812e+001
0	 2.666700000016667e+000	 1.933329999996683e+000	 2.725499662323121e+001
0	 2.666700000016667e+000	 2.000000000000000e+000	 2.598707166652532e+001
0	 2.733360000014532e+000	 1.333299999983334e+000	 3.063017402328499e+001
0	 2.733360000014533e+000	 1.399969999982150e+000	 3.102769400352954e+001
0	 2.733360000014533e+000	 1.466639999981867e+000	 3.122515762086277e+001
0	 2.733360000014533e+000	 1.533309999982383e+000	 3.122666614844736e+001
0	 2.733360000014532e+000	 1.599979999983600e+000	 3.103632085944430e+001
0	 2.733360000014533e+000	 1.666649999985416e+000	 3.065822302701292e+001
0	 2.733360000014534e+000	 1.733319999987733e+000	 3.009647392431091e+001
0	 2.733360000014532e+000	 1.799989999990449e+000	 2.935517482449421e+001
0	 2.733360000014533e+000	 1.866659999993466e+000	 2.843842700071719e+001
0	 2.733360000014533e+000	 1.933329999996683e+000	 2.735033172613241e+001
0	 2.733360000014533e+000	 2.000000000000000e+000	 2.609499027389088e+001
0	 2.800020000011600e+000	 1.333299999983334e+000	 3.066846547386590e+001
0	 2.800020000011600e+000	 1.399969999982150e+000	 3.101439856124996e+001
0	 2.800020000011600e+000	 1.466639999981866e+000	 3.117278399931754e+001
0	 2.800020000011600e+000	 1.533309999982383e+000	 3.114661325026570e+001
0	 2.800020000011600e+000	 1.599979999983599e+000	 3.093887777628984e+001
0	 2.800020000011599e+000	 1.666649999985416e+000	 3.055256903958383e+001
0	 2.800020000011600e+000	 1.733319999987733e+000	 2.999067850233983e+001
0	 2.800020000011600e+000	 1.799989999990450e+000	 2.925619762674836e+001
0	 2.800020000011600e+000	 1.866659999993466e+000	 2.835211787499840e+001
0	 2.800020000011600e+000	 1.933329999996683e+000	 2.728143070927723e+001
0	 2.800020000011600e+000	 2.000000000000000e+000	 2.604712759177050e+001
0	 2.866680000008067e+000	 1.333299999983334e+000	 3.049676066650941e+001
0	 2.866680000008067e+000	 1.399969999982150e+000	 3.079855485388887e+001
0	 2.866680000008067e+000	 1.466639999981866e+000	 3.092467986239438e+001
0	 2.866680000008067e+000	 1.533309999982383e+000	 3.087717965712138e+001
0	 2.866680000008067e+000	 1.599979999983600e+000	 3.065809820316383e+001
0	 2.866680000008067e+000	 1.666649999985416e+000	 3.026947946561398e+001
0	 2.866680000008067e+000	 1.733319999987733e+000	 2.971336740956262e+001
0	 2.866680000008067e+000	 1.799989999990450e+000	 2.899180600009884e+001
0	 2.866680000008067e+000	 1.866659999993467e+000	 2.810683920231029e+001
0	 2.866680000008067e+000	 1.933329999996683e+000	 2.706051098128298e+001
0	 2.866680000008067e+000	 2.000000000000000e+000	 2.585486530210131e+001
0	 2.933340000004133e+000	 1.333299999983334e+000	 3.013304116184758e+001
0	 2.933340000004133e+000	 1.399969999982150e+000	 3.039766019301968e+001
0	 2.933340000004133e+000	 1.466639999981866e+000	 3.049781921953899e+001
0	 2.933340000004133e+000	 1.533309999982383e+000	 3.043477702326339e+001
0	 2.933340000004134e+000	 1.599979999983599e+000	 3.020979238604928e+001
0	 2.933340000004133e+000	 1.666649999985416e+000	 2.982412408975146e+001
0	 2.933340000004133e+000	 1.733319999987732e+000	 2.927903091622333e+001
0	 2.933340000004133e+000	 1.799989999990450e+000	 2.857577164731670e+001
0	 2.933340000004133e+000	 1.866659999993466e+000	 2.771560506488181e+001
0	 2.933340000004133e+000	 1.933329999996683e+000	 2.669978995076747e+001
0	 2.933340000004134e+000	 2.000000000000000e+000	 2.552958508682097e+001
0	 3.000000000000000e+000	 1.333299999983334e+000	 2.959528852051263e+001
0	 3.000000000000000e+000	 1.399969999982150e+000	 2.982921189021599e+001
0	 3.000000000000000e+000	 1.466639999981867e+000	 2.990917608019723e+001
0	 3.000000000000001e+000	 1.533309999982383e+000	 2.983581700294075e+001
0	 3.000000000000000e+000	 1.599979999983599e+000	 2.960977057092941e+001
0	 3.000000000000000e+000	 1.666649999985416e+000	 2.923167269664462e+001
0	 3.000000000000000e+000	 1.733319999987733e+000	 2.870215929256640e+001
0	 3.000000000000000e+000	 1.799989999990450e+000	 2.802186627117324e+001
0	 3.000000000000000e+000	 1.866659999993466e+000	 2.719142954494225e+001
0	 3.000000000000000e+000	 1.933329999996683e+000	 2.621148502634900e+001
0	 3.000000000000001e+000	 2.000000000000000e+000	 2.508266862786767e+001
0	 3.066659999995867e+000	 1.333299999983334e+000	 2.890148430313679e+001
0	 3.066659999995867e+000	 1.399969999982150e+000	 2.911070725705138e+001
0	 3.066659999995867e+000	 1.466639999981866e+000	 2.917572445381505e+001
0	 3.066659999995868e+000	 1.533309999982383e+000	 2.909671125040261e+001
0	 3.066659999995868e+000	 1.599979999983600e+000	 2.887384300378755e+001
0	 3.066659999995868e+000	 1.666649999985416e+000	 2.850729507094193e+001
0	 3.066659999995868e+000	 1.733319999987733e+000	 2.799724280883639e+001
0	 3.066659999995867e+000	 1.799989999990450e+000	 2.734386157444025e+001
0	 3.066659999995867e+000	 1.866659999993466e+000	 2.654732672472142e+001
0	 3.066659999995866e+000	 1.933329999996683e+000	 2.560781361664636e+001
0	 3.066659999995868e+000	 2.000000000000000e+000	 2.452549760718021e+001
0	 3.133319999991933e+000	 1.333299999983334e+000	 2.806961007035245e+001
0	 3.133319999991935e+000	 1.399969999982150e+000	 2.825964360509957e+001
0	 3.133319999991935e+000	 1.466639999981866e+000	 2.831443834983839e+001
0	 3.133319999991933e+000	 1.533309999982382e+000	 2.823387141989826e+001
0	 3.133319999991934e+000	 1.599979999983600e+000	 2.801781993060724e+001
0	 3.133319999991934e+000	 1.666649999985416e+000	 2.766616099729208e+001
0	 3.133319999991935e+000	 1.733319999987733e+000	 2.717877173527820e+001
0	 3.133319999991934e+000	 1.799989999990449e+000	 2.655552925988975e+001
0	 3.133319999991933e+000	 1.866659999993466e+000	 2.579631068644943e+001
0	 3.133319999991934e+000	 1.933329999996683e+000	 2.490099313027879e+001
0	 3.133319999991934e+000	 2.000000000000000e+000	 2.386945370669794e+001
0	 3.199979999988401e+000	 1.333299999983334e+000	 2.711764738279210e+001
0	 3.199979999988401e+000	 1.399969999982150e+000	 2.729351824593440e+001
0	 3.199979999988401e+000	 1.466639999981866e+000	 2.734229177771341e+001
0	 3.199979999988401e+000	 1.533309999982383e+000	 2.726370916567705e+001
0	 3.199979999988400e+000	 1.599979999983599e+000	 2.705751159737211e+001
0	 3.199979999988401e+000	 1.666649999985416e+000	 2.672344026034400e+001
0	 3.199979999988400e+000	 1.733319999987733e+000	 2.626123634213699e+001
0	 3.199979999988400e+000	 1.799989999990450e+000	 2.567064103029404e+001
0	 3.199979999988401e+000	 1.866659999993466e+000	 2.495139551235690e+001
0	 3.199979999988401e+000	 1.933329999996683e+000	 2.410324097586604e+001
0	 3.199979999988401e+000	 2.000000000000000e+000	 2.312591860836075e+001
0	 3.266639999985468e+000	 1.333299999983334e+000	 2.606357780108835e+001
0	 3.266639999985467e+000	 1.399969999982150e+000	 2.622982849112971e+001
0	 3.266639999985468e+000	 1.466639999981866e+000	 2.627625874688623e+001
0	 3.266639999985468e+000	 1.533309999982383e+000	 2.620263614198851e+001
0	 3.266639999985469e+000	 1.599979999983600e+000	 2.600872825006596e+001
0	 3.266639999985467e+000	 1.666649999985416e+000	 2.569430264474681e+001
0	 3.266639999985467e+000	 1.733319999987733e+000	 2.525912689965816e+001
0	 3.266639999985467e+000	 1.799989999990449e+000	 2.470296858842590e+001
0	 3.266639999985468e+000	 1.866659999993466e+000	 2.402559528467478e+001
0	 3.266639999985468e+000	 1.933329999996684e+000	 2.322677456202838e+001
0	 3.266639999985468e+000	 2.000000000000000e+000	 2.230627399410911e+001
0	 3.333299999983334e+000	 1.333299999983334e+000	 2.492538288587390e+001
0	 3.333299999983334e+000	 1.399969999982150e+000	 2.508607165225950e+001
0	 3.333299999983334e+000	 1.466639999981867e+000	 2.513331326680320e+001
0	 3.333299999983334e+000	 1.533309999982383e+000	 2.506706400308223e+001
0	 3.333299999983333e+000	 1.599979999983599e+000	 2.488728013467277e+001
0	 3.333299999983334e+000	 1.666649999985416e+000	 2.459391793514983e+001
0	 3.333299999983334e+000	 1.733319999987733e+000	 2.418693367808739e+001
0	 3.333299999983334e+000	 1.799989999990450e+000	 2.366628363705835e+001
0	 3.333299999983334e+000	 1.866659999993466e+000	 2.303192408563450e+001
0	 3.333299999983334e+000	 1.933329999996683e+000	 2.228381129738652e+001
0	 3.333299999983334e+000	 2.000000000000000e+000	 2.142190154588405e+001
0	 2.666700000016667e+000	 2.000000000000000e+000	 2.598707166652532e+001
0	 2.666700000016667e+000	 2.066670000003317e+000	 2.465908998665385e+001
0	 2.666700000016666e+000	 2.133340000006534e+000	 2.337748702952688e+001
0	 2.666700000016666e+000	 2.200010000009550e+000	 2.214212082268851e+001
0	 2.666700000016667e+000	 2.266680000012268e+000	 2.095284939368303e+001
0	 2.666700000016666e+000	 2.333350000014584e+000	 1.980953077005495e+001
0	 2.666700000016667e+000	 2.400020000016401e+000	 1.871202297934894e+001
0	 2.666700000016666e+000	 2.466690000017618e+000	 1.766018404910987e+001
0	 2.666700000016666e+000	 2.533360000018134e+000	 1.665387200688277e+001
0	 2.666700000016666e+000	 2.600030000017850e+000	 1.569294488021289e+001
0	 2.666700000016667e+000	 2.666700000016667e+000	 1.477726069664565e+001
0	 2.733360000014533e+000	 2.000000000000000e+000	 2.609499027389088e+001
0	 2.733360000014533e+000	 2.066670000003317e+000	 2.478082380042708e+001
0	 2.733360000014533e+000	 2.133340000006534e+000	 2.351328790125911e+001
0	 2.733360000014533e+000	 2.200010000009550e+000	 2.229203550816227e+001
0	 2.733360000014533e+000	 2.266680000012268e+000	 2.111671955291199e+001
0	 2.733360000014533e+000	 2.333350000014585e+000	 1.998699296728398e+001
0	 2.733360000014533e+000	 2.400020000016402e+000	 1.890250868305418e+001
0	 2.733360000014534e+000	 2.466690000017618e+000	 1.786291963199867e+001
0	 2.733360000014533e+000	 2.533360000018134e+000	 1.686787874589382e+001
0	 2.733360000014533e+000	 2.600030000017851e+000	 1.591703895651622e+001
0	 2.733360000014533e+000	 2.666700000016666e+000	 1.501005319564261e+001
0	 2.800020000011600e+000	 2.000000000000000e+000	 2.604712759177050e+001
0	 2.800020000011599e+000	 2.066670000003316e+000	 2.475546454201248e+001
0	 2.800020000011600e+000	 2.133340000006534e+000	 2.351035626551554e+001
0	 2.800020000011600e+000	 2.200010000009551e+000	 2.231128225343148e+001
0	 2.800020000011600e+000	 2.266680000012266e+000	 2.115772199691234e+001
0	 2.800020000011600e+000	 2.333350000014585e+000	 2.004915498711039e+001
0	 2.800020000011600e+000	 2.400020000016400e+000	 1.898506071517819e+001
0	 2.800020000011601e+000	 2.466690000017618e+000	 1.796491867226849e+001
0	 2.800020000011600e+000	 2.533360000018134e+000	 1.698820834953430e+001
0	 2.800020000011599e+000	 2.600030000017851e+000	 1.605440923812888e+001
0	 2.800020000011600e+000	 2.666700000016667e+000	 1.516300082920574e+001
0	 2.866680000008067e+000	 2.000000000000000e+000	 2.585486530210131e+001
0	 2.866680000008066e+000	 2.066670000003316e+000	 2.459355136658965e+001
0	 2.866680000008066e+000	 2.133340000006534e+000	 2.337841420363253e+001
0	 2.866680000008067e+000	 2.200010000009550e+000	 2.220879151890369e+001
0	 2.866680000008067e+000	 2.266680000012267e+000	 2.108402101807712e+001
0	 2.866680000008066e+000	 2.333350000014584e+000	 2.000344040682711e+001
0	 2.866680000008066e+000	 2.400020000016400e+000	 1.896638739082816e+001
0	 2.866680000008067e+000	 2.466690000017618e+000	 1.797219967575507e+001
0	 2.866680000008066e+000	 2.533360000018134e+000	 1.702021496728288e+001
0	 2.866680000008067e+000	 2.600030000017850e+000	 1.610977097108691e+001
0	 2.866680000008067e+000	 2.666700000016667e+000	 1.524020539284275e+001
0	 2.933340000004134e+000	 2.000000000000000e+000	 2.552958508682097e+001
0	 2.933340000004133e+000	 2.066670000003317e+000	 2.430562342933874e+001
0	 2.933340000004133e+000	 2.133340000006534e+000	 2.312718379694712e+001
0	 2.933340000004133e+000	 2.200010000009550e+000	 2.199349376498717e+001
0	 2.933340000004134e+000	 2.266680000012267e+000	 2.090378090880023e+001
0	 2.933340000004134e+000	 2.333350000014585e+000	 1.985727280372793e+001
0	 2.933340000004133e+000	 2.400020000016400e+000	 1.885319702511217e+001
0	 2.933340000004133e+000	 2.466690000017617e+000	 1.789078114829513e+001
0	 2.933340000004134e+000	 2.533360000018134e+000	 1.696925274861929e+001
0	 2.933340000004133e+000	 2.600030000017851e+000	 1.608783940142734e+001
0	 2.933340000004133e+000	 2.666700000016666e+000	 1.524576868206232e+001
0	 3.000000000000001e+000	 2.000000000000000e+000	 2.508266862786767e+001
0	 3.000000000000000e+000	 2.066670000003317e+000	 2.390221988544058e+001
0	 3.000000000000001e+000	 2.133340000006534e+000	 2.276638712679707e+001
0	 3.000000000000000e+000	 2.200010000009550e+000	 2.167431945209097e+001
0	 3.000000000000000e+000	 2.266680000012267e+000	 2.062516596147632e+001
0	 3.000000000000000e+000	 2.333350000014584e+000	 1.961807575510753e+001
0	 3.000000000000001e+000	 2.400020000016401e+000	 1.865219793313921e+001
0	 3.000000000000000e+000	 2.466690000017617e+000	 1.772668159572635e+001
0	 3.000000000000000e+000	 2.533360000018134e+000	 1.684067584302416e+001
0	 3.000000000000000e+000	 2.600030000017850e+000	 1.599332977518816e+001
0	 3.000000000000000e+000	 2.666700000016666e+000	 1.518379249237416e+001
0	 3.066659999995868e+000	 2.000000000000000e+000	 2.452549760718021e+001
0	 3.066659999995866e+000	 2.066670000003317e+000	 2.339387989007659e+001
0	 3.066659999995868e+000	 2.133340000006534e+000	 2.230574627452084e+001
0	 3.066659999995867e+000	 2.200010000009550e+000	 2.126019904062490e+001
0	 3.066659999995868e+000	 2.266680000012267e+000	 2.025634046850091e+001
0	 3.066659999995868e+000	 2.333350000014584e+000	 1.929327283826142e+001
0	 3.066659999995867e+000	 2.400020000016401e+000	 1.837009843001920e+001
0	 3.066659999995867e+000	 2.466690000017617e+000	 1.748591952388732e+001
0	 3.066659999995868e+000	 2.533360000018134e+000	 1.663983839997917e+001
0	 3.066659999995868e+000	 2.600030000017851e+000	 1.583095733840839e+001
0	 3.066659999995868e+000	 2.666700000016666e+000	 1.505837861928900e+001
0	 3.133319999991934e+000	 2.000000000000000e+000	 2.386945370669794e+001
0	 3.133319999991935e+000	 2.066670000003317e+000	 2.279114259842887e+001
0	 3.133319999991934e+000	 2.133340000006534e+000	 2.175498332145759e+001
0	 3.133319999991934e+000	 2.200010000009550e+000	 2.076006299099952e+001
0	 3.133319999991933e+000	 2.266680000012267e+000	 1.980546872227032e+001
0	 3.133319999991935e+000	 2.333350000014585e+000	 1.889028763048603e+001
0	 3.133319999991934e+000	 2.400020000016401e+000	 1.801360683086292e+001
0	 3.133319999991934e+000	 2.466690000017617e+000	 1.717451343861758e+001
0	 3.133319999991934e+000	 2.533360000018134e+000	 1.637209456896690e+001
0	 3.133319999991934e+000	 2.600030000017850e+000	 1.560543733712805e+001
0	 3.133319999991934e+000	 2.666700000016666e+000	 1.487362885831851e+001
0	 3.199979999988401e+000	 2.000000000000000e+000	 2.312591860836075e+001
0	 3.199979999988401e+000	 2.066670000003316e+000	 2.210454716568012e+001
0	 3.199979999988401e+000	 2.133340000006534e+000	 2.112382034894717e+001
0	 3.199979999988401e+000	 2.200010000009550e+000	 2.018284176362617e+001
0	 3.199979999988401e+000	 2.266680000012267e+000	 1.928071501518168e+001
0	 3.199979999988401e+000	 2.333350000014584e+000	 1.841654370907862e+001
0	 3.199979999988401e+000	 2.400020000016401e+000	 1.758943145078211e+001
0	 3.199979999988401e+000	 2.466690000017617e+000	 1.679848184575764e+001
0	 3.199979999988401e+000	 2.533360000018134e+000	 1.604279849947096e+001
0	 3.199979999988401e+000	 2.600030000017851e+000	 1.532148501738809e+001
0	 3.199979999988401e+000	 2.666700000016666e+000	 1.463364500497541e+001
0	 3.266639999985468e+000	 2.000000000000000e+000	 2.230627399410911e+001
0	 3.266639999985467e+000	 2.066670000003317e+000	 2.134463274701371e+001
0	 3.266639999985467e+000	 2.133340000006534e+000	 2.042197943833013e+001
0	 3.266639999985468e+000	 2.200010000009550e+000	 1.953746581891694e+001
0	 3.266639999985468e+000	 2.266680000012267e+000	 1.869024363963297e+001
0	 3.266639999985467e+000	 2.333350000014584e+000	 1.787946465133732e+001
0	 3.266639999985468e+000	 2.400020000016401e+000	 1.710428060488942e+001
0	 3.266639999985467e+000	 2.466690000017616e+000	 1.636384325114894e+001
0	 3.266639999985467e+000	 2.533360000018133e+000	 1.565730434097590e+001
0	 3.266639999985468e+000	 2.600030000017851e+000	 1.498381562523054e+001
0	 3.266639999985468e+000	 2.666700000016666e+000	 1.434252885477343e+001
0	 3.333299999983334e+000	 2.000000000000000e+000	 2.142190154588405e+001
0	 3.333299999983333e+000	 2.066670000003317e+000	 2.052193849761359e+001
0	 3.333299999983334e+000	 2.133340000006534e+000	 1.965918267094776e+001
0	 3.333299999983335e+000	 2.200010000009550e+000	 1.883286561728473e+001
0	 3.333299999983334e+000	 2.266680000012267e+000	 1.804221888802296e+001
0	 3.333299999983334e+000	 2.333350000014584e+000	 1.728647403456116e+001
0	 3.333299999983334e+000	 2.400020000016401e+000	 1.656486260829838e+001
0	 3.333299999983334e+000	 2.466690000017617e+000	 1.587661616063389e+001
0	 3.333299999983334e+000	 2.533360000018134e+000	 1.522096624296727e+001
0	 3.333299999983334e+000	 2.600030000017851e+000	 1.459714440669834e+001
0	 3.333299999983334e+000	 2.666700000016667e+000	 1.400438220322726e+001
0	 2.666700000016667e+000	 2.666700000016667e+000	 1.477726069664565e+001
0	 2.666700000016666e+000	 2.733360000014533e+000	 1.393033270227663e+001
0	 2.666700000016666e+000	 2.800020000011599e+000	 1.317397365500565e+001
0	 2.666700000016667e+000	 2.866680000008067e+000	 1.250589272950607e+001
0	 2.666700000016666e+000	 2.933340000004133e+000	 1.192379910044997e+001
0	 2.666700000016666e+000	 3.000000000000000e+000	 1.142540194250822e+001
0	 2.666700000016666e+000	 3.066659999995867e+000	 1.100841043035042e+001
0	 2.666700000016666e+000	 3.133319999991934e+000	 1.067053373864500e+001
0	 2.666700000016667e+000	 3.199979999988401e+000	 1.040948104205909e+001
0	 2.666700000016666e+000	 3.266639999985468e+000	 1.022296151525866e+001
0	 2.666700000016667e+000	 3.333299999983334e+000	 1.010868433290835e+001
0	 2.733360000014533e+000	 2.666700000016666e+000	 1.501005319564261e+001
0	 2.733360000014534e+000	 2.733360000014534e+000	 1.416933523559486e+001
0	 2.733360000014533e+000	 2.800020000011599e+000	 1.341599042531611e+001
0	 2.733360000014533e+000	 2.866680000008067e+000	 1.274810737009505e+001
0	 2.733360000014533e+000	 2.933340000004133e+000	 1.216377467521909e+001
0	 2.733360000014534e+000	 3.000000000000000e+000	 1.166108094597443e+001
0	 2.733360000014533e+000	 3.066659999995867e+000	 1.123811478764598e+001
0	 2.733360000014532e+000	 3.133319999991934e+000	 1.089296480551738e+001
0	 2.733360000014533e+000	 3.199979999988400e+000	 1.062371960487105e+001
0	 2.733360000014534e+000	 3.266639999985468e+000	 1.042846779098810e+001
0	 2.733360000014533e+000	 3.333299999983334e+000	 1.030529796914843e+001
0	 2.800020000011600e+000	 2.666700000016667e+000	 1.516300082920574e+001
0	 2.800020000011600e+000	 2.733360000014533e+000	 1.433522234087279e+001
0	 2.800020000011599e+000	 2.800020000011600e+000	 1.359135139979052e+001
0	 2.800020000011600e+000	 2.866680000008066e+000	 1.292981676431000e+001
0	 2.800020000011600e+000	 2.933340000004134e+000	 1.234904719278107e+001
0	 2.800020000011600e+000	 3.000000000000000e+000	 1.184747144355228e+001
0	 2.800020000011601e+000	 3.066659999995868e+000	 1.142351827497092e+001
0	 2.800020000011600e+000	 3.133319999991933e+000	 1.107561644538302e+001
0	 2.800020000011600e+000	 3.199979999988401e+000	 1.080219471313330e+001
0	 2.800020000011599e+000	 3.266639999985466e+000	 1.060168183656526e+001
0	 2.800020000011600e+000	 3.333299999983334e+000	 1.047250657402110e+001
0	 2.866680000008067e+000	 2.666700000016667e+000	 1.524020539284275e+001
0	 2.866680000008066e+000	 2.733360000014533e+000	 1.443151965279787e+001
0	 2.866680000008067e+000	 2.800020000011600e+000	 1.370305499858967e+001
0	 2.866680000008067e+000	 2.866680000008067e+000	 1.305354106407868e+001
0	 2.866680000008067e+000	 2.933340000004133e+000	 1.248170748312419e+001
0	 2.866680000008066e+000	 2.999999999999999e+000	 1.198628388958420e+001
0	 2.866680000008067e+000	 3.066659999995866e+000	 1.156599991731546e+001
0	 2.866680000008067e+000	 3.133319999991934e+000	 1.121958520017345e+001
0	 2.866680000008066e+000	 3.199979999988400e+000	 1.094576937201238e+001
0	 2.866680000008066e+000	 3.266639999985467e+000	 1.074328206668520e+001
0	 2.866680000008066e+000	 3.333299999983333e+000	 1.061085291804358e+001
0	 2.933340000004133e+000	 2.666700000016666e+000	 1.524576868206232e+001
0	 2.933340000004133e+000	 2.733360000014533e+000	 1.446175280605855e+001
0	 2.933340000004134e+000	 2.800020000011599e+000	 1.375409964187538e+001
0	 2.933340000004133e+000	 2.866680000008067e+000	 1.312180042132983e+001
0	 2.933340000004133e+000	 2.933340000004133e+000	 1.256384637623772e+001
0	 2.933340000004133e+000	 2.999999999999999e+000	 1.207922873841357e+001
0	 2.933340000004133e+000	 3.066659999995867e+000	 1.166693873967069e+001
0	 2.933340000004133e+000	 3.133319999991933e+000	 1.132596761182110e+001
0	 2.933340000004133e+000	 3.199979999988400e+000	 1.105530658667560e+001
0	 2.933340000004133e+000	 3.266639999985467e+000	 1.085394689604373e+001
0	 2.933340000004133e+000	 3.333299999983334e+000	 1.072087977173377e+001
0	 3.000000000000000e+000	 2.666700000016666e+000	 1.518379249237416e+001
0	 3.000000000000000e+000	 2.733360000014533e+000	 1.442944743534429e+001
0	 3.000000000000000e+000	 2.800020000011599e+000	 1.374748374981042e+001
0	 3.000000000000001e+000	 2.866680000008067e+000	 1.313711498799314e+001
0	 3.000000000000000e+000	 2.933340000004132e+000	 1.259755470211185e+001
0	 3.000000000000000e+000	 3.000000000000000e+000	 1.212801644438469e+001
0	 2.999999999999999e+000	 3.066659999995866e+000	 1.172771376702858e+001
0	 3.000000000000000e+000	 3.133319999991935e+000	 1.139586022225922e+001
0	 3.000000000000000e+000	 3.199979999988400e+000	 1.113166936229109e+001
0	 3.000000000000000e+000	 3.266639999985467e+000	 1.093435473933742e+001
0	 3.000000000000000e+000	 3.333299999983334e+000	 1.080312990561024e+001
0	 3.066659999995868e+000	 2.666700000016666e+000	 1.505837861928900e+001
0	 3.066659999995868e+000	 2.733360000014534e+000	 1.433812917534554e+001
0	 3.066659999995867e+000	 2.800020000011600e+000	 1.368620574255857e+001
0	 3.066659999995867e+000	 2.866680000008066e+000	 1.310200491599930e+001
0	 3.066659999995867e+000	 2.933340000004134e+000	 1.258492329073776e+001
0	 3.066659999995867e+000	 2.999999999999999e+000	 1.213435746184278e+001
0	 3.066659999995867e+000	 3.066659999995865e+000	 1.174970402438200e+001
0	 3.066659999995868e+000	 3.133319999991934e+000	 1.143035957342189e+001
0	 3.066659999995867e+000	 3.199979999988400e+000	 1.117572070402771e+001
0	 3.066659999995868e+000	 3.266639999985467e+000	 1.098518401126354e+001
0	 3.066659999995867e+000	 3.333299999983333e+000	 1.085814609019224e+001
0	 3.133319999991934e+000	 2.666700000016666e+000	 1.487362885831851e+001
0	 3.133319999991934e+000	 2.733360000014533e+000	 1.419132366075376e+001
0	 3.133319999991934e+000	 2.800020000011599e+000	 1.357326404028461e+001
0	 3.133319999991935e+000	 2.866680000008067e+000	 1.301899035727995e+001
0	 3.133319999991934e+000	 2.933340000004134e+000	 1.252804297210754e+001
0	 3.133319999991934e+000	 3.000000000000000e+000	 1.209996224513397e+001
0	 3.133319999991934e+000	 3.066659999995868e+000	 1.173428853672469e+001
0	 3.133319999991935e+000	 3.133319999991934e+000	 1.143056220724403e+001
0	 3.133319999991934e+000	 3.199979999988400e+000	 1.118832361705515e+001
0	 3.133319999991933e+000	 3.266639999985467e+000	 1.100711312652009e+001
0	 3.133319999991934e+000	 3.333299999983333e+000	 1.088647109599970e+001
0	 3.199979999988401e+000	 2.666700000016666e+000	 1.463364500497541e+001
0	 3.199979999988401e+000	 2.733360000014534e+000	 1.399255652626140e+001
0	 3.199979999988400e+000	 2.800020000011599e+000	 1.341165706315430e+001
0	 3.199979999988401e+000	 2.866680000008067e+000	 1.289059146376774e+001
0	 3.199979999988401e+000	 2.933340000004134e+000	 1.242900457621425e+001
0	 3.199979999988401e+000	 3.000000000000000e+000	 1.202654124860531e+001
0	 3.199979999988401e+000	 3.066659999995867e+000	 1.168284632905127e+001
0	 3.199979999988401e+000	 3.133319999991933e+000	 1.139756466566140e+001
0	 3.199979999988401e+000	 3.199979999988400e+000	 1.117034110654389e+001
0	 3.199979999988401e+000	 3.266639999985466e+000	 1.100082049980583e+001
0	 3.199979999988401e+000	 3.333299999983334e+000	 1.088864769355323e+001
0	 3.266639999985468e+000	 2.666700000016666e+000	 1.434252885477343e+001
0	 3.266639999985468e+000	 2.733360000014533e+000	 1.374535340656195e+001
0	 3.266639999985468e+000	 2.800020000011600e+000	 1.320438323133440e+001
0	 3.266639999985468e+000	 2.866680000008066e+000	 1.271932838739625e+001
0	 3.266639999985467e+000	 2.933340000004133e+000	 1.228989893305190e+001
0	 3.266639999985468e+000	 3.000000000000000e+000	 1.191580492660478e+001
0	 3.266639999985468e+000	 3.066659999995867e+000	 1.159675642635722e+001
0	 3.266639999985467e+000	 3.133319999991933e+000	 1.133246349061058e+001
0	 3.266639999985468e+000	 3.199979999988400e+000	 1.112263617766516e+001
0	 3.266639999985468e+000	 3.266639999985468e+000	 1.096698454582025e+001
0	 3.266639999985468e+000	 3.333299999983334e+000	 1.086521865337410e+001
0	 3.333299999983334e+000	 2.666700000016667e+000	 1.400438220322726e+001
0	 3.333299999983333e+000	 2.733360000014532e+000	 1.345323993634985e+001
0	 3.333299999983334e+000	 2.800020000011600e+000	 1.295444096499267e+001
0	 3.333299999983334e+000	 2.866680000008067e+000	 1.250772128010008e+001
0	 3.333299999983334e+000	 2.933340000004133e+000	 1.211281687261547e+001
0	 3.333299999983334e+000	 3.000000000000000e+000	 1.176946373348127e+001
0	 3.333299999983334e+000	 3.066659999995868e+000	 1.147739785363894e+001
0	 3.333299999983333e+000	 3.133319999991934e+000	 1.123635522402900e+001
0	 3.333299999983333e+000	 3.199979999988400e+000	 1.104607183559102e+001
0	 3.333299999983334e+000	 3.266639999985468e+000	 1.090628367926356e+001
0	 3.333299999983334e+000	 3.333299999983334e+000	 1.081672674598429e+001
0	 2.666700000016667e+000	 3.333299999983334e+000	 1.010868433290835e+001
0	 2.666700000016666e+000	 3.399969999982150e+000	 1.004178428934963e+001
0	 2.666700000016666e+000	 3.466639999981867e+000	 9.997194213811239e+000
0	 2.666700000016666e+000	 3.533309999982383e+000	 9.972284815907965e+000
0	 2.666700000016666e+000	 3.599979999983599e+000	 9.964426805254796e+000
0	 2.666700000016666e+000	 3.666649999985416e+000	 9.970990891466935e+000
0	 2.666700000016667e+000	 3.733319999987733e+000	 9.989347784159808e+000
0	 2.666700000016667e+000	 3.799989999990450e+000	 1.001686819294903e+001
0	 2.666700000016666e+000	 3.866659999993467e+000	 1.005092282745046e+001
0	 2.666700000016666e+000	 3.933329999996684e+000	 1.008888239728013e+001
0	 2.666700000016666e+000	 4.000000000000001e+000	 1.012811761205433e+001
0	 2.733360000014533e+000	 3.333299999983334e+000	 1.030529796914843e+001
0	 2.733360000014533e+000	 3.399969999982150e+000	 1.022817843456810e+001
0	 2.733360000014533e+000	 3.466639999981868e+000	 1.017097194703974e+001
0	 2.733360000014534e+000	 3.533309999982383e+000	 1.013156931007657e+001
0	 2.733360000014533e+000	 3.599979999983600e+000	 1.010786132719200e+001
0	 2.733360000014533e+000	 3.666649999985416e+000	 1.009773880189962e+001
0	 2.733360000014532e+000	 3.733319999987732e+000	 1.009909253771325e+001
0	 2.733360000014533e+000	 3.799989999990450e+000	 1.010981333814687e+001
0	 2.733360000014534e+000	 3.866659999993467e+000	 1.012779200671469e+001
0	 2.733360000014533e+000	 3.933329999996684e+000	 1.015091934693109e+001
0	 2.733360000014533e+000	 4.000000000000001e+000	 1.017708616231066e+001
0	 2.800020000011600e+000	 3.333299999983334e+000	 1.047250657402110e+001
0	 2.800020000011599e+000	 3.399969999982150e+000	 1.038782407395300e+001
0	 2.800020000011600e+000	 3.466639999981866e+000	 1.032077099254992e+001
0	 2.800020000011600e+000	 3.533309999982382e+000	 1.026970603193538e+001
0	 2.800020000011600e+000	 3.599979999983599e+000	 1.023298789423307e+001
0	 2.800020000011599e+000	 3.666649999985417e+000	 1.020897528156688e+001
0	 2.800020000011600e+000	 3.733319999987733e+000	 1.019602689606086e+001
0	 2.800020000011600e+000	 3.799989999990450e+000	 1.019250143983926e+001
0	 2.800020000011601e+000	 3.866659999993467e+000	 1.019675761502648e+001
0	 2.800020000011600e+000	 3.933329999996684e+000	 1.020715412374716e+001
0	 2.800020000011600e+000	 4.000000000000001e+000	 1.022204966812603e+001
0	 2.866680000008066e+000	 3.333299999983333e+000	 1.061085291804358e+001
0	 2.866680000008066e+000	 3.399969999982149e+000	 1.052115596911327e+001
0	 2.866680000008066e+000	 3.466639999981866e+000	 1.044692446064259e+001
0	 2.866680000008066e+000	 3.533309999982382e+000	 1.038693279807724e+001
0	 2.866680000008067e+000	 3.599979999983599e+000	 1.033995538686307e+001
0	 2.866680000008066e+000	 3.666649999985417e+000	 1.030476663244611e+001
0	 2.866680000008067e+000	 3.733319999987734e+000	 1.028014094027255e+001
0	 2.866680000008067e+000	 3.799989999990450e+000	 1.026485271578872e+001
0	 2.866680000008067e+000	 3.866659999993467e+000	 1.025767636444117e+001
0	 2.866680000008066e+000	 3.933329999996684e+000	 1.025738629167654e+001
0	 2.866680000008066e+000	 4.000000000000000e+000	 1.026275690294170e+001
0	 2.933340000004133e+000	 3.333299999983334e+000	 1.072087977173377e+001
0	 2.933340000004133e+000	 3.399969999982150e+000	 1.062860888165842e+001
0	 2.933340000004133e+000	 3.466639999981867e+000	 1.054976546161907e+001
0	 2.933340000004133e+000	 3.533309999982383e+000	 1.048348742509544e+001
0	 2.933340000004134e+000	 3.599979999983600e+000	 1.042891268556744e+001
0	 2.933340000004133e+000	 3.666649999985415e+000	 1.038517915651506e+001
0	 2.933340000004133e+000	 3.733319999987733e+000	 1.035142475141849e+001
0	 2.933340000004133e+000	 3.799989999990450e+000	 1.032678738375805e+001
0	 2.933340000004133e+000	 3.866659999993467e+000	 1.031040496701423e+001
0	 2.933340000004133e+000	 3.933329999996683e+000	 1.030141541466763e+001
0	 2.933340000004133e+000	 4.000000000000001e+000	 1.029895664019904e+001
0	 3.000000000000000e+000	 3.333299999983334e+000	 1.080312990561024e+001
0	 3.000000000000000e+000	 3.399969999982150e+000	 1.071061757319861e+001
0	 3.000000000000000e+000	 3.466639999981868e+000	 1.062962710578127e+001
0	 3.000000000000000e+000	 3.533309999982383e+000	 1.055960772958384e+001
0	 3.000000000000001e+000	 3.599979999983601e+000	 1.050000867083208e+001
0	 3.000000000000001e+000	 3.666649999985417e+000	 1.045027915575186e+001
0	 3.000000000000000e+000	 3.733319999987733e+000	 1.040986841056922e+001
0	 3.000000000000000e+000	 3.799989999990450e+000	 1.037822566151031e+001
0	 3.000000000000001e+000	 3.866659999993467e+000	 1.035480013480141e+001
0	 3.000000000000001e+000	 3.933329999996685e+000	 1.033904105666898e+001
0	 3.000000000000000e+000	 4.000000000000001e+000	 1.033039765333953e+001
0	 3.066659999995867e+000	 3.333299999983333e+000	 1.085814609019224e+001
0	 3.066659999995868e+000	 3.399969999982150e+000	 1.076761680534462e+001
0	 3.066659999995866e+000	 3.466639999981866e+000	 1.068684250343166e+001
0	 3.066659999995868e+000	 3.533309999982383e+000	 1.061553152813673e+001
0	 3.066659999995868e+000	 3.599979999983600e+000	 1.055339222314331e+001
0	 3.066659999995867e+000	 3.666649999985415e+000	 1.050013293213502e+001
0	 3.066659999995868e+000	 3.733319999987733e+000	 1.045546199879555e+001
0	 3.066659999995867e+000	 3.799989999990450e+000	 1.041908776680880e+001
0	 3.066659999995867e+000	 3.866659999993466e+000	 1.039071857985867e+001
0	 3.066659999995868e+000	 3.933329999996685e+000	 1.037006278162928e+001
0	 3.066659999995868e+000	 4.000000000000000e+000	 1.035682871580482e+001
0	 3.133319999991934e+000	 3.333299999983333e+000	 1.088647109599970e+001
0	 3.133319999991933e+000	 3.399969999982149e+000	 1.080004133970783e+001
0	 3.133319999991934e+000	 3.466639999981867e+000	 1.072174476487325e+001
0	 3.133319999991934e+000	 3.533309999982382e+000	 1.065149663734893e+001
0	 3.133319999991933e+000	 3.599979999983600e+000	 1.058921222298793e+001
0	 3.133319999991934e+000	 3.666649999985416e+000	 1.053480678764342e+001
0	 3.133319999991934e+000	 3.733319999987733e+000	 1.048819559716868e+001
0	 3.133319999991934e+000	 3.799989999990450e+000	 1.044929391741709e+001
0	 3.133319999991934e+000	 3.866659999993466e+000	 1.041801701424214e+001
0	 3.133319999991934e+000	 3.933329999996683e+000	 1.039428015349741e+001
0	 3.133319999991935e+000	 4.000000000000000e+000	 1.037799860103661e+001
0	 3.199979999988401e+000	 3.333299999983334e+000	 1.088864769355322e+001
0	 3.199979999988401e+000	 3.399969999982150e+000	 1.080832593790026e+001
0	 3.199979999988400e+000	 3.466639999981866e+000	 1.073466700040963e+001
0	 3.199979999988400e+000	 3.533309999982383e+000	 1.066774087381576e+001
0	 3.199979999988400e+000	 3.599979999983599e+000	 1.060761755085313e+001
0	 3.199979999988401e+000	 3.666649999985417e+000	 1.055436702425633e+001
0	 3.199979999988401e+000	 3.733319999987733e+000	 1.050805928676004e+001
0	 3.199979999988401e+000	 3.799989999990450e+000	 1.046876433109905e+001
0	 3.199979999988400e+000	 3.866659999993466e+000	 1.043655215000818e+001
0	 3.199979999988401e+000	 3.933329999996683e+000	 1.041149273622243e+001
0	 3.199979999988401e+000	 4.000000000000000e+000	 1.039365608247682e+001
0	 3.266639999985468e+000	 3.333299999983334e+000	 1.086521865337410e+001
0	 3.266639999985468e+000	 3.399969999982151e+000	 1.079290536153453e+001
0	 3.266639999985468e+000	 3.466639999981867e+000	 1.072594232034495e+001
0	 3.266639999985467e+000	 3.533309999982383e+000	 1.066450205413302e+001
0	 3.266639999985468e+000	 3.599979999983599e+000	 1.060875708722655e+001
0	 3.266639999985467e+000	 3.666649999985417e+000	 1.055887994395338e+001
0	 3.266639999985467e+000	 3.733319999987732e+000	 1.051504314864144e+001
0	 3.266639999985468e+000	 3.799989999990451e+000	 1.047741922561874e+001
0	 3.266639999985468e+000	 3.866659999993467e+000	 1.044618069921339e+001
0	 3.266639999985468e+000	 3.933329999996684e+000	 1.042150009375353e+001
0	 3.266639999985467e+000	 4.000000000000001e+000	 1.040354993356740e+001
0	 3.333299999983334e+000	 3.333299999983334e+000	 1.081672674598429e+001
0	 3.333299999983333e+000	 3.399969999982149e+000	 1.075421437222390e+001
0	 3.333299999983333e+000	 3.466639999981866e+000	 1.069590383498388e+001
0	 3.333299999983334e+000	 3.533309999982383e+000	 1.064201799489703e+001
0	 3.333299999983334e+000	 3.599979999983599e+000	 1.059277971259627e+001
0	 3.333299999983334e+000	 3.666649999985416e+000	 1.054841184871458e+001
0	 3.333299999983334e+000	 3.733319999987733e+000	 1.050913726388499e+001
0	 3.333299999983334e+000	 3.799989999990450e+000	 1.047517881874058e+001
0	 3.333299999983334e+000	 3.866659999993467e+000	 1.044675937391453e+001
0	 3.333299999983333e+000	 3.933329999996682e+000	 1.042410179004008e+001
0	 3.333299999983333e+000	 4.000000000000000e+000	 1.040742892775050e+001
0	 2.666700000016666e+000	 4.000000000000001e+000	 1.012811761205433e+001
0	 2.666700000016667e+000	 4.066670000003317e+000	 1.015882629954030e+001
0	 2.666700000016666e+000	 4.133340000006535e+000	 1.017468725675173e+001
0	 2.666700000016666e+000	 4.200010000009551e+000	 1.017829264717475e+001
0	 2.666700000016667e+000	 4.266680000012267e+000	 1.017223463429555e+001
0	 2.666700000016667e+000	 4.333350000014584e+000	 1.015910538160038e+001
0	 2.666700000016666e+000	 4.400020000016401e+000	 1.014149705257555e+001
0	 2.666700000016667e+000	 4.466690000017619e+000	 1.012200181070747e+001
0	 2.666700000016666e+000	 4.533360000018133e+000	 1.010321181948259e+001
0	 2.666700000016666e+000	 4.600030000017851e+000	 1.008771924238742e+001
0	 2.666700000016666e+000	 4.666700000016666e+000	 1.007811624290857e+001
0	 2.733360000014533e+000	 4.000000000000001e+000	 1.017708616231066e+001
0	 2.733360000014533e+000	 4.066670000003317e+000	 1.019728208405382e+001
0	 2.733360000014534e+000	 4.133340000006533e+000	 1.020536873824099e+001
0	 2.733360000014533e+000	 4.200010000009550e+000	 1.020354492070694e+001
0	 2.733360000014534e+000	 4.266680000012269e+000	 1.019400942728646e+001
0	 2.733360000014533e+000	 4.333350000014582e+000	 1.017896105381444e+001
0	 2.733360000014533e+000	 4.400020000016402e+000	 1.016059859612582e+001
0	 2.733360000014534e+000	 4.466690000017618e+000	 1.014112085005559e+001
0	 2.733360000014533e+000	 4.533360000018131e+000	 1.012272661143879e+001
0	 2.733360000014533e+000	 4.600030000017852e+000	 1.010761467611056e+001
0	 2.733360000014533e+000	 4.666700000016666e+000	 1.009798383990605e+001
0	 2.800020000011600e+000	 4.000000000000001e+000	 1.022204966812603e+001
0	 2.800020000011599e+000	 4.066670000003317e+000	 1.023318655999531e+001
0	 2.800020000011599e+000	 4.133340000006532e+000	 1.023462716342165e+001
0	 2.800020000011600e+000	 4.200010000009550e+000	 1.022821025888177e+001
0	 2.800020000011599e+000	 4.266680000012266e+000	 1.021577462685242e+001
0	 2.800020000011600e+000	 4.333350000014584e+000	 1.019915904781042e+001
0	 2.800020000011601e+000	 4.400020000016401e+000	 1.018020230223261e+001
0	 2.800020000011600e+000	 4.466690000017619e+000	 1.016074317059590e+001
0	 2.800020000011600e+000	 4.533360000018134e+000	 1.014262043337725e+001
0	 2.800020000011600e+000	 4.600030000017849e+000	 1.012767287105366e+001
0	 2.800020000011599e+000	 4.666700000016665e+000	 1.011773926410223e+001
0	 2.866680000008066e+000	 4.000000000000000e+000	 1.026275690294170e+001
0	 2.866680000008066e+000	 4.066670000003319e+000	 1.026624688727969e+001
0	 2.866680000008067e+000	 4.133340000006533e+000	 1.026214007504352e+001
0	 2.866680000008067e+000	 4.200010000009550e+000	 1.025194858364515e+001
0	 2.866680000008067e+000	 4.266680000012268e+000	 1.023718453049660e+001
0	 2.866680000008066e+000	 4.333350000014585e+000	 1.021936003300992e+001
0	 2.866680000008067e+000	 4.400020000016401e+000	 1.019998720859720e+001
0	 2.866680000008066e+000	 4.466690000017617e+000	 1.018057817467057e+001
0	 2.866680000008066e+000	 4.533360000018135e+000	 1.016264504864221e+001
0	 2.866680000008067e+000	 4.600030000017851e+000	 1.014769994792435e+001
0	 2.866680000008067e+000	 4.666700000016666e+000	 1.013725498992925e+001
0	 2.933340000004133e+000	 4.000000000000001e+000	 1.029895664019904e+001
0	 2.933340000004133e+000	 4.066670000003317e+000	 1.029617022582200e+001
0	 2.933340000004133e+000	 4.133340000006534e+000	 1.028758501585646e+001
0	 2.933340000004133e+000	 4.200010000009550e+000	 1.027441981694299e+001
0	 2.933340000004134e+000	 4.266680000012267e+000	 1.025789343572216e+001
0	 2.933340000004133e+000	 4.333350000014583e+000	 1.023922467883457e+001
0	 2.933340000004133e+000	 4.400020000016400e+000	 1.021963235292088e+001
0	 2.933340000004133e+000	 4.466690000017617e+000	 1.020033526462176e+001
0	 2.933340000004133e+000	 4.533360000018133e+000	 1.018255222057795e+001
0	 2.933340000004133e+000	 4.600030000017850e+000	 1.016750202743019e+001
0	 2.933340000004133e+000	 4.666700000016667e+000	 1.015640349181926e+001
0	 3.000000000000000e+000	 4.000000000000001e+000	 1.033039765333954e+001
0	 3.000000000000000e+000	 4.066670000003318e+000	 1.032266373553732e+001
0	 3.000000000000001e+000	 4.133340000006534e+000	 1.031063952861041e+001
0	 3.000000000000000e+000	 4.200010000009552e+000	 1.029528388072123e+001
0	 3.000000000000000e+000	 4.266680000012268e+000	 1.027755564003225e+001
0	 3.000000000000000e+000	 4.333350000014583e+000	 1.025841365470598e+001
0	 3.000000000000000e+000	 4.400020000016401e+000	 1.023881677290493e+001
0	 3.000000000000000e+000	 4.466690000017617e+000	 1.021972384279164e+001
0	 3.000000000000001e+000	 4.533360000018135e+000	 1.020209371252872e+001
0	 3.000000000000001e+000	 4.600030000017850e+000	 1.018688523027875e+001
0	 3.000000000000000e+000	 4.666700000016665e+000	 1.017505724420438e+001
0	 3.066659999995868e+000	 4.000000000000000e+000	 1.035682871580482e+001
0	 3.066659999995867e+000	 4.066670000003318e+000	 1.034543457634089e+001
0	 3.066659999995868e+000	 4.133340000006535e+000	 1.033098115605536e+001
0	 3.066659999995866e+000	 4.200010000009550e+000	 1.031420069692587e+001
0	 3.066659999995867e+000	 4.266680000012268e+000	 1.029582544093011e+001
0	 3.066659999995867e+000	 4.333350000014583e+000	 1.027658763004579e+001
0	 3.066659999995868e+000	 4.400020000016402e+000	 1.025721950625062e+001
0	 3.066659999995867e+000	 4.466690000017617e+000	 1.023845331152234e+001
0	 3.066659999995868e+000	 4.533360000018135e+000	 1.022102128783874e+001
0	 3.066659999995867e+000	 4.600030000017850e+000	 1.020565567717759e+001
0	 3.066659999995867e+000	 4.666700000016665e+000	 1.019308872151671e+001
0	 3.133319999991935e+000	 4.000000000000000e+000	 1.037799860103661e+001
0	 3.133319999991935e+000	 4.066670000003318e+000	 1.036418990814798e+001
0	 3.133319999991935e+000	 4.133340000006535e+000	 1.034828744094136e+001
0	 3.133319999991934e+000	 4.200010000009551e+000	 1.033083018750294e+001
0	 3.133319999991934e+000	 4.266680000012268e+000	 1.031235713591895e+001
0	 3.133319999991935e+000	 4.333350000014585e+000	 1.029340727427564e+001
0	 3.133319999991933e+000	 4.400020000016399e+000	 1.027451959065924e+001
0	 3.133319999991935e+000	 4.466690000017617e+000	 1.025623307315601e+001
0	 3.133319999991935e+000	 4.533360000018134e+000	 1.023908670985226e+001
0	 3.133319999991934e+000	 4.600030000017850e+000	 1.022361948883426e+001
0	 3.133319999991934e+000	 4.666700000016667e+000	 1.021037039818833e+001
0	 3.199979999988401e+000	 4.000000000000000e+000	 1.039365608247682e+001
0	 3.199979999988401e+000	 4.066670000003318e+000	 1.037863689087397e+001
0	 3.199979999988400e+000	 4.133340000006534e+000	 1.036223592601851e+001
0	 3.199979999988401e+000	 4.200010000009550e+000	 1.034483227439851e+001
0	 3.199979999988401e+000	 4.266680000012268e+000	 1.032680502250203e+001
0	 3.199979999988400e+000	 4.333350000014583e+000	 1.030853325681718e+001
0	 3.199979999988401e+000	 4.400020000016401e+000	 1.029039606383205e+001
0	 3.199979999988401e+000	 4.466690000017617e+000	 1.027277253003479e+001
0	 3.199979999988400e+000	 4.533360000018132e+000	 1.025604174191347e+001
0	 3.199979999988401e+000	 4.600030000017852e+000	 1.024058278595627e+001
0	 3.199979999988400e+000	 4.666700000016665e+000	 1.022677474865131e+001
0	 3.266639999985467e+000	 4.000000000000001e+000	 1.040354993356740e+001
0	 3.266639999985468e+000	 4.066670000003318e+000	 1.038848268443436e+001
0	 3.266639999985467e+000	 4.133340000006533e+000	 1.037250415403703e+001
0	 3.266639999985467e+000	 4.200010000009550e+000	 1.035586687955869e+001
0	 3.266639999985468e+000	 4.266680000012268e+000	 1.033882339818261e+001
0	 3.266639999985468e+000	 4.333350000014584e+000	 1.032162624709206e+001
0	 3.266639999985468e+000	 4.400020000016402e+000	 1.030452796347035e+001
0	 3.266639999985468e+000	 4.466690000017616e+000	 1.028778108450076e+001
0	 3.266639999985468e+000	 4.533360000018134e+000	 1.027163814736659e+001
0	 3.266639999985468e+000	 4.600030000017851e+000	 1.025635168925114e+001
0	 3.266639999985468e+000	 4.666700000016667e+000	 1.024217424733772e+001
0	 3.333299999983333e+000	 4.000000000000000e+000	 1.040742892775050e+001
0	 3.333299999983334e+000	 4.066670000003317e+000	 1.039343444874469e+001
0	 3.333299999983334e+000	 4.133340000006534e+000	 1.037876966774712e+001
0	 3.333299999983335e+000	 4.200010000009551e+000	 1.036359392492963e+001
0	 3.333299999983334e+000	 4.266680000012268e+000	 1.034806656046397e+001
0	 3.333299999983334e+000	 4.333350000014583e+000	 1.033234691452197e+001
0	 3.333299999983334e+000	 4.400020000016401e+000	 1.031659432727539e+001
0	 3.333299999983333e+000	 4.466690000017617e+000	 1.030096813889606e+001
0	 3.333299999983334e+000	 4.533360000018134e+000	 1.028562768955579e+001
0	 3.333299999983334e+000	 4.600030000017851e+000	 1.027073231942635e+001
0	 3.333299999983333e+000	 4.666700000016666e+000	 1.025644136867960e+001
0	 2.666700000016666e+000	 4.666700000016666e+000	 1.007811624290857e+001
0	 2.666700000016666e+000	 4.733360000014533e+000	 1.007258189473745e+001
0	 2.666700000016666e+000	 4.800020000011600e+000	 1.006746222519413e+001
0	 2.666700000016667e+000	 4.866680000008069e+000	 1.006260243544806e+001
0	 2.666700000016666e+000	 4.933340000004133e+000	 1.005784772666871e+001
0	 2.666700000016666e+000	 5.000000000000001e+000	 1.005304330002560e+001
0	 2.666700000016667e+000	 5.066659999995868e+000	 1.004803435668820e+001
0	 2.666700000016666e+000	 5.133319999991934e+000	 1.004266609782602e+001
0	 2.666700000016667e+000	 5.199979999988402e+000	 1.003678372460860e+001
0	 2.666700000016667e+000	 5.266639999985468e+000	 1.003023243820543e+001
0	 2.666700000016666e+000	 5.333299999983335e+000	 1.002285743978605e+001
0	 2.733360000014533e+000	 4.666700000016666e+000	 1.009798383990605e+001
0	 2.733360000014533e+000	 4.733360000014534e+000	 1.009212397731084e+001
0	 2.733360000014533e+000	 4.800020000011600e+000	 1.008674040682907e+001
0	 2.733360000014533e+000	 4.866680000008067e+000	 1.008165786099495e+001
0	 2.733360000014533e+000	 4.933340000004135e+000	 1.007670107234264e+001
0	 2.733360000014534e+000	 5.000000000000000e+000	 1.007169477340634e+001
0	 2.733360000014533e+000	 5.066659999995868e+000	 1.006646369672024e+001
0	 2.733360000014533e+000	 5.133319999991935e+000	 1.006083257481856e+001
0	 2.733360000014534e+000	 5.199979999988400e+000	 1.005462614023551e+001
0	 2.733360000014533e+000	 5.266639999985467e+000	 1.004766912550532e+001
0	 2.733360000014532e+000	 5.333299999983334e+000	 1.003978626316223e+001
0	 2.800020000011599e+000	 4.666700000016665e+000	 1.011773926410223e+001
0	 2.800020000011599e+000	 4.733360000014533e+000	 1.011127228263326e+001
0	 2.800020000011600e+000	 4.800020000011601e+000	 1.010537014731973e+001
0	 2.800020000011600e+000	 4.866680000008067e+000	 1.009984303049547e+001
0	 2.800020000011600e+000	 4.933340000004134e+000	 1.009450110449431e+001
0	 2.800020000011600e+000	 5.000000000000000e+000	 1.008915454165013e+001
0	 2.800020000011600e+000	 5.066659999995867e+000	 1.008361351429676e+001
0	 2.800020000011601e+000	 5.133319999991935e+000	 1.007768819476808e+001
0	 2.800020000011600e+000	 5.199979999988400e+000	 1.007118875539796e+001
0	 2.800020000011599e+000	 5.266639999985466e+000	 1.006392536852028e+001
0	 2.800020000011600e+000	 5.333299999983335e+000	 1.005570820646893e+001
0	 2.866680000008067e+000	 4.666700000016666e+000	 1.013725498992926e+001
0	 2.866680000008066e+000	 4.733360000014534e+000	 1.012996622154316e+001
0	 2.866680000008067e+000	 4.800020000011600e+000	 1.012334698461752e+001
0	 2.866680000008067e+000	 4.866680000008066e+000	 1.011719879972077e+001
0	 2.866680000008066e+000	 4.933340000004132e+000	 1.011132318742137e+001
0	 2.866680000008067e+000	 5.000000000000001e+000	 1.010552166828778e+001
0	 2.866680000008067e+000	 5.066659999995866e+000	 1.009959576288846e+001
0	 2.866680000008067e+000	 5.133319999991933e+000	 1.009334699179190e+001
0	 2.866680000008067e+000	 5.199979999988401e+000	 1.008657687556657e+001
0	 2.866680000008067e+000	 5.266639999985468e+000	 1.007908693478096e+001
0	 2.866680000008066e+000	 5.333299999983334e+000	 1.007067869000356e+001
0	 2.933340000004133e+000	 4.666700000016667e+000	 1.015640349181927e+001
0	 2.933340000004133e+000	 4.733360000014534e+000	 1.014814520487897e+001
0	 2.933340000004134e+000	 4.800020000011599e+000	 1.014066645667387e+001
0	 2.933340000004133e+000	 4.866680000008067e+000	 1.013376602444201e+001
0	 2.933340000004133e+000	 4.933340000004132e+000	 1.012724268542139e+001
0	 2.933340000004133e+000	 5.000000000000000e+000	 1.012089521685005e+001
0	 2.933340000004133e+000	 5.066659999995868e+000	 1.011452239596600e+001
0	 2.933340000004134e+000	 5.133319999991934e+000	 1.010792300000729e+001
0	 2.933340000004133e+000	 5.199979999988400e+000	 1.010089580621195e+001
0	 2.933340000004134e+000	 5.266639999985470e+000	 1.009323959181803e+001
0	 2.933340000004133e+000	 5.333299999983334e+000	 1.008475313406358e+001
0	 3.000000000000000e+000	 4.666700000016665e+000	 1.017505724420438e+001
0	 3.000000000000001e+000	 4.733360000014534e+000	 1.016574864347907e+001
0	 3.000000000000000e+000	 4.800020000011601e+000	 1.015732410144020e+001
0	 3.000000000000001e+000	 4.866680000008068e+000	 1.014958556043033e+001
0	 3.000000000000000e+000	 4.933340000004135e+000	 1.014233496279197e+001
0	 3.000000000000000e+000	 4.999999999999999e+000	 1.013537425086769e+001
0	 3.000000000000000e+000	 5.066659999995866e+000	 1.012850536700001e+001
0	 3.000000000000000e+000	 5.133319999991934e+000	 1.012153025353150e+001
0	 3.000000000000001e+000	 5.199979999988401e+000	 1.011425085280468e+001
0	 3.000000000000000e+000	 5.266639999985467e+000	 1.010646910716214e+001
0	 3.000000000000000e+000	 5.333299999983333e+000	 1.009798695894640e+001
0	 3.066659999995867e+000	 4.666700000016665e+000	 1.019308872151671e+001
0	 3.066659999995868e+000	 4.733360000014534e+000	 1.018271594818186e+001
0	 3.066659999995868e+000	 4.800020000011600e+000	 1.017331545686791e+001
0	 3.066659999995868e+000	 4.866680000008067e+000	 1.016469826345685e+001
0	 3.066659999995867e+000	 4.933340000004133e+000	 1.015667538383069e+001
0	 3.066659999995867e+000	 5.000000000000001e+000	 1.014905783387146e+001
0	 3.066659999995867e+000	 5.066659999995867e+000	 1.014165662946114e+001
0	 3.066659999995868e+000	 5.133319999991936e+000	 1.013428278648179e+001
0	 3.066659999995867e+000	 5.199979999988400e+000	 1.012674732081538e+001
0	 3.066659999995867e+000	 5.266639999985467e+000	 1.011886124834395e+001
0	 3.066659999995867e+000	 5.333299999983333e+000	 1.011043558494948e+001
0	 3.133319999991934e+000	 4.666700000016667e+000	 1.021037039818832e+001
0	 3.133319999991934e+000	 4.733360000014534e+000	 1.019898652982572e+001
0	 3.133319999991934e+000	 4.800020000011601e+000	 1.018863606090836e+001
0	 3.133319999991934e+000	 4.866680000008065e+000	 1.017914498929267e+001
0	 3.133319999991934e+000	 4.933340000004134e+000	 1.017033931283510e+001
0	 3.133319999991934e+000	 4.999999999999999e+000	 1.016204502939208e+001
0	 3.133319999991934e+000	 5.066659999995868e+000	 1.015408813682004e+001
0	 3.133319999991935e+000	 5.133319999991935e+000	 1.014629463297541e+001
0	 3.133319999991933e+000	 5.199979999988398e+000	 1.013849051571461e+001
0	 3.133319999991934e+000	 5.266639999985468e+000	 1.013050178289407e+001
0	 3.133319999991933e+000	 5.333299999983333e+000	 1.012215443237021e+001
0	 3.199979999988400e+000	 4.666700000016665e+000	 1.022677474865131e+001
0	 3.199979999988401e+000	 4.733360000014532e+000	 1.021449979924900e+001
0	 3.199979999988401e+000	 4.800020000011601e+000	 1.020328145151292e+001
0	 3.199979999988401e+000	 4.866680000008067e+000	 1.019296659370890e+001
0	 3.199979999988402e+000	 4.933340000004134e+000	 1.018340211410276e+001
0	 3.199979999988401e+000	 4.999999999999999e+000	 1.017443490096028e+001
0	 3.199979999988401e+000	 5.066659999995867e+000	 1.016591184254729e+001
0	 3.199979999988400e+000	 5.133319999991934e+000	 1.015767982712958e+001
0	 3.199979999988400e+000	 5.199979999988400e+000	 1.014958574297294e+001
0	 3.199979999988400e+000	 5.266639999985467e+000	 1.014147647834317e+001
0	 3.199979999988401e+000	 5.333299999983335e+000	 1.013319892150603e+001
0	 3.266639999985468e+000	 4.666700000016667e+000	 1.024217424733772e+001
0	 3.266639999985468e+000	 4.733360000014534e+000	 1.022919516729002e+001
0	 3.266639999985468e+000	 4.800020000011601e+000	 1.021724716663294e+001
0	 3.266639999985468e+000	 4.866680000008065e+000	 1.020620393247660e+001
0	 3.266639999985468e+000	 4.933340000004135e+000	 1.019593915193117e+001
0	 3.266639999985468e+000	 4.999999999999999e+000	 1.018632651210676e+001
0	 3.266639999985468e+000	 5.066659999995868e+000	 1.017723970011352e+001
0	 3.266639999985467e+000	 5.133319999991936e+000	 1.016855240306155e+001
0	 3.266639999985468e+000	 5.199979999988400e+000	 1.016013830806096e+001
0	 3.266639999985468e+000	 5.266639999985468e+000	 1.015187110222186e+001
0	 3.266639999985467e+000	 5.333299999983334e+000	 1.014362447265433e+001
0	 3.333299999983333e+000	 4.666700000016666e+000	 1.025644136867960e+001
0	 3.333299999983334e+000	 4.733360000014533e+000	 1.024301204478713e+001
0	 3.333299999983334e+000	 4.800020000011601e+000	 1.023052874421974e+001
0	 3.333299999983333e+000	 4.866680000008066e+000	 1.021889786136685e+001
0	 3.333299999983335e+000	 4.933340000004134e+000	 1.020802579061788e+001
0	 3.333299999983334e+000	 5.000000000000001e+000	 1.019781892636225e+001
0	 3.333299999983334e+000	 5.066659999995867e+000	 1.018818366298933e+001
0	 3.333299999983334e+000	 5.133319999991934e+000	 1.017902639488852e+001
0	 3.333299999983334e+000	 5.199979999988400e+000	 1.017025351644921e+001
0	 3.333299999983333e+000	 5.266639999985467e+000	 1.016177142206076e+001
0	 3.333299999983334e+000	 5.333299999983335e+000	 1.015348650611253e+001
0	 2.666700000016666e+000	 5.333299999983335e+000	 1.002285743978605e+001
0	 2.666700000016666e+000	 5.399969999982150e+000	 1.001528551347412e+001
0	 2.666700000016666e+000	 5.466639999981865e+000	 1.000828323882477e+001
0	 2.666700000016666e+000	 5.533309999982384e+000	 1.000190198249767e+001
0	 2.666700000016666e+000	 5.599979999983598e+000	 9.996193111152502e+000
0	 2.666700000016665e+000	 5.666649999985414e+000	 9.991207991448935e+000
0	 2.666700000016667e+000	 5.733319999987733e+000	 9.986997990046682e+000
0	 2.666700000016667e+000	 5.799989999990448e+000	 9.983614473605442e+000
0	 2.666700000016665e+000	 5.866659999993467e+000	 9.981108808784930e+000
0	 2.666700000016666e+000	 5.933329999996683e+000	 9.979532362244880e+000
0	 2.666700000016666e+000	 6.000000000000001e+000	 9.978936500645007e+000
0	 2.733360000014532e+000	 5.333299999983334e+000	 1.003978626316223e+001
0	 2.733360000014533e+000	 5.399969999982151e+000	 1.003163538642193e+001
0	 2.733360000014533e+000	 5.466639999981866e+000	 1.002403571220396e+001
0	 2.733360000014532e+000	 5.533309999982381e+000	 1.001705026632637e+001
0	 2.733360000014533e+000	 5.599979999983599e+000	 1.001074207460713e+001
0	 2.733360000014533e+000	 5.666649999985415e+000	 1.000517416286429e+001
0	 2.733360000014533e+000	 5.733319999987733e+000	 1.000040955691587e+001
0	 2.733360000014533e+000	 5.799989999990450e+000	 9.996511282579892e+000
0	 2.733360000014534e+000	 5.866659999993466e+000	 9.993542365674438e+000
0	 2.733360000014533e+000	 5.933329999996684e+000	 9.991565832017544e+000
0	 2.733360000014533e+000	 6.000000000000001e+000	 9.990644707427288e+000
0	 2.800020000011600e+000	 5.333299999983335e+000	 1.005570820646893e+001
0	 2.800020000011599e+000	 5.399969999982149e+000	 1.004718278645406e+001
0	 2.800020000011600e+000	 5.466639999981864e+000	 1.003917174084115e+001
0	 2.800020000011600e+000	 5.533309999982385e+000	 1.003174697350651e+001
0	 2.800020000011600e+000	 5.599979999983599e+000	 1.002498038832640e+001
0	 2.800020000011600e+000	 5.666649999985417e+000	 1.001894388917713e+001
0	 2.800020000011600e+000	 5.733319999987732e+000	 1.001370937993504e+001
0	 2.800020000011600e+000	 5.799989999990451e+000	 1.000934876447643e+001
0	 2.800020000011600e+000	 5.866659999993467e+000	 1.000593394667765e+001
0	 2.800020000011600e+000	 5.933329999996683e+000	 1.000353683041503e+001
0	 2.800020000011600e+000	 6.000000000000000e+000	 1.000222931956494e+001
0	 2.866680000008066e+000	 5.333299999983334e+000	 1.007067869000356e+001
0	 2.866680000008066e+000	 5.399969999982149e+000	 1.006195002939299e+001
0	 2.866680000008066e+000	 5.466639999981866e+000	 1.005368584162024e+001
0	 2.866680000008066e+000	 5.533309999982384e+000	 1.004596412751981e+001
0	 2.866680000008066e+000	 5.599979999983598e+000	 1.003886288792623e+001
0	 2.866680000008066e+000	 5.666649999985414e+000	 1.003246012367406e+001
0	 2.866680000008067e+000	 5.733319999987731e+000	 1.002683383559784e+001
0	 2.866680000008066e+000	 5.799989999990449e+000	 1.002206202453212e+001
0	 2.866680000008066e+000	 5.866659999993466e+000	 1.001822269131148e+001
0	 2.866680000008067e+000	 5.933329999996684e+000	 1.001539383677052e+001
0	 2.866680000008067e+000	 6.000000000000002e+000	 1.001365346174380e+001
0	 2.933340000004133e+000	 5.333299999983334e+000	 1.008475313406358e+001
0	 2.933340000004133e+000	 5.399969999982149e+000	 1.007595943106120e+001
0	 2.933340000004133e+000	 5.466639999981866e+000	 1.006757253142510e+001
0	 2.933340000004133e+000	 5.533309999982382e+000	 1.005967375184799e+001
0	 2.933340000004134e+000	 5.599979999983600e+000	 1.005234440902262e+001
0	 2.933340000004134e+000	 5.666649999985417e+000	 1.004566581964166e+001
0	 2.933340000004134e+000	 5.733319999987733e+000	 1.003971930039788e+001
0	 2.933340000004133e+000	 5.799989999990449e+000	 1.003458616798405e+001
0	 2.933340000004134e+000	 5.866659999993467e+000	 1.003034773909288e+001
0	 2.933340000004133e+000	 5.933329999996683e+000	 1.002708533041716e+001
0	 2.933340000004133e+000	 5.999999999999998e+000	 1.002488025864967e+001
0	 3.000000000000000e+000	 5.333299999983333e+000	 1.009798695894641e+001
0	 3.000000000000000e+000	 5.399969999982150e+000	 1.008923330728110e+001
0	 3.000000000000000e+000	 5.466639999981866e+000	 1.008082632713961e+001
0	 3.000000000000000e+000	 5.533309999982383e+000	 1.007284786997278e+001
0	 3.000000000000001e+000	 5.599979999983600e+000	 1.006537978723146e+001
0	 3.000000000000001e+000	 5.666649999985417e+000	 1.005850393036653e+001
0	 3.000000000000001e+000	 5.733319999987733e+000	 1.005230215082884e+001
0	 3.000000000000000e+000	 5.799989999990451e+000	 1.004685630006929e+001
0	 3.000000000000000e+000	 5.866659999993466e+000	 1.004224822953876e+001
0	 3.000000000000000e+000	 5.933329999996684e+000	 1.003855979068816e+001
0	 3.000000000000000e+000	 6.000000000000000e+000	 1.003587283496838e+001
0	 3.066659999995867e+000	 5.333299999983333e+000	 1.011043558494948e+001
0	 3.066659999995867e+000	 5.399969999982149e+000	 1.010179397387518e+001
0	 3.066659999995867e+000	 5.466639999981865e+000	 1.009344174564767e+001
0	 3.066659999995868e+000	 5.533309999982384e+000	 1.008545850537587e+001
0	 3.066659999995868e+000	 5.599979999983599e+000	 1.007792385816875e+001
0	 3.066659999995866e+000	 5.666649999985416e+000	 1.007091740913523e+001
0	 3.066659999995867e+000	 5.733319999987734e+000	 1.006451876338429e+001
0	 3.066659999995867e+000	 5.799989999990450e+000	 1.005880752602490e+001
0	 3.066659999995867e+000	 5.866659999993468e+000	 1.005386330216602e+001
0	 3.066659999995867e+000	 5.933329999996683e+000	 1.004976569691664e+001
0	 3.066659999995868e+000	 6.000000000000001e+000	 1.004659431538577e+001
0	 3.133319999991933e+000	 5.333299999983333e+000	 1.012215443237021e+001
0	 3.133319999991933e+000	 5.399969999982149e+000	 1.011366374666587e+001
0	 3.133319999991934e+000	 5.466639999981865e+000	 1.010541330383313e+001
0	 3.133319999991933e+000	 5.533309999982383e+000	 1.009747768153898e+001
0	 3.133319999991933e+000	 5.599979999983598e+000	 1.008993145745040e+001
0	 3.133319999991934e+000	 5.666649999985416e+000	 1.008284920923437e+001
0	 3.133319999991933e+000	 5.733319999987733e+000	 1.007630551455789e+001
0	 3.133319999991934e+000	 5.799989999990449e+000	 1.007037495108797e+001
0	 3.133319999991934e+000	 5.866659999993467e+000	 1.006513209649160e+001
0	 3.133319999991933e+000	 5.933329999996682e+000	 1.006065152843581e+001
0	 3.133319999991934e+000	 6.000000000000000e+000	 1.005700782458762e+001
0	 3.199979999988401e+000	 5.333299999983335e+000	 1.013319892150603e+001
0	 3.199979999988401e+000	 5.399969999982150e+000	 1.012486494147560e+001
0	 3.199979999988401e+000	 5.466639999981867e+000	 1.011673551857988e+001
0	 3.199979999988401e+000	 5.533309999982383e+000	 1.010887742194381e+001
0	 3.199979999988401e+000	 5.599979999983601e+000	 1.010135742069236e+001
0	 3.199979999988400e+000	 5.666649999985415e+000	 1.009424228395051e+001
0	 3.199979999988401e+000	 5.733319999987733e+000	 1.008759878084324e+001
0	 3.199979999988401e+000	 5.799989999990450e+000	 1.008149368049552e+001
0	 3.199979999988400e+000	 5.866659999993467e+000	 1.007599375203238e+001
0	 3.199979999988401e+000	 5.933329999996685e+000	 1.007116576457879e+001
0	 3.199979999988401e+000	 6.000000000000001e+000	 1.006707648725976e+001
0	 3.266639999985467e+000	 5.333299999983334e+000	 1.014362447265433e+001
0	 3.266639999985468e+000	 5.399969999982149e+000	 1.013541987412683e+001
0	 3.266639999985467e+000	 5.466639999981867e+000	 1.012740290677177e+001
0	 3.266639999985468e+000	 5.533309999982385e+000	 1.011962975007204e+001
0	 3.266639999985467e+000	 5.599979999983599e+000	 1.011215658351056e+001
0	 3.266639999985468e+000	 5.666649999985419e+000	 1.010503958657023e+001
0	 3.266639999985467e+000	 5.733319999987733e+000	 1.009833493873394e+001
0	 3.266639999985467e+000	 5.799989999990450e+000	 1.009209881948466e+001
0	 3.266639999985468e+000	 5.866659999993468e+000	 1.008638740830527e+001
0	 3.266639999985468e+000	 5.933329999996684e+000	 1.008125688467874e+001
0	 3.266639999985468e+000	 6.000000000000001e+000	 1.007676342808798e+001
0	 3.333299999983334e+000	 5.333299999983335e+000	 1.015348650611253e+001
0	 3.333299999983334e+000	 5.399969999982148e+000	 1.014535086044199e+001
0	 3.333299999983335e+000	 5.466639999981867e+000	 1.013740998529268e+001
0	 3.333299999983334e+000	 5.533309999982384e+000	 1.012970668940542e+001
0	 3.333299999983334e+000	 5.599979999983601e+000	 1.012228378152094e+001
0	 3.333299999983334e+000	 5.666649999985414e+000	 1.011518407038009e+001
0	 3.333299999983334e+000	 5.733319999987733e+000	 1.010845036472365e+001
0	 3.333299999983333e+000	 5.799989999990449e+000	 1.010212547329240e+001
0	 3.333299999983333e+000	 5.866659999993468e+000	 1.009625220482719e+001
0	 3.333299999983334e+000	 5.933329999996684e+000	 1.009087336806881e+001
0	 3.333299999983333e+000	 5.999999999999998e+000	 1.008603177175807e+001
0	 2.666700000016666e+000	 6.000000000000001e+000	 9.978936500645007e+000
0	 2.666700000016666e+000	 6.066670000003318e+000	 9.978819470249299e+000
0	 2.666700000016666e+000	 6.133340000006533e+000	 9.978639882586505e+000
0	 2.666700000016667e+000	 6.200010000009550e+000	 9.978389652213556e+000
0	 2.666700000016667e+000	 6.266680000012268e+000	 9.978060693687381e+000
0	 2.666700000016666e+000	 6.333350000014584e+000	 9.977644921564901e+000
0	 2.666700000016667e+000	 6.400020000016400e+000	 9.977134250403047e+000
0	 2.666700000016666e+000	 6.466690000017617e+000	 9.976520594758719e+000
0	 2.666700000016666e+000	 6.533360000018133e+000	 9.975795869188884e+000
0	 2.666700000016667e+000	 6.600030000017850e+000	 9.974951988250435e+000
0	 2.666700000016667e+000	 6.666700000016667e+000	 9.973980866500284e+000
0	 2.733360000014533e+000	 6.000000000000001e+000	 9.990644707427288e+000
0	 2.733360000014533e+000	 6.066670000003318e+000	 9.990249061034474e+000
0	 2.733360000014533e+000	 6.133340000006531e+000	 9.989798131676441e+000
0	 2.733360000014533e+000	 6.200010000009551e+000	 9.989278699731123e+000
0	 2.733360000014532e+000	 6.266680000012268e+000	 9.988677545576429e+000
0	 2.733360000014533e+000	 6.333350000014583e+000	 9.987981449590281e+000
0	 2.733360000014533e+000	 6.400020000016401e+000	 9.987177192150615e+000
0	 2.733360000014533e+000	 6.466690000017619e+000	 9.986251553635311e+000
0	 2.733360000014533e+000	 6.533360000018132e+000	 9.985191314422306e+000
0	 2.733360000014533e+000	 6.600030000017851e+000	 9.983983254889512e+000
0	 2.733360000014533e+000	 6.666700000016669e+000	 9.982614155414844e+000
0	 2.800020000011600e+000	 6.000000000000000e+000	 1.000222931956494e+001
0	 2.800020000011599e+000	 6.066670000003313e+000	 1.000147792425654e+001
0	 2.800020000011600e+000	 6.133340000006533e+000	 1.000068968153501e+001
0	 2.800020000011600e+000	 6.200010000009553e+000	 9.999847285650739e+000
0	 2.800020000011599e+000	 6.266680000012265e+000	 9.998933430854089e+000
0	 2.800020000011600e+000	 6.333350000014586e+000	 9.997930811395451e+000
0	 2.800020000011600e+000	 6.400020000016401e+000	 9.996822121525229e+000
0	 2.800020000011600e+000	 6.466690000017617e+000	 9.995590055493762e+000
0	 2.800020000011600e+000	 6.533360000018133e+000	 9.994217307551461e+000
0	 2.800020000011600e+000	 6.600030000017850e+000	 9.992686571948685e+000
0	 2.800020000011599e+000	 6.666700000016665e+000	 9.990980542935823e+000
0	 2.866680000008067e+000	 6.000000000000002e+000	 1.001365346174380e+001
0	 2.866680000008066e+000	 6.066670000003317e+000	 1.001248514503733e+001
0	 2.866680000008066e+000	 6.133340000006531e+000	 1.001130690235026e+001
0	 2.866680000008067e+000	 6.200010000009550e+000	 1.001009838985689e+001
0	 2.866680000008067e+000	 6.266680000012267e+000	 1.000883926373157e+001
0	 2.866680000008067e+000	 6.333350000014584e+000	 1.000750918014860e+001
0	 2.866680000008066e+000	 6.400020000016399e+000	 1.000608779528228e+001
0	 2.866680000008066e+000	 6.466690000017618e+000	 1.000455476530694e+001
0	 2.866680000008066e+000	 6.533360000018135e+000	 1.000288974639690e+001
0	 2.866680000008067e+000	 6.600030000017850e+000	 1.000107239472647e+001
0	 2.866680000008067e+000	 6.666700000016666e+000	 9.999082366469972e+000
0	 2.933340000004133e+000	 5.999999999999998e+000	 1.002488025864967e+001
0	 2.933340000004133e+000	 6.066670000003318e+000	 1.002324980849861e+001
0	 2.933340000004133e+000	 6.133340000006530e+000	 1.002164216431018e+001
0	 2.933340000004133e+000	 6.200010000009551e+000	 1.002003499223410e+001
0	 2.933340000004134e+000	 6.266680000012268e+000	 1.001840595842008e+001
0	 2.933340000004133e+000	 6.333350000014583e+000	 1.001673272901786e+001
0	 2.933340000004135e+000	 6.400020000016403e+000	 1.001499297017716e+001
0	 2.933340000004133e+000	 6.466690000017616e+000	 1.001316434804771e+001
0	 2.933340000004134e+000	 6.533360000018133e+000	 1.001122452877920e+001
0	 2.933340000004134e+000	 6.600030000017850e+000	 1.000915117852139e+001
0	 2.933340000004133e+000	 6.666700000016665e+000	 1.000692196342398e+001
0	 3.000000000000000e+000	 6.000000000000000e+000	 1.003587283496838e+001
0	 3.000000000000000e+000	 6.066670000003318e+000	 1.003375099976220e+001
0	 3.000000000000000e+000	 6.133340000006531e+000	 1.003168783760282e+001
0	 3.000000000000000e+000	 6.200010000009552e+000	 1.002966007266683e+001
0	 3.000000000000000e+000	 6.266680000012268e+000	 1.002764442913084e+001
0	 3.000000000000000e+000	 6.333350000014584e+000	 1.002561763117146e+001
0	 3.000000000000000e+000	 6.400020000016401e+000	 1.002355640296526e+001
0	 3.000000000000000e+000	 6.466690000017617e+000	 1.002143746868889e+001
0	 3.000000000000000e+000	 6.533360000018136e+000	 1.001923755251891e+001
0	 3.000000000000000e+000	 6.600030000017848e+000	 1.001693337863194e+001
0	 3.000000000000000e+000	 6.666700000016666e+000	 1.001450167120457e+001
0	 3.066659999995868e+000	 6.000000000000001e+000	 1.004659431538577e+001
0	 3.066659999995867e+000	 6.066670000003317e+000	 1.004396780394990e+001
0	 3.066659999995867e+000	 6.133340000006533e+000	 1.004143629241619e+001
0	 3.066659999995867e+000	 6.200010000009553e+000	 1.003897661103960e+001
0	 3.066659999995868e+000	 6.266680000012269e+000	 1.003656559007505e+001
0	 3.066659999995868e+000	 6.333350000014584e+000	 1.003418005977755e+001
0	 3.066659999995868e+000	 6.400020000016403e+000	 1.003179685040199e+001
0	 3.066659999995868e+000	 6.466690000017617e+000	 1.002939279220335e+001
0	 3.066659999995868e+000	 6.533360000018135e+000	 1.002694471543658e+001
0	 3.066659999995868e+000	 6.600030000017851e+000	 1.002442945035663e+001
0	 3.066659999995867e+000	 6.666700000016665e+000	 1.002182382721846e+001
0	 3.133319999991934e+000	 6.000000000000000e+000	 1.005700782458762e+001
0	 3.133319999991935e+000	 6.066670000003319e+000	 1.005387930618348e+001
0	 3.133319999991934e+000	 6.133340000006534e+000	 1.005087989893830e+001
0	 3.133319999991934e+000	 6.200010000009550e+000	 1.004798758723686e+001
0	 3.133319999991934e+000	 6.266680000012267e+000	 1.004518035546393e+001
0	 3.133319999991934e+000	 6.333350000014583e+000	 1.004243618800429e+001
0	 3.133319999991934e+000	 6.400020000016399e+000	 1.003973306924269e+001
0	 3.133319999991933e+000	 6.466690000017615e+000	 1.003704898356393e+001
0	 3.133319999991935e+000	 6.533360000018135e+000	 1.003436191535277e+001
0	 3.133319999991933e+000	 6.600030000017849e+000	 1.003164984899398e+001
0	 3.133319999991934e+000	 6.666700000016667e+000	 1.002889076887236e+001
0	 3.199979999988401e+000	 6.000000000000001e+000	 1.006707648725976e+001
0	 3.199979999988401e+000	 6.066670000003318e+000	 1.006346459158473e+001
0	 3.199979999988401e+000	 6.133340000006532e+000	 1.006001102735715e+001
0	 3.199979999988401e+000	 6.200010000009551e+000	 1.005669598114311e+001
0	 3.199979999988400e+000	 6.266680000012266e+000	 1.005349963950865e+001
0	 3.199979999988400e+000	 6.333350000014582e+000	 1.005040218901985e+001
0	 3.199979999988401e+000	 6.400020000016401e+000	 1.004738381624277e+001
0	 3.199979999988400e+000	 6.466690000017614e+000	 1.004442470774346e+001
0	 3.199979999988401e+000	 6.533360000018133e+000	 1.004150505008801e+001
0	 3.199979999988400e+000	 6.600030000017850e+000	 1.003860502984249e+001
0	 3.199979999988401e+000	 6.666700000016667e+000	 1.003570483357296e+001
0	 3.266639999985468e+000	 6.000000000000001e+000	 1.007676342808798e+001
0	 3.266639999985468e+000	 6.066670000003318e+000	 1.007270274527542e+001
0	 3.266639999985467e+000	 6.133340000006531e+000	 1.006882204786077e+001
0	 3.266639999985468e+000	 6.200010000009553e+000	 1.006510477264283e+001
0	 3.266639999985467e+000	 6.266680000012268e+000	 1.006153435642043e+001
0	 3.266639999985468e+000	 6.333350000014584e+000	 1.005809423599241e+001
0	 3.266639999985468e+000	 6.400020000016400e+000	 1.005476784815758e+001
0	 3.266639999985468e+000	 6.466690000017618e+000	 1.005153862971479e+001
0	 3.266639999985467e+000	 6.533360000018132e+000	 1.004839001746288e+001
0	 3.266639999985468e+000	 6.600030000017852e+000	 1.004530544820065e+001
0	 3.266639999985468e+000	 6.666700000016667e+000	 1.004226835872698e+001
0	 3.333299999983333e+000	 5.999999999999998e+000	 1.008603177175807e+001
0	 3.333299999983333e+000	 6.066670000003317e+000	 1.008157285237735e+001
0	 3.333299999983333e+000	 6.133340000006531e+000	 1.007730533063713e+001
0	 3.333299999983334e+000	 6.200010000009550e+000	 1.007321694162047e+001
0	 3.333299999983334e+000	 6.266680000012269e+000	 1.006929542041044e+001
0	 3.333299999983334e+000	 6.333350000014584e+000	 1.006552850209010e+001
0	 3.333299999983334e+000	 6.400020000016401e+000	 1.006190392174251e+001
0	 3.333299999983334e+000	 6.466690000017618e+000	 1.005840941445075e+001
0	 3.333299999983334e+000	 6.533360000018134e+000	 1.005503271529789e+001
0	 3.333299999983334e+000	 6.600030000017851e+000	 1.005176155936698e+001
0	 3.333299999983333e+000	 6.666700000016665e+000	 1.004858368174111e+001
0	 2.666700000016667e+000	 6.666700000016667e+000	 9.973980866500286e+000
0	 2.666700000016666e+000	 6.733360000014533e+000	 9.973032103286977e+000
0	 2.666700000016666e+000	 6.800020000011599e+000	 9.972266293167158e+000
0	 2.666700000016666e+000	 6.866680000008068e+000	 9.971692310333433e+000
0	 2.666700000016667e+000	 6.933340000004134e+000	 9.971319028978369e+000
0	 2.666700000016667e+000	 7.000000000000000e+000	 9.971155323294568e+000
0	 2.666700000016667e+000	 7.066659999995867e+000	 9.971210067474614e+000
0	 2.666700000016666e+000	 7.133319999991936e+000	 9.971492135711051e+000
0	 2.666700000016666e+000	 7.199979999988401e+000	 9.972010402196467e+000
0	 2.666700000016666e+000	 7.266639999985467e+000	 9.972773741123433e+000
0	 2.666700000016667e+000	 7.333299999983335e+000	 9.973791026684481e+000
0	 2.733360000014533e+000	 6.666700000016669e+000	 9.982614155414844e+000
0	 2.733360000014533e+000	 6.733360000014533e+000	 9.981256002110017e+000
0	 2.733360000014533e+000	 6.800020000011597e+000	 9.980096154884711e+000
0	 2.733360000014533e+000	 6.866680000008068e+000	 9.979145109092798e+000
0	 2.733360000014533e+000	 6.933340000004135e+000	 9.978413360088096e+000
0	 2.733360000014534e+000	 7.000000000000002e+000	 9.977911403224452e+000
0	 2.733360000014533e+000	 7.066659999995870e+000	 9.977649733855690e+000
0	 2.733360000014533e+000	 7.133319999991937e+000	 9.977638847335633e+000
0	 2.733360000014533e+000	 7.199979999988400e+000	 9.977889239018097e+000
0	 2.733360000014533e+000	 7.266639999985468e+000	 9.978411404256907e+000
0	 2.733360000014533e+000	 7.333299999983334e+000	 9.979215838405860e+000
0	 2.800020000011599e+000	 6.666700000016665e+000	 9.990980542935821e+000
0	 2.800020000011599e+000	 6.733360000014535e+000	 9.989280044013494e+000
0	 2.800020000011599e+000	 6.800020000011600e+000	 9.987784739026891e+000
0	 2.800020000011600e+000	 6.866680000008067e+000	 9.986506392452712e+000
0	 2.800020000011600e+000	 6.933340000004134e+000	 9.985456768767657e+000
0	 2.800020000011600e+000	 7.000000000000001e+000	 9.984647632448413e+000
0	 2.800020000011600e+000	 7.066659999995867e+000	 9.984090747971656e+000
0	 2.800020000011600e+000	 7.133319999991935e+000	 9.983797879814086e+000
0	 2.800020000011600e+000	 7.199979999988400e+000	 9.983780792452341e+000
0	 2.800020000011599e+000	 7.266639999985466e+000	 9.984051250363104e+000
0	 2.800020000011599e+000	 7.333299999983334e+000	 9.984621018023040e+000
0	 2.866680000008067e+000	 6.666700000016666e+000	 9.999082366469972e+000
0	 2.866680000008067e+000	 6.733360000014534e+000	 9.997097851703032e+000
0	 2.866680000008067e+000	 6.800020000011600e+000	 9.995318432512763e+000
0	 2.866680000008066e+000	 6.866680000008065e+000	 9.993756790460303e+000
0	 2.866680000008067e+000	 6.933340000004133e+000	 9.992425607106831e+000
0	 2.866680000008067e+000	 6.999999999999997e+000	 9.991337564013470e+000
0	 2.866680000008066e+000	 7.066659999995865e+000	 9.990505342741374e+000
0	 2.866680000008067e+000	 7.133319999991935e+000	 9.989941624851642e+000
0	 2.866680000008067e+000	 7.199979999988402e+000	 9.989659091905434e+000
0	 2.866680000008067e+000	 7.266639999985468e+000	 9.989670425463832e+000
0	 2.866680000008067e+000	 7.333299999983333e+000	 9.989988307087977e+000
0	 2.933340000004133e+000	 6.666700000016665e+000	 1.000692196342398e+001
0	 2.933340000004133e+000	 6.733360000014533e+000	 1.000470304788422e+001
0	 2.933340000004134e+000	 6.800020000011601e+000	 1.000268362226140e+001
0	 2.933340000004133e+000	 6.866680000008067e+000	 1.000087693316272e+001
0	 2.933340000004133e+000	 6.933340000004134e+000	 9.999296227195407e+000
0	 2.933340000004133e+000	 7.000000000000000e+000	 9.997954750966654e+000
0	 2.933340000004133e+000	 7.066659999995869e+000	 9.996865751083647e+000
0	 2.933340000004133e+000	 7.133319999991932e+000	 9.996042474153564e+000
0	 2.933340000004133e+000	 7.199979999988399e+000	 9.995498166783607e+000
0	 2.933340000004133e+000	 7.266639999985467e+000	 9.995246075580926e+000
0	 2.933340000004133e+000	 7.333299999983336e+000	 9.995299447152691e+000
0	 3.000000000000000e+000	 6.666700000016666e+000	 1.001450167120457e+001
0	 3.000000000000000e+000	 6.733360000014533e+000	 1.001208925526264e+001
0	 3.000000000000001e+000	 6.800020000011600e+000	 1.000986669519185e+001
0	 3.000000000000000e+000	 6.866680000008066e+000	 1.000784745060707e+001
0	 3.000000000000001e+000	 6.933340000004134e+000	 1.000604498112315e+001
0	 3.000000000000000e+000	 7.000000000000000e+000	 1.000447274635494e+001
0	 3.000000000000000e+000	 7.066659999995870e+000	 1.000314420591731e+001
0	 3.000000000000000e+000	 7.133319999991934e+000	 1.000207281942508e+001
0	 3.000000000000000e+000	 7.199979999988401e+000	 1.000127204649310e+001
0	 3.000000000000000e+000	 7.266639999985467e+000	 1.000075534673618e+001
0	 3.000000000000001e+000	 7.333299999983335e+000	 1.000053617976917e+001
0	 3.066659999995867e+000	 6.666700000016665e+000	 1.002182382721846e+001
0	 3.066659999995868e+000	 6.733360000014532e+000	 1.001925009654392e+001
0	 3.066659999995868e+000	 6.800020000011598e+000	 1.001685403822321e+001
0	 3.066659999995867e+000	 6.866680000008066e+000	 1.001464897284048e+001
0	 3.066659999995867e+000	 6.933340000004133e+000	 1.001264822097983e+001
0	 3.066659999995867e+000	 7.000000000000000e+000	 1.001086510322536e+001
0	 3.066659999995867e+000	 7.066659999995864e+000	 1.000931294016120e+001
0	 3.066659999995868e+000	 7.133319999991935e+000	 1.000800505237143e+001
0	 3.066659999995867e+000	 7.199979999988399e+000	 1.000695476044015e+001
0	 3.066659999995866e+000	 7.266639999985464e+000	 1.000617538495145e+001
0	 3.066659999995867e+000	 7.333299999983333e+000	 1.000568024648939e+001
0	 3.133319999991934e+000	 6.666700000016667e+000	 1.002889076887236e+001
0	 3.133319999991934e+000	 6.733360000014533e+000	 1.002617919443363e+001
0	 3.133319999991934e+000	 6.800020000011601e+000	 1.002363203827454e+001
0	 3.133319999991934e+000	 6.866680000008067e+000	 1.002126212991009e+001
0	 3.133319999991934e+000	 6.933340000004134e+000	 1.001908229885522e+001
0	 3.133319999991933e+000	 6.999999999999998e+000	 1.001710537462492e+001
0	 3.133319999991934e+000	 7.066659999995867e+000	 1.001534418673414e+001
0	 3.133319999991934e+000	 7.133319999991935e+000	 1.001381156469786e+001
0	 3.133319999991934e+000	 7.199979999988399e+000	 1.001252033803100e+001
0	 3.133319999991934e+000	 7.266639999985467e+000	 1.001148333624852e+001
0	 3.133319999991933e+000	 7.333299999983334e+000	 1.001071338886537e+001
0	 3.199979999988401e+000	 6.666700000016667e+000	 1.003570483357296e+001
0	 3.199979999988401e+000	 6.733360000014533e+000	 1.003287017163737e+001
0	 3.199979999988401e+000	 6.800020000011601e+000	 1.003018708226492e+001
0	 3.199979999988401e+000	 6.866680000008066e+000	 1.002766755186301e+001
0	 3.199979999988402e+000	 6.933340000004133e+000	 1.002532356683911e+001
0	 3.199979999988401e+000	 7.000000000000000e+000	 1.002316711360061e+001
0	 3.199979999988401e+000	 7.066659999995867e+000	 1.002121017855497e+001
0	 3.199979999988401e+000	 7.133319999991935e+000	 1.001946474810958e+001
0	 3.199979999988401e+000	 7.199979999988402e+000	 1.001794280867187e+001
0	 3.199979999988400e+000	 7.266639999985467e+000	 1.001665634664923e+001
0	 3.199979999988401e+000	 7.333299999983334e+000	 1.001561734844907e+001
0	 3.266639999985468e+000	 6.666700000016667e+000	 1.004226835872698e+001
0	 3.266639999985468e+000	 6.733360000014533e+000	 1.003931665086074e+001
0	 3.266639999985468e+000	 6.800020000011600e+000	 1.003650555711338e+001
0	 3.266639999985468e+000	 6.866680000008067e+000	 1.003384586874639e+001
0	 3.266639999985468e+000	 6.933340000004133e+000	 1.003134837702124e+001
0	 3.266639999985468e+000	 6.999999999999999e+000	 1.002902387319945e+001
0	 3.266639999985468e+000	 7.066659999995867e+000	 1.002688314854250e+001
0	 3.266639999985468e+000	 7.133319999991934e+000	 1.002493699431185e+001
0	 3.266639999985468e+000	 7.199979999988400e+000	 1.002319620176899e+001
0	 3.266639999985468e+000	 7.266639999985468e+000	 1.002167156217538e+001
0	 3.266639999985467e+000	 7.333299999983333e+000	 1.002037386679248e+001
0	 3.333299999983333e+000	 6.666700000016665e+000	 1.004858368174112e+001
0	 3.333299999983334e+000	 6.733360000014534e+000	 1.004551225480932e+001
0	 3.333299999983334e+000	 6.800020000011601e+000	 1.004257384973900e+001
0	 3.333299999983333e+000	 6.866680000008064e+000	 1.003977771060730e+001
0	 3.333299999983334e+000	 6.933340000004133e+000	 1.003713308149140e+001
0	 3.333299999983333e+000	 6.999999999999999e+000	 1.003464920646844e+001
0	 3.333299999983335e+000	 7.066659999995867e+000	 1.003233532961556e+001
0	 3.333299999983334e+000	 7.133319999991936e+000	 1.003020069500990e+001
0	 3.333299999983334e+000	 7.199979999988401e+000	 1.002825454672860e+001
0	 3.333299999983334e+000	 7.266639999985467e+000	 1.002650612884879e+001
0	 3.333299999983335e+000	 7.333299999983336e+000	 1.002496468544759e+001
0	 2.666700000016667e+000	 7.333299999983335e+000	 9.973791026684479e+000
0	 2.666700000016667e+000	 7.399969999982151e+000	 9.974910308171802e+000
0	 2.666700000016666e+000	 7.466639999981866e+000	 9.975975101959177e+000
0	 2.666700000016666e+000	 7.533309999982383e+000	 9.976987999160835e+000
0	 2.666700000016666e+000	 7.599979999983598e+000	 9.977951590890978e+000
0	 2.666700000016666e+000	 7.666649999985416e+000	 9.978868468263835e+000
0	 2.666700000016667e+000	 7.733319999987733e+000	 9.979741222393633e+000
0	 2.666700000016667e+000	 7.799989999990449e+000	 9.980572444394564e+000
0	 2.666700000016665e+000	 7.866659999993464e+000	 9.981364725380882e+000
0	 2.666700000016666e+000	 7.933329999996683e+000	 9.982120656466769e+000
0	 2.666700000016667e+000	 8.000000000000000e+000	 9.982842828766458e+000
0	 2.733360000014533e+000	 7.333299999983334e+000	 9.979215838405860e+000
0	 2.733360000014533e+000	 7.399969999982149e+000	 9.980136438224422e+000
0	 2.733360000014533e+000	 7.466639999981865e+000	 9.981001229130873e+000
0	 2.733360000014533e+000	 7.533309999982382e+000	 9.981812326590093e+000
0	 2.733360000014533e+000	 7.599979999983601e+000	 9.982571846067001e+000
0	 2.733360000014533e+000	 7.666649999985416e+000	 9.983281903026475e+000
0	 2.733360000014533e+000	 7.733319999987733e+000	 9.983944612933412e+000
0	 2.733360000014533e+000	 7.799989999990449e+000	 9.984562091252709e+000
0	 2.733360000014533e+000	 7.866659999993466e+000	 9.985136453449282e+000
0	 2.733360000014533e+000	 7.933329999996682e+000	 9.985669814988009e+000
0	 2.733360000014533e+000	 7.999999999999999e+000	 9.986164291333770e+000
0	 2.800020000011599e+000	 7.333299999983334e+000	 9.984621018023038e+000
0	 2.800020000011599e+000	 7.399969999982149e+000	 9.985317630211354e+000
0	 2.800020000011599e+000	 7.466639999981865e+000	 9.985961690823142e+000
0	 2.800020000011600e+000	 7.533309999982383e+000	 9.986554893546217e+000
0	 2.800020000011601e+000	 7.599979999983602e+000	 9.987098932068358e+000
0	 2.800020000011600e+000	 7.666649999985417e+000	 9.987595500077386e+000
0	 2.800020000011600e+000	 7.733319999987733e+000	 9.988046291261062e+000
0	 2.800020000011600e+000	 7.799989999990451e+000	 9.988452999307222e+000
0	 2.800020000011600e+000	 7.866659999993467e+000	 9.988817317903649e+000
0	 2.800020000011600e+000	 7.933329999996681e+000	 9.989140940738142e+000
0	 2.800020000011600e+000	 8.000000000000000e+000	 9.989425561498491e+000
0	 2.866680000008067e+000	 7.333299999983333e+000	 9.989988307087977e+000
0	 2.866680000008067e+000	 7.399969999982149e+000	 9.990440580039600e+000
0	 2.866680000008066e+000	 7.466639999981866e+000	 9.990847374432549e+000
0	 2.866680000008066e+000	 7.533309999982383e+000	 9.991210016049754e+000
0	 2.866680000008066e+000	 7.599979999983598e+000	 9.991529830674136e+000
0	 2.866680000008067e+000	 7.666649999985417e+000	 9.991808144088616e+000
0	 2.866680000008067e+000	 7.733319999987733e+000	 9.992046282076117e+000
0	 2.866680000008066e+000	 7.799989999990447e+000	 9.992245570419582e+000
0	 2.866680000008066e+000	 7.866659999993466e+000	 9.992407334901907e+000
0	 2.866680000008066e+000	 7.933329999996682e+000	 9.992532901306024e+000
0	 2.866680000008067e+000	 7.999999999999999e+000	 9.992623595414875e+000
0	 2.933340000004133e+000	 7.333299999983336e+000	 9.995299447152689e+000
0	 2.933340000004133e+000	 7.399969999982149e+000	 9.995491983616205e+000
0	 2.933340000004133e+000	 7.466639999981866e+000	 9.995649167355643e+000
0	 2.933340000004133e+000	 7.533309999982383e+000	 9.995772010121284e+000
0	 2.933340000004134e+000	 7.599979999983602e+000	 9.995861523663384e+000
0	 2.933340000004133e+000	 7.666649999985414e+000	 9.995918719732227e+000
0	 2.933340000004134e+000	 7.733319999987733e+000	 9.995944610078086e+000
0	 2.933340000004133e+000	 7.799989999990448e+000	 9.995940206451238e+000
0	 2.933340000004134e+000	 7.866659999993468e+000	 9.995906520601942e+000
0	 2.933340000004134e+000	 7.933329999996684e+000	 9.995844564280507e+000
0	 2.933340000004133e+000	 7.999999999999999e+000	 9.995755349237159e+000
0	 3.000000000000001e+000	 7.333299999983335e+000	 1.000053617976917e+001
0	 3.000000000000000e+000	 7.399969999982151e+000	 1.000045853684820e+001
0	 2.999999999999999e+000	 7.466639999981865e+000	 1.000035795698898e+001
0	 3.000000000000000e+000	 7.533309999982383e+000	 1.000023519178135e+001
0	 3.000000000000001e+000	 7.599979999983599e+000	 1.000009099281515e+001
0	 3.000000000000000e+000	 7.666649999985415e+000	 9.999926111680253e+000
0	 3.000000000000000e+000	 7.733319999987733e+000	 9.999741299966463e+000
0	 3.000000000000000e+000	 7.799989999990451e+000	 9.999537309263687e+000
0	 3.000000000000001e+000	 7.866659999993468e+000	 9.999314891161715e+000
0	 3.000000000000000e+000	 7.933329999996683e+000	 9.999074797250406e+000
0	 3.000000000000000e+000	 8.000000000000000e+000	 9.998817779119653e+000
0	 3.066659999995867e+000	 7.333299999983333e+000	 1.000568024648939e+001
0	 3.066659999995868e+000	 7.399969999982150e+000	 1.000532693564261e+001
0	 3.066659999995867e+000	 7.466639999981867e+000	 1.000496463072910e+001
0	 3.066659999995867e+000	 7.533309999982381e+000	 1.000459387705052e+001
0	 3.066659999995868e+000	 7.599979999983601e+000	 1.000421521990850e+001
0	 3.066659999995868e+000	 7.666649999985417e+000	 1.000382920460471e+001
0	 3.066659999995868e+000	 7.733319999987733e+000	 1.000343637644079e+001
0	 3.066659999995867e+000	 7.799989999990450e+000	 1.000303728071836e+001
0	 3.066659999995867e+000	 7.866659999993466e+000	 1.000263246273909e+001
0	 3.066659999995867e+000	 7.933329999996682e+000	 1.000222246780462e+001
0	 3.066659999995868e+000	 8.000000000000000e+000	 1.000180784121659e+001
0	 3.133319999991933e+000	 7.333299999983334e+000	 1.001071338886537e+001
0	 3.133319999991933e+000	 7.399969999982148e+000	 1.001008387590645e+001
0	 3.133319999991935e+000	 7.466639999981867e+000	 1.000946007597256e+001
0	 3.133319999991934e+000	 7.533309999982384e+000	 1.000884238194934e+001
0	 3.133319999991933e+000	 7.599979999983598e+000	 1.000823118672250e+001
0	 3.133319999991934e+000	 7.666649999985417e+000	 1.000762688317768e+001
0	 3.133319999991934e+000	 7.733319999987733e+000	 1.000702986420053e+001
0	 3.133319999991934e+000	 7.799989999990449e+000	 1.000644052267674e+001
0	 3.133319999991934e+000	 7.866659999993466e+000	 1.000585925149200e+001
0	 3.133319999991935e+000	 7.933329999996683e+000	 1.000528644353192e+001
0	 3.133319999991934e+000	 8.000000000000000e+000	 1.000472249168223e+001
0	 3.199979999988401e+000	 7.333299999983334e+000	 1.001561734844907e+001
0	 3.199979999988402e+000	 7.399969999982152e+000	 1.001471605354675e+001
0	 3.199979999988402e+000	 7.466639999981867e+000	 1.001383518011588e+001
0	 3.199979999988400e+000	 7.533309999982381e+000	 1.001297502249838e+001
0	 3.199979999988401e+000	 7.599979999983600e+000	 1.001213587503617e+001
0	 3.199979999988401e+000	 7.666649999985417e+000	 1.001131803207114e+001
0	 3.199979999988401e+000	 7.733319999987733e+000	 1.001052178794523e+001
0	 3.199979999988401e+000	 7.799989999990449e+000	 1.000974743700032e+001
0	 3.199979999988400e+000	 7.866659999993467e+000	 1.000899527357835e+001
0	 3.199979999988401e+000	 7.933329999996684e+000	 1.000826559202122e+001
0	 3.199979999988401e+000	 7.999999999999999e+000	 1.000755868667084e+001
0	 3.266639999985467e+000	 7.333299999983333e+000	 1.002037386679248e+001
0	 3.266639999985467e+000	 7.399969999982151e+000	 1.001921016447053e+001
0	 3.266639999985468e+000	 7.466639999981867e+000	 1.001808083055564e+001
0	 3.266639999985468e+000	 7.533309999982384e+000	 1.001698611471820e+001
0	 3.266639999985468e+000	 7.599979999983599e+000	 1.001592626662858e+001
0	 3.266639999985467e+000	 7.666649999985417e+000	 1.001490153595718e+001
0	 3.266639999985467e+000	 7.733319999987733e+000	 1.001391217237437e+001
0	 3.266639999985467e+000	 7.799989999990450e+000	 1.001295842555052e+001
0	 3.266639999985467e+000	 7.866659999993466e+000	 1.001204054515605e+001
0	 3.266639999985468e+000	 7.933329999996683e+000	 1.001115878086131e+001
0	 3.266639999985468e+000	 8.000000000000000e+000	 1.001031338233669e+001
0	 3.333299999983335e+000	 7.333299999983336e+000	 1.002496468544759e+001
0	 3.333299999983333e+000	 7.399969999982149e+000	 1.002355290458481e+001
0	 3.333299999983334e+000	 7.466639999981866e+000	 1.002218791468837e+001
0	 3.333299999983334e+000	 7.533309999982383e+000	 1.002086997462934e+001
0	 3.333299999983334e+000	 7.599979999983601e+000	 1.001959934327879e+001
0	 3.333299999983334e+000	 7.666649999985416e+000	 1.001837627950783e+001
0	 3.333299999983334e+000	 7.733319999987733e+000	 1.001720104218748e+001
0	 3.333299999983334e+000	 7.799989999990448e+000	 1.001607389018885e+001
0	 3.333299999983333e+000	 7.866659999993466e+000	 1.001499508238302e+001
0	 3.333299999983334e+000	 7.933329999996683e+000	 1.001396487764105e+001
0	 3.333299999983334e+000	 8.000000000000000e+000	 1.001298353483402e+001
0	 2.666700000016667e+000	 8.000000000000000e+000	 9.982842828766458e+000
0	 2.666700000016666e+000	 8.066670000003317e+000	 9.983555833407475e+000
0	 2.666700000016666e+000	 8.133340000006532e+000	 9.984284023720246e+000
0	 2.666700000016666e+000	 8.200010000009550e+000	 9.985029634123402e+000
0	 2.666700000016666e+000	 8.266680000012267e+000	 9.985794899035545e+000
0	 2.666700000016666e+000	 8.333350000014583e+000	 9.986582052875246e+000
0	 2.666700000016665e+000	 8.400020000016399e+000	 9.987393330061167e+000
0	 2.666700000016666e+000	 8.466690000017618e+000	 9.988230965011894e+000
0	 2.666700000016666e+000	 8.533360000018133e+000	 9.989097192146028e+000
0	 2.666700000016666e+000	 8.600030000017851e+000	 9.989994245882180e+000
0	 2.666700000016666e+000	 8.666700000016668e+000	 9.990924360638939e+000
0	 2.733360000014533e+000	 7.999999999999999e+000	 9.986164291333770e+000
0	 2.733360000014534e+000	 8.066670000003319e+000	 9.986652385052032e+000
0	 2.733360000014534e+000	 8.133340000006532e+000	 9.987166562141203e+000
0	 2.733360000014533e+000	 8.200010000009552e+000	 9.987708883215763e+000
0	 2.733360000014533e+000	 8.266680000012268e+000	 9.988281408890130e+000
0	 2.733360000014533e+000	 8.333350000014583e+000	 9.988886199778774e+000
0	 2.733360000014532e+000	 8.400020000016403e+000	 9.989525316496136e+000
0	 2.733360000014534e+000	 8.466690000017618e+000	 9.990200819656636e+000
0	 2.733360000014532e+000	 8.533360000018133e+000	 9.990914769874747e+000
0	 2.733360000014533e+000	 8.600030000017854e+000	 9.991669227764898e+000
0	 2.733360000014533e+000	 8.666700000016666e+000	 9.992466253941549e+000
0	 2.800020000011600e+000	 8.000000000000000e+000	 9.989425561498491e+000
0	 2.800020000011599e+000	 8.066670000003315e+000	 9.989707684311547e+000
0	 2.800020000011600e+000	 8.133340000006530e+000	 9.990023957970108e+000
0	 2.800020000011599e+000	 8.200010000009550e+000	 9.990376293160914e+000
0	 2.800020000011600e+000	 8.266680000012265e+000	 9.990766600570698e+000
0	 2.800020000011600e+000	 8.333350000014585e+000	 9.991196790886239e+000
0	 2.800020000011600e+000	 8.400020000016397e+000	 9.991668774794226e+000
0	 2.800020000011600e+000	 8.466690000017618e+000	 9.992184462981431e+000
0	 2.800020000011601e+000	 8.533360000018135e+000	 9.992745766134584e+000
0	 2.800020000011601e+000	 8.600030000017853e+000	 9.993354594940437e+000
0	 2.800020000011600e+000	 8.666700000016666e+000	 9.994012860085713e+000
0	 2.866680000008067e+000	 7.999999999999999e+000	 9.992623595414875e+000
0	 2.866680000008066e+000	 8.066670000003319e+000	 9.992716583233932e+000
0	 2.866680000008067e+000	 8.133340000006532e+000	 9.992849336670449e+000
0	 2.866680000008067e+000	 8.200010000009549e+000	 9.993023640359931e+000
0	 2.866680000008067e+000	 8.266680000012267e+000	 9.993241278937857e+000
0	 2.866680000008066e+000	 8.333350000014585e+000	 9.993504037039712e+000
0	 2.866680000008066e+000	 8.400020000016399e+000	 9.993813699300992e+000
0	 2.866680000008066e+000	 8.466690000017618e+000	 9.994172050357216e+000
0	 2.866680000008066e+000	 8.533360000018133e+000	 9.994580874843861e+000
0	 2.866680000008067e+000	 8.600030000017849e+000	 9.995041957396424e+000
0	 2.866680000008067e+000	 8.666700000016665e+000	 9.995557082650405e+000
0	 2.933340000004133e+000	 7.999999999999999e+000	 9.995755349237159e+000
0	 2.933340000004133e+000	 8.066670000003319e+000	 9.995673933867099e+000
0	 2.933340000004133e+000	 8.133340000006534e+000	 9.995635823705783e+000
0	 2.933340000004133e+000	 8.200010000009550e+000	 9.995642701213896e+000
0	 2.933340000004133e+000	 8.266680000012267e+000	 9.995696248852175e+000
0	 2.933340000004133e+000	 8.333350000014585e+000	 9.995798149081292e+000
0	 2.933340000004133e+000	 8.400020000016399e+000	 9.995950084361990e+000
0	 2.933340000004133e+000	 8.466690000017618e+000	 9.996153737154966e+000
0	 2.933340000004133e+000	 8.533360000018131e+000	 9.996410789920919e+000
0	 2.933340000004133e+000	 8.600030000017851e+000	 9.996722925120576e+000
0	 2.933340000004133e+000	 8.666700000016666e+000	 9.997091825214612e+000
0	 3.000000000000000e+000	 8.000000000000000e+000	 9.998817779119653e+000
0	 3.000000000000000e+000	 8.066670000003319e+000	 9.998574588258947e+000
0	 3.000000000000000e+000	 8.133340000006530e+000	 9.998376544539582e+000
0	 2.999999999999999e+000	 8.200010000009549e+000	 9.998225252123875e+000
0	 3.000000000000000e+000	 8.266680000012267e+000	 9.998122315174268e+000
0	 3.000000000000000e+000	 8.333350000014582e+000	 9.998069337853110e+000
0	 3.000000000000000e+000	 8.400020000016401e+000	 9.998067924322763e+000
0	 3.000000000000001e+000	 8.466690000017618e+000	 9.998119678745631e+000
0	 3.000000000000000e+000	 8.533360000018133e+000	 9.998226205284091e+000
0	 3.000000000000000e+000	 8.600030000017847e+000	 9.998389108100515e+000
0	 3.000000000000001e+000	 8.666700000016666e+000	 9.998609991357288e+000
0	 3.066659999995868e+000	 8.000000000000000e+000	 1.000180784121659e+001
0	 3.066659999995867e+000	 8.066670000003319e+000	 1.000141339845740e+001
0	 3.066659999995867e+000	 8.133340000006534e+000	 1.000106462463536e+001
0	 3.066659999995867e+000	 8.200010000009552e+000	 1.000076306949097e+001
0	 3.066659999995868e+000	 8.266680000012270e+000	 1.000051028276477e+001
0	 3.066659999995867e+000	 8.333350000014583e+000	 1.000030781419723e+001
0	 3.066659999995868e+000	 8.400020000016399e+000	 1.000015721352886e+001
0	 3.066659999995867e+000	 8.466690000017616e+000	 1.000006003050019e+001
0	 3.066659999995867e+000	 8.533360000018133e+000	 1.000001781485171e+001
0	 3.066659999995868e+000	 8.600030000017851e+000	 1.000003211632395e+001
0	 3.066659999995868e+000	 8.666700000016665e+000	 1.000010448465741e+001
0	 3.133319999991934e+000	 8.000000000000000e+000	 1.000472249168223e+001
0	 3.133319999991934e+000	 8.066670000003317e+000	 1.000418521651033e+001
0	 3.133319999991935e+000	 8.133340000006536e+000	 1.000369318945663e+001
0	 3.133319999991933e+000	 8.200010000009550e+000	 1.000324792971625e+001
0	 3.133319999991935e+000	 8.266680000012268e+000	 1.000285095648425e+001
0	 3.133319999991934e+000	 8.333350000014583e+000	 1.000250378895573e+001
0	 3.133319999991934e+000	 8.400020000016403e+000	 1.000220794632580e+001
0	 3.133319999991934e+000	 8.466690000017618e+000	 1.000196494778957e+001
0	 3.133319999991935e+000	 8.533360000018137e+000	 1.000177631254212e+001
0	 3.133319999991935e+000	 8.600030000017851e+000	 1.000164355977856e+001
0	 3.133319999991935e+000	 8.666700000016668e+000	 1.000156820869396e+001
0	 3.199979999988401e+000	 7.999999999999999e+000	 1.000755868667084e+001
0	 3.199979999988401e+000	 8.066670000003317e+000	 1.000688489446566e+001
0	 3.199979999988400e+000	 8.133340000006530e+000	 1.000625536446690e+001
0	 3.199979999988401e+000	 8.200010000009550e+000	 1.000567160920075e+001
0	 3.199979999988400e+000	 8.266680000012265e+000	 1.000513514119332e+001
0	 3.199979999988401e+000	 8.333350000014583e+000	 1.000464747297073e+001
0	 3.199979999988401e+000	 8.400020000016401e+000	 1.000421011705917e+001
0	 3.199979999988401e+000	 8.466690000017618e+000	 1.000382458598476e+001
0	 3.199979999988400e+000	 8.533360000018133e+000	 1.000349239227364e+001
0	 3.199979999988400e+000	 8.600030000017849e+000	 1.000321504845197e+001
0	 3.199979999988401e+000	 8.666700000016668e+000	 1.000299406704589e+001
0	 3.266639999985468e+000	 8.000000000000000e+000	 1.001031338233669e+001
0	 3.266639999985468e+000	 8.066670000003317e+000	 1.000950728437129e+001
0	 3.266639999985467e+000	 8.133340000006534e+000	 1.000874427512971e+001
0	 3.266639999985468e+000	 8.200010000009552e+000	 1.000802588434559e+001
0	 3.266639999985468e+000	 8.266680000012267e+000	 1.000735364175258e+001
0	 3.266639999985468e+000	 8.333350000014583e+000	 1.000672907708432e+001
0	 3.266639999985468e+000	 8.400020000016401e+000	 1.000615372007449e+001
0	 3.266639999985467e+000	 8.466690000017616e+000	 1.000562910045669e+001
0	 3.266639999985467e+000	 8.533360000018133e+000	 1.000515674796461e+001
0	 3.266639999985467e+000	 8.600030000017849e+000	 1.000473819233189e+001
0	 3.266639999985467e+000	 8.666700000016666e+000	 1.000437496329218e+001
0	 3.333299999983334e+000	 8.000000000000000e+000	 1.001298353483402e+001
0	 3.333299999983334e+000	 8.066670000003317e+000	 1.001204723827511e+001
0	 3.333299999983334e+000	 8.133340000006532e+000	 1.001115304690851e+001
0	 3.333299999983334e+000	 8.200010000009550e+000	 1.001030253155182e+001
0	 3.333299999983334e+000	 8.266680000012267e+000	 1.000949726302266e+001
0	 3.333299999983334e+000	 8.333350000014585e+000	 1.000873881213860e+001
0	 3.333299999983334e+000	 8.400020000016399e+000	 1.000802874971730e+001
0	 3.333299999983334e+000	 8.466690000017618e+000	 1.000736864657636e+001
0	 3.333299999983333e+000	 8.533360000018133e+000	 1.000676007353339e+001
0	 3.333299999983335e+000	 8.600030000017851e+000	 1.000620460140600e+001
0	 3.333299999983334e+000	 8.666700000016668e+000	 1.000570380101181e+001
0	 2.666700000016666e+000	 8.666700000016668e+000	 9.990924360638937e+000
0	 2.666700000016667e+000	 8.733360002791903e+000	 9.991840240158389e+000
0	 2.666700000016667e+000	 8.800020022230555e+000	 9.992695000436646e+000
0	 2.666700000016666e+000	 8.866680074997040e+000	 9.993491068080903e+000
0	 2.666700000016667e+000	 8.933340177755779e+000	 9.994230869847327e+000
0	 2.666700000016666e+000	 9.000000347171183e+000	 9.994916832640969e+000
0	 2.666700000016666e+000	 9.066660599907667e+000	 9.995551383515833e+000
0	 2.666700000016666e+000	 9.133320952629655e+000	 9.996136949674844e+000
0	 2.666700000016667e+000	 9.199981422001557e+000	 9.996675958469789e+000
0	 2.666700000016667e+000	 9.266642024687794e+000	 9.997170837401372e+000
0	 2.666700000016666e+000	 9.333302777352785e+000	 9.997624014119193e+000
0	 2.733360000014533e+000	 8.666700000016666e+000	 9.992466253941549e+000
0	 2.733360000014533e+000	 8.733360002791901e+000	 9.993255529802736e+000
0	 2.733360000014534e+000	 8.800020022230553e+000	 9.993987164629353e+000
0	 2.733360000014533e+000	 8.866680074997044e+000	 9.994663492430355e+000
0	 2.733360000014533e+000	 8.933340177755776e+000	 9.995286847348584e+000
0	 2.733360000014533e+000	 9.000000347171183e+000	 9.995859563660856e+000
0	 2.733360000014533e+000	 9.066660599907669e+000	 9.996383975777937e+000
0	 2.733360000014533e+000	 9.133320952629655e+000	 9.996862418244515e+000
0	 2.733360000014532e+000	 9.199981422001558e+000	 9.997297225739196e+000
0	 2.733360000014533e+000	 9.266642024687798e+000	 9.997690733074498e+000
0	 2.733360000014533e+000	 9.333302777352785e+000	 9.998045275196882e+000
0	 2.800020000011600e+000	 8.666700000016666e+000	 9.994012860085713e+000
0	 2.800020000011600e+000	 8.733360002791905e+000	 9.994669331080692e+000
0	 2.800020000011600e+000	 8.800020022230557e+000	 9.995273171974450e+000
0	 2.800020000011599e+000	 8.866680074997040e+000	 9.995826577736047e+000
0	 2.800020000011600e+000	 8.933340177755781e+000	 9.996331743451622e+000
0	 2.800020000011600e+000	 9.000000347171183e+000	 9.996790864324487e+000
0	 2.800020000011600e+000	 9.066660599907667e+000	 9.997206135674936e+000
0	 2.800020000011600e+000	 9.133320952629653e+000	 9.997579752940432e+000
0	 2.800020000011600e+000	 9.199981422001557e+000	 9.997913911675461e+000
0	 2.800020000011599e+000	 9.266642024687796e+000	 9.998210807551580e+000
0	 2.800020000011600e+000	 9.333302777352783e+000	 9.998472636357430e+000
0	 2.866680000008067e+000	 8.666700000016665e+000	 9.995557082650404e+000
0	 2.866680000008066e+000	 8.733360002791903e+000	 9.996075917982758e+000
0	 2.866680000008067e+000	 8.800020022230553e+000	 9.996548443436412e+000
0	 2.866680000008066e+000	 8.866680074997040e+000	 9.996976668498416e+000
0	 2.866680000008067e+000	 8.933340177755778e+000	 9.997362602754523e+000
0	 2.866680000008067e+000	 9.000000347171184e+000	 9.997708255889229e+000
0	 2.866680000008066e+000	 9.066660599907666e+000	 9.998015637685674e+000
0	 2.866680000008067e+000	 9.133320952629656e+000	 9.998286758025726e+000
0	 2.866680000008067e+000	 9.199981422001558e+000	 9.998523626889927e+000
0	 2.866680000008067e+000	 9.266642024687798e+000	 9.998728254357481e+000
0	 2.866680000008067e+000	 9.333302777352783e+000	 9.998902650606297e+000
0	 2.933340000004133e+000	 8.666700000016666e+000	 9.997091825214611e+000
0	 2.933340000004133e+000	 8.733360002791905e+000	 9.997469564499392e+000
0	 2.933340000004133e+000	 8.800020022230555e+000	 9.997808399979737e+000
0	 2.933340000004133e+000	 8.866680074997042e+000	 9.998110109217924e+000
0	 2.933340000004133e+000	 8.933340177755776e+000	 9.998376469855353e+000
0	 2.933340000004133e+000	 9.000000347171181e+000	 9.998609259612511e+000
0	 2.933340000004133e+000	 9.066660599907667e+000	 9.998810256288985e+000
0	 2.933340000004133e+000	 9.133320952629653e+000	 9.998981237763523e+000
0	 2.933340000004133e+000	 9.199981422001558e+000	 9.999123981993908e+000
0	 2.933340000004133e+000	 9.266642024687798e+000	 9.999240267017033e+000
0	 2.933340000004133e+000	 9.333302777352783e+000	 9.999331870948822e+000
0	 3.000000000000001e+000	 8.666700000016666e+000	 9.998609991357288e+000
0	 3.000000000000000e+000	 8.733360002791903e+000	 9.998844544621031e+000
0	 3.000000000000000e+000	 8.800020022230555e+000	 9.999048462568917e+000
0	 3.000000000000000e+000	 8.866680074997039e+000	 9.999223244395040e+000
0	 3.000000000000000e+000	 8.933340177755776e+000	 9.999370389352160e+000
0	 3.000000000000000e+000	 9.000000347171181e+000	 9.999491396751697e+000
0	 3.000000000000000e+000	 9.066660599907666e+000	 9.999587765963726e+000
0	 3.000000000000000e+000	 9.133320952629658e+000	 9.999660996416958e+000
0	 2.999999999999999e+000	 9.199981422001557e+000	 9.999712587598756e+000
0	 3.000000000000001e+000	 9.266642024687796e+000	 9.999744039055051e+000
0	 3.000000000000000e+000	 9.333302777352781e+000	 9.999756850390448e+000
0	 3.066659999995868e+000	 8.666700000016665e+000	 1.000010448465741e+001
0	 3.066659999995868e+000	 8.733360002791901e+000	 1.000019513233819e+001
0	 3.066659999995868e+000	 8.800020022230557e+000	 1.000026405216847e+001
0	 3.066659999995867e+000	 8.866680074997042e+000	 1.000031241853020e+001
0	 3.066659999995867e+000	 8.933340177755779e+000	 1.000034140584300e+001
0	 3.066659999995868e+000	 9.000000347171181e+000	 1.000035218856420e+001
0	 3.066659999995868e+000	 9.066660599907667e+000	 1.000034594118872e+001
0	 3.066659999995867e+000	 9.133320952629655e+000	 1.000032383824915e+001
0	 3.066659999995868e+000	 9.199981422001562e+000	 1.000028705431575e+001
0	 3.066659999995867e+000	 9.266642024687794e+000	 1.000023676399637e+001
0	 3.066659999995867e+000	 9.333302777352781e+000	 1.000017414193652e+001
0	 3.133319999991935e+000	 8.666700000016668e+000	 1.000156820869396e+001
0	 3.133319999991934e+000	 8.733360002791903e+000	 1.000151560164129e+001
0	 3.133319999991934e+000	 8.800020022230555e+000	 1.000145058974285e+001
0	 3.133319999991934e+000	 8.866680074997040e+000	 1.000137397612386e+001
0	 3.133319999991933e+000	 8.933340177755776e+000	 1.000128656392600e+001
0	 3.133319999991934e+000	 9.000000347171183e+000	 1.000118915630745e+001
0	 3.133319999991934e+000	 9.066660599907669e+000	 1.000108255644282e+001
0	 3.133319999991933e+000	 9.133320952629653e+000	 1.000096756752324e+001
0	 3.133319999991934e+000	 9.199981422001557e+000	 1.000084499275624e+001
0	 3.133319999991934e+000	 9.266642024687799e+000	 1.000071563536586e+001
0	 3.133319999991934e+000	 9.333302777352783e+000	 1.000058029859250e+001
0	 3.199979999988401e+000	 8.666700000016668e+000	 1.000299406704588e+001
0	 3.199979999988400e+000	 8.733360002791901e+000	 1.000280022652082e+001
0	 3.199979999988401e+000	 8.800020022230557e+000	 1.000260349625659e+001
0	 3.199979999988401e+000	 8.866680074997042e+000	 1.000240426167648e+001
0	 3.199979999988400e+000	 8.933340177755778e+000	 1.000220290819917e+001
0	 3.199979999988401e+000	 9.000000347171181e+000	 1.000199982123878e+001
0	 3.199979999988401e+000	 9.066660599907667e+000	 1.000179538620484e+001
0	 3.199979999988400e+000	 9.133320952629653e+000	 1.000158998850233e+001
0	 3.199979999988402e+000	 9.199981422001560e+000	 1.000138401353156e+001
0	 3.199979999988400e+000	 9.266642024687794e+000	 1.000117784668833e+001
0	 3.199979999988401e+000	 9.333302777352785e+000	 1.000097187336375e+001
0	 3.266639999985467e+000	 8.666700000016666e+000	 1.000437496329218e+001
0	 3.266639999985467e+000	 8.733360002791901e+000	 1.000404328096722e+001
0	 3.266639999985468e+000	 8.800020022230555e+000	 1.000371819267416e+001
0	 3.266639999985467e+000	 8.866680074997042e+000	 1.000339961968851e+001
0	 3.266639999985468e+000	 8.933340177755778e+000	 1.000308748326060e+001
0	 3.266639999985468e+000	 9.000000347171181e+000	 1.000278170461565e+001
0	 3.266639999985468e+000	 9.066660599907667e+000	 1.000248220495367e+001
0	 3.266639999985468e+000	 9.133320952629656e+000	 1.000218890544956e+001
0	 3.266639999985468e+000	 9.199981422001562e+000	 1.000190172725302e+001
0	 3.266639999985468e+000	 9.266642024687798e+000	 1.000162059148859e+001
0	 3.266639999985468e+000	 9.333302777352785e+000	 1.000134541925565e+001
0	 3.333299999983334e+000	 8.666700000016668e+000	 1.000570380101180e+001
0	 3.333299999983334e+000	 8.733360002791903e+000	 1.000523903897098e+001
0	 3.333299999983334e+000	 8.800020022230553e+000	 1.000479009996009e+001
0	 3.333299999983334e+000	 8.866680074997039e+000	 1.000435639466041e+001
0	 3.333299999983334e+000	 8.933340177755779e+000	 1.000393733370837e+001
0	 3.333299999983333e+000	 9.000000347171181e+000	 1.000353232769542e+001
0	 3.333299999983334e+000	 9.066660599907667e+000	 1.000314078716810e+001
0	 3.333299999983335e+000	 9.133320952629656e+000	 1.000276212262805e+001
0	 3.333299999983333e+000	 9.199981422001558e+000	 1.000239574453197e+001
0	 3.333299999983334e+000	 9.266642024687796e+000	 1.000204106329155e+001
0	 3.333299999983334e+000	 9.333302777352785e+000	 1.000169748927365e+001
0	 2.666700000016666e+000	 9.333302777352785e+000	 9.997624014119195e+000
0	 2.666700000016666e+000	 9.399973674588178e+000	 9.998038697068138e+000
0	 2.666700000016666e+000	 9.466644621844617e+000	 9.998416283219001e+000
0	 2.666700000016666e+000	 9.533315502450000e+000	 9.998756677287801e+000
0	 2.666700000016666e+000	 9.599986199732197e+000	 9.999059782971365e+000
0	 2.666700000016667e+000	 9.666656597019095e+000	 9.999325502946864e+000
0	 2.666700000016666e+000	 9.733326577638575e+000	 9.999553738871414e+000
0	 2.666700000016667e+000	 9.799996024918521e+000	 9.999744391381499e+000
0	 2.666700000016666e+000	 9.866664822186822e+000	 9.999897360092625e+000
0	 2.666700000016666e+000	 9.933332852771351e+000	 1.000001254359864e+001
0	 2.666700000016666e+000	 1.000000000000000e+001	 1.000008983947121e+001
0	 2.733360000014533e+000	 9.333302777352785e+000	 9.998045275196882e+000
0	 2.733360000014533e+000	 9.399973674588175e+000	 9.998368985462966e+000
0	 2.733360000014533e+000	 9.466644621844619e+000	 9.998667785070809e+000
0	 2.733360000014533e+000	 9.533315502450000e+000	 9.998940841366734e+000
0	 2.733360000014532e+000	 9.599986199732195e+000	 9.999187320890762e+000
0	 2.733360000014533e+000	 9.666656597019092e+000	 9.999406389376096e+000
0	 2.733360000014533e+000	 9.733326577638577e+000	 9.999597211748622e+000
0	 2.733360000014533e+000	 9.799996024918524e+000	 9.999758952126538e+000
0	 2.733360000014532e+000	 9.866664822186822e+000	 9.999890773819905e+000
0	 2.733360000014533e+000	 9.933332852771352e+000	 9.999991839330070e+000
0	 2.733360000014533e+000	 1.000000000000000e+001	 1.000006131034924e+001
0	 2.800020000011600e+000	 9.333302777352783e+000	 9.998472636357430e+000
0	 2.800020000011599e+000	 9.399973674588173e+000	 9.998711140635091e+000
0	 2.800020000011600e+000	 9.466644621844619e+000	 9.998935539280803e+000
0	 2.800020000011600e+000	 9.533315502450002e+000	 9.999144352519844e+000
0	 2.800020000011601e+000	 9.599986199732197e+000	 9.999336099969971e+000
0	 2.800020000011600e+000	 9.666656597019092e+000	 9.999509300640851e+000
0	 2.800020000011600e+000	 9.733326577638575e+000	 9.999662472933672e+000
0	 2.800020000011599e+000	 9.799996024918523e+000	 9.999794134640757e+000
0	 2.800020000011600e+000	 9.866664822186820e+000	 9.999902802945126e+000
0	 2.800020000011600e+000	 9.933332852771352e+000	 9.999986994419819e+000
0	 2.800020000011600e+000	 1.000000000000000e+001	 1.000004522502774e+001
0	 2.866680000008067e+000	 9.333302777352783e+000	 9.998902650606294e+000
0	 2.866680000008067e+000	 9.399973674588178e+000	 9.999061038226202e+000
0	 2.866680000008066e+000	 9.466644621844619e+000	 9.999214894093116e+000
0	 2.866680000008066e+000	 9.533315502450000e+000	 9.999362181557199e+000
0	 2.866680000008067e+000	 9.599986199732197e+000	 9.999500863547295e+000
0	 2.866680000008066e+000	 9.666656597019095e+000	 9.999628902570484e+000
0	 2.866680000008066e+000	 9.733326577638572e+000	 9.999744260711767e+000
0	 2.866680000008067e+000	 9.799996024918524e+000	 9.999844899633519e+000
0	 2.866680000008067e+000	 9.866664822186822e+000	 9.999928780575150e+000
0	 2.866680000008066e+000	 9.933332852771354e+000	 9.999993864352605e+000
0	 2.866680000008067e+000	 1.000000000000000e+001	 1.000003811135812e+001
0	 2.933340000004133e+000	 9.333302777352783e+000	 9.999331870948822e+000
0	 2.933340000004133e+000	 9.399973674588175e+000	 9.999414553877962e+000
0	 2.933340000004133e+000	 9.466644621844619e+000	 9.999501197751938e+000
0	 2.933340000004134e+000	 9.533315502450002e+000	 9.999589299288916e+000
0	 2.933340000004133e+000	 9.599986199732197e+000	 9.999676354961101e+000
0	 2.933340000004133e+000	 9.666656597019093e+000	 9.999759860994423e+000
0	 2.933340000004134e+000	 9.733326577638575e+000	 9.999837313368081e+000
0	 2.933340000004133e+000	 9.799996024918521e+000	 9.999906207814078e+000
0	 2.933340000004133e+000	 9.866664822186820e+000	 9.999964039817066e+000
0	 2.933340000004133e+000	 9.933332852771354e+000	 1.000000830461360e+001
0	 2.933340000004133e+000	 1.000000000000000e+001	 1.000003649719193e+001
0	 3.000000000000000e+000	 9.333302777352781e+000	 9.999756850390449e+000
0	 3.000000000000001e+000	 9.399973674588180e+000	 9.999767563232073e+000
0	 3.000000000000000e+000	 9.466644621844623e+000	 9.999789798501407e+000
0	 3.000000000000000e+000	 9.533315502450000e+000	 9.999820676525044e+000
0	 3.000000000000001e+000	 9.599986199732197e+000	 9.999857317549742e+000
0	 3.000000000000000e+000	 9.666656597019092e+000	 9.999896841742009e+000
0	 3.000000000000000e+000	 9.733326577638575e+000	 9.999936369187722e+000
0	 3.000000000000000e+000	 9.799996024918523e+000	 9.999973019891854e+000
0	 3.000000000000000e+000	 9.866664822186822e+000	 1.000000391377789e+001
0	 3.000000000000001e+000	 9.933332852771352e+000	 1.000002617068757e+001
0	 3.000000000000000e+000	 1.000000000000000e+001	 1.000003691038052e+001
0	 3.066659999995867e+000	 9.333302777352781e+000	 1.000017414193653e+001
0	 3.066659999995867e+000	 9.399973674588175e+000	 1.000011594193021e+001
0	 3.066659999995868e+000	 9.466644621844619e+000	 1.000007604458569e+001
0	 3.066659999995868e+000	 9.533315502450002e+000	 1.000005128407572e+001
0	 3.066659999995867e+000	 9.599986199732197e+000	 1.000003849465157e+001
0	 3.066659999995867e+000	 9.666656597019090e+000	 1.000003451064260e+001
0	 3.066659999995868e+000	 9.733326577638577e+000	 1.000003616645594e+001
0	 3.066659999995868e+000	 9.799996024918524e+000	 1.000004029657609e+001
0	 3.066659999995867e+000	 9.866664822186822e+000	 1.000004373556459e+001
0	 3.066659999995868e+000	 9.933332852771354e+000	 1.000004331805952e+001
0	 3.066659999995866e+000	 9.999999999999998e+000	 1.000003587877547e+001
0	 3.133319999991934e+000	 9.333302777352783e+000	 1.000058029859250e+001
0	 3.133319999991933e+000	 9.399973674588175e+000	 1.000045556561409e+001
0	 3.133319999991933e+000	 9.466644621844619e+000	 1.000035528424893e+001
0	 3.133319999991935e+000	 9.533315502450002e+000	 1.000027609275099e+001
0	 3.133319999991934e+000	 9.599986199732195e+000	 1.000021462960493e+001
0	 3.133319999991934e+000	 9.666656597019097e+000	 1.000016753352558e+001
0	 3.133319999991934e+000	 9.733326577638579e+000	 1.000013144345787e+001
0	 3.133319999991935e+000	 9.799996024918523e+000	 1.000010299857619e+001
0	 3.133319999991934e+000	 9.866664822186820e+000	 1.000007883828420e+001
0	 3.133319999991934e+000	 9.933332852771354e+000	 1.000005560221452e+001
0	 3.133319999991934e+000	 1.000000000000000e+001	 1.000002993022817e+001
0	 3.199979999988401e+000	 9.333302777352785e+000	 1.000097187336375e+001
0	 3.199979999988400e+000	 9.399973674588173e+000	 1.000078230992538e+001
0	 3.199979999988400e+000	 9.466644621844617e+000	 1.000062286573530e+001
0	 3.199979999988400e+000	 9.533315502449998e+000	 1.000049007336099e+001
0	 3.199979999988401e+000	 9.599986199732197e+000	 1.000038046574815e+001
0	 3.199979999988401e+000	 9.666656597019095e+000	 1.000029057622037e+001
0	 3.199979999988401e+000	 9.733326577638577e+000	 1.000021693847870e+001
0	 3.199979999988401e+000	 9.799996024918523e+000	 1.000015608660148e+001
0	 3.199979999988401e+000	 9.866664822186822e+000	 1.000010455504381e+001
0	 3.199979999988401e+000	 9.933332852771354e+000	 1.000005887863739e+001
0	 3.199979999988401e+000	 1.000000000000000e+001	 1.000001559259011e+001
0	 3.266639999985468e+000	 9.333302777352785e+000	 1.000134541925565e+001
0	 3.266639999985467e+000	 9.399973674588177e+000	 1.000109205050574e+001
0	 3.266639999985468e+000	 9.466644621844621e+000	 1.000087413728894e+001
0	 3.266639999985468e+000	 9.533315502450002e+000	 1.000068819671577e+001
0	 3.266639999985468e+000	 9.599986199732198e+000	 1.000053074641964e+001
0	 3.266639999985468e+000	 9.666656597019095e+000	 1.000039830455627e+001
0	 3.266639999985468e+000	 9.733326577638573e+000	 1.000028738980359e+001
0	 3.266639999985468e+000	 9.799996024918523e+000	 1.000019452136121e+001
0	 3.266639999985468e+000	 9.866664822186822e+000	 1.000011621895029e+001
0	 3.266639999985468e+000	 9.933332852771354e+000	 1.000004900281309e+001
0	 3.266639999985468e+000	 1.000000000000000e+001	 9.999989393712703e+000
0	 3.333299999983334e+000	 9.333302777352785e+000	 1.000169748927365e+001
0	 3.333299999983334e+000	 9.399973674588177e+000	 1.000138066299692e+001
0	 3.333299999983334e+000	 9.466644621844619e+000	 1.000110444715399e+001
0	 3.333299999983334e+000	 9.533315502450002e+000	 1.000086543362543e+001
0	 3.333299999983333e+000	 9.599986199732197e+000	 1.000066021495767e+001
0	 3.333299999983334e+000	 9.666656597019093e+000	 1.000048538436270e+001
0	 3.333299999983334e+000	 9.733326577638577e+000	 1.000033753571773e+001
0	 3.333299999983334e+000	 9.799996024918524e+000	 1.000021326356485e+001
0	 3.333299999983334e+000	 9.866664822186822e+000	 1.000010916311080e+001
0	 3.333299999983333e+000	 9.933332852771354e+000	 1.000002183022659e+001
0	 3.333299999983334e+000	 1.000000000000000e+001	 9.999947861447518e+000
0	 3.333299999983334e+000	 0.000000000000000e+000	-7.127798176483577e+001
0	 3.333299999983333e+000	 6.666714722864756e-002	-6.017375305271888e+001
0	 3.333299999983333e+000	 1.333351778131789e-001	-4.990939844601174e+001
0	 3.333299999983334e+000	 2.000039750814772e-001	-4.046297796740018e+001
0	 3.333299999983334e+000	 2.666734223614256e-001	-3.181255745187659e+001
0	 3.333299999983334e+000	 3.333434029809069e-001	-2.393620854540614e+001
0	 3.333299999983334e+000	 4.000138002678044e-001	-1.681200870374557e+001
0	 3.333299999983333e+000	 4.666844975500011e-001	-1.041804119141440e+001
0	 3.333299999983335e+000	 5.333553781553803e-001	-4.732395080818887e+000
0	 3.333299999983334e+000	 6.000263254118248e-001	 2.668347484717197e-001
0	 3.333299999983334e+000	 6.666972226472175e-001	 4.601547610296467e+000
0	 3.399969999982150e+000	 0.000000000000000e+000	-6.222806544126363e+001
0	 3.399969999982149e+000	 6.666714722864757e-002	-5.250677621261962e+001
0	 3.399969999982150e+000	 1.333351778131789e-001	-4.347975304606326e+001
0	 3.399969999982150e+000	 2.000039750814772e-001	-3.513474921006660e+001
0	 3.399969999982149e+000	 2.666734223614254e-001	-2.745952335306970e+001
0	 3.399969999982150e+000	 3.333434029809069e-001	-2.044183950225193e+001
0	 3.399969999982150e+000	 4.000138002678045e-001	-1.406946706244439e+001
0	 3.399969999982150e+000	 4.666844975500012e-001	-8.330180815183633e+000
0	 3.399969999982150e+000	 5.333553781553803e-001	-3.211760917906499e+000
0	 3.399969999982150e+000	 6.000263254118246e-001	 1.298007096713799e+000
0	 3.399969999982150e+000	 6.666972226472177e-001	 5.211332321290613e+000
0	 3.466639999981865e+000	 0.000000000000000e+000	-5.332020937335285e+001
0	 3.466639999981866e+000	 6.666714722864756e-002	-4.494626316019860e+001
0	 3.466639999981865e+000	 1.333351778131789e-001	-3.713030165055097e+001
0	 3.466639999981866e+000	 2.000039750814772e-001	-2.986839642504181e+001
0	 3.466639999981866e+000	 2.666734223614255e-001	-2.315662396227491e+001
0	 3.466639999981866e+000	 3.333434029809069e-001	-1.699106563771105e+001
0	 3.466639999981866e+000	 4.000138002678044e-001	-1.136780772268149e+001
0	 3.466639999981866e+000	 4.666844975500011e-001	-6.282941383530300e+000
0	 3.466639999981866e+000	 5.333553781553801e-001	-1.732562680884904e+000
0	 3.466639999981866e+000	 6.000263254118248e-001	 2.287227430944661e+000
0	 3.466639999981866e+000	 6.666972226472177e-001	 5.780323104438093e+000
0	 3.533309999982383e+000	 0.000000000000000e+000	-4.465918502335194e+001
0	 3.533309999982382e+000	 6.666714722864756e-002	-3.758033993217805e+001
0	 3.533309999982382e+000	 1.333351778131790e-001	-3.093384764072462e+001
0	 3.533309999982383e+000	 2.000039750814773e-001	-2.472272297860484e+001
0	 3.533309999982383e+000	 2.666734223614256e-001	-1.894998515564413e+001
0	 3.533309999982382e+000	 3.333434029809068e-001	-1.361865776088469e+001
0	 3.533309999982383e+000	 4.000138002678045e-001	-8.731768761705242e+000
0	 3.533309999982382e+000	 4.666844975500012e-001	-4.292350503055632e+000
0	 3.533309999982382e+000	 5.333553781553801e-001	-3.034397068065418e-001
0	 3.533309999982382e+000	 6.000263254118247e-001	 3.231922528786106e+000
0	 3.533309999982382e+000	 6.666972226472177e-001	 6.310690729501640e+000
0	 3.599979999983598e+000	 0.000000000000000e+000	-3.634976385351252e+001
0	 3.599979999983598e+000	 6.666714722864756e-002	-3.049713256528277e+001
0	 3.599979999983598e+000	 1.333351778131789e-001	-2.496319439783576e+001
0	 3.599979999983600e+000	 2.000039750814772e-001	-1.975653223703596e+001
0	 3.599979999983600e+000	 2.666734223614256e-001	-1.488573280933014e+001
0	 3.599979999983598e+000	 3.333434029809068e-001	-1.035938668087475e+001
0	 3.599979999983598e+000	 4.000138002678043e-001	-6.186088256764467e+000
0	 3.599979999983598e+000	 4.666844975500011e-001	-2.374435780361145e+000
0	 3.599979999983599e+000	 5.333553781553801e-001	 1.066968667276011e+000
0	 3.599979999983598e+000	 6.000263254118247e-001	 4.129519167859886e+000
0	 3.599979999983599e+000	 6.666972226472178e-001	 6.804605966243939e+000
0	 3.666649999985415e+000	 0.000000000000000e+000	-2.849671732608943e+001
0	 3.666649999985415e+000	 6.666714722864756e-002	-2.378476709623990e+001
0	 3.666649999985415e+000	 1.333351778131789e-001	-1.929114530313776e+001
0	 3.666649999985416e+000	 2.000039750814773e-001	-1.502862756661678e+001
0	 3.666649999985415e+000	 2.666734223614255e-001	-1.100999279948663e+001
0	 3.666649999985414e+000	 3.333434029809068e-001	-7.248023206783707e+000
0	 3.666649999985415e+000	 4.000138002678044e-001	-3.755504285108377e+000
0	 3.666649999985415e+000	 4.666844975500012e-001	-5.452248220485576e-001
0	 3.666649999985415e+000	 5.333553781553803e-001	 2.370023104310076e+000
0	 3.666649999985415e+000	 6.000263254118246e-001	 4.977444125787757e+000
0	 3.666649999985416e+000	 6.666972226472177e-001	 7.264239584427711e+000
0	 3.733319999987732e+000	 0.000000000000000e+000	-2.120481690334066e+001
0	 3.733319999987730e+000	 6.666714722864754e-002	-1.753136956177906e+001
0	 3.733319999987731e+000	 1.333351778131789e-001	-1.399050373788590e+001
0	 3.733319999987732e+000	 2.000039750814773e-001	-1.059781233363027e+001
0	 3.733319999987731e+000	 2.666734223614256e-001	-7.368891002268291e+000
0	 3.733319999987732e+000	 3.333434029809069e-001	-4.319338147714635e+000
0	 3.733319999987732e+000	 4.000138002678044e-001	-1.464754923986522e+000
0	 3.733319999987732e+000	 4.666844975500011e-001	 1.179254765280213e+000
0	 3.733319999987732e+000	 5.333553781553803e-001	 3.597084267242877e+000
0	 3.733319999987731e+000	 6.000263254118247e-001	 5.773124180191392e+000
0	 3.733319999987732e+000	 6.666972226472177e-001	 7.691762353815682e+000
0	 3.799989999990448e+000	 0.000000000000000e+000	-1.457883404752741e+001
0	 3.799989999990448e+000	 6.666714722864756e-002	-1.182506599863234e+001
0	 3.799989999990448e+000	 1.333351778131790e-001	-9.134073083337203e+000
0	 3.799989999990448e+000	 2.000039750814773e-001	-6.522889904360741e+000
0	 3.799989999990448e+000	 2.666734223614256e-001	-4.008553293830724e+000
0	 3.799989999990449e+000	 3.333434029809070e-001	-1.608102312771280e+000
0	 3.799989999990448e+000	 4.000138002678043e-001	 6.614217493510333e-001
0	 3.799989999990448e+000	 4.666844975500011e-001	 2.782975375022980e+000
0	 3.799989999990449e+000	 5.333553781553804e-001	 4.739512819021493e+000
0	 3.799989999990448e+000	 6.000263254118246e-001	 6.513986108692421e+000
0	 3.799989999990448e+000	 6.666972226472178e-001	 8.089345044170550e+000
0	 3.866659999993465e+000	 0.000000000000000e+000	-8.723540220914048e+000
0	 3.866659999993464e+000	 6.666714722864754e-002	-6.753982443534236e+000
0	 3.866659999993465e+000	 1.333351778131789e-001	-4.794656720750570e+000
0	 3.866659999993465e+000	 2.000039750814773e-001	-2.862663645093786e+000
0	 3.866659999993464e+000	 2.666734223614255e-001	-9.751055503304213e-001
0	 3.866659999993465e+000	 3.333434029809068e-001	 8.509134889420060e-001
0	 3.866659999993466e+000	 4.000138002678045e-001	 2.598287657653982e+000
0	 3.866659999993465e+000	 4.666844975500012e-001	 4.249909400577341e+000
0	 3.866659999993464e+000	 5.333553781553800e-001	 5.788669422592909e+000
0	 3.866659999993466e+000	 6.000263254118247e-001	 7.197456688912465e+000
0	 3.866659999993465e+000	 6.666972226472177e-001	 8.459158425255046e+000
0	 3.933329999996682e+000	 0.000000000000000e+000	-3.743706885768122e+000
0	 3.933329999996682e+000	 6.666714722864757e-002	-2.406244933221706e+000
0	 3.933329999996682e+000	 1.333351778131790e-001	-1.045058031386704e+000
0	 3.933329999996681e+000	 2.000039750814773e-001	 3.240630778836206e-001
0	 3.933329999996681e+000	 2.666734223614255e-001	 1.685326352075115e+000
0	 3.933329999996682e+000	 3.333434029809070e-001	 3.022938448320243e+000
0	 3.933329999996681e+000	 4.000138002678044e-001	 4.321104723671491e+000
0	 3.933329999996682e+000	 4.666844975500011e-001	 5.564029235340666e+000
0	 3.933329999996682e+000	 5.333553781553801e-001	 6.735914740903976e+000
0	 3.933329999996682e+000	 6.000263254118247e-001	 7.820962698473063e+000
0	 3.933329999996682e+000	 6.666972226472177e-001	 8.803373266831896e+000
0	 4.000000000000000e+000	 0.000000000000000e+000	 2.558944956397466e-001
0	 4.000000000000001e+000	 6.666714722864757e-002	 1.130020495565963e+000
0	 4.000000000000001e+000	 1.333351778131790e-001	 2.041919603491924e+000
0	 4.000000000000000e+000	 2.000039750814772e-001	 2.978486898283292e+000
0	 4.000000000000001e+000	 2.666734223614255e-001	 3.926616537227571e+000
0	 3.999999999999999e+000	 3.333434029809068e-001	 4.873201756257861e+000
0	 4.000000000000000e+000	 4.000138002678045e-001	 5.805134870152444e+000
0	 4.000000000000000e+000	 4.666844975500011e-001	 6.709307272710134e+000
0	 4.000000000000000e+000	 5.333553781553803e-001	 7.572609436901469e+000
0	 4.000000000000001e+000	 6.000263254118247e-001	 8.381930914995751e+000
0	 4.000000000000000e+000	 6.666972226472175e-001	 9.124160338663844e+000
0	 3.333299999983334e+000	 6.666972226472175e-001	 4.601547610296465e+000
0	 3.333299999983334e+000	 7.333579753122049e-001	 8.398466369768087e+000
0	 3.333299999983334e+000	 8.000185779984418e-001	 1.177738865625419e+001
0	 3.333299999983334e+000	 8.666790473703455e-001	 1.474801765708413e+001
0	 3.333299999983334e+000	 9.333394000923322e-001	 1.732005706664606e+001
0	 3.333299999983334e+000	 9.999996528288189e-001	 1.950321108640187e+001
0	 3.333299999983335e+000	 1.066659822244222e+000	 2.130718442490001e+001
0	 3.333299999983334e+000	 1.133319925002958e+000	 2.274168229778639e+001
0	 3.333299999983334e+000	 1.199979977769445e+000	 2.381641042781351e+001
0	 3.333299999983334e+000	 1.266639997208098e+000	 2.454107504484760e+001
0	 3.333299999983334e+000	 1.333299999983334e+000	 2.492538288587389e+001
0	 3.399969999982150e+000	 6.666972226472177e-001	 5.211332321290612e+000
0	 3.399969999982150e+000	 7.333579753122047e-001	 8.641707596626782e+000
0	 3.399969999982150e+000	 8.000185779984420e-001	 1.170067906785353e+001
0	 3.399969999982150e+000	 8.666790473703454e-001	 1.439590355220742e+001
0	 3.399969999982150e+000	 9.333394000923322e-001	 1.673503832690728e+001
0	 3.399969999982150e+000	 9.999996528288190e-001	 1.872574112916776e+001
0	 3.399969999982150e+000	 1.066659822244222e+000	 2.037567015621090e+001
0	 3.399969999982150e+000	 1.133319925002958e+000	 2.169248406527606e+001
0	 3.399969999982150e+000	 1.199979977769445e+000	 2.268384197362826e+001
0	 3.399969999982150e+000	 1.266639997208098e+000	 2.335740345856461e+001
0	 3.399969999982149e+000	 1.333299999983334e+000	 2.372082855741904e+001
0	 3.466639999981866e+000	 6.666972226472177e-001	 5.780323104438093e+000
0	 3.466639999981867e+000	 7.333579753122049e-001	 8.845992485267441e+000
0	 3.466639999981866e+000	 8.000185779984418e-001	 1.158576088686284e+001
0	 3.466639999981866e+000	 8.666790473703452e-001	 1.400545095522133e+001
0	 3.466639999981866e+000	 9.333394000923321e-001	 1.611088574868446e+001
0	 3.466639999981866e+000	 9.999996528288189e-001	 1.790788873795056e+001
0	 3.466639999981866e+000	 1.066659822244222e+000	 1.940228380608498e+001
0	 3.466639999981866e+000	 1.133319925002959e+000	 2.059989524852914e+001
0	 3.466639999981866e+000	 1.199979977769445e+000	 2.150654777310792e+001
0	 3.466639999981867e+000	 1.266639997208098e+000	 2.212806650003547e+001
0	 3.466639999981866e+000	 1.333299999983334e+000	 2.247027696191950e+001
0	 3.533309999982382e+000	 6.666972226472177e-001	 6.310690729501640e+000
0	 3.533309999982382e+000	 7.333579753122047e-001	 9.017357672015701e+000
0	 3.533309999982382e+000	 8.000185779984416e-001	 1.144210369386771e+001
0	 3.533309999982383e+000	 8.666790473703456e-001	 1.358912946333406e+001
0	 3.533309999982382e+000	 9.333394000923320e-001	 1.546263601348606e+001
0	 3.533309999982383e+000	 9.999996528288191e-001	 1.706682474220086e+001
0	 3.533309999982382e+000	 1.066659822244222e+000	 1.840589741217057e+001
0	 3.533309999982382e+000	 1.133319925002958e+000	 1.948405615091021e+001
0	 3.533309999982382e+000	 1.199979977769445e+000	 2.030550345076433e+001
0	 3.533309999982383e+000	 1.266639997208098e+000	 2.087444216891214e+001
0	 3.533309999982381e+000	 1.333299999983334e+000	 2.119507552737128e+001
0	 3.599979999983599e+000	 6.666972226472178e-001	 6.804605966243940e+000
0	 3.599979999983600e+000	 7.333579753122049e-001	 9.161839793197228e+000
0	 3.599979999983598e+000	 8.000185779984416e-001	 1.127917706945383e+001
0	 3.599979999983598e+000	 8.666790473703452e-001	 1.315940867375390e+001
0	 3.599979999983598e+000	 9.333394000923321e-001	 1.480532580282056e+001
0	 3.599979999983599e+000	 9.999996528288191e-001	 1.621971997136927e+001
0	 3.599979999983598e+000	 1.066659822244222e+000	 1.740538301211594e+001
0	 3.599979999983599e+000	 1.133319925002959e+000	 1.836510707578384e+001
0	 3.599979999983598e+000	 1.199979977769445e+000	 1.910168463110935e+001
0	 3.599979999983598e+000	 1.266639997208098e+000	 1.961790846484651e+001
0	 3.599979999983598e+000	 1.333299999983334e+000	 1.991657168177028e+001
0	 3.666649999985416e+000	 6.666972226472177e-001	 7.264239584427713e+000
0	 3.666649999985415e+000	 7.333579753122047e-001	 9.285475485137754e+000
0	 3.666649999985415e+000	 8.000185779984416e-001	 1.110645059420691e+001
0	 3.666649999985415e+000	 8.666790473703450e-001	 1.272875818368921e+001
0	 3.666649999985415e+000	 9.333394000923321e-001	 1.415399179819652e+001
0	 3.666649999985415e+000	 9.999996528288190e-001	 1.538374525490647e+001
0	 3.666649999985415e+000	 1.066659822244222e+000	 1.641961264356945e+001
0	 3.666649999985415e+000	 1.133319925002959e+000	 1.726318832651461e+001
0	 3.666649999985415e+000	 1.199979977769445e+000	 1.791606693865480e+001
0	 3.666649999985415e+000	 1.266639997208098e+000	 1.837984338749040e+001
0	 3.666649999985415e+000	 1.333299999983333e+000	 1.865611285311233e+001
0	 3.733319999987732e+000	 6.666972226472177e-001	 7.691762353815682e+000
0	 3.733319999987732e+000	 7.333579753122047e-001	 9.394301384163022e+000
0	 3.733319999987731e+000	 8.000185779984413e-001	 1.093339384871266e+001
0	 3.733319999987732e+000	 8.666790473703451e-001	 1.230964759034834e+001
0	 3.733319999987732e+000	 9.333394000923323e-001	 1.352367068112254e+001
0	 3.733319999987732e+000	 9.999996528288190e-001	 1.457607142226313e+001
0	 3.733319999987732e+000	 1.066659822244222e+000	 1.546745834417943e+001
0	 3.733319999987731e+000	 1.133319925002959e+000	 1.619844020646712e+001
0	 3.733319999987731e+000	 1.199979977769445e+000	 1.676962599791246e+001
0	 3.733319999987732e+000	 1.266639997208098e+000	 1.718162493649564e+001
0	 3.733319999987732e+000	 1.333299999983334e+000	 1.743504646939322e+001
0	 3.799989999990448e+000	 6.666972226472178e-001	 8.089345044170550e+000
0	 3.799989999990447e+000	 7.333579753122048e-001	 9.494354126598802e+000
0	 3.799989999990448e+000	 8.000185779984416e-001	 1.076947641355693e+001
0	 3.799989999990448e+000	 8.666790473703453e-001	 1.191454649093977e+001
0	 3.799989999990449e+000	 9.333394000923323e-001	 1.292939913310725e+001
0	 3.799989999990448e+000	 9.999996528288186e-001	 1.381386930289003e+001
0	 3.799989999990448e+000	 1.066659822244222e+000	 1.456779215159426e+001
0	 3.799989999990448e+000	 1.133319925002958e+000	 1.519100301900591e+001
0	 3.799989999990448e+000	 1.199979977769445e+000	 1.568333743339409e+001
0	 3.799989999990448e+000	 1.266639997208098e+000	 1.604463111151396e+001
0	 3.799989999990448e+000	 1.333299999983334e+000	 1.627471995860863e+001
0	 3.866659999993465e+000	 6.666972226472177e-001	 8.459158425255046e+000
0	 3.866659999993465e+000	 7.333579753122048e-001	 9.591670348770920e+000
0	 3.866659999993465e+000	 8.000185779984417e-001	 1.062416786932555e+001
0	 3.866659999993465e+000	 8.666790473703453e-001	 1.155592448267195e+001
0	 3.866659999993466e+000	 9.333394000923324e-001	 1.238621383565939e+001
0	 3.866659999993465e+000	 9.999996528288191e-001	 1.311430972623793e+001
0	 3.866659999993465e+000	 1.066659822244222e+000	 1.373948610346236e+001
0	 3.866659999993465e+000	 1.133319925002958e+000	 1.426101706749559e+001
0	 3.866659999993466e+000	 1.199979977769445e+000	 1.467817686961149e+001
0	 3.866659999993464e+000	 1.266639997208098e+000	 1.499023991219708e+001
0	 3.866659999993464e+000	 1.333299999983334e+000	 1.519648074875425e+001
0	 3.933329999996682e+000	 6.666972226472177e-001	 8.803373266831896e+000
0	 3.933329999996681e+000	 7.333579753122047e-001	 9.692286687005213e+000
0	 3.933329999996682e+000	 8.000185779984415e-001	 1.050693779660445e+001
0	 3.933329999996682e+000	 8.666790473703455e-001	 1.124625116275347e+001
0	 3.933329999996682e+000	 9.333394000923321e-001	 1.190915147028770e+001
0	 3.933329999996682e+000	 9.999996528288190e-001	 1.249456352175766e+001
0	 3.933329999996681e+000	 1.066659822244222e+000	 1.300141223743212e+001
0	 3.933329999996681e+000	 1.133319925002959e+000	 1.342862265530076e+001
0	 3.933329999996682e+000	 1.199979977769445e+000	 1.377511993107637e+001
0	 3.933329999996681e+000	 1.266639997208098e+000	 1.403982933819668e+001
0	 3.933329999996682e+000	 1.333299999983334e+000	 1.422167626782567e+001
0	 4.000000000000000e+000	 6.666972226472175e-001	 9.124160338663844e+000
0	 4.000000000000002e+000	 7.333579753122048e-001	 9.802239777627570e+000
0	 4.000000000000001e+000	 8.000185779984418e-001	 1.042725577597958e+001
0	 4.000000000000000e+000	 8.666790473703454e-001	 1.099799612839292e+001
0	 4.000000000000000e+000	 9.333394000923323e-001	 1.151324871850096e+001
0	 3.999999999999999e+000	 9.999996528288188e-001	 1.197180151890005e+001
0	 4.000000000000001e+000	 1.066659822244222e+000	 1.237244259115198e+001
0	 3.999999999999999e+000	 1.133319925002959e+000	 1.271396008578596e+001
0	 4.000000000000001e+000	 1.199979977769445e+000	 1.299514224230041e+001
0	 4.000000000000000e+000	 1.266639997208098e+000	 1.321477738916433e+001
0	 3.999999999999999e+000	 1.333299999983334e+000	 1.337165394381836e+001
0	 3.333299999983334e+000	 1.333299999983334e+000	 2.492538288587389e+001
0	 3.333299999983334e+000	 1.399969999982150e+000	 2.508607165225950e+001
0	 3.333299999983334e+000	 1.466639999981867e+000	 2.513331326680320e+001
0	 3.333299999983334e+000	 1.533309999982383e+000	 2.506706400308223e+001
0	 3.333299999983333e+000	 1.599979999983599e+000	 2.488728013467277e+001
0	 3.333299999983334e+000	 1.666649999985416e+000	 2.459391793514983e+001
0	 3.333299999983334e+000	 1.733319999987733e+000	 2.418693367808739e+001
0	 3.333299999983334e+000	 1.799989999990450e+000	 2.366628363705835e+001
0	 3.333299999983334e+000	 1.866659999993466e+000	 2.303192408563450e+001
0	 3.333299999983334e+000	 1.933329999996683e+000	 2.228381129738651e+001
0	 3.333299999983334e+000	 2.000000000000000e+000	 2.142190154588405e+001
0	 3.399969999982149e+000	 1.333299999983334e+000	 2.372082855741903e+001
0	 3.399969999982150e+000	 1.399969999982150e+000	 2.387809820667098e+001
0	 3.399969999982150e+000	 1.466639999981867e+000	 2.392816075611788e+001
0	 3.399969999982150e+000	 1.533309999982383e+000	 2.387122262725654e+001
0	 3.399969999982150e+000	 1.599979999983600e+000	 2.370749024158272e+001
0	 3.399969999982150e+000	 1.666649999985416e+000	 2.343717002059120e+001
0	 3.399969999982150e+000	 1.733319999987733e+000	 2.306046838577578e+001
0	 3.399969999982150e+000	 1.799989999990450e+000	 2.257759175862917e+001
0	 3.399969999982150e+000	 1.866659999993466e+000	 2.198874656064320e+001
0	 3.399969999982150e+000	 1.933329999996683e+000	 2.129413921330858e+001
0	 3.399969999982150e+000	 2.000000000000000e+000	 2.049397613811508e+001
0	 3.466639999981866e+000	 1.333299999983334e+000	 2.247027696191951e+001
0	 3.466639999981866e+000	 1.399969999982150e+000	 2.262447689944474e+001
0	 3.466639999981866e+000	 1.466639999981866e+000	 2.267829685009668e+001
0	 3.466639999981866e+000	 1.533309999982382e+000	 2.263215388440826e+001
0	 3.466639999981865e+000	 1.599979999983599e+000	 2.248646507291152e+001
0	 3.466639999981866e+000	 1.666649999985416e+000	 2.224164748613762e+001
0	 3.466639999981866e+000	 1.733319999987733e+000	 2.189811819461675e+001
0	 3.466639999981866e+000	 1.799989999990450e+000	 2.145629426887819e+001
0	 3.466639999981866e+000	 1.866659999993466e+000	 2.091659277945031e+001
0	 3.466639999981866e+000	 1.933329999996684e+000	 2.027943079686057e+001
0	 3.466639999981866e+000	 2.000000000000000e+000	 1.954522539163546e+001
0	 3.533309999982381e+000	 1.333299999983334e+000	 2.119507552737129e+001
0	 3.533309999982382e+000	 1.399969999982150e+000	 2.134625230966674e+001
0	 3.533309999982383e+000	 1.466639999981866e+000	 2.140435174552555e+001
0	 3.533309999982382e+000	 1.533309999982383e+000	 2.136996205563344e+001
0	 3.533309999982383e+000	 1.599979999983600e+000	 2.124367146067539e+001
0	 3.533309999982382e+000	 1.666649999985416e+000	 2.102606818133549e+001
0	 3.533309999982382e+000	 1.733319999987733e+000	 2.071774043829701e+001
0	 3.533309999982382e+000	 1.799989999990450e+000	 2.031927645224242e+001
0	 3.533309999982382e+000	 1.866659999993466e+000	 1.983126444385327e+001
0	 3.533309999982383e+000	 1.933329999996683e+000	 1.925429263381037e+001
0	 3.533309999982383e+000	 2.000000000000000e+000	 1.858894924279363e+001
0	 3.599979999983598e+000	 1.333299999983334e+000	 1.991657168177028e+001
0	 3.599979999983598e+000	 1.399969999982150e+000	 2.006446901642288e+001
0	 3.599979999983599e+000	 1.466639999981866e+000	 2.012695563919042e+001
0	 3.599979999983599e+000	 1.533309999982383e+000	 2.010475142202812e+001
0	 3.599979999983598e+000	 1.599979999983599e+000	 1.999857623689044e+001
0	 3.599979999983598e+000	 1.666649999985416e+000	 1.980914995573113e+001
0	 3.599979999983600e+000	 1.733319999987733e+000	 1.953719245050316e+001
0	 3.599979999983597e+000	 1.799989999990449e+000	 1.918342359315875e+001
0	 3.599979999983599e+000	 1.866659999993466e+000	 1.874856325564938e+001
0	 3.599979999983598e+000	 1.933329999996683e+000	 1.823333130992579e+001
0	 3.599979999983599e+000	 2.000000000000001e+000	 1.763844762793791e+001
0	 3.666649999985415e+000	 1.333299999983333e+000	 1.865611285311233e+001
0	 3.666649999985415e+000	 1.399969999982150e+000	 1.880017159879888e+001
0	 3.666649999985415e+000	 1.466639999981867e+000	 1.886673872787704e+001
0	 3.666649999985416e+000	 1.533309999982383e+000	 1.885662626468806e+001
0	 3.666649999985415e+000	 1.599979999983600e+000	 1.877064623357262e+001
0	 3.666649999985415e+000	 1.666649999985416e+000	 1.860961065887071e+001
0	 3.666649999985415e+000	 1.733319999987733e+000	 1.837433156492163e+001
0	 3.666649999985415e+000	 1.799989999990449e+000	 1.806562097606402e+001
0	 3.666649999985415e+000	 1.866659999993466e+000	 1.768429091663587e+001
0	 3.666649999985415e+000	 1.933329999996683e+000	 1.723115341097450e+001
0	 3.666649999985414e+000	 2.000000000000000e+000	 1.670702048341654e+001
0	 3.733319999987732e+000	 1.333299999983334e+000	 1.743504646939322e+001
0	 3.733319999987732e+000	 1.399969999982150e+000	 1.757440463588051e+001
0	 3.733319999987732e+000	 1.466639999981866e+000	 1.764433120837112e+001
0	 3.733319999987732e+000	 1.533309999982383e+000	 1.764569086470908e+001
0	 3.733319999987731e+000	 1.599979999983599e+000	 1.757934828273786e+001
0	 3.733319999987732e+000	 1.666649999985416e+000	 1.744616814030032e+001
0	 3.733319999987732e+000	 1.733319999987733e+000	 1.724701511523878e+001
0	 3.733319999987732e+000	 1.799989999990450e+000	 1.698275388539490e+001
0	 3.733319999987732e+000	 1.866659999993466e+000	 1.665424912860982e+001
0	 3.733319999987732e+000	 1.933329999996683e+000	 1.626236552272408e+001
0	 3.733319999987732e+000	 2.000000000000000e+000	 1.580796774557760e+001
0	 3.799989999990448e+000	 1.333299999983334e+000	 1.627471995860863e+001
0	 3.799989999990449e+000	 1.399969999982150e+000	 1.640821270675336e+001
0	 3.799989999990448e+000	 1.466639999981866e+000	 1.648036327745829e+001
0	 3.799989999990448e+000	 1.533309999982383e+000	 1.649204950318682e+001
0	 3.799989999990448e+000	 1.599979999983599e+000	 1.644414921640190e+001
0	 3.799989999990449e+000	 1.666649999985416e+000	 1.633754024956594e+001
0	 3.799989999990449e+000	 1.733319999987733e+000	 1.617310043514083e+001
0	 3.799989999990448e+000	 1.799989999990450e+000	 1.595170760558797e+001
0	 3.799989999990448e+000	 1.866659999993466e+000	 1.567423959336822e+001
0	 3.799989999990449e+000	 1.933329999996683e+000	 1.534157423094199e+001
0	 3.799989999990448e+000	 2.000000000000000e+000	 1.495458935076912e+001
0	 3.866659999993464e+000	 1.333299999983334e+000	 1.519648074875426e+001
0	 3.866659999993465e+000	 1.399969999982150e+000	 1.532264039050299e+001
0	 3.866659999993464e+000	 1.466639999981866e+000	 1.539546513192403e+001
0	 3.866659999993465e+000	 1.533309999982383e+000	 1.541580646121684e+001
0	 3.866659999993464e+000	 1.599979999983599e+000	 1.538451586658042e+001
0	 3.866659999993463e+000	 1.666649999985416e+000	 1.530244483621341e+001
0	 3.866659999993464e+000	 1.733319999987733e+000	 1.517044485831391e+001
0	 3.866659999993465e+000	 1.799989999990450e+000	 1.498936742107965e+001
0	 3.866659999993465e+000	 1.866659999993467e+000	 1.476006401270792e+001
0	 3.866659999993465e+000	 1.933329999996683e+000	 1.448338612139555e+001
0	 3.866659999993465e+000	 2.000000000000000e+000	 1.416018523533896e+001
0	 3.933329999996682e+000	 1.333299999983334e+000	 1.422167626782567e+001
0	 3.933329999996682e+000	 1.399969999982150e+000	 1.433873226621486e+001
0	 3.933329999996682e+000	 1.466639999981866e+000	 1.441026696855377e+001
0	 3.933329999996682e+000	 1.533309999982383e+000	 1.443706601989456e+001
0	 3.933329999996681e+000	 1.599979999983600e+000	 1.441991506528898e+001
0	 3.933329999996682e+000	 1.666649999985416e+000	 1.435959974978846e+001
0	 3.933329999996681e+000	 1.733319999987733e+000	 1.425690571844402e+001
0	 3.933329999996681e+000	 1.799989999990450e+000	 1.411261861630632e+001
0	 3.933329999996682e+000	 1.866659999993466e+000	 1.392752408842569e+001
0	 3.933329999996682e+000	 1.933329999996683e+000	 1.370240777985203e+001
0	 3.933329999996681e+000	 2.000000000000000e+000	 1.343805533563494e+001
0	 3.999999999999999e+000	 1.333299999983334e+000	 1.337165394381836e+001
0	 4.000000000000000e+000	 1.399969999982150e+000	 1.347753291297433e+001
0	 4.000000000000002e+000	 1.466639999981866e+000	 1.354539898413282e+001
0	 4.000000000000000e+000	 1.533309999982383e+000	 1.357593246031532e+001
0	 4.000000000000001e+000	 1.599979999983599e+000	 1.356981364454298e+001
0	 4.000000000000001e+000	 1.666649999985416e+000	 1.352772283983670e+001
0	 4.000000000000001e+000	 1.733319999987733e+000	 1.345034034921700e+001
0	 4.000000000000001e+000	 1.799989999990450e+000	 1.333834647570416e+001
0	 4.000000000000000e+000	 1.866659999993467e+000	 1.319242152231812e+001
0	 4.000000000000001e+000	 1.933329999996683e+000	 1.301324579207851e+001
0	 4.000000000000001e+000	 2.000000000000000e+000	 1.280149958800469e+001
0	 3.333299999983334e+000	 2.000000000000000e+000	 2.142190154588405e+001
0	 3.333299999983333e+000	 2.066670000003317e+000	 2.052193849761359e+001
0	 3.333299999983334e+000	 2.133340000006534e+000	 1.965918267094776e+001
0	 3.333299999983335e+000	 2.200010000009550e+000	 1.883286561728473e+001
0	 3.333299999983334e+000	 2.266680000012267e+000	 1.804221888802296e+001
0	 3.333299999983334e+000	 2.333350000014584e+000	 1.728647403456116e+001
0	 3.333299999983334e+000	 2.400020000016401e+000	 1.656486260829838e+001
0	 3.333299999983334e+000	 2.466690000017617e+000	 1.587661616063389e+001
0	 3.333299999983334e+000	 2.533360000018134e+000	 1.522096624296727e+001
0	 3.333299999983334e+000	 2.600030000017851e+000	 1.459714440669834e+001
0	 3.333299999983334e+000	 2.666700000016667e+000	 1.400438220322726e+001
0	 3.399969999982150e+000	 2.000000000000000e+000	 2.049397613811508e+001
0	 3.399969999982150e+000	 2.066670000003318e+000	 1.965894231696267e+001
0	 3.399969999982150e+000	 2.133340000006534e+000	 1.885913393080811e+001
0	 3.399969999982150e+000	 2.200010000009551e+000	 1.809387419972579e+001
0	 3.399969999982150e+000	 2.266680000012267e+000	 1.736248634379034e+001
0	 3.399969999982150e+000	 2.333350000014584e+000	 1.666429358307665e+001
0	 3.399969999982150e+000	 2.400020000016401e+000	 1.599861913765989e+001
0	 3.399969999982150e+000	 2.466690000017616e+000	 1.536478622761550e+001
0	 3.399969999982150e+000	 2.533360000018133e+000	 1.476211807301919e+001
0	 3.399969999982150e+000	 2.600030000017851e+000	 1.418993789394689e+001
0	 3.399969999982150e+000	 2.666700000016666e+000	 1.364756891047488e+001
0	 3.466639999981866e+000	 2.000000000000000e+000	 1.954522539163546e+001
0	 3.466639999981866e+000	 2.066670000003318e+000	 1.877932844250962e+001
0	 3.466639999981866e+000	 2.133340000006534e+000	 1.804641840865835e+001
0	 3.466639999981866e+000	 2.200010000009550e+000	 1.734590223126864e+001
0	 3.466639999981866e+000	 2.266680000012266e+000	 1.667718685152775e+001
0	 3.466639999981866e+000	 2.333350000014584e+000	 1.603967921062322e+001
0	 3.466639999981866e+000	 2.400020000016401e+000	 1.543278624974277e+001
0	 3.466639999981866e+000	 2.466690000017617e+000	 1.485591491007446e+001
0	 3.466639999981867e+000	 2.533360000018134e+000	 1.430847213280654e+001
0	 3.466639999981866e+000	 2.600030000017849e+000	 1.378986485912753e+001
0	 3.466639999981867e+000	 2.666700000016666e+000	 1.329950003022620e+001
0	 3.533309999982383e+000	 2.000000000000000e+000	 1.858894924279363e+001
0	 3.533309999982382e+000	 2.066670000003316e+000	 1.789506274110714e+001
0	 3.533309999982382e+000	 2.133340000006534e+000	 1.723172459509275e+001
0	 3.533309999982382e+000	 2.200010000009550e+000	 1.659841751948651e+001
0	 3.533309999982382e+000	 2.266680000012267e+000	 1.599462422902477e+001
0	 3.533309999982382e+000	 2.333350000014584e+000	 1.541982743844411e+001
0	 3.533309999982382e+000	 2.400020000016401e+000	 1.487350986248132e+001
0	 3.533309999982382e+000	 2.466690000017617e+000	 1.435515421587342e+001
0	 3.533309999982383e+000	 2.533360000018134e+000	 1.386424321335771e+001
0	 3.533309999982382e+000	 2.600030000017850e+000	 1.340025956967166e+001
0	 3.533309999982382e+000	 2.666700000016667e+000	 1.296268599955303e+001
0	 3.599979999983599e+000	 2.000000000000001e+000	 1.763844762793791e+001
0	 3.599979999983598e+000	 2.066670000003316e+000	 1.701811107960780e+001
0	 3.599979999983599e+000	 2.133340000006534e+000	 1.642574098070547e+001
0	 3.599979999983599e+000	 2.200010000009550e+000	 1.586088787195255e+001
0	 3.599979999983598e+000	 2.266680000012267e+000	 1.532310229407088e+001
0	 3.599979999983599e+000	 2.333350000014584e+000	 1.481193478778249e+001
0	 3.599979999983598e+000	 2.400020000016401e+000	 1.432693589380969e+001
0	 3.599979999983599e+000	 2.466690000017617e+000	 1.386765615287494e+001
0	 3.599979999983599e+000	 2.533360000018134e+000	 1.343364610570095e+001
0	 3.599979999983599e+000	 2.600030000017851e+000	 1.302445629301062e+001
0	 3.599979999983599e+000	 2.666700000016667e+000	 1.263963725552710e+001
0	 3.666649999985414e+000	 2.000000000000000e+000	 1.670702048341654e+001
0	 3.666649999985414e+000	 2.066670000003316e+000	 1.616043932486406e+001
0	 3.666649999985415e+000	 2.133340000006534e+000	 1.563915605609063e+001
0	 3.666649999985415e+000	 2.200010000009550e+000	 1.514278109623983e+001
0	 3.666649999985415e+000	 2.266680000012267e+000	 1.467092486445546e+001
0	 3.666649999985415e+000	 2.333350000014583e+000	 1.422319777988146e+001
0	 3.666649999985415e+000	 2.400020000016400e+000	 1.379921026166203e+001
0	 3.666649999985415e+000	 2.466690000017617e+000	 1.339857272894152e+001
0	 3.666649999985415e+000	 2.533360000018134e+000	 1.302089560086449e+001
0	 3.666649999985415e+000	 2.600030000017851e+000	 1.266578929657569e+001
0	 3.666649999985415e+000	 2.666700000016666e+000	 1.233286423522008e+001
0	 3.733319999987732e+000	 2.000000000000000e+000	 1.580796774557760e+001
0	 3.733319999987733e+000	 2.066670000003317e+000	 1.533401334372828e+001
0	 3.733319999987732e+000	 2.133340000006534e+000	 1.488265831184220e+001
0	 3.733319999987732e+000	 2.200010000009550e+000	 1.445356499992133e+001
0	 3.733319999987731e+000	 2.266680000012266e+000	 1.404639575796782e+001
0	 3.733319999987732e+000	 2.333350000014584e+000	 1.366081293598398e+001
0	 3.733319999987731e+000	 2.400020000016400e+000	 1.329647888397234e+001
0	 3.733319999987732e+000	 2.466690000017617e+000	 1.295305595193554e+001
0	 3.733319999987732e+000	 2.533360000018134e+000	 1.263020648987645e+001
0	 3.733319999987733e+000	 2.600030000017851e+000	 1.232759284779807e+001
0	 3.733319999987732e+000	 2.666700000016666e+000	 1.204487737570362e+001
0	 3.799989999990448e+000	 2.000000000000000e+000	 1.495458935076912e+001
0	 3.799989999990449e+000	 2.066670000003318e+000	 1.455079900305273e+001
0	 3.799989999990448e+000	 2.133340000006534e+000	 1.416693623855406e+001
0	 3.799989999990448e+000	 2.200010000009550e+000	 1.380270739056989e+001
0	 3.799989999990448e+000	 2.266680000012268e+000	 1.345781879239717e+001
0	 3.799989999990449e+000	 2.333350000014584e+000	 1.313197677733298e+001
0	 3.799989999990448e+000	 2.400020000016401e+000	 1.282488767867458e+001
0	 3.799989999990448e+000	 2.466690000017617e+000	 1.253625782971936e+001
0	 3.799989999990448e+000	 2.533360000018133e+000	 1.226579356376491e+001
0	 3.799989999990448e+000	 2.600030000017850e+000	 1.201320121410891e+001
0	 3.799989999990448e+000	 2.666700000016666e+000	 1.177818711404924e+001
0	 3.866659999993465e+000	 2.000000000000000e+000	 1.416018523533896e+001
0	 3.866659999993464e+000	 2.066670000003317e+000	 1.382276216968957e+001
0	 3.866659999993465e+000	 2.133340000006534e+000	 1.350267832682001e+001
0	 3.866659999993465e+000	 2.200010000009550e+000	 1.319967607575832e+001
0	 3.866659999993464e+000	 2.266680000012267e+000	 1.291349778553264e+001
0	 3.866659999993465e+000	 2.333350000014584e+000	 1.264388582517126e+001
0	 3.866659999993466e+000	 2.400020000016401e+000	 1.239058256370262e+001
0	 3.866659999993465e+000	 2.466690000017617e+000	 1.215333037015527e+001
0	 3.866659999993464e+000	 2.533360000018133e+000	 1.193187161355788e+001
0	 3.866659999993464e+000	 2.600030000017850e+000	 1.172594866293930e+001
0	 3.866659999993464e+000	 2.666700000016666e+000	 1.153530388732846e+001
0	 3.933329999996681e+000	 2.000000000000000e+000	 1.343805533563494e+001
0	 3.933329999996681e+000	 2.066670000003317e+000	 1.316186871049084e+001
0	 3.933329999996681e+000	 2.133340000006534e+000	 1.290057306723374e+001
0	 3.933329999996682e+000	 2.200010000009551e+000	 1.265393886305928e+001
0	 3.933329999996681e+000	 2.266680000012267e+000	 1.242173655516326e+001
0	 3.933329999996682e+000	 2.333350000014584e+000	 1.220373660074159e+001
0	 3.933329999996682e+000	 2.400020000016401e+000	 1.199970945699027e+001
0	 3.933329999996681e+000	 2.466690000017617e+000	 1.180942558110542e+001
0	 3.933329999996682e+000	 2.533360000018134e+000	 1.163265543028330e+001
0	 3.933329999996681e+000	 2.600030000017850e+000	 1.146916946172025e+001
0	 3.933329999996681e+000	 2.666700000016666e+000	 1.131873813261275e+001
0	 4.000000000000001e+000	 2.000000000000000e+000	 1.280149958800469e+001
0	 4.000000000000001e+000	 2.066670000003317e+000	 1.258008449230848e+001
0	 4.000000000000001e+000	 2.133340000006534e+000	 1.237130895038879e+001
0	 4.000000000000000e+000	 2.200010000009551e+000	 1.217496356004535e+001
0	 4.000000000000001e+000	 2.266680000012268e+000	 1.199083891907798e+001
0	 4.000000000000000e+000	 2.333350000014584e+000	 1.181872562528659e+001
0	 4.000000000000000e+000	 2.400020000016400e+000	 1.165841427647121e+001
0	 4.000000000000001e+000	 2.466690000017617e+000	 1.150969547043195e+001
0	 4.000000000000001e+000	 2.533360000018134e+000	 1.137235980496901e+001
0	 4.000000000000000e+000	 2.600030000017850e+000	 1.124619787788271e+001
0	 4.000000000000000e+000	 2.666700000016667e+000	 1.113100028697346e+001
0	 3.333299999983334e+000	 2.666700000016667e+000	 1.400438220322726e+001
0	 3.333299999983333e+000	 2.733360000014532e+000	 1.345323993634985e+001
0	 3.333299999983334e+000	 2.800020000011600e+000	 1.295444096499267e+001
0	 3.333299999983334e+000	 2.866680000008067e+000	 1.250772128010008e+001
0	 3.333299999983334e+000	 2.933340000004133e+000	 1.211281687261547e+001
0	 3.333299999983334e+000	 3.000000000000000e+000	 1.176946373348127e+001
0	 3.333299999983334e+000	 3.066659999995868e+000	 1.147739785363894e+001
0	 3.333299999983333e+000	 3.133319999991934e+000	 1.123635522402900e+001
0	 3.333299999983333e+000	 3.199979999988400e+000	 1.104607183559102e+001
0	 3.333299999983334e+000	 3.266639999985468e+000	 1.090628367926356e+001
0	 3.333299999983334e+000	 3.333299999983334e+000	 1.081672674598429e+001
0	 3.399969999982150e+000	 2.666700000016666e+000	 1.364756891047488e+001
0	 3.399969999982150e+000	 2.733360000014534e+000	 1.314424102865924e+001
0	 3.399969999982150e+000	 2.800020000011598e+000	 1.268930630971221e+001
0	 3.399969999982149e+000	 2.866680000008067e+000	 1.228250865461193e+001
0	 3.399969999982150e+000	 2.933340000004133e+000	 1.192359196433563e+001
0	 3.399969999982150e+000	 3.000000000000000e+000	 1.161230013985970e+001
0	 3.399969999982150e+000	 3.066659999995866e+000	 1.134837708215956e+001
0	 3.399969999982149e+000	 3.133319999991933e+000	 1.113156669220984e+001
0	 3.399969999982150e+000	 3.199979999988400e+000	 1.096161287098424e+001
0	 3.399969999982150e+000	 3.266639999985468e+000	 1.083825951945556e+001
0	 3.399969999982149e+000	 3.333299999983333e+000	 1.076125053859577e+001
0	 3.466639999981867e+000	 2.666700000016666e+000	 1.329950003022620e+001
0	 3.466639999981867e+000	 2.733360000014534e+000	 1.284529688817937e+001
0	 3.466639999981866e+000	 2.800020000011600e+000	 1.243526381667417e+001
0	 3.466639999981866e+000	 2.866680000008065e+000	 1.206915585717687e+001
0	 3.466639999981866e+000	 2.933340000004133e+000	 1.174672805115288e+001
0	 3.466639999981865e+000	 2.999999999999999e+000	 1.146773544006683e+001
0	 3.466639999981866e+000	 3.066659999995866e+000	 1.123193306538253e+001
0	 3.466639999981866e+000	 3.133319999991933e+000	 1.103907596856302e+001
0	 3.466639999981866e+000	 3.199979999988401e+000	 1.088891919107051e+001
0	 3.466639999981867e+000	 3.266639999985468e+000	 1.078121777436639e+001
0	 3.466639999981866e+000	 3.333299999983334e+000	 1.071572675991128e+001
0	 3.533309999982382e+000	 2.666700000016667e+000	 1.296268599955303e+001
0	 3.533309999982383e+000	 2.733360000014533e+000	 1.255816504593874e+001
0	 3.533309999982382e+000	 2.800020000011600e+000	 1.219340302762583e+001
0	 3.533309999982383e+000	 2.866680000008067e+000	 1.186816935702299e+001
0	 3.533309999982383e+000	 2.933340000004133e+000	 1.158223344653821e+001
0	 3.533309999982382e+000	 3.000000000000000e+000	 1.133536470857871e+001
0	 3.533309999982383e+000	 3.066659999995867e+000	 1.112733255555103e+001
0	 3.533309999982383e+000	 3.133319999991934e+000	 1.095790639986094e+001
0	 3.533309999982382e+000	 3.199979999988401e+000	 1.082685565391353e+001
0	 3.533309999982383e+000	 3.266639999985468e+000	 1.073394973011315e+001
0	 3.533309999982382e+000	 3.333299999983334e+000	 1.067895804086343e+001
0	 3.599979999983599e+000	 2.666700000016667e+000	 1.263963725552710e+001
0	 3.599979999983599e+000	 2.733360000014533e+000	 1.228460303296575e+001
0	 3.599979999983599e+000	 2.800020000011600e+000	 1.196481348431435e+001
0	 3.599979999983598e+000	 2.866680000008067e+000	 1.168005562337836e+001
0	 3.599979999983598e+000	 2.933340000004133e+000	 1.143011646396262e+001
0	 3.599979999983599e+000	 3.000000000000000e+000	 1.121478301987136e+001
0	 3.599979999983598e+000	 3.066659999995866e+000	 1.103384230490815e+001
0	 3.599979999983599e+000	 3.133319999991934e+000	 1.088708133287591e+001
0	 3.599979999983599e+000	 3.199979999988401e+000	 1.077428711757694e+001
0	 3.599979999983599e+000	 3.266639999985467e+000	 1.069524667281290e+001
0	 3.599979999983598e+000	 3.333299999983333e+000	 1.064974701238479e+001
0	 3.666649999985415e+000	 2.666700000016666e+000	 1.233286423522008e+001
0	 3.666649999985415e+000	 2.733360000014533e+000	 1.202636838028883e+001
0	 3.666649999985415e+000	 2.800020000011600e+000	 1.175058472848690e+001
0	 3.666649999985415e+000	 2.866680000008065e+000	 1.150532112547094e+001
0	 3.666649999985415e+000	 2.933340000004133e+000	 1.129038541689703e+001
0	 3.666649999985415e+000	 3.000000000000000e+000	 1.110558544842073e+001
0	 3.666649999985415e+000	 3.066659999995867e+000	 1.095072906569698e+001
0	 3.666649999985415e+000	 3.133319999991933e+000	 1.082562411438025e+001
0	 3.666649999985415e+000	 3.199979999988401e+000	 1.073007844012438e+001
0	 3.666649999985415e+000	 3.266639999985468e+000	 1.066389988858268e+001
0	 3.666649999985415e+000	 3.333299999983334e+000	 1.062689630540794e+001
0	 3.733319999987732e+000	 2.666700000016666e+000	 1.204487737570362e+001
0	 3.733319999987731e+000	 2.733360000014532e+000	 1.178521861893628e+001
0	 3.733319999987731e+000	 2.800020000011599e+000	 1.155180630189059e+001
0	 3.733319999987732e+000	 2.866680000008066e+000	 1.134447233252872e+001
0	 3.733319999987732e+000	 2.933340000004133e+000	 1.116304861881236e+001
0	 3.733319999987731e+000	 3.000000000000000e+000	 1.100736706870274e+001
0	 3.733319999987732e+000	 3.066659999995867e+000	 1.087725959016061e+001
0	 3.733319999987732e+000	 3.133319999991933e+000	 1.077255809114624e+001
0	 3.733319999987731e+000	 3.199979999988401e+000	 1.069309447961943e+001
0	 3.733319999987732e+000	 3.266639999985467e+000	 1.063870066353953e+001
0	 3.733319999987732e+000	 3.333299999983334e+000	 1.060920855086539e+001
0	 3.799989999990448e+000	 2.666700000016666e+000	 1.177818711404924e+001
0	 3.799989999990448e+000	 2.733360000014533e+000	 1.156291127993638e+001
0	 3.799989999990448e+000	 2.800020000011600e+000	 1.136956774627248e+001
0	 3.799989999990448e+000	 2.866680000008066e+000	 1.119801571377961e+001
0	 3.799989999990448e+000	 2.933340000004133e+000	 1.104811438317945e+001
0	 3.799989999990448e+000	 3.000000000000000e+000	 1.091972295519329e+001
0	 3.799989999990448e+000	 3.066659999995866e+000	 1.081270063054201e+001
0	 3.799989999990448e+000	 3.133319999991934e+000	 1.072690660994612e+001
0	 3.799989999990448e+000	 3.199979999988400e+000	 1.066220009412569e+001
0	 3.799989999990449e+000	 3.266639999985467e+000	 1.061844028380045e+001
0	 3.799989999990448e+000	 3.333299999983334e+000	 1.059548637968969e+001
0	 3.866659999993464e+000	 2.666700000016666e+000	 1.153530388732846e+001
0	 3.866659999993464e+000	 2.733360000014533e+000	 1.136120389431733e+001
0	 3.866659999993465e+000	 2.800020000011601e+000	 1.120495860337955e+001
0	 3.866659999993464e+000	 2.866680000008067e+000	 1.106645773845146e+001
0	 3.866659999993464e+000	 2.933340000004133e+000	 1.094559102346911e+001
0	 3.866659999993465e+000	 3.000000000000000e+000	 1.084224818236823e+001
0	 3.866659999993464e+000	 3.066659999995866e+000	 1.075631893908421e+001
0	 3.866659999993465e+000	 3.133319999991934e+000	 1.068769301755211e+001
0	 3.866659999993465e+000	 3.199979999988400e+000	 1.063626014170670e+001
0	 3.866659999993465e+000	 3.266639999985467e+000	 1.060191003548241e+001
0	 3.866659999993464e+000	 3.333299999983334e+000	 1.058453242281334e+001
0	 3.933329999996681e+000	 2.666700000016666e+000	 1.131873813261275e+001
0	 3.933329999996682e+000	 2.733360000014532e+000	 1.118185399310732e+001
0	 3.933329999996682e+000	 2.800020000011600e+000	 1.105906841495875e+001
0	 3.933329999996681e+000	 2.866680000008066e+000	 1.095030487577209e+001
0	 3.933329999996681e+000	 2.933340000004133e+000	 1.085548685315213e+001
0	 3.933329999996681e+000	 3.000000000000000e+000	 1.077453782470338e+001
0	 3.933329999996682e+000	 3.066659999995867e+000	 1.070738126803013e+001
0	 3.933329999996681e+000	 3.133319999991933e+000	 1.065394066073641e+001
0	 3.933329999996682e+000	 3.199979999988400e+000	 1.061413948042598e+001
0	 3.933329999996682e+000	 3.266639999985467e+000	 1.058790120470236e+001
0	 3.933329999996681e+000	 3.333299999983334e+000	 1.057514931116881e+001
0	 4.000000000000000e+000	 2.666700000016667e+000	 1.113100028697346e+001
0	 4.000000000000000e+000	 2.733360000014533e+000	 1.102661910733443e+001
0	 4.000000000000000e+000	 2.800020000011599e+000	 1.093298672275701e+001
0	 4.000000000000001e+000	 2.866680000008067e+000	 1.085006359496929e+001
0	 4.000000000000000e+000	 2.933340000004133e+000	 1.077781018569922e+001
0	 4.000000000000000e+000	 3.000000000000000e+000	 1.071618695667452e+001
0	 4.000000000000000e+000	 3.066659999995867e+000	 1.066515436962272e+001
0	 4.000000000000000e+000	 3.133319999991933e+000	 1.062467288627118e+001
0	 4.000000000000001e+000	 3.199979999988401e+000	 1.059470296834703e+001
0	 4.000000000000001e+000	 3.266639999985467e+000	 1.057520507757725e+001
0	 4.000000000000000e+000	 3.333299999983333e+000	 1.056613967568859e+001
0	 3.333299999983334e+000	 3.333299999983334e+000	 1.081672674598429e+001
0	 3.333299999983333e+000	 3.399969999982149e+000	 1.075421437222390e+001
0	 3.333299999983333e+000	 3.466639999981866e+000	 1.069590383498388e+001
0	 3.333299999983334e+000	 3.533309999982383e+000	 1.064201799489703e+001
0	 3.333299999983334e+000	 3.599979999983599e+000	 1.059277971259627e+001
0	 3.333299999983334e+000	 3.666649999985416e+000	 1.054841184871458e+001
0	 3.333299999983334e+000	 3.733319999987733e+000	 1.050913726388499e+001
0	 3.333299999983334e+000	 3.799989999990450e+000	 1.047517881874058e+001
0	 3.333299999983334e+000	 3.866659999993467e+000	 1.044675937391453e+001
0	 3.333299999983333e+000	 3.933329999996682e+000	 1.042410179004008e+001
0	 3.333299999983333e+000	 4.000000000000000e+000	 1.040742892775050e+001
0	 3.399969999982149e+000	 3.333299999983333e+000	 1.076125053859577e+001
0	 3.399969999982150e+000	 3.399969999982150e+000	 1.070882586400270e+001
0	 3.399969999982150e+000	 3.466639999981867e+000	 1.065957467896667e+001
0	 3.399969999982150e+000	 3.533309999982383e+000	 1.061374048859814e+001
0	 3.399969999982150e+000	 3.599979999983600e+000	 1.057156679800759e+001
0	 3.399969999982150e+000	 3.666649999985417e+000	 1.053329711230559e+001
0	 3.399969999982150e+000	 3.733319999987732e+000	 1.049917493660273e+001
0	 3.399969999982150e+000	 3.799989999990450e+000	 1.046944377600967e+001
0	 3.399969999982150e+000	 3.866659999993467e+000	 1.044434713563713e+001
0	 3.399969999982150e+000	 3.933329999996684e+000	 1.042412852059586e+001
0	 3.399969999982150e+000	 4.000000000000000e+000	 1.040903143599670e+001
0	 3.466639999981866e+000	 3.333299999983334e+000	 1.071572675991128e+001
0	 3.466639999981866e+000	 3.399969999982150e+000	 1.067227806301850e+001
0	 3.466639999981867e+000	 3.466639999981867e+000	 1.063105154890124e+001
0	 3.466639999981866e+000	 3.533309999982382e+000	 1.059230417150829e+001
0	 3.466639999981866e+000	 3.599979999983600e+000	 1.055629288478853e+001
0	 3.466639999981866e+000	 3.666649999985417e+000	 1.052327464269085e+001
0	 3.466639999981866e+000	 3.733319999987733e+000	 1.049350639916418e+001
0	 3.466639999981866e+000	 3.799989999990450e+000	 1.046724510815750e+001
0	 3.466639999981866e+000	 3.866659999993466e+000	 1.044474772361986e+001
0	 3.466639999981866e+000	 3.933329999996683e+000	 1.042627119950030e+001
0	 3.466639999981866e+000	 4.000000000000001e+000	 1.041207248974793e+001
0	 3.533309999982382e+000	 3.333299999983334e+000	 1.067895804086343e+001
0	 3.533309999982383e+000	 3.399969999982150e+000	 1.064343114522269e+001
0	 3.533309999982382e+000	 3.466639999981867e+000	 1.060925963325959e+001
0	 3.533309999982381e+000	 3.533309999982382e+000	 1.057670671212207e+001
0	 3.533309999982383e+000	 3.599979999983600e+000	 1.054603558895811e+001
0	 3.533309999982381e+000	 3.666649999985415e+000	 1.051750947091570e+001
0	 3.533309999982382e+000	 3.733319999987732e+000	 1.049139156514290e+001
0	 3.533309999982382e+000	 3.799989999990450e+000	 1.046794507878776e+001
0	 3.533309999982382e+000	 3.866659999993467e+000	 1.044743321899839e+001
0	 3.533309999982383e+000	 3.933329999996684e+000	 1.043011919292292e+001
0	 3.533309999982383e+000	 4.000000000000000e+000	 1.041626620770950e+001
0	 3.599979999983598e+000	 3.333299999983333e+000	 1.064974701238479e+001
0	 3.599979999983598e+000	 3.399969999982150e+000	 1.062114528656664e+001
0	 3.599979999983599e+000	 3.466639999981867e+000	 1.059312412051379e+001
0	 3.599979999983600e+000	 3.533309999982384e+000	 1.056594577893407e+001
0	 3.599979999983598e+000	 3.599979999983600e+000	 1.053987252653537e+001
0	 3.599979999983599e+000	 3.666649999985416e+000	 1.051516662802554e+001
0	 3.599979999983598e+000	 3.733319999987732e+000	 1.049209034811248e+001
0	 3.599979999983598e+000	 3.799989999990448e+000	 1.047090595150411e+001
0	 3.599979999983598e+000	 3.866659999993467e+000	 1.045187570290838e+001
0	 3.599979999983599e+000	 3.933329999996684e+000	 1.043526186703324e+001
0	 3.599979999983598e+000	 4.000000000000000e+000	 1.042132670858669e+001
0	 3.666649999985415e+000	 3.333299999983334e+000	 1.062689630540794e+001
0	 3.666649999985415e+000	 3.399969999982150e+000	 1.060428066300169e+001
0	 3.666649999985415e+000	 3.466639999981866e+000	 1.058157019913585e+001
0	 3.666649999985416e+000	 3.533309999982384e+000	 1.055901904043891e+001
0	 3.666649999985415e+000	 3.599979999983600e+000	 1.053688131353936e+001
0	 3.666649999985415e+000	 3.666649999985416e+000	 1.051541114506572e+001
0	 3.666649999985416e+000	 3.733319999987733e+000	 1.049486266164649e+001
0	 3.666649999985415e+000	 3.799989999990450e+000	 1.047548998991024e+001
0	 3.666649999985415e+000	 3.866659999993467e+000	 1.045754725648550e+001
0	 3.666649999985415e+000	 3.933329999996683e+000	 1.044128858800085e+001
0	 3.666649999985415e+000	 4.000000000000001e+000	 1.042696811108485e+001
0	 3.733319999987732e+000	 3.333299999983334e+000	 1.060920855086539e+001
0	 3.733319999987733e+000	 3.399969999982150e+000	 1.059169745047919e+001
0	 3.733319999987732e+000	 3.466639999981866e+000	 1.057352305759780e+001
0	 3.733319999987732e+000	 3.533309999982383e+000	 1.055492416513113e+001
0	 3.733319999987730e+000	 3.599979999983599e+000	 1.053613956598908e+001
0	 3.733319999987732e+000	 3.666649999985417e+000	 1.051740805308158e+001
0	 3.733319999987732e+000	 3.733319999987733e+000	 1.049896841931852e+001
0	 3.733319999987732e+000	 3.799989999990451e+000	 1.048105945760983e+001
0	 3.733319999987732e+000	 3.866659999993467e+000	 1.046391996086544e+001
0	 3.733319999987732e+000	 3.933329999996684e+000	 1.044778872199528e+001
0	 3.733319999987732e+000	 4.000000000000001e+000	 1.043290453390929e+001
0	 3.799989999990448e+000	 3.333299999983334e+000	 1.059548637968969e+001
0	 3.799989999990449e+000	 3.399969999982149e+000	 1.058225582495044e+001
0	 3.799989999990447e+000	 3.466639999981866e+000	 1.056790788437163e+001
0	 3.799989999990448e+000	 3.533309999982383e+000	 1.055265882150532e+001
0	 3.799989999990449e+000	 3.599979999983600e+000	 1.053672489990359e+001
0	 3.799989999990449e+000	 3.666649999985417e+000	 1.052032238311851e+001
0	 3.799989999990448e+000	 3.733319999987733e+000	 1.050366753470215e+001
0	 3.799989999990448e+000	 3.799989999990450e+000	 1.048697661820658e+001
0	 3.799989999990448e+000	 3.866659999993467e+000	 1.047046589718388e+001
0	 3.799989999990448e+000	 3.933329999996684e+000	 1.045435163518610e+001
0	 3.799989999990448e+000	 4.000000000000001e+000	 1.043885009576533e+001
0	 3.866659999993464e+000	 3.333299999983334e+000	 1.058453242281334e+001
0	 3.866659999993465e+000	 3.399969999982150e+000	 1.057481596236678e+001
0	 3.866659999993465e+000	 3.466639999981867e+000	 1.056364986792934e+001
0	 3.866659999993465e+000	 3.533309999982383e+000	 1.055122067805604e+001
0	 3.866659999993465e+000	 3.599979999983600e+000	 1.053771493130188e+001
0	 3.866659999993464e+000	 3.666649999985416e+000	 1.052331916622185e+001
0	 3.866659999993465e+000	 3.733319999987733e+000	 1.050821992137096e+001
0	 3.866659999993464e+000	 3.799989999990449e+000	 1.049260373530418e+001
0	 3.866659999993464e+000	 3.866659999993466e+000	 1.047665714657649e+001
0	 3.866659999993465e+000	 3.933329999996684e+000	 1.046056669374289e+001
0	 3.866659999993465e+000	 4.000000000000000e+000	 1.044451891535832e+001
0	 3.933329999996681e+000	 3.333299999983334e+000	 1.057514931116881e+001
0	 3.933329999996682e+000	 3.399969999982151e+000	 1.056823803867948e+001
0	 3.933329999996682e+000	 3.466639999981867e+000	 1.055967419674292e+001
0	 3.933329999996682e+000	 3.533309999982382e+000	 1.054960740327785e+001
0	 3.933329999996682e+000	 3.599979999983600e+000	 1.053818727620297e+001
0	 3.933329999996681e+000	 3.666649999985416e+000	 1.052556343343697e+001
0	 3.933329999996681e+000	 3.733319999987733e+000	 1.051188549289854e+001
0	 3.933329999996681e+000	 3.799989999990450e+000	 1.049730307250633e+001
0	 3.933329999996682e+000	 3.866659999993466e+000	 1.048196579017901e+001
0	 3.933329999996682e+000	 3.933329999996684e+000	 1.046602326383523e+001
0	 3.933329999996682e+000	 4.000000000000000e+000	 1.044962511139363e+001
0	 4.000000000000000e+000	 3.333299999983333e+000	 1.056613967568859e+001
0	 4.000000000000000e+000	 3.399969999982150e+000	 1.056138222983981e+001
0	 4.000000000000001e+000	 3.466639999981866e+000	 1.055490605928432e+001
0	 4.000000000000000e+000	 3.533309999982383e+000	 1.054681666566530e+001
0	 4.000000000000000e+000	 3.599979999983600e+000	 1.053721955062588e+001
0	 4.000000000000001e+000	 3.666649999985417e+000	 1.052622021580923e+001
0	 4.000000000000001e+000	 3.733319999987733e+000	 1.051392416285848e+001
0	 4.000000000000001e+000	 3.799989999990450e+000	 1.050043689341674e+001
0	 4.000000000000000e+000	 3.866659999993467e+000	 1.048586390912712e+001
0	 3.999999999999999e+000	 3.933329999996683e+000	 1.047031071163271e+001
0	 4.000000000000000e+000	 4.000000000000000e+000	 1.045388280257659e+001
0	 3.333299999983333e+000	 4.000000000000000e+000	 1.040742892775050e+001
0	 3.333299999983334e+000	 4.066670000003317e+000	 1.039343444874469e+001
0	 3.333299999983334e+000	 4.133340000006534e+000	 1.037876966774712e+001
0	 3.333299999983335e+000	 4.200010000009551e+000	 1.036359392492963e+001
0	 3.333299999983334e+000	 4.266680000012268e+000	 1.034806656046397e+001
0	 3.333299999983334e+000	 4.333350000014583e+000	 1.033234691452197e+001
0	 3.333299999983334e+000	 4.400020000016401e+000	 1.031659432727539e+001
0	 3.333299999983333e+000	 4.466690000017617e+000	 1.030096813889606e+001
0	 3.333299999983334e+000	 4.533360000018134e+000	 1.028562768955579e+001
0	 3.333299999983334e+000	 4.600030000017851e+000	 1.027073231942635e+001
0	 3.333299999983333e+000	 4.666700000016666e+000	 1.025644136867960e+001
0	 3.399969999982150e+000	 4.000000000000000e+000	 1.040903143599670e+001
0	 3.399969999982150e+000	 4.066670000003317e+000	 1.039629140664951e+001
0	 3.399969999982150e+000	 4.133340000006534e+000	 1.038304022085672e+001
0	 3.399969999982150e+000	 4.200010000009551e+000	 1.036936577896804e+001
0	 3.399969999982150e+000	 4.266680000012267e+000	 1.035535598133312e+001
0	 3.399969999982150e+000	 4.333350000014584e+000	 1.034109872830168e+001
0	 3.399969999982149e+000	 4.400020000016400e+000	 1.032668192022340e+001
0	 3.399969999982150e+000	 4.466690000017616e+000	 1.031219345744796e+001
0	 3.399969999982149e+000	 4.533360000018131e+000	 1.029772124032506e+001
0	 3.399969999982150e+000	 4.600030000017850e+000	 1.028335316920438e+001
0	 3.399969999982150e+000	 4.666700000016666e+000	 1.026917714443560e+001
0	 3.466639999981866e+000	 4.000000000000001e+000	 1.041207248974793e+001
0	 3.466639999981866e+000	 4.066670000003318e+000	 1.039993677466704e+001
0	 3.466639999981865e+000	 4.133340000006533e+000	 1.038749569564352e+001
0	 3.466639999981866e+000	 4.200010000009550e+000	 1.037477589824893e+001
0	 3.466639999981866e+000	 4.266680000012267e+000	 1.036180402805483e+001
0	 3.466639999981865e+000	 4.333350000014584e+000	 1.034860673063278e+001
0	 3.466639999981866e+000	 4.400020000016402e+000	 1.033521065155433e+001
0	 3.466639999981866e+000	 4.466690000017618e+000	 1.032164243639105e+001
0	 3.466639999981866e+000	 4.533360000018133e+000	 1.030792873071449e+001
0	 3.466639999981866e+000	 4.600030000017851e+000	 1.029409618009621e+001
0	 3.466639999981866e+000	 4.666700000016666e+000	 1.028017143010775e+001
0	 3.533309999982383e+000	 4.000000000000000e+000	 1.041626620770949e+001
0	 3.533309999982383e+000	 4.066670000003318e+000	 1.040420478654308e+001
0	 3.533309999982382e+000	 4.133340000006534e+000	 1.039207369840143e+001
0	 3.533309999982382e+000	 4.200010000009551e+000	 1.037984851912195e+001
0	 3.533309999982382e+000	 4.266680000012267e+000	 1.036750482454206e+001
0	 3.533309999982382e+000	 4.333350000014583e+000	 1.035501819049913e+001
0	 3.533309999982383e+000	 4.400020000016403e+000	 1.034236419283062e+001
0	 3.533309999982381e+000	 4.466690000017615e+000	 1.032951840737390e+001
0	 3.533309999982383e+000	 4.533360000018135e+000	 1.031645640996640e+001
0	 3.533309999982383e+000	 4.600030000017849e+000	 1.030315377644548e+001
0	 3.533309999982381e+000	 4.666700000016665e+000	 1.028958608264857e+001
0	 3.599979999983598e+000	 4.000000000000000e+000	 1.042132670858670e+001
0	 3.599979999983598e+000	 4.066670000003316e+000	 1.040892967602346e+001
0	 3.599979999983599e+000	 4.133340000006532e+000	 1.039671183542440e+001
0	 3.599979999983598e+000	 4.200010000009550e+000	 1.038460787793675e+001
0	 3.599979999983598e+000	 4.266680000012268e+000	 1.037255249470776e+001
0	 3.599979999983599e+000	 4.333350000014584e+000	 1.036048037688467e+001
0	 3.599979999983598e+000	 4.400020000016402e+000	 1.034832621561469e+001
0	 3.599979999983599e+000	 4.466690000017617e+000	 1.033602470204506e+001
0	 3.599979999983598e+000	 4.533360000018133e+000	 1.032351052732303e+001
0	 3.599979999983598e+000	 4.600030000017853e+000	 1.031071838259582e+001
0	 3.599979999983599e+000	 4.666700000016667e+000	 1.029758295901065e+001
0	 3.666649999985415e+000	 4.000000000000001e+000	 1.042696811108486e+001
0	 3.666649999985415e+000	 4.066670000003317e+000	 1.041394567685399e+001
0	 3.666649999985415e+000	 4.133340000006534e+000	 1.040134771300637e+001
0	 3.666649999985415e+000	 4.200010000009550e+000	 1.038907821104299e+001
0	 3.666649999985415e+000	 4.266680000012268e+000	 1.037704116246495e+001
0	 3.666649999985415e+000	 4.333350000014582e+000	 1.036514055877327e+001
0	 3.666649999985415e+000	 4.400020000016401e+000	 1.035328039146897e+001
0	 3.666649999985416e+000	 4.466690000017618e+000	 1.034136465205311e+001
0	 3.666649999985415e+000	 4.533360000018133e+000	 1.032929733202673e+001
0	 3.666649999985416e+000	 4.600030000017850e+000	 1.031698242289085e+001
0	 3.666649999985415e+000	 4.666700000016665e+000	 1.030432391614651e+001
0	 3.733319999987732e+000	 4.000000000000001e+000	 1.043290453390929e+001
0	 3.733319999987732e+000	 4.066670000003318e+000	 1.041908702278052e+001
0	 3.733319999987732e+000	 4.133340000006535e+000	 1.040591893744127e+001
0	 3.733319999987732e+000	 4.200010000009550e+000	 1.039328375479035e+001
0	 3.733319999987731e+000	 4.266680000012267e+000	 1.038106495172662e+001
0	 3.733319999987732e+000	 4.333350000014584e+000	 1.036914600514886e+001
0	 3.733319999987732e+000	 4.400020000016402e+000	 1.035741039195592e+001
0	 3.733319999987732e+000	 4.466690000017617e+000	 1.034574158904661e+001
0	 3.733319999987732e+000	 4.533360000018135e+000	 1.033402307331978e+001
0	 3.733319999987732e+000	 4.600030000017851e+000	 1.032213832167420e+001
0	 3.733319999987732e+000	 4.666700000016666e+000	 1.030997081100873e+001
0	 3.799989999990448e+000	 4.000000000000001e+000	 1.043885009576533e+001
0	 3.799989999990449e+000	 4.066670000003317e+000	 1.042418794754888e+001
0	 3.799989999990448e+000	 4.133340000006534e+000	 1.041036311502308e+001
0	 3.799989999990448e+000	 4.200010000009550e+000	 1.039724874552851e+001
0	 3.799989999990448e+000	 4.266680000012267e+000	 1.038471798640574e+001
0	 3.799989999990448e+000	 4.333350000014583e+000	 1.037264398499537e+001
0	 3.799989999990448e+000	 4.400020000016401e+000	 1.036089988863798e+001
0	 3.799989999990447e+000	 4.466690000017617e+000	 1.034935884467415e+001
0	 3.799989999990449e+000	 4.533360000018134e+000	 1.033789400044447e+001
0	 3.799989999990449e+000	 4.600030000017850e+000	 1.032637850328952e+001
0	 3.799989999990448e+000	 4.666700000016666e+000	 1.031468550054989e+001
0	 3.866659999993465e+000	 4.000000000000000e+000	 1.044451891535832e+001
0	 3.866659999993464e+000	 4.066670000003316e+000	 1.042908268490494e+001
0	 3.866659999993465e+000	 4.133340000006534e+000	 1.041461785204577e+001
0	 3.866659999993464e+000	 4.200010000009551e+000	 1.040099741960713e+001
0	 3.866659999993464e+000	 4.266680000012268e+000	 1.038809439041535e+001
0	 3.866659999993464e+000	 4.333350000014585e+000	 1.037578176729674e+001
0	 3.866659999993466e+000	 4.400020000016401e+000	 1.036393255307762e+001
0	 3.866659999993465e+000	 4.466690000017617e+000	 1.035241975058431e+001
0	 3.866659999993464e+000	 4.533360000018133e+000	 1.034111636264315e+001
0	 3.866659999993464e+000	 4.600030000017849e+000	 1.032989539208044e+001
0	 3.866659999993464e+000	 4.666700000016665e+000	 1.031862984172253e+001
0	 3.933329999996682e+000	 4.000000000000000e+000	 1.044962511139363e+001
0	 3.933329999996681e+000	 4.066670000003316e+000	 1.043360546859456e+001
0	 3.933329999996682e+000	 4.133340000006535e+000	 1.041862075480332e+001
0	 3.933329999996682e+000	 4.200010000009551e+000	 1.040455401337595e+001
0	 3.933329999996681e+000	 4.266680000012268e+000	 1.039128828766847e+001
0	 3.933329999996682e+000	 4.333350000014584e+000	 1.037870662103691e+001
0	 3.933329999996681e+000	 4.400020000016401e+000	 1.036669205683730e+001
0	 3.933329999996682e+000	 4.466690000017618e+000	 1.035512763842568e+001
0	 3.933329999996682e+000	 4.533360000018134e+000	 1.034389640915810e+001
0	 3.933329999996682e+000	 4.600030000017851e+000	 1.033288141239061e+001
0	 3.933329999996682e+000	 4.666700000016666e+000	 1.032196569147922e+001
0	 4.000000000000000e+000	 4.000000000000000e+000	 1.045388280257659e+001
0	 4.000000000000000e+000	 4.066670000003317e+000	 1.043759053236362e+001
0	 4.000000000000000e+000	 4.133340000006534e+000	 1.042230942958973e+001
0	 4.000000000000000e+000	 4.200010000009550e+000	 1.040794276318466e+001
0	 4.000000000000001e+000	 4.266680000012268e+000	 1.039439380207810e+001
0	 4.000000000000000e+000	 4.333350000014584e+000	 1.038156581519981e+001
0	 4.000000000000000e+000	 4.400020000016401e+000	 1.036936207147948e+001
0	 4.000000000000000e+000	 4.466690000017617e+000	 1.035768583984686e+001
0	 4.000000000000001e+000	 4.533360000018134e+000	 1.034644038923167e+001
0	 4.000000000000000e+000	 4.600030000017851e+000	 1.033552898856365e+001
0	 4.000000000000000e+000	 4.666700000016666e+000	 1.032485490677255e+001
0	 3.333299999983333e+000	 4.666700000016666e+000	 1.025644136867960e+001
0	 3.333299999983334e+000	 4.733360000014533e+000	 1.024301204478713e+001
0	 3.333299999983334e+000	 4.800020000011601e+000	 1.023052874421974e+001
0	 3.333299999983333e+000	 4.866680000008066e+000	 1.021889786136685e+001
0	 3.333299999983335e+000	 4.933340000004134e+000	 1.020802579061788e+001
0	 3.333299999983334e+000	 5.000000000000001e+000	 1.019781892636225e+001
0	 3.333299999983334e+000	 5.066659999995867e+000	 1.018818366298933e+001
0	 3.333299999983334e+000	 5.133319999991934e+000	 1.017902639488852e+001
0	 3.333299999983334e+000	 5.199979999988400e+000	 1.017025351644921e+001
0	 3.333299999983333e+000	 5.266639999985467e+000	 1.016177142206076e+001
0	 3.333299999983334e+000	 5.333299999983335e+000	 1.015348650611253e+001
0	 3.399969999982150e+000	 4.666700000016666e+000	 1.026917714443560e+001
0	 3.399969999982151e+000	 4.733360000014534e+000	 1.025556066075169e+001
0	 3.399969999982150e+000	 4.800020000011601e+000	 1.024276821782039e+001
0	 3.399969999982149e+000	 4.866680000008066e+000	 1.023073954589312e+001
0	 3.399969999982149e+000	 4.933340000004132e+000	 1.021941437522128e+001
0	 3.399969999982150e+000	 5.000000000000001e+000	 1.020873243605628e+001
0	 3.399969999982150e+000	 5.066659999995867e+000	 1.019863345864949e+001
0	 3.399969999982149e+000	 5.133319999991934e+000	 1.018905717325231e+001
0	 3.399969999982150e+000	 5.199979999988400e+000	 1.017994331011608e+001
0	 3.399969999982150e+000	 5.266639999985468e+000	 1.017123159949216e+001
0	 3.399969999982149e+000	 5.333299999983332e+000	 1.016286177163191e+001
0	 3.466639999981866e+000	 4.666700000016666e+000	 1.028017143010775e+001
0	 3.466639999981866e+000	 4.733360000014534e+000	 1.026657108359579e+001
0	 3.466639999981866e+000	 4.800020000011600e+000	 1.025366872740799e+001
0	 3.466639999981866e+000	 4.866680000008067e+000	 1.024143276568872e+001
0	 3.466639999981866e+000	 4.933340000004135e+000	 1.022983160258233e+001
0	 3.466639999981866e+000	 4.999999999999999e+000	 1.021883364223319e+001
0	 3.466639999981866e+000	 5.066659999995866e+000	 1.020840728878563e+001
0	 3.466639999981866e+000	 5.133319999991933e+000	 1.019852094638396e+001
0	 3.466639999981866e+000	 5.199979999988401e+000	 1.018914301917252e+001
0	 3.466639999981866e+000	 5.266639999985468e+000	 1.018024191129561e+001
0	 3.466639999981866e+000	 5.333299999983334e+000	 1.017178602689751e+001
0	 3.533309999982381e+000	 4.666700000016665e+000	 1.028958608264858e+001
0	 3.533309999982382e+000	 4.733360000014534e+000	 1.027616849470602e+001
0	 3.533309999982382e+000	 4.800020000011601e+000	 1.026332329326483e+001
0	 3.533309999982384e+000	 4.866680000008067e+000	 1.025104289439326e+001
0	 3.533309999982383e+000	 4.933340000004134e+000	 1.023931971415961e+001
0	 3.533309999982382e+000	 4.999999999999999e+000	 1.022814616863213e+001
0	 3.533309999982382e+000	 5.066659999995867e+000	 1.021751467387909e+001
0	 3.533309999982383e+000	 5.133319999991936e+000	 1.020741764596875e+001
0	 3.533309999982382e+000	 5.199979999988400e+000	 1.019784750096930e+001
0	 3.533309999982382e+000	 5.266639999985468e+000	 1.018879665494898e+001
0	 3.533309999982382e+000	 5.333299999983335e+000	 1.018025752397599e+001
0	 3.599979999983599e+000	 4.666700000016667e+000	 1.029758295901065e+001
0	 3.599979999983598e+000	 4.733360000014534e+000	 1.028447807546900e+001
0	 3.599979999983599e+000	 4.800020000011600e+000	 1.027182493567319e+001
0	 3.599979999983599e+000	 4.866680000008065e+000	 1.025963530564635e+001
0	 3.599979999983599e+000	 4.933340000004134e+000	 1.024792095141167e+001
0	 3.599979999983598e+000	 4.999999999999999e+000	 1.023669363899226e+001
0	 3.599979999983598e+000	 5.066659999995866e+000	 1.022596513441130e+001
0	 3.599979999983598e+000	 5.133319999991934e+000	 1.021574720369188e+001
0	 3.599979999983598e+000	 5.199979999988400e+000	 1.020605161285713e+001
0	 3.599979999983598e+000	 5.266639999985467e+000	 1.019689012793016e+001
0	 3.599979999983598e+000	 5.333299999983333e+000	 1.018827451493403e+001
0	 3.666649999985415e+000	 4.666700000016665e+000	 1.030432391614651e+001
0	 3.666649999985415e+000	 4.733360000014534e+000	 1.029162500727133e+001
0	 3.666649999985415e+000	 4.800020000011601e+000	 1.027926667491536e+001
0	 3.666649999985415e+000	 4.866680000008065e+000	 1.026727537308761e+001
0	 3.666649999985414e+000	 4.933340000004133e+000	 1.025567755579707e+001
0	 3.666649999985415e+000	 5.000000000000001e+000	 1.024449967705273e+001
0	 3.666649999985415e+000	 5.066659999995867e+000	 1.023376819086360e+001
0	 3.666649999985415e+000	 5.133319999991935e+000	 1.022350955123863e+001
0	 3.666649999985415e+000	 5.199979999988400e+000	 1.021375021218678e+001
0	 3.666649999985415e+000	 5.266639999985467e+000	 1.020451662771702e+001
0	 3.666649999985415e+000	 5.333299999983333e+000	 1.019583525183827e+001
0	 3.733319999987732e+000	 4.666700000016666e+000	 1.030997081100873e+001
0	 3.733319999987732e+000	 4.733360000014534e+000	 1.029773447149962e+001
0	 3.733319999987731e+000	 4.800020000011599e+000	 1.028574153127365e+001
0	 3.733319999987733e+000	 4.866680000008066e+000	 1.027402847035662e+001
0	 3.733319999987731e+000	 4.933340000004131e+000	 1.026263176877438e+001
0	 3.733319999987731e+000	 4.999999999999999e+000	 1.025158790655269e+001
0	 3.733319999987732e+000	 5.066659999995868e+000	 1.024093336371739e+001
0	 3.733319999987732e+000	 5.133319999991934e+000	 1.023070462029422e+001
0	 3.733319999987732e+000	 5.199979999988401e+000	 1.022093815630901e+001
0	 3.733319999987732e+000	 5.266639999985467e+000	 1.021167045178746e+001
0	 3.733319999987731e+000	 5.333299999983333e+000	 1.020293798675537e+001
0	 3.799989999990448e+000	 4.666700000016666e+000	 1.031468550054989e+001
0	 3.799989999990448e+000	 4.733360000014532e+000	 1.030293164954048e+001
0	 3.799989999990448e+000	 4.800020000011600e+000	 1.029134252503033e+001
0	 3.799989999990448e+000	 4.866680000008067e+000	 1.027995997109303e+001
0	 3.799989999990448e+000	 4.933340000004133e+000	 1.026882583180215e+001
0	 3.799989999990447e+000	 4.999999999999999e+000	 1.025798195123130e+001
0	 3.799989999990449e+000	 5.066659999995868e+000	 1.024747017345404e+001
0	 3.799989999990448e+000	 5.133319999991934e+000	 1.023733234254394e+001
0	 3.799989999990448e+000	 5.199979999988400e+000	 1.022761030257454e+001
0	 3.799989999990449e+000	 5.266639999985467e+000	 1.021834589761938e+001
0	 3.799989999990449e+000	 5.333299999983334e+000	 1.020958097175202e+001
0	 3.866659999993464e+000	 4.666700000016665e+000	 1.031862984172253e+001
0	 3.866659999993465e+000	 4.733360000014533e+000	 1.030734172278052e+001
0	 3.866659999993465e+000	 4.800020000011601e+000	 1.029616267646771e+001
0	 3.866659999993464e+000	 4.866680000008066e+000	 1.028513524893642e+001
0	 3.866659999993465e+000	 4.933340000004133e+000	 1.027430198633898e+001
0	 3.866659999993465e+000	 5.000000000000000e+000	 1.026370543482772e+001
0	 3.866659999993465e+000	 5.066659999995866e+000	 1.025338814055497e+001
0	 3.866659999993465e+000	 5.133319999991935e+000	 1.024339264967300e+001
0	 3.866659999993465e+000	 5.199979999988400e+000	 1.023376150833414e+001
0	 3.866659999993465e+000	 5.266639999985468e+000	 1.022453726269067e+001
0	 3.866659999993464e+000	 5.333299999983333e+000	 1.021576245889488e+001
0	 3.933329999996682e+000	 4.666700000016666e+000	 1.032196569147922e+001
0	 3.933329999996682e+000	 4.733360000014532e+000	 1.031108987260636e+001
0	 3.933329999996682e+000	 4.800020000011600e+000	 1.030029500586809e+001
0	 3.933329999996682e+000	 4.866680000008067e+000	 1.028961967752642e+001
0	 3.933329999996682e+000	 4.933340000004133e+000	 1.027910247384342e+001
0	 3.933329999996682e+000	 5.000000000000001e+000	 1.026878198108112e+001
0	 3.933329999996681e+000	 5.066659999995867e+000	 1.025869678550153e+001
0	 3.933329999996682e+000	 5.133319999991934e+000	 1.024888547336668e+001
0	 3.933329999996682e+000	 5.199979999988400e+000	 1.023938663093858e+001
0	 3.933329999996682e+000	 5.266639999985467e+000	 1.023023884447923e+001
0	 3.933329999996682e+000	 5.333299999983334e+000	 1.022148070025063e+001
0	 4.000000000000000e+000	 4.666700000016666e+000	 1.032485490677255e+001
0	 4.000000000000000e+000	 4.733360000014533e+000	 1.031430128040462e+001
0	 4.000000000000000e+000	 4.800020000011600e+000	 1.030383253351373e+001
0	 4.000000000000001e+000	 4.866680000008067e+000	 1.029347863050264e+001
0	 3.999999999999999e+000	 4.933340000004133e+000	 1.028326953577403e+001
0	 3.999999999999999e+000	 5.000000000000000e+000	 1.027323521373064e+001
0	 4.000000000000000e+000	 5.066659999995866e+000	 1.026340562877512e+001
0	 4.000000000000000e+000	 5.133319999991934e+000	 1.025381074531021e+001
0	 4.000000000000001e+000	 5.199979999988400e+000	 1.024448052773860e+001
0	 4.000000000000000e+000	 5.266639999985467e+000	 1.023544494046294e+001
0	 4.000000000000000e+000	 5.333299999983334e+000	 1.022673394788594e+001
0	 3.333299999983334e+000	 5.333299999983335e+000	 1.015348650611253e+001
0	 3.333299999983334e+000	 5.399969999982148e+000	 1.014535086044199e+001
0	 3.333299999983335e+000	 5.466639999981867e+000	 1.013740998529268e+001
0	 3.333299999983334e+000	 5.533309999982384e+000	 1.012970668940542e+001
0	 3.333299999983334e+000	 5.599979999983601e+000	 1.012228378152094e+001
0	 3.333299999983334e+000	 5.666649999985414e+000	 1.011518407038009e+001
0	 3.333299999983334e+000	 5.733319999987733e+000	 1.010845036472365e+001
0	 3.333299999983333e+000	 5.799989999990449e+000	 1.010212547329240e+001
0	 3.333299999983333e+000	 5.866659999993468e+000	 1.009625220482719e+001
0	 3.333299999983334e+000	 5.933329999996684e+000	 1.009087336806881e+001
0	 3.333299999983333e+000	 5.999999999999998e+000	 1.008603177175807e+001
0	 3.399969999982149e+000	 5.333299999983332e+000	 1.016286177163191e+001
0	 3.399969999982150e+000	 5.399969999982149e+000	 1.015473983591060e+001
0	 3.399969999982150e+000	 5.466639999981866e+000	 1.014683373834777e+001
0	 3.399969999982150e+000	 5.533309999982383e+000	 1.013917241525187e+001
0	 3.399969999982150e+000	 5.599979999983599e+000	 1.013178480293131e+001
0	 3.399969999982150e+000	 5.666649999985416e+000	 1.012469983769455e+001
0	 3.399969999982150e+000	 5.733319999987733e+000	 1.011794645585003e+001
0	 3.399969999982150e+000	 5.799989999990447e+000	 1.011155359370621e+001
0	 3.399969999982150e+000	 5.866659999993466e+000	 1.010555018757156e+001
0	 3.399969999982150e+000	 5.933329999996683e+000	 1.009996517375451e+001
0	 3.399969999982150e+000	 6.000000000000001e+000	 1.009482748856352e+001
0	 3.466639999981866e+000	 5.333299999983334e+000	 1.017178602689751e+001
0	 3.466639999981866e+000	 5.399969999982150e+000	 1.016365362907521e+001
0	 3.466639999981867e+000	 5.466639999981867e+000	 1.015575774890124e+001
0	 3.466639999981866e+000	 5.533309999982382e+000	 1.014811523240007e+001
0	 3.466639999981865e+000	 5.599979999983598e+000	 1.014074292559620e+001
0	 3.466639999981866e+000	 5.666649999985417e+000	 1.013365767451412e+001
0	 3.466639999981866e+000	 5.733319999987733e+000	 1.012687632517836e+001
0	 3.466639999981867e+000	 5.799989999990451e+000	 1.012041572361339e+001
0	 3.466639999981866e+000	 5.866659999993467e+000	 1.011429271584375e+001
0	 3.466639999981866e+000	 5.933329999996685e+000	 1.010852414789393e+001
0	 3.466639999981866e+000	 6.000000000000001e+000	 1.010312686578846e+001
0	 3.533309999982382e+000	 5.333299999983335e+000	 1.018025752397599e+001
0	 3.533309999982383e+000	 5.399969999982149e+000	 1.017209622767432e+001
0	 3.533309999982383e+000	 5.466639999981865e+000	 1.016419078620413e+001
0	 3.533309999982382e+000	 5.533309999982382e+000	 1.015654773745436e+001
0	 3.533309999982383e+000	 5.599979999983600e+000	 1.014917361931398e+001
0	 3.533309999982382e+000	 5.666649999985417e+000	 1.014207496967194e+001
0	 3.533309999982383e+000	 5.733319999987733e+000	 1.013525832641723e+001
0	 3.533309999982382e+000	 5.799989999990449e+000	 1.012873022743877e+001
0	 3.533309999982382e+000	 5.866659999993466e+000	 1.012249721062558e+001
0	 3.533309999982382e+000	 5.933329999996683e+000	 1.011656581386662e+001
0	 3.533309999982383e+000	 6.000000000000000e+000	 1.011094257505087e+001
0	 3.599979999983598e+000	 5.333299999983333e+000	 1.018827451493402e+001
0	 3.599979999983598e+000	 5.399969999982149e+000	 1.018007161944642e+001
0	 3.599979999983600e+000	 5.466639999981866e+000	 1.017214161950750e+001
0	 3.599979999983599e+000	 5.533309999982384e+000	 1.016448252701910e+001
0	 3.599979999983598e+000	 5.599979999983600e+000	 1.015709235388303e+001
0	 3.599979999983598e+000	 5.666649999985416e+000	 1.014996911200116e+001
0	 3.599979999983598e+000	 5.733319999987733e+000	 1.014311081327528e+001
0	 3.599979999983598e+000	 5.799989999990449e+000	 1.013651546960725e+001
0	 3.599979999983599e+000	 5.866659999993468e+000	 1.013018109289892e+001
0	 3.599979999983598e+000	 5.933329999996683e+000	 1.012410569505214e+001
0	 3.599979999983599e+000	 6.000000000000001e+000	 1.011828728796872e+001
0	 3.666649999985415e+000	 5.333299999983333e+000	 1.019583525183826e+001
0	 3.666649999985415e+000	 5.399969999982151e+000	 1.018758379212998e+001
0	 3.666649999985415e+000	 5.466639999981864e+000	 1.017961901806239e+001
0	 3.666649999985415e+000	 5.533309999982385e+000	 1.017193219769862e+001
0	 3.666649999985415e+000	 5.599979999983601e+000	 1.016451459910175e+001
0	 3.666649999985415e+000	 5.666649999985416e+000	 1.015735749033491e+001
0	 3.666649999985416e+000	 5.733319999987733e+000	 1.015045213946119e+001
0	 3.666649999985415e+000	 5.799989999990449e+000	 1.014378981454372e+001
0	 3.666649999985415e+000	 5.866659999993467e+000	 1.013736178364562e+001
0	 3.666649999985415e+000	 5.933329999996684e+000	 1.013115931483001e+001
0	 3.666649999985415e+000	 5.999999999999998e+000	 1.012517367616001e+001
0	 3.733319999987731e+000	 5.333299999983333e+000	 1.020293798675537e+001
0	 3.733319999987733e+000	 5.399969999982150e+000	 1.019463673346351e+001
0	 3.733319999987732e+000	 5.466639999981866e+000	 1.018663175111988e+001
0	 3.733319999987732e+000	 5.533309999982384e+000	 1.017890934609728e+001
0	 3.733319999987731e+000	 5.599979999983598e+000	 1.017145582476851e+001
0	 3.733319999987731e+000	 5.666649999985416e+000	 1.016425749350633e+001
0	 3.733319999987731e+000	 5.733319999987733e+000	 1.015730065868358e+001
0	 3.733319999987732e+000	 5.799989999990450e+000	 1.015057162667303e+001
0	 3.733319999987731e+000	 5.866659999993466e+000	 1.014405670384750e+001
0	 3.733319999987732e+000	 5.933329999996684e+000	 1.013774219657980e+001
0	 3.733319999987732e+000	 6.000000000000000e+000	 1.013161441124271e+001
0	 3.799989999990449e+000	 5.333299999983334e+000	 1.020958097175202e+001
0	 3.799989999990449e+000	 5.399969999982148e+000	 1.020123443118550e+001
0	 3.799989999990448e+000	 5.466639999981866e+000	 1.019318858793102e+001
0	 3.799989999990448e+000	 5.533309999982381e+000	 1.018542656881946e+001
0	 3.799989999990449e+000	 5.599979999983600e+000	 1.017793150068170e+001
0	 3.799989999990449e+000	 5.666649999985418e+000	 1.017068651034861e+001
0	 3.799989999990448e+000	 5.733319999987732e+000	 1.016367472465112e+001
0	 3.799989999990448e+000	 5.799989999990449e+000	 1.015687927042009e+001
0	 3.799989999990448e+000	 5.866659999993468e+000	 1.015028327448643e+001
0	 3.799989999990449e+000	 5.933329999996684e+000	 1.014386986368102e+001
0	 3.799989999990448e+000	 6.000000000000000e+000	 1.013762216483479e+001
0	 3.866659999993464e+000	 5.333299999983333e+000	 1.021576245889487e+001
0	 3.866659999993465e+000	 5.399969999982149e+000	 1.020738087303446e+001
0	 3.866659999993465e+000	 5.466639999981866e+000	 1.019929829774687e+001
0	 3.866659999993465e+000	 5.533309999982382e+000	 1.019149646246948e+001
0	 3.866659999993464e+000	 5.599979999983599e+000	 1.018395709663970e+001
0	 3.866659999993463e+000	 5.666649999985416e+000	 1.017666192969488e+001
0	 3.866659999993465e+000	 5.733319999987733e+000	 1.016959269107245e+001
0	 3.866659999993464e+000	 5.799989999990449e+000	 1.016273111020976e+001
0	 3.866659999993466e+000	 5.866659999993469e+000	 1.015605891654424e+001
0	 3.866659999993465e+000	 5.933329999996684e+000	 1.014955783951327e+001
0	 3.866659999993465e+000	 6.000000000000000e+000	 1.014320960855425e+001
0	 3.933329999996682e+000	 5.333299999983334e+000	 1.022148070025063e+001
0	 3.933329999996681e+000	 5.399969999982149e+000	 1.021308004674889e+001
0	 3.933329999996681e+000	 5.466639999981867e+000	 1.020496964981850e+001
0	 3.933329999996681e+000	 5.533309999982383e+000	 1.019713162365174e+001
0	 3.933329999996681e+000	 5.599979999983599e+000	 1.018954808244093e+001
0	 3.933329999996681e+000	 5.666649999985417e+000	 1.018220114037832e+001
0	 3.933329999996682e+000	 5.733319999987733e+000	 1.017507291165623e+001
0	 3.933329999996682e+000	 5.799989999990448e+000	 1.016814551046696e+001
0	 3.933329999996682e+000	 5.866659999993466e+000	 1.016140105100280e+001
0	 3.933329999996682e+000	 5.933329999996683e+000	 1.015482164745608e+001
0	 3.933329999996682e+000	 5.999999999999998e+000	 1.014838941401907e+001
0	 4.000000000000000e+000	 5.333299999983334e+000	 1.022673394788593e+001
0	 4.000000000000000e+000	 5.399969999982148e+000	 1.021833594006729e+001
0	 4.000000000000002e+000	 5.466639999981868e+000	 1.021021141339698e+001
0	 4.000000000000000e+000	 5.533309999982382e+000	 1.020234464897060e+001
0	 4.000000000000001e+000	 5.599979999983600e+000	 1.019471992788374e+001
0	 4.000000000000001e+000	 5.666649999985416e+000	 1.018732153123205e+001
0	 4.000000000000001e+000	 5.733319999987733e+000	 1.018013374011112e+001
0	 4.000000000000000e+000	 5.799989999990448e+000	 1.017314083561655e+001
0	 4.000000000000001e+000	 5.866659999993468e+000	 1.016632709884398e+001
0	 4.000000000000000e+000	 5.933329999996682e+000	 1.015967681088899e+001
0	 4.000000000000000e+000	 6.000000000000001e+000	 1.015317425284724e+001
0	 3.333299999983333e+000	 5.999999999999998e+000	 1.008603177175807e+001
0	 3.333299999983333e+000	 6.066670000003317e+000	 1.008157285237735e+001
0	 3.333299999983333e+000	 6.133340000006531e+000	 1.007730533063713e+001
0	 3.333299999983334e+000	 6.200010000009550e+000	 1.007321694162047e+001
0	 3.333299999983334e+000	 6.266680000012269e+000	 1.006929542041044e+001
0	 3.333299999983334e+000	 6.333350000014584e+000	 1.006552850209010e+001
0	 3.333299999983334e+000	 6.400020000016401e+000	 1.006190392174251e+001
0	 3.333299999983334e+000	 6.466690000017618e+000	 1.005840941445075e+001
0	 3.333299999983334e+000	 6.533360000018134e+000	 1.005503271529789e+001
0	 3.333299999983334e+000	 6.600030000017851e+000	 1.005176155936698e+001
0	 3.333299999983333e+000	 6.666700000016665e+000	 1.004858368174111e+001
0	 3.399969999982150e+000	 6.000000000000001e+000	 1.009482748856352e+001
0	 3.399969999982150e+000	 6.066670000003313e+000	 1.009002354699218e+001
0	 3.399969999982150e+000	 6.133340000006532e+000	 1.008541530789593e+001
0	 3.399969999982150e+000	 6.200010000009552e+000	 1.008099502337606e+001
0	 3.399969999982150e+000	 6.266680000012269e+000	 1.007675494553384e+001
0	 3.399969999982151e+000	 6.333350000014587e+000	 1.007268732647060e+001
0	 3.399969999982150e+000	 6.400020000016400e+000	 1.006878441828759e+001
0	 3.399969999982150e+000	 6.466690000017618e+000	 1.006503847308614e+001
0	 3.399969999982150e+000	 6.533360000018132e+000	 1.006144174296754e+001
0	 3.399969999982150e+000	 6.600030000017850e+000	 1.005798648003310e+001
0	 3.399969999982150e+000	 6.666700000016666e+000	 1.005466493638410e+001
0	 3.466639999981866e+000	 6.000000000000001e+000	 1.010312686578846e+001
0	 3.466639999981866e+000	 6.066670000003317e+000	 1.009802115810073e+001
0	 3.466639999981866e+000	 6.133340000006534e+000	 1.009311352078058e+001
0	 3.466639999981867e+000	 6.200010000009552e+000	 1.008840011091719e+001
0	 3.466639999981866e+000	 6.266680000012266e+000	 1.008387708559979e+001
0	 3.466639999981866e+000	 6.333350000014584e+000	 1.007954060191755e+001
0	 3.466639999981866e+000	 6.400020000016401e+000	 1.007538681695968e+001
0	 3.466639999981866e+000	 6.466690000017618e+000	 1.007141188781537e+001
0	 3.466639999981866e+000	 6.533360000018134e+000	 1.006761197157387e+001
0	 3.466639999981866e+000	 6.600030000017850e+000	 1.006398322532434e+001
0	 3.466639999981867e+000	 6.666700000016669e+000	 1.006052180615602e+001
0	 3.533309999982383e+000	 6.000000000000000e+000	 1.011094257505087e+001
0	 3.533309999982383e+000	 6.066670000003317e+000	 1.010557521913453e+001
0	 3.533309999982382e+000	 6.133340000006533e+000	 1.010040674584573e+001
0	 3.533309999982382e+000	 6.200010000009550e+000	 1.009543660523120e+001
0	 3.533309999982382e+000	 6.266680000012268e+000	 1.009066424733776e+001
0	 3.533309999982381e+000	 6.333350000014585e+000	 1.008608912221217e+001
0	 3.533309999982383e+000	 6.400020000016402e+000	 1.008171067990122e+001
0	 3.533309999982382e+000	 6.466690000017618e+000	 1.007752837045170e+001
0	 3.533309999982383e+000	 6.533360000018136e+000	 1.007354164391044e+001
0	 3.533309999982383e+000	 6.600030000017850e+000	 1.006974995032419e+001
0	 3.533309999982382e+000	 6.666700000016667e+000	 1.006615273973977e+001
0	 3.599979999983599e+000	 6.000000000000001e+000	 1.011828728796872e+001
0	 3.599979999983598e+000	 6.066670000003318e+000	 1.011269526352516e+001
0	 3.599979999983598e+000	 6.133340000006532e+000	 1.010730175964602e+001
0	 3.599979999983598e+000	 6.200010000009550e+000	 1.010210890730536e+001
0	 3.599979999983598e+000	 6.266680000012266e+000	 1.009711883747722e+001
0	 3.599979999983599e+000	 6.333350000014584e+000	 1.009233368113565e+001
0	 3.599979999983598e+000	 6.400020000016400e+000	 1.008775556925470e+001
0	 3.599979999983599e+000	 6.466690000017616e+000	 1.008338663280842e+001
0	 3.599979999983598e+000	 6.533360000018133e+000	 1.007922900277088e+001
0	 3.599979999983599e+000	 6.600030000017851e+000	 1.007528481011613e+001
0	 3.599979999983599e+000	 6.666700000016668e+000	 1.007155618581823e+001
0	 3.666649999985415e+000	 5.999999999999998e+000	 1.012517367616001e+001
0	 3.666649999985415e+000	 6.066670000003318e+000	 1.011939082470414e+001
0	 3.666649999985415e+000	 6.133340000006533e+000	 1.011380533873613e+001
0	 3.666649999985415e+000	 6.200010000009550e+000	 1.010842141812699e+001
0	 3.666649999985415e+000	 6.266680000012267e+000	 1.010324326274769e+001
0	 3.666649999985415e+000	 6.333350000014584e+000	 1.009827507246922e+001
0	 3.666649999985415e+000	 6.400020000016402e+000	 1.009352104716258e+001
0	 3.666649999985416e+000	 6.466690000017619e+000	 1.008898538669876e+001
0	 3.666649999985416e+000	 6.533360000018135e+000	 1.008467229094877e+001
0	 3.666649999985416e+000	 6.600030000017851e+000	 1.008058595978362e+001
0	 3.666649999985415e+000	 6.666700000016666e+000	 1.007673059307430e+001
0	 3.733319999987732e+000	 6.000000000000000e+000	 1.013161441124271e+001
0	 3.733319999987732e+000	 6.066670000003316e+000	 1.012567143610303e+001
0	 3.733319999987732e+000	 6.133340000006533e+000	 1.011992425967071e+001
0	 3.733319999987732e+000	 6.200010000009552e+000	 1.011437853868338e+001
0	 3.733319999987732e+000	 6.266680000012268e+000	 1.010903992987863e+001
0	 3.733319999987732e+000	 6.333350000014586e+000	 1.010391408999408e+001
0	 3.733319999987731e+000	 6.400020000016399e+000	 1.009900667576735e+001
0	 3.733319999987732e+000	 6.466690000017619e+000	 1.009432334393603e+001
0	 3.733319999987732e+000	 6.533360000018135e+000	 1.008986975123776e+001
0	 3.733319999987733e+000	 6.600030000017851e+000	 1.008565155441018e+001
0	 3.733319999987732e+000	 6.666700000016666e+000	 1.008167441019088e+001
0	 3.799989999990448e+000	 6.000000000000000e+000	 1.013762216483479e+001
0	 3.799989999990448e+000	 6.066670000003319e+000	 1.013154663115337e+001
0	 3.799989999990448e+000	 6.133340000006533e+000	 1.012566529900442e+001
0	 3.799989999990448e+000	 6.200010000009551e+000	 1.011998466996184e+001
0	 3.799989999990448e+000	 6.266680000012268e+000	 1.011451124559955e+001
0	 3.799989999990449e+000	 6.333350000014584e+000	 1.010925152749144e+001
0	 3.799989999990448e+000	 6.400020000016402e+000	 1.010421201721144e+001
0	 3.799989999990448e+000	 6.466690000017616e+000	 1.009939921633347e+001
0	 3.799989999990449e+000	 6.533360000018135e+000	 1.009481962643143e+001
0	 3.799989999990449e+000	 6.600030000017850e+000	 1.009047974907926e+001
0	 3.799989999990448e+000	 6.666700000016664e+000	 1.008638608585087e+001
0	 3.866659999993465e+000	 6.000000000000000e+000	 1.014320960855425e+001
0	 3.866659999993464e+000	 6.066670000003315e+000	 1.013702594328673e+001
0	 3.866659999993465e+000	 6.133340000006534e+000	 1.013103523329192e+001
0	 3.866659999993464e+000	 6.200010000009551e+000	 1.012524421294968e+001
0	 3.866659999993465e+000	 6.266680000012268e+000	 1.011965961663992e+001
0	 3.866659999993465e+000	 6.333350000014584e+000	 1.011428817874252e+001
0	 3.866659999993465e+000	 6.400020000016401e+000	 1.010913663363736e+001
0	 3.866659999993465e+000	 6.466690000017617e+000	 1.010421171570435e+001
0	 3.866659999993464e+000	 6.533360000018134e+000	 1.009952015932337e+001
0	 3.866659999993465e+000	 6.600030000017849e+000	 1.009506869887434e+001
0	 3.866659999993464e+000	 6.666700000016666e+000	 1.009086406873715e+001
0	 3.933329999996682e+000	 5.999999999999998e+000	 1.014838941401907e+001
0	 3.933329999996682e+000	 6.066670000003318e+000	 1.014211890593466e+001
0	 3.933329999996682e+000	 6.133340000006533e+000	 1.013604083908785e+001
0	 3.933329999996682e+000	 6.200010000009552e+000	 1.013016156863420e+001
0	 3.933329999996681e+000	 6.266680000012267e+000	 1.012448744972925e+001
0	 3.933329999996682e+000	 6.333350000014585e+000	 1.011902483752853e+001
0	 3.933329999996682e+000	 6.400020000016402e+000	 1.011378008718758e+001
0	 3.933329999996681e+000	 6.466690000017615e+000	 1.010875955386197e+001
0	 3.933329999996682e+000	 6.533360000018136e+000	 1.010396959270724e+001
0	 3.933329999996682e+000	 6.600030000017851e+000	 1.009941655887894e+001
0	 3.933329999996681e+000	 6.666700000016666e+000	 1.009510680753264e+001
0	 4.000000000000000e+000	 6.000000000000001e+000	 1.015317425284724e+001
0	 4.000000000000000e+000	 6.066670000003314e+000	 1.014683505252871e+001
0	 4.000000000000001e+000	 6.133340000006534e+000	 1.014068889294691e+001
0	 4.000000000000000e+000	 6.200010000009551e+000	 1.013474113800273e+001
0	 4.000000000000001e+000	 6.266680000012268e+000	 1.012899715159702e+001
0	 4.000000000000000e+000	 6.333350000014584e+000	 1.012346229763067e+001
0	 3.999999999999999e+000	 6.400020000016398e+000	 1.011814194000457e+001
0	 4.000000000000000e+000	 6.466690000017617e+000	 1.011304144261959e+001
0	 4.000000000000000e+000	 6.533360000018133e+000	 1.010816616937661e+001
0	 4.000000000000000e+000	 6.600030000017848e+000	 1.010352148417653e+001
0	 4.000000000000000e+000	 6.666700000016665e+000	 1.009911275092023e+001
0	 3.333299999983333e+000	 6.666700000016665e+000	 1.004858368174112e+001
0	 3.333299999983334e+000	 6.733360000014534e+000	 1.004551225480932e+001
0	 3.333299999983334e+000	 6.800020000011601e+000	 1.004257384973900e+001
0	 3.333299999983333e+000	 6.866680000008064e+000	 1.003977771060730e+001
0	 3.333299999983334e+000	 6.933340000004133e+000	 1.003713308149140e+001
0	 3.333299999983333e+000	 6.999999999999999e+000	 1.003464920646844e+001
0	 3.333299999983335e+000	 7.066659999995867e+000	 1.003233532961556e+001
0	 3.333299999983334e+000	 7.133319999991936e+000	 1.003020069500990e+001
0	 3.333299999983334e+000	 7.199979999988401e+000	 1.002825454672860e+001
0	 3.333299999983334e+000	 7.266639999985467e+000	 1.002650612884879e+001
0	 3.333299999983335e+000	 7.333299999983336e+000	 1.002496468544759e+001
0	 3.399969999982150e+000	 6.666700000016666e+000	 1.005466493638410e+001
0	 3.399969999982150e+000	 6.733360000014531e+000	 1.005146967338405e+001
0	 3.399969999982150e+000	 6.800020000011599e+000	 1.004840250845806e+001
0	 3.399969999982150e+000	 6.866680000008066e+000	 1.004547104349659e+001
0	 3.399969999982150e+000	 6.933340000004133e+000	 1.004268288039012e+001
0	 3.399969999982150e+000	 6.999999999999999e+000	 1.004004562102909e+001
0	 3.399969999982150e+000	 7.066659999995865e+000	 1.003756686730396e+001
0	 3.399969999982150e+000	 7.133319999991934e+000	 1.003525422110519e+001
0	 3.399969999982150e+000	 7.199979999988400e+000	 1.003311528432320e+001
0	 3.399969999982150e+000	 7.266639999985467e+000	 1.003115765884845e+001
0	 3.399969999982149e+000	 7.333299999983332e+000	 1.002938894657135e+001
0	 3.466639999981867e+000	 6.666700000016669e+000	 1.006052180615602e+001
0	 3.466639999981867e+000	 6.733360000014534e+000	 1.005720328074521e+001
0	 3.466639999981866e+000	 6.800020000011599e+000	 1.005400884555140e+001
0	 3.466639999981866e+000	 6.866680000008068e+000	 1.005094462282907e+001
0	 3.466639999981866e+000	 6.933340000004134e+000	 1.004801673483271e+001
0	 3.466639999981866e+000	 6.999999999999998e+000	 1.004523130381677e+001
0	 3.466639999981866e+000	 7.066659999995866e+000	 1.004259445203572e+001
0	 3.466639999981866e+000	 7.133319999991935e+000	 1.004011230174402e+001
0	 3.466639999981866e+000	 7.199979999988400e+000	 1.003779097519613e+001
0	 3.466639999981866e+000	 7.266639999985467e+000	 1.003563659464649e+001
0	 3.466639999981866e+000	 7.333299999983332e+000	 1.003365528234957e+001
0	 3.533309999982382e+000	 6.666700000016667e+000	 1.006615273973977e+001
0	 3.533309999982382e+000	 6.733360000014534e+000	 1.006271195687869e+001
0	 3.533309999982382e+000	 6.800020000011599e+000	 1.005939206655087e+001
0	 3.533309999982383e+000	 6.866680000008067e+000	 1.005619787392549e+001
0	 3.533309999982382e+000	 6.933340000004132e+000	 1.005313418417173e+001
0	 3.533309999982383e+000	 7.000000000000001e+000	 1.005020580245879e+001
0	 3.533309999982382e+000	 7.066659999995866e+000	 1.004741753395583e+001
0	 3.533309999982383e+000	 7.133319999991936e+000	 1.004477418383205e+001
0	 3.533309999982382e+000	 7.199979999988400e+000	 1.004228055725658e+001
0	 3.533309999982383e+000	 7.266639999985467e+000	 1.003994145939863e+001
0	 3.533309999982382e+000	 7.333299999983335e+000	 1.003776169542735e+001
0	 3.599979999983599e+000	 6.666700000016668e+000	 1.007155618581823e+001
0	 3.599979999983599e+000	 6.733360000014532e+000	 1.006799458177042e+001
0	 3.599979999983599e+000	 6.800020000011598e+000	 1.006455137698834e+001
0	 3.599979999983598e+000	 6.866680000008066e+000	 1.006123022210658e+001
0	 3.599979999983599e+000	 6.933340000004134e+000	 1.005803476775976e+001
0	 3.599979999983598e+000	 6.999999999999999e+000	 1.005496866458246e+001
0	 3.599979999983598e+000	 7.066659999995865e+000	 1.005203556320930e+001
0	 3.599979999983599e+000	 7.133319999991934e+000	 1.004923911427487e+001
0	 3.599979999983598e+000	 7.199979999988399e+000	 1.004658296841376e+001
0	 3.599979999983599e+000	 7.266639999985468e+000	 1.004407077626054e+001
0	 3.599979999983598e+000	 7.333299999983334e+000	 1.004170618844982e+001
0	 3.666649999985415e+000	 6.666700000016666e+000	 1.007673059307430e+001
0	 3.666649999985415e+000	 6.733360000014532e+000	 1.007305003540630e+001
0	 3.666649999985415e+000	 6.800020000011601e+000	 1.006948598239566e+001
0	 3.666649999985415e+000	 6.866680000008066e+000	 1.006604109269310e+001
0	 3.666649999985414e+000	 6.933340000004129e+000	 1.006271802494933e+001
0	 3.666649999985415e+000	 6.999999999999999e+000	 1.005951943781511e+001
0	 3.666649999985415e+000	 7.066659999995867e+000	 1.005644798994115e+001
0	 3.666649999985415e+000	 7.133319999991936e+000	 1.005350633997815e+001
0	 3.666649999985416e+000	 7.199979999988400e+000	 1.005069714657683e+001
0	 3.666649999985415e+000	 7.266639999985468e+000	 1.004802306838792e+001
0	 3.666649999985415e+000	 7.333299999983333e+000	 1.004548676406209e+001
0	 3.733319999987732e+000	 6.666700000016666e+000	 1.008167441019088e+001
0	 3.733319999987731e+000	 6.733360000014532e+000	 1.007787719777224e+001
0	 3.733319999987731e+000	 6.800020000011599e+000	 1.007419508830469e+001
0	 3.733319999987732e+000	 6.866680000008067e+000	 1.007062991100577e+001
0	 3.733319999987732e+000	 6.933340000004134e+000	 1.006718349509304e+001
0	 3.733319999987732e+000	 6.999999999999999e+000	 1.006385766978406e+001
0	 3.733319999987732e+000	 7.066659999995867e+000	 1.006065426429636e+001
0	 3.733319999987732e+000	 7.133319999991934e+000	 1.005757510784749e+001
0	 3.733319999987732e+000	 7.199979999988401e+000	 1.005462202965500e+001
0	 3.733319999987732e+000	 7.266639999985467e+000	 1.005179685893640e+001
0	 3.733319999987732e+000	 7.333299999983333e+000	 1.004910142490924e+001
0	 3.799989999990448e+000	 6.666700000016664e+000	 1.008638608585087e+001
0	 3.799989999990449e+000	 6.733360000014533e+000	 1.008247494885416e+001
0	 3.799989999990449e+000	 6.800020000011601e+000	 1.007867790024729e+001
0	 3.799989999990448e+000	 6.866680000008067e+000	 1.007499610236537e+001
0	 3.799989999990448e+000	 6.933340000004132e+000	 1.007143071754346e+001
0	 3.799989999990448e+000	 6.999999999999999e+000	 1.006798290811663e+001
0	 3.799989999990448e+000	 7.066659999995867e+000	 1.006465383641998e+001
0	 3.799989999990448e+000	 7.133319999991934e+000	 1.006144466478856e+001
0	 3.799989999990449e+000	 7.199979999988400e+000	 1.005835655555745e+001
0	 3.799989999990448e+000	 7.266639999985467e+000	 1.005539067106171e+001
0	 3.799989999990449e+000	 7.333299999983335e+000	 1.005254817363641e+001
0	 3.866659999993464e+000	 6.666700000016666e+000	 1.009086406873715e+001
0	 3.866659999993465e+000	 6.733360000014533e+000	 1.008684216863797e+001
0	 3.866659999993465e+000	 6.800020000011601e+000	 1.008293362375535e+001
0	 3.866659999993465e+000	 6.866680000008067e+000	 1.007913909209264e+001
0	 3.866659999993465e+000	 6.933340000004135e+000	 1.007545923165314e+001
0	 3.866659999993464e+000	 6.999999999999999e+000	 1.007189470044014e+001
0	 3.866659999993465e+000	 7.066659999995868e+000	 1.006844615645699e+001
0	 3.866659999993465e+000	 7.133319999991935e+000	 1.006511425770697e+001
0	 3.866659999993465e+000	 7.199979999988401e+000	 1.006189966219338e+001
0	 3.866659999993466e+000	 7.266639999985467e+000	 1.005880302791952e+001
0	 3.866659999993464e+000	 7.333299999983333e+000	 1.005582501288868e+001
0	 3.933329999996681e+000	 6.666700000016666e+000	 1.009510680753264e+001
0	 3.933329999996682e+000	 6.733360000014534e+000	 1.009097773710957e+001
0	 3.933329999996682e+000	 6.800020000011600e+000	 1.008696146436071e+001
0	 3.933329999996682e+000	 6.866680000008067e+000	 1.008305830550832e+001
0	 3.933329999996682e+000	 6.933340000004133e+000	 1.007926857677465e+001
0	 3.933329999996681e+000	 6.999999999999999e+000	 1.007559259438193e+001
0	 3.933329999996681e+000	 7.066659999995866e+000	 1.007203067455241e+001
0	 3.933329999996681e+000	 7.133319999991934e+000	 1.006858313350835e+001
0	 3.933329999996682e+000	 7.199979999988401e+000	 1.006525028747196e+001
0	 3.933329999996682e+000	 7.266639999985467e+000	 1.006203245266551e+001
0	 3.933329999996682e+000	 7.333299999983334e+000	 1.005892994531119e+001
0	 4.000000000000000e+000	 6.666700000016665e+000	 1.009911275092023e+001
0	 4.000000000000001e+000	 6.733360000014532e+000	 1.009488053425491e+001
0	 4.000000000000000e+000	 6.800020000011598e+000	 1.009076062759526e+001
0	 4.000000000000000e+000	 6.866680000008068e+000	 1.008675316793318e+001
0	 4.000000000000001e+000	 6.933340000004132e+000	 1.008285829226056e+001
0	 4.000000000000000e+000	 6.999999999999998e+000	 1.007907613756930e+001
0	 4.000000000000000e+000	 7.066659999995868e+000	 1.007540684085127e+001
0	 4.000000000000000e+000	 7.133319999991934e+000	 1.007185053909835e+001
0	 4.000000000000001e+000	 7.199979999988402e+000	 1.006840736930242e+001
0	 4.000000000000001e+000	 7.266639999985467e+000	 1.006507746845536e+001
0	 4.000000000000001e+000	 7.333299999983335e+000	 1.006186097354904e+001
0	 3.333299999983335e+000	 7.333299999983336e+000	 1.002496468544759e+001
0	 3.333299999983333e+000	 7.399969999982149e+000	 1.002355290458481e+001
0	 3.333299999983334e+000	 7.466639999981866e+000	 1.002218791468837e+001
0	 3.333299999983334e+000	 7.533309999982383e+000	 1.002086997462934e+001
0	 3.333299999983334e+000	 7.599979999983601e+000	 1.001959934327879e+001
0	 3.333299999983334e+000	 7.666649999985416e+000	 1.001837627950783e+001
0	 3.333299999983334e+000	 7.733319999987733e+000	 1.001720104218748e+001
0	 3.333299999983334e+000	 7.799989999990448e+000	 1.001607389018885e+001
0	 3.333299999983333e+000	 7.866659999993466e+000	 1.001499508238302e+001
0	 3.333299999983334e+000	 7.933329999996683e+000	 1.001396487764105e+001
0	 3.333299999983334e+000	 8.000000000000000e+000	 1.001298353483402e+001
0	 3.399969999982149e+000	 7.333299999983332e+000	 1.002938894657134e+001
0	 3.399969999982150e+000	 7.399969999982149e+000	 1.002774559883838e+001
0	 3.399969999982150e+000	 7.466639999981865e+000	 1.002615969598380e+001
0	 3.399969999982150e+000	 7.533309999982385e+000	 1.002463153102982e+001
0	 3.399969999982150e+000	 7.599979999983598e+000	 1.002316139699861e+001
0	 3.399969999982150e+000	 7.666649999985416e+000	 1.002174958691233e+001
0	 3.399969999982150e+000	 7.733319999987732e+000	 1.002039639379318e+001
0	 3.399969999982150e+000	 7.799989999990450e+000	 1.001910211066335e+001
0	 3.399969999982150e+000	 7.866659999993466e+000	 1.001786703054501e+001
0	 3.399969999982150e+000	 7.933329999996683e+000	 1.001669144646034e+001
0	 3.399969999982150e+000	 8.000000000000000e+000	 1.001557565143154e+001
0	 3.466639999981866e+000	 7.333299999983332e+000	 1.003365528234957e+001
0	 3.466639999981866e+000	 7.399969999982150e+000	 1.003179547918323e+001
0	 3.466639999981867e+000	 7.466639999981868e+000	 1.003000232786111e+001
0	 3.466639999981866e+000	 7.533309999982382e+000	 1.002827615157426e+001
0	 3.466639999981866e+000	 7.599979999983601e+000	 1.002661727351372e+001
0	 3.466639999981866e+000	 7.666649999985418e+000	 1.002502601687054e+001
0	 3.466639999981866e+000	 7.733319999987734e+000	 1.002350270483575e+001
0	 3.466639999981867e+000	 7.799989999990450e+000	 1.002204766060040e+001
0	 3.466639999981866e+000	 7.866659999993466e+000	 1.002066120735555e+001
0	 3.466639999981866e+000	 7.933329999996682e+000	 1.001934366829224e+001
0	 3.466639999981866e+000	 8.000000000000000e+000	 1.001809536660152e+001
0	 3.533309999982382e+000	 7.333299999983335e+000	 1.003776169542735e+001
0	 3.533309999982383e+000	 7.399969999982151e+000	 1.003570002040210e+001
0	 3.533309999982383e+000	 7.466639999981866e+000	 1.003371284846611e+001
0	 3.533309999982382e+000	 7.533309999982385e+000	 1.003180052899705e+001
0	 3.533309999982383e+000	 7.599979999983599e+000	 1.002996341137258e+001
0	 3.533309999982382e+000	 7.666649999985417e+000	 1.002820184497037e+001
0	 3.533309999982382e+000	 7.733319999987733e+000	 1.002651617916810e+001
0	 3.533309999982382e+000	 7.799989999990448e+000	 1.002490676334344e+001
0	 3.533309999982382e+000	 7.866659999993467e+000	 1.002337394687403e+001
0	 3.533309999982383e+000	 7.933329999996684e+000	 1.002191807913756e+001
0	 3.533309999982383e+000	 8.000000000000000e+000	 1.002053950951170e+001
0	 3.599979999983598e+000	 7.333299999983334e+000	 1.004170618844982e+001
0	 3.599979999983599e+000	 7.399969999982151e+000	 1.003945669727771e+001
0	 3.599979999983599e+000	 7.466639999981866e+000	 1.003728829594460e+001
0	 3.599979999983599e+000	 7.533309999982382e+000	 1.003520135603256e+001
0	 3.599979999983598e+000	 7.599979999983598e+000	 1.003319624912361e+001
0	 3.599979999983598e+000	 7.666649999985415e+000	 1.003127334679982e+001
0	 3.599979999983599e+000	 7.733319999987733e+000	 1.002943302064322e+001
0	 3.599979999983598e+000	 7.799989999990448e+000	 1.002767564223588e+001
0	 3.599979999983598e+000	 7.866659999993466e+000	 1.002600158315982e+001
0	 3.599979999983598e+000	 7.933329999996682e+000	 1.002441121499712e+001
0	 3.599979999983599e+000	 8.000000000000002e+000	 1.002290490932982e+001
0	 3.666649999985415e+000	 7.333299999983333e+000	 1.004548676406209e+001
0	 3.666649999985415e+000	 7.399969999982151e+000	 1.004306298459278e+001
0	 3.666649999985415e+000	 7.466639999981868e+000	 1.004072570844241e+001
0	 3.666649999985416e+000	 7.533309999982385e+000	 1.003847532541518e+001
0	 3.666649999985415e+000	 7.599979999983599e+000	 1.003631222531525e+001
0	 3.666649999985415e+000	 7.666649999985417e+000	 1.003423679794682e+001
0	 3.666649999985415e+000	 7.733319999987732e+000	 1.003224943311406e+001
0	 3.666649999985415e+000	 7.799989999990449e+000	 1.003035052062118e+001
0	 3.666649999985415e+000	 7.866659999993464e+000	 1.002854045027235e+001
0	 3.666649999985415e+000	 7.933329999996682e+000	 1.002681961187177e+001
0	 3.666649999985414e+000	 7.999999999999998e+000	 1.002518839522361e+001
0	 3.733319999987732e+000	 7.333299999983333e+000	 1.004910142490924e+001
0	 3.733319999987732e+000	 7.399969999982150e+000	 1.004651635713005e+001
0	 3.733319999987732e+000	 7.466639999981866e+000	 1.004402212410536e+001
0	 3.733319999987732e+000	 7.533309999982383e+000	 1.004161912987930e+001
0	 3.733319999987730e+000	 7.599979999983598e+000	 1.003930777849593e+001
0	 3.733319999987732e+000	 7.666649999985416e+000	 1.003708847399933e+001
0	 3.733319999987732e+000	 7.733319999987733e+000	 1.003496162043358e+001
0	 3.733319999987732e+000	 7.799989999990451e+000	 1.003292762184278e+001
0	 3.733319999987732e+000	 7.866659999993465e+000	 1.003098688227099e+001
0	 3.733319999987732e+000	 7.933329999996683e+000	 1.002913980576232e+001
0	 3.733319999987732e+000	 8.000000000000000e+000	 1.002738679636083e+001
0	 3.799989999990449e+000	 7.333299999983335e+000	 1.005254817363640e+001
0	 3.799989999990449e+000	 7.399969999982151e+000	 1.004981428967222e+001
0	 3.799989999990448e+000	 7.466639999981865e+000	 1.004717458107927e+001
0	 3.799989999990448e+000	 7.533309999982384e+000	 1.004462946215931e+001
0	 3.799989999990448e+000	 7.599979999983598e+000	 1.004217934721408e+001
0	 3.799989999990449e+000	 7.666649999985417e+000	 1.003982465054532e+001
0	 3.799989999990449e+000	 7.733319999987733e+000	 1.003756578645474e+001
0	 3.799989999990448e+000	 7.799989999990450e+000	 1.003540316924410e+001
0	 3.799989999990448e+000	 7.866659999993466e+000	 1.003333721321514e+001
0	 3.799989999990448e+000	 7.933329999996683e+000	 1.003136833266959e+001
0	 3.799989999990448e+000	 8.000000000000000e+000	 1.002949694190921e+001
0	 3.866659999993464e+000	 7.333299999983333e+000	 1.005582501288868e+001
0	 3.866659999993466e+000	 7.399969999982151e+000	 1.005295425700201e+001
0	 3.866659999993464e+000	 7.466639999981866e+000	 1.005018011750994e+001
0	 3.866659999993465e+000	 7.533309999982382e+000	 1.004750301498961e+001
0	 3.866659999993465e+000	 7.599979999983599e+000	 1.004492337001815e+001
0	 3.866659999993464e+000	 7.666649999985417e+000	 1.004244160317273e+001
0	 3.866659999993465e+000	 7.733319999987733e+000	 1.004005813503050e+001
0	 3.866659999993463e+000	 7.799989999990447e+000	 1.003777338616861e+001
0	 3.866659999993465e+000	 7.866659999993468e+000	 1.003558777716419e+001
0	 3.866659999993465e+000	 7.933329999996684e+000	 1.003350172859443e+001
0	 3.866659999993465e+000	 8.000000000000000e+000	 1.003151566103645e+001
0	 3.933329999996682e+000	 7.333299999983334e+000	 1.005892994531119e+001
0	 3.933329999996682e+000	 7.399969999982151e+000	 1.005593373390219e+001
0	 3.933329999996681e+000	 7.466639999981865e+000	 1.005303577154320e+001
0	 3.933329999996681e+000	 7.533309999982382e+000	 1.005023648110457e+001
0	 3.933329999996681e+000	 7.599979999983600e+000	 1.004753628545658e+001
0	 3.933329999996682e+000	 7.666649999985415e+000	 1.004493560746957e+001
0	 3.933329999996681e+000	 7.733319999987733e+000	 1.004243487001384e+001
0	 3.933329999996682e+000	 7.799989999990451e+000	 1.004003449595974e+001
0	 3.933329999996682e+000	 7.866659999993467e+000	 1.003773490817755e+001
0	 3.933329999996682e+000	 7.933329999996685e+000	 1.003553652953765e+001
0	 3.933329999996681e+000	 7.999999999999999e+000	 1.003343978291032e+001
0	 4.000000000000001e+000	 7.333299999983335e+000	 1.006186097354904e+001
0	 4.000000000000001e+000	 7.399969999982151e+000	 1.005875019515546e+001
0	 4.000000000000000e+000	 7.466639999981866e+000	 1.005573858132490e+001
0	 4.000000000000000e+000	 7.533309999982384e+000	 1.005282655323859e+001
0	 4.000000000000000e+000	 7.599979999983599e+000	 1.005001453207779e+001
0	 4.000000000000001e+000	 7.666649999985416e+000	 1.004730293902373e+001
0	 4.000000000000000e+000	 7.733319999987733e+000	 1.004469219525769e+001
0	 4.000000000000000e+000	 7.799989999990448e+000	 1.004218272196090e+001
0	 4.000000000000000e+000	 7.866659999993465e+000	 1.003977494031462e+001
0	 4.000000000000000e+000	 7.933329999996684e+000	 1.003746927150009e+001
0	 4.000000000000000e+000	 7.999999999999999e+000	 1.003526613669856e+001
0	 3.333299999983334e+000	 8.000000000000000e+000	 1.001298353483402e+001
0	 3.333299999983334e+000	 8.066670000003317e+000	 1.001204723827511e+001
0	 3.333299999983334e+000	 8.133340000006532e+000	 1.001115304690851e+001
0	 3.333299999983334e+000	 8.200010000009550e+000	 1.001030253155182e+001
0	 3.333299999983334e+000	 8.266680000012267e+000	 1.000949726302266e+001
0	 3.333299999983334e+000	 8.333350000014585e+000	 1.000873881213860e+001
0	 3.333299999983334e+000	 8.400020000016399e+000	 1.000802874971731e+001
0	 3.333299999983334e+000	 8.466690000017618e+000	 1.000736864657636e+001
0	 3.333299999983333e+000	 8.533360000018133e+000	 1.000676007353339e+001
0	 3.333299999983335e+000	 8.600030000017851e+000	 1.000620460140600e+001
0	 3.333299999983334e+000	 8.666700000016668e+000	 1.000570380101180e+001
0	 3.399969999982150e+000	 8.000000000000000e+000	 1.001557565143154e+001
0	 3.399969999982150e+000	 8.066670000003317e+000	 1.001451016352092e+001
0	 3.399969999982149e+000	 8.133340000006530e+000	 1.001348637409065e+001
0	 3.399969999982150e+000	 8.200010000009549e+000	 1.001250588611272e+001
0	 3.399969999982150e+000	 8.266680000012268e+000	 1.001157030255907e+001
0	 3.399969999982151e+000	 8.333350000014583e+000	 1.001068122640173e+001
0	 3.399969999982150e+000	 8.400020000016401e+000	 1.000984026061260e+001
0	 3.399969999982150e+000	 8.466690000017614e+000	 1.000904900816374e+001
0	 3.399969999982150e+000	 8.533360000018133e+000	 1.000830907202708e+001
0	 3.399969999982150e+000	 8.600030000017851e+000	 1.000762205517458e+001
0	 3.399969999982149e+000	 8.666700000016666e+000	 1.000698956057827e+001
0	 3.466639999981866e+000	 8.000000000000000e+000	 1.001809536660152e+001
0	 3.466639999981865e+000	 8.066670000003317e+000	 1.001690224351120e+001
0	 3.466639999981866e+000	 8.133340000006532e+000	 1.001575108703823e+001
0	 3.466639999981867e+000	 8.200010000009552e+000	 1.001464349055741e+001
0	 3.466639999981866e+000	 8.266680000012265e+000	 1.001358104744346e+001
0	 3.466639999981866e+000	 8.333350000014583e+000	 1.001256535107120e+001
0	 3.466639999981866e+000	 8.400020000016401e+000	 1.001159799481537e+001
0	 3.466639999981866e+000	 8.466690000017620e+000	 1.001068057205073e+001
0	 3.466639999981867e+000	 8.533360000018135e+000	 1.000981467615211e+001
0	 3.466639999981866e+000	 8.600030000017849e+000	 1.000900190049421e+001
0	 3.466639999981866e+000	 8.666700000016668e+000	 1.000824383845186e+001
0	 3.533309999982383e+000	 8.000000000000000e+000	 1.002053950951170e+001
0	 3.533309999982383e+000	 8.066670000003315e+000	 1.001922061815339e+001
0	 3.533309999982382e+000	 8.133340000006530e+000	 1.001794458031844e+001
0	 3.533309999982382e+000	 8.200010000009549e+000	 1.001671293803285e+001
0	 3.533309999982382e+000	 8.266680000012267e+000	 1.001552723332261e+001
0	 3.533309999982382e+000	 8.333350000014583e+000	 1.001438900821373e+001
0	 3.533309999982383e+000	 8.400020000016401e+000	 1.001329980473219e+001
0	 3.533309999982382e+000	 8.466690000017616e+000	 1.001226116490402e+001
0	 3.533309999982383e+000	 8.533360000018137e+000	 1.001127463075519e+001
0	 3.533309999982382e+000	 8.600030000017851e+000	 1.001034174431171e+001
0	 3.533309999982382e+000	 8.666700000016668e+000	 1.000946404759960e+001
0	 3.599979999983599e+000	 8.000000000000002e+000	 1.002290490932982e+001
0	 3.599979999983598e+000	 8.066670000003315e+000	 1.002146242735489e+001
0	 3.599979999983598e+000	 8.133340000006532e+000	 1.002006424849840e+001
0	 3.599979999983599e+000	 8.200010000009552e+000	 1.001871182168597e+001
0	 3.599979999983598e+000	 8.266680000012265e+000	 1.001740659584327e+001
0	 3.599979999983599e+000	 8.333350000014587e+000	 1.001615001989597e+001
0	 3.599979999983598e+000	 8.400020000016399e+000	 1.001494354276973e+001
0	 3.599979999983598e+000	 8.466690000017612e+000	 1.001378861339019e+001
0	 3.599979999983598e+000	 8.533360000018135e+000	 1.001268668068303e+001
0	 3.599979999983599e+000	 8.600030000017851e+000	 1.001163919357391e+001
0	 3.599979999983599e+000	 8.666700000016666e+000	 1.001064760098850e+001
0	 3.666649999985414e+000	 7.999999999999998e+000	 1.002518839522361e+001
0	 3.666649999985415e+000	 8.066670000003315e+000	 1.002362481102315e+001
0	 3.666649999985415e+000	 8.133340000006536e+000	 1.002210748614524e+001
0	 3.666649999985416e+000	 8.200010000009552e+000	 1.002063773466369e+001
0	 3.666649999985415e+000	 8.266680000012270e+000	 1.001921687065223e+001
0	 3.666649999985415e+000	 8.333350000014583e+000	 1.001784620818461e+001
0	 3.666649999985416e+000	 8.400020000016403e+000	 1.001652706133459e+001
0	 3.666649999985416e+000	 8.466690000017618e+000	 1.001526074417591e+001
0	 3.666649999985415e+000	 8.533360000018135e+000	 1.001404857078234e+001
0	 3.666649999985416e+000	 8.600030000017851e+000	 1.001289185522764e+001
0	 3.666649999985415e+000	 8.666700000016665e+000	 1.001179191158555e+001
0	 3.733319999987732e+000	 8.000000000000000e+000	 1.002738679636083e+001
0	 3.733319999987732e+000	 8.066670000003317e+000	 1.002570490906553e+001
0	 3.733319999987732e+000	 8.133340000006532e+000	 1.002407168782614e+001
0	 3.733319999987732e+000	 8.200010000009552e+000	 1.002248827011296e+001
0	 3.733319999987732e+000	 8.266680000012267e+000	 1.002095579339626e+001
0	 3.733319999987732e+000	 8.333350000014585e+000	 1.001947539514632e+001
0	 3.733319999987732e+000	 8.400020000016401e+000	 1.001804821283341e+001
0	 3.733319999987732e+000	 8.466690000017616e+000	 1.001667538392784e+001
0	 3.733319999987732e+000	 8.533360000018131e+000	 1.001535804589984e+001
0	 3.733319999987732e+000	 8.600030000017851e+000	 1.001409733621974e+001
0	 3.733319999987732e+000	 8.666700000016668e+000	 1.001289439235779e+001
0	 3.799989999990448e+000	 8.000000000000000e+000	 1.002949694190921e+001
0	 3.799989999990449e+000	 8.066670000003317e+000	 1.002769986138948e+001
0	 3.799989999990449e+000	 8.133340000006534e+000	 1.002595424810822e+001
0	 3.799989999990448e+000	 8.200010000009552e+000	 1.002426102118070e+001
0	 3.799989999990448e+000	 8.266680000012267e+000	 1.002262109972214e+001
0	 3.799989999990449e+000	 8.333350000014585e+000	 1.002103540284778e+001
0	 3.799989999990448e+000	 8.400020000016401e+000	 1.001950484967285e+001
0	 3.799989999990448e+000	 8.466690000017616e+000	 1.001803035931259e+001
0	 3.799989999990449e+000	 8.533360000018135e+000	 1.001661285088223e+001
0	 3.799989999990448e+000	 8.600030000017849e+000	 1.001525324349703e+001
0	 3.799989999990448e+000	 8.666700000016668e+000	 1.001395245627222e+001
0	 3.866659999993465e+000	 8.000000000000000e+000	 1.003151566103645e+001
0	 3.866659999993464e+000	 8.066670000003315e+000	 1.002960680790237e+001
0	 3.866659999993464e+000	 8.133340000006532e+000	 1.002775256155864e+001
0	 3.866659999993464e+000	 8.200010000009550e+000	 1.002595358101386e+001
0	 3.866659999993465e+000	 8.266680000012268e+000	 1.002421052527665e+001
0	 3.866659999993465e+000	 8.333350000014585e+000	 1.002252405335566e+001
0	 3.866659999993466e+000	 8.400020000016401e+000	 1.002089482425951e+001
0	 3.866659999993464e+000	 8.466690000017618e+000	 1.001932349699681e+001
0	 3.866659999993465e+000	 8.533360000018133e+000	 1.001781073057622e+001
0	 3.866659999993464e+000	 8.600030000017849e+000	 1.001635718400635e+001
0	 3.866659999993465e+000	 8.666700000016666e+000	 1.001496351629583e+001
0	 3.933329999996681e+000	 7.999999999999999e+000	 1.003343978291032e+001
0	 3.933329999996682e+000	 8.066670000003317e+000	 1.003142288851168e+001
0	 3.933329999996681e+000	 8.133340000006532e+000	 1.002946402274454e+001
0	 3.933329999996682e+000	 8.200010000009550e+000	 1.002756354275936e+001
0	 3.933329999996682e+000	 8.266680000012268e+000	 1.002572180570657e+001
0	 3.933329999996682e+000	 8.333350000014585e+000	 1.002393916873665e+001
0	 3.933329999996681e+000	 8.400020000016399e+000	 1.002221598900003e+001
0	 3.933329999996682e+000	 8.466690000017616e+000	 1.002055262364718e+001
0	 3.933329999996681e+000	 8.533360000018133e+000	 1.001894942982853e+001
0	 3.933329999996681e+000	 8.600030000017847e+000	 1.001740676469454e+001
0	 3.933329999996682e+000	 8.666700000016666e+000	 1.001592498539569e+001
0	 4.000000000000000e+000	 7.999999999999999e+000	 1.003526613669856e+001
0	 4.000000000000001e+000	 8.066670000003319e+000	 1.003314524312478e+001
0	 4.000000000000001e+000	 8.133340000006536e+000	 1.003108602623307e+001
0	 4.000000000000002e+000	 8.200010000009552e+000	 1.002908849956411e+001
0	 4.000000000000000e+000	 8.266680000012267e+000	 1.002715267665867e+001
0	 4.000000000000000e+000	 8.333350000014585e+000	 1.002527857105742e+001
0	 4.000000000000000e+000	 8.400020000016399e+000	 1.002346619630106e+001
0	 4.000000000000000e+000	 8.466690000017618e+000	 1.002171556593029e+001
0	 4.000000000000001e+000	 8.533360000018135e+000	 1.002002669348585e+001
0	 4.000000000000000e+000	 8.600030000017847e+000	 1.001839959250844e+001
0	 4.000000000000000e+000	 8.666700000016666e+000	 1.001683427653876e+001
0	 3.333299999983334e+000	 8.666700000016668e+000	 1.000570380101180e+001
0	 3.333299999983334e+000	 8.733360002791903e+000	 1.000523903897098e+001
0	 3.333299999983334e+000	 8.800020022230553e+000	 1.000479009996009e+001
0	 3.333299999983334e+000	 8.866680074997039e+000	 1.000435639466041e+001
0	 3.333299999983334e+000	 8.933340177755779e+000	 1.000393733370837e+001
0	 3.333299999983333e+000	 9.000000347171181e+000	 1.000353232769542e+001
0	 3.333299999983334e+000	 9.066660599907667e+000	 1.000314078716810e+001
0	 3.333299999983335e+000	 9.133320952629656e+000	 1.000276212262805e+001
0	 3.333299999983333e+000	 9.199981422001558e+000	 1.000239574453197e+001
0	 3.333299999983334e+000	 9.266642024687796e+000	 1.000204106329155e+001
0	 3.333299999983334e+000	 9.333302777352785e+000	 1.000169748927365e+001
0	 3.399969999982149e+000	 8.666700000016666e+000	 1.000698956057827e+001
0	 3.399969999982150e+000	 8.733360002791905e+000	 1.000639754547248e+001
0	 3.399969999982150e+000	 8.800020022230555e+000	 1.000582998708373e+001
0	 3.399969999982150e+000	 8.866680074997044e+000	 1.000528579042555e+001
0	 3.399969999982150e+000	 8.933340177755776e+000	 1.000476386044784e+001
0	 3.399969999982150e+000	 9.000000347171181e+000	 1.000426310203692e+001
0	 3.399969999982150e+000	 9.066660599907669e+000	 1.000378242001545e+001
0	 3.399969999982150e+000	 9.133320952629656e+000	 1.000332071914253e+001
0	 3.399969999982150e+000	 9.199981422001562e+000	 1.000287690411357e+001
0	 3.399969999982150e+000	 9.266642024687798e+000	 1.000244987956038e+001
0	 3.399969999982149e+000	 9.333302777352783e+000	 1.000203855005112e+001
0	 3.466639999981866e+000	 8.666700000016668e+000	 1.000824383845186e+001
0	 3.466639999981866e+000	 8.733360002791901e+000	 1.000753045211399e+001
0	 3.466639999981866e+000	 8.800020022230555e+000	 1.000684939285607e+001
0	 3.466639999981866e+000	 8.866680074997040e+000	 1.000619911648367e+001
0	 3.466639999981866e+000	 8.933340177755781e+000	 1.000557807872118e+001
0	 3.466639999981866e+000	 9.000000347171181e+000	 1.000498473521172e+001
0	 3.466639999981866e+000	 9.066660599907669e+000	 1.000441754151722e+001
0	 3.466639999981866e+000	 9.133320952629655e+000	 1.000387495311839e+001
0	 3.466639999981866e+000	 9.199981422001557e+000	 1.000335542541471e+001
0	 3.466639999981867e+000	 9.266642024687799e+000	 1.000285741372437e+001
0	 3.466639999981866e+000	 9.333302777352783e+000	 1.000237937328438e+001
0	 3.533309999982382e+000	 8.666700000016668e+000	 1.000946404759960e+001
0	 3.533309999982382e+000	 8.733360002791901e+000	 1.000863496958199e+001
0	 3.533309999982382e+000	 8.800020022230557e+000	 1.000784536509497e+001
0	 3.533309999982382e+000	 8.866680074997042e+000	 1.000709329719613e+001
0	 3.533309999982382e+000	 8.933340177755778e+000	 1.000637682884524e+001
0	 3.533309999982383e+000	 9.000000347171184e+000	 1.000569402290428e+001
0	 3.533309999982382e+000	 9.066660599907669e+000	 1.000504294213741e+001
0	 3.533309999982383e+000	 9.133320952629658e+000	 1.000442164921096e+001
0	 3.533309999982383e+000	 9.199981422001558e+000	 1.000382820669354e+001
0	 3.533309999982382e+000	 9.266642024687796e+000	 1.000326067705583e+001
0	 3.533309999982382e+000	 9.333302777352783e+000	 1.000271712267074e+001
0	 3.599979999983599e+000	 8.666700000016666e+000	 1.001064760098850e+001
0	 3.599979999983598e+000	 8.733360002791899e+000	 1.000970830856291e+001
0	 3.599979999983599e+000	 8.800020022230555e+000	 1.000881495161835e+001
0	 3.599979999983599e+000	 8.866680074997042e+000	 1.000796525692433e+001
0	 3.599979999983599e+000	 8.933340177755779e+000	 1.000715695113702e+001
0	 3.599979999983599e+000	 9.000000347171184e+000	 1.000638776079915e+001
0	 3.599979999983599e+000	 9.066660599907666e+000	 1.000565541234003e+001
0	 3.599979999983599e+000	 9.133320952629655e+000	 1.000495763207557e+001
0	 3.599979999983598e+000	 9.199981422001558e+000	 1.000429214620822e+001
0	 3.599979999983598e+000	 9.266642024687796e+000	 1.000365668082701e+001
0	 3.599979999983598e+000	 9.333302777352783e+000	 1.000304896190753e+001
0	 3.666649999985415e+000	 8.666700000016665e+000	 1.001179191158555e+001
0	 3.666649999985415e+000	 8.733360002791903e+000	 1.001074767974327e+001
0	 3.666649999985415e+000	 8.800020022230557e+000	 1.000975520024409e+001
0	 3.666649999985415e+000	 8.866680074997044e+000	 1.000881192002963e+001
0	 3.666649999985415e+000	 8.933340177755778e+000	 1.000791528591341e+001
0	 3.666649999985416e+000	 9.000000347171184e+000	 1.000706274458082e+001
0	 3.666649999985416e+000	 9.066660599907667e+000	 1.000625174258913e+001
0	 3.666649999985416e+000	 9.133320952629656e+000	 1.000547972636749e+001
0	 3.666649999985415e+000	 9.199981422001560e+000	 1.000474414221689e+001
0	 3.666649999985415e+000	 9.266642024687796e+000	 1.000404243631019e+001
0	 3.666649999985415e+000	 9.333302777352781e+000	 1.000337205469211e+001
0	 3.733319999987732e+000	 8.666700000016668e+000	 1.001289439235779e+001
0	 3.733319999987732e+000	 8.733360002791905e+000	 1.001175029380948e+001
0	 3.733319999987732e+000	 8.800020022230555e+000	 1.001066315879008e+001
0	 3.733319999987731e+000	 8.866680074997040e+000	 1.000963021087340e+001
0	 3.733319999987732e+000	 8.933340177755778e+000	 1.000864867349134e+001
0	 3.733319999987732e+000	 9.000000347171183e+000	 1.000771576993383e+001
0	 3.733319999987732e+000	 9.066660599907669e+000	 1.000682872334875e+001
0	 3.733319999987732e+000	 9.133320952629656e+000	 1.000598475674206e+001
0	 3.733319999987732e+000	 9.199981422001560e+000	 1.000518109297771e+001
0	 3.733319999987733e+000	 9.266642024687796e+000	 1.000441495477763e+001
0	 3.733319999987732e+000	 9.333302777352783e+000	 1.000368356472177e+001
0	 3.799989999990448e+000	 8.666700000016668e+000	 1.001395245627222e+001
0	 3.799989999990448e+000	 8.733360002791905e+000	 1.001271336144806e+001
0	 3.799989999990448e+000	 8.800020022230555e+000	 1.001153587507423e+001
0	 3.799989999990448e+000	 8.866680074997042e+000	 1.001041705381704e+001
0	 3.799989999990448e+000	 8.933340177755779e+000	 1.000935395418776e+001
0	 3.799989999990449e+000	 9.000000347171179e+000	 1.000834363254265e+001
0	 3.799989999990449e+000	 9.066660599907667e+000	 1.000738314508288e+001
0	 3.799989999990449e+000	 9.133320952629658e+000	 1.000646954785459e+001
0	 3.799989999990447e+000	 9.199981422001557e+000	 1.000559989674883e+001
0	 3.799989999990448e+000	 9.266642024687798e+000	 1.000477124750161e+001
0	 3.799989999990448e+000	 9.333302777352783e+000	 1.000398065569387e+001
0	 3.866659999993465e+000	 8.666700000016666e+000	 1.001496351629583e+001
0	 3.866659999993465e+000	 8.733360002791903e+000	 1.001363409334545e+001
0	 3.866659999993464e+000	 8.800020022230553e+000	 1.001237039691442e+001
0	 3.866659999993465e+000	 8.866680074997040e+000	 1.001116937322190e+001
0	 3.866659999993465e+000	 8.933340177755778e+000	 1.001002796831958e+001
0	 3.866659999993465e+000	 9.000000347171183e+000	 1.000894312809182e+001
0	 3.866659999993465e+000	 9.066660599907669e+000	 1.000791179825556e+001
0	 3.866659999993465e+000	 9.133320952629658e+000	 1.000693092436038e+001
0	 3.866659999993465e+000	 9.199981422001558e+000	 1.000599745178841e+001
0	 3.866659999993464e+000	 9.266642024687796e+000	 1.000510832575441e+001
0	 3.866659999993464e+000	 9.333302777352783e+000	 1.000426049130574e+001
0	 3.933329999996682e+000	 8.666700000016666e+000	 1.001592498539570e+001
0	 3.933329999996681e+000	 8.733360002791899e+000	 1.001450970018810e+001
0	 3.933329999996682e+000	 8.800020022230557e+000	 1.001316377212858e+001
0	 3.933329999996682e+000	 8.866680074997040e+000	 1.001188409344938e+001
0	 3.933329999996682e+000	 8.933340177755776e+000	 1.001066755620373e+001
0	 3.933329999996681e+000	 9.000000347171183e+000	 1.000951105226584e+001
0	 3.933329999996681e+000	 9.066660599907669e+000	 1.000841147333082e+001
0	 3.933329999996682e+000	 9.133320952629655e+000	 1.000736571091474e+001
0	 3.933329999996681e+000	 9.199981422001555e+000	 1.000637065635458e+001
0	 3.933329999996682e+000	 9.266642024687799e+000	 1.000542320080827e+001
0	 3.933329999996682e+000	 9.333302777352781e+000	 1.000452023525468e+001
0	 4.000000000000000e+000	 8.666700000016666e+000	 1.001683427653876e+001
0	 4.000000000000000e+000	 8.733360002791901e+000	 1.001533739266252e+001
0	 4.000000000000000e+000	 8.800020022230555e+000	 1.001391304853456e+001
0	 4.000000000000000e+000	 8.866680074997040e+000	 1.001255813886084e+001
0	 4.000000000000000e+000	 8.933340177755778e+000	 1.001126955815714e+001
0	 4.000000000000001e+000	 9.000000347171181e+000	 1.001004420074923e+001
0	 4.000000000000000e+000	 9.066660599907667e+000	 1.000887896077269e+001
0	 4.000000000000001e+000	 9.133320952629656e+000	 1.000777073217299e+001
0	 4.000000000000001e+000	 9.199981422001560e+000	 1.000671640870552e+001
0	 4.000000000000001e+000	 9.266642024687796e+000	 1.000571288393551e+001
0	 4.000000000000000e+000	 9.333302777352783e+000	 1.000475705123805e+001
0	 3.333299999983334e+000	 9.333302777352785e+000	 1.000169748927365e+001
0	 3.333299999983334e+000	 9.399973674588177e+000	 1.000138066299692e+001
0	 3.333299999983334e+000	 9.466644621844619e+000	 1.000110444715399e+001
0	 3.333299999983334e+000	 9.533315502450002e+000	 1.000086543362543e+001
0	 3.333299999983333e+000	 9.599986199732197e+000	 1.000066021495767e+001
0	 3.333299999983334e+000	 9.666656597019093e+000	 1.000048538436270e+001
0	 3.333299999983334e+000	 9.733326577638577e+000	 1.000033753571773e+001
0	 3.333299999983334e+000	 9.799996024918524e+000	 1.000021326356485e+001
0	 3.333299999983334e+000	 9.866664822186822e+000	 1.000010916311080e+001
0	 3.333299999983333e+000	 9.933332852771354e+000	 1.000002183022659e+001
0	 3.333299999983334e+000	 1.000000000000000e+001	 9.999947861447518e+000
0	 3.399969999982149e+000	 9.333302777352783e+000	 1.000203855005112e+001
0	 3.399969999982150e+000	 9.399973674588175e+000	 1.000165871086522e+001
0	 3.399969999982151e+000	 9.466644621844623e+000	 1.000132479543312e+001
0	 3.399969999982150e+000	 9.533315502449995e+000	 1.000103348435915e+001
0	 3.399969999982150e+000	 9.599986199732198e+000	 1.000078145905638e+001
0	 3.399969999982150e+000	 9.666656597019093e+000	 1.000056540174628e+001
0	 3.399969999982149e+000	 9.733326577638572e+000	 1.000038199545845e+001
0	 3.399969999982150e+000	 9.799996024918524e+000	 1.000022792403032e+001
0	 3.399969999982150e+000	 9.866664822186822e+000	 1.000009987210681e+001
0	 3.399969999982150e+000	 9.933332852771354e+000	 9.999994525140174e+000
0	 3.399969999982150e+000	 1.000000000000000e+001	 9.999908569389804e+000
0	 3.466639999981866e+000	 9.333302777352783e+000	 1.000237937328438e+001
0	 3.466639999981866e+000	 9.399973674588175e+000	 1.000193762669899e+001
0	 3.466639999981866e+000	 9.466644621844619e+000	 1.000154747121438e+001
0	 3.466639999981866e+000	 9.533315502449998e+000	 1.000120561380527e+001
0	 3.466639999981866e+000	 9.599986199732197e+000	 1.000090876239753e+001
0	 3.466639999981866e+000	 9.666656597019095e+000	 1.000065362586775e+001
0	 3.466639999981866e+000	 9.733326577638575e+000	 1.000043691404302e+001
0	 3.466639999981866e+000	 9.799996024918523e+000	 1.000025533770056e+001
0	 3.466639999981866e+000	 9.866664822186820e+000	 1.000010560856750e+001
0	 3.466639999981866e+000	 9.933332852771354e+000	 9.999984439320794e+000
0	 3.466639999981865e+000	 1.000000000000000e+001	 9.999888543586760e+000
0	 3.533309999982382e+000	 9.333302777352783e+000	 1.000271712267074e+001
0	 3.533309999982383e+000	 9.399973674588178e+000	 1.000221471433862e+001
0	 3.533309999982383e+000	 9.466644621844623e+000	 1.000176985445519e+001
0	 3.533309999982381e+000	 9.533315502450002e+000	 1.000137921401280e+001
0	 3.533309999982383e+000	 9.599986199732197e+000	 1.000103946509595e+001
0	 3.533309999982382e+000	 9.666656597019092e+000	 1.000074728088100e+001
0	 3.533309999982382e+000	 9.733326577638573e+000	 1.000049933563591e+001
0	 3.533309999982382e+000	 9.799996024918524e+000	 1.000029230471990e+001
0	 3.533309999982382e+000	 9.866664822186825e+000	 1.000012286458339e+001
0	 3.533309999982383e+000	 9.933332852771352e+000	 9.999987692767697e+000
0	 3.533309999982383e+000	 1.000000000000000e+001	 9.999883467904747e+000
0	 3.599979999983598e+000	 9.333302777352783e+000	 1.000304896190753e+001
0	 3.599979999983598e+000	 9.399973674588177e+000	 1.000248727762434e+001
0	 3.599979999983599e+000	 9.466644621844619e+000	 1.000198932511300e+001
0	 3.599979999983599e+000	 9.533315502450003e+000	 1.000155167703081e+001
0	 3.599979999983598e+000	 9.599986199732195e+000	 1.000117090726649e+001
0	 3.599979999983598e+000	 9.666656597019093e+000	 1.000084359093984e+001
0	 3.599979999983598e+000	 9.733326577638575e+000	 1.000056630440148e+001
0	 3.599979999983599e+000	 9.799996024918526e+000	 1.000033562523265e+001
0	 3.599979999983600e+000	 9.866664822186822e+000	 1.000014813224497e+001
0	 3.599979999983598e+000	 9.933332852771352e+000	 1.000000040548015e+001
0	 3.599979999983598e+000	 1.000000000000000e+001	 9.999889026210147e+000
0	 3.666649999985415e+000	 9.333302777352781e+000	 1.000337205469211e+001
0	 3.666649999985415e+000	 9.399973674588177e+000	 1.000275262039655e+001
0	 3.666649999985416e+000	 9.466644621844621e+000	 1.000220326314524e+001
0	 3.666649999985416e+000	 9.533315502450002e+000	 1.000172039490828e+001
0	 3.666649999985415e+000	 9.599986199732197e+000	 1.000130042902392e+001
0	 3.666649999985414e+000	 9.666656597019092e+000	 1.000093978019809e+001
0	 3.666649999985415e+000	 9.733326577638577e+000	 1.000063486450426e+001
0	 3.666649999985415e+000	 9.799996024918523e+000	 1.000038209938319e+001
0	 3.666649999985415e+000	 9.866664822186824e+000	 1.000017790364263e+001
0	 3.666649999985415e+000	 9.933332852771354e+000	 1.000001869745745e+001
0	 3.666649999985415e+000	 9.999999999999998e+000	 9.999900902369198e+000
0	 3.733319999987732e+000	 9.333302777352783e+000	 1.000368356472176e+001
0	 3.733319999987732e+000	 9.399973674588175e+000	 1.000300804649554e+001
0	 3.733319999987732e+000	 9.466644621844621e+000	 1.000240904850933e+001
0	 3.733319999987732e+000	 9.533315502450002e+000	 1.000188275969430e+001
0	 3.733319999987731e+000	 9.599986199732195e+000	 1.000142537048312e+001
0	 3.733319999987732e+000	 9.666656597019093e+000	 1.000103307280962e+001
0	 3.733319999987732e+000	 9.733326577638577e+000	 1.000070206010867e+001
0	 3.733319999987732e+000	 9.799996024918524e+000	 1.000042852731578e+001
0	 3.733319999987731e+000	 9.866664822186820e+000	 1.000020867086700e+001
0	 3.733319999987732e+000	 9.933332852771356e+000	 1.000003868869889e+001
0	 3.733319999987732e+000	 1.000000000000000e+001	 9.999914780248318e+000
0	 3.799989999990448e+000	 9.333302777352783e+000	 1.000398065569387e+001
0	 3.799989999990449e+000	 9.399973674588177e+000	 1.000325085976162e+001
0	 3.799989999990447e+000	 9.466644621844621e+000	 1.000260406116269e+001
0	 3.799989999990449e+000	 9.533315502450000e+000	 1.000203616343784e+001
0	 3.799989999990448e+000	 9.599986199732197e+000	 1.000154307175887e+001
0	 3.799989999990449e+000	 9.666656597019095e+000	 1.000112069292831e+001
0	 3.799989999990448e+000	 9.733326577638575e+000	 1.000076493537918e+001
0	 3.799989999990448e+000	 9.799996024918524e+000	 1.000047170917471e+001
0	 3.799989999990447e+000	 9.866664822186824e+000	 1.000023692600844e+001
0	 3.799989999990449e+000	 9.933332852771352e+000	 1.000005649920368e+001
0	 3.799989999990448e+000	 1.000000000000000e+001	 9.999926343713931e+000
0	 3.866659999993464e+000	 9.333302777352783e+000	 1.000426049130573e+001
0	 3.866659999993465e+000	 9.399973674588177e+000	 1.000347836403516e+001
0	 3.866659999993464e+000	 9.466644621844621e+000	 1.000278568106278e+001
0	 3.866659999993465e+000	 9.533315502450002e+000	 1.000217799818794e+001
0	 3.866659999993466e+000	 9.599986199732198e+000	 1.000165087296601e+001
0	 3.866659999993465e+000	 9.666656597019095e+000	 1.000119986470795e+001
0	 3.866659999993465e+000	 9.733326577638577e+000	 1.000082053448020e+001
0	 3.866659999993465e+000	 9.799996024918524e+000	 1.000050844510442e+001
0	 3.866659999993466e+000	 9.866664822186824e+000	 1.000025916115748e+001
0	 3.866659999993464e+000	 9.933332852771352e+000	 1.000006824897118e+001
0	 3.866659999993465e+000	 1.000000000000000e+001	 9.999931276632353e+000
0	 3.933329999996682e+000	 9.333302777352781e+000	 1.000452023525469e+001
0	 3.933329999996682e+000	 9.399973674588177e+000	 1.000368786315644e+001
0	 3.933329999996682e+000	 9.466644621844619e+000	 1.000295128816700e+001
0	 3.933329999996682e+000	 9.533315502450000e+000	 1.000230565599365e+001
0	 3.933329999996681e+000	 9.599986199732197e+000	 1.000174611421937e+001
0	 3.933329999996682e+000	 9.666656597019093e+000	 1.000126781230240e+001
0	 3.933329999996681e+000	 9.733326577638575e+000	 1.000086590157618e+001
0	 3.933329999996681e+000	 9.799996024918524e+000	 1.000053553524917e+001
0	 3.933329999996682e+000	 9.866664822186824e+000	 1.000027186840461e+001
0	 3.933329999996682e+000	 9.933332852771352e+000	 1.000007005800062e+001
0	 3.933329999996682e+000	 1.000000000000000e+001	 9.999925262869914e+000
0	 4.000000000000000e+000	 9.333302777352783e+000	 1.000475705123805e+001
0	 4.000000000000001e+000	 9.399973674588178e+000	 1.000387666096578e+001
0	 4.000000000000001e+000	 9.466644621844623e+000	 1.000309826243278e+001
0	 4.000000000000000e+000	 9.533315502450000e+000	 1.000241652890399e+001
0	 4.000000000000000e+000	 9.599986199732195e+000	 1.000182613563374e+001
0	 4.000000000000000e+000	 9.666656597019095e+000	 1.000132175986549e+001
0	 4.000000000000001e+000	 9.733326577638577e+000	 1.000089808083162e+001
0	 3.999999999999999e+000	 9.799996024918523e+000	 1.000054977975329e+001
0	 4.000000000000000e+000	 9.866664822186824e+000	 1.000027153984033e+001
0	 4.000000000000000e+000	 9.933332852771352e+000	 1.000005804629122e+001
0	 4.000000000000000e+000	 1.000000000000000e+001	 9.999903986293036e+000
0	 4.000000000000000e+000	 0.000000000000000e+000	 2.558944956397466e-001
0	 4.000000000000001e+000	 6.666714722864757e-002	 1.130020495565963e+000
0	 4.000000000000001e+000	 1.333351778131790e-001	 2.041919603491924e+000
0	 4.000000000000000e+000	 2.000039750814772e-001	 2.978486898283292e+000
0	 4.000000000000001e+000	 2.666734223614255e-001	 3.926616537227571e+000
0	 3.999999999999999e+000	 3.333434029809068e-001	 4.873201756257861e+000
0	 4.000000000000000e+000	 4.000138002678045e-001	 5.805134870152445e+000
0	 4.000000000000000e+000	 4.666844975500011e-001	 6.709307272710134e+000
0	 4.000000000000000e+000	 5.333553781553803e-001	 7.572609436901469e+000
0	 4.000000000000001e+000	 6.000263254118247e-001	 8.381930914995751e+000
0	 4.000000000000000e+000	 6.666972226472175e-001	 9.124160338663842e+000
0	 4.066670000003317e+000	 0.000000000000000e+000	 3.379461567916123e+000
0	 4.066670000003317e+000	 6.666714722864756e-002	 3.924129977775363e+000
0	 4.066670000003317e+000	 1.333351778131789e-001	 4.508322091140436e+000
0	 4.066670000003317e+000	 2.000039750814773e-001	 5.122117540906053e+000
0	 4.066670000003317e+000	 2.666734223614256e-001	 5.755595345714805e+000
0	 4.066670000003317e+000	 3.333434029809069e-001	 6.398833910112538e+000
0	 4.066670000003318e+000	 4.000138002678044e-001	 7.041911024687656e+000
0	 4.066670000003316e+000	 4.666844975500010e-001	 7.674903866194266e+000
0	 4.066670000003317e+000	 5.333553781553803e-001	 8.287888997659220e+000
0	 4.066670000003318e+000	 6.000263254118246e-001	 8.870942368473068e+000
0	 4.066670000003317e+000	 6.666972226472177e-001	 9.414139314464798e+000
0	 4.133340000006534e+000	 0.000000000000000e+000	 5.849850781046643e+000
0	 4.133340000006533e+000	 6.666714722864754e-002	 6.145934266924203e+000
0	 4.133340000006533e+000	 1.333351778131789e-001	 6.479987791892414e+000
0	 4.133340000006534e+000	 2.000039750814772e-001	 6.844896900249873e+000
0	 4.133340000006534e+000	 2.666734223614255e-001	 7.233546761863851e+000
0	 4.133340000006532e+000	 3.333434029809069e-001	 7.638822172271795e+000
0	 4.133340000006534e+000	 4.000138002678043e-001	 8.053607552773176e+000
0	 4.133340000006535e+000	 4.666844975500012e-001	 8.470786950511304e+000
0	 4.133340000006533e+000	 5.333553781553800e-001	 8.883244038545424e+000
0	 4.133340000006534e+000	 6.000263254118247e-001	 9.283862115912996e+000
0	 4.133340000006534e+000	 6.666972226472177e-001	 9.665524107682124e+000
0	 4.200010000009550e+000	 0.000000000000000e+000	 7.740278880826194e+000
0	 4.200010000009549e+000	 6.666714722864756e-002	 7.858109254127315e+000
0	 4.200010000009550e+000	 1.333351778131789e-001	 8.009802004101100e+000
0	 4.200010000009550e+000	 2.000039750814773e-001	 8.190669864570630e+000
0	 4.200010000009550e+000	 2.666734223614256e-001	 8.396025375123799e+000
0	 4.200010000009550e+000	 3.333434029809069e-001	 8.621180881173876e+000
0	 4.200010000009550e+000	 4.000138002678044e-001	 8.861448534014954e+000
0	 4.200010000009550e+000	 4.666844975500010e-001	 9.112140290872370e+000
0	 4.200010000009550e+000	 5.333553781553800e-001	 9.368567914947883e+000
0	 4.200010000009550e+000	 6.000263254118248e-001	 9.626042975459912e+000
0	 4.200010000009550e+000	 6.666972226472178e-001	 9.879876847678590e+000
0	 4.266680000012267e+000	 0.000000000000000e+000	 9.123962613049709e+000
0	 4.266680000012266e+000	 6.666714722864754e-002	 9.123330830499473e+000
0	 4.266680000012267e+000	 1.333351778131790e-001	 9.150650026119582e+000
0	 4.266680000012267e+000	 2.000039750814772e-001	 9.203281322123997e+000
0	 4.266680000012268e+000	 2.666734223614256e-001	 9.278585774943565e+000
0	 4.266680000012268e+000	 3.333434029809068e-001	 9.373924375256767e+000
0	 4.266680000012267e+000	 4.000138002678044e-001	 9.486658048018709e+000
0	 4.266680000012267e+000	 4.666844975500011e-001	 9.614147652488372e+000
0	 4.266680000012267e+000	 5.333553781553803e-001	 9.753753982254215e+000
0	 4.266680000012268e+000	 6.000263254118248e-001	 9.902837765257985e+000
0	 4.266680000012267e+000	 6.666972226472177e-001	 1.005875966381679e+001
0	 4.333350000014584e+000	 0.000000000000000e+000	 1.007411872351216e+001
0	 4.333350000014582e+000	 6.666714722864756e-002	 1.000427488715540e+001
0	 4.333350000014582e+000	 1.333351778131790e-001	 9.955417156300809e+000
0	 4.333350000014583e+000	 2.000039750814773e-001	 9.926576161165450e+000
0	 4.333350000014585e+000	 2.666734223614256e-001	 9.916782550771819e+000
0	 4.333350000014582e+000	 3.333434029809069e-001	 9.925066992958254e+000
0	 4.333350000014584e+000	 4.000138002678044e-001	 9.950460174389885e+000
0	 4.333350000014584e+000	 4.666844975500012e-001	 9.991992800569982e+000
0	 4.333350000014583e+000	 5.333553781553800e-001	 1.004869559585185e+001
0	 4.333350000014583e+000	 6.000263254118247e-001	 1.011959930345122e+001
0	 4.333350000014583e+000	 6.666972226472177e-001	 1.020373468545917e+001
0	 4.400020000016400e+000	 0.000000000000000e+000	 1.066396395800858e+001
0	 4.400020000016400e+000	 6.666714722864754e-002	 1.056361731520974e+001
0	 4.400020000016400e+000	 1.333351778131789e-001	 1.047698869299760e+001
0	 4.400020000016400e+000	 2.000039750814773e-001	 1.040439926995028e+001
0	 4.400020000016401e+000	 2.666734223614256e-001	 1.034617029205698e+001
0	 4.400020000016400e+000	 3.333434029809069e-001	 1.030262307271584e+001
0	 4.400020000016402e+000	 4.000138002678044e-001	 1.027407899273373e+001
0	 4.400020000016398e+000	 4.666844975500011e-001	 1.026085950032765e+001
0	 4.400020000016401e+000	 5.333553781553803e-001	 1.026328611112796e+001
0	 4.400020000016400e+000	 6.000263254118248e-001	 1.028168040818343e+001
0	 4.400020000016399e+000	 6.666972226472175e-001	 1.031636404196796e+001
0	 4.466690000017617e+000	 0.000000000000000e+000	 1.096671506233403e+001
0	 4.466690000017615e+000	 6.666714722864756e-002	 1.086403400577707e+001
0	 4.466690000017616e+000	 1.333351778131790e-001	 1.076824993456262e+001
0	 4.466690000017617e+000	 2.000039750814773e-001	 1.068059553673360e+001
0	 4.466690000017615e+000	 2.666734223614255e-001	 1.060230358824727e+001
0	 4.466690000017616e+000	 3.333434029809069e-001	 1.053460695296680e+001
0	 4.466690000017616e+000	 4.000138002678044e-001	 1.047873858265522e+001
0	 4.466690000017619e+000	 4.666844975500012e-001	 1.043593151697157e+001
0	 4.466690000017617e+000	 5.333553781553801e-001	 1.040741888346954e+001
0	 4.466690000017616e+000	 6.000263254118246e-001	 1.039443389759822e+001
0	 4.466690000017616e+000	 6.666972226472177e-001	 1.039820986270529e+001
0	 4.533360000018132e+000	 0.000000000000000e+000	 1.105558878228362e+001
0	 4.533360000018133e+000	 6.666714722864756e-002	 1.096820084997195e+001
0	 4.533360000018132e+000	 1.333351778131789e-001	 1.088208617934840e+001
0	 4.533360000018133e+000	 2.000039750814773e-001	 1.079900984977029e+001
0	 4.533360000018131e+000	 2.666734223614256e-001	 1.072073702879068e+001
0	 4.533360000018131e+000	 3.333434029809069e-001	 1.064903297214819e+001
0	 4.533360000018132e+000	 4.000138002678044e-001	 1.058566302375908e+001
0	 4.533360000018133e+000	 4.666844975500011e-001	 1.053239261571174e+001
0	 4.533360000018132e+000	 5.333553781553803e-001	 1.049098726826336e+001
0	 4.533360000018133e+000	 6.000263254118248e-001	 1.046321258983903e+001
0	 4.533360000018133e+000	 6.666972226472177e-001	 1.045083427703310e+001
0	 4.600030000017849e+000	 0.000000000000000e+000	 1.100380186365252e+001
0	 4.600030000017847e+000	 6.666714722864754e-002	 1.093879373890881e+001
0	 4.600030000017849e+000	 1.333351778131790e-001	 1.087138272570734e+001
0	 4.600030000017848e+000	 2.000039750814773e-001	 1.080348709731507e+001
0	 4.600030000017848e+000	 2.666734223614254e-001	 1.073702520313498e+001
0	 4.600030000017848e+000	 3.333434029809069e-001	 1.067391546869679e+001
0	 4.600030000017848e+000	 4.000138002678044e-001	 1.061607639564984e+001
0	 4.600030000017849e+000	 4.666844975500011e-001	 1.056542656175791e+001
0	 4.600030000017849e+000	 5.333553781553801e-001	 1.052388462089598e+001
0	 4.600030000017849e+000	 6.000263254118249e-001	 1.049336930304908e+001
0	 4.600030000017848e+000	 6.666972226472175e-001	 1.047579941431312e+001
0	 4.666700000016666e+000	 0.000000000000000e+000	 1.088457105223593e+001
0	 4.666700000016666e+000	 6.666714722864757e-002	 1.083848856370210e+001
0	 4.666700000016667e+000	 1.333351778131790e-001	 1.078902487199169e+001
0	 4.666700000016665e+000	 2.000039750814772e-001	 1.073787216762246e+001
0	 4.666700000016666e+000	 2.666734223614256e-001	 1.068672270072768e+001
0	 4.666700000016668e+000	 3.333434029809070e-001	 1.063726878104915e+001
0	 4.666700000016665e+000	 4.000138002678044e-001	 1.059120277793175e+001
0	 4.666700000016666e+000	 4.666844975500011e-001	 1.055021712031959e+001
0	 4.666700000016667e+000	 5.333553781553803e-001	 1.051600429675374e+001
0	 4.666700000016666e+000	 6.000263254118248e-001	 1.049025685537144e+001
0	 4.666700000016667e+000	 6.666972226472179e-001	 1.047466740390698e+001
0	 4.000000000000000e+000	 6.666972226472175e-001	 9.124160338663842e+000
0	 4.000000000000002e+000	 7.333579753122048e-001	 9.802239777627570e+000
0	 4.000000000000001e+000	 8.000185779984418e-001	 1.042725577597958e+001
0	 4.000000000000000e+000	 8.666790473703454e-001	 1.099799612839292e+001
0	 4.000000000000000e+000	 9.333394000923323e-001	 1.151324871850096e+001
0	 3.999999999999999e+000	 9.999996528288188e-001	 1.197180151890005e+001
0	 4.000000000000001e+000	 1.066659822244222e+000	 1.237244259115198e+001
0	 3.999999999999999e+000	 1.133319925002959e+000	 1.271396008578596e+001
0	 4.000000000000001e+000	 1.199979977769445e+000	 1.299514224230041e+001
0	 4.000000000000000e+000	 1.266639997208098e+000	 1.321477738916433e+001
0	 3.999999999999999e+000	 1.333299999983334e+000	 1.337165394381836e+001
0	 4.066670000003317e+000	 6.666972226472177e-001	 9.414139314464798e+000
0	 4.066670000003317e+000	 7.333579753122046e-001	 9.916371148337976e+000
0	 4.066670000003316e+000	 8.000185779984417e-001	 1.038247941117885e+001
0	 4.066670000003318e+000	 8.666790473703452e-001	 1.081123039976264e+001
0	 4.066670000003317e+000	 9.333394000923323e-001	 1.120139047615884e+001
0	 4.066670000003317e+000	 9.999996528288190e-001	 1.155172606773330e+001
0	 4.066670000003318e+000	 1.066659822244223e+000	 1.186100366714999e+001
0	 4.066670000003317e+000	 1.133319925002959e+000	 1.212798983237251e+001
0	 4.066670000003318e+000	 1.199979977769445e+000	 1.235145118666551e+001
0	 4.066670000003317e+000	 1.266639997208098e+000	 1.253015441859563e+001
0	 4.066670000003317e+000	 1.333299999983333e+000	 1.266286628203237e+001
0	 4.133340000006534e+000	 6.666972226472177e-001	 9.665524107682124e+000
0	 4.133340000006534e+000	 7.333579753122047e-001	 1.002438150813572e+001
0	 4.133340000006532e+000	 8.000185779984416e-001	 1.036061709540565e+001
0	 4.133340000006534e+000	 8.666790473703452e-001	 1.067299406781038e+001
0	 4.133340000006534e+000	 9.333394000923320e-001	 1.096027567004377e+001
0	 4.133340000006535e+000	 9.999996528288191e-001	 1.122122519317672e+001
0	 4.133340000006534e+000	 1.066659822244222e+000	 1.145460597465839e+001
0	 4.133340000006535e+000	 1.133319925002959e+000	 1.165918139831739e+001
0	 4.133340000006534e+000	 1.199979977769445e+000	 1.183371489436269e+001
0	 4.133340000006534e+000	 1.266639997208098e+000	 1.197696993938448e+001
0	 4.133340000006534e+000	 1.333299999983334e+000	 1.208771005635469e+001
0	 4.200010000009550e+000	 6.666972226472178e-001	 9.879876847678590e+000
0	 4.200010000009551e+000	 7.333579753122049e-001	 1.012459626529550e+001
0	 4.200010000009550e+000	 8.000185779984417e-001	 1.035711459345905e+001
0	 4.200010000009550e+000	 8.666790473703452e-001	 1.057621033590782e+001
0	 4.200010000009550e+000	 9.333394000923323e-001	 1.078066202804869e+001
0	 4.200010000009551e+000	 9.999996528288190e-001	 1.096924823695791e+001
0	 4.200010000009550e+000	 1.066659822244222e+000	 1.114074756138203e+001
0	 4.200010000009550e+000	 1.133319925002958e+000	 1.129393863173872e+001
0	 4.200010000009550e+000	 1.199979977769445e+000	 1.142760011011746e+001
0	 4.200010000009550e+000	 1.266639997208098e+000	 1.154051069028011e+001
0	 4.200010000009550e+000	 1.333299999983334e+000	 1.163144909766138e+001
0	 4.266680000012267e+000	 6.666972226472177e-001	 1.005875966381679e+001
0	 4.266680000012267e+000	 7.333579753122047e-001	 1.021534082809189e+001
0	 4.266680000012265e+000	 8.000185779984413e-001	 1.036741767013795e+001
0	 4.266680000012267e+000	 8.666790473703453e-001	 1.051380240742655e+001
0	 4.266680000012268e+000	 9.333394000923322e-001	 1.065330727806646e+001
0	 4.266680000012267e+000	 9.999996528288189e-001	 1.078474454080439e+001
0	 4.266680000012267e+000	 1.066659822244222e+000	 1.090692647502562e+001
0	 4.266680000012266e+000	 1.133319925002959e+000	 1.101866538075455e+001
0	 4.266680000012267e+000	 1.199979977769445e+000	 1.111877357865522e+001
0	 4.266680000012267e+000	 1.266639997208098e+000	 1.120606341003170e+001
0	 4.266680000012265e+000	 1.333299999983333e+000	 1.127934723682842e+001
0	 4.333350000014583e+000	 6.666972226472177e-001	 1.020373468545917e+001
0	 4.333350000014583e+000	 7.333579753122048e-001	 1.029494060479932e+001
0	 4.333350000014583e+000	 8.000185779984417e-001	 1.038697209024117e+001
0	 4.333350000014583e+000	 8.666790473703452e-001	 1.047869348573803e+001
0	 4.333350000014584e+000	 9.333394000923323e-001	 1.056896914798985e+001
0	 4.333350000014582e+000	 9.999996528288190e-001	 1.065666344644362e+001
0	 4.333350000014583e+000	 1.066659822244222e+000	 1.074064076329385e+001
0	 4.333350000014583e+000	 1.133319925002959e+000	 1.081976549348289e+001
0	 4.333350000014582e+000	 1.199979977769445e+000	 1.089290204470137e+001
0	 4.333350000014583e+000	 1.266639997208098e+000	 1.095891483738838e+001
0	 4.333350000014583e+000	 1.333299999983334e+000	 1.101666830473177e+001
0	 4.400020000016399e+000	 6.666972226472175e-001	 1.031636404196796e+001
0	 4.400020000016400e+000	 7.333579753122048e-001	 1.036172100369207e+001
0	 4.400020000016400e+000	 8.000185779984417e-001	 1.041122361856736e+001
0	 4.400020000016399e+000	 8.666790473703453e-001	 1.046380677421363e+001
0	 4.400020000016400e+000	 9.333394000923323e-001	 1.051840536571153e+001
0	 4.400020000016398e+000	 9.999996528288188e-001	 1.057395429560295e+001
0	 4.400020000016401e+000	 1.066659822244222e+000	 1.062938847389129e+001
0	 4.400020000016401e+000	 1.133319925002958e+000	 1.068364281804167e+001
0	 4.400020000016400e+000	 1.199979977769445e+000	 1.073565225298122e+001
0	 4.400020000016400e+000	 1.266639997208098e+000	 1.078435171109923e+001
0	 4.400020000016401e+000	 1.333299999983334e+000	 1.082867613224734e+001
0	 4.466690000017616e+000	 6.666972226472177e-001	 1.039820986270529e+001
0	 4.466690000017617e+000	 7.333579753122048e-001	 1.041400743304426e+001
0	 4.466690000017617e+000	 8.000185779984417e-001	 1.043561801991510e+001
0	 4.466690000017616e+000	 8.666790473703452e-001	 1.046206547622459e+001
0	 4.466690000017616e+000	 9.333394000923321e-001	 1.049237365912407e+001
0	 4.466690000017618e+000	 9.999996528288189e-001	 1.052556643000967e+001
0	 4.466690000017617e+000	 1.066659822244222e+000	 1.056066765452249e+001
0	 4.466690000017614e+000	 1.133319925002958e+000	 1.059670120254875e+001
0	 4.466690000017616e+000	 1.199979977769445e+000	 1.063269094822003e+001
0	 4.466690000017615e+000	 1.266639997208098e+000	 1.066766076991326e+001
0	 4.466690000017615e+000	 1.333299999983334e+000	 1.070063455025101e+001
0	 4.533360000018133e+000	 6.666972226472177e-001	 1.045083427703310e+001
0	 4.533360000018132e+000	 7.333579753122049e-001	 1.045012530112990e+001
0	 4.533360000018132e+000	 8.000185779984417e-001	 1.045560105908281e+001
0	 4.533360000018130e+000	 8.666790473703453e-001	 1.046639279514206e+001
0	 4.533360000018133e+000	 9.333394000923322e-001	 1.048163175611995e+001
0	 4.533360000018132e+000	 9.999996528288191e-001	 1.050044919139096e+001
0	 4.533360000018132e+000	 1.066659822244222e+000	 1.052197635289187e+001
0	 4.533360000018133e+000	 1.133319925002959e+000	 1.054534449512197e+001
0	 4.533360000018133e+000	 1.199979977769445e+000	 1.056968487514302e+001
0	 4.533360000018133e+000	 1.266639997208098e+000	 1.059412875257948e+001
0	 4.533360000018131e+000	 1.333299999983334e+000	 1.061780738961857e+001
0	 4.600030000017848e+000	 6.666972226472175e-001	 1.047579941431312e+001
0	 4.600030000017849e+000	 7.333579753122049e-001	 1.046840001622283e+001
0	 4.600030000017849e+000	 8.000185779984419e-001	 1.046661850086878e+001
0	 4.600030000017848e+000	 8.666790473703451e-001	 1.046971193433707e+001
0	 4.600030000017849e+000	 9.333394000923323e-001	 1.047693738459155e+001
0	 4.600030000017849e+000	 9.999996528288190e-001	 1.048755192147393e+001
0	 4.600030000017849e+000	 1.066659822244222e+000	 1.050081261670385e+001
0	 4.600030000017849e+000	 1.133319925002959e+000	 1.051597654387904e+001
0	 4.600030000017849e+000	 1.199979977769445e+000	 1.053230077847534e+001
0	 4.600030000017847e+000	 1.266639997208098e+000	 1.054904239784681e+001
0	 4.600030000017849e+000	 1.333299999983334e+000	 1.056545848122582e+001
0	 4.666700000016667e+000	 6.666972226472179e-001	 1.047466740390698e+001
0	 4.666700000016665e+000	 7.333579753122046e-001	 1.046715698659675e+001
0	 4.666700000016666e+000	 8.000185779984418e-001	 1.046411611007118e+001
0	 4.666700000016665e+000	 8.666790473703452e-001	 1.046494609718055e+001
0	 4.666700000016666e+000	 9.333394000923320e-001	 1.046904827243118e+001
0	 4.666700000016666e+000	 9.999996528288190e-001	 1.047582396198563e+001
0	 4.666700000016665e+000	 1.066659822244222e+000	 1.048467449366273e+001
0	 4.666700000016667e+000	 1.133319925002959e+000	 1.049500119693767e+001
0	 4.666700000016666e+000	 1.199979977769445e+000	 1.050620540294209e+001
0	 4.666700000016667e+000	 1.266639997208098e+000	 1.051768844446413e+001
0	 4.666700000016666e+000	 1.333299999983334e+000	 1.052885165594849e+001
0	 3.999999999999999e+000	 1.333299999983334e+000	 1.337165394381836e+001
0	 4.000000000000000e+000	 1.399969999982150e+000	 1.347753291297433e+001
0	 4.000000000000002e+000	 1.466639999981866e+000	 1.354539898413282e+001
0	 4.000000000000000e+000	 1.533309999982383e+000	 1.357593246031532e+001
0	 4.000000000000001e+000	 1.599979999983599e+000	 1.356981364454298e+001
0	 4.000000000000001e+000	 1.666649999985416e+000	 1.352772283983670e+001
0	 4.000000000000001e+000	 1.733319999987733e+000	 1.345034034921700e+001
0	 4.000000000000001e+000	 1.799989999990450e+000	 1.333834647570416e+001
0	 4.000000000000000e+000	 1.866659999993467e+000	 1.319242152231812e+001
0	 4.000000000000001e+000	 1.933329999996683e+000	 1.301324579207851e+001
0	 4.000000000000001e+000	 2.000000000000000e+000	 1.280149958800469e+001
0	 4.066670000003317e+000	 1.333299999983333e+000	 1.266286628203237e+001
0	 4.066670000003317e+000	 1.399969999982150e+000	 1.275642859688697e+001
0	 4.066670000003317e+000	 1.466639999981866e+000	 1.281884663362925e+001
0	 4.066670000003316e+000	 1.533309999982383e+000	 1.285068156316411e+001
0	 4.066670000003318e+000	 1.599979999983600e+000	 1.285249455639623e+001
0	 4.066670000003317e+000	 1.666649999985416e+000	 1.282484678423006e+001
0	 4.066670000003317e+000	 1.733319999987733e+000	 1.276829941756975e+001
0	 4.066670000003317e+000	 1.799989999990450e+000	 1.268341362731921e+001
0	 4.066670000003317e+000	 1.866659999993467e+000	 1.257075058438213e+001
0	 4.066670000003316e+000	 1.933329999996683e+000	 1.243087145966191e+001
0	 4.066670000003316e+000	 2.000000000000000e+000	 1.226433742406171e+001
0	 4.133340000006534e+000	 1.333299999983334e+000	 1.208771005635470e+001
0	 4.133340000006534e+000	 1.399969999982151e+000	 1.216907386888368e+001
0	 4.133340000006534e+000	 1.466639999981866e+000	 1.222529870976873e+001
0	 4.133340000006533e+000	 1.533309999982382e+000	 1.225683853650980e+001
0	 4.133340000006534e+000	 1.599979999983600e+000	 1.226414730660661e+001
0	 4.133340000006534e+000	 1.666649999985416e+000	 1.224767897755870e+001
0	 4.133340000006534e+000	 1.733319999987733e+000	 1.220788750686540e+001
0	 4.133340000006534e+000	 1.799989999990450e+000	 1.214522685202584e+001
0	 4.133340000006534e+000	 1.866659999993467e+000	 1.206015097053893e+001
0	 4.133340000006535e+000	 1.933329999996683e+000	 1.195311381990336e+001
0	 4.133340000006533e+000	 2.000000000000000e+000	 1.182456935761767e+001
0	 4.200010000009550e+000	 1.333299999983334e+000	 1.163144909766138e+001
0	 4.200010000009549e+000	 1.399969999982150e+000	 1.170091573528786e+001
0	 4.200010000009550e+000	 1.466639999981866e+000	 1.175044041597308e+001
0	 4.200010000009551e+000	 1.533309999982383e+000	 1.178038180252356e+001
0	 4.200010000009550e+000	 1.599979999983599e+000	 1.179109855774566e+001
0	 4.200010000009549e+000	 1.666649999985416e+000	 1.178294934444557e+001
0	 4.200010000009550e+000	 1.733319999987733e+000	 1.175629282542931e+001
0	 4.200010000009550e+000	 1.799989999990450e+000	 1.171148766350275e+001
0	 4.200010000009550e+000	 1.866659999993466e+000	 1.164889252147160e+001
0	 4.200010000009550e+000	 1.933329999996683e+000	 1.156886606214138e+001
0	 4.200010000009550e+000	 1.999999999999999e+000	 1.147176694831746e+001
0	 4.266680000012265e+000	 1.333299999983333e+000	 1.127934723682842e+001
0	 4.266680000012267e+000	 1.399969999982150e+000	 1.133740120242289e+001
0	 4.266680000012267e+000	 1.466639999981867e+000	 1.137995695566404e+001
0	 4.266680000012266e+000	 1.533309999982383e+000	 1.140728978337654e+001
0	 4.266680000012267e+000	 1.599979999983599e+000	 1.141967497238491e+001
0	 4.266680000012267e+000	 1.666649999985416e+000	 1.141738780951357e+001
0	 4.266680000012268e+000	 1.733319999987733e+000	 1.140070358158676e+001
0	 4.266680000012266e+000	 1.799989999990449e+000	 1.136989757542866e+001
0	 4.266680000012268e+000	 1.866659999993466e+000	 1.132524507786326e+001
0	 4.266680000012267e+000	 1.933329999996683e+000	 1.126702137571444e+001
0	 4.266680000012267e+000	 2.000000000000000e+000	 1.119550175580599e+001
0	 4.333350000014583e+000	 1.333299999983334e+000	 1.101666830473177e+001
0	 4.333350000014585e+000	 1.399969999982150e+000	 1.106397727661210e+001
0	 4.333350000014582e+000	 1.466639999981867e+000	 1.109953353226333e+001
0	 4.333350000014582e+000	 1.533309999982383e+000	 1.112354090123983e+001
0	 4.333350000014584e+000	 1.599979999983599e+000	 1.113620321309586e+001
0	 4.333350000014583e+000	 1.666649999985416e+000	 1.113772429738557e+001
0	 4.333350000014583e+000	 1.733319999987733e+000	 1.112830798366303e+001
0	 4.333350000014583e+000	 1.799989999990449e+000	 1.110815810148220e+001
0	 4.333350000014583e+000	 1.866659999993466e+000	 1.107747848039695e+001
0	 4.333350000014583e+000	 1.933329999996683e+000	 1.103647294996103e+001
0	 4.333350000014584e+000	 2.000000000000000e+000	 1.098534533972810e+001
0	 4.400020000016401e+000	 1.333299999983334e+000	 1.082867613224734e+001
0	 4.400020000016399e+000	 1.399969999982150e+000	 1.086609096417880e+001
0	 4.400020000016400e+000	 1.466639999981867e+000	 1.089485534919265e+001
0	 4.400020000016399e+000	 1.533309999982383e+000	 1.091511357828452e+001
0	 4.400020000016400e+000	 1.599979999983599e+000	 1.092700994244997e+001
0	 4.400020000016400e+000	 1.666649999985416e+000	 1.093068873268445e+001
0	 4.400020000016399e+000	 1.733319999987733e+000	 1.092629423998336e+001
0	 4.400020000016400e+000	 1.799989999990450e+000	 1.091397075534203e+001
0	 4.400020000016399e+000	 1.866659999993466e+000	 1.089386256975569e+001
0	 4.400020000016399e+000	 1.933329999996683e+000	 1.086611397421953e+001
0	 4.400020000016400e+000	 2.000000000000000e+000	 1.083086925972864e+001
0	 4.466690000017615e+000	 1.333299999983334e+000	 1.070063455025101e+001
0	 4.466690000017617e+000	 1.399969999982150e+000	 1.072918927144622e+001
0	 4.466690000017617e+000	 1.466639999981867e+000	 1.075160760987362e+001
0	 4.466690000017618e+000	 1.533309999982383e+000	 1.076798623668164e+001
0	 4.466690000017615e+000	 1.599979999983599e+000	 1.077842182301865e+001
0	 4.466690000017616e+000	 1.666649999985416e+000	 1.078301104003300e+001
0	 4.466690000017616e+000	 1.733319999987733e+000	 1.078185055887296e+001
0	 4.466690000017616e+000	 1.799989999990450e+000	 1.077503705068673e+001
0	 4.466690000017617e+000	 1.866659999993466e+000	 1.076266718662251e+001
0	 4.466690000017617e+000	 1.933329999996683e+000	 1.074483763782837e+001
0	 4.466690000017617e+000	 2.000000000000000e+000	 1.072164507545239e+001
0	 4.533360000018131e+000	 1.333299999983334e+000	 1.061780738961857e+001
0	 4.533360000018131e+000	 1.399969999982150e+000	 1.063871920473761e+001
0	 4.533360000018132e+000	 1.466639999981867e+000	 1.065547551772788e+001
0	 4.533360000018131e+000	 1.533309999982383e+000	 1.066813729860219e+001
0	 4.533360000018132e+000	 1.599979999983600e+000	 1.067676551737334e+001
0	 4.533360000018132e+000	 1.666649999985416e+000	 1.068142114405403e+001
0	 4.533360000018131e+000	 1.733319999987733e+000	 1.068216514865701e+001
0	 4.533360000018132e+000	 1.799989999990450e+000	 1.067905850119490e+001
0	 4.533360000018133e+000	 1.866659999993466e+000	 1.067216217168033e+001
0	 4.533360000018133e+000	 1.933329999996683e+000	 1.066153713012591e+001
0	 4.533360000018131e+000	 2.000000000000000e+000	 1.064724434654415e+001
0	 4.600030000017849e+000	 1.333299999983334e+000	 1.056545848122582e+001
0	 4.600030000017848e+000	 1.399969999982150e+000	 1.058012777037612e+001
0	 4.600030000017847e+000	 1.466639999981866e+000	 1.059214427617698e+001
0	 4.600030000017849e+000	 1.533309999982383e+000	 1.060154518621716e+001
0	 4.600030000017849e+000	 1.599979999983599e+000	 1.060836768808537e+001
0	 4.600030000017848e+000	 1.666649999985416e+000	 1.061264896937031e+001
0	 4.600030000017849e+000	 1.733319999987733e+000	 1.061442621766067e+001
0	 4.600030000017848e+000	 1.799989999990449e+000	 1.061373662054507e+001
0	 4.600030000017849e+000	 1.866659999993466e+000	 1.061061736561215e+001
0	 4.600030000017850e+000	 1.933329999996683e+000	 1.060510564045049e+001
0	 4.600030000017850e+000	 2.000000000000000e+000	 1.059723863264867e+001
0	 4.666700000016666e+000	 1.333299999983334e+000	 1.052885165594849e+001
0	 4.666700000016665e+000	 1.399969999982150e+000	 1.053886197468489e+001
0	 4.666700000016666e+000	 1.466639999981866e+000	 1.054729908864247e+001
0	 4.666700000016667e+000	 1.533309999982383e+000	 1.055418832169746e+001
0	 4.666700000016666e+000	 1.599979999983600e+000	 1.055955499772609e+001
0	 4.666700000016665e+000	 1.666649999985416e+000	 1.056342444060456e+001
0	 4.666700000016666e+000	 1.733319999987733e+000	 1.056582197420906e+001
0	 4.666700000016666e+000	 1.799989999990450e+000	 1.056677292241576e+001
0	 4.666700000016666e+000	 1.866659999993466e+000	 1.056630260910085e+001
0	 4.666700000016666e+000	 1.933329999996683e+000	 1.056443635814043e+001
0	 4.666700000016666e+000	 2.000000000000000e+000	 1.056119949341065e+001
0	 4.000000000000001e+000	 2.000000000000000e+000	 1.280149958800469e+001
0	 4.000000000000001e+000	 2.066670000003317e+000	 1.258008449230848e+001
0	 4.000000000000001e+000	 2.133340000006534e+000	 1.237130895038879e+001
0	 4.000000000000000e+000	 2.200010000009551e+000	 1.217496356004535e+001
0	 4.000000000000001e+000	 2.266680000012268e+000	 1.199083891907798e+001
0	 4.000000000000000e+000	 2.333350000014584e+000	 1.181872562528659e+001
0	 4.000000000000000e+000	 2.400020000016400e+000	 1.165841427647121e+001
0	 4.000000000000001e+000	 2.466690000017617e+000	 1.150969547043195e+001
0	 4.000000000000001e+000	 2.533360000018134e+000	 1.137235980496901e+001
0	 4.000000000000000e+000	 2.600030000017850e+000	 1.124619787788271e+001
0	 4.000000000000000e+000	 2.666700000016667e+000	 1.113100028697346e+001
0	 4.066670000003316e+000	 2.000000000000000e+000	 1.226433742406171e+001
0	 4.066670000003317e+000	 2.066670000003317e+000	 1.209003486842801e+001
0	 4.066670000003317e+000	 2.133340000006534e+000	 1.192634749535477e+001
0	 4.066670000003317e+000	 2.200010000009551e+000	 1.177308244336627e+001
0	 4.066670000003318e+000	 2.266680000012268e+000	 1.163004685098684e+001
0	 4.066670000003317e+000	 2.333350000014583e+000	 1.149704785674094e+001
0	 4.066670000003317e+000	 2.400020000016401e+000	 1.137389259915307e+001
0	 4.066670000003317e+000	 2.466690000017617e+000	 1.126038821674784e+001
0	 4.066670000003318e+000	 2.533360000018134e+000	 1.115634184804990e+001
0	 4.066670000003317e+000	 2.600030000017850e+000	 1.106156063158403e+001
0	 4.066670000003316e+000	 2.666700000016667e+000	 1.097585170587506e+001
0	 4.133340000006533e+000	 2.000000000000000e+000	 1.182456935761767e+001
0	 4.133340000006534e+000	 2.066670000003318e+000	 1.168988238264416e+001
0	 4.133340000006534e+000	 2.133340000006534e+000	 1.156399800698183e+001
0	 4.133340000006533e+000	 2.200010000009550e+000	 1.144674065768407e+001
0	 4.133340000006534e+000	 2.266680000012267e+000	 1.133793476180433e+001
0	 4.133340000006533e+000	 2.333350000014585e+000	 1.123740474639613e+001
0	 4.133340000006535e+000	 2.400020000016401e+000	 1.114497503851308e+001
0	 4.133340000006534e+000	 2.466690000017617e+000	 1.106047006520883e+001
0	 4.133340000006533e+000	 2.533360000018134e+000	 1.098371425353710e+001
0	 4.133340000006534e+000	 2.600030000017851e+000	 1.091453203055167e+001
0	 4.133340000006534e+000	 2.666700000016666e+000	 1.085274782330640e+001
0	 4.200010000009550e+000	 1.999999999999999e+000	 1.147176694831746e+001
0	 4.200010000009550e+000	 2.066670000003318e+000	 1.136989868757270e+001
0	 4.200010000009550e+000	 2.133340000006534e+000	 1.127522065453446e+001
0	 4.200010000009550e+000	 2.200010000009551e+000	 1.118757531258984e+001
0	 4.200010000009550e+000	 2.266680000012268e+000	 1.110680512512597e+001
0	 4.200010000009550e+000	 2.333350000014584e+000	 1.103275255553005e+001
0	 4.200010000009550e+000	 2.400020000016400e+000	 1.096526006718935e+001
0	 4.200010000009551e+000	 2.466690000017618e+000	 1.090417012349115e+001
0	 4.200010000009550e+000	 2.533360000018134e+000	 1.084932518782283e+001
0	 4.200010000009550e+000	 2.600030000017850e+000	 1.080056772357176e+001
0	 4.200010000009550e+000	 2.666700000016667e+000	 1.075774019412542e+001
0	 4.266680000012267e+000	 2.000000000000000e+000	 1.119550175580599e+001
0	 4.266680000012266e+000	 2.066670000003317e+000	 1.112035543582934e+001
0	 4.266680000012268e+000	 2.133340000006534e+000	 1.105097560727709e+001
0	 4.266680000012268e+000	 2.200010000009550e+000	 1.098722351767459e+001
0	 4.266680000012268e+000	 2.266680000012267e+000	 1.092896041454727e+001
0	 4.266680000012268e+000	 2.333350000014584e+000	 1.087604754542057e+001
0	 4.266680000012268e+000	 2.400020000016401e+000	 1.082834615781998e+001
0	 4.266680000012266e+000	 2.466690000017617e+000	 1.078571749927103e+001
0	 4.266680000012267e+000	 2.533360000018134e+000	 1.074802281729930e+001
0	 4.266680000012268e+000	 2.600030000017850e+000	 1.071512335943041e+001
0	 4.266680000012266e+000	 2.666700000016666e+000	 1.068688037319000e+001
0	 4.333350000014584e+000	 2.000000000000000e+000	 1.098534533972810e+001
0	 4.333350000014583e+000	 2.066670000003317e+000	 1.093152428002979e+001
0	 4.333350000014582e+000	 2.133340000006534e+000	 1.088222303447414e+001
0	 4.333350000014584e+000	 2.200010000009550e+000	 1.083732238252936e+001
0	 4.333350000014583e+000	 2.266680000012267e+000	 1.079670310366372e+001
0	 4.333350000014582e+000	 2.333350000014584e+000	 1.076024597734549e+001
0	 4.333350000014584e+000	 2.400020000016401e+000	 1.072783178304301e+001
0	 4.333350000014582e+000	 2.466690000017616e+000	 1.069934130022463e+001
0	 4.333350000014583e+000	 2.533360000018134e+000	 1.067465530835872e+001
0	 4.333350000014584e+000	 2.600030000017851e+000	 1.065365458691371e+001
0	 4.333350000014583e+000	 2.666700000016666e+000	 1.063621991535804e+001
0	 4.400020000016400e+000	 2.000000000000000e+000	 1.083086925972864e+001
0	 4.400020000016400e+000	 2.066670000003317e+000	 1.079367687278975e+001
0	 4.400020000016399e+000	 2.133340000006534e+000	 1.075992310539002e+001
0	 4.400020000016399e+000	 2.200010000009550e+000	 1.072950901674513e+001
0	 4.400020000016399e+000	 2.266680000012267e+000	 1.070233566607075e+001
0	 4.400020000016399e+000	 2.333350000014585e+000	 1.067830411258264e+001
0	 4.400020000016401e+000	 2.400020000016401e+000	 1.065731541549650e+001
0	 4.400020000016400e+000	 2.466690000017617e+000	 1.063927063402811e+001
0	 4.400020000016401e+000	 2.533360000018133e+000	 1.062407082739325e+001
0	 4.400020000016400e+000	 2.600030000017850e+000	 1.061161705480774e+001
0	 4.400020000016400e+000	 2.666700000016666e+000	 1.060181037548741e+001
0	 4.466690000017617e+000	 2.000000000000000e+000	 1.072164507545239e+001
0	 4.466690000017616e+000	 2.066670000003316e+000	 1.069708486672483e+001
0	 4.466690000017616e+000	 2.133340000006533e+000	 1.067503598928908e+001
0	 4.466690000017617e+000	 2.200010000009550e+000	 1.065542052991284e+001
0	 4.466690000017615e+000	 2.266680000012267e+000	 1.063816057536383e+001
0	 4.466690000017616e+000	 2.333350000014585e+000	 1.062317821240979e+001
0	 4.466690000017615e+000	 2.400020000016400e+000	 1.061039552781847e+001
0	 4.466690000017616e+000	 2.466690000017617e+000	 1.059973460835763e+001
0	 4.466690000017618e+000	 2.533360000018134e+000	 1.059111754079506e+001
0	 4.466690000017618e+000	 2.600030000017851e+000	 1.058446641189856e+001
0	 4.466690000017616e+000	 2.666700000016666e+000	 1.057970330843596e+001
0	 4.533360000018131e+000	 2.000000000000000e+000	 1.064724434654415e+001
0	 4.533360000018133e+000	 2.066670000003317e+000	 1.063201991445069e+001
0	 4.533360000018133e+000	 2.133340000006534e+000	 1.061852185543568e+001
0	 4.533360000018131e+000	 2.200010000009550e+000	 1.060669403162345e+001
0	 4.533360000018131e+000	 2.266680000012267e+000	 1.059648030513835e+001
0	 4.533360000018132e+000	 2.333350000014584e+000	 1.058782453810471e+001
0	 4.533360000018132e+000	 2.400020000016400e+000	 1.058067059264690e+001
0	 4.533360000018132e+000	 2.466690000017617e+000	 1.057496233088930e+001
0	 4.533360000018132e+000	 2.533360000018133e+000	 1.057064361495627e+001
0	 4.533360000018132e+000	 2.600030000017850e+000	 1.056765830697221e+001
0	 4.533360000018131e+000	 2.666700000016666e+000	 1.056595026906152e+001
0	 4.600030000017850e+000	 2.000000000000000e+000	 1.059723863264867e+001
0	 4.600030000017848e+000	 2.066670000003317e+000	 1.058875366858291e+001
0	 4.600030000017850e+000	 2.133340000006534e+000	 1.058134087309412e+001
0	 4.600030000017849e+000	 2.200010000009551e+000	 1.057496663146785e+001
0	 4.600030000017848e+000	 2.266680000012267e+000	 1.056959732898967e+001
0	 4.600030000017848e+000	 2.333350000014584e+000	 1.056519935094513e+001
0	 4.600030000017849e+000	 2.400020000016401e+000	 1.056173908261978e+001
0	 4.600030000017850e+000	 2.466690000017617e+000	 1.055918290929922e+001
0	 4.600030000017848e+000	 2.533360000018134e+000	 1.055749721626900e+001
0	 4.600030000017849e+000	 2.600030000017850e+000	 1.055664838881471e+001
0	 4.600030000017850e+000	 2.666700000016666e+000	 1.055660281222193e+001
0	 4.666700000016666e+000	 2.000000000000000e+000	 1.056119949341065e+001
0	 4.666700000016665e+000	 2.066670000003317e+000	 1.055755778173706e+001
0	 4.666700000016666e+000	 2.133340000006534e+000	 1.055445321152870e+001
0	 4.666700000016667e+000	 2.200010000009551e+000	 1.055187543903696e+001
0	 4.666700000016666e+000	 2.266680000012268e+000	 1.054981412051319e+001
0	 4.666700000016667e+000	 2.333350000014584e+000	 1.054825891220876e+001
0	 4.666700000016666e+000	 2.400020000016401e+000	 1.054719947037505e+001
0	 4.666700000016668e+000	 2.466690000017617e+000	 1.054662545126346e+001
0	 4.666700000016667e+000	 2.533360000018134e+000	 1.054652651112533e+001
0	 4.666700000016667e+000	 2.600030000017851e+000	 1.054689230621204e+001
0	 4.666700000016666e+000	 2.666700000016666e+000	 1.054771249277498e+001
0	 4.000000000000000e+000	 2.666700000016667e+000	 1.113100028697346e+001
0	 4.000000000000000e+000	 2.733360000014533e+000	 1.102661910733443e+001
0	 4.000000000000000e+000	 2.800020000011599e+000	 1.093298672275701e+001
0	 4.000000000000001e+000	 2.866680000008067e+000	 1.085006359496929e+001
0	 4.000000000000000e+000	 2.933340000004133e+000	 1.077781018569922e+001
0	 4.000000000000000e+000	 3.000000000000000e+000	 1.071618695667452e+001
0	 4.000000000000000e+000	 3.066659999995867e+000	 1.066515436962272e+001
0	 4.000000000000000e+000	 3.133319999991933e+000	 1.062467288627118e+001
0	 4.000000000000001e+000	 3.199979999988401e+000	 1.059470296834703e+001
0	 4.000000000000001e+000	 3.266639999985467e+000	 1.057520507757725e+001
0	 4.000000000000000e+000	 3.333299999983333e+000	 1.056613967568859e+001
0	 4.066670000003316e+000	 2.666700000016667e+000	 1.097585170587506e+001
0	 4.066670000003318e+000	 2.733360000014534e+000	 1.089857229280390e+001
0	 4.066670000003316e+000	 2.800020000011600e+000	 1.082918113063395e+001
0	 4.066670000003319e+000	 2.866680000008067e+000	 1.076767418731635e+001
0	 4.066670000003317e+000	 2.933340000004133e+000	 1.071404743080208e+001
0	 4.066670000003319e+000	 3.000000000000000e+000	 1.066829682904197e+001
0	 4.066670000003318e+000	 3.066659999995867e+000	 1.063041834998674e+001
0	 4.066670000003318e+000	 3.133319999991933e+000	 1.060040796158694e+001
0	 4.066670000003316e+000	 3.199979999988401e+000	 1.057826163179298e+001
0	 4.066670000003318e+000	 3.266639999985467e+000	 1.056397532855514e+001
0	 4.066670000003317e+000	 3.333299999983334e+000	 1.055754501982356e+001
0	 4.133340000006534e+000	 2.666700000016666e+000	 1.085274782330640e+001
0	 4.133340000006534e+000	 2.733360000014534e+000	 1.079736145618923e+001
0	 4.133340000006531e+000	 2.800020000011599e+000	 1.074748921858691e+001
0	 4.133340000006533e+000	 2.866680000008067e+000	 1.070315639841902e+001
0	 4.133340000006534e+000	 2.933340000004133e+000	 1.066438828360506e+001
0	 4.133340000006534e+000	 3.000000000000000e+000	 1.063121016206442e+001
0	 4.133340000006534e+000	 3.066659999995867e+000	 1.060364732171636e+001
0	 4.133340000006533e+000	 3.133319999991933e+000	 1.058172505048008e+001
0	 4.133340000006533e+000	 3.199979999988401e+000	 1.056546863627467e+001
0	 4.133340000006533e+000	 3.266639999985467e+000	 1.055490336701910e+001
0	 4.133340000006533e+000	 3.333299999983333e+000	 1.055005453063228e+001
0	 4.200010000009550e+000	 2.666700000016667e+000	 1.075774019412542e+001
0	 4.200010000009551e+000	 2.733360000014533e+000	 1.071960640482094e+001
0	 4.200010000009551e+000	 2.800020000011600e+000	 1.068505549256921e+001
0	 4.200010000009550e+000	 2.866680000008067e+000	 1.065413587900372e+001
0	 4.200010000009551e+000	 2.933340000004133e+000	 1.062689598575787e+001
0	 4.200010000009553e+000	 3.000000000000000e+000	 1.060338423446505e+001
0	 4.200010000009550e+000	 3.066659999995866e+000	 1.058364904675850e+001
0	 4.200010000009550e+000	 3.133319999991933e+000	 1.056773884427148e+001
0	 4.200010000009550e+000	 3.199979999988401e+000	 1.055570204863711e+001
0	 4.200010000009550e+000	 3.266639999985467e+000	 1.054758708148852e+001
0	 4.200010000009550e+000	 3.333299999983334e+000	 1.054344236445871e+001
0	 4.266680000012266e+000	 2.666700000016666e+000	 1.068688037319000e+001
0	 4.266680000012268e+000	 2.733360000014534e+000	 1.066192694602953e+001
0	 4.266680000012265e+000	 2.800020000011599e+000	 1.063902445853420e+001
0	 4.266680000012267e+000	 2.866680000008067e+000	 1.061823827979684e+001
0	 4.266680000012267e+000	 2.933340000004133e+000	 1.059963377891022e+001
0	 4.266680000012267e+000	 2.999999999999999e+000	 1.058327632496708e+001
0	 4.266680000012265e+000	 3.066659999995866e+000	 1.056923128706012e+001
0	 4.266680000012267e+000	 3.133319999991934e+000	 1.055756403428200e+001
0	 4.266680000012266e+000	 3.199979999988400e+000	 1.054833993572536e+001
0	 4.266680000012268e+000	 3.266639999985467e+000	 1.054162436048279e+001
0	 4.266680000012266e+000	 3.333299999983333e+000	 1.053748267764685e+001
0	 4.333350000014583e+000	 2.666700000016666e+000	 1.063621991535804e+001
0	 4.333350000014582e+000	 2.733360000014532e+000	 1.062094288714549e+001
0	 4.333350000014582e+000	 2.800020000011599e+000	 1.060654062243520e+001
0	 4.333350000014584e+000	 2.866680000008067e+000	 1.059308925152477e+001
0	 4.333350000014582e+000	 2.933340000004133e+000	 1.058066490471176e+001
0	 4.333350000014583e+000	 3.000000000000000e+000	 1.056934371229369e+001
0	 4.333350000014583e+000	 3.066659999995867e+000	 1.055920180456811e+001
0	 4.333350000014584e+000	 3.133319999991934e+000	 1.055031531183252e+001
0	 4.333350000014582e+000	 3.199979999988400e+000	 1.054276036438443e+001
0	 4.333350000014583e+000	 3.266639999985467e+000	 1.053661309252132e+001
0	 4.333350000014582e+000	 3.333299999983333e+000	 1.053194962654064e+001
0	 4.400020000016400e+000	 2.666700000016666e+000	 1.060181037548741e+001
0	 4.400020000016401e+000	 2.733360000014534e+000	 1.059327403549930e+001
0	 4.400020000016400e+000	 2.800020000011600e+000	 1.058474849022554e+001
0	 4.400020000016399e+000	 2.866680000008066e+000	 1.057631444491392e+001
0	 4.400020000016400e+000	 2.933340000004134e+000	 1.056805260481219e+001
0	 4.400020000016397e+000	 2.999999999999999e+000	 1.056004367516811e+001
0	 4.400020000016401e+000	 3.066659999995867e+000	 1.055236836122944e+001
0	 4.400020000016399e+000	 3.133319999991933e+000	 1.054510736824393e+001
0	 4.400020000016401e+000	 3.199979999988401e+000	 1.053834140145936e+001
0	 4.400020000016401e+000	 3.266639999985468e+000	 1.053215116612348e+001
0	 4.400020000016401e+000	 3.333299999983334e+000	 1.052661736748407e+001
0	 4.466690000017616e+000	 2.666700000016666e+000	 1.057970330843596e+001
0	 4.466690000017616e+000	 2.733360000014533e+000	 1.057554019842140e+001
0	 4.466690000017618e+000	 2.800020000011600e+000	 1.057079256785851e+001
0	 4.466690000017616e+000	 2.866680000008066e+000	 1.056553951069064e+001
0	 4.466690000017616e+000	 2.933340000004134e+000	 1.055986012086118e+001
0	 4.466690000017618e+000	 3.000000000000000e+000	 1.055383349231350e+001
0	 4.466690000017615e+000	 3.066659999995867e+000	 1.054753871899099e+001
0	 4.466690000017616e+000	 3.133319999991933e+000	 1.054105489483708e+001
0	 4.466690000017618e+000	 3.199979999988400e+000	 1.053446111379516e+001
0	 4.466690000017616e+000	 3.266639999985467e+000	 1.052783646980869e+001
0	 4.466690000017616e+000	 3.333299999983334e+000	 1.052126005682111e+001
0	 4.533360000018131e+000	 2.666700000016666e+000	 1.056595026906152e+001
0	 4.533360000018131e+000	 2.733360000014534e+000	 1.056436118324226e+001
0	 4.533360000018133e+000	 2.800020000011601e+000	 1.056181736128738e+001
0	 4.533360000018132e+000	 2.866680000008066e+000	 1.055839009958130e+001
0	 4.533360000018132e+000	 2.933340000004133e+000	 1.055415069450838e+001
0	 4.533360000018131e+000	 3.000000000000000e+000	 1.054917044245305e+001
0	 4.533360000018131e+000	 3.066659999995866e+000	 1.054352063979972e+001
0	 4.533360000018134e+000	 3.133319999991933e+000	 1.053727258293284e+001
0	 4.533360000018133e+000	 3.199979999988401e+000	 1.053049756823688e+001
0	 4.533360000018132e+000	 3.266639999985467e+000	 1.052326689209634e+001
0	 4.533360000018131e+000	 3.333299999983334e+000	 1.051565185089573e+001
0	 4.600030000017850e+000	 2.666700000016666e+000	 1.055660281222193e+001
0	 4.600030000017848e+000	 2.733360000014532e+000	 1.055635679729228e+001
0	 4.600030000017848e+000	 2.800020000011600e+000	 1.055496737646546e+001
0	 4.600030000017849e+000	 2.866680000008067e+000	 1.055249186231225e+001
0	 4.600030000017848e+000	 2.933340000004133e+000	 1.054898756740346e+001
0	 4.600030000017849e+000	 3.000000000000000e+000	 1.054451180430993e+001
0	 4.600030000017848e+000	 3.066659999995867e+000	 1.053912188560250e+001
0	 4.600030000017848e+000	 3.133319999991934e+000	 1.053287512385206e+001
0	 4.600030000017849e+000	 3.199979999988401e+000	 1.052582883162953e+001
0	 4.600030000017848e+000	 3.266639999985467e+000	 1.051804032150582e+001
0	 4.600030000017848e+000	 3.333299999983334e+000	 1.050956690605189e+001
0	 4.666700000016666e+000	 2.666700000016666e+000	 1.054771249277498e+001
0	 4.666700000016666e+000	 2.733360000014533e+000	 1.054814684790189e+001
0	 4.666700000016665e+000	 2.800020000011599e+000	 1.054738711934597e+001
0	 4.666700000016666e+000	 2.866680000008067e+000	 1.054547044960982e+001
0	 4.666700000016667e+000	 2.933340000004133e+000	 1.054243398119604e+001
0	 4.666700000016666e+000	 3.000000000000000e+000	 1.053831485660731e+001
0	 4.666700000016665e+000	 3.066659999995866e+000	 1.053315021834627e+001
0	 4.666700000016666e+000	 3.133319999991934e+000	 1.052697720891563e+001
0	 4.666700000016665e+000	 3.199979999988400e+000	 1.051983297081813e+001
0	 4.666700000016665e+000	 3.266639999985467e+000	 1.051175464655653e+001
0	 4.666700000016666e+000	 3.333299999983334e+000	 1.050277937863360e+001
0	 4.000000000000000e+000	 3.333299999983333e+000	 1.056613967568859e+001
0	 4.000000000000000e+000	 3.399969999982150e+000	 1.056138222983981e+001
0	 4.000000000000001e+000	 3.466639999981866e+000	 1.055490605928432e+001
0	 4.000000000000000e+000	 3.533309999982383e+000	 1.054681666566530e+001
0	 4.000000000000000e+000	 3.599979999983600e+000	 1.053721955062588e+001
0	 4.000000000000001e+000	 3.666649999985417e+000	 1.052622021580923e+001
0	 4.000000000000001e+000	 3.733319999987733e+000	 1.051392416285848e+001
0	 4.000000000000001e+000	 3.799989999990450e+000	 1.050043689341674e+001
0	 4.000000000000000e+000	 3.866659999993467e+000	 1.048586390912712e+001
0	 3.999999999999999e+000	 3.933329999996683e+000	 1.047031071163271e+001
0	 4.000000000000000e+000	 4.000000000000000e+000	 1.045388280257659e+001
0	 4.066670000003317e+000	 3.333299999983334e+000	 1.055754501982355e+001
0	 4.066670000003317e+000	 3.399969999982150e+000	 1.055418980520585e+001
0	 4.066670000003318e+000	 3.466639999981866e+000	 1.054917282549445e+001
0	 4.066670000003315e+000	 3.533309999982382e+000	 1.054255498365900e+001
0	 4.066670000003316e+000	 3.599979999983600e+000	 1.053439718266904e+001
0	 4.066670000003317e+000	 3.666649999985416e+000	 1.052476032549415e+001
0	 4.066670000003318e+000	 3.733319999987734e+000	 1.051370531510391e+001
0	 4.066670000003317e+000	 3.799989999990450e+000	 1.050129305446784e+001
0	 4.066670000003317e+000	 3.866659999993466e+000	 1.048758444655547e+001
0	 4.066670000003317e+000	 3.933329999996684e+000	 1.047264039433630e+001
0	 4.066670000003317e+000	 4.000000000000001e+000	 1.045652180077985e+001
0	 4.133340000006533e+000	 3.333299999983333e+000	 1.055005453063227e+001
0	 4.133340000006534e+000	 3.399969999982150e+000	 1.054730723957565e+001
0	 4.133340000006534e+000	 3.466639999981867e+000	 1.054304536584097e+001
0	 4.133340000006534e+000	 3.533309999982382e+000	 1.053729144456742e+001
0	 4.133340000006533e+000	 3.599979999983600e+000	 1.053006801089420e+001
0	 4.133340000006534e+000	 3.666649999985416e+000	 1.052139759996048e+001
0	 4.133340000006534e+000	 3.733319999987733e+000	 1.051130274690540e+001
0	 4.133340000006534e+000	 3.799989999990451e+000	 1.049980598686813e+001
0	 4.133340000006533e+000	 3.866659999993467e+000	 1.048692985498776e+001
0	 4.133340000006534e+000	 3.933329999996684e+000	 1.047269688640341e+001
0	 4.133340000006533e+000	 4.000000000000001e+000	 1.045712961625418e+001
0	 4.200010000009550e+000	 3.333299999983334e+000	 1.054344236445872e+001
0	 4.200010000009550e+000	 3.399969999982150e+000	 1.054065251706055e+001
0	 4.200010000009551e+000	 3.466639999981867e+000	 1.053656411958597e+001
0	 4.200010000009551e+000	 3.533309999982383e+000	 1.053116757018695e+001
0	 4.200010000009551e+000	 3.599979999983601e+000	 1.052445326701544e+001
0	 4.200010000009550e+000	 3.666649999985415e+000	 1.051641160822341e+001
0	 4.200010000009551e+000	 3.733319999987733e+000	 1.050703299196277e+001
0	 4.200010000009550e+000	 3.799989999990450e+000	 1.049630781638542e+001
0	 4.200010000009550e+000	 3.866659999993467e+000	 1.048422647964331e+001
0	 4.200010000009549e+000	 3.933329999996684e+000	 1.047077937988829e+001
0	 4.200010000009550e+000	 4.000000000000000e+000	 1.045595691527222e+001
0	 4.266680000012266e+000	 3.333299999983333e+000	 1.053748267764685e+001
0	 4.266680000012267e+000	 3.399969999982151e+000	 1.053414362177188e+001
0	 4.266680000012267e+000	 3.466639999981867e+000	 1.052976952599160e+001
0	 4.266680000012266e+000	 3.533309999982384e+000	 1.052432488231395e+001
0	 4.266680000012268e+000	 3.599979999983600e+000	 1.051777418274683e+001
0	 4.266680000012268e+000	 3.666649999985416e+000	 1.051008191929812e+001
0	 4.266680000012268e+000	 3.733319999987733e+000	 1.050121258397574e+001
0	 4.266680000012266e+000	 3.799989999990449e+000	 1.049113066878755e+001
0	 4.266680000012268e+000	 3.866659999993467e+000	 1.047980066574140e+001
0	 4.266680000012267e+000	 3.933329999996684e+000	 1.046718706684513e+001
0	 4.266680000012267e+000	 4.000000000000001e+000	 1.045325436410657e+001
0	 4.333350000014582e+000	 3.333299999983333e+000	 1.053194962654064e+001
0	 4.333350000014584e+000	 3.399969999982150e+000	 1.052769853782096e+001
0	 4.333350000014582e+000	 3.466639999981867e+000	 1.052270202431997e+001
0	 4.333350000014582e+000	 3.533309999982383e+000	 1.051690490274477e+001
0	 4.333350000014584e+000	 3.599979999983600e+000	 1.051025198980238e+001
0	 4.333350000014584e+000	 3.666649999985416e+000	 1.050268810219983e+001
0	 4.333350000014582e+000	 3.733319999987733e+000	 1.049415805664414e+001
0	 4.333350000014583e+000	 3.799989999990450e+000	 1.048460666984231e+001
0	 4.333350000014584e+000	 3.866659999993467e+000	 1.047397875850134e+001
0	 4.333350000014584e+000	 3.933329999996683e+000	 1.046221913932820e+001
0	 4.333350000014585e+000	 4.000000000000000e+000	 1.044927262902987e+001
0	 4.400020000016401e+000	 3.333299999983334e+000	 1.052661736748407e+001
0	 4.400020000016399e+000	 3.399969999982149e+000	 1.052123524931909e+001
0	 4.400020000016400e+000	 3.466639999981866e+000	 1.051540205383323e+001
0	 4.400020000016400e+000	 3.533309999982383e+000	 1.050904915327580e+001
0	 4.400020000016401e+000	 3.599979999983600e+000	 1.050210791989619e+001
0	 4.400020000016399e+000	 3.666649999985415e+000	 1.049450972594372e+001
0	 4.400020000016400e+000	 3.733319999987733e+000	 1.048618594366772e+001
0	 4.400020000016399e+000	 3.799989999990451e+000	 1.047706794531753e+001
0	 4.400020000016399e+000	 3.866659999993466e+000	 1.046708710314243e+001
0	 4.400020000016399e+000	 3.933329999996684e+000	 1.045617478939173e+001
0	 4.400020000016400e+000	 4.000000000000000e+000	 1.044426237631472e+001
0	 4.466690000017616e+000	 3.333299999983334e+000	 1.052126005682111e+001
0	 4.466690000017617e+000	 3.399969999982150e+000	 1.051467174037765e+001
0	 4.466690000017617e+000	 3.466639999981867e+000	 1.050791005379346e+001
0	 4.466690000017617e+000	 3.533309999982383e+000	 1.050089915570341e+001
0	 4.466690000017616e+000	 3.599979999983599e+000	 1.049356320474230e+001
0	 4.466690000017617e+000	 3.666649999985417e+000	 1.048582635954499e+001
0	 4.466690000017615e+000	 3.733319999987733e+000	 1.047761277874629e+001
0	 4.466690000017616e+000	 3.799989999990450e+000	 1.046884662098101e+001
0	 4.466690000017618e+000	 3.866659999993467e+000	 1.045945204488397e+001
0	 4.466690000017615e+000	 3.933329999996683e+000	 1.044935320908995e+001
0	 4.466690000017616e+000	 4.000000000000001e+000	 1.043847427223374e+001
0	 4.533360000018131e+000	 3.333299999983334e+000	 1.051565185089573e+001
0	 4.533360000018132e+000	 3.399969999982150e+000	 1.050792599510792e+001
0	 4.533360000018132e+000	 3.466639999981867e+000	 1.050026646346282e+001
0	 4.533360000018132e+000	 3.533309999982382e+000	 1.049259643182395e+001
0	 4.533360000018132e+000	 3.599979999983599e+000	 1.048483907605478e+001
0	 4.533360000018131e+000	 3.666649999985416e+000	 1.047691757201884e+001
0	 4.533360000018131e+000	 3.733319999987734e+000	 1.046875509557963e+001
0	 4.533360000018133e+000	 3.799989999990450e+000	 1.046027482260061e+001
0	 4.533360000018131e+000	 3.866659999993466e+000	 1.045139992894527e+001
0	 4.533360000018132e+000	 3.933329999996683e+000	 1.044205359047710e+001
0	 4.533360000018131e+000	 4.000000000000001e+000	 1.043215898305955e+001
0	 4.600030000017848e+000	 3.333299999983334e+000	 1.050956690605189e+001
0	 4.600030000017849e+000	 3.399969999982150e+000	 1.050091599762126e+001
0	 4.600030000017848e+000	 3.466639999981866e+000	 1.049251172210345e+001
0	 4.600030000017849e+000	 3.533309999982383e+000	 1.048428250343381e+001
0	 4.600030000017849e+000	 3.599979999983600e+000	 1.047615676554770e+001
0	 4.600030000017848e+000	 3.666649999985416e+000	 1.046806293238048e+001
0	 4.600030000017849e+000	 3.733319999987733e+000	 1.045992942786750e+001
0	 4.600030000017848e+000	 3.799989999990450e+000	 1.045168467594410e+001
0	 4.600030000017849e+000	 3.866659999993467e+000	 1.044325710054562e+001
0	 4.600030000017848e+000	 3.933329999996683e+000	 1.043457512560739e+001
0	 4.600030000017848e+000	 4.000000000000000e+000	 1.042556717506477e+001
0	 4.666700000016666e+000	 3.333299999983334e+000	 1.050277937863361e+001
0	 4.666700000016665e+000	 3.399969999982150e+000	 1.049355973202901e+001
0	 4.666700000016666e+000	 3.466639999981866e+000	 1.048468626897746e+001
0	 4.666700000016666e+000	 3.533309999982382e+000	 1.047609889232937e+001
0	 4.666700000016665e+000	 3.599979999983599e+000	 1.046773750493511e+001
0	 4.666700000016667e+000	 3.666649999985417e+000	 1.045954200964510e+001
0	 4.666700000016667e+000	 3.733319999987733e+000	 1.045145230930971e+001
0	 4.666700000016666e+000	 3.799989999990449e+000	 1.044340830677932e+001
0	 4.666700000016667e+000	 3.866659999993467e+000	 1.043534990490433e+001
0	 4.666700000016666e+000	 3.933329999996684e+000	 1.042721700653509e+001
0	 4.666700000016667e+000	 4.000000000000001e+000	 1.041894951452200e+001
0	 4.000000000000000e+000	 4.000000000000000e+000	 1.045388280257659e+001
0	 4.000000000000000e+000	 4.066670000003317e+000	 1.043759053236361e+001
0	 4.000000000000000e+000	 4.133340000006534e+000	 1.042230942958973e+001
0	 4.000000000000000e+000	 4.200010000009550e+000	 1.040794276318466e+001
0	 4.000000000000001e+000	 4.266680000012268e+000	 1.039439380207810e+001
0	 4.000000000000000e+000	 4.333350000014584e+000	 1.038156581519981e+001
0	 4.000000000000000e+000	 4.400020000016401e+000	 1.036936207147948e+001
0	 4.000000000000000e+000	 4.466690000017617e+000	 1.035768583984686e+001
0	 4.000000000000001e+000	 4.533360000018134e+000	 1.034644038923167e+001
0	 4.000000000000000e+000	 4.600030000017851e+000	 1.033552898856365e+001
0	 4.000000000000000e+000	 4.666700000016666e+000	 1.032485490677255e+001
0	 4.066670000003317e+000	 4.000000000000001e+000	 1.045652180077985e+001
0	 4.066670000003317e+000	 4.066670000003317e+000	 1.044032292490038e+001
0	 4.066670000003317e+000	 4.133340000006534e+000	 1.042504882164871e+001
0	 4.066670000003317e+000	 4.200010000009550e+000	 1.041062658789907e+001
0	 4.066670000003318e+000	 4.266680000012268e+000	 1.039698332052572e+001
0	 4.066670000003318e+000	 4.333350000014584e+000	 1.038404611640291e+001
0	 4.066670000003317e+000	 4.400020000016400e+000	 1.037174207240490e+001
0	 4.066670000003317e+000	 4.466690000017617e+000	 1.035999828540595e+001
0	 4.066670000003316e+000	 4.533360000018134e+000	 1.034874185228032e+001
0	 4.066670000003317e+000	 4.600030000017850e+000	 1.033789986990228e+001
0	 4.066670000003317e+000	 4.666700000016667e+000	 1.032739943514611e+001
0	 4.133340000006533e+000	 4.000000000000001e+000	 1.045712961625418e+001
0	 4.133340000006534e+000	 4.066670000003318e+000	 1.044132804476880e+001
0	 4.133340000006533e+000	 4.133340000006534e+000	 1.042634244509427e+001
0	 4.133340000006533e+000	 4.200010000009550e+000	 1.041212076174706e+001
0	 4.133340000006534e+000	 4.266680000012268e+000	 1.039861093924369e+001
0	 4.133340000006532e+000	 4.333350000014584e+000	 1.038576092210062e+001
0	 4.133340000006534e+000	 4.400020000016402e+000	 1.037351865483435e+001
0	 4.133340000006534e+000	 4.466690000017618e+000	 1.036183208196140e+001
0	 4.133340000006534e+000	 4.533360000018134e+000	 1.035064914799826e+001
0	 4.133340000006534e+000	 4.600030000017851e+000	 1.033991779746143e+001
0	 4.133340000006533e+000	 4.666700000016667e+000	 1.032958597486742e+001
0	 4.200010000009550e+000	 4.000000000000000e+000	 1.045595691527222e+001
0	 4.200010000009550e+000	 4.066670000003317e+000	 1.044080065052823e+001
0	 4.200010000009550e+000	 4.133340000006535e+000	 1.042633575952582e+001
0	 4.200010000009550e+000	 4.200010000009550e+000	 1.041252805412140e+001
0	 4.200010000009550e+000	 4.266680000012268e+000	 1.039934334617141e+001
0	 4.200010000009551e+000	 4.333350000014583e+000	 1.038674744753228e+001
0	 4.200010000009550e+000	 4.400020000016402e+000	 1.037470617006044e+001
0	 4.200010000009551e+000	 4.466690000017619e+000	 1.036318532561235e+001
0	 4.200010000009550e+000	 4.533360000018135e+000	 1.035215072604445e+001
0	 4.200010000009550e+000	 4.600030000017851e+000	 1.034156818321318e+001
0	 4.200010000009550e+000	 4.666700000016666e+000	 1.033140350897502e+001
0	 4.266680000012267e+000	 4.000000000000001e+000	 1.045325436410657e+001
0	 4.266680000012267e+000	 4.066670000003317e+000	 1.043893550073808e+001
0	 4.266680000012268e+000	 4.133340000006534e+000	 1.042517422454281e+001
0	 4.266680000012267e+000	 4.200010000009550e+000	 1.041195123441487e+001
0	 4.266680000012268e+000	 4.266680000012268e+000	 1.039924722924831e+001
0	 4.266680000012268e+000	 4.333350000014583e+000	 1.038704290793724e+001
0	 4.266680000012267e+000	 4.400020000016402e+000	 1.037531896937574e+001
0	 4.266680000012266e+000	 4.466690000017617e+000	 1.036405611245790e+001
0	 4.266680000012266e+000	 4.533360000018133e+000	 1.035323503607784e+001
0	 4.266680000012267e+000	 4.600030000017851e+000	 1.034283643912962e+001
0	 4.266680000012266e+000	 4.666700000016666e+000	 1.033284102050736e+001
0	 4.333350000014585e+000	 4.000000000000000e+000	 1.044927262902987e+001
0	 4.333350000014583e+000	 4.066670000003318e+000	 1.043592735395769e+001
0	 4.333350000014582e+000	 4.133340000006534e+000	 1.042300329974466e+001
0	 4.333350000014584e+000	 4.200010000009550e+000	 1.041049307202022e+001
0	 4.333350000014583e+000	 4.266680000012268e+000	 1.039838927641381e+001
0	 4.333350000014582e+000	 4.333350000014584e+000	 1.038668451855488e+001
0	 4.333350000014583e+000	 4.400020000016401e+000	 1.037537140407286e+001
0	 4.333350000014582e+000	 4.466690000017616e+000	 1.036444253859721e+001
0	 4.333350000014583e+000	 4.533360000018132e+000	 1.035389052775737e+001
0	 4.333350000014583e+000	 4.600030000017850e+000	 1.034370797718280e+001
0	 4.333350000014582e+000	 4.666700000016665e+000	 1.033388749250296e+001
0	 4.400020000016400e+000	 4.000000000000000e+000	 1.044426237631472e+001
0	 4.400020000016399e+000	 4.066670000003317e+000	 1.043197096874645e+001
0	 4.400020000016399e+000	 4.133340000006534e+000	 1.041996844473080e+001
0	 4.400020000016399e+000	 4.200010000009550e+000	 1.040825633633027e+001
0	 4.400020000016399e+000	 4.266680000012268e+000	 1.039683617560733e+001
0	 4.400020000016399e+000	 4.333350000014584e+000	 1.038570949462455e+001
0	 4.400020000016399e+000	 4.400020000016402e+000	 1.037487782544440e+001
0	 4.400020000016399e+000	 4.466690000017615e+000	 1.036434270012938e+001
0	 4.400020000016399e+000	 4.533360000018132e+000	 1.035410565074201e+001
0	 4.400020000016399e+000	 4.600030000017850e+000	 1.034416820934482e+001
0	 4.400020000016400e+000	 4.666700000016666e+000	 1.033453190800029e+001
0	 4.466690000017616e+000	 4.000000000000001e+000	 1.043847427223374e+001
0	 4.466690000017616e+000	 4.066670000003316e+000	 1.042726110366373e+001
0	 4.466690000017616e+000	 4.133340000006534e+000	 1.041621511910064e+001
0	 4.466690000017616e+000	 4.200010000009551e+000	 1.040534379673773e+001
0	 4.466690000017615e+000	 4.266680000012268e+000	 1.039465461476831e+001
0	 4.466690000017618e+000	 4.333350000014584e+000	 1.038415505138561e+001
0	 4.466690000017616e+000	 4.400020000016401e+000	 1.037385258478293e+001
0	 4.466690000017617e+000	 4.466690000017619e+000	 1.036375469315354e+001
0	 4.466690000017618e+000	 4.533360000018133e+000	 1.035386885469072e+001
0	 4.466690000017618e+000	 4.600030000017851e+000	 1.034420254758774e+001
0	 4.466690000017615e+000	 4.666700000016665e+000	 1.033476325003788e+001
0	 4.533360000018131e+000	 4.000000000000001e+000	 1.043215898305955e+001
0	 4.533360000018134e+000	 4.066670000003318e+000	 1.042199251726891e+001
0	 4.533360000018133e+000	 4.133340000006534e+000	 1.041188878245362e+001
0	 4.533360000018130e+000	 4.200010000009550e+000	 1.040185822263545e+001
0	 4.533360000018131e+000	 4.266680000012268e+000	 1.039191128183613e+001
0	 4.533360000018131e+000	 4.333350000014583e+000	 1.038205840407743e+001
0	 4.533360000018132e+000	 4.400020000016402e+000	 1.037231003338107e+001
0	 4.533360000018132e+000	 4.466690000017617e+000	 1.036267661376883e+001
0	 4.533360000018133e+000	 4.533360000018135e+000	 1.035316858926244e+001
0	 4.533360000018133e+000	 4.600030000017851e+000	 1.034379640388366e+001
0	 4.533360000018131e+000	 4.666700000016666e+000	 1.033457050165422e+001
0	 4.600030000017848e+000	 4.000000000000000e+000	 1.042556717506477e+001
0	 4.600030000017849e+000	 4.066670000003318e+000	 1.041635996812134e+001
0	 4.600030000017850e+000	 4.133340000006535e+000	 1.040713489438916e+001
0	 4.600030000017849e+000	 4.200010000009551e+000	 1.039790238341614e+001
0	 4.600030000017848e+000	 4.266680000012267e+000	 1.038867286475023e+001
0	 4.600030000017848e+000	 4.333350000014583e+000	 1.037945676793934e+001
0	 4.600030000017849e+000	 4.400020000016401e+000	 1.037026452253140e+001
0	 4.600030000017849e+000	 4.466690000017617e+000	 1.036110655807436e+001
0	 4.600030000017847e+000	 4.533360000018132e+000	 1.035199330411613e+001
0	 4.600030000017848e+000	 4.600030000017850e+000	 1.034293519020463e+001
0	 4.600030000017850e+000	 4.666700000016668e+000	 1.033394264588780e+001
0	 4.666700000016667e+000	 4.000000000000001e+000	 1.041894951452200e+001
0	 4.666700000016666e+000	 4.066670000003317e+000	 1.041055821478041e+001
0	 4.666700000016666e+000	 4.133340000006535e+000	 1.040209891450668e+001
0	 4.666700000016667e+000	 4.200010000009550e+000	 1.039357904847261e+001
0	 4.666700000016666e+000	 4.266680000012268e+000	 1.038500605145001e+001
0	 4.666700000016665e+000	 4.333350000014583e+000	 1.037638735821073e+001
0	 4.666700000016665e+000	 4.400020000016400e+000	 1.036773040352652e+001
0	 4.666700000016667e+000	 4.466690000017618e+000	 1.035904262216927e+001
0	 4.666700000016666e+000	 4.533360000018134e+000	 1.035033144891074e+001
0	 4.666700000016668e+000	 4.600030000017852e+000	 1.034160431852276e+001
0	 4.666700000016666e+000	 4.666700000016666e+000	 1.033286866577713e+001
0	 4.000000000000000e+000	 4.666700000016666e+000	 1.032485490677255e+001
0	 4.000000000000000e+000	 4.733360000014533e+000	 1.031430128040462e+001
0	 4.000000000000000e+000	 4.800020000011600e+000	 1.030383253351373e+001
0	 4.000000000000001e+000	 4.866680000008067e+000	 1.029347863050264e+001
0	 3.999999999999999e+000	 4.933340000004133e+000	 1.028326953577403e+001
0	 3.999999999999999e+000	 5.000000000000000e+000	 1.027323521373064e+001
0	 4.000000000000000e+000	 5.066659999995866e+000	 1.026340562877512e+001
0	 4.000000000000000e+000	 5.133319999991934e+000	 1.025381074531021e+001
0	 4.000000000000001e+000	 5.199979999988400e+000	 1.024448052773860e+001
0	 4.000000000000000e+000	 5.266639999985467e+000	 1.023544494046294e+001
0	 4.000000000000000e+000	 5.333299999983334e+000	 1.022673394788594e+001
0	 4.066670000003317e+000	 4.666700000016667e+000	 1.032739943514611e+001
0	 4.066670000003317e+000	 4.733360000014532e+000	 1.031709335532956e+001
0	 4.066670000003315e+000	 4.800020000011598e+000	 1.030689301363514e+001
0	 4.066670000003319e+000	 4.866680000008067e+000	 1.029681802978418e+001
0	 4.066670000003318e+000	 4.933340000004133e+000	 1.028688802349803e+001
0	 4.066670000003317e+000	 5.000000000000000e+000	 1.027712261449799e+001
0	 4.066670000003318e+000	 5.066659999995867e+000	 1.026754142250537e+001
0	 4.066670000003318e+000	 5.133319999991933e+000	 1.025816406724153e+001
0	 4.066670000003315e+000	 5.199979999988400e+000	 1.024901016842774e+001
0	 4.066670000003317e+000	 5.266639999985467e+000	 1.024009934578533e+001
0	 4.066670000003316e+000	 5.333299999983332e+000	 1.023145121903560e+001
0	 4.133340000006533e+000	 4.666700000016667e+000	 1.032958597486742e+001
0	 4.133340000006532e+000	 4.733360000014532e+000	 1.031949710947427e+001
0	 4.133340000006533e+000	 4.800020000011599e+000	 1.030953328376792e+001
0	 4.133340000006534e+000	 4.866680000008066e+000	 1.029970498911331e+001
0	 4.133340000006533e+000	 4.933340000004134e+000	 1.029002271687525e+001
0	 4.133340000006535e+000	 5.000000000000002e+000	 1.028049695841864e+001
0	 4.133340000006534e+000	 5.066659999995867e+000	 1.027113820510832e+001
0	 4.133340000006534e+000	 5.133319999991933e+000	 1.026195694830918e+001
0	 4.133340000006534e+000	 5.199979999988401e+000	 1.025296367938602e+001
0	 4.133340000006533e+000	 5.266639999985468e+000	 1.024416888970374e+001
0	 4.133340000006533e+000	 5.333299999983334e+000	 1.023558307062715e+001
0	 4.200010000009550e+000	 4.666700000016666e+000	 1.033140350897502e+001
0	 4.200010000009551e+000	 4.733360000014534e+000	 1.032150812863351e+001
0	 4.200010000009550e+000	 4.800020000011601e+000	 1.031175498915217e+001
0	 4.200010000009550e+000	 4.866680000008064e+000	 1.030214666986433e+001
0	 4.200010000009551e+000	 4.933340000004133e+000	 1.029268575010332e+001
0	 4.200010000009553e+000	 5.000000000000001e+000	 1.028337480920246e+001
0	 4.200010000009550e+000	 5.066659999995866e+000	 1.027421642649506e+001
0	 4.200010000009550e+000	 5.133319999991934e+000	 1.026521318131445e+001
0	 4.200010000009550e+000	 5.199979999988400e+000	 1.025636765299394e+001
0	 4.200010000009550e+000	 5.266639999985467e+000	 1.024768242086683e+001
0	 4.200010000009550e+000	 5.333299999983334e+000	 1.023916006426644e+001
0	 4.266680000012266e+000	 4.666700000016666e+000	 1.033284102050736e+001
0	 4.266680000012268e+000	 4.733360000014534e+000	 1.032312199860209e+001
0	 4.266680000012265e+000	 4.800020000011599e+000	 1.031355977502794e+001
0	 4.266680000012267e+000	 4.866680000008066e+000	 1.030415023341162e+001
0	 4.266680000012266e+000	 4.933340000004134e+000	 1.029488925737982e+001
0	 4.266680000012268e+000	 5.000000000000000e+000	 1.028577273055927e+001
0	 4.266680000012266e+000	 5.066659999995866e+000	 1.027679653657664e+001
0	 4.266680000012266e+000	 5.133319999991935e+000	 1.026795655905863e+001
0	 4.266680000012267e+000	 5.199979999988400e+000	 1.025924868163196e+001
0	 4.266680000012267e+000	 5.266639999985468e+000	 1.025066878792328e+001
0	 4.266680000012265e+000	 5.333299999983333e+000	 1.024221276155932e+001
0	 4.333350000014582e+000	 4.666700000016665e+000	 1.033388749250296e+001
0	 4.333350000014582e+000	 4.733360000014533e+000	 1.032433430517479e+001
0	 4.333350000014582e+000	 4.800020000011600e+000	 1.031494928663530e+001
0	 4.333350000014583e+000	 4.866680000008066e+000	 1.030572284112949e+001
0	 4.333350000014582e+000	 4.933340000004133e+000	 1.029664537290237e+001
0	 4.333350000014582e+000	 4.999999999999998e+000	 1.028770728619891e+001
0	 4.333350000014583e+000	 5.066659999995869e+000	 1.027889898526413e+001
0	 4.333350000014583e+000	 5.133319999991934e+000	 1.027021087434302e+001
0	 4.333350000014583e+000	 5.199979999988401e+000	 1.026163335768058e+001
0	 4.333350000014582e+000	 5.266639999985467e+000	 1.025315683952177e+001
0	 4.333350000014583e+000	 5.333299999983334e+000	 1.024477172411162e+001
0	 4.400020000016400e+000	 4.666700000016666e+000	 1.033453190800030e+001
0	 4.400020000016401e+000	 4.733360000014534e+000	 1.032514063414641e+001
0	 4.400020000016399e+000	 4.800020000011600e+000	 1.031592516921434e+001
0	 4.400020000016399e+000	 4.866680000008065e+000	 1.030687165439231e+001
0	 4.400020000016400e+000	 4.933340000004133e+000	 1.029796623086853e+001
0	 4.400020000016400e+000	 5.000000000000000e+000	 1.028919503983123e+001
0	 4.400020000016400e+000	 5.066659999995867e+000	 1.028054422246860e+001
0	 4.400020000016399e+000	 5.133319999991933e+000	 1.027199991996888e+001
0	 4.400020000016400e+000	 5.199979999988400e+000	 1.026354827352026e+001
0	 4.400020000016401e+000	 5.266639999985467e+000	 1.025517542431098e+001
0	 4.400020000016400e+000	 5.333299999983333e+000	 1.024686751352924e+001
0	 4.466690000017615e+000	 4.666700000016665e+000	 1.033476325003789e+001
0	 4.466690000017615e+000	 4.733360000014532e+000	 1.032553657131175e+001
0	 4.466690000017618e+000	 4.800020000011601e+000	 1.031648906800514e+001
0	 4.466690000017617e+000	 4.866680000008068e+000	 1.030760383457442e+001
0	 4.466690000017615e+000	 4.933340000004133e+000	 1.029886396547595e+001
0	 4.466690000017618e+000	 5.000000000000000e+000	 1.029025255516607e+001
0	 4.466690000017615e+000	 5.066659999995866e+000	 1.028175269810114e+001
0	 4.466690000017616e+000	 5.133319999991935e+000	 1.027334748873751e+001
0	 4.466690000017618e+000	 5.199979999988400e+000	 1.026502002153154e+001
0	 4.466690000017614e+000	 5.266639999985467e+000	 1.025675339093958e+001
0	 4.466690000017616e+000	 5.333299999983335e+000	 1.024853069141797e+001
0	 4.533360000018131e+000	 4.666700000016666e+000	 1.033457050165422e+001
0	 4.533360000018132e+000	 4.733360000014534e+000	 1.032551770246559e+001
0	 4.533360000018133e+000	 4.800020000011601e+000	 1.031664262824776e+001
0	 4.533360000018133e+000	 4.866680000008067e+000	 1.030792654305017e+001
0	 4.533360000018132e+000	 4.933340000004135e+000	 1.029935071092220e+001
0	 4.533360000018132e+000	 5.000000000000001e+000	 1.029089639591328e+001
0	 4.533360000018133e+000	 5.066659999995866e+000	 1.028254486207282e+001
0	 4.533360000018133e+000	 5.133319999991935e+000	 1.027427737345022e+001
0	 4.533360000018132e+000	 5.199979999988401e+000	 1.026607519409489e+001
0	 4.533360000018132e+000	 5.266639999985467e+000	 1.025791958805626e+001
0	 4.533360000018131e+000	 5.333299999983334e+000	 1.024979181938370e+001
0	 4.600030000017850e+000	 4.666700000016668e+000	 1.033394264588780e+001
0	 4.600030000017849e+000	 4.733360000014534e+000	 1.032507961340274e+001
0	 4.600030000017848e+000	 4.800020000011601e+000	 1.031638749518232e+001
0	 4.600030000017848e+000	 4.866680000008065e+000	 1.030784694119391e+001
0	 4.600030000017848e+000	 4.933340000004134e+000	 1.029943860140492e+001
0	 4.600030000017849e+000	 4.999999999999999e+000	 1.029114312578272e+001
0	 4.600030000017848e+000	 5.066659999995866e+000	 1.028294116429471e+001
0	 4.600030000017849e+000	 5.133319999991935e+000	 1.027481336690828e+001
0	 4.600030000017849e+000	 5.199979999988401e+000	 1.026674038359081e+001
0	 4.600030000017848e+000	 5.266639999985468e+000	 1.025870286430968e+001
0	 4.600030000017849e+000	 5.333299999983335e+000	 1.025068145903229e+001
0	 4.666700000016666e+000	 4.666700000016666e+000	 1.033286866577713e+001
0	 4.666700000016666e+000	 4.733360000014534e+000	 1.032421788991800e+001
0	 4.666700000016665e+000	 4.800020000011599e+000	 1.031572531404886e+001
0	 4.666700000016666e+000	 4.866680000008067e+000	 1.030737219037999e+001
0	 4.666700000016667e+000	 4.933340000004135e+000	 1.029913977112169e+001
0	 4.666700000016666e+000	 5.000000000000001e+000	 1.029100930848424e+001
0	 4.666700000016667e+000	 5.066659999995867e+000	 1.028296205467791e+001
0	 4.666700000016666e+000	 5.133319999991935e+000	 1.027497926191299e+001
0	 4.666700000016665e+000	 5.199979999988400e+000	 1.026704218239978e+001
0	 4.666700000016667e+000	 5.266639999985468e+000	 1.025913206834854e+001
0	 4.666700000016667e+000	 5.333299999983335e+000	 1.025123017196959e+001
0	 4.000000000000000e+000	 5.333299999983334e+000	 1.022673394788593e+001
0	 4.000000000000000e+000	 5.399969999982148e+000	 1.021833594006729e+001
0	 4.000000000000002e+000	 5.466639999981868e+000	 1.021021141339698e+001
0	 4.000000000000000e+000	 5.533309999982382e+000	 1.020234464897060e+001
0	 4.000000000000001e+000	 5.599979999983600e+000	 1.019471992788374e+001
0	 4.000000000000001e+000	 5.666649999985416e+000	 1.018732153123205e+001
0	 4.000000000000001e+000	 5.733319999987733e+000	 1.018013374011112e+001
0	 4.000000000000000e+000	 5.799989999990448e+000	 1.017314083561655e+001
0	 4.000000000000001e+000	 5.866659999993468e+000	 1.016632709884397e+001
0	 4.000000000000000e+000	 5.933329999996682e+000	 1.015967681088899e+001
0	 4.000000000000000e+000	 6.000000000000001e+000	 1.015317425284724e+001
0	 4.066670000003316e+000	 5.333299999983332e+000	 1.023145121903559e+001
0	 4.066670000003317e+000	 5.399969999982150e+000	 1.022307118389334e+001
0	 4.066670000003318e+000	 5.466639999981867e+000	 1.021494556215686e+001
0	 4.066670000003317e+000	 5.533309999982384e+000	 1.020706153268211e+001
0	 4.066670000003316e+000	 5.599979999983599e+000	 1.019940627432509e+001
0	 4.066670000003317e+000	 5.666649999985415e+000	 1.019196696594180e+001
0	 4.066670000003318e+000	 5.733319999987733e+000	 1.018473078638821e+001
0	 4.066670000003318e+000	 5.799989999990451e+000	 1.017768491452033e+001
0	 4.066670000003317e+000	 5.866659999993468e+000	 1.017081652919414e+001
0	 4.066670000003316e+000	 5.933329999996683e+000	 1.016411280926564e+001
0	 4.066670000003316e+000	 5.999999999999999e+000	 1.015756093359086e+001
0	 4.133340000006533e+000	 5.333299999983334e+000	 1.023558307062714e+001
0	 4.133340000006534e+000	 5.399969999982150e+000	 1.022722690392943e+001
0	 4.133340000006533e+000	 5.466639999981865e+000	 1.021910979153388e+001
0	 4.133340000006533e+000	 5.533309999982382e+000	 1.021122148962264e+001
0	 4.133340000006534e+000	 5.599979999983601e+000	 1.020355175437778e+001
0	 4.133340000006533e+000	 5.666649999985417e+000	 1.019609034198140e+001
0	 4.133340000006535e+000	 5.733319999987733e+000	 1.018882700861561e+001
0	 4.133340000006532e+000	 5.799989999990449e+000	 1.018175151046249e+001
0	 4.133340000006532e+000	 5.866659999993466e+000	 1.017485360370417e+001
0	 4.133340000006533e+000	 5.933329999996684e+000	 1.016812304452272e+001
0	 4.133340000006532e+000	 6.000000000000000e+000	 1.016154958910028e+001
0	 4.200010000009550e+000	 5.333299999983334e+000	 1.023916006426643e+001
0	 4.200010000009550e+000	 5.399969999982150e+000	 1.023083483011202e+001
0	 4.200010000009550e+000	 5.466639999981865e+000	 1.022273645342088e+001
0	 4.200010000009551e+000	 5.533309999982384e+000	 1.021485694726692e+001
0	 4.200010000009550e+000	 5.599979999983600e+000	 1.020718832472408e+001
0	 4.200010000009549e+000	 5.666649999985416e+000	 1.019972259886632e+001
0	 4.200010000009550e+000	 5.733319999987733e+000	 1.019245178276752e+001
0	 4.200010000009550e+000	 5.799989999990450e+000	 1.018536788950163e+001
0	 4.200010000009550e+000	 5.866659999993467e+000	 1.017846293214260e+001
0	 4.200010000009550e+000	 5.933329999996684e+000	 1.017172892376437e+001
0	 4.200010000009550e+000	 5.999999999999998e+000	 1.016515787744088e+001
0	 4.266680000012265e+000	 5.333299999983333e+000	 1.024221276155932e+001
0	 4.266680000012267e+000	 5.399969999982151e+000	 1.023392669237772e+001
0	 4.266680000012266e+000	 5.466639999981866e+000	 1.022585789971070e+001
0	 4.266680000012267e+000	 5.533309999982383e+000	 1.021800033308973e+001
0	 4.266680000012268e+000	 5.599979999983600e+000	 1.021034794204632e+001
0	 4.266680000012268e+000	 5.666649999985417e+000	 1.020289467611194e+001
0	 4.266680000012268e+000	 5.733319999987733e+000	 1.019563448481810e+001
0	 4.266680000012266e+000	 5.799989999990449e+000	 1.018856131769628e+001
0	 4.266680000012268e+000	 5.866659999993467e+000	 1.018166912427800e+001
0	 4.266680000012267e+000	 5.933329999996683e+000	 1.017495185409473e+001
0	 4.266680000012267e+000	 6.000000000000000e+000	 1.016840345667799e+001
0	 4.333350000014583e+000	 5.333299999983334e+000	 1.024477172411162e+001
0	 4.333350000014583e+000	 5.399969999982149e+000	 1.023653422066304e+001
0	 4.333350000014583e+000	 5.466639999981866e+000	 1.022850648229617e+001
0	 4.333350000014582e+000	 5.533309999982382e+000	 1.022068407456582e+001
0	 4.333350000014583e+000	 5.599979999983598e+000	 1.021306256302676e+001
0	 4.333350000014584e+000	 5.666649999985417e+000	 1.020563751323375e+001
0	 4.333350000014583e+000	 5.733319999987733e+000	 1.019840449074159e+001
0	 4.333350000014583e+000	 5.799989999990449e+000	 1.019135906110504e+001
0	 4.333350000014583e+000	 5.866659999993468e+000	 1.018449678987891e+001
0	 4.333350000014584e+000	 5.933329999996684e+000	 1.017781324261797e+001
0	 4.333350000014585e+000	 6.000000000000001e+000	 1.017130398487700e+001
0	 4.400020000016400e+000	 5.333299999983333e+000	 1.024686751352923e+001
0	 4.400020000016400e+000	 5.399969999982149e+000	 1.023868914490452e+001
0	 4.400020000016401e+000	 5.466639999981866e+000	 1.023071455307016e+001
0	 4.400020000016399e+000	 5.533309999982382e+000	 1.022294059916996e+001
0	 4.400020000016400e+000	 5.599979999983599e+000	 1.021536414434770e+001
0	 4.400020000016399e+000	 5.666649999985414e+000	 1.020798204974717e+001
0	 4.400020000016400e+000	 5.733319999987732e+000	 1.020079117651216e+001
0	 4.400020000016400e+000	 5.799989999990449e+000	 1.019378838578646e+001
0	 4.400020000016401e+000	 5.866659999993468e+000	 1.018697053871388e+001
0	 4.400020000016399e+000	 5.933329999996682e+000	 1.018033449643822e+001
0	 4.400020000016400e+000	 6.000000000000000e+000	 1.017387712010326e+001
0	 4.466690000017616e+000	 5.333299999983335e+000	 1.024853069141797e+001
0	 4.466690000017618e+000	 5.399969999982151e+000	 1.024042319503870e+001
0	 4.466690000017616e+000	 5.466639999981865e+000	 1.023251446392551e+001
0	 4.466690000017615e+000	 5.533309999982382e+000	 1.022480233437691e+001
0	 4.466690000017616e+000	 5.599979999983600e+000	 1.021728464269145e+001
0	 4.466690000017615e+000	 5.666649999985417e+000	 1.020995922516764e+001
0	 4.466690000017614e+000	 5.733319999987733e+000	 1.020282391810402e+001
0	 4.466690000017616e+000	 5.799989999990449e+000	 1.019587655779912e+001
0	 4.466690000017617e+000	 5.866659999993466e+000	 1.018911498055149e+001
0	 4.466690000017616e+000	 5.933329999996682e+000	 1.018253702265965e+001
0	 4.466690000017617e+000	 6.000000000000001e+000	 1.017614052042215e+001
0	 4.533360000018131e+000	 5.333299999983334e+000	 1.024979181938371e+001
0	 4.533360000018133e+000	 5.399969999982151e+000	 1.024176810100214e+001
0	 4.533360000018131e+000	 5.466639999981865e+000	 1.023393856675505e+001
0	 4.533360000018134e+000	 5.533309999982383e+000	 1.022630170766144e+001
0	 4.533360000018132e+000	 5.599979999983599e+000	 1.021885601474029e+001
0	 4.533360000018132e+000	 5.666649999985416e+000	 1.021159997901060e+001
0	 4.533360000018131e+000	 5.733319999987733e+000	 1.020453209149138e+001
0	 4.533360000018132e+000	 5.799989999990448e+000	 1.019765084320159e+001
0	 4.533360000018133e+000	 5.866659999993467e+000	 1.019095472516028e+001
0	 4.533360000018134e+000	 5.933329999996684e+000	 1.018444222838641e+001
0	 4.533360000018132e+000	 6.000000000000000e+000	 1.017811184389902e+001
0	 4.600030000017849e+000	 5.333299999983335e+000	 1.025068145903229e+001
0	 4.600030000017848e+000	 5.399969999982150e+000	 1.024275559273138e+001
0	 4.600030000017849e+000	 5.466639999981867e+000	 1.023501921345166e+001
0	 4.600030000017849e+000	 5.533309999982384e+000	 1.022747114649832e+001
0	 4.600030000017849e+000	 5.599979999983599e+000	 1.022011021717653e+001
0	 4.600030000017848e+000	 5.666649999985417e+000	 1.021293525079150e+001
0	 4.600030000017848e+000	 5.733319999987731e+000	 1.020594507264840e+001
0	 4.600030000017848e+000	 5.799989999990449e+000	 1.019913850805243e+001
0	 4.600030000017849e+000	 5.866659999993467e+000	 1.019251438230880e+001
0	 4.600030000017849e+000	 5.933329999996683e+000	 1.018607152072267e+001
0	 4.600030000017848e+000	 6.000000000000001e+000	 1.017980874859927e+001
0	 4.666700000016667e+000	 5.333299999983335e+000	 1.025123017196959e+001
0	 4.666700000016665e+000	 5.399969999982150e+000	 1.024341740016297e+001
0	 4.666700000016666e+000	 5.466639999981867e+000	 1.023578875590818e+001
0	 4.666700000016665e+000	 5.533309999982382e+000	 1.022834307836230e+001
0	 4.666700000016666e+000	 5.599979999983599e+000	 1.022107920668247e+001
0	 4.666700000016665e+000	 5.666649999985416e+000	 1.021399598002577e+001
0	 4.666700000016666e+000	 5.733319999987732e+000	 1.020709223754932e+001
0	 4.666700000016666e+000	 5.799989999990449e+000	 1.020036681841023e+001
0	 4.666700000016666e+000	 5.866659999993467e+000	 1.019381856176561e+001
0	 4.666700000016667e+000	 5.933329999996684e+000	 1.018744630677258e+001
0	 4.666700000016666e+000	 6.000000000000000e+000	 1.018124889258824e+001
0	 4.000000000000000e+000	 6.000000000000001e+000	 1.015317425284724e+001
0	 4.000000000000000e+000	 6.066670000003314e+000	 1.014683505252871e+001
0	 4.000000000000001e+000	 6.133340000006534e+000	 1.014068889294691e+001
0	 4.000000000000000e+000	 6.200010000009551e+000	 1.013474113800273e+001
0	 4.000000000000001e+000	 6.266680000012268e+000	 1.012899715159702e+001
0	 4.000000000000000e+000	 6.333350000014584e+000	 1.012346229763067e+001
0	 3.999999999999999e+000	 6.400020000016398e+000	 1.011814194000457e+001
0	 4.000000000000000e+000	 6.466690000017617e+000	 1.011304144261959e+001
0	 4.000000000000000e+000	 6.533360000018133e+000	 1.010816616937661e+001
0	 4.000000000000000e+000	 6.600030000017848e+000	 1.010352148417653e+001
0	 4.000000000000000e+000	 6.666700000016665e+000	 1.009911275092023e+001
0	 4.066670000003316e+000	 5.999999999999999e+000	 1.015756093359086e+001
0	 4.066670000003317e+000	 6.066670000003316e+000	 1.015117566921216e+001
0	 4.066670000003316e+000	 6.133340000006532e+000	 1.014498307463444e+001
0	 4.066670000003317e+000	 6.200010000009550e+000	 1.013898726590746e+001
0	 4.066670000003319e+000	 6.266680000012269e+000	 1.013319235908096e+001
0	 4.066670000003316e+000	 6.333350000014583e+000	 1.012760247020473e+001
0	 4.066670000003317e+000	 6.400020000016401e+000	 1.012222171532850e+001
0	 4.066670000003318e+000	 6.466690000017618e+000	 1.011705421050204e+001
0	 4.066670000003317e+000	 6.533360000018134e+000	 1.011210407177511e+001
0	 4.066670000003317e+000	 6.600030000017851e+000	 1.010737541519751e+001
0	 4.066670000003317e+000	 6.666700000016667e+000	 1.010287235681897e+001
0	 4.133340000006532e+000	 6.000000000000000e+000	 1.016154958910028e+001
0	 4.133340000006533e+000	 6.066670000003317e+000	 1.015514495539494e+001
0	 4.133340000006533e+000	 6.133340000006534e+000	 1.014892966860075e+001
0	 4.133340000006533e+000	 6.200010000009551e+000	 1.014290669575376e+001
0	 4.133340000006534e+000	 6.266680000012267e+000	 1.013707900389004e+001
0	 4.133340000006532e+000	 6.333350000014583e+000	 1.013144956004561e+001
0	 4.133340000006535e+000	 6.400020000016401e+000	 1.012602133125654e+001
0	 4.133340000006535e+000	 6.466690000017617e+000	 1.012079728455889e+001
0	 4.133340000006532e+000	 6.533360000018134e+000	 1.011578038698871e+001
0	 4.133340000006533e+000	 6.600030000017849e+000	 1.011097360558208e+001
0	 4.133340000006534e+000	 6.666700000016666e+000	 1.010637990737504e+001
0	 4.200010000009550e+000	 5.999999999999998e+000	 1.016515787744088e+001
0	 4.200010000009548e+000	 6.066670000003315e+000	 1.015875681440862e+001
0	 4.200010000009550e+000	 6.133340000006534e+000	 1.015253935842797e+001
0	 4.200010000009550e+000	 6.200010000009553e+000	 1.014650742635870e+001
0	 4.200010000009551e+000	 6.266680000012268e+000	 1.014066293506056e+001
0	 4.200010000009550e+000	 6.333350000014583e+000	 1.013500780139330e+001
0	 4.200010000009551e+000	 6.400020000016402e+000	 1.012954394221670e+001
0	 4.200010000009550e+000	 6.466690000017617e+000	 1.012427327439051e+001
0	 4.200010000009551e+000	 6.533360000018136e+000	 1.011919771477451e+001
0	 4.200010000009550e+000	 6.600030000017851e+000	 1.011431918022844e+001
0	 4.200010000009549e+000	 6.666700000016665e+000	 1.010963958761210e+001
0	 4.266680000012267e+000	 6.000000000000000e+000	 1.016840345667799e+001
0	 4.266680000012265e+000	 6.066670000003316e+000	 1.016202514958474e+001
0	 4.266680000012268e+000	 6.133340000006534e+000	 1.015582282769823e+001
0	 4.266680000012267e+000	 6.200010000009549e+000	 1.014979745653931e+001
0	 4.266680000012268e+000	 6.266680000012267e+000	 1.014395000162888e+001
0	 4.266680000012268e+000	 6.333350000014584e+000	 1.013828142848780e+001
0	 4.266680000012268e+000	 6.400020000016403e+000	 1.013279270263697e+001
0	 4.266680000012266e+000	 6.466690000017617e+000	 1.012748478959727e+001
0	 4.266680000012266e+000	 6.533360000018135e+000	 1.012235865488960e+001
0	 4.266680000012266e+000	 6.600030000017849e+000	 1.011741526403481e+001
0	 4.266680000012267e+000	 6.666700000016666e+000	 1.011265558255384e+001
0	 4.333350000014585e+000	 6.000000000000001e+000	 1.017130398487700e+001
0	 4.333350000014583e+000	 6.066670000003317e+000	 1.016496386425489e+001
0	 4.333350000014582e+000	 6.133340000006533e+000	 1.015879075999364e+001
0	 4.333350000014582e+000	 6.200010000009551e+000	 1.015278478511264e+001
0	 4.333350000014584e+000	 6.266680000012268e+000	 1.014694605263131e+001
0	 4.333350000014582e+000	 6.333350000014582e+000	 1.014127467556908e+001
0	 4.333350000014584e+000	 6.400020000016401e+000	 1.013577076694534e+001
0	 4.333350000014582e+000	 6.466690000017615e+000	 1.013043443977953e+001
0	 4.333350000014582e+000	 6.533360000018134e+000	 1.012526580709107e+001
0	 4.333350000014584e+000	 6.600030000017850e+000	 1.012026498189937e+001
0	 4.333350000014582e+000	 6.666700000016665e+000	 1.011543207722388e+001
0	 4.400020000016400e+000	 6.000000000000000e+000	 1.017387712010326e+001
0	 4.400020000016399e+000	 6.066670000003317e+000	 1.016758686175064e+001
0	 4.400020000016400e+000	 6.133340000006532e+000	 1.016145383889635e+001
0	 4.400020000016400e+000	 6.200010000009550e+000	 1.015547741089576e+001
0	 4.400020000016399e+000	 6.266680000012267e+000	 1.014965693710423e+001
0	 4.400020000016399e+000	 6.333350000014584e+000	 1.014399177687712e+001
0	 4.400020000016400e+000	 6.400020000016399e+000	 1.013848128956981e+001
0	 4.400020000016398e+000	 6.466690000017617e+000	 1.013312483453766e+001
0	 4.400020000016401e+000	 6.533360000018135e+000	 1.012792177113604e+001
0	 4.400020000016400e+000	 6.600030000017850e+000	 1.012287145872033e+001
0	 4.400020000016401e+000	 6.666700000016666e+000	 1.011797325664590e+001
0	 4.466690000017617e+000	 6.000000000000001e+000	 1.017614052042215e+001
0	 4.466690000017616e+000	 6.066670000003316e+000	 1.016990804540353e+001
0	 4.466690000017617e+000	 6.133340000006532e+000	 1.016382274798847e+001
0	 4.466690000017617e+000	 6.200010000009551e+000	 1.015788333270571e+001
0	 4.466690000017615e+000	 6.266680000012268e+000	 1.015208850408395e+001
0	 4.466690000017616e+000	 6.333350000014584e+000	 1.014643696665193e+001
0	 4.466690000017616e+000	 6.400020000016401e+000	 1.014092742493839e+001
0	 4.466690000017616e+000	 6.466690000017617e+000	 1.013555858347203e+001
0	 4.466690000017616e+000	 6.533360000018133e+000	 1.013032914678162e+001
0	 4.466690000017617e+000	 6.600030000017851e+000	 1.012523781939589e+001
0	 4.466690000017615e+000	 6.666700000016665e+000	 1.012028330584355e+001
0	 4.533360000018132e+000	 6.000000000000000e+000	 1.017811184389902e+001
0	 4.533360000018132e+000	 6.066670000003316e+000	 1.017194131854514e+001
0	 4.533360000018132e+000	 6.133340000006533e+000	 1.016590817085216e+001
0	 4.533360000018130e+000	 6.200010000009550e+000	 1.016001054935954e+001
0	 4.533360000018131e+000	 6.266680000012268e+000	 1.015424660260681e+001
0	 4.533360000018131e+000	 6.333350000014584e+000	 1.014861447913348e+001
0	 4.533360000018133e+000	 6.400020000016402e+000	 1.014311232747906e+001
0	 4.533360000018133e+000	 6.466690000017616e+000	 1.013773829618302e+001
0	 4.533360000018132e+000	 6.533360000018135e+000	 1.013249053378492e+001
0	 4.533360000018134e+000	 6.600030000017852e+000	 1.012736718882423e+001
0	 4.533360000018133e+000	 6.666700000016666e+000	 1.012236640984051e+001
0	 4.600030000017848e+000	 6.000000000000001e+000	 1.017980874859927e+001
0	 4.600030000017849e+000	 6.066670000003317e+000	 1.017370058450707e+001
0	 4.600030000017849e+000	 6.133340000006534e+000	 1.016772079106951e+001
0	 4.600030000017847e+000	 6.200010000009550e+000	 1.016186705967432e+001
0	 4.600030000017848e+000	 6.266680000012268e+000	 1.015613708170918e+001
0	 4.600030000017849e+000	 6.333350000014584e+000	 1.015052854856178e+001
0	 4.600030000017848e+000	 6.400020000016399e+000	 1.014503915161982e+001
0	 4.600030000017848e+000	 6.466690000017617e+000	 1.013966658227102e+001
0	 4.600030000017850e+000	 6.533360000018135e+000	 1.013440853190305e+001
0	 4.600030000017848e+000	 6.600030000017850e+000	 1.012926269190361e+001
0	 4.600030000017849e+000	 6.666700000016666e+000	 1.012422675366043e+001
0	 4.666700000016666e+000	 6.000000000000000e+000	 1.018124889258824e+001
0	 4.666700000016665e+000	 6.066670000003318e+000	 1.017519974662084e+001
0	 4.666700000016667e+000	 6.133340000006533e+000	 1.016927129222269e+001
0	 4.666700000016666e+000	 6.200010000009551e+000	 1.016346086246710e+001
0	 4.666700000016667e+000	 6.266680000012267e+000	 1.015776579042738e+001
0	 4.666700000016667e+000	 6.333350000014587e+000	 1.015218340917681e+001
0	 4.666700000016666e+000	 6.400020000016402e+000	 1.014671105178871e+001
0	 4.666700000016667e+000	 6.466690000017617e+000	 1.014134605133637e+001
0	 4.666700000016666e+000	 6.533360000018133e+000	 1.013608574089309e+001
0	 4.666700000016666e+000	 6.600030000017847e+000	 1.013092745353220e+001
0	 4.666700000016666e+000	 6.666700000016667e+000	 1.012586852232698e+001
0	 4.000000000000000e+000	 6.666700000016665e+000	 1.009911275092023e+001
0	 4.000000000000001e+000	 6.733360000014532e+000	 1.009488053425491e+001
0	 4.000000000000000e+000	 6.800020000011598e+000	 1.009076062759526e+001
0	 4.000000000000000e+000	 6.866680000008068e+000	 1.008675316793318e+001
0	 4.000000000000001e+000	 6.933340000004132e+000	 1.008285829226056e+001
0	 4.000000000000000e+000	 6.999999999999998e+000	 1.007907613756930e+001
0	 4.000000000000000e+000	 7.066659999995868e+000	 1.007540684085127e+001
0	 4.000000000000000e+000	 7.133319999991934e+000	 1.007185053909835e+001
0	 4.000000000000001e+000	 7.199979999988402e+000	 1.006840736930242e+001
0	 4.000000000000001e+000	 7.266639999985467e+000	 1.006507746845536e+001
0	 4.000000000000001e+000	 7.333299999983335e+000	 1.006186097354904e+001
0	 4.066670000003317e+000	 6.666700000016667e+000	 1.010287235681897e+001
0	 4.066670000003318e+000	 6.733360000014534e+000	 1.009854030932403e+001
0	 4.066670000003316e+000	 6.800020000011600e+000	 1.009432065195015e+001
0	 4.066670000003319e+000	 6.866680000008067e+000	 1.009021342547700e+001
0	 4.066670000003318e+000	 6.933340000004136e+000	 1.008621867068431e+001
0	 4.066670000003318e+000	 7.000000000000002e+000	 1.008233642835173e+001
0	 4.066670000003319e+000	 7.066659999995869e+000	 1.007856673925897e+001
0	 4.066670000003319e+000	 7.133319999991935e+000	 1.007490964418570e+001
0	 4.066670000003316e+000	 7.199979999988399e+000	 1.007136518391158e+001
0	 4.066670000003317e+000	 7.266639999985467e+000	 1.006793339921632e+001
0	 4.066670000003317e+000	 7.333299999983334e+000	 1.006461433087956e+001
0	 4.133340000006534e+000	 6.666700000016666e+000	 1.010637990737504e+001
0	 4.133340000006534e+000	 6.733360000014533e+000	 1.010195114874883e+001
0	 4.133340000006533e+000	 6.800020000011598e+000	 1.009763582764640e+001
0	 4.133340000006535e+000	 6.866680000008068e+000	 1.009343389212083e+001
0	 4.133340000006534e+000	 6.933340000004133e+000	 1.008934529022527e+001
0	 4.133340000006534e+000	 6.999999999999997e+000	 1.008536997001279e+001
0	 4.133340000006534e+000	 7.066659999995868e+000	 1.008150787953650e+001
0	 4.133340000006534e+000	 7.133319999991934e+000	 1.007775896684950e+001
0	 4.133340000006533e+000	 7.199979999988399e+000	 1.007412318000490e+001
0	 4.133340000006533e+000	 7.266639999985467e+000	 1.007060046705577e+001
0	 4.133340000006533e+000	 7.333299999983331e+000	 1.006719077605523e+001
0	 4.200010000009549e+000	 6.666700000016665e+000	 1.010963958761211e+001
0	 4.200010000009550e+000	 6.733360000014530e+000	 1.010511843828797e+001
0	 4.200010000009550e+000	 6.800020000011600e+000	 1.010071248781065e+001
0	 4.200010000009551e+000	 6.866680000008067e+000	 1.009642159499226e+001
0	 4.200010000009551e+000	 6.933340000004134e+000	 1.009224561864496e+001
0	 4.200010000009552e+000	 7.000000000000001e+000	 1.008818441758092e+001
0	 4.200010000009552e+000	 7.066659999995866e+000	 1.008423785061223e+001
0	 4.200010000009551e+000	 7.133319999991935e+000	 1.008040577655104e+001
0	 4.200010000009550e+000	 7.199979999988400e+000	 1.007668805420949e+001
0	 4.200010000009550e+000	 7.266639999985467e+000	 1.007308454239970e+001
0	 4.200010000009550e+000	 7.333299999983334e+000	 1.006959509993380e+001
0	 4.266680000012267e+000	 6.666700000016666e+000	 1.011265558255384e+001
0	 4.266680000012267e+000	 6.733360000014534e+000	 1.010804756370011e+001
0	 4.266680000012266e+000	 6.800020000011599e+000	 1.010355696556952e+001
0	 4.266680000012267e+000	 6.866680000008067e+000	 1.009918356121887e+001
0	 4.266680000012266e+000	 6.933340000004132e+000	 1.009492712370495e+001
0	 4.266680000012266e+000	 6.999999999999997e+000	 1.009078742608457e+001
0	 4.266680000012266e+000	 7.066659999995866e+000	 1.008676424141450e+001
0	 4.266680000012268e+000	 7.133319999991934e+000	 1.008285734275154e+001
0	 4.266680000012266e+000	 7.199979999988400e+000	 1.007906650315247e+001
0	 4.266680000012268e+000	 7.266639999985468e+000	 1.007539149567405e+001
0	 4.266680000012265e+000	 7.333299999983333e+000	 1.007183209337309e+001
0	 4.333350000014582e+000	 6.666700000016665e+000	 1.011543207722388e+001
0	 4.333350000014582e+000	 6.733360000014533e+000	 1.011074391074389e+001
0	 4.333350000014582e+000	 6.800020000011600e+000	 1.010617559404966e+001
0	 4.333350000014583e+000	 6.866680000008066e+000	 1.010172681792826e+001
0	 4.333350000014583e+000	 6.933340000004134e+000	 1.009739727316676e+001
0	 4.333350000014583e+000	 7.000000000000000e+000	 1.009318665055222e+001
0	 4.333350000014582e+000	 7.066659999995867e+000	 1.008909464087171e+001
0	 4.333350000014584e+000	 7.133319999991933e+000	 1.008512093491225e+001
0	 4.333350000014582e+000	 7.199979999988400e+000	 1.008126522346094e+001
0	 4.333350000014583e+000	 7.266639999985467e+000	 1.007752719730480e+001
0	 4.333350000014583e+000	 7.333299999983334e+000	 1.007390654723086e+001
0	 4.400020000016401e+000	 6.666700000016666e+000	 1.011797325664590e+001
0	 4.400020000016400e+000	 6.733360000014531e+000	 1.011321286517797e+001
0	 4.400020000016399e+000	 6.800020000011599e+000	 1.010857470637771e+001
0	 4.400020000016398e+000	 6.866680000008064e+000	 1.010405839224803e+001
0	 4.400020000016400e+000	 6.933340000004134e+000	 1.009966353479193e+001
0	 4.400020000016399e+000	 6.999999999999999e+000	 1.009538974601233e+001
0	 4.400020000016400e+000	 7.066659999995868e+000	 1.009123663791218e+001
0	 4.400020000016400e+000	 7.133319999991934e+000	 1.008720382249444e+001
0	 4.400020000016399e+000	 7.199979999988400e+000	 1.008329091176202e+001
0	 4.400020000016401e+000	 7.266639999985467e+000	 1.007949751771789e+001
0	 4.400020000016400e+000	 7.333299999983333e+000	 1.007582325236494e+001
0	 4.466690000017615e+000	 6.666700000016665e+000	 1.012028330584355e+001
0	 4.466690000017616e+000	 6.733360000014533e+000	 1.011545981276104e+001
0	 4.466690000017618e+000	 6.800020000011601e+000	 1.011076063568029e+001
0	 4.466690000017615e+000	 6.866680000008068e+000	 1.010618531130579e+001
0	 4.466690000017615e+000	 6.933340000004133e+000	 1.010173337634201e+001
0	 4.466690000017617e+000	 7.000000000000000e+000	 1.009740436749335e+001
0	 4.466690000017615e+000	 7.066659999995867e+000	 1.009319782146433e+001
0	 4.466690000017616e+000	 7.133319999991935e+000	 1.008911327495933e+001
0	 4.466690000017616e+000	 7.199979999988399e+000	 1.008515026468285e+001
0	 4.466690000017615e+000	 7.266639999985466e+000	 1.008130832733929e+001
0	 4.466690000017616e+000	 7.333299999983335e+000	 1.007758699963309e+001
0	 4.533360000018133e+000	 6.666700000016666e+000	 1.012236640984051e+001
0	 4.533360000018131e+000	 6.733360000014534e+000	 1.011749013925172e+001
0	 4.533360000018134e+000	 6.800020000011600e+000	 1.011273971508406e+001
0	 4.533360000018134e+000	 6.866680000008068e+000	 1.010811460222914e+001
0	 4.533360000018132e+000	 6.933340000004134e+000	 1.010361426557851e+001
0	 4.533360000018132e+000	 6.999999999999998e+000	 1.009923817002378e+001
0	 4.533360000018133e+000	 7.066659999995868e+000	 1.009498578045648e+001
0	 4.533360000018133e+000	 7.133319999991935e+000	 1.009085656176820e+001
0	 4.533360000018132e+000	 7.199979999988400e+000	 1.008684997885051e+001
0	 4.533360000018132e+000	 7.266639999985467e+000	 1.008296549659497e+001
0	 4.533360000018132e+000	 7.333299999983335e+000	 1.007920257989312e+001
0	 4.600030000017849e+000	 6.666700000016666e+000	 1.012422675366043e+001
0	 4.600030000017850e+000	 6.733360000014533e+000	 1.011930923040870e+001
0	 4.600030000017849e+000	 6.800020000011599e+000	 1.011451827771566e+001
0	 4.600030000017849e+000	 6.866680000008067e+000	 1.010985329214567e+001
0	 4.600030000017849e+000	 6.933340000004133e+000	 1.010531367026302e+001
0	 4.600030000017849e+000	 6.999999999999999e+000	 1.010089880863203e+001
0	 4.600030000017848e+000	 7.066659999995867e+000	 1.009660810381702e+001
0	 4.600030000017849e+000	 7.133319999991935e+000	 1.009244095238229e+001
0	 4.600030000017849e+000	 7.199979999988402e+000	 1.008839675089214e+001
0	 4.600030000017848e+000	 7.266639999985467e+000	 1.008447489591088e+001
0	 4.600030000017849e+000	 7.333299999983334e+000	 1.008067478400281e+001
0	 4.666700000016666e+000	 6.666700000016667e+000	 1.012586852232698e+001
0	 4.666700000016666e+000	 6.733360000014533e+000	 1.012092247199062e+001
0	 4.666700000016665e+000	 6.800020000011599e+000	 1.011610265670173e+001
0	 4.666700000016666e+000	 6.866680000008066e+000	 1.011140840818297e+001
0	 4.666700000016666e+000	 6.933340000004132e+000	 1.010683905815704e+001
0	 4.666700000016666e+000	 6.999999999999999e+000	 1.010239393834659e+001
0	 4.666700000016666e+000	 7.066659999995867e+000	 1.009807238047431e+001
0	 4.666700000016667e+000	 7.133319999991935e+000	 1.009387371626285e+001
0	 4.666700000016666e+000	 7.199979999988400e+000	 1.008979727743486e+001
0	 4.666700000016667e+000	 7.266639999985467e+000	 1.008584239571301e+001
0	 4.666700000016665e+000	 7.333299999983333e+000	 1.008200840281995e+001
0	 4.000000000000001e+000	 7.333299999983335e+000	 1.006186097354904e+001
0	 4.000000000000001e+000	 7.399969999982151e+000	 1.005875019515546e+001
0	 4.000000000000000e+000	 7.466639999981866e+000	 1.005573858132490e+001
0	 4.000000000000000e+000	 7.533309999982384e+000	 1.005282655323859e+001
0	 4.000000000000000e+000	 7.599979999983599e+000	 1.005001453207779e+001
0	 4.000000000000001e+000	 7.666649999985416e+000	 1.004730293902373e+001
0	 4.000000000000000e+000	 7.733319999987733e+000	 1.004469219525769e+001
0	 4.000000000000000e+000	 7.799989999990448e+000	 1.004218272196090e+001
0	 4.000000000000000e+000	 7.866659999993465e+000	 1.003977494031462e+001
0	 4.000000000000000e+000	 7.933329999996684e+000	 1.003746927150009e+001
0	 4.000000000000000e+000	 7.999999999999999e+000	 1.003526613669856e+001
0	 4.066670000003317e+000	 7.333299999983334e+000	 1.006461433087956e+001
0	 4.066670000003318e+000	 7.399969999982152e+000	 1.006140069217319e+001
0	 4.066670000003317e+000	 7.466639999981867e+000	 1.005828641933270e+001
0	 4.066670000003317e+000	 7.533309999982385e+000	 1.005527191922293e+001
0	 4.066670000003317e+000	 7.599979999983600e+000	 1.005235759870867e+001
0	 4.066670000003317e+000	 7.666649999985415e+000	 1.004954386465479e+001
0	 4.066670000003318e+000	 7.733319999987733e+000	 1.004683112392611e+001
0	 4.066670000003318e+000	 7.799989999990450e+000	 1.004421978338746e+001
0	 4.066670000003316e+000	 7.866659999993468e+000	 1.004171024990368e+001
0	 4.066670000003318e+000	 7.933329999996684e+000	 1.003930293033960e+001
0	 4.066670000003316e+000	 7.999999999999998e+000	 1.003699823156008e+001
0	 4.133340000006533e+000	 7.333299999983331e+000	 1.006719077605523e+001
0	 4.133340000006533e+000	 7.399969999982151e+000	 1.006388639567478e+001
0	 4.133340000006533e+000	 7.466639999981865e+000	 1.006068090279439e+001
0	 4.133340000006533e+000	 7.533309999982381e+000	 1.005757466869001e+001
0	 4.133340000006533e+000	 7.599979999983600e+000	 1.005456806463759e+001
0	 4.133340000006534e+000	 7.666649999985416e+000	 1.005166146191312e+001
0	 4.133340000006534e+000	 7.733319999987733e+000	 1.004885523179256e+001
0	 4.133340000006532e+000	 7.799989999990447e+000	 1.004614974555189e+001
0	 4.133340000006533e+000	 7.866659999993467e+000	 1.004354537446705e+001
0	 4.133340000006533e+000	 7.933329999996684e+000	 1.004104248981403e+001
0	 4.133340000006533e+000	 7.999999999999998e+000	 1.003864146286884e+001
0	 4.200010000009550e+000	 7.333299999983334e+000	 1.006959509993380e+001
0	 4.200010000009550e+000	 7.399969999982148e+000	 1.006621095940496e+001
0	 4.200010000009551e+000	 7.466639999981867e+000	 1.006292468698082e+001
0	 4.200010000009551e+000	 7.533309999982384e+000	 1.005973659707602e+001
0	 4.200010000009551e+000	 7.599979999983600e+000	 1.005664700410521e+001
0	 4.200010000009550e+000	 7.666649999985415e+000	 1.005365622248307e+001
0	 4.200010000009551e+000	 7.733319999987732e+000	 1.005076456662422e+001
0	 4.200010000009550e+000	 7.799989999990451e+000	 1.004797235094335e+001
0	 4.200010000009550e+000	 7.866659999993466e+000	 1.004527988985509e+001
0	 4.200010000009549e+000	 7.933329999996683e+000	 1.004268749777412e+001
0	 4.200010000009550e+000	 8.000000000000000e+000	 1.004019548911509e+001
0	 4.266680000012265e+000	 7.333299999983333e+000	 1.007183209337308e+001
0	 4.266680000012266e+000	 7.399969999982150e+000	 1.006837803710847e+001
0	 4.266680000012266e+000	 7.466639999981865e+000	 1.006502042716286e+001
0	 4.266680000012267e+000	 7.533309999982383e+000	 1.006175949981713e+001
0	 4.266680000012268e+000	 7.599979999983600e+000	 1.005859549135221e+001
0	 4.266680000012268e+000	 7.666649999985416e+000	 1.005552863804895e+001
0	 4.266680000012267e+000	 7.733319999987732e+000	 1.005255917618825e+001
0	 4.266680000012266e+000	 7.799989999990448e+000	 1.004968734205103e+001
0	 4.266680000012268e+000	 7.866659999993467e+000	 1.004691337191818e+001
0	 4.266680000012267e+000	 7.933329999996684e+000	 1.004423750207058e+001
0	 4.266680000012268e+000	 8.000000000000000e+000	 1.004165996878914e+001
0	 4.333350000014583e+000	 7.333299999983334e+000	 1.007390654723086e+001
0	 4.333350000014583e+000	 7.399969999982148e+000	 1.007039128253006e+001
0	 4.333350000014582e+000	 7.466639999981867e+000	 1.006697077861139e+001
0	 4.333350000014583e+000	 7.533309999982384e+000	 1.006364517234955e+001
0	 4.333350000014584e+000	 7.599979999983599e+000	 1.006041460061921e+001
0	 4.333350000014584e+000	 7.666649999985417e+000	 1.005727920029508e+001
0	 4.333350000014583e+000	 7.733319999987733e+000	 1.005423910825181e+001
0	 4.333350000014582e+000	 7.799989999990448e+000	 1.005129446136411e+001
0	 4.333350000014583e+000	 7.866659999993468e+000	 1.004844539650667e+001
0	 4.333350000014583e+000	 7.933329999996683e+000	 1.004569205055415e+001
0	 4.333350000014584e+000	 8.000000000000000e+000	 1.004303456038126e+001
0	 4.400020000016400e+000	 7.333299999983333e+000	 1.007582325236494e+001
0	 4.400020000016400e+000	 7.399969999982149e+000	 1.007225434941445e+001
0	 4.400020000016401e+000	 7.466639999981867e+000	 1.006877839659727e+001
0	 4.400020000016399e+000	 7.533309999982383e+000	 1.006539541010940e+001
0	 4.400020000016400e+000	 7.599979999983600e+000	 1.006210540614691e+001
0	 4.400020000016399e+000	 7.666649999985414e+000	 1.005890840090578e+001
0	 4.400020000016399e+000	 7.733319999987733e+000	 1.005580441058207e+001
0	 4.400020000016400e+000	 7.799989999990449e+000	 1.005279345137177e+001
0	 4.400020000016401e+000	 7.866659999993468e+000	 1.004987553947093e+001
0	 4.400020000016398e+000	 7.933329999996681e+000	 1.004705069107558e+001
0	 4.400020000016399e+000	 7.999999999999999e+000	 1.004431892238177e+001
0	 4.466690000017616e+000	 7.333299999983335e+000	 1.007758699963309e+001
0	 4.466690000017616e+000	 7.399969999982149e+000	 1.007397089150641e+001
0	 4.466690000017616e+000	 7.466639999981865e+000	 1.007044593639137e+001
0	 4.466690000017615e+000	 7.533309999982382e+000	 1.006701200853292e+001
0	 4.466690000017616e+000	 7.599979999983599e+000	 1.006366898217595e+001
0	 4.466690000017617e+000	 7.666649999985417e+000	 1.006041673156538e+001
0	 4.466690000017615e+000	 7.733319999987733e+000	 1.005725513094615e+001
0	 4.466690000017616e+000	 7.799989999990450e+000	 1.005418405456317e+001
0	 4.466690000017617e+000	 7.866659999993466e+000	 1.005120337666136e+001
0	 4.466690000017616e+000	 7.933329999996684e+000	 1.004831297148563e+001
0	 4.466690000017617e+000	 8.000000000000000e+000	 1.004551271328093e+001
0	 4.533360000018132e+000	 7.333299999983335e+000	 1.007920257989312e+001
0	 4.533360000018132e+000	 7.399969999982149e+000	 1.007554456255066e+001
0	 4.533360000018132e+000	 7.466639999981865e+000	 1.007197605326458e+001
0	 4.533360000018134e+000	 7.533309999982383e+000	 1.006849676305624e+001
0	 4.533360000018132e+000	 7.599979999983598e+000	 1.006510640294699e+001
0	 4.533360000018131e+000	 7.666649999985417e+000	 1.006180468395822e+001
0	 4.533360000018131e+000	 7.733319999987732e+000	 1.005859131711124e+001
0	 4.533360000018131e+000	 7.799989999990449e+000	 1.005546601342750e+001
0	 4.533360000018133e+000	 7.866659999993465e+000	 1.005242848392829e+001
0	 4.533360000018134e+000	 7.933329999996683e+000	 1.004947843963501e+001
0	 4.533360000018131e+000	 8.000000000000000e+000	 1.004661559156902e+001
0	 4.600030000017849e+000	 7.333299999983334e+000	 1.008067478400281e+001
0	 4.600030000017848e+000	 7.399969999982149e+000	 1.007697901629197e+001
0	 4.600030000017851e+000	 7.466639999981866e+000	 1.007337140248776e+001
0	 4.600030000017848e+000	 7.533309999982384e+000	 1.006985146911556e+001
0	 4.600030000017848e+000	 7.599979999983599e+000	 1.006641874270071e+001
0	 4.600030000017848e+000	 7.666649999985416e+000	 1.006307274976857e+001
0	 4.600030000017848e+000	 7.733319999987732e+000	 1.005981301684452e+001
0	 4.600030000017848e+000	 7.799989999990448e+000	 1.005663907045392e+001
0	 4.600030000017849e+000	 7.866659999993466e+000	 1.005355043712211e+001
0	 4.600030000017848e+000	 7.933329999996684e+000	 1.005054664337447e+001
0	 4.600030000017850e+000	 8.000000000000000e+000	 1.004762721573637e+001
0	 4.666700000016665e+000	 7.333299999983333e+000	 1.008200840281995e+001
0	 4.666700000016665e+000	 7.399969999982149e+000	 1.007827790647507e+001
0	 4.666700000016666e+000	 7.466639999981866e+000	 1.007463463933180e+001
0	 4.666700000016665e+000	 7.533309999982382e+000	 1.007107792214706e+001
0	 4.666700000016666e+000	 7.599979999983599e+000	 1.006760707567777e+001
0	 4.666700000016667e+000	 7.666649999985417e+000	 1.006422142068083e+001
0	 4.666700000016667e+000	 7.733319999987733e+000	 1.006092027791315e+001
0	 4.666700000016665e+000	 7.799989999990450e+000	 1.005770296813163e+001
0	 4.666700000016665e+000	 7.866659999993466e+000	 1.005456881209320e+001
0	 4.666700000016666e+000	 7.933329999996682e+000	 1.005151713055475e+001
0	 4.666700000016665e+000	 7.999999999999998e+000	 1.004854724427323e+001
0	 4.000000000000000e+000	 7.999999999999999e+000	 1.003526613669856e+001
0	 4.000000000000001e+000	 8.066670000003319e+000	 1.003314524312478e+001
0	 4.000000000000001e+000	 8.133340000006536e+000	 1.003108602623307e+001
0	 4.000000000000002e+000	 8.200010000009552e+000	 1.002908849956411e+001
0	 4.000000000000000e+000	 8.266680000012267e+000	 1.002715267665867e+001
0	 4.000000000000000e+000	 8.333350000014585e+000	 1.002527857105742e+001
0	 4.000000000000000e+000	 8.400020000016399e+000	 1.002346619630106e+001
0	 4.000000000000000e+000	 8.466690000017618e+000	 1.002171556593029e+001
0	 4.000000000000001e+000	 8.533360000018135e+000	 1.002002669348585e+001
0	 4.000000000000000e+000	 8.600030000017847e+000	 1.001839959250844e+001
0	 4.000000000000000e+000	 8.666700000016666e+000	 1.001683427653876e+001
0	 4.066670000003316e+000	 7.999999999999998e+000	 1.003699823156008e+001
0	 4.066670000003318e+000	 8.066670000003319e+000	 1.003477777107262e+001
0	 4.066670000003316e+000	 8.133340000006532e+000	 1.003262267164566e+001
0	 4.066670000003317e+000	 8.200010000009550e+000	 1.003053259803547e+001
0	 4.066670000003317e+000	 8.266680000012268e+000	 1.002850721499824e+001
0	 4.066670000003318e+000	 8.333350000014583e+000	 1.002654618729029e+001
0	 4.066670000003318e+000	 8.400020000016403e+000	 1.002464917966784e+001
0	 4.066670000003317e+000	 8.466690000017618e+000	 1.002281585688712e+001
0	 4.066670000003316e+000	 8.533360000018135e+000	 1.002104588370439e+001
0	 4.066670000003316e+000	 8.600030000017849e+000	 1.001933892487590e+001
0	 4.066670000003317e+000	 8.666700000016668e+000	 1.001769464515792e+001
0	 4.133340000006533e+000	 7.999999999999998e+000	 1.003864146286884e+001
0	 4.133340000006533e+000	 8.066670000003317e+000	 1.003632615926675e+001
0	 4.133340000006533e+000	 8.133340000006534e+000	 1.003407976204177e+001
0	 4.133340000006533e+000	 8.200010000009549e+000	 1.003190161856782e+001
0	 4.133340000006534e+000	 8.266680000012268e+000	 1.002979107621882e+001
0	 4.133340000006533e+000	 8.333350000014583e+000	 1.002774748236868e+001
0	 4.133340000006534e+000	 8.400020000016401e+000	 1.002577018439136e+001
0	 4.133340000006534e+000	 8.466690000017616e+000	 1.002385852966076e+001
0	 4.133340000006534e+000	 8.533360000018135e+000	 1.002201186555080e+001
0	 4.133340000006533e+000	 8.600030000017847e+000	 1.002022953943544e+001
0	 4.133340000006534e+000	 8.666700000016665e+000	 1.001851089868858e+001
0	 4.200010000009550e+000	 8.000000000000000e+000	 1.004019548911509e+001
0	 4.200010000009548e+000	 8.066670000003319e+000	 1.003779022898548e+001
0	 4.200010000009550e+000	 8.133340000006534e+000	 1.003545724714553e+001
0	 4.200010000009551e+000	 8.200010000009552e+000	 1.003319560498895e+001
0	 4.200010000009550e+000	 8.266680000012265e+000	 1.003100436390948e+001
0	 4.200010000009550e+000	 8.333350000014583e+000	 1.002888258530086e+001
0	 4.200010000009550e+000	 8.400020000016401e+000	 1.002682933055686e+001
0	 4.200010000009552e+000	 8.466690000017620e+000	 1.002484366107117e+001
0	 4.200010000009550e+000	 8.533360000018133e+000	 1.002292463823758e+001
0	 4.200010000009550e+000	 8.600030000017847e+000	 1.002107132344982e+001
0	 4.200010000009550e+000	 8.666700000016666e+000	 1.001928277810162e+001
0	 4.266680000012268e+000	 8.000000000000000e+000	 1.004165996878914e+001
0	 4.266680000012268e+000	 8.066670000003317e+000	 1.003916980150713e+001
0	 4.266680000012268e+000	 8.133340000006534e+000	 1.003675507668104e+001
0	 4.266680000012267e+000	 8.200010000009550e+000	 1.003441460112654e+001
0	 4.266680000012268e+000	 8.266680000012268e+000	 1.003214718165934e+001
0	 4.266680000012268e+000	 8.333350000014582e+000	 1.002995162509510e+001
0	 4.266680000012268e+000	 8.400020000016403e+000	 1.002782673824954e+001
0	 4.266680000012266e+000	 8.466690000017616e+000	 1.002577132793835e+001
0	 4.266680000012268e+000	 8.533360000018137e+000	 1.002378420097721e+001
0	 4.266680000012266e+000	 8.600030000017849e+000	 1.002186416418183e+001
0	 4.266680000012267e+000	 8.666700000016668e+000	 1.002001002436790e+001
0	 4.333350000014584e+000	 8.000000000000000e+000	 1.004303456038126e+001
0	 4.333350000014583e+000	 8.066670000003319e+000	 1.004046469811000e+001
0	 4.333350000014582e+000	 8.133340000006534e+000	 1.003797320037244e+001
0	 4.333350000014582e+000	 8.200010000009550e+000	 1.003555865080834e+001
0	 4.333350000014584e+000	 8.266680000012268e+000	 1.003321963305748e+001
0	 4.333350000014582e+000	 8.333350000014582e+000	 1.003095473075964e+001
0	 4.333350000014584e+000	 8.400020000016401e+000	 1.002876252755462e+001
0	 4.333350000014582e+000	 8.466690000017616e+000	 1.002664160708221e+001
0	 4.333350000014582e+000	 8.533360000018133e+000	 1.002459055298214e+001
0	 4.333350000014583e+000	 8.600030000017849e+000	 1.002260794889424e+001
0	 4.333350000014583e+000	 8.666700000016666e+000	 1.002069237845828e+001
0	 4.400020000016399e+000	 7.999999999999999e+000	 1.004431892238177e+001
0	 4.400020000016399e+000	 8.066670000003317e+000	 1.004167474007243e+001
0	 4.400020000016400e+000	 8.133340000006532e+000	 1.003911156794385e+001
0	 4.400020000016400e+000	 8.200010000009549e+000	 1.003662779786206e+001
0	 4.400020000016400e+000	 8.266680000012267e+000	 1.003422182169305e+001
0	 4.400020000016400e+000	 8.333350000014583e+000	 1.003189203130281e+001
0	 4.400020000016399e+000	 8.400020000016397e+000	 1.002963681855736e+001
0	 4.400020000016399e+000	 8.466690000017618e+000	 1.002745457532271e+001
0	 4.400020000016401e+000	 8.533360000018135e+000	 1.002534369346486e+001
0	 4.400020000016400e+000	 8.600030000017849e+000	 1.002330256484983e+001
0	 4.400020000016401e+000	 8.666700000016666e+000	 1.002132958134363e+001
0	 4.466690000017617e+000	 8.000000000000000e+000	 1.004551271328093e+001
0	 4.466690000017616e+000	 8.066670000003319e+000	 1.004279974867272e+001
0	 4.466690000017617e+000	 8.133340000006534e+000	 1.004017012911943e+001
0	 4.466690000017617e+000	 8.200010000009552e+000	 1.003762208611544e+001
0	 4.466690000017615e+000	 8.266680000012265e+000	 1.003515385115512e+001
0	 4.466690000017617e+000	 8.333350000014587e+000	 1.003276365573283e+001
0	 4.466690000017615e+000	 8.400020000016401e+000	 1.003044973134295e+001
0	 4.466690000017616e+000	 8.466690000017618e+000	 1.002821030947982e+001
0	 4.466690000017616e+000	 8.533360000018135e+000	 1.002604362163784e+001
0	 4.466690000017616e+000	 8.600030000017851e+000	 1.002394789931138e+001
0	 4.466690000017616e+000	 8.666700000016668e+000	 1.002192137399480e+001
0	 4.533360000018131e+000	 8.000000000000000e+000	 1.004661559156902e+001
0	 4.533360000018133e+000	 8.066670000003317e+000	 1.004383954518918e+001
0	 4.533360000018132e+000	 8.133340000006534e+000	 1.004114883362328e+001
0	 4.533360000018130e+000	 8.200010000009549e+000	 1.003854155939621e+001
0	 4.533360000018132e+000	 8.266680000012267e+000	 1.003601582503282e+001
0	 4.533360000018131e+000	 8.333350000014583e+000	 1.003356973305801e+001
0	 4.533360000018133e+000	 8.400020000016399e+000	 1.003120138599660e+001
0	 4.533360000018133e+000	 8.466690000017616e+000	 1.002890888637349e+001
0	 4.533360000018132e+000	 8.533360000018131e+000	 1.002669033671356e+001
0	 4.533360000018133e+000	 8.600030000017849e+000	 1.002454383954165e+001
0	 4.533360000018131e+000	 8.666700000016666e+000	 1.002246749738268e+001
0	 4.600030000017850e+000	 8.000000000000000e+000	 1.004762721573637e+001
0	 4.600030000017848e+000	 8.066670000003315e+000	 1.004479395090014e+001
0	 4.600030000017848e+000	 8.133340000006532e+000	 1.004204763117954e+001
0	 4.600030000017848e+000	 8.200010000009549e+000	 1.003938626153209e+001
0	 4.600030000017849e+000	 8.266680000012267e+000	 1.003680784691527e+001
0	 4.600030000017849e+000	 8.333350000014583e+000	 1.003431039228659e+001
0	 4.600030000017848e+000	 8.400020000016401e+000	 1.003189190260355e+001
0	 4.600030000017850e+000	 8.466690000017618e+000	 1.002955038282368e+001
0	 4.600030000017848e+000	 8.533360000018133e+000	 1.002728383790448e+001
0	 4.600030000017849e+000	 8.600030000017851e+000	 1.002509027280345e+001
0	 4.600030000017849e+000	 8.666700000016668e+000	 1.002296769247811e+001
0	 4.666700000016665e+000	 7.999999999999998e+000	 1.004854724427323e+001
0	 4.666700000016665e+000	 8.066670000003317e+000	 1.004566278708392e+001
0	 4.666700000016666e+000	 8.133340000006532e+000	 1.004286647151236e+001
0	 4.666700000016666e+000	 8.200010000009549e+000	 1.004015623635080e+001
0	 4.666700000016666e+000	 8.266680000012268e+000	 1.003753002039154e+001
0	 4.666700000016667e+000	 8.333350000014585e+000	 1.003498576242686e+001
0	 4.666700000016666e+000	 8.400020000016399e+000	 1.003252140124903e+001
0	 4.666700000016666e+000	 8.466690000017616e+000	 1.003013487565034e+001
0	 4.666700000016666e+000	 8.533360000018133e+000	 1.002782412442310e+001
0	 4.666700000016667e+000	 8.600030000017853e+000	 1.002558708635953e+001
0	 4.666700000016665e+000	 8.666700000016666e+000	 1.002342170025197e+001
0	 4.000000000000000e+000	 8.666700000016666e+000	 1.001683427653876e+001
0	 4.000000000000000e+000	 8.733360002791901e+000	 1.001533739266252e+001
0	 4.000000000000000e+000	 8.800020022230555e+000	 1.001391304853456e+001
0	 4.000000000000000e+000	 8.866680074997040e+000	 1.001255813886084e+001
0	 4.000000000000000e+000	 8.933340177755778e+000	 1.001126955815714e+001
0	 4.000000000000001e+000	 9.000000347171181e+000	 1.001004420074923e+001
0	 4.000000000000000e+000	 9.066660599907667e+000	 1.000887896077269e+001
0	 4.000000000000001e+000	 9.133320952629656e+000	 1.000777073217299e+001
0	 4.000000000000001e+000	 9.199981422001560e+000	 1.000671640870552e+001
0	 4.000000000000001e+000	 9.266642024687796e+000	 1.000571288393551e+001
0	 4.000000000000000e+000	 9.333302777352783e+000	 1.000475705123805e+001
0	 4.066670000003317e+000	 8.666700000016668e+000	 1.001769464515792e+001
0	 4.066670000003318e+000	 8.733360002791907e+000	 1.001612059419017e+001
0	 4.066670000003317e+000	 8.800020022230557e+000	 1.001462200517347e+001
0	 4.066670000003317e+000	 8.866680074997040e+000	 1.001319579389228e+001
0	 4.066670000003319e+000	 8.933340177755778e+000	 1.001183887593049e+001
0	 4.066670000003318e+000	 9.000000347171183e+000	 1.001054816667136e+001
0	 4.066670000003317e+000	 9.066660599907669e+000	 1.000932058129756e+001
0	 4.066670000003317e+000	 9.133320952629655e+000	 1.000815303479118e+001
0	 4.066670000003317e+000	 9.199981422001560e+000	 1.000704244193361e+001
0	 4.066670000003317e+000	 9.266642024687794e+000	 1.000598571730573e+001
0	 4.066670000003317e+000	 9.333302777352783e+000	 1.000497977528769e+001
0	 4.133340000006534e+000	 8.666700000016665e+000	 1.001851089868858e+001
0	 4.133340000006533e+000	 8.733360002791905e+000	 1.001686430795712e+001
0	 4.133340000006533e+000	 8.800020022230553e+000	 1.001529600607280e+001
0	 4.133340000006534e+000	 8.866680074997040e+000	 1.001380291064797e+001
0	 4.133340000006533e+000	 8.933340177755776e+000	 1.001238193908446e+001
0	 4.133340000006534e+000	 9.000000347171183e+000	 1.001103000857357e+001
0	 4.133340000006535e+000	 9.066660599907667e+000	 1.000974403609603e+001
0	 4.133340000006534e+000	 9.133320952629656e+000	 1.000852093842197e+001
0	 4.133340000006533e+000	 9.199981422001560e+000	 1.000735763211105e+001
0	 4.133340000006533e+000	 9.266642024687796e+000	 1.000625103351224e+001
0	 4.133340000006535e+000	 9.333302777352783e+000	 1.000519805876405e+001
0	 4.200010000009550e+000	 8.666700000016666e+000	 1.001928277810162e+001
0	 4.200010000009550e+000	 8.733360002791905e+000	 1.001756811429662e+001
0	 4.200010000009550e+000	 8.800020022230555e+000	 1.001593447653003e+001
0	 4.200010000009550e+000	 8.866680074997040e+000	 1.001437876499162e+001
0	 4.200010000009551e+000	 8.933340177755779e+000	 1.001289787965113e+001
0	 4.200010000009550e+000	 9.000000347171181e+000	 1.001148872025842e+001
0	 4.200010000009551e+000	 9.066660599907671e+000	 1.001014818634333e+001
0	 4.200010000009550e+000	 9.133320952629656e+000	 1.000887317721576e+001
0	 4.200010000009550e+000	 9.199981422001558e+000	 1.000766059196560e+001
0	 4.200010000009550e+000	 9.266642024687796e+000	 1.000650732946280e+001
0	 4.200010000009550e+000	 9.333302777352779e+000	 1.000541028835725e+001
0	 4.266680000012267e+000	 8.666700000016668e+000	 1.002001002436790e+001
0	 4.266680000012268e+000	 8.733360002791903e+000	 1.001823159354192e+001
0	 4.266680000012266e+000	 8.800020022230553e+000	 1.001653684184271e+001
0	 4.266680000012267e+000	 8.866680074997040e+000	 1.001492263278698e+001
0	 4.266680000012266e+000	 8.933340177755779e+000	 1.001338582966256e+001
0	 4.266680000012266e+000	 9.000000347171181e+000	 1.001192329552846e+001
0	 4.266680000012267e+000	 9.066660599907667e+000	 1.001053189321478e+001
0	 4.266680000012266e+000	 9.133320952629655e+000	 1.000920848532287e+001
0	 4.266680000012267e+000	 9.199981422001560e+000	 1.000794993422514e+001
0	 4.266680000012268e+000	 9.266642024687798e+000	 1.000675310206510e+001
0	 4.266680000012267e+000	 9.333302777352785e+000	 1.000561485075750e+001
0	 4.333350000014583e+000	 8.666700000016666e+000	 1.002069237845828e+001
0	 4.333350000014583e+000	 8.733360002791903e+000	 1.001885432602627e+001
0	 4.333350000014582e+000	 8.800020022230555e+000	 1.001710252730835e+001
0	 4.333350000014582e+000	 8.866680074997039e+000	 1.001543378989782e+001
0	 4.333350000014583e+000	 8.933340177755781e+000	 1.001384492115080e+001
0	 4.333350000014583e+000	 9.000000347171181e+000	 1.001233272818619e+001
0	 4.333350000014582e+000	 9.066660599907666e+000	 1.001089401788565e+001
0	 4.333350000014584e+000	 9.133320952629658e+000	 1.000952559689366e+001
0	 4.333350000014582e+000	 9.199981422001557e+000	 1.000822427161744e+001
0	 4.333350000014583e+000	 9.266642024687798e+000	 1.000698684822696e+001
0	 4.333350000014585e+000	 9.333302777352785e+000	 1.000581013265501e+001
0	 4.400020000016401e+000	 8.666700000016666e+000	 1.002132958134363e+001
0	 4.400020000016400e+000	 8.733360002791901e+000	 1.001943589208294e+001
0	 4.400020000016400e+000	 8.800020022230553e+000	 1.001763095822443e+001
0	 4.400020000016401e+000	 8.866680074997042e+000	 1.001591151218787e+001
0	 4.400020000016401e+000	 8.933340177755779e+000	 1.001427428614792e+001
0	 4.400020000016398e+000	 9.000000347171181e+000	 1.001271601203418e+001
0	 4.400020000016399e+000	 9.066660599907667e+000	 1.001123342153122e+001
0	 4.400020000016400e+000	 9.133320952629656e+000	 1.000982324607846e+001
0	 4.400020000016400e+000	 9.199981422001557e+000	 1.000848221687032e+001
0	 4.400020000016400e+000	 9.266642024687796e+000	 1.000720706485608e+001
0	 4.400020000016399e+000	 9.333302777352781e+000	 1.000599452073993e+001
0	 4.466690000017616e+000	 8.666700000016668e+000	 1.002192137399481e+001
0	 4.466690000017615e+000	 8.733360002791899e+000	 1.001997587204517e+001
0	 4.466690000017618e+000	 8.800020022230557e+000	 1.001812155988850e+001
0	 4.466690000017615e+000	 8.866680074997040e+000	 1.001635507552088e+001
0	 4.466690000017616e+000	 8.933340177755776e+000	 1.001467305668595e+001
0	 4.466690000017617e+000	 9.000000347171179e+000	 1.001307214087497e+001
0	 4.466690000017616e+000	 9.066660599907671e+000	 1.001154896532674e+001
0	 4.466690000017617e+000	 9.133320952629656e+000	 1.001010016702764e+001
0	 4.466690000017617e+000	 9.199981422001558e+000	 1.000872238271164e+001
0	 4.466690000017617e+000	 9.266642024687799e+000	 1.000741224886022e+001
0	 4.466690000017616e+000	 9.333302777352783e+000	 1.000616640170247e+001
0	 4.533360000018131e+000	 8.666700000016666e+000	 1.002246749738268e+001
0	 4.533360000018132e+000	 8.733360002791899e+000	 1.002047384624623e+001
0	 4.533360000018134e+000	 8.800020022230559e+000	 1.001857375759807e+001
0	 4.533360000018135e+000	 8.866680074997042e+000	 1.001676375576060e+001
0	 4.533360000018133e+000	 8.933340177755781e+000	 1.001504036479700e+001
0	 4.533360000018134e+000	 9.000000347171181e+000	 1.001340010851110e+001
0	 4.533360000018132e+000	 9.066660599907666e+000	 1.001183951044753e+001
0	 4.533360000018132e+000	 9.133320952629656e+000	 1.001035509389155e+001
0	 4.533360000018132e+000	 9.199981422001558e+000	 1.000894338186918e+001
0	 4.533360000018133e+000	 9.266642024687796e+000	 1.000760089714713e+001
0	 4.533360000018132e+000	 9.333302777352779e+000	 1.000632416223280e+001
0	 4.600030000017849e+000	 8.666700000016668e+000	 1.002296769247811e+001
0	 4.600030000017849e+000	 8.733360002791903e+000	 1.002092939501937e+001
0	 4.600030000017848e+000	 8.800020022230553e+000	 1.001898697665063e+001
0	 4.600030000017848e+000	 8.866680074997042e+000	 1.001713682877077e+001
0	 4.600030000017850e+000	 8.933340177755779e+000	 1.001537534251308e+001
0	 4.600030000017848e+000	 9.000000347171181e+000	 1.001369890874510e+001
0	 4.600030000017849e+000	 9.066660599907667e+000	 1.001210391806883e+001
0	 4.600030000017849e+000	 9.133320952629656e+000	 1.001058676082051e+001
0	 4.600030000017848e+000	 9.199981422001558e+000	 1.000914382707077e+001
0	 4.600030000017848e+000	 9.266642024687796e+000	 1.000777150662454e+001
0	 4.600030000017849e+000	 9.333302777352783e+000	 1.000646618902112e+001
0	 4.666700000016665e+000	 8.666700000016666e+000	 1.002342170025197e+001
0	 4.666700000016665e+000	 8.733360002791901e+000	 1.002134209869784e+001
0	 4.666700000016665e+000	 8.800020022230555e+000	 1.001936064234370e+001
0	 4.666700000016666e+000	 8.866680074997040e+000	 1.001747357041515e+001
0	 4.666700000016666e+000	 8.933340177755778e+000	 1.001567712186626e+001
0	 4.666700000016666e+000	 9.000000347171181e+000	 1.001396753537955e+001
0	 4.666700000016667e+000	 9.066660599907669e+000	 1.001234104936594e+001
0	 4.666700000016666e+000	 9.133320952629655e+000	 1.001079390196489e+001
0	 4.666700000016666e+000	 9.199981422001557e+000	 1.000932233104423e+001
0	 4.666700000016667e+000	 9.266642024687798e+000	 1.000792257420021e+001
0	 4.666700000016665e+000	 9.333302777352781e+000	 1.000659086875760e+001
0	 4.000000000000000e+000	 9.333302777352783e+000	 1.000475705123805e+001
0	 4.000000000000001e+000	 9.399973674588178e+000	 1.000387666096578e+001
0	 4.000000000000001e+000	 9.466644621844623e+000	 1.000309826243278e+001
0	 4.000000000000000e+000	 9.533315502450000e+000	 1.000241652890399e+001
0	 4.000000000000000e+000	 9.599986199732195e+000	 1.000182613563374e+001
0	 4.000000000000000e+000	 9.666656597019095e+000	 1.000132175986549e+001
0	 4.000000000000001e+000	 9.733326577638577e+000	 1.000089808083162e+001
0	 3.999999999999999e+000	 9.799996024918523e+000	 1.000054977975329e+001
0	 4.000000000000000e+000	 9.866664822186824e+000	 1.000027153984033e+001
0	 4.000000000000000e+000	 9.933332852771352e+000	 1.000005804629122e+001
0	 4.000000000000000e+000	 1.000000000000000e+001	 9.999903986293036e+000
0	 4.066670000003317e+000	 9.333302777352783e+000	 1.000497977528770e+001
0	 4.066670000003318e+000	 9.399973674588175e+000	 1.000405390856738e+001
0	 4.066670000003318e+000	 9.466644621844623e+000	 1.000323589208086e+001
0	 4.066670000003317e+000	 9.533315502450000e+000	 1.000251992324815e+001
0	 4.066670000003318e+000	 9.599986199732197e+000	 1.000190020158600e+001
0	 4.066670000003319e+000	 9.666656597019097e+000	 1.000137092870754e+001
0	 4.066670000003317e+000	 9.733326577638575e+000	 1.000092630832221e+001
0	 4.066670000003318e+000	 9.799996024918523e+000	 1.000056054623556e+001
0	 4.066670000003316e+000	 9.866664822186820e+000	 1.000026785034920e+001
0	 4.066670000003316e+000	 9.933332852771352e+000	 1.000004243066064e+001
0	 4.066670000003317e+000	 1.000000000000000e+001	 9.999878499263602e+000
0	 4.133340000006535e+000	 9.333302777352783e+000	 1.000519805876405e+001
0	 4.133340000006534e+000	 9.399973674588178e+000	 1.000422941405301e+001
0	 4.133340000006533e+000	 9.466644621844621e+000	 1.000337402008100e+001
0	 4.133340000006534e+000	 9.533315502450003e+000	 1.000262565396775e+001
0	 4.133340000006533e+000	 9.599986199732195e+000	 1.000197809503059e+001
0	 4.133340000006531e+000	 9.666656597019092e+000	 1.000142512478431e+001
0	 4.133340000006533e+000	 9.733326577638575e+000	 1.000096052694088e+001
0	 4.133340000006532e+000	 9.799996024918521e+000	 1.000057808740933e+001
0	 4.133340000006532e+000	 9.866664822186818e+000	 1.000027159429573e+001
0	 4.133340000006533e+000	 9.933332852771351e+000	 1.000003483790313e+001
0	 4.133340000006534e+000	 1.000000000000000e+001	 9.999861610731655e+000
0	 4.200010000009550e+000	 9.333302777352779e+000	 1.000541028835725e+001
0	 4.200010000009550e+000	 9.399973674588175e+000	 1.000440146674452e+001
0	 4.200010000009551e+000	 9.466644621844621e+000	 1.000351085851431e+001
0	 4.200010000009550e+000	 9.533315502449998e+000	 1.000273187603039e+001
0	 4.200010000009551e+000	 9.599986199732198e+000	 1.000205793394882e+001
0	 4.200010000009550e+000	 9.666656597019090e+000	 1.000148244921784e+001
0	 4.200010000009550e+000	 9.733326577638575e+000	 1.000099884107774e+001
0	 4.200010000009550e+000	 9.799996024918524e+000	 1.000060053106060e+001
0	 4.200010000009550e+000	 9.866664822186822e+000	 1.000028094299026e+001
0	 4.200010000009550e+000	 9.933332852771352e+000	 1.000003350298260e+001
0	 4.200010000009550e+000	 9.999999999999998e+000	 9.999851639445190e+000
0	 4.266680000012267e+000	 9.333302777352785e+000	 1.000561485075750e+001
0	 4.266680000012267e+000	 9.399973674588175e+000	 1.000456835596364e+001
0	 4.266680000012268e+000	 9.466644621844623e+000	 1.000364461946187e+001
0	 4.266680000012266e+000	 9.533315502450000e+000	 1.000283674440374e+001
0	 4.266680000012268e+000	 9.599986199732198e+000	 1.000213783632197e+001
0	 4.266680000012268e+000	 9.666656597019090e+000	 1.000154100313019e+001
0	 4.266680000012268e+000	 9.733326577638575e+000	 1.000103935512294e+001
0	 4.266680000012268e+000	 9.799996024918521e+000	 1.000062600497533e+001
0	 4.266680000012266e+000	 9.866664822186824e+000	 1.000029406774319e+001
0	 4.266680000012268e+000	 9.933332852771356e+000	 1.000003666086309e+001
0	 4.266680000012267e+000	 9.999999999999998e+000	 9.999846904152223e+000
0	 4.333350000014585e+000	 9.333302777352785e+000	 1.000581013265501e+001
0	 4.333350000014583e+000	 9.399973674588175e+000	 1.000472837103223e+001
0	 4.333350000014582e+000	 9.466644621844619e+000	 1.000377351500478e+001
0	 4.333350000014584e+000	 9.533315502450000e+000	 1.000293841405545e+001
0	 4.333350000014584e+000	 9.599986199732198e+000	 1.000221592013130e+001
0	 4.333350000014582e+000	 9.666656597019093e+000	 1.000159888764338e+001
0	 4.333350000014583e+000	 9.733326577638572e+000	 1.000108017346659e+001
0	 4.333350000014583e+000	 9.799996024918523e+000	 1.000065263693963e+001
0	 4.333350000014583e+000	 9.866664822186824e+000	 1.000030913986493e+001
0	 4.333350000014585e+000	 9.933332852771358e+000	 1.000004254650866e+001
0	 4.333350000014584e+000	 1.000000000000000e+001	 9.999845723600975e+000
0	 4.400020000016399e+000	 9.333302777352781e+000	 1.000599452073993e+001
0	 4.400020000016400e+000	 9.399973674588177e+000	 1.000487980127210e+001
0	 4.400020000016400e+000	 9.466644621844621e+000	 1.000389575722411e+001
0	 4.400020000016398e+000	 9.533315502450000e+000	 1.000303503995318e+001
0	 4.400020000016400e+000	 9.599986199732198e+000	 1.000229030335814e+001
0	 4.400020000016400e+000	 9.666656597019092e+000	 1.000165420387945e+001
0	 4.400020000016401e+000	 9.733326577638575e+000	 1.000111940049888e+001
0	 4.400020000016400e+000	 9.799996024918524e+000	 1.000067855473953e+001
0	 4.400020000016400e+000	 9.866664822186820e+000	 1.000032433066578e+001
0	 4.400020000016399e+000	 9.933332852771354e+000	 1.000004939488338e+001
0	 4.400020000016400e+000	 1.000000000000000e+001	 9.999846416539489e+000
0	 4.466690000017616e+000	 9.333302777352783e+000	 1.000616640170247e+001
0	 4.466690000017616e+000	 9.399973674588177e+000	 1.000502093600500e+001
0	 4.466690000017615e+000	 9.466644621844621e+000	 1.000400955820095e+001
0	 4.466690000017617e+000	 9.533315502450000e+000	 1.000312477706451e+001
0	 4.466690000017616e+000	 9.599986199732195e+000	 1.000235910398375e+001
0	 4.466690000017615e+000	 9.666656597019092e+000	 1.000170505296042e+001
0	 4.466690000017616e+000	 9.733326577638577e+000	 1.000115514060991e+001
0	 4.466690000017616e+000	 9.799996024918524e+000	 1.000070188616101e+001
0	 4.466690000017616e+000	 9.866664822186822e+000	 1.000033781145614e+001
0	 4.466690000017616e+000	 9.933332852771354e+000	 1.000005544095127e+001
0	 4.466690000017617e+000	 1.000000000000000e+001	 9.999847301716008e+000
0	 4.533360000018132e+000	 9.333302777352779e+000	 1.000632416223280e+001
0	 4.533360000018131e+000	 9.399973674588173e+000	 1.000515006455274e+001
0	 4.533360000018132e+000	 9.466644621844619e+000	 1.000411313001642e+001
0	 4.533360000018134e+000	 9.533315502450002e+000	 1.000320578035716e+001
0	 4.533360000018131e+000	 9.599986199732197e+000	 1.000242043998943e+001
0	 4.533360000018131e+000	 9.666656597019093e+000	 1.000174953600836e+001
0	 4.533360000018134e+000	 9.733326577638577e+000	 1.000118549818981e+001
0	 4.533360000018132e+000	 9.799996024918528e+000	 1.000072075899013e+001
0	 4.533360000018132e+000	 9.866664822186822e+000	 1.000034775354642e+001
0	 4.533360000018132e+000	 9.933332852771356e+000	 1.000005891967634e+001
0	 4.533360000018132e+000	 1.000000000000000e+001	 9.999846697878487e+000
0	 4.600030000017849e+000	 9.333302777352783e+000	 1.000646618902112e+001
0	 4.600030000017849e+000	 9.399973674588177e+000	 1.000526547623718e+001
0	 4.600030000017849e+000	 9.466644621844619e+000	 1.000420468475152e+001
0	 4.600030000017849e+000	 9.533315502450002e+000	 1.000327620479873e+001
0	 4.600030000017849e+000	 9.599986199732195e+000	 1.000247242935647e+001
0	 4.600030000017847e+000	 9.666656597019092e+000	 1.000178575414532e+001
0	 4.600030000017849e+000	 9.733326577638573e+000	 1.000120857762875e+001
0	 4.600030000017848e+000	 9.799996024918523e+000	 1.000073330101294e+001
0	 4.600030000017849e+000	 9.866664822186822e+000	 1.000035232824697e+001
0	 4.600030000017848e+000	 9.933332852771352e+000	 1.000005806602270e+001
0	 4.600030000017849e+000	 1.000000000000000e+001	 9.999842923775130e+000
0	 4.666700000016665e+000	 9.333302777352781e+000	 1.000659086875760e+001
0	 4.666700000016666e+000	 9.399973674588177e+000	 1.000536546038005e+001
0	 4.666700000016667e+000	 9.466644621844621e+000	 1.000428243448744e+001
0	 4.666700000016667e+000	 9.533315502450000e+000	 1.000333420535689e+001
0	 4.666700000016666e+000	 9.599986199732197e+000	 1.000251319006614e+001
0	 4.666700000016666e+000	 9.666656597019095e+000	 1.000181180849334e+001
0	 4.666700000016666e+000	 9.733326577638573e+000	 1.000122248331686e+001
0	 4.666700000016665e+000	 9.799996024918521e+000	 1.000073764001547e+001
0	 4.666700000016666e+000	 9.866664822186822e+000	 1.000034970686814e+001
0	 4.666700000016666e+000	 9.933332852771352e+000	 1.000005111495429e+001
0	 4.666700000016666e+000	 1.000000000000000e+001	 9.999834298153965e+000
0	 4.666700000016666e+000	 0.000000000000000e+000	 1.088457105223593e+001
0	 4.666700000016666e+000	 6.666714722864757e-002	 1.083848856370210e+001
0	 4.666700000016667e+000	 1.333351778131790e-001	 1.078902487199168e+001
0	 4.666700000016665e+000	 2.000039750814772e-001	 1.073787216762246e+001
0	 4.666700000016666e+000	 2.666734223614256e-001	 1.068672270072768e+001
0	 4.666700000016668e+000	 3.333434029809070e-001	 1.063726878104915e+001
0	 4.666700000016665e+000	 4.000138002678044e-001	 1.059120277793175e+001
0	 4.666700000016666e+000	 4.666844975500011e-001	 1.055021712031959e+001
0	 4.666700000016667e+000	 5.333553781553803e-001	 1.051600429675374e+001
0	 4.666700000016666e+000	 6.000263254118248e-001	 1.049025685537144e+001
0	 4.666700000016667e+000	 6.666972226472179e-001	 1.047466740390698e+001
0	 4.733360000014534e+000	 0.000000000000000e+000	 1.076289668642417e+001
0	 4.733360000014533e+000	 6.666714722864754e-002	 1.072922393383725e+001
0	 4.733360000014533e+000	 1.333351778131789e-001	 1.069282446718174e+001
0	 4.733360000014534e+000	 2.000039750814773e-001	 1.065499819390257e+001
0	 4.733360000014534e+000	 2.666734223614255e-001	 1.061704506658851e+001
0	 4.733360000014533e+000	 3.333434029809068e-001	 1.058026508296712e+001
0	 4.733360000014533e+000	 4.000138002678044e-001	 1.054595828590096e+001
0	 4.733360000014534e+000	 4.666844975500012e-001	 1.051542476338493e+001
0	 4.733360000014533e+000	 5.333553781553801e-001	 1.048996464854483e+001
0	 4.733360000014534e+000	 6.000263254118248e-001	 1.047087811963704e+001
0	 4.733360000014533e+000	 6.666972226472174e-001	 1.045946540004945e+001
0	 4.800020000011600e+000	 0.000000000000000e+000	 1.065482424756143e+001
0	 4.800020000011600e+000	 6.666714722864754e-002	 1.063117684227158e+001
0	 4.800020000011601e+000	 1.333351778131790e-001	 1.060550229340849e+001
0	 4.800020000011601e+000	 2.000039750814772e-001	 1.057875503104769e+001
0	 4.800020000011600e+000	 2.666734223614255e-001	 1.055188951899813e+001
0	 4.800020000011599e+000	 3.333434029809069e-001	 1.052586025479862e+001
0	 4.800020000011599e+000	 4.000138002678044e-001	 1.050162176971531e+001
0	 4.800020000011599e+000	 4.666844975500012e-001	 1.048012862873991e+001
0	 4.800020000011601e+000	 5.333553781553804e-001	 1.046233543058888e+001
0	 4.800020000011601e+000	 6.000263254118247e-001	 1.044919680770349e+001
0	 4.800020000011600e+000	 6.666972226472175e-001	 1.044166742625077e+001
0	 4.866680000008066e+000	 0.000000000000000e+000	 1.056019603921055e+001
0	 4.866680000008067e+000	 6.666714722864757e-002	 1.054443244075239e+001
0	 4.866680000008067e+000	 1.333351778131789e-001	 1.052735229696696e+001
0	 4.866680000008068e+000	 2.000039750814772e-001	 1.050961136862431e+001
0	 4.866680000008065e+000	 2.666734223614256e-001	 1.049186544152096e+001
0	 4.866680000008065e+000	 3.333434029809069e-001	 1.047477032647768e+001
0	 4.866680000008066e+000	 4.000138002678044e-001	 1.045898185933766e+001
0	 4.866680000008067e+000	 4.666844975500011e-001	 1.044515590096557e+001
0	 4.866680000008067e+000	 5.333553781553803e-001	 1.043394833724713e+001
0	 4.866680000008066e+000	 6.000263254118248e-001	 1.042601507908941e+001
0	 4.866680000008067e+000	 6.666972226472177e-001	 1.042201206242177e+001
0	 4.933340000004134e+000	 0.000000000000000e+000	 1.047885436493413e+001
0	 4.933340000004134e+000	 6.666714722864754e-002	 1.046907588102673e+001
0	 4.933340000004133e+000	 1.333351778131789e-001	 1.045866842415198e+001
0	 4.933340000004134e+000	 2.000039750814772e-001	 1.044803589619870e+001
0	 4.933340000004134e+000	 2.666734223614255e-001	 1.043758221772127e+001
0	 4.933340000004134e+000	 3.333434029809070e-001	 1.042771132793813e+001
0	 4.933340000004134e+000	 4.000138002678044e-001	 1.041882718473072e+001
0	 4.933340000004133e+000	 4.666844975500011e-001	 1.041133376464287e+001
0	 4.933340000004133e+000	 5.333553781553803e-001	 1.040563506288078e+001
0	 4.933340000004133e+000	 6.000263254118248e-001	 1.040213509331336e+001
0	 4.933340000004133e+000	 6.666972226472175e-001	 1.040123788847321e+001
0	 5.000000000000000e+000	 0.000000000000000e+000	 1.041064152829453e+001
0	 5.000000000000004e+000	 6.666714722864757e-002	 1.040519231484143e+001
0	 5.000000000000002e+000	 1.333351778131790e-001	 1.039974462125816e+001
0	 5.000000000000001e+000	 2.000039750814772e-001	 1.039449730333699e+001
0	 5.000000000000000e+000	 2.666734223614255e-001	 1.038964923116311e+001
0	 5.000000000000001e+000	 3.333434029809069e-001	 1.038539928911365e+001
0	 5.000000000000001e+000	 4.000138002678044e-001	 1.038194637585704e+001
0	 4.999999999999999e+000	 4.666844975500012e-001	 1.037948940435262e+001
0	 5.000000000000001e+000	 5.333553781553803e-001	 1.037822730185088e+001
0	 4.999999999999999e+000	 6.000263254118246e-001	 1.037835900989381e+001
0	 5.000000000000001e+000	 6.666972226472178e-001	 1.038008348431579e+001
0	 5.066659999995866e+000	 0.000000000000000e+000	 1.035539983285389e+001
0	 5.066659999995868e+000	 6.666714722864757e-002	 1.035286689394309e+001
0	 5.066659999995867e+000	 1.333351778131790e-001	 1.035087483457988e+001
0	 5.066659999995868e+000	 2.000039750814772e-001	 1.034946427960505e+001
0	 5.066659999995867e+000	 2.666734223614256e-001	 1.034867586541036e+001
0	 5.066659999995866e+000	 3.333434029809069e-001	 1.034855023993778e+001
0	 5.066659999995867e+000	 4.000138002678044e-001	 1.034912806267905e+001
0	 5.066659999995866e+000	 4.666844975500011e-001	 1.035045000467556e+001
0	 5.066659999995866e+000	 5.333553781553804e-001	 1.035255674851846e+001
0	 5.066659999995868e+000	 6.000263254118248e-001	 1.035548898834919e+001
0	 5.066659999995868e+000	 6.666972226472178e-001	 1.035928742986018e+001
0	 5.133319999991932e+000	 0.000000000000000e+000	 1.031297158217410e+001
0	 5.133319999991933e+000	 6.666714722864756e-002	 1.031218477007812e+001
0	 5.133319999991933e+000	 1.333351778131789e-001	 1.031235301041135e+001
0	 5.133319999991933e+000	 2.000039750814772e-001	 1.031340551456862e+001
0	 5.133319999991933e+000	 2.666734223614255e-001	 1.031527150402676e+001
0	 5.133319999991933e+000	 3.333434029809069e-001	 1.031788021034388e+001
0	 5.133319999991934e+000	 4.000138002678043e-001	 1.032116087515908e+001
0	 5.133319999991933e+000	 4.666844975500012e-001	 1.032504275019227e+001
0	 5.133319999991935e+000	 5.333553781553804e-001	 1.032945509724441e+001
0	 5.133319999991932e+000	 6.000263254118248e-001	 1.033432718819783e+001
0	 5.133319999991933e+000	 6.666972226472177e-001	 1.033958830501701e+001
0	 5.199979999988400e+000	 0.000000000000000e+000	 1.028319907981683e+001
0	 5.199979999988399e+000	 6.666714722864756e-002	 1.028323109499265e+001
0	 5.199979999988400e+000	 1.333351778131790e-001	 1.028447309504651e+001
0	 5.199979999988400e+000	 2.000039750814773e-001	 1.028678969779320e+001
0	 5.199979999988401e+000	 2.666734223614256e-001	 1.029004553057583e+001
0	 5.199979999988399e+000	 3.333434029809069e-001	 1.029410523026517e+001
0	 5.199979999988399e+000	 4.000138002678044e-001	 1.029883344325927e+001
0	 5.199979999988399e+000	 4.666844975500011e-001	 1.030409482548327e+001
0	 5.199979999988400e+000	 5.333553781553800e-001	 1.030975404238955e+001
0	 5.199979999988400e+000	 6.000263254118249e-001	 1.031567576895804e+001
0	 5.199979999988399e+000	 6.666972226472177e-001	 1.032172468969682e+001
0	 5.266639999985466e+000	 0.000000000000000e+000	 1.026592462934350e+001
0	 5.266639999985466e+000	 6.666714722864756e-002	 1.026609102043262e+001
0	 5.266639999985464e+000	 1.333351778131789e-001	 1.026752903477914e+001
0	 5.266639999985465e+000	 2.000039750814772e-001	 1.027008551884410e+001
0	 5.266639999985465e+000	 2.666734223614255e-001	 1.027360732862094e+001
0	 5.266639999985465e+000	 3.333434029809068e-001	 1.027794132963473e+001
0	 5.266639999985466e+000	 4.000138002678045e-001	 1.028293439694168e+001
0	 5.266639999985465e+000	 4.666844975500011e-001	 1.028843341512895e+001
0	 5.266639999985465e+000	 5.333553781553801e-001	 1.029428527831462e+001
0	 5.266639999985466e+000	 6.000263254118247e-001	 1.030033689014801e+001
0	 5.266639999985466e+000	 6.666972226472178e-001	 1.030643516381015e+001
0	 5.333299999983334e+000	 0.000000000000000e+000	 1.026099053431530e+001
0	 5.333299999983336e+000	 6.666714722864757e-002	 1.026084969814373e+001
0	 5.333299999983333e+000	 1.333351778131789e-001	 1.026181477590276e+001
0	 5.333299999983336e+000	 2.000039750814772e-001	 1.026376166728644e+001
0	 5.333299999983334e+000	 2.666734223614255e-001	 1.026656628172527e+001
0	 5.333299999983334e+000	 3.333434029809068e-001	 1.027010453838545e+001
0	 5.333299999983334e+000	 4.000138002678044e-001	 1.027425236616821e+001
0	 5.333299999983334e+000	 4.666844975500011e-001	 1.027888570370958e+001
0	 5.333299999983333e+000	 5.333553781553803e-001	 1.028388049938026e+001
0	 5.333299999983335e+000	 6.000263254118248e-001	 1.028911271128589e+001
0	 5.333299999983334e+000	 6.666972226472175e-001	 1.029445830726745e+001
0	 4.666700000016667e+000	 6.666972226472179e-001	 1.047466740390698e+001
0	 4.666700000016665e+000	 7.333579753122046e-001	 1.046715698659675e+001
0	 4.666700000016666e+000	 8.000185779984418e-001	 1.046411611007118e+001
0	 4.666700000016665e+000	 8.666790473703452e-001	 1.046494609718055e+001
0	 4.666700000016666e+000	 9.333394000923320e-001	 1.046904827243118e+001
0	 4.666700000016666e+000	 9.999996528288190e-001	 1.047582396198563e+001
0	 4.666700000016665e+000	 1.066659822244222e+000	 1.048467449366273e+001
0	 4.666700000016667e+000	 1.133319925002959e+000	 1.049500119693767e+001
0	 4.666700000016666e+000	 1.199979977769445e+000	 1.050620540294209e+001
0	 4.666700000016667e+000	 1.266639997208098e+000	 1.051768844446413e+001
0	 4.666700000016666e+000	 1.333299999983334e+000	 1.052885165594849e+001
0	 4.733360000014533e+000	 6.666972226472174e-001	 1.045946540004945e+001
0	 4.733360000014534e+000	 7.333579753122049e-001	 1.045410093209769e+001
0	 4.733360000014533e+000	 8.000185779984421e-001	 1.045198767105818e+001
0	 4.733360000014535e+000	 8.666790473703454e-001	 1.045267185861721e+001
0	 4.733360000014532e+000	 9.333394000923320e-001	 1.045569973791452e+001
0	 4.733360000014533e+000	 9.999996528288190e-001	 1.046061755354336e+001
0	 4.733360000014534e+000	 1.066659822244222e+000	 1.046697155155057e+001
0	 4.733360000014534e+000	 1.133319925002959e+000	 1.047430797943660e+001
0	 4.733360000014533e+000	 1.199979977769445e+000	 1.048217308615571e+001
0	 4.733360000014534e+000	 1.266639997208097e+000	 1.049011312211584e+001
0	 4.733360000014534e+000	 1.333299999983334e+000	 1.049767433917881e+001
0	 4.800020000011600e+000	 6.666972226472175e-001	 1.044166742625077e+001
0	 4.800020000011599e+000	 7.333579753122046e-001	 1.043848472458234e+001
0	 4.800020000011600e+000	 8.000185779984415e-001	 1.043753108613545e+001
0	 4.800020000011601e+000	 8.666790473703455e-001	 1.043848060373535e+001
0	 4.800020000011600e+000	 9.333394000923323e-001	 1.044100737140067e+001
0	 4.800020000011599e+000	 9.999996528288186e-001	 1.044478548434339e+001
0	 4.800020000011601e+000	 1.066659822244222e+000	 1.044948903896897e+001
0	 4.800020000011601e+000	 1.133319925002959e+000	 1.045479213287642e+001
0	 4.800020000011601e+000	 1.199979977769445e+000	 1.046036886485829e+001
0	 4.800020000011601e+000	 1.266639997208098e+000	 1.046589333490076e+001
0	 4.800020000011601e+000	 1.333299999983334e+000	 1.047103964418369e+001
0	 4.866680000008067e+000	 6.666972226472177e-001	 1.042201206242177e+001
0	 4.866680000008067e+000	 7.333579753122050e-001	 1.042096120212475e+001
0	 4.866680000008067e+000	 8.000185779984419e-001	 1.042130314793825e+001
0	 4.866680000008067e+000	 8.666790473703453e-001	 1.042282277613576e+001
0	 4.866680000008066e+000	 9.333394000923324e-001	 1.042530496388202e+001
0	 4.866680000008067e+000	 9.999996528288191e-001	 1.042853458923310e+001
0	 4.866680000008066e+000	 1.066659822244222e+000	 1.043229653113645e+001
0	 4.866680000008065e+000	 1.133319925002958e+000	 1.043637566943093e+001
0	 4.866680000008068e+000	 1.199979977769445e+000	 1.044055688484685e+001
0	 4.866680000008066e+000	 1.266639997208098e+000	 1.044462505900605e+001
0	 4.866680000008067e+000	 1.333299999983334e+000	 1.044836507442187e+001
0	 4.933340000004133e+000	 6.666972226472175e-001	 1.040123788847321e+001
0	 4.933340000004135e+000	 7.333579753122049e-001	 1.040218320279895e+001
0	 4.933340000004133e+000	 8.000185779984418e-001	 1.040386064910184e+001
0	 4.933340000004134e+000	 8.666790473703455e-001	 1.040614881941920e+001
0	 4.933340000004133e+000	 9.333394000923323e-001	 1.040892630635099e+001
0	 4.933340000004134e+000	 9.999996528288190e-001	 1.041207170305994e+001
0	 4.933340000004134e+000	 1.066659822244222e+000	 1.041546360327150e+001
0	 4.933340000004135e+000	 1.133319925002959e+000	 1.041898060127396e+001
0	 4.933340000004133e+000	 1.199979977769445e+000	 1.042250129191841e+001
0	 4.933340000004134e+000	 1.266639997208098e+000	 1.042590427061884e+001
0	 4.933340000004134e+000	 1.333299999983334e+000	 1.042906813335213e+001
0	 5.000000000000001e+000	 6.666972226472178e-001	 1.038008348431579e+001
0	 5.000000000000002e+000	 7.333579753122050e-001	 1.038280356467894e+001
0	 5.000000000000002e+000	 8.000185779984418e-001	 1.038576038226147e+001
0	 5.000000000000001e+000	 8.666790473703453e-001	 1.038890917718645e+001
0	 5.000000000000001e+000	 9.333394000923323e-001	 1.039220518980001e+001
0	 5.000000000000000e+000	 9.999996528288190e-001	 1.039560366067131e+001
0	 5.000000000000001e+000	 1.066659822244222e+000	 1.039905983059262e+001
0	 5.000000000000002e+000	 1.133319925002959e+000	 1.040252894057933e+001
0	 5.000000000000001e+000	 1.199979977769445e+000	 1.040596623186999e+001
0	 5.000000000000000e+000	 1.266639997208098e+000	 1.040932694592631e+001
0	 4.999999999999999e+000	 1.333299999983334e+000	 1.041256632443324e+001
0	 5.066659999995868e+000	 6.666972226472178e-001	 1.035928742986018e+001
0	 5.066659999995868e+000	 7.333579753122048e-001	 1.036347512583867e+001
0	 5.066659999995867e+000	 8.000185779984419e-001	 1.036755914005231e+001
0	 5.066659999995865e+000	 8.666790473703453e-001	 1.037155429303827e+001
0	 5.066659999995866e+000	 9.333394000923321e-001	 1.037547540522149e+001
0	 5.066659999995865e+000	 9.999996528288186e-001	 1.037933729691466e+001
0	 5.066659999995867e+000	 1.066659822244222e+000	 1.038315478831834e+001
0	 5.066659999995868e+000	 1.133319925002959e+000	 1.038694269952091e+001
0	 5.066659999995867e+000	 1.199979977769445e+000	 1.039071585049863e+001
0	 5.066659999995866e+000	 1.266639997208098e+000	 1.039448906111563e+001
0	 5.066659999995866e+000	 1.333299999983334e+000	 1.039827715112399e+001
0	 5.133319999991933e+000	 6.666972226472177e-001	 1.033958830501701e+001
0	 5.133319999991933e+000	 7.333579753122048e-001	 1.034485072435207e+001
0	 5.133319999991933e+000	 8.000185779984418e-001	 1.034981371510958e+001
0	 5.133319999991933e+000	 8.666790473703454e-001	 1.035453461057541e+001
0	 5.133319999991933e+000	 9.333394000923322e-001	 1.035907074360781e+001
0	 5.133319999991934e+000	 9.999996528288190e-001	 1.036347944663739e+001
0	 5.133319999991932e+000	 1.066659822244222e+000	 1.036781805166716e+001
0	 5.133319999991933e+000	 1.133319925002959e+000	 1.037214389027254e+001
0	 5.133319999991932e+000	 1.199979977769445e+000	 1.037651429360138e+001
0	 5.133319999991934e+000	 1.266639997208098e+000	 1.038098659237399e+001
0	 5.133319999991933e+000	 1.333299999983334e+000	 1.038561811688316e+001
0	 5.199979999988399e+000	 6.666972226472177e-001	 1.032172468969682e+001
0	 5.199979999988398e+000	 7.333579753122047e-001	 1.032758319829303e+001
0	 5.199979999988399e+000	 8.000185779984419e-001	 1.033308090006842e+001
0	 5.199979999988399e+000	 8.666790473703452e-001	 1.033830057339859e+001
0	 5.199979999988399e+000	 9.333394000923322e-001	 1.034332499595140e+001
0	 5.199979999988399e+000	 9.999996528288189e-001	 1.034823694468694e+001
0	 5.199979999988400e+000	 1.066659822244222e+000	 1.035311919585762e+001
0	 5.199979999988399e+000	 1.133319925002959e+000	 1.035805452500808e+001
0	 5.199979999988399e+000	 1.199979977769445e+000	 1.036312570697531e+001
0	 5.199979999988398e+000	 1.266639997208097e+000	 1.036841551588861e+001
0	 5.199979999988400e+000	 1.333299999983334e+000	 1.037400672516958e+001
0	 5.266639999985466e+000	 6.666972226472178e-001	 1.030643516381015e+001
0	 5.266639999985464e+000	 7.333579753122047e-001	 1.031232538573542e+001
0	 5.266639999985466e+000	 8.000185779984418e-001	 1.031791748756399e+001
0	 5.266639999985464e+000	 8.666790473703451e-001	 1.032330262510854e+001
0	 5.266639999985466e+000	 9.333394000923322e-001	 1.032857195324464e+001
0	 5.266639999985465e+000	 9.999996528288189e-001	 1.033381662591074e+001
0	 5.266639999985464e+000	 1.066659822244222e+000	 1.033912779610824e+001
0	 5.266639999985465e+000	 1.133319925002958e+000	 1.034459661590141e+001
0	 5.266639999985466e+000	 1.199979977769445e+000	 1.035031423641749e+001
0	 5.266639999985465e+000	 1.266639997208098e+000	 1.035637180784667e+001
0	 5.266639999985464e+000	 1.333299999983333e+000	 1.036286047944209e+001
0	 5.333299999983334e+000	 6.666972226472175e-001	 1.029445830726745e+001
0	 5.333299999983334e+000	 7.333579753122048e-001	 1.029973012475304e+001
0	 5.333299999983334e+000	 8.000185779984417e-001	 1.030488027023140e+001
0	 5.333299999983334e+000	 8.666790473703453e-001	 1.030999120930597e+001
0	 5.333299999983335e+000	 9.333394000923322e-001	 1.031514540647993e+001
0	 5.333299999983333e+000	 9.999996528288189e-001	 1.032042532515624e+001
0	 5.333299999983334e+000	 1.066659822244222e+000	 1.032591342763756e+001
0	 5.333299999983335e+000	 1.133319925002959e+000	 1.033169217512640e+001
0	 5.333299999983334e+000	 1.199979977769445e+000	 1.033784402772500e+001
0	 5.333299999983333e+000	 1.266639997208098e+000	 1.034445144443541e+001
0	 5.333299999983335e+000	 1.333299999983334e+000	 1.035159688315951e+001
0	 4.666700000016666e+000	 1.333299999983334e+000	 1.052885165594849e+001
0	 4.666700000016665e+000	 1.399969999982150e+000	 1.053886197468489e+001
0	 4.666700000016666e+000	 1.466639999981866e+000	 1.054729908864247e+001
0	 4.666700000016667e+000	 1.533309999982383e+000	 1.055418832169746e+001
0	 4.666700000016666e+000	 1.599979999983600e+000	 1.055955499772609e+001
0	 4.666700000016665e+000	 1.666649999985416e+000	 1.056342444060456e+001
0	 4.666700000016666e+000	 1.733319999987733e+000	 1.056582197420906e+001
0	 4.666700000016666e+000	 1.799989999990450e+000	 1.056677292241576e+001
0	 4.666700000016666e+000	 1.866659999993466e+000	 1.056630260910085e+001
0	 4.666700000016666e+000	 1.933329999996683e+000	 1.056443635814043e+001
0	 4.666700000016666e+000	 2.000000000000000e+000	 1.056119949341065e+001
0	 4.733360000014534e+000	 1.333299999983334e+000	 1.049767433917881e+001
0	 4.733360000014534e+000	 1.399969999982150e+000	 1.050448175532876e+001
0	 4.733360000014533e+000	 1.466639999981867e+000	 1.051047405978141e+001
0	 4.733360000014533e+000	 1.533309999982383e+000	 1.051567126191258e+001
0	 4.733360000014534e+000	 1.599979999983600e+000	 1.052009337109810e+001
0	 4.733360000014534e+000	 1.666649999985416e+000	 1.052376039671381e+001
0	 4.733360000014533e+000	 1.733319999987733e+000	 1.052669234813553e+001
0	 4.733360000014532e+000	 1.799989999990450e+000	 1.052890923473903e+001
0	 4.733360000014534e+000	 1.866659999993466e+000	 1.053043106590016e+001
0	 4.733360000014534e+000	 1.933329999996683e+000	 1.053127785099467e+001
0	 4.733360000014533e+000	 2.000000000000000e+000	 1.053146959939836e+001
0	 4.800020000011601e+000	 1.333299999983334e+000	 1.047103964418369e+001
0	 4.800020000011600e+000	 1.399969999982150e+000	 1.047573818466075e+001
0	 4.800020000011600e+000	 1.466639999981866e+000	 1.048014574072249e+001
0	 4.800020000011599e+000	 1.533309999982383e+000	 1.048427818518580e+001
0	 4.800020000011599e+000	 1.599979999983599e+000	 1.048815139086756e+001
0	 4.800020000011600e+000	 1.666649999985416e+000	 1.049178123058467e+001
0	 4.800020000011599e+000	 1.733319999987733e+000	 1.049518357715402e+001
0	 4.800020000011599e+000	 1.799989999990449e+000	 1.049837430339249e+001
0	 4.800020000011599e+000	 1.866659999993466e+000	 1.050136928211694e+001
0	 4.800020000011600e+000	 1.933329999996683e+000	 1.050418438614426e+001
0	 4.800020000011601e+000	 2.000000000000000e+000	 1.050683548829133e+001
0	 4.866680000008067e+000	 1.333299999983334e+000	 1.044836507442187e+001
0	 4.866680000008065e+000	 1.399969999982150e+000	 1.045188182448201e+001
0	 4.866680000008065e+000	 1.466639999981866e+000	 1.045543117187810e+001
0	 4.866680000008068e+000	 1.533309999982383e+000	 1.045902603080952e+001
0	 4.866680000008067e+000	 1.599979999983599e+000	 1.046267931547569e+001
0	 4.866680000008066e+000	 1.666649999985416e+000	 1.046640394007601e+001
0	 4.866680000008068e+000	 1.733319999987733e+000	 1.047021281880987e+001
0	 4.866680000008065e+000	 1.799989999990449e+000	 1.047411886587669e+001
0	 4.866680000008067e+000	 1.866659999993467e+000	 1.047813499547583e+001
0	 4.866680000008066e+000	 1.933329999996683e+000	 1.048227412180672e+001
0	 4.866680000008066e+000	 2.000000000000000e+000	 1.048654915906874e+001
0	 4.933340000004134e+000	 1.333299999983334e+000	 1.042906813335213e+001
0	 4.933340000004134e+000	 1.399969999982150e+000	 1.043216323659370e+001
0	 4.933340000004134e+000	 1.466639999981866e+000	 1.043544739366058e+001
0	 4.933340000004133e+000	 1.533309999982383e+000	 1.043893173807614e+001
0	 4.933340000004133e+000	 1.599979999983599e+000	 1.044262740336373e+001
0	 4.933340000004133e+000	 1.666649999985416e+000	 1.044654552304669e+001
0	 4.933340000004133e+000	 1.733319999987733e+000	 1.045069723064840e+001
0	 4.933340000004134e+000	 1.799989999990449e+000	 1.045509365969220e+001
0	 4.933340000004132e+000	 1.866659999993466e+000	 1.045974594370146e+001
0	 4.933340000004134e+000	 1.933329999996684e+000	 1.046466521619952e+001
0	 4.933340000004134e+000	 2.000000000000000e+000	 1.046986261070977e+001
0	 4.999999999999999e+000	 1.333299999983334e+000	 1.041256632443324e+001
0	 5.000000000000001e+000	 1.399969999982150e+000	 1.041583298279699e+001
0	 5.000000000000000e+000	 1.466639999981866e+000	 1.041931144648235e+001
0	 4.999999999999998e+000	 1.533309999982383e+000	 1.042301224627808e+001
0	 5.000000000000000e+000	 1.599979999983600e+000	 1.042694591297292e+001
0	 5.000000000000000e+000	 1.666649999985416e+000	 1.043112297735563e+001
0	 5.000000000000000e+000	 1.733319999987733e+000	 1.043555397021495e+001
0	 5.000000000000002e+000	 1.799989999990450e+000	 1.044024942233964e+001
0	 5.000000000000002e+000	 1.866659999993466e+000	 1.044521986451848e+001
0	 5.000000000000002e+000	 1.933329999996683e+000	 1.045047582754021e+001
0	 5.000000000000001e+000	 2.000000000000000e+000	 1.045602784219359e+001
0	 5.066659999995866e+000	 1.333299999983334e+000	 1.039827715112399e+001
0	 5.066659999995867e+000	 1.399969999982150e+000	 1.040214162489309e+001
0	 5.066659999995868e+000	 1.466639999981866e+000	 1.040614037075583e+001
0	 5.066659999995866e+000	 1.533309999982383e+000	 1.041028449470778e+001
0	 5.066659999995868e+000	 1.599979999983600e+000	 1.041458510274454e+001
0	 5.066659999995866e+000	 1.666649999985416e+000	 1.041905330086171e+001
0	 5.066659999995867e+000	 1.733319999987733e+000	 1.042370019505488e+001
0	 5.066659999995867e+000	 1.799989999990449e+000	 1.042853689131963e+001
0	 5.066659999995868e+000	 1.866659999993466e+000	 1.043357449565158e+001
0	 5.066659999995865e+000	 1.933329999996683e+000	 1.043882411404631e+001
0	 5.066659999995866e+000	 2.000000000000000e+000	 1.044429685249942e+001
0	 5.133319999991933e+000	 1.333299999983334e+000	 1.038561811688316e+001
0	 5.133319999991933e+000	 1.399969999982150e+000	 1.039033972468319e+001
0	 5.133319999991933e+000	 1.466639999981867e+000	 1.039505120689341e+001
0	 5.133319999991933e+000	 1.533309999982383e+000	 1.039976542265768e+001
0	 5.133319999991933e+000	 1.599979999983600e+000	 1.040449523111988e+001
0	 5.133319999991934e+000	 1.666649999985416e+000	 1.040925349142388e+001
0	 5.133319999991933e+000	 1.733319999987733e+000	 1.041405306271356e+001
0	 5.133319999991933e+000	 1.799989999990450e+000	 1.041890680413278e+001
0	 5.133319999991933e+000	 1.866659999993466e+000	 1.042382757482542e+001
0	 5.133319999991933e+000	 1.933329999996683e+000	 1.042882823393536e+001
0	 5.133319999991933e+000	 2.000000000000000e+000	 1.043392164060647e+001
0	 5.199979999988400e+000	 1.333299999983334e+000	 1.037400672516959e+001
0	 5.199979999988398e+000	 1.399969999982150e+000	 1.037967784396852e+001
0	 5.199979999988401e+000	 1.466639999981867e+000	 1.038516099530754e+001
0	 5.199979999988400e+000	 1.533309999982383e+000	 1.039047196942025e+001
0	 5.199979999988399e+000	 1.599979999983599e+000	 1.039562655654022e+001
0	 5.199979999988401e+000	 1.666649999985417e+000	 1.040064054690107e+001
0	 5.199979999988400e+000	 1.733319999987733e+000	 1.040552973073637e+001
0	 5.199979999988400e+000	 1.799989999990450e+000	 1.041030989827973e+001
0	 5.199979999988398e+000	 1.866659999993466e+000	 1.041499683976473e+001
0	 5.199979999988399e+000	 1.933329999996683e+000	 1.041960634542495e+001
0	 5.199979999988400e+000	 2.000000000000000e+000	 1.042415420549398e+001
0	 5.266639999985464e+000	 1.333299999983333e+000	 1.036286047944209e+001
0	 5.266639999985466e+000	 1.399969999982150e+000	 1.036940654455031e+001
0	 5.266639999985465e+000	 1.466639999981866e+000	 1.037558677641067e+001
0	 5.266639999985466e+000	 1.533309999982383e+000	 1.038142107428795e+001
0	 5.266639999985467e+000	 1.599979999983599e+000	 1.038692933744689e+001
0	 5.266639999985467e+000	 1.666649999985417e+000	 1.039213146515223e+001
0	 5.266639999985466e+000	 1.733319999987733e+000	 1.039704735666873e+001
0	 5.266639999985466e+000	 1.799989999990450e+000	 1.040169691126114e+001
0	 5.266639999985466e+000	 1.866659999993466e+000	 1.040610002819419e+001
0	 5.266639999985465e+000	 1.933329999996683e+000	 1.041027660673263e+001
0	 5.266639999985466e+000	 2.000000000000000e+000	 1.041424654614120e+001
0	 5.333299999983335e+000	 1.333299999983334e+000	 1.035159688315951e+001
0	 5.333299999983333e+000	 1.399969999982150e+000	 1.035877638822980e+001
0	 5.333299999983335e+000	 1.466639999981867e+000	 1.036544559061527e+001
0	 5.333299999983333e+000	 1.533309999982383e+000	 1.037162967655329e+001
0	 5.333299999983335e+000	 1.599979999983599e+000	 1.037735383228120e+001
0	 5.333299999983334e+000	 1.666649999985416e+000	 1.038264324403634e+001
0	 5.333299999983334e+000	 1.733319999987733e+000	 1.038752309805606e+001
0	 5.333299999983333e+000	 1.799989999990449e+000	 1.039201858057768e+001
0	 5.333299999983334e+000	 1.866659999993466e+000	 1.039615487783855e+001
0	 5.333299999983334e+000	 1.933329999996684e+000	 1.039995717607600e+001
0	 5.333299999983333e+000	 2.000000000000000e+000	 1.040345066152735e+001
0	 4.666700000016666e+000	 2.000000000000000e+000	 1.056119949341065e+001
0	 4.666700000016665e+000	 2.066670000003317e+000	 1.055755778173706e+001
0	 4.666700000016666e+000	 2.133340000006534e+000	 1.055445321152870e+001
0	 4.666700000016667e+000	 2.200010000009551e+000	 1.055187543903696e+001
0	 4.666700000016666e+000	 2.266680000012268e+000	 1.054981412051319e+001
0	 4.666700000016667e+000	 2.333350000014584e+000	 1.054825891220876e+001
0	 4.666700000016666e+000	 2.400020000016401e+000	 1.054719947037505e+001
0	 4.666700000016668e+000	 2.466690000017617e+000	 1.054662545126346e+001
0	 4.666700000016667e+000	 2.533360000018134e+000	 1.054652651112533e+001
0	 4.666700000016667e+000	 2.600030000017851e+000	 1.054689230621204e+001
0	 4.666700000016666e+000	 2.666700000016666e+000	 1.054771249277498e+001
0	 4.733360000014533e+000	 2.000000000000000e+000	 1.053146959939836e+001
0	 4.733360000014532e+000	 2.066670000003317e+000	 1.053139157997536e+001
0	 4.733360000014533e+000	 2.133340000006534e+000	 1.053142330879929e+001
0	 4.733360000014531e+000	 2.200010000009550e+000	 1.053157616606013e+001
0	 4.733360000014532e+000	 2.266680000012267e+000	 1.053186153194790e+001
0	 4.733360000014534e+000	 2.333350000014585e+000	 1.053229078665258e+001
0	 4.733360000014534e+000	 2.400020000016401e+000	 1.053287531036417e+001
0	 4.733360000014533e+000	 2.466690000017617e+000	 1.053362648327265e+001
0	 4.733360000014534e+000	 2.533360000018134e+000	 1.053455568556800e+001
0	 4.733360000014534e+000	 2.600030000017850e+000	 1.053567429744022e+001
0	 4.733360000014534e+000	 2.666700000016666e+000	 1.053699369907929e+001
0	 4.800020000011601e+000	 2.000000000000000e+000	 1.050683548829133e+001
0	 4.800020000011599e+000	 2.066670000003316e+000	 1.050928982398374e+001
0	 4.800020000011598e+000	 2.133340000006533e+000	 1.051152355967767e+001
0	 4.800020000011600e+000	 2.200010000009550e+000	 1.051356596473588e+001
0	 4.800020000011599e+000	 2.266680000012266e+000	 1.051544630852111e+001
0	 4.800020000011599e+000	 2.333350000014585e+000	 1.051719386039610e+001
0	 4.800020000011599e+000	 2.400020000016400e+000	 1.051883788972358e+001
0	 4.800020000011599e+000	 2.466690000017617e+000	 1.052040766586628e+001
0	 4.800020000011600e+000	 2.533360000018134e+000	 1.052193245818693e+001
0	 4.800020000011601e+000	 2.600030000017851e+000	 1.052344153604824e+001
0	 4.800020000011601e+000	 2.666700000016667e+000	 1.052496416881295e+001
0	 4.866680000008066e+000	 2.000000000000000e+000	 1.048654915906874e+001
0	 4.866680000008067e+000	 2.066670000003316e+000	 1.049065009924472e+001
0	 4.866680000008066e+000	 2.133340000006534e+000	 1.049428720736428e+001
0	 4.866680000008066e+000	 2.200010000009550e+000	 1.049750380719705e+001
0	 4.866680000008066e+000	 2.266680000012267e+000	 1.050034322251264e+001
0	 4.866680000008065e+000	 2.333350000014584e+000	 1.050284877708066e+001
0	 4.866680000008066e+000	 2.400020000016400e+000	 1.050506379467071e+001
0	 4.866680000008067e+000	 2.466690000017617e+000	 1.050703159905239e+001
0	 4.866680000008067e+000	 2.533360000018134e+000	 1.050879551399528e+001
0	 4.866680000008065e+000	 2.600030000017850e+000	 1.051039886326898e+001
0	 4.866680000008069e+000	 2.666700000016667e+000	 1.051188497064306e+001
0	 4.933340000004134e+000	 2.000000000000000e+000	 1.046986261070977e+001
0	 4.933340000004133e+000	 2.066670000003317e+000	 1.047486999124082e+001
0	 4.933340000004133e+000	 2.133340000006534e+000	 1.047924749505952e+001
0	 4.933340000004133e+000	 2.200010000009550e+000	 1.048304866557648e+001
0	 4.933340000004133e+000	 2.266680000012267e+000	 1.048632704620231e+001
0	 4.933340000004134e+000	 2.333350000014584e+000	 1.048913618034760e+001
0	 4.933340000004133e+000	 2.400020000016400e+000	 1.049152961142296e+001
0	 4.933340000004134e+000	 2.466690000017617e+000	 1.049356088283897e+001
0	 4.933340000004133e+000	 2.533360000018133e+000	 1.049528353800622e+001
0	 4.933340000004135e+000	 2.600030000017851e+000	 1.049675112033528e+001
0	 4.933340000004134e+000	 2.666700000016666e+000	 1.049801717323672e+001
0	 5.000000000000001e+000	 2.000000000000000e+000	 1.045602784219359e+001
0	 5.000000000000002e+000	 2.066670000003317e+000	 1.046134708545459e+001
0	 5.000000000000002e+000	 2.133340000006534e+000	 1.046593766596381e+001
0	 5.000000000000002e+000	 2.200010000009550e+000	 1.046985951200703e+001
0	 5.000000000000000e+000	 2.266680000012267e+000	 1.047317255186993e+001
0	 5.000000000000000e+000	 2.333350000014584e+000	 1.047593671383826e+001
0	 5.000000000000000e+000	 2.400020000016401e+000	 1.047821192619774e+001
0	 5.000000000000000e+000	 2.466690000017617e+000	 1.048005811723404e+001
0	 5.000000000000002e+000	 2.533360000018134e+000	 1.048153521523291e+001
0	 5.000000000000000e+000	 2.600030000017850e+000	 1.048270314848000e+001
0	 5.000000000000000e+000	 2.666700000016665e+000	 1.048362184526102e+001
0	 5.066659999995866e+000	 2.000000000000000e+000	 1.044429685249942e+001
0	 5.066659999995867e+000	 2.066670000003317e+000	 1.044947896736855e+001
0	 5.066659999995868e+000	 2.133340000006534e+000	 1.045389096327760e+001
0	 5.066659999995867e+000	 2.200010000009550e+000	 1.045759531862155e+001
0	 5.066659999995867e+000	 2.266680000012268e+000	 1.046065451179536e+001
0	 5.066659999995865e+000	 2.333350000014584e+000	 1.046313102119401e+001
0	 5.066659999995868e+000	 2.400020000016401e+000	 1.046508732521245e+001
0	 5.066659999995866e+000	 2.466690000017617e+000	 1.046658590224565e+001
0	 5.066659999995867e+000	 2.533360000018133e+000	 1.046768923068853e+001
0	 5.066659999995867e+000	 2.600030000017850e+000	 1.046845978893603e+001
0	 5.066659999995867e+000	 2.666700000016666e+000	 1.046896005538308e+001
0	 5.133319999991933e+000	 2.000000000000000e+000	 1.043392164060647e+001
0	 5.133319999991932e+000	 2.066670000003317e+000	 1.043866322246529e+001
0	 5.133319999991933e+000	 2.133340000006534e+000	 1.044264063020131e+001
0	 5.133319999991933e+000	 2.200010000009551e+000	 1.044591505755292e+001
0	 5.133319999991933e+000	 2.266680000012267e+000	 1.044854769825843e+001
0	 5.133319999991933e+000	 2.333350000014584e+000	 1.045059974605620e+001
0	 5.133319999991934e+000	 2.400020000016400e+000	 1.045213239468454e+001
0	 5.133319999991933e+000	 2.466690000017618e+000	 1.045320683788178e+001
0	 5.133319999991930e+000	 2.533360000018133e+000	 1.045388426938624e+001
0	 5.133319999991933e+000	 2.600030000017851e+000	 1.045422588293619e+001
0	 5.133319999991933e+000	 2.666700000016667e+000	 1.045429287226996e+001
0	 5.199979999988400e+000	 2.000000000000000e+000	 1.042415420549398e+001
0	 5.199979999988399e+000	 2.066670000003317e+000	 1.042829743622735e+001
0	 5.199979999988398e+000	 2.133340000006534e+000	 1.043171990993542e+001
0	 5.199979999988400e+000	 2.200010000009550e+000	 1.043447770093401e+001
0	 5.199979999988400e+000	 2.266680000012267e+000	 1.043662688353900e+001
0	 5.199979999988400e+000	 2.333350000014584e+000	 1.043822353206618e+001
0	 5.199979999988399e+000	 2.400020000016401e+000	 1.043932372083140e+001
0	 5.199979999988398e+000	 2.466690000017617e+000	 1.043998352415046e+001
0	 5.199979999988400e+000	 2.533360000018133e+000	 1.044025901633918e+001
0	 5.199979999988398e+000	 2.600030000017850e+000	 1.044020627171336e+001
0	 5.199979999988400e+000	 2.666700000016666e+000	 1.043988136458878e+001
0	 5.266639999985466e+000	 2.000000000000000e+000	 1.041424654614120e+001
0	 5.266639999985465e+000	 2.066670000003317e+000	 1.041777919413735e+001
0	 5.266639999985466e+000	 2.133340000006534e+000	 1.042066204568037e+001
0	 5.266639999985466e+000	 2.200010000009550e+000	 1.042294222089774e+001
0	 5.266639999985467e+000	 2.266680000012267e+000	 1.042466683991692e+001
0	 5.266639999985466e+000	 2.333350000014584e+000	 1.042588302286534e+001
0	 5.266639999985467e+000	 2.400020000016401e+000	 1.042663788987047e+001
0	 5.266639999985466e+000	 2.466690000017617e+000	 1.042697856105974e+001
0	 5.266639999985463e+000	 2.533360000018133e+000	 1.042695215656057e+001
0	 5.266639999985467e+000	 2.600030000017851e+000	 1.042660579650039e+001
0	 5.266639999985465e+000	 2.666700000016666e+000	 1.042598660100663e+001
0	 5.333299999983333e+000	 2.000000000000000e+000	 1.040345066152735e+001
0	 5.333299999983333e+000	 2.066670000003317e+000	 1.040650608167785e+001
0	 5.333299999983333e+000	 2.133340000006534e+000	 1.040900028063665e+001
0	 5.333299999983335e+000	 2.200010000009550e+000	 1.041096758957699e+001
0	 5.333299999983333e+000	 2.266680000012268e+000	 1.041244233967205e+001
0	 5.333299999983335e+000	 2.333350000014584e+000	 1.041345886209504e+001
0	 5.333299999983334e+000	 2.400020000016401e+000	 1.041405148801918e+001
0	 5.333299999983334e+000	 2.466690000017617e+000	 1.041425454861761e+001
0	 5.333299999983335e+000	 2.533360000018134e+000	 1.041410237506354e+001
0	 5.333299999983333e+000	 2.600030000017851e+000	 1.041362929853015e+001
0	 5.333299999983334e+000	 2.666700000016666e+000	 1.041286965019059e+001
0	 4.666700000016666e+000	 2.666700000016666e+000	 1.054771249277498e+001
0	 4.666700000016666e+000	 2.733360000014533e+000	 1.054814684790189e+001
0	 4.666700000016665e+000	 2.800020000011599e+000	 1.054738711934597e+001
0	 4.666700000016666e+000	 2.866680000008067e+000	 1.054547044960982e+001
0	 4.666700000016667e+000	 2.933340000004133e+000	 1.054243398119604e+001
0	 4.666700000016666e+000	 3.000000000000000e+000	 1.053831485660731e+001
0	 4.666700000016665e+000	 3.066659999995866e+000	 1.053315021834627e+001
0	 4.666700000016666e+000	 3.133319999991934e+000	 1.052697720891563e+001
0	 4.666700000016665e+000	 3.199979999988400e+000	 1.051983297081813e+001
0	 4.666700000016665e+000	 3.266639999985467e+000	 1.051175464655653e+001
0	 4.666700000016666e+000	 3.333299999983334e+000	 1.050277937863360e+001
0	 4.733360000014534e+000	 2.666700000016666e+000	 1.053699369907928e+001
0	 4.733360000014534e+000	 2.733360000014534e+000	 1.053783128069597e+001
0	 4.733360000014532e+000	 2.800020000011599e+000	 1.053750769040777e+001
0	 4.733360000014534e+000	 2.866680000008067e+000	 1.053603855468129e+001
0	 4.733360000014534e+000	 2.933340000004133e+000	 1.053343949998319e+001
0	 4.733360000014534e+000	 3.000000000000000e+000	 1.052972615278013e+001
0	 4.733360000014534e+000	 3.066659999995867e+000	 1.052491413953884e+001
0	 4.733360000014534e+000	 3.133319999991934e+000	 1.051901908672604e+001
0	 4.733360000014534e+000	 3.199979999988400e+000	 1.051205662080852e+001
0	 4.733360000014534e+000	 3.266639999985468e+000	 1.050404236825306e+001
0	 4.733360000014534e+000	 3.333299999983334e+000	 1.049499195552648e+001
0	 4.800020000011601e+000	 2.666700000016667e+000	 1.052496416881296e+001
0	 4.800020000011601e+000	 2.733360000014532e+000	 1.052596485364783e+001
0	 4.800020000011600e+000	 2.800020000011599e+000	 1.052588743505216e+001
0	 4.800020000011601e+000	 2.866680000008067e+000	 1.052472951079704e+001
0	 4.800020000011599e+000	 2.933340000004135e+000	 1.052248867865360e+001
0	 4.800020000011600e+000	 3.000000000000000e+000	 1.051916253639297e+001
0	 4.800020000011601e+000	 3.066659999995867e+000	 1.051474868178632e+001
0	 4.800020000011601e+000	 3.133319999991933e+000	 1.050924471260487e+001
0	 4.800020000011600e+000	 3.199979999988401e+000	 1.050264822661987e+001
0	 4.800020000011599e+000	 3.266639999985466e+000	 1.049495682160256e+001
0	 4.800020000011601e+000	 3.333299999983335e+000	 1.048616809532425e+001
0	 4.866680000008069e+000	 2.666700000016667e+000	 1.051188497064306e+001
0	 4.866680000008066e+000	 2.733360000014534e+000	 1.051285384015595e+001
0	 4.866680000008067e+000	 2.800020000011600e+000	 1.051286573016702e+001
0	 4.866680000008065e+000	 2.866680000008066e+000	 1.051190369709226e+001
0	 4.866680000008066e+000	 2.933340000004133e+000	 1.050995079734770e+001
0	 4.866680000008067e+000	 3.000000000000000e+000	 1.050699008734941e+001
0	 4.866680000008066e+000	 3.066659999995866e+000	 1.050300462351346e+001
0	 4.866680000008066e+000	 3.133319999991934e+000	 1.049797746225594e+001
0	 4.866680000008067e+000	 3.199979999988400e+000	 1.049189165999302e+001
0	 4.866680000008066e+000	 3.266639999985467e+000	 1.048473027314085e+001
0	 4.866680000008066e+000	 3.333299999983333e+000	 1.047647635811562e+001
0	 4.933340000004134e+000	 2.666700000016666e+000	 1.049801717323672e+001
0	 4.933340000004135e+000	 2.733360000014533e+000	 1.049880451361884e+001
0	 4.933340000004134e+000	 2.800020000011601e+000	 1.049878195264018e+001
0	 4.933340000004132e+000	 2.866680000008067e+000	 1.049792149270209e+001
0	 4.933340000004133e+000	 2.933340000004133e+000	 1.049619513620592e+001
0	 4.933340000004135e+000	 3.000000000000000e+000	 1.049357488555308e+001
0	 4.933340000004134e+000	 3.066659999995867e+000	 1.049003274314498e+001
0	 4.933340000004134e+000	 3.133319999991934e+000	 1.048554071138308e+001
0	 4.933340000004132e+000	 3.199979999988401e+000	 1.048007079266884e+001
0	 4.933340000004135e+000	 3.266639999985467e+000	 1.047359498940375e+001
0	 4.933340000004134e+000	 3.333299999983334e+000	 1.046608530398937e+001
0	 5.000000000000000e+000	 2.666700000016665e+000	 1.048362184526102e+001
0	 5.000000000000000e+000	 2.733360000014533e+000	 1.048412314743502e+001
0	 5.000000000000000e+000	 2.800020000011600e+000	 1.048397547935954e+001
0	 5.000000000000002e+000	 2.866680000008067e+000	 1.048314327676170e+001
0	 5.000000000000002e+000	 2.933340000004133e+000	 1.048159097536865e+001
0	 5.000000000000000e+000	 3.000000000000000e+000	 1.047928301090757e+001
0	 5.000000000000002e+000	 3.066659999995867e+000	 1.047618381910564e+001
0	 5.000000000000000e+000	 3.133319999991934e+000	 1.047225783569009e+001
0	 5.000000000000002e+000	 3.199979999988401e+000	 1.046746949638815e+001
0	 5.000000000000001e+000	 3.266639999985467e+000	 1.046178323692709e+001
0	 4.999999999999999e+000	 3.333299999983334e+000	 1.045516349303421e+001
0	 5.066659999995867e+000	 2.666700000016666e+000	 1.046896005538308e+001
0	 5.066659999995868e+000	 2.733360000014533e+000	 1.046911601500300e+001
0	 5.066659999995868e+000	 2.800020000011599e+000	 1.046878568721295e+001
0	 5.066659999995866e+000	 2.866680000008067e+000	 1.046792942840627e+001
0	 5.066659999995866e+000	 2.933340000004133e+000	 1.046650759497632e+001
0	 5.066659999995867e+000	 3.000000000000000e+000	 1.046448054331648e+001
0	 5.066659999995866e+000	 3.066659999995866e+000	 1.046180862982016e+001
0	 5.066659999995867e+000	 3.133319999991934e+000	 1.045845221088079e+001
0	 5.066659999995868e+000	 3.199979999988400e+000	 1.045437164289181e+001
0	 5.066659999995868e+000	 3.266639999985467e+000	 1.044952728224669e+001
0	 5.066659999995866e+000	 3.333299999983334e+000	 1.044387948533890e+001
0	 5.133319999991933e+000	 2.666700000016667e+000	 1.045429287226996e+001
0	 5.133319999991935e+000	 2.733360000014533e+000	 1.045408938972127e+001
0	 5.133319999991932e+000	 2.800020000011599e+000	 1.045355195308826e+001
0	 5.133319999991932e+000	 2.866680000008067e+000	 1.045264032677094e+001
0	 5.133319999991933e+000	 2.933340000004133e+000	 1.045131427516932e+001
0	 5.133319999991935e+000	 3.000000000000000e+000	 1.044953356268342e+001
0	 5.133319999991934e+000	 3.066659999995868e+000	 1.044725795371330e+001
0	 5.133319999991932e+000	 3.133319999991933e+000	 1.044444721265904e+001
0	 5.133319999991933e+000	 3.199979999988400e+000	 1.044106110392068e+001
0	 5.133319999991934e+000	 3.266639999985467e+000	 1.043705939189837e+001
0	 5.133319999991931e+000	 3.333299999983333e+000	 1.043240184099220e+001
0	 5.199979999988400e+000	 2.666700000016666e+000	 1.043988136458878e+001
0	 5.199979999988398e+000	 2.733360000014533e+000	 1.043934954498834e+001
0	 5.199979999988401e+000	 2.800020000011600e+000	 1.043861365387336e+001
0	 5.199979999988399e+000	 2.866680000008067e+000	 1.043763635099090e+001
0	 5.199979999988400e+000	 2.933340000004133e+000	 1.043638029608808e+001
0	 5.199979999988399e+000	 3.000000000000000e+000	 1.043480814891200e+001
0	 5.199979999988400e+000	 3.066659999995867e+000	 1.043288256920980e+001
0	 5.199979999988399e+000	 3.133319999991933e+000	 1.043056621672861e+001
0	 5.199979999988400e+000	 3.199979999988401e+000	 1.042782175121561e+001
0	 5.199979999988398e+000	 3.266639999985467e+000	 1.042461183241796e+001
0	 5.199979999988399e+000	 3.333299999983334e+000	 1.042089912008285e+001
0	 5.266639999985465e+000	 2.666700000016666e+000	 1.042598660100663e+001
0	 5.266639999985464e+000	 2.733360000014533e+000	 1.042520275420273e+001
0	 5.266639999985467e+000	 2.800020000011600e+000	 1.042431016645608e+001
0	 5.266639999985466e+000	 2.866680000008066e+000	 1.042327788020129e+001
0	 5.266639999985465e+000	 2.933340000004133e+000	 1.042207493787298e+001
0	 5.266639999985466e+000	 3.000000000000000e+000	 1.042067038190580e+001
0	 5.266639999985466e+000	 3.066659999995868e+000	 1.041903325473439e+001
0	 5.266639999985465e+000	 3.133319999991933e+000	 1.041713259879338e+001
0	 5.266639999985467e+000	 3.199979999988400e+000	 1.041493745651745e+001
0	 5.266639999985465e+000	 3.266639999985467e+000	 1.041241687034130e+001
0	 5.266639999985465e+000	 3.333299999983333e+000	 1.040953988269959e+001
0	 5.333299999983334e+000	 2.666700000016666e+000	 1.041286965019059e+001
0	 5.333299999983334e+000	 2.733360000014532e+000	 1.041195529076291e+001
0	 5.333299999983334e+000	 2.800020000011599e+000	 1.041098086772428e+001
0	 5.333299999983334e+000	 2.866680000008067e+000	 1.040992529353728e+001
0	 5.333299999983335e+000	 2.933340000004133e+000	 1.040876748066447e+001
0	 5.333299999983333e+000	 3.000000000000000e+000	 1.040748634156845e+001
0	 5.333299999983334e+000	 3.066659999995867e+000	 1.040606078871180e+001
0	 5.333299999983334e+000	 3.133319999991934e+000	 1.040446973455714e+001
0	 5.333299999983333e+000	 3.199979999988401e+000	 1.040269209156707e+001
0	 5.333299999983334e+000	 3.266639999985468e+000	 1.040070677220422e+001
0	 5.333299999983335e+000	 3.333299999983334e+000	 1.039849268893121e+001
0	 4.666700000016666e+000	 3.333299999983334e+000	 1.050277937863361e+001
0	 4.666700000016665e+000	 3.399969999982150e+000	 1.049355973202901e+001
0	 4.666700000016666e+000	 3.466639999981866e+000	 1.048468626897746e+001
0	 4.666700000016666e+000	 3.533309999982382e+000	 1.047609889232937e+001
0	 4.666700000016665e+000	 3.599979999983599e+000	 1.046773750493511e+001
0	 4.666700000016667e+000	 3.666649999985417e+000	 1.045954200964510e+001
0	 4.666700000016667e+000	 3.733319999987733e+000	 1.045145230930971e+001
0	 4.666700000016666e+000	 3.799989999990449e+000	 1.044340830677932e+001
0	 4.666700000016667e+000	 3.866659999993467e+000	 1.043534990490433e+001
0	 4.666700000016666e+000	 3.933329999996684e+000	 1.042721700653509e+001
0	 4.666700000016667e+000	 4.000000000000001e+000	 1.041894951452200e+001
0	 4.733360000014534e+000	 3.333299999983334e+000	 1.049499195552648e+001
0	 4.733360000014534e+000	 3.399969999982150e+000	 1.048562879719255e+001
0	 4.733360000014533e+000	 3.466639999981868e+000	 1.047663785065342e+001
0	 4.733360000014533e+000	 3.533309999982383e+000	 1.046797275272543e+001
0	 4.733360000014534e+000	 3.599979999983600e+000	 1.045958714022492e+001
0	 4.733360000014534e+000	 3.666649999985415e+000	 1.045143464996817e+001
0	 4.733360000014534e+000	 3.733319999987733e+000	 1.044346891877155e+001
0	 4.733360000014531e+000	 3.799989999990450e+000	 1.043564358345134e+001
0	 4.733360000014534e+000	 3.866659999993467e+000	 1.042791228082388e+001
0	 4.733360000014534e+000	 3.933329999996684e+000	 1.042022864770547e+001
0	 4.733360000014533e+000	 4.000000000000000e+000	 1.041254632091244e+001
0	 4.800020000011601e+000	 3.333299999983335e+000	 1.048616809532425e+001
0	 4.800020000011601e+000	 3.399969999982150e+000	 1.047701617656830e+001
0	 4.800020000011599e+000	 3.466639999981866e+000	 1.046821670028630e+001
0	 4.800020000011600e+000	 3.533309999982383e+000	 1.045973532089720e+001
0	 4.800020000011598e+000	 3.599979999983599e+000	 1.045153769281994e+001
0	 4.800020000011599e+000	 3.666649999985417e+000	 1.044358947047348e+001
0	 4.800020000011599e+000	 3.733319999987733e+000	 1.043585630827674e+001
0	 4.800020000011600e+000	 3.799989999990451e+000	 1.042830386064866e+001
0	 4.800020000011599e+000	 3.866659999993466e+000	 1.042089778200820e+001
0	 4.800020000011600e+000	 3.933329999996684e+000	 1.041360372677428e+001
0	 4.800020000011600e+000	 4.000000000000000e+000	 1.040638734936585e+001
0	 4.866680000008066e+000	 3.333299999983333e+000	 1.047647635811562e+001
0	 4.866680000008066e+000	 3.399969999982150e+000	 1.046782533152229e+001
0	 4.866680000008066e+000	 3.466639999981866e+000	 1.045947051813944e+001
0	 4.866680000008066e+000	 3.533309999982382e+000	 1.045138787362533e+001
0	 4.866680000008066e+000	 3.599979999983599e+000	 1.044355335363822e+001
0	 4.866680000008067e+000	 3.666649999985417e+000	 1.043594291383636e+001
0	 4.866680000008068e+000	 3.733319999987734e+000	 1.042853250987799e+001
0	 4.866680000008066e+000	 3.799989999990450e+000	 1.042129809742138e+001
0	 4.866680000008066e+000	 3.866659999993467e+000	 1.041421563212477e+001
0	 4.866680000008066e+000	 3.933329999996684e+000	 1.040726106964640e+001
0	 4.866680000008067e+000	 4.000000000000001e+000	 1.040041036564452e+001
0	 4.933340000004134e+000	 3.333299999983334e+000	 1.046608530398937e+001
0	 4.933340000004133e+000	 3.399969999982149e+000	 1.045815972342056e+001
0	 4.933340000004134e+000	 3.466639999981867e+000	 1.045044700447619e+001
0	 4.933340000004134e+000	 3.533309999982384e+000	 1.044293168769050e+001
0	 4.933340000004135e+000	 3.599979999983600e+000	 1.043559831359775e+001
0	 4.933340000004133e+000	 3.666649999985416e+000	 1.042843142273219e+001
0	 4.933340000004134e+000	 3.733319999987733e+000	 1.042141555562805e+001
0	 4.933340000004133e+000	 3.799989999990450e+000	 1.041453525281959e+001
0	 4.933340000004135e+000	 3.866659999993468e+000	 1.040777505484107e+001
0	 4.933340000004135e+000	 3.933329999996684e+000	 1.040111950222671e+001
0	 4.933340000004135e+000	 4.000000000000001e+000	 1.039455313551076e+001
0	 4.999999999999999e+000	 3.333299999983334e+000	 1.045516349303421e+001
0	 5.000000000000000e+000	 3.399969999982150e+000	 1.044812281362915e+001
0	 5.000000000000000e+000	 3.466639999981867e+000	 1.044119385955990e+001
0	 5.000000000000000e+000	 3.533309999982383e+000	 1.043436803987339e+001
0	 5.000000000000001e+000	 3.599979999983600e+000	 1.042763676361655e+001
0	 4.999999999999999e+000	 3.666649999985416e+000	 1.042099143983632e+001
0	 5.000000000000002e+000	 3.733319999987733e+000	 1.041442347757964e+001
0	 5.000000000000002e+000	 3.799989999990450e+000	 1.040792428589342e+001
0	 5.000000000000001e+000	 3.866659999993467e+000	 1.040148527382460e+001
0	 5.000000000000002e+000	 3.933329999996685e+000	 1.039509785042010e+001
0	 5.000000000000000e+000	 4.000000000000001e+000	 1.038875342472686e+001
0	 5.066659999995866e+000	 3.333299999983334e+000	 1.044387948533890e+001
0	 5.066659999995867e+000	 3.399969999982150e+000	 1.043781806351411e+001
0	 5.066659999995867e+000	 3.466639999981866e+000	 1.043175878365393e+001
0	 5.066659999995866e+000	 3.533309999982384e+000	 1.042569820695466e+001
0	 5.066659999995868e+000	 3.599979999983600e+000	 1.041963289461263e+001
0	 5.066659999995867e+000	 3.666649999985416e+000	 1.041355940782414e+001
0	 5.066659999995867e+000	 3.733319999987733e+000	 1.040747430778548e+001
0	 5.066659999995869e+000	 3.799989999990451e+000	 1.040137415569295e+001
0	 5.066659999995866e+000	 3.866659999993466e+000	 1.039525551274286e+001
0	 5.066659999995867e+000	 3.933329999996685e+000	 1.038911494013149e+001
0	 5.066659999995867e+000	 4.000000000000000e+000	 1.038294899905513e+001
0	 5.133319999991931e+000	 3.333299999983333e+000	 1.043240184099220e+001
0	 5.133319999991933e+000	 3.399969999982150e+000	 1.042734893444147e+001
0	 5.133319999991933e+000	 3.466639999981867e+000	 1.042218947702162e+001
0	 5.133319999991932e+000	 3.533309999982383e+000	 1.041692346571502e+001
0	 5.133319999991933e+000	 3.599979999983600e+000	 1.041155089750403e+001
0	 5.133319999991934e+000	 3.666649999985416e+000	 1.040607176937101e+001
0	 5.133319999991934e+000	 3.733319999987733e+000	 1.040048607829831e+001
0	 5.133319999991934e+000	 3.799989999990450e+000	 1.039479382126829e+001
0	 5.133319999991933e+000	 3.866659999993467e+000	 1.038899499526332e+001
0	 5.133319999991932e+000	 3.933329999996683e+000	 1.038308959726573e+001
0	 5.133319999991932e+000	 4.000000000000001e+000	 1.037707762425785e+001
0	 5.199979999988399e+000	 3.333299999983334e+000	 1.042089912008285e+001
0	 5.199979999988398e+000	 3.399969999982150e+000	 1.041681888777730e+001
0	 5.199979999988400e+000	 3.466639999981868e+000	 1.041253363992635e+001
0	 5.199979999988400e+000	 3.533309999982383e+000	 1.040804509293514e+001
0	 5.199979999988400e+000	 3.599979999983599e+000	 1.040335496320875e+001
0	 5.199979999988400e+000	 3.666649999985417e+000	 1.039846496715229e+001
0	 5.199979999988400e+000	 3.733319999987733e+000	 1.039337682117086e+001
0	 5.199979999988400e+000	 3.799989999990451e+000	 1.038809224166957e+001
0	 5.199979999988399e+000	 3.866659999993466e+000	 1.038261294505349e+001
0	 5.199979999988399e+000	 3.933329999996684e+000	 1.037694064772772e+001
0	 5.199979999988400e+000	 4.000000000000001e+000	 1.037107706609733e+001
0	 5.266639999985465e+000	 3.333299999983333e+000	 1.040953988269959e+001
0	 5.266639999985467e+000	 3.399969999982150e+000	 1.040633138488762e+001
0	 5.266639999985465e+000	 3.466639999981867e+000	 1.040283897263148e+001
0	 5.266639999985467e+000	 3.533309999982383e+000	 1.039906436539570e+001
0	 5.266639999985466e+000	 3.599979999983600e+000	 1.039500928264482e+001
0	 5.266639999985466e+000	 3.666649999985417e+000	 1.039067544384338e+001
0	 5.266639999985467e+000	 3.733319999987733e+000	 1.038606456845589e+001
0	 5.266639999985466e+000	 3.799989999990450e+000	 1.038117837594688e+001
0	 5.266639999985466e+000	 3.866659999993467e+000	 1.037601858578086e+001
0	 5.266639999985466e+000	 3.933329999996684e+000	 1.037058691742236e+001
0	 5.266639999985465e+000	 4.000000000000000e+000	 1.036488509033587e+001
0	 5.333299999983335e+000	 3.333299999983334e+000	 1.039849268893121e+001
0	 5.333299999983331e+000	 3.399969999982149e+000	 1.039598988713852e+001
0	 5.333299999983335e+000	 3.466639999981866e+000	 1.039315317540037e+001
0	 5.333299999983334e+000	 3.533309999982383e+000	 1.038998255987741e+001
0	 5.333299999983335e+000	 3.599979999983600e+000	 1.038647804673028e+001
0	 5.333299999983335e+000	 3.666649999985416e+000	 1.038263964211963e+001
0	 5.333299999983334e+000	 3.733319999987733e+000	 1.037846735220611e+001
0	 5.333299999983333e+000	 3.799989999990450e+000	 1.037396118315034e+001
0	 5.333299999983334e+000	 3.866659999993467e+000	 1.036912114111294e+001
0	 5.333299999983335e+000	 3.933329999996684e+000	 1.036394723225454e+001
0	 5.333299999983334e+000	 4.000000000000000e+000	 1.035843946273577e+001
0	 4.666700000016667e+000	 4.000000000000001e+000	 1.041894951452200e+001
0	 4.666700000016666e+000	 4.066670000003317e+000	 1.041055821478041e+001
0	 4.666700000016666e+000	 4.133340000006535e+000	 1.040209891450668e+001
0	 4.666700000016667e+000	 4.200010000009550e+000	 1.039357904847261e+001
0	 4.666700000016666e+000	 4.266680000012268e+000	 1.038500605145001e+001
0	 4.666700000016665e+000	 4.333350000014583e+000	 1.037638735821072e+001
0	 4.666700000016665e+000	 4.400020000016400e+000	 1.036773040352652e+001
0	 4.666700000016667e+000	 4.466690000017618e+000	 1.035904262216927e+001
0	 4.666700000016666e+000	 4.533360000018134e+000	 1.035033144891074e+001
0	 4.666700000016668e+000	 4.600030000017852e+000	 1.034160431852276e+001
0	 4.666700000016666e+000	 4.666700000016666e+000	 1.033286866577713e+001
0	 4.733360000014533e+000	 4.000000000000000e+000	 1.041254632091244e+001
0	 4.733360000014532e+000	 4.066670000003317e+000	 1.040480157126665e+001
0	 4.733360000014533e+000	 4.133340000006534e+000	 1.039696370256695e+001
0	 4.733360000014532e+000	 4.200010000009551e+000	 1.038903590109506e+001
0	 4.733360000014533e+000	 4.266680000012268e+000	 1.038102135313273e+001
0	 4.733360000014534e+000	 4.333350000014584e+000	 1.037292324496167e+001
0	 4.733360000014533e+000	 4.400020000016402e+000	 1.036474476286363e+001
0	 4.733360000014533e+000	 4.466690000017618e+000	 1.035648909312034e+001
0	 4.733360000014533e+000	 4.533360000018131e+000	 1.034815942201352e+001
0	 4.733360000014534e+000	 4.600030000017852e+000	 1.033975893582491e+001
0	 4.733360000014533e+000	 4.666700000016665e+000	 1.033129082083621e+001
0	 4.800020000011600e+000	 4.000000000000000e+000	 1.040638734936585e+001
0	 4.800020000011599e+000	 4.066670000003316e+000	 1.039914619713322e+001
0	 4.800020000011600e+000	 4.133340000006532e+000	 1.039180032069452e+001
0	 4.800020000011601e+000	 4.200010000009550e+000	 1.038434912937032e+001
0	 4.800020000011600e+000	 4.266680000012267e+000	 1.037679203248123e+001
0	 4.800020000011600e+000	 4.333350000014584e+000	 1.036912843934786e+001
0	 4.800020000011600e+000	 4.400020000016401e+000	 1.036135775929078e+001
0	 4.800020000011600e+000	 4.466690000017619e+000	 1.035347940163061e+001
0	 4.800020000011598e+000	 4.533360000018132e+000	 1.034549277568792e+001
0	 4.800020000011601e+000	 4.600030000017850e+000	 1.033739729078330e+001
0	 4.800020000011601e+000	 4.666700000016666e+000	 1.032919235623733e+001
0	 4.866680000008067e+000	 4.000000000000001e+000	 1.040041036564453e+001
0	 4.866680000008067e+000	 4.066670000003319e+000	 1.039355223875367e+001
0	 4.866680000008066e+000	 4.133340000006533e+000	 1.038658883976178e+001
0	 4.866680000008065e+000	 4.200010000009550e+000	 1.037951627255730e+001
0	 4.866680000008066e+000	 4.266680000012268e+000	 1.037233064102861e+001
0	 4.866680000008068e+000	 4.333350000014586e+000	 1.036502804906412e+001
0	 4.866680000008066e+000	 4.400020000016400e+000	 1.035760460055225e+001
0	 4.866680000008068e+000	 4.466690000017619e+000	 1.035005639938137e+001
0	 4.866680000008067e+000	 4.533360000018135e+000	 1.034237954943990e+001
0	 4.866680000008065e+000	 4.600030000017850e+000	 1.033457015461622e+001
0	 4.866680000008067e+000	 4.666700000016666e+000	 1.032662431879874e+001
0	 4.933340000004135e+000	 4.000000000000001e+000	 1.039455313551076e+001
0	 4.933340000004134e+000	 4.066670000003317e+000	 1.038797984250151e+001
0	 4.933340000004133e+000	 4.133340000006534e+000	 1.038130933064116e+001
0	 4.933340000004134e+000	 4.200010000009550e+000	 1.037453486991490e+001
0	 4.933340000004133e+000	 4.266680000012266e+000	 1.036764973030789e+001
0	 4.933340000004133e+000	 4.333350000014583e+000	 1.036064718180527e+001
0	 4.933340000004133e+000	 4.400020000016400e+000	 1.035352049439223e+001
0	 4.933340000004134e+000	 4.466690000017618e+000	 1.034626293805389e+001
0	 4.933340000004134e+000	 4.533360000018133e+000	 1.033886778277544e+001
0	 4.933340000004132e+000	 4.600030000017849e+000	 1.033132829854198e+001
0	 4.933340000004135e+000	 4.666700000016668e+000	 1.032363775533870e+001
0	 5.000000000000000e+000	 4.000000000000001e+000	 1.038875342472686e+001
0	 5.000000000000002e+000	 4.066670000003318e+000	 1.038238915475027e+001
0	 5.000000000000001e+000	 4.133340000006534e+000	 1.037594186420504e+001
0	 5.000000000000002e+000	 4.200010000009551e+000	 1.036940246070203e+001
0	 5.000000000000001e+000	 4.266680000012268e+000	 1.036276185185212e+001
0	 5.000000000000000e+000	 4.333350000014583e+000	 1.035601094526615e+001
0	 5.000000000000001e+000	 4.400020000016402e+000	 1.034914064855499e+001
0	 5.000000000000000e+000	 4.466690000017617e+000	 1.034214186932948e+001
0	 5.000000000000001e+000	 4.533360000018135e+000	 1.033500551520049e+001
0	 4.999999999999999e+000	 4.600030000017849e+000	 1.032772249377886e+001
0	 5.000000000000000e+000	 4.666700000016665e+000	 1.032028371267545e+001
0	 5.066659999995867e+000	 4.000000000000000e+000	 1.038294899905513e+001
0	 5.066659999995867e+000	 4.066670000003318e+000	 1.037674032187350e+001
0	 5.066659999995867e+000	 4.133340000006535e+000	 1.037046651132583e+001
0	 5.066659999995866e+000	 4.200010000009550e+000	 1.036411658417760e+001
0	 5.066659999995867e+000	 4.266680000012268e+000	 1.035767955719435e+001
0	 5.066659999995866e+000	 4.333350000014584e+000	 1.035114444714156e+001
0	 5.066659999995868e+000	 4.400020000016403e+000	 1.034450027078474e+001
0	 5.066659999995866e+000	 4.466690000017617e+000	 1.033773604488941e+001
0	 5.066659999995868e+000	 4.533360000018134e+000	 1.033084078622105e+001
0	 5.066659999995866e+000	 4.600030000017851e+000	 1.032380351154516e+001
0	 5.066659999995866e+000	 4.666700000016666e+000	 1.031661323762724e+001
0	 5.133319999991932e+000	 4.000000000000001e+000	 1.037707762425785e+001
0	 5.133319999991933e+000	 4.066670000003318e+000	 1.037099349024473e+001
0	 5.133319999991933e+000	 4.133340000006535e+000	 1.036486334287592e+001
0	 5.133319999991935e+000	 4.200010000009552e+000	 1.035867477960052e+001
0	 5.133319999991933e+000	 4.266680000012268e+000	 1.035241539786762e+001
0	 5.133319999991934e+000	 4.333350000014585e+000	 1.034607279512633e+001
0	 5.133319999991934e+000	 4.400020000016400e+000	 1.033963456882574e+001
0	 5.133319999991933e+000	 4.466690000017619e+000	 1.033308831641496e+001
0	 5.133319999991932e+000	 4.533360000018133e+000	 1.032642163534307e+001
0	 5.133319999991933e+000	 4.600030000017851e+000	 1.031962212305916e+001
0	 5.133319999991934e+000	 4.666700000016666e+000	 1.031267737701232e+001
0	 5.199979999988400e+000	 4.000000000000001e+000	 1.037107706609733e+001
0	 5.199979999988399e+000	 4.066670000003317e+000	 1.036510880623749e+001
0	 5.199979999988398e+000	 4.133340000006534e+000	 1.035911242972772e+001
0	 5.199979999988399e+000	 4.200010000009550e+000	 1.035307458622966e+001
0	 5.199979999988400e+000	 4.266680000012268e+000	 1.034698192540497e+001
0	 5.199979999988401e+000	 4.333350000014585e+000	 1.034082109691527e+001
0	 5.199979999988400e+000	 4.400020000016402e+000	 1.033457875042221e+001
0	 5.199979999988399e+000	 4.466690000017616e+000	 1.032824153558742e+001
0	 5.199979999988400e+000	 4.533360000018133e+000	 1.032179610207252e+001
0	 5.199979999988399e+000	 4.600030000017850e+000	 1.031522909953915e+001
0	 5.199979999988399e+000	 4.666700000016666e+000	 1.030852717764893e+001
0	 5.266639999985465e+000	 4.000000000000000e+000	 1.036488509033587e+001
0	 5.266639999985466e+000	 4.066670000003318e+000	 1.035904641622530e+001
0	 5.266639999985465e+000	 4.133340000006534e+000	 1.035319384275361e+001
0	 5.266639999985465e+000	 4.200010000009550e+000	 1.034731354332396e+001
0	 5.266639999985466e+000	 4.266680000012267e+000	 1.034139169133945e+001
0	 5.266639999985467e+000	 4.333350000014584e+000	 1.033541446020322e+001
0	 5.266639999985466e+000	 4.400020000016401e+000	 1.032936802331839e+001
0	 5.266639999985466e+000	 4.466690000017618e+000	 1.032323855408806e+001
0	 5.266639999985466e+000	 4.533360000018134e+000	 1.031701222591537e+001
0	 5.266639999985466e+000	 4.600030000017851e+000	 1.031067521220342e+001
0	 5.266639999985466e+000	 4.666700000016667e+000	 1.030421368635533e+001
0	 5.333299999983334e+000	 4.000000000000000e+000	 1.035843946273577e+001
0	 5.333299999983332e+000	 4.066670000003316e+000	 1.035276646658168e+001
0	 5.333299999983334e+000	 4.133340000006534e+000	 1.034708765282600e+001
0	 5.333299999983336e+000	 4.200010000009550e+000	 1.034138919014229e+001
0	 5.333299999983333e+000	 4.266680000012268e+000	 1.033565724720410e+001
0	 5.333299999983335e+000	 4.333350000014584e+000	 1.032987799268499e+001
0	 5.333299999983333e+000	 4.400020000016401e+000	 1.032403759525849e+001
0	 5.333299999983334e+000	 4.466690000017618e+000	 1.031812222359817e+001
0	 5.333299999983334e+000	 4.533360000018134e+000	 1.031211804637758e+001
0	 5.333299999983333e+000	 4.600030000017851e+000	 1.030601123227026e+001
0	 5.333299999983335e+000	 4.666700000016667e+000	 1.029978794994974e+001
0	 4.666700000016666e+000	 4.666700000016666e+000	 1.033286866577713e+001
0	 4.666700000016666e+000	 4.733360000014534e+000	 1.032421788991800e+001
0	 4.666700000016665e+000	 4.800020000011599e+000	 1.031572531404886e+001
0	 4.666700000016666e+000	 4.866680000008067e+000	 1.030737219037999e+001
0	 4.666700000016667e+000	 4.933340000004135e+000	 1.029913977112169e+001
0	 4.666700000016666e+000	 5.000000000000001e+000	 1.029100930848424e+001
0	 4.666700000016667e+000	 5.066659999995867e+000	 1.028296205467791e+001
0	 4.666700000016666e+000	 5.133319999991935e+000	 1.027497926191299e+001
0	 4.666700000016665e+000	 5.199979999988400e+000	 1.026704218239978e+001
0	 4.666700000016667e+000	 5.266639999985468e+000	 1.025913206834854e+001
0	 4.666700000016667e+000	 5.333299999983335e+000	 1.025123017196958e+001
0	 4.733360000014533e+000	 4.666700000016665e+000	 1.033129082083621e+001
0	 4.733360000014534e+000	 4.733360000014534e+000	 1.032286879801408e+001
0	 4.733360000014533e+000	 4.800020000011600e+000	 1.031459021677790e+001
0	 4.733360000014534e+000	 4.866680000008067e+000	 1.030643753128754e+001
0	 4.733360000014534e+000	 4.933340000004135e+000	 1.029839319570285e+001
0	 4.733360000014534e+000	 4.999999999999999e+000	 1.029043966418369e+001
0	 4.733360000014534e+000	 5.066659999995867e+000	 1.028255939088992e+001
0	 4.733360000014534e+000	 5.133319999991935e+000	 1.027473482998138e+001
0	 4.733360000014534e+000	 5.199979999988400e+000	 1.026694843561793e+001
0	 4.733360000014534e+000	 5.266639999985467e+000	 1.025918266195946e+001
0	 4.733360000014534e+000	 5.333299999983335e+000	 1.025141996316579e+001
0	 4.800020000011601e+000	 4.666700000016666e+000	 1.032919235623733e+001
0	 4.800020000011601e+000	 4.733360000014534e+000	 1.032100450728932e+001
0	 4.800020000011601e+000	 4.800020000011601e+000	 1.031294728817252e+001
0	 4.800020000011601e+000	 4.866680000008067e+000	 1.030500433844788e+001
0	 4.800020000011599e+000	 4.933340000004133e+000	 1.029715929767638e+001
0	 4.800020000011601e+000	 5.000000000000001e+000	 1.028939580541896e+001
0	 4.800020000011600e+000	 5.066659999995867e+000	 1.028169750123661e+001
0	 4.800020000011601e+000	 5.133319999991934e+000	 1.027404802469029e+001
0	 4.800020000011600e+000	 5.199979999988400e+000	 1.026643101534096e+001
0	 4.800020000011601e+000	 5.266639999985467e+000	 1.025883011274957e+001
0	 4.800020000011600e+000	 5.333299999983335e+000	 1.025122895647711e+001
0	 4.866680000008067e+000	 4.666700000016666e+000	 1.032662431879874e+001
0	 4.866680000008067e+000	 4.733360000014534e+000	 1.031867494266324e+001
0	 4.866680000008068e+000	 4.800020000011600e+000	 1.031084499208273e+001
0	 4.866680000008065e+000	 4.866680000008067e+000	 1.030311927547079e+001
0	 4.866680000008066e+000	 4.933340000004133e+000	 1.029548260124106e+001
0	 4.866680000008067e+000	 4.999999999999999e+000	 1.028791977780711e+001
0	 4.866680000008066e+000	 5.066659999995866e+000	 1.028041561358255e+001
0	 4.866680000008066e+000	 5.133319999991934e+000	 1.027295491698102e+001
0	 4.866680000008067e+000	 5.199979999988401e+000	 1.026552249641611e+001
0	 4.866680000008067e+000	 5.266639999985467e+000	 1.025810316030144e+001
0	 4.866680000008066e+000	 5.333299999983334e+000	 1.025068171705058e+001
0	 4.933340000004135e+000	 4.666700000016668e+000	 1.032363775533870e+001
0	 4.933340000004135e+000	 4.733360000014533e+000	 1.031593002905536e+001
0	 4.933340000004132e+000	 4.800020000011599e+000	 1.030833179235855e+001
0	 4.933340000004134e+000	 4.866680000008067e+000	 1.030082900596606e+001
0	 4.933340000004135e+000	 4.933340000004134e+000	 1.029340763059566e+001
0	 4.933340000004134e+000	 5.000000000000000e+000	 1.028605362696514e+001
0	 4.933340000004134e+000	 5.066659999995868e+000	 1.027875295579229e+001
0	 4.933340000004134e+000	 5.133319999991934e+000	 1.027149157779490e+001
0	 4.933340000004132e+000	 5.199979999988400e+000	 1.026425545369073e+001
0	 4.933340000004136e+000	 5.266639999985469e+000	 1.025703054419759e+001
0	 4.933340000004134e+000	 5.333299999983335e+000	 1.024980281003326e+001
0	 5.000000000000000e+000	 4.666700000016665e+000	 1.032028371267545e+001
0	 5.000000000000001e+000	 4.733360000014534e+000	 1.031281969138517e+001
0	 5.000000000000001e+000	 4.800020000011600e+000	 1.030545615285000e+001
0	 5.000000000000001e+000	 4.866680000008067e+000	 1.029818019354345e+001
0	 5.000000000000001e+000	 4.933340000004134e+000	 1.029097890993898e+001
0	 5.000000000000001e+000	 5.000000000000000e+000	 1.028383939851013e+001
0	 5.000000000000001e+000	 5.066659999995866e+000	 1.027674875573036e+001
0	 5.000000000000001e+000	 5.133319999991935e+000	 1.026969407807317e+001
0	 5.000000000000001e+000	 5.199979999988400e+000	 1.026266246201208e+001
0	 5.000000000000001e+000	 5.266639999985467e+000	 1.025564100402059e+001
0	 5.000000000000000e+000	 5.333299999983333e+000	 1.024861680057219e+001
0	 5.066659999995866e+000	 4.666700000016666e+000	 1.031661323762724e+001
0	 5.066659999995868e+000	 4.733360000014535e+000	 1.030939385457220e+001
0	 5.066659999995868e+000	 4.800020000011601e+000	 1.030226653740711e+001
0	 5.066659999995866e+000	 4.866680000008067e+000	 1.029521950181274e+001
0	 5.066659999995868e+000	 4.933340000004136e+000	 1.028824096346981e+001
0	 5.066659999995867e+000	 5.000000000000001e+000	 1.028131913805908e+001
0	 5.066659999995867e+000	 5.066659999995867e+000	 1.027444224126128e+001
0	 5.066659999995868e+000	 5.133319999991935e+000	 1.026759848875716e+001
0	 5.066659999995868e+000	 5.199979999988401e+000	 1.026077609622747e+001
0	 5.066659999995868e+000	 5.266639999985467e+000	 1.025396327935297e+001
0	 5.066659999995866e+000	 5.333299999983335e+000	 1.024714825381439e+001
0	 5.133319999991934e+000	 4.666700000016666e+000	 1.031267737701232e+001
0	 5.133319999991934e+000	 4.733360000014534e+000	 1.030570244353595e+001
0	 5.133319999991933e+000	 4.800020000011601e+000	 1.029881140987990e+001
0	 5.133319999991933e+000	 4.866680000008067e+000	 1.029199359438372e+001
0	 5.133319999991934e+000	 4.933340000004135e+000	 1.028523831538693e+001
0	 5.133319999991934e+000	 5.000000000000000e+000	 1.027853489122905e+001
0	 5.133319999991933e+000	 5.066659999995866e+000	 1.027187264024962e+001
0	 5.133319999991933e+000	 5.133319999991934e+000	 1.026524088078815e+001
0	 5.133319999991933e+000	 5.199979999988400e+000	 1.025862893118419e+001
0	 5.133319999991934e+000	 5.266639999985468e+000	 1.025202610977727e+001
0	 5.133319999991933e+000	 5.333299999983334e+000	 1.024542173490691e+001
0	 5.199979999988399e+000	 4.666700000016666e+000	 1.030852717764893e+001
0	 5.199979999988399e+000	 4.733360000014533e+000	 1.030179538319591e+001
0	 5.199979999988399e+000	 4.800020000011600e+000	 1.029513923411837e+001
0	 5.199979999988400e+000	 4.866680000008068e+000	 1.028854913486615e+001
0	 5.199979999988400e+000	 4.933340000004134e+000	 1.028201548988910e+001
0	 5.199979999988400e+000	 5.000000000000000e+000	 1.027552870363707e+001
0	 5.199979999988400e+000	 5.066659999995867e+000	 1.026907918055989e+001
0	 5.199979999988399e+000	 5.133319999991934e+000	 1.026265732510743e+001
0	 5.199979999988400e+000	 5.199979999988401e+000	 1.025625354172952e+001
0	 5.199979999988400e+000	 5.266639999985467e+000	 1.024985823487602e+001
0	 5.199979999988400e+000	 5.333299999983335e+000	 1.024346180899677e+001
0	 5.266639999985466e+000	 4.666700000016667e+000	 1.030421368635533e+001
0	 5.266639999985465e+000	 4.733360000014534e+000	 1.029772259847162e+001
0	 5.266639999985467e+000	 4.800020000011601e+000	 1.029129847397254e+001
0	 5.266639999985467e+000	 4.866680000008067e+000	 1.028493278686981e+001
0	 5.266639999985465e+000	 4.933340000004133e+000	 1.027861701117511e+001
0	 5.266639999985465e+000	 4.999999999999999e+000	 1.027234262090017e+001
0	 5.266639999985465e+000	 5.066659999995867e+000	 1.026610109005666e+001
0	 5.266639999985467e+000	 5.133319999991935e+000	 1.025988389265628e+001
0	 5.266639999985467e+000	 5.199979999988401e+000	 1.025368250271076e+001
0	 5.266639999985466e+000	 5.266639999985468e+000	 1.024748839423177e+001
0	 5.266639999985465e+000	 5.333299999983333e+000	 1.024129304123104e+001
0	 5.333299999983335e+000	 4.666700000016667e+000	 1.029978794994974e+001
0	 5.333299999983333e+000	 4.733360000014533e+000	 1.029353401428254e+001
0	 5.333299999983335e+000	 4.800020000011600e+000	 1.028733759329242e+001
0	 5.333299999983335e+000	 4.866680000008068e+000	 1.028119121400446e+001
0	 5.333299999983335e+000	 4.933340000004134e+000	 1.027508740344375e+001
0	 5.333299999983333e+000	 5.000000000000000e+000	 1.026901868863538e+001
0	 5.333299999983334e+000	 5.066659999995866e+000	 1.026297759660443e+001
0	 5.333299999983335e+000	 5.133319999991934e+000	 1.025695665437600e+001
0	 5.333299999983333e+000	 5.199979999988400e+000	 1.025094838897518e+001
0	 5.333299999983334e+000	 5.266639999985467e+000	 1.024494532742704e+001
0	 5.333299999983333e+000	 5.333299999983333e+000	 1.023893999675672e+001
0	 4.666700000016667e+000	 5.333299999983335e+000	 1.025123017196959e+001
0	 4.666700000016665e+000	 5.399969999982150e+000	 1.024341740016297e+001
0	 4.666700000016666e+000	 5.466639999981867e+000	 1.023578875590818e+001
0	 4.666700000016665e+000	 5.533309999982382e+000	 1.022834307836230e+001
0	 4.666700000016666e+000	 5.599979999983599e+000	 1.022107920668247e+001
0	 4.666700000016665e+000	 5.666649999985416e+000	 1.021399598002577e+001
0	 4.666700000016666e+000	 5.733319999987732e+000	 1.020709223754932e+001
0	 4.666700000016666e+000	 5.799989999990449e+000	 1.020036681841023e+001
0	 4.666700000016666e+000	 5.866659999993467e+000	 1.019381856176561e+001
0	 4.666700000016667e+000	 5.933329999996684e+000	 1.018744630677258e+001
0	 4.666700000016666e+000	 6.000000000000000e+000	 1.018124889258824e+001
0	 4.733360000014534e+000	 5.333299999983335e+000	 1.025141996316579e+001
0	 4.733360000014534e+000	 5.399969999982151e+000	 1.024374058752670e+001
0	 4.733360000014533e+000	 5.466639999981866e+000	 1.023623792604762e+001
0	 4.733360000014532e+000	 5.533309999982382e+000	 1.022891065145789e+001
0	 4.733360000014534e+000	 5.599979999983600e+000	 1.022175743648684e+001
0	 4.733360000014534e+000	 5.666649999985416e+000	 1.021477695386383e+001
0	 4.733360000014534e+000	 5.733319999987733e+000	 1.020796787631820e+001
0	 4.733360000014533e+000	 5.799989999990449e+000	 1.020132887657927e+001
0	 4.733360000014533e+000	 5.866659999993466e+000	 1.019485862737643e+001
0	 4.733360000014533e+000	 5.933329999996683e+000	 1.018855580143899e+001
0	 4.733360000014533e+000	 5.999999999999999e+000	 1.018241907149630e+001
0	 4.800020000011600e+000	 5.333299999983335e+000	 1.025122895647710e+001
0	 4.800020000011600e+000	 5.399969999982150e+000	 1.024370490665014e+001
0	 4.800020000011599e+000	 5.466639999981864e+000	 1.023634749002552e+001
0	 4.800020000011600e+000	 5.533309999982384e+000	 1.022915517273583e+001
0	 4.800020000011600e+000	 5.599979999983599e+000	 1.022212642091362e+001
0	 4.800020000011600e+000	 5.666649999985417e+000	 1.021525970069147e+001
0	 4.800020000011599e+000	 5.733319999987732e+000	 1.020855347820194e+001
0	 4.800020000011600e+000	 5.799989999990451e+000	 1.020200621957762e+001
0	 4.800020000011599e+000	 5.866659999993465e+000	 1.019561639095108e+001
0	 4.800020000011599e+000	 5.933329999996684e+000	 1.018938245845489e+001
0	 4.800020000011601e+000	 6.000000000000000e+000	 1.018330288822163e+001
0	 4.866680000008066e+000	 5.333299999983334e+000	 1.025068171705058e+001
0	 4.866680000008065e+000	 5.399969999982148e+000	 1.024333088958414e+001
0	 4.866680000008066e+000	 5.466639999981866e+000	 1.023613456994919e+001
0	 4.866680000008067e+000	 5.533309999982384e+000	 1.022909097751251e+001
0	 4.866680000008066e+000	 5.599979999983598e+000	 1.022219833164092e+001
0	 4.866680000008066e+000	 5.666649999985416e+000	 1.021545485170119e+001
0	 4.866680000008067e+000	 5.733319999987733e+000	 1.020885875706013e+001
0	 4.866680000008067e+000	 5.799989999990451e+000	 1.020240826708456e+001
0	 4.866680000008065e+000	 5.866659999993467e+000	 1.019610160114124e+001
0	 4.866680000008065e+000	 5.933329999996684e+000	 1.018993697859701e+001
0	 4.866680000008067e+000	 6.000000000000002e+000	 1.018391261881866e+001
0	 4.933340000004134e+000	 5.333299999983335e+000	 1.024980281003326e+001
0	 4.933340000004133e+000	 5.399969999982149e+000	 1.024263906837952e+001
0	 4.933340000004134e+000	 5.466639999981867e+000	 1.023561628792586e+001
0	 4.933340000004134e+000	 5.533309999982382e+000	 1.022873240110429e+001
0	 4.933340000004135e+000	 5.599979999983601e+000	 1.022198534034684e+001
0	 4.933340000004133e+000	 5.666649999985416e+000	 1.021537303808553e+001
0	 4.933340000004133e+000	 5.733319999987733e+000	 1.020889342675237e+001
0	 4.933340000004134e+000	 5.799989999990450e+000	 1.020254443877941e+001
0	 4.933340000004133e+000	 5.866659999993466e+000	 1.019632400659863e+001
0	 4.933340000004134e+000	 5.933329999996683e+000	 1.019023006264209e+001
0	 4.933340000004133e+000	 5.999999999999998e+000	 1.018426053934179e+001
0	 5.000000000000000e+000	 5.333299999983333e+000	 1.024861680057218e+001
0	 5.000000000000000e+000	 5.399969999982149e+000	 1.024164997508709e+001
0	 5.000000000000001e+000	 5.466639999981866e+000	 1.023480976606278e+001
0	 5.000000000000001e+000	 5.533309999982384e+000	 1.022809377882751e+001
0	 5.000000000000000e+000	 5.599979999983601e+000	 1.022149961870950e+001
0	 4.999999999999999e+000	 5.666649999985416e+000	 1.021502489103700e+001
0	 5.000000000000001e+000	 5.733319999987733e+000	 1.020866720113823e+001
0	 5.000000000000001e+000	 5.799989999990450e+000	 1.020242415434147e+001
0	 5.000000000000001e+000	 5.866659999993466e+000	 1.019629335597492e+001
0	 5.000000000000002e+000	 5.933329999996683e+000	 1.019027241136683e+001
0	 5.000000000000001e+000	 6.000000000000000e+000	 1.018435892584546e+001
0	 5.066659999995866e+000	 5.333299999983335e+000	 1.024714825381439e+001
0	 5.066659999995867e+000	 5.399969999982150e+000	 1.024038414175767e+001
0	 5.066659999995867e+000	 5.466639999981866e+000	 1.023373212646723e+001
0	 5.066659999995865e+000	 5.533309999982381e+000	 1.022718944599853e+001
0	 5.066659999995867e+000	 5.599979999983598e+000	 1.022075333840700e+001
0	 5.066659999995866e+000	 5.666649999985416e+000	 1.021442104174812e+001
0	 5.066659999995866e+000	 5.733319999987733e+000	 1.020818979407732e+001
0	 5.066659999995869e+000	 5.799989999990451e+000	 1.020205683345006e+001
0	 5.066659999995866e+000	 5.866659999993466e+000	 1.019601939792179e+001
0	 5.066659999995867e+000	 5.933329999996683e+000	 1.019007472554799e+001
0	 5.066659999995866e+000	 5.999999999999999e+000	 1.018422005438407e+001
0	 5.133319999991933e+000	 5.333299999983334e+000	 1.024542173490691e+001
0	 5.133319999991933e+000	 5.399969999982150e+000	 1.023886210044209e+001
0	 5.133319999991932e+000	 5.466639999981866e+000	 1.023240049124647e+001
0	 5.133319999991933e+000	 5.533309999982383e+000	 1.022603373793372e+001
0	 5.133319999991934e+000	 5.599979999983600e+000	 1.021975867111746e+001
0	 5.133319999991934e+000	 5.666649999985416e+000	 1.021357212141141e+001
0	 5.133319999991934e+000	 5.733319999987732e+000	 1.020747091942919e+001
0	 5.133319999991933e+000	 5.799989999990447e+000	 1.020145189578448e+001
0	 5.133319999991934e+000	 5.866659999993467e+000	 1.019551188109094e+001
0	 5.133319999991933e+000	 5.933329999996683e+000	 1.018964770596224e+001
0	 5.133319999991934e+000	 6.000000000000001e+000	 1.018385620101204e+001
0	 5.199979999988400e+000	 5.333299999983335e+000	 1.024346180899677e+001
0	 5.199979999988400e+000	 5.399969999982149e+000	 1.023710438319116e+001
0	 5.199979999988400e+000	 5.466639999981865e+000	 1.023083198250774e+001
0	 5.199979999988400e+000	 5.533309999982384e+000	 1.022464098994940e+001
0	 5.199979999988398e+000	 5.599979999983598e+000	 1.021852778851898e+001
0	 5.199979999988401e+000	 5.666649999985417e+000	 1.021248876121937e+001
0	 5.199979999988400e+000	 5.733319999987733e+000	 1.020652029105342e+001
0	 5.199979999988399e+000	 5.799989999990449e+000	 1.020061876102403e+001
0	 5.199979999988400e+000	 5.866659999993467e+000	 1.019478055413404e+001
0	 5.199979999988400e+000	 5.933329999996683e+000	 1.018900205338633e+001
0	 5.199979999988400e+000	 6.000000000000002e+000	 1.018327964178378e+001
0	 5.266639999985465e+000	 5.333299999983333e+000	 1.024129304123104e+001
0	 5.266639999985466e+000	 5.399969999982151e+000	 1.023513152205571e+001
0	 5.266639999985467e+000	 5.466639999981866e+000	 1.022904372235831e+001
0	 5.266639999985465e+000	 5.533309999982384e+000	 1.022302553736194e+001
0	 5.266639999985466e+000	 5.599979999983599e+000	 1.021707286228966e+001
0	 5.266639999985466e+000	 5.666649999985417e+000	 1.021118159236452e+001
0	 5.266639999985467e+000	 5.733319999987733e+000	 1.020534762280962e+001
0	 5.266639999985466e+000	 5.799989999990451e+000	 1.019956684884801e+001
0	 5.266639999985466e+000	 5.866659999993466e+000	 1.019383516570278e+001
0	 5.266639999985466e+000	 5.933329999996684e+000	 1.018814846859698e+001
0	 5.266639999985465e+000	 5.999999999999998e+000	 1.018250265275370e+001
0	 5.333299999983333e+000	 5.333299999983333e+000	 1.023893999675672e+001
0	 5.333299999983333e+000	 5.399969999982149e+000	 1.023296404908652e+001
0	 5.333299999983334e+000	 5.466639999981867e+000	 1.022705283290543e+001
0	 5.333299999983334e+000	 5.533309999982384e+000	 1.022120171548770e+001
0	 5.333299999983334e+000	 5.599979999983600e+000	 1.021540606410759e+001
0	 5.333299999983334e+000	 5.666649999985415e+000	 1.020966124603937e+001
0	 5.333299999983335e+000	 5.733319999987733e+000	 1.020396262855734e+001
0	 5.333299999983334e+000	 5.799989999990448e+000	 1.019830557893572e+001
0	 5.333299999983333e+000	 5.866659999993467e+000	 1.019268546444882e+001
0	 5.333299999983335e+000	 5.933329999996684e+000	 1.018709765237089e+001
0	 5.333299999983333e+000	 5.999999999999998e+000	 1.018153750997620e+001
0	 4.666700000016666e+000	 6.000000000000000e+000	 1.018124889258824e+001
0	 4.666700000016665e+000	 6.066670000003318e+000	 1.017519974662084e+001
0	 4.666700000016667e+000	 6.133340000006533e+000	 1.016927129222269e+001
0	 4.666700000016666e+000	 6.200010000009551e+000	 1.016346086246710e+001
0	 4.666700000016667e+000	 6.266680000012267e+000	 1.015776579042738e+001
0	 4.666700000016667e+000	 6.333350000014587e+000	 1.015218340917681e+001
0	 4.666700000016666e+000	 6.400020000016402e+000	 1.014671105178871e+001
0	 4.666700000016667e+000	 6.466690000017617e+000	 1.014134605133637e+001
0	 4.666700000016666e+000	 6.533360000018133e+000	 1.013608574089309e+001
0	 4.666700000016666e+000	 6.600030000017847e+000	 1.013092745353220e+001
0	 4.666700000016666e+000	 6.666700000016667e+000	 1.012586852232698e+001
0	 4.733360000014533e+000	 5.999999999999999e+000	 1.018241907149630e+001
0	 4.733360000014531e+000	 6.066670000003316e+000	 1.017642338970246e+001
0	 4.733360000014533e+000	 6.133340000006532e+000	 1.017054262458430e+001
0	 4.733360000014532e+000	 6.200010000009550e+000	 1.016477382343033e+001
0	 4.733360000014534e+000	 6.266680000012268e+000	 1.015911403352905e+001
0	 4.733360000014533e+000	 6.333350000014584e+000	 1.015356030216899e+001
0	 4.733360000014533e+000	 6.400020000016400e+000	 1.014810967663864e+001
0	 4.733360000014533e+000	 6.466690000017619e+000	 1.014275920422652e+001
0	 4.733360000014533e+000	 6.533360000018132e+000	 1.013750593222113e+001
0	 4.733360000014534e+000	 6.600030000017850e+000	 1.013234690791099e+001
0	 4.733360000014534e+000	 6.666700000016669e+000	 1.012727917858460e+001
0	 4.800020000011601e+000	 6.000000000000000e+000	 1.018330288822163e+001
0	 4.800020000011599e+000	 6.066670000003315e+000	 1.017735655663812e+001
0	 4.800020000011597e+000	 6.133340000006532e+000	 1.017152123442465e+001
0	 4.800020000011599e+000	 6.200010000009551e+000	 1.016579372921407e+001
0	 4.800020000011599e+000	 6.266680000012264e+000	 1.016017084863922e+001
0	 4.800020000011600e+000	 6.333350000014585e+000	 1.015464940033295e+001
0	 4.800020000011601e+000	 6.400020000016402e+000	 1.014922619192810e+001
0	 4.800020000011600e+000	 6.466690000017618e+000	 1.014389803105754e+001
0	 4.800020000011599e+000	 6.533360000018134e+000	 1.013866172535410e+001
0	 4.800020000011601e+000	 6.600030000017850e+000	 1.013351408245063e+001
0	 4.800020000011601e+000	 6.666700000016667e+000	 1.012845190998000e+001
0	 4.866680000008067e+000	 6.000000000000002e+000	 1.018391261881866e+001
0	 4.866680000008066e+000	 6.066670000003316e+000	 1.017801321971048e+001
0	 4.866680000008066e+000	 6.133340000006532e+000	 1.017222240900309e+001
0	 4.866680000008067e+000	 6.200010000009551e+000	 1.016653680080282e+001
0	 4.866680000008067e+000	 6.266680000012268e+000	 1.016095300921598e+001
0	 4.866680000008067e+000	 6.333350000014585e+000	 1.015546764834887e+001
0	 4.866680000008066e+000	 6.400020000016401e+000	 1.015007733230781e+001
0	 4.866680000008068e+000	 6.466690000017618e+000	 1.014477867519912e+001
0	 4.866680000008066e+000	 6.533360000018134e+000	 1.013956829112913e+001
0	 4.866680000008065e+000	 6.600030000017849e+000	 1.013444279420412e+001
0	 4.866680000008068e+000	 6.666700000016667e+000	 1.012939879853046e+001
0	 4.933340000004133e+000	 5.999999999999998e+000	 1.018426053934179e+001
0	 4.933340000004134e+000	 6.066670000003318e+000	 1.017840735120220e+001
0	 4.933340000004133e+000	 6.133340000006531e+000	 1.017266143557901e+001
0	 4.933340000004134e+000	 6.200010000009551e+000	 1.016701925918112e+001
0	 4.933340000004134e+000	 6.266680000012268e+000	 1.016147728871746e+001
0	 4.933340000004135e+000	 6.333350000014584e+000	 1.015603199089694e+001
0	 4.933340000004135e+000	 6.400020000016403e+000	 1.015067983242846e+001
0	 4.933340000004134e+000	 6.466690000017617e+000	 1.014541728002094e+001
0	 4.933340000004133e+000	 6.533360000018134e+000	 1.014024080038329e+001
0	 4.933340000004134e+000	 6.600030000017849e+000	 1.013514686022444e+001
0	 4.933340000004135e+000	 6.666700000016668e+000	 1.013013192625330e+001
0	 5.000000000000001e+000	 6.000000000000000e+000	 1.018435892584546e+001
0	 5.000000000000003e+000	 6.066670000003318e+000	 1.017855292339595e+001
0	 5.000000000000000e+000	 6.133340000006531e+000	 1.017285360141177e+001
0	 5.000000000000002e+000	 6.200010000009551e+000	 1.016725732533350e+001
0	 5.000000000000001e+000	 6.266680000012268e+000	 1.016176046060183e+001
0	 5.000000000000000e+000	 6.333350000014584e+000	 1.015635937265737e+001
0	 5.000000000000001e+000	 6.400020000016401e+000	 1.015105042694076e+001
0	 4.999999999999999e+000	 6.466690000017617e+000	 1.014582998889266e+001
0	 5.000000000000000e+000	 6.533360000018134e+000	 1.014069442395370e+001
0	 4.999999999999998e+000	 6.600030000017848e+000	 1.013564009756453e+001
0	 4.999999999999999e+000	 6.666700000016665e+000	 1.013066337516579e+001
0	 5.066659999995866e+000	 5.999999999999999e+000	 1.018422005438407e+001
0	 5.066659999995866e+000	 6.066670000003317e+000	 1.017846390857441e+001
0	 5.066659999995866e+000	 6.133340000006534e+000	 1.017281419376071e+001
0	 5.066659999995867e+000	 6.200010000009553e+000	 1.016726722024447e+001
0	 5.066659999995867e+000	 6.266680000012268e+000	 1.016181929832718e+001
0	 5.066659999995866e+000	 6.333350000014583e+000	 1.015646673831032e+001
0	 5.066659999995868e+000	 6.400020000016402e+000	 1.015120585049542e+001
0	 5.066659999995866e+000	 6.466690000017616e+000	 1.014603294518396e+001
0	 5.066659999995868e+000	 6.533360000018134e+000	 1.014094433267744e+001
0	 5.066659999995866e+000	 6.600030000017849e+000	 1.013593632327737e+001
0	 5.066659999995866e+000	 6.666700000016666e+000	 1.013100522728525e+001
0	 5.133319999991934e+000	 6.000000000000001e+000	 1.018385620101204e+001
0	 5.133319999991932e+000	 6.066670000003318e+000	 1.017815427902022e+001
0	 5.133319999991935e+000	 6.133340000006536e+000	 1.017255849988524e+001
0	 5.133319999991934e+000	 6.200010000009552e+000	 1.016706516489854e+001
0	 5.133319999991933e+000	 6.266680000012267e+000	 1.016167057535164e+001
0	 5.133319999991933e+000	 6.333350000014583e+000	 1.015637103253600e+001
0	 5.133319999991933e+000	 6.400020000016400e+000	 1.015116283774314e+001
0	 5.133319999991933e+000	 6.466690000017620e+000	 1.014604229226451e+001
0	 5.133319999991932e+000	 6.533360000018132e+000	 1.014100569739161e+001
0	 5.133319999991933e+000	 6.600030000017851e+000	 1.013604935441593e+001
0	 5.133319999991932e+000	 6.666700000016667e+000	 1.013116956462896e+001
0	 5.199979999988400e+000	 6.000000000000002e+000	 1.018327964178378e+001
0	 5.199979999988400e+000	 6.066670000003317e+000	 1.017763800701605e+001
0	 5.199979999988400e+000	 6.133340000006535e+000	 1.017210180704469e+001
0	 5.199979999988400e+000	 6.200010000009552e+000	 1.016666738028025e+001
0	 5.199979999988400e+000	 6.266680000012268e+000	 1.016133106513336e+001
0	 5.199979999988400e+000	 6.333350000014584e+000	 1.015608920001461e+001
0	 5.199979999988400e+000	 6.400020000016402e+000	 1.015093812333462e+001
0	 5.199979999988400e+000	 6.466690000017617e+000	 1.014587417350397e+001
0	 5.199979999988400e+000	 6.533360000018134e+000	 1.014089368893328e+001
0	 5.199979999988398e+000	 6.600030000017849e+000	 1.013599300803317e+001
0	 5.199979999988400e+000	 6.666700000016667e+000	 1.013116846921422e+001
0	 5.266639999985465e+000	 5.999999999999998e+000	 1.018250265275370e+001
0	 5.266639999985466e+000	 6.066670000003317e+000	 1.017692906484456e+001
0	 5.266639999985466e+000	 6.133340000006534e+000	 1.017145940249841e+001
0	 5.266639999985466e+000	 6.200010000009551e+000	 1.016609008737409e+001
0	 5.266639999985467e+000	 6.266680000012267e+000	 1.016081754113044e+001
0	 5.266639999985467e+000	 6.333350000014585e+000	 1.015563818542630e+001
0	 5.266639999985464e+000	 6.400020000016398e+000	 1.015054844192055e+001
0	 5.266639999985466e+000	 6.466690000017616e+000	 1.014554473227202e+001
0	 5.266639999985466e+000	 6.533360000018135e+000	 1.014062347813956e+001
0	 5.266639999985466e+000	 6.600030000017850e+000	 1.013578110118204e+001
0	 5.266639999985466e+000	 6.666700000016667e+000	 1.013101402305830e+001
0	 5.333299999983333e+000	 5.999999999999998e+000	 1.018153750997620e+001
0	 5.333299999983334e+000	 6.066670000003317e+000	 1.017604142478841e+001
0	 5.333299999983333e+000	 6.133340000006530e+000	 1.017064657350580e+001
0	 5.333299999983334e+000	 6.200010000009550e+000	 1.016534950716458e+001
0	 5.333299999983335e+000	 6.266680000012268e+000	 1.016014677680100e+001
0	 5.333299999983334e+000	 6.333350000014584e+000	 1.015503493345128e+001
0	 5.333299999983335e+000	 6.400020000016401e+000	 1.015001052815164e+001
0	 5.333299999983334e+000	 6.466690000017618e+000	 1.014507011193831e+001
0	 5.333299999983333e+000	 6.533360000018132e+000	 1.014021023584753e+001
0	 5.333299999983333e+000	 6.600030000017849e+000	 1.013542745091552e+001
0	 5.333299999983334e+000	 6.666700000016665e+000	 1.013071830817851e+001
0	 4.666700000016666e+000	 6.666700000016667e+000	 1.012586852232698e+001
0	 4.666700000016666e+000	 6.733360000014533e+000	 1.012092247199062e+001
0	 4.666700000016665e+000	 6.800020000011599e+000	 1.011610265670173e+001
0	 4.666700000016666e+000	 6.866680000008066e+000	 1.011140840818297e+001
0	 4.666700000016666e+000	 6.933340000004132e+000	 1.010683905815704e+001
0	 4.666700000016666e+000	 6.999999999999999e+000	 1.010239393834659e+001
0	 4.666700000016666e+000	 7.066659999995867e+000	 1.009807238047431e+001
0	 4.666700000016667e+000	 7.133319999991935e+000	 1.009387371626285e+001
0	 4.666700000016666e+000	 7.199979999988400e+000	 1.008979727743486e+001
0	 4.666700000016667e+000	 7.266639999985467e+000	 1.008584239571302e+001
0	 4.666700000016665e+000	 7.333299999983333e+000	 1.008200840281995e+001
0	 4.733360000014534e+000	 6.666700000016669e+000	 1.012727917858461e+001
0	 4.733360000014534e+000	 6.733360000014533e+000	 1.012231941950122e+001
0	 4.733360000014533e+000	 6.800020000011599e+000	 1.011748427685437e+001
0	 4.733360000014535e+000	 6.866680000008067e+000	 1.011277301460073e+001
0	 4.733360000014534e+000	 6.933340000004134e+000	 1.010818489669697e+001
0	 4.733360000014534e+000	 6.999999999999999e+000	 1.010371918709979e+001
0	 4.733360000014534e+000	 7.066659999995869e+000	 1.009937514976584e+001
0	 4.733360000014534e+000	 7.133319999991936e+000	 1.009515204865181e+001
0	 4.733360000014533e+000	 7.199979999988400e+000	 1.009104914771433e+001
0	 4.733360000014534e+000	 7.266639999985467e+000	 1.008706571091009e+001
0	 4.733360000014534e+000	 7.333299999983334e+000	 1.008320100219574e+001
0	 4.800020000011601e+000	 6.666700000016667e+000	 1.012845190998000e+001
0	 4.800020000011602e+000	 6.733360000014534e+000	 1.012349333776982e+001
0	 4.800020000011601e+000	 6.800020000011601e+000	 1.011865657570905e+001
0	 4.800020000011601e+000	 6.866680000008066e+000	 1.011394081063511e+001
0	 4.800020000011600e+000	 6.933340000004134e+000	 1.010934522938543e+001
0	 4.800020000011601e+000	 7.000000000000001e+000	 1.010486901879745e+001
0	 4.800020000011600e+000	 7.066659999995865e+000	 1.010051136570856e+001
0	 4.800020000011600e+000	 7.133319999991935e+000	 1.009627145695625e+001
0	 4.800020000011601e+000	 7.199979999988401e+000	 1.009214847937789e+001
0	 4.800020000011600e+000	 7.266639999985466e+000	 1.008814161981092e+001
0	 4.800020000011600e+000	 7.333299999983334e+000	 1.008425006509275e+001
0	 4.866680000008068e+000	 6.666700000016667e+000	 1.012939879853046e+001
0	 4.866680000008067e+000	 6.733360000014533e+000	 1.012445449612710e+001
0	 4.866680000008068e+000	 6.800020000011601e+000	 1.011962823528172e+001
0	 4.866680000008068e+000	 6.866680000008069e+000	 1.011491911635929e+001
0	 4.866680000008067e+000	 6.933340000004133e+000	 1.011032623972473e+001
0	 4.866680000008066e+000	 6.999999999999997e+000	 1.010584870574298e+001
0	 4.866680000008066e+000	 7.066659999995866e+000	 1.010148561477896e+001
0	 4.866680000008066e+000	 7.133319999991934e+000	 1.009723606719763e+001
0	 4.866680000008067e+000	 7.199979999988402e+000	 1.009309916336390e+001
0	 4.866680000008068e+000	 7.266639999985467e+000	 1.008907400364268e+001
0	 4.866680000008069e+000	 7.333299999983334e+000	 1.008515968839893e+001
0	 4.933340000004135e+000	 6.666700000016668e+000	 1.013013192625330e+001
0	 4.933340000004136e+000	 6.733360000014533e+000	 1.012521316390368e+001
0	 4.933340000004133e+000	 6.800020000011601e+000	 1.012040793758834e+001
0	 4.933340000004134e+000	 6.866680000008068e+000	 1.011571525184644e+001
0	 4.933340000004133e+000	 6.933340000004134e+000	 1.011113411121721e+001
0	 4.933340000004135e+000	 7.000000000000001e+000	 1.010666352023984e+001
0	 4.933340000004134e+000	 7.066659999995870e+000	 1.010230248345349e+001
0	 4.933340000004133e+000	 7.133319999991933e+000	 1.009805000539738e+001
0	 4.933340000004133e+000	 7.199979999988400e+000	 1.009390509061069e+001
0	 4.933340000004136e+000	 7.266639999985467e+000	 1.008986674363259e+001
0	 4.933340000004134e+000	 7.333299999983335e+000	 1.008593396900226e+001
0	 4.999999999999999e+000	 6.666700000016665e+000	 1.013066337516579e+001
0	 5.000000000000002e+000	 6.733360000014533e+000	 1.012577961043023e+001
0	 5.000000000000001e+000	 6.800020000011600e+000	 1.012100436464482e+001
0	 5.000000000000000e+000	 6.866680000008067e+000	 1.011633653716974e+001
0	 5.000000000000002e+000	 6.933340000004133e+000	 1.011177502736522e+001
0	 5.000000000000000e+000	 7.000000000000000e+000	 1.010731873459145e+001
0	 5.000000000000001e+000	 7.066659999995868e+000	 1.010296655820863e+001
0	 5.000000000000002e+000	 7.133319999991935e+000	 1.009871739757695e+001
0	 5.000000000000001e+000	 7.199979999988400e+000	 1.009457015205660e+001
0	 5.000000000000003e+000	 7.266639999985468e+000	 1.009052372100778e+001
0	 5.000000000000000e+000	 7.333299999983335e+000	 1.008657700379069e+001
0	 5.066659999995866e+000	 6.666700000016666e+000	 1.013100522728525e+001
0	 5.066659999995868e+000	 6.733360000014533e+000	 1.012616410503741e+001
0	 5.066659999995868e+000	 6.800020000011601e+000	 1.012142619846711e+001
0	 5.066659999995868e+000	 6.866680000008066e+000	 1.011679029240236e+001
0	 5.066659999995868e+000	 6.933340000004133e+000	 1.011225517167109e+001
0	 5.066659999995868e+000	 7.000000000000001e+000	 1.010781962110127e+001
0	 5.066659999995867e+000	 7.066659999995867e+000	 1.010348242552084e+001
0	 5.066659999995867e+000	 7.133319999991936e+000	 1.009924236975776e+001
0	 5.066659999995867e+000	 7.199979999988400e+000	 1.009509823864000e+001
0	 5.066659999995867e+000	 7.266639999985467e+000	 1.009104881699548e+001
0	 5.066659999995866e+000	 7.333299999983335e+000	 1.008709288965218e+001
0	 5.133319999991932e+000	 6.666700000016667e+000	 1.013116956462897e+001
0	 5.133319999991935e+000	 6.733360000014533e+000	 1.012637691705585e+001
0	 5.133319999991933e+000	 6.800020000011601e+000	 1.012168212107120e+001
0	 5.133319999991932e+000	 6.866680000008067e+000	 1.011708383761746e+001
0	 5.133319999991933e+000	 6.933340000004133e+000	 1.011258072763714e+001
0	 5.133319999991935e+000	 7.000000000000000e+000	 1.010817145207269e+001
0	 5.133319999991934e+000	 7.066659999995866e+000	 1.010385467186658e+001
0	 5.133319999991933e+000	 7.133319999991934e+000	 1.009962904796125e+001
0	 5.133319999991932e+000	 7.199979999988401e+000	 1.009549324129919e+001
0	 5.133319999991934e+000	 7.266639999985467e+000	 1.009144591282286e+001
0	 5.133319999991932e+000	 7.333299999983334e+000	 1.008748572347468e+001
0	 5.199979999988400e+000	 6.666700000016667e+000	 1.013116846921422e+001
0	 5.199979999988399e+000	 6.733360000014533e+000	 1.012642831581620e+001
0	 5.199979999988400e+000	 6.800020000011601e+000	 1.012178081447295e+001
0	 5.199979999988399e+000	 6.866680000008066e+000	 1.011722449288823e+001
0	 5.199979999988399e+000	 6.933340000004133e+000	 1.011275787876572e+001
0	 5.199979999988399e+000	 6.999999999999998e+000	 1.010837949980918e+001
0	 5.199979999988399e+000	 7.066659999995867e+000	 1.010408788372232e+001
0	 5.199979999988399e+000	 7.133319999991933e+000	 1.009988155820887e+001
0	 5.199979999988400e+000	 7.199979999988400e+000	 1.009575905097255e+001
0	 5.199979999988399e+000	 7.266639999985465e+000	 1.009171888971708e+001
0	 5.199979999988399e+000	 7.333299999983332e+000	 1.008775960214618e+001
0	 5.266639999985466e+000	 6.666700000016667e+000	 1.013101402305831e+001
0	 5.266639999985465e+000	 6.733360000014532e+000	 1.012632857064914e+001
0	 5.266639999985467e+000	 6.800020000011600e+000	 1.012173096068838e+001
0	 5.266639999985466e+000	 6.866680000008068e+000	 1.011721957828780e+001
0	 5.266639999985466e+000	 6.933340000004134e+000	 1.011279280855915e+001
0	 5.266639999985466e+000	 7.000000000000000e+000	 1.010844903661414e+001
0	 5.266639999985467e+000	 7.066659999995866e+000	 1.010418664756453e+001
0	 5.266639999985466e+000	 7.133319999991934e+000	 1.010000402652203e+001
0	 5.266639999985467e+000	 7.199979999988402e+000	 1.009589955859840e+001
0	 5.266639999985466e+000	 7.266639999985467e+000	 1.009187162890535e+001
0	 5.266639999985465e+000	 7.333299999983333e+000	 1.008791862255460e+001
0	 5.333299999983334e+000	 6.666700000016665e+000	 1.013071830817851e+001
0	 5.333299999983335e+000	 6.733360000014533e+000	 1.012608795088526e+001
0	 5.333299999983335e+000	 6.800020000011599e+000	 1.012154124173338e+001
0	 5.333299999983333e+000	 6.866680000008065e+000	 1.011707641388938e+001
0	 5.333299999983336e+000	 6.933340000004135e+000	 1.011269170051977e+001
0	 5.333299999983333e+000	 6.999999999999998e+000	 1.010838533479103e+001
0	 5.333299999983335e+000	 7.066659999995868e+000	 1.010415554986968e+001
0	 5.333299999983334e+000	 7.133319999991935e+000	 1.010000057892219e+001
0	 5.333299999983335e+000	 7.199979999988400e+000	 1.009591865511507e+001
0	 5.333299999983336e+000	 7.266639999985467e+000	 1.009190801161482e+001
0	 5.333299999983334e+000	 7.333299999983334e+000	 1.008796688158791e+001
0	 4.666700000016665e+000	 7.333299999983333e+000	 1.008200840281995e+001
0	 4.666700000016665e+000	 7.399969999982149e+000	 1.007827790647507e+001
0	 4.666700000016666e+000	 7.466639999981866e+000	 1.007463463933180e+001
0	 4.666700000016665e+000	 7.533309999982382e+000	 1.007107792214706e+001
0	 4.666700000016666e+000	 7.599979999983599e+000	 1.006760707567777e+001
0	 4.666700000016667e+000	 7.666649999985417e+000	 1.006422142068083e+001
0	 4.666700000016667e+000	 7.733319999987733e+000	 1.006092027791315e+001
0	 4.666700000016665e+000	 7.799989999990450e+000	 1.005770296813163e+001
0	 4.666700000016665e+000	 7.866659999993466e+000	 1.005456881209320e+001
0	 4.666700000016666e+000	 7.933329999996682e+000	 1.005151713055475e+001
0	 4.666700000016665e+000	 7.999999999999998e+000	 1.004854724427323e+001
0	 4.733360000014534e+000	 7.333299999983334e+000	 1.008320100219574e+001
0	 4.733360000014534e+000	 7.399969999982149e+000	 1.007943851042279e+001
0	 4.733360000014534e+000	 7.466639999981867e+000	 1.007576276473815e+001
0	 4.733360000014533e+000	 7.533309999982382e+000	 1.007217287685480e+001
0	 4.733360000014534e+000	 7.599979999983600e+000	 1.006866795848567e+001
0	 4.733360000014534e+000	 7.666649999985416e+000	 1.006524712134377e+001
0	 4.733360000014534e+000	 7.733319999987734e+000	 1.006190947714204e+001
0	 4.733360000014532e+000	 7.799989999990450e+000	 1.005865413759347e+001
0	 4.733360000014533e+000	 7.866659999993467e+000	 1.005548021441103e+001
0	 4.733360000014532e+000	 7.933329999996682e+000	 1.005238681930772e+001
0	 4.733360000014533e+000	 8.000000000000000e+000	 1.004937306399648e+001
0	 4.800020000011600e+000	 7.333299999983334e+000	 1.008425006509275e+001
0	 4.800020000011601e+000	 7.399969999982149e+000	 1.008045896280558e+001
0	 4.800020000011600e+000	 7.466639999981866e+000	 1.007675443122408e+001
0	 4.800020000011601e+000	 7.533309999982384e+000	 1.007313538767388e+001
0	 4.800020000011599e+000	 7.599979999983602e+000	 1.006960074948054e+001
0	 4.800020000011599e+000	 7.666649999985416e+000	 1.006614943396967e+001
0	 4.800020000011600e+000	 7.733319999987733e+000	 1.006278035846684e+001
0	 4.800020000011601e+000	 7.799989999990450e+000	 1.005949244029764e+001
0	 4.800020000011600e+000	 7.866659999993466e+000	 1.005628459678771e+001
0	 4.800020000011601e+000	 7.933329999996683e+000	 1.005315574526260e+001
0	 4.800020000011601e+000	 8.000000000000002e+000	 1.005010480304792e+001
0	 4.866680000008069e+000	 7.333299999983334e+000	 1.008515968839893e+001
0	 4.866680000008065e+000	 7.399969999982149e+000	 1.008134364887031e+001
0	 4.866680000008067e+000	 7.466639999981865e+000	 1.007761423232141e+001
0	 4.866680000008067e+000	 7.533309999982384e+000	 1.007397017634700e+001
0	 4.866680000008066e+000	 7.599979999983600e+000	 1.007041021854184e+001
0	 4.866680000008067e+000	 7.666649999985417e+000	 1.006693309650071e+001
0	 4.866680000008068e+000	 7.733319999987733e+000	 1.006353754781838e+001
0	 4.866680000008066e+000	 7.799989999990448e+000	 1.006022231008960e+001
0	 4.866680000008066e+000	 7.866659999993466e+000	 1.005698612090917e+001
0	 4.866680000008067e+000	 7.933329999996682e+000	 1.005382771787185e+001
0	 4.866680000008066e+000	 8.000000000000000e+000	 1.005074583857243e+001
0	 4.933340000004134e+000	 7.333299999983335e+000	 1.008593396900226e+001
0	 4.933340000004133e+000	 7.399969999982149e+000	 1.008209695386396e+001
0	 4.933340000004133e+000	 7.466639999981867e+000	 1.007834676156199e+001
0	 4.933340000004134e+000	 7.533309999982383e+000	 1.007468196461684e+001
0	 4.933340000004135e+000	 7.599979999983601e+000	 1.007110113554904e+001
0	 4.933340000004134e+000	 7.666649999985417e+000	 1.006760284687909e+001
0	 4.933340000004134e+000	 7.733319999987733e+000	 1.006418567112748e+001
0	 4.933340000004134e+000	 7.799989999990447e+000	 1.006084818081475e+001
0	 4.933340000004133e+000	 7.866659999993469e+000	 1.005758894846139e+001
0	 4.933340000004135e+000	 7.933329999996683e+000	 1.005440654658790e+001
0	 4.933340000004134e+000	 7.999999999999999e+000	 1.005129954771480e+001
0	 5.000000000000000e+000	 7.333299999983335e+000	 1.008657700379069e+001
0	 5.000000000000001e+000	 7.399969999982150e+000	 1.008272326303342e+001
0	 5.000000000000000e+000	 7.466639999981868e+000	 1.007895661247762e+001
0	 5.000000000000000e+000	 7.533309999982383e+000	 1.007527547422608e+001
0	 5.000000000000000e+000	 7.599979999983600e+000	 1.007167827038159e+001
0	 4.999999999999999e+000	 7.666649999985415e+000	 1.006816342304697e+001
0	 5.000000000000001e+000	 7.733319999987733e+000	 1.006472935432502e+001
0	 5.000000000000000e+000	 7.799989999990450e+000	 1.006137448631853e+001
0	 5.000000000000002e+000	 7.866659999993467e+000	 1.005809724113030e+001
0	 5.000000000000001e+000	 7.933329999996683e+000	 1.005489604086316e+001
0	 5.000000000000001e+000	 8.000000000000000e+000	 1.005176930761989e+001
0	 5.066659999995866e+000	 7.333299999983335e+000	 1.008709288965218e+001
0	 5.066659999995867e+000	 7.399969999982150e+000	 1.008322696162565e+001
0	 5.066659999995867e+000	 7.466639999981866e+000	 1.007944837860018e+001
0	 5.066659999995865e+000	 7.533309999982383e+000	 1.007575542691740e+001
0	 5.066659999995868e+000	 7.599979999983601e+000	 1.007214639291898e+001
0	 5.066659999995867e+000	 7.666649999985416e+000	 1.006861956294656e+001
0	 5.066659999995867e+000	 7.733319999987733e+000	 1.006517322334181e+001
0	 5.066659999995869e+000	 7.799989999990449e+000	 1.006180566044638e+001
0	 5.066659999995867e+000	 7.866659999993466e+000	 1.005851516060191e+001
0	 5.066659999995867e+000	 7.933329999996684e+000	 1.005530001015008e+001
0	 5.066659999995867e+000	 8.000000000000000e+000	 1.005215849543253e+001
0	 5.133319999991932e+000	 7.333299999983334e+000	 1.008748572347468e+001
0	 5.133319999991933e+000	 7.399969999982151e+000	 1.008361243488757e+001
0	 5.133319999991933e+000	 7.466639999981866e+000	 1.007982665346148e+001
0	 5.133319999991933e+000	 7.533309999982384e+000	 1.007612654443349e+001
0	 5.133319999991933e+000	 7.599979999983600e+000	 1.007251027304064e+001
0	 5.133319999991934e+000	 7.666649999985417e+000	 1.006897600452001e+001
0	 5.133319999991933e+000	 7.733319999987732e+000	 1.006552190410868e+001
0	 5.133319999991934e+000	 7.799989999990449e+000	 1.006214613704371e+001
0	 5.133319999991933e+000	 7.866659999993467e+000	 1.005884686856214e+001
0	 5.133319999991933e+000	 7.933329999996683e+000	 1.005562226390107e+001
0	 5.133319999991933e+000	 8.000000000000000e+000	 1.005247048829756e+001
0	 5.199979999988399e+000	 7.333299999983332e+000	 1.008775960214618e+001
0	 5.199979999988399e+000	 7.399969999982150e+000	 1.008388406806611e+001
0	 5.199979999988400e+000	 7.466639999981866e+000	 1.008009603059337e+001
0	 5.199979999988400e+000	 7.533309999982384e+000	 1.007639354851699e+001
0	 5.199979999988399e+000	 7.599979999983598e+000	 1.007277468062604e+001
0	 5.199979999988400e+000	 7.666649999985417e+000	 1.006923748570952e+001
0	 5.199979999988400e+000	 7.733319999987733e+000	 1.006578002255648e+001
0	 5.199979999988399e+000	 7.799989999990448e+000	 1.006240034995594e+001
0	 5.199979999988400e+000	 7.866659999993468e+000	 1.005909652669697e+001
0	 5.199979999988400e+000	 7.933329999996683e+000	 1.005586661156857e+001
0	 5.199979999988399e+000	 7.999999999999999e+000	 1.005270866335980e+001
0	 5.266639999985465e+000	 7.333299999983333e+000	 1.008791862255460e+001
0	 5.266639999985466e+000	 7.399969999982149e+000	 1.008404624640818e+001
0	 5.266639999985466e+000	 7.466639999981866e+000	 1.008026110352766e+001
0	 5.266639999985465e+000	 7.533309999982383e+000	 1.007656116091064e+001
0	 5.266639999985466e+000	 7.599979999983600e+000	 1.007294438555465e+001
0	 5.266639999985466e+000	 7.666649999985416e+000	 1.006940874445725e+001
0	 5.266639999985467e+000	 7.733319999987731e+000	 1.006595220461604e+001
0	 5.266639999985466e+000	 7.799989999990449e+000	 1.006257273302855e+001
0	 5.266639999985466e+000	 7.866659999993467e+000	 1.005926829669234e+001
0	 5.266639999985467e+000	 7.933329999996684e+000	 1.005603686260501e+001
0	 5.266639999985466e+000	 8.000000000000000e+000	 1.005287639776408e+001
0	 5.333299999983334e+000	 7.333299999983334e+000	 1.008796688158791e+001
0	 5.333299999983332e+000	 7.399969999982149e+000	 1.008410335516071e+001
0	 5.333299999983333e+000	 7.466639999981864e+000	 1.008032646579621e+001
0	 5.333299999983333e+000	 7.533309999982383e+000	 1.007663410335706e+001
0	 5.333299999983335e+000	 7.599979999983600e+000	 1.007302415770591e+001
0	 5.333299999983334e+000	 7.666649999985416e+000	 1.006949451870540e+001
0	 5.333299999983334e+000	 7.733319999987733e+000	 1.006604307621819e+001
0	 5.333299999983334e+000	 7.799989999990449e+000	 1.006266772010692e+001
0	 5.333299999983333e+000	 7.866659999993466e+000	 1.005936634023424e+001
0	 5.333299999983335e+000	 7.933329999996684e+000	 1.005613682646280e+001
0	 5.333299999983334e+000	 8.000000000000000e+000	 1.005297706865523e+001
0	 4.666700000016665e+000	 7.999999999999998e+000	 1.004854724427323e+001
0	 4.666700000016665e+000	 8.066670000003317e+000	 1.004566278708392e+001
0	 4.666700000016666e+000	 8.133340000006532e+000	 1.004286647151236e+001
0	 4.666700000016666e+000	 8.200010000009549e+000	 1.004015623635080e+001
0	 4.666700000016666e+000	 8.266680000012268e+000	 1.003753002039154e+001
0	 4.666700000016667e+000	 8.333350000014585e+000	 1.003498576242686e+001
0	 4.666700000016666e+000	 8.400020000016399e+000	 1.003252140124903e+001
0	 4.666700000016666e+000	 8.466690000017616e+000	 1.003013487565034e+001
0	 4.666700000016666e+000	 8.533360000018133e+000	 1.002782412442310e+001
0	 4.666700000016667e+000	 8.600030000017853e+000	 1.002558708635953e+001
0	 4.666700000016665e+000	 8.666700000016666e+000	 1.002342170025197e+001
0	 4.733360000014533e+000	 8.000000000000000e+000	 1.004937306399648e+001
0	 4.733360000014532e+000	 8.066670000003317e+000	 1.004644401520597e+001
0	 4.733360000014532e+000	 8.133340000006532e+000	 1.004360392352589e+001
0	 4.733360000014533e+000	 8.200010000009552e+000	 1.004085067646079e+001
0	 4.733360000014534e+000	 8.266680000012268e+000	 1.003818216151524e+001
0	 4.733360000014533e+000	 8.333350000014582e+000	 1.003559626619376e+001
0	 4.733360000014534e+000	 8.400020000016403e+000	 1.003309087800093e+001
0	 4.733360000014533e+000	 8.466690000017618e+000	 1.003066388444127e+001
0	 4.733360000014533e+000	 8.533360000018133e+000	 1.002831317301939e+001
0	 4.733360000014534e+000	 8.600030000017853e+000	 1.002603663123981e+001
0	 4.733360000014534e+000	 8.666700000016665e+000	 1.002383214660711e+001
0	 4.800020000011601e+000	 8.000000000000002e+000	 1.005010480304792e+001
0	 4.800020000011598e+000	 8.066670000003315e+000	 1.004713791303460e+001
0	 4.800020000011598e+000	 8.133340000006532e+000	 1.004426049626611e+001
0	 4.800020000011601e+000	 8.200010000009552e+000	 1.004147038729705e+001
0	 4.800020000011600e+000	 8.266680000012265e+000	 1.003876542068196e+001
0	 4.800020000011601e+000	 8.333350000014585e+000	 1.003614343097540e+001
0	 4.800020000011599e+000	 8.400020000016397e+000	 1.003360225273191e+001
0	 4.800020000011600e+000	 8.466690000017618e+000	 1.003113972050605e+001
0	 4.800020000011600e+000	 8.533360000018135e+000	 1.002875366885238e+001
0	 4.800020000011601e+000	 8.600030000017851e+000	 1.002644193232548e+001
0	 4.800020000011600e+000	 8.666700000016668e+000	 1.002420234547988e+001
0	 4.866680000008066e+000	 8.000000000000000e+000	 1.005074583857243e+001
0	 4.866680000008067e+000	 8.066670000003320e+000	 1.004774740462456e+001
0	 4.866680000008066e+000	 8.133340000006532e+000	 1.004483869920696e+001
0	 4.866680000008066e+000	 8.200010000009547e+000	 1.004201750226187e+001
0	 4.866680000008067e+000	 8.266680000012265e+000	 1.003928159373159e+001
0	 4.866680000008066e+000	 8.333350000014585e+000	 1.003662875355841e+001
0	 4.866680000008066e+000	 8.400020000016401e+000	 1.003405676168458e+001
0	 4.866680000008069e+000	 8.466690000017620e+000	 1.003156339805240e+001
0	 4.866680000008067e+000	 8.533360000018133e+000	 1.002914644260415e+001
0	 4.866680000008065e+000	 8.600030000017851e+000	 1.002680367528212e+001
0	 4.866680000008067e+000	 8.666700000016663e+000	 1.002453287602860e+001
0	 4.933340000004134e+000	 7.999999999999999e+000	 1.005129954771480e+001
0	 4.933340000004135e+000	 8.066670000003319e+000	 1.004827541403072e+001
0	 4.933340000004133e+000	 8.133340000006534e+000	 1.004534104182241e+001
0	 4.933340000004135e+000	 8.200010000009550e+000	 1.004249415475760e+001
0	 4.933340000004134e+000	 8.266680000012267e+000	 1.003973247650404e+001
0	 4.933340000004135e+000	 8.333350000014585e+000	 1.003705373072942e+001
0	 4.933340000004132e+000	 8.400020000016399e+000	 1.003445564110152e+001
0	 4.933340000004135e+000	 8.466690000017618e+000	 1.003193593128803e+001
0	 4.933340000004134e+000	 8.533360000018133e+000	 1.002949232495672e+001
0	 4.933340000004133e+000	 8.600030000017851e+000	 1.002712254577533e+001
0	 4.933340000004134e+000	 8.666700000016668e+000	 1.002482431741157e+001
0	 5.000000000000001e+000	 8.000000000000000e+000	 1.005176930761989e+001
0	 5.000000000000001e+000	 8.066670000003319e+000	 1.004872486530786e+001
0	 5.000000000000001e+000	 8.133340000006532e+000	 1.004577003358645e+001
0	 5.000000000000001e+000	 8.200010000009552e+000	 1.004290247818658e+001
0	 5.000000000000001e+000	 8.266680000012267e+000	 1.004011986483917e+001
0	 5.000000000000000e+000	 8.333350000014582e+000	 1.003741985927513e+001
0	 5.000000000000002e+000	 8.400020000016403e+000	 1.003480012722532e+001
0	 5.000000000000000e+000	 8.466690000017616e+000	 1.003225833442071e+001
0	 4.999999999999999e+000	 8.533360000018131e+000	 1.002979214659219e+001
0	 4.999999999999999e+000	 8.600030000017847e+000	 1.002739922947070e+001
0	 4.999999999999999e+000	 8.666700000016665e+000	 1.002507724878713e+001
0	 5.066659999995867e+000	 8.000000000000000e+000	 1.005215849543253e+001
0	 5.066659999995866e+000	 8.066670000003319e+000	 1.004909868251078e+001
0	 5.066659999995867e+000	 8.133340000006532e+000	 1.004612818397303e+001
0	 5.066659999995868e+000	 8.200010000009552e+000	 1.004324460595113e+001
0	 5.066659999995866e+000	 8.266680000012268e+000	 1.004044555457687e+001
0	 5.066659999995865e+000	 8.333350000014585e+000	 1.003772863598207e+001
0	 5.066659999995867e+000	 8.400020000016401e+000	 1.003509145629855e+001
0	 5.066659999995866e+000	 8.466690000017618e+000	 1.003253162165813e+001
0	 5.066659999995867e+000	 8.533360000018133e+000	 1.003004673819261e+001
0	 5.066659999995866e+000	 8.600030000017849e+000	 1.002763441203381e+001
0	 5.066659999995866e+000	 8.666700000016666e+000	 1.002529224931356e+001
0	 5.133319999991933e+000	 8.000000000000000e+000	 1.005247048829756e+001
0	 5.133319999991933e+000	 8.066670000003317e+000	 1.004939978969428e+001
0	 5.133319999991933e+000	 8.133340000006534e+000	 1.004641800245614e+001
0	 5.133319999991933e+000	 8.200010000009550e+000	 1.004352267145358e+001
0	 5.133319999991934e+000	 8.266680000012267e+000	 1.004071134155705e+001
0	 5.133319999991933e+000	 8.333350000014583e+000	 1.003798155763697e+001
0	 5.133319999991935e+000	 8.400020000016403e+000	 1.003533086456381e+001
0	 5.133319999991933e+000	 8.466690000017618e+000	 1.003275680720802e+001
0	 5.133319999991932e+000	 8.533360000018131e+000	 1.003025693044001e+001
0	 5.133319999991934e+000	 8.600030000017853e+000	 1.002782877913025e+001
0	 5.133319999991932e+000	 8.666700000016668e+000	 1.002546989814921e+001
0	 5.199979999988399e+000	 7.999999999999999e+000	 1.005270866335980e+001
0	 5.199979999988400e+000	 8.066670000003315e+000	 1.004963111091318e+001
0	 5.199979999988400e+000	 8.133340000006532e+000	 1.004664199850974e+001
0	 5.199979999988399e+000	 8.200010000009552e+000	 1.004373880809627e+001
0	 5.199979999988399e+000	 8.266680000012268e+000	 1.004091902161957e+001
0	 5.199979999988400e+000	 8.333350000014585e+000	 1.003818012102644e+001
0	 5.199979999988399e+000	 8.400020000016401e+000	 1.003551958826368e+001
0	 5.199979999988399e+000	 8.466690000017616e+000	 1.003293490527809e+001
0	 5.199979999988400e+000	 8.533360000018131e+000	 1.003042355401646e+001
0	 5.199979999988399e+000	 8.600030000017849e+000	 1.002798301642562e+001
0	 5.199979999988400e+000	 8.666700000016665e+000	 1.002561077445235e+001
0	 5.266639999985466e+000	 8.000000000000000e+000	 1.005287639776408e+001
0	 5.266639999985466e+000	 8.066670000003319e+000	 1.004979557022227e+001
0	 5.266639999985466e+000	 8.133340000006532e+000	 1.004680268160780e+001
0	 5.266639999985465e+000	 8.200010000009552e+000	 1.004389514928153e+001
0	 5.266639999985467e+000	 8.266680000012270e+000	 1.004107039060433e+001
0	 5.266639999985466e+000	 8.333350000014583e+000	 1.003832582293711e+001
0	 5.266639999985466e+000	 8.400020000016401e+000	 1.003565886364072e+001
0	 5.266639999985466e+000	 8.466690000017618e+000	 1.003306693007607e+001
0	 5.266639999985467e+000	 8.533360000018133e+000	 1.003054743960402e+001
0	 5.266639999985466e+000	 8.600030000017849e+000	 1.002809780958547e+001
0	 5.266639999985465e+000	 8.666700000016665e+000	 1.002571545738132e+001
0	 5.333299999983334e+000	 8.000000000000000e+000	 1.005297706865523e+001
0	 5.333299999983333e+000	 8.066670000003317e+000	 1.004989609167635e+001
0	 5.333299999983333e+000	 8.133340000006532e+000	 1.004690256122427e+001
0	 5.333299999983335e+000	 8.200010000009550e+000	 1.004399382841165e+001
0	 5.333299999983336e+000	 8.266680000012268e+000	 1.004116724435122e+001
0	 5.333299999983334e+000	 8.333350000014585e+000	 1.003842016015560e+001
0	 5.333299999983333e+000	 8.400020000016399e+000	 1.003574992693752e+001
0	 5.333299999983332e+000	 8.466690000017616e+000	 1.003315389580966e+001
0	 5.333299999983334e+000	 8.533360000018135e+000	 1.003062941788474e+001
0	 5.333299999983335e+000	 8.600030000017851e+000	 1.002817384427542e+001
0	 5.333299999983334e+000	 8.666700000016666e+000	 1.002578452609439e+001
0	 4.666700000016665e+000	 8.666700000016666e+000	 1.002342170025197e+001
0	 4.666700000016665e+000	 8.733360002791901e+000	 1.002134209869784e+001
0	 4.666700000016665e+000	 8.800020022230555e+000	 1.001936064234370e+001
0	 4.666700000016666e+000	 8.866680074997040e+000	 1.001747357041515e+001
0	 4.666700000016666e+000	 8.933340177755778e+000	 1.001567712186626e+001
0	 4.666700000016666e+000	 9.000000347171181e+000	 1.001396753537955e+001
0	 4.666700000016667e+000	 9.066660599907669e+000	 1.001234104936594e+001
0	 4.666700000016666e+000	 9.133320952629655e+000	 1.001079390196489e+001
0	 4.666700000016666e+000	 9.199981422001557e+000	 1.000932233104423e+001
0	 4.666700000016667e+000	 9.266642024687798e+000	 1.000792257420021e+001
0	 4.666700000016665e+000	 9.333302777352781e+000	 1.000659086875760e+001
0	 4.733360000014534e+000	 8.666700000016665e+000	 1.002383214660711e+001
0	 4.733360000014534e+000	 8.733360002791903e+000	 1.002171476118642e+001
0	 4.733360000014533e+000	 8.800020022230553e+000	 1.001969766470304e+001
0	 4.733360000014534e+000	 8.866680074997042e+000	 1.001777694201727e+001
0	 4.733360000014534e+000	 8.933340177755778e+000	 1.001594867771250e+001
0	 4.733360000014532e+000	 9.000000347171181e+000	 1.001420895609512e+001
0	 4.733360000014533e+000	 9.066660599907667e+000	 1.001255386119454e+001
0	 4.733360000014534e+000	 9.133320952629655e+000	 1.001097947676322e+001
0	 4.733360000014533e+000	 9.199981422001558e+000	 1.000948188627658e+001
0	 4.733360000014534e+000	 9.266642024687798e+000	 1.000805717293310e+001
0	 4.733360000014534e+000	 9.333302777352785e+000	 1.000670141965426e+001
0	 4.800020000011600e+000	 8.666700000016668e+000	 1.002420234547988e+001
0	 4.800020000011601e+000	 8.733360002791903e+000	 1.002205091224873e+001
0	 4.800020000011601e+000	 8.800020022230557e+000	 1.002000171597425e+001
0	 4.800020000011601e+000	 8.866680074997042e+000	 1.001805070196869e+001
0	 4.800020000011601e+000	 8.933340177755781e+000	 1.001619381526247e+001
0	 4.800020000011601e+000	 9.000000347171183e+000	 1.001442700060399e+001
0	 4.800020000011600e+000	 9.066660599907667e+000	 1.001274620245977e+001
0	 4.800020000011601e+000	 9.133320952629655e+000	 1.001114736501437e+001
0	 4.800020000011601e+000	 9.199981422001558e+000	 1.000962643217040e+001
0	 4.800020000011600e+000	 9.266642024687796e+000	 1.000817934754857e+001
0	 4.800020000011601e+000	 9.333302777352783e+000	 1.000680205448757e+001
0	 4.866680000008067e+000	 8.666700000016663e+000	 1.002453287602860e+001
0	 4.866680000008065e+000	 8.733360002791903e+000	 1.002235104500161e+001
0	 4.866680000008068e+000	 8.800020022230555e+000	 1.002027320562886e+001
0	 4.866680000008066e+000	 8.866680074997040e+000	 1.001829517849189e+001
0	 4.866680000008066e+000	 8.933340177755779e+000	 1.001641278388588e+001
0	 4.866680000008067e+000	 9.000000347171183e+000	 1.001462184181949e+001
0	 4.866680000008068e+000	 9.066660599907669e+000	 1.001291817201502e+001
0	 4.866680000008068e+000	 9.133320952629656e+000	 1.001129759390828e+001
0	 4.866680000008067e+000	 9.199981422001558e+000	 1.000975592664871e+001
0	 4.866680000008066e+000	 9.266642024687796e+000	 1.000828898909916e+001
0	 4.866680000008067e+000	 9.333302777352781e+000	 1.000689259983623e+001
0	 4.933340000004134e+000	 8.666700000016668e+000	 1.002482431741157e+001
0	 4.933340000004135e+000	 8.733360002791905e+000	 1.002261565256181e+001
0	 4.933340000004133e+000	 8.800020022230559e+000	 1.002051254313833e+001
0	 4.933340000004134e+000	 8.866680074997044e+000	 1.001851069980930e+001
0	 4.933340000004133e+000	 8.933340177755776e+000	 1.001660583295244e+001
0	 4.933340000004134e+000	 9.000000347171181e+000	 1.001479365265499e+001
0	 4.933340000004131e+000	 9.066660599907666e+000	 1.001306986871371e+001
0	 4.933340000004132e+000	 9.133320952629653e+000	 1.001143019063491e+001
0	 4.933340000004131e+000	 9.199981422001557e+000	 1.000987032763437e+001
0	 4.933340000004134e+000	 9.266642024687796e+000	 1.000838598863745e+001
0	 4.933340000004134e+000	 9.333302777352783e+000	 1.000697288227898e+001
0	 4.999999999999999e+000	 8.666700000016665e+000	 1.002507724878713e+001
0	 5.000000000000001e+000	 8.733360002791901e+000	 1.002284522804615e+001
0	 5.000000000000001e+000	 8.800020022230555e+000	 1.002072013797417e+001
0	 5.000000000000002e+000	 8.866680074997042e+000	 1.001869759414334e+001
0	 5.000000000000000e+000	 8.933340177755776e+000	 1.001677321183186e+001
0	 4.999999999999999e+000	 9.000000347171181e+000	 1.001494260602383e+001
0	 5.000000000000001e+000	 9.066660599907666e+000	 1.001320139140927e+001
0	 5.000000000000001e+000	 9.133320952629656e+000	 1.001154518238416e+001
0	 5.000000000000001e+000	 9.199981422001558e+000	 1.000996959305046e+001
0	 5.000000000000001e+000	 9.266642024687794e+000	 1.000847023721597e+001
0	 5.000000000000000e+000	 9.333302777352783e+000	 1.000704272839445e+001
0	 5.066659999995866e+000	 8.666700000016666e+000	 1.002529224931356e+001
0	 5.066659999995867e+000	 8.733360002791903e+000	 1.002304026457146e+001
0	 5.066659999995868e+000	 8.800020022230557e+000	 1.002089639960786e+001
0	 5.066659999995868e+000	 8.866680074997040e+000	 1.001885618971649e+001
0	 5.066659999995866e+000	 8.933340177755779e+000	 1.001691516989388e+001
0	 5.066659999995865e+000	 9.000000347171179e+000	 1.001506887483936e+001
0	 5.066659999995866e+000	 9.066660599907666e+000	 1.001331283895510e+001
0	 5.066659999995866e+000	 9.133320952629655e+000	 1.001164259634603e+001
0	 5.066659999995867e+000	 9.199981422001558e+000	 1.001005368081989e+001
0	 5.066659999995867e+000	 9.266642024687796e+000	 1.000854162588724e+001
0	 5.066659999995866e+000	 9.333302777352785e+000	 1.000710196476143e+001
0	 5.133319999991932e+000	 8.666700000016668e+000	 1.002546989814921e+001
0	 5.133319999991934e+000	 8.733360002791903e+000	 1.002320125525450e+001
0	 5.133319999991934e+000	 8.800020022230557e+000	 1.002104173751091e+001
0	 5.133319999991933e+000	 8.866680074997040e+000	 1.001898681475117e+001
0	 5.133319999991933e+000	 8.933340177755778e+000	 1.001703195650817e+001
0	 5.133319999991935e+000	 9.000000347171181e+000	 1.001517263201495e+001
0	 5.133319999991933e+000	 9.066660599907667e+000	 1.001340431020459e+001
0	 5.133319999991934e+000	 9.133320952629656e+000	 1.001172245971038e+001
0	 5.133319999991931e+000	 9.199981422001555e+000	 1.001012254886564e+001
0	 5.133319999991933e+000	 9.266642024687794e+000	 1.000860004570387e+001
0	 5.133319999991933e+000	 9.333302777352785e+000	 1.000715041795860e+001
0	 5.199979999988400e+000	 8.666700000016665e+000	 1.002561077445235e+001
0	 5.199979999988400e+000	 8.733360002791905e+000	 1.002332869321210e+001
0	 5.199979999988400e+000	 8.800020022230555e+000	 1.002115656115480e+001
0	 5.199979999988400e+000	 8.866680074997042e+000	 1.001908979746981e+001
0	 5.199979999988399e+000	 8.933340177755778e+000	 1.001712382104446e+001
0	 5.199979999988400e+000	 9.000000347171183e+000	 1.001525405046391e+001
0	 5.199979999988399e+000	 9.066660599907667e+000	 1.001347590401119e+001
0	 5.199979999988399e+000	 9.133320952629653e+000	 1.001178479966717e+001
0	 5.199979999988400e+000	 9.199981422001560e+000	 1.001017615511069e+001
0	 5.199979999988399e+000	 9.266642024687794e+000	 1.000864538771834e+001
0	 5.199979999988399e+000	 9.333302777352783e+000	 1.000718791456465e+001
0	 5.266639999985465e+000	 8.666700000016665e+000	 1.002571545738132e+001
0	 5.266639999985465e+000	 8.733360002791901e+000	 1.002342307156104e+001
0	 5.266639999985467e+000	 8.800020022230555e+000	 1.002124128001100e+001
0	 5.266639999985465e+000	 8.866680074997042e+000	 1.001916546609490e+001
0	 5.266639999985465e+000	 8.933340177755778e+000	 1.001719101287248e+001
0	 5.266639999985466e+000	 9.000000347171183e+000	 1.001531330309961e+001
0	 5.266639999985465e+000	 9.066660599907667e+000	 1.001352771922825e+001
0	 5.266639999985466e+000	 9.133320952629656e+000	 1.001182964340637e+001
0	 5.266639999985466e+000	 9.199981422001558e+000	 1.001021445747797e+001
0	 5.266639999985466e+000	 9.266642024687796e+000	 1.000867754298323e+001
0	 5.266639999985466e+000	 9.333302777352781e+000	 1.000721428115829e+001
0	 5.333299999983334e+000	 8.666700000016666e+000	 1.002578452609439e+001
0	 5.333299999983334e+000	 8.733360002791903e+000	 1.002348488341811e+001
0	 5.333299999983332e+000	 8.800020022230553e+000	 1.002129630355102e+001
0	 5.333299999983335e+000	 8.866680074997040e+000	 1.001921414884880e+001
0	 5.333299999983334e+000	 8.933340177755779e+000	 1.001723378136189e+001
0	 5.333299999983332e+000	 9.000000347171179e+000	 1.001535056283542e+001
0	 5.333299999983335e+000	 9.066660599907667e+000	 1.001355985470925e+001
0	 5.333299999983334e+000	 9.133320952629655e+000	 1.001185701811784e+001
0	 5.333299999983334e+000	 9.199981422001560e+000	 1.001023741389048e+001
0	 5.333299999983335e+000	 9.266642024687798e+000	 1.000869640255107e+001
0	 5.333299999983335e+000	 9.333302777352785e+000	 1.000722934431822e+001
0	 4.666700000016665e+000	 9.333302777352781e+000	 1.000659086875760e+001
0	 4.666700000016666e+000	 9.399973674588177e+000	 1.000536546038005e+001
0	 4.666700000016667e+000	 9.466644621844621e+000	 1.000428243448744e+001
0	 4.666700000016667e+000	 9.533315502450000e+000	 1.000333420535689e+001
0	 4.666700000016666e+000	 9.599986199732197e+000	 1.000251319006614e+001
0	 4.666700000016666e+000	 9.666656597019095e+000	 1.000181180849334e+001
0	 4.666700000016666e+000	 9.733326577638573e+000	 1.000122248331686e+001
0	 4.666700000016665e+000	 9.799996024918521e+000	 1.000073764001547e+001
0	 4.666700000016666e+000	 9.866664822186822e+000	 1.000034970686814e+001
0	 4.666700000016666e+000	 9.933332852771352e+000	 1.000005111495429e+001
0	 4.666700000016666e+000	 1.000000000000000e+001	 9.999834298153965e+000
0	 4.733360000014534e+000	 9.333302777352785e+000	 1.000670141965426e+001
0	 4.733360000014533e+000	 9.399973674588173e+000	 1.000545345976836e+001
0	 4.733360000014533e+000	 9.466644621844621e+000	 1.000435010966030e+001
0	 4.733360000014532e+000	 9.533315502450000e+000	 1.000338383354893e+001
0	 4.733360000014533e+000	 9.599986199732197e+000	 1.000254709850660e+001
0	 4.733360000014534e+000	 9.666656597019095e+000	 1.000183237445904e+001
0	 4.733360000014534e+000	 9.733326577638577e+000	 1.000123213418519e+001
0	 4.733360000014533e+000	 9.799996024918524e+000	 1.000073885331718e+001
0	 4.733360000014533e+000	 9.866664822186822e+000	 1.000034501034052e+001
0	 4.733360000014534e+000	 9.933332852771356e+000	 1.000004308659404e+001
0	 4.733360000014534e+000	 1.000000000000000e+001	 9.999825566270198e+000
0	 4.800020000011601e+000	 9.333302777352783e+000	 1.000680205448757e+001
0	 4.800020000011600e+000	 9.399973674588173e+000	 1.000553392645483e+001
0	 4.800020000011599e+000	 9.466644621844619e+000	 1.000441245016898e+001
0	 4.800020000011599e+000	 9.533315502450000e+000	 1.000343013606292e+001
0	 4.800020000011600e+000	 9.599986199732195e+000	 1.000257949747144e+001
0	 4.800020000011601e+000	 9.666656597019093e+000	 1.000185305063110e+001
0	 4.800020000011600e+000	 9.733326577638577e+000	 1.000124331468025e+001
0	 4.800020000011601e+000	 9.799996024918523e+000	 1.000074281165871e+001
0	 4.800020000011601e+000	 9.866664822186820e+000	 1.000034406650829e+001
0	 4.800020000011599e+000	 9.933332852771352e+000	 1.000003960707247e+001
0	 4.800020000011600e+000	 1.000000000000000e+001	 9.999821964096926e+000
0	 4.866680000008067e+000	 9.333302777352781e+000	 1.000689259983623e+001
0	 4.866680000008065e+000	 9.399973674588177e+000	 1.000560662239696e+001
0	 4.866680000008066e+000	 9.466644621844619e+000	 1.000446915067714e+001
0	 4.866680000008066e+000	 9.533315502450002e+000	 1.000347273759565e+001
0	 4.866680000008068e+000	 9.599986199732198e+000	 1.000260993901719e+001
0	 4.866680000008067e+000	 9.666656597019093e+000	 1.000187331375218e+001
0	 4.866680000008065e+000	 9.733326577638573e+000	 1.000125542355652e+001
0	 4.866680000008068e+000	 9.799996024918524e+000	 1.000074883313180e+001
0	 4.866680000008066e+000	 9.866664822186824e+000	 1.000034611012513e+001
0	 4.866680000008065e+000	 9.933332852771352e+000	 1.000003982512962e+001
0	 4.866680000008066e+000	 1.000000000000000e+001	 9.999822551684236e+000
0	 4.933340000004134e+000	 9.333302777352783e+000	 1.000697288227897e+001
0	 4.933340000004132e+000	 9.399973674588177e+000	 1.000567130955218e+001
0	 4.933340000004132e+000	 9.466644621844619e+000	 1.000451990584832e+001
0	 4.933340000004132e+000	 9.533315502450002e+000	 1.000351126284390e+001
0	 4.933340000004134e+000	 9.599986199732195e+000	 1.000263797520054e+001
0	 4.933340000004134e+000	 9.666656597019095e+000	 1.000189264056492e+001
0	 4.933340000004133e+000	 9.733326577638575e+000	 1.000126785956855e+001
0	 4.933340000004134e+000	 9.799996024918523e+000	 1.000075623582800e+001
0	 4.933340000004133e+000	 9.866664822186822e+000	 1.000035037594469e+001
0	 4.933340000004134e+000	 9.933332852771354e+000	 1.000004288950534e+001
0	 4.933340000004134e+000	 1.000000000000000e+001	 9.999826389082060e+000
0	 5.000000000000000e+000	 9.333302777352783e+000	 1.000704272839445e+001
0	 5.000000000000001e+000	 9.399973674588180e+000	 1.000572774987802e+001
0	 5.000000000000000e+000	 9.466644621844619e+000	 1.000456441034623e+001
0	 4.999999999999999e+000	 9.533315502450000e+000	 1.000354533650448e+001
0	 5.000000000000001e+000	 9.599986199732198e+000	 1.000266315807806e+001
0	 5.000000000000000e+000	 9.666656597019092e+000	 1.000191050781196e+001
0	 5.000000000000000e+000	 9.733326577638575e+000	 1.000128002147082e+001
0	 5.000000000000000e+000	 9.799996024918523e+000	 1.000076433783901e+001
0	 5.000000000000001e+000	 9.866664822186824e+000	 1.000035609872058e+001
0	 5.000000000000002e+000	 9.933332852771352e+000	 1.000004794893967e+001
0	 5.000000000000000e+000	 1.000000000000000e+001	 9.999832536340451e+000
0	 5.066659999995866e+000	 9.333302777352785e+000	 1.000710196476143e+001
0	 5.066659999995867e+000	 9.399973674588178e+000	 1.000577570533193e+001
0	 5.066659999995866e+000	 9.466644621844619e+000	 1.000460235883446e+001
0	 5.066659999995865e+000	 9.533315502449998e+000	 1.000357458327421e+001
0	 5.066659999995866e+000	 9.599986199732197e+000	 1.000268503970638e+001
0	 5.066659999995866e+000	 9.666656597019095e+000	 1.000192639223597e+001
0	 5.066659999995866e+000	 9.733326577638577e+000	 1.000129130801779e+001
0	 5.066659999995867e+000	 9.799996024918524e+000	 1.000077245725649e+001
0	 5.066659999995867e+000	 9.866664822186824e+000	 1.000036251320652e+001
0	 5.066659999995866e+000	 9.933332852771354e+000	 1.000005415217248e+001
0	 5.066659999995866e+000	 1.000000000000000e+001	 9.999840053509375e+000
0	 5.133319999991933e+000	 9.333302777352785e+000	 1.000715041795860e+001
0	 5.133319999991931e+000	 9.399973674588177e+000	 1.000581493787139e+001
0	 5.133319999991932e+000	 9.466644621844619e+000	 1.000463344597660e+001
0	 5.133319999991932e+000	 9.533315502450002e+000	 1.000359862784982e+001
0	 5.133319999991934e+000	 9.599986199732197e+000	 1.000270317214207e+001
0	 5.133319999991933e+000	 9.666656597019095e+000	 1.000193977057960e+001
0	 5.133319999991932e+000	 9.733326577638575e+000	 1.000130111796399e+001
0	 5.133319999991933e+000	 9.799996024918521e+000	 1.000077991217208e+001
0	 5.133319999991934e+000	 9.866664822186822e+000	 1.000036885415608e+001
0	 5.133319999991933e+000	 9.933332852771358e+000	 1.000006064794382e+001
0	 5.133319999991932e+000	 1.000000000000000e+001	 9.999848000638929e+000
0	 5.199979999988399e+000	 9.333302777352783e+000	 1.000718791456465e+001
0	 5.199979999988400e+000	 9.399973674588175e+000	 1.000584520945385e+001
0	 5.199979999988399e+000	 9.466644621844617e+000	 1.000465736643632e+001
0	 5.199979999988400e+000	 9.533315502450002e+000	 1.000361709492819e+001
0	 5.199979999988397e+000	 9.599986199732193e+000	 1.000271710744175e+001
0	 5.199979999988399e+000	 9.666656597019092e+000	 1.000195011958549e+001
0	 5.199979999988400e+000	 9.733326577638573e+000	 1.000130885006388e+001
0	 5.199979999988400e+000	 9.799996024918523e+000	 1.000078602067746e+001
0	 5.199979999988400e+000	 9.866664822186822e+000	 1.000037435632297e+001
0	 5.199979999988400e+000	 9.933332852771354e+000	 1.000006658499356e+001
0	 5.199979999988400e+000	 1.000000000000000e+001	 9.999855437779084e+000
0	 5.266639999985466e+000	 9.333302777352781e+000	 1.000721428115829e+001
0	 5.266639999985467e+000	 9.399973674588178e+000	 1.000586628203682e+001
0	 5.266639999985467e+000	 9.466644621844619e+000	 1.000467381487721e+001
0	 5.266639999985466e+000	 9.533315502450002e+000	 1.000362960920600e+001
0	 5.266639999985467e+000	 9.599986199732197e+000	 1.000272639766204e+001
0	 5.266639999985465e+000	 9.666656597019097e+000	 1.000195691599631e+001
0	 5.266639999985467e+000	 9.733326577638577e+000	 1.000131390307192e+001
0	 5.266639999985466e+000	 9.799996024918524e+000	 1.000079010086428e+001
0	 5.266639999985466e+000	 9.866664822186822e+000	 1.000037825446080e+001
0	 5.266639999985466e+000	 9.933332852771354e+000	 1.000007111206170e+001
0	 5.266639999985466e+000	 1.000000000000000e+001	 9.999861424979889e+000
0	 5.333299999983335e+000	 9.333302777352785e+000	 1.000722934431822e+001
0	 5.333299999983335e+000	 9.399973674588175e+000	 1.000587791757775e+001
0	 5.333299999983333e+000	 9.466644621844619e+000	 1.000468248596287e+001
0	 5.333299999983335e+000	 9.533315502450002e+000	 1.000363579538012e+001
0	 5.333299999983334e+000	 9.599986199732197e+000	 1.000273059485952e+001
0	 5.333299999983335e+000	 9.666656597019097e+000	 1.000195963655469e+001
0	 5.333299999983334e+000	 9.733326577638577e+000	 1.000131567574269e+001
0	 5.333299999983334e+000	 9.799996024918524e+000	 1.000079147082415e+001
0	 5.333299999983334e+000	 9.866664822186822e+000	 1.000037978332326e+001
0	 5.333299999983334e+000	 9.933332852771354e+000	 1.000007337788821e+001
0	 5.333299999983334e+000	 1.000000000000000e+001	 9.999865022291335e+000
0	 5.333299999983334e+000	 0.000000000000000e+000	 1.026099053431530e+001
0	 5.333299999983336e+000	 6.666714722864757e-002	 1.026084969814374e+001
0	 5.333299999983333e+000	 1.333351778131789e-001	 1.026181477590276e+001
0	 5.333299999983336e+000	 2.000039750814772e-001	 1.026376166728644e+001
0	 5.333299999983334e+000	 2.666734223614255e-001	 1.026656628172527e+001
0	 5.333299999983334e+000	 3.333434029809068e-001	 1.027010453838545e+001
0	 5.333299999983334e+000	 4.000138002678044e-001	 1.027425236616821e+001
0	 5.333299999983334e+000	 4.666844975500011e-001	 1.027888570370958e+001
0	 5.333299999983333e+000	 5.333553781553803e-001	 1.028388049938026e+001
0	 5.333299999983335e+000	 6.000263254118248e-001	 1.028911271128589e+001
0	 5.333299999983334e+000	 6.666972226472175e-001	 1.029445830726745e+001
0	 5.399969999982149e+000	 0.000000000000000e+000	 1.026123834096824e+001
0	 5.399969999982148e+000	 6.666714722864756e-002	 1.026076560903890e+001
0	 5.399969999982151e+000	 1.333351778131789e-001	 1.026112307813220e+001
0	 5.399969999982150e+000	 2.000039750814772e-001	 1.026223561772870e+001
0	 5.399969999982148e+000	 2.666734223614254e-001	 1.026402810715487e+001
0	 5.399969999982150e+000	 3.333434029809069e-001	 1.026642543558218e+001
0	 5.399969999982151e+000	 4.000138002678045e-001	 1.026935250202649e+001
0	 5.399969999982149e+000	 4.666844975500012e-001	 1.027273421534766e+001
0	 5.399969999982152e+000	 5.333553781553801e-001	 1.027649549424942e+001
0	 5.399969999982148e+000	 6.000263254118247e-001	 1.028056126727958e+001
0	 5.399969999982150e+000	 6.666972226472177e-001	 1.028485647283037e+001
0	 5.466639999981866e+000	 0.000000000000000e+000	 1.025970505554403e+001
0	 5.466639999981866e+000	 6.666714722864756e-002	 1.025910461379416e+001
0	 5.466639999981866e+000	 1.333351778131789e-001	 1.025909004739439e+001
0	 5.466639999981866e+000	 2.000039750814772e-001	 1.025962818663883e+001
0	 5.466639999981865e+000	 2.666734223614255e-001	 1.026068587163910e+001
0	 5.466639999981866e+000	 3.333434029809069e-001	 1.026222995232336e+001
0	 5.466639999981865e+000	 4.000138002678044e-001	 1.026422728843572e+001
0	 5.466639999981866e+000	 4.666844975500011e-001	 1.026664474953577e+001
0	 5.466639999981867e+000	 5.333553781553804e-001	 1.026944921499848e+001
0	 5.466639999981865e+000	 6.000263254118247e-001	 1.027260757401430e+001
0	 5.466639999981865e+000	 6.666972226472178e-001	 1.027608672558952e+001
0	 5.533309999982383e+000	 0.000000000000000e+000	 1.025652670424820e+001
0	 5.533309999982382e+000	 6.666714722864757e-002	 1.025596326522987e+001
0	 5.533309999982382e+000	 1.333351778131789e-001	 1.025577464868164e+001
0	 5.533309999982384e+000	 2.000039750814772e-001	 1.025596263647088e+001
0	 5.533309999982381e+000	 2.666734223614256e-001	 1.025652902013601e+001
0	 5.533309999982382e+000	 3.333434029809069e-001	 1.025747560088560e+001
0	 5.533309999982384e+000	 4.000138002678045e-001	 1.025880418959768e+001
0	 5.533309999982382e+000	 4.666844975500011e-001	 1.026051660681937e+001
0	 5.533309999982382e+000	 5.333553781553803e-001	 1.026261468276666e+001
0	 5.533309999982383e+000	 6.000263254118247e-001	 1.026510025732460e+001
0	 5.533309999982381e+000	 6.666972226472175e-001	 1.026797518004758e+001
0	 5.599979999983598e+000	 0.000000000000000e+000	 1.025183931328632e+001
0	 5.599979999983598e+000	 6.666714722864756e-002	 1.025143811616639e+001
0	 5.599979999983597e+000	 1.333351778131789e-001	 1.025123584698626e+001
0	 5.599979999983599e+000	 2.000039750814772e-001	 1.025126222967889e+001
0	 5.599979999983599e+000	 2.666734223614256e-001	 1.025154699760368e+001
0	 5.599979999983599e+000	 3.333434029809068e-001	 1.025211989354553e+001
0	 5.599979999983598e+000	 4.000138002678044e-001	 1.025301066971417e+001
0	 5.599979999983598e+000	 4.666844975500013e-001	 1.025424908774385e+001
0	 5.599979999983598e+000	 5.333553781553804e-001	 1.025586491869314e+001
0	 5.599979999983598e+000	 6.000263254118246e-001	 1.025788794304500e+001
0	 5.599979999983600e+000	 6.666972226472177e-001	 1.026034795070721e+001
0	 5.666649999985415e+000	 0.000000000000000e+000	 1.024577890886391e+001
0	 5.666649999985414e+000	 6.666714722864756e-002	 1.024562571942406e+001
0	 5.666649999985417e+000	 1.333351778131789e-001	 1.024553260730052e+001
0	 5.666649999985416e+000	 2.000039750814772e-001	 1.024555022871689e+001
0	 5.666649999985414e+000	 2.666734223614254e-001	 1.024572924900014e+001
0	 5.666649999985414e+000	 3.333434029809069e-001	 1.024612034257971e+001
0	 5.666649999985414e+000	 4.000138002678043e-001	 1.024677419298693e+001
0	 5.666649999985415e+000	 4.666844975500012e-001	 1.024774149285465e+001
0	 5.666649999985416e+000	 5.333553781553803e-001	 1.024907294391711e+001
0	 5.666649999985415e+000	 6.000263254118247e-001	 1.025081925701006e+001
0	 5.666649999985415e+000	 6.666972226472177e-001	 1.025303115207105e+001
0	 5.733319999987732e+000	 0.000000000000000e+000	 1.023848151718651e+001
0	 5.733319999987730e+000	 6.666714722864754e-002	 1.023862262782321e+001
0	 5.733319999987733e+000	 1.333351778131789e-001	 1.023872389461669e+001
0	 5.733319999987733e+000	 2.000039750814772e-001	 1.023884989603891e+001
0	 5.733319999987731e+000	 2.666734223614255e-001	 1.023906521928343e+001
0	 5.733319999987730e+000	 3.333434029809068e-001	 1.023943446026477e+001
0	 5.733319999987731e+000	 4.000138002678044e-001	 1.024002222361774e+001
0	 5.733319999987732e+000	 4.666844975500011e-001	 1.024089312269717e+001
0	 5.733319999987732e+000	 5.333553781553803e-001	 1.024211177957776e+001
0	 5.733319999987731e+000	 6.000263254118247e-001	 1.024374282505427e+001
0	 5.733319999987732e+000	 6.666972226472178e-001	 1.024585089864178e+001
0	 5.799989999990449e+000	 0.000000000000000e+000	 1.023008316445963e+001
0	 5.799989999990448e+000	 6.666714722864756e-002	 1.023052539418416e+001
0	 5.799989999990449e+000	 1.333351778131790e-001	 1.023086867392707e+001
0	 5.799989999990448e+000	 2.000039750814772e-001	 1.023118449409894e+001
0	 5.799989999990447e+000	 2.666734223614255e-001	 1.023154435341158e+001
0	 5.799989999990451e+000	 3.333434029809069e-001	 1.023201975887728e+001
0	 5.799989999990449e+000	 4.000138002678044e-001	 1.023268222580837e+001
0	 5.799989999990448e+000	 4.666844975500012e-001	 1.023360327781682e+001
0	 5.799989999990448e+000	 5.333553781553804e-001	 1.023485444681427e+001
0	 5.799989999990448e+000	 6.000263254118247e-001	 1.023650727301216e+001
0	 5.799989999990448e+000	 6.666972226472177e-001	 1.023863330492204e+001
0	 5.866659999993464e+000	 0.000000000000000e+000	 1.022071987688878e+001
0	 5.866659999993465e+000	 6.666714722864756e-002	 1.022143057132723e+001
0	 5.866659999993465e+000	 1.333351778131789e-001	 1.022202591022389e+001
0	 5.866659999993463e+000	 2.000039750814772e-001	 1.022257728535100e+001
0	 5.866659999993466e+000	 2.666734223614256e-001	 1.022315609634260e+001
0	 5.866659999993464e+000	 3.333434029809069e-001	 1.022383375069384e+001
0	 5.866659999993465e+000	 4.000138002678045e-001	 1.022468166376054e+001
0	 5.866659999993464e+000	 4.666844975500011e-001	 1.022577125875899e+001
0	 5.866659999993465e+000	 5.333553781553801e-001	 1.022717396676582e+001
0	 5.866659999993465e+000	 6.000263254118248e-001	 1.022896122671826e+001
0	 5.866659999993466e+000	 6.666972226472178e-001	 1.023120448541448e+001
0	 5.933329999996681e+000	 0.000000000000000e+000	 1.021052768067946e+001
0	 5.933329999996681e+000	 6.666714722864756e-002	 1.021143471207272e+001
0	 5.933329999996682e+000	 1.333351778131789e-001	 1.021225456849940e+001
0	 5.933329999996682e+000	 2.000039750814773e-001	 1.021305153224909e+001
0	 5.933329999996681e+000	 2.666734223614256e-001	 1.021388989303451e+001
0	 5.933329999996682e+000	 3.333434029809069e-001	 1.021483394799100e+001
0	 5.933329999996681e+000	 4.000138002678044e-001	 1.021594800167603e+001
0	 5.933329999996681e+000	 4.666844975500012e-001	 1.021729636606909e+001
0	 5.933329999996682e+000	 5.333553781553803e-001	 1.021894336057158e+001
0	 5.933329999996682e+000	 6.000263254118248e-001	 1.022095331200710e+001
0	 5.933329999996681e+000	 6.666972226472175e-001	 1.022339055462175e+001
0	 6.000000000000000e+000	 0.000000000000000e+000	 1.019964260203716e+001
0	 6.000000000000001e+000	 6.666714722864757e-002	 1.020063436924092e+001
0	 6.000000000000000e+000	 1.333351778131789e-001	 1.020161361374585e+001
0	 6.000000000000000e+000	 2.000039750814772e-001	 1.020263049724717e+001
0	 6.000000000000001e+000	 2.666734223614256e-001	 1.020373518844531e+001
0	 6.000000000000000e+000	 3.333434029809069e-001	 1.020497786304532e+001
0	 6.000000000000001e+000	 4.000138002678044e-001	 1.020640870375656e+001
0	 5.999999999999998e+000	 4.666844975500010e-001	 1.020807790029249e+001
0	 6.000000000000000e+000	 5.333553781553804e-001	 1.021003564937071e+001
0	 6.000000000000000e+000	 6.000263254118248e-001	 1.021233215471316e+001
0	 6.000000000000000e+000	 6.666972226472177e-001	 1.021501762704650e+001
0	 5.333299999983334e+000	 6.666972226472175e-001	 1.029445830726745e+001
0	 5.333299999983334e+000	 7.333579753122048e-001	 1.029973012475304e+001
0	 5.333299999983334e+000	 8.000185779984417e-001	 1.030488027023140e+001
0	 5.333299999983334e+000	 8.666790473703453e-001	 1.030999120930597e+001
0	 5.333299999983335e+000	 9.333394000923322e-001	 1.031514540647994e+001
0	 5.333299999983333e+000	 9.999996528288189e-001	 1.032042532515623e+001
0	 5.333299999983334e+000	 1.066659822244222e+000	 1.032591342763756e+001
0	 5.333299999983335e+000	 1.133319925002959e+000	 1.033169217512640e+001
0	 5.333299999983334e+000	 1.199979977769445e+000	 1.033784402772500e+001
0	 5.333299999983333e+000	 1.266639997208098e+000	 1.034445144443541e+001
0	 5.333299999983335e+000	 1.333299999983334e+000	 1.035159688315951e+001
0	 5.399969999982150e+000	 6.666972226472177e-001	 1.028485647283037e+001
0	 5.399969999982149e+000	 7.333579753122046e-001	 1.028925568462435e+001
0	 5.399969999982150e+000	 8.000185779984418e-001	 1.029372899124632e+001
0	 5.399969999982149e+000	 8.666790473703453e-001	 1.029834263676785e+001
0	 5.399969999982148e+000	 9.333394000923320e-001	 1.030316286407416e+001
0	 5.399969999982149e+000	 9.999996528288190e-001	 1.030825591486413e+001
0	 5.399969999982151e+000	 1.066659822244222e+000	 1.031368802965029e+001
0	 5.399969999982148e+000	 1.133319925002958e+000	 1.031952544775889e+001
0	 5.399969999982149e+000	 1.199979977769445e+000	 1.032583440732982e+001
0	 5.399969999982150e+000	 1.266639997208098e+000	 1.033268114531669e+001
0	 5.399969999982150e+000	 1.333299999983334e+000	 1.034013189748681e+001
0	 5.466639999981865e+000	 6.666972226472178e-001	 1.027608672558952e+001
0	 5.466639999981867e+000	 7.333579753122050e-001	 1.027980083466516e+001
0	 5.466639999981864e+000	 8.000185779984415e-001	 1.028372190620088e+001
0	 5.466639999981866e+000	 8.666790473703452e-001	 1.028790197294016e+001
0	 5.466639999981865e+000	 9.333394000923321e-001	 1.029239306642351e+001
0	 5.466639999981866e+000	 9.999996528288188e-001	 1.029724721698852e+001
0	 5.466639999981865e+000	 1.066659822244222e+000	 1.030251645376986e+001
0	 5.466639999981866e+000	 1.133319925002959e+000	 1.030825280469920e+001
0	 5.466639999981867e+000	 1.199979977769445e+000	 1.031450829650536e+001
0	 5.466639999981866e+000	 1.266639997208098e+000	 1.032133495471418e+001
0	 5.466639999981866e+000	 1.333299999983334e+000	 1.032878480364867e+001
0	 5.533309999982381e+000	 6.666972226472175e-001	 1.026797518004758e+001
0	 5.533309999982381e+000	 7.333579753122048e-001	 1.027117419164062e+001
0	 5.533309999982382e+000	 8.000185779984415e-001	 1.027465827098941e+001
0	 5.533309999982384e+000	 8.666790473703456e-001	 1.027846724977199e+001
0	 5.533309999982382e+000	 9.333394000923322e-001	 1.028264095850418e+001
0	 5.533309999982383e+000	 9.999996528288191e-001	 1.028721922653949e+001
0	 5.533309999982382e+000	 1.066659822244222e+000	 1.029224188206921e+001
0	 5.533309999982381e+000	 1.133319925002958e+000	 1.029774875212232e+001
0	 5.533309999982381e+000	 1.199979977769445e+000	 1.030377966256561e+001
0	 5.533309999982383e+000	 1.266639997208098e+000	 1.031037443810358e+001
0	 5.533309999982381e+000	 1.333299999983334e+000	 1.031757290227855e+001
0	 5.599979999983600e+000	 6.666972226472177e-001	 1.026034795070721e+001
0	 5.599979999983598e+000	 7.333579753122048e-001	 1.026318437231586e+001
0	 5.599979999983598e+000	 8.000185779984416e-001	 1.026633734150620e+001
0	 5.599979999983598e+000	 8.666790473703452e-001	 1.026983649921246e+001
0	 5.599979999983597e+000	 9.333394000923319e-001	 1.027371148529234e+001
0	 5.599979999983599e+000	 9.999996528288191e-001	 1.027799193852706e+001
0	 5.599979999983598e+000	 1.066659822244222e+000	 1.028270749662129e+001
0	 5.599979999983600e+000	 1.133319925002959e+000	 1.028788779620323e+001
0	 5.599979999983598e+000	 1.199979977769445e+000	 1.029356247282458e+001
0	 5.599979999983599e+000	 1.266639997208098e+000	 1.029976116096056e+001
0	 5.599979999983598e+000	 1.333299999983334e+000	 1.030651349400991e+001
0	 5.666649999985415e+000	 6.666972226472177e-001	 1.025303115207105e+001
0	 5.666649999985416e+000	 7.333579753122049e-001	 1.025563999345597e+001
0	 5.666649999985413e+000	 8.000185779984415e-001	 1.025855837364556e+001
0	 5.666649999985414e+000	 8.666790473703451e-001	 1.026180775321065e+001
0	 5.666649999985414e+000	 9.333394000923319e-001	 1.026540959176419e+001
0	 5.666649999985416e+000	 9.999996528288189e-001	 1.026938534796127e+001
0	 5.666649999985416e+000	 1.066659822244222e+000	 1.027375647949907e+001
0	 5.666649999985414e+000	 1.133319925002959e+000	 1.027854444311692e+001
0	 5.666649999985418e+000	 1.199979977769445e+000	 1.028377069459628e+001
0	 5.666649999985416e+000	 1.266639997208098e+000	 1.028945668876079e+001
0	 5.666649999985414e+000	 1.333299999983334e+000	 1.029562387947621e+001
0	 5.733319999987732e+000	 6.666972226472178e-001	 1.024585089864178e+001
0	 5.733319999987732e+000	 7.333579753122048e-001	 1.024834967182611e+001
0	 5.733319999987729e+000	 8.000185779984415e-001	 1.025112062330181e+001
0	 5.733319999987730e+000	 8.666790473703452e-001	 1.025417904371568e+001
0	 5.733319999987731e+000	 9.333394000923322e-001	 1.025754022289591e+001
0	 5.733319999987732e+000	 9.999996528288190e-001	 1.026121944985217e+001
0	 5.733319999987732e+000	 1.066659822244222e+000	 1.026523201277550e+001
0	 5.733319999987732e+000	 1.133319925002959e+000	 1.026959319903838e+001
0	 5.733319999987732e+000	 1.199979977769445e+000	 1.027431829519475e+001
0	 5.733319999987731e+000	 1.266639997208098e+000	 1.027942258697997e+001
0	 5.733319999987731e+000	 1.333299999983334e+000	 1.028492135931091e+001
0	 5.799989999990448e+000	 6.666972226472177e-001	 1.023863330492204e+001
0	 5.799989999990448e+000	 7.333579753122048e-001	 1.024112202419139e+001
0	 5.799989999990449e+000	 8.000185779984417e-001	 1.024382334636925e+001
0	 5.799989999990448e+000	 8.666790473703451e-001	 1.024674840267662e+001
0	 5.799989999990448e+000	 9.333394000923323e-001	 1.024990832366369e+001
0	 5.799989999990447e+000	 9.999996528288188e-001	 1.025331423920980e+001
0	 5.799989999990448e+000	 1.066659822244222e+000	 1.025697727852353e+001
0	 5.799989999990448e+000	 1.133319925002958e+000	 1.026090857014260e+001
0	 5.799989999990449e+000	 1.199979977769445e+000	 1.026511924193395e+001
0	 5.799989999990447e+000	 1.266639997208098e+000	 1.026962042109377e+001
0	 5.799989999990449e+000	 1.333299999983334e+000	 1.027442323414746e+001
0	 5.866659999993466e+000	 6.666972226472178e-001	 1.023120448541448e+001
0	 5.866659999993463e+000	 7.333579753122048e-001	 1.023376566731693e+001
0	 5.866659999993465e+000	 8.000185779984417e-001	 1.023646579874218e+001
0	 5.866659999993464e+000	 8.666790473703452e-001	 1.023931386204259e+001
0	 5.866659999993464e+000	 9.333394000923323e-001	 1.024231883904368e+001
0	 5.866659999993464e+000	 9.999996528288189e-001	 1.024548971104422e+001
0	 5.866659999993465e+000	 1.066659822244222e+000	 1.024883545881612e+001
0	 5.866659999993465e+000	 1.133319925002959e+000	 1.025236506260455e+001
0	 5.866659999993466e+000	 1.199979977769445e+000	 1.025608750212793e+001
0	 5.866659999993464e+000	 1.266639997208098e+000	 1.026001175657788e+001
0	 5.866659999993464e+000	 1.333299999983334e+000	 1.026414680461932e+001
0	 5.933329999996681e+000	 6.666972226472175e-001	 1.022339055462175e+001
0	 5.933329999996681e+000	 7.333579753122046e-001	 1.022608921796783e+001
0	 5.933329999996682e+000	 8.000185779984416e-001	 1.022884723631490e+001
0	 5.933329999996682e+000	 8.666790473703454e-001	 1.023167345376267e+001
0	 5.933329999996682e+000	 9.333394000923322e-001	 1.023457671401211e+001
0	 5.933329999996681e+000	 9.999996528288190e-001	 1.023756586036544e+001
0	 5.933329999996681e+000	 1.066659822244222e+000	 1.024064973572621e+001
0	 5.933329999996682e+000	 1.133319925002959e+000	 1.024383718259924e+001
0	 5.933329999996682e+000	 1.199979977769445e+000	 1.024713704309068e+001
0	 5.933329999996682e+000	 1.266639997208098e+000	 1.025055815890799e+001
0	 5.933329999996681e+000	 1.333299999983334e+000	 1.025410937135996e+001
0	 6.000000000000000e+000	 6.666972226472177e-001	 1.021501762704650e+001
0	 6.000000000000000e+000	 7.333579753122046e-001	 1.021790129290923e+001
0	 6.000000000000000e+000	 8.000185779984417e-001	 1.022076691498172e+001
0	 6.000000000000002e+000	 8.666790473703454e-001	 1.022362520978598e+001
0	 6.000000000000000e+000	 9.333394000923323e-001	 1.022648689354513e+001
0	 5.999999999999999e+000	 9.999996528288190e-001	 1.022936268218354e+001
0	 6.000000000000000e+000	 1.066659822244222e+000	 1.023226329132678e+001
0	 6.000000000000001e+000	 1.133319925002959e+000	 1.023519943630166e+001
0	 6.000000000000000e+000	 1.199979977769445e+000	 1.023818183213622e+001
0	 6.000000000000000e+000	 1.266639997208098e+000	 1.024122119355977e+001
0	 6.000000000000000e+000	 1.333299999983334e+000	 1.024432823500285e+001
0	 5.333299999983335e+000	 1.333299999983334e+000	 1.035159688315951e+001
0	 5.333299999983333e+000	 1.399969999982150e+000	 1.035877638822980e+001
0	 5.333299999983335e+000	 1.466639999981867e+000	 1.036544559061527e+001
0	 5.333299999983333e+000	 1.533309999982383e+000	 1.037162967655329e+001
0	 5.333299999983335e+000	 1.599979999983599e+000	 1.037735383228120e+001
0	 5.333299999983334e+000	 1.666649999985416e+000	 1.038264324403634e+001
0	 5.333299999983334e+000	 1.733319999987733e+000	 1.038752309805606e+001
0	 5.333299999983333e+000	 1.799989999990449e+000	 1.039201858057768e+001
0	 5.333299999983334e+000	 1.866659999993466e+000	 1.039615487783856e+001
0	 5.333299999983334e+000	 1.933329999996684e+000	 1.039995717607600e+001
0	 5.333299999983333e+000	 2.000000000000000e+000	 1.040345066152735e+001
0	 5.399969999982150e+000	 1.333299999983334e+000	 1.034013189748681e+001
0	 5.399969999982148e+000	 1.399969999982150e+000	 1.034759896555756e+001
0	 5.399969999982150e+000	 1.466639999981866e+000	 1.035446848328258e+001
0	 5.399969999982149e+000	 1.533309999982383e+000	 1.036077093262080e+001
0	 5.399969999982148e+000	 1.599979999983599e+000	 1.036653679553109e+001
0	 5.399969999982151e+000	 1.666649999985416e+000	 1.037179655397232e+001
0	 5.399969999982149e+000	 1.733319999987733e+000	 1.037658068990340e+001
0	 5.399969999982148e+000	 1.799989999990450e+000	 1.038091968528316e+001
0	 5.399969999982151e+000	 1.866659999993466e+000	 1.038484402207050e+001
0	 5.399969999982151e+000	 1.933329999996683e+000	 1.038838418222426e+001
0	 5.399969999982148e+000	 2.000000000000000e+000	 1.039157064770333e+001
0	 5.466639999981866e+000	 1.333299999983334e+000	 1.032878480364867e+001
0	 5.466639999981865e+000	 1.399969999982150e+000	 1.033623730493678e+001
0	 5.466639999981866e+000	 1.466639999981867e+000	 1.034305798103951e+001
0	 5.466639999981866e+000	 1.533309999982383e+000	 1.034928144743078e+001
0	 5.466639999981867e+000	 1.599979999983599e+000	 1.035494231958450e+001
0	 5.466639999981866e+000	 1.666649999985416e+000	 1.036007521297458e+001
0	 5.466639999981864e+000	 1.733319999987733e+000	 1.036471474307494e+001
0	 5.466639999981867e+000	 1.799989999990450e+000	 1.036889552535945e+001
0	 5.466639999981866e+000	 1.866659999993466e+000	 1.037265217530202e+001
0	 5.466639999981868e+000	 1.933329999996684e+000	 1.037601930837654e+001
0	 5.466639999981868e+000	 2.000000000000000e+000	 1.037903154005690e+001
0	 5.533309999982381e+000	 1.333299999983334e+000	 1.031757290227855e+001
0	 5.533309999982382e+000	 1.399969999982150e+000	 1.032476414772114e+001
0	 5.533309999982381e+000	 1.466639999981866e+000	 1.033133352216951e+001
0	 5.533309999982382e+000	 1.533309999982383e+000	 1.033731861240613e+001
0	 5.533309999982382e+000	 1.599979999983600e+000	 1.034275700521342e+001
0	 5.533309999982382e+000	 1.666649999985416e+000	 1.034768628737381e+001
0	 5.533309999982383e+000	 1.733319999987733e+000	 1.035214404566971e+001
0	 5.533309999982381e+000	 1.799989999990450e+000	 1.035616786688356e+001
0	 5.533309999982381e+000	 1.866659999993466e+000	 1.035979533779775e+001
0	 5.533309999982383e+000	 1.933329999996683e+000	 1.036306404519468e+001
0	 5.533309999982382e+000	 2.000000000000000e+000	 1.036601157585678e+001
0	 5.599979999983598e+000	 1.333299999983334e+000	 1.030651349400991e+001
0	 5.599979999983598e+000	 1.399969999982150e+000	 1.031325223526425e+001
0	 5.599979999983599e+000	 1.466639999981866e+000	 1.031941454495606e+001
0	 5.599979999983599e+000	 1.533309999982383e+000	 1.032503981896978e+001
0	 5.599979999983598e+000	 1.599979999983599e+000	 1.033016745318984e+001
0	 5.599979999983598e+000	 1.666649999985416e+000	 1.033483684350071e+001
0	 5.599979999983598e+000	 1.733319999987733e+000	 1.033908738578677e+001
0	 5.599979999983598e+000	 1.799989999990449e+000	 1.034295847593249e+001
0	 5.599979999983598e+000	 1.866659999993467e+000	 1.034648950982227e+001
0	 5.599979999983598e+000	 1.933329999996683e+000	 1.034971988334053e+001
0	 5.599979999983599e+000	 2.000000000000000e+000	 1.035268899237168e+001
0	 5.666649999985414e+000	 1.333299999983334e+000	 1.029562387947621e+001
0	 5.666649999985417e+000	 1.399969999982150e+000	 1.030177430891979e+001
0	 5.666649999985416e+000	 1.466639999981867e+000	 1.030742048768261e+001
0	 5.666649999985414e+000	 1.533309999982383e+000	 1.031260245854462e+001
0	 5.666649999985414e+000	 1.599979999983599e+000	 1.031736026428576e+001
0	 5.666649999985415e+000	 1.666649999985416e+000	 1.032173394768596e+001
0	 5.666649999985414e+000	 1.733319999987733e+000	 1.032576355152515e+001
0	 5.666649999985415e+000	 1.799989999990449e+000	 1.032948911858325e+001
0	 5.666649999985417e+000	 1.866659999993466e+000	 1.033295069164021e+001
0	 5.666649999985414e+000	 1.933329999996683e+000	 1.033618831347591e+001
0	 5.666649999985415e+000	 2.000000000000000e+000	 1.033924202687029e+001
0	 5.733319999987731e+000	 1.333299999983334e+000	 1.028492135931091e+001
0	 5.733319999987732e+000	 1.399969999982150e+000	 1.029040311004139e+001
0	 5.733319999987733e+000	 1.466639999981866e+000	 1.029547078863264e+001
0	 5.733319999987733e+000	 1.533309999982383e+000	 1.030016392255358e+001
0	 5.733319999987730e+000	 1.599979999983600e+000	 1.030452203927315e+001
0	 5.733319999987731e+000	 1.666649999985416e+000	 1.030858466626028e+001
0	 5.733319999987731e+000	 1.733319999987733e+000	 1.031239133098387e+001
0	 5.733319999987732e+000	 1.799989999990450e+000	 1.031598156091286e+001
0	 5.733319999987731e+000	 1.866659999993466e+000	 1.031939488351616e+001
0	 5.733319999987733e+000	 1.933329999996683e+000	 1.032267082626268e+001
0	 5.733319999987732e+000	 2.000000000000000e+000	 1.032584891662134e+001
0	 5.799989999990449e+000	 1.333299999983334e+000	 1.027442323414746e+001
0	 5.799989999990447e+000	 1.399969999982150e+000	 1.027921137998271e+001
0	 5.799989999990447e+000	 1.466639999981866e+000	 1.028368488608961e+001
0	 5.799989999990448e+000	 1.533309999982383e+000	 1.028788160241958e+001
0	 5.799989999990448e+000	 1.599979999983600e+000	 1.029183937892403e+001
0	 5.799989999990449e+000	 1.666649999985416e+000	 1.029559606555436e+001
0	 5.799989999990448e+000	 1.733319999987733e+000	 1.029918951226199e+001
0	 5.799989999990449e+000	 1.799989999990450e+000	 1.030265756899831e+001
0	 5.799989999990447e+000	 1.866659999993466e+000	 1.030603808571474e+001
0	 5.799989999990449e+000	 1.933329999996683e+000	 1.030936891236267e+001
0	 5.799989999990447e+000	 2.000000000000000e+000	 1.031268789889351e+001
0	 5.866659999993464e+000	 1.333299999983334e+000	 1.026414680461932e+001
0	 5.866659999993464e+000	 1.399969999982150e+000	 1.026827186009739e+001
0	 5.866659999993465e+000	 1.466639999981866e+000	 1.027218221833699e+001
0	 5.866659999993463e+000	 1.533309999982383e+000	 1.027591288956552e+001
0	 5.866659999993464e+000	 1.599979999983599e+000	 1.027949888401037e+001
0	 5.866659999993466e+000	 1.666649999985416e+000	 1.028297521189892e+001
0	 5.866659999993465e+000	 1.733319999987733e+000	 1.028637688345854e+001
0	 5.866659999993464e+000	 1.799989999990449e+000	 1.028973890891663e+001
0	 5.866659999993465e+000	 1.866659999993466e+000	 1.029309629850057e+001
0	 5.866659999993464e+000	 1.933329999996683e+000	 1.029648406243774e+001
0	 5.866659999993463e+000	 2.000000000000000e+000	 1.029993721095552e+001
0	 5.933329999996681e+000	 1.333299999983334e+000	 1.025410937135996e+001
0	 5.933329999996681e+000	 1.399969999982150e+000	 1.025765729173908e+001
0	 5.933329999996682e+000	 1.466639999981866e+000	 1.026108222365826e+001
0	 5.933329999996682e+000	 1.533309999982383e+000	 1.026441517541434e+001
0	 5.933329999996680e+000	 1.599979999983600e+000	 1.026768715530418e+001
0	 5.933329999996681e+000	 1.666649999985416e+000	 1.027092917162464e+001
0	 5.933329999996680e+000	 1.733319999987733e+000	 1.027417223267257e+001
0	 5.933329999996682e+000	 1.799989999990450e+000	 1.027744734674483e+001
0	 5.933329999996682e+000	 1.866659999993466e+000	 1.028078552213826e+001
0	 5.933329999996682e+000	 1.933329999996683e+000	 1.028421776714972e+001
0	 5.933329999996681e+000	 2.000000000000000e+000	 1.028777509007608e+001
0	 6.000000000000000e+000	 1.333299999983334e+000	 1.024432823500285e+001
0	 5.999999999999999e+000	 1.399969999982150e+000	 1.024744041626145e+001
0	 6.000000000000000e+000	 1.466639999981866e+000	 1.025050434033687e+001
0	 6.000000000000000e+000	 1.533309999982383e+000	 1.025354585138893e+001
0	 6.000000000000001e+000	 1.599979999983600e+000	 1.025659079357746e+001
0	 6.000000000000000e+000	 1.666649999985416e+000	 1.025966501106224e+001
0	 6.000000000000002e+000	 1.733319999987733e+000	 1.026279434800313e+001
0	 6.000000000000000e+000	 1.799989999990450e+000	 1.026600464855990e+001
0	 5.999999999999998e+000	 1.866659999993466e+000	 1.026932175689241e+001
0	 6.000000000000000e+000	 1.933329999996683e+000	 1.027277151716047e+001
0	 5.999999999999999e+000	 2.000000000000000e+000	 1.027637977352389e+001
0	 5.333299999983333e+000	 2.000000000000000e+000	 1.040345066152735e+001
0	 5.333299999983333e+000	 2.066670000003317e+000	 1.040650608167785e+001
0	 5.333299999983333e+000	 2.133340000006534e+000	 1.040900028063665e+001
0	 5.333299999983335e+000	 2.200010000009550e+000	 1.041096758957699e+001
0	 5.333299999983333e+000	 2.266680000012268e+000	 1.041244233967205e+001
0	 5.333299999983335e+000	 2.333350000014584e+000	 1.041345886209504e+001
0	 5.333299999983334e+000	 2.400020000016401e+000	 1.041405148801918e+001
0	 5.333299999983334e+000	 2.466690000017617e+000	 1.041425454861762e+001
0	 5.333299999983335e+000	 2.533360000018134e+000	 1.041410237506354e+001
0	 5.333299999983333e+000	 2.600030000017851e+000	 1.041362929853015e+001
0	 5.333299999983334e+000	 2.666700000016666e+000	 1.041286965019059e+001
0	 5.399969999982148e+000	 2.000000000000000e+000	 1.039157064770333e+001
0	 5.399969999982150e+000	 2.066670000003317e+000	 1.039434686177444e+001
0	 5.399969999982151e+000	 2.133340000006534e+000	 1.039664978900647e+001
0	 5.399969999982150e+000	 2.200010000009551e+000	 1.039850019331148e+001
0	 5.399969999982149e+000	 2.266680000012267e+000	 1.039991883860147e+001
0	 5.399969999982151e+000	 2.333350000014584e+000	 1.040092648878847e+001
0	 5.399969999982149e+000	 2.400020000016401e+000	 1.040154390778450e+001
0	 5.399969999982149e+000	 2.466690000017617e+000	 1.040179185950157e+001
0	 5.399969999982150e+000	 2.533360000018133e+000	 1.040169110785168e+001
0	 5.399969999982149e+000	 2.600030000017851e+000	 1.040126241674683e+001
0	 5.399969999982149e+000	 2.666700000016667e+000	 1.040052655009902e+001
0	 5.466639999981868e+000	 2.000000000000000e+000	 1.037903154005690e+001
0	 5.466639999981867e+000	 2.066670000003318e+000	 1.038167594311622e+001
0	 5.466639999981867e+000	 2.133340000006534e+000	 1.038392283282187e+001
0	 5.466639999981867e+000	 2.200010000009550e+000	 1.038578168838907e+001
0	 5.466639999981865e+000	 2.266680000012267e+000	 1.038726198903302e+001
0	 5.466639999981867e+000	 2.333350000014584e+000	 1.038837321396893e+001
0	 5.466639999981866e+000	 2.400020000016401e+000	 1.038912484241201e+001
0	 5.466639999981866e+000	 2.466690000017617e+000	 1.038952635357742e+001
0	 5.466639999981864e+000	 2.533360000018134e+000	 1.038958722668039e+001
0	 5.466639999981865e+000	 2.600030000017849e+000	 1.038931694093607e+001
0	 5.466639999981866e+000	 2.666700000016666e+000	 1.038872497555964e+001
0	 5.533309999982382e+000	 2.000000000000000e+000	 1.036601157585678e+001
0	 5.533309999982382e+000	 2.066670000003316e+000	 1.036864404618917e+001
0	 5.533309999982381e+000	 2.133340000006534e+000	 1.037094283279720e+001
0	 5.533309999982383e+000	 2.200010000009550e+000	 1.037290841276366e+001
0	 5.533309999982383e+000	 2.266680000012267e+000	 1.037454126317130e+001
0	 5.533309999982382e+000	 2.333350000014584e+000	 1.037584186110283e+001
0	 5.533309999982384e+000	 2.400020000016401e+000	 1.037681068364105e+001
0	 5.533309999982381e+000	 2.466690000017617e+000	 1.037744820786864e+001
0	 5.533309999982381e+000	 2.533360000018134e+000	 1.037775491086838e+001
0	 5.533309999982381e+000	 2.600030000017849e+000	 1.037773126972297e+001
0	 5.533309999982382e+000	 2.666700000016666e+000	 1.037737776151514e+001
0	 5.599979999983599e+000	 2.000000000000000e+000	 1.035268899237168e+001
0	 5.599979999983598e+000	 2.066670000003316e+000	 1.035540189147922e+001
0	 5.599979999983598e+000	 2.133340000006534e+000	 1.035783320964682e+001
0	 5.599979999983598e+000	 2.200010000009550e+000	 1.035997670438915e+001
0	 5.599979999983598e+000	 2.266680000012268e+000	 1.036182613322084e+001
0	 5.599979999983599e+000	 2.333350000014584e+000	 1.036337525365656e+001
0	 5.599979999983599e+000	 2.400020000016400e+000	 1.036461782321098e+001
0	 5.599979999983598e+000	 2.466690000017617e+000	 1.036554759939870e+001
0	 5.599979999983598e+000	 2.533360000018133e+000	 1.036615833973438e+001
0	 5.599979999983598e+000	 2.600030000017850e+000	 1.036644380173265e+001
0	 5.599979999983598e+000	 2.666700000016666e+000	 1.036639774290813e+001
0	 5.666649999985415e+000	 2.000000000000000e+000	 1.033924202687029e+001
0	 5.666649999985413e+000	 2.066670000003316e+000	 1.034210019947235e+001
0	 5.666649999985417e+000	 2.133340000006535e+000	 1.034471738408507e+001
0	 5.666649999985415e+000	 2.200010000009550e+000	 1.034708290121940e+001
0	 5.666649999985414e+000	 2.266680000012267e+000	 1.034918607138624e+001
0	 5.666649999985415e+000	 2.333350000014583e+000	 1.035101621509652e+001
0	 5.666649999985416e+000	 2.400020000016401e+000	 1.035256265286115e+001
0	 5.666649999985415e+000	 2.466690000017617e+000	 1.035381470519104e+001
0	 5.666649999985417e+000	 2.533360000018134e+000	 1.035476169259708e+001
0	 5.666649999985416e+000	 2.600030000017851e+000	 1.035539293559019e+001
0	 5.666649999985415e+000	 2.666700000016666e+000	 1.035569775468124e+001
0	 5.733319999987732e+000	 2.000000000000000e+000	 1.032584891662134e+001
0	 5.733319999987732e+000	 2.066670000003317e+000	 1.032888969065450e+001
0	 5.733319999987731e+000	 2.133340000006534e+000	 1.033171877682631e+001
0	 5.733319999987732e+000	 2.200010000009550e+000	 1.033432334120831e+001
0	 5.733319999987730e+000	 2.266680000012267e+000	 1.033669054987206e+001
0	 5.733319999987731e+000	 2.333350000014583e+000	 1.033880756888909e+001
0	 5.733319999987730e+000	 2.400020000016400e+000	 1.034066156433093e+001
0	 5.733319999987733e+000	 2.466690000017617e+000	 1.034223970226913e+001
0	 5.733319999987733e+000	 2.533360000018134e+000	 1.034352914877521e+001
0	 5.733319999987732e+000	 2.600030000017851e+000	 1.034451706992070e+001
0	 5.733319999987732e+000	 2.666700000016666e+000	 1.034519063177712e+001
0	 5.799989999990447e+000	 2.000000000000000e+000	 1.031268789889351e+001
0	 5.799989999990448e+000	 2.066670000003317e+000	 1.031592108551163e+001
0	 5.799989999990448e+000	 2.133340000006534e+000	 1.031896080858488e+001
0	 5.799989999990450e+000	 2.200010000009551e+000	 1.032179436230978e+001
0	 5.799989999990448e+000	 2.266680000012268e+000	 1.032440904088286e+001
0	 5.799989999990449e+000	 2.333350000014584e+000	 1.032679213850064e+001
0	 5.799989999990449e+000	 2.400020000016400e+000	 1.032893094935966e+001
0	 5.799989999990449e+000	 2.466690000017618e+000	 1.033081276765643e+001
0	 5.799989999990448e+000	 2.533360000018134e+000	 1.033242488758747e+001
0	 5.799989999990447e+000	 2.600030000017850e+000	 1.033375460334928e+001
0	 5.799989999990448e+000	 2.666700000016666e+000	 1.033478920913838e+001
0	 5.866659999993463e+000	 2.000000000000000e+000	 1.029993721095552e+001
0	 5.866659999993463e+000	 2.066670000003316e+000	 1.030334510452971e+001
0	 5.866659999993465e+000	 2.133340000006534e+000	 1.030656690007514e+001
0	 5.866659999993464e+000	 2.200010000009550e+000	 1.030959230247768e+001
0	 5.866659999993466e+000	 2.266680000012267e+000	 1.031241101662321e+001
0	 5.866659999993466e+000	 2.333350000014584e+000	 1.031501274739758e+001
0	 5.866659999993464e+000	 2.400020000016400e+000	 1.031738719968669e+001
0	 5.866659999993464e+000	 2.466690000017618e+000	 1.031952407837639e+001
0	 5.866659999993464e+000	 2.533360000018133e+000	 1.032141308835255e+001
0	 5.866659999993465e+000	 2.600030000017850e+000	 1.032304393450101e+001
0	 5.866659999993464e+000	 2.666700000016666e+000	 1.032440632170764e+001
0	 5.933329999996681e+000	 2.000000000000000e+000	 1.028777509007608e+001
0	 5.933329999996682e+000	 2.066670000003318e+000	 1.029131246819469e+001
0	 5.933329999996681e+000	 2.133340000006534e+000	 1.029466047201144e+001
0	 5.933329999996682e+000	 2.200010000009550e+000	 1.029781349966590e+001
0	 5.933329999996681e+000	 2.266680000012267e+000	 1.030076594929766e+001
0	 5.933329999996681e+000	 2.333350000014583e+000	 1.030351221904630e+001
0	 5.933329999996680e+000	 2.400020000016401e+000	 1.030604670705138e+001
0	 5.933329999996681e+000	 2.466690000017616e+000	 1.030836381145248e+001
0	 5.933329999996681e+000	 2.533360000018134e+000	 1.031045793038916e+001
0	 5.933329999996681e+000	 2.600030000017850e+000	 1.031232346200099e+001
0	 5.933329999996681e+000	 2.666700000016666e+000	 1.031395480442753e+001
0	 5.999999999999999e+000	 2.000000000000000e+000	 1.027637977352389e+001
0	 6.000000000000000e+000	 2.066670000003318e+000	 1.027997389699252e+001
0	 5.999999999999999e+000	 2.133340000006534e+000	 1.028336494510812e+001
0	 6.000000000000001e+000	 2.200010000009551e+000	 1.028655429182834e+001
0	 6.000000000000002e+000	 2.266680000012268e+000	 1.028954331111080e+001
0	 6.000000000000000e+000	 2.333350000014584e+000	 1.029233337691317e+001
0	 6.000000000000000e+000	 2.400020000016401e+000	 1.029492586319306e+001
0	 6.000000000000000e+000	 2.466690000017617e+000	 1.029732214390813e+001
0	 6.000000000000001e+000	 2.533360000018133e+000	 1.029952359301600e+001
0	 5.999999999999998e+000	 2.600030000017850e+000	 1.030153158447430e+001
0	 6.000000000000000e+000	 2.666700000016666e+000	 1.030334749224067e+001
0	 5.333299999983334e+000	 2.666700000016666e+000	 1.041286965019059e+001
0	 5.333299999983334e+000	 2.733360000014532e+000	 1.041195529076291e+001
0	 5.333299999983334e+000	 2.800020000011599e+000	 1.041098086772428e+001
0	 5.333299999983334e+000	 2.866680000008067e+000	 1.040992529353728e+001
0	 5.333299999983335e+000	 2.933340000004133e+000	 1.040876748066447e+001
0	 5.333299999983333e+000	 3.000000000000000e+000	 1.040748634156845e+001
0	 5.333299999983334e+000	 3.066659999995867e+000	 1.040606078871180e+001
0	 5.333299999983334e+000	 3.133319999991934e+000	 1.040446973455714e+001
0	 5.333299999983333e+000	 3.199979999988401e+000	 1.040269209156707e+001
0	 5.333299999983334e+000	 3.266639999985468e+000	 1.040070677220422e+001
0	 5.333299999983335e+000	 3.333299999983334e+000	 1.039849268893121e+001
0	 5.399969999982149e+000	 2.666700000016667e+000	 1.040052655009902e+001
0	 5.399969999982151e+000	 2.733360000014533e+000	 1.039962144073823e+001
0	 5.399969999982148e+000	 2.800020000011598e+000	 1.039866403720282e+001
0	 5.399969999982149e+000	 2.866680000008067e+000	 1.039764402408730e+001
0	 5.399969999982151e+000	 2.933340000004134e+000	 1.039655108598620e+001
0	 5.399969999982150e+000	 3.000000000000000e+000	 1.039537490749402e+001
0	 5.399969999982149e+000	 3.066659999995868e+000	 1.039410517320530e+001
0	 5.399969999982148e+000	 3.133319999991934e+000	 1.039273156771460e+001
0	 5.399969999982150e+000	 3.199979999988400e+000	 1.039124377561646e+001
0	 5.399969999982151e+000	 3.266639999985468e+000	 1.038963148150544e+001
0	 5.399969999982149e+000	 3.333299999983333e+000	 1.038788436997612e+001
0	 5.466639999981866e+000	 2.666700000016666e+000	 1.038872497555964e+001
0	 5.466639999981867e+000	 2.733360000014533e+000	 1.038794189533761e+001
0	 5.466639999981864e+000	 2.800020000011599e+000	 1.038709090077031e+001
0	 5.466639999981865e+000	 2.866680000008066e+000	 1.038617076196729e+001
0	 5.466639999981865e+000	 2.933340000004133e+000	 1.038518024903810e+001
0	 5.466639999981864e+000	 2.999999999999999e+000	 1.038411813209231e+001
0	 5.466639999981865e+000	 3.066659999995866e+000	 1.038298318123947e+001
0	 5.466639999981866e+000	 3.133319999991934e+000	 1.038177416658916e+001
0	 5.466639999981865e+000	 3.199979999988400e+000	 1.038048985825097e+001
0	 5.466639999981867e+000	 3.266639999985467e+000	 1.037912902633448e+001
0	 5.466639999981866e+000	 3.333299999983334e+000	 1.037769044094929e+001
0	 5.533309999982382e+000	 2.666700000016666e+000	 1.037737776151514e+001
0	 5.533309999982382e+000	 2.733360000014533e+000	 1.037680682202865e+001
0	 5.533309999982382e+000	 2.800020000011600e+000	 1.037613452618686e+001
0	 5.533309999982384e+000	 2.866680000008067e+000	 1.037536704299744e+001
0	 5.533309999982381e+000	 2.933340000004133e+000	 1.037451054146806e+001
0	 5.533309999982381e+000	 3.000000000000000e+000	 1.037357119060642e+001
0	 5.533309999982382e+000	 3.066659999995867e+000	 1.037255515942017e+001
0	 5.533309999982383e+000	 3.133319999991935e+000	 1.037146861691704e+001
0	 5.533309999982382e+000	 3.199979999988400e+000	 1.037031773210473e+001
0	 5.533309999982382e+000	 3.266639999985468e+000	 1.036910867399093e+001
0	 5.533309999982383e+000	 3.333299999983334e+000	 1.036784761158336e+001
0	 5.599979999983598e+000	 2.666700000016666e+000	 1.036639774290813e+001
0	 5.599979999983598e+000	 2.733360000014533e+000	 1.036610638827895e+001
0	 5.599979999983598e+000	 2.800020000011600e+000	 1.036566798121262e+001
0	 5.599979999983598e+000	 2.866680000008066e+000	 1.036509440299800e+001
0	 5.599979999983598e+000	 2.933340000004133e+000	 1.036439753492397e+001
0	 5.599979999983598e+000	 3.000000000000000e+000	 1.036358925827944e+001
0	 5.599979999983598e+000	 3.066659999995866e+000	 1.036268145435330e+001
0	 5.599979999983598e+000	 3.133319999991934e+000	 1.036168600443448e+001
0	 5.599979999983598e+000	 3.199979999988401e+000	 1.036061478981186e+001
0	 5.599979999983598e+000	 3.266639999985467e+000	 1.035947969177438e+001
0	 5.599979999983598e+000	 3.333299999983334e+000	 1.035829259161095e+001
0	 5.666649999985415e+000	 2.666700000016666e+000	 1.035569775468124e+001
0	 5.666649999985416e+000	 2.733360000014533e+000	 1.035573076155614e+001
0	 5.666649999985415e+000	 2.800020000011600e+000	 1.035556433360772e+001
0	 5.666649999985414e+000	 2.866680000008066e+000	 1.035521437778917e+001
0	 5.666649999985416e+000	 2.933340000004133e+000	 1.035469680105370e+001
0	 5.666649999985417e+000	 3.000000000000000e+000	 1.035402751035448e+001
0	 5.666649999985416e+000	 3.066659999995867e+000	 1.035322241264474e+001
0	 5.666649999985415e+000	 3.133319999991934e+000	 1.035229741487767e+001
0	 5.666649999985415e+000	 3.199979999988401e+000	 1.035126842400649e+001
0	 5.666649999985416e+000	 3.266639999985468e+000	 1.035015134698443e+001
0	 5.666649999985415e+000	 3.333299999983333e+000	 1.034896209076470e+001
0	 5.733319999987732e+000	 2.666700000016666e+000	 1.034519063177712e+001
0	 5.733319999987731e+000	 2.733360000014533e+000	 1.034557010932777e+001
0	 5.733319999987731e+000	 2.800020000011599e+000	 1.034569665113228e+001
0	 5.733319999987731e+000	 2.866680000008067e+000	 1.034558850319120e+001
0	 5.733319999987730e+000	 2.933340000004133e+000	 1.034526391150513e+001
0	 5.733319999987732e+000	 2.999999999999999e+000	 1.034474112207465e+001
0	 5.733319999987732e+000	 3.066659999995868e+000	 1.034403838090035e+001
0	 5.733319999987731e+000	 3.133319999991933e+000	 1.034317393398285e+001
0	 5.733319999987732e+000	 3.199979999988401e+000	 1.034216602732274e+001
0	 5.733319999987732e+000	 3.266639999985467e+000	 1.034103290692066e+001
0	 5.733319999987731e+000	 3.333299999983334e+000	 1.033979281877722e+001
0	 5.799989999990448e+000	 2.666700000016666e+000	 1.033478920913837e+001
0	 5.799989999990447e+000	 2.733360000014533e+000	 1.033551459906148e+001
0	 5.799989999990448e+000	 2.800020000011600e+000	 1.033593800154644e+001
0	 5.799989999990449e+000	 2.866680000008066e+000	 1.033607831502430e+001
0	 5.799989999990449e+000	 2.933340000004134e+000	 1.033595443792613e+001
0	 5.799989999990447e+000	 3.000000000000000e+000	 1.033558526868301e+001
0	 5.799989999990448e+000	 3.066659999995867e+000	 1.033498970572602e+001
0	 5.799989999990449e+000	 3.133319999991934e+000	 1.033418664748623e+001
0	 5.799989999990448e+000	 3.199979999988400e+000	 1.033319499239474e+001
0	 5.799989999990448e+000	 3.266639999985468e+000	 1.033203363888268e+001
0	 5.799989999990448e+000	 3.333299999983334e+000	 1.033072148538113e+001
0	 5.866659999993464e+000	 2.666700000016666e+000	 1.032440632170764e+001
0	 5.866659999993464e+000	 2.733360000014533e+000	 1.032545439822484e+001
0	 5.866659999993467e+000	 2.800020000011601e+000	 1.032616145261030e+001
0	 5.866659999993463e+000	 2.866680000008066e+000	 1.032654534910868e+001
0	 5.866659999993464e+000	 2.933340000004133e+000	 1.032662395196458e+001
0	 5.866659999993466e+000	 3.000000000000000e+000	 1.032641512542267e+001
0	 5.866659999993465e+000	 3.066659999995867e+000	 1.032593673372760e+001
0	 5.866659999993465e+000	 3.133319999991934e+000	 1.032520664112401e+001
0	 5.866659999993464e+000	 3.199979999988400e+000	 1.032424271185661e+001
0	 5.866659999993464e+000	 3.266639999985467e+000	 1.032306281017005e+001
0	 5.866659999993464e+000	 3.333299999983334e+000	 1.032168480030903e+001
0	 5.933329999996681e+000	 2.666700000016666e+000	 1.031395480442753e+001
0	 5.933329999996680e+000	 2.733360000014533e+000	 1.031527967428544e+001
0	 5.933329999996682e+000	 2.800020000011600e+000	 1.031624007208401e+001
0	 5.933329999996683e+000	 2.866680000008067e+000	 1.031685114126455e+001
0	 5.933329999996681e+000	 2.933340000004134e+000	 1.031712802526834e+001
0	 5.933329999996681e+000	 3.000000000000000e+000	 1.031708586753671e+001
0	 5.933329999996680e+000	 3.066659999995866e+000	 1.031673981151096e+001
0	 5.933329999996682e+000	 3.133319999991933e+000	 1.031610500063242e+001
0	 5.933329999996682e+000	 3.199979999988401e+000	 1.031519657834246e+001
0	 5.933329999996682e+000	 3.266639999985468e+000	 1.031402968808239e+001
0	 5.933329999996681e+000	 3.333299999983334e+000	 1.031261947329357e+001
0	 6.000000000000000e+000	 2.666700000016666e+000	 1.030334749224067e+001
0	 6.000000000000000e+000	 2.733360000014533e+000	 1.030488059471087e+001
0	 5.999999999999998e+000	 2.800020000011600e+000	 1.030604692772767e+001
0	 6.000000000000002e+000	 2.866680000008067e+000	 1.030685722731212e+001
0	 5.999999999999998e+000	 2.933340000004133e+000	 1.030732222948528e+001
0	 6.000000000000003e+000	 3.000000000000000e+000	 1.030745267026820e+001
0	 5.999999999999998e+000	 3.066659999995867e+000	 1.030725928568197e+001
0	 6.000000000000001e+000	 3.133319999991934e+000	 1.030675281174768e+001
0	 5.999999999999999e+000	 3.199979999988400e+000	 1.030594398448640e+001
0	 6.000000000000000e+000	 3.266639999985467e+000	 1.030484353991925e+001
0	 6.000000000000000e+000	 3.333299999983334e+000	 1.030346221406734e+001
0	 5.333299999983335e+000	 3.333299999983334e+000	 1.039849268893121e+001
0	 5.333299999983331e+000	 3.399969999982149e+000	 1.039598988713852e+001
0	 5.333299999983335e+000	 3.466639999981866e+000	 1.039315317540037e+001
0	 5.333299999983334e+000	 3.533309999982383e+000	 1.038998255987741e+001
0	 5.333299999983335e+000	 3.599979999983600e+000	 1.038647804673028e+001
0	 5.333299999983335e+000	 3.666649999985416e+000	 1.038263964211963e+001
0	 5.333299999983334e+000	 3.733319999987733e+000	 1.037846735220611e+001
0	 5.333299999983333e+000	 3.799989999990450e+000	 1.037396118315034e+001
0	 5.333299999983334e+000	 3.866659999993467e+000	 1.036912114111294e+001
0	 5.333299999983335e+000	 3.933329999996684e+000	 1.036394723225454e+001
0	 5.333299999983334e+000	 4.000000000000000e+000	 1.035843946273577e+001
0	 5.399969999982149e+000	 3.333299999983333e+000	 1.038788436997612e+001
0	 5.399969999982149e+000	 3.399969999982150e+000	 1.038588933876723e+001
0	 5.399969999982149e+000	 3.466639999981867e+000	 1.038353912505007e+001
0	 5.399969999982150e+000	 3.533309999982384e+000	 1.038083135440469e+001
0	 5.399969999982149e+000	 3.599979999983601e+000	 1.037776365241118e+001
0	 5.399969999982151e+000	 3.666649999985416e+000	 1.037433364464961e+001
0	 5.399969999982150e+000	 3.733319999987733e+000	 1.037053895670005e+001
0	 5.399969999982150e+000	 3.799989999990450e+000	 1.036637721414252e+001
0	 5.399969999982151e+000	 3.866659999993466e+000	 1.036184604255712e+001
0	 5.399969999982150e+000	 3.933329999996684e+000	 1.035694306752386e+001
0	 5.399969999982149e+000	 4.000000000000000e+000	 1.035166591462279e+001
0	 5.466639999981866e+000	 3.333299999983334e+000	 1.037769044094929e+001
0	 5.466639999981866e+000	 3.399969999982150e+000	 1.037603548116939e+001
0	 5.466639999981866e+000	 3.466639999981867e+000	 1.037402387445570e+001
0	 5.466639999981865e+000	 3.533309999982383e+000	 1.037165124838917e+001
0	 5.466639999981867e+000	 3.599979999983600e+000	 1.036891323055076e+001
0	 5.466639999981866e+000	 3.666649999985417e+000	 1.036580544852144e+001
0	 5.466639999981865e+000	 3.733319999987733e+000	 1.036232352988215e+001
0	 5.466639999981866e+000	 3.799989999990451e+000	 1.035846310221382e+001
0	 5.466639999981866e+000	 3.866659999993466e+000	 1.035421979309741e+001
0	 5.466639999981868e+000	 3.933329999996684e+000	 1.034958923011384e+001
0	 5.466639999981867e+000	 4.000000000000001e+000	 1.034456704084403e+001
0	 5.533309999982383e+000	 3.333299999983334e+000	 1.036784761158336e+001
0	 5.533309999982381e+000	 3.399969999982151e+000	 1.036639336568449e+001
0	 5.533309999982382e+000	 3.466639999981867e+000	 1.036459703807487e+001
0	 5.533309999982382e+000	 3.533309999982383e+000	 1.036245264091783e+001
0	 5.533309999982382e+000	 3.599979999983599e+000	 1.035995418637666e+001
0	 5.533309999982381e+000	 3.666649999985415e+000	 1.035709568661469e+001
0	 5.533309999982382e+000	 3.733319999987733e+000	 1.035387115379519e+001
0	 5.533309999982382e+000	 3.799989999990451e+000	 1.035027460008149e+001
0	 5.533309999982382e+000	 3.866659999993467e+000	 1.034630003763684e+001
0	 5.533309999982385e+000	 3.933329999996684e+000	 1.034194147862455e+001
0	 5.533309999982381e+000	 4.000000000000001e+000	 1.033719293520789e+001
0	 5.599979999983598e+000	 3.333299999983334e+000	 1.035829259161095e+001
0	 5.599979999983598e+000	 3.399969999982150e+000	 1.035692804365199e+001
0	 5.599979999983599e+000	 3.466639999981867e+000	 1.035524823036518e+001
0	 5.599979999983598e+000	 3.533309999982383e+000	 1.035324593107765e+001
0	 5.599979999983598e+000	 3.599979999983600e+000	 1.035091392511653e+001
0	 5.599979999983599e+000	 3.666649999985416e+000	 1.034824499180894e+001
0	 5.599979999983598e+000	 3.733319999987733e+000	 1.034523191048199e+001
0	 5.599979999983598e+000	 3.799989999990449e+000	 1.034186746046280e+001
0	 5.599979999983599e+000	 3.866659999993468e+000	 1.033814442107845e+001
0	 5.599979999983598e+000	 3.933329999996684e+000	 1.033405557165604e+001
0	 5.599979999983599e+000	 4.000000000000000e+000	 1.032959369152267e+001
0	 5.666649999985415e+000	 3.333299999983333e+000	 1.034896209076470e+001
0	 5.666649999985417e+000	 3.399969999982150e+000	 1.034760456641136e+001
0	 5.666649999985416e+000	 3.466639999981867e+000	 1.034596706578420e+001
0	 5.666649999985415e+000	 3.533309999982382e+000	 1.034404151795562e+001
0	 5.666649999985416e+000	 3.599979999983600e+000	 1.034181985199802e+001
0	 5.666649999985414e+000	 3.666649999985416e+000	 1.033929399698379e+001
0	 5.666649999985413e+000	 3.733319999987733e+000	 1.033645588198533e+001
0	 5.666649999985415e+000	 3.799989999990450e+000	 1.033329743607503e+001
0	 5.666649999985416e+000	 3.866659999993467e+000	 1.032981058832525e+001
0	 5.666649999985415e+000	 3.933329999996684e+000	 1.032598726780836e+001
0	 5.666649999985415e+000	 4.000000000000001e+000	 1.032181940359673e+001
0	 5.733319999987731e+000	 3.333299999983334e+000	 1.033979281877722e+001
0	 5.733319999987733e+000	 3.399969999982150e+000	 1.033838798530208e+001
0	 5.733319999987733e+000	 3.466639999981867e+000	 1.033674315878952e+001
0	 5.733319999987732e+000	 3.533309999982382e+000	 1.033484980063870e+001
0	 5.733319999987732e+000	 3.599979999983600e+000	 1.033269937224876e+001
0	 5.733319999987730e+000	 3.666649999985416e+000	 1.033028333501882e+001
0	 5.733319999987731e+000	 3.733319999987733e+000	 1.032759315034800e+001
0	 5.733319999987732e+000	 3.799989999990450e+000	 1.032462027963544e+001
0	 5.733319999987731e+000	 3.866659999993465e+000	 1.032135618428026e+001
0	 5.733319999987732e+000	 3.933329999996684e+000	 1.031779232568156e+001
0	 5.733319999987731e+000	 4.000000000000000e+000	 1.031392016523845e+001
0	 5.799989999990448e+000	 3.333299999983334e+000	 1.033072148538112e+001
0	 5.799989999990447e+000	 3.399969999982150e+000	 1.032924335166360e+001
0	 5.799989999990447e+000	 3.466639999981866e+000	 1.032756612383874e+001
0	 5.799989999990448e+000	 3.533309999982383e+000	 1.032568117821390e+001
0	 5.799989999990448e+000	 3.599979999983600e+000	 1.032357989109640e+001
0	 5.799989999990448e+000	 3.666649999985417e+000	 1.032125363879359e+001
0	 5.799989999990447e+000	 3.733319999987733e+000	 1.031869379761278e+001
0	 5.799989999990449e+000	 3.799989999990450e+000	 1.031589174386132e+001
0	 5.799989999990448e+000	 3.866659999993467e+000	 1.031283885384652e+001
0	 5.799989999990449e+000	 3.933329999996684e+000	 1.030952650387570e+001
0	 5.799989999990448e+000	 4.000000000000000e+000	 1.030594607025617e+001
0	 5.866659999993464e+000	 3.333299999983334e+000	 1.032168480030903e+001
0	 5.866659999993465e+000	 3.399969999982150e+000	 1.032013571683540e+001
0	 5.866659999993464e+000	 3.466639999981866e+000	 1.031842557538944e+001
0	 5.866659999993464e+000	 3.533309999982384e+000	 1.031654604976817e+001
0	 5.866659999993466e+000	 3.599979999983601e+000	 1.031448881376858e+001
0	 5.866659999993465e+000	 3.666649999985416e+000	 1.031224554118768e+001
0	 5.866659999993465e+000	 3.733319999987733e+000	 1.030980790582246e+001
0	 5.866659999993464e+000	 3.799989999990450e+000	 1.030716758146992e+001
0	 5.866659999993464e+000	 3.866659999993466e+000	 1.030431624192705e+001
0	 5.866659999993464e+000	 3.933329999996684e+000	 1.030124556099082e+001
0	 5.866659999993464e+000	 4.000000000000001e+000	 1.029794721245823e+001
0	 5.933329999996681e+000	 3.333299999983334e+000	 1.031261947329357e+001
0	 5.933329999996682e+000	 3.399969999982150e+000	 1.031103013215694e+001
0	 5.933329999996681e+000	 3.466639999981867e+000	 1.030931112789921e+001
0	 5.933329999996682e+000	 3.533309999982383e+000	 1.030745481438849e+001
0	 5.933329999996682e+000	 3.599979999983600e+000	 1.030545354549295e+001
0	 5.933329999996681e+000	 3.666649999985416e+000	 1.030329967508068e+001
0	 5.933329999996681e+000	 3.733319999987733e+000	 1.030098555701983e+001
0	 5.933329999996683e+000	 3.799989999990450e+000	 1.029850354517853e+001
0	 5.933329999996681e+000	 3.866659999993466e+000	 1.029584599342487e+001
0	 5.933329999996681e+000	 3.933329999996684e+000	 1.029300525562699e+001
0	 5.933329999996682e+000	 4.000000000000001e+000	 1.028997368565300e+001
0	 6.000000000000000e+000	 3.333299999983334e+000	 1.030346221406734e+001
0	 6.000000000000001e+000	 3.399969999982151e+000	 1.030189164896769e+001
0	 6.000000000000000e+000	 3.466639999981866e+000	 1.030021239582562e+001
0	 6.000000000000000e+000	 3.533309999982383e+000	 1.029841787116186e+001
0	 6.000000000000001e+000	 3.599979999983601e+000	 1.029650149149714e+001
0	 6.000000000000000e+000	 3.666649999985416e+000	 1.029445667335217e+001
0	 6.000000000000000e+000	 3.733319999987733e+000	 1.029227683324768e+001
0	 5.999999999999998e+000	 3.799989999990450e+000	 1.028995538770439e+001
0	 6.000000000000001e+000	 3.866659999993467e+000	 1.028748575324300e+001
0	 6.000000000000000e+000	 3.933329999996683e+000	 1.028486134638424e+001
0	 6.000000000000001e+000	 4.000000000000000e+000	 1.028207558364881e+001
0	 5.333299999983334e+000	 4.000000000000000e+000	 1.035843946273577e+001
0	 5.333299999983332e+000	 4.066670000003316e+000	 1.035276646658168e+001
0	 5.333299999983334e+000	 4.133340000006534e+000	 1.034708765282600e+001
0	 5.333299999983336e+000	 4.200010000009550e+000	 1.034138919014229e+001
0	 5.333299999983333e+000	 4.266680000012268e+000	 1.033565724720410e+001
0	 5.333299999983335e+000	 4.333350000014584e+000	 1.032987799268499e+001
0	 5.333299999983333e+000	 4.400020000016401e+000	 1.032403759525849e+001
0	 5.333299999983334e+000	 4.466690000017618e+000	 1.031812222359817e+001
0	 5.333299999983334e+000	 4.533360000018134e+000	 1.031211804637758e+001
0	 5.333299999983333e+000	 4.600030000017851e+000	 1.030601123227026e+001
0	 5.333299999983335e+000	 4.666700000016667e+000	 1.029978794994974e+001
0	 5.399969999982149e+000	 4.000000000000000e+000	 1.035166591462279e+001
0	 5.399969999982150e+000	 4.066670000003317e+000	 1.034620345841724e+001
0	 5.399969999982150e+000	 4.133340000006534e+000	 1.034073712421921e+001
0	 5.399969999982151e+000	 4.200010000009551e+000	 1.033525336373179e+001
0	 5.399969999982150e+000	 4.266680000012268e+000	 1.032973862865799e+001
0	 5.399969999982150e+000	 4.333350000014584e+000	 1.032417937070090e+001
0	 5.399969999982149e+000	 4.400020000016402e+000	 1.031856204156357e+001
0	 5.399969999982148e+000	 4.466690000017615e+000	 1.031287309294904e+001
0	 5.399969999982148e+000	 4.533360000018132e+000	 1.030709897656035e+001
0	 5.399969999982148e+000	 4.600030000017850e+000	 1.030122614410056e+001
0	 5.399969999982150e+000	 4.666700000016666e+000	 1.029524104727272e+001
0	 5.466639999981867e+000	 4.000000000000001e+000	 1.034456704084404e+001
0	 5.466639999981868e+000	 4.066670000003319e+000	 1.033934896264737e+001
0	 5.466639999981866e+000	 4.133340000006534e+000	 1.033412487359752e+001
0	 5.466639999981866e+000	 4.200010000009551e+000	 1.032888161234693e+001
0	 5.466639999981866e+000	 4.266680000012267e+000	 1.032360601754804e+001
0	 5.466639999981865e+000	 4.333350000014583e+000	 1.031828492785327e+001
0	 5.466639999981866e+000	 4.400020000016403e+000	 1.031290518191506e+001
0	 5.466639999981867e+000	 4.466690000017618e+000	 1.030745361838584e+001
0	 5.466639999981865e+000	 4.533360000018134e+000	 1.030191707591803e+001
0	 5.466639999981866e+000	 4.600030000017851e+000	 1.029628239316405e+001
0	 5.466639999981866e+000	 4.666700000016666e+000	 1.029053640877633e+001
0	 5.533309999982381e+000	 4.000000000000001e+000	 1.033719293520789e+001
0	 5.533309999982383e+000	 4.066670000003317e+000	 1.033224584915844e+001
0	 5.533309999982382e+000	 4.133340000006534e+000	 1.032728720715344e+001
0	 5.533309999982382e+000	 4.200010000009551e+000	 1.032230433871456e+001
0	 5.533309999982382e+000	 4.266680000012267e+000	 1.031728457336350e+001
0	 5.533309999982381e+000	 4.333350000014583e+000	 1.031221524062195e+001
0	 5.533309999982384e+000	 4.400020000016402e+000	 1.030708367001158e+001
0	 5.533309999982382e+000	 4.466690000017616e+000	 1.030187719105407e+001
0	 5.533309999982382e+000	 4.533360000018134e+000	 1.029658313327111e+001
0	 5.533309999982381e+000	 4.600030000017849e+000	 1.029118882618437e+001
0	 5.533309999982381e+000	 4.666700000016666e+000	 1.028568159931554e+001
0	 5.599979999983599e+000	 4.000000000000000e+000	 1.032959369152267e+001
0	 5.599979999983598e+000	 4.066670000003317e+000	 1.032493698783681e+001
0	 5.599979999983600e+000	 4.133340000006534e+000	 1.032026043107949e+001
0	 5.599979999983598e+000	 4.200010000009550e+000	 1.031555194556149e+001
0	 5.599979999983598e+000	 4.266680000012268e+000	 1.031079945559366e+001
0	 5.599979999983599e+000	 4.333350000014583e+000	 1.030599088548679e+001
0	 5.599979999983598e+000	 4.400020000016402e+000	 1.030111415955170e+001
0	 5.599979999983598e+000	 4.466690000017617e+000	 1.029615720209921e+001
0	 5.599979999983598e+000	 4.533360000018133e+000	 1.029110793744012e+001
0	 5.599979999983598e+000	 4.600030000017853e+000	 1.028595428988525e+001
0	 5.599979999983598e+000	 4.666700000016667e+000	 1.028068418374539e+001
0	 5.666649999985415e+000	 4.000000000000001e+000	 1.032181940359673e+001
0	 5.666649999985413e+000	 4.066670000003317e+000	 1.031746524856887e+001
0	 5.666649999985416e+000	 4.133340000006534e+000	 1.031308085156820e+001
0	 5.666649999985415e+000	 4.200010000009551e+000	 1.030865483561455e+001
0	 5.666649999985415e+000	 4.266680000012268e+000	 1.030417582372776e+001
0	 5.666649999985415e+000	 4.333350000014582e+000	 1.029963243892765e+001
0	 5.666649999985415e+000	 4.400020000016400e+000	 1.029501330423405e+001
0	 5.666649999985414e+000	 4.466690000017616e+000	 1.029030704266675e+001
0	 5.666649999985417e+000	 4.533360000018134e+000	 1.028550227724558e+001
0	 5.666649999985416e+000	 4.600030000017851e+000	 1.028058763099035e+001
0	 5.666649999985415e+000	 4.666700000016666e+000	 1.027555172692088e+001
0	 5.733319999987731e+000	 4.000000000000000e+000	 1.031392016523845e+001
0	 5.733319999987732e+000	 4.066670000003318e+000	 1.030987350124094e+001
0	 5.733319999987733e+000	 4.133340000006535e+000	 1.030578477481206e+001
0	 5.733319999987732e+000	 4.200010000009550e+000	 1.030164341160054e+001
0	 5.733319999987731e+000	 4.266680000012268e+000	 1.029743883725509e+001
0	 5.733319999987731e+000	 4.333350000014583e+000	 1.029316047742440e+001
0	 5.733319999987731e+000	 4.400020000016402e+000	 1.028879775775718e+001
0	 5.733319999987733e+000	 4.466690000017617e+000	 1.028434010390215e+001
0	 5.733319999987733e+000	 4.533360000018135e+000	 1.027977694150797e+001
0	 5.733319999987733e+000	 4.600030000017851e+000	 1.027509769622337e+001
0	 5.733319999987732e+000	 4.666700000016667e+000	 1.027029179369702e+001
0	 5.799989999990448e+000	 4.000000000000000e+000	 1.030594607025617e+001
0	 5.799989999990449e+000	 4.066670000003317e+000	 1.030220461573940e+001
0	 5.799989999990448e+000	 4.133340000006534e+000	 1.029840850700361e+001
0	 5.799989999990450e+000	 4.200010000009551e+000	 1.029454807624629e+001
0	 5.799989999990448e+000	 4.266680000012268e+000	 1.029061365566489e+001
0	 5.799989999990448e+000	 4.333350000014583e+000	 1.028659557745689e+001
0	 5.799989999990448e+000	 4.400020000016401e+000	 1.028248417381973e+001
0	 5.799989999990448e+000	 4.466690000017618e+000	 1.027826977695090e+001
0	 5.799989999990448e+000	 4.533360000018133e+000	 1.027394271904784e+001
0	 5.799989999990447e+000	 4.600030000017850e+000	 1.026949333230799e+001
0	 5.799989999990448e+000	 4.666700000016667e+000	 1.026491194892882e+001
0	 5.866659999993464e+000	 4.000000000000001e+000	 1.029794721245823e+001
0	 5.866659999993464e+000	 4.066670000003317e+000	 1.029450146195061e+001
0	 5.866659999993464e+000	 4.133340000006535e+000	 1.029098835433536e+001
0	 5.866659999993464e+000	 4.200010000009551e+000	 1.028739923227861e+001
0	 5.866659999993465e+000	 4.266680000012268e+000	 1.028372543844645e+001
0	 5.866659999993466e+000	 4.333350000014585e+000	 1.027995831550498e+001
0	 5.866659999993464e+000	 4.400020000016401e+000	 1.027608920612029e+001
0	 5.866659999993464e+000	 4.466690000017617e+000	 1.027210945295849e+001
0	 5.866659999993464e+000	 4.533360000018132e+000	 1.026801039868566e+001
0	 5.866659999993463e+000	 4.600030000017850e+000	 1.026378338596790e+001
0	 5.866659999993464e+000	 4.666700000016665e+000	 1.025941975747129e+001
0	 5.933329999996682e+000	 4.000000000000001e+000	 1.028997368565300e+001
0	 5.933329999996681e+000	 4.066670000003317e+000	 1.028680690976094e+001
0	 5.933329999996682e+000	 4.133340000006534e+000	 1.028356062299983e+001
0	 5.933329999996682e+000	 4.200010000009550e+000	 1.028022728242432e+001
0	 5.933329999996681e+000	 4.266680000012268e+000	 1.027679934508901e+001
0	 5.933329999996681e+000	 4.333350000014584e+000	 1.027326926804852e+001
0	 5.933329999996680e+000	 4.400020000016400e+000	 1.026962950835745e+001
0	 5.933329999996682e+000	 4.466690000017618e+000	 1.026587252307039e+001
0	 5.933329999996681e+000	 4.533360000018133e+000	 1.026199076924198e+001
0	 5.933329999996682e+000	 4.600030000017850e+000	 1.025797670392679e+001
0	 5.933329999996681e+000	 4.666700000016667e+000	 1.025382278417945e+001
0	 6.000000000000001e+000	 4.000000000000000e+000	 1.028207558364881e+001
0	 6.000000000000001e+000	 4.066670000003318e+000	 1.027916382905673e+001
0	 6.000000000000000e+000	 4.133340000006534e+000	 1.027616161918953e+001
0	 6.000000000000000e+000	 4.200010000009550e+000	 1.027306262941024e+001
0	 6.000000000000002e+000	 4.266680000012268e+000	 1.026986053508185e+001
0	 6.000000000000000e+000	 4.333350000014584e+000	 1.026654901156738e+001
0	 5.999999999999998e+000	 4.400020000016401e+000	 1.026312173422978e+001
0	 5.999999999999999e+000	 4.466690000017617e+000	 1.025957237843209e+001
0	 6.000000000000001e+000	 4.533360000018134e+000	 1.025589461953728e+001
0	 6.000000000000000e+000	 4.600030000017850e+000	 1.025208213290835e+001
0	 6.000000000000000e+000	 4.666700000016666e+000	 1.024812859390828e+001
0	 5.333299999983335e+000	 4.666700000016667e+000	 1.029978794994974e+001
0	 5.333299999983333e+000	 4.733360000014533e+000	 1.029353401428254e+001
0	 5.333299999983335e+000	 4.800020000011600e+000	 1.028733759329242e+001
0	 5.333299999983335e+000	 4.866680000008068e+000	 1.028119121400446e+001
0	 5.333299999983335e+000	 4.933340000004134e+000	 1.027508740344375e+001
0	 5.333299999983333e+000	 5.000000000000000e+000	 1.026901868863538e+001
0	 5.333299999983334e+000	 5.066659999995866e+000	 1.026297759660443e+001
0	 5.333299999983335e+000	 5.133319999991934e+000	 1.025695665437601e+001
0	 5.333299999983333e+000	 5.199979999988400e+000	 1.025094838897517e+001
0	 5.333299999983334e+000	 5.266639999985467e+000	 1.024494532742704e+001
0	 5.333299999983333e+000	 5.333299999983333e+000	 1.023893999675672e+001
0	 5.399969999982150e+000	 4.666700000016666e+000	 1.029524104727273e+001
0	 5.399969999982150e+000	 4.733360000014534e+000	 1.028922201239474e+001
0	 5.399969999982149e+000	 4.800020000011600e+000	 1.028325024446838e+001
0	 5.399969999982148e+000	 4.866680000008066e+000	 1.027731923367176e+001
0	 5.399969999982149e+000	 4.933340000004132e+000	 1.027142247018295e+001
0	 5.399969999982150e+000	 5.000000000000000e+000	 1.026555344418006e+001
0	 5.399969999982148e+000	 5.066659999995867e+000	 1.025970564584118e+001
0	 5.399969999982150e+000	 5.133319999991936e+000	 1.025387256534442e+001
0	 5.399969999982151e+000	 5.199979999988400e+000	 1.024804769286789e+001
0	 5.399969999982150e+000	 5.266639999985468e+000	 1.024222451858967e+001
0	 5.399969999982150e+000	 5.333299999983332e+000	 1.023639653268788e+001
0	 5.466639999981866e+000	 4.666700000016666e+000	 1.029053640877633e+001
0	 5.466639999981866e+000	 4.733360000014533e+000	 1.028475146853206e+001
0	 5.466639999981865e+000	 4.800020000011599e+000	 1.027900314395083e+001
0	 5.466639999981865e+000	 4.866680000008065e+000	 1.027328572487799e+001
0	 5.466639999981867e+000	 4.933340000004135e+000	 1.026759350115888e+001
0	 5.466639999981863e+000	 4.999999999999999e+000	 1.026192076263889e+001
0	 5.466639999981865e+000	 5.066659999995865e+000	 1.025626179916337e+001
0	 5.466639999981865e+000	 5.133319999991933e+000	 1.025061090057768e+001
0	 5.466639999981866e+000	 5.199979999988402e+000	 1.024496235672718e+001
0	 5.466639999981867e+000	 5.266639999985468e+000	 1.023931045745728e+001
0	 5.466639999981866e+000	 5.333299999983335e+000	 1.023364949261329e+001
0	 5.533309999982381e+000	 4.666700000016666e+000	 1.028568159931554e+001
0	 5.533309999982381e+000	 4.733360000014533e+000	 1.028012914493132e+001
0	 5.533309999982382e+000	 4.800020000011600e+000	 1.027460254934567e+001
0	 5.533309999982383e+000	 4.866680000008068e+000	 1.026909673858548e+001
0	 5.533309999982381e+000	 4.933340000004133e+000	 1.026360663867762e+001
0	 5.533309999982383e+000	 5.000000000000000e+000	 1.025812717564898e+001
0	 5.533309999982381e+000	 5.066659999995867e+000	 1.025265327552643e+001
0	 5.533309999982384e+000	 5.133319999991935e+000	 1.024717986433685e+001
0	 5.533309999982381e+000	 5.199979999988400e+000	 1.024170186810714e+001
0	 5.533309999982382e+000	 5.266639999985468e+000	 1.023621421286418e+001
0	 5.533309999982382e+000	 5.333299999983334e+000	 1.023071182463486e+001
0	 5.599979999983598e+000	 4.666700000016667e+000	 1.028068418374539e+001
0	 5.599979999983598e+000	 4.733360000014533e+000	 1.027536180382931e+001
0	 5.599979999983598e+000	 4.800020000011600e+000	 1.027005471825884e+001
0	 5.599979999983598e+000	 4.866680000008065e+000	 1.026475832575660e+001
0	 5.599979999983598e+000	 4.933340000004134e+000	 1.025946802504524e+001
0	 5.599979999983599e+000	 5.000000000000000e+000	 1.025417921484742e+001
0	 5.599979999983597e+000	 5.066659999995865e+000	 1.024888729388581e+001
0	 5.599979999983598e+000	 5.133319999991935e+000	 1.024358766088305e+001
0	 5.599979999983598e+000	 5.199979999988400e+000	 1.023827571456180e+001
0	 5.599979999983598e+000	 5.266639999985467e+000	 1.023294685364473e+001
0	 5.599979999983598e+000	 5.333299999983333e+000	 1.022759647685448e+001
0	 5.666649999985415e+000	 4.666700000016666e+000	 1.027555172692088e+001
0	 5.666649999985414e+000	 4.733360000014534e+000	 1.027045620746288e+001
0	 5.666649999985416e+000	 4.800020000011601e+000	 1.026536590829626e+001
0	 5.666649999985415e+000	 4.866680000008066e+000	 1.026027653735368e+001
0	 5.666649999985416e+000	 4.933340000004134e+000	 1.025518380256781e+001
0	 5.666649999985416e+000	 5.000000000000001e+000	 1.025008341187136e+001
0	 5.666649999985416e+000	 5.066659999995865e+000	 1.024497107319698e+001
0	 5.666649999985417e+000	 5.133319999991937e+000	 1.023984249447738e+001
0	 5.666649999985415e+000	 5.199979999988400e+000	 1.023469338364523e+001
0	 5.666649999985416e+000	 5.266639999985468e+000	 1.022951944863322e+001
0	 5.666649999985413e+000	 5.333299999983332e+000	 1.022431639737405e+001
0	 5.733319999987732e+000	 4.666700000016667e+000	 1.027029179369702e+001
0	 5.733319999987731e+000	 4.733360000014532e+000	 1.026541911806883e+001
0	 5.733319999987730e+000	 4.800020000011599e+000	 1.026054237706386e+001
0	 5.733319999987731e+000	 4.866680000008066e+000	 1.025565742433908e+001
0	 5.733319999987730e+000	 4.933340000004131e+000	 1.025076011355143e+001
0	 5.733319999987733e+000	 5.000000000000000e+000	 1.024584629835787e+001
0	 5.733319999987731e+000	 5.066659999995867e+000	 1.024091183241539e+001
0	 5.733319999987730e+000	 5.133319999991935e+000	 1.023595256938094e+001
0	 5.733319999987732e+000	 5.199979999988402e+000	 1.023096436291148e+001
0	 5.733319999987732e+000	 5.266639999985467e+000	 1.022594306666400e+001
0	 5.733319999987732e+000	 5.333299999983335e+000	 1.022088453429547e+001
0	 5.799989999990448e+000	 4.666700000016667e+000	 1.026491194892882e+001
0	 5.799989999990448e+000	 4.733360000014532e+000	 1.026025729788397e+001
0	 5.799989999990448e+000	 4.800020000011599e+000	 1.025559038216758e+001
0	 5.799989999990448e+000	 4.866680000008066e+000	 1.025090703767513e+001
0	 5.799989999990450e+000	 4.933340000004135e+000	 1.024620310030214e+001
0	 5.799989999990448e+000	 5.000000000000000e+000	 1.024147440594408e+001
0	 5.799989999990448e+000	 5.066659999995866e+000	 1.023671679049648e+001
0	 5.799989999990448e+000	 5.133319999991935e+000	 1.023192608985483e+001
0	 5.799989999990447e+000	 5.199979999988400e+000	 1.022709813991463e+001
0	 5.799989999990449e+000	 5.266639999985468e+000	 1.022222877657140e+001
0	 5.799989999990448e+000	 5.333299999983334e+000	 1.021731383572065e+001
0	 5.866659999993464e+000	 4.666700000016665e+000	 1.025941975747129e+001
0	 5.866659999993464e+000	 4.733360000014534e+000	 1.025497750914511e+001
0	 5.866659999993465e+000	 4.800020000011601e+000	 1.025051618121332e+001
0	 5.866659999993464e+000	 4.866680000008066e+000	 1.024603142832419e+001
0	 5.866659999993464e+000	 4.933340000004132e+000	 1.024151890512603e+001
0	 5.866659999993465e+000	 4.999999999999999e+000	 1.023697426626710e+001
0	 5.866659999993465e+000	 5.066659999995866e+000	 1.023239316639571e+001
0	 5.866659999993465e+000	 5.133319999991936e+000	 1.022777126016016e+001
0	 5.866659999993465e+000	 5.199979999988400e+000	 1.022310420220874e+001
0	 5.866659999993464e+000	 5.266639999985467e+000	 1.021838764718975e+001
0	 5.866659999993464e+000	 5.333299999983334e+000	 1.021361724975149e+001
0	 5.933329999996681e+000	 4.666700000016667e+000	 1.025382278417945e+001
0	 5.933329999996682e+000	 4.733360000014532e+000	 1.024958651408908e+001
0	 5.933329999996681e+000	 4.800020000011600e+000	 1.024532603180703e+001
0	 5.933329999996682e+000	 4.866680000008066e+000	 1.024103664724861e+001
0	 5.933329999996680e+000	 4.933340000004133e+000	 1.023671367032917e+001
0	 5.933329999996682e+000	 5.000000000000000e+000	 1.023235241096404e+001
0	 5.933329999996681e+000	 5.066659999995866e+000	 1.022794817906854e+001
0	 5.933329999996680e+000	 5.133319999991933e+000	 1.022349628455804e+001
0	 5.933329999996682e+000	 5.199979999988400e+000	 1.021899203734786e+001
0	 5.933329999996682e+000	 5.266639999985468e+000	 1.021443074735336e+001
0	 5.933329999996682e+000	 5.333299999983334e+000	 1.020980772448988e+001
0	 6.000000000000000e+000	 4.666700000016666e+000	 1.024812859390828e+001
0	 5.999999999999998e+000	 4.733360000014531e+000	 1.024409107495268e+001
0	 5.999999999999998e+000	 4.800020000011600e+000	 1.024002619155462e+001
0	 6.000000000000002e+000	 4.866680000008068e+000	 1.023592874541073e+001
0	 5.999999999999998e+000	 4.933340000004132e+000	 1.023179353821765e+001
0	 6.000000000000002e+000	 5.000000000000002e+000	 1.022761537167199e+001
0	 5.999999999999999e+000	 5.066659999995866e+000	 1.022338904747042e+001
0	 6.000000000000000e+000	 5.133319999991934e+000	 1.021910936730957e+001
0	 5.999999999999998e+000	 5.199979999988400e+000	 1.021477113288606e+001
0	 6.000000000000000e+000	 5.266639999985468e+000	 1.021036914589656e+001
0	 6.000000000000000e+000	 5.333299999983334e+000	 1.020589820803773e+001
0	 5.333299999983333e+000	 5.333299999983333e+000	 1.023893999675672e+001
0	 5.333299999983333e+000	 5.399969999982149e+000	 1.023296404908652e+001
0	 5.333299999983334e+000	 5.466639999981867e+000	 1.022705283290543e+001
0	 5.333299999983334e+000	 5.533309999982384e+000	 1.022120171548770e+001
0	 5.333299999983334e+000	 5.599979999983600e+000	 1.021540606410759e+001
0	 5.333299999983334e+000	 5.666649999985415e+000	 1.020966124603937e+001
0	 5.333299999983335e+000	 5.733319999987733e+000	 1.020396262855734e+001
0	 5.333299999983334e+000	 5.799989999990448e+000	 1.019830557893572e+001
0	 5.333299999983333e+000	 5.866659999993467e+000	 1.019268546444882e+001
0	 5.333299999983335e+000	 5.933329999996684e+000	 1.018709765237089e+001
0	 5.333299999983333e+000	 5.999999999999998e+000	 1.018153750997620e+001
0	 5.399969999982150e+000	 5.333299999983332e+000	 1.023639653268788e+001
0	 5.399969999982149e+000	 5.399969999982149e+000	 1.023059387081437e+001
0	 5.399969999982148e+000	 5.466639999981865e+000	 1.022484933848008e+001
0	 5.399969999982151e+000	 5.533309999982383e+000	 1.021915780573644e+001
0	 5.399969999982149e+000	 5.599979999983599e+000	 1.021351414263492e+001
0	 5.399969999982151e+000	 5.666649999985417e+000	 1.020791321922697e+001
0	 5.399969999982152e+000	 5.733319999987733e+000	 1.020234990556405e+001
0	 5.399969999982149e+000	 5.799989999990448e+000	 1.019681907169760e+001
0	 5.399969999982151e+000	 5.866659999993467e+000	 1.019131558767911e+001
0	 5.399969999982149e+000	 5.933329999996683e+000	 1.018583432356000e+001
0	 5.399969999982150e+000	 6.000000000000000e+000	 1.018037014939174e+001
0	 5.466639999981866e+000	 5.333299999983335e+000	 1.023364949261329e+001
0	 5.466639999981866e+000	 5.399969999982149e+000	 1.022800974324379e+001
0	 5.466639999981865e+000	 5.466639999981866e+000	 1.022242331396675e+001
0	 5.466639999981866e+000	 5.533309999982382e+000	 1.021688467939624e+001
0	 5.466639999981865e+000	 5.599979999983598e+000	 1.021138831414629e+001
0	 5.466639999981866e+000	 5.666649999985416e+000	 1.020592869283095e+001
0	 5.466639999981867e+000	 5.733319999987733e+000	 1.020050029006429e+001
0	 5.466639999981866e+000	 5.799989999990450e+000	 1.019509758046035e+001
0	 5.466639999981866e+000	 5.866659999993467e+000	 1.018971503863316e+001
0	 5.466639999981869e+000	 5.933329999996686e+000	 1.018434713919679e+001
0	 5.466639999981868e+000	 6.000000000000002e+000	 1.017898835676528e+001
0	 5.533309999982382e+000	 5.333299999983334e+000	 1.023071182463486e+001
0	 5.533309999982382e+000	 5.399969999982149e+000	 1.022522645646396e+001
0	 5.533309999982382e+000	 5.466639999981866e+000	 1.021979101828553e+001
0	 5.533309999982382e+000	 5.533309999982383e+000	 1.021439969106161e+001
0	 5.533309999982383e+000	 5.599979999983600e+000	 1.020904665575429e+001
0	 5.533309999982383e+000	 5.666649999985417e+000	 1.020372609332558e+001
0	 5.533309999982382e+000	 5.733319999987732e+000	 1.019843218473755e+001
0	 5.533309999982382e+000	 5.799989999990451e+000	 1.019315911095223e+001
0	 5.533309999982382e+000	 5.866659999993466e+000	 1.018790105293170e+001
0	 5.533309999982383e+000	 5.933329999996683e+000	 1.018265219163800e+001
0	 5.533309999982382e+000	 6.000000000000001e+000	 1.017740670803316e+001
0	 5.599979999983598e+000	 5.333299999983333e+000	 1.022759647685448e+001
0	 5.599979999983598e+000	 5.399969999982149e+000	 1.022225880056407e+001
0	 5.599979999983598e+000	 5.466639999981866e+000	 1.021696871035647e+001
0	 5.599979999983598e+000	 5.533309999982382e+000	 1.021172019532713e+001
0	 5.599979999983598e+000	 5.599979999983599e+000	 1.020650724457152e+001
0	 5.599979999983598e+000	 5.666649999985416e+000	 1.020132384718507e+001
0	 5.599979999983597e+000	 5.733319999987733e+000	 1.019616399226328e+001
0	 5.599979999983598e+000	 5.799989999990449e+000	 1.019102166890159e+001
0	 5.599979999983598e+000	 5.866659999993467e+000	 1.018589086619544e+001
0	 5.599979999983598e+000	 5.933329999996684e+000	 1.018076557324033e+001
0	 5.599979999983600e+000	 6.000000000000002e+000	 1.017563977913168e+001
0	 5.666649999985413e+000	 5.333299999983332e+000	 1.022431639737405e+001
0	 5.666649999985417e+000	 5.399969999982151e+000	 1.021912156563332e+001
0	 5.666649999985415e+000	 5.466639999981865e+000	 1.021397264909966e+001
0	 5.666649999985416e+000	 5.533309999982385e+000	 1.020886354678730e+001
0	 5.666649999985415e+000	 5.599979999983600e+000	 1.020378815771057e+001
0	 5.666649999985415e+000	 5.666649999985415e+000	 1.019874038088371e+001
0	 5.666649999985413e+000	 5.733319999987733e+000	 1.019371411532100e+001
0	 5.666649999985415e+000	 5.799989999990450e+000	 1.018870326003671e+001
0	 5.666649999985414e+000	 5.866659999993467e+000	 1.018370171404513e+001
0	 5.666649999985415e+000	 5.933329999996685e+000	 1.017870337636053e+001
0	 5.666649999985415e+000	 5.999999999999998e+000	 1.017370214599718e+001
0	 5.733319999987732e+000	 5.333299999983335e+000	 1.022088453429547e+001
0	 5.733319999987731e+000	 5.399969999982148e+000	 1.021582954176091e+001
0	 5.733319999987733e+000	 5.466639999981866e+000	 1.021081909343515e+001
0	 5.733319999987733e+000	 5.533309999982385e+000	 1.020584710003669e+001
0	 5.733319999987730e+000	 5.599979999983598e+000	 1.020090747228405e+001
0	 5.733319999987731e+000	 5.666649999985414e+000	 1.019599412089570e+001
0	 5.733319999987731e+000	 5.733319999987733e+000	 1.019110095659016e+001
0	 5.733319999987732e+000	 5.799989999990450e+000	 1.018622189008591e+001
0	 5.733319999987731e+000	 5.866659999993467e+000	 1.018135083210146e+001
0	 5.733319999987733e+000	 5.933329999996685e+000	 1.017648169335531e+001
0	 5.733319999987731e+000	 6.000000000000000e+000	 1.017160838456594e+001
0	 5.799989999990448e+000	 5.333299999983334e+000	 1.021731383572065e+001
0	 5.799989999990448e+000	 5.399969999982149e+000	 1.021239751903602e+001
0	 5.799989999990449e+000	 5.466639999981866e+000	 1.020752430228304e+001
0	 5.799989999990448e+000	 5.533309999982382e+000	 1.020268820966984e+001
0	 5.799989999990449e+000	 5.599979999983600e+000	 1.019788326540456e+001
0	 5.799989999990448e+000	 5.666649999985417e+000	 1.019310349369532e+001
0	 5.799989999990447e+000	 5.733319999987733e+000	 1.018834291875026e+001
0	 5.799989999990449e+000	 5.799989999990448e+000	 1.018359556477749e+001
0	 5.799989999990448e+000	 5.866659999993467e+000	 1.017885545598517e+001
0	 5.799989999990450e+000	 5.933329999996684e+000	 1.017411661658140e+001
0	 5.799989999990447e+000	 5.999999999999999e+000	 1.016937307077431e+001
0	 5.866659999993464e+000	 5.333299999983334e+000	 1.021361724975148e+001
0	 5.866659999993465e+000	 5.399969999982149e+000	 1.020884028754784e+001
0	 5.866659999993465e+000	 5.466639999981866e+000	 1.020410453456338e+001
0	 5.866659999993466e+000	 5.533309999982383e+000	 1.019940423028128e+001
0	 5.866659999993465e+000	 5.599979999983599e+000	 1.019473361418470e+001
0	 5.866659999993466e+000	 5.666649999985418e+000	 1.019008692575681e+001
0	 5.866659999993465e+000	 5.733319999987733e+000	 1.018545840448078e+001
0	 5.866659999993463e+000	 5.799989999990449e+000	 1.018084228983977e+001
0	 5.866659999993465e+000	 5.866659999993467e+000	 1.017623282131697e+001
0	 5.866659999993465e+000	 5.933329999996685e+000	 1.017162423839552e+001
0	 5.866659999993464e+000	 6.000000000000000e+000	 1.016701078055861e+001
0	 5.933329999996682e+000	 5.333299999983334e+000	 1.020980772448987e+001
0	 5.933329999996682e+000	 5.399969999982150e+000	 1.020517263738556e+001
0	 5.933329999996681e+000	 5.466639999981866e+000	 1.020057604919626e+001
0	 5.933329999996682e+000	 5.533309999982383e+000	 1.019601251646554e+001
0	 5.933329999996682e+000	 5.599979999983599e+000	 1.019147659573706e+001
0	 5.933329999996681e+000	 5.666649999985418e+000	 1.018696284355441e+001
0	 5.933329999996682e+000	 5.733319999987733e+000	 1.018246581646120e+001
0	 5.933329999996681e+000	 5.799989999990450e+000	 1.017798007100106e+001
0	 5.933329999996682e+000	 5.866659999993467e+000	 1.017350016371761e+001
0	 5.933329999996682e+000	 5.933329999996683e+000	 1.016902065115442e+001
0	 5.933329999996680e+000	 5.999999999999998e+000	 1.016453608985514e+001
0	 6.000000000000000e+000	 5.333299999983334e+000	 1.020589820803772e+001
0	 6.000000000000000e+000	 5.399969999982150e+000	 1.020140935863841e+001
0	 6.000000000000001e+000	 5.466639999981868e+000	 1.019695510510174e+001
0	 6.000000000000000e+000	 5.533309999982383e+000	 1.019253042281720e+001
0	 6.000000000000000e+000	 5.599979999983598e+000	 1.018813028717426e+001
0	 5.999999999999998e+000	 5.666649999985416e+000	 1.018374967356238e+001
0	 5.999999999999998e+000	 5.733319999987732e+000	 1.017938355737102e+001
0	 5.999999999999999e+000	 5.799989999990449e+000	 1.017502691398967e+001
0	 5.999999999999998e+000	 5.866659999993467e+000	 1.017067471880777e+001
0	 6.000000000000000e+000	 5.933329999996683e+000	 1.016632194721481e+001
0	 5.999999999999999e+000	 5.999999999999999e+000	 1.016196357460023e+001
0	 5.333299999983333e+000	 5.999999999999998e+000	 1.018153750997620e+001
0	 5.333299999983334e+000	 6.066670000003317e+000	 1.017604142478841e+001
0	 5.333299999983333e+000	 6.133340000006530e+000	 1.017064657350580e+001
0	 5.333299999983334e+000	 6.200010000009550e+000	 1.016534950716458e+001
0	 5.333299999983335e+000	 6.266680000012268e+000	 1.016014677680100e+001
0	 5.333299999983334e+000	 6.333350000014584e+000	 1.015503493345128e+001
0	 5.333299999983335e+000	 6.400020000016401e+000	 1.015001052815164e+001
0	 5.333299999983334e+000	 6.466690000017618e+000	 1.014507011193831e+001
0	 5.333299999983333e+000	 6.533360000018132e+000	 1.014021023584753e+001
0	 5.333299999983333e+000	 6.600030000017849e+000	 1.013542745091552e+001
0	 5.333299999983334e+000	 6.666700000016665e+000	 1.013071830817851e+001
0	 5.399969999982150e+000	 6.000000000000000e+000	 1.018037014939174e+001
0	 5.399969999982148e+000	 6.066670000003314e+000	 1.017496255891678e+001
0	 5.399969999982149e+000	 6.133340000006533e+000	 1.016965225993678e+001
0	 5.399969999982150e+000	 6.200010000009552e+000	 1.016443594359207e+001
0	 5.399969999982151e+000	 6.266680000012269e+000	 1.015931030102292e+001
0	 5.399969999982150e+000	 6.333350000014584e+000	 1.015427202336965e+001
0	 5.399969999982149e+000	 6.400020000016399e+000	 1.014931780177254e+001
0	 5.399969999982151e+000	 6.466690000017619e+000	 1.014444432737190e+001
0	 5.399969999982148e+000	 6.533360000018132e+000	 1.013964829130805e+001
0	 5.399969999982149e+000	 6.600030000017852e+000	 1.013492638472126e+001
0	 5.399969999982151e+000	 6.666700000016668e+000	 1.013027529875186e+001
0	 5.466639999981868e+000	 6.000000000000002e+000	 1.017898835676528e+001
0	 5.466639999981866e+000	 6.066670000003318e+000	 1.017367956758359e+001
0	 5.466639999981866e+000	 6.133340000006531e+000	 1.016846320250254e+001
0	 5.466639999981867e+000	 6.200010000009551e+000	 1.016333606804505e+001
0	 5.466639999981865e+000	 6.266680000012267e+000	 1.015829497073401e+001
0	 5.466639999981865e+000	 6.333350000014584e+000	 1.015333671709228e+001
0	 5.466639999981866e+000	 6.400020000016399e+000	 1.014845811364279e+001
0	 5.466639999981867e+000	 6.466690000017617e+000	 1.014365596690844e+001
0	 5.466639999981864e+000	 6.533360000018134e+000	 1.013892708341210e+001
0	 5.466639999981865e+000	 6.600030000017852e+000	 1.013426826967668e+001
0	 5.466639999981866e+000	 6.666700000016667e+000	 1.012967633222507e+001
0	 5.533309999982382e+000	 6.000000000000001e+000	 1.017740670803316e+001
0	 5.533309999982383e+000	 6.066670000003317e+000	 1.017220542790566e+001
0	 5.533309999982381e+000	 6.133340000006533e+000	 1.016709098785860e+001
0	 5.533309999982382e+000	 6.200010000009551e+000	 1.016206028507595e+001
0	 5.533309999982383e+000	 6.266680000012268e+000	 1.015711021674179e+001
0	 5.533309999982382e+000	 6.333350000014585e+000	 1.015223768004007e+001
0	 5.533309999982381e+000	 6.400020000016398e+000	 1.014743957215484e+001
0	 5.533309999982381e+000	 6.466690000017614e+000	 1.014271279027010e+001
0	 5.533309999982381e+000	 6.533360000018135e+000	 1.013805423156987e+001
0	 5.533309999982381e+000	 6.600030000017847e+000	 1.013346079323815e+001
0	 5.533309999982382e+000	 6.666700000016665e+000	 1.012892937245896e+001
0	 5.599979999983600e+000	 6.000000000000002e+000	 1.017563977913168e+001
0	 5.599979999983598e+000	 6.066670000003318e+000	 1.017055311699980e+001
0	 5.599979999983598e+000	 6.133340000006532e+000	 1.016554720266043e+001
0	 5.599979999983599e+000	 6.200010000009551e+000	 1.016061899923722e+001
0	 5.599979999983598e+000	 6.266680000012267e+000	 1.015576546985384e+001
0	 5.599979999983599e+000	 6.333350000014585e+000	 1.015098357763394e+001
0	 5.599979999983598e+000	 6.400020000016400e+000	 1.014627028570113e+001
0	 5.599979999983598e+000	 6.466690000017618e+000	 1.014162255717913e+001
0	 5.599979999983598e+000	 6.533360000018133e+000	 1.013703735519154e+001
0	 5.599979999983598e+000	 6.600030000017851e+000	 1.013251164286203e+001
0	 5.599979999983598e+000	 6.666700000016666e+000	 1.012804238331427e+001
0	 5.666649999985415e+000	 5.999999999999998e+000	 1.017370214599718e+001
0	 5.666649999985414e+000	 6.066670000003317e+000	 1.016873561198282e+001
0	 5.666649999985415e+000	 6.133340000006534e+000	 1.016384343356359e+001
0	 5.666649999985414e+000	 6.200010000009551e+000	 1.015902261508131e+001
0	 5.666649999985414e+000	 6.266680000012268e+000	 1.015427016087774e+001
0	 5.666649999985415e+000	 6.333350000014585e+000	 1.014958307529475e+001
0	 5.666649999985415e+000	 6.400020000016399e+000	 1.014495836267413e+001
0	 5.666649999985415e+000	 6.466690000017617e+000	 1.014039302735771e+001
0	 5.666649999985415e+000	 6.533360000018133e+000	 1.013588407368729e+001
0	 5.666649999985415e+000	 6.600030000017850e+000	 1.013142850600471e+001
0	 5.666649999985415e+000	 6.666700000016665e+000	 1.012702332865177e+001
0	 5.733319999987731e+000	 6.000000000000000e+000	 1.017160838456594e+001
0	 5.733319999987733e+000	 6.066670000003317e+000	 1.016676588997154e+001
0	 5.733319999987732e+000	 6.133340000006533e+000	 1.016199126722358e+001
0	 5.733319999987733e+000	 6.200010000009552e+000	 1.015728153716058e+001
0	 5.733319999987731e+000	 6.266680000012267e+000	 1.015263372062102e+001
0	 5.733319999987731e+000	 6.333350000014584e+000	 1.014804483844342e+001
0	 5.733319999987732e+000	 6.400020000016402e+000	 1.014351191146627e+001
0	 5.733319999987733e+000	 6.466690000017618e+000	 1.013903196052809e+001
0	 5.733319999987733e+000	 6.533360000018135e+000	 1.013460200646735e+001
0	 5.733319999987731e+000	 6.600030000017848e+000	 1.013021907012258e+001
0	 5.733319999987732e+000	 6.666700000016666e+000	 1.012588017233226e+001
0	 5.799989999990447e+000	 5.999999999999999e+000	 1.016937307077431e+001
0	 5.799989999990450e+000	 6.066670000003319e+000	 1.016465692808276e+001
0	 5.799989999990447e+000	 6.133340000006533e+000	 1.016000229029592e+001
0	 5.799989999990449e+000	 6.200010000009551e+000	 1.015540617002751e+001
0	 5.799989999990447e+000	 6.266680000012269e+000	 1.015086557989125e+001
0	 5.799989999990449e+000	 6.333350000014585e+000	 1.014637753250085e+001
0	 5.799989999990448e+000	 6.400020000016403e+000	 1.014193904047001e+001
0	 5.799989999990448e+000	 6.466690000017615e+000	 1.013754711641244e+001
0	 5.799989999990449e+000	 6.533360000018136e+000	 1.013319877294186e+001
0	 5.799989999990448e+000	 6.600030000017851e+000	 1.012889102267197e+001
0	 5.799989999990448e+000	 6.666700000016665e+000	 1.012462087821650e+001
0	 5.866659999993464e+000	 6.000000000000000e+000	 1.016701078055861e+001
0	 5.866659999993464e+000	 6.066670000003316e+000	 1.016242170343327e+001
0	 5.866659999993465e+000	 6.133340000006532e+000	 1.015788808943610e+001
0	 5.866659999993465e+000	 6.200010000009550e+000	 1.015340691823453e+001
0	 5.866659999993465e+000	 6.266680000012269e+000	 1.014897516949600e+001
0	 5.866659999993465e+000	 6.333350000014585e+000	 1.014458982288793e+001
0	 5.866659999993465e+000	 6.400020000016402e+000	 1.014024785807778e+001
0	 5.866659999993464e+000	 6.466690000017616e+000	 1.013594625473301e+001
0	 5.866659999993466e+000	 6.533360000018134e+000	 1.013168199252104e+001
0	 5.866659999993464e+000	 6.600030000017848e+000	 1.012745205110930e+001
0	 5.866659999993465e+000	 6.666700000016666e+000	 1.012325341016525e+001
0	 5.933329999996680e+000	 5.999999999999998e+000	 1.016453608985514e+001
0	 5.933329999996682e+000	 6.066670000003318e+000	 1.016007319313993e+001
0	 5.933329999996680e+000	 6.133340000006534e+000	 1.015566025129968e+001
0	 5.933329999996681e+000	 6.200010000009551e+000	 1.015129418633406e+001
0	 5.933329999996682e+000	 6.266680000012268e+000	 1.014697192024280e+001
0	 5.933329999996682e+000	 6.333350000014585e+000	 1.014269037502557e+001
0	 5.933329999996682e+000	 6.400020000016402e+000	 1.013844647268207e+001
0	 5.933329999996682e+000	 6.466690000017616e+000	 1.013423713521200e+001
0	 5.933329999996681e+000	 6.533360000018134e+000	 1.013005928461505e+001
0	 5.933329999996681e+000	 6.600030000017850e+000	 1.012590984289092e+001
0	 5.933329999996682e+000	 6.666700000016665e+000	 1.012178573203930e+001
0	 5.999999999999999e+000	 5.999999999999999e+000	 1.016196357460023e+001
0	 6.000000000000000e+000	 6.066670000003318e+000	 1.015762437431952e+001
0	 6.000000000000000e+000	 6.133340000006533e+000	 1.015333036254213e+001
0	 5.999999999999996e+000	 6.200010000009550e+000	 1.014907837887854e+001
0	 5.999999999999998e+000	 6.266680000012267e+000	 1.014486526293924e+001
0	 6.000000000000000e+000	 6.333350000014585e+000	 1.014068785433465e+001
0	 5.999999999999998e+000	 6.400020000016399e+000	 1.013654299267530e+001
0	 6.000000000000001e+000	 6.466690000017618e+000	 1.013242751757162e+001
0	 6.000000000000002e+000	 6.533360000018136e+000	 1.012833826863410e+001
0	 6.000000000000001e+000	 6.600030000017850e+000	 1.012427208547323e+001
0	 6.000000000000002e+000	 6.666700000016668e+000	 1.012022580769944e+001
0	 5.333299999983334e+000	 6.666700000016665e+000	 1.013071830817851e+001
0	 5.333299999983335e+000	 6.733360000014533e+000	 1.012608795088526e+001
0	 5.333299999983335e+000	 6.800020000011599e+000	 1.012154124173338e+001
0	 5.333299999983333e+000	 6.866680000008065e+000	 1.011707641388938e+001
0	 5.333299999983336e+000	 6.933340000004135e+000	 1.011269170051977e+001
0	 5.333299999983333e+000	 6.999999999999998e+000	 1.010838533479103e+001
0	 5.333299999983335e+000	 7.066659999995868e+000	 1.010415554986968e+001
0	 5.333299999983334e+000	 7.133319999991935e+000	 1.010000057892219e+001
0	 5.333299999983335e+000	 7.199979999988400e+000	 1.009591865511507e+001
0	 5.333299999983336e+000	 7.266639999985467e+000	 1.009190801161482e+001
0	 5.333299999983334e+000	 7.333299999983334e+000	 1.008796688158791e+001
0	 5.399969999982151e+000	 6.666700000016668e+000	 1.013027529875186e+001
0	 5.399969999982152e+000	 6.733360000014532e+000	 1.012569992551426e+001
0	 5.399969999982149e+000	 6.800020000011599e+000	 1.012120470041709e+001
0	 5.399969999982149e+000	 6.866680000008067e+000	 1.011678770698843e+001
0	 5.399969999982148e+000	 6.933340000004132e+000	 1.011244702875633e+001
0	 5.399969999982149e+000	 6.999999999999999e+000	 1.010818074924891e+001
0	 5.399969999982149e+000	 7.066659999995866e+000	 1.010398695199418e+001
0	 5.399969999982148e+000	 7.133319999991933e+000	 1.009986372052026e+001
0	 5.399969999982150e+000	 7.199979999988400e+000	 1.009580913835518e+001
0	 5.399969999982151e+000	 7.266639999985467e+000	 1.009182128902701e+001
0	 5.399969999982150e+000	 7.333299999983335e+000	 1.008789825606385e+001
0	 5.466639999981866e+000	 6.666700000016667e+000	 1.012967633222507e+001
0	 5.466639999981865e+000	 6.733360000014533e+000	 1.012515673935983e+001
0	 5.466639999981865e+000	 6.800020000011599e+000	 1.012071435250315e+001
0	 5.466639999981865e+000	 6.866680000008066e+000	 1.011634711955853e+001
0	 5.466639999981867e+000	 6.933340000004134e+000	 1.011205298842951e+001
0	 5.466639999981865e+000	 6.999999999999997e+000	 1.010782990701956e+001
0	 5.466639999981864e+000	 7.066659999995866e+000	 1.010367582323221e+001
0	 5.466639999981865e+000	 7.133319999991934e+000	 1.009958868497096e+001
0	 5.466639999981865e+000	 7.199979999988400e+000	 1.009556644013930e+001
0	 5.466639999981866e+000	 7.266639999985466e+000	 1.009160703664074e+001
0	 5.466639999981865e+000	 7.333299999983331e+000	 1.008770842237878e+001
0	 5.533309999982382e+000	 6.666700000016665e+000	 1.012892937245896e+001
0	 5.533309999982382e+000	 6.733360000014533e+000	 1.012446668705457e+001
0	 5.533309999982381e+000	 6.800020000011600e+000	 1.012007872388678e+001
0	 5.533309999982383e+000	 6.866680000008068e+000	 1.011576330924839e+001
0	 5.533309999982382e+000	 6.933340000004133e+000	 1.011151826943218e+001
0	 5.533309999982384e+000	 7.000000000000001e+000	 1.010734143073099e+001
0	 5.533309999982381e+000	 7.066659999995866e+000	 1.010323061943762e+001
0	 5.533309999982383e+000	 7.133319999991936e+000	 1.009918366184485e+001
0	 5.533309999982381e+000	 7.199979999988400e+000	 1.009519838424550e+001
0	 5.533309999982381e+000	 7.266639999985467e+000	 1.009127261293236e+001
0	 5.533309999982383e+000	 7.333299999983335e+000	 1.008740417419823e+001
0	 5.599979999983598e+000	 6.666700000016666e+000	 1.012804238331427e+001
0	 5.599979999983598e+000	 6.733360000014533e+000	 1.012363806323110e+001
0	 5.599979999983598e+000	 6.800020000011600e+000	 1.011930634046323e+001
0	 5.599979999983598e+000	 6.866680000008066e+000	 1.011504493370664e+001
0	 5.599979999983595e+000	 6.933340000004131e+000	 1.011085156165732e+001
0	 5.599979999983598e+000	 6.999999999999997e+000	 1.010672394301120e+001
0	 5.599979999983596e+000	 7.066659999995864e+000	 1.010265979646429e+001
0	 5.599979999983599e+000	 7.133319999991935e+000	 1.009865684071251e+001
0	 5.599979999983598e+000	 7.199979999988400e+000	 1.009471279445185e+001
0	 5.599979999983598e+000	 7.266639999985468e+000	 1.009082537637825e+001
0	 5.599979999983599e+000	 7.333299999983335e+000	 1.008699230518768e+001
0	 5.666649999985415e+000	 6.666700000016665e+000	 1.012702332865177e+001
0	 5.666649999985416e+000	 6.733360000014533e+000	 1.012267916252196e+001
0	 5.666649999985417e+000	 6.800020000011601e+000	 1.011840572812771e+001
0	 5.666649999985415e+000	 6.866680000008065e+000	 1.011420065058199e+001
0	 5.666649999985417e+000	 6.933340000004132e+000	 1.011006155499784e+001
0	 5.666649999985416e+000	 6.999999999999998e+000	 1.010598606648821e+001
0	 5.666649999985416e+000	 7.066659999995867e+000	 1.010197181016610e+001
0	 5.666649999985415e+000	 7.133319999991937e+000	 1.009801641114449e+001
0	 5.666649999985417e+000	 7.199979999988401e+000	 1.009411749453640e+001
0	 5.666649999985416e+000	 7.266639999985468e+000	 1.009027268545479e+001
0	 5.666649999985413e+000	 7.333299999983332e+000	 1.008647960901264e+001
0	 5.733319999987732e+000	 6.666700000016666e+000	 1.012588017233226e+001
0	 5.733319999987732e+000	 6.733360000014533e+000	 1.012159827955981e+001
0	 5.733319999987730e+000	 6.800020000011598e+000	 1.011738541277547e+001
0	 5.733319999987731e+000	 6.866680000008068e+000	 1.011323911752312e+001
0	 5.733319999987731e+000	 6.933340000004134e+000	 1.010915693934667e+001
0	 5.733319999987733e+000	 6.999999999999998e+000	 1.010513642378998e+001
0	 5.733319999987733e+000	 7.066659999995868e+000	 1.010117511639694e+001
0	 5.733319999987730e+000	 7.133319999991933e+000	 1.009727056271139e+001
0	 5.733319999987731e+000	 7.199979999988401e+000	 1.009342030827725e+001
0	 5.733319999987731e+000	 7.266639999985466e+000	 1.008962189863835e+001
0	 5.733319999987732e+000	 7.333299999983334e+000	 1.008587287933860e+001
0	 5.799989999990448e+000	 6.666700000016665e+000	 1.012462087821650e+001
0	 5.799989999990449e+000	 6.733360000014534e+000	 1.012040370897720e+001
0	 5.799989999990448e+000	 6.800020000011601e+000	 1.011625392030173e+001
0	 5.799989999990448e+000	 6.866680000008067e+000	 1.011216899217871e+001
0	 5.799989999990449e+000	 6.933340000004134e+000	 1.010814640459679e+001
0	 5.799989999990447e+000	 7.000000000000000e+000	 1.010418363754456e+001
0	 5.799989999990448e+000	 7.066659999995869e+000	 1.010027817101066e+001
0	 5.799989999990450e+000	 7.133319999991936e+000	 1.009642748498376e+001
0	 5.799989999990448e+000	 7.199979999988400e+000	 1.009262905945243e+001
0	 5.799989999990448e+000	 7.266639999985467e+000	 1.008888037440532e+001
0	 5.799989999990449e+000	 7.333299999983336e+000	 1.008517890983103e+001
0	 5.866659999993465e+000	 6.666700000016666e+000	 1.012325341016525e+001
0	 5.866659999993465e+000	 6.733360000014533e+000	 1.011910374540676e+001
0	 5.866659999993465e+000	 6.800020000011599e+000	 1.011501977660174e+001
0	 5.866659999993464e+000	 6.866680000008067e+000	 1.011099893219743e+001
0	 5.866659999993464e+000	 6.933340000004133e+000	 1.010703864064106e+001
0	 5.866659999993465e+000	 6.999999999999999e+000	 1.010313633037992e+001
0	 5.866659999993464e+000	 7.066659999995867e+000	 1.009928942986120e+001
0	 5.866659999993463e+000	 7.133319999991936e+000	 1.009549536753215e+001
0	 5.866659999993465e+000	 7.199979999988400e+000	 1.009175157184003e+001
0	 5.866659999993465e+000	 7.266639999985465e+000	 1.008805547123205e+001
0	 5.866659999993466e+000	 7.333299999983335e+000	 1.008440449415545e+001
0	 5.933329999996682e+000	 6.666700000016665e+000	 1.012178573203931e+001
0	 5.933329999996681e+000	 6.733360000014534e+000	 1.011770668348108e+001
0	 5.933329999996681e+000	 6.800020000011600e+000	 1.011369150757072e+001
0	 5.933329999996682e+000	 6.866680000008067e+000	 1.010973759522796e+001
0	 5.933329999996681e+000	 6.933340000004132e+000	 1.010584233737251e+001
0	 5.933329999996682e+000	 7.000000000000000e+000	 1.010200312492407e+001
0	 5.933329999996680e+000	 7.066659999995866e+000	 1.009821734880239e+001
0	 5.933329999996681e+000	 7.133319999991934e+000	 1.009448239992717e+001
0	 5.933329999996682e+000	 7.199979999988401e+000	 1.009079566921810e+001
0	 5.933329999996683e+000	 7.266639999985467e+000	 1.008715454759494e+001
0	 5.933329999996682e+000	 7.333299999983334e+000	 1.008355642597737e+001
0	 6.000000000000002e+000	 6.666700000016668e+000	 1.012022580769944e+001
0	 6.000000000000000e+000	 6.733360000014532e+000	 1.011622081783276e+001
0	 6.000000000000000e+000	 6.800020000011600e+000	 1.011227763910392e+001
0	 6.000000000000000e+000	 6.866680000008066e+000	 1.010839363891899e+001
0	 6.000000000000001e+000	 6.933340000004134e+000	 1.010456618468400e+001
0	 6.000000000000000e+000	 6.999999999999998e+000	 1.010079264380503e+001
0	 6.000000000000001e+000	 7.066659999995868e+000	 1.009707038368813e+001
0	 6.000000000000000e+000	 7.133319999991935e+000	 1.009339677173935e+001
0	 6.000000000000000e+000	 7.199979999988401e+000	 1.008976917536474e+001
0	 6.000000000000000e+000	 7.266639999985465e+000	 1.008618496197036e+001
0	 6.000000000000000e+000	 7.333299999983332e+000	 1.008264149896225e+001
0	 5.333299999983334e+000	 7.333299999983334e+000	 1.008796688158791e+001
0	 5.333299999983332e+000	 7.399969999982149e+000	 1.008410335516071e+001
0	 5.333299999983333e+000	 7.466639999981864e+000	 1.008032646579621e+001
0	 5.333299999983333e+000	 7.533309999982383e+000	 1.007663410335706e+001
0	 5.333299999983335e+000	 7.599979999983600e+000	 1.007302415770591e+001
0	 5.333299999983334e+000	 7.666649999985416e+000	 1.006949451870540e+001
0	 5.333299999983334e+000	 7.733319999987733e+000	 1.006604307621819e+001
0	 5.333299999983334e+000	 7.799989999990449e+000	 1.006266772010692e+001
0	 5.333299999983333e+000	 7.866659999993466e+000	 1.005936634023424e+001
0	 5.333299999983335e+000	 7.933329999996684e+000	 1.005613682646280e+001
0	 5.333299999983334e+000	 8.000000000000000e+000	 1.005297706865523e+001
0	 5.399969999982150e+000	 7.333299999983335e+000	 1.008789825606384e+001
0	 5.399969999982147e+000	 7.399969999982148e+000	 1.008404996376984e+001
0	 5.399969999982148e+000	 7.466639999981865e+000	 1.008028733033119e+001
0	 5.399969999982152e+000	 7.533309999982385e+000	 1.007660817885526e+001
0	 5.399969999982149e+000	 7.599979999983599e+000	 1.007301033244936e+001
0	 5.399969999982150e+000	 7.666649999985416e+000	 1.006949161422084e+001
0	 5.399969999982150e+000	 7.733319999987732e+000	 1.006604984727704e+001
0	 5.399969999982150e+000	 7.799989999990451e+000	 1.006268285472529e+001
0	 5.399969999982151e+000	 7.866659999993468e+000	 1.005938845967295e+001
0	 5.399969999982149e+000	 7.933329999996682e+000	 1.005616448522734e+001
0	 5.399969999982149e+000	 8.000000000000000e+000	 1.005300875449580e+001
0	 5.466639999981865e+000	 7.333299999983331e+000	 1.008770842237878e+001
0	 5.466639999981865e+000	 7.399969999982149e+000	 1.008388185298946e+001
0	 5.466639999981866e+000	 7.466639999981866e+000	 1.008013962127741e+001
0	 5.466639999981866e+000	 7.533309999982383e+000	 1.007647948971827e+001
0	 5.466639999981866e+000	 7.599979999983600e+000	 1.007289922078766e+001
0	 5.466639999981866e+000	 7.666649999985416e+000	 1.006939657696119e+001
0	 5.466639999981866e+000	 7.733319999987733e+000	 1.006596932071449e+001
0	 5.466639999981868e+000	 7.799989999990451e+000	 1.006261521452318e+001
0	 5.466639999981866e+000	 7.866659999993467e+000	 1.005933202086291e+001
0	 5.466639999981867e+000	 7.933329999996683e+000	 1.005611750220929e+001
0	 5.466639999981868e+000	 8.000000000000000e+000	 1.005296942103795e+001
0	 5.533309999982383e+000	 7.333299999983335e+000	 1.008740417419823e+001
0	 5.533309999982381e+000	 7.399969999982148e+000	 1.008360522774456e+001
0	 5.533309999982381e+000	 7.466639999981865e+000	 1.007988900665357e+001
0	 5.533309999982381e+000	 7.533309999982384e+000	 1.007625321889276e+001
0	 5.533309999982382e+000	 7.599979999983598e+000	 1.007269557242967e+001
0	 5.533309999982382e+000	 7.666649999985417e+000	 1.006921377523177e+001
0	 5.533309999982382e+000	 7.733319999987733e+000	 1.006580553526659e+001
0	 5.533309999982381e+000	 7.799989999990448e+000	 1.006246856050164e+001
0	 5.533309999982382e+000	 7.866659999993467e+000	 1.005920055890441e+001
0	 5.533309999982383e+000	 7.933329999996684e+000	 1.005599923844244e+001
0	 5.533309999982382e+000	 8.000000000000000e+000	 1.005286230708324e+001
0	 5.599979999983599e+000	 7.333299999983335e+000	 1.008699230518768e+001
0	 5.599979999983598e+000	 7.399969999982151e+000	 1.008322629296006e+001
0	 5.599979999983600e+000	 7.466639999981866e+000	 1.007954115447829e+001
0	 5.599979999983599e+000	 7.533309999982384e+000	 1.007593454932534e+001
0	 5.599979999983598e+000	 7.599979999983600e+000	 1.007240413708424e+001
0	 5.599979999983599e+000	 7.666649999985416e+000	 1.006894757733794e+001
0	 5.599979999983598e+000	 7.733319999987733e+000	 1.006556252966944e+001
0	 5.599979999983598e+000	 7.799989999990450e+000	 1.006224665366173e+001
0	 5.599979999983598e+000	 7.866659999993465e+000	 1.005899760889780e+001
0	 5.599979999983598e+000	 7.933329999996682e+000	 1.005581305496064e+001
0	 5.599979999983598e+000	 8.000000000000004e+000	 1.005269065143325e+001
0	 5.666649999985413e+000	 7.333299999983332e+000	 1.008647960901264e+001
0	 5.666649999985415e+000	 7.399969999982151e+000	 1.008275125356092e+001
0	 5.666649999985415e+000	 7.466639999981866e+000	 1.007910173277025e+001
0	 5.666649999985415e+000	 7.533309999982384e+000	 1.007552866396265e+001
0	 5.666649999985415e+000	 7.599979999983599e+000	 1.007202966446022e+001
0	 5.666649999985414e+000	 7.666649999985416e+000	 1.006860235158502e+001
0	 5.666649999985414e+000	 7.733319999987733e+000	 1.006524434265910e+001
0	 5.666649999985415e+000	 7.799989999990449e+000	 1.006195325500452e+001
0	 5.666649999985416e+000	 7.866659999993467e+000	 1.005872670594335e+001
0	 5.666649999985415e+000	 7.933329999996682e+000	 1.005556231279767e+001
0	 5.666649999985415e+000	 7.999999999999998e+000	 1.005245769288953e+001
0	 5.733319999987732e+000	 7.333299999983334e+000	 1.008587287933860e+001
0	 5.733319999987732e+000	 7.399969999982150e+000	 1.008218631447213e+001
0	 5.733319999987732e+000	 7.466639999981866e+000	 1.007857640954812e+001
0	 5.733319999987732e+000	 7.533309999982384e+000	 1.007504074575135e+001
0	 5.733319999987732e+000	 7.599979999983599e+000	 1.007157690426651e+001
0	 5.733319999987731e+000	 7.666649999985417e+000	 1.006818246627836e+001
0	 5.733319999987732e+000	 7.733319999987733e+000	 1.006485501297162e+001
0	 5.733319999987732e+000	 7.799989999990451e+000	 1.006159212553104e+001
0	 5.733319999987731e+000	 7.866659999993466e+000	 1.005839138514138e+001
0	 5.733319999987733e+000	 7.933329999996683e+000	 1.005525037298733e+001
0	 5.733319999987732e+000	 8.000000000000000e+000	 1.005216667025367e+001
0	 5.799989999990449e+000	 7.333299999983336e+000	 1.008517890983103e+001
0	 5.799989999990448e+000	 7.399969999982151e+000	 1.008153768061859e+001
0	 5.799989999990448e+000	 7.466639999981866e+000	 1.007797085283058e+001
0	 5.799989999990449e+000	 7.533309999982384e+000	 1.007447597763804e+001
0	 5.799989999990448e+000	 7.599979999983599e+000	 1.007105060621194e+001
0	 5.799989999990448e+000	 7.666649999985416e+000	 1.006769228972330e+001
0	 5.799989999990447e+000	 7.733319999987733e+000	 1.006439857934312e+001
0	 5.799989999990448e+000	 7.799989999990451e+000	 1.006116702624241e+001
0	 5.799989999990448e+000	 7.866659999993467e+000	 1.005799518159219e+001
0	 5.799989999990449e+000	 7.933329999996683e+000	 1.005488059656345e+001
0	 5.799989999990447e+000	 8.000000000000000e+000	 1.005182082232722e+001
0	 5.866659999993466e+000	 7.333299999983335e+000	 1.008440449415545e+001
0	 5.866659999993464e+000	 7.399969999982149e+000	 1.008081155692528e+001
0	 5.866659999993466e+000	 7.466639999981867e+000	 1.007729073063629e+001
0	 5.866659999993464e+000	 7.533309999982382e+000	 1.007383954256938e+001
0	 5.866659999993466e+000	 7.599979999983601e+000	 1.007045552000538e+001
0	 5.866659999993466e+000	 7.666649999985418e+000	 1.006713619022518e+001
0	 5.866659999993465e+000	 7.733319999987734e+000	 1.006387908050965e+001
0	 5.866659999993463e+000	 7.799989999990448e+000	 1.006068171813967e+001
0	 5.866659999993465e+000	 7.866659999993467e+000	 1.005754163039611e+001
0	 5.866659999993464e+000	 7.933329999996683e+000	 1.005445634455985e+001
0	 5.866659999993464e+000	 8.000000000000002e+000	 1.005142338791174e+001
0	 5.933329999996682e+000	 7.333299999983334e+000	 1.008355642597736e+001
0	 5.933329999996681e+000	 7.399969999982150e+000	 1.008001414831715e+001
0	 5.933329999996681e+000	 7.466639999981865e+000	 1.007654171098392e+001
0	 5.933329999996682e+000	 7.533309999982383e+000	 1.007313662349199e+001
0	 5.933329999996683e+000	 7.599979999983601e+000	 1.006979639535568e+001
0	 5.933329999996681e+000	 7.666649999985416e+000	 1.006651853608935e+001
0	 5.933329999996682e+000	 7.733319999987733e+000	 1.006330055520731e+001
0	 5.933329999996681e+000	 7.799989999990449e+000	 1.006013996222389e+001
0	 5.933329999996681e+000	 7.866659999993468e+000	 1.005703426665344e+001
0	 5.933329999996682e+000	 7.933329999996685e+000	 1.005398097801031e+001
0	 5.933329999996681e+000	 8.000000000000000e+000	 1.005097760580880e+001
0	 6.000000000000000e+000	 7.333299999983332e+000	 1.008264149896225e+001
0	 6.000000000000001e+000	 7.399969999982152e+000	 1.007915165971917e+001
0	 6.000000000000002e+000	 7.466639999981867e+000	 1.007572946189212e+001
0	 6.000000000000001e+000	 7.533309999982384e+000	 1.007237240335251e+001
0	 6.000000000000000e+000	 7.599979999983600e+000	 1.006907798197171e+001
0	 6.000000000000000e+000	 7.666649999985416e+000	 1.006584369562112e+001
0	 6.000000000000000e+000	 7.733319999987733e+000	 1.006266704217213e+001
0	 5.999999999999998e+000	 7.799989999990449e+000	 1.005954551949612e+001
0	 5.999999999999998e+000	 7.866659999993466e+000	 1.005647662546451e+001
0	 6.000000000000000e+000	 7.933329999996684e+000	 1.005345785794866e+001
0	 6.000000000000000e+000	 8.000000000000000e+000	 1.005048671481999e+001
0	 5.333299999983334e+000	 8.000000000000000e+000	 1.005297706865523e+001
0	 5.333299999983333e+000	 8.066670000003317e+000	 1.004989609167635e+001
0	 5.333299999983333e+000	 8.133340000006532e+000	 1.004690256122427e+001
0	 5.333299999983335e+000	 8.200010000009550e+000	 1.004399382841165e+001
0	 5.333299999983336e+000	 8.266680000012268e+000	 1.004116724435122e+001
0	 5.333299999983334e+000	 8.333350000014585e+000	 1.003842016015560e+001
0	 5.333299999983333e+000	 8.400020000016399e+000	 1.003574992693752e+001
0	 5.333299999983332e+000	 8.466690000017616e+000	 1.003315389580966e+001
0	 5.333299999983334e+000	 8.533360000018135e+000	 1.003062941788474e+001
0	 5.333299999983335e+000	 8.600030000017851e+000	 1.002817384427542e+001
0	 5.333299999983334e+000	 8.666700000016666e+000	 1.002578452609439e+001
0	 5.399969999982149e+000	 8.000000000000000e+000	 1.005300875449580e+001
0	 5.399969999982150e+000	 8.066670000003317e+000	 1.004993080814565e+001
0	 5.399969999982149e+000	 8.133340000006530e+000	 1.004693982876355e+001
0	 5.399969999982149e+000	 8.200010000009549e+000	 1.004403310233590e+001
0	 5.399969999982151e+000	 8.266680000012267e+000	 1.004120791484909e+001
0	 5.399969999982150e+000	 8.333350000014583e+000	 1.003846155228954e+001
0	 5.399969999982149e+000	 8.400020000016401e+000	 1.003579130064362e+001
0	 5.399969999982149e+000	 8.466690000017614e+000	 1.003319444589777e+001
0	 5.399969999982149e+000	 8.533360000018133e+000	 1.003066827403837e+001
0	 5.399969999982150e+000	 8.600030000017853e+000	 1.002821007105183e+001
0	 5.399969999982150e+000	 8.666700000016668e+000	 1.002581712292455e+001
0	 5.466639999981868e+000	 8.000000000000000e+000	 1.005296942103795e+001
0	 5.466639999981866e+000	 8.066670000003319e+000	 1.004989797445309e+001
0	 5.466639999981867e+000	 8.133340000006532e+000	 1.004691300109938e+001
0	 5.466639999981867e+000	 8.200010000009554e+000	 1.004401172576315e+001
0	 5.466639999981865e+000	 8.266680000012265e+000	 1.004119137323071e+001
0	 5.466639999981867e+000	 8.333350000014583e+000	 1.003844916828839e+001
0	 5.466639999981865e+000	 8.400020000016401e+000	 1.003578233572254e+001
0	 5.466639999981864e+000	 8.466690000017616e+000	 1.003318810031946e+001
0	 5.466639999981867e+000	 8.533360000018137e+000	 1.003066368686549e+001
0	 5.466639999981865e+000	 8.600030000017849e+000	 1.002820632014695e+001
0	 5.466639999981867e+000	 8.666700000016668e+000	 1.002581322495021e+001
0	 5.533309999982382e+000	 8.000000000000000e+000	 1.005286230708324e+001
0	 5.533309999982385e+000	 8.066670000003317e+000	 1.004980072887296e+001
0	 5.533309999982381e+000	 8.133340000006529e+000	 1.004682510755443e+001
0	 5.533309999982381e+000	 8.200010000009552e+000	 1.004393261064009e+001
0	 5.533309999982382e+000	 8.266680000012267e+000	 1.004112040564244e+001
0	 5.533309999982383e+000	 8.333350000014583e+000	 1.003838566007392e+001
0	 5.533309999982383e+000	 8.400020000016401e+000	 1.003572554144700e+001
0	 5.533309999982383e+000	 8.466690000017616e+000	 1.003313721727417e+001
0	 5.533309999982382e+000	 8.533360000018138e+000	 1.003061785506787e+001
0	 5.533309999982381e+000	 8.600030000017851e+000	 1.002816462234058e+001
0	 5.533309999982382e+000	 8.666700000016668e+000	 1.002577468660479e+001
0	 5.599979999983598e+000	 8.000000000000004e+000	 1.005269065143325e+001
0	 5.599979999983599e+000	 8.066670000003315e+000	 1.004964220967954e+001
0	 5.599979999983598e+000	 8.133340000006534e+000	 1.004667917745132e+001
0	 5.599979999983598e+000	 8.200010000009550e+000	 1.004379866891343e+001
0	 5.599979999983598e+000	 8.266680000012265e+000	 1.004099779823065e+001
0	 5.599979999983599e+000	 8.333350000014587e+000	 1.003827367956783e+001
0	 5.599979999983597e+000	 8.400020000016401e+000	 1.003562342708978e+001
0	 5.599979999983598e+000	 8.466690000017616e+000	 1.003304415496132e+001
0	 5.599979999983599e+000	 8.533360000018133e+000	 1.003053297734727e+001
0	 5.599979999983598e+000	 8.600030000017851e+000	 1.002808700841244e+001
0	 5.599979999983599e+000	 8.666700000016668e+000	 1.002570336232171e+001
0	 5.666649999985415e+000	 7.999999999999998e+000	 1.005245769288953e+001
0	 5.666649999985414e+000	 8.066670000003315e+000	 1.004942555514711e+001
0	 5.666649999985417e+000	 8.133340000006536e+000	 1.004647824011275e+001
0	 5.666649999985415e+000	 8.200010000009550e+000	 1.004361281252984e+001
0	 5.666649999985414e+000	 8.266680000012268e+000	 1.004082633714176e+001
0	 5.666649999985415e+000	 8.333350000014583e+000	 1.003811587869188e+001
0	 5.666649999985415e+000	 8.400020000016403e+000	 1.003547850192362e+001
0	 5.666649999985415e+000	 8.466690000017618e+000	 1.003291127158034e+001
0	 5.666649999985415e+000	 8.533360000018135e+000	 1.003041125240544e+001
0	 5.666649999985416e+000	 8.600030000017851e+000	 1.002797550914232e+001
0	 5.666649999985415e+000	 8.666700000016666e+000	 1.002560110653438e+001
0	 5.733319999987732e+000	 8.000000000000000e+000	 1.005216667025367e+001
0	 5.733319999987732e+000	 8.066670000003317e+000	 1.004915390354995e+001
0	 5.733319999987731e+000	 8.133340000006532e+000	 1.004622532486134e+001
0	 5.733319999987732e+000	 8.200010000009552e+000	 1.004337795343600e+001
0	 5.733319999987731e+000	 8.266680000012268e+000	 1.004060880852208e+001
0	 5.733319999987731e+000	 8.333350000014583e+000	 1.003791490936779e+001
0	 5.733319999987732e+000	 8.400020000016399e+000	 1.003529327522126e+001
0	 5.733319999987732e+000	 8.466690000017616e+000	 1.003274092533067e+001
0	 5.733319999987732e+000	 8.533360000018131e+000	 1.003025487894418e+001
0	 5.733319999987732e+000	 8.600030000017849e+000	 1.002783215530997e+001
0	 5.733319999987731e+000	 8.666700000016666e+000	 1.002546977367621e+001
0	 5.799989999990447e+000	 8.000000000000000e+000	 1.005182082232722e+001
0	 5.799989999990449e+000	 8.066670000003317e+000	 1.004883039316233e+001
0	 5.799989999990448e+000	 8.133340000006534e+000	 1.004592346101974e+001
0	 5.799989999990450e+000	 8.200010000009554e+000	 1.004309700357860e+001
0	 5.799989999990447e+000	 8.266680000012267e+000	 1.004034799851807e+001
0	 5.799989999990449e+000	 8.333350000014585e+000	 1.003767342351731e+001
0	 5.799989999990448e+000	 8.400020000016403e+000	 1.003507025625547e+001
0	 5.799989999990448e+000	 8.466690000017616e+000	 1.003253547441173e+001
0	 5.799989999990448e+000	 8.533360000018133e+000	 1.003006605566523e+001
0	 5.799989999990447e+000	 8.600030000017851e+000	 1.002765897769515e+001
0	 5.799989999990448e+000	 8.666700000016668e+000	 1.002531121818065e+001
0	 5.866659999993464e+000	 8.000000000000002e+000	 1.005142338791174e+001
0	 5.866659999993464e+000	 8.066670000003317e+000	 1.004845816225854e+001
0	 5.866659999993464e+000	 8.133340000006532e+000	 1.004557567791063e+001
0	 5.866659999993465e+000	 8.200010000009550e+000	 1.004277287490435e+001
0	 5.866659999993464e+000	 8.266680000012268e+000	 1.004004669327607e+001
0	 5.866659999993465e+000	 8.333350000014585e+000	 1.003739407306218e+001
0	 5.866659999993465e+000	 8.400020000016401e+000	 1.003481195429901e+001
0	 5.866659999993464e+000	 8.466690000017618e+000	 1.003229727702296e+001
0	 5.866659999993463e+000	 8.533360000018133e+000	 1.002984698127038e+001
0	 5.866659999993464e+000	 8.600030000017851e+000	 1.002745800707761e+001
0	 5.866659999993464e+000	 8.666700000016668e+000	 1.002512729448108e+001
0	 5.933329999996681e+000	 8.000000000000000e+000	 1.005097760580880e+001
0	 5.933329999996682e+000	 8.066670000003317e+000	 1.004804034911284e+001
0	 5.933329999996680e+000	 8.133340000006532e+000	 1.004518500485661e+001
0	 5.933329999996682e+000	 8.200010000009550e+000	 1.004240847935992e+001
0	 5.933329999996681e+000	 8.266680000012267e+000	 1.003970767894247e+001
0	 5.933329999996681e+000	 8.333350000014585e+000	 1.003707950992413e+001
0	 5.933329999996680e+000	 8.400020000016397e+000	 1.003452087862462e+001
0	 5.933329999996682e+000	 8.466690000017616e+000	 1.003202869136377e+001
0	 5.933329999996681e+000	 8.533360000018135e+000	 1.002959985446134e+001
0	 5.933329999996681e+000	 8.600030000017849e+000	 1.002723127423714e+001
0	 5.933329999996682e+000	 8.666700000016666e+000	 1.002491985701095e+001
0	 6.000000000000000e+000	 8.000000000000000e+000	 1.005048671481999e+001
0	 5.999999999999999e+000	 8.066670000003319e+000	 1.004758009199956e+001
0	 6.000000000000001e+000	 8.133340000006534e+000	 1.004475447118042e+001
0	 5.999999999999998e+000	 8.200010000009549e+000	 1.004200672889197e+001
0	 6.000000000000000e+000	 8.266680000012267e+000	 1.003933374166367e+001
0	 6.000000000000001e+000	 8.333350000014583e+000	 1.003673238602489e+001
0	 6.000000000000000e+000	 8.400020000016401e+000	 1.003419953850506e+001
0	 6.000000000000000e+000	 8.466690000017616e+000	 1.003173207563361e+001
0	 6.000000000000000e+000	 8.533360000018133e+000	 1.002932687393995e+001
0	 5.999999999999998e+000	 8.600030000017849e+000	 1.002698080995350e+001
0	 6.000000000000000e+000	 8.666700000016666e+000	 1.002469076020367e+001
0	 5.333299999983334e+000	 8.666700000016666e+000	 1.002578452609439e+001
0	 5.333299999983334e+000	 8.733360002791903e+000	 1.002348488341811e+001
0	 5.333299999983332e+000	 8.800020022230553e+000	 1.002129630355102e+001
0	 5.333299999983335e+000	 8.866680074997040e+000	 1.001921414884880e+001
0	 5.333299999983334e+000	 8.933340177755779e+000	 1.001723378136189e+001
0	 5.333299999983332e+000	 9.000000347171179e+000	 1.001535056283542e+001
0	 5.333299999983335e+000	 9.066660599907667e+000	 1.001355985470925e+001
0	 5.333299999983334e+000	 9.133320952629655e+000	 1.001185701811784e+001
0	 5.333299999983334e+000	 9.199981422001560e+000	 1.001023741389048e+001
0	 5.333299999983335e+000	 9.266642024687798e+000	 1.000869640255107e+001
0	 5.333299999983335e+000	 9.333302777352785e+000	 1.000722934431822e+001
0	 5.399969999982150e+000	 8.666700000016668e+000	 1.002581712292455e+001
0	 5.399969999982150e+000	 8.733360002791905e+000	 1.002351347741372e+001
0	 5.399969999982150e+000	 8.800020022230559e+000	 1.002132118456238e+001
0	 5.399969999982150e+000	 8.866680074997046e+000	 1.001923559605441e+001
0	 5.399969999982150e+000	 8.933340177755778e+000	 1.001725206326748e+001
0	 5.399969999982149e+000	 9.000000347171181e+000	 1.001536593727299e+001
0	 5.399969999982149e+000	 9.066660599907667e+000	 1.001357256883614e+001
0	 5.399969999982148e+000	 9.133320952629653e+000	 1.001186730841584e+001
0	 5.399969999982150e+000	 9.199981422001560e+000	 1.001024550616486e+001
0	 5.399969999982149e+000	 9.266642024687794e+000	 1.000870251192963e+001
0	 5.399969999982151e+000	 9.333302777352785e+000	 1.000723367525036e+001
0	 5.466639999981867e+000	 8.666700000016668e+000	 1.002581322495021e+001
0	 5.466639999981866e+000	 8.733360002791901e+000	 1.002350897897722e+001
0	 5.466639999981866e+000	 8.800020022230552e+000	 1.002131619960964e+001
0	 5.466639999981867e+000	 8.866680074997040e+000	 1.001923023371823e+001
0	 5.466639999981868e+000	 8.933340177755783e+000	 1.001724642786701e+001
0	 5.466639999981866e+000	 9.000000347171183e+000	 1.001536012831319e+001
0	 5.466639999981865e+000	 9.066660599907667e+000	 1.001356668100730e+001
0	 5.466639999981866e+000	 9.133320952629653e+000	 1.001186143159305e+001
0	 5.466639999981864e+000	 9.199981422001557e+000	 1.001023972540745e+001
0	 5.466639999981865e+000	 9.266642024687798e+000	 1.000869690748070e+001
0	 5.466639999981866e+000	 9.333302777352785e+000	 1.000722832253630e+001
0	 5.533309999982382e+000	 8.666700000016668e+000	 1.002577468660479e+001
0	 5.533309999982381e+000	 8.733360002791899e+000	 1.002347306698777e+001
0	 5.533309999982382e+000	 8.800020022230557e+000	 1.002128286197217e+001
0	 5.533309999982382e+000	 8.866680074997042e+000	 1.001919941947440e+001
0	 5.533309999982383e+000	 8.933340177755779e+000	 1.001721808710404e+001
0	 5.533309999982382e+000	 9.000000347171184e+000	 1.001533421216378e+001
0	 5.533309999982382e+000	 9.066660599907669e+000	 1.001354314164946e+001
0	 5.533309999982383e+000	 9.133320952629658e+000	 1.001184022225004e+001
0	 5.533309999982384e+000	 9.199981422001558e+000	 1.001022080034761e+001
0	 5.533309999982381e+000	 9.266642024687794e+000	 1.000868022201739e+001
0	 5.533309999982381e+000	 9.333302777352785e+000	 1.000721383302770e+001
0	 5.599979999983599e+000	 8.666700000016668e+000	 1.002570336232171e+001
0	 5.599979999983598e+000	 8.733360002791901e+000	 1.002340742032457e+001
0	 5.599979999983597e+000	 8.800020022230555e+000	 1.002122268492935e+001
0	 5.599979999983598e+000	 8.866680074997040e+000	 1.001914451095705e+001
0	 5.599979999983597e+000	 8.933340177755779e+000	 1.001716825292217e+001
0	 5.599979999983598e+000	 9.000000347171183e+000	 1.001528926503253e+001
0	 5.599979999983598e+000	 9.066660599907666e+000	 1.001350290118941e+001
0	 5.599979999983599e+000	 9.133320952629658e+000	 1.001180451498746e+001
0	 5.599979999983598e+000	 9.199981422001558e+000	 1.001018945971476e+001
0	 5.599979999983600e+000	 9.266642024687799e+000	 1.000865308835276e+001
0	 5.599979999983599e+000	 9.333302777352785e+000	 1.000719075357634e+001
0	 5.666649999985415e+000	 8.666700000016666e+000	 1.002560110653438e+001
0	 5.666649999985416e+000	 8.733360002791903e+000	 1.002331371786678e+001
0	 5.666649999985416e+000	 8.800020022230557e+000	 1.002113718176055e+001
0	 5.666649999985415e+000	 8.866680074997044e+000	 1.001906686580037e+001
0	 5.666649999985416e+000	 8.933340177755778e+000	 1.001709813726498e+001
0	 5.666649999985416e+000	 9.000000347171183e+000	 1.001522636312720e+001
0	 5.666649999985415e+000	 9.066660599907667e+000	 1.001344691005387e+001
0	 5.666649999985417e+000	 9.133320952629656e+000	 1.001175514440592e+001
0	 5.666649999985414e+000	 9.199981422001560e+000	 1.001014643223826e+001
0	 5.666649999985415e+000	 9.266642024687796e+000	 1.000861613929990e+001
0	 5.666649999985415e+000	 9.333302777352783e+000	 1.000715963103388e+001
0	 5.733319999987731e+000	 8.666700000016666e+000	 1.002546977367621e+001
0	 5.733319999987731e+000	 8.733360002791903e+000	 1.002319363849357e+001
0	 5.733319999987732e+000	 8.800020022230555e+000	 1.002102786574517e+001
0	 5.733319999987732e+000	 8.866680074997042e+000	 1.001896784163847e+001
0	 5.733319999987732e+000	 8.933340177755776e+000	 1.001700895207606e+001
0	 5.733319999987733e+000	 9.000000347171181e+000	 1.001514658265555e+001
0	 5.733319999987732e+000	 9.066660599907671e+000	 1.001337611866964e+001
0	 5.733319999987732e+000	 9.133320952629656e+000	 1.001169294510603e+001
0	 5.733319999987731e+000	 9.199981422001558e+000	 1.001009244664751e+001
0	 5.733319999987732e+000	 9.266642024687796e+000	 1.000857000767190e+001
0	 5.733319999987731e+000	 9.333302777352783e+000	 1.000712101225207e+001
0	 5.799989999990448e+000	 8.666700000016668e+000	 1.002531121818065e+001
0	 5.799989999990447e+000	 8.733360002791901e+000	 1.002304886108412e+001
0	 5.799989999990448e+000	 8.800020022230555e+000	 1.002089625016256e+001
0	 5.799989999990448e+000	 8.866680074997042e+000	 1.001884879610553e+001
0	 5.799989999990448e+000	 8.933340177755779e+000	 1.001690190929900e+001
0	 5.799989999990448e+000	 9.000000347171177e+000	 1.001505099982538e+001
0	 5.799989999990449e+000	 9.066660599907667e+000	 1.001329147746346e+001
0	 5.799989999990448e+000	 9.133320952629656e+000	 1.001161875168843e+001
0	 5.799989999990449e+000	 9.199981422001558e+000	 1.001002823167191e+001
0	 5.799989999990449e+000	 9.266642024687796e+000	 1.000851532628184e+001
0	 5.799989999990448e+000	 9.333302777352783e+000	 1.000707544408264e+001
0	 5.866659999993464e+000	 8.666700000016668e+000	 1.002512729448108e+001
0	 5.866659999993465e+000	 8.733360002791903e+000	 1.002288106451761e+001
0	 5.866659999993465e+000	 8.800020022230553e+000	 1.002074384829213e+001
0	 5.866659999993465e+000	 8.866680074997042e+000	 1.001871108683567e+001
0	 5.866659999993464e+000	 8.933340177755778e+000	 1.001677822087736e+001
0	 5.866659999993465e+000	 9.000000347171184e+000	 1.001494069084439e+001
0	 5.866659999993465e+000	 9.066660599907669e+000	 1.001319393686208e+001
0	 5.866659999993464e+000	 9.133320952629656e+000	 1.001153339875373e+001
0	 5.866659999993465e+000	 9.199981422001558e+000	 1.000995451604081e+001
0	 5.866659999993464e+000	 9.266642024687796e+000	 1.000845272794281e+001
0	 5.866659999993465e+000	 9.333302777352783e+000	 1.000702347337731e+001
0	 5.933329999996682e+000	 8.666700000016666e+000	 1.002491985701095e+001
0	 5.933329999996682e+000	 8.733360002791901e+000	 1.002269192767319e+001
0	 5.933329999996682e+000	 8.800020022230557e+000	 1.002057217341324e+001
0	 5.933329999996681e+000	 8.866680074997040e+000	 1.001855607146305e+001
0	 5.933329999996682e+000	 8.933340177755778e+000	 1.001663909875474e+001
0	 5.933329999996682e+000	 9.000000347171183e+000	 1.001481673192041e+001
0	 5.933329999996681e+000	 9.066660599907667e+000	 1.001308444729226e+001
0	 5.933329999996681e+000	 9.133320952629655e+000	 1.001143772090254e+001
0	 5.933329999996682e+000	 9.199981422001558e+000	 1.000987202848364e+001
0	 5.933329999996682e+000	 9.266642024687796e+000	 1.000838284546788e+001
0	 5.933329999996681e+000	 9.333302777352781e+000	 1.000696564698777e+001
0	 6.000000000000000e+000	 8.666700000016666e+000	 1.002469076020367e+001
0	 6.000000000000000e+000	 8.733360002791903e+000	 1.002248312943005e+001
0	 6.000000000000000e+000	 8.800020022230555e+000	 1.002038273880527e+001
0	 6.000000000000000e+000	 8.866680074997040e+000	 1.001838510762185e+001
0	 6.000000000000000e+000	 8.933340177755781e+000	 1.001648575487473e+001
0	 6.000000000000000e+000	 9.000000347171181e+000	 1.001468019926117e+001
0	 6.000000000000001e+000	 9.066660599907667e+000	 1.001296395918076e+001
0	 5.999999999999998e+000	 9.133320952629655e+000	 1.001133255273553e+001
0	 6.000000000000000e+000	 9.199981422001558e+000	 1.000978149772978e+001
0	 5.999999999999998e+000	 9.266642024687796e+000	 1.000830631167018e+001
0	 6.000000000000000e+000	 9.333302777352783e+000	 1.000690251176578e+001
0	 5.333299999983335e+000	 9.333302777352785e+000	 1.000722934431822e+001
0	 5.333299999983335e+000	 9.399973674588175e+000	 1.000587791757775e+001
0	 5.333299999983333e+000	 9.466644621844619e+000	 1.000468248596287e+001
0	 5.333299999983335e+000	 9.533315502450002e+000	 1.000363579538012e+001
0	 5.333299999983334e+000	 9.599986199732197e+000	 1.000273059485952e+001
0	 5.333299999983335e+000	 9.666656597019097e+000	 1.000195963655469e+001
0	 5.333299999983334e+000	 9.733326577638577e+000	 1.000131567574269e+001
0	 5.333299999983334e+000	 9.799996024918524e+000	 1.000079147082415e+001
0	 5.333299999983334e+000	 9.866664822186822e+000	 1.000037978332326e+001
0	 5.333299999983334e+000	 9.933332852771354e+000	 1.000007337788821e+001
0	 5.333299999983334e+000	 1.000000000000000e+001	 9.999865022291335e+000
0	 5.399969999982151e+000	 9.333302777352785e+000	 1.000723367525036e+001
0	 5.399969999982150e+000	 9.399973674588175e+000	 1.000588067120636e+001
0	 5.399969999982151e+000	 9.466644621844621e+000	 1.000468388120236e+001
0	 5.399969999982151e+000	 9.533315502449996e+000	 1.000363607133192e+001
0	 5.399969999982152e+000	 9.599986199732198e+000	 1.000273001081870e+001
0	 5.399969999982150e+000	 9.666656597019093e+000	 1.000195847201656e+001
0	 5.399969999982148e+000	 9.733326577638573e+000	 1.000131423040943e+001
0	 5.399969999982150e+000	 9.799996024918521e+000	 1.000079006461152e+001
0	 5.399969999982150e+000	 9.866664822186824e+000	 1.000037875636716e+001
0	 5.399969999982150e+000	 9.933332852771352e+000	 1.000007309055134e+001
0	 5.399969999982149e+000	 1.000000000000000e+001	 9.999865855169734e+000
0	 5.466639999981866e+000	 9.333302777352785e+000	 1.000722832253630e+001
0	 5.466639999981865e+000	 9.399973674588175e+000	 1.000587557186905e+001
0	 5.466639999981866e+000	 9.466644621844617e+000	 1.000467898724180e+001
0	 5.466639999981866e+000	 9.533315502449996e+000	 1.000363136627537e+001
0	 5.466639999981865e+000	 9.599986199732198e+000	 1.000272550972303e+001
0	 5.466639999981867e+000	 9.666656597019093e+000	 1.000195422147018e+001
0	 5.466639999981867e+000	 9.733326577638577e+000	 1.000131030853441e+001
0	 5.466639999981867e+000	 9.799996024918523e+000	 1.000078658106557e+001
0	 5.466639999981866e+000	 9.866664822186820e+000	 1.000037585234587e+001
0	 5.466639999981867e+000	 9.933332852771352e+000	 1.000007093879016e+001
0	 5.466639999981866e+000	 1.000000000000000e+001	 9.999864659946230e+000
0	 5.533309999982381e+000	 9.333302777352785e+000	 1.000721383302769e+001
0	 5.533309999982384e+000	 9.399973674588178e+000	 1.000586309532567e+001
0	 5.533309999982383e+000	 9.466644621844624e+000	 1.000466822855694e+001
0	 5.533309999982382e+000	 9.533315502450002e+000	 1.000362207320997e+001
0	 5.533309999982383e+000	 9.599986199732197e+000	 1.000271747290334e+001
0	 5.533309999982381e+000	 9.666656597019092e+000	 1.000194727438548e+001
0	 5.533309999982381e+000	 9.733326577638572e+000	 1.000130432753476e+001
0	 5.533309999982383e+000	 9.799996024918526e+000	 1.000078148535944e+001
0	 5.533309999982384e+000	 9.866664822186825e+000	 1.000037160399806e+001
0	 5.533309999982382e+000	 9.933332852771352e+000	 1.000006754271938e+001
0	 5.533309999982383e+000	 1.000000000000000e+001	 9.999862163922904e+000
0	 5.599979999983599e+000	 9.333302777352785e+000	 1.000719075357633e+001
0	 5.599979999983598e+000	 9.399973674588177e+000	 1.000584371733598e+001
0	 5.599979999983598e+000	 9.466644621844619e+000	 1.000465202962360e+001
0	 5.599979999983598e+000	 9.533315502450002e+000	 1.000360858513522e+001
0	 5.599979999983598e+000	 9.599986199732197e+000	 1.000270628169048e+001
0	 5.599979999983598e+000	 9.666656597019093e+000	 1.000193802023241e+001
0	 5.599979999983599e+000	 9.733326577638577e+000	 1.000129670482763e+001
0	 5.599979999983598e+000	 9.799996024918526e+000	 1.000077524266632e+001
0	 5.599979999983600e+000	 9.866664822186820e+000	 1.000036654406233e+001
0	 5.599979999983598e+000	 9.933332852771351e+000	 1.000006352245353e+001
0	 5.599979999983598e+000	 1.000000000000000e+001	 9.999859094401973e+000
0	 5.666649999985415e+000	 9.333302777352783e+000	 1.000715963103388e+001
0	 5.666649999985416e+000	 9.399973674588177e+000	 1.000581791365973e+001
0	 5.666649999985415e+000	 9.466644621844619e+000	 1.000463081491759e+001
0	 5.666649999985415e+000	 9.533315502450000e+000	 1.000359129505061e+001
0	 5.666649999985414e+000	 9.599986199732197e+000	 1.000269231741518e+001
0	 5.666649999985413e+000	 9.666656597019092e+000	 1.000192684848082e+001
0	 5.666649999985414e+000	 9.733326577638577e+000	 1.000128785783024e+001
0	 5.666649999985416e+000	 9.799996024918523e+000	 1.000076831815925e+001
0	 5.666649999985417e+000	 9.866664822186827e+000	 1.000036120527724e+001
0	 5.666649999985414e+000	 9.933332852771354e+000	 1.000005949810703e+001
0	 5.666649999985415e+000	 1.000000000000000e+001	 9.999856178685510e+000
0	 5.733319999987731e+000	 9.333302777352783e+000	 1.000712101225207e+001
0	 5.733319999987730e+000	 9.399973674588175e+000	 1.000578616005671e+001
0	 5.733319999987733e+000	 9.466644621844621e+000	 1.000460500891470e+001
0	 5.733319999987731e+000	 9.533315502449998e+000	 1.000357059595562e+001
0	 5.733319999987731e+000	 9.599986199732197e+000	 1.000267596140834e+001
0	 5.733319999987731e+000	 9.666656597019093e+000	 1.000191414860070e+001
0	 5.733319999987730e+000	 9.733326577638575e+000	 1.000127820395972e+001
0	 5.733319999987732e+000	 9.799996024918523e+000	 1.000076117701145e+001
0	 5.733319999987732e+000	 9.866664822186822e+000	 1.000035612038142e+001
0	 5.733319999987733e+000	 9.933332852771356e+000	 1.000005608979454e+001
0	 5.733319999987732e+000	 1.000000000000000e+001	 9.999854144075743e+000
0	 5.799989999990448e+000	 9.333302777352783e+000	 1.000707544408264e+001
0	 5.799989999990448e+000	 9.399973674588178e+000	 1.000574893228676e+001
0	 5.799989999990448e+000	 9.466644621844621e+000	 1.000457503609071e+001
0	 5.799989999990449e+000	 9.533315502450002e+000	 1.000354688084973e+001
0	 5.799989999990450e+000	 9.599986199732200e+000	 1.000265759500071e+001
0	 5.799989999990449e+000	 9.666656597019097e+000	 1.000190031006196e+001
0	 5.799989999990448e+000	 9.733326577638575e+000	 1.000126816063326e+001
0	 5.799989999990448e+000	 9.799996024918526e+000	 1.000075428439605e+001
0	 5.799989999990448e+000	 9.866664822186824e+000	 1.000035182211344e+001
0	 5.799989999990448e+000	 9.933332852771352e+000	 1.000005391763054e+001
0	 5.799989999990449e+000	 1.000000000000000e+001	 9.999853717874837e+000
0	 5.866659999993465e+000	 9.333302777352783e+000	 1.000702347337731e+001
0	 5.866659999993463e+000	 9.399973674588175e+000	 1.000570670610964e+001
0	 5.866659999993466e+000	 9.466644621844624e+000	 1.000454132092141e+001
0	 5.866659999993463e+000	 9.533315502450002e+000	 1.000352054273245e+001
0	 5.866659999993465e+000	 9.599986199732197e+000	 1.000263759952314e+001
0	 5.866659999993464e+000	 9.666656597019095e+000	 1.000188572233448e+001
0	 5.866659999993464e+000	 9.733326577638575e+000	 1.000125814526808e+001
0	 5.866659999993464e+000	 9.799996024918523e+000	 1.000074810548618e+001
0	 5.866659999993464e+000	 9.866664822186822e+000	 1.000034884321199e+001
0	 5.866659999993464e+000	 9.933332852771354e+000	 1.000005360172971e+001
0	 5.866659999993464e+000	 1.000000000000000e+001	 9.999855627384934e+000
0	 5.933329999996681e+000	 9.333302777352781e+000	 1.000696564698777e+001
0	 5.933329999996682e+000	 9.399973674588177e+000	 1.000565995728509e+001
0	 5.933329999996681e+000	 9.466644621844619e+000	 1.000450428788265e+001
0	 5.933329999996681e+000	 9.533315502450000e+000	 1.000349197460329e+001
0	 5.933329999996682e+000	 9.599986199732197e+000	 1.000261635630644e+001
0	 5.933329999996682e+000	 9.666656597019093e+000	 1.000187077488826e+001
0	 5.933329999996681e+000	 9.733326577638575e+000	 1.000124857528131e+001
0	 5.933329999996681e+000	 9.799996024918523e+000	 1.000074310545503e+001
0	 5.933329999996682e+000	 9.866664822186820e+000	 1.000034771641558e+001
0	 5.933329999996682e+000	 9.933332852771354e+000	 1.000005576220639e+001
0	 5.933329999996681e+000	 9.999999999999998e+000	 9.999860599908260e+000
0	 6.000000000000000e+000	 9.333302777352783e+000	 1.000690251176578e+001
0	 6.000000000000002e+000	 9.399973674588175e+000	 1.000560916157294e+001
0	 5.999999999999998e+000	 9.466644621844619e+000	 1.000446436145018e+001
0	 6.000000000000001e+000	 9.533315502450000e+000	 1.000346156946168e+001
0	 6.000000000000001e+000	 9.599986199732197e+000	 1.000259424668145e+001
0	 6.000000000000001e+000	 9.666656597019093e+000	 1.000185585719314e+001
0	 6.000000000000002e+000	 9.733326577638577e+000	 1.000123986809014e+001
0	 6.000000000000000e+000	 9.799996024918523e+000	 1.000073974947568e+001
0	 6.000000000000000e+000	 9.866664822186824e+000	 1.000034897446290e+001
0	 6.000000000000000e+000	 9.933332852771352e+000	 1.000006101917527e+001
0	 6.000000000000000e+000	 1.000000000000000e+001	 9.999869362746884e+000
0	 6.000000000000000e+000	 0.000000000000000e+000	 1.019964260203716e+001
0	 6.000000000000001e+000	 6.666714722864757e-002	 1.020063436924092e+001
0	 6.000000000000000e+000	 1.333351778131789e-001	 1.020161361374585e+001
0	 6.000000000000000e+000	 2.000039750814772e-001	 1.020263049724717e+001
0	 6.000000000000001e+000	 2.666734223614256e-001	 1.020373518844531e+001
0	 6.000000000000000e+000	 3.333434029809069e-001	 1.020497786304532e+001
0	 6.000000000000001e+000	 4.000138002678044e-001	 1.020640870375656e+001
0	 5.999999999999998e+000	 4.666844975500010e-001	 1.020807790029249e+001
0	 6.000000000000000e+000	 5.333553781553804e-001	 1.021003564937071e+001
0	 6.000000000000000e+000	 6.000263254118248e-001	 1.021233215471316e+001
0	 6.000000000000000e+000	 6.666972226472177e-001	 1.021501762704650e+001
0	 6.066670000003317e+000	 0.000000000000000e+000	 1.018893881648138e+001
0	 6.066670000003317e+000	 6.666714722864756e-002	 1.018990635677436e+001
0	 6.066670000003318e+000	 1.333351778131789e-001	 1.019095335014454e+001
0	 6.066670000003317e+000	 2.000039750814773e-001	 1.019211349078390e+001
0	 6.066670000003315e+000	 2.666734223614255e-001	 1.019342047950817e+001
0	 6.066670000003317e+000	 3.333434029809069e-001	 1.019490802375631e+001
0	 6.066670000003316e+000	 4.000138002678045e-001	 1.019660983759025e+001
0	 6.066670000003315e+000	 4.666844975500010e-001	 1.019855964169462e+001
0	 6.066670000003319e+000	 5.333553781553804e-001	 1.020079116337694e+001
0	 6.066670000003317e+000	 6.000263254118247e-001	 1.020333813656770e+001
0	 6.066670000003317e+000	 6.666972226472177e-001	 1.020623430182078e+001
0	 6.133340000006534e+000	 0.000000000000000e+000	 1.017913789750833e+001
0	 6.133340000006531e+000	 6.666714722864754e-002	 1.018001223629791e+001
0	 6.133340000006535e+000	 1.333351778131790e-001	 1.018104469768765e+001
0	 6.133340000006532e+000	 2.000039750814772e-001	 1.018225482590347e+001
0	 6.133340000006532e+000	 2.666734223614256e-001	 1.018366217145044e+001
0	 6.133340000006531e+000	 3.333434029809068e-001	 1.018528629111241e+001
0	 6.133340000006532e+000	 4.000138002678043e-001	 1.018714674795164e+001
0	 6.133340000006533e+000	 4.666844975500012e-001	 1.018926311130869e+001
0	 6.133340000006534e+000	 5.333553781553803e-001	 1.019165495680248e+001
0	 6.133340000006532e+000	 6.000263254118246e-001	 1.019434186633047e+001
0	 6.133340000006532e+000	 6.666972226472175e-001	 1.019734342806900e+001
0	 6.200010000009550e+000	 0.000000000000000e+000	 1.017014696828855e+001
0	 6.200010000009550e+000	 6.666714722864758e-002	 1.017087568215535e+001
0	 6.200010000009550e+000	 1.333351778131789e-001	 1.017182754508369e+001
0	 6.200010000009549e+000	 2.000039750814772e-001	 1.017301026896817e+001
0	 6.200010000009550e+000	 2.666734223614256e-001	 1.017443157167140e+001
0	 6.200010000009550e+000	 3.333434029809069e-001	 1.017609917702356e+001
0	 6.200010000009551e+000	 4.000138002678044e-001	 1.017802081482214e+001
0	 6.200010000009549e+000	 4.666844975500010e-001	 1.018020422083175e+001
0	 6.200010000009550e+000	 5.333553781553801e-001	 1.018265713678422e+001
0	 6.200010000009551e+000	 6.000263254118248e-001	 1.018538731037878e+001
0	 6.200010000009549e+000	 6.666972226472177e-001	 1.018840249528235e+001
0	 6.266680000012268e+000	 0.000000000000000e+000	 1.016187315199256e+001
0	 6.266680000012266e+000	 6.666714722864753e-002	 1.016242036869048e+001
0	 6.266680000012265e+000	 1.333351778131789e-001	 1.016324178104114e+001
0	 6.266680000012266e+000	 2.000039750814772e-001	 1.016433558634029e+001
0	 6.266680000012265e+000	 2.666734223614255e-001	 1.016569998757030e+001
0	 6.266680000012265e+000	 3.333434029809068e-001	 1.016733319339974e+001
0	 6.266680000012268e+000	 4.000138002678045e-001	 1.016923341818314e+001
0	 6.266680000012266e+000	 4.666844975500011e-001	 1.017139888196085e+001
0	 6.266680000012268e+000	 5.333553781553803e-001	 1.017382781045905e+001
0	 6.266680000012265e+000	 6.000263254118247e-001	 1.017651843508991e+001
0	 6.266680000012268e+000	 6.666972226472177e-001	 1.017946899295199e+001
0	 6.333350000014583e+000	 0.000000000000000e+000	 1.015422357179093e+001
0	 6.333350000014582e+000	 6.666714722864756e-002	 1.015456997024709e+001
0	 6.333350000014583e+000	 1.333351778131790e-001	 1.015522729426854e+001
0	 6.333350000014582e+000	 2.000039750814773e-001	 1.015618654438216e+001
0	 6.333350000014582e+000	 2.666734223614257e-001	 1.015743872654642e+001
0	 6.333350000014582e+000	 3.333434029809068e-001	 1.015897485215091e+001
0	 6.333350000014582e+000	 4.000138002678044e-001	 1.016078593801607e+001
0	 6.333350000014582e+000	 4.666844975500012e-001	 1.016286300639307e+001
0	 6.333350000014582e+000	 5.333553781553800e-001	 1.016519708496384e+001
0	 6.333350000014583e+000	 6.000263254118248e-001	 1.016777920684120e+001
0	 6.333350000014584e+000	 6.666972226472179e-001	 1.017060041056916e+001
0	 6.400020000016400e+000	 0.000000000000000e+000	 1.014710535085418e+001
0	 6.400020000016401e+000	 6.666714722864756e-002	 1.014724816116902e+001
0	 6.400020000016398e+000	 1.333351778131789e-001	 1.014772397347440e+001
0	 6.400020000016401e+000	 2.000039750814772e-001	 1.014851890945609e+001
0	 6.400020000016400e+000	 2.666734223614256e-001	 1.014961909599906e+001
0	 6.400020000016399e+000	 3.333434029809069e-001	 1.015101066518705e+001
0	 6.400020000016401e+000	 4.000138002678044e-001	 1.015267975430232e+001
0	 6.400020000016400e+000	 4.666844975500012e-001	 1.015461250582547e+001
0	 6.400020000016396e+000	 5.333553781553801e-001	 1.015679506743552e+001
0	 6.400020000016400e+000	 6.000263254118248e-001	 1.015921359200994e+001
0	 6.400020000016400e+000	 6.666972226472179e-001	 1.016185423762501e+001
0	 6.466690000017615e+000	 0.000000000000000e+000	 1.014042561235289e+001
0	 6.466690000017613e+000	 6.666714722864756e-002	 1.014037861580004e+001
0	 6.466690000017615e+000	 1.333351778131790e-001	 1.014067170736723e+001
0	 6.466690000017614e+000	 2.000039750814772e-001	 1.014128844792439e+001
0	 6.466690000017617e+000	 2.666734223614255e-001	 1.014221240332749e+001
0	 6.466690000017617e+000	 3.333434029809070e-001	 1.014342714441814e+001
0	 6.466690000017615e+000	 4.000138002678044e-001	 1.014491624702330e+001
0	 6.466690000017615e+000	 4.666844975500011e-001	 1.014666329195513e+001
0	 6.466690000017615e+000	 5.333553781553801e-001	 1.014865186501096e+001
0	 6.466690000017616e+000	 6.000263254118248e-001	 1.015086555697345e+001
0	 6.466690000017614e+000	 6.666972226472175e-001	 1.015328796361076e+001
0	 6.533360000018132e+000	 0.000000000000000e+000	 1.013409147945760e+001
0	 6.533360000018130e+000	 6.666714722864756e-002	 1.013388500848399e+001
0	 6.533360000018132e+000	 1.333351778131789e-001	 1.013401038465557e+001
0	 6.533360000018132e+000	 2.000039750814772e-001	 1.013445092614937e+001
0	 6.533360000018133e+000	 2.666734223614256e-001	 1.013518995593100e+001
0	 6.533360000018132e+000	 3.333434029809069e-001	 1.013621080175416e+001
0	 6.533360000018131e+000	 4.000138002678044e-001	 1.013749679616044e+001
0	 6.533360000018132e+000	 4.666844975500012e-001	 1.013903127647910e+001
0	 6.533360000018133e+000	 5.333553781553801e-001	 1.014079758482708e+001
0	 6.533360000018131e+000	 6.000263254118248e-001	 1.014277906810903e+001
0	 6.533360000018131e+000	 6.666972226472177e-001	 1.014495907801761e+001
0	 6.600030000017848e+000	 0.000000000000000e+000	 1.012801007533889e+001
0	 6.600030000017849e+000	 6.666714722864757e-002	 1.012769101356469e+001
0	 6.600030000017847e+000	 1.333351778131789e-001	 1.012767989404795e+001
0	 6.600030000017847e+000	 2.000039750814772e-001	 1.012796211049338e+001
0	 6.600030000017848e+000	 2.666734223614255e-001	 1.012852306120888e+001
0	 6.600030000017847e+000	 3.333434029809069e-001	 1.012934814910510e+001
0	 6.600030000017848e+000	 4.000138002678044e-001	 1.013042278169516e+001
0	 6.600030000017848e+000	 4.666844975500012e-001	 1.013173237109448e+001
0	 6.600030000017847e+000	 5.333553781553803e-001	 1.013326233402076e+001
0	 6.600030000017847e+000	 6.000263254118248e-001	 1.013499809179401e+001
0	 6.600030000017847e+000	 6.666972226472178e-001	 1.013692507033675e+001
0	 6.666700000016666e+000	 0.000000000000000e+000	 1.012208852316731e+001
0	 6.666700000016668e+000	 6.666714722864757e-002	 1.012172030538596e+001
0	 6.666700000016666e+000	 1.333351778131790e-001	 1.012162012425290e+001
0	 6.666700000016665e+000	 2.000039750814772e-001	 1.012177776731874e+001
0	 6.666700000016667e+000	 2.666734223614256e-001	 1.012218302656044e+001
0	 6.666700000016667e+000	 3.333434029809069e-001	 1.012282569838095e+001
0	 6.666700000016666e+000	 4.000138002678044e-001	 1.012369558360888e+001
0	 6.666700000016665e+000	 4.666844975500010e-001	 1.012478248749835e+001
0	 6.666700000016668e+000	 5.333553781553803e-001	 1.012607621972893e+001
0	 6.666700000016667e+000	 6.000263254118248e-001	 1.012756659440569e+001
0	 6.666700000016666e+000	 6.666972226472178e-001	 1.012924343005938e+001
0	 6.000000000000000e+000	 6.666972226472177e-001	 1.021501762704650e+001
0	 6.000000000000000e+000	 7.333579753122046e-001	 1.021790129290923e+001
0	 6.000000000000000e+000	 8.000185779984417e-001	 1.022076691498172e+001
0	 6.000000000000002e+000	 8.666790473703454e-001	 1.022362520978598e+001
0	 6.000000000000000e+000	 9.333394000923323e-001	 1.022648689354513e+001
0	 5.999999999999999e+000	 9.999996528288190e-001	 1.022936268218354e+001
0	 6.000000000000000e+000	 1.066659822244222e+000	 1.023226329132678e+001
0	 6.000000000000001e+000	 1.133319925002959e+000	 1.023519943630166e+001
0	 6.000000000000000e+000	 1.199979977769445e+000	 1.023818183213622e+001
0	 6.000000000000000e+000	 1.266639997208098e+000	 1.024122119355977e+001
0	 6.000000000000000e+000	 1.333299999983334e+000	 1.024432823500285e+001
0	 6.066670000003317e+000	 6.666972226472177e-001	 1.020623430182078e+001
0	 6.066670000003316e+000	 7.333579753122046e-001	 1.020927286564464e+001
0	 6.066670000003316e+000	 8.000185779984416e-001	 1.021223436380221e+001
0	 6.066670000003316e+000	 8.666790473703451e-001	 1.021513214868480e+001
0	 6.066670000003317e+000	 9.333394000923321e-001	 1.021797957244745e+001
0	 6.066670000003318e+000	 9.999996528288190e-001	 1.022078998700908e+001
0	 6.066670000003317e+000	 1.066659822244222e+000	 1.022357674405240e+001
0	 6.066670000003319e+000	 1.133319925002959e+000	 1.022635319502395e+001
0	 6.066670000003316e+000	 1.199979977769445e+000	 1.022913269113413e+001
0	 6.066670000003317e+000	 1.266639997208098e+000	 1.023192858335719e+001
0	 6.066670000003319e+000	 1.333299999983334e+000	 1.023475422243124e+001
0	 6.133340000006532e+000	 6.666972226472175e-001	 1.019734342806900e+001
0	 6.133340000006531e+000	 7.333579753122045e-001	 1.020044839646784e+001
0	 6.133340000006534e+000	 8.000185779984415e-001	 1.020344375001493e+001
0	 6.133340000006532e+000	 8.666790473703452e-001	 1.020634499313021e+001
0	 6.133340000006530e+000	 9.333394000923321e-001	 1.020916763002559e+001
0	 6.133340000006535e+000	 9.999996528288190e-001	 1.021192716470510e+001
0	 6.133340000006534e+000	 1.066659822244222e+000	 1.021463910096477e+001
0	 6.133340000006535e+000	 1.133319925002959e+000	 1.021731894239275e+001
0	 6.133340000006535e+000	 1.199979977769445e+000	 1.021998219236921e+001
0	 6.133340000006533e+000	 1.266639997208098e+000	 1.022264435406649e+001
0	 6.133340000006530e+000	 1.333299999983334e+000	 1.022532093044897e+001
0	 6.200010000009549e+000	 6.666972226472177e-001	 1.018840249528235e+001
0	 6.200010000009550e+000	 7.333579753122048e-001	 1.019149673232924e+001
0	 6.200010000009550e+000	 8.000185779984417e-001	 1.019447128678267e+001
0	 6.200010000009550e+000	 8.666790473703455e-001	 1.019734333121947e+001
0	 6.200010000009551e+000	 9.333394000923322e-001	 1.020013003800845e+001
0	 6.200010000009550e+000	 9.999996528288186e-001	 1.020284857931029e+001
0	 6.200010000009550e+000	 1.066659822244222e+000	 1.020551612707754e+001
0	 6.200010000009550e+000	 1.133319925002959e+000	 1.020814985305476e+001
0	 6.200010000009549e+000	 1.199979977769445e+000	 1.021076692877837e+001
0	 6.200010000009551e+000	 1.266639997208098e+000	 1.021338452557679e+001
0	 6.200010000009550e+000	 1.333299999983334e+000	 1.021601981457036e+001
0	 6.266680000012268e+000	 6.666972226472177e-001	 1.017946899295199e+001
0	 6.266680000012268e+000	 7.333579753122048e-001	 1.018248672017929e+001
0	 6.266680000012267e+000	 8.000185779984417e-001	 1.018539318726817e+001
0	 6.266680000012267e+000	 8.666790473703454e-001	 1.018820675104985e+001
0	 6.266680000012265e+000	 9.333394000923319e-001	 1.019094576812492e+001
0	 6.266680000012265e+000	 9.999996528288190e-001	 1.019362859486331e+001
0	 6.266680000012266e+000	 1.066659822244222e+000	 1.019627358740434e+001
0	 6.266680000012266e+000	 1.133319925002959e+000	 1.019889910165670e+001
0	 6.266680000012266e+000	 1.199979977769445e+000	 1.020152349329847e+001
0	 6.266680000012266e+000	 1.266639997208098e+000	 1.020416511777718e+001
0	 6.266680000012264e+000	 1.333299999983334e+000	 1.020684233030972e+001
0	 6.333350000014584e+000	 6.666972226472179e-001	 1.017060041056916e+001
0	 6.333350000014582e+000	 7.333579753122047e-001	 1.017348720696841e+001
0	 6.333350000014582e+000	 8.000185779984416e-001	 1.017628566463424e+001
0	 6.333350000014582e+000	 8.666790473703452e-001	 1.017901484071861e+001
0	 6.333350000014582e+000	 9.333394000923322e-001	 1.018169379210390e+001
0	 6.333350000014582e+000	 9.999996528288190e-001	 1.018434157540289e+001
0	 6.333350000014582e+000	 1.066659822244222e+000	 1.018697724695879e+001
0	 6.333350000014585e+000	 1.133319925002959e+000	 1.018961986284527e+001
0	 6.333350000014584e+000	 1.199979977769445e+000	 1.019228847886642e+001
0	 6.333350000014583e+000	 1.266639997208098e+000	 1.019500215055678e+001
0	 6.333350000014582e+000	 1.333299999983334e+000	 1.019777993318137e+001
0	 6.400020000016400e+000	 6.666972226472179e-001	 1.016185423762501e+001
0	 6.400020000016400e+000	 7.333579753122049e-001	 1.016456703964704e+001
0	 6.400020000016401e+000	 8.000185779984418e-001	 1.016722493204365e+001
0	 6.400020000016400e+000	 8.666790473703454e-001	 1.016984718832300e+001
0	 6.400020000016401e+000	 9.333394000923323e-001	 1.017245308167427e+001
0	 6.400020000016400e+000	 9.999996528288190e-001	 1.017506188496769e+001
0	 6.400020000016400e+000	 1.066659822244222e+000	 1.017769287075455e+001
0	 6.400020000016401e+000	 1.133319925002959e+000	 1.018036531126720e+001
0	 6.400020000016400e+000	 1.199979977769445e+000	 1.018309847841907e+001
0	 6.400020000016399e+000	 1.266639997208098e+000	 1.018591164380468e+001
0	 6.400020000016399e+000	 1.333299999983334e+000	 1.018882407869962e+001
0	 6.466690000017614e+000	 6.666972226472175e-001	 1.015328796361076e+001
0	 6.466690000017617e+000	 7.333579753122049e-001	 1.015579506516562e+001
0	 6.466690000017615e+000	 8.000185779984416e-001	 1.015828720265919e+001
0	 6.466690000017614e+000	 8.666790473703451e-001	 1.016078338196030e+001
0	 6.466690000017615e+000	 9.333394000923321e-001	 1.016330260856494e+001
0	 6.466690000017617e+000	 9.999996528288190e-001	 1.016586388759641e+001
0	 6.466690000017616e+000	 1.066659822244222e+000	 1.016848622380523e+001
0	 6.466690000017616e+000	 1.133319925002959e+000	 1.017118862156918e+001
0	 6.466690000017617e+000	 1.199979977769445e+000	 1.017399008489332e+001
0	 6.466690000017614e+000	 1.266639997208098e+000	 1.017690961740999e+001
0	 6.466690000017616e+000	 1.333299999983334e+000	 1.017996622237877e+001
0	 6.533360000018131e+000	 6.666972226472177e-001	 1.014495907801761e+001
0	 6.533360000018132e+000	 7.333579753122047e-001	 1.014724013047458e+001
0	 6.533360000018133e+000	 8.000185779984416e-001	 1.014954868964365e+001
0	 6.533360000018130e+000	 8.666790473703452e-001	 1.015190300972775e+001
0	 6.533360000018132e+000	 9.333394000923322e-001	 1.015432134450481e+001
0	 6.533360000018133e+000	 9.999996528288193e-001	 1.015682194732774e+001
0	 6.533360000018132e+000	 1.066659822244222e+000	 1.015942307112448e+001
0	 6.533360000018131e+000	 1.133319925002959e+000	 1.016214296839793e+001
0	 6.533360000018132e+000	 1.199979977769445e+000	 1.016499989122606e+001
0	 6.533360000018132e+000	 1.266639997208098e+000	 1.016801209126180e+001
0	 6.533360000018132e+000	 1.333299999983334e+000	 1.017119781973315e+001
0	 6.600030000017847e+000	 6.666972226472178e-001	 1.013692507033675e+001
0	 6.600030000017847e+000	 7.333579753122049e-001	 1.013897108252438e+001
0	 6.600030000017847e+000	 8.000185779984416e-001	 1.014108560615980e+001
0	 6.600030000017847e+000	 8.666790473703452e-001	 1.014328565972264e+001
0	 6.600030000017847e+000	 9.333394000923322e-001	 1.014558826122276e+001
0	 6.600030000017849e+000	 9.999996528288190e-001	 1.014801042820037e+001
0	 6.600030000017849e+000	 1.066659822244222e+000	 1.015056917772592e+001
0	 6.600030000017849e+000	 1.133319925002959e+000	 1.015328152640016e+001
0	 6.600030000017847e+000	 1.199979977769445e+000	 1.015616449035415e+001
0	 6.600030000017848e+000	 1.266639997208098e+000	 1.015923508524923e+001
0	 6.600030000017847e+000	 1.333299999983334e+000	 1.016251032627705e+001
0	 6.666700000016666e+000	 6.666972226472178e-001	 1.012924343005938e+001
0	 6.666700000016667e+000	 7.333579753122047e-001	 1.013105676826547e+001
0	 6.666700000016665e+000	 8.000185779984416e-001	 1.013297416537045e+001
0	 6.666700000016667e+000	 8.666790473703454e-001	 1.013501092004222e+001
0	 6.666700000016666e+000	 9.333394000923321e-001	 1.013718233044772e+001
0	 6.666700000016667e+000	 9.999996528288189e-001	 1.013950369425301e+001
0	 6.666700000016666e+000	 1.066659822244222e+000	 1.014199030862322e+001
0	 6.666700000016666e+000	 1.133319925002959e+000	 1.014465747022259e+001
0	 6.666700000016666e+000	 1.199979977769445e+000	 1.014752047521450e+001
0	 6.666700000016665e+000	 1.266639997208098e+000	 1.015059461926138e+001
0	 6.666700000016665e+000	 1.333299999983334e+000	 1.015389519752479e+001
0	 6.000000000000000e+000	 1.333299999983334e+000	 1.024432823500285e+001
0	 5.999999999999999e+000	 1.399969999982150e+000	 1.024744041626145e+001
0	 6.000000000000000e+000	 1.466639999981866e+000	 1.025050434033687e+001
0	 6.000000000000000e+000	 1.533309999982383e+000	 1.025354585138893e+001
0	 6.000000000000001e+000	 1.599979999983600e+000	 1.025659079357746e+001
0	 6.000000000000000e+000	 1.666649999985416e+000	 1.025966501106224e+001
0	 6.000000000000002e+000	 1.733319999987733e+000	 1.026279434800313e+001
0	 6.000000000000000e+000	 1.799989999990450e+000	 1.026600464855990e+001
0	 5.999999999999998e+000	 1.866659999993466e+000	 1.026932175689241e+001
0	 6.000000000000000e+000	 1.933329999996683e+000	 1.027277151716047e+001
0	 5.999999999999999e+000	 2.000000000000000e+000	 1.027637977352389e+001
0	 6.066670000003319e+000	 1.333299999983334e+000	 1.023475422243124e+001
0	 6.066670000003316e+000	 1.399969999982150e+000	 1.023759409723041e+001
0	 6.066670000003318e+000	 1.466639999981867e+000	 1.024043660999895e+001
0	 6.066670000003318e+000	 1.533309999982383e+000	 1.024330226171440e+001
0	 6.066670000003317e+000	 1.599979999983599e+000	 1.024621155335426e+001
0	 6.066670000003314e+000	 1.666649999985416e+000	 1.024918498589604e+001
0	 6.066670000003318e+000	 1.733319999987733e+000	 1.025224306031726e+001
0	 6.066670000003318e+000	 1.799989999990450e+000	 1.025540627759542e+001
0	 6.066670000003316e+000	 1.866659999993467e+000	 1.025869513870806e+001
0	 6.066670000003319e+000	 1.933329999996683e+000	 1.026213014463268e+001
0	 6.066670000003317e+000	 2.000000000000000e+000	 1.026573179634681e+001
0	 6.133340000006530e+000	 1.333299999983334e+000	 1.022532093044897e+001
0	 6.133340000006534e+000	 1.399969999982150e+000	 1.022802050797136e+001
0	 6.133340000006535e+000	 1.466639999981866e+000	 1.023075117239075e+001
0	 6.133340000006532e+000	 1.533309999982383e+000	 1.023352888561830e+001
0	 6.133340000006532e+000	 1.599979999983599e+000	 1.023636960956522e+001
0	 6.133340000006535e+000	 1.666649999985416e+000	 1.023928930614269e+001
0	 6.133340000006533e+000	 1.733319999987733e+000	 1.024230393726190e+001
0	 6.133340000006532e+000	 1.799989999990450e+000	 1.024542946483403e+001
0	 6.133340000006534e+000	 1.866659999993467e+000	 1.024868185077029e+001
0	 6.133340000006535e+000	 1.933329999996683e+000	 1.025207705698184e+001
0	 6.133340000006534e+000	 2.000000000000000e+000	 1.025563104537991e+001
0	 6.200010000009550e+000	 1.333299999983334e+000	 1.021601981457036e+001
0	 6.200010000009550e+000	 1.399969999982150e+000	 1.021868635447718e+001
0	 6.200010000009550e+000	 1.466639999981866e+000	 1.022139361297587e+001
0	 6.200010000009551e+000	 1.533309999982383e+000	 1.022415381702724e+001
0	 6.200010000009549e+000	 1.599979999983599e+000	 1.022697919359215e+001
0	 6.200010000009550e+000	 1.666649999985416e+000	 1.022988196963143e+001
0	 6.200010000009550e+000	 1.733319999987733e+000	 1.023287437210591e+001
0	 6.200010000009550e+000	 1.799989999990450e+000	 1.023596862797642e+001
0	 6.200010000009550e+000	 1.866659999993467e+000	 1.023917696420382e+001
0	 6.200010000009549e+000	 1.933329999996683e+000	 1.024251160774895e+001
0	 6.200010000009550e+000	 2.000000000000000e+000	 1.024598478557263e+001
0	 6.266680000012264e+000	 1.333299999983334e+000	 1.020684233030972e+001
0	 6.266680000012269e+000	 1.399969999982150e+000	 1.020955834274073e+001
0	 6.266680000012268e+000	 1.466639999981866e+000	 1.021230951721794e+001
0	 6.266680000012267e+000	 1.533309999982383e+000	 1.021510514986783e+001
0	 6.266680000012265e+000	 1.599979999983599e+000	 1.021795453681684e+001
0	 6.266680000012267e+000	 1.666649999985416e+000	 1.022086697419145e+001
0	 6.266680000012267e+000	 1.733319999987733e+000	 1.022385175811811e+001
0	 6.266680000012267e+000	 1.799989999990450e+000	 1.022691818472327e+001
0	 6.266680000012267e+000	 1.866659999993466e+000	 1.023007555013342e+001
0	 6.266680000012268e+000	 1.933329999996683e+000	 1.023333315047499e+001
0	 6.266680000012268e+000	 2.000000000000000e+000	 1.023670028187449e+001
0	 6.333350000014582e+000	 1.333299999983334e+000	 1.019777993318138e+001
0	 6.333350000014584e+000	 1.399969999982150e+000	 1.020060317875487e+001
0	 6.333350000014583e+000	 1.466639999981867e+000	 1.020344447058062e+001
0	 6.333350000014582e+000	 1.533309999982383e+000	 1.020631097806669e+001
0	 6.333350000014583e+000	 1.599979999983599e+000	 1.020920987062112e+001
0	 6.333350000014582e+000	 1.666649999985416e+000	 1.021214831765199e+001
0	 6.333350000014583e+000	 1.733319999987733e+000	 1.021513348856735e+001
0	 6.333350000014583e+000	 1.799989999990449e+000	 1.021817255277526e+001
0	 6.333350000014583e+000	 1.866659999993466e+000	 1.022127267968379e+001
0	 6.333350000014583e+000	 1.933329999996683e+000	 1.022444103870100e+001
0	 6.333350000014583e+000	 2.000000000000000e+000	 1.022768479923496e+001
0	 6.400020000016399e+000	 1.333299999983334e+000	 1.018882407869961e+001
0	 6.400020000016400e+000	 1.399969999982150e+000	 1.019178756851246e+001
0	 6.400020000016400e+000	 1.466639999981866e+000	 1.019474405852752e+001
0	 6.400020000016397e+000	 1.533309999982382e+000	 1.019769939555041e+001
0	 6.400020000016400e+000	 1.599979999983600e+000	 1.020065942638678e+001
0	 6.400020000016399e+000	 1.666649999985416e+000	 1.020362999784225e+001
0	 6.400020000016400e+000	 1.733319999987733e+000	 1.020661695672247e+001
0	 6.400020000016399e+000	 1.799989999990449e+000	 1.020962614983307e+001
0	 6.400020000016399e+000	 1.866659999993466e+000	 1.021266342397968e+001
0	 6.400020000016398e+000	 1.933329999996683e+000	 1.021573462596795e+001
0	 6.400020000016399e+000	 2.000000000000000e+000	 1.021884560260350e+001
0	 6.466690000017616e+000	 1.333299999983334e+000	 1.017996622237877e+001
0	 6.466690000017616e+000	 1.399969999982150e+000	 1.018307821800637e+001
0	 6.466690000017615e+000	 1.466639999981867e+000	 1.018615386652226e+001
0	 6.466690000017616e+000	 1.533309999982383e+000	 1.018919849624561e+001
0	 6.466690000017615e+000	 1.599979999983599e+000	 1.019221743549561e+001
0	 6.466690000017615e+000	 1.666649999985416e+000	 1.019521601259145e+001
0	 6.466690000017618e+000	 1.733319999987733e+000	 1.019819955585231e+001
0	 6.466690000017617e+000	 1.799989999990450e+000	 1.020117339359736e+001
0	 6.466690000017615e+000	 1.866659999993466e+000	 1.020414285414581e+001
0	 6.466690000017616e+000	 1.933329999996683e+000	 1.020711326581683e+001
0	 6.466690000017616e+000	 2.000000000000000e+000	 1.021008995692961e+001
0	 6.533360000018132e+000	 1.333299999983334e+000	 1.017119781973315e+001
0	 6.533360000018130e+000	 1.399969999982150e+000	 1.017444183322946e+001
0	 6.533360000018133e+000	 1.466639999981867e+000	 1.017761948002848e+001
0	 6.533360000018131e+000	 1.533309999982383e+000	 1.018073637407890e+001
0	 6.533360000018132e+000	 1.599979999983600e+000	 1.018379812932944e+001
0	 6.533360000018132e+000	 1.666649999985416e+000	 1.018681035972879e+001
0	 6.533360000018131e+000	 1.733319999987733e+000	 1.018977867922569e+001
0	 6.533360000018131e+000	 1.799989999990449e+000	 1.019270870176882e+001
0	 6.533360000018131e+000	 1.866659999993466e+000	 1.019560604130690e+001
0	 6.533360000018131e+000	 1.933329999996683e+000	 1.019847631178865e+001
0	 6.533360000018132e+000	 2.000000000000000e+000	 1.020132512716276e+001
0	 6.600030000017847e+000	 1.333299999983334e+000	 1.016251032627705e+001
0	 6.600030000017847e+000	 1.399969999982150e+000	 1.016584512017459e+001
0	 6.600030000017849e+000	 1.466639999981867e+000	 1.016908648450979e+001
0	 6.600030000017848e+000	 1.533309999982383e+000	 1.017224112297687e+001
0	 6.600030000017848e+000	 1.599979999983599e+000	 1.017531573927004e+001
0	 6.600030000017847e+000	 1.666649999985416e+000	 1.017831703708350e+001
0	 6.600030000017850e+000	 1.733319999987733e+000	 1.018125172011145e+001
0	 6.600030000017847e+000	 1.799989999990449e+000	 1.018412649204811e+001
0	 6.600030000017849e+000	 1.866659999993467e+000	 1.018694805658770e+001
0	 6.600030000017848e+000	 1.933329999996683e+000	 1.018972311742439e+001
0	 6.600030000017847e+000	 2.000000000000000e+000	 1.019245837825242e+001
0	 6.666700000016665e+000	 1.333299999983334e+000	 1.015389519752479e+001
0	 6.666700000016666e+000	 1.399969999982150e+000	 1.015725478483461e+001
0	 6.666700000016666e+000	 1.466639999981866e+000	 1.016050046542984e+001
0	 6.666700000016667e+000	 1.533309999982383e+000	 1.016364083686615e+001
0	 6.666700000016667e+000	 1.599979999983599e+000	 1.016668449669924e+001
0	 6.666700000016665e+000	 1.666649999985416e+000	 1.016964004248477e+001
0	 6.666700000016667e+000	 1.733319999987733e+000	 1.017251607177844e+001
0	 6.666700000016665e+000	 1.799989999990449e+000	 1.017532118213592e+001
0	 6.666700000016665e+000	 1.866659999993466e+000	 1.017806397111289e+001
0	 6.666700000016666e+000	 1.933329999996683e+000	 1.018075303626504e+001
0	 6.666700000016668e+000	 2.000000000000000e+000	 1.018339697514805e+001
0	 5.999999999999999e+000	 2.000000000000000e+000	 1.027637977352389e+001
0	 6.000000000000000e+000	 2.066670000003318e+000	 1.027997389699252e+001
0	 5.999999999999999e+000	 2.133340000006534e+000	 1.028336494510812e+001
0	 6.000000000000001e+000	 2.200010000009551e+000	 1.028655429182834e+001
0	 6.000000000000002e+000	 2.266680000012268e+000	 1.028954331111080e+001
0	 6.000000000000000e+000	 2.333350000014584e+000	 1.029233337691317e+001
0	 6.000000000000000e+000	 2.400020000016401e+000	 1.029492586319306e+001
0	 6.000000000000000e+000	 2.466690000017617e+000	 1.029732214390813e+001
0	 6.000000000000001e+000	 2.533360000018133e+000	 1.029952359301600e+001
0	 5.999999999999998e+000	 2.600030000017850e+000	 1.030153158447430e+001
0	 6.000000000000000e+000	 2.666700000016666e+000	 1.030334749224067e+001
0	 6.066670000003317e+000	 2.000000000000000e+000	 1.026573179634681e+001
0	 6.066670000003316e+000	 2.066670000003317e+000	 1.026931060386801e+001
0	 6.066670000003318e+000	 2.133340000006534e+000	 1.027266929376725e+001
0	 6.066670000003319e+000	 2.200010000009550e+000	 1.027581669185211e+001
0	 6.066670000003318e+000	 2.266680000012268e+000	 1.027876162393024e+001
0	 6.066670000003313e+000	 2.333350000014583e+000	 1.028151291580920e+001
0	 6.066670000003317e+000	 2.400020000016401e+000	 1.028407939329663e+001
0	 6.066670000003317e+000	 2.466690000017616e+000	 1.028646988220010e+001
0	 6.066670000003316e+000	 2.533360000018133e+000	 1.028869320832723e+001
0	 6.066670000003317e+000	 2.600030000017851e+000	 1.029075819748558e+001
0	 6.066670000003318e+000	 2.666700000016666e+000	 1.029267367548277e+001
0	 6.133340000006534e+000	 2.000000000000000e+000	 1.025563104537991e+001
0	 6.133340000006535e+000	 2.066670000003317e+000	 1.025914805753438e+001
0	 6.133340000006534e+000	 2.133340000006535e+000	 1.026243165851245e+001
0	 6.133340000006531e+000	 2.200010000009551e+000	 1.026549679547108e+001
0	 6.133340000006531e+000	 2.266680000012267e+000	 1.026835841556729e+001
0	 6.133340000006535e+000	 2.333350000014585e+000	 1.027103146595809e+001
0	 6.133340000006533e+000	 2.400020000016401e+000	 1.027353089380047e+001
0	 6.133340000006533e+000	 2.466690000017617e+000	 1.027587164625145e+001
0	 6.133340000006535e+000	 2.533360000018134e+000	 1.027806867046801e+001
0	 6.133340000006532e+000	 2.600030000017850e+000	 1.028013691360714e+001
0	 6.133340000006530e+000	 2.666700000016666e+000	 1.028209132282583e+001
0	 6.200010000009550e+000	 2.000000000000000e+000	 1.024598478557263e+001
0	 6.200010000009549e+000	 2.066670000003317e+000	 1.024940336213024e+001
0	 6.200010000009550e+000	 2.133340000006534e+000	 1.025257920924045e+001
0	 6.200010000009550e+000	 2.200010000009550e+000	 1.025553206490911e+001
0	 6.200010000009550e+000	 2.266680000012268e+000	 1.025828166714207e+001
0	 6.200010000009550e+000	 2.333350000014584e+000	 1.026084775394517e+001
0	 6.200010000009548e+000	 2.400020000016400e+000	 1.026325006332423e+001
0	 6.200010000009550e+000	 2.466690000017618e+000	 1.026550833328510e+001
0	 6.200010000009550e+000	 2.533360000018134e+000	 1.026764230183362e+001
0	 6.200010000009550e+000	 2.600030000017851e+000	 1.026967170697560e+001
0	 6.200010000009550e+000	 2.666700000016666e+000	 1.027161628671688e+001
0	 6.266680000012268e+000	 2.000000000000000e+000	 1.023670028187449e+001
0	 6.266680000012266e+000	 2.066670000003317e+000	 1.023999362179415e+001
0	 6.266680000012266e+000	 2.133340000006534e+000	 1.024303911584798e+001
0	 6.266680000012267e+000	 2.200010000009550e+000	 1.024585996239012e+001
0	 6.266680000012266e+000	 2.266680000012267e+000	 1.024847935977467e+001
0	 6.266680000012267e+000	 2.333350000014584e+000	 1.025092050635577e+001
0	 6.266680000012267e+000	 2.400020000016401e+000	 1.025320660048750e+001
0	 6.266680000012265e+000	 2.466690000017617e+000	 1.025536084052397e+001
0	 6.266680000012268e+000	 2.533360000018133e+000	 1.025740642481930e+001
0	 6.266680000012268e+000	 2.600030000017851e+000	 1.025936655172760e+001
0	 6.266680000012267e+000	 2.666700000016667e+000	 1.026126441960296e+001
0	 6.333350000014583e+000	 2.000000000000000e+000	 1.022768479923496e+001
0	 6.333350000014582e+000	 2.066670000003317e+000	 1.023083594066470e+001
0	 6.333350000014583e+000	 2.133340000006534e+000	 1.023373854823176e+001
0	 6.333350000014583e+000	 2.200010000009551e+000	 1.023641795013799e+001
0	 6.333350000014583e+000	 2.266680000012267e+000	 1.023889947458520e+001
0	 6.333350000014582e+000	 2.333350000014584e+000	 1.024120844977523e+001
0	 6.333350000014583e+000	 2.400020000016401e+000	 1.024337020390987e+001
0	 6.333350000014583e+000	 2.466690000017617e+000	 1.024541006519098e+001
0	 6.333350000014582e+000	 2.533360000018133e+000	 1.024735336182033e+001
0	 6.333350000014584e+000	 2.600030000017851e+000	 1.024922542199976e+001
0	 6.333350000014584e+000	 2.666700000016667e+000	 1.025105157393109e+001
0	 6.400020000016399e+000	 2.000000000000000e+000	 1.021884560260350e+001
0	 6.400020000016398e+000	 2.066670000003317e+000	 1.022184742288047e+001
0	 6.400020000016399e+000	 2.133340000006534e+000	 1.022460467628852e+001
0	 6.400020000016400e+000	 2.200010000009550e+000	 1.022714349037663e+001
0	 6.400020000016399e+000	 2.266680000012267e+000	 1.022948999269376e+001
0	 6.400020000016397e+000	 2.333350000014584e+000	 1.023167031078889e+001
0	 6.400020000016397e+000	 2.400020000016401e+000	 1.023371057221099e+001
0	 6.400020000016400e+000	 2.466690000017618e+000	 1.023563690450901e+001
0	 6.400020000016399e+000	 2.533360000018134e+000	 1.023747543523193e+001
0	 6.400020000016399e+000	 2.600030000017851e+000	 1.023925229192871e+001
0	 6.400020000016399e+000	 2.666700000016666e+000	 1.024099360214830e+001
0	 6.466690000017616e+000	 2.000000000000000e+000	 1.021008995692961e+001
0	 6.466690000017614e+000	 2.066670000003316e+000	 1.021294517258006e+001
0	 6.466690000017615e+000	 2.133340000006533e+000	 1.021556466991498e+001
0	 6.466690000017617e+000	 2.200010000009551e+000	 1.021797404532991e+001
0	 6.466690000017618e+000	 2.266680000012268e+000	 1.022019889522044e+001
0	 6.466690000017616e+000	 2.333350000014585e+000	 1.022226481598209e+001
0	 6.466690000017616e+000	 2.400020000016400e+000	 1.022419740401043e+001
0	 6.466690000017617e+000	 2.466690000017617e+000	 1.022602225570101e+001
0	 6.466690000017615e+000	 2.533360000018134e+000	 1.022776496744937e+001
0	 6.466690000017615e+000	 2.600030000017850e+000	 1.022945113565106e+001
0	 6.466690000017616e+000	 2.666700000016667e+000	 1.023110635670163e+001
0	 6.533360000018132e+000	 2.000000000000000e+000	 1.020132512716276e+001
0	 6.533360000018130e+000	 2.066670000003317e+000	 1.020404629390204e+001
0	 6.533360000018131e+000	 2.133340000006534e+000	 1.020654569900783e+001
0	 6.533360000018130e+000	 2.200010000009550e+000	 1.020884707722174e+001
0	 6.533360000018131e+000	 2.266680000012267e+000	 1.021097416328532e+001
0	 6.533360000018132e+000	 2.333350000014583e+000	 1.021295069194016e+001
0	 6.533360000018133e+000	 2.400020000016401e+000	 1.021480039792782e+001
0	 6.533360000018133e+000	 2.466690000017617e+000	 1.021654701598988e+001
0	 6.533360000018132e+000	 2.533360000018134e+000	 1.021821428086791e+001
0	 6.533360000018133e+000	 2.600030000017850e+000	 1.021982592730345e+001
0	 6.533360000018133e+000	 2.666700000016666e+000	 1.022140569003810e+001
0	 6.600030000017847e+000	 2.000000000000000e+000	 1.019245837825242e+001
0	 6.600030000017847e+000	 2.066670000003317e+000	 1.019506789098498e+001
0	 6.600030000017849e+000	 2.133340000006534e+000	 1.019747493346383e+001
0	 6.600030000017848e+000	 2.200010000009550e+000	 1.019970004827600e+001
0	 6.600030000017849e+000	 2.266680000012268e+000	 1.020176377800852e+001
0	 6.600030000017848e+000	 2.333350000014584e+000	 1.020368666524843e+001
0	 6.600030000017849e+000	 2.400020000016400e+000	 1.020548925258275e+001
0	 6.600030000017847e+000	 2.466690000017618e+000	 1.020719208259853e+001
0	 6.600030000017847e+000	 2.533360000018134e+000	 1.020881569788276e+001
0	 6.600030000017849e+000	 2.600030000017851e+000	 1.021038064102250e+001
0	 6.600030000017847e+000	 2.666700000016666e+000	 1.021190745460475e+001
0	 6.666700000016668e+000	 2.000000000000000e+000	 1.018339697514805e+001
0	 6.666700000016665e+000	 2.066670000003317e+000	 1.018592706796746e+001
0	 6.666700000016665e+000	 2.133340000006534e+000	 1.018827954317965e+001
0	 6.666700000016666e+000	 2.200010000009551e+000	 1.019047042071656e+001
0	 6.666700000016668e+000	 2.266680000012268e+000	 1.019251572051012e+001
0	 6.666700000016666e+000	 2.333350000014584e+000	 1.019443146249224e+001
0	 6.666700000016667e+000	 2.400020000016400e+000	 1.019623366659484e+001
0	 6.666700000016665e+000	 2.466690000017617e+000	 1.019793835274986e+001
0	 6.666700000016667e+000	 2.533360000018134e+000	 1.019956154088922e+001
0	 6.666700000016666e+000	 2.600030000017851e+000	 1.020111925094482e+001
0	 6.666700000016667e+000	 2.666700000016667e+000	 1.020262750284859e+001
0	 6.000000000000000e+000	 2.666700000016666e+000	 1.030334749224067e+001
0	 6.000000000000000e+000	 2.733360000014533e+000	 1.030488059471087e+001
0	 5.999999999999998e+000	 2.800020000011600e+000	 1.030604692772767e+001
0	 6.000000000000002e+000	 2.866680000008067e+000	 1.030685722731212e+001
0	 5.999999999999998e+000	 2.933340000004133e+000	 1.030732222948528e+001
0	 6.000000000000003e+000	 3.000000000000000e+000	 1.030745267026820e+001
0	 5.999999999999998e+000	 3.066659999995867e+000	 1.030725928568197e+001
0	 6.000000000000001e+000	 3.133319999991934e+000	 1.030675281174768e+001
0	 5.999999999999999e+000	 3.199979999988400e+000	 1.030594398448640e+001
0	 6.000000000000000e+000	 3.266639999985467e+000	 1.030484353991925e+001
0	 6.000000000000000e+000	 3.333299999983334e+000	 1.030346221406734e+001
0	 6.066670000003318e+000	 2.666700000016666e+000	 1.029267367548277e+001
0	 6.066670000003317e+000	 2.733360000014534e+000	 1.029433920441659e+001
0	 6.066670000003313e+000	 2.800020000011600e+000	 1.029565294289036e+001
0	 6.066670000003318e+000	 2.866680000008067e+000	 1.029662078186247e+001
0	 6.066670000003319e+000	 2.933340000004133e+000	 1.029724861229132e+001
0	 6.066670000003320e+000	 3.000000000000000e+000	 1.029754232513533e+001
0	 6.066670000003319e+000	 3.066659999995867e+000	 1.029750781135294e+001
0	 6.066670000003319e+000	 3.133319999991934e+000	 1.029715096190255e+001
0	 6.066670000003313e+000	 3.199979999988400e+000	 1.029647766774262e+001
0	 6.066670000003318e+000	 3.266639999985467e+000	 1.029549381983161e+001
0	 6.066670000003317e+000	 3.333299999983333e+000	 1.029420530912796e+001
0	 6.133340000006530e+000	 2.666700000016666e+000	 1.028209132282583e+001
0	 6.133340000006534e+000	 2.733360000014533e+000	 1.028382858368436e+001
0	 6.133340000006532e+000	 2.800020000011599e+000	 1.028523722583739e+001
0	 6.133340000006533e+000	 2.866680000008067e+000	 1.028631910651277e+001
0	 6.133340000006531e+000	 2.933340000004133e+000	 1.028707608293834e+001
0	 6.133340000006533e+000	 3.000000000000000e+000	 1.028751001234196e+001
0	 6.133340000006534e+000	 3.066659999995868e+000	 1.028762275195149e+001
0	 6.133340000006533e+000	 3.133319999991933e+000	 1.028741615899480e+001
0	 6.133340000006533e+000	 3.199979999988400e+000	 1.028689209069978e+001
0	 6.133340000006532e+000	 3.266639999985467e+000	 1.028605240429433e+001
0	 6.133340000006530e+000	 3.333299999983333e+000	 1.028489895700634e+001
0	 6.200010000009550e+000	 2.666700000016666e+000	 1.027161628671689e+001
0	 6.200010000009550e+000	 2.733360000014533e+000	 1.027337545303120e+001
0	 6.200010000009552e+000	 2.800020000011600e+000	 1.027483512170326e+001
0	 6.200010000009550e+000	 2.866680000008067e+000	 1.027599392756244e+001
0	 6.200010000009551e+000	 2.933340000004133e+000	 1.027685050543812e+001
0	 6.200010000009550e+000	 3.000000000000000e+000	 1.027740349015969e+001
0	 6.200010000009550e+000	 3.066659999995867e+000	 1.027765151655654e+001
0	 6.200010000009550e+000	 3.133319999991933e+000	 1.027759321945808e+001
0	 6.200010000009551e+000	 3.199979999988401e+000	 1.027722723369373e+001
0	 6.200010000009550e+000	 3.266639999985467e+000	 1.027655219409293e+001
0	 6.200010000009550e+000	 3.333299999983333e+000	 1.027556673548510e+001
0	 6.266680000012267e+000	 2.666700000016667e+000	 1.026126441960296e+001
0	 6.266680000012268e+000	 2.733360000014533e+000	 1.026300653297416e+001
0	 6.266680000012265e+000	 2.800020000011599e+000	 1.026448197562247e+001
0	 6.266680000012266e+000	 2.866680000008067e+000	 1.026568697131089e+001
0	 6.266680000012265e+000	 2.933340000004133e+000	 1.026661774380242e+001
0	 6.266680000012264e+000	 2.999999999999999e+000	 1.026727051686012e+001
0	 6.266680000012267e+000	 3.066659999995866e+000	 1.026764151424697e+001
0	 6.266680000012267e+000	 3.133319999991934e+000	 1.026772695972601e+001
0	 6.266680000012266e+000	 3.199979999988401e+000	 1.026752307706030e+001
0	 6.266680000012268e+000	 3.266639999985467e+000	 1.026702609001290e+001
0	 6.266680000012265e+000	 3.333299999983333e+000	 1.026623222234685e+001
0	 6.333350000014584e+000	 2.666700000016667e+000	 1.025105157393109e+001
0	 6.333350000014584e+000	 2.733360000014533e+000	 1.025274854403027e+001
0	 6.333350000014582e+000	 2.800020000011599e+000	 1.025421313272949e+001
0	 6.333350000014581e+000	 2.866680000008066e+000	 1.025543996405752e+001
0	 6.333350000014582e+000	 2.933340000004133e+000	 1.025642366204306e+001
0	 6.333350000014582e+000	 3.000000000000000e+000	 1.025715885071486e+001
0	 6.333350000014583e+000	 3.066659999995867e+000	 1.025764015410168e+001
0	 6.333350000014582e+000	 3.133319999991934e+000	 1.025786219623224e+001
0	 6.333350000014582e+000	 3.199979999988400e+000	 1.025781960113533e+001
0	 6.333350000014583e+000	 3.266639999985467e+000	 1.025750699283972e+001
0	 6.333350000014582e+000	 3.333299999983334e+000	 1.025691899537419e+001
0	 6.400020000016399e+000	 2.666700000016666e+000	 1.024099360214830e+001
0	 6.400020000016400e+000	 2.733360000014533e+000	 1.024262820671654e+001
0	 6.400020000016399e+000	 2.800020000011600e+000	 1.024406393815884e+001
0	 6.400020000016400e+000	 2.866680000008067e+000	 1.024529463210175e+001
0	 6.400020000016400e+000	 2.933340000004134e+000	 1.024631412417179e+001
0	 6.400020000016399e+000	 2.999999999999999e+000	 1.024711624999554e+001
0	 6.400020000016399e+000	 3.066659999995868e+000	 1.024769484519956e+001
0	 6.400020000016401e+000	 3.133319999991935e+000	 1.024804374541041e+001
0	 6.400020000016401e+000	 3.199979999988401e+000	 1.024815678625466e+001
0	 6.400020000016401e+000	 3.266639999985467e+000	 1.024802780335890e+001
0	 6.400020000016399e+000	 3.333299999983334e+000	 1.024765063234974e+001
0	 6.466690000017616e+000	 2.666700000016667e+000	 1.023110635670163e+001
0	 6.466690000017616e+000	 2.733360000014533e+000	 1.023267224155003e+001
0	 6.466690000017616e+000	 2.800020000011600e+000	 1.023406973704499e+001
0	 6.466690000017616e+000	 2.866680000008067e+000	 1.023529270174296e+001
0	 6.466690000017616e+000	 2.933340000004134e+000	 1.023633499420040e+001
0	 6.466690000017615e+000	 3.000000000000000e+000	 1.023719047297376e+001
0	 6.466690000017616e+000	 3.066659999995867e+000	 1.023785299661951e+001
0	 6.466690000017617e+000	 3.133319999991933e+000	 1.023831642369414e+001
0	 6.466690000017616e+000	 3.199979999988400e+000	 1.023857461275411e+001
0	 6.466690000017614e+000	 3.266639999985467e+000	 1.023862142235593e+001
0	 6.466690000017617e+000	 3.333299999983334e+000	 1.023845071105608e+001
0	 6.533360000018133e+000	 2.666700000016666e+000	 1.022140569003810e+001
0	 6.533360000018132e+000	 2.733360000014533e+000	 1.022290736904776e+001
0	 6.533360000018133e+000	 2.800020000011600e+000	 1.022426587452244e+001
0	 6.533360000018132e+000	 2.866680000008067e+000	 1.022547589928059e+001
0	 6.533360000018133e+000	 2.933340000004134e+000	 1.022653213614066e+001
0	 6.533360000018132e+000	 3.000000000000000e+000	 1.022742927792112e+001
0	 6.533360000018132e+000	 3.066659999995866e+000	 1.022816201744044e+001
0	 6.533360000018133e+000	 3.133319999991934e+000	 1.022872504751708e+001
0	 6.533360000018130e+000	 3.199979999988400e+000	 1.022911306096954e+001
0	 6.533360000018132e+000	 3.266639999985468e+000	 1.022932075061630e+001
0	 6.533360000018132e+000	 3.333299999983333e+000	 1.022934280927586e+001
0	 6.600030000017847e+000	 2.666700000016666e+000	 1.021190745460475e+001
0	 6.600030000017849e+000	 2.733360000014533e+000	 1.021336030972676e+001
0	 6.600030000017847e+000	 2.800020000011599e+000	 1.021468769572567e+001
0	 6.600030000017847e+000	 2.866680000008066e+000	 1.021588595101402e+001
0	 6.600030000017848e+000	 2.933340000004134e+000	 1.021695141400435e+001
0	 6.600030000017850e+000	 3.000000000000000e+000	 1.021788042310923e+001
0	 6.600030000017848e+000	 3.066659999995868e+000	 1.021866931674121e+001
0	 6.600030000017849e+000	 3.133319999991934e+000	 1.021931443331287e+001
0	 6.600030000017849e+000	 3.199979999988401e+000	 1.021981211123677e+001
0	 6.600030000017848e+000	 3.266639999985468e+000	 1.022015868892550e+001
0	 6.600030000017847e+000	 3.333299999983333e+000	 1.022035050479164e+001
0	 6.666700000016667e+000	 2.666700000016667e+000	 1.020262750284859e+001
0	 6.666700000016668e+000	 2.733360000014533e+000	 1.020405778410408e+001
0	 6.666700000016665e+000	 2.800020000011599e+000	 1.020537054578918e+001
0	 6.666700000016666e+000	 2.866680000008067e+000	 1.020656458324268e+001
0	 6.666700000016667e+000	 2.933340000004133e+000	 1.020763869180326e+001
0	 6.666700000016666e+000	 3.000000000000000e+000	 1.020859166680971e+001
0	 6.666700000016667e+000	 3.066659999995868e+000	 1.020942230360074e+001
0	 6.666700000016665e+000	 3.133319999991933e+000	 1.021012939751513e+001
0	 6.666700000016665e+000	 3.199979999988401e+000	 1.021071174389164e+001
0	 6.666700000016668e+000	 3.266639999985468e+000	 1.021116813806902e+001
0	 6.666700000016665e+000	 3.333299999983333e+000	 1.021149737538604e+001
0	 6.000000000000000e+000	 3.333299999983334e+000	 1.030346221406734e+001
0	 6.000000000000001e+000	 3.399969999982151e+000	 1.030189164896769e+001
0	 6.000000000000000e+000	 3.466639999981866e+000	 1.030021239582562e+001
0	 6.000000000000000e+000	 3.533309999982383e+000	 1.029841787116186e+001
0	 6.000000000000001e+000	 3.599979999983601e+000	 1.029650149149714e+001
0	 6.000000000000000e+000	 3.666649999985416e+000	 1.029445667335217e+001
0	 6.000000000000000e+000	 3.733319999987733e+000	 1.029227683324768e+001
0	 5.999999999999998e+000	 3.799989999990450e+000	 1.028995538770439e+001
0	 6.000000000000001e+000	 3.866659999993467e+000	 1.028748575324300e+001
0	 6.000000000000000e+000	 3.933329999996683e+000	 1.028486134638424e+001
0	 6.000000000000001e+000	 4.000000000000000e+000	 1.028207558364881e+001
0	 6.066670000003317e+000	 3.333299999983333e+000	 1.029420530912796e+001
0	 6.066670000003315e+000	 3.399969999982150e+000	 1.029271891015487e+001
0	 6.066670000003318e+000	 3.466639999981867e+000	 1.029113430694517e+001
0	 6.066670000003316e+000	 3.533309999982382e+000	 1.028944610716168e+001
0	 6.066670000003319e+000	 3.599979999983600e+000	 1.028764891846722e+001
0	 6.066670000003315e+000	 3.666649999985415e+000	 1.028573734852462e+001
0	 6.066670000003318e+000	 3.733319999987733e+000	 1.028370600499671e+001
0	 6.066670000003318e+000	 3.799989999990450e+000	 1.028154949554632e+001
0	 6.066670000003317e+000	 3.866659999993467e+000	 1.027926242783624e+001
0	 6.066670000003318e+000	 3.933329999996685e+000	 1.027683940952929e+001
0	 6.066670000003318e+000	 4.000000000000001e+000	 1.027427504828829e+001
0	 6.133340000006530e+000	 3.333299999983333e+000	 1.028489895700634e+001
0	 6.133340000006534e+000	 3.399969999982150e+000	 1.028354307538828e+001
0	 6.133340000006533e+000	 3.466639999981866e+000	 1.028209235626089e+001
0	 6.133340000006531e+000	 3.533309999982382e+000	 1.028054247282667e+001
0	 6.133340000006531e+000	 3.599979999983600e+000	 1.027888909828809e+001
0	 6.133340000006534e+000	 3.666649999985416e+000	 1.027712790584766e+001
0	 6.133340000006533e+000	 3.733319999987733e+000	 1.027525456870782e+001
0	 6.133340000006531e+000	 3.799989999990449e+000	 1.027326476007107e+001
0	 6.133340000006533e+000	 3.866659999993467e+000	 1.027115415313989e+001
0	 6.133340000006535e+000	 3.933329999996684e+000	 1.026891842111675e+001
0	 6.133340000006534e+000	 4.000000000000001e+000	 1.026655323720409e+001
0	 6.200010000009550e+000	 3.333299999983333e+000	 1.027556673548510e+001
0	 6.200010000009550e+000	 3.399969999982150e+000	 1.027437797118119e+001
0	 6.200010000009550e+000	 3.466639999981867e+000	 1.027309200907018e+001
0	 6.200010000009552e+000	 3.533309999982383e+000	 1.027170546229176e+001
0	 6.200010000009550e+000	 3.599979999983600e+000	 1.027021494398564e+001
0	 6.200010000009550e+000	 3.666649999985416e+000	 1.026861706729150e+001
0	 6.200010000009550e+000	 3.733319999987733e+000	 1.026690844534903e+001
0	 6.200010000009550e+000	 3.799989999990450e+000	 1.026508569129793e+001
0	 6.200010000009550e+000	 3.866659999993467e+000	 1.026314541827787e+001
0	 6.200010000009550e+000	 3.933329999996684e+000	 1.026108423942853e+001
0	 6.200010000009550e+000	 4.000000000000000e+000	 1.025889876788962e+001
0	 6.266680000012265e+000	 3.333299999983333e+000	 1.026623222234685e+001
0	 6.266680000012268e+000	 3.399969999982150e+000	 1.026523742404691e+001
0	 6.266680000012268e+000	 3.466639999981867e+000	 1.026413873067044e+001
0	 6.266680000012268e+000	 3.533309999982383e+000	 1.026293356969189e+001
0	 6.266680000012268e+000	 3.599979999983600e+000	 1.026161936858573e+001
0	 6.266680000012267e+000	 3.666649999985417e+000	 1.026019355482641e+001
0	 6.266680000012268e+000	 3.733319999987733e+000	 1.025865355588839e+001
0	 6.266680000012268e+000	 3.799989999990450e+000	 1.025699679924610e+001
0	 6.266680000012266e+000	 3.866659999993466e+000	 1.025522071237403e+001
0	 6.266680000012267e+000	 3.933329999996684e+000	 1.025332272274659e+001
0	 6.266680000012268e+000	 4.000000000000001e+000	 1.025130025783824e+001
0	 6.333350000014582e+000	 3.333299999983334e+000	 1.025691899537419e+001
0	 6.333350000014582e+000	 3.399969999982149e+000	 1.025613526049874e+001
0	 6.333350000014582e+000	 3.466639999981866e+000	 1.025523798635907e+001
0	 6.333350000014582e+000	 3.533309999982383e+000	 1.025422528916199e+001
0	 6.333350000014582e+000	 3.599979999983599e+000	 1.025309528511424e+001
0	 6.333350000014583e+000	 3.666649999985416e+000	 1.025184609042263e+001
0	 6.333350000014582e+000	 3.733319999987732e+000	 1.025047582129391e+001
0	 6.333350000014585e+000	 3.799989999990451e+000	 1.024898259393486e+001
0	 6.333350000014585e+000	 3.866659999993467e+000	 1.024736452455224e+001
0	 6.333350000014584e+000	 3.933329999996684e+000	 1.024561972935283e+001
0	 6.333350000014583e+000	 4.000000000000001e+000	 1.024374632454339e+001
0	 6.400020000016399e+000	 3.333299999983334e+000	 1.024765063234974e+001
0	 6.400020000016400e+000	 3.399969999982150e+000	 1.024708530704996e+001
0	 6.400020000016400e+000	 3.466639999981867e+000	 1.024639524143349e+001
0	 6.400020000016398e+000	 3.533309999982383e+000	 1.024557911483697e+001
0	 6.400020000016401e+000	 3.599979999983600e+000	 1.024463560659706e+001
0	 6.400020000016398e+000	 3.666649999985415e+000	 1.024356339605041e+001
0	 6.400020000016398e+000	 3.733319999987733e+000	 1.024236116253364e+001
0	 6.400020000016401e+000	 3.799989999990450e+000	 1.024102758538342e+001
0	 6.400020000016398e+000	 3.866659999993467e+000	 1.023956134393639e+001
0	 6.400020000016400e+000	 3.933329999996683e+000	 1.023796111752918e+001
0	 6.400020000016398e+000	 4.000000000000000e+000	 1.023622558549842e+001
0	 6.466690000017617e+000	 3.333299999983334e+000	 1.023845071105609e+001
0	 6.466690000017614e+000	 3.399969999982150e+000	 1.023810139021386e+001
0	 6.466690000017615e+000	 3.466639999981867e+000	 1.023761596119108e+001
0	 6.466690000017614e+000	 3.533309999982382e+000	 1.023699354085178e+001
0	 6.466690000017614e+000	 3.599979999983599e+000	 1.023623324606005e+001
0	 6.466690000017616e+000	 3.666649999985417e+000	 1.023533419367998e+001
0	 6.466690000017617e+000	 3.733319999987733e+000	 1.023429550057562e+001
0	 6.466690000017617e+000	 3.799989999990451e+000	 1.023311628361106e+001
0	 6.466690000017615e+000	 3.866659999993467e+000	 1.023179565965035e+001
0	 6.466690000017617e+000	 3.933329999996683e+000	 1.023033274555756e+001
0	 6.466690000017615e+000	 4.000000000000000e+000	 1.022872665819675e+001
0	 6.533360000018132e+000	 3.333299999983333e+000	 1.022934280927586e+001
0	 6.533360000018129e+000	 3.399969999982149e+000	 1.022919733650377e+001
0	 6.533360000018133e+000	 3.466639999981867e+000	 1.022890561092922e+001
0	 6.533360000018133e+000	 3.533309999982382e+000	 1.022846706134132e+001
0	 6.533360000018132e+000	 3.599979999983600e+000	 1.022788111652909e+001
0	 6.533360000018132e+000	 3.666649999985416e+000	 1.022714720528160e+001
0	 6.533360000018130e+000	 3.733319999987733e+000	 1.022626475638787e+001
0	 6.533360000018132e+000	 3.799989999990450e+000	 1.022523319863699e+001
0	 6.533360000018131e+000	 3.866659999993466e+000	 1.022405196081799e+001
0	 6.533360000018132e+000	 3.933329999996684e+000	 1.022272047171990e+001
0	 6.533360000018133e+000	 4.000000000000001e+000	 1.022123816013177e+001
0	 6.600030000017847e+000	 3.333299999983333e+000	 1.022035050479163e+001
0	 6.600030000017847e+000	 3.399969999982150e+000	 1.022038697243292e+001
0	 6.600030000017848e+000	 3.466639999981867e+000	 1.022026965594535e+001
0	 6.600030000017849e+000	 3.533309999982384e+000	 1.021999817044053e+001
0	 6.600030000017847e+000	 3.599979999983599e+000	 1.021957213103005e+001
0	 6.600030000017847e+000	 3.666649999985415e+000	 1.021899115282549e+001
0	 6.600030000017848e+000	 3.733319999987733e+000	 1.021825485093844e+001
0	 6.600030000017847e+000	 3.799989999990450e+000	 1.021736284048047e+001
0	 6.600030000017847e+000	 3.866659999993466e+000	 1.021631473656317e+001
0	 6.600030000017847e+000	 3.933329999996684e+000	 1.021511015429811e+001
0	 6.600030000017847e+000	 4.000000000000000e+000	 1.021374870879686e+001
0	 6.666700000016665e+000	 3.333299999983333e+000	 1.021149737538604e+001
0	 6.666700000016666e+000	 3.399969999982149e+000	 1.021168412451464e+001
0	 6.666700000016666e+000	 3.466639999981866e+000	 1.021171356153684e+001
0	 6.666700000016665e+000	 3.533309999982383e+000	 1.021158536228435e+001
0	 6.666700000016665e+000	 3.599979999983599e+000	 1.021129920258881e+001
0	 6.666700000016665e+000	 3.666649999985415e+000	 1.021085475828191e+001
0	 6.666700000016666e+000	 3.733319999987733e+000	 1.021025170519532e+001
0	 6.666700000016665e+000	 3.799989999990449e+000	 1.020948971916072e+001
0	 6.666700000016668e+000	 3.866659999993467e+000	 1.020856847600977e+001
0	 6.666700000016665e+000	 3.933329999996683e+000	 1.020748765157412e+001
0	 6.666700000016667e+000	 4.000000000000001e+000	 1.020624692168543e+001
0	 6.000000000000001e+000	 4.000000000000000e+000	 1.028207558364881e+001
0	 6.000000000000001e+000	 4.066670000003318e+000	 1.027916382905673e+001
0	 6.000000000000000e+000	 4.133340000006534e+000	 1.027616161918953e+001
0	 6.000000000000000e+000	 4.200010000009550e+000	 1.027306262941024e+001
0	 6.000000000000002e+000	 4.266680000012268e+000	 1.026986053508185e+001
0	 6.000000000000000e+000	 4.333350000014584e+000	 1.026654901156738e+001
0	 5.999999999999998e+000	 4.400020000016401e+000	 1.026312173422978e+001
0	 5.999999999999999e+000	 4.466690000017617e+000	 1.025957237843209e+001
0	 6.000000000000001e+000	 4.533360000018134e+000	 1.025589461953728e+001
0	 6.000000000000000e+000	 4.600030000017850e+000	 1.025208213290835e+001
0	 6.000000000000000e+000	 4.666700000016666e+000	 1.024812859390828e+001
0	 6.066670000003318e+000	 4.000000000000001e+000	 1.027427504828829e+001
0	 6.066670000003318e+000	 4.066670000003318e+000	 1.027159030160886e+001
0	 6.066670000003317e+000	 4.133340000006533e+000	 1.026880629355702e+001
0	 6.066670000003319e+000	 4.200010000009550e+000	 1.026591788165124e+001
0	 6.066670000003318e+000	 4.266680000012268e+000	 1.026291992341003e+001
0	 6.066670000003317e+000	 4.333350000014584e+000	 1.025980727635181e+001
0	 6.066670000003318e+000	 4.400020000016401e+000	 1.025657479799506e+001
0	 6.066670000003319e+000	 4.466690000017619e+000	 1.025321734585826e+001
0	 6.066670000003318e+000	 4.533360000018135e+000	 1.024972977745982e+001
0	 6.066670000003316e+000	 4.600030000017850e+000	 1.024610695031825e+001
0	 6.066670000003319e+000	 4.666700000016667e+000	 1.024234372195197e+001
0	 6.133340000006534e+000	 4.000000000000001e+000	 1.026655323720409e+001
0	 6.133340000006535e+000	 4.066670000003317e+000	 1.026407046394976e+001
0	 6.133340000006535e+000	 4.133340000006536e+000	 1.026148209073203e+001
0	 6.133340000006531e+000	 4.200010000009550e+000	 1.025878398099914e+001
0	 6.133340000006533e+000	 4.266680000012269e+000	 1.025597199819930e+001
0	 6.133340000006533e+000	 4.333350000014584e+000	 1.025304200578072e+001
0	 6.133340000006532e+000	 4.400020000016402e+000	 1.024998986719161e+001
0	 6.133340000006533e+000	 4.466690000017618e+000	 1.024681144588018e+001
0	 6.133340000006535e+000	 4.533360000018134e+000	 1.024350260529464e+001
0	 6.133340000006534e+000	 4.600030000017852e+000	 1.024005920888318e+001
0	 6.133340000006533e+000	 4.666700000016667e+000	 1.023647712009400e+001
0	 6.200010000009550e+000	 4.000000000000000e+000	 1.025889876788962e+001
0	 6.200010000009549e+000	 4.066670000003317e+000	 1.025659626810814e+001
0	 6.200010000009551e+000	 4.133340000006534e+000	 1.025418405787289e+001
0	 6.200010000009551e+000	 4.200010000009550e+000	 1.025165883033610e+001
0	 6.200010000009550e+000	 4.266680000012268e+000	 1.024901727865000e+001
0	 6.200010000009550e+000	 4.333350000014582e+000	 1.024625609596684e+001
0	 6.200010000009550e+000	 4.400020000016402e+000	 1.024337197543885e+001
0	 6.200010000009550e+000	 4.466690000017619e+000	 1.024036161021829e+001
0	 6.200010000009551e+000	 4.533360000018135e+000	 1.023722169345736e+001
0	 6.200010000009550e+000	 4.600030000017851e+000	 1.023394891830831e+001
0	 6.200010000009550e+000	 4.666700000016666e+000	 1.023053997792336e+001
0	 6.266680000012268e+000	 4.000000000000001e+000	 1.025130025783824e+001
0	 6.266680000012268e+000	 4.066670000003317e+000	 1.024915966611275e+001
0	 6.266680000012265e+000	 4.133340000006533e+000	 1.024690724213790e+001
0	 6.266680000012266e+000	 4.200010000009551e+000	 1.024454033254429e+001
0	 6.266680000012266e+000	 4.266680000012268e+000	 1.024205628396245e+001
0	 6.266680000012267e+000	 4.333350000014584e+000	 1.023945244302291e+001
0	 6.266680000012267e+000	 4.400020000016402e+000	 1.023672615635625e+001
0	 6.266680000012265e+000	 4.466690000017618e+000	 1.023387477059299e+001
0	 6.266680000012268e+000	 4.533360000018134e+000	 1.023089563236367e+001
0	 6.266680000012268e+000	 4.600030000017851e+000	 1.022778608829884e+001
0	 6.266680000012267e+000	 4.666700000016667e+000	 1.022454348502903e+001
0	 6.333350000014583e+000	 4.000000000000001e+000	 1.024374632454339e+001
0	 6.333350000014582e+000	 4.066670000003318e+000	 1.024175260999225e+001
0	 6.333350000014582e+000	 4.133340000006534e+000	 1.023964669068538e+001
0	 6.333350000014584e+000	 4.200010000009551e+000	 1.023742639050590e+001
0	 6.333350000014583e+000	 4.266680000012268e+000	 1.023508953333695e+001
0	 6.333350000014582e+000	 4.333350000014584e+000	 1.023263394306169e+001
0	 6.333350000014582e+000	 4.400020000016402e+000	 1.023005744356322e+001
0	 6.333350000014582e+000	 4.466690000017616e+000	 1.022735785872470e+001
0	 6.333350000014583e+000	 4.533360000018133e+000	 1.022453301242923e+001
0	 6.333350000014582e+000	 4.600030000017850e+000	 1.022158072855994e+001
0	 6.333350000014582e+000	 4.666700000016666e+000	 1.021849883099999e+001
0	 6.400020000016398e+000	 4.000000000000000e+000	 1.023622558549842e+001
0	 6.400020000016399e+000	 4.066670000003317e+000	 1.023436705177539e+001
0	 6.400020000016399e+000	 4.133340000006534e+000	 1.023239745067362e+001
0	 6.400020000016399e+000	 4.200010000009550e+000	 1.023031490710311e+001
0	 6.400020000016398e+000	 4.266680000012267e+000	 1.022811754597386e+001
0	 6.400020000016401e+000	 4.333350000014583e+000	 1.022580349219590e+001
0	 6.400020000016398e+000	 4.400020000016401e+000	 1.022337087067922e+001
0	 6.400020000016399e+000	 4.466690000017618e+000	 1.022081780633382e+001
0	 6.400020000016400e+000	 4.533360000018134e+000	 1.021814242406969e+001
0	 6.400020000016400e+000	 4.600030000017852e+000	 1.021534284879683e+001
0	 6.400020000016399e+000	 4.666700000016666e+000	 1.021241720542523e+001
0	 6.466690000017615e+000	 4.000000000000000e+000	 1.022872665819675e+001
0	 6.466690000017616e+000	 4.066670000003317e+000	 1.022699494349087e+001
0	 6.466690000017616e+000	 4.133340000006535e+000	 1.022515456926093e+001
0	 6.466690000017614e+000	 4.200010000009551e+000	 1.022320378521808e+001
0	 6.466690000017617e+000	 4.266680000012267e+000	 1.022114084107349e+001
0	 6.466690000017614e+000	 4.333350000014582e+000	 1.021896398653830e+001
0	 6.466690000017616e+000	 4.400020000016400e+000	 1.021667147132369e+001
0	 6.466690000017616e+000	 4.466690000017618e+000	 1.021426154514077e+001
0	 6.466690000017615e+000	 4.533360000018133e+000	 1.021173245770073e+001
0	 6.466690000017615e+000	 4.600030000017848e+000	 1.020908245871465e+001
0	 6.466690000017616e+000	 4.666700000016667e+000	 1.020630979789373e+001
0	 6.533360000018133e+000	 4.000000000000001e+000	 1.022123816013177e+001
0	 6.533360000018131e+000	 4.066670000003318e+000	 1.021962823716739e+001
0	 6.533360000018133e+000	 4.133340000006535e+000	 1.021791309360561e+001
0	 6.533360000018130e+000	 4.200010000009551e+000	 1.021609092773300e+001
0	 6.533360000018131e+000	 4.266680000012267e+000	 1.021415993783615e+001
0	 6.533360000018130e+000	 4.333350000014582e+000	 1.021211832220164e+001
0	 6.533360000018132e+000	 4.400020000016402e+000	 1.020996427911606e+001
0	 6.533360000018133e+000	 4.466690000017618e+000	 1.020769600686598e+001
0	 6.533360000018133e+000	 4.533360000018134e+000	 1.020531170373797e+001
0	 6.533360000018131e+000	 4.600030000017850e+000	 1.020280956801861e+001
0	 6.533360000018133e+000	 4.666700000016666e+000	 1.020018779799449e+001
0	 6.600030000017847e+000	 4.000000000000000e+000	 1.021374870879686e+001
0	 6.600030000017848e+000	 4.066670000003318e+000	 1.021225888483368e+001
0	 6.600030000017847e+000	 4.133340000006534e+000	 1.021066807086597e+001
0	 6.600030000017849e+000	 4.200010000009551e+000	 1.020897423753004e+001
0	 6.600030000017849e+000	 4.266680000012268e+000	 1.020717535546217e+001
0	 6.600030000017847e+000	 4.333350000014583e+000	 1.020526939529865e+001
0	 6.600030000017848e+000	 4.400020000016402e+000	 1.020325432767576e+001
0	 6.600030000017849e+000	 4.466690000017619e+000	 1.020112812322983e+001
0	 6.600030000017851e+000	 4.533360000018134e+000	 1.019888875259711e+001
0	 6.600030000017849e+000	 4.600030000017851e+000	 1.019653418641390e+001
0	 6.600030000017847e+000	 4.666700000016665e+000	 1.019406239531647e+001
0	 6.666700000016667e+000	 4.000000000000001e+000	 1.020624692168543e+001
0	 6.666700000016666e+000	 4.066670000003316e+000	 1.020487883851845e+001
0	 6.666700000016667e+000	 4.133340000006536e+000	 1.020341454820034e+001
0	 6.666700000016667e+000	 4.200010000009551e+000	 1.020185161749136e+001
0	 6.666700000016667e+000	 4.266680000012268e+000	 1.020018761315186e+001
0	 6.666700000016665e+000	 4.333350000014583e+000	 1.019842010194205e+001
0	 6.666700000016665e+000	 4.400020000016400e+000	 1.019654665062226e+001
0	 6.666700000016667e+000	 4.466690000017618e+000	 1.019456482595275e+001
0	 6.666700000016667e+000	 4.533360000018134e+000	 1.019247219469379e+001
0	 6.666700000016666e+000	 4.600030000017851e+000	 1.019026632360568e+001
0	 6.666700000016667e+000	 4.666700000016667e+000	 1.018794477944867e+001
0	 6.000000000000000e+000	 4.666700000016666e+000	 1.024812859390828e+001
0	 5.999999999999998e+000	 4.733360000014531e+000	 1.024409107495268e+001
0	 5.999999999999998e+000	 4.800020000011600e+000	 1.024002619155462e+001
0	 6.000000000000002e+000	 4.866680000008068e+000	 1.023592874541073e+001
0	 5.999999999999998e+000	 4.933340000004132e+000	 1.023179353821765e+001
0	 6.000000000000002e+000	 5.000000000000002e+000	 1.022761537167199e+001
0	 5.999999999999999e+000	 5.066659999995866e+000	 1.022338904747042e+001
0	 6.000000000000000e+000	 5.133319999991934e+000	 1.021910936730957e+001
0	 5.999999999999998e+000	 5.199979999988400e+000	 1.021477113288606e+001
0	 6.000000000000000e+000	 5.266639999985468e+000	 1.021036914589656e+001
0	 6.000000000000000e+000	 5.333299999983334e+000	 1.020589820803773e+001
0	 6.066670000003319e+000	 4.666700000016667e+000	 1.024234372195197e+001
0	 6.066670000003315e+000	 4.733360000014533e+000	 1.023849655293684e+001
0	 6.066670000003315e+000	 4.800020000011599e+000	 1.023462036589144e+001
0	 6.066670000003317e+000	 4.866680000008066e+000	 1.023070943712646e+001
0	 6.066670000003319e+000	 4.933340000004134e+000	 1.022675804295265e+001
0	 6.066670000003320e+000	 5.000000000000000e+000	 1.022276045968069e+001
0	 6.066670000003319e+000	 5.066659999995867e+000	 1.021871096362130e+001
0	 6.066670000003319e+000	 5.133319999991934e+000	 1.021460383108520e+001
0	 6.066670000003314e+000	 5.199979999988400e+000	 1.021043333838311e+001
0	 6.066670000003316e+000	 5.266639999985467e+000	 1.020619376182575e+001
0	 6.066670000003317e+000	 5.333299999983335e+000	 1.020187937772383e+001
0	 6.133340000006533e+000	 4.666700000016667e+000	 1.023647712009400e+001
0	 6.133340000006535e+000	 4.733360000014534e+000	 1.023281189834131e+001
0	 6.133340000006534e+000	 4.800020000011599e+000	 1.022911668500182e+001
0	 6.133340000006533e+000	 4.866680000008066e+000	 1.022538536015163e+001
0	 6.133340000006533e+000	 4.933340000004134e+000	 1.022161180386680e+001
0	 6.133340000006535e+000	 5.000000000000002e+000	 1.021778989622345e+001
0	 6.133340000006533e+000	 5.066659999995866e+000	 1.021391351729764e+001
0	 6.133340000006534e+000	 5.133319999991934e+000	 1.020997654716547e+001
0	 6.133340000006533e+000	 5.199979999988400e+000	 1.020597286590303e+001
0	 6.133340000006531e+000	 5.266639999985468e+000	 1.020189635358642e+001
0	 6.133340000006531e+000	 5.333299999983334e+000	 1.019774089029172e+001
0	 6.200010000009550e+000	 4.666700000016666e+000	 1.023053997792336e+001
0	 6.200010000009550e+000	 4.733360000014532e+000	 1.022704925705115e+001
0	 6.200010000009551e+000	 4.800020000011600e+000	 1.022352804361523e+001
0	 6.200010000009550e+000	 4.866680000008065e+000	 1.021996995060837e+001
0	 6.200010000009551e+000	 4.933340000004134e+000	 1.021636859102331e+001
0	 6.200010000009551e+000	 5.000000000000000e+000	 1.021271757785281e+001
0	 6.200010000009550e+000	 5.066659999995867e+000	 1.020901052408962e+001
0	 6.200010000009549e+000	 5.133319999991935e+000	 1.020524104272652e+001
0	 6.200010000009551e+000	 5.199979999988400e+000	 1.020140274675626e+001
0	 6.200010000009550e+000	 5.266639999985468e+000	 1.019748924917163e+001
0	 6.200010000009550e+000	 5.333299999983334e+000	 1.019349416296537e+001
0	 6.266680000012267e+000	 4.666700000016667e+000	 1.022454348502903e+001
0	 6.266680000012268e+000	 4.733360000014534e+000	 1.022122077495142e+001
0	 6.266680000012265e+000	 4.800020000011599e+000	 1.021786733646113e+001
0	 6.266680000012268e+000	 4.866680000008066e+000	 1.021447664461886e+001
0	 6.266680000012266e+000	 4.933340000004133e+000	 1.021104217448533e+001
0	 6.266680000012265e+000	 4.999999999999999e+000	 1.020755740112128e+001
0	 6.266680000012267e+000	 5.066659999995865e+000	 1.020401579958743e+001
0	 6.266680000012267e+000	 5.133319999991934e+000	 1.020041084494451e+001
0	 6.266680000012267e+000	 5.199979999988400e+000	 1.019673601225327e+001
0	 6.266680000012266e+000	 5.266639999985468e+000	 1.019298477657444e+001
0	 6.266680000012265e+000	 5.333299999983333e+000	 1.018915061296876e+001
0	 6.333350000014582e+000	 4.666700000016666e+000	 1.021849883099999e+001
0	 6.333350000014584e+000	 4.733360000014533e+000	 1.021533859792720e+001
0	 6.333350000014582e+000	 4.800020000011600e+000	 1.021214745826896e+001
0	 6.333350000014582e+000	 4.866680000008067e+000	 1.020891887830525e+001
0	 6.333350000014580e+000	 4.933340000004133e+000	 1.020564632431606e+001
0	 6.333350000014582e+000	 4.999999999999999e+000	 1.020232326258140e+001
0	 6.333350000014583e+000	 5.066659999995868e+000	 1.019894315938126e+001
0	 6.333350000014582e+000	 5.133319999991935e+000	 1.019549948099562e+001
0	 6.333350000014582e+000	 5.199979999988400e+000	 1.019198569370451e+001
0	 6.333350000014583e+000	 5.266639999985467e+000	 1.018839526378792e+001
0	 6.333350000014584e+000	 5.333299999983334e+000	 1.018472165752587e+001
0	 6.400020000016399e+000	 4.666700000016666e+000	 1.021241720542523e+001
0	 6.400020000016401e+000	 4.733360000014534e+000	 1.020941487186352e+001
0	 6.400020000016399e+000	 4.800020000011601e+000	 1.020638130376818e+001
0	 6.400020000016401e+000	 4.866680000008067e+000	 1.020331008778971e+001
0	 6.400020000016399e+000	 4.933340000004133e+000	 1.020019481057870e+001
0	 6.400020000016398e+000	 5.000000000000000e+000	 1.019702905878570e+001
0	 6.400020000016399e+000	 5.066659999995868e+000	 1.019380641906128e+001
0	 6.400020000016401e+000	 5.133319999991935e+000	 1.019052047805600e+001
0	 6.400020000016400e+000	 5.199979999988400e+000	 1.018716482242042e+001
0	 6.400020000016401e+000	 5.266639999985467e+000	 1.018373303880512e+001
0	 6.400020000016398e+000	 5.333299999983333e+000	 1.018021871386069e+001
0	 6.466690000017616e+000	 4.666700000016667e+000	 1.020630979789373e+001
0	 6.466690000017616e+000	 4.733360000014533e+000	 1.020346174264548e+001
0	 6.466690000017616e+000	 4.800020000011600e+000	 1.020058176768823e+001
0	 6.466690000017617e+000	 4.866680000008068e+000	 1.019766370919441e+001
0	 6.466690000017615e+000	 4.933340000004133e+000	 1.019470140333643e+001
0	 6.466690000017616e+000	 5.000000000000001e+000	 1.019168868628671e+001
0	 6.466690000017614e+000	 5.066659999995867e+000	 1.018861939421770e+001
0	 6.466690000017617e+000	 5.133319999991934e+000	 1.018548736330180e+001
0	 6.466690000017614e+000	 5.199979999988400e+000	 1.018228642971147e+001
0	 6.466690000017617e+000	 5.266639999985468e+000	 1.017901042961912e+001
0	 6.466690000017616e+000	 5.333299999983333e+000	 1.017565319919719e+001
0	 6.533360000018133e+000	 4.666700000016666e+000	 1.020018779799449e+001
0	 6.533360000018132e+000	 4.733360000014533e+000	 1.019749135615810e+001
0	 6.533360000018134e+000	 4.800020000011601e+000	 1.019476174475858e+001
0	 6.533360000018132e+000	 4.866680000008067e+000	 1.019199317864150e+001
0	 6.533360000018132e+000	 4.933340000004135e+000	 1.018917987265243e+001
0	 6.533360000018133e+000	 5.000000000000001e+000	 1.018631604163696e+001
0	 6.533360000018131e+000	 5.066659999995865e+000	 1.018339590044069e+001
0	 6.533360000018133e+000	 5.133319999991936e+000	 1.018041366390920e+001
0	 6.533360000018130e+000	 5.199979999988400e+000	 1.017736354688808e+001
0	 6.533360000018131e+000	 5.266639999985467e+000	 1.017423976422293e+001
0	 6.533360000018134e+000	 5.333299999983335e+000	 1.017103653075935e+001
0	 6.600030000017847e+000	 4.666700000016665e+000	 1.019406239531647e+001
0	 6.600030000017849e+000	 4.733360000014534e+000	 1.019151585828647e+001
0	 6.600030000017847e+000	 4.800020000011600e+000	 1.018893412970868e+001
0	 6.600030000017848e+000	 4.866680000008065e+000	 1.018631193225314e+001
0	 6.600030000017847e+000	 4.933340000004133e+000	 1.018364398858990e+001
0	 6.600030000017849e+000	 4.999999999999999e+000	 1.018092502138898e+001
0	 6.600030000017847e+000	 5.066659999995868e+000	 1.017814975332045e+001
0	 6.600030000017848e+000	 5.133319999991934e+000	 1.017531290705435e+001
0	 6.600030000017849e+000	 5.199979999988400e+000	 1.017240920526073e+001
0	 6.600030000017848e+000	 5.266639999985467e+000	 1.016943337060964e+001
0	 6.600030000017847e+000	 5.333299999983335e+000	 1.016638012577116e+001
0	 6.666700000016667e+000	 4.666700000016667e+000	 1.018794477944867e+001
0	 6.666700000016668e+000	 4.733360000014534e+000	 1.018554739491563e+001
0	 6.666700000016665e+000	 4.800020000011600e+000	 1.018311181726798e+001
0	 6.666700000016667e+000	 4.866680000008067e+000	 1.018063340615152e+001
0	 6.666700000016669e+000	 4.933340000004135e+000	 1.017810752121202e+001
0	 6.666700000016666e+000	 5.000000000000001e+000	 1.017552952209530e+001
0	 6.666700000016667e+000	 5.066659999995867e+000	 1.017289476844716e+001
0	 6.666700000016666e+000	 5.133319999991935e+000	 1.017019861991341e+001
0	 6.666700000016666e+000	 5.199979999988400e+000	 1.016743643613986e+001
0	 6.666700000016665e+000	 5.266639999985468e+000	 1.016460357677231e+001
0	 6.666700000016665e+000	 5.333299999983334e+000	 1.016169540145659e+001
0	 6.000000000000000e+000	 5.333299999983334e+000	 1.020589820803772e+001
0	 6.000000000000000e+000	 5.399969999982150e+000	 1.020140935863841e+001
0	 6.000000000000001e+000	 5.466639999981868e+000	 1.019695510510174e+001
0	 6.000000000000000e+000	 5.533309999982383e+000	 1.019253042281720e+001
0	 6.000000000000000e+000	 5.599979999983598e+000	 1.018813028717426e+001
0	 5.999999999999998e+000	 5.666649999985416e+000	 1.018374967356238e+001
0	 5.999999999999998e+000	 5.733319999987732e+000	 1.017938355737102e+001
0	 5.999999999999999e+000	 5.799989999990449e+000	 1.017502691398967e+001
0	 5.999999999999998e+000	 5.866659999993467e+000	 1.017067471880777e+001
0	 6.000000000000000e+000	 5.933329999996683e+000	 1.016632194721481e+001
0	 5.999999999999999e+000	 5.999999999999999e+000	 1.016196357460023e+001
0	 6.066670000003317e+000	 5.333299999983335e+000	 1.020187937772383e+001
0	 6.066670000003316e+000	 5.399969999982148e+000	 1.019754143421757e+001
0	 6.066670000003318e+000	 5.466639999981866e+000	 1.019323324556650e+001
0	 6.066670000003319e+000	 5.533309999982384e+000	 1.018895022790137e+001
0	 6.066670000003316e+000	 5.599979999983599e+000	 1.018468779735291e+001
0	 6.066670000003313e+000	 5.666649999985414e+000	 1.018044137005185e+001
0	 6.066670000003316e+000	 5.733319999987732e+000	 1.017620636212891e+001
0	 6.066670000003319e+000	 5.799989999990450e+000	 1.017197818971484e+001
0	 6.066670000003316e+000	 5.866659999993466e+000	 1.016775226894036e+001
0	 6.066670000003319e+000	 5.933329999996684e+000	 1.016352401593622e+001
0	 6.066670000003318e+000	 6.000000000000000e+000	 1.015928884683312e+001
0	 6.133340000006531e+000	 5.333299999983334e+000	 1.019774089029172e+001
0	 6.133340000006536e+000	 5.399969999982150e+000	 1.019355697005276e+001
0	 6.133340000006532e+000	 5.466639999981864e+000	 1.018939762532377e+001
0	 6.133340000006530e+000	 5.533309999982381e+000	 1.018525865498217e+001
0	 6.133340000006533e+000	 5.599979999983601e+000	 1.018113585790535e+001
0	 6.133340000006535e+000	 5.666649999985417e+000	 1.017702503297074e+001
0	 6.133340000006533e+000	 5.733319999987734e+000	 1.017292197905574e+001
0	 6.133340000006533e+000	 5.799989999990449e+000	 1.016882249503777e+001
0	 6.133340000006534e+000	 5.866659999993467e+000	 1.016472237979425e+001
0	 6.133340000006535e+000	 5.933329999996684e+000	 1.016061743220256e+001
0	 6.133340000006534e+000	 6.000000000000000e+000	 1.015650345114015e+001
0	 6.200010000009550e+000	 5.333299999983334e+000	 1.019349416296537e+001
0	 6.200010000009550e+000	 5.399969999982150e+000	 1.018946644076091e+001
0	 6.200010000009551e+000	 5.466639999981866e+000	 1.018545792046348e+001
0	 6.200010000009551e+000	 5.533309999982384e+000	 1.018146472570261e+001
0	 6.200010000009550e+000	 5.599979999983599e+000	 1.017748298010779e+001
0	 6.200010000009550e+000	 5.666649999985416e+000	 1.017350880730852e+001
0	 6.200010000009550e+000	 5.733319999987734e+000	 1.016953833093431e+001
0	 6.200010000009550e+000	 5.799989999990450e+000	 1.016556767461469e+001
0	 6.200010000009551e+000	 5.866659999993467e+000	 1.016159296197913e+001
0	 6.200010000009550e+000	 5.933329999996683e+000	 1.015761031665715e+001
0	 6.200010000009550e+000	 6.000000000000001e+000	 1.015361586227827e+001
0	 6.266680000012265e+000	 5.333299999983333e+000	 1.018915061296876e+001
0	 6.266680000012268e+000	 5.399969999982151e+000	 1.018528032095892e+001
0	 6.266680000012266e+000	 5.466639999981866e+000	 1.018142380707556e+001
0	 6.266680000012264e+000	 5.533309999982383e+000	 1.017757746170573e+001
0	 6.266680000012267e+000	 5.599979999983600e+000	 1.017373767523642e+001
0	 6.266680000012268e+000	 5.666649999985417e+000	 1.016990083805465e+001
0	 6.266680000012268e+000	 5.733319999987733e+000	 1.016606334054744e+001
0	 6.266680000012266e+000	 5.799989999990450e+000	 1.016222157310179e+001
0	 6.266680000012265e+000	 5.866659999993466e+000	 1.015837192610475e+001
0	 6.266680000012268e+000	 5.933329999996684e+000	 1.015451078994330e+001
0	 6.266680000012266e+000	 5.999999999999998e+000	 1.015063455500447e+001
0	 6.333350000014584e+000	 5.333299999983334e+000	 1.018472165752587e+001
0	 6.333350000014582e+000	 5.399969999982148e+000	 1.018100908526370e+001
0	 6.333350000014584e+000	 5.466639999981868e+000	 1.017730496124994e+001
0	 6.333350000014582e+000	 5.533309999982383e+000	 1.017360588463455e+001
0	 6.333350000014582e+000	 5.599979999983598e+000	 1.016990845456744e+001
0	 6.333350000014582e+000	 5.666649999985416e+000	 1.016620927019858e+001
0	 6.333350000014583e+000	 5.733319999987734e+000	 1.016250493067789e+001
0	 6.333350000014585e+000	 5.799989999990450e+000	 1.015879203515532e+001
0	 6.333350000014583e+000	 5.866659999993468e+000	 1.015506718278081e+001
0	 6.333350000014582e+000	 5.933329999996683e+000	 1.015132697270430e+001
0	 6.333350000014583e+000	 6.000000000000000e+000	 1.014756800407571e+001
0	 6.400020000016398e+000	 5.333299999983333e+000	 1.018021871386069e+001
0	 6.400020000016399e+000	 5.399969999982150e+000	 1.017666320829217e+001
0	 6.400020000016398e+000	 5.466639999981866e+000	 1.017311105907653e+001
0	 6.400020000016401e+000	 5.533309999982384e+000	 1.016955901613206e+001
0	 6.400020000016400e+000	 5.599979999983600e+000	 1.016600382937706e+001
0	 6.400020000016397e+000	 5.666649999985414e+000	 1.016244224872976e+001
0	 6.400020000016398e+000	 5.733319999987731e+000	 1.015887102410848e+001
0	 6.400020000016399e+000	 5.799989999990449e+000	 1.015528690543147e+001
0	 6.400020000016399e+000	 5.866659999993467e+000	 1.015168664261705e+001
0	 6.400020000016398e+000	 5.933329999996683e+000	 1.014806698558344e+001
0	 6.400020000016399e+000	 6.000000000000000e+000	 1.014442468424896e+001
0	 6.466690000017616e+000	 5.333299999983333e+000	 1.017565319919719e+001
0	 6.466690000017615e+000	 5.399969999982149e+000	 1.017225316466124e+001
0	 6.466690000017614e+000	 5.466639999981866e+000	 1.016885177664527e+001
0	 6.466690000017616e+000	 5.533309999982383e+000	 1.016544587784134e+001
0	 6.466690000017615e+000	 5.599979999983599e+000	 1.016203231094146e+001
0	 6.466690000017614e+000	 5.666649999985416e+000	 1.015860791863766e+001
0	 6.466690000017617e+000	 5.733319999987733e+000	 1.015516954362199e+001
0	 6.466690000017616e+000	 5.799989999990450e+000	 1.015171402858648e+001
0	 6.466690000017615e+000	 5.866659999993465e+000	 1.014823821622316e+001
0	 6.466690000017618e+000	 5.933329999996684e+000	 1.014473894922405e+001
0	 6.466690000017616e+000	 6.000000000000001e+000	 1.014121307028120e+001
0	 6.533360000018134e+000	 5.333299999983335e+000	 1.017103653075935e+001
0	 6.533360000018129e+000	 5.399969999982148e+000	 1.016778942898782e+001
0	 6.533360000018130e+000	 5.466639999981864e+000	 1.016453679004609e+001
0	 6.533360000018132e+000	 5.533309999982382e+000	 1.016127549140535e+001
0	 6.533360000018130e+000	 5.599979999983598e+000	 1.015800241053685e+001
0	 6.533360000018132e+000	 5.666649999985417e+000	 1.015471442491174e+001
0	 6.533360000018130e+000	 5.733319999987733e+000	 1.015140841200124e+001
0	 6.533360000018131e+000	 5.799989999990448e+000	 1.014808124927655e+001
0	 6.533360000018131e+000	 5.866659999993468e+000	 1.014472981420888e+001
0	 6.533360000018129e+000	 5.933329999996682e+000	 1.014135098426943e+001
0	 6.533360000018134e+000	 6.000000000000001e+000	 1.013794163692939e+001
0	 6.600030000017847e+000	 5.333299999983335e+000	 1.016638012577116e+001
0	 6.600030000017848e+000	 5.399969999982150e+000	 1.016328247588883e+001
0	 6.600030000017849e+000	 5.466639999981868e+000	 1.016017577536891e+001
0	 6.600030000017848e+000	 5.533309999982385e+000	 1.015705687846717e+001
0	 6.600030000017847e+000	 5.599979999983598e+000	 1.015392263943942e+001
0	 6.600030000017847e+000	 5.666649999985416e+000	 1.015076991254144e+001
0	 6.600030000017850e+000	 5.733319999987733e+000	 1.014759555202901e+001
0	 6.600030000017848e+000	 5.799989999990450e+000	 1.014439641215791e+001
0	 6.600030000017848e+000	 5.866659999993467e+000	 1.014116934718394e+001
0	 6.600030000017847e+000	 5.933329999996683e+000	 1.013791121136288e+001
0	 6.600030000017847e+000	 5.999999999999998e+000	 1.013461885895051e+001
0	 6.666700000016665e+000	 5.333299999983334e+000	 1.016169540145659e+001
0	 6.666700000016668e+000	 5.399969999982151e+000	 1.015874277998118e+001
0	 6.666700000016667e+000	 5.466639999981866e+000	 1.015577840870364e+001
0	 6.666700000016667e+000	 5.533309999982384e+000	 1.015279906066978e+001
0	 6.666700000016667e+000	 5.599979999983600e+000	 1.014980150892539e+001
0	 6.666700000016665e+000	 5.666649999985416e+000	 1.014678252651622e+001
0	 6.666700000016665e+000	 5.733319999987732e+000	 1.014373888648810e+001
0	 6.666700000016665e+000	 5.799989999990448e+000	 1.014066736188678e+001
0	 6.666700000016665e+000	 5.866659999993468e+000	 1.013756472575805e+001
0	 6.666700000016665e+000	 5.933329999996682e+000	 1.013442775114771e+001
0	 6.666700000016668e+000	 6.000000000000002e+000	 1.013125321110151e+001
0	 5.999999999999999e+000	 5.999999999999999e+000	 1.016196357460023e+001
0	 6.000000000000000e+000	 6.066670000003318e+000	 1.015762437431952e+001
0	 6.000000000000000e+000	 6.133340000006533e+000	 1.015333036254213e+001
0	 5.999999999999996e+000	 6.200010000009550e+000	 1.014907837887854e+001
0	 5.999999999999998e+000	 6.266680000012267e+000	 1.014486526293924e+001
0	 6.000000000000000e+000	 6.333350000014585e+000	 1.014068785433465e+001
0	 5.999999999999998e+000	 6.400020000016399e+000	 1.013654299267530e+001
0	 6.000000000000001e+000	 6.466690000017618e+000	 1.013242751757162e+001
0	 6.000000000000002e+000	 6.533360000018136e+000	 1.012833826863410e+001
0	 6.000000000000001e+000	 6.600030000017850e+000	 1.012427208547323e+001
0	 6.000000000000002e+000	 6.666700000016668e+000	 1.012022580769944e+001
0	 6.066670000003318e+000	 6.000000000000000e+000	 1.015928884683312e+001
0	 6.066670000003316e+000	 6.066670000003316e+000	 1.015507035717381e+001
0	 6.066670000003316e+000	 6.133340000006532e+000	 1.015089303514711e+001
0	 6.066670000003319e+000	 6.200010000009550e+000	 1.014675363585284e+001
0	 6.066670000003319e+000	 6.266680000012269e+000	 1.014264891439085e+001
0	 6.066670000003316e+000	 6.333350000014583e+000	 1.013857562586099e+001
0	 6.066670000003319e+000	 6.400020000016401e+000	 1.013453052536308e+001
0	 6.066670000003318e+000	 6.466690000017617e+000	 1.013051036799697e+001
0	 6.066670000003316e+000	 6.533360000018132e+000	 1.012651190886251e+001
0	 6.066670000003317e+000	 6.600030000017850e+000	 1.012253190305954e+001
0	 6.066670000003319e+000	 6.666700000016667e+000	 1.011856710568790e+001
0	 6.133340000006534e+000	 6.000000000000000e+000	 1.015650345114015e+001
0	 6.133340000006535e+000	 6.066670000003318e+000	 1.015240350374189e+001
0	 6.133340000006534e+000	 6.133340000006534e+000	 1.014834125193632e+001
0	 6.133340000006533e+000	 6.200010000009551e+000	 1.014431338679134e+001
0	 6.133340000006533e+000	 6.266680000012268e+000	 1.014031659937480e+001
0	 6.133340000006533e+000	 6.333350000014583e+000	 1.013634758075461e+001
0	 6.133340000006533e+000	 6.400020000016401e+000	 1.013240302199860e+001
0	 6.133340000006532e+000	 6.466690000017617e+000	 1.012847961417468e+001
0	 6.133340000006533e+000	 6.533360000018134e+000	 1.012457404835070e+001
0	 6.133340000006534e+000	 6.600030000017851e+000	 1.012068301559456e+001
0	 6.133340000006531e+000	 6.666700000016665e+000	 1.011680320697411e+001
0	 6.200010000009550e+000	 6.000000000000001e+000	 1.015361586227827e+001
0	 6.200010000009550e+000	 6.066670000003318e+000	 1.014963266889646e+001
0	 6.200010000009551e+000	 6.133340000006533e+000	 1.014568415582245e+001
0	 6.200010000009551e+000	 6.200010000009551e+000	 1.014176697057080e+001
0	 6.200010000009550e+000	 6.266680000012268e+000	 1.013787776065609e+001
0	 6.200010000009550e+000	 6.333350000014583e+000	 1.013401317359289e+001
0	 6.200010000009549e+000	 6.400020000016401e+000	 1.013016985689577e+001
0	 6.200010000009552e+000	 6.466690000017619e+000	 1.012634445807931e+001
0	 6.200010000009551e+000	 6.533360000018135e+000	 1.012253362465806e+001
0	 6.200010000009549e+000	 6.600030000017850e+000	 1.011873400414662e+001
0	 6.200010000009550e+000	 6.666700000016667e+000	 1.011494224405952e+001
0	 6.266680000012266e+000	 5.999999999999998e+000	 1.015063455500447e+001
0	 6.266680000012268e+000	 6.066670000003319e+000	 1.014676670751032e+001
0	 6.266680000012265e+000	 6.133340000006531e+000	 1.014293088971818e+001
0	 6.266680000012265e+000	 6.200010000009550e+000	 1.013912372606800e+001
0	 6.266680000012268e+000	 6.266680000012268e+000	 1.013534184099970e+001
0	 6.266680000012267e+000	 6.333350000014585e+000	 1.013158185895320e+001
0	 6.266680000012268e+000	 6.400020000016402e+000	 1.012784040436848e+001
0	 6.266680000012265e+000	 6.466690000017616e+000	 1.012411410168541e+001
0	 6.266680000012266e+000	 6.533360000018133e+000	 1.012039957534397e+001
0	 6.266680000012267e+000	 6.600030000017852e+000	 1.011669344978407e+001
0	 6.266680000012268e+000	 6.666700000016667e+000	 1.011299234944565e+001
0	 6.333350000014583e+000	 6.000000000000000e+000	 1.014756800407571e+001
0	 6.333350000014582e+000	 6.066670000003317e+000	 1.014381447445618e+001
0	 6.333350000014582e+000	 6.133340000006532e+000	 1.014009059653618e+001
0	 6.333350000014584e+000	 6.200010000009550e+000	 1.013639299215966e+001
0	 6.333350000014582e+000	 6.266680000012268e+000	 1.013271828317058e+001
0	 6.333350000014583e+000	 6.333350000014583e+000	 1.012906309141290e+001
0	 6.333350000014584e+000	 6.400020000016402e+000	 1.012542403873058e+001
0	 6.333350000014582e+000	 6.466690000017616e+000	 1.012179774696756e+001
0	 6.333350000014582e+000	 6.533360000018134e+000	 1.011818083796780e+001
0	 6.333350000014582e+000	 6.600030000017848e+000	 1.011456993357528e+001
0	 6.333350000014583e+000	 6.666700000016667e+000	 1.011096165563393e+001
0	 6.400020000016399e+000	 6.000000000000000e+000	 1.014442468424896e+001
0	 6.400020000016399e+000	 6.066670000003318e+000	 1.014078482460682e+001
0	 6.400020000016398e+000	 6.133340000006531e+000	 1.013717241918914e+001
0	 6.400020000016399e+000	 6.200010000009551e+000	 1.013358410772258e+001
0	 6.400020000016400e+000	 6.266680000012267e+000	 1.013001652993376e+001
0	 6.400020000016400e+000	 6.333350000014583e+000	 1.012646632554935e+001
0	 6.400020000016401e+000	 6.400020000016402e+000	 1.012293013429599e+001
0	 6.400020000016401e+000	 6.466690000017618e+000	 1.011940459590030e+001
0	 6.400020000016399e+000	 6.533360000018136e+000	 1.011588635008896e+001
0	 6.400020000016400e+000	 6.600030000017852e+000	 1.011237203658858e+001
0	 6.400020000016401e+000	 6.666700000016666e+000	 1.010885829512583e+001
0	 6.466690000017616e+000	 6.000000000000001e+000	 1.014121307028120e+001
0	 6.466690000017617e+000	 6.066670000003318e+000	 1.013768661283497e+001
0	 6.466690000017616e+000	 6.133340000006533e+000	 1.013418550058975e+001
0	 6.466690000017615e+000	 6.200010000009551e+000	 1.013070641163349e+001
0	 6.466690000017616e+000	 6.266680000012268e+000	 1.012724602405421e+001
0	 6.466690000017617e+000	 6.333350000014584e+000	 1.012380101593990e+001
0	 6.466690000017616e+000	 6.400020000016400e+000	 1.012036806537858e+001
0	 6.466690000017617e+000	 6.466690000017617e+000	 1.011694385045821e+001
0	 6.466690000017615e+000	 6.533360000018134e+000	 1.011352504926681e+001
0	 6.466690000017616e+000	 6.600030000017850e+000	 1.011010833989235e+001
0	 6.466690000017615e+000	 6.666700000016666e+000	 1.010669040042285e+001
0	 6.533360000018134e+000	 6.000000000000001e+000	 1.013794163692939e+001
0	 6.533360000018130e+000	 6.066670000003315e+000	 1.013452869401340e+001
0	 6.533360000018130e+000	 6.133340000006532e+000	 1.013113898365066e+001
0	 6.533360000018132e+000	 6.200010000009550e+000	 1.012776924276915e+001
0	 6.533360000018130e+000	 6.266680000012266e+000	 1.012441620829691e+001
0	 6.533360000018132e+000	 6.333350000014583e+000	 1.012107661716194e+001
0	 6.533360000018132e+000	 6.400020000016400e+000	 1.011774720629224e+001
0	 6.533360000018130e+000	 6.466690000017617e+000	 1.011442471261584e+001
0	 6.533360000018131e+000	 6.533360000018136e+000	 1.011110587306072e+001
0	 6.533360000018131e+000	 6.600030000017850e+000	 1.010778742455493e+001
0	 6.533360000018131e+000	 6.666700000016665e+000	 1.010446610402645e+001
0	 6.600030000017847e+000	 5.999999999999998e+000	 1.013461885895051e+001
0	 6.600030000017847e+000	 6.066670000003319e+000	 1.013131992301485e+001
0	 6.600030000017850e+000	 6.133340000006535e+000	 1.012804201128457e+001
0	 6.600030000017848e+000	 6.200010000009552e+000	 1.012478194000634e+001
0	 6.600030000017848e+000	 6.266680000012269e+000	 1.012153652542685e+001
0	 6.600030000017848e+000	 6.333350000014584e+000	 1.011830258379280e+001
0	 6.600030000017847e+000	 6.400020000016398e+000	 1.011507693135087e+001
0	 6.600030000017849e+000	 6.466690000017618e+000	 1.011185638434773e+001
0	 6.600030000017847e+000	 6.533360000018134e+000	 1.010863775903012e+001
0	 6.600030000017847e+000	 6.600030000017849e+000	 1.010541787164467e+001
0	 6.600030000017847e+000	 6.666700000016665e+000	 1.010219353843810e+001
0	 6.666700000016668e+000	 6.000000000000002e+000	 1.013125321110151e+001
0	 6.666700000016667e+000	 6.066670000003318e+000	 1.012806915471208e+001
0	 6.666700000016665e+000	 6.133340000006532e+000	 1.012490372640416e+001
0	 6.666700000016666e+000	 6.200010000009550e+000	 1.012175384222181e+001
0	 6.666700000016666e+000	 6.266680000012267e+000	 1.011861641820904e+001
0	 6.666700000016667e+000	 6.333350000014586e+000	 1.011548837040987e+001
0	 6.666700000016667e+000	 6.400020000016401e+000	 1.011236661486834e+001
0	 6.666700000016667e+000	 6.466690000017616e+000	 1.010924806762848e+001
0	 6.666700000016666e+000	 6.533360000018132e+000	 1.010612964473434e+001
0	 6.666700000016667e+000	 6.600030000017851e+000	 1.010300826222993e+001
0	 6.666700000016666e+000	 6.666700000016667e+000	 1.009988083615928e+001
0	 6.000000000000002e+000	 6.666700000016668e+000	 1.012022580769944e+001
0	 6.000000000000000e+000	 6.733360000014532e+000	 1.011622081783276e+001
0	 6.000000000000000e+000	 6.800020000011600e+000	 1.011227763910392e+001
0	 6.000000000000000e+000	 6.866680000008066e+000	 1.010839363891899e+001
0	 6.000000000000001e+000	 6.933340000004134e+000	 1.010456618468400e+001
0	 6.000000000000000e+000	 6.999999999999998e+000	 1.010079264380503e+001
0	 6.000000000000001e+000	 7.066659999995868e+000	 1.009707038368813e+001
0	 6.000000000000000e+000	 7.133319999991935e+000	 1.009339677173935e+001
0	 6.000000000000000e+000	 7.199979999988401e+000	 1.008976917536474e+001
0	 6.000000000000000e+000	 7.266639999985465e+000	 1.008618496197036e+001
0	 6.000000000000000e+000	 7.333299999983332e+000	 1.008264149896225e+001
0	 6.066670000003319e+000	 6.666700000016667e+000	 1.011856710568790e+001
0	 6.066670000003317e+000	 6.733360000014534e+000	 1.011464004663601e+001
0	 6.066670000003314e+000	 6.800020000011598e+000	 1.011077246712344e+001
0	 6.066670000003317e+000	 6.866680000008065e+000	 1.010696172038142e+001
0	 6.066670000003320e+000	 6.933340000004136e+000	 1.010320515964116e+001
0	 6.066670000003319e+000	 7.000000000000000e+000	 1.009950013813383e+001
0	 6.066670000003319e+000	 7.066659999995868e+000	 1.009584400909069e+001
0	 6.066670000003319e+000	 7.133319999991935e+000	 1.009223412574289e+001
0	 6.066670000003317e+000	 7.199979999988400e+000	 1.008866784132167e+001
0	 6.066670000003315e+000	 7.266639999985465e+000	 1.008514250905820e+001
0	 6.066670000003317e+000	 7.333299999983333e+000	 1.008165548218370e+001
0	 6.133340000006531e+000	 6.666700000016665e+000	 1.011680320697411e+001
0	 6.133340000006534e+000	 6.733360000014532e+000	 1.011295784428227e+001
0	 6.133340000006533e+000	 6.800020000011599e+000	 1.010916942188170e+001
0	 6.133340000006533e+000	 6.866680000008065e+000	 1.010543528349252e+001
0	 6.133340000006531e+000	 6.933340000004131e+000	 1.010175277283484e+001
0	 6.133340000006532e+000	 6.999999999999997e+000	 1.009811923362876e+001
0	 6.133340000006534e+000	 7.066659999995868e+000	 1.009453200959441e+001
0	 6.133340000006535e+000	 7.133319999991934e+000	 1.009098844445189e+001
0	 6.133340000006535e+000	 7.199979999988401e+000	 1.008748588192132e+001
0	 6.133340000006532e+000	 7.266639999985466e+000	 1.008402166572279e+001
0	 6.133340000006531e+000	 7.333299999983332e+000	 1.008059313957641e+001
0	 6.200010000009550e+000	 6.666700000016667e+000	 1.011494224405953e+001
0	 6.200010000009550e+000	 6.733360000014531e+000	 1.011118186973004e+001
0	 6.200010000009551e+000	 6.800020000011601e+000	 1.010747573076942e+001
0	 6.200010000009551e+000	 6.866680000008067e+000	 1.010382116605047e+001
0	 6.200010000009551e+000	 6.933340000004134e+000	 1.010021551444595e+001
0	 6.200010000009552e+000	 7.000000000000000e+000	 1.009665611482865e+001
0	 6.200010000009551e+000	 7.066659999995867e+000	 1.009314030607134e+001
0	 6.200010000009551e+000	 7.133319999991936e+000	 1.008966542704681e+001
0	 6.200010000009552e+000	 7.199979999988400e+000	 1.008622881662783e+001
0	 6.200010000009550e+000	 7.266639999985466e+000	 1.008282781368716e+001
0	 6.200010000009550e+000	 7.333299999983334e+000	 1.007945975709757e+001
0	 6.266680000012268e+000	 6.666700000016667e+000	 1.011299234944565e+001
0	 6.266680000012267e+000	 6.733360000014534e+000	 1.010931978193778e+001
0	 6.266680000012267e+000	 6.800020000011600e+000	 1.010569862117730e+001
0	 6.266680000012268e+000	 6.866680000008067e+000	 1.010212620585344e+001
0	 6.266680000012267e+000	 6.933340000004133e+000	 1.009859987465539e+001
0	 6.266680000012264e+000	 6.999999999999997e+000	 1.009511696627236e+001
0	 6.266680000012265e+000	 7.066659999995864e+000	 1.009167481939353e+001
0	 6.266680000012267e+000	 7.133319999991935e+000	 1.008827077270813e+001
0	 6.266680000012266e+000	 7.199979999988402e+000	 1.008490216490533e+001
0	 6.266680000012268e+000	 7.266639999985467e+000	 1.008156633467433e+001
0	 6.266680000012266e+000	 7.333299999983333e+000	 1.007826062070435e+001
0	 6.333350000014583e+000	 6.666700000016667e+000	 1.011096165563393e+001
0	 6.333350000014583e+000	 6.733360000014533e+000	 1.010737923986395e+001
0	 6.333350000014582e+000	 6.800020000011598e+000	 1.010384532049606e+001
0	 6.333350000014583e+000	 6.866680000008065e+000	 1.010035724069964e+001
0	 6.333350000014582e+000	 6.933340000004131e+000	 1.009691234364409e+001
0	 6.333350000014583e+000	 7.000000000000000e+000	 1.009350797249874e+001
0	 6.333350000014582e+000	 7.066659999995867e+000	 1.009014147043302e+001
0	 6.333350000014583e+000	 7.133319999991935e+000	 1.008681018061631e+001
0	 6.333350000014583e+000	 7.199979999988400e+000	 1.008351144621796e+001
0	 6.333350000014583e+000	 7.266639999985467e+000	 1.008024261040737e+001
0	 6.333350000014582e+000	 7.333299999983334e+000	 1.007700101635392e+001
0	 6.400020000016401e+000	 6.666700000016666e+000	 1.010885829512583e+001
0	 6.400020000016401e+000	 6.733360000014534e+000	 1.010536790246705e+001
0	 6.400020000016399e+000	 6.800020000011600e+000	 1.010192305611641e+001
0	 6.400020000016398e+000	 6.866680000008065e+000	 1.009852110838726e+001
0	 6.400020000016401e+000	 6.933340000004134e+000	 1.009515941159289e+001
0	 6.400020000016398e+000	 6.999999999999998e+000	 1.009183531804666e+001
0	 6.400020000016400e+000	 7.066659999995867e+000	 1.008854618006185e+001
0	 6.400020000016399e+000	 7.133319999991935e+000	 1.008528934995182e+001
0	 6.400020000016401e+000	 7.199979999988401e+000	 1.008206218002986e+001
0	 6.400020000016401e+000	 7.266639999985468e+000	 1.007886202260930e+001
0	 6.400020000016400e+000	 7.333299999983335e+000	 1.007568623000346e+001
0	 6.466690000017615e+000	 6.666700000016666e+000	 1.010669040042285e+001
0	 6.466690000017616e+000	 6.733360000014533e+000	 1.010329342870553e+001
0	 6.466690000017616e+000	 6.800020000011600e+000	 1.009993905542906e+001
0	 6.466690000017616e+000	 6.866680000008067e+000	 1.009662464671446e+001
0	 6.466690000017615e+000	 6.933340000004134e+000	 1.009334756868275e+001
0	 6.466690000017616e+000	 7.000000000000001e+000	 1.009010518745493e+001
0	 6.466690000017614e+000	 7.066659999995867e+000	 1.008689486915205e+001
0	 6.466690000017618e+000	 7.133319999991935e+000	 1.008371397989513e+001
0	 6.466690000017618e+000	 7.199979999988401e+000	 1.008055988580516e+001
0	 6.466690000017615e+000	 7.266639999985467e+000	 1.007742995300317e+001
0	 6.466690000017615e+000	 7.333299999983335e+000	 1.007432154761016e+001
0	 6.533360000018131e+000	 6.666700000016665e+000	 1.010446610402645e+001
0	 6.533360000018131e+000	 6.733360000014533e+000	 1.010116347753788e+001
0	 6.533360000018133e+000	 6.800020000011599e+000	 1.009790054582472e+001
0	 6.533360000018133e+000	 6.866680000008068e+000	 1.009467469347945e+001
0	 6.533360000018132e+000	 6.933340000004133e+000	 1.009148330509453e+001
0	 6.533360000018133e+000	 7.000000000000001e+000	 1.008832376526245e+001
0	 6.533360000018132e+000	 7.066659999995867e+000	 1.008519345857568e+001
0	 6.533360000018132e+000	 7.133319999991934e+000	 1.008208976962671e+001
0	 6.533360000018132e+000	 7.199979999988400e+000	 1.007901008300798e+001
0	 6.533360000018131e+000	 7.266639999985466e+000	 1.007595178331199e+001
0	 6.533360000018132e+000	 7.333299999983335e+000	 1.007291225513120e+001
0	 6.600030000017847e+000	 6.666700000016665e+000	 1.010219353843810e+001
0	 6.600030000017850e+000	 6.733360000014533e+000	 1.009898570792257e+001
0	 6.600030000017847e+000	 6.800020000011597e+000	 1.009581475469412e+001
0	 6.600030000017847e+000	 6.866680000008067e+000	 1.009267808648041e+001
0	 6.600030000017847e+000	 6.933340000004133e+000	 1.008957311100917e+001
0	 6.600030000017847e+000	 6.999999999999998e+000	 1.008649723600805e+001
0	 6.600030000017849e+000	 7.066659999995868e+000	 1.008344786920479e+001
0	 6.600030000017849e+000	 7.133319999991934e+000	 1.008042241832703e+001
0	 6.600030000017849e+000	 7.199979999988401e+000	 1.007741829110248e+001
0	 6.600030000017849e+000	 7.266639999985467e+000	 1.007443289525882e+001
0	 6.600030000017847e+000	 7.333299999983334e+000	 1.007146363852374e+001
0	 6.666700000016666e+000	 6.666700000016667e+000	 1.009988083615928e+001
0	 6.666700000016667e+000	 6.733360000014533e+000	 1.009676777881806e+001
0	 6.666700000016665e+000	 6.800020000011598e+000	 1.009368890942793e+001
0	 6.666700000016666e+000	 6.866680000008067e+000	 1.009064166351554e+001
0	 6.666700000016667e+000	 6.933340000004133e+000	 1.008762347660754e+001
0	 6.666700000016665e+000	 6.999999999999999e+000	 1.008463178423061e+001
0	 6.666700000016667e+000	 7.066659999995868e+000	 1.008166402191139e+001
0	 6.666700000016665e+000	 7.133319999991936e+000	 1.007871762517657e+001
0	 6.666700000016666e+000	 7.199979999988400e+000	 1.007579002955278e+001
0	 6.666700000016666e+000	 7.266639999985467e+000	 1.007287867056670e+001
0	 6.666700000016665e+000	 7.333299999983333e+000	 1.006998098374496e+001
0	 6.000000000000000e+000	 7.333299999983332e+000	 1.008264149896225e+001
0	 6.000000000000001e+000	 7.399969999982152e+000	 1.007915165971917e+001
0	 6.000000000000002e+000	 7.466639999981867e+000	 1.007572946189212e+001
0	 6.000000000000001e+000	 7.533309999982384e+000	 1.007237240335251e+001
0	 6.000000000000000e+000	 7.599979999983600e+000	 1.006907798197171e+001
0	 6.000000000000000e+000	 7.666649999985416e+000	 1.006584369562112e+001
0	 6.000000000000000e+000	 7.733319999987733e+000	 1.006266704217213e+001
0	 5.999999999999998e+000	 7.799989999990449e+000	 1.005954551949612e+001
0	 5.999999999999998e+000	 7.866659999993466e+000	 1.005647662546451e+001
0	 6.000000000000000e+000	 7.933329999996684e+000	 1.005345785794866e+001
0	 6.000000000000000e+000	 8.000000000000000e+000	 1.005048671481999e+001
0	 6.066670000003317e+000	 7.333299999983333e+000	 1.008165548218370e+001
0	 6.066670000003317e+000	 7.399969999982152e+000	 1.007821981917671e+001
0	 6.066670000003316e+000	 7.466639999981865e+000	 1.007484971019331e+001
0	 6.066670000003319e+000	 7.533309999982385e+000	 1.007154264488440e+001
0	 6.066670000003319e+000	 7.599979999983599e+000	 1.006829611290087e+001
0	 6.066670000003317e+000	 7.666649999985416e+000	 1.006510760389366e+001
0	 6.066670000003318e+000	 7.733319999987733e+000	 1.006197460751366e+001
0	 6.066670000003319e+000	 7.799989999990449e+000	 1.005889461341180e+001
0	 6.066670000003318e+000	 7.866659999993468e+000	 1.005586511123899e+001
0	 6.066670000003319e+000	 7.933329999996684e+000	 1.005288359064613e+001
0	 6.066670000003318e+000	 8.000000000000002e+000	 1.004994754128416e+001
0	 6.133340000006531e+000	 7.333299999983332e+000	 1.008059313957641e+001
0	 6.133340000006534e+000	 7.399969999982149e+000	 1.007721368693352e+001
0	 6.133340000006534e+000	 7.466639999981867e+000	 1.007389780710551e+001
0	 6.133340000006530e+000	 7.533309999982381e+000	 1.007064298224415e+001
0	 6.133340000006533e+000	 7.599979999983598e+000	 1.006744669450121e+001
0	 6.133340000006534e+000	 7.666649999985415e+000	 1.006430642602844e+001
0	 6.133340000006534e+000	 7.733319999987733e+000	 1.006121965897760e+001
0	 6.133340000006533e+000	 7.799989999990449e+000	 1.005818387550046e+001
0	 6.133340000006534e+000	 7.866659999993468e+000	 1.005519655774879e+001
0	 6.133340000006535e+000	 7.933329999996683e+000	 1.005225518787434e+001
0	 6.133340000006534e+000	 7.999999999999999e+000	 1.004935724802887e+001
0	 6.200010000009550e+000	 7.333299999983334e+000	 1.007945975709757e+001
0	 6.200010000009547e+000	 7.399969999982147e+000	 1.007613846621200e+001
0	 6.200010000009551e+000	 7.466639999981868e+000	 1.007287885722585e+001
0	 6.200010000009551e+000	 7.533309999982385e+000	 1.006967840551307e+001
0	 6.200010000009549e+000	 7.599979999983599e+000	 1.006653458644760e+001
0	 6.200010000009550e+000	 7.666649999985415e+000	 1.006344487540335e+001
0	 6.200010000009549e+000	 7.733319999987732e+000	 1.006040674775430e+001
0	 6.200010000009550e+000	 7.799989999990451e+000	 1.005741767887437e+001
0	 6.200010000009550e+000	 7.866659999993466e+000	 1.005447514413751e+001
0	 6.200010000009550e+000	 7.933329999996684e+000	 1.005157661891767e+001
0	 6.200010000009550e+000	 8.000000000000000e+000	 1.004871957858879e+001
0	 6.266680000012266e+000	 7.333299999983333e+000	 1.007826062070435e+001
0	 6.266680000012268e+000	 7.399969999982152e+000	 1.007499936023461e+001
0	 6.266680000012267e+000	 7.466639999981866e+000	 1.007179796515148e+001
0	 6.266680000012265e+000	 7.533309999982382e+000	 1.006865390477242e+001
0	 6.266680000012268e+000	 7.599979999983600e+000	 1.006556464841488e+001
0	 6.266680000012267e+000	 7.666649999985416e+000	 1.006252766539630e+001
0	 6.266680000012268e+000	 7.733319999987733e+000	 1.005954042503412e+001
0	 6.266680000012266e+000	 7.799989999990449e+000	 1.005660039664581e+001
0	 6.266680000012265e+000	 7.866659999993466e+000	 1.005370504954880e+001
0	 6.266680000012268e+000	 7.933329999996685e+000	 1.005085185306055e+001
0	 6.266680000012268e+000	 8.000000000000000e+000	 1.004803827649849e+001
0	 6.333350000014582e+000	 7.333299999983334e+000	 1.007700101635392e+001
0	 6.333350000014582e+000	 7.399969999982148e+000	 1.007380157222377e+001
0	 6.333350000014582e+000	 7.466639999981865e+000	 1.007066023547954e+001
0	 6.333350000014583e+000	 7.533309999982384e+000	 1.006757447010350e+001
0	 6.333350000014582e+000	 7.599979999983599e+000	 1.006454174007795e+001
0	 6.333350000014583e+000	 7.666649999985416e+000	 1.006155950938517e+001
0	 6.333350000014583e+000	 7.733319999987733e+000	 1.005862524200743e+001
0	 6.333350000014584e+000	 7.799989999990449e+000	 1.005573640192702e+001
0	 6.333350000014584e+000	 7.866659999993467e+000	 1.005289045312623e+001
0	 6.333350000014583e+000	 7.933329999996684e+000	 1.005008485958733e+001
0	 6.333350000014584e+000	 8.000000000000000e+000	 1.004731708529264e+001
0	 6.400020000016400e+000	 7.333299999983335e+000	 1.007568623000346e+001
0	 6.400020000016399e+000	 7.399969999982150e+000	 1.007255030540194e+001
0	 6.400020000016399e+000	 7.466639999981867e+000	 1.006947077280717e+001
0	 6.400020000016400e+000	 7.533309999982382e+000	 1.006644509158760e+001
0	 6.400020000016401e+000	 7.599979999983601e+000	 1.006347072111167e+001
0	 6.400020000016400e+000	 7.666649999985417e+000	 1.006054512074784e+001
0	 6.400020000016399e+000	 7.733319999987734e+000	 1.005766574986457e+001
0	 6.400020000016400e+000	 7.799989999990449e+000	 1.005483006783028e+001
0	 6.400020000016398e+000	 7.866659999993465e+000	 1.005203553401342e+001
0	 6.400020000016398e+000	 7.933329999996682e+000	 1.004927960778245e+001
0	 6.400020000016399e+000	 8.000000000000000e+000	 1.004655974850583e+001
0	 6.466690000017615e+000	 7.333299999983335e+000	 1.007432154761016e+001
0	 6.466690000017614e+000	 7.399969999982149e+000	 1.007125076299156e+001
0	 6.466690000017614e+000	 7.466639999981864e+000	 1.006823468173152e+001
0	 6.466690000017617e+000	 7.533309999982384e+000	 1.006527075930599e+001
0	 6.466690000017613e+000	 7.599979999983598e+000	 1.006235645119092e+001
0	 6.466690000017616e+000	 7.666649999985416e+000	 1.005948921286225e+001
0	 6.466690000017616e+000	 7.733319999987733e+000	 1.005666649979590e+001
0	 6.466690000017615e+000	 7.799989999990448e+000	 1.005388576746783e+001
0	 6.466690000017616e+000	 7.866659999993468e+000	 1.005114447135398e+001
0	 6.466690000017618e+000	 7.933329999996683e+000	 1.004844006693030e+001
0	 6.466690000017616e+000	 8.000000000000000e+000	 1.004577000967272e+001
0	 6.533360000018132e+000	 7.333299999983335e+000	 1.007291225513120e+001
0	 6.533360000018130e+000	 7.399969999982148e+000	 1.006990814821505e+001
0	 6.533360000018130e+000	 7.466639999981864e+000	 1.006695706684972e+001
0	 6.533360000018131e+000	 7.533309999982383e+000	 1.006405646333997e+001
0	 6.533360000018132e+000	 7.599979999983599e+000	 1.006120378999056e+001
0	 6.533360000018132e+000	 7.666649999985417e+000	 1.005839649910624e+001
0	 6.533360000018132e+000	 7.733319999987733e+000	 1.005563204299179e+001
0	 6.533360000018131e+000	 7.799989999990448e+000	 1.005290787395198e+001
0	 6.533360000018131e+000	 7.866659999993466e+000	 1.005022144429155e+001
0	 6.533360000018132e+000	 7.933329999996684e+000	 1.004757020631528e+001
0	 6.533360000018131e+000	 7.999999999999999e+000	 1.004495161232793e+001
0	 6.600030000017847e+000	 7.333299999983334e+000	 1.007146363852374e+001
0	 6.600030000017848e+000	 7.399969999982151e+000	 1.006852766429488e+001
0	 6.600030000017848e+000	 7.466639999981866e+000	 1.006564303275894e+001
0	 6.600030000017849e+000	 7.533309999982385e+000	 1.006280719377081e+001
0	 6.600030000017847e+000	 7.599979999983599e+000	 1.006001759718545e+001
0	 6.600030000017847e+000	 7.666649999985415e+000	 1.005727169285775e+001
0	 6.600030000017848e+000	 7.733319999987733e+000	 1.005456693064261e+001
0	 6.600030000017847e+000	 7.799989999990449e+000	 1.005190076039496e+001
0	 6.600030000017847e+000	 7.866659999993465e+000	 1.004927063196969e+001
0	 6.600030000017846e+000	 7.933329999996682e+000	 1.004667399522178e+001
0	 6.600030000017848e+000	 8.000000000000000e+000	 1.004410830000606e+001
0	 6.666700000016665e+000	 7.333299999983333e+000	 1.006998098374496e+001
0	 6.666700000016665e+000	 7.399969999982150e+000	 1.006711451445346e+001
0	 6.666700000016668e+000	 7.466639999981867e+000	 1.006429768405629e+001
0	 6.666700000016667e+000	 7.533309999982384e+000	 1.006152794067982e+001
0	 6.666700000016665e+000	 7.599979999983599e+000	 1.005880273245047e+001
0	 6.666700000016666e+000	 7.666649999985416e+000	 1.005611950749463e+001
0	 6.666700000016665e+000	 7.733319999987731e+000	 1.005347571393868e+001
0	 6.666700000016665e+000	 7.799989999990450e+000	 1.005086879990905e+001
0	 6.666700000016665e+000	 7.866659999993465e+000	 1.004829621353208e+001
0	 6.666700000016666e+000	 7.933329999996684e+000	 1.004575540293419e+001
0	 6.666700000016668e+000	 8.000000000000000e+000	 1.004324381624176e+001
0	 6.000000000000000e+000	 8.000000000000000e+000	 1.005048671481999e+001
0	 5.999999999999999e+000	 8.066670000003319e+000	 1.004758009199956e+001
0	 6.000000000000001e+000	 8.133340000006534e+000	 1.004475447118042e+001
0	 5.999999999999998e+000	 8.200010000009549e+000	 1.004200672889197e+001
0	 6.000000000000000e+000	 8.266680000012267e+000	 1.003933374166367e+001
0	 6.000000000000001e+000	 8.333350000014583e+000	 1.003673238602489e+001
0	 6.000000000000000e+000	 8.400020000016401e+000	 1.003419953850506e+001
0	 6.000000000000000e+000	 8.466690000017616e+000	 1.003173207563361e+001
0	 6.000000000000000e+000	 8.533360000018133e+000	 1.002932687393995e+001
0	 5.999999999999998e+000	 8.600030000017849e+000	 1.002698080995350e+001
0	 6.000000000000000e+000	 8.666700000016666e+000	 1.002469076020367e+001
0	 6.066670000003318e+000	 8.000000000000002e+000	 1.004994754128416e+001
0	 6.066670000003318e+000	 8.066670000003317e+000	 1.004707443076795e+001
0	 6.066670000003315e+000	 8.133340000006532e+000	 1.004428130186628e+001
0	 6.066670000003318e+000	 8.200010000009552e+000	 1.004156500696092e+001
0	 6.066670000003316e+000	 8.266680000012267e+000	 1.003892239843368e+001
0	 6.066670000003314e+000	 8.333350000014582e+000	 1.003635032866632e+001
0	 6.066670000003317e+000	 8.400020000016399e+000	 1.003384565004062e+001
0	 6.066670000003319e+000	 8.466690000017620e+000	 1.003140521493835e+001
0	 6.066670000003316e+000	 8.533360000018133e+000	 1.002902587574131e+001
0	 6.066670000003317e+000	 8.600030000017849e+000	 1.002670448483128e+001
0	 6.066670000003318e+000	 8.666700000016668e+000	 1.002443789459003e+001
0	 6.133340000006534e+000	 7.999999999999999e+000	 1.004935724802887e+001
0	 6.133340000006533e+000	 8.066670000003315e+000	 1.004652065691778e+001
0	 6.133340000006532e+000	 8.133340000006534e+000	 1.004376290220751e+001
0	 6.133340000006533e+000	 8.200010000009549e+000	 1.004108081949143e+001
0	 6.133340000006532e+000	 8.266680000012268e+000	 1.003847124436295e+001
0	 6.133340000006535e+000	 8.333350000014583e+000	 1.003593101241547e+001
0	 6.133340000006534e+000	 8.400020000016401e+000	 1.003345695924237e+001
0	 6.133340000006533e+000	 8.466690000017618e+000	 1.003104592043705e+001
0	 6.133340000006533e+000	 8.533360000018135e+000	 1.002869473159293e+001
0	 6.133340000006536e+000	 8.600030000017849e+000	 1.002640022830337e+001
0	 6.133340000006533e+000	 8.666700000016665e+000	 1.002415924616180e+001
0	 6.200010000009550e+000	 8.000000000000000e+000	 1.004871957858879e+001
0	 6.200010000009549e+000	 8.066670000003319e+000	 1.004592228619906e+001
0	 6.200010000009550e+000	 8.133340000006536e+000	 1.004320257199024e+001
0	 6.200010000009550e+000	 8.200010000009550e+000	 1.004055726212661e+001
0	 6.200010000009550e+000	 8.266680000012267e+000	 1.003798318277240e+001
0	 6.200010000009550e+000	 8.333350000014583e+000	 1.003547716009188e+001
0	 6.200010000009549e+000	 8.400020000016403e+000	 1.003303602024931e+001
0	 6.200010000009550e+000	 8.466690000017618e+000	 1.003065658940896e+001
0	 6.200010000009550e+000	 8.533360000018137e+000	 1.002833569373508e+001
0	 6.200010000009551e+000	 8.600030000017851e+000	 1.002607015939194e+001
0	 6.200010000009551e+000	 8.666700000016666e+000	 1.002385681254379e+001
0	 6.266680000012268e+000	 8.000000000000000e+000	 1.004803827649849e+001
0	 6.266680000012268e+000	 8.066670000003315e+000	 1.004528283436174e+001
0	 6.266680000012265e+000	 8.133340000006532e+000	 1.004260361100063e+001
0	 6.266680000012265e+000	 8.200010000009550e+000	 1.003999743050959e+001
0	 6.266680000012267e+000	 8.266680000012268e+000	 1.003746111698296e+001
0	 6.266680000012267e+000	 8.333350000014582e+000	 1.003499149451510e+001
0	 6.266680000012267e+000	 8.400020000016401e+000	 1.003258538720042e+001
0	 6.266680000012266e+000	 8.466690000017616e+000	 1.003023961913327e+001
0	 6.266680000012268e+000	 8.533360000018135e+000	 1.002795101440804e+001
0	 6.266680000012266e+000	 8.600030000017849e+000	 1.002571639711912e+001
0	 6.266680000012265e+000	 8.666700000016666e+000	 1.002353259136089e+001
0	 6.333350000014584e+000	 8.000000000000000e+000	 1.004731708529264e+001
0	 6.333350000014583e+000	 8.066670000003317e+000	 1.004460581715580e+001
0	 6.333350000014583e+000	 8.133340000006534e+000	 1.004196931902487e+001
0	 6.333350000014583e+000	 8.200010000009552e+000	 1.003940442028354e+001
0	 6.333350000014582e+000	 8.266680000012268e+000	 1.003690795031556e+001
0	 6.333350000014583e+000	 8.333350000014583e+000	 1.003447673850469e+001
0	 6.333350000014582e+000	 8.400020000016401e+000	 1.003210761423465e+001
0	 6.333350000014583e+000	 8.466690000017620e+000	 1.002979740688921e+001
0	 6.333350000014582e+000	 8.533360000018133e+000	 1.002754294585211e+001
0	 6.333350000014584e+000	 8.600030000017851e+000	 1.002534106050709e+001
0	 6.333350000014583e+000	 8.666700000016668e+000	 1.002318858023789e+001
0	 6.400020000016399e+000	 8.000000000000000e+000	 1.004655974850583e+001
0	 6.400020000016400e+000	 8.066670000003319e+000	 1.004389475033127e+001
0	 6.400020000016399e+000	 8.133340000006534e+000	 1.004130299584906e+001
0	 6.400020000016399e+000	 8.200010000009550e+000	 1.003878132709157e+001
0	 6.400020000016399e+000	 8.266680000012267e+000	 1.003632658609115e+001
0	 6.400020000016397e+000	 8.333350000014582e+000	 1.003393561488020e+001
0	 6.400020000016399e+000	 8.400020000016399e+000	 1.003160525549103e+001
0	 6.400020000016399e+000	 8.466690000017618e+000	 1.002933234995603e+001
0	 6.400020000016397e+000	 8.533360000018133e+000	 1.002711374030755e+001
0	 6.400020000016400e+000	 8.600030000017851e+000	 1.002494626857798e+001
0	 6.400020000016399e+000	 8.666700000016666e+000	 1.002282677679966e+001
0	 6.466690000017616e+000	 8.000000000000000e+000	 1.004577000967272e+001
0	 6.466690000017618e+000	 8.066670000003319e+000	 1.004315314963808e+001
0	 6.466690000017615e+000	 8.133340000006532e+000	 1.004060794125937e+001
0	 6.466690000017614e+000	 8.200010000009552e+000	 1.003813124657683e+001
0	 6.466690000017617e+000	 8.266680000012268e+000	 1.003571992763068e+001
0	 6.466690000017615e+000	 8.333350000014587e+000	 1.003337084646115e+001
0	 6.466690000017616e+000	 8.400020000016401e+000	 1.003108086510849e+001
0	 6.466690000017616e+000	 8.466690000017618e+000	 1.002884684561292e+001
0	 6.466690000017614e+000	 8.533360000018133e+000	 1.002666565001465e+001
0	 6.466690000017617e+000	 8.600030000017853e+000	 1.002453414035395e+001
0	 6.466690000017617e+000	 8.666700000016666e+000	 1.002244917867103e+001
0	 6.533360000018131e+000	 7.999999999999999e+000	 1.004495161232793e+001
0	 6.533360000018131e+000	 8.066670000003317e+000	 1.004238453082622e+001
0	 6.533360000018131e+000	 8.133340000006534e+000	 1.003988745504194e+001
0	 6.533360000018131e+000	 8.200010000009549e+000	 1.003745727438244e+001
0	 6.533360000018132e+000	 8.266680000012265e+000	 1.003509087825506e+001
0	 6.533360000018132e+000	 8.333350000014585e+000	 1.003278515606715e+001
0	 6.533360000018132e+000	 8.400020000016399e+000	 1.003053699722605e+001
0	 6.533360000018133e+000	 8.466690000017616e+000	 1.002834329113913e+001
0	 6.533360000018130e+000	 8.533360000018133e+000	 1.002620092721371e+001
0	 6.533360000018130e+000	 8.600030000017849e+000	 1.002410679485717e+001
0	 6.533360000018133e+000	 8.666700000016665e+000	 1.002205778347686e+001
0	 6.600030000017848e+000	 8.000000000000000e+000	 1.004410830000606e+001
0	 6.600030000017848e+000	 8.066670000003317e+000	 1.004159240964569e+001
0	 6.600030000017850e+000	 8.133340000006534e+000	 1.003914483698295e+001
0	 6.600030000017847e+000	 8.200010000009550e+000	 1.003676250615156e+001
0	 6.600030000017848e+000	 8.266680000012267e+000	 1.003444234128524e+001
0	 6.600030000017848e+000	 8.333350000014583e+000	 1.003218126651771e+001
0	 6.600030000017848e+000	 8.400020000016399e+000	 1.002997620598267e+001
0	 6.600030000017849e+000	 8.466690000017620e+000	 1.002782408381386e+001
0	 6.600030000017848e+000	 8.533360000018135e+000	 1.002572182414498e+001
0	 6.600030000017847e+000	 8.600030000017849e+000	 1.002366635110980e+001
0	 6.600030000017849e+000	 8.666700000016666e+000	 1.002165458884198e+001
0	 6.666700000016668e+000	 8.000000000000000e+000	 1.004324381624176e+001
0	 6.666700000016666e+000	 8.066670000003317e+000	 1.004078030184646e+001
0	 6.666700000016665e+000	 8.133340000006532e+000	 1.003838338686854e+001
0	 6.666700000016666e+000	 8.200010000009550e+000	 1.003605003752732e+001
0	 6.666700000016665e+000	 8.266680000012267e+000	 1.003377722004216e+001
0	 6.666700000016666e+000	 8.333350000014583e+000	 1.003156190063238e+001
0	 6.666700000016667e+000	 8.400020000016401e+000	 1.002940104551733e+001
0	 6.666700000016667e+000	 8.466690000017618e+000	 1.002729162091635e+001
0	 6.666700000016665e+000	 8.533360000018133e+000	 1.002523059304878e+001
0	 6.666700000016666e+000	 8.600030000017851e+000	 1.002321492813397e+001
0	 6.666700000016666e+000	 8.666700000016666e+000	 1.002124159239125e+001
0	 6.000000000000000e+000	 8.666700000016666e+000	 1.002469076020367e+001
0	 6.000000000000000e+000	 8.733360002791903e+000	 1.002248312943005e+001
0	 6.000000000000000e+000	 8.800020022230555e+000	 1.002038273880527e+001
0	 6.000000000000000e+000	 8.866680074997040e+000	 1.001838510762185e+001
0	 6.000000000000000e+000	 8.933340177755781e+000	 1.001648575487473e+001
0	 6.000000000000000e+000	 9.000000347171181e+000	 1.001468019926117e+001
0	 6.000000000000001e+000	 9.066660599907667e+000	 1.001296395918076e+001
0	 5.999999999999998e+000	 9.133320952629655e+000	 1.001133255273553e+001
0	 6.000000000000000e+000	 9.199981422001558e+000	 1.000978149772978e+001
0	 5.999999999999998e+000	 9.266642024687796e+000	 1.000830631167018e+001
0	 6.000000000000000e+000	 9.333302777352783e+000	 1.000690251176578e+001
0	 6.066670000003318e+000	 8.666700000016668e+000	 1.002443789459004e+001
0	 6.066670000003316e+000	 8.733360002791903e+000	 1.002225257393647e+001
0	 6.066670000003314e+000	 8.800020022230555e+000	 1.002017346181054e+001
0	 6.066670000003318e+000	 8.866680074997040e+000	 1.001819612346158e+001
0	 6.066670000003318e+000	 8.933340177755778e+000	 1.001631612384390e+001
0	 6.066670000003319e+000	 9.000000347171183e+000	 1.001452902761668e+001
0	 6.066670000003319e+000	 9.066660599907669e+000	 1.001283039914404e+001
0	 6.066670000003317e+000	 9.133320952629656e+000	 1.001121580249509e+001
0	 6.066670000003318e+000	 9.199981422001562e+000	 1.000968080144374e+001
0	 6.066670000003316e+000	 9.266642024687796e+000	 1.000822095946897e+001
0	 6.066670000003316e+000	 9.333302777352783e+000	 1.000683183975457e+001
0	 6.133340000006533e+000	 8.666700000016665e+000	 1.002415924616180e+001
0	 6.133340000006531e+000	 8.733360002791903e+000	 1.002199830309593e+001
0	 6.133340000006533e+000	 8.800020022230553e+000	 1.001994243766024e+001
0	 6.133340000006534e+000	 8.866680074997040e+000	 1.001798726299372e+001
0	 6.133340000006534e+000	 8.933340177755776e+000	 1.001612839194313e+001
0	 6.133340000006535e+000	 9.000000347171183e+000	 1.001436143706296e+001
0	 6.133340000006532e+000	 9.066660599907666e+000	 1.001268201061555e+001
0	 6.133340000006534e+000	 9.133320952629656e+000	 1.001108572457094e+001
0	 6.133340000006534e+000	 9.199981422001560e+000	 1.000956819060698e+001
0	 6.133340000006532e+000	 9.266642024687798e+000	 1.000812502010928e+001
0	 6.133340000006533e+000	 9.333302777352783e+000	 1.000675182417123e+001
0	 6.200010000009551e+000	 8.666700000016666e+000	 1.002385681254379e+001
0	 6.200010000009551e+000	 8.733360002791905e+000	 1.002172220242043e+001
0	 6.200010000009549e+000	 8.800020022230555e+000	 1.001969144646708e+001
0	 6.200010000009550e+000	 8.866680074997042e+000	 1.001776020764530e+001
0	 6.200010000009550e+000	 8.933340177755779e+000	 1.001592414862745e+001
0	 6.200010000009550e+000	 9.000000347171179e+000	 1.001417893179682e+001
0	 6.200010000009551e+000	 9.066660599907669e+000	 1.001252021924755e+001
0	 6.200010000009549e+000	 9.133320952629655e+000	 1.001094367278468e+001
0	 6.200010000009550e+000	 9.199981422001558e+000	 1.000944495392416e+001
0	 6.200010000009550e+000	 9.266642024687799e+000	 1.000801972389277e+001
0	 6.200010000009550e+000	 9.333302777352781e+000	 1.000666364362820e+001
0	 6.266680000012265e+000	 8.666700000016666e+000	 1.002353259136089e+001
0	 6.266680000012266e+000	 8.733360002791901e+000	 1.002142615742198e+001
0	 6.266680000012265e+000	 8.800020022230552e+000	 1.001942226834379e+001
0	 6.266680000012267e+000	 8.866680074997042e+000	 1.001751663884335e+001
0	 6.266680000012268e+000	 8.933340177755781e+000	 1.001570498335191e+001
0	 6.266680000012267e+000	 9.000000347171183e+000	 1.001398301601497e+001
0	 6.266680000012264e+000	 9.066660599907666e+000	 1.001234645069229e+001
0	 6.266680000012266e+000	 9.133320952629656e+000	 1.001079100095788e+001
0	 6.266680000012265e+000	 9.199981422001558e+000	 1.000931238009997e+001
0	 6.266680000012268e+000	 9.266642024687798e+000	 1.000790630112108e+001
0	 6.266680000012267e+000	 9.333302777352783e+000	 1.000656847673792e+001
0	 6.333350000014583e+000	 8.666700000016668e+000	 1.002318858023789e+001
0	 6.333350000014584e+000	 8.733360002791903e+000	 1.002111205361259e+001
0	 6.333350000014582e+000	 8.800020022230555e+000	 1.001913668340308e+001
0	 6.333350000014583e+000	 8.866680074997040e+000	 1.001725823801492e+001
0	 6.333350000014582e+000	 8.933340177755781e+000	 1.001547248557153e+001
0	 6.333350000014583e+000	 9.000000347171183e+000	 1.001377519391420e+001
0	 6.333350000014582e+000	 9.066660599907669e+000	 1.001216213060207e+001
0	 6.333350000014582e+000	 9.133320952629653e+000	 1.001062906291210e+001
0	 6.333350000014582e+000	 9.199981422001558e+000	 1.000917175783912e+001
0	 6.333350000014584e+000	 9.266642024687798e+000	 1.000778598209586e+001
0	 6.333350000014585e+000	 9.333302777352783e+000	 1.000646750211282e+001
0	 6.400020000016399e+000	 8.666700000016666e+000	 1.002282677679966e+001
0	 6.400020000016399e+000	 8.733360002791903e+000	 1.002078177650427e+001
0	 6.400020000016400e+000	 8.800020022230557e+000	 1.001883647175764e+001
0	 6.400020000016401e+000	 8.866680074997042e+000	 1.001698668658704e+001
0	 6.400020000016399e+000	 8.933340177755779e+000	 1.001522824474137e+001
0	 6.400020000016397e+000	 9.000000347171179e+000	 1.001355696969129e+001
0	 6.400020000016400e+000	 9.066660599907669e+000	 1.001196868462912e+001
0	 6.400020000016400e+000	 9.133320952629656e+000	 1.001045921246890e+001
0	 6.400020000016399e+000	 9.199981422001558e+000	 1.000902437584631e+001
0	 6.400020000016398e+000	 9.266642024687796e+000	 1.000765999711877e+001
0	 6.400020000016399e+000	 9.333302777352783e+000	 1.000636189836535e+001
0	 6.466690000017617e+000	 8.666700000016666e+000	 1.002244917867103e+001
0	 6.466690000017616e+000	 8.733360002791899e+000	 1.002043721160901e+001
0	 6.466690000017617e+000	 8.800020022230559e+000	 1.001852341352022e+001
0	 6.466690000017616e+000	 8.866680074997042e+000	 1.001670366598674e+001
0	 6.466690000017613e+000	 8.933340177755776e+000	 1.001497385031645e+001
0	 6.466690000017617e+000	 9.000000347171181e+000	 1.001332984754300e+001
0	 6.466690000017615e+000	 9.066660599907673e+000	 1.001176753842575e+001
0	 6.466690000017614e+000	 9.133320952629656e+000	 1.001028280344985e+001
0	 6.466690000017616e+000	 9.199981422001557e+000	 1.000887152282621e+001
0	 6.466690000017616e+000	 9.266642024687796e+000	 1.000752957649145e+001
0	 6.466690000017616e+000	 9.333302777352783e+000	 1.000625284410798e+001
0	 6.533360000018133e+000	 8.666700000016665e+000	 1.002205778347686e+001
0	 6.533360000018132e+000	 8.733360002791901e+000	 1.002008024443884e+001
0	 6.533360000018132e+000	 8.800020022230555e+000	 1.001819928880350e+001
0	 6.533360000018132e+000	 8.866680074997044e+000	 1.001641085764107e+001
0	 6.533360000018130e+000	 8.933340177755779e+000	 1.001471089175183e+001
0	 6.533360000018133e+000	 9.000000347171184e+000	 1.001309533166609e+001
0	 6.533360000018130e+000	 9.066660599907664e+000	 1.001156011764421e+001
0	 6.533360000018132e+000	 9.133320952629655e+000	 1.001010118967655e+001
0	 6.533360000018130e+000	 9.199981422001557e+000	 1.000871448748352e+001
0	 6.533360000018131e+000	 9.266642024687796e+000	 1.000739595051556e+001
0	 6.533360000018131e+000	 9.333302777352781e+000	 1.000614151795311e+001
0	 6.600030000017849e+000	 8.666700000016666e+000	 1.002165458884198e+001
0	 6.600030000017848e+000	 8.733360002791901e+000	 1.001971276050576e+001
0	 6.600030000017847e+000	 8.800020022230555e+000	 1.001786587772020e+001
0	 6.600030000017849e+000	 8.866680074997040e+000	 1.001610994297706e+001
0	 6.600030000017848e+000	 8.933340177755778e+000	 1.001444095850252e+001
0	 6.600030000017850e+000	 9.000000347171184e+000	 1.001285492625735e+001
0	 6.600030000017849e+000	 9.066660599907669e+000	 1.001134784793677e+001
0	 6.600030000017847e+000	 9.133320952629655e+000	 1.000991572497055e+001
0	 6.600030000017847e+000	 9.199981422001558e+000	 1.000855455852294e+001
0	 6.600030000017847e+000	 9.266642024687796e+000	 1.000726034949274e+001
0	 6.600030000017848e+000	 9.333302777352783e+000	 1.000602909851322e+001
0	 6.666700000016666e+000	 8.666700000016666e+000	 1.002124159239125e+001
0	 6.666700000016665e+000	 8.733360002791899e+000	 1.001933664532174e+001
0	 6.666700000016665e+000	 8.800020022230555e+000	 1.001752496038306e+001
0	 6.666700000016666e+000	 8.866680074997040e+000	 1.001580260342175e+001
0	 6.666700000016667e+000	 8.933340177755779e+000	 1.001416564002358e+001
0	 6.666700000016666e+000	 9.000000347171179e+000	 1.001261013551353e+001
0	 6.666700000016667e+000	 9.066660599907669e+000	 1.001113215495569e+001
0	 6.666700000016666e+000	 9.133320952629658e+000	 1.000972776315342e+001
0	 6.666700000016665e+000	 9.199981422001558e+000	 1.000839302464917e+001
0	 6.666700000016667e+000	 9.266642024687796e+000	 1.000712400372465e+001
0	 6.666700000016665e+000	 9.333302777352781e+000	 1.000591676440072e+001
0	 6.000000000000000e+000	 9.333302777352783e+000	 1.000690251176578e+001
0	 6.000000000000002e+000	 9.399973674588175e+000	 1.000560916157294e+001
0	 5.999999999999998e+000	 9.466644621844619e+000	 1.000446436145018e+001
0	 6.000000000000001e+000	 9.533315502450000e+000	 1.000346156946168e+001
0	 6.000000000000001e+000	 9.599986199732197e+000	 1.000259424668145e+001
0	 6.000000000000001e+000	 9.666656597019093e+000	 1.000185585719314e+001
0	 6.000000000000002e+000	 9.733326577638577e+000	 1.000123986809014e+001
0	 6.000000000000000e+000	 9.799996024918523e+000	 1.000073974947568e+001
0	 6.000000000000000e+000	 9.866664822186824e+000	 1.000034897446290e+001
0	 6.000000000000000e+000	 9.933332852771352e+000	 1.000006101917527e+001
0	 6.000000000000000e+000	 1.000000000000000e+001	 9.999869362746884e+000
0	 6.066670000003316e+000	 9.333302777352783e+000	 1.000683183975457e+001
0	 6.066670000003318e+000	 9.399973674588177e+000	 1.000555201596527e+001
0	 6.066670000003318e+000	 9.466644621844623e+000	 1.000441914966775e+001
0	 6.066670000003317e+000	 9.533315502450000e+000	 1.000342682799490e+001
0	 6.066670000003315e+000	 9.599986199732195e+000	 1.000256864105971e+001
0	 6.066670000003318e+000	 9.666656597019097e+000	 1.000183818195529e+001
0	 6.066670000003316e+000	 9.733326577638573e+000	 1.000122904675489e+001
0	 6.066670000003315e+000	 9.799996024918524e+000	 1.000073483451202e+001
0	 6.066670000003316e+000	 9.866664822186820e+000	 1.000034914726052e+001
0	 6.066670000003318e+000	 9.933332852771354e+000	 1.000006559001499e+001
0	 6.066670000003317e+000	 1.000000000000000e+001	 9.999877770770974e+000
0	 6.133340000006533e+000	 9.333302777352783e+000	 1.000675182417123e+001
0	 6.133340000006534e+000	 9.399973674588177e+000	 1.000548665704502e+001
0	 6.133340000006533e+000	 9.466644621844623e+000	 1.000436671187946e+001
0	 6.133340000006535e+000	 9.533315502450003e+000	 1.000338570719226e+001
0	 6.133340000006533e+000	 9.599986199732195e+000	 1.000253736444908e+001
0	 6.133340000006532e+000	 9.666656597019093e+000	 1.000181540806351e+001
0	 6.133340000006534e+000	 9.733326577638575e+000	 1.000121356539717e+001
0	 6.133340000006531e+000	 9.799996024918521e+000	 1.000072556675962e+001
0	 6.133340000006532e+000	 9.866664822186820e+000	 1.000034514540889e+001
0	 6.133340000006532e+000	 9.933332852771351e+000	 1.000006603755119e+001
0	 6.133340000006534e+000	 1.000000000000000e+001	 9.999881982341886e+000
0	 6.200010000009550e+000	 9.333302777352781e+000	 1.000666364362820e+001
0	 6.200010000009551e+000	 9.399973674588177e+000	 1.000541421995840e+001
0	 6.200010000009549e+000	 9.466644621844621e+000	 1.000430814951164e+001
0	 6.200010000009549e+000	 9.533315502450000e+000	 1.000333928450650e+001
0	 6.200010000009550e+000	 9.599986199732197e+000	 1.000250148007484e+001
0	 6.200010000009551e+000	 9.666656597019095e+000	 1.000178859426186e+001
0	 6.200010000009550e+000	 9.733326577638575e+000	 1.000119448802606e+001
0	 6.200010000009550e+000	 9.799996024918523e+000	 1.000071302523933e+001
0	 6.200010000009550e+000	 9.866664822186822e+000	 1.000033807268724e+001
0	 6.200010000009550e+000	 9.933332852771352e+000	 1.000006350006909e+001
0	 6.200010000009550e+000	 1.000000000000000e+001	 9.999883179998582e+000
0	 6.266680000012267e+000	 9.333302777352783e+000	 1.000656847673792e+001
0	 6.266680000012266e+000	 9.399973674588173e+000	 1.000533583985158e+001
0	 6.266680000012268e+000	 9.466644621844623e+000	 1.000424456399065e+001
0	 6.266680000012266e+000	 9.533315502450000e+000	 1.000328863739034e+001
0	 6.266680000012265e+000	 9.599986199732197e+000	 1.000246205116232e+001
0	 6.266680000012267e+000	 9.666656597019092e+000	 1.000175879929439e+001
0	 6.266680000012268e+000	 9.733326577638573e+000	 1.000117287865072e+001
0	 6.266680000012267e+000	 9.799996024918524e+000	 1.000069828897183e+001
0	 6.266680000012265e+000	 9.866664822186824e+000	 1.000032903287488e+001
0	 6.266680000012268e+000	 9.933332852771356e+000	 1.000005911585384e+001
0	 6.266680000012268e+000	 1.000000000000000e+001	 9.999882546279824e+000
0	 6.333350000014585e+000	 9.333302777352783e+000	 1.000646750211282e+001
0	 6.333350000014582e+000	 9.399973674588177e+000	 1.000525265187078e+001
0	 6.333350000014581e+000	 9.466644621844619e+000	 1.000417705674281e+001
0	 6.333350000014582e+000	 9.533315502449998e+000	 1.000323484329655e+001
0	 6.333350000014584e+000	 9.599986199732195e+000	 1.000242014093673e+001
0	 6.333350000014583e+000	 9.666656597019095e+000	 1.000172708190510e+001
0	 6.333350000014583e+000	 9.733326577638575e+000	 1.000114980128022e+001
0	 6.333350000014583e+000	 9.799996024918524e+000	 1.000068243697791e+001
0	 6.333350000014582e+000	 9.866664822186822e+000	 1.000031912975121e+001
0	 6.333350000014581e+000	 9.933332852771352e+000	 1.000005402319066e+001
0	 6.333350000014583e+000	 1.000000000000000e+001	 9.999881263724847e+000
0	 6.400020000016399e+000	 9.333302777352783e+000	 1.000636189836535e+001
0	 6.400020000016398e+000	 9.399973674588177e+000	 1.000516579116216e+001
0	 6.400020000016398e+000	 9.466644621844623e+000	 1.000410672919442e+001
0	 6.400020000016399e+000	 9.533315502449998e+000	 1.000317897967779e+001
0	 6.400020000016401e+000	 9.599986199732197e+000	 1.000237681262345e+001
0	 6.400020000016398e+000	 9.666656597019092e+000	 1.000169450083799e+001
0	 6.400020000016398e+000	 9.733326577638573e+000	 1.000112631992367e+001
0	 6.400020000016400e+000	 9.799996024918523e+000	 1.000066654827827e+001
0	 6.400020000016398e+000	 9.866664822186820e+000	 1.000030946709540e+001
0	 6.400020000016398e+000	 9.933332852771351e+000	 1.000004936036479e+001
0	 6.400020000016400e+000	 1.000000000000000e+001	 9.999880514872560e+000
0	 6.466690000017616e+000	 9.333302777352783e+000	 1.000625284410798e+001
0	 6.466690000017616e+000	 9.399973674588178e+000	 1.000507639287193e+001
0	 6.466690000017616e+000	 9.466644621844623e+000	 1.000403468277190e+001
0	 6.466690000017616e+000	 9.533315502450002e+000	 1.000312212398684e+001
0	 6.466690000017615e+000	 9.599986199732195e+000	 1.000233312944765e+001
0	 6.466690000017615e+000	 9.666656597019095e+000	 1.000166211483715e+001
0	 6.466690000017617e+000	 9.733326577638577e+000	 1.000110349859020e+001
0	 6.466690000017616e+000	 9.799996024918526e+000	 1.000065170189370e+001
0	 6.466690000017615e+000	 9.866664822186818e+000	 1.000030114868683e+001
0	 6.466690000017617e+000	 9.933332852771354e+000	 1.000004626566134e+001
0	 6.466690000017615e+000	 1.000000000000000e+001	 9.999881482261809e+000
0	 6.533360000018131e+000	 9.333302777352781e+000	 1.000614151795311e+001
0	 6.533360000018132e+000	 9.399973674588177e+000	 1.000498559214625e+001
0	 6.533360000018130e+000	 9.466644621844619e+000	 1.000396201890155e+001
0	 6.533360000018132e+000	 9.533315502450000e+000	 1.000306535367642e+001
0	 6.533360000018130e+000	 9.599986199732195e+000	 1.000229015463470e+001
0	 6.533360000018132e+000	 9.666656597019093e+000	 1.000163098264661e+001
0	 6.533360000018133e+000	 9.733326577638575e+000	 1.000108240128892e+001
0	 6.533360000018131e+000	 9.799996024918521e+000	 1.000063897684496e+001
0	 6.533360000018132e+000	 9.866664822186822e+000	 1.000029527830481e+001
0	 6.533360000018130e+000	 9.933332852771352e+000	 1.000004587736552e+001
0	 6.533360000018132e+000	 1.000000000000000e+001	 9.999885348431702e+000
0	 6.600030000017848e+000	 9.333302777352783e+000	 1.000602909851322e+001
0	 6.600030000017847e+000	 9.399973674588177e+000	 1.000489452413129e+001
0	 6.600030000017848e+000	 9.466644621844621e+000	 1.000388983900971e+001
0	 6.600030000017849e+000	 9.533315502450003e+000	 1.000300974619926e+001
0	 6.600030000017847e+000	 9.599986199732198e+000	 1.000224895140981e+001
0	 6.600030000017849e+000	 9.666656597019093e+000	 1.000160216301034e+001
0	 6.600030000017850e+000	 9.733326577638577e+000	 1.000106409202889e+001
0	 6.600030000017848e+000	 9.799996024918523e+000	 1.000062945215276e+001
0	 6.600030000017848e+000	 9.866664822186824e+000	 1.000029295972853e+001
0	 6.600030000017847e+000	 9.933332852771352e+000	 1.000004933376260e+001
0	 6.600030000017848e+000	 1.000000000000000e+001	 9.999893295921286e+000
0	 6.666700000016665e+000	 9.333302777352781e+000	 1.000591676440072e+001
0	 6.666700000016666e+000	 9.399973674588177e+000	 1.000480432397331e+001
0	 6.666700000016665e+000	 9.466644621844619e+000	 1.000381924452272e+001
0	 6.666700000016667e+000	 9.533315502449998e+000	 1.000295637900809e+001
0	 6.666700000016666e+000	 9.599986199732198e+000	 1.000221058299835e+001
0	 6.666700000016665e+000	 9.666656597019093e+000	 1.000157671467244e+001
0	 6.666700000016666e+000	 9.733326577638575e+000	 1.000104963481930e+001
0	 6.666700000016666e+000	 9.799996024918521e+000	 1.000062420683790e+001
0	 6.666700000016666e+000	 9.866664822186822e+000	 1.000029529673744e+001
0	 6.666700000016665e+000	 9.933332852771352e+000	 1.000005777313769e+001
0	 6.666700000016666e+000	 1.000000000000000e+001	 9.999906507269225e+000
0	 6.666700000016666e+000	 0.000000000000000e+000	 1.012208852316731e+001
0	 6.666700000016668e+000	 6.666714722864757e-002	 1.012172030538596e+001
0	 6.666700000016666e+000	 1.333351778131790e-001	 1.012162012425290e+001
0	 6.666700000016665e+000	 2.000039750814772e-001	 1.012177776731874e+001
0	 6.666700000016667e+000	 2.666734223614256e-001	 1.012218302656044e+001
0	 6.666700000016667e+000	 3.333434029809069e-001	 1.012282569838095e+001
0	 6.666700000016666e+000	 4.000138002678044e-001	 1.012369558360888e+001
0	 6.666700000016665e+000	 4.666844975500010e-001	 1.012478248749835e+001
0	 6.666700000016668e+000	 5.333553781553803e-001	 1.012607621972893e+001
0	 6.666700000016667e+000	 6.000263254118248e-001	 1.012756659440569e+001
0	 6.666700000016666e+000	 6.666972226472178e-001	 1.012924343005938e+001
0	 6.733360000014533e+000	 0.000000000000000e+000	 1.011597931684687e+001
0	 6.733360000014532e+000	 6.666714722864756e-002	 1.011562003668296e+001
0	 6.733360000014533e+000	 1.333351778131789e-001	 1.011548373075465e+001
0	 6.733360000014533e+000	 2.000039750814772e-001	 1.011556536531324e+001
0	 6.733360000014531e+000	 2.666734223614255e-001	 1.011585991086527e+001
0	 6.733360000014531e+000	 3.333434029809069e-001	 1.011636234217212e+001
0	 6.733360000014531e+000	 4.000138002678044e-001	 1.011706763824976e+001
0	 6.733360000014534e+000	 4.666844975500011e-001	 1.011797078236856e+001
0	 6.733360000014532e+000	 5.333553781553803e-001	 1.011906676205321e+001
0	 6.733360000014532e+000	 6.000263254118247e-001	 1.012035056908280e+001
0	 6.733360000014532e+000	 6.666972226472175e-001	 1.012181719949098e+001
0	 6.800020000011600e+000	 0.000000000000000e+000	 1.010943047364948e+001
0	 6.800020000011600e+000	 6.666714722864754e-002	 1.010911615012253e+001
0	 6.800020000011601e+000	 1.333351778131790e-001	 1.010898564663899e+001
0	 6.800020000011600e+000	 2.000039750814772e-001	 1.010903836111269e+001
0	 6.800020000011599e+000	 2.666734223614255e-001	 1.010927369554685e+001
0	 6.800020000011599e+000	 3.333434029809069e-001	 1.010969105603361e+001
0	 6.800020000011600e+000	 4.000138002678044e-001	 1.011028985275380e+001
0	 6.800020000011601e+000	 4.666844975500012e-001	 1.011106949997677e+001
0	 6.800020000011601e+000	 5.333553781553804e-001	 1.011202941606035e+001
0	 6.800020000011600e+000	 6.000263254118249e-001	 1.011316902345084e+001
0	 6.800020000011598e+000	 6.666972226472175e-001	 1.011448774868322e+001
0	 6.866680000008066e+000	 0.000000000000000e+000	 1.010249504432879e+001
0	 6.866680000008066e+000	 6.666714722864754e-002	 1.010225315284169e+001
0	 6.866680000008065e+000	 1.333351778131790e-001	 1.010216185188396e+001
0	 6.866680000008067e+000	 2.000039750814773e-001	 1.010222422394853e+001
0	 6.866680000008067e+000	 2.666734223614256e-001	 1.010244335545709e+001
0	 6.866680000008066e+000	 3.333434029809069e-001	 1.010282233675985e+001
0	 6.866680000008066e+000	 4.000138002678044e-001	 1.010336426213518e+001
0	 6.866680000008067e+000	 4.666844975500010e-001	 1.010407222978947e+001
0	 6.866680000008068e+000	 5.333553781553801e-001	 1.010494934185714e+001
0	 6.866680000008068e+000	 6.000263254118248e-001	 1.010599870440055e+001
0	 6.866680000008065e+000	 6.666972226472177e-001	 1.010722342741030e+001
0	 6.933340000004134e+000	 0.000000000000000e+000	 1.009522607963841e+001
0	 6.933340000004134e+000	 6.666714722864757e-002	 1.009507555197744e+001
0	 6.933340000004135e+000	 1.333351778131790e-001	 1.009504832646766e+001
0	 6.933340000004134e+000	 2.000039750814772e-001	 1.009515042305217e+001
0	 6.933340000004135e+000	 2.666734223614256e-001	 1.009538786544790e+001
0	 6.933340000004135e+000	 3.333434029809069e-001	 1.009576668114530e+001
0	 6.933340000004135e+000	 4.000138002678044e-001	 1.009629290140810e+001
0	 6.933340000004134e+000	 4.666844975500011e-001	 1.009697256127315e+001
0	 6.933340000004135e+000	 5.333553781553804e-001	 1.009781169955032e+001
0	 6.933340000004135e+000	 6.000263254118247e-001	 1.009881635882263e+001
0	 6.933340000004136e+000	 6.666972226472178e-001	 1.009999258544637e+001
0	 7.000000000000002e+000	 0.000000000000000e+000	 1.008767663033199e+001
0	 7.000000000000000e+000	 6.666714722864756e-002	 1.008762785466679e+001
0	 7.000000000000001e+000	 1.333351778131789e-001	 1.008768105036815e+001
0	 7.000000000000003e+000	 2.000039750814773e-001	 1.008784442765507e+001
0	 7.000000000000002e+000	 2.666734223614256e-001	 1.008812620037117e+001
0	 7.000000000000001e+000	 3.333434029809069e-001	 1.008853458598441e+001
0	 7.000000000000003e+000	 4.000138002678044e-001	 1.008907780558678e+001
0	 7.000000000000002e+000	 4.666844975500011e-001	 1.008976408389426e+001
0	 7.000000000000003e+000	 5.333553781553801e-001	 1.009060164924667e+001
0	 7.000000000000001e+000	 6.000263254118248e-001	 1.009159873360783e+001
0	 7.000000000000001e+000	 6.666972226472177e-001	 1.009276357256559e+001
0	 7.066659999995869e+000	 0.000000000000000e+000	 1.007989974716314e+001
0	 7.066659999995870e+000	 6.666714722864757e-002	 1.007995456804676e+001
0	 7.066659999995870e+000	 1.333351778131789e-001	 1.008009600356351e+001
0	 7.066659999995871e+000	 2.000039750814773e-001	 1.008033370698867e+001
0	 7.066659999995869e+000	 2.666734223614255e-001	 1.008067733507883e+001
0	 7.066659999995869e+000	 3.333434029809068e-001	 1.008113654807161e+001
0	 7.066659999995870e+000	 4.000138002678044e-001	 1.008172100968539e+001
0	 7.066659999995869e+000	 4.666844975500011e-001	 1.008244038711928e+001
0	 7.066659999995869e+000	 5.333553781553803e-001	 1.008330435105296e+001
0	 7.066659999995870e+000	 6.000263254118247e-001	 1.008432257564684e+001
0	 7.066659999995869e+000	 6.666972226472177e-001	 1.008550473854215e+001
0	 7.133319999991937e+000	 0.000000000000000e+000	 1.007194848088551e+001
0	 7.133319999991938e+000	 6.666714722864754e-002	 1.007210019925435e+001
0	 7.133319999991937e+000	 1.333351778131790e-001	 1.007232916603180e+001
0	 7.133319999991937e+000	 2.000039750814772e-001	 1.007264573028439e+001
0	 7.133319999991936e+000	 2.666734223614257e-001	 1.007306024442277e+001
0	 7.133319999991937e+000	 3.333434029809069e-001	 1.007358306420136e+001
0	 7.133319999991937e+000	 4.000138002678044e-001	 1.007422454871816e+001
0	 7.133319999991937e+000	 4.666844975500012e-001	 1.007499506041471e+001
0	 7.133319999991937e+000	 5.333553781553801e-001	 1.007590496507594e+001
0	 7.133319999991937e+000	 6.000263254118247e-001	 1.007696463183039e+001
0	 7.133319999991937e+000	 6.666972226472178e-001	 1.007818443315020e+001
0	 7.199979999988405e+000	 0.000000000000000e+000	 1.006387588225272e+001
0	 7.199979999988403e+000	 6.666714722864756e-002	 1.006410925542657e+001
0	 7.199979999988405e+000	 1.333351778131790e-001	 1.006441651775109e+001
0	 7.199979999988403e+000	 2.000039750814772e-001	 1.006480796677370e+001
0	 7.199979999988404e+000	 2.666734223614256e-001	 1.006529390325492e+001
0	 7.199979999988404e+000	 3.333434029809069e-001	 1.006588463116812e+001
0	 7.199979999988404e+000	 4.000138002678045e-001	 1.006659045769929e+001
0	 7.199979999988404e+000	 4.666844975500012e-001	 1.006742169324701e+001
0	 7.199979999988404e+000	 5.333553781553803e-001	 1.006838865142241e+001
0	 7.199979999988405e+000	 6.000263254118248e-001	 1.006950164904921e+001
0	 7.199979999988403e+000	 6.666972226472177e-001	 1.007077100616392e+001
0	 7.266639999985471e+000	 0.000000000000000e+000	 1.005573500201843e+001
0	 7.266639999985472e+000	 6.666714722864757e-002	 1.005602624370043e+001
0	 7.266639999985472e+000	 1.333351778131790e-001	 1.005639403869947e+001
0	 7.266639999985470e+000	 2.000039750814772e-001	 1.005684788568803e+001
0	 7.266639999985472e+000	 2.666734223614256e-001	 1.005739728642719e+001
0	 7.266639999985472e+000	 3.333434029809068e-001	 1.005805174576632e+001
0	 7.266639999985471e+000	 4.000138002678044e-001	 1.005882077164296e+001
0	 7.266639999985472e+000	 4.666844975500011e-001	 1.005971387508267e+001
0	 7.266639999985471e+000	 5.333553781553803e-001	 1.006074057019911e+001
0	 7.266639999985472e+000	 6.000263254118248e-001	 1.006191037419402e+001
0	 7.266639999985470e+000	 6.666972226472175e-001	 1.006323280735747e+001
0	 7.333299999983335e+000	 0.000000000000000e+000	 1.004757889093624e+001
0	 7.333299999983334e+000	 6.666714722864756e-002	 1.004789567121296e+001
0	 7.333299999983334e+000	 1.333351778131789e-001	 1.004829770885501e+001
0	 7.333299999983335e+000	 2.000039750814772e-001	 1.004879295625883e+001
0	 7.333299999983333e+000	 2.666734223614256e-001	 1.004938936879149e+001
0	 7.333299999983336e+000	 3.333434029809069e-001	 1.005009490479044e+001
0	 7.333299999983335e+000	 4.000138002678045e-001	 1.005091752556339e+001
0	 7.333299999983333e+000	 4.666844975500011e-001	 1.005186519538818e+001
0	 7.333299999983335e+000	 5.333553781553803e-001	 1.005294588151281e+001
0	 7.333299999983335e+000	 6.000263254118248e-001	 1.005416755415556e+001
0	 7.333299999983332e+000	 6.666972226472178e-001	 1.005553818650504e+001
0	 6.666700000016666e+000	 6.666972226472178e-001	 1.012924343005938e+001
0	 6.666700000016667e+000	 7.333579753122047e-001	 1.013105676826547e+001
0	 6.666700000016665e+000	 8.000185779984416e-001	 1.013297416537045e+001
0	 6.666700000016667e+000	 8.666790473703454e-001	 1.013501092004222e+001
0	 6.666700000016666e+000	 9.333394000923321e-001	 1.013718233044772e+001
0	 6.666700000016667e+000	 9.999996528288189e-001	 1.013950369425301e+001
0	 6.666700000016666e+000	 1.066659822244222e+000	 1.014199030862322e+001
0	 6.666700000016666e+000	 1.133319925002959e+000	 1.014465747022259e+001
0	 6.666700000016666e+000	 1.199979977769445e+000	 1.014752047521450e+001
0	 6.666700000016665e+000	 1.266639997208098e+000	 1.015059461926137e+001
0	 6.666700000016665e+000	 1.333299999983334e+000	 1.015389519752479e+001
0	 6.733360000014532e+000	 6.666972226472175e-001	 1.012181719949098e+001
0	 6.733360000014534e+000	 7.333579753122049e-001	 1.012343326603150e+001
0	 6.733360000014532e+000	 8.000185779984417e-001	 1.012517813758893e+001
0	 6.733360000014532e+000	 8.666790473703452e-001	 1.012706524686492e+001
0	 6.733360000014532e+000	 9.333394000923321e-001	 1.012910802604702e+001
0	 6.733360000014531e+000	 9.999996528288191e-001	 1.013131990680871e+001
0	 6.733360000014534e+000	 1.066659822244222e+000	 1.013371432030941e+001
0	 6.733360000014533e+000	 1.133319925002959e+000	 1.013630469719446e+001
0	 6.733360000014534e+000	 1.199979977769445e+000	 1.013910446759518e+001
0	 6.733360000014533e+000	 1.266639997208098e+000	 1.014212706112877e+001
0	 6.733360000014534e+000	 1.333299999983334e+000	 1.014538590689843e+001
0	 6.800020000011598e+000	 6.666972226472175e-001	 1.011448774868322e+001
0	 6.800020000011600e+000	 7.333579753122048e-001	 1.011596240190008e+001
0	 6.800020000011600e+000	 8.000185779984418e-001	 1.011757843481065e+001
0	 6.800020000011600e+000	 8.666790473703454e-001	 1.011934760537295e+001
0	 6.800020000011602e+000	 9.333394000923323e-001	 1.012128167103433e+001
0	 6.800020000011599e+000	 9.999996528288190e-001	 1.012339238873145e+001
0	 6.800020000011600e+000	 1.066659822244222e+000	 1.012569151489035e+001
0	 6.800020000011600e+000	 1.133319925002959e+000	 1.012819080542639e+001
0	 6.800020000011600e+000	 1.199979977769445e+000	 1.013090201574429e+001
0	 6.800020000011600e+000	 1.266639997208098e+000	 1.013383690073811e+001
0	 6.800020000011600e+000	 1.333299999983334e+000	 1.013700721479125e+001
0	 6.866680000008065e+000	 6.666972226472177e-001	 1.010722342741030e+001
0	 6.866680000008068e+000	 7.333579753122048e-001	 1.010860511556330e+001
0	 6.866680000008066e+000	 8.000185779984417e-001	 1.011013054214030e+001
0	 6.866680000008067e+000	 8.666790473703454e-001	 1.011180998159486e+001
0	 6.866680000008066e+000	 9.333394000923324e-001	 1.011365370788694e+001
0	 6.866680000008068e+000	 9.999996528288190e-001	 1.011567199448285e+001
0	 6.866680000008066e+000	 1.066659822244222e+000	 1.011787511435533e+001
0	 6.866680000008066e+000	 1.133319925002958e+000	 1.012027333998347e+001
0	 6.866680000008067e+000	 1.199979977769445e+000	 1.012287694335279e+001
0	 6.866680000008067e+000	 1.266639997208098e+000	 1.012569619595518e+001
0	 6.866680000008065e+000	 1.333299999983334e+000	 1.012874136878893e+001
0	 6.933340000004136e+000	 6.666972226472178e-001	 1.009999258544637e+001
0	 6.933340000004135e+000	 7.333579753122047e-001	 1.010132234671323e+001
0	 6.933340000004135e+000	 8.000185779984417e-001	 1.010278994468256e+001
0	 6.933340000004134e+000	 8.666790473703454e-001	 1.010440436155922e+001
0	 6.933340000004134e+000	 9.333394000923324e-001	 1.010617457908218e+001
0	 6.933340000004131e+000	 9.999996528288186e-001	 1.010810957852456e+001
0	 6.933340000004134e+000	 1.066659822244222e+000	 1.011021834069364e+001
0	 6.933340000004136e+000	 1.133319925002959e+000	 1.011250984593080e+001
0	 6.933340000004134e+000	 1.199979977769445e+000	 1.011499307411161e+001
0	 6.933340000004135e+000	 1.266639997208098e+000	 1.011767700464577e+001
0	 6.933340000004135e+000	 1.333299999983334e+000	 1.012057061647714e+001
0	 7.000000000000001e+000	 6.666972226472177e-001	 1.009276357256559e+001
0	 7.000000000000003e+000	 7.333579753122048e-001	 1.009407503504194e+001
0	 7.000000000000003e+000	 8.000185779984418e-001	 1.009551212754213e+001
0	 7.000000000000002e+000	 8.666790473703454e-001	 1.009708273129457e+001
0	 7.000000000000000e+000	 9.333394000923321e-001	 1.009879472709734e+001
0	 7.000000000000003e+000	 9.999996528288190e-001	 1.010065599531820e+001
0	 7.000000000000001e+000	 1.066659822244222e+000	 1.010267441589453e+001
0	 7.000000000000000e+000	 1.133319925002959e+000	 1.010485786833346e+001
0	 7.000000000000003e+000	 1.199979977769445e+000	 1.010721423171169e+001
0	 7.000000000000002e+000	 1.266639997208098e+000	 1.010975138467568e+001
0	 7.000000000000002e+000	 1.333299999983334e+000	 1.011247720544155e+001
0	 7.066659999995869e+000	 6.666972226472177e-001	 1.008550473854215e+001
0	 7.066659999995871e+000	 7.333579753122049e-001	 1.008682412024151e+001
0	 7.066659999995869e+000	 8.000185779984417e-001	 1.008825257582367e+001
0	 7.066659999995869e+000	 8.666790473703454e-001	 1.008979707682947e+001
0	 7.066659999995870e+000	 9.333394000923322e-001	 1.009146459440974e+001
0	 7.066659999995870e+000	 9.999996528288188e-001	 1.009326209932539e+001
0	 7.066659999995870e+000	 1.066659822244222e+000	 1.009519656194733e+001
0	 7.066659999995870e+000	 1.133319925002959e+000	 1.009727495225652e+001
0	 7.066659999995870e+000	 1.199979977769445e+000	 1.009950423984396e+001
0	 7.066659999995869e+000	 1.266639997208098e+000	 1.010189139391069e+001
0	 7.066659999995870e+000	 1.333299999983334e+000	 1.010444338326784e+001
0	 7.133319999991937e+000	 6.666972226472178e-001	 1.007818443315020e+001
0	 7.133319999991937e+000	 7.333579753122049e-001	 1.007953054200403e+001
0	 7.133319999991937e+000	 8.000185779984416e-001	 1.008096677463190e+001
0	 7.133319999991935e+000	 8.666790473703451e-001	 1.008249938419248e+001
0	 7.133319999991937e+000	 9.333394000923323e-001	 1.008413462349668e+001
0	 7.133319999991937e+000	 9.999996528288189e-001	 1.008587874500777e+001
0	 7.133319999991935e+000	 1.066659822244222e+000	 1.008773800084128e+001
0	 7.133319999991937e+000	 1.133319925002959e+000	 1.008971864276508e+001
0	 7.133319999991937e+000	 1.199979977769445e+000	 1.009182692219935e+001
0	 7.133319999991936e+000	 1.266639997208098e+000	 1.009406909021661e+001
0	 7.133319999991937e+000	 1.333299999983334e+000	 1.009645139754166e+001
0	 7.199979999988403e+000	 6.666972226472177e-001	 1.007077100616392e+001
0	 7.199979999988404e+000	 7.333579753122048e-001	 1.007215524002155e+001
0	 7.199979999988403e+000	 8.000185779984418e-001	 1.007361020907149e+001
0	 7.199979999988404e+000	 8.666790473703453e-001	 1.007514163941215e+001
0	 7.199979999988403e+000	 9.333394000923321e-001	 1.007675525683547e+001
0	 7.199979999988403e+000	 9.999996528288186e-001	 1.007845678682696e+001
0	 7.199979999988403e+000	 1.066659822244222e+000	 1.008025195456568e+001
0	 7.199979999988403e+000	 1.133319925002958e+000	 1.008214648492423e+001
0	 7.199979999988404e+000	 1.199979977769445e+000	 1.008414610246883e+001
0	 7.199979999988404e+000	 1.266639997208098e+000	 1.008625653145920e+001
0	 7.199979999988404e+000	 1.333299999983334e+000	 1.008848349584867e+001
0	 7.266639999985470e+000	 6.666972226472175e-001	 1.006323280735747e+001
0	 7.266639999985471e+000	 7.333579753122049e-001	 1.006465915398616e+001
0	 7.266639999985471e+000	 8.000185779984417e-001	 1.006613836424713e+001
0	 7.266639999985471e+000	 8.666790473703456e-001	 1.006767582851704e+001
0	 7.266639999985471e+000	 9.333394000923323e-001	 1.006927693690342e+001
0	 7.266639999985471e+000	 9.999996528288189e-001	 1.007094707924460e+001
0	 7.266639999985469e+000	 1.066659822244222e+000	 1.007269164510981e+001
0	 7.266639999985471e+000	 1.133319925002958e+000	 1.007451602379908e+001
0	 7.266639999985471e+000	 1.199979977769445e+000	 1.007642560434332e+001
0	 7.266639999985470e+000	 1.266639997208098e+000	 1.007842577550427e+001
0	 7.266639999985472e+000	 1.333299999983334e+000	 1.008052192577458e+001
0	 7.333299999983332e+000	 6.666972226472178e-001	 1.005553818650504e+001
0	 7.333299999983334e+000	 7.333579753122048e-001	 1.005700322358995e+001
0	 7.333299999983334e+000	 8.000185779984417e-001	 1.005850672526350e+001
0	 7.333299999983334e+000	 8.666790473703454e-001	 1.006005393753570e+001
0	 7.333299999983335e+000	 9.333394000923323e-001	 1.006165010617781e+001
0	 7.333299999983334e+000	 9.999996528288190e-001	 1.006330047672232e+001
0	 7.333299999983335e+000	 1.066659822244222e+000	 1.006501029446295e+001
0	 7.333299999983335e+000	 1.133319925002959e+000	 1.006678480445468e+001
0	 7.333299999983333e+000	 1.199979977769445e+000	 1.006862925151374e+001
0	 7.333299999983335e+000	 1.266639997208098e+000	 1.007054888021760e+001
0	 7.333299999983335e+000	 1.333299999983334e+000	 1.007254893490502e+001
0	 6.666700000016665e+000	 1.333299999983334e+000	 1.015389519752479e+001
0	 6.666700000016666e+000	 1.399969999982150e+000	 1.015725478483461e+001
0	 6.666700000016666e+000	 1.466639999981866e+000	 1.016050046542984e+001
0	 6.666700000016667e+000	 1.533309999982383e+000	 1.016364083686615e+001
0	 6.666700000016667e+000	 1.599979999983599e+000	 1.016668449669924e+001
0	 6.666700000016665e+000	 1.666649999985416e+000	 1.016964004248477e+001
0	 6.666700000016667e+000	 1.733319999987733e+000	 1.017251607177844e+001
0	 6.666700000016665e+000	 1.799989999990449e+000	 1.017532118213592e+001
0	 6.666700000016665e+000	 1.866659999993466e+000	 1.017806397111289e+001
0	 6.666700000016666e+000	 1.933329999996683e+000	 1.018075303626504e+001
0	 6.666700000016668e+000	 2.000000000000000e+000	 1.018339697514805e+001
0	 6.733360000014534e+000	 1.333299999983334e+000	 1.014538590689844e+001
0	 6.733360000014531e+000	 1.399969999982150e+000	 1.014870183404829e+001
0	 6.733360000014534e+000	 1.466639999981867e+000	 1.015189282292252e+001
0	 6.733360000014534e+000	 1.533309999982383e+000	 1.015496955084266e+001
0	 6.733360000014534e+000	 1.599979999983600e+000	 1.015794269513027e+001
0	 6.733360000014533e+000	 1.666649999985416e+000	 1.016082293310689e+001
0	 6.733360000014533e+000	 1.733319999987733e+000	 1.016362094209408e+001
0	 6.733360000014533e+000	 1.799989999990450e+000	 1.016634739941339e+001
0	 6.733360000014532e+000	 1.866659999993466e+000	 1.016901298238637e+001
0	 6.733360000014534e+000	 1.933329999996684e+000	 1.017162836833457e+001
0	 6.733360000014532e+000	 2.000000000000000e+000	 1.017420423457953e+001
0	 6.800020000011600e+000	 1.333299999983334e+000	 1.013700721479125e+001
0	 6.800020000011600e+000	 1.399969999982150e+000	 1.014023201188168e+001
0	 6.800020000011600e+000	 1.466639999981866e+000	 1.014332973928364e+001
0	 6.800020000011601e+000	 1.533309999982383e+000	 1.014631272246610e+001
0	 6.800020000011600e+000	 1.599979999983599e+000	 1.014919328689802e+001
0	 6.800020000011599e+000	 1.666649999985416e+000	 1.015198375804841e+001
0	 6.800020000011598e+000	 1.733319999987733e+000	 1.015469646138621e+001
0	 6.800020000011601e+000	 1.799989999990450e+000	 1.015734372238043e+001
0	 6.800020000011601e+000	 1.866659999993466e+000	 1.015993786650002e+001
0	 6.800020000011599e+000	 1.933329999996683e+000	 1.016249121921397e+001
0	 6.800020000011601e+000	 2.000000000000000e+000	 1.016501610599126e+001
0	 6.866680000008065e+000	 1.333299999983334e+000	 1.012874136878893e+001
0	 6.866680000008068e+000	 1.399969999982150e+000	 1.013183799918521e+001
0	 6.866680000008068e+000	 1.466639999981866e+000	 1.013481285682660e+001
0	 6.866680000008064e+000	 1.533309999982382e+000	 1.013767948371104e+001
0	 6.866680000008065e+000	 1.599979999983599e+000	 1.014045142183650e+001
0	 6.866680000008067e+000	 1.666649999985416e+000	 1.014314221320096e+001
0	 6.866680000008066e+000	 1.733319999987733e+000	 1.014576539980236e+001
0	 6.866680000008067e+000	 1.799989999990450e+000	 1.014833452363866e+001
0	 6.866680000008068e+000	 1.866659999993466e+000	 1.015086312670783e+001
0	 6.866680000008067e+000	 1.933329999996683e+000	 1.015336475100781e+001
0	 6.866680000008066e+000	 2.000000000000000e+000	 1.015585293853659e+001
0	 6.933340000004135e+000	 1.333299999983334e+000	 1.012057061647714e+001
0	 6.933340000004133e+000	 1.399969999982150e+000	 1.012351247680928e+001
0	 6.933340000004135e+000	 1.466639999981867e+000	 1.012634381786476e+001
0	 6.933340000004135e+000	 1.533309999982383e+000	 1.012907896655206e+001
0	 6.933340000004135e+000	 1.599979999983599e+000	 1.013173224977972e+001
0	 6.933340000004134e+000	 1.666649999985416e+000	 1.013431799445620e+001
0	 6.933340000004134e+000	 1.733319999987733e+000	 1.013685052749005e+001
0	 6.933340000004133e+000	 1.799989999990449e+000	 1.013934417578974e+001
0	 6.933340000004134e+000	 1.866659999993467e+000	 1.014181326626378e+001
0	 6.933340000004135e+000	 1.933329999996683e+000	 1.014427212582067e+001
0	 6.933340000004134e+000	 2.000000000000000e+000	 1.014673508136891e+001
0	 7.000000000000002e+000	 1.333299999983334e+000	 1.011247720544155e+001
0	 7.000000000000001e+000	 1.399969999982150e+000	 1.011524812560430e+001
0	 7.000000000000000e+000	 1.466639999981866e+000	 1.011792426471150e+001
0	 7.000000000000003e+000	 1.533309999982383e+000	 1.012052030296375e+001
0	 7.000000000000002e+000	 1.599979999983599e+000	 1.012305092056166e+001
0	 7.000000000000004e+000	 1.666649999985416e+000	 1.012553079770582e+001
0	 7.000000000000002e+000	 1.733319999987733e+000	 1.012797461459684e+001
0	 7.000000000000004e+000	 1.799989999990450e+000	 1.013039705143532e+001
0	 7.000000000000002e+000	 1.866659999993466e+000	 1.013281278842186e+001
0	 7.000000000000001e+000	 1.933329999996683e+000	 1.013523650575708e+001
0	 7.000000000000003e+000	 2.000000000000000e+000	 1.013768288364156e+001
0	 7.066659999995870e+000	 1.333299999983334e+000	 1.010444338326784e+001
0	 7.066659999995870e+000	 1.399969999982150e+000	 1.010703762642067e+001
0	 7.066659999995870e+000	 1.466639999981866e+000	 1.010955583968020e+001
0	 7.066659999995869e+000	 1.533309999982383e+000	 1.011201262492066e+001
0	 7.066659999995869e+000	 1.599979999983599e+000	 1.011442258401631e+001
0	 7.066659999995869e+000	 1.666649999985416e+000	 1.011680031884142e+001
0	 7.066659999995870e+000	 1.733319999987733e+000	 1.011916043127025e+001
0	 7.066659999995869e+000	 1.799989999990450e+000	 1.012151752317706e+001
0	 7.066659999995870e+000	 1.866659999993466e+000	 1.012388619643609e+001
0	 7.066659999995869e+000	 1.933329999996683e+000	 1.012628105292162e+001
0	 7.066659999995870e+000	 2.000000000000000e+000	 1.012871669450791e+001
0	 7.133319999991937e+000	 1.333299999983334e+000	 1.009645139754166e+001
0	 7.133319999991937e+000	 1.399969999982150e+000	 1.009887366010882e+001
0	 7.133319999991937e+000	 1.466639999981866e+000	 1.010124018508423e+001
0	 7.133319999991937e+000	 1.533309999982383e+000	 1.010356506439736e+001
0	 7.133319999991936e+000	 1.599979999983599e+000	 1.010586238997768e+001
0	 7.133319999991937e+000	 1.666649999985416e+000	 1.010814625375468e+001
0	 7.133319999991937e+000	 1.733319999987733e+000	 1.011043074765783e+001
0	 7.133319999991936e+000	 1.799989999990449e+000	 1.011272996361659e+001
0	 7.133319999991937e+000	 1.866659999993467e+000	 1.011505799356045e+001
0	 7.133319999991937e+000	 1.933329999996683e+000	 1.011742892941886e+001
0	 7.133319999991936e+000	 2.000000000000000e+000	 1.011985686312131e+001
0	 7.199979999988404e+000	 1.333299999983334e+000	 1.008848349584868e+001
0	 7.199979999988403e+000	 1.399969999982150e+000	 1.009074890751913e+001
0	 7.199979999988404e+000	 1.466639999981867e+000	 1.009297894323697e+001
0	 7.199979999988404e+000	 1.533309999982383e+000	 1.009518675336843e+001
0	 7.199979999988405e+000	 1.599979999983600e+000	 1.009738548827978e+001
0	 7.199979999988403e+000	 1.666649999985416e+000	 1.009958829833726e+001
0	 7.199979999988405e+000	 1.733319999987733e+000	 1.010180833390710e+001
0	 7.199979999988403e+000	 1.799989999990449e+000	 1.010405874535556e+001
0	 7.199979999988405e+000	 1.866659999993466e+000	 1.010635268304889e+001
0	 7.199979999988404e+000	 1.933329999996683e+000	 1.010870329735332e+001
0	 7.199979999988403e+000	 2.000000000000000e+000	 1.011112373863513e+001
0	 7.266639999985472e+000	 1.333299999983334e+000	 1.008052192577458e+001
0	 7.266639999985471e+000	 1.399969999982150e+000	 1.008265604950202e+001
0	 7.266639999985469e+000	 1.466639999981866e+000	 1.008477375645179e+001
0	 7.266639999985472e+000	 1.533309999982383e+000	 1.008688682380846e+001
0	 7.266639999985470e+000	 1.599979999983599e+000	 1.008900702875660e+001
0	 7.266639999985471e+000	 1.666649999985416e+000	 1.009114614848079e+001
0	 7.266639999985470e+000	 1.733319999987733e+000	 1.009331596016560e+001
0	 7.266639999985471e+000	 1.799989999990450e+000	 1.009552824099562e+001
0	 7.266639999985470e+000	 1.866659999993466e+000	 1.009779476815544e+001
0	 7.266639999985471e+000	 1.933329999996683e+000	 1.010012731882961e+001
0	 7.266639999985471e+000	 2.000000000000000e+000	 1.010253767020272e+001
0	 7.333299999983335e+000	 1.333299999983334e+000	 1.007254893490502e+001
0	 7.333299999983334e+000	 1.399969999982150e+000	 1.007458776690791e+001
0	 7.333299999983335e+000	 1.466639999981867e+000	 1.007662626704207e+001
0	 7.333299999983334e+000	 1.533309999982383e+000	 1.007867440769199e+001
0	 7.333299999983334e+000	 1.599979999983599e+000	 1.008074216124211e+001
0	 7.333299999983334e+000	 1.666649999985416e+000	 1.008283950007691e+001
0	 7.333299999983335e+000	 1.733319999987733e+000	 1.008497639658086e+001
0	 7.333299999983335e+000	 1.799989999990450e+000	 1.008716282313842e+001
0	 7.333299999983334e+000	 1.866659999993466e+000	 1.008940875213405e+001
0	 7.333299999983335e+000	 1.933329999996683e+000	 1.009172415595224e+001
0	 7.333299999983335e+000	 2.000000000000000e+000	 1.009411900697744e+001
0	 6.666700000016668e+000	 2.000000000000000e+000	 1.018339697514805e+001
0	 6.666700000016665e+000	 2.066670000003317e+000	 1.018592706796746e+001
0	 6.666700000016665e+000	 2.133340000006534e+000	 1.018827954317965e+001
0	 6.666700000016666e+000	 2.200010000009551e+000	 1.019047042071656e+001
0	 6.666700000016668e+000	 2.266680000012268e+000	 1.019251572051012e+001
0	 6.666700000016666e+000	 2.333350000014584e+000	 1.019443146249224e+001
0	 6.666700000016667e+000	 2.400020000016400e+000	 1.019623366659484e+001
0	 6.666700000016665e+000	 2.466690000017617e+000	 1.019793835274986e+001
0	 6.666700000016667e+000	 2.533360000018134e+000	 1.019956154088922e+001
0	 6.666700000016666e+000	 2.600030000017851e+000	 1.020111925094482e+001
0	 6.666700000016667e+000	 2.666700000016667e+000	 1.020262750284859e+001
0	 6.733360000014532e+000	 2.000000000000000e+000	 1.017420423457953e+001
0	 6.733360000014533e+000	 2.066670000003317e+000	 1.017668443163556e+001
0	 6.733360000014532e+000	 2.133340000006534e+000	 1.017901316461377e+001
0	 6.733360000014533e+000	 2.200010000009550e+000	 1.018120164273086e+001
0	 6.733360000014533e+000	 2.266680000012267e+000	 1.018326107520358e+001
0	 6.733360000014531e+000	 2.333350000014584e+000	 1.018520267124864e+001
0	 6.733360000014534e+000	 2.400020000016401e+000	 1.018703764008274e+001
0	 6.733360000014533e+000	 2.466690000017618e+000	 1.018877719092262e+001
0	 6.733360000014532e+000	 2.533360000018134e+000	 1.019043253298500e+001
0	 6.733360000014532e+000	 2.600030000017851e+000	 1.019201487548658e+001
0	 6.733360000014533e+000	 2.666700000016666e+000	 1.019353542764408e+001
0	 6.800020000011601e+000	 2.000000000000000e+000	 1.016501610599126e+001
0	 6.800020000011599e+000	 2.066670000003316e+000	 1.016746426599304e+001
0	 6.800020000011601e+000	 2.133340000006534e+000	 1.016978398895153e+001
0	 6.800020000011599e+000	 2.200010000009550e+000	 1.017198242619234e+001
0	 6.800020000011599e+000	 2.266680000012266e+000	 1.017406672904107e+001
0	 6.800020000011600e+000	 2.333350000014585e+000	 1.017604404882329e+001
0	 6.800020000011601e+000	 2.400020000016400e+000	 1.017792153686459e+001
0	 6.800020000011600e+000	 2.466690000017617e+000	 1.017970634449056e+001
0	 6.800020000011601e+000	 2.533360000018134e+000	 1.018140562302678e+001
0	 6.800020000011601e+000	 2.600030000017851e+000	 1.018302652379884e+001
0	 6.800020000011599e+000	 2.666700000016666e+000	 1.018457619813233e+001
0	 6.866680000008066e+000	 2.000000000000000e+000	 1.015585293853659e+001
0	 6.866680000008067e+000	 2.066670000003316e+000	 1.015828335314609e+001
0	 6.866680000008067e+000	 2.133340000006534e+000	 1.016060519486193e+001
0	 6.866680000008067e+000	 2.200010000009550e+000	 1.016282230994264e+001
0	 6.866680000008067e+000	 2.266680000012267e+000	 1.016493854464678e+001
0	 6.866680000008067e+000	 2.333350000014585e+000	 1.016695774523286e+001
0	 6.866680000008066e+000	 2.400020000016400e+000	 1.016888375795939e+001
0	 6.866680000008067e+000	 2.466690000017617e+000	 1.017072042908493e+001
0	 6.866680000008067e+000	 2.533360000018134e+000	 1.017247160486800e+001
0	 6.866680000008067e+000	 2.600030000017850e+000	 1.017414113156711e+001
0	 6.866680000008067e+000	 2.666700000016666e+000	 1.017573285544078e+001
0	 6.933340000004134e+000	 2.000000000000000e+000	 1.014673508136891e+001
0	 6.933340000004135e+000	 2.066670000003317e+000	 1.014915847520096e+001
0	 6.933340000004133e+000	 2.133340000006534e+000	 1.015148996101395e+001
0	 6.933340000004134e+000	 2.200010000009550e+000	 1.015373083282343e+001
0	 6.933340000004136e+000	 2.266680000012268e+000	 1.015588238464493e+001
0	 6.933340000004134e+000	 2.333350000014584e+000	 1.015794591049401e+001
0	 6.933340000004134e+000	 2.400020000016401e+000	 1.015992270438620e+001
0	 6.933340000004135e+000	 2.466690000017617e+000	 1.016181406033705e+001
0	 6.933340000004135e+000	 2.533360000018134e+000	 1.016362127236209e+001
0	 6.933340000004134e+000	 2.600030000017851e+000	 1.016534563447686e+001
0	 6.933340000004134e+000	 2.666700000016666e+000	 1.016698844069689e+001
0	 7.000000000000003e+000	 2.000000000000000e+000	 1.013768288364156e+001
0	 7.000000000000002e+000	 2.066670000003317e+000	 1.014010641426387e+001
0	 7.000000000000001e+000	 2.133340000006534e+000	 1.014245146607658e+001
0	 7.000000000000003e+000	 2.200010000009551e+000	 1.014471753367632e+001
0	 7.000000000000002e+000	 2.266680000012267e+000	 1.014690411165973e+001
0	 7.000000000000000e+000	 2.333350000014584e+000	 1.014901069462343e+001
0	 7.000000000000003e+000	 2.400020000016401e+000	 1.015103677716403e+001
0	 7.000000000000002e+000	 2.466690000017617e+000	 1.015298185387818e+001
0	 7.000000000000002e+000	 2.533360000018134e+000	 1.015484541936249e+001
0	 7.000000000000002e+000	 2.600030000017851e+000	 1.015662696821358e+001
0	 7.000000000000002e+000	 2.666700000016666e+000	 1.015832599502809e+001
0	 7.066659999995870e+000	 2.000000000000000e+000	 1.012871669450791e+001
0	 7.066659999995870e+000	 2.066670000003317e+000	 1.013114395244105e+001
0	 7.066659999995869e+000	 2.133340000006534e+000	 1.013350288871881e+001
0	 7.066659999995870e+000	 2.200010000009550e+000	 1.013579195134299e+001
0	 7.066659999995871e+000	 2.266680000012267e+000	 1.013800958831538e+001
0	 7.066659999995871e+000	 2.333350000014583e+000	 1.014015424763776e+001
0	 7.066659999995870e+000	 2.400020000016401e+000	 1.014222437731190e+001
0	 7.066659999995870e+000	 2.466690000017617e+000	 1.014421842533961e+001
0	 7.066659999995870e+000	 2.533360000018134e+000	 1.014613483972264e+001
0	 7.066659999995869e+000	 2.600030000017851e+000	 1.014797206846279e+001
0	 7.066659999995871e+000	 2.666700000016666e+000	 1.014972855956184e+001
0	 7.133319999991936e+000	 2.000000000000000e+000	 1.011985686312131e+001
0	 7.133319999991937e+000	 2.066670000003317e+000	 1.012228787183871e+001
0	 7.133319999991937e+000	 2.133340000006534e+000	 1.012465740760962e+001
0	 7.133319999991936e+000	 2.200010000009551e+000	 1.012696362466509e+001
0	 7.133319999991936e+000	 2.266680000012267e+000	 1.012920467723610e+001
0	 7.133319999991937e+000	 2.333350000014584e+000	 1.013137871955367e+001
0	 7.133319999991937e+000	 2.400020000016401e+000	 1.013348390584886e+001
0	 7.133319999991936e+000	 2.466690000017617e+000	 1.013551839035260e+001
0	 7.133319999991937e+000	 2.533360000018133e+000	 1.013748032729598e+001
0	 7.133319999991937e+000	 2.600030000017850e+000	 1.013936787090997e+001
0	 7.133319999991937e+000	 2.666700000016667e+000	 1.014117917542558e+001
0	 7.199979999988403e+000	 2.000000000000000e+000	 1.011112373863513e+001
0	 7.199979999988404e+000	 2.066670000003317e+000	 1.011355495456308e+001
0	 7.199979999988404e+000	 2.133340000006534e+000	 1.011592820141801e+001
0	 7.199979999988404e+000	 2.200010000009550e+000	 1.011824209248424e+001
0	 7.199979999988404e+000	 2.266680000012267e+000	 1.012049524104609e+001
0	 7.199979999988405e+000	 2.333350000014585e+000	 1.012268626038787e+001
0	 7.199979999988405e+000	 2.400020000016401e+000	 1.012481376379389e+001
0	 7.199979999988404e+000	 2.466690000017618e+000	 1.012687636454849e+001
0	 7.199979999988403e+000	 2.533360000018134e+000	 1.012887267593596e+001
0	 7.199979999988405e+000	 2.600030000017851e+000	 1.013080131124061e+001
0	 7.199979999988404e+000	 2.666700000016666e+000	 1.013266088374676e+001
0	 7.266639999985471e+000	 2.000000000000000e+000	 1.010253767020272e+001
0	 7.266639999985470e+000	 2.066670000003317e+000	 1.010496198272039e+001
0	 7.266639999985471e+000	 2.133340000006534e+000	 1.010732844881296e+001
0	 7.266639999985472e+000	 2.200010000009550e+000	 1.010963689364211e+001
0	 7.266639999985470e+000	 2.266680000012267e+000	 1.011188714236956e+001
0	 7.266639999985471e+000	 2.333350000014583e+000	 1.011407902015698e+001
0	 7.266639999985471e+000	 2.400020000016401e+000	 1.011621235216608e+001
0	 7.266639999985471e+000	 2.466690000017617e+000	 1.011828696355852e+001
0	 7.266639999985473e+000	 2.533360000018134e+000	 1.012030267949601e+001
0	 7.266639999985472e+000	 2.600030000017851e+000	 1.012225932514022e+001
0	 7.266639999985470e+000	 2.666700000016666e+000	 1.012415672565286e+001
0	 7.333299999983335e+000	 2.000000000000000e+000	 1.009411900697744e+001
0	 7.333299999983334e+000	 2.066670000003317e+000	 1.009652573841685e+001
0	 7.333299999983335e+000	 2.133340000006534e+000	 1.009887132846344e+001
0	 7.333299999983334e+000	 2.200010000009550e+000	 1.010115756698035e+001
0	 7.333299999983333e+000	 2.266680000012267e+000	 1.010338624383074e+001
0	 7.333299999983335e+000	 2.333350000014584e+000	 1.010555914887771e+001
0	 7.333299999983335e+000	 2.400020000016401e+000	 1.010767807198442e+001
0	 7.333299999983333e+000	 2.466690000017616e+000	 1.010974480301400e+001
0	 7.333299999983334e+000	 2.533360000018134e+000	 1.011176113182958e+001
0	 7.333299999983335e+000	 2.600030000017851e+000	 1.011372884829431e+001
0	 7.333299999983335e+000	 2.666700000016666e+000	 1.011564974227132e+001
0	 6.666700000016667e+000	 2.666700000016667e+000	 1.020262750284859e+001
0	 6.666700000016668e+000	 2.733360000014533e+000	 1.020405778410408e+001
0	 6.666700000016665e+000	 2.800020000011599e+000	 1.020537054578918e+001
0	 6.666700000016666e+000	 2.866680000008067e+000	 1.020656458324268e+001
0	 6.666700000016667e+000	 2.933340000004133e+000	 1.020763869180326e+001
0	 6.666700000016666e+000	 3.000000000000000e+000	 1.020859166680971e+001
0	 6.666700000016667e+000	 3.066659999995868e+000	 1.020942230360074e+001
0	 6.666700000016665e+000	 3.133319999991933e+000	 1.021012939751513e+001
0	 6.666700000016665e+000	 3.199979999988401e+000	 1.021071174389164e+001
0	 6.666700000016668e+000	 3.266639999985468e+000	 1.021116813806902e+001
0	 6.666700000016665e+000	 3.333299999983333e+000	 1.021149737538604e+001
0	 6.733360000014533e+000	 2.666700000016666e+000	 1.019353542764408e+001
0	 6.733360000014532e+000	 2.733360000014533e+000	 1.019496974438663e+001
0	 6.733360000014534e+000	 2.800020000011600e+000	 1.019628731447349e+001
0	 6.733360000014534e+000	 2.866680000008067e+000	 1.019748957587310e+001
0	 6.733360000014532e+000	 2.933340000004133e+000	 1.019857796655396e+001
0	 6.733360000014532e+000	 3.000000000000000e+000	 1.019955392448449e+001
0	 6.733360000014531e+000	 3.066659999995867e+000	 1.020041888763321e+001
0	 6.733360000014533e+000	 3.133319999991935e+000	 1.020117429396857e+001
0	 6.733360000014533e+000	 3.199979999988400e+000	 1.020182158145905e+001
0	 6.733360000014532e+000	 3.266639999985468e+000	 1.020236218807315e+001
0	 6.733360000014533e+000	 3.333299999983333e+000	 1.020279755177935e+001
0	 6.800020000011599e+000	 2.666700000016666e+000	 1.018457619813234e+001
0	 6.800020000011598e+000	 2.733360000014533e+000	 1.018603193942762e+001
0	 6.800020000011598e+000	 2.800020000011599e+000	 1.018736915613339e+001
0	 6.800020000011601e+000	 2.866680000008066e+000	 1.018859148978151e+001
0	 6.800020000011600e+000	 2.933340000004135e+000	 1.018970258190391e+001
0	 6.800020000011600e+000	 3.000000000000000e+000	 1.019070607403249e+001
0	 6.800020000011600e+000	 3.066659999995867e+000	 1.019160560769918e+001
0	 6.800020000011600e+000	 3.133319999991933e+000	 1.019240482443587e+001
0	 6.800020000011600e+000	 3.199979999988401e+000	 1.019310736577452e+001
0	 6.800020000011597e+000	 3.266639999985466e+000	 1.019371687324702e+001
0	 6.800020000011600e+000	 3.333299999983334e+000	 1.019423698838532e+001
0	 6.866680000008067e+000	 2.666700000016666e+000	 1.017573285544078e+001
0	 6.866680000008068e+000	 2.733360000014533e+000	 1.017722391161544e+001
0	 6.866680000008068e+000	 2.800020000011600e+000	 1.017859294127257e+001
0	 6.866680000008065e+000	 2.866680000008066e+000	 1.017984535044122e+001
0	 6.866680000008068e+000	 2.933340000004134e+000	 1.018098654515046e+001
0	 6.866680000008066e+000	 3.000000000000000e+000	 1.018202193142936e+001
0	 6.866680000008067e+000	 3.066659999995867e+000	 1.018295691530700e+001
0	 6.866680000008068e+000	 3.133319999991934e+000	 1.018379690281245e+001
0	 6.866680000008067e+000	 3.199979999988401e+000	 1.018454729997480e+001
0	 6.866680000008069e+000	 3.266639999985468e+000	 1.018521351282311e+001
0	 6.866680000008067e+000	 3.333299999983333e+000	 1.018580094738651e+001
0	 6.933340000004134e+000	 2.666700000016666e+000	 1.016698844069689e+001
0	 6.933340000004135e+000	 2.733360000014533e+000	 1.016852520333849e+001
0	 6.933340000004135e+000	 2.800020000011600e+000	 1.016993554039474e+001
0	 6.933340000004134e+000	 2.866680000008067e+000	 1.017122618332558e+001
0	 6.933340000004133e+000	 2.933340000004133e+000	 1.017240386359095e+001
0	 6.933340000004134e+000	 3.000000000000000e+000	 1.017347531265081e+001
0	 6.933340000004135e+000	 3.066659999995867e+000	 1.017444726196506e+001
0	 6.933340000004134e+000	 3.133319999991934e+000	 1.017532644299370e+001
0	 6.933340000004135e+000	 3.199979999988400e+000	 1.017611958719667e+001
0	 6.933340000004135e+000	 3.266639999985468e+000	 1.017683342603393e+001
0	 6.933340000004135e+000	 3.333299999983334e+000	 1.017747469096543e+001
0	 7.000000000000002e+000	 2.666700000016666e+000	 1.015832599502809e+001
0	 7.000000000000003e+000	 2.733360000014534e+000	 1.015991535698518e+001
0	 7.000000000000002e+000	 2.800020000011599e+000	 1.016137382400362e+001
0	 7.000000000000000e+000	 2.866680000008066e+000	 1.016270901390798e+001
0	 7.000000000000002e+000	 2.933340000004133e+000	 1.016392854452275e+001
0	 7.000000000000003e+000	 3.000000000000000e+000	 1.016504003367249e+001
0	 7.000000000000002e+000	 3.066659999995866e+000	 1.016605109918173e+001
0	 7.000000000000001e+000	 3.133319999991934e+000	 1.016696935887503e+001
0	 7.000000000000003e+000	 3.199979999988400e+000	 1.016780243057691e+001
0	 7.000000000000001e+000	 3.266639999985467e+000	 1.016855793211194e+001
0	 7.000000000000003e+000	 3.333299999983334e+000	 1.016924348130468e+001
0	 7.066659999995871e+000	 2.666700000016666e+000	 1.014972855956184e+001
0	 7.066659999995871e+000	 2.733360000014533e+000	 1.015137391494391e+001
0	 7.066659999995870e+000	 2.800020000011600e+000	 1.015288466260293e+001
0	 7.066659999995869e+000	 2.866680000008066e+000	 1.015426886766175e+001
0	 7.066659999995870e+000	 2.933340000004133e+000	 1.015553459524320e+001
0	 7.066659999995869e+000	 3.000000000000000e+000	 1.015668991047013e+001
0	 7.066659999995869e+000	 3.066659999995866e+000	 1.015774287846538e+001
0	 7.066659999995870e+000	 3.133319999991933e+000	 1.015870156435181e+001
0	 7.066659999995870e+000	 3.199979999988400e+000	 1.015957403325228e+001
0	 7.066659999995870e+000	 3.266639999985467e+000	 1.016036835028964e+001
0	 7.066659999995870e+000	 3.333299999983334e+000	 1.016109258058677e+001
0	 7.133319999991937e+000	 2.666700000016667e+000	 1.014117917542558e+001
0	 7.133319999991937e+000	 2.733360000014533e+000	 1.014288041960310e+001
0	 7.133319999991937e+000	 2.800020000011599e+000	 1.014444492669638e+001
0	 7.133319999991936e+000	 2.866680000008067e+000	 1.014588077006027e+001
0	 7.133319999991936e+000	 2.933340000004133e+000	 1.014719602304965e+001
0	 7.133319999991936e+000	 3.000000000000000e+000	 1.014839875901940e+001
0	 7.133319999991937e+000	 3.066659999995867e+000	 1.014949705132438e+001
0	 7.133319999991937e+000	 3.133319999991934e+000	 1.015049897331948e+001
0	 7.133319999991937e+000	 3.199979999988400e+000	 1.015141259835956e+001
0	 7.133319999991935e+000	 3.266639999985468e+000	 1.015224599979954e+001
0	 7.133319999991937e+000	 3.333299999983333e+000	 1.015300725099428e+001
0	 7.199979999988404e+000	 2.666700000016666e+000	 1.013266088374676e+001
0	 7.199979999988404e+000	 2.733360000014533e+000	 1.013441441335115e+001
0	 7.199979999988403e+000	 2.800020000011599e+000	 1.013603148678766e+001
0	 7.199979999988404e+000	 2.866680000008067e+000	 1.013751974657690e+001
0	 7.199979999988402e+000	 2.933340000004133e+000	 1.013888683523948e+001
0	 7.199979999988404e+000	 3.000000000000000e+000	 1.014014039529602e+001
0	 7.199979999988406e+000	 3.066659999995867e+000	 1.014128806926713e+001
0	 7.199979999988406e+000	 3.133319999991933e+000	 1.014233749967342e+001
0	 7.199979999988405e+000	 3.199979999988401e+000	 1.014329632903555e+001
0	 7.199979999988403e+000	 3.266639999985467e+000	 1.014417219987411e+001
0	 7.199979999988403e+000	 3.333299999983333e+000	 1.014497275470976e+001
0	 7.266639999985470e+000	 2.666700000016666e+000	 1.012415672565286e+001
0	 7.266639999985471e+000	 2.733360000014533e+000	 1.012595543857649e+001
0	 7.266639999985471e+000	 2.800020000011600e+000	 1.012762121338052e+001
0	 7.266639999985470e+000	 2.866680000008067e+000	 1.012916082268502e+001
0	 7.266639999985473e+000	 2.933340000004134e+000	 1.013058103911004e+001
0	 7.266639999985472e+000	 3.000000000000000e+000	 1.013188863527567e+001
0	 7.266639999985471e+000	 3.066659999995866e+000	 1.013309038380198e+001
0	 7.266639999985470e+000	 3.133319999991934e+000	 1.013419305730905e+001
0	 7.266639999985471e+000	 3.199979999988400e+000	 1.013520342841699e+001
0	 7.266639999985470e+000	 3.266639999985468e+000	 1.013612826974586e+001
0	 7.266639999985472e+000	 3.333299999983335e+000	 1.013697435391575e+001
0	 7.333299999983335e+000	 2.666700000016666e+000	 1.011564974227132e+001
0	 7.333299999983334e+000	 2.733360000014533e+000	 1.011748303766754e+001
0	 7.333299999983333e+000	 2.800020000011599e+000	 1.011919097697867e+001
0	 7.333299999983333e+000	 2.866680000008067e+000	 1.012077902385798e+001
0	 7.333299999983334e+000	 2.933340000004133e+000	 1.012225264195869e+001
0	 7.333299999983333e+000	 2.999999999999999e+000	 1.012361729493406e+001
0	 7.333299999983335e+000	 3.066659999995867e+000	 1.012487844643733e+001
0	 7.333299999983335e+000	 3.133319999991934e+000	 1.012604156012179e+001
0	 7.333299999983334e+000	 3.199979999988400e+000	 1.012711209964069e+001
0	 7.333299999983334e+000	 3.266639999985468e+000	 1.012809552864728e+001
0	 7.333299999983335e+000	 3.333299999983335e+000	 1.012899731079484e+001
0	 6.666700000016665e+000	 3.333299999983333e+000	 1.021149737538604e+001
0	 6.666700000016666e+000	 3.399969999982149e+000	 1.021168412451464e+001
0	 6.666700000016666e+000	 3.466639999981866e+000	 1.021171356153684e+001
0	 6.666700000016665e+000	 3.533309999982383e+000	 1.021158536228435e+001
0	 6.666700000016665e+000	 3.599979999983599e+000	 1.021129920258881e+001
0	 6.666700000016665e+000	 3.666649999985415e+000	 1.021085475828191e+001
0	 6.666700000016666e+000	 3.733319999987733e+000	 1.021025170519532e+001
0	 6.666700000016665e+000	 3.799989999990449e+000	 1.020948971916072e+001
0	 6.666700000016668e+000	 3.866659999993467e+000	 1.020856847600977e+001
0	 6.666700000016665e+000	 3.933329999996683e+000	 1.020748765157412e+001
0	 6.666700000016667e+000	 4.000000000000001e+000	 1.020624692168543e+001
0	 6.733360000014533e+000	 3.333299999983333e+000	 1.020279755177935e+001
0	 6.733360000014531e+000	 3.399969999982150e+000	 1.020310243472336e+001
0	 6.733360000014534e+000	 3.466639999981868e+000	 1.020325031132533e+001
0	 6.733360000014531e+000	 3.533309999982382e+000	 1.020324086043242e+001
0	 6.733360000014532e+000	 3.599979999983600e+000	 1.020307376089176e+001
0	 6.733360000014532e+000	 3.666649999985416e+000	 1.020274869155049e+001
0	 6.733360000014533e+000	 3.733319999987733e+000	 1.020226533125575e+001
0	 6.733360000014533e+000	 3.799989999990450e+000	 1.020162335885468e+001
0	 6.733360000014533e+000	 3.866659999993467e+000	 1.020082245319439e+001
0	 6.733360000014529e+000	 3.933329999996683e+000	 1.019986229312203e+001
0	 6.733360000014530e+000	 4.000000000000000e+000	 1.019874255748473e+001
0	 6.800020000011600e+000	 3.333299999983334e+000	 1.019423698838532e+001
0	 6.800020000011599e+000	 3.399969999982150e+000	 1.019463665836658e+001
0	 6.800020000011600e+000	 3.466639999981867e+000	 1.019488205437933e+001
0	 6.800020000011601e+000	 3.533309999982383e+000	 1.019497286847875e+001
0	 6.800020000011600e+000	 3.599979999983600e+000	 1.019490879272003e+001
0	 6.800020000011599e+000	 3.666649999985417e+000	 1.019468951915836e+001
0	 6.800020000011599e+000	 3.733319999987733e+000	 1.019431473984893e+001
0	 6.800020000011601e+000	 3.799989999990451e+000	 1.019378414684690e+001
0	 6.800020000011601e+000	 3.866659999993467e+000	 1.019309743220748e+001
0	 6.800020000011601e+000	 3.933329999996684e+000	 1.019225428798583e+001
0	 6.800020000011598e+000	 4.000000000000000e+000	 1.019125440623711e+001
0	 6.866680000008067e+000	 3.333299999983333e+000	 1.018580094738650e+001
0	 6.866680000008066e+000	 3.399969999982150e+000	 1.018627618177916e+001
0	 6.866680000008067e+000	 3.466639999981866e+000	 1.018660183542906e+001
0	 6.866680000008064e+000	 3.533309999982382e+000	 1.018677762379200e+001
0	 6.866680000008065e+000	 3.599979999983599e+000	 1.018680326232384e+001
0	 6.866680000008068e+000	 3.666649999985417e+000	 1.018667846648036e+001
0	 6.866680000008068e+000	 3.733319999987733e+000	 1.018640295171738e+001
0	 6.866680000008066e+000	 3.799989999990449e+000	 1.018597643349073e+001
0	 6.866680000008067e+000	 3.866659999993467e+000	 1.018539862725619e+001
0	 6.866680000008067e+000	 3.933329999996684e+000	 1.018466924846957e+001
0	 6.866680000008067e+000	 4.000000000000000e+000	 1.018378801258669e+001
0	 6.933340000004135e+000	 3.333299999983334e+000	 1.017747469096543e+001
0	 6.933340000004134e+000	 3.399969999982150e+000	 1.017801039129592e+001
0	 6.933340000004135e+000	 3.466639999981867e+000	 1.017840269920471e+001
0	 6.933340000004136e+000	 3.533309999982383e+000	 1.017865136374087e+001
0	 6.933340000004135e+000	 3.599979999983600e+000	 1.017875613395339e+001
0	 6.933340000004135e+000	 3.666649999985416e+000	 1.017871675889131e+001
0	 6.933340000004134e+000	 3.733319999987733e+000	 1.017853298760365e+001
0	 6.933340000004134e+000	 3.799989999990449e+000	 1.017820456913944e+001
0	 6.933340000004135e+000	 3.866659999993467e+000	 1.017773125254767e+001
0	 6.933340000004134e+000	 3.933329999996683e+000	 1.017711278687738e+001
0	 6.933340000004133e+000	 4.000000000000000e+000	 1.017634892117756e+001
0	 7.000000000000003e+000	 3.333299999983334e+000	 1.016924348130467e+001
0	 7.000000000000002e+000	 3.399969999982150e+000	 1.016982867325170e+001
0	 7.000000000000001e+000	 3.466639999981866e+000	 1.017027769043655e+001
0	 7.000000000000001e+000	 3.533309999982382e+000	 1.017059032569401e+001
0	 7.000000000000003e+000	 3.599979999983601e+000	 1.017076637185890e+001
0	 7.000000000000000e+000	 3.666649999985416e+000	 1.017080562176605e+001
0	 7.000000000000001e+000	 3.733319999987733e+000	 1.017070786825025e+001
0	 7.000000000000001e+000	 3.799989999990450e+000	 1.017047290414633e+001
0	 7.000000000000002e+000	 3.866659999993466e+000	 1.017010052228908e+001
0	 7.000000000000003e+000	 3.933329999996684e+000	 1.016959051551332e+001
0	 7.000000000000001e+000	 4.000000000000000e+000	 1.016894267665385e+001
0	 7.066659999995870e+000	 3.333299999983334e+000	 1.016109258058677e+001
0	 7.066659999995869e+000	 3.399969999982150e+000	 1.016172041398138e+001
0	 7.066659999995869e+000	 3.466639999981866e+000	 1.016221985385477e+001
0	 7.066659999995870e+000	 3.533309999982383e+000	 1.016259074702010e+001
0	 7.066659999995867e+000	 3.599979999983599e+000	 1.016283294029058e+001
0	 7.066659999995870e+000	 3.666649999985417e+000	 1.016294628047939e+001
0	 7.066659999995868e+000	 3.733319999987732e+000	 1.016293061439970e+001
0	 7.066659999995868e+000	 3.799989999990450e+000	 1.016278578886471e+001
0	 7.066659999995869e+000	 3.866659999993466e+000	 1.016251165068759e+001
0	 7.066659999995870e+000	 3.933329999996685e+000	 1.016210804668151e+001
0	 7.066659999995869e+000	 4.000000000000000e+000	 1.016157482365965e+001
0	 7.133319999991937e+000	 3.333299999983333e+000	 1.015300725099428e+001
0	 7.133319999991937e+000	 3.399969999982150e+000	 1.015367499981979e+001
0	 7.133319999991937e+000	 3.466639999981867e+000	 1.015422223418960e+001
0	 7.133319999991935e+000	 3.533309999982383e+000	 1.015464886508783e+001
0	 7.133319999991937e+000	 3.599979999983600e+000	 1.015495480349866e+001
0	 7.133319999991936e+000	 3.666649999985417e+000	 1.015513996040617e+001
0	 7.133319999991936e+000	 3.733319999987733e+000	 1.015520424679455e+001
0	 7.133319999991937e+000	 3.799989999990450e+000	 1.015514757364789e+001
0	 7.133319999991937e+000	 3.866659999993467e+000	 1.015496985195034e+001
0	 7.133319999991937e+000	 3.933329999996684e+000	 1.015467099268604e+001
0	 7.133319999991937e+000	 4.000000000000000e+000	 1.015425090683910e+001
0	 7.199979999988403e+000	 3.333299999983333e+000	 1.014497275470976e+001
0	 7.199979999988402e+000	 3.399969999982149e+000	 1.014568181710178e+001
0	 7.199979999988406e+000	 3.466639999981867e+000	 1.014627787617127e+001
0	 7.199979999988402e+000	 3.533309999982383e+000	 1.014676091726590e+001
0	 7.199979999988403e+000	 3.599979999983599e+000	 1.014713092573333e+001
0	 7.199979999988404e+000	 3.666649999985416e+000	 1.014738788692124e+001
0	 7.199979999988404e+000	 3.733319999987733e+000	 1.014753178617730e+001
0	 7.199979999988401e+000	 3.799989999990448e+000	 1.014756260884916e+001
0	 7.199979999988404e+000	 3.866659999993466e+000	 1.014748034028452e+001
0	 7.199979999988405e+000	 3.933329999996684e+000	 1.014728496583100e+001
0	 7.199979999988402e+000	 4.000000000000000e+000	 1.014697647083629e+001
0	 7.266639999985472e+000	 3.333299999983335e+000	 1.013697435391575e+001
0	 7.266639999985469e+000	 3.399969999982150e+000	 1.013773025216221e+001
0	 7.266639999985470e+000	 3.466639999981866e+000	 1.013837982453002e+001
0	 7.266639999985471e+000	 3.533309999982383e+000	 1.013892314092296e+001
0	 7.266639999985471e+000	 3.599979999983601e+000	 1.013936027124484e+001
0	 7.266639999985471e+000	 3.666649999985415e+000	 1.013969128539941e+001
0	 7.266639999985471e+000	 3.733319999987733e+000	 1.013991625329049e+001
0	 7.266639999985472e+000	 3.799989999990451e+000	 1.014003524482184e+001
0	 7.266639999985470e+000	 3.866659999993466e+000	 1.014004832989725e+001
0	 7.266639999985471e+000	 3.933329999996683e+000	 1.013995557842051e+001
0	 7.266639999985472e+000	 4.000000000000001e+000	 1.013975706029537e+001
0	 7.333299999983335e+000	 3.333299999983335e+000	 1.012899731079484e+001
0	 7.333299999983333e+000	 3.399969999982149e+000	 1.012980969133592e+001
0	 7.333299999983333e+000	 3.466639999981866e+000	 1.013052112399605e+001
0	 7.333299999983333e+000	 3.533309999982382e+000	 1.013113177342772e+001
0	 7.333299999983335e+000	 3.599979999983599e+000	 1.013164180428338e+001
0	 7.333299999983335e+000	 3.666649999985416e+000	 1.013205138121553e+001
0	 7.333299999983335e+000	 3.733319999987733e+000	 1.013236066887666e+001
0	 7.333299999983334e+000	 3.799989999990450e+000	 1.013256983191924e+001
0	 7.333299999983336e+000	 3.866659999993467e+000	 1.013267903499573e+001
0	 7.333299999983332e+000	 3.933329999996682e+000	 1.013268844275864e+001
0	 7.333299999983335e+000	 4.000000000000001e+000	 1.013259821986041e+001
0	 6.666700000016667e+000	 4.000000000000001e+000	 1.020624692168543e+001
0	 6.666700000016666e+000	 4.066670000003316e+000	 1.020487883851845e+001
0	 6.666700000016667e+000	 4.133340000006536e+000	 1.020341454820034e+001
0	 6.666700000016667e+000	 4.200010000009551e+000	 1.020185161749136e+001
0	 6.666700000016667e+000	 4.266680000012268e+000	 1.020018761315186e+001
0	 6.666700000016665e+000	 4.333350000014583e+000	 1.019842010194205e+001
0	 6.666700000016665e+000	 4.400020000016400e+000	 1.019654665062226e+001
0	 6.666700000016667e+000	 4.466690000017618e+000	 1.019456482595275e+001
0	 6.666700000016667e+000	 4.533360000018134e+000	 1.019247219469379e+001
0	 6.666700000016666e+000	 4.600030000017851e+000	 1.019026632360568e+001
0	 6.666700000016667e+000	 4.666700000016667e+000	 1.018794477944867e+001
0	 6.733360000014530e+000	 4.000000000000000e+000	 1.019874255748473e+001
0	 6.733360000014534e+000	 4.066670000003317e+000	 1.019749810059671e+001
0	 6.733360000014532e+000	 4.133340000006534e+000	 1.019616207483458e+001
0	 6.733360000014532e+000	 4.200010000009551e+000	 1.019473160613899e+001
0	 6.733360000014534e+000	 4.266680000012269e+000	 1.019320382045062e+001
0	 6.733360000014532e+000	 4.333350000014584e+000	 1.019157584371014e+001
0	 6.733360000014534e+000	 4.400020000016402e+000	 1.018984480185818e+001
0	 6.733360000014533e+000	 4.466690000017618e+000	 1.018800782083543e+001
0	 6.733360000014533e+000	 4.533360000018133e+000	 1.018606202658252e+001
0	 6.733360000014532e+000	 4.600030000017851e+000	 1.018400454504013e+001
0	 6.733360000014534e+000	 4.666700000016666e+000	 1.018183250214888e+001
0	 6.800020000011598e+000	 4.000000000000000e+000	 1.019125440623711e+001
0	 6.800020000011600e+000	 4.066670000003316e+000	 1.019013332467792e+001
0	 6.800020000011599e+000	 4.133340000006532e+000	 1.018892464452934e+001
0	 6.800020000011601e+000	 4.200010000009550e+000	 1.018762515310332e+001
0	 6.800020000011601e+000	 4.266680000012267e+000	 1.018623163771182e+001
0	 6.800020000011600e+000	 4.333350000014584e+000	 1.018474088566680e+001
0	 6.800020000011601e+000	 4.400020000016401e+000	 1.018314968428019e+001
0	 6.800020000011601e+000	 4.466690000017618e+000	 1.018145482086394e+001
0	 6.800020000011600e+000	 4.533360000018133e+000	 1.017965308272999e+001
0	 6.800020000011598e+000	 4.600030000017850e+000	 1.017774125719029e+001
0	 6.800020000011601e+000	 4.666700000016666e+000	 1.017571613155678e+001
0	 6.866680000008067e+000	 4.000000000000000e+000	 1.018378801258669e+001
0	 6.866680000008068e+000	 4.066670000003318e+000	 1.018278976411035e+001
0	 6.866680000008065e+000	 4.133340000006533e+000	 1.018170723782230e+001
0	 6.866680000008065e+000	 4.200010000009550e+000	 1.018053698459667e+001
0	 6.866680000008067e+000	 4.266680000012268e+000	 1.017927555530761e+001
0	 6.866680000008066e+000	 4.333350000014585e+000	 1.017791950082928e+001
0	 6.866680000008067e+000	 4.400020000016401e+000	 1.017646537203580e+001
0	 6.866680000008065e+000	 4.466690000017615e+000	 1.017490971980133e+001
0	 6.866680000008066e+000	 4.533360000018134e+000	 1.017324909500000e+001
0	 6.866680000008069e+000	 4.600030000017852e+000	 1.017148004850595e+001
0	 6.866680000008066e+000	 4.666700000016666e+000	 1.016959913119331e+001
0	 6.933340000004133e+000	 4.000000000000000e+000	 1.017634892117756e+001
0	 6.933340000004135e+000	 4.066670000003316e+000	 1.017547267224228e+001
0	 6.933340000004135e+000	 4.133340000006534e+000	 1.017451483525113e+001
0	 6.933340000004133e+000	 4.200010000009550e+000	 1.017347182683133e+001
0	 6.933340000004136e+000	 4.266680000012268e+000	 1.017234006361012e+001
0	 6.933340000004135e+000	 4.333350000014584e+000	 1.017111596221478e+001
0	 6.933340000004136e+000	 4.400020000016401e+000	 1.016979593927255e+001
0	 6.933340000004135e+000	 4.466690000017618e+000	 1.016837641141065e+001
0	 6.933340000004135e+000	 4.533360000018134e+000	 1.016685379525634e+001
0	 6.933340000004133e+000	 4.600030000017850e+000	 1.016522450743686e+001
0	 6.933340000004136e+000	 4.666700000016667e+000	 1.016348496457945e+001
0	 7.000000000000001e+000	 4.000000000000000e+000	 1.016894267665385e+001
0	 7.000000000000003e+000	 4.066670000003317e+000	 1.016818730242202e+001
0	 7.000000000000000e+000	 4.133340000006533e+000	 1.016735241735351e+001
0	 7.000000000000001e+000	 4.200010000009551e+000	 1.016643440601959e+001
0	 7.000000000000002e+000	 4.266680000012267e+000	 1.016542965299150e+001
0	 7.000000000000001e+000	 4.333350000014583e+000	 1.016433454284053e+001
0	 7.000000000000004e+000	 4.400020000016402e+000	 1.016314546013791e+001
0	 7.000000000000003e+000	 4.466690000017617e+000	 1.016185878945492e+001
0	 7.000000000000001e+000	 4.533360000018133e+000	 1.016047091536279e+001
0	 7.000000000000001e+000	 4.600030000017851e+000	 1.015897822243280e+001
0	 7.000000000000001e+000	 4.666700000016665e+000	 1.015737709523616e+001
0	 7.066659999995869e+000	 4.000000000000000e+000	 1.016157482365965e+001
0	 7.066659999995870e+000	 4.066670000003318e+000	 1.016093890799782e+001
0	 7.066659999995870e+000	 4.133340000006536e+000	 1.016022496466711e+001
0	 7.066659999995870e+000	 4.200010000009551e+000	 1.015942944837375e+001
0	 7.066659999995870e+000	 4.266680000012267e+000	 1.015854881382390e+001
0	 7.066659999995870e+000	 4.333350000014582e+000	 1.015757951572374e+001
0	 7.066659999995871e+000	 4.400020000016401e+000	 1.015651800877944e+001
0	 7.066659999995868e+000	 4.466690000017617e+000	 1.015536074769719e+001
0	 7.066659999995869e+000	 4.533360000018133e+000	 1.015410418718315e+001
0	 7.066659999995869e+000	 4.600030000017850e+000	 1.015274478194351e+001
0	 7.066659999995868e+000	 4.666700000016665e+000	 1.015127898668441e+001
0	 7.133319999991937e+000	 4.000000000000000e+000	 1.015425090683910e+001
0	 7.133319999991937e+000	 4.066670000003317e+000	 1.015373274231796e+001
0	 7.133319999991935e+000	 4.133340000006533e+000	 1.015313745772963e+001
0	 7.133319999991937e+000	 4.200010000009550e+000	 1.015246168010613e+001
0	 7.133319999991936e+000	 4.266680000012267e+000	 1.015170203647946e+001
0	 7.133319999991936e+000	 4.333350000014584e+000	 1.015085515388162e+001
0	 7.133319999991937e+000	 4.400020000016400e+000	 1.014991765934464e+001
0	 7.133319999991937e+000	 4.466690000017618e+000	 1.014888617990050e+001
0	 7.133319999991936e+000	 4.533360000018132e+000	 1.014775734258120e+001
0	 7.133319999991937e+000	 4.600030000017851e+000	 1.014652777441876e+001
0	 7.133319999991937e+000	 4.666700000016667e+000	 1.014519410244515e+001
0	 7.199979999988402e+000	 4.000000000000000e+000	 1.014697647083629e+001
0	 7.199979999988405e+000	 4.066670000003319e+000	 1.014657405873074e+001
0	 7.199979999988404e+000	 4.133340000006535e+000	 1.014609487707872e+001
0	 7.199979999988403e+000	 4.200010000009551e+000	 1.014553582742900e+001
0	 7.199979999988405e+000	 4.266680000012268e+000	 1.014489381133032e+001
0	 7.199979999988403e+000	 4.333350000014583e+000	 1.014416573033141e+001
0	 7.199979999988403e+000	 4.400020000016400e+000	 1.014334848598102e+001
0	 7.199979999988401e+000	 4.466690000017618e+000	 1.014243897982788e+001
0	 7.199979999988402e+000	 4.533360000018133e+000	 1.014143411342074e+001
0	 7.199979999988404e+000	 4.600030000017850e+000	 1.014033078830832e+001
0	 7.199979999988404e+000	 4.666700000016666e+000	 1.013912590603937e+001
0	 7.266639999985472e+000	 4.000000000000001e+000	 1.013975706029537e+001
0	 7.266639999985472e+000	 4.066670000003318e+000	 1.013946811058444e+001
0	 7.266639999985469e+000	 4.133340000006534e+000	 1.013910220325210e+001
0	 7.266639999985470e+000	 4.200010000009550e+000	 1.013865661655470e+001
0	 7.266639999985470e+000	 4.266680000012267e+000	 1.013812862874865e+001
0	 7.266639999985471e+000	 4.333350000014583e+000	 1.013751551809033e+001
0	 7.266639999985472e+000	 4.400020000016402e+000	 1.013681456283612e+001
0	 7.266639999985471e+000	 4.466690000017617e+000	 1.013602304124240e+001
0	 7.266639999985470e+000	 4.533360000018134e+000	 1.013513823156557e+001
0	 7.266639999985471e+000	 4.600030000017850e+000	 1.013415741206198e+001
0	 7.266639999985471e+000	 4.666700000016665e+000	 1.013307786098802e+001
0	 7.333299999983335e+000	 4.000000000000001e+000	 1.013259821986041e+001
0	 7.333299999983335e+000	 4.066670000003317e+000	 1.013242015122736e+001
0	 7.333299999983334e+000	 4.133340000006534e+000	 1.013216441678741e+001
0	 7.333299999983335e+000	 4.200010000009550e+000	 1.013182877369551e+001
0	 7.333299999983333e+000	 4.266680000012268e+000	 1.013141097910659e+001
0	 7.333299999983333e+000	 4.333350000014583e+000	 1.013090879017559e+001
0	 7.333299999983334e+000	 4.400020000016402e+000	 1.013031996405744e+001
0	 7.333299999983334e+000	 4.466690000017617e+000	 1.012964225790709e+001
0	 7.333299999983334e+000	 4.533360000018134e+000	 1.012887342887946e+001
0	 7.333299999983334e+000	 4.600030000017849e+000	 1.012801123412948e+001
0	 7.333299999983333e+000	 4.666700000016665e+000	 1.012705343081209e+001
0	 6.666700000016667e+000	 4.666700000016667e+000	 1.018794477944867e+001
0	 6.666700000016668e+000	 4.733360000014534e+000	 1.018554739491563e+001
0	 6.666700000016665e+000	 4.800020000011600e+000	 1.018311181726799e+001
0	 6.666700000016667e+000	 4.866680000008067e+000	 1.018063340615152e+001
0	 6.666700000016669e+000	 4.933340000004135e+000	 1.017810752121202e+001
0	 6.666700000016666e+000	 5.000000000000001e+000	 1.017552952209530e+001
0	 6.666700000016667e+000	 5.066659999995867e+000	 1.017289476844716e+001
0	 6.666700000016666e+000	 5.133319999991935e+000	 1.017019861991341e+001
0	 6.666700000016666e+000	 5.199979999988400e+000	 1.016743643613986e+001
0	 6.666700000016665e+000	 5.266639999985468e+000	 1.016460357677231e+001
0	 6.666700000016665e+000	 5.333299999983334e+000	 1.016169540145659e+001
0	 6.733360000014534e+000	 4.666700000016666e+000	 1.018183250214888e+001
0	 6.733360000014531e+000	 4.733360000014534e+000	 1.017958303713430e+001
0	 6.733360000014534e+000	 4.800020000011601e+000	 1.017729188184238e+001
0	 6.733360000014533e+000	 4.866680000008067e+000	 1.017495505472103e+001
0	 6.733360000014532e+000	 4.933340000004134e+000	 1.017256857421820e+001
0	 6.733360000014532e+000	 5.000000000000000e+000	 1.017012845878181e+001
0	 6.733360000014532e+000	 5.066659999995868e+000	 1.016763072685981e+001
0	 6.733360000014533e+000	 5.133319999991935e+000	 1.016507139690013e+001
0	 6.733360000014534e+000	 5.199979999988400e+000	 1.016244648735071e+001
0	 6.733360000014534e+000	 5.266639999985468e+000	 1.015975201665949e+001
0	 6.733360000014532e+000	 5.333299999983334e+000	 1.015698400327443e+001
0	 6.800020000011601e+000	 4.666700000016666e+000	 1.017571613155678e+001
0	 6.800020000011600e+000	 4.733360000014534e+000	 1.017361222361423e+001
0	 6.800020000011599e+000	 4.800020000011600e+000	 1.017146329609137e+001
0	 6.800020000011601e+000	 4.866680000008067e+000	 1.016926594095016e+001
0	 6.800020000011601e+000	 4.933340000004133e+000	 1.016701675015258e+001
0	 6.800020000011601e+000	 5.000000000000001e+000	 1.016471231566061e+001
0	 6.800020000011600e+000	 5.066659999995867e+000	 1.016234922943619e+001
0	 6.800020000011602e+000	 5.133319999991935e+000	 1.015992408344133e+001
0	 6.800020000011599e+000	 5.199979999988400e+000	 1.015743346963799e+001
0	 6.800020000011597e+000	 5.266639999985467e+000	 1.015487397998816e+001
0	 6.800020000011599e+000	 5.333299999983335e+000	 1.015224220645383e+001
0	 6.866680000008066e+000	 4.666700000016666e+000	 1.016959913119331e+001
0	 6.866680000008068e+000	 4.733360000014534e+000	 1.016763833388480e+001
0	 6.866680000008068e+000	 4.800020000011600e+000	 1.016562941890732e+001
0	 6.866680000008068e+000	 4.866680000008068e+000	 1.016356946644875e+001
0	 6.866680000008067e+000	 4.933340000004132e+000	 1.016145555669704e+001
0	 6.866680000008067e+000	 4.999999999999999e+000	 1.015928476984008e+001
0	 6.866680000008067e+000	 5.066659999995867e+000	 1.015705418606580e+001
0	 6.866680000008066e+000	 5.133319999991933e+000	 1.015476088556213e+001
0	 6.866680000008066e+000	 5.199979999988400e+000	 1.015240194851697e+001
0	 6.866680000008068e+000	 5.266639999985467e+000	 1.014997445511826e+001
0	 6.866680000008065e+000	 5.333299999983332e+000	 1.014747548555392e+001
0	 6.933340000004136e+000	 4.666700000016667e+000	 1.016348496457945e+001
0	 6.933340000004135e+000	 4.733360000014534e+000	 1.016166474747541e+001
0	 6.933340000004135e+000	 4.800020000011599e+000	 1.015979360918255e+001
0	 6.933340000004135e+000	 4.866680000008066e+000	 1.015786903282664e+001
0	 6.933340000004132e+000	 4.933340000004131e+000	 1.015588850153343e+001
0	 6.933340000004133e+000	 4.999999999999999e+000	 1.015384949842868e+001
0	 6.933340000004135e+000	 5.066659999995867e+000	 1.015174950663815e+001
0	 6.933340000004135e+000	 5.133319999991935e+000	 1.014958600928764e+001
0	 6.933340000004136e+000	 5.199979999988400e+000	 1.014735648950290e+001
0	 6.933340000004133e+000	 5.266639999985467e+000	 1.014505843040971e+001
0	 6.933340000004134e+000	 5.333299999983333e+000	 1.014268931513385e+001
0	 7.000000000000001e+000	 4.666700000016665e+000	 1.015737709523616e+001
0	 7.000000000000002e+000	 4.733360000014534e+000	 1.015569484391548e+001
0	 7.000000000000002e+000	 4.800020000011600e+000	 1.015395922580948e+001
0	 7.000000000000000e+000	 4.866680000008066e+000	 1.015216804169369e+001
0	 7.000000000000001e+000	 4.933340000004132e+000	 1.015031909234363e+001
0	 7.000000000000002e+000	 4.999999999999999e+000	 1.014841017853480e+001
0	 7.000000000000002e+000	 5.066659999995867e+000	 1.014643910104275e+001
0	 7.000000000000002e+000	 5.133319999991934e+000	 1.014440366064298e+001
0	 7.000000000000003e+000	 5.199979999988400e+000	 1.014230165811103e+001
0	 7.000000000000001e+000	 5.266639999985467e+000	 1.014013089422244e+001
0	 7.000000000000002e+000	 5.333299999983335e+000	 1.013788916975273e+001
0	 7.066659999995868e+000	 4.666700000016665e+000	 1.015127898668441e+001
0	 7.066659999995870e+000	 4.733360000014534e+000	 1.014973200273437e+001
0	 7.066659999995871e+000	 4.800020000011601e+000	 1.014812962768042e+001
0	 7.066659999995870e+000	 4.866680000008066e+000	 1.014646989465974e+001
0	 7.066659999995871e+000	 4.933340000004133e+000	 1.014475083680950e+001
0	 7.066659999995870e+000	 5.000000000000000e+000	 1.014297048726688e+001
0	 7.066659999995869e+000	 5.066659999995866e+000	 1.014112687916907e+001
0	 7.066659999995869e+000	 5.133319999991935e+000	 1.013921804565325e+001
0	 7.066659999995871e+000	 5.199979999988401e+000	 1.013724201985663e+001
0	 7.066659999995870e+000	 5.266639999985467e+000	 1.013519683491639e+001
0	 7.066659999995871e+000	 5.333299999983334e+000	 1.013308052396971e+001
0	 7.133319999991937e+000	 4.666700000016667e+000	 1.014519410244515e+001
0	 7.133319999991937e+000	 4.733360000014534e+000	 1.014377960346150e+001
0	 7.133319999991937e+000	 4.800020000011600e+000	 1.014230817368775e+001
0	 7.133319999991936e+000	 4.866680000008067e+000	 1.014077799333465e+001
0	 7.133319999991937e+000	 4.933340000004133e+000	 1.013918724261291e+001
0	 7.133319999991937e+000	 4.999999999999999e+000	 1.013753410173333e+001
0	 7.133319999991937e+000	 5.066659999995867e+000	 1.013581675090664e+001
0	 7.133319999991937e+000	 5.133319999991935e+000	 1.013403337034360e+001
0	 7.133319999991937e+000	 5.199979999988400e+000	 1.013218214025495e+001
0	 7.133319999991937e+000	 5.266639999985468e+000	 1.013026124085147e+001
0	 7.133319999991937e+000	 5.333299999983334e+000	 1.012826885234391e+001
0	 7.199979999988404e+000	 4.666700000016666e+000	 1.013912590603937e+001
0	 7.199979999988404e+000	 4.733360000014532e+000	 1.013784102562626e+001
0	 7.199979999988403e+000	 4.800020000011600e+000	 1.013649822272381e+001
0	 7.199979999988404e+000	 4.866680000008066e+000	 1.013509573932824e+001
0	 7.199979999988403e+000	 4.933340000004133e+000	 1.013363181743576e+001
0	 7.199979999988403e+000	 4.999999999999999e+000	 1.013210469904259e+001
0	 7.199979999988406e+000	 5.066659999995866e+000	 1.013051262614497e+001
0	 7.199979999988405e+000	 5.133319999991934e+000	 1.012885384073911e+001
0	 7.199979999988405e+000	 5.199979999988401e+000	 1.012712658482125e+001
0	 7.199979999988403e+000	 5.266639999985467e+000	 1.012532910038762e+001
0	 7.199979999988404e+000	 5.333299999983335e+000	 1.012345962943447e+001
0	 7.266639999985471e+000	 4.666700000016665e+000	 1.013307786098802e+001
0	 7.266639999985471e+000	 4.733360000014534e+000	 1.013191964875806e+001
0	 7.266639999985471e+000	 4.800020000011601e+000	 1.013070313368098e+001
0	 7.266639999985471e+000	 4.866680000008067e+000	 1.012942653425039e+001
0	 7.266639999985473e+000	 4.933340000004134e+000	 1.012808806895988e+001
0	 7.266639999985472e+000	 5.000000000000000e+000	 1.012668595630307e+001
0	 7.266639999985472e+000	 5.066659999995866e+000	 1.012521841477355e+001
0	 7.266639999985470e+000	 5.133319999991934e+000	 1.012368366286491e+001
0	 7.266639999985471e+000	 5.199979999988400e+000	 1.012207991907078e+001
0	 7.266639999985471e+000	 5.266639999985467e+000	 1.012040540188479e+001
0	 7.266639999985469e+000	 5.333299999983333e+000	 1.011865832980051e+001
0	 7.333299999983333e+000	 4.666700000016665e+000	 1.012705343081209e+001
0	 7.333299999983334e+000	 4.733360000014534e+000	 1.012601885238628e+001
0	 7.333299999983334e+000	 4.800020000011600e+000	 1.012492626545161e+001
0	 7.333299999983334e+000	 4.866680000008068e+000	 1.012377377971095e+001
0	 7.333299999983335e+000	 4.933340000004134e+000	 1.012255950486718e+001
0	 7.333299999983335e+000	 4.999999999999999e+000	 1.012128155062319e+001
0	 7.333299999983336e+000	 5.066659999995867e+000	 1.011993802668188e+001
0	 7.333299999983335e+000	 5.133319999991935e+000	 1.011852704274613e+001
0	 7.333299999983335e+000	 5.199979999988400e+000	 1.011704670851882e+001
0	 7.333299999983333e+000	 5.266639999985469e+000	 1.011549513370288e+001
0	 7.333299999983334e+000	 5.333299999983333e+000	 1.011387042800120e+001
0	 6.666700000016665e+000	 5.333299999983334e+000	 1.016169540145659e+001
0	 6.666700000016668e+000	 5.399969999982151e+000	 1.015874277998118e+001
0	 6.666700000016667e+000	 5.466639999981866e+000	 1.015577840870364e+001
0	 6.666700000016667e+000	 5.533309999982384e+000	 1.015279906066978e+001
0	 6.666700000016667e+000	 5.599979999983600e+000	 1.014980150892539e+001
0	 6.666700000016665e+000	 5.666649999985416e+000	 1.014678252651622e+001
0	 6.666700000016665e+000	 5.733319999987732e+000	 1.014373888648810e+001
0	 6.666700000016665e+000	 5.799989999990448e+000	 1.014066736188678e+001
0	 6.666700000016665e+000	 5.866659999993468e+000	 1.013756472575805e+001
0	 6.666700000016665e+000	 5.933329999996682e+000	 1.013442775114771e+001
0	 6.666700000016668e+000	 6.000000000000002e+000	 1.013125321110151e+001
0	 6.733360000014532e+000	 5.333299999983334e+000	 1.015698400327443e+001
0	 6.733360000014532e+000	 5.399969999982151e+000	 1.015417167698056e+001
0	 6.733360000014532e+000	 5.466639999981866e+000	 1.015134554987052e+001
0	 6.733360000014530e+000	 5.533309999982382e+000	 1.014850230097700e+001
0	 6.733360000014530e+000	 5.599979999983599e+000	 1.014563860933269e+001
0	 6.733360000014532e+000	 5.666649999985415e+000	 1.014275115397030e+001
0	 6.733360000014531e+000	 5.733319999987733e+000	 1.013983661392251e+001
0	 6.733360000014533e+000	 5.799989999990450e+000	 1.013689166822202e+001
0	 6.733360000014533e+000	 5.866659999993468e+000	 1.013391299590152e+001
0	 6.733360000014532e+000	 5.933329999996683e+000	 1.013089727599369e+001
0	 6.733360000014532e+000	 6.000000000000000e+000	 1.012784118753122e+001
0	 6.800020000011599e+000	 5.333299999983335e+000	 1.015224220645383e+001
0	 6.800020000011599e+000	 5.399969999982150e+000	 1.014956612428701e+001
0	 6.800020000011599e+000	 5.466639999981864e+000	 1.014687452647725e+001
0	 6.800020000011601e+000	 5.533309999982385e+000	 1.014416403039949e+001
0	 6.800020000011601e+000	 5.599979999983599e+000	 1.014143125342867e+001
0	 6.800020000011599e+000	 5.666649999985417e+000	 1.013867281293972e+001
0	 6.800020000011601e+000	 5.733319999987733e+000	 1.013588532630763e+001
0	 6.800020000011600e+000	 5.799989999990451e+000	 1.013306541090729e+001
0	 6.800020000011601e+000	 5.866659999993466e+000	 1.013020968411365e+001
0	 6.800020000011601e+000	 5.933329999996684e+000	 1.012731476330169e+001
0	 6.800020000011599e+000	 6.000000000000000e+000	 1.012437726584631e+001
0	 6.866680000008065e+000	 5.333299999983332e+000	 1.014747548555392e+001
0	 6.866680000008067e+000	 5.399969999982150e+000	 1.014493207760068e+001
0	 6.866680000008067e+000	 5.466639999981866e+000	 1.014237170173863e+001
0	 6.866680000008065e+000	 5.533309999982381e+000	 1.013979094604034e+001
0	 6.866680000008065e+000	 5.599979999983598e+000	 1.013718639857833e+001
0	 6.866680000008067e+000	 5.666649999985416e+000	 1.013455464742516e+001
0	 6.866680000008067e+000	 5.733319999987732e+000	 1.013189228065334e+001
0	 6.866680000008067e+000	 5.799989999990450e+000	 1.012919588633543e+001
0	 6.866680000008065e+000	 5.866659999993467e+000	 1.012646205254396e+001
0	 6.866680000008066e+000	 5.933329999996683e+000	 1.012368736735144e+001
0	 6.866680000008067e+000	 6.000000000000000e+000	 1.012086841883044e+001
0	 6.933340000004134e+000	 5.333299999983333e+000	 1.014268931513385e+001
0	 6.933340000004134e+000	 5.399969999982148e+000	 1.014027549262163e+001
0	 6.933340000004135e+000	 5.466639999981866e+000	 1.013784343886939e+001
0	 6.933340000004135e+000	 5.533309999982381e+000	 1.013538974500260e+001
0	 6.933340000004136e+000	 5.599979999983600e+000	 1.013291100214674e+001
0	 6.933340000004135e+000	 5.666649999985418e+000	 1.013040380142726e+001
0	 6.933340000004135e+000	 5.733319999987732e+000	 1.012786473396964e+001
0	 6.933340000004135e+000	 5.799989999990449e+000	 1.012529039089937e+001
0	 6.933340000004134e+000	 5.866659999993468e+000	 1.012267736334192e+001
0	 6.933340000004136e+000	 5.933329999996682e+000	 1.012002224242275e+001
0	 6.933340000004135e+000	 5.999999999999999e+000	 1.011732161926731e+001
0	 7.000000000000002e+000	 5.333299999983335e+000	 1.013788916975273e+001
0	 7.000000000000003e+000	 5.399969999982150e+000	 1.013560232505003e+001
0	 7.000000000000001e+000	 5.466639999981865e+000	 1.013329610108433e+001
0	 7.000000000000002e+000	 5.533309999982384e+000	 1.013096712438937e+001
0	 7.000000000000002e+000	 5.599979999983599e+000	 1.012861202149890e+001
0	 7.000000000000002e+000	 5.666649999985417e+000	 1.012622741894669e+001
0	 7.000000000000002e+000	 5.733319999987733e+000	 1.012380994326647e+001
0	 7.000000000000003e+000	 5.799989999990449e+000	 1.012135622099201e+001
0	 7.000000000000002e+000	 5.866659999993467e+000	 1.011886287865704e+001
0	 7.000000000000002e+000	 5.933329999996682e+000	 1.011632654279532e+001
0	 7.000000000000002e+000	 6.000000000000000e+000	 1.011374383994062e+001
0	 7.066659999995871e+000	 5.333299999983334e+000	 1.013308052396971e+001
0	 7.066659999995871e+000	 5.399969999982151e+000	 1.013091853058599e+001
0	 7.066659999995870e+000	 5.466639999981867e+000	 1.012873605159821e+001
0	 7.066659999995869e+000	 5.533309999982382e+000	 1.012652978130371e+001
0	 7.066659999995868e+000	 5.599979999983598e+000	 1.012429641399988e+001
0	 7.066659999995871e+000	 5.666649999985417e+000	 1.012203264398411e+001
0	 7.066659999995869e+000	 5.733319999987732e+000	 1.011973516555376e+001
0	 7.066659999995869e+000	 5.799989999990451e+000	 1.011740067300620e+001
0	 7.066659999995870e+000	 5.866659999993467e+000	 1.011502586063882e+001
0	 7.066659999995871e+000	 5.933329999996683e+000	 1.011260742274895e+001
0	 7.066659999995868e+000	 5.999999999999998e+000	 1.011014205363401e+001
0	 7.133319999991937e+000	 5.333299999983334e+000	 1.012826885234392e+001
0	 7.133319999991936e+000	 5.399969999982148e+000	 1.012623006492963e+001
0	 7.133319999991937e+000	 5.466639999981866e+000	 1.012416965362576e+001
0	 7.133319999991937e+000	 5.533309999982383e+000	 1.012208441284868e+001
0	 7.133319999991936e+000	 5.599979999983598e+000	 1.011997113701471e+001
0	 7.133319999991937e+000	 5.666649999985417e+000	 1.011782662054019e+001
0	 7.133319999991935e+000	 5.733319999987732e+000	 1.011564765784146e+001
0	 7.133319999991938e+000	 5.799989999990449e+000	 1.011343104333485e+001
0	 7.133319999991937e+000	 5.866659999993467e+000	 1.011117357143673e+001
0	 7.133319999991937e+000	 5.933329999996683e+000	 1.010887203656338e+001
0	 7.133319999991937e+000	 6.000000000000000e+000	 1.010652323313117e+001
0	 7.199979999988404e+000	 5.333299999983335e+000	 1.012345962943447e+001
0	 7.199979999988404e+000	 5.399969999982150e+000	 1.012154288378104e+001
0	 7.199979999988403e+000	 5.466639999981866e+000	 1.011960327038178e+001
0	 7.199979999988404e+000	 5.533309999982383e+000	 1.011763771612736e+001
0	 7.199979999988405e+000	 5.599979999983601e+000	 1.011564314790842e+001
0	 7.199979999988403e+000	 5.666649999985415e+000	 1.011361649261558e+001
0	 7.199979999988403e+000	 5.733319999987732e+000	 1.011155467713952e+001
0	 7.199979999988404e+000	 5.799989999990449e+000	 1.010945462837086e+001
0	 7.199979999988404e+000	 5.866659999993468e+000	 1.010731327320026e+001
0	 7.199979999988405e+000	 5.933329999996684e+000	 1.010512753851837e+001
0	 7.199979999988402e+000	 6.000000000000000e+000	 1.010289435121581e+001
0	 7.266639999985469e+000	 5.333299999983333e+000	 1.011865832980051e+001
0	 7.266639999985471e+000	 5.399969999982150e+000	 1.011686294284036e+001
0	 7.266639999985472e+000	 5.466639999981868e+000	 1.011504326508103e+001
0	 7.266639999985470e+000	 5.533309999982383e+000	 1.011319638824281e+001
0	 7.266639999985471e+000	 5.599979999983599e+000	 1.011131940404603e+001
0	 7.266639999985472e+000	 5.666649999985416e+000	 1.010940940421095e+001
0	 7.266639999985471e+000	 5.733319999987733e+000	 1.010746348045789e+001
0	 7.266639999985471e+000	 5.799989999990450e+000	 1.010547872450712e+001
0	 7.266639999985471e+000	 5.866659999993466e+000	 1.010345222807894e+001
0	 7.266639999985472e+000	 5.933329999996683e+000	 1.010138108289367e+001
0	 7.266639999985472e+000	 6.000000000000001e+000	 1.009926238067158e+001
0	 7.333299999983334e+000	 5.333299999983333e+000	 1.011387042800119e+001
0	 7.333299999983335e+000	 5.399969999982150e+000	 1.011219619780772e+001
0	 7.333299999983333e+000	 5.466639999981867e+000	 1.011049600093828e+001
0	 7.333299999983334e+000	 5.533309999982385e+000	 1.010876712629814e+001
0	 7.333299999983335e+000	 5.599979999983599e+000	 1.010700686279261e+001
0	 7.333299999983334e+000	 5.666649999985417e+000	 1.010521249932695e+001
0	 7.333299999983336e+000	 5.733319999987733e+000	 1.010338132480649e+001
0	 7.333299999983334e+000	 5.799989999990449e+000	 1.010151062813649e+001
0	 7.333299999983333e+000	 5.866659999993468e+000	 1.009959769822225e+001
0	 7.333299999983334e+000	 5.933329999996684e+000	 1.009763982396905e+001
0	 7.333299999983334e+000	 6.000000000000002e+000	 1.009563429428217e+001
0	 6.666700000016668e+000	 6.000000000000002e+000	 1.013125321110151e+001
0	 6.666700000016667e+000	 6.066670000003318e+000	 1.012806915471208e+001
0	 6.666700000016665e+000	 6.133340000006532e+000	 1.012490372640416e+001
0	 6.666700000016666e+000	 6.200010000009550e+000	 1.012175384222181e+001
0	 6.666700000016666e+000	 6.266680000012267e+000	 1.011861641820903e+001
0	 6.666700000016667e+000	 6.333350000014586e+000	 1.011548837040986e+001
0	 6.666700000016667e+000	 6.400020000016401e+000	 1.011236661486834e+001
0	 6.666700000016667e+000	 6.466690000017616e+000	 1.010924806762848e+001
0	 6.666700000016666e+000	 6.533360000018132e+000	 1.010612964473434e+001
0	 6.666700000016667e+000	 6.600030000017851e+000	 1.010300826222993e+001
0	 6.666700000016666e+000	 6.666700000016667e+000	 1.009988083615928e+001
0	 6.733360000014532e+000	 6.000000000000000e+000	 1.012784118753122e+001
0	 6.733360000014534e+000	 6.066670000003316e+000	 1.012477284528442e+001
0	 6.733360000014533e+000	 6.133340000006534e+000	 1.012172059337689e+001
0	 6.733360000014533e+000	 6.200010000009552e+000	 1.011868145487119e+001
0	 6.733360000014532e+000	 6.266680000012268e+000	 1.011565245282994e+001
0	 6.733360000014531e+000	 6.333350000014582e+000	 1.011263061031575e+001
0	 6.733360000014532e+000	 6.400020000016401e+000	 1.010961295039120e+001
0	 6.733360000014532e+000	 6.466690000017618e+000	 1.010659649611891e+001
0	 6.733360000014531e+000	 6.533360000018131e+000	 1.010357827056146e+001
0	 6.733360000014532e+000	 6.600030000017852e+000	 1.010055529678144e+001
0	 6.733360000014532e+000	 6.666700000016667e+000	 1.009752459784148e+001
0	 6.800020000011599e+000	 6.000000000000000e+000	 1.012437726584631e+001
0	 6.800020000011599e+000	 6.066670000003315e+000	 1.012142507674966e+001
0	 6.800020000011600e+000	 6.133340000006532e+000	 1.011848641881588e+001
0	 6.800020000011601e+000	 6.200010000009552e+000	 1.011555841612296e+001
0	 6.800020000011598e+000	 6.266680000012264e+000	 1.011263819274885e+001
0	 6.800020000011599e+000	 6.333350000014585e+000	 1.010972287277151e+001
0	 6.800020000011601e+000	 6.400020000016402e+000	 1.010680958026895e+001
0	 6.800020000011601e+000	 6.466690000017619e+000	 1.010389543931908e+001
0	 6.800020000011600e+000	 6.533360000018136e+000	 1.010097757399990e+001
0	 6.800020000011600e+000	 6.600030000017851e+000	 1.009805310838937e+001
0	 6.800020000011599e+000	 6.666700000016666e+000	 1.009511916656544e+001
0	 6.866680000008067e+000	 6.000000000000000e+000	 1.012086841883044e+001
0	 6.866680000008066e+000	 6.066670000003317e+000	 1.011803261363147e+001
0	 6.866680000008067e+000	 6.133340000006534e+000	 1.011520777908349e+001
0	 6.866680000008067e+000	 6.200010000009553e+000	 1.011239113427662e+001
0	 6.866680000008067e+000	 6.266680000012267e+000	 1.010957989830101e+001
0	 6.866680000008068e+000	 6.333350000014585e+000	 1.010677129024676e+001
0	 6.866680000008067e+000	 6.400020000016401e+000	 1.010396252920404e+001
0	 6.866680000008068e+000	 6.466690000017618e+000	 1.010115083426297e+001
0	 6.866680000008065e+000	 6.533360000018133e+000	 1.009833342451368e+001
0	 6.866680000008067e+000	 6.600030000017850e+000	 1.009550751904631e+001
0	 6.866680000008066e+000	 6.666700000016666e+000	 1.009267033695099e+001
0	 6.933340000004135e+000	 5.999999999999999e+000	 1.011732161926731e+001
0	 6.933340000004135e+000	 6.066670000003317e+000	 1.011460222045362e+001
0	 6.933340000004134e+000	 6.133340000006533e+000	 1.011189125054205e+001
0	 6.933340000004134e+000	 6.200010000009551e+000	 1.010918601763169e+001
0	 6.933340000004134e+000	 6.266680000012267e+000	 1.010648382982168e+001
0	 6.933340000004135e+000	 6.333350000014587e+000	 1.010378199521108e+001
0	 6.933340000004134e+000	 6.400020000016400e+000	 1.010107782189900e+001
0	 6.933340000004135e+000	 6.466690000017616e+000	 1.009836861798455e+001
0	 6.933340000004133e+000	 6.533360000018133e+000	 1.009565169156682e+001
0	 6.933340000004133e+000	 6.600030000017850e+000	 1.009292435074491e+001
0	 6.933340000004135e+000	 6.666700000016667e+000	 1.009018390361792e+001
0	 7.000000000000002e+000	 6.000000000000000e+000	 1.011374383994062e+001
0	 7.000000000000001e+000	 6.066670000003315e+000	 1.011114066173980e+001
0	 7.000000000000001e+000	 6.133340000006533e+000	 1.010854340955388e+001
0	 7.000000000000002e+000	 6.200010000009550e+000	 1.010594947448771e+001
0	 7.000000000000001e+000	 6.266680000012267e+000	 1.010335624764614e+001
0	 6.999999999999999e+000	 6.333350000014583e+000	 1.010076112013406e+001
0	 7.000000000000003e+000	 6.400020000016401e+000	 1.009816148305631e+001
0	 7.000000000000001e+000	 6.466690000017617e+000	 1.009555472751778e+001
0	 7.000000000000003e+000	 6.533360000018134e+000	 1.009293824462332e+001
0	 6.999999999999999e+000	 6.600030000017848e+000	 1.009030942547778e+001
0	 7.000000000000003e+000	 6.666700000016667e+000	 1.008766566118606e+001
0	 7.066659999995868e+000	 5.999999999999998e+000	 1.011014205363401e+001
0	 7.066659999995870e+000	 6.066670000003318e+000	 1.010765470201375e+001
0	 7.066659999995870e+000	 6.133340000006535e+000	 1.010517083248131e+001
0	 7.066659999995870e+000	 6.200010000009553e+000	 1.010268791314414e+001
0	 7.066659999995871e+000	 6.266680000012268e+000	 1.010020341210965e+001
0	 7.066659999995869e+000	 6.333350000014583e+000	 1.009771479748529e+001
0	 7.066659999995869e+000	 6.400020000016400e+000	 1.009521953737848e+001
0	 7.066659999995870e+000	 6.466690000017619e+000	 1.009271509989663e+001
0	 7.066659999995870e+000	 6.533360000018135e+000	 1.009019895314720e+001
0	 7.066659999995870e+000	 6.600030000017852e+000	 1.008766856523758e+001
0	 7.066659999995870e+000	 6.666700000016668e+000	 1.008512140427523e+001
0	 7.133319999991937e+000	 6.000000000000000e+000	 1.010652323313117e+001
0	 7.133319999991937e+000	 6.066670000003318e+000	 1.010415110579916e+001
0	 7.133319999991937e+000	 6.133340000006534e+000	 1.010178009568669e+001
0	 7.133319999991937e+000	 6.200010000009551e+000	 1.009940774190054e+001
0	 7.133319999991937e+000	 6.266680000012268e+000	 1.009703158354750e+001
0	 7.133319999991937e+000	 6.333350000014583e+000	 1.009464915973440e+001
0	 7.133319999991937e+000	 6.400020000016401e+000	 1.009225800956798e+001
0	 7.133319999991937e+000	 6.466690000017618e+000	 1.008985567215506e+001
0	 7.133319999991936e+000	 6.533360000018134e+000	 1.008743968660246e+001
0	 7.133319999991937e+000	 6.600030000017851e+000	 1.008500759201690e+001
0	 7.133319999991937e+000	 6.666700000016666e+000	 1.008255692750524e+001
0	 7.199979999988402e+000	 6.000000000000000e+000	 1.010289435121581e+001
0	 7.199979999988403e+000	 6.066670000003315e+000	 1.010063663761977e+001
0	 7.199979999988403e+000	 6.133340000006532e+000	 1.009837777553231e+001
0	 7.199979999988404e+000	 6.200010000009550e+000	 1.009611536905639e+001
0	 7.199979999988403e+000	 6.266680000012268e+000	 1.009384702229495e+001
0	 7.199979999988404e+000	 6.333350000014582e+000	 1.009157033935094e+001
0	 7.199979999988403e+000	 6.400020000016398e+000	 1.008928292432734e+001
0	 7.199979999988405e+000	 6.466690000017617e+000	 1.008698238132708e+001
0	 7.199979999988401e+000	 6.533360000018133e+000	 1.008466631445311e+001
0	 7.199979999988405e+000	 6.600030000017851e+000	 1.008233232780841e+001
0	 7.199979999988403e+000	 6.666700000016665e+000	 1.007997802549591e+001
0	 7.266639999985472e+000	 6.000000000000001e+000	 1.009926238067158e+001
0	 7.266639999985472e+000	 6.066670000003317e+000	 1.009711806199930e+001
0	 7.266639999985470e+000	 6.133340000006532e+000	 1.009497044838054e+001
0	 7.266639999985472e+000	 6.200010000009552e+000	 1.009281720291122e+001
0	 7.266639999985471e+000	 6.266680000012268e+000	 1.009065598868725e+001
0	 7.266639999985471e+000	 6.333350000014582e+000	 1.008848446880456e+001
0	 7.266639999985472e+000	 6.400020000016402e+000	 1.008630030635904e+001
0	 7.266639999985471e+000	 6.466690000017617e+000	 1.008410116444661e+001
0	 7.266639999985472e+000	 6.533360000018135e+000	 1.008188470616320e+001
0	 7.266639999985471e+000	 6.600030000017851e+000	 1.007964859460471e+001
0	 7.266639999985470e+000	 6.666700000016665e+000	 1.007739049286706e+001
0	 7.333299999983334e+000	 6.000000000000002e+000	 1.009563429428217e+001
0	 7.333299999983334e+000	 6.066670000003316e+000	 1.009360214346146e+001
0	 7.333299999983332e+000	 6.133340000006531e+000	 1.009156469059370e+001
0	 7.333299999983334e+000	 6.200010000009550e+000	 1.008951965176457e+001
0	 7.333299999983334e+000	 6.266680000012268e+000	 1.008746474305971e+001
0	 7.333299999983335e+000	 6.333350000014586e+000	 1.008539768056481e+001
0	 7.333299999983336e+000	 6.400020000016400e+000	 1.008331618036558e+001
0	 7.333299999983333e+000	 6.466690000017615e+000	 1.008121795854765e+001
0	 7.333299999983334e+000	 6.533360000018135e+000	 1.007910073119671e+001
0	 7.333299999983335e+000	 6.600030000017851e+000	 1.007696221439844e+001
0	 7.333299999983333e+000	 6.666700000016665e+000	 1.007480012423850e+001
0	 6.666700000016666e+000	 6.666700000016667e+000	 1.009988083615928e+001
0	 6.666700000016667e+000	 6.733360000014533e+000	 1.009676777881806e+001
0	 6.666700000016665e+000	 6.800020000011598e+000	 1.009368890942793e+001
0	 6.666700000016666e+000	 6.866680000008067e+000	 1.009064166351554e+001
0	 6.666700000016667e+000	 6.933340000004133e+000	 1.008762347660754e+001
0	 6.666700000016665e+000	 6.999999999999999e+000	 1.008463178423061e+001
0	 6.666700000016667e+000	 7.066659999995868e+000	 1.008166402191139e+001
0	 6.666700000016665e+000	 7.133319999991936e+000	 1.007871762517657e+001
0	 6.666700000016666e+000	 7.199979999988400e+000	 1.007579002955278e+001
0	 6.666700000016666e+000	 7.266639999985467e+000	 1.007287867056670e+001
0	 6.666700000016665e+000	 7.333299999983333e+000	 1.006998098374496e+001
0	 6.733360000014532e+000	 6.666700000016667e+000	 1.009752459784148e+001
0	 6.733360000014534e+000	 6.733360000014534e+000	 1.009450617263364e+001
0	 6.733360000014534e+000	 6.800020000011599e+000	 1.009151940503650e+001
0	 6.733360000014532e+000	 6.866680000008068e+000	 1.008856176152349e+001
0	 6.733360000014532e+000	 6.933340000004133e+000	 1.008563070856796e+001
0	 6.733360000014533e+000	 7.000000000000000e+000	 1.008272371264329e+001
0	 6.733360000014532e+000	 7.066659999995870e+000	 1.007983824022284e+001
0	 6.733360000014534e+000	 7.133319999991937e+000	 1.007697175777999e+001
0	 6.733360000014534e+000	 7.199979999988401e+000	 1.007412173178811e+001
0	 6.733360000014532e+000	 7.266639999985467e+000	 1.007128562872059e+001
0	 6.733360000014532e+000	 7.333299999983334e+000	 1.006846091505079e+001
0	 6.800020000011599e+000	 6.666700000016666e+000	 1.009511916656545e+001
0	 6.800020000011600e+000	 6.733360000014534e+000	 1.009219544079901e+001
0	 6.800020000011600e+000	 6.800020000011601e+000	 1.008930099150198e+001
0	 6.800020000011601e+000	 6.866680000008067e+000	 1.008643331773525e+001
0	 6.800020000011600e+000	 6.933340000004134e+000	 1.008358991855965e+001
0	 6.800020000011599e+000	 7.000000000000001e+000	 1.008076829303603e+001
0	 6.800020000011599e+000	 7.066659999995865e+000	 1.007796594022523e+001
0	 6.800020000011600e+000	 7.133319999991935e+000	 1.007518035918811e+001
0	 6.800020000011601e+000	 7.199979999988401e+000	 1.007240904898550e+001
0	 6.800020000011598e+000	 7.266639999985466e+000	 1.006964950867826e+001
0	 6.800020000011599e+000	 7.333299999983334e+000	 1.006689923732722e+001
0	 6.866680000008066e+000	 6.666700000016666e+000	 1.009267033695099e+001
0	 6.866680000008067e+000	 6.733360000014532e+000	 1.008984135170826e+001
0	 6.866680000008068e+000	 6.800020000011601e+000	 1.008703939318307e+001
0	 6.866680000008065e+000	 6.866680000008065e+000	 1.008426199466451e+001
0	 6.866680000008067e+000	 6.933340000004134e+000	 1.008150668944168e+001
0	 6.866680000008066e+000	 6.999999999999998e+000	 1.007877101080364e+001
0	 6.866680000008067e+000	 7.066659999995866e+000	 1.007605249203947e+001
0	 6.866680000008067e+000	 7.133319999991934e+000	 1.007334866643826e+001
0	 6.866680000008066e+000	 7.199979999988402e+000	 1.007065706728911e+001
0	 6.866680000008068e+000	 7.266639999985467e+000	 1.006797522788107e+001
0	 6.866680000008064e+000	 7.333299999983331e+000	 1.006530068150324e+001
0	 6.933340000004135e+000	 6.666700000016667e+000	 1.009018390361792e+001
0	 6.933340000004135e+000	 6.733360000014533e+000	 1.008744967375547e+001
0	 6.933340000004135e+000	 6.800020000011600e+000	 1.008474033443847e+001
0	 6.933340000004135e+000	 6.866680000008066e+000	 1.008205345482497e+001
0	 6.933340000004134e+000	 6.933340000004133e+000	 1.007938660407309e+001
0	 6.933340000004135e+000	 6.999999999999999e+000	 1.007673735134088e+001
0	 6.933340000004134e+000	 7.066659999995865e+000	 1.007410326578644e+001
0	 6.933340000004136e+000	 7.133319999991936e+000	 1.007148191656783e+001
0	 6.933340000004134e+000	 7.199979999988400e+000	 1.006887087284312e+001
0	 6.933340000004135e+000	 7.266639999985467e+000	 1.006626770377044e+001
0	 6.933340000004135e+000	 7.333299999983335e+000	 1.006366997850782e+001
0	 7.000000000000003e+000	 6.666700000016667e+000	 1.008766566118606e+001
0	 7.000000000000003e+000	 6.733360000014531e+000	 1.008502617533472e+001
0	 7.000000000000002e+000	 6.800020000011599e+000	 1.008240953962686e+001
0	 7.000000000000002e+000	 6.866680000008066e+000	 1.007981336073032e+001
0	 7.000000000000002e+000	 6.933340000004133e+000	 1.007723524531296e+001
0	 7.000000000000004e+000	 7.000000000000000e+000	 1.007467280004256e+001
0	 7.000000000000002e+000	 7.066659999995866e+000	 1.007212363158702e+001
0	 7.000000000000003e+000	 7.133319999991936e+000	 1.006958534661416e+001
0	 7.000000000000001e+000	 7.199979999988400e+000	 1.006705555179179e+001
0	 7.000000000000001e+000	 7.266639999985466e+000	 1.006453185378777e+001
0	 7.000000000000001e+000	 7.333299999983334e+000	 1.006201185926994e+001
0	 7.066659999995870e+000	 6.666700000016668e+000	 1.008512140427523e+001
0	 7.066659999995871e+000	 6.733360000014533e+000	 1.008257662484008e+001
0	 7.066659999995871e+000	 6.800020000011601e+000	 1.008005273310698e+001
0	 7.066659999995869e+000	 6.866680000008066e+000	 1.007754737489426e+001
0	 7.066659999995870e+000	 6.933340000004133e+000	 1.007505819602032e+001
0	 7.066659999995870e+000	 7.000000000000000e+000	 1.007258284230348e+001
0	 7.066659999995870e+000	 7.066659999995866e+000	 1.007011895956212e+001
0	 7.066659999995870e+000	 7.133319999991935e+000	 1.006766419361459e+001
0	 7.066659999995869e+000	 7.199979999988401e+000	 1.006521619027925e+001
0	 7.066659999995869e+000	 7.266639999985467e+000	 1.006277259537447e+001
0	 7.066659999995870e+000	 7.333299999983335e+000	 1.006033105471857e+001
0	 7.133319999991937e+000	 6.666700000016666e+000	 1.008255692750524e+001
0	 7.133319999991937e+000	 6.733360000014534e+000	 1.008010679066562e+001
0	 7.133319999991937e+000	 6.800020000011600e+000	 1.007767563923750e+001
0	 7.133319999991936e+000	 6.866680000008067e+000	 1.007526115983049e+001
0	 7.133319999991937e+000	 6.933340000004133e+000	 1.007286103905424e+001
0	 7.133319999991937e+000	 6.999999999999999e+000	 1.007047296351842e+001
0	 7.133319999991937e+000	 7.066659999995865e+000	 1.006809461983262e+001
0	 7.133319999991937e+000	 7.133319999991935e+000	 1.006572369460651e+001
0	 7.133319999991937e+000	 7.199979999988401e+000	 1.006335787444973e+001
0	 7.133319999991937e+000	 7.266639999985466e+000	 1.006099484597191e+001
0	 7.133319999991937e+000	 7.333299999983333e+000	 1.005863229578269e+001
0	 7.199979999988403e+000	 6.666700000016665e+000	 1.007997802549591e+001
0	 7.199979999988403e+000	 6.733360000014533e+000	 1.007762244120543e+001
0	 7.199979999988404e+000	 6.800020000011600e+000	 1.007528398237712e+001
0	 7.199979999988404e+000	 6.866680000008068e+000	 1.007296037805269e+001
0	 7.199979999988404e+000	 6.933340000004134e+000	 1.007064935727381e+001
0	 7.199979999988402e+000	 6.999999999999997e+000	 1.006834864908214e+001
0	 7.199979999988404e+000	 7.066659999995867e+000	 1.006605598251939e+001
0	 7.199979999988404e+000	 7.133319999991935e+000	 1.006376908662727e+001
0	 7.199979999988404e+000	 7.199979999988401e+000	 1.006148569044741e+001
0	 7.199979999988406e+000	 7.266639999985467e+000	 1.005920352302152e+001
0	 7.199979999988405e+000	 7.333299999983335e+000	 1.005692031339128e+001
0	 7.266639999985470e+000	 6.666700000016665e+000	 1.007739049286706e+001
0	 7.266639999985472e+000	 6.733360000014533e+000	 1.007512934485355e+001
0	 7.266639999985471e+000	 6.800020000011600e+000	 1.007288348688457e+001
0	 7.266639999985471e+000	 6.866680000008067e+000	 1.007065069207456e+001
0	 7.266639999985471e+000	 6.933340000004134e+000	 1.006842873353802e+001
0	 7.266639999985470e+000	 7.000000000000000e+000	 1.006621538438946e+001
0	 7.266639999985470e+000	 7.066659999995866e+000	 1.006400841774335e+001
0	 7.266639999985471e+000	 7.133319999991934e+000	 1.006180560671421e+001
0	 7.266639999985471e+000	 7.199979999988401e+000	 1.005960472441649e+001
0	 7.266639999985470e+000	 7.266639999985465e+000	 1.005740354396468e+001
0	 7.266639999985471e+000	 7.333299999983332e+000	 1.005519983847330e+001
0	 7.333299999983333e+000	 6.666700000016665e+000	 1.007480012423850e+001
0	 7.333299999983335e+000	 6.733360000014533e+000	 1.007263327000409e+001
0	 7.333299999983334e+000	 6.800020000011600e+000	 1.007047987711850e+001
0	 7.333299999983332e+000	 6.866680000008064e+000	 1.006833776440979e+001
0	 7.333299999983334e+000	 6.933340000004134e+000	 1.006620475070598e+001
0	 7.333299999983332e+000	 6.999999999999998e+000	 1.006407865483516e+001
0	 7.333299999983334e+000	 7.066659999995866e+000	 1.006195729562539e+001
0	 7.333299999983333e+000	 7.133319999991934e+000	 1.005983849190471e+001
0	 7.333299999983334e+000	 7.199979999988401e+000	 1.005772006250116e+001
0	 7.333299999983335e+000	 7.266639999985467e+000	 1.005559982624282e+001
0	 7.333299999983336e+000	 7.333299999983336e+000	 1.005347560195775e+001
0	 6.666700000016665e+000	 7.333299999983333e+000	 1.006998098374496e+001
0	 6.666700000016665e+000	 7.399969999982150e+000	 1.006711451445346e+001
0	 6.666700000016668e+000	 7.466639999981867e+000	 1.006429768405629e+001
0	 6.666700000016667e+000	 7.533309999982384e+000	 1.006152794067982e+001
0	 6.666700000016665e+000	 7.599979999983599e+000	 1.005880273245047e+001
0	 6.666700000016666e+000	 7.666649999985416e+000	 1.005611950749463e+001
0	 6.666700000016665e+000	 7.733319999987731e+000	 1.005347571393868e+001
0	 6.666700000016665e+000	 7.799989999990450e+000	 1.005086879990905e+001
0	 6.666700000016665e+000	 7.866659999993465e+000	 1.004829621353208e+001
0	 6.666700000016666e+000	 7.933329999996684e+000	 1.004575540293419e+001
0	 6.666700000016668e+000	 8.000000000000000e+000	 1.004324381624176e+001
0	 6.733360000014532e+000	 7.333299999983334e+000	 1.006846091505078e+001
0	 6.733360000014531e+000	 7.399969999982149e+000	 1.006566542365121e+001
0	 6.733360000014531e+000	 7.466639999981864e+000	 1.006291782226851e+001
0	 6.733360000014533e+000	 7.533309999982383e+000	 1.006021556062190e+001
0	 6.733360000014532e+000	 7.599979999983601e+000	 1.005755608843058e+001
0	 6.733360000014532e+000	 7.666649999985416e+000	 1.005493685541368e+001
0	 6.733360000014533e+000	 7.733319999987734e+000	 1.005235531129043e+001
0	 6.733360000014532e+000	 7.799989999990450e+000	 1.004980890577999e+001
0	 6.733360000014533e+000	 7.866659999993466e+000	 1.004729508860155e+001
0	 6.733360000014531e+000	 7.933329999996682e+000	 1.004481130947428e+001
0	 6.733360000014532e+000	 7.999999999999999e+000	 1.004235501811736e+001
0	 6.800020000011599e+000	 7.333299999983334e+000	 1.006689923732722e+001
0	 6.800020000011598e+000	 7.399969999982149e+000	 1.006417624613803e+001
0	 6.800020000011598e+000	 7.466639999981866e+000	 1.006149934245453e+001
0	 6.800020000011601e+000	 7.533309999982384e+000	 1.005886598350959e+001
0	 6.800020000011600e+000	 7.599979999983600e+000	 1.005627362653605e+001
0	 6.800020000011599e+000	 7.666649999985415e+000	 1.005371972876675e+001
0	 6.800020000011600e+000	 7.733319999987733e+000	 1.005120174743457e+001
0	 6.800020000011601e+000	 7.799989999990449e+000	 1.004871713977235e+001
0	 6.800020000011600e+000	 7.866659999993466e+000	 1.004626336301293e+001
0	 6.800020000011600e+000	 7.933329999996683e+000	 1.004383787438919e+001
0	 6.800020000011600e+000	 8.000000000000000e+000	 1.004143813113397e+001
0	 6.866680000008064e+000	 7.333299999983331e+000	 1.006530068150324e+001
0	 6.866680000008066e+000	 7.399969999982150e+000	 1.006265152152536e+001
0	 6.866680000008066e+000	 7.466639999981864e+000	 1.006004660116619e+001
0	 6.866680000008067e+000	 7.533309999982383e+000	 1.005748339109312e+001
0	 6.866680000008068e+000	 7.599979999983600e+000	 1.005495936197356e+001
0	 6.866680000008068e+000	 7.666649999985416e+000	 1.005247198447490e+001
0	 6.866680000008067e+000	 7.733319999987733e+000	 1.005001872926457e+001
0	 6.866680000008067e+000	 7.799989999990450e+000	 1.004759706700994e+001
0	 6.866680000008065e+000	 7.866659999993466e+000	 1.004520446837844e+001
0	 6.866680000008067e+000	 7.933329999996683e+000	 1.004283840403746e+001
0	 6.866680000008066e+000	 7.999999999999999e+000	 1.004049634465441e+001
0	 6.933340000004135e+000	 7.333299999983335e+000	 1.006366997850782e+001
0	 6.933340000004134e+000	 7.399969999982151e+000	 1.006109578942461e+001
0	 6.933340000004134e+000	 7.466639999981865e+000	 1.005856395495532e+001
0	 6.933340000004135e+000	 7.533309999982382e+000	 1.005607196512277e+001
0	 6.933340000004136e+000	 7.599979999983599e+000	 1.005361730994977e+001
0	 6.933340000004136e+000	 7.666649999985417e+000	 1.005119747945918e+001
0	 6.933340000004135e+000	 7.733319999987733e+000	 1.004880996367385e+001
0	 6.933340000004134e+000	 7.799989999990448e+000	 1.004645225261658e+001
0	 6.933340000004134e+000	 7.866659999993467e+000	 1.004412183631023e+001
0	 6.933340000004135e+000	 7.933329999996683e+000	 1.004181620477762e+001
0	 6.933340000004137e+000	 8.000000000000000e+000	 1.003953284804160e+001
0	 7.000000000000001e+000	 7.333299999983334e+000	 1.006201185926994e+001
0	 7.000000000000003e+000	 7.399969999982150e+000	 1.005951358944721e+001
0	 7.000000000000002e+000	 7.466639999981865e+000	 1.005705576037377e+001
0	 7.000000000000002e+000	 7.533309999982384e+000	 1.005463588734876e+001
0	 7.000000000000003e+000	 7.599979999983599e+000	 1.005225148567134e+001
0	 7.000000000000002e+000	 7.666649999985417e+000	 1.004990007064065e+001
0	 7.000000000000003e+000	 7.733319999987733e+000	 1.004757915755586e+001
0	 7.000000000000002e+000	 7.799989999990450e+000	 1.004528626171607e+001
0	 7.000000000000002e+000	 7.866659999993466e+000	 1.004301889842048e+001
0	 7.000000000000002e+000	 7.933329999996682e+000	 1.004077458296820e+001
0	 7.000000000000002e+000	 8.000000000000000e+000	 1.003855083065841e+001
0	 7.066659999995870e+000	 7.333299999983335e+000	 1.006033105471857e+001
0	 7.066659999995869e+000	 7.399969999982151e+000	 1.005790946120454e+001
0	 7.066659999995868e+000	 7.466639999981865e+000	 1.005552637397337e+001
0	 7.066659999995871e+000	 7.533309999982383e+000	 1.005317933952139e+001
0	 7.066659999995867e+000	 7.599979999983598e+000	 1.005086590434496e+001
0	 7.066659999995870e+000	 7.666649999985416e+000	 1.004858361494039e+001
0	 7.066659999995870e+000	 7.733319999987732e+000	 1.004633001780405e+001
0	 7.066659999995869e+000	 7.799989999990450e+000	 1.004410265943225e+001
0	 7.066659999995868e+000	 7.866659999993466e+000	 1.004189908632137e+001
0	 7.066659999995870e+000	 7.933329999996683e+000	 1.003971684496774e+001
0	 7.066659999995870e+000	 7.999999999999999e+000	 1.003755348186769e+001
0	 7.133319999991937e+000	 7.333299999983333e+000	 1.005863229578269e+001
0	 7.133319999991937e+000	 7.399969999982150e+000	 1.005628794430803e+001
0	 7.133319999991937e+000	 7.466639999981867e+000	 1.005398015230598e+001
0	 7.133319999991937e+000	 7.533309999982383e+000	 1.005170650339090e+001
0	 7.133319999991937e+000	 7.599979999983598e+000	 1.004946458117725e+001
0	 7.133319999991936e+000	 7.666649999985416e+000	 1.004725196927942e+001
0	 7.133319999991937e+000	 7.733319999987733e+000	 1.004506625131185e+001
0	 7.133319999991937e+000	 7.799989999990448e+000	 1.004290501088894e+001
0	 7.133319999991935e+000	 7.866659999993466e+000	 1.004076583162510e+001
0	 7.133319999991937e+000	 7.933329999996682e+000	 1.003864629713475e+001
0	 7.133319999991937e+000	 7.999999999999999e+000	 1.003654399103231e+001
0	 7.199979999988405e+000	 7.333299999983335e+000	 1.005692031339128e+001
0	 7.199979999988402e+000	 7.399969999982148e+000	 1.005465357836911e+001
0	 7.199979999988403e+000	 7.466639999981866e+000	 1.005242145192341e+001
0	 7.199979999988403e+000	 7.533309999982382e+000	 1.005022156070755e+001
0	 7.199979999988403e+000	 7.599979999983599e+000	 1.004805153137490e+001
0	 7.199979999988404e+000	 7.666649999985416e+000	 1.004590899057883e+001
0	 7.199979999988405e+000	 7.733319999987733e+000	 1.004379156497272e+001
0	 7.199979999988404e+000	 7.799989999990448e+000	 1.004169688120991e+001
0	 7.199979999988403e+000	 7.866659999993466e+000	 1.003962256594381e+001
0	 7.199979999988405e+000	 7.933329999996683e+000	 1.003756624582777e+001
0	 7.199979999988405e+000	 8.000000000000000e+000	 1.003552554751518e+001
0	 7.266639999985471e+000	 7.333299999983332e+000	 1.005519983847330e+001
0	 7.266639999985469e+000	 7.399969999982150e+000	 1.005301090299917e+001
0	 7.266639999985471e+000	 7.466639999981865e+000	 1.005085462937753e+001
0	 7.266639999985471e+000	 7.533309999982383e+000	 1.004872869322159e+001
0	 7.266639999985471e+000	 7.599979999983600e+000	 1.004663077014456e+001
0	 7.266639999985471e+000	 7.666649999985413e+000	 1.004455853575966e+001
0	 7.266639999985471e+000	 7.733319999987733e+000	 1.004250966568007e+001
0	 7.266639999985471e+000	 7.799989999990449e+000	 1.004048183551902e+001
0	 7.266639999985472e+000	 7.866659999993468e+000	 1.003847272088970e+001
0	 7.266639999985471e+000	 7.933329999996683e+000	 1.003647999740533e+001
0	 7.266639999985470e+000	 8.000000000000000e+000	 1.003450134067913e+001
0	 7.333299999983336e+000	 7.333299999983336e+000	 1.005347560195775e+001
0	 7.333299999983333e+000	 7.399969999982150e+000	 1.005136445780962e+001
0	 7.333299999983334e+000	 7.466639999981866e+000	 1.004928404122015e+001
0	 7.333299999983335e+000	 7.533309999982384e+000	 1.004723208268327e+001
0	 7.333299999983334e+000	 7.599979999983599e+000	 1.004520631269290e+001
0	 7.333299999983335e+000	 7.666649999985417e+000	 1.004320446174295e+001
0	 7.333299999983335e+000	 7.733319999987733e+000	 1.004122426032736e+001
0	 7.333299999983334e+000	 7.799989999990448e+000	 1.003926343894006e+001
0	 7.333299999983332e+000	 7.866659999993465e+000	 1.003731972807495e+001
0	 7.333299999983333e+000	 7.933329999996682e+000	 1.003539085822596e+001
0	 7.333299999983335e+000	 8.000000000000000e+000	 1.003347455988705e+001
0	 6.666700000016668e+000	 8.000000000000000e+000	 1.004324381624176e+001
0	 6.666700000016666e+000	 8.066670000003317e+000	 1.004078030184646e+001
0	 6.666700000016665e+000	 8.133340000006532e+000	 1.003838338686854e+001
0	 6.666700000016666e+000	 8.200010000009550e+000	 1.003605003752732e+001
0	 6.666700000016665e+000	 8.266680000012267e+000	 1.003377722004216e+001
0	 6.666700000016666e+000	 8.333350000014583e+000	 1.003156190063238e+001
0	 6.666700000016667e+000	 8.400020000016401e+000	 1.002940104551733e+001
0	 6.666700000016667e+000	 8.466690000017618e+000	 1.002729162091635e+001
0	 6.666700000016665e+000	 8.533360000018133e+000	 1.002523059304878e+001
0	 6.666700000016666e+000	 8.600030000017851e+000	 1.002321492813397e+001
0	 6.666700000016666e+000	 8.666700000016666e+000	 1.002124159239125e+001
0	 6.733360000014532e+000	 7.999999999999999e+000	 1.004235501811736e+001
0	 6.733360000014533e+000	 8.066670000003317e+000	 1.003994505066787e+001
0	 6.733360000014531e+000	 8.133340000006530e+000	 1.003759995141163e+001
0	 6.733360000014533e+000	 8.200010000009550e+000	 1.003531673229113e+001
0	 6.733360000014531e+000	 8.266680000012268e+000	 1.003309240524881e+001
0	 6.733360000014533e+000	 8.333350000014582e+000	 1.003092398222713e+001
0	 6.733360000014533e+000	 8.400020000016401e+000	 1.002880847516854e+001
0	 6.733360000014534e+000	 8.466690000017616e+000	 1.002674289601550e+001
0	 6.733360000014533e+000	 8.533360000018133e+000	 1.002472425671048e+001
0	 6.733360000014533e+000	 8.600030000017853e+000	 1.002274956919592e+001
0	 6.733360000014533e+000	 8.666700000016666e+000	 1.002081584541429e+001
0	 6.800020000011600e+000	 8.000000000000000e+000	 1.004143813113397e+001
0	 6.800020000011600e+000	 8.066670000003317e+000	 1.003908296035566e+001
0	 6.800020000011599e+000	 8.133340000006530e+000	 1.003679092273748e+001
0	 6.800020000011601e+000	 8.200010000009554e+000	 1.003455907587446e+001
0	 6.800020000011601e+000	 8.266680000012265e+000	 1.003238447736163e+001
0	 6.800020000011600e+000	 8.333350000014585e+000	 1.003026418479405e+001
0	 6.800020000011599e+000	 8.400020000016397e+000	 1.002819525576676e+001
0	 6.800020000011599e+000	 8.466690000017618e+000	 1.002617474787478e+001
0	 6.800020000011601e+000	 8.533360000018135e+000	 1.002419971871318e+001
0	 6.800020000011600e+000	 8.600030000017853e+000	 1.002226722587701e+001
0	 6.800020000011599e+000	 8.666700000016668e+000	 1.002037432696128e+001
0	 6.866680000008066e+000	 7.999999999999999e+000	 1.004049634465441e+001
0	 6.866680000008068e+000	 8.066670000003319e+000	 1.003819710756920e+001
0	 6.866680000008069e+000	 8.133340000006536e+000	 1.003595926512818e+001
0	 6.866680000008066e+000	 8.200010000009549e+000	 1.003377992050845e+001
0	 6.866680000008067e+000	 8.266680000012268e+000	 1.003165617688710e+001
0	 6.866680000008067e+000	 8.333350000014585e+000	 1.002958513744123e+001
0	 6.866680000008067e+000	 8.400020000016399e+000	 1.002756390534794e+001
0	 6.866680000008066e+000	 8.466690000017614e+000	 1.002558958378434e+001
0	 6.866680000008068e+000	 8.533360000018133e+000	 1.002365927592751e+001
0	 6.866680000008067e+000	 8.600030000017849e+000	 1.002177008495456e+001
0	 6.866680000008068e+000	 8.666700000016668e+000	 1.001991911404258e+001
0	 6.933340000004137e+000	 8.000000000000000e+000	 1.003953284804160e+001
0	 6.933340000004134e+000	 8.066670000003317e+000	 1.003729056896784e+001
0	 6.933340000004132e+000	 8.133340000006532e+000	 1.003510794286585e+001
0	 6.933340000004134e+000	 8.200010000009550e+000	 1.003298211842427e+001
0	 6.933340000004134e+000	 8.266680000012267e+000	 1.003091024433170e+001
0	 6.933340000004133e+000	 8.333350000014583e+000	 1.002888946927677e+001
0	 6.933340000004135e+000	 8.400020000016401e+000	 1.002691694194810e+001
0	 6.933340000004134e+000	 8.466690000017616e+000	 1.002498981103432e+001
0	 6.933340000004134e+000	 8.533360000018133e+000	 1.002310522522406e+001
0	 6.933340000004134e+000	 8.600030000017851e+000	 1.002126033320593e+001
0	 6.933340000004135e+000	 8.666700000016666e+000	 1.001945228366857e+001
0	 7.000000000000002e+000	 8.000000000000000e+000	 1.003855083065841e+001
0	 7.000000000000002e+000	 8.066670000003315e+000	 1.003636642121092e+001
0	 7.000000000000000e+000	 8.133340000006530e+000	 1.003423992023261e+001
0	 7.000000000000002e+000	 8.200010000009554e+000	 1.003216852185305e+001
0	 7.000000000000000e+000	 8.266680000012265e+000	 1.003014942020189e+001
0	 7.000000000000002e+000	 8.333350000014585e+000	 1.002817980940874e+001
0	 7.000000000000003e+000	 8.400020000016401e+000	 1.002625688360320e+001
0	 7.000000000000002e+000	 8.466690000017616e+000	 1.002437783691488e+001
0	 7.000000000000002e+000	 8.533360000018133e+000	 1.002253986347345e+001
0	 7.000000000000000e+000	 8.600030000017851e+000	 1.002074015740848e+001
0	 7.000000000000003e+000	 8.666700000016666e+000	 1.001897591284961e+001
0	 7.066659999995870e+000	 7.999999999999999e+000	 1.003755348186769e+001
0	 7.066659999995869e+000	 8.066670000003317e+000	 1.003542774095782e+001
0	 7.066659999995871e+000	 8.133340000006534e+000	 1.003335816151056e+001
0	 7.066659999995870e+000	 8.200010000009554e+000	 1.003134198302599e+001
0	 7.066659999995870e+000	 8.266680000012267e+000	 1.002937644500418e+001
0	 7.066659999995871e+000	 8.333350000014583e+000	 1.002745878694524e+001
0	 7.066659999995869e+000	 8.400020000016399e+000	 1.002558624834921e+001
0	 7.066659999995870e+000	 8.466690000017618e+000	 1.002375606871620e+001
0	 7.066659999995870e+000	 8.533360000018137e+000	 1.002196548754628e+001
0	 7.066659999995870e+000	 8.600030000017851e+000	 1.002021174433956e+001
0	 7.066659999995869e+000	 8.666700000016668e+000	 1.001849207859610e+001
0	 7.133319999991937e+000	 7.999999999999999e+000	 1.003654399103231e+001
0	 7.133319999991937e+000	 8.066670000003319e+000	 1.003447760486785e+001
0	 7.133319999991937e+000	 8.133340000006534e+000	 1.003246563098181e+001
0	 7.133319999991937e+000	 8.200010000009554e+000	 1.003050535417420e+001
0	 7.133319999991937e+000	 8.266680000012268e+000	 1.002859405924504e+001
0	 7.133319999991937e+000	 8.333350000014583e+000	 1.002672903099435e+001
0	 7.133319999991937e+000	 8.400020000016403e+000	 1.002490755422212e+001
0	 7.133319999991935e+000	 8.466690000017620e+000	 1.002312691372840e+001
0	 7.133319999991937e+000	 8.533360000018135e+000	 1.002138439431319e+001
0	 7.133319999991937e+000	 8.600030000017851e+000	 1.001967728077653e+001
0	 7.133319999991937e+000	 8.666700000016668e+000	 1.001800285791840e+001
0	 7.199979999988405e+000	 8.000000000000000e+000	 1.003552554751518e+001
0	 7.199979999988403e+000	 8.066670000003315e+000	 1.003351908960038e+001
0	 7.199979999988404e+000	 8.133340000006532e+000	 1.003156529292848e+001
0	 7.199979999988405e+000	 8.200010000009550e+000	 1.002966148752885e+001
0	 7.199979999988405e+000	 8.266680000012267e+000	 1.002780500343094e+001
0	 7.199979999988406e+000	 8.333350000014583e+000	 1.002599317066414e+001
0	 7.199979999988403e+000	 8.400020000016399e+000	 1.002422331925792e+001
0	 7.199979999988404e+000	 8.466690000017616e+000	 1.002249277924165e+001
0	 7.199979999988404e+000	 8.533360000018135e+000	 1.002079888064477e+001
0	 7.199979999988404e+000	 8.600030000017851e+000	 1.001913895349670e+001
0	 7.199979999988403e+000	 8.666700000016666e+000	 1.001751032782690e+001
0	 7.266639999985470e+000	 8.000000000000000e+000	 1.003450134067913e+001
0	 7.266639999985472e+000	 8.066670000003319e+000	 1.003255527181477e+001
0	 7.266639999985471e+000	 8.133340000006534e+000	 1.003066011163266e+001
0	 7.266639999985472e+000	 8.200010000009552e+000	 1.002881323532109e+001
0	 7.266639999985472e+000	 8.266680000012267e+000	 1.002701201806836e+001
0	 7.266639999985473e+000	 8.333350000014585e+000	 1.002525383506275e+001
0	 7.266639999985472e+000	 8.400020000016403e+000	 1.002353606149257e+001
0	 7.266639999985472e+000	 8.466690000017618e+000	 1.002185607254609e+001
0	 7.266639999985470e+000	 8.533360000018133e+000	 1.002021124341164e+001
0	 7.266639999985472e+000	 8.600030000017851e+000	 1.001859894927748e+001
0	 7.266639999985471e+000	 8.666700000016668e+000	 1.001701656533193e+001
0	 7.333299999983335e+000	 8.000000000000000e+000	 1.003347455988705e+001
0	 7.333299999983335e+000	 8.066670000003317e+000	 1.003158922817033e+001
0	 7.333299999983332e+000	 8.133340000006532e+000	 1.002975305137645e+001
0	 7.333299999983334e+000	 8.200010000009550e+000	 1.002796344978207e+001
0	 7.333299999983334e+000	 8.266680000012268e+000	 1.002621784366378e+001
0	 7.333299999983335e+000	 8.333350000014585e+000	 1.002451365329822e+001
0	 7.333299999983333e+000	 8.400020000016399e+000	 1.002284829896205e+001
0	 7.333299999983334e+000	 8.466690000017620e+000	 1.002121920093191e+001
0	 7.333299999983332e+000	 8.533360000018135e+000	 1.001962377948438e+001
0	 7.333299999983335e+000	 8.600030000017853e+000	 1.001805945489618e+001
0	 7.333299999983334e+000	 8.666700000016665e+000	 1.001652364744390e+001
0	 6.666700000016666e+000	 8.666700000016666e+000	 1.002124159239125e+001
0	 6.666700000016665e+000	 8.733360002791899e+000	 1.001933664532174e+001
0	 6.666700000016665e+000	 8.800020022230555e+000	 1.001752496038306e+001
0	 6.666700000016666e+000	 8.866680074997040e+000	 1.001580260342175e+001
0	 6.666700000016667e+000	 8.933340177755779e+000	 1.001416564002358e+001
0	 6.666700000016666e+000	 9.000000347171179e+000	 1.001261013551353e+001
0	 6.666700000016667e+000	 9.066660599907669e+000	 1.001113215495569e+001
0	 6.666700000016666e+000	 9.133320952629658e+000	 1.000972776315342e+001
0	 6.666700000016665e+000	 9.199981422001558e+000	 1.000839302464917e+001
0	 6.666700000016667e+000	 9.266642024687796e+000	 1.000712400372465e+001
0	 6.666700000016665e+000	 9.333302777352781e+000	 1.000591676440072e+001
0	 6.733360000014533e+000	 8.666700000016666e+000	 1.002081584541430e+001
0	 6.733360000014534e+000	 8.733360002791903e+000	 1.001894894131391e+001
0	 6.733360000014534e+000	 8.800020022230553e+000	 1.001717355185941e+001
0	 6.733360000014532e+000	 8.866680074997042e+000	 1.001548580868977e+001
0	 6.733360000014532e+000	 8.933340177755776e+000	 1.001388184318802e+001
0	 6.733360000014532e+000	 9.000000347171183e+000	 1.001235778648122e+001
0	 6.733360000014532e+000	 9.066660599907669e+000	 1.001090976944050e+001
0	 6.733360000014533e+000	 9.133320952629656e+000	 1.000953392268098e+001
0	 6.733360000014533e+000	 9.199981422001558e+000	 1.000822637656184e+001
0	 6.733360000014532e+000	 9.266642024687798e+000	 1.000698326118627e+001
0	 6.733360000014532e+000	 9.333302777352783e+000	 1.000580070640158e+001
0	 6.800020000011599e+000	 8.666700000016668e+000	 1.002037432696128e+001
0	 6.800020000011601e+000	 8.733360002791905e+000	 1.001854663438088e+001
0	 6.800020000011600e+000	 8.800020022230557e+000	 1.001680862701092e+001
0	 6.800020000011601e+000	 8.866680074997042e+000	 1.001515650524380e+001
0	 6.800020000011600e+000	 8.933340177755781e+000	 1.001358646922090e+001
0	 6.800020000011600e+000	 9.000000347171183e+000	 1.001209471883270e+001
0	 6.800020000011601e+000	 9.066660599907669e+000	 1.001067745371877e+001
0	 6.800020000011601e+000	 9.133320952629655e+000	 1.000933087326772e+001
0	 6.800020000011601e+000	 9.199981422001558e+000	 1.000805117661719e+001
0	 6.800020000011599e+000	 9.266642024687796e+000	 1.000683456265390e+001
0	 6.800020000011601e+000	 9.333302777352783e+000	 1.000567723001370e+001
0	 6.866680000008068e+000	 8.666700000016668e+000	 1.001991911404258e+001
0	 6.866680000008066e+000	 8.733360002791903e+000	 1.001813169614451e+001
0	 6.866680000008068e+000	 8.800020022230553e+000	 1.001643206046883e+001
0	 6.866680000008067e+000	 8.866680074997044e+000	 1.001481647912223e+001
0	 6.866680000008067e+000	 8.933340177755781e+000	 1.001328122396573e+001
0	 6.866680000008067e+000	 9.000000347171181e+000	 1.001182256661459e+001
0	 6.866680000008067e+000	 9.066660599907667e+000	 1.001043677843825e+001
0	 6.866680000008067e+000	 9.133320952629655e+000	 1.000912013056050e+001
0	 6.866680000008067e+000	 9.199981422001557e+000	 1.000786889385924e+001
0	 6.866680000008068e+000	 9.266642024687796e+000	 1.000667933896670e+001
0	 6.866680000008068e+000	 9.333302777352783e+000	 1.000554773626936e+001
0	 6.933340000004135e+000	 8.666700000016666e+000	 1.001945228366857e+001
0	 6.933340000004134e+000	 8.733360002791901e+000	 1.001770609822669e+001
0	 6.933340000004134e+000	 8.800020022230557e+000	 1.001604572686425e+001
0	 6.933340000004135e+000	 8.866680074997042e+000	 1.001446751636346e+001
0	 6.933340000004134e+000	 8.933340177755776e+000	 1.001296781326607e+001
0	 6.933340000004135e+000	 9.000000347171181e+000	 1.001154296387352e+001
0	 6.933340000004135e+000	 9.066660599907667e+000	 1.001018931424672e+001
0	 6.933340000004135e+000	 9.133320952629655e+000	 1.000890321020617e+001
0	 6.933340000004134e+000	 9.199981422001558e+000	 1.000768099733198e+001
0	 6.933340000004133e+000	 9.266642024687796e+000	 1.000651902096378e+001
0	 6.933340000004136e+000	 9.333302777352786e+000	 1.000541362620083e+001
0	 7.000000000000003e+000	 8.666700000016666e+000	 1.001897591284961e+001
0	 7.000000000000002e+000	 8.733360002791903e+000	 1.001727181224929e+001
0	 7.000000000000003e+000	 8.800020022230557e+000	 1.001565150082841e+001
0	 7.000000000000002e+000	 8.866680074997042e+000	 1.001411140300582e+001
0	 7.000000000000004e+000	 8.933340177755778e+000	 1.001264794296542e+001
0	 7.000000000000003e+000	 9.000000347171181e+000	 1.001125754465611e+001
0	 7.000000000000002e+000	 9.066660599907667e+000	 1.000993663179186e+001
0	 7.000000000000002e+000	 9.133320952629658e+000	 1.000868162785163e+001
0	 7.000000000000002e+000	 9.199981422001558e+000	 1.000748895607945e+001
0	 7.000000000000004e+000	 9.266642024687796e+000	 1.000635503948433e+001
0	 7.000000000000002e+000	 9.333302777352783e+000	 1.000527630084037e+001
0	 7.066659999995869e+000	 8.666700000016668e+000	 1.001849207859610e+001
0	 7.066659999995869e+000	 8.733360002791901e+000	 1.001683080983416e+001
0	 7.066659999995870e+000	 8.800020022230555e+000	 1.001525125699249e+001
0	 7.066659999995870e+000	 8.866680074997042e+000	 1.001374992508775e+001
0	 7.066659999995870e+000	 8.933340177755781e+000	 1.001232331890730e+001
0	 7.066659999995869e+000	 9.000000347171181e+000	 1.001096794300901e+001
0	 7.066659999995871e+000	 9.066660599907667e+000	 1.000968030172146e+001
0	 7.066659999995871e+000	 9.133320952629656e+000	 1.000845689914377e+001
0	 7.066659999995870e+000	 9.199981422001558e+000	 1.000729423914566e+001
0	 7.066659999995869e+000	 9.266642024687794e+000	 1.000618882536749e+001
0	 7.066659999995870e+000	 9.333302777352783e+000	 1.000513716122029e+001
0	 7.133319999991937e+000	 8.666700000016668e+000	 1.001800285791840e+001
0	 7.133319999991937e+000	 8.733360002791903e+000	 1.001638506260317e+001
0	 7.133319999991937e+000	 8.800020022230553e+000	 1.001484686998763e+001
0	 7.133319999991937e+000	 8.866680074997039e+000	 1.001338486864760e+001
0	 7.133319999991936e+000	 8.933340177755776e+000	 1.001199564693520e+001
0	 7.133319999991937e+000	 9.000000347171181e+000	 1.001067579297884e+001
0	 7.133319999991936e+000	 9.066660599907671e+000	 1.000942189468325e+001
0	 7.133319999991936e+000	 9.133320952629656e+000	 1.000823053972938e+001
0	 7.133319999991937e+000	 9.199981422001560e+000	 1.000709831557458e+001
0	 7.133319999991937e+000	 9.266642024687801e+000	 1.000602180945241e+001
0	 7.133319999991937e+000	 9.333302777352781e+000	 1.000499760837280e+001
0	 7.199979999988403e+000	 8.666700000016666e+000	 1.001751032782690e+001
0	 7.199979999988404e+000	 8.733360002791903e+000	 1.001593654217819e+001
0	 7.199979999988405e+000	 8.800020022230557e+000	 1.001444021444504e+001
0	 7.199979999988404e+000	 8.866680074997042e+000	 1.001301801972377e+001
0	 7.199979999988404e+000	 8.933340177755779e+000	 1.001166663289269e+001
0	 7.199979999988405e+000	 9.000000347171183e+000	 1.001038272861224e+001
0	 7.199979999988404e+000	 9.066660599907666e+000	 1.000916298132495e+001
0	 7.199979999988404e+000	 9.133320952629655e+000	 1.000800406525540e+001
0	 7.199979999988404e+000	 9.199981422001560e+000	 1.000690265441025e+001
0	 7.199979999988403e+000	 9.266642024687796e+000	 1.000585542257825e+001
0	 7.199979999988404e+000	 9.333302777352785e+000	 1.000485904333022e+001
0	 7.266639999985471e+000	 8.666700000016668e+000	 1.001701656533193e+001
0	 7.266639999985470e+000	 8.733360002791899e+000	 1.001548722018106e+001
0	 7.266639999985471e+000	 8.800020022230555e+000	 1.001403316499590e+001
0	 7.266639999985473e+000	 8.866680074997042e+000	 1.001265116435460e+001
0	 7.266639999985470e+000	 8.933340177755778e+000	 1.001133798262323e+001
0	 7.266639999985471e+000	 9.000000347171179e+000	 1.001009038395582e+001
0	 7.266639999985472e+000	 9.066660599907667e+000	 1.000890513229433e+001
0	 7.266639999985472e+000	 9.133320952629658e+000	 1.000777899136867e+001
0	 7.266639999985472e+000	 9.199981422001558e+000	 1.000670872469668e+001
0	 7.266639999985473e+000	 9.266642024687798e+000	 1.000569109558415e+001
0	 7.266639999985471e+000	 9.333302777352783e+000	 1.000472286712478e+001
0	 7.333299999983334e+000	 8.666700000016665e+000	 1.001652364744390e+001
0	 7.333299999983335e+000	 8.733360002791903e+000	 1.001503906823366e+001
0	 7.333299999983333e+000	 8.800020022230555e+000	 1.001362759627137e+001
0	 7.333299999983335e+000	 8.866680074997040e+000	 1.001228608857849e+001
0	 7.333299999983334e+000	 8.933340177755779e+000	 1.001101140197037e+001
0	 7.333299999983333e+000	 9.000000347171179e+000	 1.000980039305622e+001
0	 7.333299999983335e+000	 9.066660599907667e+000	 1.000864991823914e+001
0	 7.333299999983334e+000	 9.133320952629655e+000	 1.000755683371606e+001
0	 7.333299999983333e+000	 9.199981422001558e+000	 1.000651799547787e+001
0	 7.333299999983333e+000	 9.266642024687794e+000	 1.000553025930924e+001
0	 7.333299999983334e+000	 9.333302777352781e+000	 1.000459048078875e+001
0	 6.666700000016665e+000	 9.333302777352781e+000	 1.000591676440072e+001
0	 6.666700000016666e+000	 9.399973674588177e+000	 1.000480432397331e+001
0	 6.666700000016665e+000	 9.466644621844619e+000	 1.000381924452272e+001
0	 6.666700000016667e+000	 9.533315502449998e+000	 1.000295637900809e+001
0	 6.666700000016666e+000	 9.599986199732198e+000	 1.000221058299835e+001
0	 6.666700000016665e+000	 9.666656597019093e+000	 1.000157671467244e+001
0	 6.666700000016666e+000	 9.733326577638575e+000	 1.000104963481930e+001
0	 6.666700000016666e+000	 9.799996024918521e+000	 1.000062420683790e+001
0	 6.666700000016666e+000	 9.866664822186822e+000	 1.000029529673744e+001
0	 6.666700000016665e+000	 9.933332852771352e+000	 1.000005777313769e+001
0	 6.666700000016666e+000	 1.000000000000000e+001	 9.999906507269225e+000
0	 6.733360000014532e+000	 9.333302777352783e+000	 1.000580070640157e+001
0	 6.733360000014532e+000	 9.399973674588175e+000	 1.000471101265426e+001
0	 6.733360000014532e+000	 9.466644621844621e+000	 1.000374607479430e+001
0	 6.733360000014534e+000	 9.533315502450002e+000	 1.000290089684551e+001
0	 6.733360000014530e+000	 9.599986199732195e+000	 1.000217048539086e+001
0	 6.733360000014533e+000	 9.666656597019095e+000	 1.000154984957240e+001
0	 6.733360000014531e+000	 9.733326577638575e+000	 1.000103400109144e+001
0	 6.733360000014533e+000	 9.799996024918523e+000	 1.000061795420853e+001
0	 6.733360000014532e+000	 9.866664822186824e+000	 1.000029672574374e+001
0	 6.733360000014534e+000	 9.933332852771352e+000	 1.000006533507681e+001
0	 6.733360000014533e+000	 1.000000000000000e+001	 9.999918804147592e+000
0	 6.800020000011601e+000	 9.333302777352783e+000	 1.000567723001370e+001
0	 6.800020000011597e+000	 9.399973674588173e+000	 1.000461074838415e+001
0	 6.800020000011599e+000	 9.466644621844619e+000	 1.000366632937745e+001
0	 6.800020000011599e+000	 9.533315502450000e+000	 1.000283912812568e+001
0	 6.800020000011599e+000	 9.599986199732195e+000	 1.000212430226773e+001
0	 6.800020000011601e+000	 9.666656597019093e+000	 1.000151701194937e+001
0	 6.800020000011600e+000	 9.733326577638577e+000	 1.000101241982313e+001
0	 6.800020000011601e+000	 9.799996024918523e+000	 1.000060569104856e+001
0	 6.800020000011600e+000	 9.866664822186820e+000	 1.000029199329237e+001
0	 6.800020000011599e+000	 9.933332852771351e+000	 1.000006649672866e+001
0	 6.800020000011600e+000	 1.000000000000000e+001	 9.999924374039262e+000
0	 6.866680000008068e+000	 9.333302777352783e+000	 1.000554773626935e+001
0	 6.866680000008066e+000	 9.399973674588178e+000	 1.000450491237369e+001
0	 6.866680000008066e+000	 9.466644621844617e+000	 1.000358138124159e+001
0	 6.866680000008067e+000	 9.533315502450000e+000	 1.000277244915690e+001
0	 6.866680000008065e+000	 9.599986199732195e+000	 1.000207342485656e+001
0	 6.866680000008066e+000	 9.666656597019095e+000	 1.000147961953064e+001
0	 6.866680000008066e+000	 9.733326577638573e+000	 1.000098634682223e+001
0	 6.866680000008066e+000	 9.799996024918523e+000	 1.000058892282770e+001
0	 6.866680000008066e+000	 9.866664822186824e+000	 1.000028266609684e+001
0	 6.866680000008068e+000	 9.933332852771352e+000	 1.000006289763305e+001
0	 6.866680000008066e+000	 9.999999999999998e+000	 9.999924940893711e+000
0	 6.933340000004136e+000	 9.333302777352786e+000	 1.000541362620083e+001
0	 6.933340000004133e+000	 9.399973674588173e+000	 1.000439488583359e+001
0	 6.933340000004133e+000	 9.466644621844619e+000	 1.000349260335610e+001
0	 6.933340000004132e+000	 9.533315502449998e+000	 1.000270223624750e+001
0	 6.933340000004134e+000	 9.599986199732197e+000	 1.000201924438492e+001
0	 6.933340000004136e+000	 9.666656597019095e+000	 1.000143909004357e+001
0	 6.933340000004136e+000	 9.733326577638575e+000	 1.000095723789670e+001
0	 6.933340000004134e+000	 9.799996024918521e+000	 1.000056915501579e+001
0	 6.933340000004135e+000	 9.866664822186822e+000	 1.000027031087067e+001
0	 6.933340000004135e+000	 9.933332852771352e+000	 1.000005617732977e+001
0	 6.933340000004134e+000	 9.999999999999998e+000	 9.999922228660482e+000
0	 7.000000000000002e+000	 9.333302777352783e+000	 1.000527630084037e+001
0	 7.000000000000002e+000	 9.399973674588177e+000	 1.000428204997454e+001
0	 7.000000000000003e+000	 9.466644621844621e+000	 1.000340136869042e+001
0	 7.000000000000002e+000	 9.533315502449998e+000	 1.000262986570580e+001
0	 7.000000000000000e+000	 9.599986199732197e+000	 1.000196315208034e+001
0	 7.000000000000001e+000	 9.666656597019093e+000	 1.000139684121543e+001
0	 7.000000000000003e+000	 9.733326577638577e+000	 1.000092654885441e+001
0	 7.000000000000001e+000	 9.799996024918524e+000	 1.000054789308256e+001
0	 7.000000000000003e+000	 9.866664822186825e+000	 1.000025649432740e+001
0	 7.000000000000001e+000	 9.933332852771354e+000	 1.000004797535872e+001
0	 7.000000000000002e+000	 1.000000000000000e+001	 9.999917961289073e+000
0	 7.066659999995870e+000	 9.333302777352783e+000	 1.000513716122029e+001
0	 7.066659999995868e+000	 9.399973674588175e+000	 1.000416778600723e+001
0	 7.066659999995871e+000	 9.466644621844621e+000	 1.000330905021392e+001
0	 7.066659999995871e+000	 9.533315502450002e+000	 1.000255671384016e+001
0	 7.066659999995870e+000	 9.599986199732197e+000	 1.000190653917037e+001
0	 7.066659999995869e+000	 9.666656597019095e+000	 1.000135429077353e+001
0	 7.066659999995870e+000	 9.733326577638573e+000	 1.000089573550328e+001
0	 7.066659999995870e+000	 9.799996024918524e+000	 1.000052664249788e+001
0	 7.066659999995870e+000	 9.866664822186824e+000	 1.000024278318058e+001
0	 7.066659999995870e+000	 9.933332852771356e+000	 1.000003993125962e+001
0	 7.066659999995869e+000	 9.999999999999998e+000	 9.999913862728912e+000
0	 7.133319999991937e+000	 9.333302777352781e+000	 1.000499760837280e+001
0	 7.133319999991936e+000	 9.399973674588177e+000	 1.000405347514240e+001
0	 7.133319999991937e+000	 9.466644621844619e+000	 1.000321702089600e+001
0	 7.133319999991936e+000	 9.533315502450002e+000	 1.000248415695885e+001
0	 7.133319999991937e+000	 9.599986199732202e+000	 1.000185079688260e+001
0	 7.133319999991937e+000	 9.666656597019095e+000	 1.000131285644525e+001
0	 7.133319999991936e+000	 9.733326577638577e+000	 1.000086625365123e+001
0	 7.133319999991937e+000	 9.799996024918523e+000	 1.000050690873148e+001
0	 7.133319999991937e+000	 9.866664822186824e+000	 1.000023074414365e+001
0	 7.133319999991937e+000	 9.933332852771354e+000	 1.000003368457237e+001
0	 7.133319999991937e+000	 1.000000000000000e+001	 9.999911656929363e+000
0	 7.199979999988404e+000	 9.333302777352785e+000	 1.000485904333022e+001
0	 7.199979999988403e+000	 9.399973674588175e+000	 1.000394049859071e+001
0	 7.199979999988403e+000	 9.466644621844617e+000	 1.000312665370602e+001
0	 7.199979999988404e+000	 9.533315502450000e+000	 1.000241357137020e+001
0	 7.199979999988403e+000	 9.599986199732197e+000	 1.000179731644455e+001
0	 7.199979999988402e+000	 9.666656597019093e+000	 1.000127395595783e+001
0	 7.199979999988403e+000	 9.733326577638575e+000	 1.000083955910614e+001
0	 7.199979999988405e+000	 9.799996024918523e+000	 1.000049019725312e+001
0	 7.199979999988403e+000	 9.866664822186822e+000	 1.000022194393026e+001
0	 7.199979999988404e+000	 9.933332852771354e+000	 1.000003087483671e+001
0	 7.199979999988405e+000	 1.000000000000000e+001	 9.999913067840017e+000
0	 7.266639999985471e+000	 9.333302777352783e+000	 1.000472286712478e+001
0	 7.266639999985473e+000	 9.399973674588177e+000	 1.000383023756286e+001
0	 7.266639999985470e+000	 9.466644621844619e+000	 1.000303932161345e+001
0	 7.266639999985472e+000	 9.533315502449998e+000	 1.000234633338258e+001
0	 7.266639999985472e+000	 9.599986199732197e+000	 1.000174748908384e+001
0	 7.266639999985471e+000	 9.666656597019095e+000	 1.000123900703860e+001
0	 7.266639999985470e+000	 9.733326577638575e+000	 1.000081710767593e+001
0	 7.266639999985471e+000	 9.799996024918524e+000	 1.000047801353272e+001
0	 7.266639999985471e+000	 9.866664822186822e+000	 1.000021794925388e+001
0	 7.266639999985471e+000	 9.933332852771352e+000	 1.000003314159250e+001
0	 7.266639999985471e+000	 1.000000000000000e+001	 9.999919819410231e+000
0	 7.333299999983334e+000	 9.333302777352781e+000	 1.000459048078875e+001
0	 7.333299999983336e+000	 9.399973674588173e+000	 1.000372407326956e+001
0	 7.333299999983334e+000	 9.466644621844624e+000	 1.000295639758766e+001
0	 7.333299999983333e+000	 9.533315502449998e+000	 1.000228381930425e+001
0	 7.333299999983335e+000	 9.599986199732195e+000	 1.000170270602799e+001
0	 7.333299999983334e+000	 9.666656597019097e+000	 1.000120942741488e+001
0	 7.333299999983333e+000	 9.733326577638573e+000	 1.000080035516850e+001
0	 7.333299999983335e+000	 9.799996024918523e+000	 1.000047186303993e+001
0	 7.333299999983333e+000	 9.866664822186822e+000	 1.000022032682803e+001
0	 7.333299999983333e+000	 9.933332852771354e+000	 1.000004212437955e+001
0	 7.333299999983335e+000	 1.000000000000000e+001	 9.999933635589661e+000
0	 7.333299999983335e+000	 0.000000000000000e+000	 1.004757889093625e+001
0	 7.333299999983334e+000	 6.666714722864756e-002	 1.004789567121296e+001
0	 7.333299999983334e+000	 1.333351778131789e-001	 1.004829770885501e+001
0	 7.333299999983335e+000	 2.000039750814772e-001	 1.004879295625883e+001
0	 7.333299999983333e+000	 2.666734223614256e-001	 1.004938936879149e+001
0	 7.333299999983336e+000	 3.333434029809069e-001	 1.005009490479044e+001
0	 7.333299999983335e+000	 4.000138002678045e-001	 1.005091752556339e+001
0	 7.333299999983333e+000	 4.666844975500011e-001	 1.005186519538818e+001
0	 7.333299999983335e+000	 5.333553781553803e-001	 1.005294588151281e+001
0	 7.333299999983335e+000	 6.000263254118248e-001	 1.005416755415556e+001
0	 7.333299999983332e+000	 6.666972226472178e-001	 1.005553818650504e+001
0	 7.399969999982150e+000	 0.000000000000000e+000	 1.003953598455133e+001
0	 7.399969999982149e+000	 6.666714722864757e-002	 1.003984868789354e+001
0	 7.399969999982151e+000	 1.333351778131789e-001	 1.004025756167408e+001
0	 7.399969999982151e+000	 2.000039750814772e-001	 1.004076874995595e+001
0	 7.399969999982151e+000	 2.666734223614254e-001	 1.004138839966154e+001
0	 7.399969999982149e+000	 3.333434029809069e-001	 1.004212266057243e+001
0	 7.399969999982150e+000	 4.000138002678045e-001	 1.004297768532920e+001
0	 7.399969999982149e+000	 4.666844975500011e-001	 1.004395962943142e+001
0	 7.399969999982151e+000	 5.333553781553801e-001	 1.004507465123758e+001
0	 7.399969999982150e+000	 6.000263254118246e-001	 1.004632891196525e+001
0	 7.399969999982150e+000	 6.666972226472177e-001	 1.004772857569118e+001
0	 7.466639999981865e+000	 0.000000000000000e+000	 1.003167661306656e+001
0	 7.466639999981864e+000	 6.666714722864756e-002	 1.003196688375711e+001
0	 7.466639999981866e+000	 1.333351778131789e-001	 1.003236259116027e+001
0	 7.466639999981867e+000	 2.000039750814773e-001	 1.003286829491358e+001
0	 7.466639999981864e+000	 2.666734223614254e-001	 1.003348855740940e+001
0	 7.466639999981866e+000	 3.333434029809069e-001	 1.003422794379463e+001
0	 7.466639999981865e+000	 4.000138002678043e-001	 1.003509102197060e+001
0	 7.466639999981865e+000	 4.666844975500011e-001	 1.003608236259303e+001
0	 7.466639999981864e+000	 5.333553781553803e-001	 1.003720653907200e+001
0	 7.466639999981865e+000	 6.000263254118248e-001	 1.003846812757204e+001
0	 7.466639999981865e+000	 6.666972226472177e-001	 1.003987170701225e+001
0	 7.533309999982381e+000	 0.000000000000000e+000	 1.002396300313626e+001
0	 7.533309999982382e+000	 6.666714722864756e-002	 1.002421676292002e+001
0	 7.533309999982382e+000	 1.333351778131790e-001	 1.002458356317916e+001
0	 7.533309999982382e+000	 2.000039750814773e-001	 1.002506660305674e+001
0	 7.533309999982383e+000	 2.666734223614256e-001	 1.002566908435245e+001
0	 7.533309999982381e+000	 3.333434029809068e-001	 1.002639421152242e+001
0	 7.533309999982381e+000	 4.000138002678044e-001	 1.002724519167902e+001
0	 7.533309999982382e+000	 4.666844975500011e-001	 1.002822523459086e+001
0	 7.533309999982384e+000	 5.333553781553801e-001	 1.002933755268279e+001
0	 7.533309999982381e+000	 6.000263254118246e-001	 1.003058536103593e+001
0	 7.533309999982381e+000	 6.666972226472175e-001	 1.003197187738788e+001
0	 7.599979999983598e+000	 0.000000000000000e+000	 1.001635738141473e+001
0	 7.599979999983597e+000	 6.666714722864754e-002	 1.001656482949863e+001
0	 7.599979999983598e+000	 1.333351778131789e-001	 1.001689124359635e+001
0	 7.599979999983599e+000	 2.000039750814772e-001	 1.001733868631044e+001
0	 7.599979999983599e+000	 2.666734223614256e-001	 1.001790922280811e+001
0	 7.599979999983598e+000	 3.333434029809069e-001	 1.001860492082118e+001
0	 7.599979999983601e+000	 4.000138002678044e-001	 1.001942785064587e+001
0	 7.599979999983598e+000	 4.666844975500011e-001	 1.002038008514272e+001
0	 7.599979999983599e+000	 5.333553781553801e-001	 1.002146369973666e+001
0	 7.599979999983598e+000	 6.000263254118244e-001	 1.002268077241703e+001
0	 7.599979999983598e+000	 6.666972226472177e-001	 1.002403338373773e+001
0	 7.666649999985414e+000	 0.000000000000000e+000	 1.000882197455630e+001
0	 7.666649999985414e+000	 6.666714722864756e-002	 1.000897758760924e+001
0	 7.666649999985416e+000	 1.333351778131789e-001	 1.000925639827743e+001
0	 7.666649999985417e+000	 2.000039750814773e-001	 1.000965955659967e+001
0	 7.666649999985414e+000	 2.666734223614254e-001	 1.001018821509378e+001
0	 7.666649999985414e+000	 3.333434029809068e-001	 1.001084352875633e+001
0	 7.666649999985417e+000	 4.000138002678044e-001	 1.001162665506260e+001
0	 7.666649999985415e+000	 4.666844975500012e-001	 1.001253875396644e+001
0	 7.666649999985415e+000	 5.333553781553803e-001	 1.001358098790032e+001
0	 7.666649999985413e+000	 6.000263254118246e-001	 1.001475452177533e+001
0	 7.666649999985416e+000	 6.666972226472177e-001	 1.001606052298143e+001
0	 7.733319999987730e+000	 0.000000000000000e+000	 1.000131900921526e+001
0	 7.733319999987733e+000	 6.666714722864756e-002	 1.000142154136823e+001
0	 7.733319999987733e+000	 1.333351778131789e-001	 1.000164979308798e+001
0	 7.733319999987730e+000	 2.000039750814772e-001	 1.000200422584947e+001
0	 7.733319999987731e+000	 2.666734223614256e-001	 1.000248530352686e+001
0	 7.733319999987732e+000	 3.333434029809069e-001	 1.000309349239324e+001
0	 7.733319999987733e+000	 4.000138002678044e-001	 1.000382926112065e+001
0	 7.733319999987730e+000	 4.666844975500011e-001	 1.000469308077985e+001
0	 7.733319999987731e+000	 5.333553781553803e-001	 1.000568542484047e+001
0	 7.733319999987732e+000	 6.000263254118247e-001	 1.000680676917092e+001
0	 7.733319999987733e+000	 6.666972226472177e-001	 1.000805759203865e+001
0	 7.799989999990447e+000	 0.000000000000000e+000	 9.993810712045951e+000
0	 7.799989999990450e+000	 6.666714722864757e-002	 9.993863194891917e+000
0	 7.799989999990449e+000	 1.333351778131790e-001	 9.994042193893597e+000
0	 7.799989999990447e+000	 2.000039750814772e-001	 9.994347705984849e+000
0	 7.799989999990448e+000	 2.666734223614256e-001	 9.994779730424744e+000
0	 7.799989999990450e+000	 3.333434029809069e-001	 9.995338268797307e+000
0	 7.799989999990448e+000	 4.000138002678043e-001	 9.996023325011429e+000
0	 7.799989999990447e+000	 4.666844975500011e-001	 9.996834905300789e+000
0	 7.799989999990449e+000	 5.333553781553804e-001	 9.997773018223819e+000
0	 7.799989999990449e+000	 6.000263254118248e-001	 9.998837674663829e+000
0	 7.799989999990450e+000	 6.666972226472179e-001	 1.000002888782900e+001
0	 7.866659999993463e+000	 0.000000000000000e+000	 9.986259309702680e+000
0	 7.866659999993464e+000	 6.666714722864754e-002	 9.986269052296674e+000
0	 7.866659999993464e+000	 1.333351778131789e-001	 9.986404366559865e+000
0	 7.866659999993465e+000	 2.000039750814773e-001	 9.986665008930812e+000
0	 7.866659999993465e+000	 2.666734223614255e-001	 9.987050738104847e+000
0	 7.866659999993464e+000	 3.333434029809069e-001	 9.987561315033911e+000
0	 7.866659999993463e+000	 4.000138002678044e-001	 9.988196502926387e+000
0	 7.866659999993464e+000	 4.666844975500012e-001	 9.988956067247074e+000
0	 7.866659999993464e+000	 5.333553781553801e-001	 9.989839775717112e+000
0	 7.866659999993465e+000	 6.000263254118247e-001	 9.990847398314108e+000
0	 7.866659999993464e+000	 6.666972226472177e-001	 9.991978707272169e+000
0	 7.933329999996681e+000	 0.000000000000000e+000	 9.978627028839769e+000
0	 7.933329999996681e+000	 6.666714722864756e-002	 9.978605617698829e+000
0	 7.933329999996682e+000	 1.333351778131790e-001	 9.978707076952386e+000
0	 7.933329999996682e+000	 2.000039750814772e-001	 9.978931146612382e+000
0	 7.933329999996683e+000	 2.666734223614256e-001	 9.979277568884578e+000
0	 7.933329999996680e+000	 3.333434029809068e-001	 9.979746088168456e+000
0	 7.933329999996681e+000	 4.000138002678044e-001	 9.980336451056964e+000
0	 7.933329999996680e+000	 4.666844975500011e-001	 9.981048406336534e+000
0	 7.933329999996679e+000	 5.333553781553800e-001	 9.981881704987039e+000
0	 7.933329999996682e+000	 6.000263254118248e-001	 9.982836100181816e+000
0	 7.933329999996682e+000	 6.666972226472177e-001	 9.983911347287787e+000
0	 8.000000000000000e+000	 0.000000000000000e+000	 9.970876096111534e+000
0	 8.000000000000002e+000	 6.666714722864757e-002	 9.970839395214743e+000
0	 8.000000000000000e+000	 1.333351778131789e-001	 9.970921090936754e+000
0	 8.000000000000000e+000	 2.000039750814773e-001	 9.971121130954559e+000
0	 8.000000000000002e+000	 2.666734223614256e-001	 9.971439465081353e+000
0	 8.000000000000000e+000	 3.333434029809069e-001	 9.971876045266333e+000
0	 8.000000000000000e+000	 4.000138002678044e-001	 9.972430825594588e+000
0	 8.000000000000000e+000	 4.666844975500011e-001	 9.973103762287023e+000
0	 7.999999999999999e+000	 5.333553781553803e-001	 9.973894813700314e+000
0	 8.000000000000000e+000	 6.000263254118246e-001	 9.974803940326998e+000
0	 7.999999999999999e+000	 6.666972226472177e-001	 9.975831104795516e+000
0	 7.333299999983332e+000	 6.666972226472178e-001	 1.005553818650504e+001
0	 7.333299999983334e+000	 7.333579753122048e-001	 1.005700322358995e+001
0	 7.333299999983334e+000	 8.000185779984417e-001	 1.005850672526350e+001
0	 7.333299999983334e+000	 8.666790473703454e-001	 1.006005393753570e+001
0	 7.333299999983335e+000	 9.333394000923323e-001	 1.006165010617781e+001
0	 7.333299999983334e+000	 9.999996528288190e-001	 1.006330047672232e+001
0	 7.333299999983335e+000	 1.066659822244222e+000	 1.006501029446295e+001
0	 7.333299999983335e+000	 1.133319925002959e+000	 1.006678480445468e+001
0	 7.333299999983333e+000	 1.199979977769445e+000	 1.006862925151374e+001
0	 7.333299999983335e+000	 1.266639997208098e+000	 1.007054888021760e+001
0	 7.333299999983335e+000	 1.333299999983334e+000	 1.007254893490502e+001
0	 7.399969999982150e+000	 6.666972226472177e-001	 1.004772857569118e+001
0	 7.399969999982151e+000	 7.333579753122047e-001	 1.004921576454571e+001
0	 7.399969999982151e+000	 8.000185779984417e-001	 1.005073239101541e+001
0	 7.399969999982151e+000	 8.666790473703451e-001	 1.005228364323672e+001
0	 7.399969999982150e+000	 9.333394000923321e-001	 1.005387470912859e+001
0	 7.399969999982149e+000	 9.999996528288190e-001	 1.005551077639249e+001
0	 7.399969999982150e+000	 1.066659822244222e+000	 1.005719703251244e+001
0	 7.399969999982148e+000	 1.133319925002958e+000	 1.005893866475497e+001
0	 7.399969999982151e+000	 1.199979977769445e+000	 1.006074086016917e+001
0	 7.399969999982150e+000	 1.266639997208098e+000	 1.006260880558663e+001
0	 7.399969999982149e+000	 1.333299999983334e+000	 1.006454768762155e+001
0	 7.466639999981865e+000	 6.666972226472177e-001	 1.003987170701225e+001
0	 7.466639999981864e+000	 7.333579753122048e-001	 1.004135877187431e+001
0	 7.466639999981866e+000	 8.000185779984416e-001	 1.004287161348865e+001
0	 7.466639999981865e+000	 8.666790473703453e-001	 1.004441534374750e+001
0	 7.466639999981867e+000	 9.333394000923321e-001	 1.004599507433841e+001
0	 7.466639999981865e+000	 9.999996528288189e-001	 1.004761591674433e+001
0	 7.466639999981866e+000	 1.066659822244222e+000	 1.004928298224353e+001
0	 7.466639999981866e+000	 1.133319925002959e+000	 1.005100138190961e+001
0	 7.466639999981865e+000	 1.199979977769445e+000	 1.005277622661158e+001
0	 7.466639999981866e+000	 1.266639997208098e+000	 1.005461262701378e+001
0	 7.466639999981866e+000	 1.333299999983334e+000	 1.005651569357594e+001
0	 7.533309999982381e+000	 6.666972226472175e-001	 1.003197187738788e+001
0	 7.533309999982382e+000	 7.333579753122047e-001	 1.003344021688857e+001
0	 7.533309999982382e+000	 8.000185779984415e-001	 1.003493513020826e+001
0	 7.533309999982384e+000	 8.666790473703456e-001	 1.003646163461655e+001
0	 7.533309999982383e+000	 9.333394000923321e-001	 1.003802474718405e+001
0	 7.533309999982382e+000	 9.999996528288192e-001	 1.003962948478243e+001
0	 7.533309999982381e+000	 1.066659822244222e+000	 1.004128086408444e+001
0	 7.533309999982384e+000	 1.133319925002959e+000	 1.004298390156390e+001
0	 7.533309999982384e+000	 1.199979977769445e+000	 1.004474361349573e+001
0	 7.533309999982383e+000	 1.266639997208098e+000	 1.004656501595588e+001
0	 7.533309999982382e+000	 1.333299999983334e+000	 1.004845312482144e+001
0	 7.599979999983598e+000	 6.666972226472177e-001	 1.002403338373773e+001
0	 7.599979999983600e+000	 7.333579753122048e-001	 1.002546807090122e+001
0	 7.599979999983599e+000	 8.000185779984416e-001	 1.002693367869926e+001
0	 7.599979999983598e+000	 8.666790473703451e-001	 1.002843511139242e+001
0	 7.599979999983598e+000	 9.333394000923319e-001	 1.002997727304223e+001
0	 7.599979999983598e+000	 9.999996528288191e-001	 1.003156506751134e+001
0	 7.599979999983599e+000	 1.066659822244222e+000	 1.003320339846340e+001
0	 7.599979999983598e+000	 1.133319925002959e+000	 1.003489716936314e+001
0	 7.599979999983599e+000	 1.199979977769445e+000	 1.003665128347631e+001
0	 7.599979999983598e+000	 1.266639997208098e+000	 1.003847064386973e+001
0	 7.599979999983598e+000	 1.333299999983334e+000	 1.004036015341130e+001
0	 7.666649999985416e+000	 6.666972226472177e-001	 1.001606052298143e+001
0	 7.666649999985416e+000	 7.333579753122048e-001	 1.001745030522508e+001
0	 7.666649999985414e+000	 8.000185779984416e-001	 1.001887799648669e+001
0	 7.666649999985416e+000	 8.666790473703452e-001	 1.002034836962358e+001
0	 7.666649999985413e+000	 9.333394000923320e-001	 1.002186619728971e+001
0	 7.666649999985415e+000	 9.999996528288189e-001	 1.002343625193566e+001
0	 7.666649999985413e+000	 1.066659822244222e+000	 1.002506330580868e+001
0	 7.666649999985415e+000	 1.133319925002959e+000	 1.002675213095263e+001
0	 7.666649999985416e+000	 1.199979977769445e+000	 1.002850749920807e+001
0	 7.666649999985416e+000	 1.266639997208098e+000	 1.003033418221215e+001
0	 7.666649999985415e+000	 1.333299999983333e+000	 1.003223695139874e+001
0	 7.733319999987733e+000	 6.666972226472177e-001	 1.000805759203865e+001
0	 7.733319999987730e+000	 7.333579753122047e-001	 1.000939489117294e+001
0	 7.733319999987730e+000	 8.000185779984415e-001	 1.001077882109557e+001
0	 7.733319999987731e+000	 8.666790473703452e-001	 1.001221400485860e+001
0	 7.733319999987733e+000	 9.333394000923324e-001	 1.001370506530323e+001
0	 7.733319999987733e+000	 9.999996528288190e-001	 1.001525662505997e+001
0	 7.733319999987731e+000	 1.066659822244222e+000	 1.001687330654848e+001
0	 7.733319999987731e+000	 1.133319925002959e+000	 1.001855973197768e+001
0	 7.733319999987731e+000	 1.199979977769445e+000	 1.002032052334572e+001
0	 7.733319999987731e+000	 1.266639997208098e+000	 1.002216030243995e+001
0	 7.733319999987732e+000	 1.333299999983334e+000	 1.002408369083699e+001
0	 7.799989999990450e+000	 6.666972226472179e-001	 1.000002888782900e+001
0	 7.799989999990447e+000	 7.333579753122047e-001	 1.000130980005756e+001
0	 7.799989999990447e+000	 8.000185779984416e-001	 1.000264689005094e+001
0	 7.799989999990449e+000	 8.666790473703453e-001	 1.000404461264595e+001
0	 7.799989999990447e+000	 9.333394000923323e-001	 1.000550742245955e+001
0	 7.799989999990448e+000	 9.999996528288188e-001	 1.000703977388884e+001
0	 7.799989999990447e+000	 1.066659822244222e+000	 1.000864612111106e+001
0	 7.799989999990448e+000	 1.133319925002959e+000	 1.001033091808359e+001
0	 7.799989999990447e+000	 1.199979977769445e+000	 1.001209861854399e+001
0	 7.799989999990448e+000	 1.266639997208098e+000	 1.001395367600995e+001
0	 7.799989999990448e+000	 1.333299999983334e+000	 1.001590054377931e+001
0	 7.866659999993464e+000	 6.666972226472177e-001	 9.991978707272169e+000
0	 7.866659999993464e+000	 7.333579753122048e-001	 9.993203003191756e+000
0	 7.866659999993465e+000	 8.000185779984416e-001	 9.994492940877814e+000
0	 7.866659999993465e+000	 8.666790473703451e-001	 9.995852788534181e+000
0	 7.866659999993466e+000	 9.333394000923324e-001	 9.997286814135416e+000
0	 7.866659999993465e+000	 9.999996528288190e-001	 9.998799285426856e+000
0	 7.866659999993464e+000	 1.066659822244222e+000	 1.000039446992464e+001
0	 7.866659999993465e+000	 1.133319925002959e+000	 1.000207663491566e+001
0	 7.866659999993465e+000	 1.199979977769445e+000	 1.000385004745762e+001
0	 7.866659999993463e+000	 1.266639997208098e+000	 1.000571897437895e+001
0	 7.866659999993465e+000	 1.333299999983334e+000	 1.000768768227893e+001
0	 7.933329999996682e+000	 6.666972226472177e-001	 9.983911347287787e+000
0	 7.933329999996680e+000	 7.333579753122045e-001	 9.985082471888292e+000
0	 7.933329999996681e+000	 8.000185779984416e-001	 9.986327711101252e+000
0	 7.933329999996682e+000	 8.666790473703456e-001	 9.987651128071812e+000
0	 7.933329999996682e+000	 9.333394000923321e-001	 9.989056785707575e+000
0	 7.933329999996682e+000	 9.999996528288190e-001	 9.990548746678607e+000
0	 7.933329999996682e+000	 1.066659822244222e+000	 9.992131073417475e+000
0	 7.933329999996681e+000	 1.133319925002959e+000	 9.993807828119206e+000
0	 7.933329999996680e+000	 1.199979977769445e+000	 9.995583072741308e+000
0	 7.933329999996682e+000	 1.266639997208098e+000	 9.997460869003779e+000
0	 7.933329999996682e+000	 1.333299999983334e+000	 9.999445278389098e+000
0	 7.999999999999999e+000	 6.666972226472177e-001	 9.975831104795516e+000
0	 8.000000000000000e+000	 7.333579753122049e-001	 9.976956177459966e+000
0	 8.000000000000000e+000	 8.000185779984418e-001	 9.978161938246267e+000
0	 8.000000000000000e+000	 8.666790473703454e-001	 9.979452226807359e+000
0	 8.000000000000000e+000	 9.333394000923323e-001	 9.980830882552777e+000
0	 8.000000000000000e+000	 9.999996528288189e-001	 9.982301744648671e+000
0	 8.000000000000000e+000	 1.066659822244222e+000	 9.983868652017792e+000
0	 8.000000000000000e+000	 1.133319925002959e+000	 9.985535443339515e+000
0	 8.000000000000000e+000	 1.199979977769445e+000	 9.987305957049799e+000
0	 7.999999999999999e+000	 1.266639997208097e+000	 9.989184031341244e+000
0	 8.000000000000000e+000	 1.333299999983334e+000	 9.991173504163051e+000
0	 7.333299999983335e+000	 1.333299999983334e+000	 1.007254893490502e+001
0	 7.333299999983334e+000	 1.399969999982150e+000	 1.007458776690791e+001
0	 7.333299999983335e+000	 1.466639999981867e+000	 1.007662626704207e+001
0	 7.333299999983334e+000	 1.533309999982383e+000	 1.007867440769199e+001
0	 7.333299999983334e+000	 1.599979999983599e+000	 1.008074216124211e+001
0	 7.333299999983334e+000	 1.666649999985416e+000	 1.008283950007691e+001
0	 7.333299999983335e+000	 1.733319999987733e+000	 1.008497639658086e+001
0	 7.333299999983335e+000	 1.799989999990450e+000	 1.008716282313842e+001
0	 7.333299999983334e+000	 1.866659999993466e+000	 1.008940875213405e+001
0	 7.333299999983335e+000	 1.933329999996683e+000	 1.009172415595224e+001
0	 7.333299999983335e+000	 2.000000000000000e+000	 1.009411900697744e+001
0	 7.399969999982149e+000	 1.333299999983334e+000	 1.006454768762155e+001
0	 7.399969999982150e+000	 1.399969999982150e+000	 1.006652716052903e+001
0	 7.399969999982151e+000	 1.466639999981866e+000	 1.006851821728261e+001
0	 7.399969999982149e+000	 1.533309999982383e+000	 1.007052894173561e+001
0	 7.399969999982150e+000	 1.599979999983600e+000	 1.007256741774130e+001
0	 7.399969999982150e+000	 1.666649999985416e+000	 1.007464172915299e+001
0	 7.399969999982149e+000	 1.733319999987733e+000	 1.007675995982395e+001
0	 7.399969999982149e+000	 1.799989999990450e+000	 1.007893019360749e+001
0	 7.399969999982149e+000	 1.866659999993466e+000	 1.008116051435690e+001
0	 7.399969999982151e+000	 1.933329999996683e+000	 1.008345900592547e+001
0	 7.399969999982152e+000	 2.000000000000000e+000	 1.008583375216650e+001
0	 7.466639999981866e+000	 1.333299999983334e+000	 1.005651569357594e+001
0	 7.466639999981865e+000	 1.399969999982150e+000	 1.005846164771280e+001
0	 7.466639999981867e+000	 1.466639999981867e+000	 1.006042702920230e+001
0	 7.466639999981864e+000	 1.533309999982383e+000	 1.006241829812913e+001
0	 7.466639999981866e+000	 1.599979999983599e+000	 1.006444191457798e+001
0	 7.466639999981867e+000	 1.666649999985416e+000	 1.006650433863349e+001
0	 7.466639999981865e+000	 1.733319999987733e+000	 1.006861203038038e+001
0	 7.466639999981867e+000	 1.799989999990450e+000	 1.007077144990331e+001
0	 7.466639999981866e+000	 1.866659999993466e+000	 1.007298905728695e+001
0	 7.466639999981868e+000	 1.933329999996684e+000	 1.007527131261599e+001
0	 7.466639999981866e+000	 2.000000000000000e+000	 1.007762467597513e+001
0	 7.533309999982382e+000	 1.333299999983334e+000	 1.004845312482144e+001
0	 7.533309999982383e+000	 1.399969999982150e+000	 1.005038675748415e+001
0	 7.533309999982383e+000	 1.466639999981866e+000	 1.005234421123830e+001
0	 7.533309999982382e+000	 1.533309999982383e+000	 1.005433058716255e+001
0	 7.533309999982381e+000	 1.599979999983600e+000	 1.005635098633550e+001
0	 7.533309999982382e+000	 1.666649999985415e+000	 1.005841050983578e+001
0	 7.533309999982382e+000	 1.733319999987733e+000	 1.006051425874203e+001
0	 7.533309999982382e+000	 1.799989999990450e+000	 1.006266733413284e+001
0	 7.533309999982382e+000	 1.866659999993466e+000	 1.006487483708686e+001
0	 7.533309999982383e+000	 1.933329999996683e+000	 1.006714186868272e+001
0	 7.533309999982381e+000	 2.000000000000000e+000	 1.006947352999904e+001
0	 7.599979999983598e+000	 1.333299999983334e+000	 1.004036015341130e+001
0	 7.599979999983599e+000	 1.399969999982150e+000	 1.004229801886799e+001
0	 7.599979999983599e+000	 1.466639999981866e+000	 1.004426127182779e+001
0	 7.599979999983599e+000	 1.533309999982383e+000	 1.004625391912585e+001
0	 7.599979999983598e+000	 1.599979999983599e+000	 1.004827996759726e+001
0	 7.599979999983598e+000	 1.666649999985416e+000	 1.005034342407718e+001
0	 7.599979999983598e+000	 1.733319999987733e+000	 1.005244829540074e+001
0	 7.599979999983597e+000	 1.799989999990449e+000	 1.005459858840305e+001
0	 7.599979999983598e+000	 1.866659999993466e+000	 1.005679830991927e+001
0	 7.599979999983600e+000	 1.933329999996683e+000	 1.005905146678452e+001
0	 7.599979999983599e+000	 2.000000000000001e+000	 1.006136206583394e+001
0	 7.666649999985415e+000	 1.333299999983333e+000	 1.003223695139874e+001
0	 7.666649999985414e+000	 1.399969999982150e+000	 1.003419096088924e+001
0	 7.666649999985416e+000	 1.466639999981867e+000	 1.003616971940793e+001
0	 7.666649999985417e+000	 1.533309999982383e+000	 1.003817640430898e+001
0	 7.666649999985416e+000	 1.599979999983600e+000	 1.004021419294662e+001
0	 7.666649999985415e+000	 1.666649999985416e+000	 1.004228626267502e+001
0	 7.666649999985414e+000	 1.733319999987733e+000	 1.004439579084839e+001
0	 7.666649999985416e+000	 1.799989999990449e+000	 1.004654595482093e+001
0	 7.666649999985415e+000	 1.866659999993466e+000	 1.004873993194682e+001
0	 7.666649999985415e+000	 1.933329999996683e+000	 1.005098089958028e+001
0	 7.666649999985416e+000	 2.000000000000000e+000	 1.005327203507549e+001
0	 7.733319999987732e+000	 1.333299999983334e+000	 1.002408369083699e+001
0	 7.733319999987731e+000	 1.399969999982150e+000	 1.002606111257281e+001
0	 7.733319999987732e+000	 1.466639999981867e+000	 1.002806106241588e+001
0	 7.733319999987732e+000	 1.533309999982383e+000	 1.003008615300198e+001
0	 7.733319999987731e+000	 1.599979999983599e+000	 1.003213899696697e+001
0	 7.733319999987731e+000	 1.666649999985416e+000	 1.003422220694665e+001
0	 7.733319999987733e+000	 1.733319999987733e+000	 1.003633839557686e+001
0	 7.733319999987732e+000	 1.799989999990450e+000	 1.003849017549341e+001
0	 7.733319999987732e+000	 1.866659999993466e+000	 1.004068015933215e+001
0	 7.733319999987732e+000	 1.933329999996683e+000	 1.004291095972887e+001
0	 7.733319999987731e+000	 2.000000000000000e+000	 1.004518518931942e+001
0	 7.799989999990448e+000	 1.333299999983334e+000	 1.001590054377931e+001
0	 7.799989999990449e+000	 1.399969999982150e+000	 1.001790400294364e+001
0	 7.799989999990445e+000	 1.466639999981866e+000	 1.001992680928879e+001
0	 7.799989999990447e+000	 1.533309999982383e+000	 1.002197127549480e+001
0	 7.799989999990447e+000	 1.599979999983600e+000	 1.002403971424167e+001
0	 7.799989999990449e+000	 1.666649999985416e+000	 1.002613443820940e+001
0	 7.799989999990449e+000	 1.733319999987733e+000	 1.002825776007801e+001
0	 7.799989999990448e+000	 1.799989999990450e+000	 1.003041199252750e+001
0	 7.799989999990448e+000	 1.866659999993466e+000	 1.003259944823790e+001
0	 7.799989999990448e+000	 1.933329999996683e+000	 1.003482243988919e+001
0	 7.799989999990449e+000	 2.000000000000000e+000	 1.003708328016141e+001
0	 7.866659999993465e+000	 1.333299999983334e+000	 1.000768768227893e+001
0	 7.866659999993465e+000	 1.399969999982150e+000	 1.000971516102661e+001
0	 7.866659999993464e+000	 1.466639999981866e+000	 1.001175846846386e+001
0	 7.866659999993463e+000	 1.533309999982383e+000	 1.001381988207744e+001
0	 7.866659999993463e+000	 1.599979999983599e+000	 1.001590167935410e+001
0	 7.866659999993463e+000	 1.666649999985416e+000	 1.001800613778060e+001
0	 7.866659999993466e+000	 1.733319999987733e+000	 1.002013553484370e+001
0	 7.866659999993464e+000	 1.799989999990449e+000	 1.002229214803014e+001
0	 7.866659999993464e+000	 1.866659999993467e+000	 1.002447825482670e+001
0	 7.866659999993464e+000	 1.933329999996683e+000	 1.002669613272012e+001
0	 7.866659999993465e+000	 2.000000000000000e+000	 1.002894805919717e+001
0	 7.933329999996682e+000	 1.333299999983334e+000	 9.999445278389098e+000
0	 7.933329999996682e+000	 1.399969999982150e+000	 1.000149011584666e+001
0	 7.933329999996681e+000	 1.466639999981866e+000	 1.000354754837824e+001
0	 7.933329999996682e+000	 1.533309999982383e+000	 1.000562008303987e+001
0	 7.933329999996680e+000	 1.599979999983600e+000	 1.000771022688764e+001
0	 7.933329999996682e+000	 1.666649999985416e+000	 1.000982048697759e+001
0	 7.933329999996682e+000	 1.733319999987733e+000	 1.001195337036579e+001
0	 7.933329999996682e+000	 1.799989999990449e+000	 1.001411138410832e+001
0	 7.933329999996680e+000	 1.866659999993466e+000	 1.001629703526121e+001
0	 7.933329999996680e+000	 1.933329999996683e+000	 1.001851283088054e+001
0	 7.933329999996680e+000	 2.000000000000000e+000	 1.002076127802238e+001
0	 8.000000000000000e+000	 1.333299999983334e+000	 9.991173504163051e+000
0	 8.000000000000000e+000	 1.399969999982150e+000	 9.993224396428712e+000
0	 8.000000000000000e+000	 1.466639999981866e+000	 9.995285557469083e+000
0	 8.000000000000000e+000	 1.533309999982383e+000	 9.997359988672086e+000
0	 8.000000000000000e+000	 1.599979999983599e+000	 9.999450691425651e+000
0	 8.000000000000000e+000	 1.666649999985416e+000	 1.000156066711770e+001
0	 7.999999999999999e+000	 1.733319999987733e+000	 1.000369291713616e+001
0	 8.000000000000000e+000	 1.799989999990450e+000	 1.000585044286897e+001
0	 8.000000000000000e+000	 1.866659999993466e+000	 1.000803624570405e+001
0	 8.000000000000000e+000	 1.933329999996683e+000	 1.001025332702932e+001
0	 7.999999999999999e+000	 2.000000000000000e+000	 1.001250468823273e+001
0	 7.333299999983335e+000	 2.000000000000000e+000	 1.009411900697744e+001
0	 7.333299999983334e+000	 2.066670000003317e+000	 1.009652573841685e+001
0	 7.333299999983335e+000	 2.133340000006534e+000	 1.009887132846344e+001
0	 7.333299999983334e+000	 2.200010000009550e+000	 1.010115756698036e+001
0	 7.333299999983333e+000	 2.266680000012267e+000	 1.010338624383074e+001
0	 7.333299999983335e+000	 2.333350000014584e+000	 1.010555914887771e+001
0	 7.333299999983335e+000	 2.400020000016401e+000	 1.010767807198442e+001
0	 7.333299999983333e+000	 2.466690000017616e+000	 1.010974480301400e+001
0	 7.333299999983334e+000	 2.533360000018134e+000	 1.011176113182958e+001
0	 7.333299999983335e+000	 2.600030000017851e+000	 1.011372884829431e+001
0	 7.333299999983335e+000	 2.666700000016666e+000	 1.011564974227132e+001
0	 7.399969999982152e+000	 2.000000000000000e+000	 1.008583375216650e+001
0	 7.399969999982149e+000	 2.066670000003317e+000	 1.008821526253509e+001
0	 7.399969999982150e+000	 2.133340000006534e+000	 1.009053128321189e+001
0	 7.399969999982152e+000	 2.200010000009551e+000	 1.009278575313848e+001
0	 7.399969999982150e+000	 2.266680000012267e+000	 1.009498261125646e+001
0	 7.399969999982150e+000	 2.333350000014584e+000	 1.009712579650743e+001
0	 7.399969999982150e+000	 2.400020000016400e+000	 1.009921924783297e+001
0	 7.399969999982150e+000	 2.466690000017617e+000	 1.010126690417467e+001
0	 7.399969999982149e+000	 2.533360000018133e+000	 1.010327270447415e+001
0	 7.399969999982148e+000	 2.600030000017851e+000	 1.010524058767296e+001
0	 7.399969999982151e+000	 2.666700000016667e+000	 1.010717449271272e+001
0	 7.466639999981866e+000	 2.000000000000000e+000	 1.007762467597513e+001
0	 7.466639999981865e+000	 2.066670000003317e+000	 1.007997960325711e+001
0	 7.466639999981867e+000	 2.133340000006534e+000	 1.008226604579666e+001
0	 7.466639999981867e+000	 2.200010000009550e+000	 1.008448970684134e+001
0	 7.466639999981863e+000	 2.266680000012266e+000	 1.008665628963877e+001
0	 7.466639999981866e+000	 2.333350000014584e+000	 1.008877149743653e+001
0	 7.466639999981866e+000	 2.400020000016401e+000	 1.009084103348220e+001
0	 7.466639999981866e+000	 2.466690000017617e+000	 1.009287060102339e+001
0	 7.466639999981866e+000	 2.533360000018134e+000	 1.009486590330767e+001
0	 7.466639999981865e+000	 2.600030000017849e+000	 1.009683264358264e+001
0	 7.466639999981866e+000	 2.666700000016666e+000	 1.009877652509588e+001
0	 7.533309999982381e+000	 2.000000000000000e+000	 1.006947352999904e+001
0	 7.533309999982384e+000	 2.066670000003317e+000	 1.007180179473341e+001
0	 7.533309999982381e+000	 2.133340000006534e+000	 1.007405995771837e+001
0	 7.533309999982381e+000	 2.200010000009551e+000	 1.007625510173505e+001
0	 7.533309999982384e+000	 2.266680000012267e+000	 1.007839430956460e+001
0	 7.533309999982382e+000	 2.333350000014584e+000	 1.008048466398815e+001
0	 7.533309999982381e+000	 2.400020000016401e+000	 1.008253324778682e+001
0	 7.533309999982381e+000	 2.466690000017617e+000	 1.008454714374174e+001
0	 7.533309999982383e+000	 2.533360000018134e+000	 1.008653343463406e+001
0	 7.533309999982381e+000	 2.600030000017850e+000	 1.008849920324487e+001
0	 7.533309999982381e+000	 2.666700000016666e+000	 1.009045153235533e+001
0	 7.599979999983599e+000	 2.000000000000001e+000	 1.006136206583394e+001
0	 7.599979999983598e+000	 2.066670000003316e+000	 1.006366487111443e+001
0	 7.599979999983598e+000	 2.133340000006534e+000	 1.006589736047761e+001
0	 7.599979999983598e+000	 2.200010000009550e+000	 1.006806761146570e+001
0	 7.599979999983597e+000	 2.266680000012267e+000	 1.007018370162091e+001
0	 7.599979999983598e+000	 2.333350000014584e+000	 1.007225370848546e+001
0	 7.599979999983599e+000	 2.400020000016401e+000	 1.007428570960155e+001
0	 7.599979999983598e+000	 2.466690000017617e+000	 1.007628778251141e+001
0	 7.599979999983598e+000	 2.533360000018134e+000	 1.007826800475722e+001
0	 7.599979999983599e+000	 2.600030000017850e+000	 1.008023445388121e+001
0	 7.599979999983599e+000	 2.666700000016667e+000	 1.008219520742559e+001
0	 7.666649999985416e+000	 2.000000000000000e+000	 1.005327203507549e+001
0	 7.666649999985413e+000	 2.066670000003316e+000	 1.005555186655065e+001
0	 7.666649999985416e+000	 2.133340000006534e+000	 1.005776259557501e+001
0	 7.666649999985416e+000	 2.200010000009550e+000	 1.005991290967939e+001
0	 7.666649999985416e+000	 2.266680000012267e+000	 1.006201149639465e+001
0	 7.666649999985416e+000	 2.333350000014583e+000	 1.006406704325160e+001
0	 7.666649999985417e+000	 2.400020000016400e+000	 1.006608823778111e+001
0	 7.666649999985416e+000	 2.466690000017617e+000	 1.006808376751398e+001
0	 7.666649999985415e+000	 2.533360000018134e+000	 1.007006231998107e+001
0	 7.666649999985414e+000	 2.600030000017851e+000	 1.007203258271319e+001
0	 7.666649999985415e+000	 2.666700000016666e+000	 1.007400324324119e+001
0	 7.733319999987731e+000	 2.000000000000000e+000	 1.004518518931942e+001
0	 7.733319999987733e+000	 2.066670000003317e+000	 1.004744581519256e+001
0	 7.733319999987733e+000	 2.133340000006533e+000	 1.004964000451116e+001
0	 7.733319999987732e+000	 2.200010000009551e+000	 1.005177667002221e+001
0	 7.733319999987733e+000	 2.266680000012267e+000	 1.005386472447275e+001
0	 7.733319999987732e+000	 2.333350000014584e+000	 1.005591308060974e+001
0	 7.733319999987731e+000	 2.400020000016401e+000	 1.005793065118019e+001
0	 7.733319999987732e+000	 2.466690000017617e+000	 1.005992634893112e+001
0	 7.733319999987732e+000	 2.533360000018134e+000	 1.006190908660951e+001
0	 7.733319999987732e+000	 2.600030000017851e+000	 1.006388777696237e+001
0	 7.733319999987731e+000	 2.666700000016666e+000	 1.006587133273668e+001
0	 7.799989999990449e+000	 2.000000000000000e+000	 1.003708328016141e+001
0	 7.799989999990449e+000	 2.066670000003317e+000	 1.003932975119062e+001
0	 7.799989999990448e+000	 2.133340000006534e+000	 1.004151392878667e+001
0	 7.799989999990448e+000	 2.200010000009550e+000	 1.004364456614029e+001
0	 7.799989999990448e+000	 2.266680000012268e+000	 1.004573041644217e+001
0	 7.799989999990449e+000	 2.333350000014584e+000	 1.004778023288301e+001
0	 7.799989999990448e+000	 2.400020000016400e+000	 1.004980276865354e+001
0	 7.799989999990447e+000	 2.466690000017617e+000	 1.005180677694445e+001
0	 7.799989999990449e+000	 2.533360000018133e+000	 1.005380101094647e+001
0	 7.799989999990450e+000	 2.600030000017851e+000	 1.005579422385027e+001
0	 7.799989999990448e+000	 2.666700000016666e+000	 1.005779516884659e+001
0	 7.866659999993465e+000	 2.000000000000000e+000	 1.002894805919717e+001
0	 7.866659999993463e+000	 2.066670000003317e+000	 1.003118670869531e+001
0	 7.866659999993464e+000	 2.133340000006534e+000	 1.003336870990217e+001
0	 7.866659999993465e+000	 2.200010000009550e+000	 1.003550227167969e+001
0	 7.866659999993466e+000	 2.266680000012268e+000	 1.003759560288984e+001
0	 7.866659999993463e+000	 2.333350000014583e+000	 1.003965691239457e+001
0	 7.866659999993465e+000	 2.400020000016401e+000	 1.004169440905584e+001
0	 7.866659999993465e+000	 2.466690000017618e+000	 1.004371630173561e+001
0	 7.866659999993463e+000	 2.533360000018133e+000	 1.004573079929582e+001
0	 7.866659999993465e+000	 2.600030000017850e+000	 1.004774611059844e+001
0	 7.866659999993463e+000	 2.666700000016666e+000	 1.004977044450544e+001
0	 7.933329999996680e+000	 2.000000000000000e+000	 1.002076127802238e+001
0	 7.933329999996682e+000	 2.066670000003318e+000	 1.002299972185711e+001
0	 7.933329999996680e+000	 2.133340000006534e+000	 1.002518868935824e+001
0	 7.933329999996682e+000	 2.200010000009550e+000	 1.002733546028653e+001
0	 7.933329999996682e+000	 2.266680000012267e+000	 1.002944731440272e+001
0	 7.933329999996679e+000	 2.333350000014583e+000	 1.003153153146757e+001
0	 7.933329999996682e+000	 2.400020000016401e+000	 1.003359539124182e+001
0	 7.933329999996681e+000	 2.466690000017617e+000	 1.003564617348622e+001
0	 7.933329999996680e+000	 2.533360000018134e+000	 1.003769115796151e+001
0	 7.933329999996682e+000	 2.600030000017850e+000	 1.003973762442845e+001
0	 7.933329999996682e+000	 2.666700000016666e+000	 1.004179285264778e+001
0	 7.999999999999999e+000	 2.000000000000000e+000	 1.001250468823273e+001
0	 8.000000000000000e+000	 2.066670000003318e+000	 1.001475182482647e+001
0	 8.000000000000000e+000	 2.133340000006534e+000	 1.001695820865549e+001
0	 8.000000000000000e+000	 2.200010000009551e+000	 1.001912980560690e+001
0	 8.000000000000000e+000	 2.266680000012267e+000	 1.002127258156776e+001
0	 7.999999999999999e+000	 2.333350000014584e+000	 1.002339250242516e+001
0	 8.000000000000000e+000	 2.400020000016401e+000	 1.002549553406618e+001
0	 8.000000000000000e+000	 2.466690000017617e+000	 1.002758764237791e+001
0	 8.000000000000000e+000	 2.533360000018134e+000	 1.002967479324743e+001
0	 8.000000000000000e+000	 2.600030000017851e+000	 1.003176295256180e+001
0	 7.999999999999999e+000	 2.666700000016666e+000	 1.003385808620813e+001
0	 7.333299999983335e+000	 2.666700000016666e+000	 1.011564974227132e+001
0	 7.333299999983334e+000	 2.733360000014533e+000	 1.011748303766754e+001
0	 7.333299999983333e+000	 2.800020000011599e+000	 1.011919097697867e+001
0	 7.333299999983333e+000	 2.866680000008067e+000	 1.012077902385798e+001
0	 7.333299999983334e+000	 2.933340000004133e+000	 1.012225264195869e+001
0	 7.333299999983333e+000	 2.999999999999999e+000	 1.012361729493406e+001
0	 7.333299999983335e+000	 3.066659999995867e+000	 1.012487844643733e+001
0	 7.333299999983335e+000	 3.133319999991934e+000	 1.012604156012179e+001
0	 7.333299999983334e+000	 3.199979999988400e+000	 1.012711209964069e+001
0	 7.333299999983334e+000	 3.266639999985468e+000	 1.012809552864728e+001
0	 7.333299999983335e+000	 3.333299999983335e+000	 1.012899731079484e+001
0	 7.399969999982151e+000	 2.666700000016667e+000	 1.010717449271273e+001
0	 7.399969999982150e+000	 2.733360000014533e+000	 1.010903335927390e+001
0	 7.399969999982147e+000	 2.800020000011598e+000	 1.011077677203624e+001
0	 7.399969999982149e+000	 2.866680000008067e+000	 1.011240877428040e+001
0	 7.399969999982150e+000	 2.933340000004134e+000	 1.011393340928703e+001
0	 7.399969999982149e+000	 2.999999999999999e+000	 1.011535472033676e+001
0	 7.399969999982150e+000	 3.066659999995866e+000	 1.011667675071027e+001
0	 7.399969999982149e+000	 3.133319999991933e+000	 1.011790354368821e+001
0	 7.399969999982150e+000	 3.199979999988400e+000	 1.011903914255124e+001
0	 7.399969999982149e+000	 3.266639999985467e+000	 1.012008759058000e+001
0	 7.399969999982150e+000	 3.333299999983333e+000	 1.012105293105519e+001
0	 7.466639999981866e+000	 2.666700000016666e+000	 1.009877652509588e+001
0	 7.466639999981864e+000	 2.733360000014533e+000	 1.010065680639661e+001
0	 7.466639999981865e+000	 2.800020000011599e+000	 1.010243141722681e+001
0	 7.466639999981866e+000	 2.866680000008067e+000	 1.010410319720787e+001
0	 7.466639999981867e+000	 2.933340000004133e+000	 1.010567498596113e+001
0	 7.466639999981863e+000	 2.999999999999999e+000	 1.010714962310800e+001
0	 7.466639999981865e+000	 3.066659999995866e+000	 1.010852994826984e+001
0	 7.466639999981867e+000	 3.133319999991934e+000	 1.010981880106803e+001
0	 7.466639999981867e+000	 3.199979999988400e+000	 1.011101902112395e+001
0	 7.466639999981866e+000	 3.266639999985468e+000	 1.011213344805898e+001
0	 7.466639999981866e+000	 3.333299999983334e+000	 1.011316492149453e+001
0	 7.533309999982381e+000	 2.666700000016666e+000	 1.009045153235533e+001
0	 7.533309999982383e+000	 2.733360000014533e+000	 1.009235048389936e+001
0	 7.533309999982382e+000	 2.800020000011600e+000	 1.009415321743561e+001
0	 7.533309999982384e+000	 2.866680000008067e+000	 1.009586158563952e+001
0	 7.533309999982381e+000	 2.933340000004133e+000	 1.009747744118649e+001
0	 7.533309999982383e+000	 3.000000000000000e+000	 1.009900263675194e+001
0	 7.533309999982383e+000	 3.066659999995867e+000	 1.010043902501130e+001
0	 7.533309999982384e+000	 3.133319999991935e+000	 1.010178845863999e+001
0	 7.533309999982383e+000	 3.199979999988400e+000	 1.010305279031345e+001
0	 7.533309999982383e+000	 3.266639999985467e+000	 1.010423387270709e+001
0	 7.533309999982381e+000	 3.333299999983334e+000	 1.010533355849637e+001
0	 7.599979999983599e+000	 2.666700000016667e+000	 1.008219520742558e+001
0	 7.599979999983599e+000	 2.733360000014533e+000	 1.008411149664582e+001
0	 7.599979999983599e+000	 2.800020000011600e+000	 1.008594047754789e+001
0	 7.599979999983599e+000	 2.866680000008067e+000	 1.008768323257454e+001
0	 7.599979999983598e+000	 2.933340000004133e+000	 1.008934084416857e+001
0	 7.599979999983597e+000	 3.000000000000000e+000	 1.009091439477278e+001
0	 7.599979999983597e+000	 3.066659999995866e+000	 1.009240496682994e+001
0	 7.599979999983598e+000	 3.133319999991933e+000	 1.009381364278287e+001
0	 7.599979999983599e+000	 3.199979999988400e+000	 1.009514150507436e+001
0	 7.599979999983598e+000	 3.266639999985467e+000	 1.009638963614720e+001
0	 7.599979999983598e+000	 3.333299999983333e+000	 1.009755911844419e+001
0	 7.666649999985415e+000	 2.666700000016666e+000	 1.007400324324119e+001
0	 7.666649999985416e+000	 2.733360000014533e+000	 1.007593694949973e+001
0	 7.666649999985414e+000	 2.800020000011600e+000	 1.007779150244886e+001
0	 7.666649999985414e+000	 2.866680000008065e+000	 1.007956743101208e+001
0	 7.666649999985415e+000	 2.933340000004133e+000	 1.008126526411285e+001
0	 7.666649999985414e+000	 3.000000000000000e+000	 1.008288553067468e+001
0	 7.666649999985415e+000	 3.066659999995867e+000	 1.008442875962103e+001
0	 7.666649999985415e+000	 3.133319999991934e+000	 1.008589547987541e+001
0	 7.666649999985416e+000	 3.199979999988401e+000	 1.008728622036129e+001
0	 7.666649999985416e+000	 3.266639999985468e+000	 1.008860151000216e+001
0	 7.666649999985415e+000	 3.333299999983334e+000	 1.008984187772154e+001
0	 7.733319999987731e+000	 2.666700000016666e+000	 1.006587133273668e+001
0	 7.733319999987730e+000	 2.733360000014533e+000	 1.006782394732474e+001
0	 7.733319999987730e+000	 2.800020000011599e+000	 1.006970459702378e+001
0	 7.733319999987732e+000	 2.866680000008066e+000	 1.007151347395132e+001
0	 7.733319999987731e+000	 2.933340000004133e+000	 1.007325077022484e+001
0	 7.733319999987732e+000	 3.000000000000000e+000	 1.007491667796186e+001
0	 7.733319999987733e+000	 3.066659999995868e+000	 1.007651138927986e+001
0	 7.733319999987731e+000	 3.133319999991933e+000	 1.007803509629637e+001
0	 7.733319999987732e+000	 3.199979999988401e+000	 1.007948799112885e+001
0	 7.733319999987732e+000	 3.266639999985467e+000	 1.008087026589486e+001
0	 7.733319999987730e+000	 3.333299999983333e+000	 1.008218211271190e+001
0	 7.799989999990448e+000	 2.666700000016666e+000	 1.005779516884659e+001
0	 7.799989999990447e+000	 2.733360000014533e+000	 1.005976959498454e+001
0	 7.799989999990447e+000	 2.800020000011600e+000	 1.006167806615787e+001
0	 7.799989999990448e+000	 2.866680000008066e+000	 1.006352065439141e+001
0	 7.799989999990446e+000	 2.933340000004133e+000	 1.006529743171000e+001
0	 7.799989999990447e+000	 3.000000000000000e+000	 1.006700847013848e+001
0	 7.799989999990447e+000	 3.066659999995866e+000	 1.006865384170169e+001
0	 7.799989999990449e+000	 3.133319999991934e+000	 1.007023361842448e+001
0	 7.799989999990449e+000	 3.199979999988400e+000	 1.007174787233169e+001
0	 7.799989999990448e+000	 3.266639999985467e+000	 1.007319667544816e+001
0	 7.799989999990447e+000	 3.333299999983334e+000	 1.007458009979877e+001
0	 7.866659999993463e+000	 2.666700000016666e+000	 1.004977044450544e+001
0	 7.866659999993464e+000	 2.733360000014533e+000	 1.005177099734284e+001
0	 7.866659999993466e+000	 2.800020000011601e+000	 1.005371021473637e+001
0	 7.866659999993464e+000	 2.866680000008067e+000	 1.005558826533153e+001
0	 7.866659999993465e+000	 2.933340000004133e+000	 1.005740531777383e+001
0	 7.866659999993466e+000	 3.000000000000000e+000	 1.005916154070876e+001
0	 7.866659999993467e+000	 3.066659999995867e+000	 1.006085710278181e+001
0	 7.866659999993465e+000	 3.133319999991934e+000	 1.006249217263853e+001
0	 7.866659999993463e+000	 3.199979999988400e+000	 1.006406691892439e+001
0	 7.866659999993463e+000	 3.266639999985467e+000	 1.006558151028494e+001
0	 7.866659999993463e+000	 3.333299999983334e+000	 1.006703611536565e+001
0	 7.933329999996682e+000	 2.666700000016666e+000	 1.004179285264778e+001
0	 7.933329999996680e+000	 2.733360000014532e+000	 1.004382525926332e+001
0	 7.933329999996681e+000	 2.800020000011600e+000	 1.004579934764452e+001
0	 7.933329999996682e+000	 2.866680000008067e+000	 1.004771559977084e+001
0	 7.933329999996681e+000	 2.933340000004133e+000	 1.004957449762178e+001
0	 7.933329999996682e+000	 3.000000000000000e+000	 1.005137652317684e+001
0	 7.933329999996682e+000	 3.066659999995867e+000	 1.005312215841550e+001
0	 7.933329999996681e+000	 3.133319999991933e+000	 1.005481188531725e+001
0	 7.933329999996680e+000	 3.199979999988400e+000	 1.005644618586160e+001
0	 7.933329999996682e+000	 3.266639999985468e+000	 1.005802554202804e+001
0	 7.933329999996682e+000	 3.333299999983334e+000	 1.005955043579607e+001
0	 7.999999999999999e+000	 2.666700000016666e+000	 1.003385808620813e+001
0	 8.000000000000000e+000	 2.733360000014533e+000	 1.003592948560968e+001
0	 7.999999999999998e+000	 2.800020000011599e+000	 1.003794376976754e+001
0	 7.999999999999999e+000	 2.866680000008067e+000	 1.003990195070850e+001
0	 8.000000000000000e+000	 2.933340000004133e+000	 1.004180504045936e+001
0	 8.000000000000000e+000	 3.000000000000000e+000	 1.004365405104694e+001
0	 8.000000000000000e+000	 3.066659999995867e+000	 1.004544999449801e+001
0	 7.999999999999999e+000	 3.133319999991933e+000	 1.004719388283941e+001
0	 7.999999999999999e+000	 3.199979999988401e+000	 1.004888672809792e+001
0	 8.000000000000000e+000	 3.266639999985468e+000	 1.005052954230035e+001
0	 7.999999999999999e+000	 3.333299999983334e+000	 1.005212333747352e+001
0	 7.333299999983335e+000	 3.333299999983335e+000	 1.012899731079484e+001
0	 7.333299999983333e+000	 3.399969999982149e+000	 1.012980969133592e+001
0	 7.333299999983333e+000	 3.466639999981866e+000	 1.013052112399605e+001
0	 7.333299999983333e+000	 3.533309999982382e+000	 1.013113177342772e+001
0	 7.333299999983335e+000	 3.599979999983599e+000	 1.013164180428338e+001
0	 7.333299999983335e+000	 3.666649999985416e+000	 1.013205138121553e+001
0	 7.333299999983335e+000	 3.733319999987733e+000	 1.013236066887667e+001
0	 7.333299999983334e+000	 3.799989999990450e+000	 1.013256983191924e+001
0	 7.333299999983336e+000	 3.866659999993467e+000	 1.013267903499573e+001
0	 7.333299999983332e+000	 3.933329999996682e+000	 1.013268844275864e+001
0	 7.333299999983335e+000	 4.000000000000001e+000	 1.013259821986041e+001
0	 7.399969999982150e+000	 3.333299999983333e+000	 1.012105293105519e+001
0	 7.399969999982148e+000	 3.399969999982150e+000	 1.012192976813878e+001
0	 7.399969999982148e+000	 3.466639999981866e+000	 1.012270990570566e+001
0	 7.399969999982150e+000	 3.533309999982384e+000	 1.012339360295795e+001
0	 7.399969999982151e+000	 3.599979999983601e+000	 1.012398111909775e+001
0	 7.399969999982150e+000	 3.666649999985416e+000	 1.012447271332722e+001
0	 7.399969999982150e+000	 3.733319999987733e+000	 1.012486864484845e+001
0	 7.399969999982149e+000	 3.799989999990449e+000	 1.012516917286358e+001
0	 7.399969999982150e+000	 3.866659999993467e+000	 1.012537455657470e+001
0	 7.399969999982152e+000	 3.933329999996683e+000	 1.012548505518396e+001
0	 7.399969999982151e+000	 4.000000000000001e+000	 1.012550092789345e+001
0	 7.466639999981866e+000	 3.333299999983334e+000	 1.011316492149453e+001
0	 7.466639999981866e+000	 3.399969999982150e+000	 1.011410937976580e+001
0	 7.466639999981867e+000	 3.466639999981867e+000	 1.011496079956846e+001
0	 7.466639999981864e+000	 3.533309999982383e+000	 1.011571952403361e+001
0	 7.466639999981867e+000	 3.599979999983600e+000	 1.011638589629238e+001
0	 7.466639999981867e+000	 3.666649999985417e+000	 1.011696025947589e+001
0	 7.466639999981864e+000	 3.733319999987733e+000	 1.011744295671523e+001
0	 7.466639999981865e+000	 3.799989999990450e+000	 1.011783433114152e+001
0	 7.466639999981868e+000	 3.866659999993466e+000	 1.011813472588588e+001
0	 7.466639999981867e+000	 3.933329999996683e+000	 1.011834448407941e+001
0	 7.466639999981866e+000	 4.000000000000000e+000	 1.011846394885320e+001
0	 7.533309999982381e+000	 3.333299999983334e+000	 1.010533355849637e+001
0	 7.533309999982383e+000	 3.399969999982150e+000	 1.010634824884611e+001
0	 7.533309999982381e+000	 3.466639999981866e+000	 1.010727306951722e+001
0	 7.533309999982383e+000	 3.533309999982383e+000	 1.010810843694916e+001
0	 7.533309999982381e+000	 3.599979999983600e+000	 1.010885476758139e+001
0	 7.533309999982381e+000	 3.666649999985415e+000	 1.010951247785333e+001
0	 7.533309999982384e+000	 3.733319999987733e+000	 1.011008198420447e+001
0	 7.533309999982383e+000	 3.799989999990450e+000	 1.011056370307425e+001
0	 7.533309999982383e+000	 3.866659999993467e+000	 1.011095805090212e+001
0	 7.533309999982383e+000	 3.933329999996684e+000	 1.011126544412754e+001
0	 7.533309999982381e+000	 4.000000000000000e+000	 1.011148629918995e+001
0	 7.599979999983598e+000	 3.333299999983333e+000	 1.009755911844420e+001
0	 7.599979999983599e+000	 3.399969999982149e+000	 1.009864609800888e+001
0	 7.599979999983600e+000	 3.466639999981867e+000	 1.009964597948479e+001
0	 7.599979999983598e+000	 3.533309999982383e+000	 1.010055924199908e+001
0	 7.599979999983599e+000	 3.599979999983600e+000	 1.010138636467889e+001
0	 7.599979999983598e+000	 3.666649999985416e+000	 1.010212782665137e+001
0	 7.599979999983599e+000	 3.733319999987733e+000	 1.010278410704367e+001
0	 7.599979999983597e+000	 3.799989999990449e+000	 1.010335568498294e+001
0	 7.599979999983598e+000	 3.866659999993467e+000	 1.010384303959631e+001
0	 7.599979999983600e+000	 3.933329999996684e+000	 1.010424665001094e+001
0	 7.599979999983598e+000	 4.000000000000000e+000	 1.010456699535395e+001
0	 7.666649999985415e+000	 3.333299999983334e+000	 1.008984187772154e+001
0	 7.666649999985414e+000	 3.399969999982150e+000	 1.009100264988327e+001
0	 7.666649999985416e+000	 3.466639999981867e+000	 1.009207879340396e+001
0	 7.666649999985417e+000	 3.533309999982384e+000	 1.009307083947782e+001
0	 7.666649999985416e+000	 3.599979999983600e+000	 1.009397931929903e+001
0	 7.666649999985415e+000	 3.666649999985416e+000	 1.009480476406180e+001
0	 7.666649999985415e+000	 3.733319999987733e+000	 1.009554770496031e+001
0	 7.666649999985414e+000	 3.799989999990450e+000	 1.009620867318874e+001
0	 7.666649999985416e+000	 3.866659999993467e+000	 1.009678819994130e+001
0	 7.666649999985414e+000	 3.933329999996683e+000	 1.009728681641216e+001
0	 7.666649999985416e+000	 4.000000000000000e+000	 1.009770505379552e+001
0	 7.733319999987730e+000	 3.333299999983333e+000	 1.008218211271190e+001
0	 7.733319999987732e+000	 3.399969999982150e+000	 1.008341762709840e+001
0	 7.733319999987733e+000	 3.466639999981866e+000	 1.008457077520753e+001
0	 7.733319999987733e+000	 3.533309999982383e+000	 1.008564212967984e+001
0	 7.733319999987733e+000	 3.599979999983600e+000	 1.008663226315594e+001
0	 7.733319999987732e+000	 3.666649999985416e+000	 1.008754174827642e+001
0	 7.733319999987731e+000	 3.733319999987732e+000	 1.008837115768186e+001
0	 7.733319999987733e+000	 3.799989999990450e+000	 1.008912106401284e+001
0	 7.733319999987732e+000	 3.866659999993466e+000	 1.008979203990996e+001
0	 7.733319999987731e+000	 3.933329999996684e+000	 1.009038465801378e+001
0	 7.733319999987732e+000	 4.000000000000000e+000	 1.009089949096489e+001
0	 7.799989999990447e+000	 3.333299999983334e+000	 1.007458009979876e+001
0	 7.799989999990449e+000	 3.399969999982150e+000	 1.007589075228345e+001
0	 7.799989999990445e+000	 3.466639999981866e+000	 1.007712118882829e+001
0	 7.799989999990447e+000	 3.533309999982383e+000	 1.007827201289960e+001
0	 7.799989999990448e+000	 3.599979999983600e+000	 1.007934382796375e+001
0	 7.799989999990450e+000	 3.666649999985417e+000	 1.008033723748704e+001
0	 7.799989999990446e+000	 3.733319999987732e+000	 1.008125284493582e+001
0	 7.799989999990448e+000	 3.799989999990450e+000	 1.008209125377641e+001
0	 7.799989999990447e+000	 3.866659999993467e+000	 1.008285306747515e+001
0	 7.799989999990448e+000	 3.933329999996683e+000	 1.008353888949835e+001
0	 7.799989999990450e+000	 4.000000000000001e+000	 1.008414932331236e+001
0	 7.866659999993463e+000	 3.333299999983334e+000	 1.006703611536565e+001
0	 7.866659999993464e+000	 3.399969999982150e+000	 1.006842174806756e+001
0	 7.866659999993463e+000	 3.466639999981866e+000	 1.006972929819904e+001
0	 7.866659999993463e+000	 3.533309999982383e+000	 1.007095938943158e+001
0	 7.866659999993462e+000	 3.599979999983600e+000	 1.007211264543658e+001
0	 7.866659999993464e+000	 3.666649999985417e+000	 1.007318968988546e+001
0	 7.866659999993464e+000	 3.733319999987732e+000	 1.007419114644968e+001
0	 7.866659999993464e+000	 3.799989999990450e+000	 1.007511763880061e+001
0	 7.866659999993463e+000	 3.866659999993466e+000	 1.007596979060974e+001
0	 7.866659999993465e+000	 3.933329999996684e+000	 1.007674822554845e+001
0	 7.866659999993466e+000	 4.000000000000001e+000	 1.007745356728819e+001
0	 7.933329999996682e+000	 3.333299999983334e+000	 1.005955043579607e+001
0	 7.933329999996682e+000	 3.399969999982150e+000	 1.006101033707987e+001
0	 7.933329999996681e+000	 3.466639999981867e+000	 1.006239436725264e+001
0	 7.933329999996682e+000	 3.533309999982382e+000	 1.006370315957024e+001
0	 7.933329999996681e+000	 3.599979999983600e+000	 1.006493734728858e+001
0	 7.933329999996682e+000	 3.666649999985416e+000	 1.006609756366349e+001
0	 7.933329999996682e+000	 3.733319999987733e+000	 1.006718444195088e+001
0	 7.933329999996682e+000	 3.799989999990450e+000	 1.006819861540663e+001
0	 7.933329999996682e+000	 3.866659999993467e+000	 1.006914071728659e+001
0	 7.933329999996682e+000	 3.933329999996684e+000	 1.007001138084664e+001
0	 7.933329999996681e+000	 4.000000000000000e+000	 1.007081123934267e+001
0	 7.999999999999999e+000	 3.333299999983334e+000	 1.005212333747352e+001
0	 8.000000000000000e+000	 3.399969999982150e+000	 1.005365624194955e+001
0	 8.000000000000002e+000	 3.466639999981866e+000	 1.005511565992183e+001
0	 8.000000000000000e+000	 3.533309999982383e+000	 1.005650222361003e+001
0	 8.000000000000000e+000	 3.599979999983600e+000	 1.005781656523384e+001
0	 7.999999999999999e+000	 3.666649999985416e+000	 1.005905931701291e+001
0	 7.999999999999999e+000	 3.733319999987733e+000	 1.006023111116695e+001
0	 8.000000000000000e+000	 3.799989999990450e+000	 1.006133257991561e+001
0	 7.999999999999999e+000	 3.866659999993467e+000	 1.006236435547856e+001
0	 8.000000000000000e+000	 3.933329999996683e+000	 1.006332707007548e+001
0	 8.000000000000000e+000	 4.000000000000001e+000	 1.006422135592604e+001
0	 7.333299999983335e+000	 4.000000000000001e+000	 1.013259821986041e+001
0	 7.333299999983335e+000	 4.066670000003317e+000	 1.013242015122736e+001
0	 7.333299999983334e+000	 4.133340000006534e+000	 1.013216441678741e+001
0	 7.333299999983335e+000	 4.200010000009550e+000	 1.013182877369551e+001
0	 7.333299999983333e+000	 4.266680000012268e+000	 1.013141097910659e+001
0	 7.333299999983333e+000	 4.333350000014583e+000	 1.013090879017559e+001
0	 7.333299999983334e+000	 4.400020000016402e+000	 1.013031996405744e+001
0	 7.333299999983334e+000	 4.466690000017617e+000	 1.012964225790709e+001
0	 7.333299999983334e+000	 4.533360000018134e+000	 1.012887342887946e+001
0	 7.333299999983334e+000	 4.600030000017849e+000	 1.012801123412948e+001
0	 7.333299999983333e+000	 4.666700000016665e+000	 1.012705343081209e+001
0	 7.399969999982151e+000	 4.000000000000001e+000	 1.012550092789345e+001
0	 7.399969999982151e+000	 4.066670000003318e+000	 1.012543089938651e+001
0	 7.399969999982150e+000	 4.133340000006534e+000	 1.012528235788132e+001
0	 7.399969999982151e+000	 4.200010000009550e+000	 1.012505355788230e+001
0	 7.399969999982151e+000	 4.266680000012267e+000	 1.012474275389384e+001
0	 7.399969999982149e+000	 4.333350000014584e+000	 1.012434820042035e+001
0	 7.399969999982148e+000	 4.400020000016401e+000	 1.012386815196623e+001
0	 7.399969999982149e+000	 4.466690000017616e+000	 1.012330086303584e+001
0	 7.399969999982149e+000	 4.533360000018132e+000	 1.012264458813363e+001
0	 7.399969999982148e+000	 4.600030000017850e+000	 1.012189758176396e+001
0	 7.399969999982151e+000	 4.666700000016666e+000	 1.012105809843122e+001
0	 7.466639999981866e+000	 4.000000000000000e+000	 1.011846394885320e+001
0	 7.466639999981867e+000	 4.066670000003319e+000	 1.011849925759335e+001
0	 7.466639999981867e+000	 4.133340000006534e+000	 1.011845544320238e+001
0	 7.466639999981865e+000	 4.200010000009550e+000	 1.011833119208607e+001
0	 7.466639999981864e+000	 4.266680000012267e+000	 1.011812519065016e+001
0	 7.466639999981867e+000	 4.333350000014584e+000	 1.011783612530045e+001
0	 7.466639999981866e+000	 4.400020000016403e+000	 1.011746268244266e+001
0	 7.466639999981864e+000	 4.466690000017618e+000	 1.011700354848259e+001
0	 7.466639999981865e+000	 4.533360000018133e+000	 1.011645740982597e+001
0	 7.466639999981865e+000	 4.600030000017849e+000	 1.011582295287857e+001
0	 7.466639999981866e+000	 4.666700000016666e+000	 1.011509886404614e+001
0	 7.533309999982381e+000	 4.000000000000000e+000	 1.011148629918995e+001
0	 7.533309999982384e+000	 4.066670000003318e+000	 1.011162459684081e+001
0	 7.533309999982381e+000	 4.133340000006534e+000	 1.011168340877804e+001
0	 7.533309999982381e+000	 4.200010000009550e+000	 1.011166178786066e+001
0	 7.533309999982384e+000	 4.266680000012267e+000	 1.011155878694770e+001
0	 7.533309999982383e+000	 4.333350000014584e+000	 1.011137345889817e+001
0	 7.533309999982381e+000	 4.400020000016403e+000	 1.011110485657112e+001
0	 7.533309999982381e+000	 4.466690000017615e+000	 1.011075203282556e+001
0	 7.533309999982384e+000	 4.533360000018134e+000	 1.011031404052052e+001
0	 7.533309999982381e+000	 4.600030000017848e+000	 1.010978993251503e+001
0	 7.533309999982381e+000	 4.666700000016665e+000	 1.010917876166810e+001
0	 7.599979999983598e+000	 4.000000000000000e+000	 1.010456699535395e+001
0	 7.599979999983598e+000	 4.066670000003316e+000	 1.010480628812184e+001
0	 7.599979999983598e+000	 4.133340000006532e+000	 1.010496599063577e+001
0	 7.599979999983599e+000	 4.200010000009550e+000	 1.010504545675994e+001
0	 7.599979999983597e+000	 4.266680000012268e+000	 1.010504404035858e+001
0	 7.599979999983598e+000	 4.333350000014583e+000	 1.010496109529583e+001
0	 7.599979999983599e+000	 4.400020000016402e+000	 1.010479597543591e+001
0	 7.599979999983598e+000	 4.466690000017616e+000	 1.010454803464302e+001
0	 7.599979999983598e+000	 4.533360000018133e+000	 1.010421662678135e+001
0	 7.599979999983600e+000	 4.600030000017852e+000	 1.010380110571507e+001
0	 7.599979999983598e+000	 4.666700000016666e+000	 1.010330082530838e+001
0	 7.666649999985416e+000	 4.000000000000000e+000	 1.009770505379552e+001
0	 7.666649999985415e+000	 4.066670000003317e+000	 1.009804370242934e+001
0	 7.666649999985415e+000	 4.133340000006534e+000	 1.009830292480301e+001
0	 7.666649999985417e+000	 4.200010000009551e+000	 1.009848231033779e+001
0	 7.666649999985416e+000	 4.266680000012268e+000	 1.009858144845494e+001
0	 7.666649999985415e+000	 4.333350000014582e+000	 1.009859992857572e+001
0	 7.666649999985417e+000	 4.400020000016401e+000	 1.009853734012140e+001
0	 7.666649999985417e+000	 4.466690000017618e+000	 1.009839327251324e+001
0	 7.666649999985414e+000	 4.533360000018133e+000	 1.009816731517248e+001
0	 7.666649999985416e+000	 4.600030000017850e+000	 1.009785905752040e+001
0	 7.666649999985415e+000	 4.666700000016665e+000	 1.009746808897825e+001
0	 7.733319999987732e+000	 4.000000000000000e+000	 1.009089949096489e+001
0	 7.733319999987733e+000	 4.066670000003318e+000	 1.009133621075624e+001
0	 7.733319999987733e+000	 4.133340000006535e+000	 1.009169394730720e+001
0	 7.733319999987731e+000	 4.200010000009550e+000	 1.009197246014803e+001
0	 7.733319999987732e+000	 4.266680000012267e+000	 1.009217150880893e+001
0	 7.733319999987731e+000	 4.333350000014582e+000	 1.009229085282015e+001
0	 7.733319999987731e+000	 4.400020000016401e+000	 1.009233025171192e+001
0	 7.733319999987733e+000	 4.466690000017618e+000	 1.009228946501446e+001
0	 7.733319999987733e+000	 4.533360000018136e+000	 1.009216825225800e+001
0	 7.733319999987732e+000	 4.600030000017851e+000	 1.009196637297275e+001
0	 7.733319999987733e+000	 4.666700000016667e+000	 1.009168358668896e+001
0	 7.799989999990450e+000	 4.000000000000001e+000	 1.008414932331236e+001
0	 7.799989999990448e+000	 4.066670000003316e+000	 1.008468318409546e+001
0	 7.799989999990448e+000	 4.133340000006534e+000	 1.008513879417581e+001
0	 7.799989999990448e+000	 4.200010000009551e+000	 1.008551601774452e+001
0	 7.799989999990448e+000	 4.266680000012268e+000	 1.008581471899269e+001
0	 7.799989999990449e+000	 4.333350000014583e+000	 1.008603476211142e+001
0	 7.799989999990447e+000	 4.400020000016400e+000	 1.008617601129180e+001
0	 7.799989999990448e+000	 4.466690000017618e+000	 1.008623833072493e+001
0	 7.799989999990446e+000	 4.533360000018133e+000	 1.008622158460192e+001
0	 7.799989999990449e+000	 4.600030000017850e+000	 1.008612563711384e+001
0	 7.799989999990448e+000	 4.666700000016666e+000	 1.008595035245180e+001
0	 7.866659999993466e+000	 4.000000000000001e+000	 1.007745356728819e+001
0	 7.866659999993463e+000	 4.066670000003317e+000	 1.007808399343994e+001
0	 7.866659999993464e+000	 4.133340000006534e+000	 1.007863720143630e+001
0	 7.866659999993464e+000	 4.200010000009551e+000	 1.007911309468114e+001
0	 7.866659999993466e+000	 4.266680000012268e+000	 1.007951157657836e+001
0	 7.866659999993464e+000	 4.333350000014585e+000	 1.007983255053182e+001
0	 7.866659999993465e+000	 4.400020000016402e+000	 1.008007591994538e+001
0	 7.866659999993463e+000	 4.466690000017616e+000	 1.008024158822291e+001
0	 7.866659999993464e+000	 4.533360000018132e+000	 1.008032945876830e+001
0	 7.866659999993463e+000	 4.600030000017849e+000	 1.008033943498537e+001
0	 7.866659999993464e+000	 4.666700000016665e+000	 1.008027142027804e+001
0	 7.933329999996681e+000	 4.000000000000000e+000	 1.007081123934267e+001
0	 7.933329999996682e+000	 4.066670000003316e+000	 1.007153800978257e+001
0	 7.933329999996681e+000	 4.133340000006535e+000	 1.007218890511608e+001
0	 7.933329999996682e+000	 4.200010000009550e+000	 1.007276380251174e+001
0	 7.933329999996682e+000	 4.266680000012268e+000	 1.007326257913808e+001
0	 7.933329999996682e+000	 4.333350000014584e+000	 1.007368511216365e+001
0	 7.933329999996682e+000	 4.400020000016402e+000	 1.007403127875701e+001
0	 7.933329999996681e+000	 4.466690000017618e+000	 1.007430095608667e+001
0	 7.933329999996680e+000	 4.533360000018133e+000	 1.007449402132118e+001
0	 7.933329999996682e+000	 4.600030000017851e+000	 1.007461035162908e+001
0	 7.933329999996681e+000	 4.666700000016665e+000	 1.007464982417892e+001
0	 8.000000000000000e+000	 4.000000000000001e+000	 1.006422135592604e+001
0	 7.999999999999999e+000	 4.066670000003318e+000	 1.006504460411630e+001
0	 8.000000000000000e+000	 4.133340000006534e+000	 1.006579364124264e+001
0	 7.999999999999998e+000	 4.200010000009550e+000	 1.006646825279016e+001
0	 8.000000000000000e+000	 4.266680000012268e+000	 1.006706822424398e+001
0	 7.999999999999998e+000	 4.333350000014583e+000	 1.006759334108922e+001
0	 8.000000000000000e+000	 4.400020000016401e+000	 1.006804338881101e+001
0	 8.000000000000000e+000	 4.466690000017618e+000	 1.006841815289442e+001
0	 8.000000000000000e+000	 4.533360000018135e+000	 1.006871741882462e+001
0	 8.000000000000000e+000	 4.600030000017850e+000	 1.006894097208667e+001
0	 7.999999999999998e+000	 4.666700000016665e+000	 1.006908859816571e+001
0	 7.333299999983333e+000	 4.666700000016665e+000	 1.012705343081209e+001
0	 7.333299999983334e+000	 4.733360000014534e+000	 1.012601885238628e+001
0	 7.333299999983334e+000	 4.800020000011600e+000	 1.012492626545161e+001
0	 7.333299999983334e+000	 4.866680000008068e+000	 1.012377377971095e+001
0	 7.333299999983335e+000	 4.933340000004134e+000	 1.012255950486718e+001
0	 7.333299999983335e+000	 4.999999999999999e+000	 1.012128155062319e+001
0	 7.333299999983336e+000	 5.066659999995867e+000	 1.011993802668188e+001
0	 7.333299999983335e+000	 5.133319999991935e+000	 1.011852704274613e+001
0	 7.333299999983335e+000	 5.199979999988400e+000	 1.011704670851882e+001
0	 7.333299999983333e+000	 5.266639999985469e+000	 1.011549513370288e+001
0	 7.333299999983334e+000	 5.333299999983333e+000	 1.011387042800120e+001
0	 7.399969999982151e+000	 4.666700000016666e+000	 1.012105809843122e+001
0	 7.399969999982150e+000	 4.733360000014534e+000	 1.012014394040847e+001
0	 7.399969999982147e+000	 4.800020000011599e+000	 1.011917245883637e+001
0	 7.399969999982149e+000	 4.866680000008066e+000	 1.011814163033746e+001
0	 7.399969999982149e+000	 4.933340000004132e+000	 1.011704943153423e+001
0	 7.399969999982149e+000	 5.000000000000001e+000	 1.011589383904923e+001
0	 7.399969999982151e+000	 5.066659999995867e+000	 1.011467282950495e+001
0	 7.399969999982150e+000	 5.133319999991935e+000	 1.011338437952395e+001
0	 7.399969999982150e+000	 5.199979999988400e+000	 1.011202646572874e+001
0	 7.399969999982148e+000	 5.266639999985467e+000	 1.011059706474184e+001
0	 7.399969999982149e+000	 5.333299999983333e+000	 1.010909415318581e+001
0	 7.466639999981866e+000	 4.666700000016666e+000	 1.011509886404614e+001
0	 7.466639999981866e+000	 4.733360000014533e+000	 1.011430204035716e+001
0	 7.466639999981867e+000	 4.800020000011599e+000	 1.011344861064264e+001
0	 7.466639999981865e+000	 4.866680000008066e+000	 1.011253645519895e+001
0	 7.466639999981868e+000	 4.933340000004134e+000	 1.011156345432246e+001
0	 7.466639999981863e+000	 4.999999999999999e+000	 1.011052748830956e+001
0	 7.466639999981866e+000	 5.066659999995866e+000	 1.010942643745663e+001
0	 7.466639999981867e+000	 5.133319999991933e+000	 1.010825818206007e+001
0	 7.466639999981867e+000	 5.199979999988400e+000	 1.010702060241623e+001
0	 7.466639999981866e+000	 5.266639999985468e+000	 1.010571157882155e+001
0	 7.466639999981864e+000	 5.333299999983334e+000	 1.010432899157240e+001
0	 7.533309999982381e+000	 4.666700000016665e+000	 1.010917876166810e+001
0	 7.533309999982383e+000	 4.733360000014533e+000	 1.010849661672842e+001
0	 7.533309999982383e+000	 4.800020000011601e+000	 1.010775856852609e+001
0	 7.533309999982384e+000	 4.866680000008067e+000	 1.010696243778557e+001
0	 7.533309999982382e+000	 4.933340000004134e+000	 1.010610604523131e+001
0	 7.533309999982381e+000	 4.999999999999998e+000	 1.010518721158780e+001
0	 7.533309999982382e+000	 5.066659999995867e+000	 1.010420375757950e+001
0	 7.533309999982384e+000	 5.133319999991936e+000	 1.010315350393089e+001
0	 7.533309999982383e+000	 5.199979999988401e+000	 1.010203427136646e+001
0	 7.533309999982383e+000	 5.266639999985468e+000	 1.010084388061066e+001
0	 7.533309999982382e+000	 5.333299999983334e+000	 1.009958015238799e+001
0	 7.599979999983598e+000	 4.666700000016666e+000	 1.010330082530838e+001
0	 7.599979999983599e+000	 4.733360000014533e+000	 1.010273113401829e+001
0	 7.599979999983599e+000	 4.800020000011600e+000	 1.010210618014239e+001
0	 7.599979999983598e+000	 4.866680000008065e+000	 1.010142376158742e+001
0	 7.599979999983598e+000	 4.933340000004134e+000	 1.010068167626022e+001
0	 7.599979999983598e+000	 5.000000000000000e+000	 1.009987772206753e+001
0	 7.599979999983598e+000	 5.066659999995866e+000	 1.009900969691616e+001
0	 7.599979999983598e+000	 5.133319999991934e+000	 1.009807539871289e+001
0	 7.599979999983598e+000	 5.199979999988399e+000	 1.009707262536451e+001
0	 7.599979999983600e+000	 5.266639999985468e+000	 1.009599917477783e+001
0	 7.599979999983598e+000	 5.333299999983333e+000	 1.009485284485961e+001
0	 7.666649999985415e+000	 4.666700000016665e+000	 1.009746808897825e+001
0	 7.666649999985417e+000	 4.733360000014534e+000	 1.009700905672282e+001
0	 7.666649999985415e+000	 4.800020000011601e+000	 1.009649529314720e+001
0	 7.666649999985417e+000	 4.866680000008066e+000	 1.009592461009468e+001
0	 7.666649999985413e+000	 4.933340000004133e+000	 1.009529481940865e+001
0	 7.666649999985414e+000	 5.000000000000001e+000	 1.009460373293236e+001
0	 7.666649999985415e+000	 5.066659999995867e+000	 1.009384916250921e+001
0	 7.666649999985415e+000	 5.133319999991935e+000	 1.009302891998249e+001
0	 7.666649999985416e+000	 5.199979999988400e+000	 1.009214081719552e+001
0	 7.666649999985416e+000	 5.266639999985467e+000	 1.009118266599166e+001
0	 7.666649999985414e+000	 5.333299999983333e+000	 1.009015227821425e+001
0	 7.733319999987733e+000	 4.666700000016667e+000	 1.009168358668896e+001
0	 7.733319999987731e+000	 4.733360000014533e+000	 1.009133384933804e+001
0	 7.733319999987731e+000	 4.800020000011599e+000	 1.009092975519618e+001
0	 7.733319999987729e+000	 4.866680000008065e+000	 1.009046916679748e+001
0	 7.733319999987732e+000	 4.933340000004131e+000	 1.008994994667603e+001
0	 7.733319999987732e+000	 5.000000000000000e+000	 1.008936995736591e+001
0	 7.733319999987733e+000	 5.066659999995868e+000	 1.008872706140125e+001
0	 7.733319999987731e+000	 5.133319999991935e+000	 1.008801912131611e+001
0	 7.733319999987732e+000	 5.199979999988402e+000	 1.008724399964461e+001
0	 7.733319999987733e+000	 5.266639999985467e+000	 1.008639955892086e+001
0	 7.733319999987731e+000	 5.333299999983334e+000	 1.008548366167894e+001
0	 7.799989999990448e+000	 4.666700000016666e+000	 1.008595035245180e+001
0	 7.799989999990449e+000	 4.733360000014533e+000	 1.008570897636002e+001
0	 7.799989999990447e+000	 4.800020000011599e+000	 1.008541341394504e+001
0	 7.799989999990449e+000	 4.866680000008068e+000	 1.008506161518595e+001
0	 7.799989999990446e+000	 4.933340000004133e+000	 1.008465153006184e+001
0	 7.799989999990446e+000	 4.999999999999999e+000	 1.008418110855178e+001
0	 7.799989999990448e+000	 5.066659999995868e+000	 1.008364830063486e+001
0	 7.799989999990449e+000	 5.133319999991935e+000	 1.008305105629021e+001
0	 7.799989999990448e+000	 5.199979999988400e+000	 1.008238732549690e+001
0	 7.799989999990449e+000	 5.266639999985468e+000	 1.008165505823403e+001
0	 7.799989999990448e+000	 5.333299999983334e+000	 1.008085220448069e+001
0	 7.866659999993464e+000	 4.666700000016665e+000	 1.008027142027804e+001
0	 7.866659999993464e+000	 4.733360000014533e+000	 1.008013790228480e+001
0	 7.866659999993465e+000	 4.800020000011601e+000	 1.007995011704942e+001
0	 7.866659999993464e+000	 4.866680000008065e+000	 1.007970613875022e+001
0	 7.866659999993466e+000	 4.933340000004133e+000	 1.007940404156548e+001
0	 7.866659999993465e+000	 5.000000000000000e+000	 1.007904189967353e+001
0	 7.866659999993466e+000	 5.066659999995866e+000	 1.007861778725268e+001
0	 7.866659999993465e+000	 5.133319999991935e+000	 1.007812977848123e+001
0	 7.866659999993464e+000	 5.199979999988399e+000	 1.007757594753750e+001
0	 7.866659999993465e+000	 5.266639999985468e+000	 1.007695436859984e+001
0	 7.866659999993464e+000	 5.333299999983334e+000	 1.007626311584654e+001
0	 7.933329999996681e+000	 4.666700000016665e+000	 1.007464982417892e+001
0	 7.933329999996682e+000	 4.733360000014533e+000	 1.007462409160843e+001
0	 7.933329999996680e+000	 4.800020000011600e+000	 1.007454371216503e+001
0	 7.933329999996682e+000	 4.866680000008067e+000	 1.007440692098045e+001
0	 7.933329999996682e+000	 4.933340000004134e+000	 1.007421195318645e+001
0	 7.933329999996682e+000	 5.000000000000000e+000	 1.007395704391479e+001
0	 7.933329999996679e+000	 5.066659999995866e+000	 1.007364042829725e+001
0	 7.933329999996681e+000	 5.133319999991934e+000	 1.007326034146559e+001
0	 7.933329999996682e+000	 5.199979999988400e+000	 1.007281501855154e+001
0	 7.933329999996682e+000	 5.266639999985468e+000	 1.007230269468693e+001
0	 7.933329999996682e+000	 5.333299999983334e+000	 1.007172160500348e+001
0	 7.999999999999998e+000	 4.666700000016665e+000	 1.006908859816571e+001
0	 8.000000000000000e+000	 4.733360000014532e+000	 1.006917100882696e+001
0	 8.000000000000000e+000	 4.800020000011601e+000	 1.006919804694748e+001
0	 8.000000000000000e+000	 4.866680000008068e+000	 1.006916814536675e+001
0	 7.999999999999998e+000	 4.933340000004133e+000	 1.006907973692416e+001
0	 7.999999999999999e+000	 5.000000000000000e+000	 1.006893125445918e+001
0	 8.000000000000000e+000	 5.066659999995867e+000	 1.006872113081121e+001
0	 8.000000000000000e+000	 5.133319999991934e+000	 1.006844779881972e+001
0	 8.000000000000000e+000	 5.199979999988400e+000	 1.006810969132415e+001
0	 8.000000000000000e+000	 5.266639999985468e+000	 1.006770524116393e+001
0	 8.000000000000000e+000	 5.333299999983333e+000	 1.006723288117852e+001
0	 7.333299999983334e+000	 5.333299999983333e+000	 1.011387042800119e+001
0	 7.333299999983335e+000	 5.399969999982150e+000	 1.011219619780772e+001
0	 7.333299999983333e+000	 5.466639999981867e+000	 1.011049600093828e+001
0	 7.333299999983334e+000	 5.533309999982385e+000	 1.010876712629814e+001
0	 7.333299999983335e+000	 5.599979999983599e+000	 1.010700686279261e+001
0	 7.333299999983334e+000	 5.666649999985417e+000	 1.010521249932695e+001
0	 7.333299999983336e+000	 5.733319999987733e+000	 1.010338132480649e+001
0	 7.333299999983334e+000	 5.799989999990449e+000	 1.010151062813649e+001
0	 7.333299999983333e+000	 5.866659999993468e+000	 1.009959769822225e+001
0	 7.333299999983334e+000	 5.933329999996684e+000	 1.009763982396905e+001
0	 7.333299999983334e+000	 6.000000000000002e+000	 1.009563429428217e+001
0	 7.399969999982149e+000	 5.333299999983333e+000	 1.010909415318581e+001
0	 7.399969999982148e+000	 5.399969999982149e+000	 1.010754053575253e+001
0	 7.399969999982151e+000	 5.466639999981865e+000	 1.010595915711406e+001
0	 7.399969999982149e+000	 5.533309999982383e+000	 1.010434751064012e+001
0	 7.399969999982151e+000	 5.599979999983600e+000	 1.010270308970048e+001
0	 7.399969999982151e+000	 5.666649999985418e+000	 1.010102338766488e+001
0	 7.399969999982151e+000	 5.733319999987733e+000	 1.009930589790307e+001
0	 7.399969999982151e+000	 5.799989999990448e+000	 1.009754811378482e+001
0	 7.399969999982150e+000	 5.866659999993467e+000	 1.009574752867991e+001
0	 7.399969999982151e+000	 5.933329999996684e+000	 1.009390163595804e+001
0	 7.399969999982151e+000	 6.000000000000000e+000	 1.009200792898898e+001
0	 7.466639999981864e+000	 5.333299999983334e+000	 1.010432899157240e+001
0	 7.466639999981866e+000	 5.399969999982150e+000	 1.010289473250916e+001
0	 7.466639999981867e+000	 5.466639999981868e+000	 1.010143098598911e+001
0	 7.466639999981864e+000	 5.533309999982382e+000	 1.009993543198608e+001
0	 7.466639999981867e+000	 5.599979999983601e+000	 1.009840575047386e+001
0	 7.466639999981866e+000	 5.666649999985418e+000	 1.009683962142626e+001
0	 7.466639999981866e+000	 5.733319999987732e+000	 1.009523472481711e+001
0	 7.466639999981867e+000	 5.799989999990450e+000	 1.009358874062020e+001
0	 7.466639999981867e+000	 5.866659999993467e+000	 1.009189934880933e+001
0	 7.466639999981867e+000	 5.933329999996684e+000	 1.009016422935831e+001
0	 7.466639999981866e+000	 6.000000000000001e+000	 1.008838106224096e+001
0	 7.533309999982382e+000	 5.333299999983334e+000	 1.009958015238799e+001
0	 7.533309999982384e+000	 5.399969999982148e+000	 1.009826398054257e+001
0	 7.533309999982382e+000	 5.466639999981865e+000	 1.009691666795657e+001
0	 7.533309999982381e+000	 5.533309999982382e+000	 1.009553606334741e+001
0	 7.533309999982381e+000	 5.599979999983599e+000	 1.009412001543256e+001
0	 7.533309999982383e+000	 5.666649999985416e+000	 1.009266637292946e+001
0	 7.533309999982381e+000	 5.733319999987733e+000	 1.009117298455556e+001
0	 7.533309999982381e+000	 5.799989999990449e+000	 1.008963769902832e+001
0	 7.533309999982383e+000	 5.866659999993466e+000	 1.008805836506518e+001
0	 7.533309999982384e+000	 5.933329999996682e+000	 1.008643283138357e+001
0	 7.533309999982382e+000	 6.000000000000000e+000	 1.008475894670097e+001
0	 7.599979999983598e+000	 5.333299999983333e+000	 1.009485284485960e+001
0	 7.599979999983598e+000	 5.399969999982149e+000	 1.009365347231781e+001
0	 7.599979999983599e+000	 5.466639999981866e+000	 1.009242138340955e+001
0	 7.599979999983599e+000	 5.533309999982384e+000	 1.009115457773549e+001
0	 7.599979999983599e+000	 5.599979999983600e+000	 1.008985105489632e+001
0	 7.599979999983598e+000	 5.666649999985417e+000	 1.008850881449274e+001
0	 7.599979999983599e+000	 5.733319999987733e+000	 1.008712585612538e+001
0	 7.599979999983598e+000	 5.799989999990449e+000	 1.008570017939494e+001
0	 7.599979999983598e+000	 5.866659999993469e+000	 1.008422978390212e+001
0	 7.599979999983599e+000	 5.933329999996683e+000	 1.008271266924756e+001
0	 7.599979999983598e+000	 6.000000000000001e+000	 1.008114683503194e+001
0	 7.666649999985414e+000	 5.333299999983333e+000	 1.009015227821425e+001
0	 7.666649999985414e+000	 5.399969999982151e+000	 1.008906840029986e+001
0	 7.666649999985415e+000	 5.466639999981864e+000	 1.008795031274118e+001
0	 7.666649999985416e+000	 5.533309999982385e+000	 1.008679614816172e+001
0	 7.666649999985417e+000	 5.599979999983601e+000	 1.008560403918495e+001
0	 7.666649999985415e+000	 5.666649999985416e+000	 1.008437211843440e+001
0	 7.666649999985416e+000	 5.733319999987733e+000	 1.008309851853351e+001
0	 7.666649999985416e+000	 5.799989999990450e+000	 1.008178137210582e+001
0	 7.666649999985416e+000	 5.866659999993467e+000	 1.008041881177480e+001
0	 7.666649999985415e+000	 5.933329999996684e+000	 1.007900897016394e+001
0	 7.666649999985416e+000	 6.000000000000000e+000	 1.007754997989675e+001
0	 7.733319999987731e+000	 5.333299999983334e+000	 1.008548366167894e+001
0	 7.733319999987731e+000	 5.399969999982149e+000	 1.008451395695374e+001
0	 7.733319999987730e+000	 5.466639999981866e+000	 1.008350863634463e+001
0	 7.733319999987733e+000	 5.533309999982385e+000	 1.008246594763748e+001
0	 7.733319999987733e+000	 5.599979999983599e+000	 1.008138413861822e+001
0	 7.733319999987731e+000	 5.666649999985415e+000	 1.008026145707273e+001
0	 7.733319999987731e+000	 5.733319999987733e+000	 1.007909615078693e+001
0	 7.733319999987732e+000	 5.799989999990450e+000	 1.007788646754666e+001
0	 7.733319999987732e+000	 5.866659999993466e+000	 1.007663065513788e+001
0	 7.733319999987732e+000	 5.933329999996685e+000	 1.007532696134645e+001
0	 7.733319999987733e+000	 6.000000000000000e+000	 1.007397363395829e+001
0	 7.799989999990448e+000	 5.333299999983334e+000	 1.008085220448069e+001
0	 7.799989999990450e+000	 5.399969999982149e+000	 1.007999533474447e+001
0	 7.799989999990448e+000	 5.466639999981866e+000	 1.007910153461299e+001
0	 7.799989999990447e+000	 5.533309999982382e+000	 1.007816914917416e+001
0	 7.799989999990447e+000	 5.599979999983600e+000	 1.007719652351590e+001
0	 7.799989999990449e+000	 5.666649999985417e+000	 1.007618200272606e+001
0	 7.799989999990448e+000	 5.733319999987732e+000	 1.007512393189254e+001
0	 7.799989999990449e+000	 5.799989999990448e+000	 1.007402065610323e+001
0	 7.799989999990447e+000	 5.866659999993467e+000	 1.007287052044603e+001
0	 7.799989999990449e+000	 5.933329999996684e+000	 1.007167187000879e+001
0	 7.799989999990450e+000	 6.000000000000001e+000	 1.007042304987943e+001
0	 7.866659999993464e+000	 5.333299999983334e+000	 1.007626311584654e+001
0	 7.866659999993464e+000	 5.399969999982150e+000	 1.007551772613702e+001
0	 7.866659999993465e+000	 5.466639999981866e+000	 1.007473418793940e+001
0	 7.866659999993464e+000	 5.533309999982383e+000	 1.007391092578316e+001
0	 7.866659999993463e+000	 5.599979999983600e+000	 1.007304636419776e+001
0	 7.866659999993463e+000	 5.666649999985416e+000	 1.007213892771265e+001
0	 7.866659999993465e+000	 5.733319999987733e+000	 1.007118704085734e+001
0	 7.866659999993464e+000	 5.799989999990450e+000	 1.007018912816125e+001
0	 7.866659999993464e+000	 5.866659999993467e+000	 1.006914361415388e+001
0	 7.866659999993464e+000	 5.933329999996685e+000	 1.006804892336467e+001
0	 7.866659999993464e+000	 6.000000000000000e+000	 1.006690348032311e+001
0	 7.933329999996682e+000	 5.333299999983334e+000	 1.007172160500347e+001
0	 7.933329999996682e+000	 5.399969999982150e+000	 1.007108632359643e+001
0	 7.933329999996680e+000	 5.466639999981867e+000	 1.007041177671701e+001
0	 7.933329999996681e+000	 5.533309999982383e+000	 1.006969645047584e+001
0	 7.933329999996682e+000	 5.599979999983599e+000	 1.006893883098358e+001
0	 7.933329999996682e+000	 5.666649999985417e+000	 1.006813740435084e+001
0	 7.933329999996680e+000	 5.733319999987732e+000	 1.006729065668825e+001
0	 7.933329999996682e+000	 5.799989999990449e+000	 1.006639707410647e+001
0	 7.933329999996682e+000	 5.866659999993467e+000	 1.006545514271610e+001
0	 7.933329999996682e+000	 5.933329999996683e+000	 1.006446334862779e+001
0	 7.933329999996681e+000	 5.999999999999999e+000	 1.006342017795218e+001
0	 8.000000000000000e+000	 5.333299999983333e+000	 1.006723288117852e+001
0	 8.000000000000000e+000	 5.399969999982149e+000	 1.006670631958770e+001
0	 8.000000000000000e+000	 5.466639999981868e+000	 1.006613948133894e+001
0	 8.000000000000000e+000	 5.533309999982382e+000	 1.006553089626362e+001
0	 8.000000000000000e+000	 5.599979999983600e+000	 1.006487909419314e+001
0	 8.000000000000000e+000	 5.666649999985416e+000	 1.006418260495888e+001
0	 7.999999999999999e+000	 5.733319999987732e+000	 1.006343995839226e+001
0	 8.000000000000000e+000	 5.799989999990449e+000	 1.006264968432461e+001
0	 7.999999999999998e+000	 5.866659999993466e+000	 1.006181031258734e+001
0	 8.000000000000000e+000	 5.933329999996682e+000	 1.006092037301186e+001
0	 8.000000000000000e+000	 6.000000000000001e+000	 1.005997839542954e+001
0	 7.333299999983334e+000	 6.000000000000002e+000	 1.009563429428217e+001
0	 7.333299999983334e+000	 6.066670000003316e+000	 1.009360214346146e+001
0	 7.333299999983332e+000	 6.133340000006531e+000	 1.009156469059370e+001
0	 7.333299999983334e+000	 6.200010000009550e+000	 1.008951965176457e+001
0	 7.333299999983334e+000	 6.266680000012268e+000	 1.008746474305971e+001
0	 7.333299999983335e+000	 6.333350000014586e+000	 1.008539768056481e+001
0	 7.333299999983336e+000	 6.400020000016400e+000	 1.008331618036558e+001
0	 7.333299999983333e+000	 6.466690000017615e+000	 1.008121795854765e+001
0	 7.333299999983334e+000	 6.533360000018135e+000	 1.007910073119671e+001
0	 7.333299999983335e+000	 6.600030000017851e+000	 1.007696221439844e+001
0	 7.333299999983333e+000	 6.666700000016665e+000	 1.007480012423850e+001
0	 7.399969999982151e+000	 6.000000000000000e+000	 1.009200792898898e+001
0	 7.399969999982151e+000	 6.066670000003316e+000	 1.009008663244937e+001
0	 7.399969999982148e+000	 6.133340000006533e+000	 1.008815815380287e+001
0	 7.399969999982151e+000	 6.200010000009551e+000	 1.008622026059978e+001
0	 7.399969999982151e+000	 6.266680000012269e+000	 1.008427072039042e+001
0	 7.399969999982151e+000	 6.333350000014585e+000	 1.008230730072508e+001
0	 7.399969999982150e+000	 6.400020000016400e+000	 1.008032776915407e+001
0	 7.399969999982149e+000	 6.466690000017618e+000	 1.007832989322769e+001
0	 7.399969999982149e+000	 6.533360000018133e+000	 1.007631144049626e+001
0	 7.399969999982149e+000	 6.600030000017851e+000	 1.007427017851006e+001
0	 7.399969999982152e+000	 6.666700000016668e+000	 1.007220387481942e+001
0	 7.466639999981866e+000	 6.000000000000001e+000	 1.008838106224096e+001
0	 7.466639999981865e+000	 6.066670000003317e+000	 1.008656933919164e+001
0	 7.466639999981867e+000	 6.133340000006534e+000	 1.008474864659751e+001
0	 7.466639999981867e+000	 6.200010000009551e+000	 1.008291680641141e+001
0	 7.466639999981864e+000	 6.266680000012266e+000	 1.008107164058626e+001
0	 7.466639999981867e+000	 6.333350000014584e+000	 1.007921097107489e+001
0	 7.466639999981866e+000	 6.400020000016401e+000	 1.007733261983019e+001
0	 7.466639999981867e+000	 6.466690000017618e+000	 1.007543440880504e+001
0	 7.466639999981866e+000	 6.533360000018133e+000	 1.007351415995233e+001
0	 7.466639999981867e+000	 6.600030000017850e+000	 1.007156969522492e+001
0	 7.466639999981867e+000	 6.666700000016668e+000	 1.006959883657566e+001
0	 7.533309999982382e+000	 6.000000000000000e+000	 1.008475894670097e+001
0	 7.533309999982384e+000	 6.066670000003317e+000	 1.008305553718143e+001
0	 7.533309999982382e+000	 6.133340000006532e+000	 1.008134144937294e+001
0	 7.533309999982381e+000	 6.200010000009550e+000	 1.007961456256893e+001
0	 7.533309999982384e+000	 6.266680000012268e+000	 1.007787275606279e+001
0	 7.533309999982381e+000	 6.333350000014584e+000	 1.007611390914789e+001
0	 7.533309999982381e+000	 6.400020000016402e+000	 1.007433590111763e+001
0	 7.533309999982381e+000	 6.466690000017616e+000	 1.007253661126540e+001
0	 7.533309999982383e+000	 6.533360000018137e+000	 1.007071391888460e+001
0	 7.533309999982382e+000	 6.600030000017848e+000	 1.006886570326861e+001
0	 7.533309999982381e+000	 6.666700000016665e+000	 1.006698984371081e+001
0	 7.599979999983598e+000	 6.000000000000001e+000	 1.008114683503194e+001
0	 7.599979999983598e+000	 6.066670000003317e+000	 1.007955049991180e+001
0	 7.599979999983597e+000	 6.133340000006532e+000	 1.007794184252448e+001
0	 7.599979999983599e+000	 6.200010000009550e+000	 1.007631880244180e+001
0	 7.599979999983598e+000	 6.266680000012266e+000	 1.007467931923562e+001
0	 7.599979999983599e+000	 6.333350000014585e+000	 1.007302133247779e+001
0	 7.599979999983599e+000	 6.400020000016399e+000	 1.007134278174013e+001
0	 7.599979999983599e+000	 6.466690000017617e+000	 1.006964160659453e+001
0	 7.599979999983598e+000	 6.533360000018133e+000	 1.006791574661280e+001
0	 7.599979999983601e+000	 6.600030000017851e+000	 1.006616314136679e+001
0	 7.599979999983599e+000	 6.666700000016667e+000	 1.006438173042835e+001
0	 7.666649999985416e+000	 6.000000000000000e+000	 1.007754997989675e+001
0	 7.666649999985414e+000	 6.066670000003318e+000	 1.007605950087595e+001
0	 7.666649999985415e+000	 6.133340000006533e+000	 1.007455510644745e+001
0	 7.666649999985415e+000	 6.200010000009550e+000	 1.007303479939950e+001
0	 7.666649999985415e+000	 6.266680000012267e+000	 1.007149658252036e+001
0	 7.666649999985416e+000	 6.333350000014584e+000	 1.006993845859824e+001
0	 7.666649999985417e+000	 6.400020000016401e+000	 1.006835843042142e+001
0	 7.666649999985417e+000	 6.466690000017619e+000	 1.006675450077814e+001
0	 7.666649999985417e+000	 6.533360000018135e+000	 1.006512467245661e+001
0	 7.666649999985414e+000	 6.600030000017851e+000	 1.006346694824511e+001
0	 7.666649999985416e+000	 6.666700000016666e+000	 1.006177933093187e+001
0	 7.733319999987733e+000	 6.000000000000000e+000	 1.007397363395829e+001
0	 7.733319999987733e+000	 6.066670000003317e+000	 1.007258781356695e+001
0	 7.733319999987733e+000	 6.133340000006533e+000	 1.007118652153716e+001
0	 7.733319999987732e+000	 6.200010000009552e+000	 1.006976782681151e+001
0	 7.733319999987732e+000	 6.266680000012268e+000	 1.006832979833257e+001
0	 7.733319999987732e+000	 6.333350000014586e+000	 1.006687050504295e+001
0	 7.733319999987733e+000	 6.400020000016401e+000	 1.006538801588521e+001
0	 7.733319999987733e+000	 6.466690000017619e+000	 1.006388039980196e+001
0	 7.733319999987731e+000	 6.533360000018133e+000	 1.006234572573576e+001
0	 7.733319999987731e+000	 6.600030000017849e+000	 1.006078206262921e+001
0	 7.733319999987732e+000	 6.666700000016666e+000	 1.005918747942488e+001
0	 7.799989999990450e+000	 6.000000000000001e+000	 1.007042304987943e+001
0	 7.799989999990448e+000	 6.066670000003319e+000	 1.006914071147794e+001
0	 7.799989999990447e+000	 6.133340000006533e+000	 1.006784136818892e+001
0	 7.799989999990450e+000	 6.200010000009552e+000	 1.006652315804728e+001
0	 7.799989999990449e+000	 6.266680000012268e+000	 1.006518421908788e+001
0	 7.799989999990449e+000	 6.333350000014584e+000	 1.006382268934558e+001
0	 7.799989999990448e+000	 6.400020000016402e+000	 1.006243670685523e+001
0	 7.799989999990448e+000	 6.466690000017616e+000	 1.006102440965174e+001
0	 7.799989999990449e+000	 6.533360000018136e+000	 1.005958393576993e+001
0	 7.799989999990449e+000	 6.600030000017850e+000	 1.005811342324471e+001
0	 7.799989999990447e+000	 6.666700000016665e+000	 1.005661101011091e+001
0	 7.866659999993464e+000	 6.000000000000000e+000	 1.006690348032311e+001
0	 7.866659999993465e+000	 6.066670000003317e+000	 1.006572346810204e+001
0	 7.866659999993463e+000	 6.133340000006531e+000	 1.006452492679808e+001
0	 7.866659999993464e+000	 6.200010000009551e+000	 1.006330606647631e+001
0	 7.866659999993466e+000	 6.266680000012268e+000	 1.006206509720186e+001
0	 7.866659999993464e+000	 6.333350000014584e+000	 1.006080022903979e+001
0	 7.866659999993464e+000	 6.400020000016402e+000	 1.005950967205520e+001
0	 7.866659999993465e+000	 6.466690000017617e+000	 1.005819163631318e+001
0	 7.866659999993464e+000	 6.533360000018133e+000	 1.005684433187884e+001
0	 7.866659999993463e+000	 6.600030000017848e+000	 1.005546596881726e+001
0	 7.866659999993463e+000	 6.666700000016666e+000	 1.005405475719352e+001
0	 7.933329999996681e+000	 5.999999999999999e+000	 1.006342017795218e+001
0	 7.933329999996682e+000	 6.066670000003318e+000	 1.006234135693237e+001
0	 7.933329999996681e+000	 6.133340000006533e+000	 1.006124247775990e+001
0	 7.933329999996682e+000	 6.200010000009551e+000	 1.006012182546808e+001
0	 7.933329999996681e+000	 6.266680000012267e+000	 1.005897768509011e+001
0	 7.933329999996682e+000	 6.333350000014584e+000	 1.005780834165928e+001
0	 7.933329999996681e+000	 6.400020000016401e+000	 1.005661208020885e+001
0	 7.933329999996681e+000	 6.466690000017616e+000	 1.005538718577206e+001
0	 7.933329999996681e+000	 6.533360000018135e+000	 1.005413194338219e+001
0	 7.933329999996682e+000	 6.600030000017850e+000	 1.005284463807249e+001
0	 7.933329999996682e+000	 6.666700000016667e+000	 1.005152355487623e+001
0	 8.000000000000000e+000	 6.000000000000001e+000	 1.005997839542954e+001
0	 8.000000000000002e+000	 6.066670000003317e+000	 1.005899965146204e+001
0	 7.999999999999999e+000	 6.133340000006534e+000	 1.005799930146975e+001
0	 7.999999999999999e+000	 6.200010000009551e+000	 1.005697570839203e+001
0	 7.999999999999997e+000	 6.266680000012266e+000	 1.005592723516822e+001
0	 7.999999999999999e+000	 6.333350000014583e+000	 1.005485224473772e+001
0	 8.000000000000000e+000	 6.400020000016401e+000	 1.005374910003989e+001
0	 8.000000000000000e+000	 6.466690000017617e+000	 1.005261616401408e+001
0	 8.000000000000000e+000	 6.533360000018136e+000	 1.005145179959968e+001
0	 7.999999999999998e+000	 6.600030000017848e+000	 1.005025436973606e+001
0	 8.000000000000000e+000	 6.666700000016668e+000	 1.004902223736256e+001
0	 7.333299999983333e+000	 6.666700000016665e+000	 1.007480012423850e+001
0	 7.333299999983335e+000	 6.733360000014533e+000	 1.007263327000409e+001
0	 7.333299999983334e+000	 6.800020000011600e+000	 1.007047987711850e+001
0	 7.333299999983332e+000	 6.866680000008064e+000	 1.006833776440979e+001
0	 7.333299999983334e+000	 6.933340000004134e+000	 1.006620475070598e+001
0	 7.333299999983332e+000	 6.999999999999998e+000	 1.006407865483516e+001
0	 7.333299999983334e+000	 7.066659999995866e+000	 1.006195729562539e+001
0	 7.333299999983333e+000	 7.133319999991934e+000	 1.005983849190471e+001
0	 7.333299999983334e+000	 7.199979999988401e+000	 1.005772006250116e+001
0	 7.333299999983335e+000	 7.266639999985467e+000	 1.005559982624282e+001
0	 7.333299999983336e+000	 7.333299999983336e+000	 1.005347560195775e+001
0	 7.399969999982152e+000	 6.666700000016668e+000	 1.007220387481942e+001
0	 7.399969999982149e+000	 6.733360000014531e+000	 1.007013114838151e+001
0	 7.399969999982147e+000	 6.800020000011596e+000	 1.006807006012978e+001
0	 7.399969999982151e+000	 6.866680000008066e+000	 1.006601847633794e+001
0	 7.399969999982150e+000	 6.933340000004133e+000	 1.006397426327974e+001
0	 7.399969999982149e+000	 6.999999999999999e+000	 1.006193528722891e+001
0	 7.399969999982151e+000	 7.066659999995867e+000	 1.005989941445919e+001
0	 7.399969999982149e+000	 7.133319999991933e+000	 1.005786451124432e+001
0	 7.399969999982150e+000	 7.199979999988400e+000	 1.005582844385801e+001
0	 7.399969999982149e+000	 7.266639999985467e+000	 1.005378907857403e+001
0	 7.399969999982149e+000	 7.333299999983334e+000	 1.005174428166609e+001
0	 7.466639999981867e+000	 6.666700000016668e+000	 1.006959883657566e+001
0	 7.466639999981863e+000	 6.733360000014532e+000	 1.006761996353298e+001
0	 7.466639999981866e+000	 6.800020000011599e+000	 1.006565092260452e+001
0	 7.466639999981866e+000	 6.866680000008068e+000	 1.006368962931920e+001
0	 7.466639999981868e+000	 6.933340000004134e+000	 1.006173399920595e+001
0	 7.466639999981863e+000	 6.999999999999998e+000	 1.005978194779369e+001
0	 7.466639999981865e+000	 7.066659999995866e+000	 1.005783139061134e+001
0	 7.466639999981865e+000	 7.133319999991935e+000	 1.005588024318780e+001
0	 7.466639999981868e+000	 7.199979999988401e+000	 1.005392642105201e+001
0	 7.466639999981866e+000	 7.266639999985468e+000	 1.005196783973287e+001
0	 7.466639999981864e+000	 7.333299999983332e+000	 1.005000241475932e+001
0	 7.533309999982381e+000	 6.666700000016665e+000	 1.006698984371081e+001
0	 7.533309999982382e+000	 6.733360000014530e+000	 1.006510443843570e+001
0	 7.533309999982383e+000	 6.800020000011599e+000	 1.006322707677976e+001
0	 7.533309999982383e+000	 6.866680000008068e+000	 1.006135572533660e+001
0	 7.533309999982382e+000	 6.933340000004133e+000	 1.005948835069981e+001
0	 7.533309999982384e+000	 7.000000000000001e+000	 1.005762291946300e+001
0	 7.533309999982381e+000	 7.066659999995867e+000	 1.005575739821978e+001
0	 7.533309999982384e+000	 7.133319999991936e+000	 1.005388975356376e+001
0	 7.533309999982383e+000	 7.199979999988400e+000	 1.005201795208852e+001
0	 7.533309999982384e+000	 7.266639999985466e+000	 1.005013996038769e+001
0	 7.533309999982382e+000	 7.333299999983334e+000	 1.004825374505488e+001
0	 7.599979999983599e+000	 6.666700000016667e+000	 1.006438173042835e+001
0	 7.599979999983599e+000	 6.733360000014532e+000	 1.006258929606692e+001
0	 7.599979999983599e+000	 6.800020000011599e+000	 1.006080313489259e+001
0	 7.599979999983598e+000	 6.866680000008066e+000	 1.005902126637320e+001
0	 7.599979999983598e+000	 6.933340000004133e+000	 1.005724170997653e+001
0	 7.599979999983597e+000	 6.999999999999998e+000	 1.005546248517037e+001
0	 7.599979999983598e+000	 7.066659999995864e+000	 1.005368161142252e+001
0	 7.599979999983599e+000	 7.133319999991936e+000	 1.005189710820078e+001
0	 7.599979999983599e+000	 7.199979999988399e+000	 1.005010699497296e+001
0	 7.599979999983599e+000	 7.266639999985468e+000	 1.004830929120683e+001
0	 7.599979999983598e+000	 7.333299999983333e+000	 1.004650201637019e+001
0	 7.666649999985416e+000	 6.666700000016666e+000	 1.006177933093187e+001
0	 7.666649999985415e+000	 6.733360000014532e+000	 1.006007925940383e+001
0	 7.666649999985415e+000	 6.800020000011600e+000	 1.005838370918006e+001
0	 7.666649999985414e+000	 6.866680000008066e+000	 1.005669075441205e+001
0	 7.666649999985412e+000	 6.933340000004129e+000	 1.005499846925131e+001
0	 7.666649999985414e+000	 6.999999999999999e+000	 1.005330492784932e+001
0	 7.666649999985414e+000	 7.066659999995866e+000	 1.005160820435755e+001
0	 7.666649999985417e+000	 7.133319999991936e+000	 1.004990637292752e+001
0	 7.666649999985416e+000	 7.199979999988400e+000	 1.004819750771070e+001
0	 7.666649999985416e+000	 7.266639999985468e+000	 1.004647968285859e+001
0	 7.666649999985414e+000	 7.333299999983332e+000	 1.004475097252268e+001
0	 7.733319999987732e+000	 6.666700000016666e+000	 1.005918747942488e+001
0	 7.733319999987732e+000	 6.733360000014532e+000	 1.005757905142365e+001
0	 7.733319999987731e+000	 6.800020000011599e+000	 1.005597341187919e+001
0	 7.733319999987731e+000	 6.866680000008067e+000	 1.005436869143619e+001
0	 7.733319999987733e+000	 6.933340000004134e+000	 1.005276302073934e+001
0	 7.733319999987732e+000	 7.000000000000000e+000	 1.005115453043333e+001
0	 7.733319999987733e+000	 7.066659999995867e+000	 1.004954135116282e+001
0	 7.733319999987730e+000	 7.133319999991934e+000	 1.004792161357253e+001
0	 7.733319999987730e+000	 7.199979999988400e+000	 1.004629344830714e+001
0	 7.733319999987732e+000	 7.266639999985467e+000	 1.004465498601133e+001
0	 7.733319999987732e+000	 7.333299999983334e+000	 1.004300435732978e+001
0	 7.799989999990447e+000	 6.666700000016665e+000	 1.005661101011091e+001
0	 7.799989999990448e+000	 6.733360000014533e+000	 1.005509339510361e+001
0	 7.799989999990447e+000	 6.800020000011601e+000	 1.005357685522707e+001
0	 7.799989999990448e+000	 6.866680000008068e+000	 1.005205957942869e+001
0	 7.799989999990447e+000	 6.933340000004134e+000	 1.005053975665584e+001
0	 7.799989999990448e+000	 7.000000000000000e+000	 1.004901557585593e+001
0	 7.799989999990447e+000	 7.066659999995868e+000	 1.004748522597635e+001
0	 7.799989999990448e+000	 7.133319999991935e+000	 1.004594689596444e+001
0	 7.799989999990447e+000	 7.199979999988400e+000	 1.004439877476766e+001
0	 7.799989999990449e+000	 7.266639999985467e+000	 1.004283905133336e+001
0	 7.799989999990448e+000	 7.333299999983335e+000	 1.004126591460891e+001
0	 7.866659999993463e+000	 6.666700000016666e+000	 1.005405475719352e+001
0	 7.866659999993466e+000	 6.733360000014533e+000	 1.005262701342092e+001
0	 7.866659999993466e+000	 6.800020000011601e+000	 1.005119865146073e+001
0	 7.866659999993463e+000	 6.866680000008066e+000	 1.004976792037258e+001
0	 7.866659999993465e+000	 6.933340000004134e+000	 1.004833306921601e+001
0	 7.866659999993464e+000	 6.999999999999999e+000	 1.004689234705065e+001
0	 7.866659999993464e+000	 7.066659999995867e+000	 1.004544400293608e+001
0	 7.866659999993463e+000	 7.133319999991933e+000	 1.004398628593190e+001
0	 7.866659999993464e+000	 7.199979999988400e+000	 1.004251744509768e+001
0	 7.866659999993463e+000	 7.266639999985466e+000	 1.004103572949302e+001
0	 7.866659999993464e+000	 7.333299999983334e+000	 1.003953938817751e+001
0	 7.933329999996682e+000	 6.666700000016667e+000	 1.005152355487623e+001
0	 7.933329999996681e+000	 6.733360000014533e+000	 1.005018462935279e+001
0	 7.933329999996680e+000	 6.800020000011600e+000	 1.004884341281725e+001
0	 7.933329999996682e+000	 6.866680000008068e+000	 1.004749821625091e+001
0	 7.933329999996681e+000	 6.933340000004133e+000	 1.004614735063505e+001
0	 7.933329999996682e+000	 7.000000000000000e+000	 1.004478912695099e+001
0	 7.933329999996681e+000	 7.066659999995865e+000	 1.004342185618001e+001
0	 7.933329999996682e+000	 7.133319999991935e+000	 1.004204384930343e+001
0	 7.933329999996681e+000	 7.199979999988401e+000	 1.004065341730254e+001
0	 7.933329999996681e+000	 7.266639999985467e+000	 1.003924887115864e+001
0	 7.933329999996682e+000	 7.333299999983334e+000	 1.003782852185303e+001
0	 8.000000000000000e+000	 6.666700000016668e+000	 1.004902223736256e+001
0	 7.999999999999999e+000	 6.733360000014532e+000	 1.004777096587645e+001
0	 8.000000000000000e+000	 6.800020000011601e+000	 1.004651575153367e+001
0	 7.999999999999999e+000	 6.866680000008068e+000	 1.004525496904674e+001
0	 8.000000000000000e+000	 6.933340000004133e+000	 1.004398699312816e+001
0	 8.000000000000000e+000	 7.000000000000000e+000	 1.004271019849046e+001
0	 7.999999999999999e+000	 7.066659999995867e+000	 1.004142295984613e+001
0	 8.000000000000000e+000	 7.133319999991934e+000	 1.004012365190771e+001
0	 8.000000000000000e+000	 7.199979999988400e+000	 1.003881064938768e+001
0	 8.000000000000000e+000	 7.266639999985467e+000	 1.003748232699855e+001
0	 8.000000000000000e+000	 7.333299999983335e+000	 1.003613705945287e+001
0	 7.333299999983336e+000	 7.333299999983336e+000	 1.005347560195775e+001
0	 7.333299999983333e+000	 7.399969999982150e+000	 1.005136445780962e+001
0	 7.333299999983334e+000	 7.466639999981866e+000	 1.004928404122015e+001
0	 7.333299999983335e+000	 7.533309999982384e+000	 1.004723208268327e+001
0	 7.333299999983334e+000	 7.599979999983599e+000	 1.004520631269290e+001
0	 7.333299999983335e+000	 7.666649999985417e+000	 1.004320446174295e+001
0	 7.333299999983335e+000	 7.733319999987733e+000	 1.004122426032736e+001
0	 7.333299999983334e+000	 7.799989999990448e+000	 1.003926343894006e+001
0	 7.333299999983332e+000	 7.866659999993465e+000	 1.003731972807495e+001
0	 7.333299999983333e+000	 7.933329999996682e+000	 1.003539085822596e+001
0	 7.333299999983335e+000	 8.000000000000000e+000	 1.003347455988705e+001
0	 7.399969999982149e+000	 7.333299999983334e+000	 1.005174428166609e+001
0	 7.399969999982149e+000	 7.399969999982149e+000	 1.004971089944084e+001
0	 7.399969999982149e+000	 7.466639999981866e+000	 1.004770634056641e+001
0	 7.399969999982149e+000	 7.533309999982385e+000	 1.004572839306584e+001
0	 7.399969999982151e+000	 7.599979999983598e+000	 1.004377484496212e+001
0	 7.399969999982151e+000	 7.666649999985417e+000	 1.004184348427829e+001
0	 7.399969999982150e+000	 7.733319999987732e+000	 1.003993209903733e+001
0	 7.399969999982150e+000	 7.799989999990451e+000	 1.003803847726230e+001
0	 7.399969999982150e+000	 7.866659999993467e+000	 1.003616040697619e+001
0	 7.399969999982151e+000	 7.933329999996683e+000	 1.003429567620201e+001
0	 7.399969999982150e+000	 8.000000000000000e+000	 1.003244207296280e+001
0	 7.466639999981864e+000	 7.333299999983332e+000	 1.005000241475932e+001
0	 7.466639999981866e+000	 7.399969999982149e+000	 1.004804677648130e+001
0	 7.466639999981866e+000	 7.466639999981866e+000	 1.004611809909147e+001
0	 7.466639999981864e+000	 7.533309999982383e+000	 1.004421422750047e+001
0	 7.466639999981866e+000	 7.599979999983601e+000	 1.004233300661889e+001
0	 7.466639999981867e+000	 7.666649999985418e+000	 1.004047228135738e+001
0	 7.466639999981866e+000	 7.733319999987733e+000	 1.003862989662656e+001
0	 7.466639999981867e+000	 7.799989999990451e+000	 1.003680369733704e+001
0	 7.466639999981867e+000	 7.866659999993466e+000	 1.003499152839946e+001
0	 7.466639999981868e+000	 7.933329999996684e+000	 1.003319123472443e+001
0	 7.466639999981866e+000	 8.000000000000000e+000	 1.003140066122258e+001
0	 7.533309999982382e+000	 7.333299999983334e+000	 1.004825374505488e+001
0	 7.533309999982382e+000	 7.399969999982148e+000	 1.004637572532286e+001
0	 7.533309999982383e+000	 7.466639999981866e+000	 1.004452284415807e+001
0	 7.533309999982382e+000	 7.533309999982384e+000	 1.004269300271726e+001
0	 7.533309999982381e+000	 7.599979999983600e+000	 1.004088410215717e+001
0	 7.533309999982382e+000	 7.666649999985416e+000	 1.003909404363452e+001
0	 7.533309999982383e+000	 7.733319999987733e+000	 1.003732072830611e+001
0	 7.533309999982382e+000	 7.799989999990448e+000	 1.003556205732865e+001
0	 7.533309999982383e+000	 7.866659999993468e+000	 1.003381593185887e+001
0	 7.533309999982383e+000	 7.933329999996684e+000	 1.003208025305354e+001
0	 7.533309999982381e+000	 8.000000000000000e+000	 1.003035292206941e+001
0	 7.599979999983598e+000	 7.333299999983333e+000	 1.004650201637019e+001
0	 7.599979999983599e+000	 7.399969999982149e+000	 1.004470138235736e+001
0	 7.599979999983599e+000	 7.466639999981867e+000	 1.004292410312896e+001
0	 7.599979999983599e+000	 7.533309999982382e+000	 1.004116813544635e+001
0	 7.599979999983599e+000	 7.599979999983599e+000	 1.003943143607092e+001
0	 7.599979999983598e+000	 7.666649999985414e+000	 1.003771196176404e+001
0	 7.599979999983599e+000	 7.733319999987732e+000	 1.003600766928709e+001
0	 7.599979999983597e+000	 7.799989999990448e+000	 1.003431651540147e+001
0	 7.599979999983597e+000	 7.866659999993466e+000	 1.003263645686854e+001
0	 7.599979999983599e+000	 7.933329999996683e+000	 1.003096545044969e+001
0	 7.599979999983599e+000	 8.000000000000002e+000	 1.002930145290629e+001
0	 7.666649999985414e+000	 7.333299999983332e+000	 1.004475097252268e+001
0	 7.666649999985414e+000	 7.399969999982150e+000	 1.004302738397669e+001
0	 7.666649999985416e+000	 7.466639999981868e+000	 1.004132540336690e+001
0	 7.666649999985416e+000	 7.533309999982385e+000	 1.003964304241788e+001
0	 7.666649999985416e+000	 7.599979999983599e+000	 1.003797831285412e+001
0	 7.666649999985414e+000	 7.666649999985416e+000	 1.003632922640017e+001
0	 7.666649999985415e+000	 7.733319999987731e+000	 1.003469379478058e+001
0	 7.666649999985415e+000	 7.799989999990449e+000	 1.003307002971986e+001
0	 7.666649999985415e+000	 7.866659999993464e+000	 1.003145594294256e+001
0	 7.666649999985415e+000	 7.933329999996682e+000	 1.002984954617319e+001
0	 7.666649999985416e+000	 8.000000000000000e+000	 1.002824885113629e+001
0	 7.733319999987732e+000	 7.333299999983334e+000	 1.004300435732978e+001
0	 7.733319999987732e+000	 7.399969999982149e+000	 1.004135736657264e+001
0	 7.733319999987731e+000	 7.466639999981865e+000	 1.003973027223463e+001
0	 7.733319999987733e+000	 7.533309999982383e+000	 1.003812114036193e+001
0	 7.733319999987733e+000	 7.599979999983600e+000	 1.003652803700073e+001
0	 7.733319999987731e+000	 7.666649999985416e+000	 1.003494902819725e+001
0	 7.733319999987733e+000	 7.733319999987733e+000	 1.003338217999767e+001
0	 7.733319999987732e+000	 7.799989999990451e+000	 1.003182555844820e+001
0	 7.733319999987731e+000	 7.866659999993465e+000	 1.003027722959503e+001
0	 7.733319999987732e+000	 7.933329999996683e+000	 1.002873525948437e+001
0	 7.733319999987733e+000	 8.000000000000000e+000	 1.002719771416240e+001
0	 7.799989999990448e+000	 7.333299999983335e+000	 1.004126591460891e+001
0	 7.799989999990448e+000	 7.399969999982151e+000	 1.003969496653710e+001
0	 7.799989999990449e+000	 7.466639999981866e+000	 1.003814223709489e+001
0	 7.799989999990447e+000	 7.533309999982383e+000	 1.003660584600863e+001
0	 7.799989999990448e+000	 7.599979999983599e+000	 1.003508391300472e+001
0	 7.799989999990450e+000	 7.666649999985416e+000	 1.003357455780954e+001
0	 7.799989999990449e+000	 7.733319999987733e+000	 1.003207590014945e+001
0	 7.799989999990450e+000	 7.799989999990451e+000	 1.003058605975083e+001
0	 7.799989999990447e+000	 7.866659999993467e+000	 1.002910315634009e+001
0	 7.799989999990449e+000	 7.933329999996683e+000	 1.002762530964358e+001
0	 7.799989999990449e+000	 8.000000000000000e+000	 1.002615063938768e+001
0	 7.866659999993464e+000	 7.333299999983334e+000	 1.003953938817751e+001
0	 7.866659999993463e+000	 7.399969999982149e+000	 1.003804382026194e+001
0	 7.866659999993464e+000	 7.466639999981867e+000	 1.003656482531044e+001
0	 7.866659999993465e+000	 7.533309999982383e+000	 1.003510057608812e+001
0	 7.866659999993463e+000	 7.599979999983600e+000	 1.003364924536006e+001
0	 7.866659999993464e+000	 7.666649999985419e+000	 1.003220900589132e+001
0	 7.866659999993466e+000	 7.733319999987733e+000	 1.003077803044699e+001
0	 7.866659999993465e+000	 7.799989999990449e+000	 1.002935449179213e+001
0	 7.866659999993465e+000	 7.866659999993468e+000	 1.002793656269181e+001
0	 7.866659999993465e+000	 7.933329999996684e+000	 1.002652241591112e+001
0	 7.866659999993464e+000	 8.000000000000000e+000	 1.002511022421514e+001
0	 7.933329999996682e+000	 7.333299999983334e+000	 1.003782852185303e+001
0	 7.933329999996682e+000	 7.399969999982150e+000	 1.003640756413895e+001
0	 7.933329999996682e+000	 7.466639999981866e+000	 1.003500156424402e+001
0	 7.933329999996681e+000	 7.533309999982383e+000	 1.003360874733052e+001
0	 7.933329999996681e+000	 7.599979999983600e+000	 1.003222733856073e+001
0	 7.933329999996682e+000	 7.666649999985416e+000	 1.003085556309693e+001
0	 7.933329999996682e+000	 7.733319999987733e+000	 1.002949164610140e+001
0	 7.933329999996682e+000	 7.799989999990450e+000	 1.002813381273645e+001
0	 7.933329999996681e+000	 7.866659999993467e+000	 1.002678028816432e+001
0	 7.933329999996682e+000	 7.933329999996685e+000	 1.002542929754735e+001
0	 7.933329999996680e+000	 8.000000000000000e+000	 1.002407906604777e+001
0	 8.000000000000000e+000	 7.333299999983335e+000	 1.003613705945287e+001
0	 8.000000000000000e+000	 7.399969999982151e+000	 1.003478983456005e+001
0	 8.000000000000000e+000	 7.466639999981867e+000	 1.003345598125839e+001
0	 8.000000000000000e+000	 7.533309999982385e+000	 1.003213377646594e+001
0	 8.000000000000000e+000	 7.599979999983599e+000	 1.003082149710067e+001
0	 7.999999999999999e+000	 7.666649999985416e+000	 1.002951742008060e+001
0	 7.999999999999999e+000	 7.733319999987732e+000	 1.002821982232375e+001
0	 7.999999999999999e+000	 7.799989999990448e+000	 1.002692698074813e+001
0	 7.999999999999998e+000	 7.866659999993465e+000	 1.002563717227172e+001
0	 8.000000000000000e+000	 7.933329999996684e+000	 1.002434867381256e+001
0	 7.999999999999999e+000	 7.999999999999999e+000	 1.002305976228867e+001
0	 7.333299999983335e+000	 8.000000000000000e+000	 1.003347455988705e+001
0	 7.333299999983335e+000	 8.066670000003317e+000	 1.003158922817033e+001
0	 7.333299999983332e+000	 8.133340000006532e+000	 1.002975305137645e+001
0	 7.333299999983334e+000	 8.200010000009550e+000	 1.002796344978207e+001
0	 7.333299999983334e+000	 8.266680000012268e+000	 1.002621784366378e+001
0	 7.333299999983335e+000	 8.333350000014585e+000	 1.002451365329822e+001
0	 7.333299999983333e+000	 8.400020000016399e+000	 1.002284829896205e+001
0	 7.333299999983334e+000	 8.466690000017620e+000	 1.002121920093191e+001
0	 7.333299999983332e+000	 8.533360000018135e+000	 1.001962377948438e+001
0	 7.333299999983335e+000	 8.600030000017853e+000	 1.001805945489618e+001
0	 7.333299999983334e+000	 8.666700000016665e+000	 1.001652364744390e+001
0	 7.399969999982150e+000	 8.000000000000000e+000	 1.003244207296280e+001
0	 7.399969999982151e+000	 8.066670000003315e+000	 1.003061783278920e+001
0	 7.399969999982150e+000	 8.133340000006532e+000	 1.002884097709032e+001
0	 7.399969999982151e+000	 8.200010000009549e+000	 1.002710897270680e+001
0	 7.399969999982152e+000	 8.266680000012268e+000	 1.002541928647936e+001
0	 7.399969999982150e+000	 8.333350000014583e+000	 1.002376938524867e+001
0	 7.399969999982150e+000	 8.400020000016399e+000	 1.002215673585542e+001
0	 7.399969999982149e+000	 8.466690000017612e+000	 1.002057880514029e+001
0	 7.399969999982150e+000	 8.533360000018133e+000	 1.001903305994397e+001
0	 7.399969999982149e+000	 8.600030000017851e+000	 1.001751696710714e+001
0	 7.399969999982150e+000	 8.666700000016668e+000	 1.001602799347048e+001
0	 7.466639999981866e+000	 8.000000000000000e+000	 1.003140066122258e+001
0	 7.466639999981865e+000	 8.066670000003317e+000	 1.002963785073168e+001
0	 7.466639999981867e+000	 8.133340000006532e+000	 1.002792062709121e+001
0	 7.466639999981867e+000	 8.200010000009552e+000	 1.002624650671431e+001
0	 7.466639999981864e+000	 8.266680000012267e+000	 1.002461300601415e+001
0	 7.466639999981866e+000	 8.333350000014583e+000	 1.002301764140387e+001
0	 7.466639999981867e+000	 8.400020000016401e+000	 1.002145792929661e+001
0	 7.466639999981865e+000	 8.466690000017618e+000	 1.001993138610557e+001
0	 7.466639999981866e+000	 8.533360000018135e+000	 1.001843552824386e+001
0	 7.466639999981865e+000	 8.600030000017849e+000	 1.001696787212465e+001
0	 7.466639999981866e+000	 8.666700000016668e+000	 1.001552593416112e+001
0	 7.533309999982381e+000	 8.000000000000000e+000	 1.003035292206941e+001
0	 7.533309999982383e+000	 8.066670000003311e+000	 1.002865176026201e+001
0	 7.533309999982381e+000	 8.133340000006529e+000	 1.002699436754517e+001
0	 7.533309999982382e+000	 8.200010000009550e+000	 1.002537831291289e+001
0	 7.533309999982383e+000	 8.266680000012267e+000	 1.002380116535923e+001
0	 7.533309999982383e+000	 8.333350000014583e+000	 1.002226049387825e+001
0	 7.533309999982381e+000	 8.400020000016401e+000	 1.002075386746400e+001
0	 7.533309999982381e+000	 8.466690000017614e+000	 1.001927885511050e+001
0	 7.533309999982384e+000	 8.533360000018137e+000	 1.001783302581186e+001
0	 7.533309999982381e+000	 8.600030000017851e+000	 1.001641394856207e+001
0	 7.533309999982382e+000	 8.666700000016668e+000	 1.001501919235522e+001
0	 7.599979999983599e+000	 8.000000000000002e+000	 1.002930145290629e+001
0	 7.599979999983598e+000	 8.066670000003315e+000	 1.002766203964443e+001
0	 7.599979999983598e+000	 8.133340000006532e+000	 1.002606456461813e+001
0	 7.599979999983599e+000	 8.200010000009552e+000	 1.002450665241076e+001
0	 7.599979999983597e+000	 8.266680000012265e+000	 1.002298592760568e+001
0	 7.599979999983600e+000	 8.333350000014585e+000	 1.002150001478628e+001
0	 7.599979999983599e+000	 8.400020000016401e+000	 1.002004653853592e+001
0	 7.599979999983598e+000	 8.466690000017614e+000	 1.001862312343795e+001
0	 7.599979999983598e+000	 8.533360000018133e+000	 1.001722739407576e+001
0	 7.599979999983599e+000	 8.600030000017849e+000	 1.001585697503269e+001
0	 7.599979999983598e+000	 8.666700000016666e+000	 1.001450949089216e+001
0	 7.666649999985416e+000	 8.000000000000000e+000	 1.002824885113629e+001
0	 7.666649999985414e+000	 8.066670000003315e+000	 1.002667116714315e+001
0	 7.666649999985416e+000	 8.133340000006538e+000	 1.002513358447608e+001
0	 7.666649999985417e+000	 8.200010000009550e+000	 1.002363378631621e+001
0	 7.666649999985415e+000	 8.266680000012270e+000	 1.002216945584461e+001
0	 7.666649999985416e+000	 8.333350000014583e+000	 1.002073827624241e+001
0	 7.666649999985417e+000	 8.400020000016403e+000	 1.001933793069076e+001
0	 7.666649999985417e+000	 8.466690000017618e+000	 1.001796610237069e+001
0	 7.666649999985415e+000	 8.533360000018135e+000	 1.001662047446336e+001
0	 7.666649999985415e+000	 8.600030000017851e+000	 1.001529873014987e+001
0	 7.666649999985416e+000	 8.666700000016666e+000	 1.001399855261134e+001
0	 7.733319999987733e+000	 8.000000000000000e+000	 1.002719771416240e+001
0	 7.733319999987732e+000	 8.066670000003317e+000	 1.002568162102241e+001
0	 7.733319999987733e+000	 8.133340000006534e+000	 1.002420379328500e+001
0	 7.733319999987732e+000	 8.200010000009552e+000	 1.002276197573748e+001
0	 7.733319999987731e+000	 8.266680000012267e+000	 1.002135391316708e+001
0	 7.733319999987732e+000	 8.333350000014585e+000	 1.001997735036112e+001
0	 7.733319999987732e+000	 8.400020000016399e+000	 1.001863003210684e+001
0	 7.733319999987732e+000	 8.466690000017616e+000	 1.001730970319154e+001
0	 7.733319999987731e+000	 8.533360000018131e+000	 1.001601410840246e+001
0	 7.733319999987731e+000	 8.600030000017851e+000	 1.001474099252690e+001
0	 7.733319999987731e+000	 8.666700000016666e+000	 1.001348810035215e+001
0	 7.799989999990449e+000	 8.000000000000000e+000	 1.002615063938768e+001
0	 7.799989999990448e+000	 8.066670000003317e+000	 1.002469587954644e+001
0	 7.799989999990447e+000	 8.133340000006534e+000	 1.002327755721088e+001
0	 7.799989999990449e+000	 8.200010000009554e+000	 1.002189348178284e+001
0	 7.799989999990448e+000	 8.266680000012267e+000	 1.002054146266421e+001
0	 7.799989999990448e+000	 8.333350000014583e+000	 1.001921930925684e+001
0	 7.799989999990448e+000	 8.400020000016403e+000	 1.001792483096259e+001
0	 7.799989999990447e+000	 8.466690000017618e+000	 1.001665583718331e+001
0	 7.799989999990449e+000	 8.533360000018135e+000	 1.001541013732087e+001
0	 7.799989999990450e+000	 8.600030000017851e+000	 1.001418554077714e+001
0	 7.799989999990448e+000	 8.666700000016668e+000	 1.001297985695399e+001
0	 7.866659999993464e+000	 8.000000000000000e+000	 1.002511022421514e+001
0	 7.866659999993463e+000	 8.066670000003315e+000	 1.002371642097949e+001
0	 7.866659999993464e+000	 8.133340000006532e+000	 1.002235724241968e+001
0	 7.866659999993466e+000	 8.200010000009550e+000	 1.002103056556057e+001
0	 7.866659999993466e+000	 8.266680000012268e+000	 1.001973426742707e+001
0	 7.866659999993464e+000	 8.333350000014585e+000	 1.001846622504403e+001
0	 7.866659999993465e+000	 8.400020000016401e+000	 1.001722431543631e+001
0	 7.866659999993463e+000	 8.466690000017618e+000	 1.001600641562881e+001
0	 7.866659999993466e+000	 8.533360000018133e+000	 1.001481040264636e+001
0	 7.866659999993464e+000	 8.600030000017851e+000	 1.001363415351388e+001
0	 7.866659999993464e+000	 8.666700000016666e+000	 1.001247554525623e+001
0	 7.933329999996680e+000	 8.000000000000000e+000	 1.002407906604777e+001
0	 7.933329999996682e+000	 8.066670000003317e+000	 1.002274572358574e+001
0	 7.933329999996682e+000	 8.133340000006534e+000	 1.002144521507736e+001
0	 7.933329999996682e+000	 8.200010000009552e+000	 1.002017548817893e+001
0	 7.933329999996682e+000	 8.266680000012268e+000	 1.001893449054676e+001
0	 7.933329999996681e+000	 8.333350000014583e+000	 1.001772016983713e+001
0	 7.933329999996680e+000	 8.400020000016399e+000	 1.001653047370640e+001
0	 7.933329999996681e+000	 8.466690000017616e+000	 1.001536334981084e+001
0	 7.933329999996680e+000	 8.533360000018133e+000	 1.001421674580677e+001
0	 7.933329999996681e+000	 8.600030000017849e+000	 1.001308860935049e+001
0	 7.933329999996682e+000	 8.666700000016668e+000	 1.001197688809832e+001
0	 7.999999999999999e+000	 7.999999999999999e+000	 1.002305976228867e+001
0	 7.999999999999998e+000	 8.066670000003319e+000	 1.002178626562950e+001
0	 8.000000000000000e+000	 8.133340000006534e+000	 1.002054384134993e+001
0	 7.999999999999999e+000	 8.200010000009550e+000	 1.001933051074616e+001
0	 7.999999999999999e+000	 8.266680000012268e+000	 1.001814429511434e+001
0	 8.000000000000000e+000	 8.333350000014585e+000	 1.001698321575065e+001
0	 7.999999999999998e+000	 8.400020000016397e+000	 1.001584529395120e+001
0	 8.000000000000000e+000	 8.466690000017618e+000	 1.001472855101223e+001
0	 7.999999999999998e+000	 8.533360000018131e+000	 1.001363100822985e+001
0	 8.000000000000000e+000	 8.600030000017851e+000	 1.001255068690026e+001
0	 8.000000000000000e+000	 8.666700000016666e+000	 1.001148560831961e+001
0	 7.333299999983334e+000	 8.666700000016665e+000	 1.001652364744390e+001
0	 7.333299999983335e+000	 8.733360002791903e+000	 1.001503906823366e+001
0	 7.333299999983333e+000	 8.800020022230555e+000	 1.001362759627137e+001
0	 7.333299999983335e+000	 8.866680074997040e+000	 1.001228608857849e+001
0	 7.333299999983334e+000	 8.933340177755779e+000	 1.001101140197037e+001
0	 7.333299999983333e+000	 9.000000347171179e+000	 1.000980039305622e+001
0	 7.333299999983335e+000	 9.066660599907667e+000	 1.000864991823914e+001
0	 7.333299999983334e+000	 9.133320952629655e+000	 1.000755683371606e+001
0	 7.333299999983333e+000	 9.199981422001558e+000	 1.000651799547787e+001
0	 7.333299999983333e+000	 9.266642024687794e+000	 1.000553025930924e+001
0	 7.333299999983334e+000	 9.333302777352781e+000	 1.000459048078875e+001
0	 7.399969999982150e+000	 8.666700000016668e+000	 1.001602799347048e+001
0	 7.399969999982152e+000	 8.733360002791905e+000	 1.001458842902994e+001
0	 7.399969999982151e+000	 8.800020022230557e+000	 1.001321977674649e+001
0	 7.399969999982150e+000	 8.866680074997044e+000	 1.001191898704139e+001
0	 7.399969999982151e+000	 8.933340177755779e+000	 1.001068301013580e+001
0	 7.399969999982149e+000	 9.000000347171181e+000	 1.000950879605068e+001
0	 7.399969999982152e+000	 9.066660599907667e+000	 1.000839329460696e+001
0	 7.399969999982149e+000	 9.133320952629655e+000	 1.000733345542532e+001
0	 7.399969999982152e+000	 9.199981422001560e+000	 1.000632622792640e+001
0	 7.399969999982149e+000	 9.266642024687798e+000	 1.000536856133065e+001
0	 7.399969999982149e+000	 9.333302777352783e+000	 1.000445740465840e+001
0	 7.466639999981866e+000	 8.666700000016668e+000	 1.001552593416112e+001
0	 7.466639999981866e+000	 8.733360002791901e+000	 1.001413157978671e+001
0	 7.466639999981867e+000	 8.800020022230555e+000	 1.001280592980208e+001
0	 7.466639999981867e+000	 8.866680074997042e+000	 1.001154602695161e+001
0	 7.466639999981868e+000	 8.933340177755783e+000	 1.001034891378558e+001
0	 7.466639999981867e+000	 9.000000347171183e+000	 1.000921163266013e+001
0	 7.466639999981866e+000	 9.066660599907666e+000	 1.000813122573737e+001
0	 7.466639999981865e+000	 9.133320952629653e+000	 1.000710473498530e+001
0	 7.466639999981867e+000	 9.199981422001560e+000	 1.000612920217782e+001
0	 7.466639999981866e+000	 9.266642024687799e+000	 1.000520166889475e+001
0	 7.466639999981866e+000	 9.333302777352785e+000	 1.000431917652184e+001
0	 7.533309999982382e+000	 8.666700000016668e+000	 1.001501919235522e+001
0	 7.533309999982383e+000	 8.733360002791901e+000	 1.001367019278061e+001
0	 7.533309999982384e+000	 8.800020022230555e+000	 1.001238768051827e+001
0	 7.533309999982383e+000	 8.866680074997040e+000	 1.001116878955895e+001
0	 7.533309999982381e+000	 8.933340177755778e+000	 1.001001065370541e+001
0	 7.533309999982383e+000	 9.000000347171184e+000	 1.000891040657243e+001
0	 7.533309999982382e+000	 9.066660599907669e+000	 1.000786518158675e+001
0	 7.533309999982384e+000	 9.133320952629660e+000	 1.000687211198715e+001
0	 7.533309999982383e+000	 9.199981422001558e+000	 1.000592833082440e+001
0	 7.533309999982383e+000	 9.266642024687794e+000	 1.000503097096123e+001
0	 7.533309999982382e+000	 9.333302777352783e+000	 1.000417716507246e+001
0	 7.599979999983598e+000	 8.666700000016666e+000	 1.001450949089215e+001
0	 7.599979999983599e+000	 8.733360002791901e+000	 1.001320594028829e+001
0	 7.599979999983599e+000	 8.800020022230555e+000	 1.001196665397513e+001
0	 7.599979999983599e+000	 8.866680074997040e+000	 1.001078885611317e+001
0	 7.599979999983599e+000	 8.933340177755781e+000	 1.000966977068103e+001
0	 7.599979999983598e+000	 9.000000347171183e+000	 1.000860662147551e+001
0	 7.599979999983599e+000	 9.066660599907667e+000	 1.000759663211151e+001
0	 7.599979999983598e+000	 9.133320952629656e+000	 1.000663702602207e+001
0	 7.599979999983598e+000	 9.199981422001558e+000	 1.000572502645839e+001
0	 7.599979999983599e+000	 9.266642024687798e+000	 1.000485785648973e+001
0	 7.599979999983600e+000	 9.333302777352783e+000	 1.000403273900360e+001
0	 7.666649999985416e+000	 8.666700000016666e+000	 1.001399855261134e+001
0	 7.666649999985416e+000	 8.733360002791903e+000	 1.001274049458644e+001
0	 7.666649999985416e+000	 8.800020022230557e+000	 1.001154447525280e+001
0	 7.666649999985414e+000	 8.866680074997042e+000	 1.001040780786404e+001
0	 7.666649999985414e+000	 8.933340177755778e+000	 1.000932780549812e+001
0	 7.666649999985416e+000	 9.000000347171184e+000	 1.000830178105726e+001
0	 7.666649999985416e+000	 9.066660599907667e+000	 1.000732704726800e+001
0	 7.666649999985417e+000	 9.133320952629656e+000	 1.000640091668122e+001
0	 7.666649999985415e+000	 9.199981422001560e+000	 1.000552070167203e+001
0	 7.666649999985415e+000	 9.266642024687796e+000	 1.000468371443991e+001
0	 7.666649999985414e+000	 9.333302777352781e+000	 1.000388726700863e+001
0	 7.733319999987731e+000	 8.666700000016666e+000	 1.001348810035215e+001
0	 7.733319999987732e+000	 8.733360002791903e+000	 1.001227552795166e+001
0	 7.733319999987732e+000	 8.800020022230553e+000	 1.001112276943137e+001
0	 7.733319999987728e+000	 8.866680074997039e+000	 1.001002722606138e+001
0	 7.733319999987732e+000	 8.933340177755776e+000	 1.000898629894240e+001
0	 7.733319999987731e+000	 9.000000347171181e+000	 1.000799738900559e+001
0	 7.733319999987733e+000	 9.066660599907671e+000	 1.000705789701265e+001
0	 7.733319999987730e+000	 9.133320952629655e+000	 1.000616522355575e+001
0	 7.733319999987730e+000	 9.199981422001558e+000	 1.000531676905761e+001
0	 7.733319999987730e+000	 9.266642024687796e+000	 1.000450993377144e+001
0	 7.733319999987732e+000	 9.333302777352783e+000	 1.000374211778087e+001
0	 7.799989999990448e+000	 8.666700000016668e+000	 1.001297985695399e+001
0	 7.799989999990449e+000	 8.733360002791901e+000	 1.001181271266065e+001
0	 7.799989999990448e+000	 8.800020022230555e+000	 1.001070316159093e+001
0	 7.799989999990448e+000	 8.866680074997042e+000	 1.000964869195495e+001
0	 7.799989999990448e+000	 8.933340177755778e+000	 1.000864679179957e+001
0	 7.799989999990448e+000	 9.000000347171177e+000	 1.000769494900842e+001
0	 7.799989999990449e+000	 9.066660599907667e+000	 1.000679065130182e+001
0	 7.799989999990448e+000	 9.133320952629656e+000	 1.000593138623687e+001
0	 7.799989999990447e+000	 9.199981422001557e+000	 1.000511464120741e+001
0	 7.799989999990448e+000	 9.266642024687796e+000	 1.000433790344392e+001
0	 7.799989999990449e+000	 9.333302777352783e+000	 1.000359866001373e+001
0	 7.866659999993464e+000	 8.666700000016666e+000	 1.001247554525623e+001
0	 7.866659999993465e+000	 8.733360002791903e+000	 1.001135372099007e+001
0	 7.866659999993463e+000	 8.800020022230555e+000	 1.001028727681163e+001
0	 7.866659999993464e+000	 8.866680074997042e+000	 1.000927378679452e+001
0	 7.866659999993463e+000	 8.933340177755778e+000	 1.000831082485535e+001
0	 7.866659999993466e+000	 9.000000347171183e+000	 1.000739596475363e+001
0	 7.866659999993466e+000	 9.066660599907667e+000	 1.000652678009192e+001
0	 7.866659999993464e+000	 9.133320952629655e+000	 1.000570084431575e+001
0	 7.866659999993464e+000	 9.199981422001558e+000	 1.000491573071362e+001
0	 7.866659999993464e+000	 9.266642024687796e+000	 1.000416901241706e+001
0	 7.866659999993464e+000	 9.333302777352783e+000	 1.000345826240051e+001
0	 7.933329999996682e+000	 8.666700000016668e+000	 1.001197688809831e+001
0	 7.933329999996679e+000	 8.733360002791898e+000	 1.001090022521654e+001
0	 7.933329999996682e+000	 8.800020022230557e+000	 1.000987674017356e+001
0	 7.933329999996681e+000	 8.866680074997040e+000	 1.000890409182992e+001
0	 7.933329999996681e+000	 8.933340177755778e+000	 1.000797993889543e+001
0	 7.933329999996682e+000	 9.000000347171183e+000	 1.000710193992912e+001
0	 7.933329999996679e+000	 9.066660599907664e+000	 1.000626775333930e+001
0	 7.933329999996680e+000	 9.133320952629655e+000	 1.000547503738353e+001
0	 7.933329999996682e+000	 9.199981422001557e+000	 1.000472145016857e+001
0	 7.933329999996682e+000	 9.266642024687796e+000	 1.000400464965051e+001
0	 7.933329999996682e+000	 9.333302777352783e+000	 1.000332229363458e+001
0	 8.000000000000000e+000	 8.666700000016666e+000	 1.001148560831961e+001
0	 8.000000000000000e+000	 8.733360002791905e+000	 1.001045389761674e+001
0	 7.999999999999999e+000	 8.800020022230555e+000	 1.000947317675682e+001
0	 8.000000000000002e+000	 8.866680074997042e+000	 1.000854118831088e+001
0	 8.000000000000002e+000	 8.933340177755778e+000	 1.000765567470552e+001
0	 8.000000000000002e+000	 9.000000347171184e+000	 1.000681437822282e+001
0	 8.000000000000000e+000	 9.066660599907667e+000	 1.000601504100041e+001
0	 8.000000000000000e+000	 9.133320952629655e+000	 1.000525540503140e+001
0	 7.999999999999999e+000	 9.199981422001558e+000	 1.000453321216451e+001
0	 8.000000000000000e+000	 9.266642024687796e+000	 1.000384620410392e+001
0	 7.999999999999999e+000	 9.333302777352781e+000	 1.000319212240935e+001
0	 7.333299999983334e+000	 9.333302777352781e+000	 1.000459048078875e+001
0	 7.333299999983336e+000	 9.399973674588173e+000	 1.000372407326956e+001
0	 7.333299999983334e+000	 9.466644621844624e+000	 1.000295639758766e+001
0	 7.333299999983333e+000	 9.533315502449998e+000	 1.000228381930425e+001
0	 7.333299999983335e+000	 9.599986199732195e+000	 1.000170270602799e+001
0	 7.333299999983334e+000	 9.666656597019097e+000	 1.000120942741488e+001
0	 7.333299999983333e+000	 9.733326577638573e+000	 1.000080035516850e+001
0	 7.333299999983335e+000	 9.799996024918523e+000	 1.000047186303993e+001
0	 7.333299999983333e+000	 9.866664822186822e+000	 1.000022032682803e+001
0	 7.333299999983333e+000	 9.933332852771354e+000	 1.000004212437955e+001
0	 7.333299999983335e+000	 1.000000000000000e+001	 9.999933635589661e+000
0	 7.399969999982149e+000	 9.333302777352783e+000	 1.000445740465840e+001
0	 7.399969999982149e+000	 9.399973674588175e+000	 1.000361738464066e+001
0	 7.399969999982151e+000	 9.466644621844621e+000	 1.000287310400266e+001
0	 7.399969999982150e+000	 9.533315502449998e+000	 1.000222107704254e+001
0	 7.399969999982151e+000	 9.599986199732200e+000	 1.000165782004524e+001
0	 7.399969999982150e+000	 9.666656597019095e+000	 1.000117985128233e+001
0	 7.399969999982149e+000	 9.733326577638572e+000	 1.000078369101218e+001
0	 7.399969999982151e+000	 9.799996024918524e+000	 1.000046586148006e+001
0	 7.399969999982151e+000	 9.866664822186824e+000	 1.000022288691819e+001
0	 7.399969999982149e+000	 9.933332852771351e+000	 1.000005129354614e+001
0	 7.399969999982150e+000	 1.000000000000000e+001	 9.999947609570846e+000
0	 7.466639999981866e+000	 9.333302777352785e+000	 1.000431917652184e+001
0	 7.466639999981864e+000	 9.399973674588175e+000	 1.000350556386418e+001
0	 7.466639999981864e+000	 9.466644621844617e+000	 1.000278467125716e+001
0	 7.466639999981866e+000	 9.533315502449998e+000	 1.000215315621085e+001
0	 7.466639999981864e+000	 9.599986199732195e+000	 1.000160767816087e+001
0	 7.466639999981867e+000	 9.666656597019093e+000	 1.000114489846855e+001
0	 7.466639999981865e+000	 9.733326577638575e+000	 1.000076148042085e+001
0	 7.466639999981867e+000	 9.799996024918523e+000	 1.000045408923063e+001
0	 7.466639999981867e+000	 9.866664822186822e+000	 1.000021939203664e+001
0	 7.466639999981866e+000	 9.933332852771354e+000	 1.000005405790380e+001
0	 7.466639999981865e+000	 1.000000000000000e+001	 9.999954757823501e+000
0	 7.533309999982382e+000	 9.333302777352783e+000	 1.000417716507246e+001
0	 7.533309999982383e+000	 9.399973674588177e+000	 1.000338996538835e+001
0	 7.533309999982384e+000	 9.466644621844623e+000	 1.000269244823596e+001
0	 7.533309999982381e+000	 9.533315502450003e+000	 1.000208140881201e+001
0	 7.533309999982382e+000	 9.599986199732195e+000	 1.000155364417750e+001
0	 7.533309999982382e+000	 9.666656597019092e+000	 1.000110595325766e+001
0	 7.533309999982382e+000	 9.733326577638575e+000	 1.000073513684226e+001
0	 7.533309999982382e+000	 9.799996024918523e+000	 1.000043799758537e+001
0	 7.533309999982383e+000	 9.866664822186824e+000	 1.000021134000578e+001
0	 7.533309999982383e+000	 9.933332852771351e+000	 1.000005197048724e+001
0	 7.533309999982381e+000	 1.000000000000000e+001	 9.999956697278321e+000
0	 7.599979999983600e+000	 9.333302777352783e+000	 1.000403273900360e+001
0	 7.599979999983598e+000	 9.399973674588177e+000	 1.000327194366141e+001
0	 7.599979999983600e+000	 9.466644621844619e+000	 1.000259778382380e+001
0	 7.599979999983599e+000	 9.533315502450002e+000	 1.000200718684889e+001
0	 7.599979999983599e+000	 9.599986199732197e+000	 1.000149708189767e+001
0	 7.599979999983598e+000	 9.666656597019093e+000	 1.000106439993381e+001
0	 7.599979999983598e+000	 9.733326577638575e+000	 1.000070607372401e+001
0	 7.599979999983598e+000	 9.799996024918524e+000	 1.000041903783790e+001
0	 7.599979999983598e+000	 9.866664822186820e+000	 1.000020022864821e+001
0	 7.599979999983598e+000	 9.933332852771352e+000	 1.000004658433098e+001
0	 7.599979999983598e+000	 1.000000000000000e+001	 9.999955044865903e+000
0	 7.666649999985414e+000	 9.333302777352781e+000	 1.000388726700862e+001
0	 7.666649999985415e+000	 9.399973674588175e+000	 1.000315285313164e+001
0	 7.666649999985416e+000	 9.466644621844621e+000	 1.000250202690543e+001
0	 7.666649999985415e+000	 9.533315502450000e+000	 1.000193184232433e+001
0	 7.666649999985416e+000	 9.599986199732197e+000	 1.000143935512395e+001
0	 7.666649999985413e+000	 9.666656597019092e+000	 1.000102162278110e+001
0	 7.666649999985415e+000	 9.733326577638577e+000	 1.000067570451393e+001
0	 7.666649999985416e+000	 9.799996024918523e+000	 1.000039866128197e+001
0	 7.666649999985416e+000	 9.866664822186825e+000	 1.000018755578624e+001
0	 7.666649999985415e+000	 9.933332852771354e+000	 1.000003945246969e+001
0	 7.666649999985414e+000	 9.999999999999998e+000	 9.999951417517016e+000
0	 7.733319999987732e+000	 9.333302777352783e+000	 1.000374211778088e+001
0	 7.733319999987731e+000	 9.399973674588173e+000	 1.000303404824727e+001
0	 7.733319999987732e+000	 9.466644621844621e+000	 1.000240652636561e+001
0	 7.733319999987730e+000	 9.533315502450000e+000	 1.000185672724117e+001
0	 7.733319999987731e+000	 9.599986199732197e+000	 1.000138182765895e+001
0	 7.733319999987732e+000	 9.666656597019093e+000	 1.000097900608363e+001
0	 7.733319999987730e+000	 9.733326577638575e+000	 1.000064544265964e+001
0	 7.733319999987732e+000	 9.799996024918523e+000	 1.000037831921119e+001
0	 7.733319999987733e+000	 9.866664822186822e+000	 1.000017481924250e+001
0	 7.733319999987733e+000	 9.933332852771356e+000	 1.000003212793800e+001
0	 7.733319999987730e+000	 9.999999999999998e+000	 9.999947432162392e+000
0	 7.799989999990449e+000	 9.333302777352783e+000	 1.000359866001372e+001
0	 7.799989999990450e+000	 9.399973674588177e+000	 1.000291688345657e+001
0	 7.799989999990447e+000	 9.466644621844619e+000	 1.000231263108908e+001
0	 7.799989999990448e+000	 9.533315502450002e+000	 1.000178319360223e+001
0	 7.799989999990447e+000	 9.599986199732198e+000	 1.000132586330524e+001
0	 7.799989999990448e+000	 9.666656597019095e+000	 1.000093793412555e+001
0	 7.799989999990448e+000	 9.733326577638575e+000	 1.000061670160888e+001
0	 7.799989999990449e+000	 9.799996024918524e+000	 1.000035946291931e+001
0	 7.799989999990447e+000	 9.866664822186824e+000	 1.000016351683945e+001
0	 7.799989999990449e+000	 9.933332852771354e+000	 1.000002616377052e+001
0	 7.799989999990447e+000	 9.999999999999998e+000	 9.999944705732757e+000
0	 7.866659999993464e+000	 9.333302777352783e+000	 1.000345826240051e+001
0	 7.866659999993463e+000	 9.399973674588175e+000	 1.000280271320778e+001
0	 7.866659999993465e+000	 9.466644621844623e+000	 1.000222168996059e+001
0	 7.866659999993464e+000	 9.533315502450002e+000	 1.000171259341036e+001
0	 7.866659999993463e+000	 9.599986199732197e+000	 1.000127282586537e+001
0	 7.866659999993463e+000	 9.666656597019093e+000	 1.000089979119091e+001
0	 7.866659999993464e+000	 9.733326577638573e+000	 1.000059089480934e+001
0	 7.866659999993464e+000	 9.799996024918523e+000	 1.000034354370000e+001
0	 7.866659999993463e+000	 9.866664822186820e+000	 1.000015514639948e+001
0	 7.866659999993463e+000	 9.933332852771352e+000	 1.000002311300193e+001
0	 7.866659999993463e+000	 1.000000000000000e+001	 9.999944855158855e+000
0	 7.933329999996682e+000	 9.333302777352783e+000	 1.000332229363458e+001
0	 7.933329999996681e+000	 9.399973674588175e+000	 1.000269289194915e+001
0	 7.933329999996682e+000	 9.466644621844621e+000	 1.000213505186495e+001
0	 7.933329999996682e+000	 9.533315502449998e+000	 1.000164627866841e+001
0	 7.933329999996682e+000	 9.599986199732197e+000	 1.000122407914193e+001
0	 7.933329999996682e+000	 9.666656597019095e+000	 1.000086596156391e+001
0	 7.933329999996682e+000	 9.733326577638577e+000	 1.000056943570871e+001
0	 7.933329999996682e+000	 9.799996024918523e+000	 1.000033201284688e+001
0	 7.933329999996681e+000	 9.866664822186824e+000	 1.000015120574522e+001
0	 7.933329999996682e+000	 9.933332852771354e+000	 1.000002452866677e+001
0	 7.933329999996681e+000	 1.000000000000000e+001	 9.999949497371389e+000
0	 7.999999999999999e+000	 9.333302777352781e+000	 1.000319212240935e+001
0	 8.000000000000000e+000	 9.399973674588175e+000	 1.000258877412894e+001
0	 8.000000000000000e+000	 9.466644621844621e+000	 1.000205406568685e+001
0	 8.000000000000000e+000	 9.533315502449998e+000	 1.000158560137922e+001
0	 8.000000000000000e+000	 9.599986199732197e+000	 1.000118098693752e+001
0	 8.000000000000000e+000	 9.666656597019093e+000	 1.000083782952859e+001
0	 8.000000000000000e+000	 9.733326577638575e+000	 1.000055373775475e+001
0	 8.000000000000000e+000	 9.799996024918524e+000	 1.000032632165377e+001
0	 7.999999999999997e+000	 9.866664822186822e+000	 1.000015319269904e+001
0	 8.000000000000000e+000	 9.933332852771352e+000	 1.000003196379972e+001
0	 8.000000000000000e+000	 1.000000000000000e+001	 9.999960249301092e+000
0	 8.000000000000000e+000	 0.000000000000000e+000	 9.970876096111534e+000
0	 8.000000000000002e+000	 6.666714722864757e-002	 9.970839395214743e+000
0	 8.000000000000000e+000	 1.333351778131789e-001	 9.970921090936754e+000
0	 8.000000000000000e+000	 2.000039750814773e-001	 9.971121130954559e+000
0	 8.000000000000002e+000	 2.666734223614256e-001	 9.971439465081353e+000
0	 8.000000000000000e+000	 3.333434029809069e-001	 9.971876045266333e+000
0	 8.000000000000000e+000	 4.000138002678044e-001	 9.972430825594588e+000
0	 8.000000000000000e+000	 4.666844975500011e-001	 9.973103762287023e+000
0	 7.999999999999999e+000	 5.333553781553803e-001	 9.973894813700314e+000
0	 8.000000000000000e+000	 6.000263254118246e-001	 9.974803940326998e+000
0	 7.999999999999999e+000	 6.666972226472177e-001	 9.975831104795516e+000
0	 8.066670000003317e+000	 0.000000000000000e+000	 9.962950578137191e+000
0	 8.066670000003313e+000	 6.666714722864754e-002	 9.962912918498633e+000
0	 8.066670000003317e+000	 1.333351778131789e-001	 9.962988752867625e+000
0	 8.066670000003317e+000	 2.000039750814772e-001	 9.963178328069430e+000
0	 8.066670000003315e+000	 2.666734223614256e-001	 9.963481893013025e+000
0	 8.066670000003319e+000	 3.333434029809069e-001	 9.963899698690875e+000
0	 8.066670000003315e+000	 4.000138002678044e-001	 9.964431998178853e+000
0	 8.066670000003317e+000	 4.666844975500010e-001	 9.965079046636106e+000
0	 8.066670000003320e+000	 5.333553781553803e-001	 9.965841101305077e+000
0	 8.066670000003317e+000	 6.000263254118247e-001	 9.966718421511567e+000
0	 8.066670000003317e+000	 6.666972226472177e-001	 9.967711268664717e+000
0	 8.133340000006534e+000	 0.000000000000000e+000	 9.954824417710933e+000
0	 8.133340000006532e+000	 6.666714722864753e-002	 9.954794422943239e+000
0	 8.133340000006534e+000	 1.333351778131789e-001	 9.954873938858789e+000
0	 8.133340000006534e+000	 2.000039750814772e-001	 9.955063470283928e+000
0	 8.133340000006530e+000	 2.666734223614255e-001	 9.955363524081173e+000
0	 8.133340000006534e+000	 3.333434029809068e-001	 9.955774609149092e+000
0	 8.133340000006532e+000	 4.000138002678044e-001	 9.956297236422174e+000
0	 8.133340000006538e+000	 4.666844975500012e-001	 9.956931918870714e+000
0	 8.133340000006534e+000	 5.333553781553803e-001	 9.957679171500832e+000
0	 8.133340000006534e+000	 6.000263254118247e-001	 9.958539511354521e+000
0	 8.133340000006532e+000	 6.666972226472178e-001	 9.959513457509672e+000
0	 8.200010000009550e+000	 0.000000000000000e+000	 9.946504655749584e+000
0	 8.200010000009552e+000	 6.666714722864757e-002	 9.946488965272621e+000
0	 8.200010000009550e+000	 1.333351778131790e-001	 9.946579712414566e+000
0	 8.200010000009550e+000	 2.000039750814773e-001	 9.946777618845395e+000
0	 8.200010000009547e+000	 2.666734223614256e-001	 9.947083408228792e+000
0	 8.200010000009549e+000	 3.333434029809069e-001	 9.947497806221906e+000
0	 8.200010000009550e+000	 4.000138002678044e-001	 9.948021540475260e+000
0	 8.200010000009549e+000	 4.666844975500011e-001	 9.948655340632694e+000
0	 8.200010000009550e+000	 5.333553781553800e-001	 9.949399938331339e+000
0	 8.200010000009549e+000	 6.000263254118246e-001	 9.950256067201611e+000
0	 8.200010000009550e+000	 6.666972226472175e-001	 9.951224462867334e+000
0	 8.266680000012267e+000	 0.000000000000000e+000	 9.937998333169963e+000
0	 8.266680000012267e+000	 6.666714722864753e-002	 9.938001602210878e+000
0	 8.266680000012268e+000	 1.333351778131790e-001	 9.938109137039232e+000
0	 8.266680000012263e+000	 2.000039750814772e-001	 9.938321835001180e+000
0	 8.266680000012267e+000	 2.666734223614256e-001	 9.938640595398850e+000
0	 8.266680000012265e+000	 3.333434029809068e-001	 9.939066319490186e+000
0	 8.266680000012265e+000	 4.000138002678043e-001	 9.939599910488806e+000
0	 8.266680000012267e+000	 4.666844975500011e-001	 9.940242273563925e+000
0	 8.266680000012268e+000	 5.333553781553803e-001	 9.940994315840367e+000
0	 8.266680000012265e+000	 6.000263254118247e-001	 9.941856946398570e+000
0	 8.266680000012265e+000	 6.666972226472178e-001	 9.942831076274699e+000
0	 8.333350000014583e+000	 0.000000000000000e+000	 9.929312490888883e+000
0	 8.333350000014583e+000	 6.666714722864756e-002	 9.929337390482083e+000
0	 8.333350000014582e+000	 1.333351778131790e-001	 9.929465276237094e+000
0	 8.333350000014582e+000	 2.000039750814773e-001	 9.929697179998602e+000
0	 8.333350000014582e+000	 2.666734223614256e-001	 9.930034135534335e+000
0	 8.333350000014585e+000	 3.333434029809069e-001	 9.930477178534874e+000
0	 8.333350000014582e+000	 4.000138002678043e-001	 9.931027346613517e+000
0	 8.333350000014582e+000	 4.666844975500012e-001	 9.931685679306247e+000
0	 8.333350000014583e+000	 5.333553781553800e-001	 9.932453218071682e+000
0	 8.333350000014582e+000	 6.000263254118247e-001	 9.933331006291150e+000
0	 8.333350000014583e+000	 6.666972226472178e-001	 9.934320089268738e+000
0	 8.400020000016399e+000	 0.000000000000000e+000	 9.920454169823168e+000
0	 8.400020000016397e+000	 6.666714722864754e-002	 9.920501386810331e+000
0	 8.400020000016399e+000	 1.333351778131789e-001	 9.920651193512452e+000
0	 8.400020000016401e+000	 2.000039750814772e-001	 9.920904715085021e+000
0	 8.400020000016401e+000	 2.666734223614255e-001	 9.921263078578237e+000
0	 8.400020000016399e+000	 3.333434029809069e-001	 9.921727412936866e+000
0	 8.400020000016399e+000	 4.000138002678044e-001	 9.922298849000095e+000
0	 8.400020000016401e+000	 4.666844975500011e-001	 9.922978519501509e+000
0	 8.400020000016399e+000	 5.333553781553803e-001	 9.923767559069056e+000
0	 8.400020000016399e+000	 6.000263254118247e-001	 9.924667104225085e+000
0	 8.400020000016399e+000	 6.666972226472177e-001	 9.925678293386422e+000
0	 8.466690000017616e+000	 0.000000000000000e+000	 9.911430410889643e+000
0	 8.466690000017616e+000	 6.666714722864756e-002	 9.911498647919684e+000
0	 8.466690000017616e+000	 1.333351778131790e-001	 9.911669952369612e+000
0	 8.466690000017616e+000	 2.000039750814772e-001	 9.911945501507780e+000
0	 8.466690000017614e+000	 2.666734223614254e-001	 9.912326474473536e+000
0	 8.466690000017616e+000	 3.333434029809069e-001	 9.912814052277064e+000
0	 8.466690000017616e+000	 4.000138002678044e-001	 9.913409417799237e+000
0	 8.466690000017616e+000	 4.666844975500011e-001	 9.914113755791577e+000
0	 8.466690000017618e+000	 5.333553781553803e-001	 9.914928252876260e+000
0	 8.466690000017618e+000	 6.000263254118248e-001	 9.915854097546115e+000
0	 8.466690000017614e+000	 6.666972226472175e-001	 9.916892480164739e+000
0	 8.533360000018131e+000	 0.000000000000000e+000	 9.902248255005128e+000
0	 8.533360000018131e+000	 6.666714722864756e-002	 9.902334230534256e+000
0	 8.533360000018131e+000	 1.333351778131789e-001	 9.902524616312862e+000
0	 8.533360000018131e+000	 2.000039750814772e-001	 9.902820600514202e+000
0	 8.533360000018131e+000	 2.666734223614256e-001	 9.903223373163215e+000
0	 8.533360000018131e+000	 3.333434029809069e-001	 9.903734126136387e+000
0	 8.533360000018135e+000	 4.000138002678044e-001	 9.904354053161649e+000
0	 8.533360000018130e+000	 4.666844975500010e-001	 9.905084349818310e+000
0	 8.533360000018131e+000	 5.333553781553803e-001	 9.905926213537063e+000
0	 8.533360000018133e+000	 6.000263254118247e-001	 9.906880843599984e+000
0	 8.533360000018133e+000	 6.666972226472177e-001	 9.907949441140650e+000
0	 8.600030000017849e+000	 0.000000000000000e+000	 9.892914743086436e+000
0	 8.600030000017847e+000	 6.666714722864754e-002	 9.893013191378104e+000
0	 8.600030000017849e+000	 1.333351778131790e-001	 9.893218248846525e+000
0	 8.600030000017851e+000	 2.000039750814772e-001	 9.893531073351651e+000
0	 8.600030000017849e+000	 2.666734223614255e-001	 9.893952824590263e+000
0	 8.600030000017849e+000	 3.333434029809069e-001	 9.894484664095742e+000
0	 8.600030000017847e+000	 4.000138002678044e-001	 9.895127755238047e+000
0	 8.600030000017851e+000	 4.666844975500012e-001	 9.895883263223574e+000
0	 8.600030000017849e+000	 5.333553781553803e-001	 9.896752355095236e+000
0	 8.600030000017849e+000	 6.000263254118248e-001	 9.897736199732425e+000
0	 8.600030000017851e+000	 6.666972226472178e-001	 9.898835967851163e+000
0	 8.666700000016666e+000	 0.000000000000000e+000	 9.883436916050401e+000
0	 8.666700000016668e+000	 6.666714722864757e-002	 9.883540587175331e+000
0	 8.666700000016665e+000	 1.333351778131789e-001	 9.883753913474887e+000
0	 8.666700000016668e+000	 2.000039750814772e-001	 9.884077981267462e+000
0	 8.666700000016666e+000	 2.666734223614256e-001	 9.884513878697648e+000
0	 8.666700000016666e+000	 3.333434029809069e-001	 9.885062695736037e+000
0	 8.666700000016668e+000	 4.000138002678044e-001	 9.885725524179104e+000
0	 8.666700000016665e+000	 4.666844975500011e-001	 9.886503457649203e+000
0	 8.666700000016666e+000	 5.333553781553801e-001	 9.887397591594546e+000
0	 8.666700000016666e+000	 6.000263254118248e-001	 9.888409023289201e+000
0	 8.666700000016668e+000	 6.666972226472177e-001	 9.889538851833230e+000
0	 7.999999999999999e+000	 6.666972226472177e-001	 9.975831104795516e+000
0	 8.000000000000000e+000	 7.333579753122049e-001	 9.976956177459966e+000
0	 8.000000000000000e+000	 8.000185779984418e-001	 9.978161938246267e+000
0	 8.000000000000000e+000	 8.666790473703454e-001	 9.979452226807359e+000
0	 8.000000000000000e+000	 9.333394000923323e-001	 9.980830882552777e+000
0	 8.000000000000000e+000	 9.999996528288189e-001	 9.982301744648671e+000
0	 8.000000000000000e+000	 1.066659822244222e+000	 9.983868652017792e+000
0	 8.000000000000000e+000	 1.133319925002959e+000	 9.985535443339515e+000
0	 8.000000000000000e+000	 1.199979977769445e+000	 9.987305957049799e+000
0	 7.999999999999999e+000	 1.266639997208097e+000	 9.989184031341244e+000
0	 8.000000000000000e+000	 1.333299999983334e+000	 9.991173504163051e+000
0	 8.066670000003317e+000	 6.666972226472177e-001	 9.967711268664720e+000
0	 8.066670000003317e+000	 7.333579753122047e-001	 9.968803031462128e+000
0	 8.066670000003317e+000	 8.000185779984416e-001	 9.969979645911380e+000
0	 8.066670000003317e+000	 8.666790473703450e-001	 9.971244722974459e+000
0	 8.066670000003317e+000	 9.333394000923323e-001	 9.972601873367529e+000
0	 8.066670000003319e+000	 9.999996528288189e-001	 9.974054707560972e+000
0	 8.066670000003317e+000	 1.066659822244222e+000	 9.975606835779365e+000
0	 8.066670000003317e+000	 1.133319925002959e+000	 9.977261868001481e+000
0	 8.066670000003317e+000	 1.199979977769445e+000	 9.979023413960306e+000
0	 8.066670000003319e+000	 1.266639997208098e+000	 9.980895083143038e+000
0	 8.066670000003317e+000	 1.333299999983334e+000	 9.982880484791076e+000
0	 8.133340000006532e+000	 6.666972226472178e-001	 9.959513457509672e+000
0	 8.133340000006532e+000	 7.333579753122046e-001	 9.960586582264938e+000
0	 8.133340000006532e+000	 8.000185779984416e-001	 9.961746680442692e+000
0	 8.133340000006536e+000	 8.666790473703453e-001	 9.962997142357651e+000
0	 8.133340000006532e+000	 9.333394000923319e-001	 9.964341358079469e+000
0	 8.133340000006534e+000	 9.999996528288190e-001	 9.965782717432811e+000
0	 8.133340000006532e+000	 1.066659822244222e+000	 9.967324609997279e+000
0	 8.133340000006532e+000	 1.133319925002959e+000	 9.968970425107509e+000
0	 8.133340000006530e+000	 1.199979977769445e+000	 9.970723551853052e+000
0	 8.133340000006534e+000	 1.266639997208098e+000	 9.972587379078510e+000
0	 8.133340000006532e+000	 1.333299999983334e+000	 9.974565295383394e+000
0	 8.200010000009550e+000	 6.666972226472175e-001	 9.951224462867335e+000
0	 8.200010000009552e+000	 7.333579753122049e-001	 9.952291756403447e+000
0	 8.200010000009550e+000	 8.000185779984418e-001	 9.953446513486666e+000
0	 8.200010000009552e+000	 8.666790473703453e-001	 9.954691911831812e+000
0	 8.200010000009550e+000	 9.333394000923322e-001	 9.956031128912034e+000
0	 8.200010000009549e+000	 9.999996528288189e-001	 9.957467341958784e+000
0	 8.200010000009549e+000	 1.066659822244222e+000	 9.959003727961813e+000
0	 8.200010000009552e+000	 1.133319925002958e+000	 9.960643463669205e+000
0	 8.200010000009550e+000	 1.199979977769445e+000	 9.962389725587354e+000
0	 8.200010000009550e+000	 1.266639997208098e+000	 9.964245689980976e+000
0	 8.200010000009549e+000	 1.333299999983334e+000	 9.966214532873112e+000
0	 8.266680000012265e+000	 6.666972226472178e-001	 9.942831076274700e+000
0	 8.266680000012268e+000	 7.333579753122048e-001	 9.943903480412700e+000
0	 8.266680000012268e+000	 8.000185779984418e-001	 9.945062616689718e+000
0	 8.266680000012265e+000	 8.666790473703452e-001	 9.946311458271826e+000
0	 8.266680000012265e+000	 9.333394000923319e-001	 9.947652978088680e+000
0	 8.266680000012267e+000	 9.999996528288188e-001	 9.949090148833514e+000
0	 8.266680000012265e+000	 1.066659822244222e+000	 9.950625942963187e+000
0	 8.266680000012265e+000	 1.133319925002959e+000	 9.952263332698148e+000
0	 8.266680000012265e+000	 1.199979977769445e+000	 9.954005290022453e+000
0	 8.266680000012268e+000	 1.266639997208098e+000	 9.955854786683766e+000
0	 8.266680000012265e+000	 1.333299999983334e+000	 9.957814794193343e+000
0	 8.333350000014583e+000	 6.666972226472178e-001	 9.934320089268738e+000
0	 8.333350000014583e+000	 7.333579753122048e-001	 9.935406680827732e+000
0	 8.333350000014583e+000	 8.000185779984418e-001	 9.936578461698312e+000
0	 8.333350000014582e+000	 8.666790473703451e-001	 9.937838208552574e+000
0	 8.333350000014582e+000	 9.333394000923323e-001	 9.939188697832838e+000
0	 8.333350000014583e+000	 9.999996528288189e-001	 9.940632705751620e+000
0	 8.333350000014583e+000	 1.066659822244222e+000	 9.942173008291679e+000
0	 8.333350000014582e+000	 1.133319925002959e+000	 9.943812381205962e+000
0	 8.333350000014583e+000	 1.199979977769445e+000	 9.945553600017673e+000
0	 8.333350000014583e+000	 1.266639997208098e+000	 9.947399440020215e+000
0	 8.333350000014585e+000	 1.333299999983334e+000	 9.949352676277204e+000
0	 8.400020000016399e+000	 6.666972226472177e-001	 9.925678293386422e+000
0	 8.400020000016401e+000	 7.333579753122049e-001	 9.926786284183580e+000
0	 8.400020000016401e+000	 8.000185779984418e-001	 9.927977520158864e+000
0	 8.400020000016399e+000	 8.666790473703454e-001	 9.929254589548926e+000
0	 8.400020000016403e+000	 9.333394000923324e-001	 9.930620080367955e+000
0	 8.400020000016401e+000	 9.999996528288190e-001	 9.932076580407721e+000
0	 8.400020000016401e+000	 1.066659822244222e+000	 9.933626677237534e+000
0	 8.400020000016401e+000	 1.133319925002959e+000	 9.935272958204237e+000
0	 8.400020000016401e+000	 1.199979977769445e+000	 9.937018010432272e+000
0	 8.400020000016397e+000	 1.266639997208098e+000	 9.938864420823625e+000
0	 8.400020000016399e+000	 1.333299999983334e+000	 9.940814776057815e+000
0	 8.466690000017614e+000	 6.666972226472175e-001	 9.916892480164739e+000
0	 8.466690000017618e+000	 7.333579753122048e-001	 9.918027217015297e+000
0	 8.466690000017614e+000	 8.000185779984416e-001	 9.919243263717826e+000
0	 8.466690000017616e+000	 8.666790473703455e-001	 9.920543028135747e+000
0	 8.466690000017614e+000	 9.333394000923322e-001	 9.921928917917478e+000
0	 8.466690000017614e+000	 9.999996528288188e-001	 9.923403340496430e+000
0	 8.466690000017614e+000	 1.066659822244222e+000	 9.924968703090995e+000
0	 8.466690000017614e+000	 1.133319925002958e+000	 9.926627412704569e+000
0	 8.466690000017616e+000	 1.199979977769445e+000	 9.928381876125545e+000
0	 8.466690000017616e+000	 1.266639997208098e+000	 9.930234499927325e+000
0	 8.466690000017614e+000	 1.333299999983334e+000	 9.932187690468293e+000
0	 8.533360000018133e+000	 6.666972226472177e-001	 9.907949441140650e+000
0	 8.533360000018130e+000	 7.333579753122048e-001	 9.909114405857924e+000
0	 8.533360000018131e+000	 8.000185779984416e-001	 9.910359164021640e+000
0	 8.533360000018131e+000	 8.666790473703453e-001	 9.911685951187943e+000
0	 8.533360000018133e+000	 9.333394000923322e-001	 9.913097002704864e+000
0	 8.533360000018130e+000	 9.999996528288189e-001	 9.914594553712362e+000
0	 8.533360000018133e+000	 1.066659822244223e+000	 9.916180839142328e+000
0	 8.533360000018133e+000	 1.133319925002959e+000	 9.917858093718564e+000
0	 8.533360000018131e+000	 1.199979977769445e+000	 9.919628551956778e+000
0	 8.533360000018130e+000	 1.266639997208098e+000	 9.921494448164658e+000
0	 8.533360000018131e+000	 1.333299999983334e+000	 9.923458016441748e+000
0	 8.600030000017851e+000	 6.666972226472178e-001	 9.898835967851163e+000
0	 8.600030000017849e+000	 7.333579753122049e-001	 9.900032777246508e+000
0	 8.600030000017851e+000	 8.000185779984420e-001	 9.901308692716755e+000
0	 8.600030000017847e+000	 8.666790473703452e-001	 9.902665785580384e+000
0	 8.600030000017847e+000	 9.333394000923322e-001	 9.904106126953545e+000
0	 8.600030000017847e+000	 9.999996528288190e-001	 9.905631787750146e+000
0	 8.600030000017847e+000	 1.066659822244222e+000	 9.907244838681788e+000
0	 8.600030000017851e+000	 1.133319925002959e+000	 9.908947350257812e+000
0	 8.600030000017846e+000	 1.199979977769445e+000	 9.910741392785260e+000
0	 8.600030000017847e+000	 1.266639997208098e+000	 9.912629036368918e+000
0	 8.600030000017849e+000	 1.333299999983334e+000	 9.914612350911304e+000
0	 8.666700000016668e+000	 6.666972226472177e-001	 9.889538851833230e+000
0	 8.666700000016666e+000	 7.333579753122049e-001	 9.890767257716082e+000
0	 8.666700000016668e+000	 8.000185779984418e-001	 9.892075321449608e+000
0	 8.666700000016666e+000	 8.666790473703454e-001	 9.893464958187948e+000
0	 8.666700000016666e+000	 9.333394000923322e-001	 9.894938082886979e+000
0	 8.666700000016665e+000	 9.999996528288188e-001	 9.896496610304391e+000
0	 8.666700000016665e+000	 1.066659822244222e+000	 9.898142454999629e+000
0	 8.666700000016668e+000	 1.133319925002959e+000	 9.899877531333916e+000
0	 8.666700000016666e+000	 1.199979977769445e+000	 9.901703753470263e+000
0	 8.666700000016666e+000	 1.266639997208098e+000	 9.903623035373460e+000
0	 8.666700000016668e+000	 1.333299999983334e+000	 9.905637290810073e+000
0	 8.000000000000000e+000	 1.333299999983334e+000	 9.991173504163051e+000
0	 8.000000000000000e+000	 1.399969999982150e+000	 9.993224396428712e+000
0	 8.000000000000000e+000	 1.466639999981866e+000	 9.995285557469083e+000
0	 8.000000000000000e+000	 1.533309999982383e+000	 9.997359988672086e+000
0	 8.000000000000000e+000	 1.599979999983599e+000	 9.999450691425651e+000
0	 8.000000000000000e+000	 1.666649999985416e+000	 1.000156066711770e+001
0	 7.999999999999999e+000	 1.733319999987733e+000	 1.000369291713616e+001
0	 8.000000000000000e+000	 1.799989999990450e+000	 1.000585044286897e+001
0	 8.000000000000000e+000	 1.866659999993466e+000	 1.000803624570405e+001
0	 8.000000000000000e+000	 1.933329999996683e+000	 1.001025332702932e+001
0	 7.999999999999999e+000	 2.000000000000000e+000	 1.001250468823273e+001
0	 8.066670000003317e+000	 1.333299999983334e+000	 9.982880484791078e+000
0	 8.066670000003317e+000	 1.399969999982150e+000	 9.984927791025653e+000
0	 8.066670000003317e+000	 1.466639999981867e+000	 9.986984532839980e+000
0	 8.066670000003315e+000	 1.533309999982383e+000	 9.989054277253064e+000
0	 8.066670000003319e+000	 1.599979999983599e+000	 9.991140591283859e+000
0	 8.066670000003319e+000	 1.666649999985416e+000	 9.993247041951372e+000
0	 8.066670000003319e+000	 1.733319999987733e+000	 9.995377196274578e+000
0	 8.066670000003317e+000	 1.799989999990450e+000	 9.997534621272457e+000
0	 8.066670000003317e+000	 1.866659999993467e+000	 9.999722883964017e+000
0	 8.066670000003317e+000	 1.933329999996683e+000	 1.000194555136822e+001
0	 8.066670000003319e+000	 2.000000000000000e+000	 1.000420619050406e+001
0	 8.133340000006532e+000	 1.333299999983334e+000	 9.974565295383394e+000
0	 8.133340000006530e+000	 1.399969999982150e+000	 9.976605414420419e+000
0	 8.133340000006534e+000	 1.466639999981866e+000	 9.978655653667452e+000
0	 8.133340000006530e+000	 1.533309999982382e+000	 9.980720023610337e+000
0	 8.133340000006530e+000	 1.599979999983599e+000	 9.982802534734969e+000
0	 8.133340000006532e+000	 1.666649999985416e+000	 9.984907197527187e+000
0	 8.133340000006534e+000	 1.733319999987733e+000	 9.987038022472865e+000
0	 8.133340000006532e+000	 1.799989999990449e+000	 9.989199020057880e+000
0	 8.133340000006536e+000	 1.866659999993467e+000	 9.991394200768085e+000
0	 8.133340000006534e+000	 1.933329999996683e+000	 9.993627575089349e+000
0	 8.133340000006532e+000	 2.000000000000000e+000	 9.995903153507543e+000
0	 8.200010000009549e+000	 1.333299999983334e+000	 9.966214532873112e+000
0	 8.200010000009549e+000	 1.399969999982150e+000	 9.968245785432998e+000
0	 8.200010000009552e+000	 1.466639999981866e+000	 9.970289141498036e+000
0	 8.200010000009550e+000	 1.533309999982383e+000	 9.972348932856793e+000
0	 8.200010000009545e+000	 1.599979999983599e+000	 9.974429491297824e+000
0	 8.200010000009549e+000	 1.666649999985416e+000	 9.976535148609710e+000
0	 8.200010000009550e+000	 1.733319999987733e+000	 9.978670236581019e+000
0	 8.200010000009552e+000	 1.799989999990450e+000	 9.980839087000305e+000
0	 8.200010000009550e+000	 1.866659999993466e+000	 9.983046031656169e+000
0	 8.200010000009549e+000	 1.933329999996683e+000	 9.985295402337163e+000
0	 8.200010000009550e+000	 2.000000000000000e+000	 9.987591530831862e+000
0	 8.266680000012265e+000	 1.333299999983334e+000	 9.957814794193343e+000
0	 8.266680000012265e+000	 1.399969999982150e+000	 9.959837422883386e+000
0	 8.266680000012263e+000	 1.466639999981866e+000	 9.961875217878328e+000
0	 8.266680000012267e+000	 1.533309999982383e+000	 9.963932710105265e+000
0	 8.266680000012265e+000	 1.599979999983599e+000	 9.966014430491295e+000
0	 8.266680000012267e+000	 1.666649999985416e+000	 9.968124909963509e+000
0	 8.266680000012267e+000	 1.733319999987733e+000	 9.970268679448999e+000
0	 8.266680000012263e+000	 1.799989999990449e+000	 9.972450269874869e+000
0	 8.266680000012267e+000	 1.866659999993466e+000	 9.974674212168219e+000
0	 8.266680000012263e+000	 1.933329999996683e+000	 9.976945037256138e+000
0	 8.266680000012267e+000	 2.000000000000000e+000	 9.979267276065736e+000
0	 8.333350000014585e+000	 1.333299999983334e+000	 9.949352676277204e+000
0	 8.333350000014582e+000	 1.399969999982150e+000	 9.951368845591562e+000
0	 8.333350000014582e+000	 1.466639999981866e+000	 9.953404104354895e+000
0	 8.333350000014585e+000	 1.533309999982383e+000	 9.955463060468636e+000
0	 8.333350000014582e+000	 1.599979999983599e+000	 9.957550321834232e+000
0	 8.333350000014583e+000	 1.666649999985416e+000	 9.959670496353130e+000
0	 8.333350000014582e+000	 1.733319999987733e+000	 9.961828191926788e+000
0	 8.333350000014582e+000	 1.799989999990450e+000	 9.964028016456636e+000
0	 8.333350000014583e+000	 1.866659999993466e+000	 9.966274577844136e+000
0	 8.333350000014585e+000	 1.933329999996683e+000	 9.968572483990730e+000
0	 8.333350000014582e+000	 2.000000000000000e+000	 9.970926342797863e+000
0	 8.400020000016399e+000	 1.333299999983334e+000	 9.940814776057815e+000
0	 8.400020000016397e+000	 1.399969999982150e+000	 9.942828572377533e+000
0	 8.400020000016401e+000	 1.466639999981866e+000	 9.944866022474308e+000
0	 8.400020000016401e+000	 1.533309999982383e+000	 9.946931689059746e+000
0	 8.400020000016399e+000	 1.599979999983599e+000	 9.949030134845495e+000
0	 8.400020000016397e+000	 1.666649999985415e+000	 9.951165922543154e+000
0	 8.400020000016401e+000	 1.733319999987733e+000	 9.953343614864354e+000
0	 8.400020000016397e+000	 1.799989999990449e+000	 9.955567774520713e+000
0	 8.400020000016395e+000	 1.866659999993466e+000	 9.957842964223847e+000
0	 8.400020000016399e+000	 1.933329999996683e+000	 9.960173746685387e+000
0	 8.400020000016399e+000	 2.000000000000000e+000	 9.962564684616959e+000
0	 8.466690000017614e+000	 1.333299999983334e+000	 9.932187690468295e+000
0	 8.466690000017616e+000	 1.399969999982150e+000	 9.934205122061268e+000
0	 8.466690000017614e+000	 1.466639999981867e+000	 9.936251193783132e+000
0	 8.466690000017618e+000	 1.533309999982383e+000	 9.938330300991474e+000
0	 8.466690000017614e+000	 1.599979999983600e+000	 9.940446839043945e+000
0	 8.466690000017616e+000	 1.666649999985416e+000	 9.942605203298136e+000
0	 8.466690000017614e+000	 1.733319999987733e+000	 9.944809789111682e+000
0	 8.466690000017614e+000	 1.799989999990450e+000	 9.947064991842197e+000
0	 8.466690000017616e+000	 1.866659999993466e+000	 9.949375206847282e+000
0	 8.466690000017614e+000	 1.933329999996683e+000	 9.951744829484598e+000
0	 8.466690000017618e+000	 2.000000000000000e+000	 9.954178255111726e+000
0	 8.533360000018131e+000	 1.333299999983334e+000	 9.923458016441749e+000
0	 8.533360000018130e+000	 1.399969999982150e+000	 9.925487013462769e+000
0	 8.533360000018131e+000	 1.466639999981867e+000	 9.927549839827945e+000
0	 8.533360000018131e+000	 1.533309999982383e+000	 9.929650601376688e+000
0	 8.533360000018133e+000	 1.599979999983599e+000	 9.931793403948436e+000
0	 8.533360000018135e+000	 1.666649999985417e+000	 9.933982353382648e+000
0	 8.533360000018133e+000	 1.733319999987733e+000	 9.936221555518749e+000
0	 8.533360000018133e+000	 1.799989999990449e+000	 9.938515116196186e+000
0	 8.533360000018131e+000	 1.866659999993466e+000	 9.940867141254387e+000
0	 8.533360000018131e+000	 1.933329999996683e+000	 9.943281736532789e+000
0	 8.533360000018131e+000	 2.000000000000000e+000	 9.945763007870870e+000
0	 8.600030000017849e+000	 1.333299999983334e+000	 9.914612350911302e+000
0	 8.600030000017846e+000	 1.399969999982150e+000	 9.916662765402037e+000
0	 8.600030000017847e+000	 1.466639999981866e+000	 9.918752182155318e+000
0	 8.600030000017849e+000	 1.533309999982383e+000	 9.920884295328227e+000
0	 8.600030000017849e+000	 1.599979999983599e+000	 9.923062799077838e+000
0	 8.600030000017847e+000	 1.666649999985416e+000	 9.925291387561243e+000
0	 8.600030000017847e+000	 1.733319999987733e+000	 9.927573754935530e+000
0	 8.600030000017847e+000	 1.799989999990449e+000	 9.929913595357764e+000
0	 8.600030000017847e+000	 1.866659999993466e+000	 9.932314602985059e+000
0	 8.600030000017847e+000	 1.933329999996683e+000	 9.934780471974472e+000
0	 8.600030000017847e+000	 2.000000000000000e+000	 9.937314896483098e+000
0	 8.666700000016668e+000	 1.333299999983334e+000	 9.905637290810073e+000
0	 8.666700000016668e+000	 1.399969999982150e+000	 9.907720896699042e+000
0	 8.666700000016666e+000	 1.466639999981866e+000	 9.909848442311828e+000
0	 8.666700000016666e+000	 1.533309999982383e+000	 9.912023087958966e+000
0	 8.666700000016665e+000	 1.599979999983599e+000	 9.914247993951003e+000
0	 8.666700000016665e+000	 1.666649999985416e+000	 9.916526320598496e+000
0	 8.666700000016666e+000	 1.733319999987733e+000	 9.918861228212005e+000
0	 8.666700000016665e+000	 1.799989999990450e+000	 9.921255877102071e+000
0	 8.666700000016666e+000	 1.866659999993466e+000	 9.923713427579235e+000
0	 8.666700000016665e+000	 1.933329999996683e+000	 9.926237039954080e+000
0	 8.666700000016668e+000	 2.000000000000000e+000	 9.928829874537120e+000
0	 7.999999999999999e+000	 2.000000000000000e+000	 1.001250468823273e+001
0	 8.000000000000000e+000	 2.066670000003318e+000	 1.001475182482647e+001
0	 8.000000000000000e+000	 2.133340000006534e+000	 1.001695820865549e+001
0	 8.000000000000000e+000	 2.200010000009551e+000	 1.001912980560690e+001
0	 8.000000000000000e+000	 2.266680000012267e+000	 1.002127258156776e+001
0	 7.999999999999999e+000	 2.333350000014584e+000	 1.002339250242516e+001
0	 8.000000000000000e+000	 2.400020000016401e+000	 1.002549553406618e+001
0	 8.000000000000000e+000	 2.466690000017617e+000	 1.002758764237791e+001
0	 8.000000000000000e+000	 2.533360000018134e+000	 1.002967479324743e+001
0	 8.000000000000000e+000	 2.600030000017851e+000	 1.003176295256180e+001
0	 7.999999999999999e+000	 2.666700000016666e+000	 1.003385808620813e+001
0	 8.066670000003319e+000	 2.000000000000000e+000	 1.000420619050406e+001
0	 8.066670000003317e+000	 2.066670000003317e+000	 1.000646958624789e+001
0	 8.066670000003317e+000	 2.133340000006534e+000	 1.000870118720063e+001
0	 8.066670000003315e+000	 2.200010000009551e+000	 1.001090555596824e+001
0	 8.066670000003319e+000	 2.266680000012268e+000	 1.001308725515665e+001
0	 8.066670000003317e+000	 2.333350000014584e+000	 1.001525084737179e+001
0	 8.066670000003317e+000	 2.400020000016401e+000	 1.001740089521959e+001
0	 8.066670000003315e+000	 2.466690000017617e+000	 1.001954196130599e+001
0	 8.066670000003319e+000	 2.533360000018134e+000	 1.002167860823691e+001
0	 8.066670000003317e+000	 2.600030000017850e+000	 1.002381539861828e+001
0	 8.066670000003315e+000	 2.666700000016666e+000	 1.002595689505605e+001
0	 8.133340000006532e+000	 2.000000000000000e+000	 9.995903153507543e+000
0	 8.133340000006536e+000	 2.066670000003317e+000	 9.998188089610938e+000
0	 8.133340000006536e+000	 2.133340000006534e+000	 1.000044910685210e+001
0	 8.133340000006532e+000	 2.200010000009550e+000	 1.000268957051329e+001
0	 8.133340000006534e+000	 2.266680000012267e+000	 1.000491284587679e+001
0	 8.133340000006532e+000	 2.333350000014585e+000	 1.000712229822487e+001
0	 8.133340000006530e+000	 2.400020000016401e+000	 1.000932129283980e+001
0	 8.133340000006532e+000	 2.466690000017616e+000	 1.001151319500388e+001
0	 8.133340000006532e+000	 2.533360000018134e+000	 1.001370136999935e+001
0	 8.133340000006534e+000	 2.600030000017851e+000	 1.001588918310850e+001
0	 8.133340000006532e+000	 2.666700000016665e+000	 1.001807999961360e+001
0	 8.200010000009550e+000	 2.000000000000000e+000	 9.987591530831862e+000
0	 8.200010000009550e+000	 2.066670000003318e+000	 9.989903141333778e+000
0	 8.200010000009549e+000	 2.133340000006534e+000	 9.992197652788148e+000
0	 8.200010000009550e+000	 2.200010000009551e+000	 9.994477439111071e+000
0	 8.200010000009549e+000	 2.266680000012268e+000	 9.996744874218644e+000
0	 8.200010000009547e+000	 2.333350000014584e+000	 9.999002332026995e+000
0	 8.200010000009549e+000	 2.400020000016401e+000	 1.000125218645223e+001
0	 8.200010000009549e+000	 2.466690000017617e+000	 1.000349681141044e+001
0	 8.200010000009550e+000	 2.533360000018134e+000	 1.000573858081775e+001
0	 8.200010000009549e+000	 2.600030000017850e+000	 1.000797986859026e+001
0	 8.200010000009549e+000	 2.666700000016666e+000	 1.001022304864410e+001
0	 8.266680000012267e+000	 2.000000000000000e+000	 9.979267276065736e+000
0	 8.266680000012265e+000	 2.066670000003317e+000	 9.981610547834555e+000
0	 8.266680000012267e+000	 2.133340000006534e+000	 9.983942510187026e+000
0	 8.266680000012265e+000	 2.200010000009550e+000	 9.986264751630598e+000
0	 8.266680000012265e+000	 2.266680000012267e+000	 9.988578860672698e+000
0	 8.266680000012263e+000	 2.333350000014583e+000	 9.990886425820765e+000
0	 8.266680000012268e+000	 2.400020000016401e+000	 9.993189035582233e+000
0	 8.266680000012265e+000	 2.466690000017617e+000	 9.995488278464544e+000
0	 8.266680000012268e+000	 2.533360000018134e+000	 9.997785742975109e+000
0	 8.266680000012267e+000	 2.600030000017851e+000	 1.000008301762138e+001
0	 8.266680000012267e+000	 2.666700000016667e+000	 1.000238169091080e+001
0	 8.333350000014582e+000	 2.000000000000000e+000	 9.970926342797863e+000
0	 8.333350000014583e+000	 2.066670000003317e+000	 9.973306115531374e+000
0	 8.333350000014583e+000	 2.133340000006534e+000	 9.975679364226979e+000
0	 8.333350000014583e+000	 2.200010000009550e+000	 9.978047097940904e+000
0	 8.333350000014582e+000	 2.266680000012267e+000	 9.980410325729430e+000
0	 8.333350000014583e+000	 2.333350000014584e+000	 9.982770056648773e+000
0	 8.333350000014583e+000	 2.400020000016401e+000	 9.985127299755243e+000
0	 8.333350000014585e+000	 2.466690000017617e+000	 9.987483064105035e+000
0	 8.333350000014583e+000	 2.533360000018133e+000	 9.989838358754433e+000
0	 8.333350000014582e+000	 2.600030000017850e+000	 9.992194192759678e+000
0	 8.333350000014583e+000	 2.666700000016667e+000	 9.994551575177033e+000
0	 8.400020000016399e+000	 2.000000000000000e+000	 9.962564684616959e+000
0	 8.400020000016397e+000	 2.066670000003317e+000	 9.964985650842415e+000
0	 8.400020000016395e+000	 2.133340000006534e+000	 9.967403900086257e+000
0	 8.400020000016399e+000	 2.200010000009550e+000	 9.969820067911030e+000
0	 8.400020000016401e+000	 2.266680000012267e+000	 9.972234789879305e+000
0	 8.400020000016399e+000	 2.333350000014584e+000	 9.974648701553649e+000
0	 8.400020000016397e+000	 2.400020000016401e+000	 9.977062438496622e+000
0	 8.400020000016401e+000	 2.466690000017617e+000	 9.979476636270791e+000
0	 8.400020000016399e+000	 2.533360000018133e+000	 9.981891930438710e+000
0	 8.400020000016399e+000	 2.600030000017851e+000	 9.984308956562948e+000
0	 8.400020000016399e+000	 2.666700000016666e+000	 9.986728350206066e+000
0	 8.466690000017618e+000	 2.000000000000000e+000	 9.954178255111726e+000
0	 8.466690000017614e+000	 2.066670000003316e+000	 9.956644960185800e+000
0	 8.466690000017614e+000	 2.133340000006533e+000	 9.959111802943095e+000
0	 8.466690000017614e+000	 2.200010000009550e+000	 9.961579251409972e+000
0	 8.466690000017616e+000	 2.266680000012267e+000	 9.964047773612808e+000
0	 8.466690000017618e+000	 2.333350000014584e+000	 9.966517837577953e+000
0	 8.466690000017618e+000	 2.400020000016401e+000	 9.968989911331784e+000
0	 8.466690000017616e+000	 2.466690000017618e+000	 9.971464462900656e+000
0	 8.466690000017616e+000	 2.533360000018133e+000	 9.973941960310937e+000
0	 8.466690000017616e+000	 2.600030000017851e+000	 9.976422871588996e+000
0	 8.466690000017618e+000	 2.666700000016667e+000	 9.978907664761202e+000
0	 8.533360000018131e+000	 2.000000000000000e+000	 9.945763007870870e+000
0	 8.533360000018131e+000	 2.066670000003317e+000	 9.948279849979670e+000
0	 8.533360000018133e+000	 2.133340000006534e+000	 9.950798757975758e+000
0	 8.533360000018131e+000	 2.200010000009550e+000	 9.953320238306780e+000
0	 8.533360000018131e+000	 2.266680000012267e+000	 9.955844797420411e+000
0	 8.533360000018131e+000	 2.333350000014584e+000	 9.958372941764303e+000
0	 8.533360000018133e+000	 2.400020000016401e+000	 9.960905177786113e+000
0	 8.533360000018131e+000	 2.466690000017617e+000	 9.963442011933500e+000
0	 8.533360000018131e+000	 2.533360000018134e+000	 9.965983950654129e+000
0	 8.533360000018133e+000	 2.600030000017850e+000	 9.968531500395653e+000
0	 8.533360000018131e+000	 2.666700000016666e+000	 9.971085167605732e+000
0	 8.600030000017847e+000	 2.000000000000000e+000	 9.937314896483098e+000
0	 8.600030000017847e+000	 2.066670000003317e+000	 9.939886126642174e+000
0	 8.600030000017849e+000	 2.133340000006534e+000	 9.942460450362475e+000
0	 8.600030000017847e+000	 2.200010000009550e+000	 9.945038618470472e+000
0	 8.600030000017847e+000	 2.266680000012267e+000	 9.947621381792603e+000
0	 8.600030000017847e+000	 2.333350000014584e+000	 9.950209491155290e+000
0	 8.600030000017847e+000	 2.400020000016401e+000	 9.952803697385003e+000
0	 8.600030000017846e+000	 2.466690000017617e+000	 9.955404751308183e+000
0	 8.600030000017849e+000	 2.533360000018134e+000	 9.958013403751272e+000
0	 8.600030000017847e+000	 2.600030000017851e+000	 9.960630405540710e+000
0	 8.600030000017849e+000	 2.666700000016666e+000	 9.963256507502955e+000
0	 8.666700000016668e+000	 2.000000000000000e+000	 9.928829874537120e+000
0	 8.666700000016665e+000	 2.066670000003317e+000	 9.931459596591443e+000
0	 8.666700000016666e+000	 2.133340000006534e+000	 9.934092565281512e+000
0	 8.666700000016666e+000	 2.200010000009550e+000	 9.936729981770068e+000
0	 8.666700000016666e+000	 2.266680000012268e+000	 9.939373047219831e+000
0	 8.666700000016665e+000	 2.333350000014584e+000	 9.942022962793514e+000
0	 8.666700000016666e+000	 2.400020000016401e+000	 9.944680929653851e+000
0	 8.666700000016666e+000	 2.466690000017618e+000	 9.947348148963560e+000
0	 8.666700000016668e+000	 2.533360000018134e+000	 9.950025821885369e+000
0	 8.666700000016666e+000	 2.600030000017850e+000	 9.952715149581985e+000
0	 8.666700000016668e+000	 2.666700000016667e+000	 9.955417333216150e+000
0	 7.999999999999999e+000	 2.666700000016666e+000	 1.003385808620813e+001
0	 8.000000000000000e+000	 2.733360000014533e+000	 1.003592948560968e+001
0	 7.999999999999998e+000	 2.800020000011599e+000	 1.003794376976754e+001
0	 7.999999999999999e+000	 2.866680000008067e+000	 1.003990195070850e+001
0	 8.000000000000000e+000	 2.933340000004133e+000	 1.004180504045936e+001
0	 8.000000000000000e+000	 3.000000000000000e+000	 1.004365405104694e+001
0	 8.000000000000000e+000	 3.066659999995867e+000	 1.004544999449801e+001
0	 7.999999999999999e+000	 3.133319999991933e+000	 1.004719388283941e+001
0	 7.999999999999999e+000	 3.199979999988401e+000	 1.004888672809792e+001
0	 8.000000000000000e+000	 3.266639999985468e+000	 1.005052954230035e+001
0	 7.999999999999999e+000	 3.333299999983334e+000	 1.005212333747352e+001
0	 8.066670000003315e+000	 2.666700000016666e+000	 1.002595689505605e+001
0	 8.066670000003320e+000	 2.733360000014534e+000	 1.002807303848643e+001
0	 8.066670000003317e+000	 2.800020000011600e+000	 1.003013243689693e+001
0	 8.066670000003319e+000	 2.866680000008066e+000	 1.003213668810203e+001
0	 8.066670000003317e+000	 2.933340000004133e+000	 1.003408738991620e+001
0	 8.066670000003319e+000	 3.000000000000000e+000	 1.003598614015390e+001
0	 8.066670000003319e+000	 3.066659999995867e+000	 1.003783453662962e+001
0	 8.066670000003319e+000	 3.133319999991933e+000	 1.003963417715782e+001
0	 8.066670000003317e+000	 3.199979999988401e+000	 1.004138665955300e+001
0	 8.066670000003320e+000	 3.266639999985468e+000	 1.004309358162965e+001
0	 8.066670000003315e+000	 3.333299999983334e+000	 1.004475654120224e+001
0	 8.133340000006532e+000	 2.666700000016665e+000	 1.001807999961360e+001
0	 8.133340000006536e+000	 2.733360000014534e+000	 1.002024438199980e+001
0	 8.133340000006530e+000	 2.800020000011600e+000	 1.002235269280947e+001
0	 8.133340000006534e+000	 2.866680000008066e+000	 1.002440701041219e+001
0	 8.133340000006534e+000	 2.933340000004133e+000	 1.002640941317749e+001
0	 8.133340000006534e+000	 3.000000000000000e+000	 1.002836197947491e+001
0	 8.133340000006532e+000	 3.066659999995867e+000	 1.003026678767406e+001
0	 8.133340000006536e+000	 3.133319999991934e+000	 1.003212591614443e+001
0	 8.133340000006532e+000	 3.199979999988401e+000	 1.003394144325559e+001
0	 8.133340000006536e+000	 3.266639999985467e+000	 1.003571544737713e+001
0	 8.133340000006532e+000	 3.333299999983333e+000	 1.003745000687857e+001
0	 8.200010000009549e+000	 2.666700000016666e+000	 1.001022304864410e+001
0	 8.200010000009550e+000	 2.733360000014532e+000	 1.001243927401601e+001
0	 8.200010000009552e+000	 2.800020000011600e+000	 1.001460042436830e+001
0	 8.200010000009550e+000	 2.866680000008066e+000	 1.001670895339301e+001
0	 8.200010000009549e+000	 2.933340000004133e+000	 1.001876731478217e+001
0	 8.200010000009550e+000	 3.000000000000000e+000	 1.002077796222778e+001
0	 8.200010000009549e+000	 3.066659999995867e+000	 1.002274334942192e+001
0	 8.200010000009550e+000	 3.133319999991933e+000	 1.002466593005659e+001
0	 8.200010000009552e+000	 3.199979999988400e+000	 1.002654815782384e+001
0	 8.200010000009550e+000	 3.266639999985467e+000	 1.002839248641569e+001
0	 8.200010000009550e+000	 3.333299999983334e+000	 1.003020136952420e+001
0	 8.266680000012267e+000	 2.666700000016667e+000	 1.000238169091080e+001
0	 8.266680000012270e+000	 2.733360000014533e+000	 1.000465347240129e+001
0	 8.266680000012265e+000	 2.800020000011599e+000	 1.000687151843657e+001
0	 8.266680000012267e+000	 2.866680000008067e+000	 1.000903855279853e+001
0	 8.266680000012263e+000	 2.933340000004133e+000	 1.001115729926911e+001
0	 8.266680000012263e+000	 2.999999999999999e+000	 1.001323048163023e+001
0	 8.266680000012265e+000	 3.066659999995866e+000	 1.001526082366379e+001
0	 8.266680000012267e+000	 3.133319999991934e+000	 1.001725104915170e+001
0	 8.266680000012265e+000	 3.199979999988401e+000	 1.001920388187590e+001
0	 8.266680000012270e+000	 3.266639999985468e+000	 1.002112204561827e+001
0	 8.266680000012265e+000	 3.333299999983333e+000	 1.002300826416079e+001
0	 8.333350000014583e+000	 2.666700000016667e+000	 9.994551575177033e+000
0	 8.333350000014583e+000	 2.733360000014533e+000	 9.996882735021867e+000
0	 8.333350000014582e+000	 2.800020000011600e+000	 9.999161861877381e+000
0	 8.333350000014583e+000	 2.866680000008067e+000	 1.000139184438278e+001
0	 8.333350000014580e+000	 2.933340000004133e+000	 1.000357557117725e+001
0	 8.333350000014582e+000	 3.000000000000000e+000	 1.000571593090000e+001
0	 8.333350000014583e+000	 3.066659999995867e+000	 1.000781581219022e+001
0	 8.333350000014583e+000	 3.133319999991935e+000	 1.000987810368714e+001
0	 8.333350000014582e+000	 3.199979999988400e+000	 1.001190569402993e+001
0	 8.333350000014585e+000	 3.266639999985468e+000	 1.001390147185782e+001
0	 8.333350000014585e+000	 3.333299999983335e+000	 1.001586832581001e+001
0	 8.400020000016399e+000	 2.666700000016666e+000	 9.986728350206066e+000
0	 8.400020000016401e+000	 2.733360000014533e+000	 9.989122819743969e+000
0	 8.400020000016399e+000	 2.800020000011600e+000	 9.991467341553905e+000
0	 8.400020000016399e+000	 2.866680000008067e+000	 9.993764863899774e+000
0	 8.400020000016401e+000	 2.933340000004133e+000	 9.996018335045457e+000
0	 8.400020000016399e+000	 2.999999999999999e+000	 9.998230703254835e+000
0	 8.400020000016403e+000	 3.066659999995867e+000	 1.000040491679181e+001
0	 8.400020000016401e+000	 3.133319999991934e+000	 1.000254392392028e+001
0	 8.400020000016397e+000	 3.199979999988401e+000	 1.000465067290412e+001
0	 8.400020000016401e+000	 3.266639999985467e+000	 1.000672811200724e+001
0	 8.400020000016399e+000	 3.333299999983334e+000	 1.000877918949353e+001
0	 8.466690000017618e+000	 2.666700000016667e+000	 9.978907664761202e+000
0	 8.466690000017618e+000	 2.733360000014533e+000	 9.981369484433813e+000
0	 8.466690000017614e+000	 2.800020000011600e+000	 9.983783844329276e+000
0	 8.466690000017616e+000	 2.866680000008066e+000	 9.986153647103553e+000
0	 8.466690000017614e+000	 2.933340000004133e+000	 9.988481795412634e+000
0	 8.466690000017616e+000	 3.000000000000000e+000	 9.990771191912495e+000
0	 8.466690000017616e+000	 3.066659999995868e+000	 9.993024739259123e+000
0	 8.466690000017612e+000	 3.133319999991933e+000	 9.995245340108513e+000
0	 8.466690000017614e+000	 3.199979999988400e+000	 9.997435897116635e+000
0	 8.466690000017618e+000	 3.266639999985468e+000	 9.999599312939472e+000
0	 8.466690000017616e+000	 3.333299999983334e+000	 1.000173849023303e+001
0	 8.533360000018131e+000	 2.666700000016666e+000	 9.971085167605732e+000
0	 8.533360000018131e+000	 2.733360000014533e+000	 9.973618486957651e+000
0	 8.533360000018131e+000	 2.800020000011600e+000	 9.976107257066623e+000
0	 8.533360000018131e+000	 2.866680000008067e+000	 9.978554229748145e+000
0	 8.533360000018130e+000	 2.933340000004133e+000	 9.980962156817686e+000
0	 8.533360000018131e+000	 3.000000000000000e+000	 9.983333790090727e+000
0	 8.533360000018131e+000	 3.066659999995867e+000	 9.985671881382739e+000
0	 8.533360000018131e+000	 3.133319999991934e+000	 9.987979182509211e+000
0	 8.533360000018130e+000	 3.199979999988400e+000	 9.990258445285608e+000
0	 8.533360000018131e+000	 3.266639999985467e+000	 9.992512421527444e+000
0	 8.533360000018131e+000	 3.333299999983334e+000	 9.994743863050170e+000
0	 8.600030000017849e+000	 2.666700000016666e+000	 9.963256507502956e+000
0	 8.600030000017851e+000	 2.733360000014533e+000	 9.965865585181682e+000
0	 8.600030000017847e+000	 2.800020000011599e+000	 9.968433466629096e+000
0	 8.600030000017847e+000	 2.866680000008066e+000	 9.970962647587584e+000
0	 8.600030000017847e+000	 2.933340000004133e+000	 9.973455623799518e+000
0	 8.600030000017849e+000	 3.000000000000000e+000	 9.975914891007273e+000
0	 8.600030000017846e+000	 3.066659999995866e+000	 9.978342944953218e+000
0	 8.600030000017849e+000	 3.133319999991933e+000	 9.980742281379753e+000
0	 8.600030000017849e+000	 3.199979999988400e+000	 9.983115396029245e+000
0	 8.600030000017847e+000	 3.266639999985467e+000	 9.985464784644066e+000
0	 8.600030000017847e+000	 3.333299999983333e+000	 9.987792942966609e+000
0	 8.666700000016668e+000	 2.666700000016667e+000	 9.955417333216150e+000
0	 8.666700000016666e+000	 2.733360000014533e+000	 9.958106536972144e+000
0	 8.666700000016668e+000	 2.800020000011600e+000	 9.960758359879826e+000
0	 8.666700000016665e+000	 2.866680000008067e+000	 9.963374936375891e+000
0	 8.666700000016665e+000	 2.933340000004133e+000	 9.965958400897016e+000
0	 8.666700000016666e+000	 3.000000000000000e+000	 9.968510887879880e+000
0	 8.666700000016666e+000	 3.066659999995867e+000	 9.971034531761154e+000
0	 8.666700000016666e+000	 3.133319999991933e+000	 9.973531466977525e+000
0	 8.666700000016668e+000	 3.199979999988400e+000	 9.976003827965672e+000
0	 8.666700000016666e+000	 3.266639999985468e+000	 9.978453749162281e+000
0	 8.666700000016668e+000	 3.333299999983334e+000	 9.980883365004031e+000
0	 7.999999999999999e+000	 3.333299999983334e+000	 1.005212333747352e+001
0	 8.000000000000000e+000	 3.399969999982150e+000	 1.005365624194955e+001
0	 8.000000000000002e+000	 3.466639999981866e+000	 1.005511565992183e+001
0	 8.000000000000000e+000	 3.533309999982383e+000	 1.005650222361003e+001
0	 8.000000000000000e+000	 3.599979999983600e+000	 1.005781656523384e+001
0	 7.999999999999999e+000	 3.666649999985416e+000	 1.005905931701291e+001
0	 7.999999999999999e+000	 3.733319999987733e+000	 1.006023111116695e+001
0	 8.000000000000000e+000	 3.799989999990450e+000	 1.006133257991561e+001
0	 7.999999999999999e+000	 3.866659999993467e+000	 1.006236435547856e+001
0	 8.000000000000000e+000	 3.933329999996683e+000	 1.006332707007548e+001
0	 8.000000000000000e+000	 4.000000000000001e+000	 1.006422135592604e+001
0	 8.066670000003315e+000	 3.333299999983334e+000	 1.004475654120223e+001
0	 8.066670000003319e+000	 3.399969999982150e+000	 1.004636252243986e+001
0	 8.066670000003319e+000	 3.466639999981866e+000	 1.004789736992243e+001
0	 8.066670000003313e+000	 3.533309999982382e+000	 1.004936171083443e+001
0	 8.066670000003319e+000	 3.599979999983600e+000	 1.005075617236029e+001
0	 8.066670000003317e+000	 3.666649999985416e+000	 1.005208138168448e+001
0	 8.066670000003317e+000	 3.733319999987733e+000	 1.005333796599146e+001
0	 8.066670000003317e+000	 3.799989999990450e+000	 1.005452655246567e+001
0	 8.066670000003319e+000	 3.866659999993467e+000	 1.005564776829157e+001
0	 8.066670000003319e+000	 3.933329999996684e+000	 1.005670224065363e+001
0	 8.066670000003319e+000	 4.000000000000001e+000	 1.005769059673627e+001
0	 8.133340000006532e+000	 3.333299999983333e+000	 1.003745000687857e+001
0	 8.133340000006532e+000	 3.399969999982150e+000	 1.003913105188748e+001
0	 8.133340000006534e+000	 3.466639999981867e+000	 1.004074302875579e+001
0	 8.133340000006530e+000	 3.533309999982381e+000	 1.004228656225536e+001
0	 8.133340000006530e+000	 3.599979999983600e+000	 1.004376227715805e+001
0	 8.133340000006532e+000	 3.666649999985416e+000	 1.004517079823572e+001
0	 8.133340000006534e+000	 3.733319999987732e+000	 1.004651275026023e+001
0	 8.133340000006536e+000	 3.799989999990451e+000	 1.004778875800341e+001
0	 8.133340000006532e+000	 3.866659999993467e+000	 1.004899944623710e+001
0	 8.133340000006534e+000	 3.933329999996684e+000	 1.005014543973320e+001
0	 8.133340000006536e+000	 4.000000000000001e+000	 1.005122736326352e+001
0	 8.200010000009550e+000	 3.333299999983334e+000	 1.003020136952421e+001
0	 8.200010000009547e+000	 3.399969999982150e+000	 1.003195977328163e+001
0	 8.200010000009552e+000	 3.466639999981867e+000	 1.003365090703293e+001
0	 8.200010000009550e+000	 3.533309999982383e+000	 1.003527539575997e+001
0	 8.200010000009549e+000	 3.599979999983601e+000	 1.003683386444459e+001
0	 8.200010000009549e+000	 3.666649999985416e+000	 1.003832693806869e+001
0	 8.200010000009552e+000	 3.733319999987733e+000	 1.003975524161412e+001
0	 8.200010000009550e+000	 3.799989999990450e+000	 1.004111940006275e+001
0	 8.200010000009550e+000	 3.866659999993467e+000	 1.004242003839643e+001
0	 8.200010000009550e+000	 3.933329999996683e+000	 1.004365778159706e+001
0	 8.200010000009550e+000	 4.000000000000000e+000	 1.004483325464646e+001
0	 8.266680000012265e+000	 3.333299999983333e+000	 1.002300826416079e+001
0	 8.266680000012265e+000	 3.399969999982150e+000	 1.002484662961159e+001
0	 8.266680000012263e+000	 3.466639999981866e+000	 1.002661927536496e+001
0	 8.266680000012267e+000	 3.533309999982382e+000	 1.002832682923539e+001
0	 8.266680000012268e+000	 3.599979999983600e+000	 1.002996991903738e+001
0	 8.266680000012265e+000	 3.666649999985416e+000	 1.003154917258543e+001
0	 8.266680000012267e+000	 3.733319999987733e+000	 1.003306521769402e+001
0	 8.266680000012265e+000	 3.799989999990450e+000	 1.003451868217765e+001
0	 8.266680000012267e+000	 3.866659999993466e+000	 1.003591019385081e+001
0	 8.266680000012265e+000	 3.933329999996684e+000	 1.003724038052800e+001
0	 8.266680000012265e+000	 3.999999999999999e+000	 1.003850987002370e+001
0	 8.333350000014585e+000	 3.333299999983335e+000	 1.001586832581001e+001
0	 8.333350000014582e+000	 3.399969999982150e+000	 1.001778956386659e+001
0	 8.333350000014582e+000	 3.466639999981866e+000	 1.001964640436293e+001
0	 8.333350000014583e+000	 3.533309999982383e+000	 1.002143948056878e+001
0	 8.333350000014582e+000	 3.599979999983599e+000	 1.002316942575387e+001
0	 8.333350000014582e+000	 3.666649999985416e+000	 1.002483687318796e+001
0	 8.333350000014583e+000	 3.733319999987733e+000	 1.002644245614076e+001
0	 8.333350000014583e+000	 3.799989999990450e+000	 1.002798680788202e+001
0	 8.333350000014583e+000	 3.866659999993467e+000	 1.002947056168148e+001
0	 8.333350000014585e+000	 3.933329999996683e+000	 1.003089435080887e+001
0	 8.333350000014582e+000	 4.000000000000000e+000	 1.003225880853391e+001
0	 8.400020000016399e+000	 3.333299999983334e+000	 1.000877918949353e+001
0	 8.400020000016397e+000	 3.399969999982150e+000	 1.001078651903587e+001
0	 8.400020000016397e+000	 3.466639999981866e+000	 1.001273056463791e+001
0	 8.400020000016401e+000	 3.533309999982383e+000	 1.001461196764727e+001
0	 8.400020000016401e+000	 3.599979999983600e+000	 1.001643136941154e+001
0	 8.400020000016397e+000	 3.666649999985415e+000	 1.001818941127833e+001
0	 8.400020000016399e+000	 3.733319999987732e+000	 1.001988673459521e+001
0	 8.400020000016399e+000	 3.799989999990450e+000	 1.002152398070980e+001
0	 8.400020000016401e+000	 3.866659999993467e+000	 1.002310179096969e+001
0	 8.400020000016399e+000	 3.933329999996684e+000	 1.002462080672247e+001
0	 8.400020000016399e+000	 4.000000000000000e+000	 1.002608166931573e+001
0	 8.466690000017616e+000	 3.333299999983334e+000	 1.000173849023303e+001
0	 8.466690000017616e+000	 3.399969999982150e+000	 1.000383543810867e+001
0	 8.466690000017614e+000	 3.466639999981867e+000	 1.000587002680097e+001
0	 8.466690000017618e+000	 3.533309999982383e+000	 1.000784290835800e+001
0	 8.466690000017614e+000	 3.599979999983599e+000	 1.000975473482785e+001
0	 8.466690000017616e+000	 3.666649999985417e+000	 1.001160615825857e+001
0	 8.466690000017616e+000	 3.733319999987733e+000	 1.001339783069824e+001
0	 8.466690000017616e+000	 3.799989999990451e+000	 1.001513040419493e+001
0	 8.466690000017616e+000	 3.866659999993467e+000	 1.001680453079669e+001
0	 8.466690000017616e+000	 3.933329999996684e+000	 1.001842086255163e+001
0	 8.466690000017618e+000	 4.000000000000001e+000	 1.001998005150778e+001
0	 8.533360000018131e+000	 3.333299999983334e+000	 9.994743863050170e+000
0	 8.533360000018130e+000	 3.399969999982149e+000	 9.996934264074243e+000
0	 8.533360000018131e+000	 3.466639999981866e+000	 9.999063061463170e+000
0	 8.533360000018131e+000	 3.533309999982382e+000	 1.000113092058813e+001
0	 8.533360000018131e+000	 3.599979999983599e+000	 1.000313850682025e+001
0	 8.533360000018133e+000	 3.666649999985417e+000	 1.000508648553072e+001
0	 8.533360000018131e+000	 3.733319999987733e+000	 1.000697552209069e+001
0	 8.533360000018133e+000	 3.799989999990450e+000	 1.000880628187131e+001
0	 8.533360000018131e+000	 3.866659999993467e+000	 1.001057943024376e+001
0	 8.533360000018131e+000	 3.933329999996683e+000	 1.001229563257918e+001
0	 8.533360000018131e+000	 4.000000000000001e+000	 1.001395555424872e+001
0	 8.600030000017847e+000	 3.333299999983333e+000	 9.987792942966609e+000
0	 8.600030000017847e+000	 3.399969999982150e+000	 9.990080939921828e+000
0	 8.600030000017847e+000	 3.466639999981866e+000	 9.992307939235602e+000
0	 8.600030000017849e+000	 3.533309999982383e+000	 9.994474622224772e+000
0	 8.600030000017847e+000	 3.599979999983600e+000	 9.996581670206227e+000
0	 8.600030000017847e+000	 3.666649999985415e+000	 9.998629764496810e+000
0	 8.600030000017846e+000	 3.733319999987732e+000	 1.000061958641342e+001
0	 8.600030000017847e+000	 3.799989999990450e+000	 1.000255181727289e+001
0	 8.600030000017849e+000	 3.866659999993467e+000	 1.000442713839211e+001
0	 8.600030000017847e+000	 3.933329999996684e+000	 1.000624623108792e+001
0	 8.600030000017846e+000	 3.999999999999999e+000	 1.000800977667719e+001
0	 8.666700000016668e+000	 3.333299999983334e+000	 9.980883365004031e+000
0	 8.666700000016665e+000	 3.399969999982149e+000	 9.983273408640677e+000
0	 8.666700000016665e+000	 3.466639999981867e+000	 9.985602930729302e+000
0	 8.666700000016666e+000	 3.533309999982384e+000	 9.987872631155089e+000
0	 8.666700000016666e+000	 3.599979999983600e+000	 9.990083209803222e+000
0	 8.666700000016665e+000	 3.666649999985415e+000	 9.992235366558898e+000
0	 8.666700000016666e+000	 3.733319999987733e+000	 9.994329801307300e+000
0	 8.666700000016665e+000	 3.799989999990450e+000	 9.996367213933615e+000
0	 8.666700000016668e+000	 3.866659999993467e+000	 9.998348304323011e+000
0	 8.666700000016666e+000	 3.933329999996683e+000	 1.000027377236070e+001
0	 8.666700000016668e+000	 4.000000000000000e+000	 1.000214431793183e+001
0	 8.000000000000000e+000	 4.000000000000001e+000	 1.006422135592604e+001
0	 7.999999999999999e+000	 4.066670000003318e+000	 1.006504460411630e+001
0	 8.000000000000000e+000	 4.133340000006534e+000	 1.006579364124264e+001
0	 7.999999999999998e+000	 4.200010000009550e+000	 1.006646825279016e+001
0	 8.000000000000000e+000	 4.266680000012268e+000	 1.006706822424398e+001
0	 7.999999999999998e+000	 4.333350000014583e+000	 1.006759334108922e+001
0	 8.000000000000000e+000	 4.400020000016401e+000	 1.006804338881101e+001
0	 8.000000000000000e+000	 4.466690000017618e+000	 1.006841815289442e+001
0	 8.000000000000000e+000	 4.533360000018135e+000	 1.006871741882462e+001
0	 8.000000000000000e+000	 4.600030000017850e+000	 1.006894097208667e+001
0	 7.999999999999998e+000	 4.666700000016665e+000	 1.006908859816571e+001
0	 8.066670000003319e+000	 4.000000000000001e+000	 1.005769059673627e+001
0	 8.066670000003319e+000	 4.066670000003319e+000	 1.005861000893309e+001
0	 8.066670000003315e+000	 4.133340000006533e+000	 1.005945701361720e+001
0	 8.066670000003313e+000	 4.200010000009549e+000	 1.006023128394244e+001
0	 8.066670000003319e+000	 4.266680000012268e+000	 1.006093249306254e+001
0	 8.066670000003317e+000	 4.333350000014583e+000	 1.006156031413134e+001
0	 8.066670000003317e+000	 4.400020000016401e+000	 1.006211442030259e+001
0	 8.066670000003313e+000	 4.466690000017617e+000	 1.006259448473011e+001
0	 8.066670000003319e+000	 4.533360000018134e+000	 1.006300018056767e+001
0	 8.066670000003317e+000	 4.600030000017849e+000	 1.006333118096905e+001
0	 8.066670000003315e+000	 4.666700000016666e+000	 1.006358715908806e+001
0	 8.133340000006536e+000	 4.000000000000001e+000	 1.005122736326352e+001
0	 8.133340000006536e+000	 4.066670000003317e+000	 1.005224225769273e+001
0	 8.133340000006534e+000	 4.133340000006534e+000	 1.005318647068739e+001
0	 8.133340000006534e+000	 4.200010000009550e+000	 1.005405958722229e+001
0	 8.133340000006534e+000	 4.266680000012268e+000	 1.005486119227220e+001
0	 8.133340000006532e+000	 4.333350000014584e+000	 1.005559087081189e+001
0	 8.133340000006532e+000	 4.400020000016403e+000	 1.005624820781611e+001
0	 8.133340000006532e+000	 4.466690000017618e+000	 1.005683278825965e+001
0	 8.133340000006532e+000	 4.533360000018134e+000	 1.005734419711724e+001
0	 8.133340000006532e+000	 4.600030000017851e+000	 1.005778201936368e+001
0	 8.133340000006534e+000	 4.666700000016668e+000	 1.005814583997370e+001
0	 8.200010000009550e+000	 4.000000000000000e+000	 1.004483325464646e+001
0	 8.200010000009550e+000	 4.066670000003317e+000	 1.004594342283991e+001
0	 8.200010000009550e+000	 4.133340000006535e+000	 1.004698451545012e+001
0	 8.200010000009550e+000	 4.200010000009550e+000	 1.004795605342516e+001
0	 8.200010000009550e+000	 4.266680000012268e+000	 1.004885755771305e+001
0	 8.200010000009547e+000	 4.333350000014582e+000	 1.004968854926186e+001
0	 8.200010000009547e+000	 4.400020000016402e+000	 1.005044854901962e+001
0	 8.200010000009550e+000	 4.466690000017619e+000	 1.005113707793439e+001
0	 8.200010000009550e+000	 4.533360000018134e+000	 1.005175365695420e+001
0	 8.200010000009549e+000	 4.600030000017851e+000	 1.005229780702709e+001
0	 8.200010000009550e+000	 4.666700000016667e+000	 1.005276904910111e+001
0	 8.266680000012265e+000	 3.999999999999999e+000	 1.003850987002370e+001
0	 8.266680000012267e+000	 4.066670000003318e+000	 1.003971557681934e+001
0	 8.266680000012268e+000	 4.133340000006534e+000	 1.004085365090236e+001
0	 8.266680000012265e+000	 4.200010000009550e+000	 1.004192357334642e+001
0	 8.266680000012265e+000	 4.266680000012268e+000	 1.004292482522517e+001
0	 8.266680000012265e+000	 4.333350000014584e+000	 1.004385688761220e+001
0	 8.266680000012267e+000	 4.400020000016401e+000	 1.004471924158118e+001
0	 8.266680000012267e+000	 4.466690000017618e+000	 1.004551136820569e+001
0	 8.266680000012265e+000	 4.533360000018133e+000	 1.004623274855938e+001
0	 8.266680000012267e+000	 4.600030000017851e+000	 1.004688286371586e+001
0	 8.266680000012267e+000	 4.666700000016667e+000	 1.004746119474878e+001
0	 8.333350000014582e+000	 4.000000000000000e+000	 1.003225880853391e+001
0	 8.333350000014583e+000	 4.066670000003319e+000	 1.003356079207567e+001
0	 8.333350000014582e+000	 4.133340000006534e+000	 1.003479638004104e+001
0	 8.333350000014583e+000	 4.200010000009550e+000	 1.003596503778151e+001
0	 8.333350000014582e+000	 4.266680000012268e+000	 1.003706623064864e+001
0	 8.333350000014583e+000	 4.333350000014584e+000	 1.003809942399389e+001
0	 8.333350000014582e+000	 4.400020000016401e+000	 1.003906408316880e+001
0	 8.333350000014585e+000	 4.466690000017616e+000	 1.003995967352488e+001
0	 8.333350000014583e+000	 4.533360000018132e+000	 1.004078566041363e+001
0	 8.333350000014582e+000	 4.600030000017849e+000	 1.004154150918654e+001
0	 8.333350000014585e+000	 4.666700000016668e+000	 1.004222668519515e+001
0	 8.400020000016399e+000	 4.000000000000000e+000	 1.002608166931573e+001
0	 8.400020000016399e+000	 4.066670000003316e+000	 1.002748114105364e+001
0	 8.400020000016397e+000	 4.133340000006535e+000	 1.002881520586311e+001
0	 8.400020000016399e+000	 4.200010000009550e+000	 1.003008333752584e+001
0	 8.400020000016401e+000	 4.266680000012267e+000	 1.003128500982353e+001
0	 8.400020000016401e+000	 4.333350000014584e+000	 1.003241969653787e+001
0	 8.400020000016397e+000	 4.400020000016402e+000	 1.003348687145057e+001
0	 8.400020000016401e+000	 4.466690000017616e+000	 1.003448600834330e+001
0	 8.400020000016395e+000	 4.533360000018133e+000	 1.003541658099778e+001
0	 8.400020000016399e+000	 4.600030000017850e+000	 1.003627806319568e+001
0	 8.400020000016399e+000	 4.666700000016666e+000	 1.003706992871872e+001
0	 8.466690000017618e+000	 4.000000000000001e+000	 1.001998005150778e+001
0	 8.466690000017614e+000	 4.066670000003316e+000	 1.002147869619792e+001
0	 8.466690000017614e+000	 4.133340000006533e+000	 1.002291263136553e+001
0	 8.466690000017614e+000	 4.200010000009550e+000	 1.002428136337481e+001
0	 8.466690000017616e+000	 4.266680000012268e+000	 1.002558439858994e+001
0	 8.466690000017616e+000	 4.333350000014582e+000	 1.002682124337511e+001
0	 8.466690000017618e+000	 4.400020000016401e+000	 1.002799140409450e+001
0	 8.466690000017618e+000	 4.466690000017619e+000	 1.002909438711230e+001
0	 8.466690000017614e+000	 4.533360000018133e+000	 1.003012969879268e+001
0	 8.466690000017618e+000	 4.600030000017850e+000	 1.003109684549985e+001
0	 8.466690000017616e+000	 4.666700000016666e+000	 1.003199533359794e+001
0	 8.533360000018131e+000	 4.000000000000001e+000	 1.001395555424872e+001
0	 8.533360000018131e+000	 4.066670000003317e+000	 1.001555552995319e+001
0	 8.533360000018133e+000	 4.133340000006534e+000	 1.001709115954524e+001
0	 8.533360000018131e+000	 4.200010000009550e+000	 1.001856200612381e+001
0	 8.533360000018131e+000	 4.266680000012268e+000	 1.001996763278794e+001
0	 8.533360000018131e+000	 4.333350000014583e+000	 1.002130760263657e+001
0	 8.533360000018131e+000	 4.400020000016402e+000	 1.002258147876867e+001
0	 8.533360000018131e+000	 4.466690000017617e+000	 1.002378882428322e+001
0	 8.533360000018133e+000	 4.533360000018134e+000	 1.002492920227919e+001
0	 8.533360000018133e+000	 4.600030000017851e+000	 1.002600217585556e+001
0	 8.533360000018131e+000	 4.666700000016666e+000	 1.002700730811130e+001
0	 8.600030000017846e+000	 3.999999999999999e+000	 1.000800977667720e+001
0	 8.600030000017849e+000	 4.066670000003319e+000	 1.000971371476415e+001
0	 8.600030000017849e+000	 4.133340000006535e+000	 1.001135329339917e+001
0	 8.600030000017847e+000	 4.200010000009550e+000	 1.001292815656830e+001
0	 8.600030000017847e+000	 4.266680000012268e+000	 1.001443794825762e+001
0	 8.600030000017847e+000	 4.333350000014583e+000	 1.001588231245321e+001
0	 8.600030000017847e+000	 4.400020000016401e+000	 1.001726089314111e+001
0	 8.600030000017846e+000	 4.466690000017617e+000	 1.001857333430740e+001
0	 8.600030000017849e+000	 4.533360000018132e+000	 1.001981927993814e+001
0	 8.600030000017849e+000	 4.600030000017850e+000	 1.002099837401940e+001
0	 8.600030000017847e+000	 4.666700000016666e+000	 1.002211026053723e+001
0	 8.666700000016668e+000	 4.000000000000000e+000	 1.000214431793183e+001
0	 8.666700000016666e+000	 4.066670000003317e+000	 1.000395532307550e+001
0	 8.666700000016666e+000	 4.133340000006535e+000	 1.000570153592429e+001
0	 8.666700000016668e+000	 4.200010000009551e+000	 1.000738270550365e+001
0	 8.666700000016666e+000	 4.266680000012268e+000	 1.000899858083907e+001
0	 8.666700000016666e+000	 4.333350000014585e+000	 1.001054891095598e+001
0	 8.666700000016666e+000	 4.400020000016401e+000	 1.001203344487987e+001
0	 8.666700000016666e+000	 4.466690000017618e+000	 1.001345193163617e+001
0	 8.666700000016668e+000	 4.533360000018134e+000	 1.001480412025037e+001
0	 8.666700000016666e+000	 4.600030000017851e+000	 1.001608975974791e+001
0	 8.666700000016668e+000	 4.666700000016666e+000	 1.001730859915425e+001
0	 7.999999999999998e+000	 4.666700000016665e+000	 1.006908859816571e+001
0	 8.000000000000000e+000	 4.733360000014532e+000	 1.006917100882696e+001
0	 8.000000000000000e+000	 4.800020000011601e+000	 1.006919804694748e+001
0	 8.000000000000000e+000	 4.866680000008068e+000	 1.006916814536675e+001
0	 7.999999999999998e+000	 4.933340000004133e+000	 1.006907973692416e+001
0	 7.999999999999999e+000	 5.000000000000000e+000	 1.006893125445918e+001
0	 8.000000000000000e+000	 5.066659999995867e+000	 1.006872113081121e+001
0	 8.000000000000000e+000	 5.133319999991934e+000	 1.006844779881972e+001
0	 8.000000000000000e+000	 5.199979999988400e+000	 1.006810969132415e+001
0	 8.000000000000000e+000	 5.266639999985468e+000	 1.006770524116393e+001
0	 8.000000000000000e+000	 5.333299999983333e+000	 1.006723288117852e+001
0	 8.066670000003315e+000	 4.666700000016666e+000	 1.006358715908806e+001
0	 8.066670000003319e+000	 4.733360000014533e+000	 1.006377779208179e+001
0	 8.066670000003313e+000	 4.800020000011598e+000	 1.006391213271196e+001
0	 8.066670000003320e+000	 4.866680000008067e+000	 1.006398881928304e+001
0	 8.066670000003319e+000	 4.933340000004134e+000	 1.006400649009955e+001
0	 8.066670000003320e+000	 5.000000000000001e+000	 1.006396378346595e+001
0	 8.066670000003319e+000	 5.066659999995867e+000	 1.006385933768674e+001
0	 8.066670000003319e+000	 5.133319999991934e+000	 1.006369179106642e+001
0	 8.066670000003317e+000	 5.199979999988400e+000	 1.006345978190946e+001
0	 8.066670000003319e+000	 5.266639999985468e+000	 1.006316194852039e+001
0	 8.066670000003313e+000	 5.333299999983333e+000	 1.006279692920370e+001
0	 8.133340000006534e+000	 4.666700000016668e+000	 1.005814583997370e+001
0	 8.133340000006536e+000	 4.733360000014532e+000	 1.005844425402513e+001
0	 8.133340000006530e+000	 4.800020000011599e+000	 1.005868544629887e+001
0	 8.133340000006534e+000	 4.866680000008065e+000	 1.005886823932496e+001
0	 8.133340000006534e+000	 4.933340000004134e+000	 1.005899145563349e+001
0	 8.133340000006536e+000	 5.000000000000002e+000	 1.005905391775452e+001
0	 8.133340000006532e+000	 5.066659999995866e+000	 1.005905444821812e+001
0	 8.133340000006536e+000	 5.133319999991933e+000	 1.005899186955436e+001
0	 8.133340000006530e+000	 5.199979999988400e+000	 1.005886500429333e+001
0	 8.133340000006534e+000	 5.266639999985468e+000	 1.005867267496510e+001
0	 8.133340000006532e+000	 5.333299999983334e+000	 1.005841370409975e+001
0	 8.200010000009550e+000	 4.666700000016667e+000	 1.005276904910111e+001
0	 8.200010000009550e+000	 4.733360000014533e+000	 1.005317487091925e+001
0	 8.200010000009554e+000	 4.800020000011601e+000	 1.005352253365189e+001
0	 8.200010000009550e+000	 4.866680000008065e+000	 1.005381102281521e+001
0	 8.200010000009550e+000	 4.933340000004133e+000	 1.005403932392542e+001
0	 8.200010000009550e+000	 5.000000000000001e+000	 1.005420642249865e+001
0	 8.200010000009549e+000	 5.066659999995867e+000	 1.005431130405112e+001
0	 8.200010000009550e+000	 5.133319999991934e+000	 1.005435295409898e+001
0	 8.200010000009552e+000	 5.199979999988400e+000	 1.005433035815843e+001
0	 8.200010000009550e+000	 5.266639999985467e+000	 1.005424250174565e+001
0	 8.200010000009550e+000	 5.333299999983333e+000	 1.005408837037685e+001
0	 8.266680000012267e+000	 4.666700000016667e+000	 1.004746119474878e+001
0	 8.266680000012268e+000	 4.733360000014534e+000	 1.004797411902637e+001
0	 8.266680000012263e+000	 4.800020000011599e+000	 1.004842794071470e+001
0	 8.266680000012265e+000	 4.866680000008066e+000	 1.004882178707655e+001
0	 8.266680000012265e+000	 4.933340000004133e+000	 1.004915478537476e+001
0	 8.266680000012265e+000	 5.000000000000000e+000	 1.004942606287214e+001
0	 8.266680000012267e+000	 5.066659999995867e+000	 1.004963474683149e+001
0	 8.266680000012267e+000	 5.133319999991935e+000	 1.004977996451564e+001
0	 8.266680000012265e+000	 5.199979999988400e+000	 1.004986084318743e+001
0	 8.266680000012268e+000	 5.266639999985468e+000	 1.004987651010965e+001
0	 8.266680000012265e+000	 5.333299999983334e+000	 1.004982609254514e+001
0	 8.333350000014585e+000	 4.666700000016668e+000	 1.004222668519515e+001
0	 8.333350000014585e+000	 4.733360000014534e+000	 1.004284647460874e+001
0	 8.333350000014580e+000	 4.800020000011601e+000	 1.004340621343091e+001
0	 8.333350000014580e+000	 4.866680000008065e+000	 1.004390514943165e+001
0	 8.333350000014578e+000	 4.933340000004132e+000	 1.004434253038091e+001
0	 8.333350000014582e+000	 4.999999999999998e+000	 1.004471760404870e+001
0	 8.333350000014582e+000	 5.066659999995868e+000	 1.004502961820500e+001
0	 8.333350000014580e+000	 5.133319999991934e+000	 1.004527782061976e+001
0	 8.333350000014580e+000	 5.199979999988400e+000	 1.004546145906298e+001
0	 8.333350000014583e+000	 5.266639999985467e+000	 1.004557978130466e+001
0	 8.333350000014585e+000	 5.333299999983336e+000	 1.004563203511476e+001
0	 8.400020000016399e+000	 4.666700000016666e+000	 1.003706992871873e+001
0	 8.400020000016401e+000	 4.733360000014534e+000	 1.003779641392860e+001
0	 8.400020000016399e+000	 4.800020000011600e+000	 1.003846189774420e+001
0	 8.400020000016399e+000	 4.866680000008065e+000	 1.003906572720323e+001
0	 8.400020000016401e+000	 4.933340000004133e+000	 1.003960724934332e+001
0	 8.400020000016401e+000	 4.999999999999999e+000	 1.004008581120215e+001
0	 8.400020000016403e+000	 5.066659999995867e+000	 1.004050075981739e+001
0	 8.400020000016399e+000	 5.133319999991934e+000	 1.004085144222670e+001
0	 8.400020000016397e+000	 5.199979999988400e+000	 1.004113720546777e+001
0	 8.400020000016401e+000	 5.266639999985468e+000	 1.004135739657828e+001
0	 8.400020000016397e+000	 5.333299999983332e+000	 1.004151136259590e+001
0	 8.466690000017616e+000	 4.666700000016666e+000	 1.003199533359794e+001
0	 8.466690000017618e+000	 4.733360000014533e+000	 1.003282841324820e+001
0	 8.466690000017614e+000	 4.800020000011601e+000	 1.003359953959827e+001
0	 8.466690000017618e+000	 4.866680000008068e+000	 1.003430813771404e+001
0	 8.466690000017616e+000	 4.933340000004134e+000	 1.003495363266139e+001
0	 8.466690000017618e+000	 5.000000000000000e+000	 1.003553544950623e+001
0	 8.466690000017614e+000	 5.066659999995866e+000	 1.003605301331442e+001
0	 8.466690000017616e+000	 5.133319999991934e+000	 1.003650574915186e+001
0	 8.466690000017612e+000	 5.199979999988399e+000	 1.003689308208447e+001
0	 8.466690000017616e+000	 5.266639999985467e+000	 1.003721443717810e+001
0	 8.466690000017618e+000	 5.333299999983334e+000	 1.003746923949868e+001
0	 8.533360000018131e+000	 4.666700000016666e+000	 1.002700730811130e+001
0	 8.533360000018130e+000	 4.733360000014534e+000	 1.002794694882977e+001
0	 8.533360000018135e+000	 4.800020000011601e+000	 1.002882368493671e+001
0	 8.533360000018131e+000	 4.866680000008066e+000	 1.002963699828677e+001
0	 8.533360000018133e+000	 4.933340000004134e+000	 1.003038637073454e+001
0	 8.533360000018133e+000	 5.000000000000001e+000	 1.003107128413469e+001
0	 8.533360000018133e+000	 5.066659999995866e+000	 1.003169122034185e+001
0	 8.533360000018131e+000	 5.133319999991934e+000	 1.003224566121064e+001
0	 8.533360000018131e+000	 5.199979999988400e+000	 1.003273408859571e+001
0	 8.533360000018133e+000	 5.266639999985468e+000	 1.003315598435171e+001
0	 8.533360000018131e+000	 5.333299999983332e+000	 1.003351083033327e+001
0	 8.600030000017847e+000	 4.666700000016666e+000	 1.002211026053723e+001
0	 8.600030000017849e+000	 4.733360000014534e+000	 1.002315649693557e+001
0	 8.600030000017849e+000	 4.800020000011600e+000	 1.002413887970324e+001
0	 8.600030000017846e+000	 4.866680000008065e+000	 1.002505692624415e+001
0	 8.600030000017846e+000	 4.933340000004134e+000	 1.002591015396220e+001
0	 8.600030000017849e+000	 4.999999999999999e+000	 1.002669808026133e+001
0	 8.600030000017847e+000	 5.066659999995866e+000	 1.002742022254542e+001
0	 8.600030000017849e+000	 5.133319999991934e+000	 1.002807609821841e+001
0	 8.600030000017849e+000	 5.199979999988401e+000	 1.002866522468420e+001
0	 8.600030000017846e+000	 5.266639999985467e+000	 1.002918711934670e+001
0	 8.600030000017849e+000	 5.333299999983334e+000	 1.002964129960983e+001
0	 8.666700000016668e+000	 4.666700000016666e+000	 1.001730859915425e+001
0	 8.666700000016666e+000	 4.733360000014534e+000	 1.001846153382781e+001
0	 8.666700000016668e+000	 4.800020000011600e+000	 1.001954966984145e+001
0	 8.666700000016665e+000	 4.866680000008067e+000	 1.002057253890887e+001
0	 8.666700000016666e+000	 4.933340000004133e+000	 1.002152967274378e+001
0	 8.666700000016666e+000	 5.000000000000000e+000	 1.002242060305988e+001
0	 8.666700000016666e+000	 5.066659999995867e+000	 1.002324486157090e+001
0	 8.666700000016666e+000	 5.133319999991934e+000	 1.002400197999056e+001
0	 8.666700000016666e+000	 5.199979999988400e+000	 1.002469149003257e+001
0	 8.666700000016666e+000	 5.266639999985468e+000	 1.002531292341064e+001
0	 8.666700000016668e+000	 5.333299999983335e+000	 1.002586581183850e+001
0	 8.000000000000000e+000	 5.333299999983333e+000	 1.006723288117852e+001
0	 8.000000000000000e+000	 5.399969999982149e+000	 1.006670631958770e+001
0	 8.000000000000000e+000	 5.466639999981868e+000	 1.006613948133894e+001
0	 8.000000000000000e+000	 5.533309999982382e+000	 1.006553089626362e+001
0	 8.000000000000000e+000	 5.599979999983600e+000	 1.006487909419314e+001
0	 8.000000000000000e+000	 5.666649999985416e+000	 1.006418260495888e+001
0	 7.999999999999999e+000	 5.733319999987732e+000	 1.006343995839226e+001
0	 8.000000000000000e+000	 5.799989999990449e+000	 1.006264968432461e+001
0	 7.999999999999998e+000	 5.866659999993466e+000	 1.006181031258734e+001
0	 8.000000000000000e+000	 5.933329999996682e+000	 1.006092037301186e+001
0	 8.000000000000000e+000	 6.000000000000001e+000	 1.005997839542954e+001
0	 8.066670000003313e+000	 5.333299999983333e+000	 1.006279692920370e+001
0	 8.066670000003319e+000	 5.399969999982149e+000	 1.006237766122255e+001
0	 8.066670000003317e+000	 5.466639999981866e+000	 1.006191715379270e+001
0	 8.066670000003315e+000	 5.533309999982384e+000	 1.006141397354966e+001
0	 8.066670000003317e+000	 5.599979999983599e+000	 1.006086668712901e+001
0	 8.066670000003319e+000	 5.666649999985415e+000	 1.006027386116623e+001
0	 8.066670000003319e+000	 5.733319999987732e+000	 1.005963406229692e+001
0	 8.066670000003315e+000	 5.799989999990451e+000	 1.005894585715661e+001
0	 8.066670000003315e+000	 5.866659999993466e+000	 1.005820781238082e+001
0	 8.066670000003317e+000	 5.933329999996684e+000	 1.005741849460509e+001
0	 8.066670000003319e+000	 5.999999999999999e+000	 1.005657647046500e+001
0	 8.133340000006532e+000	 5.333299999983334e+000	 1.005841370409975e+001
0	 8.133340000006530e+000	 5.399969999982149e+000	 1.005810032845850e+001
0	 8.133340000006532e+000	 5.466639999981865e+000	 1.005774472924115e+001
0	 8.133340000006530e+000	 5.533309999982382e+000	 1.005734551391462e+001
0	 8.133340000006532e+000	 5.599979999983600e+000	 1.005690128994581e+001
0	 8.133340000006532e+000	 5.666649999985416e+000	 1.005641066480166e+001
0	 8.133340000006534e+000	 5.733319999987733e+000	 1.005587224594905e+001
0	 8.133340000006532e+000	 5.799989999990447e+000	 1.005528464085489e+001
0	 8.133340000006534e+000	 5.866659999993466e+000	 1.005464645698613e+001
0	 8.133340000006532e+000	 5.933329999996683e+000	 1.005395630180965e+001
0	 8.133340000006532e+000	 5.999999999999998e+000	 1.005321278279234e+001
0	 8.200010000009550e+000	 5.333299999983333e+000	 1.005408837037684e+001
0	 8.200010000009547e+000	 5.399969999982151e+000	 1.005387956302915e+001
0	 8.200010000009554e+000	 5.466639999981866e+000	 1.005362751284038e+001
0	 8.200010000009550e+000	 5.533309999982383e+000	 1.005333087213602e+001
0	 8.200010000009547e+000	 5.599979999983600e+000	 1.005298829324156e+001
0	 8.200010000009547e+000	 5.666649999985416e+000	 1.005259842848249e+001
0	 8.200010000009552e+000	 5.733319999987733e+000	 1.005215993018432e+001
0	 8.200010000009550e+000	 5.799989999990449e+000	 1.005167145067252e+001
0	 8.200010000009552e+000	 5.866659999993468e+000	 1.005113164227262e+001
0	 8.200010000009550e+000	 5.933329999996684e+000	 1.005053915731009e+001
0	 8.200010000009552e+000	 6.000000000000000e+000	 1.004989264811041e+001
0	 8.266680000012265e+000	 5.333299999983334e+000	 1.004982609254514e+001
0	 8.266680000012265e+000	 5.399969999982150e+000	 1.004972060666819e+001
0	 8.266680000012265e+000	 5.466639999981866e+000	 1.004957080974653e+001
0	 8.266680000012267e+000	 5.533309999982383e+000	 1.004937540299142e+001
0	 8.266680000012270e+000	 5.599979999983600e+000	 1.004913308761415e+001
0	 8.266680000012267e+000	 5.666649999985417e+000	 1.004884256482606e+001
0	 8.266680000012268e+000	 5.733319999987733e+000	 1.004850253583840e+001
0	 8.266680000012263e+000	 5.799989999990449e+000	 1.004811170186249e+001
0	 8.266680000012267e+000	 5.866659999993467e+000	 1.004766876410960e+001
0	 8.266680000012265e+000	 5.933329999996683e+000	 1.004717242379103e+001
0	 8.266680000012267e+000	 6.000000000000001e+000	 1.004662138211806e+001
0	 8.333350000014585e+000	 5.333299999983336e+000	 1.004563203511476e+001
0	 8.333350000014583e+000	 5.399969999982149e+000	 1.004562870110923e+001
0	 8.333350000014582e+000	 5.466639999981867e+000	 1.004557992511566e+001
0	 8.333350000014583e+000	 5.533309999982384e+000	 1.004548446125834e+001
0	 8.333350000014582e+000	 5.599979999983598e+000	 1.004534106366160e+001
0	 8.333350000014583e+000	 5.666649999985417e+000	 1.004514848644973e+001
0	 8.333350000014580e+000	 5.733319999987733e+000	 1.004490548374704e+001
0	 8.333350000014582e+000	 5.799989999990449e+000	 1.004461080967782e+001
0	 8.333350000014583e+000	 5.866659999993468e+000	 1.004426321836639e+001
0	 8.333350000014585e+000	 5.933329999996683e+000	 1.004386146393705e+001
0	 8.333350000014582e+000	 6.000000000000001e+000	 1.004340430051410e+001
0	 8.400020000016397e+000	 5.333299999983332e+000	 1.004151136259590e+001
0	 8.400020000016401e+000	 5.399969999982150e+000	 1.004160908808593e+001
0	 8.400020000016399e+000	 5.466639999981866e+000	 1.004166016410392e+001
0	 8.400020000016399e+000	 5.533309999982381e+000	 1.004166340171437e+001
0	 8.400020000016399e+000	 5.599979999983600e+000	 1.004161761198182e+001
0	 8.400020000016397e+000	 5.666649999985415e+000	 1.004152160597081e+001
0	 8.400020000016401e+000	 5.733319999987732e+000	 1.004137419474587e+001
0	 8.400020000016401e+000	 5.799989999990450e+000	 1.004117418937153e+001
0	 8.400020000016399e+000	 5.866659999993468e+000	 1.004092040091231e+001
0	 8.400020000016399e+000	 5.933329999996684e+000	 1.004061164043275e+001
0	 8.400020000016399e+000	 6.000000000000001e+000	 1.004024671899739e+001
0	 8.466690000017618e+000	 5.333299999983334e+000	 1.003746923949868e+001
0	 8.466690000017616e+000	 5.399969999982151e+000	 1.003766700933194e+001
0	 8.466690000017614e+000	 5.466639999981866e+000	 1.003781683186739e+001
0	 8.466690000017616e+000	 5.533309999982383e+000	 1.003791757913702e+001
0	 8.466690000017614e+000	 5.599979999983598e+000	 1.003796812317277e+001
0	 8.466690000017616e+000	 5.666649999985417e+000	 1.003796733600666e+001
0	 8.466690000017616e+000	 5.733319999987733e+000	 1.003791408967062e+001
0	 8.466690000017616e+000	 5.799989999990450e+000	 1.003780725619664e+001
0	 8.466690000017614e+000	 5.866659999993465e+000	 1.003764570761669e+001
0	 8.466690000017614e+000	 5.933329999996682e+000	 1.003742831596274e+001
0	 8.466690000017618e+000	 6.000000000000000e+000	 1.003715395326675e+001
0	 8.533360000018131e+000	 5.333299999983332e+000	 1.003351083033327e+001
0	 8.533360000018131e+000	 5.399969999982149e+000	 1.003380770658089e+001
0	 8.533360000018131e+000	 5.466639999981866e+000	 1.003405523356220e+001
0	 8.533360000018133e+000	 5.533309999982382e+000	 1.003425234830384e+001
0	 8.533360000018131e+000	 5.599979999983598e+000	 1.003439798783243e+001
0	 8.533360000018135e+000	 5.666649999985418e+000	 1.003449108917460e+001
0	 8.533360000018131e+000	 5.733319999987733e+000	 1.003453058935697e+001
0	 8.533360000018133e+000	 5.799989999990448e+000	 1.003451542540616e+001
0	 8.533360000018131e+000	 5.866659999993468e+000	 1.003444453434885e+001
0	 8.533360000018131e+000	 5.933329999996682e+000	 1.003431685321159e+001
0	 8.533360000018130e+000	 5.999999999999998e+000	 1.003413131902105e+001
0	 8.600030000017849e+000	 5.333299999983334e+000	 1.002964129960983e+001
0	 8.600030000017846e+000	 5.399969999982150e+000	 1.003003642156643e+001
0	 8.600030000017849e+000	 5.466639999981867e+000	 1.003038067434445e+001
0	 8.600030000017849e+000	 5.533309999982384e+000	 1.003067306399239e+001
0	 8.600030000017847e+000	 5.599979999983599e+000	 1.003091259655871e+001
0	 8.600030000017847e+000	 5.666649999985416e+000	 1.003109827809194e+001
0	 8.600030000017846e+000	 5.733319999987732e+000	 1.003122911464059e+001
0	 8.600030000017849e+000	 5.799989999990449e+000	 1.003130411225314e+001
0	 8.600030000017851e+000	 5.866659999993467e+000	 1.003132227697808e+001
0	 8.600030000017847e+000	 5.933329999996682e+000	 1.003128261486388e+001
0	 8.600030000017847e+000	 6.000000000000000e+000	 1.003118413195910e+001
0	 8.666700000016668e+000	 5.333299999983335e+000	 1.002586581183850e+001
0	 8.666700000016668e+000	 5.399969999982151e+000	 1.002635839602221e+001
0	 8.666700000016668e+000	 5.466639999981867e+000	 1.002679845937024e+001
0	 8.666700000016668e+000	 5.533309999982384e+000	 1.002718508098017e+001
0	 8.666700000016668e+000	 5.599979999983600e+000	 1.002751733994959e+001
0	 8.666700000016665e+000	 5.666649999985414e+000	 1.002779431537608e+001
0	 8.666700000016666e+000	 5.733319999987733e+000	 1.002801508635720e+001
0	 8.666700000016666e+000	 5.799989999990448e+000	 1.002817873199056e+001
0	 8.666700000016665e+000	 5.866659999993467e+000	 1.002828433137372e+001
0	 8.666700000016665e+000	 5.933329999996682e+000	 1.002833096360426e+001
0	 8.666700000016666e+000	 6.000000000000001e+000	 1.002831770777974e+001
0	 8.000000000000000e+000	 6.000000000000001e+000	 1.005997839542954e+001
0	 8.000000000000002e+000	 6.066670000003317e+000	 1.005899965146204e+001
0	 7.999999999999999e+000	 6.133340000006534e+000	 1.005799930146975e+001
0	 7.999999999999999e+000	 6.200010000009551e+000	 1.005697570839203e+001
0	 7.999999999999997e+000	 6.266680000012266e+000	 1.005592723516822e+001
0	 7.999999999999999e+000	 6.333350000014583e+000	 1.005485224473772e+001
0	 8.000000000000000e+000	 6.400020000016401e+000	 1.005374910003989e+001
0	 8.000000000000000e+000	 6.466690000017617e+000	 1.005261616401408e+001
0	 8.000000000000000e+000	 6.533360000018136e+000	 1.005145179959968e+001
0	 7.999999999999998e+000	 6.600030000017848e+000	 1.005025436973606e+001
0	 8.000000000000000e+000	 6.666700000016668e+000	 1.004902223736256e+001
0	 8.066670000003319e+000	 5.999999999999999e+000	 1.005657647046500e+001
0	 8.066670000003317e+000	 6.066670000003317e+000	 1.005569656048551e+001
0	 8.066670000003315e+000	 6.133340000006531e+000	 1.005479350132249e+001
0	 8.066670000003317e+000	 6.200010000009550e+000	 1.005386573380770e+001
0	 8.066670000003317e+000	 6.266680000012268e+000	 1.005291169877296e+001
0	 8.066670000003317e+000	 6.333350000014583e+000	 1.005192983705002e+001
0	 8.066670000003317e+000	 6.400020000016400e+000	 1.005091858947067e+001
0	 8.066670000003317e+000	 6.466690000017618e+000	 1.004987639686673e+001
0	 8.066670000003315e+000	 6.533360000018133e+000	 1.004880170006993e+001
0	 8.066670000003317e+000	 6.600030000017851e+000	 1.004769293991212e+001
0	 8.066670000003315e+000	 6.666700000016666e+000	 1.004654855722503e+001
0	 8.133340000006532e+000	 5.999999999999998e+000	 1.005321278279234e+001
0	 8.133340000006532e+000	 6.066670000003315e+000	 1.005243028219426e+001
0	 8.133340000006534e+000	 6.133340000006532e+000	 1.005162312113672e+001
0	 8.133340000006532e+000	 6.200010000009550e+000	 1.005078981537862e+001
0	 8.133340000006536e+000	 6.266680000012268e+000	 1.004992888067882e+001
0	 8.133340000006532e+000	 6.333350000014582e+000	 1.004903883279620e+001
0	 8.133340000006532e+000	 6.400020000016401e+000	 1.004811818748965e+001
0	 8.133340000006532e+000	 6.466690000017616e+000	 1.004716546051804e+001
0	 8.133340000006534e+000	 6.533360000018134e+000	 1.004617916764024e+001
0	 8.133340000006534e+000	 6.600030000017848e+000	 1.004515782461513e+001
0	 8.133340000006532e+000	 6.666700000016665e+000	 1.004409994720159e+001
0	 8.200010000009552e+000	 6.000000000000000e+000	 1.004989264811041e+001
0	 8.200010000009550e+000	 6.066670000003316e+000	 1.004920607417703e+001
0	 8.200010000009550e+000	 6.133340000006533e+000	 1.004849335194341e+001
0	 8.200010000009549e+000	 6.200010000009551e+000	 1.004775306913022e+001
0	 8.200010000009552e+000	 6.266680000012268e+000	 1.004698381345811e+001
0	 8.200010000009547e+000	 6.333350000014582e+000	 1.004618417264771e+001
0	 8.200010000009549e+000	 6.400020000016402e+000	 1.004535273441968e+001
0	 8.200010000009552e+000	 6.466690000017618e+000	 1.004448808649465e+001
0	 8.200010000009552e+000	 6.533360000018135e+000	 1.004358881659327e+001
0	 8.200010000009549e+000	 6.600030000017852e+000	 1.004265351243617e+001
0	 8.200010000009550e+000	 6.666700000016667e+000	 1.004168076174403e+001
0	 8.266680000012267e+000	 6.000000000000001e+000	 1.004662138211806e+001
0	 8.266680000012267e+000	 6.066670000003319e+000	 1.004602919402253e+001
0	 8.266680000012270e+000	 6.133340000006534e+000	 1.004540938477346e+001
0	 8.266680000012265e+000	 6.200010000009550e+000	 1.004476061108795e+001
0	 8.266680000012268e+000	 6.266680000012268e+000	 1.004408152968309e+001
0	 8.266680000012265e+000	 6.333350000014584e+000	 1.004337079727594e+001
0	 8.266680000012268e+000	 6.400020000016401e+000	 1.004262707058361e+001
0	 8.266680000012265e+000	 6.466690000017615e+000	 1.004184900632318e+001
0	 8.266680000012267e+000	 6.533360000018136e+000	 1.004103526121173e+001
0	 8.266680000012265e+000	 6.600030000017849e+000	 1.004018449196636e+001
0	 8.266680000012267e+000	 6.666700000016666e+000	 1.003929535530413e+001
0	 8.333350000014582e+000	 6.000000000000001e+000	 1.004340430051410e+001
0	 8.333350000014583e+000	 6.066670000003317e+000	 1.004290489931951e+001
0	 8.333350000014583e+000	 6.133340000006533e+000	 1.004237641065783e+001
0	 8.333350000014582e+000	 6.200010000009551e+000	 1.004181755727726e+001
0	 8.333350000014580e+000	 6.266680000012267e+000	 1.004122706192601e+001
0	 8.333350000014583e+000	 6.333350000014583e+000	 1.004060364735229e+001
0	 8.333350000014583e+000	 6.400020000016401e+000	 1.003994603630431e+001
0	 8.333350000014582e+000	 6.466690000017616e+000	 1.003925295153025e+001
0	 8.333350000014583e+000	 6.533360000018131e+000	 1.003852311577832e+001
0	 8.333350000014582e+000	 6.600030000017849e+000	 1.003775525179673e+001
0	 8.333350000014585e+000	 6.666700000016668e+000	 1.003694808233367e+001
0	 8.400020000016399e+000	 6.000000000000001e+000	 1.004024671899739e+001
0	 8.400020000016399e+000	 6.066670000003318e+000	 1.003983844765667e+001
0	 8.400020000016399e+000	 6.133340000006534e+000	 1.003939962062741e+001
0	 8.400020000016401e+000	 6.200010000009551e+000	 1.003892902372356e+001
0	 8.400020000016399e+000	 6.266680000012268e+000	 1.003842544275916e+001
0	 8.400020000016399e+000	 6.333350000014584e+000	 1.003788766354819e+001
0	 8.400020000016401e+000	 6.400020000016401e+000	 1.003731447190462e+001
0	 8.400020000016401e+000	 6.466690000017617e+000	 1.003670465364247e+001
0	 8.400020000016397e+000	 6.533360000018134e+000	 1.003605699457574e+001
0	 8.400020000016399e+000	 6.600030000017850e+000	 1.003537028051840e+001
0	 8.400020000016399e+000	 6.666700000016666e+000	 1.003464329728444e+001
0	 8.466690000017618e+000	 6.000000000000000e+000	 1.003715395326675e+001
0	 8.466690000017614e+000	 6.066670000003315e+000	 1.003683509662277e+001
0	 8.466690000017616e+000	 6.133340000006535e+000	 1.003648420571314e+001
0	 8.466690000017616e+000	 6.200010000009552e+000	 1.003610012645232e+001
0	 8.466690000017618e+000	 6.266680000012268e+000	 1.003568170475479e+001
0	 8.466690000017616e+000	 6.333350000014583e+000	 1.003522778653501e+001
0	 8.466690000017616e+000	 6.400020000016399e+000	 1.003473721770740e+001
0	 8.466690000017616e+000	 6.466690000017615e+000	 1.003420884418648e+001
0	 8.466690000017616e+000	 6.533360000018133e+000	 1.003364151188666e+001
0	 8.466690000017616e+000	 6.600030000017851e+000	 1.003303406672243e+001
0	 8.466690000017614e+000	 6.666700000016665e+000	 1.003238535460823e+001
0	 8.533360000018130e+000	 5.999999999999998e+000	 1.003413131902105e+001
0	 8.533360000018131e+000	 6.066670000003316e+000	 1.003390010380652e+001
0	 8.533360000018133e+000	 6.133340000006533e+000	 1.003363535694597e+001
0	 8.533360000018131e+000	 6.200010000009550e+000	 1.003333598148899e+001
0	 8.533360000018131e+000	 6.266680000012267e+000	 1.003300088048519e+001
0	 8.533360000018133e+000	 6.333350000014584e+000	 1.003262895698416e+001
0	 8.533360000018131e+000	 6.400020000016400e+000	 1.003221911403553e+001
0	 8.533360000018130e+000	 6.466690000017616e+000	 1.003177025468887e+001
0	 8.533360000018135e+000	 6.533360000018137e+000	 1.003128128199380e+001
0	 8.533360000018133e+000	 6.600030000017853e+000	 1.003075109899990e+001
0	 8.533360000018130e+000	 6.666700000016665e+000	 1.003017860875679e+001
0	 8.600030000017847e+000	 6.000000000000000e+000	 1.003118413195910e+001
0	 8.600030000017847e+000	 6.066670000003317e+000	 1.003103872679665e+001
0	 8.600030000017847e+000	 6.133340000006535e+000	 1.003085826535681e+001
0	 8.600030000017849e+000	 6.200010000009550e+000	 1.003064170485899e+001
0	 8.600030000017849e+000	 6.266680000012268e+000	 1.003038800252261e+001
0	 8.600030000017847e+000	 6.333350000014583e+000	 1.003009611556709e+001
0	 8.600030000017847e+000	 6.400020000016401e+000	 1.002976500121183e+001
0	 8.600030000017849e+000	 6.466690000017617e+000	 1.002939361667628e+001
0	 8.600030000017849e+000	 6.533360000018135e+000	 1.002898091917983e+001
0	 8.600030000017849e+000	 6.600030000017851e+000	 1.002852586594190e+001
0	 8.600030000017847e+000	 6.666700000016666e+000	 1.002802741418191e+001
0	 8.666700000016666e+000	 6.000000000000001e+000	 1.002831770777974e+001
0	 8.666700000016666e+000	 6.066670000003318e+000	 1.002825622318189e+001
0	 8.666700000016666e+000	 6.133340000006533e+000	 1.002815812197660e+001
0	 8.666700000016666e+000	 6.200010000009550e+000	 1.002802241258776e+001
0	 8.666700000016666e+000	 6.266680000012268e+000	 1.002784810343931e+001
0	 8.666700000016666e+000	 6.333350000014585e+000	 1.002763420295515e+001
0	 8.666700000016668e+000	 6.400020000016401e+000	 1.002737971955919e+001
0	 8.666700000016668e+000	 6.466690000017617e+000	 1.002708366167532e+001
0	 8.666700000016668e+000	 6.533360000018135e+000	 1.002674503772746e+001
0	 8.666700000016666e+000	 6.600030000017850e+000	 1.002636285613952e+001
0	 8.666700000016666e+000	 6.666700000016665e+000	 1.002593612533539e+001
0	 8.000000000000000e+000	 6.666700000016668e+000	 1.004902223736256e+001
0	 7.999999999999999e+000	 6.733360000014532e+000	 1.004777096587645e+001
0	 8.000000000000000e+000	 6.800020000011601e+000	 1.004651575153367e+001
0	 7.999999999999999e+000	 6.866680000008068e+000	 1.004525496904674e+001
0	 8.000000000000000e+000	 6.933340000004133e+000	 1.004398699312816e+001
0	 8.000000000000000e+000	 7.000000000000000e+000	 1.004271019849046e+001
0	 7.999999999999999e+000	 7.066659999995867e+000	 1.004142295984613e+001
0	 8.000000000000000e+000	 7.133319999991934e+000	 1.004012365190771e+001
0	 8.000000000000000e+000	 7.199979999988400e+000	 1.003881064938768e+001
0	 8.000000000000000e+000	 7.266639999985467e+000	 1.003748232699855e+001
0	 8.000000000000000e+000	 7.333299999983335e+000	 1.003613705945287e+001
0	 8.066670000003315e+000	 6.666700000016666e+000	 1.004654855722503e+001
0	 8.066670000003317e+000	 6.733360000014533e+000	 1.004538375575533e+001
0	 8.066670000003315e+000	 6.800020000011600e+000	 1.004421338890590e+001
0	 8.066670000003320e+000	 6.866680000008067e+000	 1.004303589518793e+001
0	 8.066670000003317e+000	 6.933340000004135e+000	 1.004184971311258e+001
0	 8.066670000003319e+000	 7.000000000000001e+000	 1.004065328119102e+001
0	 8.066670000003319e+000	 7.066659999995868e+000	 1.003944503793441e+001
0	 8.066670000003320e+000	 7.133319999991935e+000	 1.003822342185391e+001
0	 8.066670000003317e+000	 7.199979999988400e+000	 1.003698687146071e+001
0	 8.066670000003319e+000	 7.266639999985467e+000	 1.003573382526595e+001
0	 8.066670000003315e+000	 7.333299999983334e+000	 1.003446272178082e+001
0	 8.133340000006532e+000	 6.666700000016665e+000	 1.004409994720159e+001
0	 8.133340000006532e+000	 6.733360000014531e+000	 1.004302039327230e+001
0	 8.133340000006530e+000	 6.800020000011598e+000	 1.004193368764185e+001
0	 8.133340000006538e+000	 6.866680000008069e+000	 1.004083833094544e+001
0	 8.133340000006532e+000	 6.933340000004131e+000	 1.003973282381829e+001
0	 8.133340000006532e+000	 6.999999999999998e+000	 1.003861566689561e+001
0	 8.133340000006534e+000	 7.066659999995868e+000	 1.003748536081259e+001
0	 8.133340000006538e+000	 7.133319999991936e+000	 1.003634040620445e+001
0	 8.133340000006530e+000	 7.199979999988400e+000	 1.003517930370641e+001
0	 8.133340000006534e+000	 7.266639999985466e+000	 1.003400055395367e+001
0	 8.133340000006534e+000	 7.333299999983332e+000	 1.003280265758143e+001
0	 8.200010000009550e+000	 6.666700000016667e+000	 1.004168076174403e+001
0	 8.200010000009550e+000	 6.733360000014532e+000	 1.004068509368378e+001
0	 8.200010000009554e+000	 6.800020000011600e+000	 1.003968072209655e+001
0	 8.200010000009550e+000	 6.866680000008068e+000	 1.003866620806694e+001
0	 8.200010000009550e+000	 6.933340000004135e+000	 1.003764011267962e+001
0	 8.200010000009550e+000	 7.000000000000001e+000	 1.003660099701923e+001
0	 8.200010000009549e+000	 7.066659999995867e+000	 1.003554742217038e+001
0	 8.200010000009550e+000	 7.133319999991934e+000	 1.003447794921771e+001
0	 8.200010000009552e+000	 7.199979999988400e+000	 1.003339113924588e+001
0	 8.200010000009549e+000	 7.266639999985465e+000	 1.003228555333951e+001
0	 8.200010000009549e+000	 7.333299999983334e+000	 1.003115975258327e+001
0	 8.266680000012267e+000	 6.666700000016666e+000	 1.003929535530413e+001
0	 8.266680000012268e+000	 6.733360000014533e+000	 1.003838207224617e+001
0	 8.266680000012263e+000	 6.800020000011598e+000	 1.003745856662501e+001
0	 8.266680000012263e+000	 6.866680000008066e+000	 1.003652345830010e+001
0	 8.266680000012267e+000	 6.933340000004133e+000	 1.003557536713091e+001
0	 8.266680000012265e+000	 6.999999999999997e+000	 1.003461291297687e+001
0	 8.266680000012263e+000	 7.066659999995864e+000	 1.003363471569744e+001
0	 8.266680000012263e+000	 7.133319999991934e+000	 1.003263939515207e+001
0	 8.266680000012263e+000	 7.199979999988400e+000	 1.003162557120021e+001
0	 8.266680000012270e+000	 7.266639999985468e+000	 1.003059186370133e+001
0	 8.266680000012265e+000	 7.333299999983333e+000	 1.002953689251488e+001
0	 8.333350000014585e+000	 6.666700000016668e+000	 1.003694808233367e+001
0	 8.333350000014583e+000	 6.733360000014532e+000	 1.003611554421585e+001
0	 8.333350000014582e+000	 6.800020000011600e+000	 1.003527129558227e+001
0	 8.333350000014582e+000	 6.866680000008068e+000	 1.003441401339259e+001
0	 8.333350000014582e+000	 6.933340000004134e+000	 1.003354237460646e+001
0	 8.333350000014582e+000	 6.999999999999999e+000	 1.003265505618353e+001
0	 8.333350000014582e+000	 7.066659999995867e+000	 1.003175073508346e+001
0	 8.333350000014580e+000	 7.133319999991932e+000	 1.003082808826590e+001
0	 8.333350000014583e+000	 7.199979999988400e+000	 1.002988579269050e+001
0	 8.333350000014583e+000	 7.266639999985467e+000	 1.002892252531693e+001
0	 8.333350000014585e+000	 7.333299999983335e+000	 1.002793696310483e+001
0	 8.400020000016399e+000	 6.666700000016666e+000	 1.003464329728444e+001
0	 8.400020000016399e+000	 6.733360000014533e+000	 1.003388972484923e+001
0	 8.400020000016399e+000	 6.800020000011600e+000	 1.003312298332336e+001
0	 8.400020000016401e+000	 6.866680000008066e+000	 1.003234180509207e+001
0	 8.400020000016403e+000	 6.933340000004135e+000	 1.003154492254062e+001
0	 8.400020000016399e+000	 6.999999999999998e+000	 1.003073106805424e+001
0	 8.400020000016399e+000	 7.066659999995868e+000	 1.002989897401814e+001
0	 8.400020000016401e+000	 7.133319999991935e+000	 1.002904737281760e+001
0	 8.400020000016399e+000	 7.199979999988401e+000	 1.002817499683785e+001
0	 8.400020000016399e+000	 7.266639999985467e+000	 1.002728057846413e+001
0	 8.400020000016397e+000	 7.333299999983333e+000	 1.002636285008168e+001
0	 8.466690000017614e+000	 6.666700000016665e+000	 1.003238535460823e+001
0	 8.466690000017618e+000	 6.733360000014533e+000	 1.003170882940271e+001
0	 8.466690000017614e+000	 6.800020000011599e+000	 1.003101770420331e+001
0	 8.466690000017616e+000	 6.866680000008067e+000	 1.003031076514623e+001
0	 8.466690000017616e+000	 6.933340000004133e+000	 1.002958679836771e+001
0	 8.466690000017614e+000	 6.999999999999999e+000	 1.002884459000395e+001
0	 8.466690000017616e+000	 7.066659999995867e+000	 1.002808292619116e+001
0	 8.466690000017616e+000	 7.133319999991935e+000	 1.002730059306555e+001
0	 8.466690000017614e+000	 7.199979999988400e+000	 1.002649637676334e+001
0	 8.466690000017618e+000	 7.266639999985467e+000	 1.002566906342076e+001
0	 8.466690000017616e+000	 7.333299999983335e+000	 1.002481743917400e+001
0	 8.533360000018130e+000	 6.666700000016665e+000	 1.003017860875679e+001
0	 8.533360000018133e+000	 6.733360000014534e+000	 1.002957707313266e+001
0	 8.533360000018133e+000	 6.800020000011600e+000	 1.002895953257712e+001
0	 8.533360000018130e+000	 6.866680000008066e+000	 1.002832482530273e+001
0	 8.533360000018131e+000	 6.933340000004133e+000	 1.002767178952208e+001
0	 8.533360000018131e+000	 6.999999999999998e+000	 1.002699926344769e+001
0	 8.533360000018133e+000	 7.066659999995868e+000	 1.002630608529220e+001
0	 8.533360000018133e+000	 7.133319999991935e+000	 1.002559109326813e+001
0	 8.533360000018130e+000	 7.199979999988400e+000	 1.002485312558808e+001
0	 8.533360000018131e+000	 7.266639999985467e+000	 1.002409102046463e+001
0	 8.533360000018133e+000	 7.333299999983334e+000	 1.002330361611034e+001
0	 8.600030000017847e+000	 6.666700000016666e+000	 1.002802741418191e+001
0	 8.600030000017849e+000	 6.733360000014533e+000	 1.002749867129551e+001
0	 8.600030000017849e+000	 6.800020000011600e+000	 1.002695254279986e+001
0	 8.600030000017847e+000	 6.866680000008065e+000	 1.002638791730925e+001
0	 8.600030000017849e+000	 6.933340000004136e+000	 1.002580368343802e+001
0	 8.600030000017849e+000	 7.000000000000001e+000	 1.002519872980048e+001
0	 8.600030000017849e+000	 7.066659999995869e+000	 1.002457194501094e+001
0	 8.600030000017849e+000	 7.133319999991936e+000	 1.002392221768372e+001
0	 8.600030000017847e+000	 7.199979999988400e+000	 1.002324843643316e+001
0	 8.600030000017849e+000	 7.266639999985468e+000	 1.002254948987357e+001
0	 8.600030000017849e+000	 7.333299999983335e+000	 1.002182426661926e+001
0	 8.666700000016666e+000	 6.666700000016665e+000	 1.002593612533539e+001
0	 8.666700000016666e+000	 6.733360000014533e+000	 1.002547783914764e+001
0	 8.666700000016668e+000	 6.800020000011599e+000	 1.002500080922652e+001
0	 8.666700000016668e+000	 6.866680000008068e+000	 1.002450397291344e+001
0	 8.666700000016666e+000	 6.933340000004133e+000	 1.002398626754987e+001
0	 8.666700000016666e+000	 7.000000000000001e+000	 1.002344663047726e+001
0	 8.666700000016665e+000	 7.066659999995867e+000	 1.002288399903705e+001
0	 8.666700000016665e+000	 7.133319999991934e+000	 1.002229731057070e+001
0	 8.666700000016668e+000	 7.199979999988400e+000	 1.002168550241966e+001
0	 8.666700000016666e+000	 7.266639999985467e+000	 1.002104751192539e+001
0	 8.666700000016665e+000	 7.333299999983335e+000	 1.002038227642933e+001
0	 8.000000000000000e+000	 7.333299999983335e+000	 1.003613705945287e+001
0	 8.000000000000000e+000	 7.399969999982151e+000	 1.003478983456005e+001
0	 8.000000000000000e+000	 7.466639999981867e+000	 1.003345598125839e+001
0	 8.000000000000000e+000	 7.533309999982385e+000	 1.003213377646594e+001
0	 8.000000000000000e+000	 7.599979999983599e+000	 1.003082149710067e+001
0	 7.999999999999999e+000	 7.666649999985416e+000	 1.002951742008060e+001
0	 7.999999999999999e+000	 7.733319999987732e+000	 1.002821982232375e+001
0	 7.999999999999999e+000	 7.799989999990448e+000	 1.002692698074813e+001
0	 7.999999999999998e+000	 7.866659999993465e+000	 1.002563717227172e+001
0	 8.000000000000000e+000	 7.933329999996684e+000	 1.002434867381256e+001
0	 7.999999999999999e+000	 7.999999999999999e+000	 1.002305976228867e+001
0	 8.066670000003315e+000	 7.333299999983334e+000	 1.003446272178082e+001
0	 8.066670000003315e+000	 7.399969999982151e+000	 1.003318833771588e+001
0	 8.066670000003315e+000	 7.466639999981865e+000	 1.003192576095191e+001
0	 8.066670000003315e+000	 7.533309999982385e+000	 1.003067332040414e+001
0	 8.066670000003319e+000	 7.599979999983599e+000	 1.002942934498769e+001
0	 8.066670000003317e+000	 7.666649999985415e+000	 1.002819216361776e+001
0	 8.066670000003319e+000	 7.733319999987733e+000	 1.002696010520955e+001
0	 8.066670000003315e+000	 7.799989999990450e+000	 1.002573149867822e+001
0	 8.066670000003317e+000	 7.866659999993467e+000	 1.002450467293896e+001
0	 8.066670000003317e+000	 7.933329999996682e+000	 1.002327795690695e+001
0	 8.066670000003319e+000	 7.999999999999998e+000	 1.002204967949738e+001
0	 8.133340000006534e+000	 7.333299999983332e+000	 1.003280265758143e+001
0	 8.133340000006532e+000	 7.399969999982148e+000	 1.003160017760622e+001
0	 8.133340000006530e+000	 7.466639999981864e+000	 1.003040796040598e+001
0	 8.133340000006532e+000	 7.533309999982381e+000	 1.002922438801742e+001
0	 8.133340000006532e+000	 7.599979999983599e+000	 1.002804784247732e+001
0	 8.133340000006532e+000	 7.666649999985415e+000	 1.002687670582237e+001
0	 8.133340000006536e+000	 7.733319999987734e+000	 1.002570936008930e+001
0	 8.133340000006532e+000	 7.799989999990449e+000	 1.002454418731487e+001
0	 8.133340000006532e+000	 7.866659999993466e+000	 1.002337956953579e+001
0	 8.133340000006532e+000	 7.933329999996682e+000	 1.002221388878879e+001
0	 8.133340000006532e+000	 7.999999999999997e+000	 1.002104552711062e+001
0	 8.200010000009549e+000	 7.333299999983334e+000	 1.003115975258326e+001
0	 8.200010000009547e+000	 7.399969999982149e+000	 1.003002808733651e+001
0	 8.200010000009552e+000	 7.466639999981867e+000	 1.002890516570783e+001
0	 8.200010000009550e+000	 7.533309999982384e+000	 1.002778942397983e+001
0	 8.200010000009549e+000	 7.599979999983600e+000	 1.002667929843521e+001
0	 8.200010000009549e+000	 7.666649999985415e+000	 1.002557322535660e+001
0	 8.200010000009552e+000	 7.733319999987732e+000	 1.002446964102668e+001
0	 8.200010000009549e+000	 7.799989999990451e+000	 1.002336698172811e+001
0	 8.200010000009550e+000	 7.866659999993467e+000	 1.002226368374354e+001
0	 8.200010000009550e+000	 7.933329999996683e+000	 1.002115818335565e+001
0	 8.200010000009550e+000	 8.000000000000002e+000	 1.002004891684707e+001
0	 8.266680000012265e+000	 7.333299999983333e+000	 1.002953689251488e+001
0	 8.266680000012265e+000	 7.399969999982149e+000	 1.002847480001223e+001
0	 8.266680000012265e+000	 7.466639999981865e+000	 1.002741996294472e+001
0	 8.266680000012267e+000	 7.533309999982384e+000	 1.002637087296530e+001
0	 8.266680000012268e+000	 7.599979999983600e+000	 1.002532602172696e+001
0	 8.266680000012265e+000	 7.666649999985415e+000	 1.002428390088265e+001
0	 8.266680000012267e+000	 7.733319999987733e+000	 1.002324300208533e+001
0	 8.266680000012263e+000	 7.799989999990447e+000	 1.002220181698798e+001
0	 8.266680000012268e+000	 7.866659999993467e+000	 1.002115883724357e+001
0	 8.266680000012265e+000	 7.933329999996682e+000	 1.002011255450506e+001
0	 8.266680000012265e+000	 8.000000000000002e+000	 1.001906146042541e+001
0	 8.333350000014585e+000	 7.333299999983335e+000	 1.002793696310483e+001
0	 8.333350000014582e+000	 7.399969999982149e+000	 1.002694304873881e+001
0	 8.333350000014583e+000	 7.466639999981867e+000	 1.002595493820392e+001
0	 8.333350000014583e+000	 7.533309999982384e+000	 1.002497117964784e+001
0	 8.333350000014582e+000	 7.599979999983598e+000	 1.002399032121820e+001
0	 8.333350000014582e+000	 7.666649999985415e+000	 1.002301091106267e+001
0	 8.333350000014582e+000	 7.733319999987732e+000	 1.002203149732889e+001
0	 8.333350000014582e+000	 7.799989999990450e+000	 1.002105062816451e+001
0	 8.333350000014583e+000	 7.866659999993467e+000	 1.002006685171719e+001
0	 8.333350000014585e+000	 7.933329999996684e+000	 1.001907871613458e+001
0	 8.333350000014580e+000	 7.999999999999999e+000	 1.001808476956435e+001
0	 8.400020000016397e+000	 7.333299999983333e+000	 1.002636285008168e+001
0	 8.400020000016397e+000	 7.399969999982148e+000	 1.002543556662170e+001
0	 8.400020000016399e+000	 7.466639999981867e+000	 1.002451267757271e+001
0	 8.400020000016399e+000	 7.533309999982381e+000	 1.002359278870142e+001
0	 8.400020000016401e+000	 7.599979999983600e+000	 1.002267450577458e+001
0	 8.400020000016397e+000	 7.666649999985414e+000	 1.002175643455886e+001
0	 8.400020000016401e+000	 7.733319999987733e+000	 1.002083718082102e+001
0	 8.400020000016399e+000	 7.799989999990449e+000	 1.001991535032773e+001
0	 8.400020000016399e+000	 7.866659999993467e+000	 1.001898954884576e+001
0	 8.400020000016397e+000	 7.933329999996681e+000	 1.001805838214180e+001
0	 8.400020000016399e+000	 7.999999999999999e+000	 1.001712045598256e+001
0	 8.466690000017616e+000	 7.333299999983335e+000	 1.002481743917400e+001
0	 8.466690000017614e+000	 7.399969999982150e+000	 1.002395508676636e+001
0	 8.466690000017614e+000	 7.466639999981866e+000	 1.002309576713832e+001
0	 8.466690000017616e+000	 7.533309999982383e+000	 1.002223814480003e+001
0	 8.466690000017614e+000	 7.599979999983599e+000	 1.002138088426167e+001
0	 8.466690000017616e+000	 7.666649999985416e+000	 1.002052265003338e+001
0	 8.466690000017614e+000	 7.733319999987732e+000	 1.001966210662534e+001
0	 8.466690000017614e+000	 7.799989999990449e+000	 1.001879791854770e+001
0	 8.466690000017616e+000	 7.866659999993467e+000	 1.001792875031060e+001
0	 8.466690000017612e+000	 7.933329999996682e+000	 1.001705326642423e+001
0	 8.466690000017618e+000	 8.000000000000000e+000	 1.001617013139875e+001
0	 8.533360000018133e+000	 7.333299999983334e+000	 1.002330361611034e+001
0	 8.533360000018130e+000	 7.399969999982149e+000	 1.002250434227824e+001
0	 8.533360000018131e+000	 7.466639999981865e+000	 1.002170679298801e+001
0	 8.533360000018133e+000	 7.533309999982383e+000	 1.002090969261766e+001
0	 8.533360000018131e+000	 7.599979999983598e+000	 1.002011176554513e+001
0	 8.533360000018133e+000	 7.666649999985419e+000	 1.001931173614844e+001
0	 8.533360000018131e+000	 7.733319999987732e+000	 1.001850832880553e+001
0	 8.533360000018135e+000	 7.799989999990450e+000	 1.001770026789442e+001
0	 8.533360000018131e+000	 7.866659999993466e+000	 1.001688627779307e+001
0	 8.533360000018131e+000	 7.933329999996683e+000	 1.001606508287945e+001
0	 8.533360000018131e+000	 8.000000000000000e+000	 1.001523540753159e+001
0	 8.600030000017849e+000	 7.333299999983335e+000	 1.002182426661926e+001
0	 8.600030000017847e+000	 7.399969999982150e+000	 1.002108606626279e+001
0	 8.600030000017847e+000	 7.466639999981864e+000	 1.002034834120907e+001
0	 8.600030000017849e+000	 7.533309999982384e+000	 1.001960987682827e+001
0	 8.600030000017847e+000	 7.599979999983599e+000	 1.001886945849058e+001
0	 8.600030000017847e+000	 7.666649999985414e+000	 1.001812587156617e+001
0	 8.600030000017847e+000	 7.733319999987733e+000	 1.001737790142523e+001
0	 8.600030000017849e+000	 7.799989999990448e+000	 1.001662433343795e+001
0	 8.600030000017851e+000	 7.866659999993467e+000	 1.001586395297448e+001
0	 8.600030000017846e+000	 7.933329999996683e+000	 1.001509554540502e+001
0	 8.600030000017847e+000	 8.000000000000000e+000	 1.001431789609975e+001
0	 8.666700000016665e+000	 7.333299999983335e+000	 1.002038227642932e+001
0	 8.666700000016666e+000	 7.399969999982151e+000	 1.001970299182547e+001
0	 8.666700000016668e+000	 7.466639999981867e+000	 1.001902299788874e+001
0	 8.666700000016668e+000	 7.533309999982383e+000	 1.001834114210587e+001
0	 8.666700000016668e+000	 7.599979999983599e+000	 1.001765627196364e+001
0	 8.666700000016666e+000	 7.666649999985415e+000	 1.001696723494879e+001
0	 8.666700000016666e+000	 7.733319999987733e+000	 1.001627287854810e+001
0	 8.666700000016666e+000	 7.799989999990450e+000	 1.001557205024831e+001
0	 8.666700000016663e+000	 7.866659999993464e+000	 1.001486359753618e+001
0	 8.666700000016666e+000	 7.933329999996683e+000	 1.001414636789848e+001
0	 8.666700000016666e+000	 7.999999999999999e+000	 1.001341920882197e+001
0	 7.999999999999999e+000	 7.999999999999999e+000	 1.002305976228867e+001
0	 7.999999999999998e+000	 8.066670000003319e+000	 1.002178626562950e+001
0	 8.000000000000000e+000	 8.133340000006534e+000	 1.002054384134993e+001
0	 7.999999999999999e+000	 8.200010000009550e+000	 1.001933051074616e+001
0	 7.999999999999999e+000	 8.266680000012268e+000	 1.001814429511434e+001
0	 8.000000000000000e+000	 8.333350000014585e+000	 1.001698321575065e+001
0	 7.999999999999998e+000	 8.400020000016397e+000	 1.001584529395120e+001
0	 8.000000000000000e+000	 8.466690000017618e+000	 1.001472855101223e+001
0	 7.999999999999998e+000	 8.533360000018131e+000	 1.001363100822985e+001
0	 8.000000000000000e+000	 8.600030000017851e+000	 1.001255068690026e+001
0	 8.000000000000000e+000	 8.666700000016666e+000	 1.001148560831961e+001
0	 8.066670000003319e+000	 7.999999999999998e+000	 1.002204967949738e+001
0	 8.066670000003319e+000	 8.066670000003319e+000	 1.002083537195546e+001
0	 8.066670000003315e+000	 8.133340000006532e+000	 1.001965040993411e+001
0	 8.066670000003317e+000	 8.200010000009550e+000	 1.001849288896003e+001
0	 8.066670000003317e+000	 8.266680000012270e+000	 1.001736090455994e+001
0	 8.066670000003315e+000	 8.333350000014583e+000	 1.001625255226053e+001
0	 8.066670000003317e+000	 8.400020000016401e+000	 1.001516592758855e+001
0	 8.066670000003317e+000	 8.466690000017618e+000	 1.001409912607069e+001
0	 8.066670000003317e+000	 8.533360000018133e+000	 1.001305024323364e+001
0	 8.066670000003315e+000	 8.600030000017851e+000	 1.001201737460417e+001
0	 8.066670000003313e+000	 8.666700000016666e+000	 1.001099861570895e+001
0	 8.133340000006532e+000	 7.999999999999997e+000	 1.002104552711062e+001
0	 8.133340000006532e+000	 8.066670000003315e+000	 1.001988972495673e+001
0	 8.133340000006534e+000	 8.133340000006534e+000	 1.001876158004487e+001
0	 8.133340000006532e+000	 8.200010000009549e+000	 1.001765926030529e+001
0	 8.133340000006534e+000	 8.266680000012267e+000	 1.001658093366819e+001
0	 8.133340000006532e+000	 8.333350000014583e+000	 1.001552476806380e+001
0	 8.133340000006530e+000	 8.400020000016401e+000	 1.001448893142231e+001
0	 8.133340000006534e+000	 8.466690000017616e+000	 1.001347159167397e+001
0	 8.133340000006534e+000	 8.533360000018135e+000	 1.001247091674899e+001
0	 8.133340000006534e+000	 8.600030000017849e+000	 1.001148507457757e+001
0	 8.133340000006532e+000	 8.666700000016665e+000	 1.001051223308995e+001
0	 8.200010000009550e+000	 8.000000000000002e+000	 1.002004891684707e+001
0	 8.200010000009550e+000	 8.066670000003319e+000	 1.001895083921990e+001
0	 8.200010000009549e+000	 8.133340000006534e+000	 1.001787877362556e+001
0	 8.200010000009552e+000	 8.200010000009552e+000	 1.001683095857071e+001
0	 8.200010000009552e+000	 8.266680000012267e+000	 1.001580563256207e+001
0	 8.200010000009547e+000	 8.333350000014583e+000	 1.001480103410627e+001
0	 8.200010000009549e+000	 8.400020000016403e+000	 1.001381540171004e+001
0	 8.200010000009550e+000	 8.466690000017618e+000	 1.001284697388002e+001
0	 8.200010000009552e+000	 8.533360000018137e+000	 1.001189398912291e+001
0	 8.200010000009549e+000	 8.600030000017851e+000	 1.001095468594538e+001
0	 8.200010000009550e+000	 8.666700000016666e+000	 1.001002730285412e+001
0	 8.266680000012265e+000	 8.000000000000002e+000	 1.001906146042541e+001
0	 8.266680000012267e+000	 8.066670000003317e+000	 1.001802022933164e+001
0	 8.266680000012267e+000	 8.133340000006534e+000	 1.001700341261952e+001
0	 8.266680000012267e+000	 8.200010000009550e+000	 1.001600931754511e+001
0	 8.266680000012267e+000	 8.266680000012268e+000	 1.001503625136452e+001
0	 8.266680000012265e+000	 8.333350000014582e+000	 1.001408252133388e+001
0	 8.266680000012267e+000	 8.400020000016401e+000	 1.001314643470924e+001
0	 8.266680000012267e+000	 8.466690000017616e+000	 1.001222629874676e+001
0	 8.266680000012263e+000	 8.533360000018133e+000	 1.001132042070248e+001
0	 8.266680000012267e+000	 8.600030000017851e+000	 1.001042710783252e+001
0	 8.266680000012265e+000	 8.666700000016668e+000	 1.000954466739298e+001
0	 8.333350000014580e+000	 7.999999999999999e+000	 1.001808476956435e+001
0	 8.333350000014583e+000	 8.066670000003319e+000	 1.001709940987862e+001
0	 8.333350000014583e+000	 8.133340000006534e+000	 1.001613691897009e+001
0	 8.333350000014582e+000	 8.200010000009552e+000	 1.001519567101724e+001
0	 8.333350000014583e+000	 8.266680000012270e+000	 1.001427404019854e+001
0	 8.333350000014583e+000	 8.333350000014583e+000	 1.001337040069246e+001
0	 8.333350000014582e+000	 8.400020000016397e+000	 1.001248312667748e+001
0	 8.333350000014585e+000	 8.466690000017618e+000	 1.001161059233207e+001
0	 8.333350000014583e+000	 8.533360000018133e+000	 1.001075117183473e+001
0	 8.333350000014580e+000	 8.600030000017851e+000	 1.000990323936390e+001
0	 8.333350000014583e+000	 8.666700000016668e+000	 1.000906516909809e+001
0	 8.400020000016399e+000	 7.999999999999999e+000	 1.001712045598256e+001
0	 8.400020000016397e+000	 8.066670000003317e+000	 1.001618989544747e+001
0	 8.400020000016397e+000	 8.133340000006532e+000	 1.001528071462065e+001
0	 8.400020000016401e+000	 8.200010000009552e+000	 1.001439135277592e+001
0	 8.400020000016399e+000	 8.266680000012267e+000	 1.001352024918706e+001
0	 8.400020000016399e+000	 8.333350000014582e+000	 1.001266584312791e+001
0	 8.400020000016397e+000	 8.400020000016399e+000	 1.001182657387226e+001
0	 8.400020000016403e+000	 8.466690000017620e+000	 1.001100088069392e+001
0	 8.400020000016397e+000	 8.533360000018133e+000	 1.001018720286671e+001
0	 8.400020000016403e+000	 8.600030000017851e+000	 1.000938397966444e+001
0	 8.400020000016401e+000	 8.666700000016666e+000	 1.000858965036091e+001
0	 8.466690000017618e+000	 8.000000000000000e+000	 1.001617013139875e+001
0	 8.466690000017614e+000	 8.066670000003317e+000	 1.001529320062484e+001
0	 8.466690000017618e+000	 8.133340000006536e+000	 1.001443622151453e+001
0	 8.466690000017616e+000	 8.200010000009552e+000	 1.001359769660989e+001
0	 8.466690000017616e+000	 8.266680000012268e+000	 1.001277612845305e+001
0	 8.466690000017618e+000	 8.333350000014585e+000	 1.001197001958609e+001
0	 8.466690000017616e+000	 8.400020000016401e+000	 1.001117787255111e+001
0	 8.466690000017616e+000	 8.466690000017618e+000	 1.001039818989021e+001
0	 8.466690000017614e+000	 8.533360000018133e+000	 1.000962947414549e+001
0	 8.466690000017614e+000	 8.600030000017849e+000	 1.000887022785905e+001
0	 8.466690000017616e+000	 8.666700000016668e+000	 1.000811895357301e+001
0	 8.533360000018131e+000	 8.000000000000000e+000	 1.001523540753159e+001
0	 8.533360000018131e+000	 8.066670000003317e+000	 1.001441083999738e+001
0	 8.533360000018133e+000	 8.133340000006532e+000	 1.001360486159507e+001
0	 8.533360000018130e+000	 8.200010000009549e+000	 1.001281603630798e+001
0	 8.533360000018130e+000	 8.266680000012267e+000	 1.001204292811947e+001
0	 8.533360000018133e+000	 8.333350000014585e+000	 1.001128410101288e+001
0	 8.533360000018131e+000	 8.400020000016403e+000	 1.001053811897155e+001
0	 8.533360000018131e+000	 8.466690000017616e+000	 1.000980354597884e+001
0	 8.533360000018131e+000	 8.533360000018131e+000	 1.000907894601810e+001
0	 8.533360000018133e+000	 8.600030000017849e+000	 1.000836288307267e+001
0	 8.533360000018131e+000	 8.666700000016665e+000	 1.000765392112588e+001
0	 8.600030000017847e+000	 8.000000000000000e+000	 1.001431789609975e+001
0	 8.600030000017847e+000	 8.066670000003315e+000	 1.001354432815175e+001
0	 8.600030000017847e+000	 8.133340000006534e+000	 1.001278805680563e+001
0	 8.600030000017847e+000	 8.200010000009550e+000	 1.001204770565897e+001
0	 8.600030000017851e+000	 8.266680000012268e+000	 1.001132189830929e+001
0	 8.600030000017847e+000	 8.333350000014583e+000	 1.001060925835416e+001
0	 8.600030000017847e+000	 8.400020000016399e+000	 1.000990840939113e+001
0	 8.600030000017851e+000	 8.466690000017620e+000	 1.000921797501775e+001
0	 8.600030000017847e+000	 8.533360000018135e+000	 1.000853657883160e+001
0	 8.600030000017847e+000	 8.600030000017847e+000	 1.000786284443018e+001
0	 8.600030000017847e+000	 8.666700000016668e+000	 1.000719539541107e+001
0	 8.666700000016666e+000	 7.999999999999999e+000	 1.001341920882197e+001
0	 8.666700000016666e+000	 8.066670000003317e+000	 1.001269517967458e+001
0	 8.666700000016666e+000	 8.133340000006534e+000	 1.001198722908955e+001
0	 8.666700000016666e+000	 8.200010000009550e+000	 1.001129403845161e+001
0	 8.666700000016666e+000	 8.266680000012268e+000	 1.001061428914545e+001
0	 8.666700000016666e+000	 8.333350000014585e+000	 1.000994666255581e+001
0	 8.666700000016668e+000	 8.400020000016401e+000	 1.000928984006737e+001
0	 8.666700000016666e+000	 8.466690000017618e+000	 1.000864250306487e+001
0	 8.666700000016665e+000	 8.533360000018133e+000	 1.000800333293302e+001
0	 8.666700000016666e+000	 8.600030000017851e+000	 1.000737101105653e+001
0	 8.666700000016666e+000	 8.666700000016666e+000	 1.000674421882010e+001
0	 8.000000000000000e+000	 8.666700000016666e+000	 1.001148560831961e+001
0	 8.000000000000000e+000	 8.733360002791905e+000	 1.001045389761674e+001
0	 7.999999999999999e+000	 8.800020022230555e+000	 1.000947317675682e+001
0	 8.000000000000002e+000	 8.866680074997042e+000	 1.000854118831088e+001
0	 8.000000000000002e+000	 8.933340177755778e+000	 1.000765567470552e+001
0	 8.000000000000002e+000	 9.000000347171184e+000	 1.000681437822282e+001
0	 8.000000000000000e+000	 9.066660599907667e+000	 1.000601504100041e+001
0	 8.000000000000000e+000	 9.133320952629655e+000	 1.000525540503140e+001
0	 7.999999999999999e+000	 9.199981422001558e+000	 1.000453321216451e+001
0	 8.000000000000000e+000	 9.266642024687796e+000	 1.000384620410392e+001
0	 7.999999999999999e+000	 9.333302777352781e+000	 1.000319212240935e+001
0	 8.066670000003313e+000	 8.666700000016666e+000	 1.001099861570895e+001
0	 8.066670000003317e+000	 8.733360002791903e+000	 1.001001155309162e+001
0	 8.066670000003317e+000	 8.800020022230557e+000	 1.000907329024960e+001
0	 8.066670000003317e+000	 8.866680074997042e+000	 1.000818165356642e+001
0	 8.066670000003317e+000	 8.933340177755778e+000	 1.000733446928743e+001
0	 8.066670000003319e+000	 9.000000347171184e+000	 1.000652956351973e+001
0	 8.066670000003317e+000	 9.066660599907669e+000	 1.000576476223226e+001
0	 8.066670000003319e+000	 9.133320952629656e+000	 1.000503789125579e+001
0	 8.066670000003319e+000	 9.199981422001562e+000	 1.000434677628286e+001
0	 8.066670000003317e+000	 9.266642024687796e+000	 1.000368924286787e+001
0	 8.066670000003317e+000	 9.333302777352781e+000	 1.000306311642691e+001
0	 8.133340000006532e+000	 8.666700000016665e+000	 1.001051223308995e+001
0	 8.133340000006532e+000	 8.733360002791903e+000	 1.000956942195029e+001
0	 8.133340000006530e+000	 8.800020022230552e+000	 1.000867320984849e+001
0	 8.133340000006534e+000	 8.866680074997040e+000	 1.000782150826092e+001
0	 8.133340000006534e+000	 8.933340177755776e+000	 1.000701222853210e+001
0	 8.133340000006534e+000	 9.000000347171183e+000	 1.000624328187459e+001
0	 8.133340000006534e+000	 9.066660599907667e+000	 1.000551257936899e+001
0	 8.133340000006534e+000	 9.133320952629655e+000	 1.000481803196404e+001
0	 8.133340000006532e+000	 9.199981422001560e+000	 1.000415755047647e+001
0	 8.133340000006534e+000	 9.266642024687798e+000	 1.000352904559115e+001
0	 8.133340000006532e+000	 9.333302777352783e+000	 1.000293042786097e+001
0	 8.200010000009550e+000	 8.666700000016666e+000	 1.001002730285412e+001
0	 8.200010000009549e+000	 8.733360002791905e+000	 1.000912829958165e+001
0	 8.200010000009549e+000	 8.800020022230557e+000	 1.000827369889612e+001
0	 8.200010000009554e+000	 8.866680074997042e+000	 1.000746149864727e+001
0	 8.200010000009552e+000	 8.933340177755779e+000	 1.000668969655911e+001
0	 8.200010000009550e+000	 9.000000347171181e+000	 1.000595629022999e+001
0	 8.200010000009549e+000	 9.066660599907669e+000	 1.000525927713252e+001
0	 8.200010000009550e+000	 9.133320952629656e+000	 1.000459665461363e+001
0	 8.200010000009552e+000	 9.199981422001558e+000	 1.000396641989455e+001
0	 8.200010000009547e+000	 9.266642024687796e+000	 1.000336657007077e+001
0	 8.200010000009550e+000	 9.333302777352781e+000	 1.000279510211213e+001
0	 8.266680000012265e+000	 8.666700000016668e+000	 1.000954466739298e+001
0	 8.266680000012267e+000	 8.733360002791901e+000	 1.000868898137456e+001
0	 8.266680000012267e+000	 8.800020022230553e+000	 1.000787552073519e+001
0	 8.266680000012267e+000	 8.866680074997042e+000	 1.000710237097834e+001
0	 8.266680000012268e+000	 8.933340177755783e+000	 1.000636761748797e+001
0	 8.266680000012267e+000	 9.000000347171183e+000	 1.000566934552850e+001
0	 8.266680000012265e+000	 9.066660599907666e+000	 1.000500564024477e+001
0	 8.266680000012265e+000	 9.133320952629655e+000	 1.000437458666213e+001
0	 8.266680000012265e+000	 9.199981422001560e+000	 1.000377426968638e+001
0	 8.266680000012268e+000	 9.266642024687798e+000	 1.000320277410376e+001
0	 8.266680000012265e+000	 9.333302777352779e+000	 1.000265818458104e+001
0	 8.333350000014583e+000	 8.666700000016668e+000	 1.000906516909809e+001
0	 8.333350000014583e+000	 8.733360002791903e+000	 1.000825226271789e+001
0	 8.333350000014585e+000	 8.800020022230557e+000	 1.000747943870833e+001
0	 8.333350000014580e+000	 8.866680074997040e+000	 1.000674487150705e+001
0	 8.333350000014582e+000	 8.933340177755781e+000	 1.000604673543824e+001
0	 8.333350000014582e+000	 9.000000347171181e+000	 1.000538320471269e+001
0	 8.333350000014582e+000	 9.066660599907667e+000	 1.000475245342766e+001
0	 8.333350000014585e+000	 9.133320952629660e+000	 1.000415265556704e+001
0	 8.333350000014582e+000	 9.199981422001557e+000	 1.000358198500124e+001
0	 8.333350000014585e+000	 9.266642024687798e+000	 1.000303861548714e+001
0	 8.333350000014583e+000	 9.333302777352783e+000	 1.000252072066827e+001
0	 8.400020000016401e+000	 8.666700000016666e+000	 1.000858965036091e+001
0	 8.400020000016397e+000	 8.733360002791903e+000	 1.000781893900055e+001
0	 8.400020000016401e+000	 8.800020022230555e+000	 1.000708621615823e+001
0	 8.400020000016399e+000	 8.866680074997042e+000	 1.000638974648625e+001
0	 8.400020000016401e+000	 8.933340177755779e+000	 1.000572779452943e+001
0	 8.400020000016399e+000	 9.000000347171179e+000	 1.000509862472509e+001
0	 8.400020000016401e+000	 9.066660599907667e+000	 1.000450050140313e+001
0	 8.400020000016401e+000	 9.133320952629656e+000	 1.000393168878591e+001
0	 8.400020000016401e+000	 9.199981422001558e+000	 1.000339045098836e+001
0	 8.400020000016401e+000	 9.266642024687794e+000	 1.000287505201789e+001
0	 8.400020000016401e+000	 9.333302777352785e+000	 1.000238375577449e+001
0	 8.466690000017616e+000	 8.666700000016668e+000	 1.000811895357301e+001
0	 8.466690000017616e+000	 8.733360002791903e+000	 1.000738980561138e+001
0	 8.466690000017616e+000	 8.800020022230559e+000	 1.000669661642754e+001
0	 8.466690000017618e+000	 8.866680074997040e+000	 1.000603774216884e+001
0	 8.466690000017618e+000	 8.933340177755779e+000	 1.000541153888107e+001
0	 8.466690000017614e+000	 9.000000347171177e+000	 1.000481636250832e+001
0	 8.466690000017618e+000	 9.066660599907669e+000	 1.000425056889310e+001
0	 8.466690000017616e+000	 9.133320952629656e+000	 1.000371251377626e+001
0	 8.466690000017616e+000	 9.199981422001557e+000	 1.000320055279704e+001
0	 8.466690000017616e+000	 9.266642024687799e+000	 1.000271304149304e+001
0	 8.466690000017616e+000	 9.333302777352785e+000	 1.000224833530027e+001
0	 8.533360000018131e+000	 8.666700000016665e+000	 1.000765392112588e+001
0	 8.533360000018131e+000	 8.733360002791899e+000	 1.000696565793929e+001
0	 8.533360000018131e+000	 8.800020022230557e+000	 1.000631140285894e+001
0	 8.533360000018133e+000	 8.866680074997042e+000	 1.000568960480775e+001
0	 8.533360000018133e+000	 8.933340177755781e+000	 1.000509871261274e+001
0	 8.533360000018131e+000	 9.000000347171181e+000	 1.000453717500493e+001
0	 8.533360000018131e+000	 9.066660599907666e+000	 1.000400344061949e+001
0	 8.533360000018131e+000	 9.133320952629658e+000	 1.000349595799561e+001
0	 8.533360000018131e+000	 9.199981422001558e+000	 1.000301317557653e+001
0	 8.533360000018131e+000	 9.266642024687798e+000	 1.000255354170960e+001
0	 8.533360000018133e+000	 9.333302777352781e+000	 1.000211550464626e+001
0	 8.600030000017847e+000	 8.666700000016668e+000	 1.000719539541107e+001
0	 8.600030000017851e+000	 8.733360002791905e+000	 1.000654729137314e+001
0	 8.600030000017849e+000	 8.800020022230555e+000	 1.000593133879508e+001
0	 8.600030000017849e+000	 8.866680074997042e+000	 1.000534608065583e+001
0	 8.600030000017849e+000	 8.933340177755779e+000	 1.000479005984392e+001
0	 8.600030000017847e+000	 9.000000347171183e+000	 1.000426181915749e+001
0	 8.600030000017846e+000	 9.066660599907667e+000	 1.000375990130424e+001
0	 8.600030000017849e+000	 9.133320952629656e+000	 1.000328284890146e+001
0	 8.600030000017847e+000	 9.199981422001558e+000	 1.000282920447608e+001
0	 8.600030000017847e+000	 9.266642024687796e+000	 1.000239751046460e+001
0	 8.600030000017849e+000	 9.333302777352783e+000	 1.000198630921308e+001
0	 8.666700000016666e+000	 8.666700000016666e+000	 1.000674421882010e+001
0	 8.666700000016666e+000	 8.733360002791901e+000	 1.000613550130179e+001
0	 8.666700000016665e+000	 8.800020022230553e+000	 1.000555718757862e+001
0	 8.666700000016666e+000	 8.866680074997039e+000	 1.000500791596597e+001
0	 8.666700000016665e+000	 8.933340177755778e+000	 1.000448632469419e+001
0	 8.666700000016665e+000	 9.000000347171181e+000	 1.000399105190857e+001
0	 8.666700000016666e+000	 9.066660599907667e+000	 1.000352073566926e+001
0	 8.666700000016666e+000	 9.133320952629655e+000	 1.000307401395138e+001
0	 8.666700000016668e+000	 9.199981422001558e+000	 1.000264952464499e+001
0	 8.666700000016668e+000	 9.266642024687798e+000	 1.000224590555501e+001
0	 8.666700000016666e+000	 9.333302777352783e+000	 1.000186179440137e+001
0	 7.999999999999999e+000	 9.333302777352781e+000	 1.000319212240935e+001
0	 8.000000000000000e+000	 9.399973674588175e+000	 1.000258877412894e+001
0	 8.000000000000000e+000	 9.466644621844621e+000	 1.000205406568685e+001
0	 8.000000000000000e+000	 9.533315502449998e+000	 1.000158560137922e+001
0	 8.000000000000000e+000	 9.599986199732197e+000	 1.000118098693752e+001
0	 8.000000000000000e+000	 9.666656597019093e+000	 1.000083782952859e+001
0	 8.000000000000000e+000	 9.733326577638575e+000	 1.000055373775475e+001
0	 8.000000000000000e+000	 9.799996024918524e+000	 1.000032632165377e+001
0	 7.999999999999997e+000	 9.866664822186822e+000	 1.000015319269904e+001
0	 8.000000000000000e+000	 9.933332852771352e+000	 1.000003196379972e+001
0	 8.000000000000000e+000	 1.000000000000000e+001	 9.999960249301092e+000
0	 8.066670000003317e+000	 9.333302777352781e+000	 1.000306311642691e+001
0	 8.066670000003319e+000	 9.399973674588175e+000	 1.000248552317085e+001
0	 8.066670000003319e+000	 9.466644621844621e+000	 1.000197368989022e+001
0	 8.066670000003317e+000	 9.533315502449998e+000	 1.000152531875464e+001
0	 8.066670000003317e+000	 9.599986199732198e+000	 1.000113811330899e+001
0	 8.066670000003319e+000	 9.666656597019097e+000	 1.000080977847321e+001
0	 8.066670000003315e+000	 9.733326577638573e+000	 1.000053802054261e+001
0	 8.066670000003319e+000	 9.799996024918523e+000	 1.000032054718779e+001
0	 8.066670000003315e+000	 9.866664822186820e+000	 1.000015506745479e+001
0	 8.066670000003313e+000	 9.933332852771352e+000	 1.000003929176530e+001
0	 8.066670000003317e+000	 1.000000000000000e+001	 9.999970931916783e+000
0	 8.133340000006532e+000	 9.333302777352783e+000	 1.000293042786097e+001
0	 8.133340000006536e+000	 9.399973674588177e+000	 1.000237815729418e+001
0	 8.133340000006532e+000	 9.466644621844621e+000	 1.000188879713157e+001
0	 8.133340000006538e+000	 9.533315502450003e+000	 1.000146015066956e+001
0	 8.133340000006530e+000	 9.599986199732193e+000	 1.000109002251988e+001
0	 8.133340000006530e+000	 9.666656597019093e+000	 1.000077621860983e+001
0	 8.133340000006530e+000	 9.733326577638573e+000	 1.000051654618207e+001
0	 8.133340000006532e+000	 9.799996024918523e+000	 1.000030881379484e+001
0	 8.133340000006532e+000	 9.866664822186820e+000	 1.000015083132209e+001
0	 8.133340000006532e+000	 9.933332852771351e+000	 1.000004040995346e+001
0	 8.133340000006534e+000	 1.000000000000000e+001	 9.999975362194769e+000
0	 8.200010000009550e+000	 9.333302777352781e+000	 1.000279510211213e+001
0	 8.200010000009549e+000	 9.399973674588175e+000	 1.000226781314065e+001
0	 8.200010000009550e+000	 9.466644621844621e+000	 1.000180060758473e+001
0	 8.200010000009550e+000	 9.533315502450000e+000	 1.000139139312121e+001
0	 8.200010000009550e+000	 9.599986199732198e+000	 1.000103807868290e+001
0	 8.200010000009549e+000	 9.666656597019093e+000	 1.000073857445851e+001
0	 8.200010000009550e+000	 9.733326577638573e+000	 1.000049079189282e+001
0	 8.200010000009550e+000	 9.799996024918524e+000	 1.000029264368667e+001
0	 8.200010000009550e+000	 9.866664822186824e+000	 1.000014204379704e+001
0	 8.200010000009549e+000	 9.933332852771352e+000	 1.000003690743716e+001
0	 8.200010000009550e+000	 1.000000000000000e+001	 9.999975151076969e+000
0	 8.266680000012265e+000	 9.333302777352779e+000	 1.000265818458104e+001
0	 8.266680000012265e+000	 9.399973674588175e+000	 1.000215562735199e+001
0	 8.266680000012270e+000	 9.466644621844624e+000	 1.000171034142347e+001
0	 8.266680000012268e+000	 9.533315502450002e+000	 1.000132034210696e+001
0	 8.266680000012268e+000	 9.599986199732197e+000	 1.000098364591059e+001
0	 8.266680000012265e+000	 9.666656597019090e+000	 1.000069827053925e+001
0	 8.266680000012267e+000	 9.733326577638577e+000	 1.000046223489454e+001
0	 8.266680000012265e+000	 9.799996024918521e+000	 1.000027355907486e+001
0	 8.266680000012267e+000	 9.866664822186824e+000	 1.000013026437561e+001
0	 8.266680000012268e+000	 9.933332852771356e+000	 1.000003037328914e+001
0	 8.266680000012267e+000	 1.000000000000000e+001	 9.999971909505211e+000
0	 8.333350000014583e+000	 9.333302777352783e+000	 1.000252072066827e+001
0	 8.333350000014582e+000	 9.399973674588175e+000	 1.000204273656986e+001
0	 8.333350000014582e+000	 9.466644621844619e+000	 1.000161921882159e+001
0	 8.333350000014583e+000	 9.533315502449998e+000	 1.000124829362412e+001
0	 8.333350000014582e+000	 9.599986199732195e+000	 1.000092808831567e+001
0	 8.333350000014585e+000	 9.666656597019093e+000	 1.000065673137208e+001
0	 8.333350000014582e+000	 9.733326577638572e+000	 1.000043235240685e+001
0	 8.333350000014583e+000	 9.799996024918523e+000	 1.000025308217117e+001
0	 8.333350000014582e+000	 9.866664822186824e+000	 1.000011705255403e+001
0	 8.333350000014583e+000	 9.933332852771356e+000	 1.000002239658240e+001
0	 8.333350000014583e+000	 1.000000000000000e+001	 9.999967248421267e+000
0	 8.400020000016401e+000	 9.333302777352785e+000	 1.000238375577449e+001
0	 8.400020000016401e+000	 9.399973674588177e+000	 1.000193027743599e+001
0	 8.400020000016399e+000	 9.466644621844623e+000	 1.000152845995287e+001
0	 8.400020000016401e+000	 9.533315502450000e+000	 1.000117654366998e+001
0	 8.400020000016397e+000	 9.599986199732197e+000	 1.000087277001069e+001
0	 8.400020000016401e+000	 9.666656597019093e+000	 1.000061538147701e+001
0	 8.400020000016399e+000	 9.733326577638575e+000	 1.000040262164944e+001
0	 8.400020000016401e+000	 9.799996024918524e+000	 1.000023273518722e+001
0	 8.400020000016399e+000	 9.866664822186820e+000	 1.000010396782838e+001
0	 8.400020000016399e+000	 9.933332852771351e+000	 1.000001456638971e+001
0	 8.400020000016399e+000	 1.000000000000000e+001	 9.999962778767147e+000
0	 8.466690000017616e+000	 9.333302777352785e+000	 1.000224833530027e+001
0	 8.466690000017620e+000	 9.399973674588177e+000	 1.000181938659206e+001
0	 8.466690000017616e+000	 9.466644621844623e+000	 1.000143928499108e+001
0	 8.466690000017614e+000	 9.533315502450002e+000	 1.000110638824183e+001
0	 8.466690000017612e+000	 9.599986199732195e+000	 1.000081905510831e+001
0	 8.466690000017614e+000	 9.666656597019093e+000	 1.000057564537400e+001
0	 8.466690000017616e+000	 9.733326577638575e+000	 1.000037451984192e+001
0	 8.466690000017616e+000	 9.799996024918524e+000	 1.000021404033472e+001
0	 8.466690000017612e+000	 9.866664822186820e+000	 1.000009256969472e+001
0	 8.466690000017616e+000	 9.933332852771352e+000	 1.000000847178399e+001
0	 8.466690000017616e+000	 1.000000000000000e+001	 9.999960111484565e+000
0	 8.533360000018133e+000	 9.333302777352781e+000	 1.000211550464626e+001
0	 8.533360000018131e+000	 9.399973674588177e+000	 1.000171120067980e+001
0	 8.533360000018131e+000	 9.466644621844617e+000	 1.000135291411005e+001
0	 8.533360000018131e+000	 9.533315502450000e+000	 1.000103912333704e+001
0	 8.533360000018131e+000	 9.599986199732197e+000	 1.000076830772118e+001
0	 8.533360000018131e+000	 9.666656597019093e+000	 1.000053894758313e+001
0	 8.533360000018135e+000	 9.733326577638573e+000	 1.000034952420402e+001
0	 8.533360000018133e+000	 9.799996024918524e+000	 1.000019851982536e+001
0	 8.533360000018130e+000	 9.866664822186822e+000	 1.000008441764916e+001
0	 8.533360000018131e+000	 9.933332852771356e+000	 1.000000570183811e+001
0	 8.533360000018131e+000	 1.000000000000000e+001	 9.999960857515591e+000
0	 8.600030000017849e+000	 9.333302777352783e+000	 1.000198630921308e+001
0	 8.600030000017847e+000	 9.399973674588178e+000	 1.000160685634091e+001
0	 8.600030000017849e+000	 9.466644621844621e+000	 1.000127056748354e+001
0	 8.600030000017849e+000	 9.533315502450003e+000	 1.000097604495289e+001
0	 8.600030000017849e+000	 9.599986199732197e+000	 1.000072189196190e+001
0	 8.600030000017847e+000	 9.666656597019093e+000	 1.000050671262443e+001
0	 8.600030000017847e+000	 9.733326577638575e+000	 1.000032911195535e+001
0	 8.600030000017849e+000	 9.799996024918521e+000	 1.000018769587076e+001
0	 8.600030000017849e+000	 9.866664822186822e+000	 1.000008107118780e+001
0	 8.600030000017846e+000	 9.933332852771352e+000	 1.000000784562489e+001
0	 8.600030000017849e+000	 1.000000000000000e+001	 9.999966627801975e+000
0	 8.666700000016666e+000	 9.333302777352783e+000	 1.000186179440137e+001
0	 8.666700000016668e+000	 9.399973674588178e+000	 1.000150749021705e+001
0	 8.666700000016666e+000	 9.466644621844619e+000	 1.000119346528533e+001
0	 8.666700000016668e+000	 9.533315502450000e+000	 1.000091844908671e+001
0	 8.666700000016665e+000	 9.599986199732197e+000	 1.000068117194312e+001
0	 8.666700000016666e+000	 9.666656597019095e+000	 1.000048036501784e+001
0	 8.666700000016668e+000	 9.733326577638577e+000	 1.000031476031561e+001
0	 8.666700000016668e+000	 9.799996024918521e+000	 1.000018309068262e+001
0	 8.666700000016666e+000	 9.866664822186822e+000	 1.000008408980670e+001
0	 8.666700000016666e+000	 9.933332852771352e+000	 1.000001649221724e+001
0	 8.666700000016666e+000	 1.000000000000000e+001	 9.999979033285422e+000
0	 8.666700000016666e+000	 0.000000000000000e+000	 9.883436916050403e+000
0	 8.666700000016668e+000	 6.666714722864757e-002	 9.883540587175331e+000
0	 8.666700000016665e+000	 1.333351778131789e-001	 9.883753913474887e+000
0	 8.666700000016668e+000	 2.000039750814772e-001	 9.884077981267462e+000
0	 8.666700000016666e+000	 2.666734223614256e-001	 9.884513878697650e+000
0	 8.666700000016666e+000	 3.333434029809069e-001	 9.885062695736037e+000
0	 8.666700000016668e+000	 4.000138002678044e-001	 9.885725524179104e+000
0	 8.666700000016665e+000	 4.666844975500011e-001	 9.886503457649203e+000
0	 8.666700000016666e+000	 5.333553781553801e-001	 9.887397591594546e+000
0	 8.666700000016666e+000	 6.000263254118248e-001	 9.888409023289201e+000
0	 8.666700000016668e+000	 6.666972226472177e-001	 9.889538851833230e+000
0	 8.733360002791903e+000	 0.000000000000000e+000	 9.873840733781226e+000
0	 8.733360002791903e+000	 6.666714722864754e-002	 9.873943568994131e+000
0	 8.733360002791905e+000	 1.333351778131790e-001	 9.874159509448351e+000
0	 8.733360002791903e+000	 2.000039750814772e-001	 9.874489551933975e+000
0	 8.733360002791899e+000	 2.666734223614254e-001	 9.874934695060917e+000
0	 8.733360002791903e+000	 3.333434029809069e-001	 9.875495939258746e+000
0	 8.733360002791901e+000	 4.000138002678044e-001	 9.876174286776575e+000
0	 8.733360002791903e+000	 4.666844975500011e-001	 9.876970741683019e+000
0	 8.733360002791903e+000	 5.333553781553803e-001	 9.877886309866188e+000
0	 8.733360002791903e+000	 6.000263254118247e-001	 9.878921999033707e+000
0	 8.733360002791901e+000	 6.666972226472175e-001	 9.880078818712850e+000
0	 8.800020022230555e+000	 0.000000000000000e+000	 9.864128298705916e+000
0	 8.800020022230559e+000	 6.666714722864756e-002	 9.864227338543172e+000
0	 8.800020022230555e+000	 1.333351778131790e-001	 9.864442930780935e+000
0	 8.800020022230553e+000	 2.000039750814773e-001	 9.864775987917072e+000
0	 8.800020022230553e+000	 2.666734223614256e-001	 9.865227424267545e+000
0	 8.800020022230555e+000	 3.333434029809069e-001	 9.865798155966221e+000
0	 8.800020022230555e+000	 4.000138002678044e-001	 9.866489100964806e+000
0	 8.800020022230553e+000	 4.666844975500011e-001	 9.867301179032820e+000
0	 8.800020022230555e+000	 5.333553781553803e-001	 9.868235311757491e+000
0	 8.800020022230557e+000	 6.000263254118248e-001	 9.869292422543909e+000
0	 8.800020022230555e+000	 6.666972226472178e-001	 9.870473436615036e+000
0	 8.866680074997039e+000	 0.000000000000000e+000	 9.854275161643180e+000
0	 8.866680074997042e+000	 6.666714722864756e-002	 9.854368324171331e+000
0	 8.866680074997039e+000	 1.333351778131790e-001	 9.854581526803544e+000
0	 8.866680074997039e+000	 2.000039750814772e-001	 9.854915602984802e+000
0	 8.866680074997042e+000	 2.666734223614256e-001	 9.855371387981553e+000
0	 8.866680074997037e+000	 3.333434029809068e-001	 9.855949718881513e+000
0	 8.866680074997040e+000	 4.000138002678043e-001	 9.856651434593639e+000
0	 8.866680074997037e+000	 4.666844975500011e-001	 9.857477375847981e+000
0	 8.866680074997040e+000	 5.333553781553804e-001	 9.858428385195765e+000
0	 8.866680074997040e+000	 6.000263254118248e-001	 9.859505307009393e+000
0	 8.866680074997040e+000	 6.666972226472177e-001	 9.860708987482502e+000
0	 8.933340177755776e+000	 0.000000000000000e+000	 9.844256873232459e+000
0	 8.933340177755774e+000	 6.666714722864754e-002	 9.844342954045303e+000
0	 8.933340177755776e+000	 1.333351778131789e-001	 9.844552646662644e+000
0	 8.933340177755778e+000	 2.000039750814772e-001	 9.844886710719200e+000
0	 8.933340177755778e+000	 2.666734223614256e-001	 9.845345907680056e+000
0	 8.933340177755776e+000	 3.333434029809069e-001	 9.845931000840515e+000
0	 8.933340177755779e+000	 4.000138002678044e-001	 9.846642755325995e+000
0	 8.933340177755776e+000	 4.666844975500011e-001	 9.847481938091985e+000
0	 8.933340177755774e+000	 5.333553781553801e-001	 9.848449317923986e+000
0	 8.933340177755778e+000	 6.000263254118247e-001	 9.849545665437624e+000
0	 8.933340177755774e+000	 6.666972226472175e-001	 9.850771753078682e+000
0	 9.000000347171181e+000	 0.000000000000000e+000	 9.834048983933943e+000
0	 9.000000347171181e+000	 6.666714722864757e-002	 9.834127656149647e+000
0	 9.000000347171179e+000	 1.333351778131790e-001	 9.834333639320315e+000
0	 9.000000347171177e+000	 2.000039750814772e-001	 9.834667624516294e+000
0	 9.000000347171177e+000	 2.666734223614256e-001	 9.835130304653216e+000
0	 9.000000347171181e+000	 3.333434029809069e-001	 9.835722374491846e+000
0	 9.000000347171177e+000	 4.000138002678043e-001	 9.836444530637980e+000
0	 9.000000347171177e+000	 4.666844975500010e-001	 9.837297471542389e+000
0	 9.000000347171181e+000	 5.333553781553801e-001	 9.838281897500792e+000
0	 9.000000347171179e+000	 6.000263254118249e-001	 9.839398510653943e+000
0	 9.000000347171181e+000	 6.666972226472179e-001	 9.840648014987673e+000
0	 9.066660599907666e+000	 0.000000000000000e+000	 9.823627044028580e+000
0	 9.066660599907666e+000	 6.666714722864754e-002	 9.823698858286738e+000
0	 9.066660599907666e+000	 1.333351778131789e-001	 9.823901853554219e+000
0	 9.066660599907667e+000	 2.000039750814773e-001	 9.824236657586146e+000
0	 9.066660599907667e+000	 2.666734223614256e-001	 9.824703900004288e+000
0	 9.066660599907666e+000	 3.333434029809069e-001	 9.825304212296929e+000
0	 9.066660599907666e+000	 4.000138002678044e-001	 9.826038227818769e+000
0	 9.066660599907666e+000	 4.666844975500011e-001	 9.826906581790837e+000
0	 9.066660599907666e+000	 5.333553781553800e-001	 9.827909911300530e+000
0	 9.066660599907667e+000	 6.000263254118249e-001	 9.829048855301588e+000
0	 9.066660599907666e+000	 6.666972226472179e-001	 9.830324054614234e+000
0	 9.133320952629653e+000	 0.000000000000000e+000	 9.812966603618062e+000
0	 9.133320952629653e+000	 6.666714722864756e-002	 9.813032988076810e+000
0	 9.133320952629653e+000	 1.333351778131790e-001	 9.813234637957638e+000
0	 9.133320952629653e+000	 2.000039750814772e-001	 9.813572122952831e+000
0	 9.133320952629651e+000	 2.666734223614255e-001	 9.814046014649595e+000
0	 9.133320952629653e+000	 3.333434029809069e-001	 9.814656886529972e+000
0	 9.133320952629655e+000	 4.000138002678045e-001	 9.815405313970686e+000
0	 9.133320952629655e+000	 4.666844975500011e-001	 9.816291874243092e+000
0	 9.133320952629653e+000	 5.333553781553803e-001	 9.817317146513195e+000
0	 9.133320952629653e+000	 6.000263254118247e-001	 9.818481711841640e+000
0	 9.133320952629653e+000	 6.666972226472175e-001	 9.819786153183850e+000
0	 9.199981422001557e+000	 0.000000000000000e+000	 9.802043212624856e+000
0	 9.199981422001557e+000	 6.666714722864754e-002	 9.802106472957927e+000
0	 9.199981422001555e+000	 1.333351778131789e-001	 9.802309340939441e+000
0	 9.199981422001557e+000	 2.000039750814773e-001	 9.802652333454416e+000
0	 9.199981422001557e+000	 2.666734223614256e-001	 9.803135969318538e+000
0	 9.199981422001553e+000	 3.333434029809068e-001	 9.803760769277950e+000
0	 9.199981422001555e+000	 4.000138002678044e-001	 9.804527256009186e+000
0	 9.199981422001553e+000	 4.666844975500012e-001	 9.805435954118995e+000
0	 9.199981422001557e+000	 5.333553781553803e-001	 9.806487390144495e+000
0	 9.199981422001553e+000	 6.000263254118247e-001	 9.807682092553106e+000
0	 9.199981422001555e+000	 6.666972226472177e-001	 9.809020591742639e+000
0	 9.266642024687792e+000	 0.000000000000000e+000	 9.790832420792162e+000
0	 9.266642024687792e+000	 6.666714722864757e-002	 9.790895740186034e+000
0	 9.266642024687791e+000	 1.333351778131789e-001	 9.791103310724102e+000
0	 9.266642024687792e+000	 2.000039750814772e-001	 9.791455601743019e+000
0	 9.266642024687792e+000	 2.666734223614256e-001	 9.791953084553624e+000
0	 9.266642024687791e+000	 3.333434029809069e-001	 9.792596232440687e+000
0	 9.266642024687792e+000	 4.000138002678044e-001	 9.793385520662845e+000
0	 9.266642024687792e+000	 4.666844975500012e-001	 9.794321426452498e+000
0	 9.266642024687791e+000	 5.333553781553803e-001	 9.795404429015836e+000
0	 9.266642024687792e+000	 6.000263254118247e-001	 9.796635009532860e+000
0	 9.266642024687791e+000	 6.666972226472177e-001	 9.798013651157463e+000
0	 9.333302777352781e+000	 0.000000000000000e+000	 9.779309777683983e+000
0	 9.333302777352785e+000	 6.666714722864757e-002	 9.779377216834917e+000
0	 9.333302777352785e+000	 1.333351778131789e-001	 9.779593895351701e+000
0	 9.333302777352783e+000	 2.000039750814772e-001	 9.779960240284765e+000
0	 9.333302777352779e+000	 2.666734223614256e-001	 9.780476680710423e+000
0	 9.333302777352783e+000	 3.333434029809070e-001	 9.781143647730744e+000
0	 9.333302777352783e+000	 4.000138002678045e-001	 9.781961574473419e+000
0	 9.333302777352783e+000	 4.666844975500011e-001	 9.782930896091679e+000
0	 9.333302777352781e+000	 5.333553781553801e-001	 9.784052049764309e+000
0	 9.333302777352785e+000	 6.000263254118248e-001	 9.785325474695691e+000
0	 9.333302777352783e+000	 6.666972226472177e-001	 9.786751612115872e+000
0	 8.666700000016668e+000	 6.666972226472177e-001	 9.889538851833230e+000
0	 8.666700000016666e+000	 7.333579753122049e-001	 9.890767257716082e+000
0	 8.666700000016668e+000	 8.000185779984418e-001	 9.892075321449608e+000
0	 8.666700000016666e+000	 8.666790473703454e-001	 9.893464958187948e+000
0	 8.666700000016666e+000	 9.333394000923322e-001	 9.894938082886979e+000
0	 8.666700000016665e+000	 9.999996528288188e-001	 9.896496610304391e+000
0	 8.666700000016665e+000	 1.066659822244222e+000	 9.898142454999629e+000
0	 8.666700000016668e+000	 1.133319925002959e+000	 9.899877531333916e+000
0	 8.666700000016666e+000	 1.199979977769445e+000	 9.901703753470263e+000
0	 8.666700000016666e+000	 1.266639997208098e+000	 9.903623035373460e+000
0	 8.666700000016668e+000	 1.333299999983334e+000	 9.905637290810073e+000
0	 8.733360002791901e+000	 6.666972226472175e-001	 9.880078818712850e+000
0	 8.733360002791901e+000	 7.333579753122047e-001	 9.881336534185639e+000
0	 8.733360002791903e+000	 8.000185779984418e-001	 9.882675782499954e+000
0	 8.733360002791901e+000	 8.666790473703453e-001	 9.884098334101969e+000
0	 8.733360002791901e+000	 9.333394000923322e-001	 9.885605959241467e+000
0	 8.733360002791901e+000	 9.999996528288190e-001	 9.887200427971848e+000
0	 8.733360002791901e+000	 1.066659822244222e+000	 9.888883510150130e+000
0	 8.733360002791899e+000	 1.133319925002958e+000	 9.890656975436947e+000
0	 8.733360002791903e+000	 1.199979977769445e+000	 9.892522593296549e+000
0	 8.733360002791901e+000	 1.266639997208098e+000	 9.894482132996831e+000
0	 8.733360002791901e+000	 1.333299999983334e+000	 9.896537363609301e+000
0	 8.800020022230555e+000	 6.666972226472178e-001	 9.870473436615036e+000
0	 8.800020022230553e+000	 7.333579753122048e-001	 9.871758193531274e+000
0	 8.800020022230557e+000	 8.000185779984420e-001	 9.873127381876328e+000
0	 8.800020022230553e+000	 8.666790473703454e-001	 9.874582642178522e+000
0	 8.800020022230559e+000	 9.333394000923323e-001	 9.876125614769554e+000
0	 8.800020022230557e+000	 9.999996528288190e-001	 9.877757939784479e+000
0	 8.800020022230553e+000	 1.066659822244222e+000	 9.879481257161686e+000
0	 8.800020022230553e+000	 1.133319925002959e+000	 9.881297206642929e+000
0	 8.800020022230555e+000	 1.199979977769445e+000	 9.883207427773311e+000
0	 8.800020022230555e+000	 1.266639997208098e+000	 9.885213559901303e+000
0	 8.800020022230553e+000	 1.333299999983334e+000	 9.887317242178730e+000
0	 8.866680074997040e+000	 6.666972226472177e-001	 9.860708987482502e+000
0	 8.866680074997040e+000	 7.333579753122049e-001	 9.862019725001408e+000
0	 8.866680074997040e+000	 8.000185779984416e-001	 9.863418650128274e+000
0	 8.866680074997040e+000	 8.666790473703453e-001	 9.864907288261998e+000
0	 8.866680074997044e+000	 9.333394000923324e-001	 9.866487164602697e+000
0	 8.866680074997040e+000	 9.999996528288191e-001	 9.868159804151732e+000
0	 8.866680074997039e+000	 1.066659822244222e+000	 9.869926731711685e+000
0	 8.866680074997040e+000	 1.133319925002959e+000	 9.871789471886357e+000
0	 8.866680074997040e+000	 1.199979977769445e+000	 9.873749549080786e+000
0	 8.866680074997040e+000	 1.266639997208098e+000	 9.875808487501260e+000
0	 8.866680074997042e+000	 1.333299999983334e+000	 9.877967811155283e+000
0	 8.933340177755774e+000	 6.666972226472175e-001	 9.850771753078682e+000
0	 8.933340177755776e+000	 7.333579753122049e-001	 9.852108617668515e+000
0	 8.933340177755776e+000	 8.000185779984416e-001	 9.853538117633379e+000
0	 8.933340177755776e+000	 8.666790473703450e-001	 9.855061678029353e+000
0	 8.933340177755776e+000	 9.333394000923323e-001	 9.856680723709944e+000
0	 8.933340177755774e+000	 9.999996528288190e-001	 9.858396679326221e+000
0	 8.933340177755778e+000	 1.066659822244222e+000	 9.860210969326699e+000
0	 8.933340177755778e+000	 1.133319925002959e+000	 9.862125017957416e+000
0	 8.933340177755776e+000	 1.199979977769445e+000	 9.864140249261871e+000
0	 8.933340177755778e+000	 1.266639997208098e+000	 9.866258087081098e+000
0	 8.933340177755778e+000	 1.333299999983334e+000	 9.868479955053635e+000
0	 9.000000347171181e+000	 6.666972226472179e-001	 9.840648014987673e+000
0	 9.000000347171177e+000	 7.333579753122046e-001	 9.842012360429147e+000
0	 9.000000347171181e+000	 8.000185779984416e-001	 9.843474314597280e+000
0	 9.000000347171179e+000	 8.666790473703456e-001	 9.845035216990089e+000
0	 9.000000347171177e+000	 9.333394000923322e-001	 9.846696406897969e+000
0	 9.000000347171179e+000	 9.999996528288189e-001	 9.848459223403712e+000
0	 9.000000347171179e+000	 1.066659822244222e+000	 9.850325005382505e+000
0	 9.000000347171181e+000	 1.133319925002959e+000	 9.852295091501961e+000
0	 9.000000347171175e+000	 1.199979977769445e+000	 9.854370820222046e+000
0	 9.000000347171181e+000	 1.266639997208098e+000	 9.856553529795185e+000
0	 9.000000347171179e+000	 1.333299999983334e+000	 9.858844558266162e+000
0	 9.066660599907666e+000	 6.666972226472179e-001	 9.830324054614234e+000
0	 9.066660599907667e+000	 7.333579753122049e-001	 9.831718442003920e+000
0	 9.066660599907667e+000	 8.000185779984419e-001	 9.833215771053618e+000
0	 9.066660599907667e+000	 8.666790473703456e-001	 9.834817310486287e+000
0	 9.066660599907664e+000	 9.333394000923322e-001	 9.836524328811013e+000
0	 9.066660599907666e+000	 9.999996528288190e-001	 9.838338094323108e+000
0	 9.066660599907667e+000	 1.066659822244222e+000	 9.840259875104060e+000
0	 9.066660599907664e+000	 1.133319925002959e+000	 9.842290939021549e+000
0	 9.066660599907667e+000	 1.199979977769445e+000	 9.844432553729465e+000
0	 9.066660599907666e+000	 1.266639997208098e+000	 9.846685986667850e+000
0	 9.066660599907666e+000	 1.333299999983334e+000	 9.849052505063003e+000
0	 9.133320952629653e+000	 6.666972226472175e-001	 9.819786153183847e+000
0	 9.133320952629651e+000	 7.333579753122048e-001	 9.821214350937536e+000
0	 9.133320952629651e+000	 8.000185779984417e-001	 9.822751016864117e+000
0	 9.133320952629649e+000	 8.666790473703453e-001	 9.824397363692565e+000
0	 9.133320952629655e+000	 9.333394000923322e-001	 9.826154603930954e+000
0	 9.133320952629653e+000	 9.999996528288191e-001	 9.828023949866497e+000
0	 9.133320952629649e+000	 1.066659822244222e+000	 9.830006613565519e+000
0	 9.133320952629653e+000	 1.133319925002959e+000	 9.832103806873453e+000
0	 9.133320952629651e+000	 1.199979977769445e+000	 9.834316741414872e+000
0	 9.133320952629651e+000	 1.266639997208098e+000	 9.836646628593460e+000
0	 9.133320952629653e+000	 1.333299999983334e+000	 9.839094679592034e+000
0	 9.199981422001555e+000	 6.666972226472177e-001	 9.809020591742639e+000
0	 9.199981422001560e+000	 7.333579753122049e-001	 9.810487575598794e+000
0	 9.199981422001557e+000	 8.000185779984418e-001	 9.812068581718528e+000
0	 9.199981422001553e+000	 8.666790473703452e-001	 9.813764781616134e+000
0	 9.199981422001557e+000	 9.333394000923324e-001	 9.815577346577289e+000
0	 9.199981422001555e+000	 9.999996528288189e-001	 9.817507447659137e+000
0	 9.199981422001555e+000	 1.066659822244222e+000	 9.819556255690246e+000
0	 9.199981422001557e+000	 1.133319925002959e+000	 9.821724941270606e+000
0	 9.199981422001557e+000	 1.199979977769445e+000	 9.824014674771689e+000
0	 9.199981422001553e+000	 1.266639997208097e+000	 9.826426626336330e+000
0	 9.199981422001555e+000	 1.333299999983334e+000	 9.828961965878868e+000
0	 9.266642024687791e+000	 6.666972226472177e-001	 9.798013651157463e+000
0	 9.266642024687791e+000	 7.333579753122047e-001	 9.799525604180559e+000
0	 9.266642024687792e+000	 8.000185779984417e-001	 9.801156995134679e+000
0	 9.266642024687791e+000	 8.666790473703453e-001	 9.802908969096748e+000
0	 9.266642024687792e+000	 9.333394000923320e-001	 9.804782670907089e+000
0	 9.266642024687792e+000	 9.999996528288190e-001	 9.806779245169432e+000
0	 9.266642024687794e+000	 1.066659822244222e+000	 9.808899836250804e+000
0	 9.266642024687789e+000	 1.133319925002959e+000	 9.811145588281685e+000
0	 9.266642024687791e+000	 1.199979977769445e+000	 9.813517645155930e+000
0	 9.266642024687794e+000	 1.266639997208098e+000	 9.816017150530781e+000
0	 9.266642024687792e+000	 1.333299999983334e+000	 9.818645247826858e+000
0	 9.333302777352783e+000	 6.666972226472177e-001	 9.786751612115872e+000
0	 9.333302777352783e+000	 7.333579753122046e-001	 9.788315924699795e+000
0	 9.333302777352783e+000	 8.000185779984417e-001	 9.790004786458416e+000
0	 9.333302777352781e+000	 8.666790473703453e-001	 9.791819330806774e+000
0	 9.333302777352781e+000	 9.333394000923320e-001	 9.793760690915129e+000
0	 9.333302777352783e+000	 9.999996528288190e-001	 9.795829999708953e+000
0	 9.333302777352785e+000	 1.066659822244222e+000	 9.798028389868961e+000
0	 9.333302777352785e+000	 1.133319925002959e+000	 9.800356993831034e+000
0	 9.333302777352785e+000	 1.199979977769445e+000	 9.802816943786317e+000
0	 9.333302777352785e+000	 1.266639997208098e+000	 9.805409371681161e+000
0	 9.333302777352785e+000	 1.333299999983334e+000	 9.808135409217121e+000
0	 8.666700000016668e+000	 1.333299999983334e+000	 9.905637290810073e+000
0	 8.666700000016668e+000	 1.399969999982150e+000	 9.907720896699042e+000
0	 8.666700000016666e+000	 1.466639999981866e+000	 9.909848442311828e+000
0	 8.666700000016666e+000	 1.533309999982383e+000	 9.912023087958966e+000
0	 8.666700000016665e+000	 1.599979999983599e+000	 9.914247993951003e+000
0	 8.666700000016665e+000	 1.666649999985416e+000	 9.916526320598495e+000
0	 8.666700000016666e+000	 1.733319999987733e+000	 9.918861228212005e+000
0	 8.666700000016665e+000	 1.799989999990450e+000	 9.921255877102073e+000
0	 8.666700000016666e+000	 1.866659999993466e+000	 9.923713427579235e+000
0	 8.666700000016665e+000	 1.933329999996683e+000	 9.926237039954080e+000
0	 8.666700000016668e+000	 2.000000000000000e+000	 9.928829874537120e+000
0	 8.733360002791901e+000	 1.333299999983334e+000	 9.896537363609301e+000
0	 8.733360002791901e+000	 1.399969999982150e+000	 9.898664664560748e+000
0	 8.733360002791901e+000	 1.466639999981867e+000	 9.900840342644591e+000
0	 8.733360002791901e+000	 1.533309999982383e+000	 9.903067004579334e+000
0	 8.733360002791901e+000	 1.599979999983600e+000	 9.905347257083452e+000
0	 8.733360002791905e+000	 1.666649999985416e+000	 9.907683706875430e+000
0	 8.733360002791901e+000	 1.733319999987733e+000	 9.910078960673742e+000
0	 8.733360002791905e+000	 1.799989999990450e+000	 9.912535625196904e+000
0	 8.733360002791903e+000	 1.866659999993466e+000	 9.915056307163370e+000
0	 8.733360002791903e+000	 1.933329999996684e+000	 9.917643613291656e+000
0	 8.733360002791905e+000	 2.000000000000000e+000	 9.920300150300236e+000
0	 8.800020022230553e+000	 1.333299999983334e+000	 9.887317242178733e+000
0	 8.800020022230555e+000	 1.399969999982150e+000	 9.889495987257062e+000
0	 8.800020022230555e+000	 1.466639999981866e+000	 9.891726992899960e+000
0	 8.800020022230555e+000	 1.533309999982383e+000	 9.894012394728751e+000
0	 8.800020022230557e+000	 1.599979999983600e+000	 9.896354328364716e+000
0	 8.800020022230555e+000	 1.666649999985416e+000	 9.898754929429154e+000
0	 8.800020022230557e+000	 1.733319999987733e+000	 9.901216333543367e+000
0	 8.800020022230553e+000	 1.799989999990450e+000	 9.903740676328660e+000
0	 8.800020022230553e+000	 1.866659999993466e+000	 9.906330093406313e+000
0	 8.800020022230555e+000	 1.933329999996683e+000	 9.908986720397664e+000
0	 8.800020022230555e+000	 2.000000000000000e+000	 9.911712692923969e+000
0	 8.866680074997042e+000	 1.333299999983334e+000	 9.877967811155287e+000
0	 8.866680074997042e+000	 1.399969999982150e+000	 9.880205426941934e+000
0	 8.866680074997040e+000	 1.466639999981867e+000	 9.882498727460552e+000
0	 8.866680074997040e+000	 1.533309999982383e+000	 9.884849459730388e+000
0	 8.866680074997042e+000	 1.599979999983599e+000	 9.887259370770670e+000
0	 8.866680074997040e+000	 1.666649999985416e+000	 9.889730207600687e+000
0	 8.866680074997042e+000	 1.733319999987733e+000	 9.892263717239652e+000
0	 8.866680074997044e+000	 1.799989999990450e+000	 9.894861646706840e+000
0	 8.866680074997042e+000	 1.866659999993466e+000	 9.897525743021479e+000
0	 8.866680074997040e+000	 1.933329999996683e+000	 9.900257753202833e+000
0	 8.866680074997044e+000	 2.000000000000000e+000	 9.903059424270159e+000
0	 8.933340177755778e+000	 1.333299999983334e+000	 9.868479955053635e+000
0	 8.933340177755774e+000	 1.399969999982150e+000	 9.870783545655183e+000
0	 8.933340177755776e+000	 1.466639999981867e+000	 9.873145880603170e+000
0	 8.933340177755776e+000	 1.533309999982383e+000	 9.875568400810076e+000
0	 8.933340177755778e+000	 1.599979999983600e+000	 9.878052547188366e+000
0	 8.933340177755778e+000	 1.666649999985416e+000	 9.880599760650513e+000
0	 8.933340177755776e+000	 1.733319999987733e+000	 9.883211482109001e+000
0	 8.933340177755776e+000	 1.799989999990450e+000	 9.885889152476294e+000
0	 8.933340177755772e+000	 1.866659999993466e+000	 9.888634212664886e+000
0	 8.933340177755774e+000	 1.933329999996683e+000	 9.891448103587241e+000
0	 8.933340177755776e+000	 2.000000000000000e+000	 9.894332266155848e+000
0	 9.000000347171179e+000	 1.333299999983334e+000	 9.858844558266162e+000
0	 9.000000347171181e+000	 1.399969999982150e+000	 9.861220905322442e+000
0	 9.000000347171179e+000	 1.466639999981866e+000	 9.863658786498849e+000
0	 9.000000347171181e+000	 1.533309999982383e+000	 9.866159419096375e+000
0	 9.000000347171179e+000	 1.599979999983600e+000	 9.868724020415995e+000
0	 9.000000347171175e+000	 1.666649999985416e+000	 9.871353807758700e+000
0	 9.000000347171181e+000	 1.733319999987733e+000	 9.874049998425491e+000
0	 9.000000347171177e+000	 1.799989999990449e+000	 9.876813809717350e+000
0	 9.000000347171177e+000	 1.866659999993466e+000	 9.879646458935264e+000
0	 9.000000347171179e+000	 1.933329999996683e+000	 9.882549163380237e+000
0	 9.000000347171177e+000	 2.000000000000000e+000	 9.885523140353246e+000
0	 9.066660599907666e+000	 1.333299999983334e+000	 9.849052505063007e+000
0	 9.066660599907664e+000	 1.399969999982150e+000	 9.851508067755203e+000
0	 9.066660599907664e+000	 1.466639999981866e+000	 9.854027779212800e+000
0	 9.066660599907667e+000	 1.533309999982383e+000	 9.856612715620488e+000
0	 9.066660599907664e+000	 1.599979999983599e+000	 9.859263953162936e+000
0	 9.066660599907666e+000	 1.666649999985416e+000	 9.861982568024835e+000
0	 9.066660599907666e+000	 1.733319999987733e+000	 9.864769636390845e+000
0	 9.066660599907666e+000	 1.799989999990450e+000	 9.867626234445682e+000
0	 9.066660599907667e+000	 1.866659999993466e+000	 9.870553438373987e+000
0	 9.066660599907666e+000	 1.933329999996683e+000	 9.873552324360469e+000
0	 9.066660599907667e+000	 2.000000000000000e+000	 9.876623968589813e+000
0	 9.133320952629653e+000	 1.333299999983334e+000	 9.839094679592037e+000
0	 9.133320952629651e+000	 1.399969999982150e+000	 9.841635594650793e+000
0	 9.133320952629651e+000	 1.466639999981867e+000	 9.844243192704447e+000
0	 9.133320952629653e+000	 1.533309999982383e+000	 9.846918491316334e+000
0	 9.133320952629655e+000	 1.599979999983600e+000	 9.849662508049759e+000
0	 9.133320952629651e+000	 1.666649999985416e+000	 9.852476260468022e+000
0	 9.133320952629655e+000	 1.733319999987733e+000	 9.855360766134464e+000
0	 9.133320952629651e+000	 1.799989999990450e+000	 9.858317042612381e+000
0	 9.133320952629655e+000	 1.866659999993466e+000	 9.861346107465096e+000
0	 9.133320952629653e+000	 1.933329999996683e+000	 9.864448978255920e+000
0	 9.133320952629653e+000	 2.000000000000000e+000	 9.867626672548177e+000
0	 9.199981422001555e+000	 1.333299999983334e+000	 9.828961965878865e+000
0	 9.199981422001555e+000	 1.399969999982150e+000	 9.831594047592384e+000
0	 9.199981422001557e+000	 1.466639999981867e+000	 9.834295360827424e+000
0	 9.199981422001555e+000	 1.533309999982383e+000	 9.837066947020512e+000
0	 9.199981422001557e+000	 1.599979999983600e+000	 9.839909847608178e+000
0	 9.199981422001553e+000	 1.666649999985416e+000	 9.842825104026957e+000
0	 9.199981422001557e+000	 1.733319999987733e+000	 9.845813757713380e+000
0	 9.199981422001558e+000	 1.799989999990450e+000	 9.848876850103979e+000
0	 9.199981422001555e+000	 1.866659999993466e+000	 9.852015422635294e+000
0	 9.199981422001555e+000	 1.933329999996683e+000	 9.855230516743859e+000
0	 9.199981422001553e+000	 2.000000000000000e+000	 9.858523173866214e+000
0	 9.266642024687792e+000	 1.333299999983334e+000	 9.818645247826858e+000
0	 9.266642024687792e+000	 1.399969999982150e+000	 9.821373988049045e+000
0	 9.266642024687792e+000	 1.466639999981866e+000	 9.824174617329598e+000
0	 9.266642024687791e+000	 1.533309999982383e+000	 9.827048283472337e+000
0	 9.266642024687794e+000	 1.599979999983600e+000	 9.829996134281128e+000
0	 9.266642024687791e+000	 1.666649999985416e+000	 9.833019317559840e+000
0	 9.266642024687792e+000	 1.733319999987733e+000	 9.836118981112305e+000
0	 9.266642024687789e+000	 1.799989999990449e+000	 9.839296272742399e+000
0	 9.266642024687792e+000	 1.866659999993466e+000	 9.842552340253965e+000
0	 9.266642024687789e+000	 1.933329999996683e+000	 9.845888331450878e+000
0	 9.266642024687794e+000	 2.000000000000000e+000	 9.849305394136978e+000
0	 9.333302777352785e+000	 1.333299999983334e+000	 9.808135409217124e+000
0	 9.333302777352783e+000	 1.399969999982150e+000	 9.810965977375668e+000
0	 9.333302777352785e+000	 1.466639999981866e+000	 9.813871295852993e+000
0	 9.333302777352783e+000	 1.533309999982383e+000	 9.816852701313794e+000
0	 9.333302777352783e+000	 1.599979999983600e+000	 9.819911530422713e+000
0	 9.333302777352783e+000	 1.666649999985416e+000	 9.823049119844445e+000
0	 9.333302777352783e+000	 1.733319999987733e+000	 9.826266806243647e+000
0	 9.333302777352781e+000	 1.799989999990450e+000	 9.829565926285003e+000
0	 9.333302777352783e+000	 1.866659999993466e+000	 9.832947816633192e+000
0	 9.333302777352783e+000	 1.933329999996683e+000	 9.836413813952888e+000
0	 9.333302777352783e+000	 2.000000000000000e+000	 9.839965254908766e+000
0	 8.666700000016668e+000	 2.000000000000000e+000	 9.928829874537120e+000
0	 8.666700000016665e+000	 2.066670000003317e+000	 9.931459596591443e+000
0	 8.666700000016666e+000	 2.133340000006534e+000	 9.934092565281512e+000
0	 8.666700000016666e+000	 2.200010000009550e+000	 9.936729981770068e+000
0	 8.666700000016666e+000	 2.266680000012268e+000	 9.939373047219831e+000
0	 8.666700000016665e+000	 2.333350000014584e+000	 9.942022962793516e+000
0	 8.666700000016666e+000	 2.400020000016401e+000	 9.944680929653851e+000
0	 8.666700000016666e+000	 2.466690000017618e+000	 9.947348148963560e+000
0	 8.666700000016668e+000	 2.533360000018134e+000	 9.950025821885371e+000
0	 8.666700000016666e+000	 2.600030000017850e+000	 9.952715149581985e+000
0	 8.666700000016668e+000	 2.666700000016667e+000	 9.955417333216150e+000
0	 8.733360002791905e+000	 2.000000000000000e+000	 9.920300150300236e+000
0	 8.733360002791903e+000	 2.066670000003317e+000	 9.922993210821179e+000
0	 8.733360002791901e+000	 2.133340000006534e+000	 9.925689486959564e+000
0	 8.733360002791905e+000	 2.200010000009550e+000	 9.928390684643363e+000
0	 8.733360002791901e+000	 2.266680000012268e+000	 9.931098509800595e+000
0	 8.733360002791905e+000	 2.333350000014584e+000	 9.933814668359217e+000
0	 8.733360002791901e+000	 2.400020000016400e+000	 9.936540866247226e+000
0	 8.733360002791899e+000	 2.466690000017616e+000	 9.939278809392615e+000
0	 8.733360002791898e+000	 2.533360000018133e+000	 9.942030203723380e+000
0	 8.733360002791901e+000	 2.600030000017850e+000	 9.944796755167499e+000
0	 8.733360002791903e+000	 2.666700000016666e+000	 9.947580169652959e+000
0	 8.800020022230555e+000	 2.000000000000000e+000	 9.911712692923969e+000
0	 8.800020022230557e+000	 2.066670000003317e+000	 9.914475175222165e+000
0	 8.800020022230552e+000	 2.133340000006534e+000	 9.917241316954620e+000
0	 8.800020022230553e+000	 2.200010000009550e+000	 9.920013231880871e+000
0	 8.800020022230557e+000	 2.266680000012268e+000	 9.922793033760435e+000
0	 8.800020022230552e+000	 2.333350000014584e+000	 9.925582836352817e+000
0	 8.800020022230557e+000	 2.400020000016401e+000	 9.928384753417554e+000
0	 8.800020022230553e+000	 2.466690000017618e+000	 9.931200898714161e+000
0	 8.800020022230553e+000	 2.533360000018134e+000	 9.934033386002158e+000
0	 8.800020022230555e+000	 2.600030000017851e+000	 9.936884329041060e+000
0	 8.800020022230557e+000	 2.666700000016667e+000	 9.939755841590404e+000
0	 8.866680074997044e+000	 2.000000000000000e+000	 9.903059424270159e+000
0	 8.866680074997042e+000	 2.066670000003318e+000	 9.905897978287428e+000
0	 8.866680074997042e+000	 2.133340000006534e+000	 9.908741089077184e+000
0	 8.866680074997042e+000	 2.200010000009551e+000	 9.911591181296553e+000
0	 8.866680074997042e+000	 2.266680000012267e+000	 9.914450679602659e+000
0	 8.866680074997039e+000	 2.333350000014582e+000	 9.917322008652610e+000
0	 8.866680074997042e+000	 2.400020000016402e+000	 9.920207593103543e+000
0	 8.866680074997040e+000	 2.466690000017617e+000	 9.923109857612589e+000
0	 8.866680074997039e+000	 2.533360000018133e+000	 9.926031226836845e+000
0	 8.866680074997040e+000	 2.600030000017850e+000	 9.928974125433445e+000
0	 8.866680074997040e+000	 2.666700000016667e+000	 9.931940978059505e+000
0	 8.933340177755776e+000	 2.000000000000000e+000	 9.894332266155848e+000
0	 8.933340177755776e+000	 2.066670000003317e+000	 9.897254108470289e+000
0	 8.933340177755774e+000	 2.133340000006533e+000	 9.900181837102368e+000
0	 8.933340177755774e+000	 2.200010000009550e+000	 9.903118090672805e+000
0	 8.933340177755776e+000	 2.266680000012267e+000	 9.906065507802353e+000
0	 8.933340177755779e+000	 2.333350000014585e+000	 9.909026727111760e+000
0	 8.933340177755778e+000	 2.400020000016401e+000	 9.912004387221746e+000
0	 8.933340177755776e+000	 2.466690000017617e+000	 9.915001126753062e+000
0	 8.933340177755774e+000	 2.533360000018134e+000	 9.918019584326448e+000
0	 8.933340177755774e+000	 2.600030000017850e+000	 9.921062398562651e+000
0	 8.933340177755776e+000	 2.666700000016666e+000	 9.924132208082416e+000
0	 9.000000347171177e+000	 2.000000000000000e+000	 9.885523140353246e+000
0	 9.000000347171179e+000	 2.066670000003316e+000	 9.888536054184357e+000
0	 9.000000347171177e+000	 2.133340000006534e+000	 9.891556594769938e+000
0	 9.000000347171179e+000	 2.200010000009550e+000	 9.894587517760483e+000
0	 9.000000347171179e+000	 2.266680000012268e+000	 9.897631578806426e+000
0	 9.000000347171175e+000	 2.333350000014584e+000	 9.900691533558275e+000
0	 9.000000347171179e+000	 2.400020000016401e+000	 9.903770137666479e+000
0	 9.000000347171181e+000	 2.466690000017618e+000	 9.906870146781511e+000
0	 9.000000347171179e+000	 2.533360000018133e+000	 9.909994316553869e+000
0	 9.000000347171181e+000	 2.600030000017850e+000	 9.913145402633989e+000
0	 9.000000347171183e+000	 2.666700000016666e+000	 9.916326160672371e+000
0	 9.066660599907667e+000	 2.000000000000000e+000	 9.876623968589813e+000
0	 9.066660599907666e+000	 2.066670000003317e+000	 9.879736303803519e+000
0	 9.066660599907667e+000	 2.133340000006534e+000	 9.882858395784337e+000
0	 9.066660599907666e+000	 2.200010000009551e+000	 9.885993020278832e+000
0	 9.066660599907666e+000	 2.266680000012267e+000	 9.889142953033559e+000
0	 9.066660599907667e+000	 2.333350000014585e+000	 9.892310969795069e+000
0	 9.066660599907664e+000	 2.400020000016400e+000	 9.895499846309916e+000
0	 9.066660599907667e+000	 2.466690000017617e+000	 9.898712358324650e+000
0	 9.066660599907666e+000	 2.533360000018133e+000	 9.901951281585840e+000
0	 9.066660599907666e+000	 2.600030000017851e+000	 9.905219391840021e+000
0	 9.066660599907666e+000	 2.666700000016667e+000	 9.908519464833772e+000
0	 9.133320952629653e+000	 2.000000000000000e+000	 9.867626672548177e+000
0	 9.133320952629653e+000	 2.066670000003317e+000	 9.870847345661932e+000
0	 9.133320952629653e+000	 2.133340000006534e+000	 9.874080273814620e+000
0	 9.133320952629653e+000	 2.200010000009550e+000	 9.877328155915599e+000
0	 9.133320952629653e+000	 2.266680000012268e+000	 9.880593690874241e+000
0	 9.133320952629651e+000	 2.333350000014584e+000	 9.883879577599933e+000
0	 9.133320952629655e+000	 2.400020000016400e+000	 9.887188515002046e+000
0	 9.133320952629653e+000	 2.466690000017617e+000	 9.890523201989947e+000
0	 9.133320952629651e+000	 2.533360000018134e+000	 9.893886337473017e+000
0	 9.133320952629651e+000	 2.600030000017851e+000	 9.897280620360615e+000
0	 9.133320952629653e+000	 2.666700000016667e+000	 9.900708749562131e+000
0	 9.199981422001553e+000	 2.000000000000000e+000	 9.858523173866214e+000
0	 9.199981422001553e+000	 2.066670000003317e+000	 9.861861668054090e+000
0	 9.199981422001557e+000	 2.133340000006534e+000	 9.865215262494500e+000
0	 9.199981422001555e+000	 2.200010000009551e+000	 9.868586482326913e+000
0	 9.199981422001557e+000	 2.266680000012267e+000	 9.871977852690778e+000
0	 9.199981422001555e+000	 2.333350000014584e+000	 9.875391898725548e+000
0	 9.199981422001557e+000	 2.400020000016401e+000	 9.878831145570690e+000
0	 9.199981422001553e+000	 2.466690000017617e+000	 9.882298118365648e+000
0	 9.199981422001557e+000	 2.533360000018134e+000	 9.885795342249898e+000
0	 9.199981422001558e+000	 2.600030000017851e+000	 9.889325342362898e+000
0	 9.199981422001555e+000	 2.666700000016667e+000	 9.892890643844098e+000
0	 9.266642024687794e+000	 2.000000000000000e+000	 9.849305394136978e+000
0	 9.266642024687792e+000	 2.066670000003317e+000	 9.852771759234738e+000
0	 9.266642024687791e+000	 2.133340000006534e+000	 9.856256395422394e+000
0	 9.266642024687792e+000	 2.200010000009550e+000	 9.859761557137407e+000
0	 9.266642024687792e+000	 2.266680000012267e+000	 9.863289498817256e+000
0	 9.266642024687791e+000	 2.333350000014584e+000	 9.866842474899466e+000
0	 9.266642024687792e+000	 2.400020000016401e+000	 9.870422739821477e+000
0	 9.266642024687792e+000	 2.466690000017618e+000	 9.874032548020798e+000
0	 9.266642024687791e+000	 2.533360000018133e+000	 9.877674153934910e+000
0	 9.266642024687791e+000	 2.600030000017850e+000	 9.881349812001297e+000
0	 9.266642024687791e+000	 2.666700000016666e+000	 9.885061776657439e+000
0	 9.333302777352783e+000	 2.000000000000000e+000	 9.839965254908766e+000
0	 9.333302777352783e+000	 2.066670000003318e+000	 9.843570107418946e+000
0	 9.333302777352783e+000	 2.133340000006534e+000	 9.847196706161304e+000
0	 9.333302777352785e+000	 2.200010000009550e+000	 9.850846937940116e+000
0	 9.333302777352781e+000	 2.266680000012267e+000	 9.854522689559628e+000
0	 9.333302777352783e+000	 2.333350000014584e+000	 9.858225847824139e+000
0	 9.333302777352781e+000	 2.400020000016401e+000	 9.861958299537898e+000
0	 9.333302777352785e+000	 2.466690000017617e+000	 9.865721931505208e+000
0	 9.333302777352781e+000	 2.533360000018134e+000	 9.869518630530324e+000
0	 9.333302777352783e+000	 2.600030000017850e+000	 9.873350283417521e+000
0	 9.333302777352785e+000	 2.666700000016666e+000	 9.877218776971091e+000
0	 8.666700000016668e+000	 2.666700000016667e+000	 9.955417333216150e+000
0	 8.666700000016666e+000	 2.733360000014533e+000	 9.958106536972144e+000
0	 8.666700000016668e+000	 2.800020000011600e+000	 9.960758359879826e+000
0	 8.666700000016665e+000	 2.866680000008067e+000	 9.963374936375891e+000
0	 8.666700000016665e+000	 2.933340000004133e+000	 9.965958400897016e+000
0	 8.666700000016666e+000	 3.000000000000000e+000	 9.968510887879880e+000
0	 8.666700000016666e+000	 3.066659999995867e+000	 9.971034531761154e+000
0	 8.666700000016666e+000	 3.133319999991933e+000	 9.973531466977525e+000
0	 8.666700000016668e+000	 3.199979999988400e+000	 9.976003827965673e+000
0	 8.666700000016666e+000	 3.266639999985468e+000	 9.978453749162281e+000
0	 8.666700000016668e+000	 3.333299999983334e+000	 9.980883365004031e+000
0	 8.733360002791903e+000	 2.666700000016666e+000	 9.947580169652959e+000
0	 8.733360002791901e+000	 2.733360000014534e+000	 9.950354737967599e+000
0	 8.733360002791905e+000	 2.800020000011600e+000	 9.953095618820493e+000
0	 8.733360002791901e+000	 2.866680000008066e+000	 9.955804563497795e+000
0	 8.733360002791903e+000	 2.933340000004133e+000	 9.958483323285634e+000
0	 8.733360002791905e+000	 3.000000000000001e+000	 9.961133649470110e+000
0	 8.733360002791901e+000	 3.066659999995867e+000	 9.963757293337396e+000
0	 8.733360002791905e+000	 3.133319999991934e+000	 9.966356006173600e+000
0	 8.733360002791903e+000	 3.199979999988400e+000	 9.968931539264862e+000
0	 8.733360002791903e+000	 3.266639999985467e+000	 9.971485643897328e+000
0	 8.733360002791901e+000	 3.333299999983334e+000	 9.974020071357117e+000
0	 8.800020022230557e+000	 2.666700000016667e+000	 9.939755841590404e+000
0	 8.800020022230552e+000	 2.733360000014533e+000	 9.942622091700635e+000
0	 8.800020022230555e+000	 2.800020000011599e+000	 9.945457655992836e+000
0	 8.800020022230553e+000	 2.866680000008067e+000	 9.948263964021484e+000
0	 8.800020022230557e+000	 2.933340000004133e+000	 9.951042445341054e+000
0	 8.800020022230557e+000	 3.000000000000000e+000	 9.953794529506006e+000
0	 8.800020022230557e+000	 3.066659999995867e+000	 9.956521646070813e+000
0	 8.800020022230552e+000	 3.133319999991933e+000	 9.959225224589975e+000
0	 8.800020022230555e+000	 3.199979999988401e+000	 9.961906694617939e+000
0	 8.800020022230555e+000	 3.266639999985467e+000	 9.964567485709205e+000
0	 8.800020022230555e+000	 3.333299999983333e+000	 9.967209027418212e+000
0	 8.866680074997040e+000	 2.666700000016667e+000	 9.931940978059505e+000
0	 8.866680074997040e+000	 2.733360000014533e+000	 9.934905611291443e+000
0	 8.866680074997040e+000	 2.800020000011600e+000	 9.937841908608798e+000
0	 8.866680074997039e+000	 2.866680000008066e+000	 9.940751039253478e+000
0	 8.866680074997040e+000	 2.933340000004133e+000	 9.943634172467320e+000
0	 8.866680074997040e+000	 3.000000000000000e+000	 9.946492477492216e+000
0	 8.866680074997042e+000	 3.066659999995867e+000	 9.949327123570043e+000
0	 8.866680074997040e+000	 3.133319999991934e+000	 9.952139279942678e+000
0	 8.866680074997039e+000	 3.199979999988400e+000	 9.954930115851994e+000
0	 8.866680074997042e+000	 3.266639999985468e+000	 9.957700800539872e+000
0	 8.866680074997040e+000	 3.333299999983334e+000	 9.960452503248188e+000
0	 8.933340177755776e+000	 2.666700000016666e+000	 9.924132208082416e+000
0	 8.933340177755778e+000	 2.733360000014533e+000	 9.927202309855726e+000
0	 8.933340177755778e+000	 2.800020000011599e+000	 9.930245813880784e+000
0	 8.933340177755778e+000	 2.866680000008067e+000	 9.933263690506001e+000
0	 8.933340177755776e+000	 2.933340000004133e+000	 9.936256910079814e+000
0	 8.933340177755774e+000	 3.000000000000000e+000	 9.939226442950609e+000
0	 8.933340177755778e+000	 3.066659999995867e+000	 9.942173259466838e+000
0	 8.933340177755776e+000	 3.133319999991933e+000	 9.945098329976892e+000
0	 8.933340177755778e+000	 3.199979999988401e+000	 9.948002624829202e+000
0	 8.933340177755776e+000	 3.266639999985468e+000	 9.950887114372208e+000
0	 8.933340177755778e+000	 3.333299999983335e+000	 9.953752768954303e+000
0	 9.000000347171183e+000	 2.666700000016666e+000	 9.916326160672371e+000
0	 9.000000347171181e+000	 2.733360000014533e+000	 9.919509200504688e+000
0	 9.000000347171177e+000	 2.800020000011600e+000	 9.922666809021548e+000
0	 9.000000347171179e+000	 2.866680000008067e+000	 9.925799819097019e+000
0	 9.000000347171177e+000	 2.933340000004133e+000	 9.928909063605209e+000
0	 9.000000347171177e+000	 3.000000000000000e+000	 9.931995375420192e+000
0	 9.000000347171179e+000	 3.066659999995866e+000	 9.935059587416061e+000
0	 9.000000347171179e+000	 3.133319999991934e+000	 9.938102532466923e+000
0	 9.000000347171179e+000	 3.199979999988401e+000	 9.941125043446842e+000
0	 9.000000347171181e+000	 3.266639999985467e+000	 9.944127953229929e+000
0	 9.000000347171181e+000	 3.333299999983333e+000	 9.947112094690295e+000
0	 9.066660599907666e+000	 2.666700000016667e+000	 9.908519464833772e+000
0	 9.066660599907667e+000	 2.733360000014533e+000	 9.911823296345112e+000
0	 9.066660599907666e+000	 2.800020000011601e+000	 9.915102331244315e+000
0	 9.066660599907667e+000	 2.866680000008067e+000	 9.918357326350197e+000
0	 9.066660599907666e+000	 2.933340000004133e+000	 9.921589038481541e+000
0	 9.066660599907669e+000	 3.000000000000000e+000	 9.924798224457113e+000
0	 9.066660599907664e+000	 3.066659999995866e+000	 9.927985641095747e+000
0	 9.066660599907667e+000	 3.133319999991934e+000	 9.931152045216173e+000
0	 9.066660599907667e+000	 3.199979999988401e+000	 9.934298193637218e+000
0	 9.066660599907667e+000	 3.266639999985468e+000	 9.937424843177656e+000
0	 9.066660599907666e+000	 3.333299999983334e+000	 9.940532750656288e+000
0	 9.133320952629653e+000	 2.666700000016667e+000	 9.900708749562128e+000
0	 9.133320952629653e+000	 2.733360000014534e+000	 9.904141610479215e+000
0	 9.133320952629651e+000	 2.800020000011600e+000	 9.907549817762700e+000
0	 9.133320952629651e+000	 2.866680000008067e+000	 9.910934113594914e+000
0	 9.133320952629653e+000	 2.933340000004133e+000	 9.914295240158161e+000
0	 9.133320952629651e+000	 2.999999999999999e+000	 9.917633939634758e+000
0	 9.133320952629653e+000	 3.066659999995867e+000	 9.920950954207012e+000
0	 9.133320952629651e+000	 3.133319999991934e+000	 9.924247026057239e+000
0	 9.133320952629651e+000	 3.199979999988401e+000	 9.927522897367746e+000
0	 9.133320952629651e+000	 3.266639999985467e+000	 9.930779310320860e+000
0	 9.133320952629651e+000	 3.333299999983334e+000	 9.934017007098881e+000
0	 9.199981422001555e+000	 2.666700000016667e+000	 9.892890643844099e+000
0	 9.199981422001558e+000	 2.733360000014533e+000	 9.896461156004831e+000
0	 9.199981422001555e+000	 2.800020000011599e+000	 9.900006705790759e+000
0	 9.199981422001555e+000	 2.866680000008067e+000	 9.903528082166289e+000
0	 9.199981422001555e+000	 2.933340000004133e+000	 9.907026074095771e+000
0	 9.199981422001553e+000	 3.000000000000000e+000	 9.910501470543611e+000
0	 9.199981422001555e+000	 3.066659999995866e+000	 9.913955060474150e+000
0	 9.199981422001553e+000	 3.133319999991933e+000	 9.917387632851808e+000
0	 9.199981422001553e+000	 3.199979999988400e+000	 9.920799976640929e+000
0	 9.199981422001557e+000	 3.266639999985467e+000	 9.924192880805903e+000
0	 9.199981422001555e+000	 3.333299999983333e+000	 9.927567134311117e+000
0	 9.266642024687791e+000	 2.666700000016666e+000	 9.885061776657439e+000
0	 9.266642024687791e+000	 2.733360000014533e+000	 9.888778946015258e+000
0	 9.266642024687791e+000	 2.800020000011599e+000	 9.892470432542972e+000
0	 9.266642024687789e+000	 2.866680000008066e+000	 9.896137133405142e+000
0	 9.266642024687792e+000	 2.933340000004134e+000	 9.899779945766422e+000
0	 9.266642024687791e+000	 3.000000000000000e+000	 9.903399766791374e+000
0	 9.266642024687792e+000	 3.066659999995866e+000	 9.906997493644612e+000
0	 9.266642024687794e+000	 3.133319999991934e+000	 9.910574023490726e+000
0	 9.266642024687794e+000	 3.199979999988401e+000	 9.914130253494346e+000
0	 9.266642024687792e+000	 3.266639999985467e+000	 9.917667080820054e+000
0	 9.266642024687794e+000	 3.333299999983335e+000	 9.921185402632464e+000
0	 9.333302777352785e+000	 2.666700000016666e+000	 9.877218776971088e+000
0	 9.333302777352783e+000	 2.733360000014533e+000	 9.881091993599407e+000
0	 9.333302777352781e+000	 2.800020000011600e+000	 9.884938435234236e+000
0	 9.333302777352783e+000	 2.866680000008067e+000	 9.888759168658085e+000
0	 9.333302777352781e+000	 2.933340000004133e+000	 9.892555260653477e+000
0	 9.333302777352785e+000	 3.000000000000000e+000	 9.896327778002915e+000
0	 9.333302777352783e+000	 3.066659999995867e+000	 9.900077787488923e+000
0	 9.333302777352781e+000	 3.133319999991933e+000	 9.903806355894000e+000
0	 9.333302777352783e+000	 3.199979999988400e+000	 9.907514550000661e+000
0	 9.333302777352783e+000	 3.266639999985467e+000	 9.911203436591443e+000
0	 9.333302777352785e+000	 3.333299999983334e+000	 9.914874082448845e+000
0	 8.666700000016668e+000	 3.333299999983334e+000	 9.980883365004031e+000
0	 8.666700000016665e+000	 3.399969999982149e+000	 9.983273408640677e+000
0	 8.666700000016665e+000	 3.466639999981867e+000	 9.985602930729302e+000
0	 8.666700000016666e+000	 3.533309999982384e+000	 9.987872631155089e+000
0	 8.666700000016666e+000	 3.599979999983600e+000	 9.990083209803222e+000
0	 8.666700000016665e+000	 3.666649999985415e+000	 9.992235366558898e+000
0	 8.666700000016666e+000	 3.733319999987733e+000	 9.994329801307300e+000
0	 8.666700000016665e+000	 3.799989999990450e+000	 9.996367213933615e+000
0	 8.666700000016668e+000	 3.866659999993467e+000	 9.998348304323011e+000
0	 8.666700000016666e+000	 3.933329999996683e+000	 1.000027377236070e+001
0	 8.666700000016668e+000	 4.000000000000000e+000	 1.000214431793183e+001
0	 8.733360002791901e+000	 3.333299999983334e+000	 9.974020071357117e+000
0	 8.733360002791899e+000	 3.399969999982150e+000	 9.976515367928027e+000
0	 8.733360002791901e+000	 3.466639999981867e+000	 9.978950633533454e+000
0	 8.733360002791901e+000	 3.533309999982384e+000	 9.981326586360304e+000
0	 8.733360002791901e+000	 3.599979999983600e+000	 9.983643944595437e+000
0	 8.733360002791905e+000	 3.666649999985417e+000	 9.985903426425745e+000
0	 8.733360002791899e+000	 3.733319999987733e+000	 9.988105750038098e+000
0	 8.733360002791901e+000	 3.799989999990450e+000	 9.990251633619391e+000
0	 8.733360002791905e+000	 3.866659999993467e+000	 9.992341795356500e+000
0	 8.733360002791903e+000	 3.933329999996684e+000	 9.994376953436298e+000
0	 8.733360002791901e+000	 4.000000000000000e+000	 9.996357826045653e+000
0	 8.800020022230555e+000	 3.333299999983333e+000	 9.967209027418212e+000
0	 8.800020022230555e+000	 3.399969999982150e+000	 9.969811850254159e+000
0	 8.800020022230555e+000	 3.466639999981866e+000	 9.972355230785306e+000
0	 8.800020022230557e+000	 3.533309999982383e+000	 9.974839902350304e+000
0	 8.800020022230557e+000	 3.599979999983600e+000	 9.977266598287807e+000
0	 8.800020022230553e+000	 3.666649999985417e+000	 9.979636051936504e+000
0	 8.800020022230553e+000	 3.733319999987733e+000	 9.981948996635056e+000
0	 8.800020022230553e+000	 3.799989999990449e+000	 9.984206165722101e+000
0	 8.800020022230552e+000	 3.866659999993466e+000	 9.986408292536337e+000
0	 8.800020022230555e+000	 3.933329999996684e+000	 9.988556110416422e+000
0	 8.800020022230553e+000	 4.000000000000000e+000	 9.990650352701003e+000
0	 8.866680074997040e+000	 3.333299999983334e+000	 9.960452503248185e+000
0	 8.866680074997044e+000	 3.399969999982150e+000	 9.963165854048260e+000
0	 8.866680074997040e+000	 3.466639999981867e+000	 9.965820377547770e+000
0	 8.866680074997039e+000	 3.533309999982382e+000	 9.968416819087269e+000
0	 8.866680074997042e+000	 3.599979999983600e+000	 9.970955924007281e+000
0	 8.866680074997044e+000	 3.666649999985417e+000	 9.973438437648344e+000
0	 8.866680074997042e+000	 3.733319999987733e+000	 9.975865105350971e+000
0	 8.866680074997044e+000	 3.799989999990451e+000	 9.978236672455713e+000
0	 8.866680074997042e+000	 3.866659999993467e+000	 9.980553884303097e+000
0	 8.866680074997039e+000	 3.933329999996683e+000	 9.982817486233648e+000
0	 8.866680074997040e+000	 4.000000000000000e+000	 9.985028223587882e+000
0	 8.933340177755778e+000	 3.333299999983335e+000	 9.953752768954303e+000
0	 8.933340177755774e+000	 3.399969999982150e+000	 9.956580377791109e+000
0	 8.933340177755778e+000	 3.466639999981867e+000	 9.959349728940380e+000
0	 8.933340177755776e+000	 3.533309999982384e+000	 9.962061576594625e+000
0	 8.933340177755774e+000	 3.599979999983600e+000	 9.964716674946287e+000
0	 8.933340177755779e+000	 3.666649999985416e+000	 9.967315778187855e+000
0	 8.933340177755778e+000	 3.733319999987733e+000	 9.969859640511821e+000
0	 8.933340177755778e+000	 3.799989999990450e+000	 9.972349016110641e+000
0	 8.933340177755774e+000	 3.866659999993466e+000	 9.974784659176796e+000
0	 8.933340177755776e+000	 3.933329999996685e+000	 9.977167323902757e+000
0	 8.933340177755772e+000	 4.000000000000000e+000	 9.979497764481000e+000
0	 9.000000347171181e+000	 3.333299999983333e+000	 9.947112094690292e+000
0	 9.000000347171179e+000	 3.399969999982150e+000	 9.950058420015230e+000
0	 9.000000347171179e+000	 3.466639999981867e+000	 9.952946940139269e+000
0	 9.000000347171179e+000	 3.533309999982383e+000	 9.955778414956928e+000
0	 9.000000347171177e+000	 3.599979999983600e+000	 9.958553604362715e+000
0	 9.000000347171177e+000	 3.666649999985416e+000	 9.961273268251096e+000
0	 9.000000347171177e+000	 3.733319999987732e+000	 9.963938166516613e+000
0	 9.000000347171177e+000	 3.799989999990450e+000	 9.966549059053735e+000
0	 9.000000347171179e+000	 3.866659999993467e+000	 9.969106705756987e+000
0	 9.000000347171177e+000	 3.933329999996683e+000	 9.971611866520844e+000
0	 9.000000347171179e+000	 4.000000000000000e+000	 9.974065301239820e+000
0	 9.066660599907666e+000	 3.333299999983334e+000	 9.940532750656287e+000
0	 9.066660599907666e+000	 3.399969999982150e+000	 9.943602979304785e+000
0	 9.066660599907666e+000	 3.466639999981866e+000	 9.946615666377154e+000
0	 9.066660599907666e+000	 3.533309999982382e+000	 9.949571574319990e+000
0	 9.066660599907667e+000	 3.599979999983600e+000	 9.952471465579917e+000
0	 9.066660599907666e+000	 3.666649999985416e+000	 9.955316102603538e+000
0	 9.066660599907664e+000	 3.733319999987733e+000	 9.958106247837479e+000
0	 9.066660599907664e+000	 3.799989999990450e+000	 9.960842663728331e+000
0	 9.066660599907667e+000	 3.866659999993467e+000	 9.963526112722724e+000
0	 9.066660599907664e+000	 3.933329999996684e+000	 9.966157357267251e+000
0	 9.066660599907666e+000	 4.000000000000001e+000	 9.968737159808550e+000
0	 9.133320952629651e+000	 3.333299999983334e+000	 9.934017007098881e+000
0	 9.133320952629649e+000	 3.399969999982149e+000	 9.937217054295667e+000
0	 9.133320952629653e+000	 3.466639999981867e+000	 9.940359562943355e+000
0	 9.133320952629653e+000	 3.533309999982383e+000	 9.943445294890772e+000
0	 9.133320952629648e+000	 3.599979999983599e+000	 9.946475011986738e+000
0	 9.133320952629651e+000	 3.666649999985416e+000	 9.949449476080085e+000
0	 9.133320952629653e+000	 3.733319999987732e+000	 9.952369449019631e+000
0	 9.133320952629651e+000	 3.799989999990450e+000	 9.955235692654178e+000
0	 9.133320952629653e+000	 3.866659999993467e+000	 9.958048968832562e+000
0	 9.133320952629651e+000	 3.933329999996683e+000	 9.960810039403615e+000
0	 9.133320952629651e+000	 3.999999999999999e+000	 9.963519666216131e+000
0	 9.199981422001555e+000	 3.333299999983333e+000	 9.927567134311119e+000
0	 9.199981422001557e+000	 3.399969999982150e+000	 9.930903643675412e+000
0	 9.199981422001555e+000	 3.466639999981866e+000	 9.934182285183811e+000
0	 9.199981422001557e+000	 3.533309999982383e+000	 9.937403816937454e+000
0	 9.199981422001553e+000	 3.599979999983600e+000	 9.940568997037515e+000
0	 9.199981422001555e+000	 3.666649999985417e+000	 9.943678583585104e+000
0	 9.199981422001555e+000	 3.733319999987733e+000	 9.946733334681388e+000
0	 9.199981422001557e+000	 3.799989999990451e+000	 9.949734008427500e+000
0	 9.199981422001555e+000	 3.866659999993466e+000	 9.952681362924581e+000
0	 9.199981422001557e+000	 3.933329999996684e+000	 9.955576156273787e+000
0	 9.199981422001557e+000	 4.000000000000000e+000	 9.958419146576258e+000
0	 9.266642024687794e+000	 3.333299999983335e+000	 9.921185402632467e+000
0	 9.266642024687792e+000	 3.399969999982150e+000	 9.924665746183260e+000
0	 9.266642024687791e+000	 3.466639999981866e+000	 9.928087488501040e+000
0	 9.266642024687789e+000	 3.533309999982383e+000	 9.931451380789428e+000
0	 9.266642024687792e+000	 3.599979999983601e+000	 9.934758174252009e+000
0	 9.266642024687792e+000	 3.666649999985417e+000	 9.938008620092399e+000
0	 9.266642024687791e+000	 3.733319999987733e+000	 9.941203469514191e+000
0	 9.266642024687791e+000	 3.799989999990450e+000	 9.944343473720982e+000
0	 9.266642024687794e+000	 3.866659999993467e+000	 9.947429383916372e+000
0	 9.266642024687791e+000	 3.933329999996684e+000	 9.950461951303955e+000
0	 9.266642024687791e+000	 4.000000000000000e+000	 9.953441927087349e+000
0	 9.333302777352785e+000	 3.333299999983334e+000	 9.914874082448845e+000
0	 9.333302777352781e+000	 3.399969999982149e+000	 9.918506360610140e+000
0	 9.333302777352785e+000	 3.466639999981867e+000	 9.922078828354206e+000
0	 9.333302777352783e+000	 3.533309999982383e+000	 9.925592226837269e+000
0	 9.333302777352785e+000	 3.599979999983600e+000	 9.929047297215533e+000
0	 9.333302777352783e+000	 3.666649999985417e+000	 9.932444780645231e+000
0	 9.333302777352783e+000	 3.733319999987733e+000	 9.935785418282556e+000
0	 9.333302777352783e+000	 3.799989999990450e+000	 9.939069951283756e+000
0	 9.333302777352783e+000	 3.866659999993466e+000	 9.942299120805014e+000
0	 9.333302777352783e+000	 3.933329999996683e+000	 9.945473668002560e+000
0	 9.333302777352785e+000	 4.000000000000000e+000	 9.948594334032617e+000
0	 8.666700000016668e+000	 4.000000000000000e+000	 1.000214431793183e+001
0	 8.666700000016666e+000	 4.066670000003317e+000	 1.000395532307550e+001
0	 8.666700000016666e+000	 4.133340000006535e+000	 1.000570153592429e+001
0	 8.666700000016668e+000	 4.200010000009551e+000	 1.000738270550365e+001
0	 8.666700000016666e+000	 4.266680000012268e+000	 1.000899858083907e+001
0	 8.666700000016666e+000	 4.333350000014585e+000	 1.001054891095598e+001
0	 8.666700000016666e+000	 4.400020000016401e+000	 1.001203344487987e+001
0	 8.666700000016666e+000	 4.466690000017618e+000	 1.001345193163617e+001
0	 8.666700000016668e+000	 4.533360000018134e+000	 1.001480412025037e+001
0	 8.666700000016666e+000	 4.600030000017851e+000	 1.001608975974791e+001
0	 8.666700000016668e+000	 4.666700000016666e+000	 1.001730859915425e+001
0	 8.733360002791901e+000	 4.000000000000000e+000	 9.996357826045653e+000
0	 8.733360002791905e+000	 4.066670000003317e+000	 9.998279051163898e+000
0	 8.733360002791903e+000	 4.133340000006535e+000	 1.000013469466710e+001
0	 8.733360002791907e+000	 4.200010000009552e+000	 1.000192461658734e+001
0	 8.733360002791901e+000	 4.266680000012268e+000	 1.000364867695664e+001
0	 8.733360002791903e+000	 4.333350000014583e+000	 1.000530673580708e+001
0	 8.733360002791901e+000	 4.400020000016400e+000	 1.000689865317068e+001
0	 8.733360002791903e+000	 4.466690000017617e+000	 1.000842428907950e+001
0	 8.733360002791899e+000	 4.533360000018133e+000	 1.000988350356558e+001
0	 8.733360002791901e+000	 4.600030000017850e+000	 1.001127615666099e+001
0	 8.733360002791901e+000	 4.666700000016666e+000	 1.001260210839774e+001
0	 8.800020022230553e+000	 4.000000000000000e+000	 9.990650352701003e+000
0	 8.800020022230557e+000	 4.066670000003318e+000	 9.992684752529511e+000
0	 8.800020022230555e+000	 4.133340000006535e+000	 9.994652526719451e+000
0	 8.800020022230555e+000	 4.200010000009550e+000	 9.996553634126636e+000
0	 8.800020022230557e+000	 4.266680000012268e+000	 9.998388033606872e+000
0	 8.800020022230550e+000	 4.333350000014582e+000	 1.000015568401596e+001
0	 8.800020022230557e+000	 4.400020000016401e+000	 1.000185654420971e+001
0	 8.800020022230557e+000	 4.466690000017618e+000	 1.000349057304391e+001
0	 8.800020022230553e+000	 4.533360000018134e+000	 1.000505772937439e+001
0	 8.800020022230555e+000	 4.600030000017849e+000	 1.000655797205691e+001
0	 8.800020022230555e+000	 4.666700000016666e+000	 1.000799125994733e+001
0	 8.866680074997040e+000	 4.000000000000000e+000	 9.985028223587882e+000
0	 8.866680074997040e+000	 4.066670000003317e+000	 9.987178807584014e+000
0	 8.866680074997040e+000	 4.133340000006534e+000	 9.989261482877687e+000
0	 8.866680074997042e+000	 4.200010000009551e+000	 9.991276294965537e+000
0	 8.866680074997044e+000	 4.266680000012267e+000	 9.993223289344266e+000
0	 8.866680074997040e+000	 4.333350000014582e+000	 9.995102511510513e+000
0	 8.866680074997044e+000	 4.400020000016403e+000	 9.996914006960965e+000
0	 8.866680074997040e+000	 4.466690000017617e+000	 9.998657821192280e+000
0	 8.866680074997040e+000	 4.533360000018134e+000	 1.000033399970111e+001
0	 8.866680074997039e+000	 4.600030000017850e+000	 1.000194258798415e+001
0	 8.866680074997040e+000	 4.666700000016667e+000	 1.000348363153804e+001
0	 8.933340177755772e+000	 4.000000000000000e+000	 9.979497764481000e+000
0	 8.933340177755776e+000	 4.066670000003318e+000	 9.981767596826002e+000
0	 8.933340177755774e+000	 4.133340000006534e+000	 9.983968014026985e+000
0	 8.933340177755776e+000	 4.200010000009550e+000	 9.986099136038568e+000
0	 8.933340177755778e+000	 4.266680000012268e+000	 9.988161082815308e+000
0	 8.933340177755778e+000	 4.333350000014584e+000	 9.990153974311840e+000
0	 8.933340177755778e+000	 4.400020000016402e+000	 9.992077930482717e+000
0	 8.933340177755778e+000	 4.466690000017618e+000	 9.993933071282562e+000
0	 8.933340177755778e+000	 4.533360000018132e+000	 9.995719516665957e+000
0	 8.933340177755774e+000	 4.600030000017851e+000	 9.997437386587503e+000
0	 8.933340177755776e+000	 4.666700000016665e+000	 9.999086801001777e+000
0	 9.000000347171179e+000	 4.000000000000000e+000	 9.974065301239820e+000
0	 9.000000347171181e+000	 4.066670000003316e+000	 9.976457500840981e+000
0	 9.000000347171177e+000	 4.133340000006533e+000	 9.978778571141422e+000
0	 9.000000347171179e+000	 4.200010000009550e+000	 9.981028694370744e+000
0	 9.000000347171179e+000	 4.266680000012268e+000	 9.983208052758483e+000
0	 9.000000347171177e+000	 4.333350000014584e+000	 9.985316828534200e+000
0	 9.000000347171177e+000	 4.400020000016402e+000	 9.987355203927486e+000
0	 9.000000347171179e+000	 4.466690000017617e+000	 9.989323361167864e+000
0	 9.000000347171177e+000	 4.533360000018133e+000	 9.991221482484923e+000
0	 9.000000347171181e+000	 4.600030000017850e+000	 9.993049750108213e+000
0	 9.000000347171181e+000	 4.666700000016666e+000	 9.994808346267304e+000
0	 9.066660599907666e+000	 4.000000000000001e+000	 9.968737159808550e+000
0	 9.066660599907666e+000	 4.066670000003317e+000	 9.971254900301407e+000
0	 9.066660599907666e+000	 4.133340000006535e+000	 9.973699605283914e+000
0	 9.066660599907667e+000	 4.200010000009551e+000	 9.976071507077661e+000
0	 9.066660599907664e+000	 4.266680000012268e+000	 9.978370838004224e+000
0	 9.066660599907666e+000	 4.333350000014584e+000	 9.980597830385163e+000
0	 9.066660599907667e+000	 4.400020000016403e+000	 9.982752716542034e+000
0	 9.066660599907669e+000	 4.466690000017618e+000	 9.984835728796421e+000
0	 9.066660599907664e+000	 4.533360000018132e+000	 9.986847099469857e+000
0	 9.066660599907666e+000	 4.600030000017850e+000	 9.988787060883944e+000
0	 9.066660599907664e+000	 4.666700000016666e+000	 9.990655845360219e+000
0	 9.133320952629651e+000	 3.999999999999999e+000	 9.963519666216129e+000
0	 9.133320952629653e+000	 4.066670000003317e+000	 9.966166175966635e+000
0	 9.133320952629656e+000	 4.133340000006536e+000	 9.968737567606206e+000
0	 9.133320952629653e+000	 4.200010000009550e+000	 9.971234111365449e+000
0	 9.133320952629653e+000	 4.266680000012268e+000	 9.973656077474983e+000
0	 9.133320952629653e+000	 4.333350000014585e+000	 9.976003736165431e+000
0	 9.133320952629653e+000	 4.400020000016401e+000	 9.978277357667420e+000
0	 9.133320952629651e+000	 4.466690000017618e+000	 9.980477212211559e+000
0	 9.133320952629653e+000	 4.533360000018133e+000	 9.982603570028461e+000
0	 9.133320952629651e+000	 4.600030000017850e+000	 9.984656701348758e+000
0	 9.133320952629655e+000	 4.666700000016668e+000	 9.986636876403050e+000
0	 9.199981422001557e+000	 4.000000000000000e+000	 9.958419146576256e+000
0	 9.199981422001555e+000	 4.066670000003317e+000	 9.961197708683033e+000
0	 9.199981422001555e+000	 4.133340000006534e+000	 9.963898909348945e+000
0	 9.199981422001555e+000	 4.200010000009550e+000	 9.966523044530742e+000
0	 9.199981422001557e+000	 4.266680000012267e+000	 9.969070410185173e+000
0	 9.199981422001553e+000	 4.333350000014583e+000	 9.971541302268991e+000
0	 9.199981422001553e+000	 4.400020000016400e+000	 9.973936016738945e+000
0	 9.199981422001553e+000	 4.466690000017617e+000	 9.976254849551790e+000
0	 9.199981422001555e+000	 4.533360000018133e+000	 9.978498096664275e+000
0	 9.199981422001555e+000	 4.600030000017850e+000	 9.980666054033140e+000
0	 9.199981422001555e+000	 4.666700000016666e+000	 9.982759017615145e+000
0	 9.266642024687791e+000	 4.000000000000000e+000	 9.953441927087349e+000
0	 9.266642024687791e+000	 4.066670000003318e+000	 9.956355879383818e+000
0	 9.266642024687791e+000	 4.133340000006534e+000	 9.959190081841603e+000
0	 9.266642024687794e+000	 4.200010000009551e+000	 9.961944843960721e+000
0	 9.266642024687791e+000	 4.266680000012268e+000	 9.964620475241182e+000
0	 9.266642024687792e+000	 4.333350000014584e+000	 9.967217285182999e+000
0	 9.266642024687792e+000	 4.400020000016402e+000	 9.969735583286182e+000
0	 9.266642024687794e+000	 4.466690000017618e+000	 9.972175679050730e+000
0	 9.266642024687791e+000	 4.533360000018134e+000	 9.974537881976675e+000
0	 9.266642024687794e+000	 4.600030000017851e+000	 9.976822501563998e+000
0	 9.266642024687791e+000	 4.666700000016667e+000	 9.979029847312727e+000
0	 9.333302777352785e+000	 4.000000000000000e+000	 9.948594334032617e+000
0	 9.333302777352783e+000	 4.066670000003317e+000	 9.951647069089205e+000
0	 9.333302777352783e+000	 4.133340000006534e+000	 9.954617536502568e+000
0	 9.333302777352783e+000	 4.200010000009550e+000	 9.957506047133151e+000
0	 9.333302777352779e+000	 4.266680000012268e+000	 9.960312911841436e+000
0	 9.333302777352783e+000	 4.333350000014584e+000	 9.963038441487889e+000
0	 9.333302777352783e+000	 4.400020000016402e+000	 9.965682946932963e+000
0	 9.333302777352783e+000	 4.466690000017617e+000	 9.968246739037145e+000
0	 9.333302777352785e+000	 4.533360000018134e+000	 9.970730128660897e+000
0	 9.333302777352783e+000	 4.600030000017850e+000	 9.973133426664672e+000
0	 9.333302777352785e+000	 4.666700000016667e+000	 9.975456943908938e+000
0	 8.666700000016668e+000	 4.666700000016666e+000	 1.001730859915425e+001
0	 8.666700000016666e+000	 4.733360000014534e+000	 1.001846153382781e+001
0	 8.666700000016668e+000	 4.800020000011600e+000	 1.001954966984145e+001
0	 8.666700000016665e+000	 4.866680000008067e+000	 1.002057253890887e+001
0	 8.666700000016666e+000	 4.933340000004133e+000	 1.002152967274378e+001
0	 8.666700000016666e+000	 5.000000000000000e+000	 1.002242060305988e+001
0	 8.666700000016666e+000	 5.066659999995867e+000	 1.002324486157090e+001
0	 8.666700000016666e+000	 5.133319999991934e+000	 1.002400197999056e+001
0	 8.666700000016666e+000	 5.199979999988400e+000	 1.002469149003257e+001
0	 8.666700000016666e+000	 5.266639999985468e+000	 1.002531292341064e+001
0	 8.666700000016668e+000	 5.333299999983335e+000	 1.002586581183850e+001
0	 8.733360002791901e+000	 4.666700000016666e+000	 1.001260210839774e+001
0	 8.733360002791903e+000	 4.733360000014534e+000	 1.001386172438587e+001
0	 8.733360002791905e+000	 4.800020000011601e+000	 1.001505554294875e+001
0	 8.733360002791903e+000	 4.866680000008066e+000	 1.001618310156802e+001
0	 8.733360002791901e+000	 4.933340000004134e+000	 1.001724393772535e+001
0	 8.733360002791905e+000	 5.000000000000000e+000	 1.001823758890240e+001
0	 8.733360002791901e+000	 5.066659999995867e+000	 1.001916359258083e+001
0	 8.733360002791903e+000	 5.133319999991935e+000	 1.002002148624231e+001
0	 8.733360002791903e+000	 5.199979999988400e+000	 1.002081080736849e+001
0	 8.733360002791903e+000	 5.266639999985468e+000	 1.002153109344107e+001
0	 8.733360002791903e+000	 5.333299999983334e+000	 1.002218188194168e+001
0	 8.800020022230555e+000	 4.666700000016666e+000	 1.000799125994733e+001
0	 8.800020022230553e+000	 4.733360000014534e+000	 1.000935753430446e+001
0	 8.800020022230553e+000	 4.800020000011600e+000	 1.001065688200569e+001
0	 8.800020022230553e+000	 4.866680000008068e+000	 1.001188885045751e+001
0	 8.800020022230557e+000	 4.933340000004133e+000	 1.001305298706638e+001
0	 8.800020022230559e+000	 5.000000000000000e+000	 1.001414883923877e+001
0	 8.800020022230557e+000	 5.066659999995866e+000	 1.001517595438117e+001
0	 8.800020022230553e+000	 5.133319999991935e+000	 1.001613387990007e+001
0	 8.800020022230555e+000	 5.199979999988400e+000	 1.001702216320194e+001
0	 8.800020022230553e+000	 5.266639999985467e+000	 1.001784035169328e+001
0	 8.800020022230555e+000	 5.333299999983335e+000	 1.001858799278056e+001
0	 8.866680074997040e+000	 4.666700000016667e+000	 1.000348363153804e+001
0	 8.866680074997039e+000	 4.733360000014534e+000	 1.000495673161428e+001
0	 8.866680074997042e+000	 4.800020000011601e+000	 1.000636161895536e+001
0	 8.866680074997039e+000	 4.866680000008067e+000	 1.000769785504940e+001
0	 8.866680074997044e+000	 4.933340000004133e+000	 1.000896500138456e+001
0	 8.866680074997039e+000	 5.000000000000000e+000	 1.001016261944900e+001
0	 8.866680074997042e+000	 5.066659999995866e+000	 1.001129027073088e+001
0	 8.866680074997039e+000	 5.133319999991935e+000	 1.001234751671834e+001
0	 8.866680074997039e+000	 5.199979999988399e+000	 1.001333391889954e+001
0	 8.866680074997042e+000	 5.266639999985469e+000	 1.001424903876264e+001
0	 8.866680074997040e+000	 5.333299999983334e+000	 1.001509243779582e+001
0	 8.933340177755776e+000	 4.666700000016665e+000	 9.999086801001777e+000
0	 8.933340177755778e+000	 4.733360000014533e+000	 1.000066708444325e+001
0	 8.933340177755776e+000	 4.800020000011599e+000	 1.000217768583820e+001
0	 8.933340177755778e+000	 4.866680000008067e+000	 1.000361818491330e+001
0	 8.933340177755776e+000	 4.933340000004134e+000	 1.000498816139520e+001
0	 8.933340177755776e+000	 5.000000000000001e+000	 1.000628719501057e+001
0	 8.933340177755778e+000	 5.066659999995866e+000	 1.000751486548607e+001
0	 8.933340177755778e+000	 5.133319999991936e+000	 1.000867075254838e+001
0	 8.933340177755779e+000	 5.199979999988400e+000	 1.000975443592417e+001
0	 8.933340177755778e+000	 5.266639999985468e+000	 1.001076549534010e+001
0	 8.933340177755776e+000	 5.333299999983334e+000	 1.001170351052284e+001
0	 9.000000347171181e+000	 4.666700000016666e+000	 9.994808346267305e+000
0	 9.000000347171181e+000	 4.733360000014534e+000	 9.996496361016479e+000
0	 9.000000347171179e+000	 4.800020000011601e+000	 9.998113014792203e+000
0	 9.000000347171181e+000	 4.866680000008067e+000	 9.999657909716433e+000
0	 9.000000347171179e+000	 4.933340000004135e+000	 1.000113064791117e+001
0	 9.000000347171175e+000	 5.000000000000000e+000	 1.000253083149841e+001
0	 9.000000347171179e+000	 5.066659999995867e+000	 1.000385806260013e+001
0	 9.000000347171181e+000	 5.133319999991935e+000	 1.000511194333834e+001
0	 9.000000347171179e+000	 5.199979999988401e+000	 1.000629207583502e+001
0	 9.000000347171183e+000	 5.266639999985468e+000	 1.000739806221217e+001
0	 9.000000347171179e+000	 5.333299999983334e+000	 1.000842950459180e+001
0	 9.066660599907664e+000	 4.666700000016666e+000	 9.990655845360219e+000
0	 9.066660599907667e+000	 4.733360000014533e+000	 9.992452329656315e+000
0	 9.066660599907667e+000	 4.800020000011600e+000	 9.994175538052753e+000
0	 9.066660599907666e+000	 4.866680000008067e+000	 9.995825099223589e+000
0	 9.066660599907666e+000	 4.933340000004132e+000	 9.997400641842946e+000
0	 9.066660599907669e+000	 5.000000000000001e+000	 9.998901794584921e+000
0	 9.066660599907664e+000	 5.066659999995865e+000	 1.000032818612362e+001
0	 9.066660599907666e+000	 5.133319999991935e+000	 1.000167944513312e+001
0	 9.066660599907667e+000	 5.199979999988401e+000	 1.000295520028756e+001
0	 9.066660599907664e+000	 5.266639999985467e+000	 1.000415508026101e+001
0	 9.066660599907666e+000	 5.333299999983335e+000	 1.000527871372760e+001
0	 9.133320952629655e+000	 4.666700000016668e+000	 9.986636876403052e+000
0	 9.133320952629653e+000	 4.733360000014533e+000	 9.988542758782320e+000
0	 9.133320952629649e+000	 4.800020000011599e+000	 9.990373187952693e+000
0	 9.133320952629651e+000	 4.866680000008066e+000	 9.992127823297125e+000
0	 9.133320952629653e+000	 4.933340000004134e+000	 9.993806324198568e+000
0	 9.133320952629651e+000	 4.999999999999999e+000	 9.995408350039980e+000
0	 9.133320952629651e+000	 5.066659999995867e+000	 9.996933560204299e+000
0	 9.133320952629653e+000	 5.133319999991934e+000	 9.998381614074502e+000
0	 9.133320952629653e+000	 5.199979999988401e+000	 9.999752171033519e+000
0	 9.133320952629651e+000	 5.266639999985467e+000	 1.000104489046433e+001
0	 9.133320952629653e+000	 5.333299999983335e+000	 1.000225943174990e+001
0	 9.199981422001555e+000	 4.666700000016666e+000	 9.982759017615145e+000
0	 9.199981422001557e+000	 4.733360000014533e+000	 9.984775416911244e+000
0	 9.199981422001553e+000	 4.800020000011599e+000	 9.986713896922371e+000
0	 9.199981422001557e+000	 4.866680000008066e+000	 9.988574151897021e+000
0	 9.199981422001553e+000	 4.933340000004133e+000	 9.990355876083699e+000
0	 9.199981422001555e+000	 4.999999999999999e+000	 9.992058763730926e+000
0	 9.199981422001558e+000	 5.066659999995867e+000	 9.993682509087206e+000
0	 9.199981422001557e+000	 5.133319999991934e+000	 9.995226806401034e+000
0	 9.199981422001555e+000	 5.199979999988400e+000	 9.996691349920951e+000
0	 9.199981422001555e+000	 5.266639999985469e+000	 9.998075833895470e+000
0	 9.199981422001555e+000	 5.333299999983333e+000	 9.999379952573076e+000
0	 9.266642024687791e+000	 4.666700000016667e+000	 9.979029847312731e+000
0	 9.266642024687792e+000	 4.733360000014534e+000	 9.981158072657092e+000
0	 9.266642024687791e+000	 4.800020000011601e+000	 9.983205597489564e+000
0	 9.266642024687791e+000	 4.866680000008067e+000	 9.985172155080807e+000
0	 9.266642024687792e+000	 4.933340000004133e+000	 9.987057478701578e+000
0	 9.266642024687791e+000	 4.999999999999999e+000	 9.988861301622572e+000
0	 9.266642024687792e+000	 5.066659999995867e+000	 9.990583357114534e+000
0	 9.266642024687791e+000	 5.133319999991934e+000	 9.992223378448154e+000
0	 9.266642024687792e+000	 5.199979999988401e+000	 9.993781098894184e+000
0	 9.266642024687792e+000	 5.266639999985468e+000	 9.995256251723321e+000
0	 9.266642024687792e+000	 5.333299999983334e+000	 9.996648570206311e+000
0	 9.333302777352785e+000	 4.666700000016667e+000	 9.975456943908936e+000
0	 9.333302777352783e+000	 4.733360000014533e+000	 9.977698494731103e+000
0	 9.333302777352783e+000	 4.800020000011600e+000	 9.979856222279485e+000
0	 9.333302777352781e+000	 4.866680000008067e+000	 9.981929903003627e+000
0	 9.333302777352781e+000	 4.933340000004134e+000	 9.983919313353033e+000
0	 9.333302777352783e+000	 5.000000000000000e+000	 9.985824229777224e+000
0	 9.333302777352785e+000	 5.066659999995867e+000	 9.987644428725734e+000
0	 9.333302777352783e+000	 5.133319999991935e+000	 9.989379686648089e+000
0	 9.333302777352783e+000	 5.199979999988400e+000	 9.991029779993806e+000
0	 9.333302777352781e+000	 5.266639999985467e+000	 9.992594485212445e+000
0	 9.333302777352785e+000	 5.333299999983335e+000	 9.994073578753502e+000
0	 8.666700000016668e+000	 5.333299999983335e+000	 1.002586581183850e+001
0	 8.666700000016668e+000	 5.399969999982151e+000	 1.002635839602221e+001
0	 8.666700000016668e+000	 5.466639999981867e+000	 1.002679845937024e+001
0	 8.666700000016668e+000	 5.533309999982384e+000	 1.002718508098017e+001
0	 8.666700000016668e+000	 5.599979999983600e+000	 1.002751733994959e+001
0	 8.666700000016665e+000	 5.666649999985414e+000	 1.002779431537608e+001
0	 8.666700000016666e+000	 5.733319999987733e+000	 1.002801508635720e+001
0	 8.666700000016666e+000	 5.799989999990448e+000	 1.002817873199056e+001
0	 8.666700000016665e+000	 5.866659999993467e+000	 1.002828433137372e+001
0	 8.666700000016665e+000	 5.933329999996682e+000	 1.002833096360426e+001
0	 8.666700000016666e+000	 6.000000000000001e+000	 1.002831770777974e+001
0	 8.733360002791903e+000	 5.333299999983334e+000	 1.002218188194168e+001
0	 8.733360002791901e+000	 5.399969999982150e+000	 1.002277101101930e+001
0	 8.733360002791901e+000	 5.466639999981867e+000	 1.002330587644910e+001
0	 8.733360002791898e+000	 5.533309999982383e+000	 1.002378562932828e+001
0	 8.733360002791901e+000	 5.599979999983601e+000	 1.002420942075403e+001
0	 8.733360002791905e+000	 5.666649999985417e+000	 1.002457640182355e+001
0	 8.733360002791901e+000	 5.733319999987733e+000	 1.002488572363403e+001
0	 8.733360002791903e+000	 5.799989999990450e+000	 1.002513653728267e+001
0	 8.733360002791903e+000	 5.866659999993467e+000	 1.002532799386666e+001
0	 8.733360002791903e+000	 5.933329999996683e+000	 1.002545924448320e+001
0	 8.733360002791903e+000	 6.000000000000001e+000	 1.002552944022947e+001
0	 8.800020022230555e+000	 5.333299999983335e+000	 1.001858799278056e+001
0	 8.800020022230553e+000	 5.399969999982150e+000	 1.001927254794920e+001
0	 8.800020022230555e+000	 5.466639999981866e+000	 1.001990104472270e+001
0	 8.800020022230555e+000	 5.533309999982383e+000	 1.002047270009424e+001
0	 8.800020022230557e+000	 5.599979999983599e+000	 1.002098673105692e+001
0	 8.800020022230553e+000	 5.666649999985416e+000	 1.002144235460392e+001
0	 8.800020022230555e+000	 5.733319999987733e+000	 1.002183878772835e+001
0	 8.800020022230555e+000	 5.799989999990449e+000	 1.002217524742339e+001
0	 8.800020022230557e+000	 5.866659999993468e+000	 1.002245095068216e+001
0	 8.800020022230553e+000	 5.933329999996682e+000	 1.002266511449780e+001
0	 8.800020022230555e+000	 6.000000000000001e+000	 1.002281695586346e+001
0	 8.866680074997040e+000	 5.333299999983334e+000	 1.001509243779582e+001
0	 8.866680074997042e+000	 5.399969999982152e+000	 1.001587123235660e+001
0	 8.866680074997039e+000	 5.466639999981867e+000	 1.001659210675877e+001
0	 8.866680074997040e+000	 5.533309999982382e+000	 1.001725433778766e+001
0	 8.866680074997042e+000	 5.599979999983600e+000	 1.001785720222870e+001
0	 8.866680074997042e+000	 5.666649999985416e+000	 1.001839997686725e+001
0	 8.866680074997044e+000	 5.733319999987733e+000	 1.001888193848869e+001
0	 8.866680074997042e+000	 5.799989999990451e+000	 1.001930236387841e+001
0	 8.866680074997042e+000	 5.866659999993469e+000	 1.001966052982180e+001
0	 8.866680074997040e+000	 5.933329999996684e+000	 1.001995571310425e+001
0	 8.866680074997040e+000	 6.000000000000000e+000	 1.002018719051109e+001
0	 8.933340177755776e+000	 5.333299999983334e+000	 1.001170351052284e+001
0	 8.933340177755772e+000	 5.399969999982149e+000	 1.001257528987996e+001
0	 8.933340177755778e+000	 5.466639999981867e+000	 1.001338720521756e+001
0	 8.933340177755776e+000	 5.533309999982383e+000	 1.001413858700948e+001
0	 8.933340177755778e+000	 5.599979999983600e+000	 1.001482876572963e+001
0	 8.933340177755778e+000	 5.666649999985417e+000	 1.001545707185189e+001
0	 8.933340177755774e+000	 5.733319999987733e+000	 1.001602283585014e+001
0	 8.933340177755778e+000	 5.799989999990450e+000	 1.001652538819824e+001
0	 8.933340177755774e+000	 5.866659999993467e+000	 1.001696405937008e+001
0	 8.933340177755778e+000	 5.933329999996684e+000	 1.001733817983955e+001
0	 8.933340177755772e+000	 6.000000000000000e+000	 1.001764708008051e+001
0	 9.000000347171179e+000	 5.333299999983334e+000	 1.000842950459181e+001
0	 9.000000347171179e+000	 5.399969999982150e+000	 1.000939294625146e+001
0	 9.000000347171177e+000	 5.466639999981867e+000	 1.001029448285195e+001
0	 9.000000347171179e+000	 5.533309999982383e+000	 1.001113349245185e+001
0	 9.000000347171177e+000	 5.599979999983599e+000	 1.001190935310982e+001
0	 9.000000347171175e+000	 5.666649999985416e+000	 1.001262144288444e+001
0	 9.000000347171181e+000	 5.733319999987733e+000	 1.001326913983433e+001
0	 9.000000347171177e+000	 5.799989999990448e+000	 1.001385182201808e+001
0	 9.000000347171179e+000	 5.866659999993467e+000	 1.001436886749433e+001
0	 9.000000347171179e+000	 5.933329999996683e+000	 1.001481965432165e+001
0	 9.000000347171179e+000	 6.000000000000002e+000	 1.001520356055867e+001
0	 9.066660599907666e+000	 5.333299999983335e+000	 1.000527871372760e+001
0	 9.066660599907666e+000	 5.399969999982150e+000	 1.000633242729701e+001
0	 9.066660599907669e+000	 5.466639999981866e+000	 1.000732208250736e+001
0	 9.066660599907667e+000	 5.533309999982383e+000	 1.000824709889822e+001
0	 9.066660599907667e+000	 5.599979999983600e+000	 1.000910689600915e+001
0	 9.066660599907667e+000	 5.666649999985417e+000	 1.000990089337971e+001
0	 9.066660599907666e+000	 5.733319999987734e+000	 1.001062851054945e+001
0	 9.066660599907667e+000	 5.799989999990450e+000	 1.001128916705792e+001
0	 9.066660599907666e+000	 5.866659999993467e+000	 1.001188228244468e+001
0	 9.066660599907664e+000	 5.933329999996684e+000	 1.001240727624929e+001
0	 9.066660599907664e+000	 5.999999999999998e+000	 1.001286356801131e+001
0	 9.133320952629653e+000	 5.333299999983335e+000	 1.000225943174990e+001
0	 9.133320952629651e+000	 5.399969999982150e+000	 1.000340195893627e+001
0	 9.133320952629651e+000	 5.466639999981865e+000	 1.000447814712184e+001
0	 9.133320952629653e+000	 5.533309999982384e+000	 1.000548745122329e+001
0	 9.133320952629649e+000	 5.599979999983599e+000	 1.000642932615738e+001
0	 9.133320952629653e+000	 5.666649999985417e+000	 1.000730322684080e+001
0	 9.133320952629653e+000	 5.733319999987733e+000	 1.000810860819027e+001
0	 9.133320952629651e+000	 5.799989999990450e+000	 1.000884492512251e+001
0	 9.133320952629653e+000	 5.866659999993467e+000	 1.000951163255423e+001
0	 9.133320952629651e+000	 5.933329999996684e+000	 1.001010818540213e+001
0	 9.133320952629653e+000	 5.999999999999999e+000	 1.001063403858295e+001
0	 9.199981422001555e+000	 5.333299999983333e+000	 9.999379952573074e+000
0	 9.199981422001557e+000	 5.399969999982150e+000	 1.000060976718267e+001
0	 9.199981422001555e+000	 5.466639999981865e+000	 1.000177081972594e+001
0	 9.199981422001553e+000	 5.533309999982383e+000	 1.000286259439305e+001
0	 9.199981422001553e+000	 5.599979999983601e+000	 1.000388457537403e+001
0	 9.199981422001555e+000	 5.666649999985418e+000	 1.000483624685903e+001
0	 9.199981422001557e+000	 5.733319999987733e+000	 1.000571709303809e+001
0	 9.199981422001555e+000	 5.799989999990449e+000	 1.000652659810132e+001
0	 9.199981422001553e+000	 5.866659999993467e+000	 1.000726424623883e+001
0	 9.199981422001557e+000	 5.933329999996684e+000	 1.000792952164067e+001
0	 9.199981422001555e+000	 6.000000000000000e+000	 1.000852190849695e+001
0	 9.266642024687792e+000	 5.333299999983334e+000	 9.996648570206311e+000
0	 9.266642024687794e+000	 5.399969999982150e+000	 9.997964078143319e+000
0	 9.266642024687791e+000	 5.466639999981865e+000	 9.999208243442887e+000
0	 9.266642024687789e+000	 5.533309999982384e+000	 1.000038057346472e+001
0	 9.266642024687789e+000	 5.599979999983599e+000	 1.000148057556853e+001
0	 9.266642024687791e+000	 5.666649999985417e+000	 1.000250775711400e+001
0	 9.266642024687792e+000	 5.733319999987733e+000	 1.000346162546081e+001
0	 9.266642024687791e+000	 5.799989999990449e+000	 1.000434168796867e+001
0	 9.266642024687794e+000	 5.866659999993468e+000	 1.000514745199726e+001
0	 9.266642024687791e+000	 5.933329999996684e+000	 1.000587842490628e+001
0	 9.266642024687791e+000	 6.000000000000000e+000	 1.000653411405544e+001
0	 9.333302777352785e+000	 5.333299999983335e+000	 9.994073578753500e+000
0	 9.333302777352783e+000	 5.399969999982150e+000	 9.995473118019127e+000
0	 9.333302777352785e+000	 5.466639999981866e+000	 9.996798561488401e+000
0	 9.333302777352781e+000	 5.533309999982382e+000	 9.998049433586852e+000
0	 9.333302777352783e+000	 5.599979999983600e+000	 9.999225258740047e+000
0	 9.333302777352781e+000	 5.666649999985415e+000	 1.000032556137354e+001
0	 9.333302777352783e+000	 5.733319999987732e+000	 1.000134986591285e+001
0	 9.333302777352783e+000	 5.799989999990450e+000	 1.000229769678355e+001
0	 9.333302777352781e+000	 5.866659999993467e+000	 1.000316857841115e+001
0	 9.333302777352783e+000	 5.933329999996682e+000	 1.000396203522124e+001
0	 9.333302777352785e+000	 6.000000000000001e+000	 1.000467759163933e+001
0	 8.666700000016666e+000	 6.000000000000001e+000	 1.002831770777974e+001
0	 8.666700000016666e+000	 6.066670000003318e+000	 1.002825622318189e+001
0	 8.666700000016666e+000	 6.133340000006533e+000	 1.002815812197660e+001
0	 8.666700000016666e+000	 6.200010000009550e+000	 1.002802241258776e+001
0	 8.666700000016666e+000	 6.266680000012268e+000	 1.002784810343931e+001
0	 8.666700000016666e+000	 6.333350000014585e+000	 1.002763420295515e+001
0	 8.666700000016668e+000	 6.400020000016401e+000	 1.002737971955919e+001
0	 8.666700000016668e+000	 6.466690000017617e+000	 1.002708366167532e+001
0	 8.666700000016668e+000	 6.533360000018135e+000	 1.002674503772746e+001
0	 8.666700000016666e+000	 6.600030000017850e+000	 1.002636285613952e+001
0	 8.666700000016666e+000	 6.666700000016665e+000	 1.002593612533539e+001
0	 8.733360002791903e+000	 6.000000000000001e+000	 1.002552944022947e+001
0	 8.733360002791901e+000	 6.066670000003316e+000	 1.002555003418640e+001
0	 8.733360002791903e+000	 6.133340000006531e+000	 1.002553241630737e+001
0	 8.733360002791905e+000	 6.200010000009552e+000	 1.002547564299822e+001
0	 8.733360002791899e+000	 6.266680000012267e+000	 1.002537877066479e+001
0	 8.733360002791903e+000	 6.333350000014586e+000	 1.002524085571297e+001
0	 8.733360002791901e+000	 6.400020000016400e+000	 1.002506095454861e+001
0	 8.733360002791901e+000	 6.466690000017617e+000	 1.002483812357753e+001
0	 8.733360002791899e+000	 6.533360000018134e+000	 1.002457141920558e+001
0	 8.733360002791899e+000	 6.600030000017851e+000	 1.002425989783863e+001
0	 8.733360002791901e+000	 6.666700000016667e+000	 1.002390261588254e+001
0	 8.800020022230555e+000	 6.000000000000001e+000	 1.002281695586346e+001
0	 8.800020022230555e+000	 6.066670000003318e+000	 1.002291775490298e+001
0	 8.800020022230555e+000	 6.133340000006534e+000	 1.002297871436005e+001
0	 8.800020022230553e+000	 6.200010000009550e+000	 1.002299893515760e+001
0	 8.800020022230555e+000	 6.266680000012268e+000	 1.002297751821856e+001
0	 8.800020022230553e+000	 6.333350000014582e+000	 1.002291356446586e+001
0	 8.800020022230555e+000	 6.400020000016401e+000	 1.002280617482241e+001
0	 8.800020022230553e+000	 6.466690000017617e+000	 1.002265445021113e+001
0	 8.800020022230553e+000	 6.533360000018133e+000	 1.002245749155496e+001
0	 8.800020022230557e+000	 6.600030000017851e+000	 1.002221439977680e+001
0	 8.800020022230555e+000	 6.666700000016666e+000	 1.002192427579961e+001
0	 8.866680074997040e+000	 6.000000000000000e+000	 1.002018719051109e+001
0	 8.866680074997040e+000	 6.066670000003319e+000	 1.002036610731059e+001
0	 8.866680074997040e+000	 6.133340000006534e+000	 1.002050351889742e+001
0	 8.866680074997042e+000	 6.200010000009552e+000	 1.002059856724669e+001
0	 8.866680074997046e+000	 6.266680000012268e+000	 1.002065039433349e+001
0	 8.866680074997040e+000	 6.333350000014583e+000	 1.002065814213290e+001
0	 8.866680074997042e+000	 6.400020000016400e+000	 1.002062095262006e+001
0	 8.866680074997040e+000	 6.466690000017616e+000	 1.002053796776999e+001
0	 8.866680074997039e+000	 6.533360000018133e+000	 1.002040832955785e+001
0	 8.866680074997042e+000	 6.600030000017850e+000	 1.002023117995869e+001
0	 8.866680074997042e+000	 6.666700000016669e+000	 1.002000566094762e+001
0	 8.933340177755772e+000	 6.000000000000000e+000	 1.001764708008051e+001
0	 8.933340177755776e+000	 6.066670000003318e+000	 1.001790181346482e+001
0	 8.933340177755774e+000	 6.133340000006532e+000	 1.001811333275665e+001
0	 8.933340177755776e+000	 6.200010000009550e+000	 1.001828081751835e+001
0	 8.933340177755774e+000	 6.266680000012266e+000	 1.001840344731224e+001
0	 8.933340177755778e+000	 6.333350000014584e+000	 1.001848040170067e+001
0	 8.933340177755774e+000	 6.400020000016401e+000	 1.001851086024596e+001
0	 8.933340177755779e+000	 6.466690000017618e+000	 1.001849400251047e+001
0	 8.933340177755774e+000	 6.533360000018132e+000	 1.001842900805651e+001
0	 8.933340177755776e+000	 6.600030000017850e+000	 1.001831505644644e+001
0	 8.933340177755774e+000	 6.666700000016665e+000	 1.001815132724255e+001
0	 9.000000347171179e+000	 6.000000000000002e+000	 1.001520356055867e+001
0	 9.000000347171181e+000	 6.066670000003318e+000	 1.001553159549795e+001
0	 9.000000347171177e+000	 6.133340000006533e+000	 1.001581465884940e+001
0	 9.000000347171174e+000	 6.200010000009550e+000	 1.001605196429766e+001
0	 9.000000347171179e+000	 6.266680000012268e+000	 1.001624272552737e+001
0	 9.000000347171175e+000	 6.333350000014583e+000	 1.001638615622314e+001
0	 9.000000347171177e+000	 6.400020000016401e+000	 1.001648147006962e+001
0	 9.000000347171179e+000	 6.466690000017616e+000	 1.001652788075146e+001
0	 9.000000347171179e+000	 6.533360000018135e+000	 1.001652460195326e+001
0	 9.000000347171179e+000	 6.600030000017849e+000	 1.001647084735969e+001
0	 9.000000347171181e+000	 6.666700000016665e+000	 1.001636583065533e+001
0	 9.066660599907664e+000	 5.999999999999998e+000	 1.001286356801131e+001
0	 9.066660599907664e+000	 6.066670000003315e+000	 1.001326217561885e+001
0	 9.066660599907666e+000	 6.133340000006532e+000	 1.001361400016172e+001
0	 9.066660599907667e+000	 6.200010000009553e+000	 1.001391828598183e+001
0	 9.066660599907666e+000	 6.266680000012268e+000	 1.001417427742119e+001
0	 9.066660599907664e+000	 6.333350000014582e+000	 1.001438121882177e+001
0	 9.066660599907666e+000	 6.400020000016402e+000	 1.001453835452553e+001
0	 9.066660599907666e+000	 6.466690000017617e+000	 1.001464492887444e+001
0	 9.066660599907666e+000	 6.533360000018134e+000	 1.001470018621047e+001
0	 9.066660599907666e+000	 6.600030000017851e+000	 1.001470337087559e+001
0	 9.066660599907664e+000	 6.666700000016666e+000	 1.001465372721176e+001
0	 9.133320952629653e+000	 5.999999999999999e+000	 1.001063403858295e+001
0	 9.133320952629651e+000	 6.066670000003315e+000	 1.001110027611311e+001
0	 9.133320952629651e+000	 6.133340000006532e+000	 1.001151785975408e+001
0	 9.133320952629651e+000	 6.200010000009550e+000	 1.001188606104024e+001
0	 9.133320952629655e+000	 6.266680000012268e+000	 1.001220415150591e+001
0	 9.133320952629651e+000	 6.333350000014585e+000	 1.001247140268542e+001
0	 9.133320952629649e+000	 6.400020000016400e+000	 1.001268708611314e+001
0	 9.133320952629655e+000	 6.466690000017618e+000	 1.001285047332338e+001
0	 9.133320952629653e+000	 6.533360000018135e+000	 1.001296083585049e+001
0	 9.133320952629649e+000	 6.600030000017851e+000	 1.001301744522880e+001
0	 9.133320952629653e+000	 6.666700000016665e+000	 1.001301957299265e+001
0	 9.199981422001555e+000	 6.000000000000000e+000	 1.000852190849695e+001
0	 9.199981422001555e+000	 6.066670000003318e+000	 1.000905261934289e+001
0	 9.199981422001551e+000	 6.133340000006533e+000	 1.000953274076148e+001
0	 9.199981422001557e+000	 6.200010000009553e+000	 1.000996156801444e+001
0	 9.199981422001557e+000	 6.266680000012268e+000	 1.001033839636353e+001
0	 9.199981422001555e+000	 6.333350000014585e+000	 1.001066252107048e+001
0	 9.199981422001558e+000	 6.400020000016402e+000	 1.001093323739700e+001
0	 9.199981422001555e+000	 6.466690000017617e+000	 1.001114984060486e+001
0	 9.199981422001555e+000	 6.533360000018134e+000	 1.001131162595578e+001
0	 9.199981422001555e+000	 6.600030000017848e+000	 1.001141788871150e+001
0	 9.199981422001555e+000	 6.666700000016665e+000	 1.001146792413372e+001
0	 9.266642024687791e+000	 6.000000000000000e+000	 1.000653411405544e+001
0	 9.266642024687792e+000	 6.066670000003316e+000	 1.000712592774707e+001
0	 9.266642024687792e+000	 6.133340000006531e+000	 1.000766514639326e+001
0	 9.266642024687791e+000	 6.200010000009550e+000	 1.000815108551815e+001
0	 9.266642024687789e+000	 6.266680000012267e+000	 1.000858306064589e+001
0	 9.266642024687792e+000	 6.333350000014586e+000	 1.000896038730068e+001
0	 9.266642024687791e+000	 6.400020000016402e+000	 1.000928238100665e+001
0	 9.266642024687791e+000	 6.466690000017617e+000	 1.000954835728798e+001
0	 9.266642024687791e+000	 6.533360000018133e+000	 1.000975763166881e+001
0	 9.266642024687796e+000	 6.600030000017851e+000	 1.000990951967330e+001
0	 9.266642024687791e+000	 6.666700000016667e+000	 1.001000333682563e+001
0	 9.333302777352785e+000	 6.000000000000001e+000	 1.000467759163933e+001
0	 9.333302777352781e+000	 6.066670000003315e+000	 1.000532692384117e+001
0	 9.333302777352783e+000	 6.133340000006534e+000	 1.000592157993327e+001
0	 9.333302777352783e+000	 6.200010000009552e+000	 1.000646089223725e+001
0	 9.333302777352781e+000	 6.266680000012266e+000	 1.000694419307470e+001
0	 9.333302777352783e+000	 6.333350000014586e+000	 1.000737081476731e+001
0	 9.333302777352783e+000	 6.400020000016400e+000	 1.000774008963664e+001
0	 9.333302777352783e+000	 6.466690000017617e+000	 1.000805135000437e+001
0	 9.333302777352785e+000	 6.533360000018136e+000	 1.000830392819209e+001
0	 9.333302777352783e+000	 6.600030000017850e+000	 1.000849715652142e+001
0	 9.333302777352783e+000	 6.666700000016666e+000	 1.000863036731399e+001
0	 8.666700000016666e+000	 6.666700000016665e+000	 1.002593612533539e+001
0	 8.666700000016666e+000	 6.733360000014533e+000	 1.002547783914764e+001
0	 8.666700000016668e+000	 6.800020000011599e+000	 1.002500080922652e+001
0	 8.666700000016668e+000	 6.866680000008068e+000	 1.002450397291344e+001
0	 8.666700000016666e+000	 6.933340000004133e+000	 1.002398626754987e+001
0	 8.666700000016666e+000	 7.000000000000001e+000	 1.002344663047726e+001
0	 8.666700000016665e+000	 7.066659999995867e+000	 1.002288399903705e+001
0	 8.666700000016665e+000	 7.133319999991934e+000	 1.002229731057070e+001
0	 8.666700000016668e+000	 7.199979999988400e+000	 1.002168550241966e+001
0	 8.666700000016666e+000	 7.266639999985467e+000	 1.002104751192539e+001
0	 8.666700000016665e+000	 7.333299999983335e+000	 1.002038227642933e+001
0	 8.733360002791901e+000	 6.666700000016667e+000	 1.002390261588254e+001
0	 8.733360002791903e+000	 6.733360000014534e+000	 1.002351249731581e+001
0	 8.733360002791905e+000	 6.800020000011600e+000	 1.002310230346848e+001
0	 8.733360002791903e+000	 6.866680000008067e+000	 1.002267101797976e+001
0	 8.733360002791901e+000	 6.933340000004133e+000	 1.002221762448885e+001
0	 8.733360002791903e+000	 6.999999999999999e+000	 1.002174110663496e+001
0	 8.733360002791899e+000	 7.066659999995866e+000	 1.002124044805727e+001
0	 8.733360002791905e+000	 7.133319999991935e+000	 1.002071463239501e+001
0	 8.733360002791905e+000	 7.199979999988400e+000	 1.002016264328735e+001
0	 8.733360002791901e+000	 7.266639999985468e+000	 1.001958346437350e+001
0	 8.733360002791903e+000	 7.333299999983335e+000	 1.001897607929266e+001
0	 8.800020022230555e+000	 6.666700000016666e+000	 1.002192427579961e+001
0	 8.800020022230555e+000	 6.733360000014533e+000	 1.002160001929678e+001
0	 8.800020022230555e+000	 6.800020000011600e+000	 1.002125438632732e+001
0	 8.800020022230553e+000	 6.866680000008066e+000	 1.002088640365839e+001
0	 8.800020022230559e+000	 6.933340000004135e+000	 1.002049509805711e+001
0	 8.800020022230557e+000	 7.000000000000001e+000	 1.002007949629063e+001
0	 8.800020022230557e+000	 7.066659999995866e+000	 1.001963862512609e+001
0	 8.800020022230553e+000	 7.133319999991935e+000	 1.001917151133062e+001
0	 8.800020022230555e+000	 7.199979999988401e+000	 1.001867718167136e+001
0	 8.800020022230553e+000	 7.266639999985467e+000	 1.001815466291546e+001
0	 8.800020022230557e+000	 7.333299999983335e+000	 1.001760298183007e+001
0	 8.866680074997042e+000	 6.666700000016669e+000	 1.002000566094762e+001
0	 8.866680074997040e+000	 6.733360000014534e+000	 1.001974469543562e+001
0	 8.866680074997042e+000	 6.800020000011601e+000	 1.001946108117389e+001
0	 8.866680074997040e+000	 6.866680000008069e+000	 1.001915388488771e+001
0	 8.866680074997044e+000	 6.933340000004134e+000	 1.001882217330230e+001
0	 8.866680074997042e+000	 7.000000000000002e+000	 1.001846501314290e+001
0	 8.866680074997042e+000	 7.066659999995867e+000	 1.001808147113476e+001
0	 8.866680074997042e+000	 7.133319999991934e+000	 1.001767061400314e+001
0	 8.866680074997042e+000	 7.199979999988402e+000	 1.001723150847324e+001
0	 8.866680074997042e+000	 7.266639999985468e+000	 1.001676322127034e+001
0	 8.866680074997042e+000	 7.333299999983335e+000	 1.001626481911968e+001
0	 8.933340177755774e+000	 6.666700000016665e+000	 1.001815132724255e+001
0	 8.933340177755776e+000	 6.733360000014533e+000	 1.001795081612968e+001
0	 8.933340177755774e+000	 6.800020000011598e+000	 1.001772641142873e+001
0	 8.933340177755776e+000	 6.866680000008067e+000	 1.001747721665320e+001
0	 8.933340177755776e+000	 6.933340000004134e+000	 1.001720233531656e+001
0	 8.933340177755774e+000	 6.999999999999998e+000	 1.001690087093229e+001
0	 8.933340177755776e+000	 7.066659999995867e+000	 1.001657192701391e+001
0	 8.933340177755778e+000	 7.133319999991936e+000	 1.001621460707486e+001
0	 8.933340177755778e+000	 7.199979999988400e+000	 1.001582801462864e+001
0	 8.933340177755778e+000	 7.266639999985468e+000	 1.001541125318876e+001
0	 8.933340177755776e+000	 7.333299999983334e+000	 1.001496342626867e+001
0	 9.000000347171181e+000	 6.666700000016665e+000	 1.001636583065532e+001
0	 9.000000347171183e+000	 6.733360000014532e+000	 1.001622267182870e+001
0	 9.000000347171177e+000	 6.800020000011598e+000	 1.001605440056215e+001
0	 9.000000347171177e+000	 6.866680000008066e+000	 1.001586015398749e+001
0	 9.000000347171181e+000	 6.933340000004135e+000	 1.001563906923657e+001
0	 9.000000347171177e+000	 6.999999999999999e+000	 1.001539028344124e+001
0	 9.000000347171181e+000	 7.066659999995868e+000	 1.001511293373338e+001
0	 9.000000347171181e+000	 7.133319999991935e+000	 1.001480615724478e+001
0	 9.000000347171179e+000	 7.199979999988400e+000	 1.001446909110729e+001
0	 9.000000347171183e+000	 7.266639999985467e+000	 1.001410087245280e+001
0	 9.000000347171181e+000	 7.333299999983333e+000	 1.001370063841312e+001
0	 9.066660599907664e+000	 6.666700000016666e+000	 1.001465372721176e+001
0	 9.066660599907666e+000	 6.733360000014534e+000	 1.001456455303477e+001
0	 9.066660599907667e+000	 6.800020000011601e+000	 1.001444907209421e+001
0	 9.066660599907666e+000	 6.866680000008066e+000	 1.001430645197037e+001
0	 9.066660599907666e+000	 6.933340000004134e+000	 1.001413586024358e+001
0	 9.066660599907669e+000	 6.999999999999999e+000	 1.001393646449413e+001
0	 9.066660599907667e+000	 7.066659999995868e+000	 1.001370743230235e+001
0	 9.066660599907666e+000	 7.133319999991934e+000	 1.001344793124854e+001
0	 9.066660599907667e+000	 7.199979999988400e+000	 1.001315712891303e+001
0	 9.066660599907666e+000	 7.266639999985467e+000	 1.001283419287611e+001
0	 9.066660599907664e+000	 7.333299999983335e+000	 1.001247829071812e+001
0	 9.133320952629653e+000	 6.666700000016665e+000	 1.001301957299265e+001
0	 9.133320952629653e+000	 6.733360000014534e+000	 1.001298075030232e+001
0	 9.133320952629649e+000	 6.800020000011600e+000	 1.001291444959473e+001
0	 9.133320952629653e+000	 6.866680000008066e+000	 1.001281986572876e+001
0	 9.133320952629651e+000	 6.933340000004134e+000	 1.001269619356328e+001
0	 9.133320952629651e+000	 6.999999999999999e+000	 1.001254262795717e+001
0	 9.133320952629651e+000	 7.066659999995866e+000	 1.001235836376930e+001
0	 9.133320952629653e+000	 7.133319999991934e+000	 1.001214259585853e+001
0	 9.133320952629651e+000	 7.199979999988401e+000	 1.001189451908376e+001
0	 9.133320952629653e+000	 7.266639999985467e+000	 1.001161332830385e+001
0	 9.133320952629655e+000	 7.333299999983335e+000	 1.001129821837767e+001
0	 9.199981422001555e+000	 6.666700000016665e+000	 1.001146792413372e+001
0	 9.199981422001558e+000	 6.733360000014534e+000	 1.001147555423812e+001
0	 9.199981422001553e+000	 6.800020000011599e+000	 1.001145455668329e+001
0	 9.199981422001555e+000	 6.866680000008067e+000	 1.001140415043674e+001
0	 9.199981422001555e+000	 6.933340000004133e+000	 1.001132355446599e+001
0	 9.199981422001555e+000	 7.000000000000000e+000	 1.001121198773856e+001
0	 9.199981422001557e+000	 7.066659999995869e+000	 1.001106866922199e+001
0	 9.199981422001555e+000	 7.133319999991935e+000	 1.001089281788380e+001
0	 9.199981422001553e+000	 7.199979999988400e+000	 1.001068365269153e+001
0	 9.199981422001555e+000	 7.266639999985466e+000	 1.001044039261268e+001
0	 9.199981422001555e+000	 7.333299999983335e+000	 1.001016225661481e+001
0	 9.266642024687791e+000	 6.666700000016667e+000	 1.001000333682563e+001
0	 9.266642024687791e+000	 6.733360000014530e+000	 1.001005325550136e+001
0	 9.266642024687791e+000	 6.800020000011600e+000	 1.001007341702925e+001
0	 9.266642024687794e+000	 6.866680000008067e+000	 1.001006306131552e+001
0	 9.266642024687794e+000	 6.933340000004134e+000	 1.001002142826648e+001
0	 9.266642024687789e+000	 6.999999999999998e+000	 1.000994775778839e+001
0	 9.266642024687792e+000	 7.066659999995867e+000	 1.000984128978749e+001
0	 9.266642024687794e+000	 7.133319999991936e+000	 1.000970126417009e+001
0	 9.266642024687792e+000	 7.199979999988400e+000	 1.000952692084245e+001
0	 9.266642024687792e+000	 7.266639999985467e+000	 1.000931749971080e+001
0	 9.266642024687791e+000	 7.333299999983332e+000	 1.000907224068146e+001
0	 9.333302777352783e+000	 6.666700000016666e+000	 1.000863036731399e+001
0	 9.333302777352783e+000	 6.733360000014532e+000	 1.000871814480352e+001
0	 9.333302777352783e+000	 6.800020000011600e+000	 1.000877505435165e+001
0	 9.333302777352783e+000	 6.866680000008068e+000	 1.000880035363349e+001
0	 9.333302777352781e+000	 6.933340000004135e+000	 1.000879330032409e+001
0	 9.333302777352781e+000	 6.999999999999999e+000	 1.000875315209863e+001
0	 9.333302777352783e+000	 7.066659999995867e+000	 1.000867916663218e+001
0	 9.333302777352783e+000	 7.133319999991934e+000	 1.000857060159984e+001
0	 9.333302777352783e+000	 7.199979999988400e+000	 1.000842671467672e+001
0	 9.333302777352783e+000	 7.266639999985467e+000	 1.000824676353794e+001
0	 9.333302777352785e+000	 7.333299999983335e+000	 1.000803000585858e+001
0	 8.666700000016665e+000	 7.333299999983335e+000	 1.002038227642932e+001
0	 8.666700000016666e+000	 7.399969999982151e+000	 1.001970299182547e+001
0	 8.666700000016668e+000	 7.466639999981867e+000	 1.001902299788874e+001
0	 8.666700000016668e+000	 7.533309999982383e+000	 1.001834114210587e+001
0	 8.666700000016668e+000	 7.599979999983599e+000	 1.001765627196364e+001
0	 8.666700000016666e+000	 7.666649999985415e+000	 1.001696723494879e+001
0	 8.666700000016666e+000	 7.733319999987733e+000	 1.001627287854810e+001
0	 8.666700000016666e+000	 7.799989999990450e+000	 1.001557205024831e+001
0	 8.666700000016663e+000	 7.866659999993464e+000	 1.001486359753618e+001
0	 8.666700000016666e+000	 7.933329999996683e+000	 1.001414636789848e+001
0	 8.666700000016666e+000	 7.999999999999999e+000	 1.001341920882197e+001
0	 8.733360002791903e+000	 7.333299999983335e+000	 1.001897607929266e+001
0	 8.733360002791899e+000	 7.399969999982149e+000	 1.001835360965739e+001
0	 8.733360002791899e+000	 7.466639999981866e+000	 1.001772931332549e+001
0	 8.733360002791898e+000	 7.533309999982383e+000	 1.001710209845403e+001
0	 8.733360002791901e+000	 7.599979999983598e+000	 1.001647087320009e+001
0	 8.733360002791905e+000	 7.666649999985416e+000	 1.001583454572069e+001
0	 8.733360002791901e+000	 7.733319999987733e+000	 1.001519202417288e+001
0	 8.733360002791905e+000	 7.799989999990449e+000	 1.001454221671372e+001
0	 8.733360002791903e+000	 7.866659999993466e+000	 1.001388403150027e+001
0	 8.733360002791903e+000	 7.933329999996683e+000	 1.001321637668957e+001
0	 8.733360002791903e+000	 7.999999999999999e+000	 1.001253816043866e+001
0	 8.800020022230557e+000	 7.333299999983335e+000	 1.001760298183007e+001
0	 8.800020022230555e+000	 7.399969999982151e+000	 1.001703521940578e+001
0	 8.800020022230555e+000	 7.466639999981867e+000	 1.001646458533424e+001
0	 8.800020022230553e+000	 7.533309999982382e+000	 1.001589004444464e+001
0	 8.800020022230557e+000	 7.599979999983601e+000	 1.001531056156614e+001
0	 8.800020022230553e+000	 7.666649999985416e+000	 1.001472510152788e+001
0	 8.800020022230555e+000	 7.733319999987734e+000	 1.001413262915907e+001
0	 8.800020022230555e+000	 7.799989999990451e+000	 1.001353210928883e+001
0	 8.800020022230555e+000	 7.866659999993468e+000	 1.001292250674637e+001
0	 8.800020022230555e+000	 7.933329999996682e+000	 1.001230278636085e+001
0	 8.800020022230557e+000	 8.000000000000004e+000	 1.001167191296143e+001
0	 8.866680074997042e+000	 7.333299999983335e+000	 1.001626481911968e+001
0	 8.866680074997042e+000	 7.399969999982151e+000	 1.001574938165270e+001
0	 8.866680074997040e+000	 7.466639999981867e+000	 1.001523010983268e+001
0	 8.866680074997039e+000	 7.533309999982383e+000	 1.001470602116271e+001
0	 8.866680074997040e+000	 7.599979999983600e+000	 1.001417613314585e+001
0	 8.866680074997044e+000	 7.666649999985416e+000	 1.001363946328519e+001
0	 8.866680074997044e+000	 7.733319999987732e+000	 1.001309502908378e+001
0	 8.866680074997042e+000	 7.799989999990450e+000	 1.001254184804470e+001
0	 8.866680074997040e+000	 7.866659999993467e+000	 1.001197893767103e+001
0	 8.866680074997039e+000	 7.933329999996683e+000	 1.001140531546583e+001
0	 8.866680074997044e+000	 8.000000000000002e+000	 1.001081999893220e+001
0	 8.933340177755776e+000	 7.333299999983334e+000	 1.001496342626867e+001
0	 8.933340177755774e+000	 7.399969999982150e+000	 1.001449765700659e+001
0	 8.933340177755778e+000	 7.466639999981866e+000	 1.001402718276237e+001
0	 8.933340177755778e+000	 7.533309999982384e+000	 1.001355106971474e+001
0	 8.933340177755774e+000	 7.599979999983599e+000	 1.001306838404240e+001
0	 8.933340177755779e+000	 7.666649999985416e+000	 1.001257819192410e+001
0	 8.933340177755776e+000	 7.733319999987733e+000	 1.001207955953857e+001
0	 8.933340177755778e+000	 7.799989999990448e+000	 1.001157155306455e+001
0	 8.933340177755774e+000	 7.866659999993465e+000	 1.001105323868076e+001
0	 8.933340177755776e+000	 7.933329999996684e+000	 1.001052368256592e+001
0	 8.933340177755776e+000	 8.000000000000000e+000	 1.000998195089877e+001
0	 9.000000347171181e+000	 7.333299999983333e+000	 1.001370063841312e+001
0	 9.000000347171177e+000	 7.399969999982148e+000	 1.001328160610240e+001
0	 9.000000347171181e+000	 7.466639999981867e+000	 1.001285710008890e+001
0	 9.000000347171183e+000	 7.533309999982383e+000	 1.001242623122873e+001
0	 9.000000347171179e+000	 7.599979999983600e+000	 1.001198811037802e+001
0	 9.000000347171175e+000	 7.666649999985415e+000	 1.001154184839288e+001
0	 9.000000347171179e+000	 7.733319999987732e+000	 1.001108655612943e+001
0	 9.000000347171177e+000	 7.799989999990450e+000	 1.001062134444379e+001
0	 9.000000347171179e+000	 7.866659999993466e+000	 1.001014532419207e+001
0	 9.000000347171179e+000	 7.933329999996682e+000	 1.000965760623041e+001
0	 9.000000347171179e+000	 8.000000000000000e+000	 1.000915730141489e+001
0	 9.066660599907664e+000	 7.333299999983335e+000	 1.001247829071812e+001
0	 9.066660599907664e+000	 7.399969999982150e+000	 1.001210278960143e+001
0	 9.066660599907667e+000	 7.466639999981867e+000	 1.001172115780171e+001
0	 9.066660599907667e+000	 7.533309999982382e+000	 1.001133254685417e+001
0	 9.066660599907667e+000	 7.599979999983600e+000	 1.001093610829402e+001
0	 9.066660599907666e+000	 7.666649999985417e+000	 1.001053099365646e+001
0	 9.066660599907666e+000	 7.733319999987734e+000	 1.001011635447671e+001
0	 9.066660599907667e+000	 7.799989999990448e+000	 1.000969134229000e+001
0	 9.066660599907666e+000	 7.866659999993467e+000	 1.000925510863155e+001
0	 9.066660599907664e+000	 7.933329999996683e+000	 1.000880680503653e+001
0	 9.066660599907669e+000	 8.000000000000000e+000	 1.000834558304021e+001
0	 9.133320952629655e+000	 7.333299999983335e+000	 1.001129821837767e+001
0	 9.133320952629649e+000	 7.399969999982150e+000	 1.001096276819149e+001
0	 9.133320952629649e+000	 7.466639999981865e+000	 1.001062065191427e+001
0	 9.133320952629655e+000	 7.533309999982383e+000	 1.001027105776204e+001
0	 9.133320952629649e+000	 7.599979999983599e+000	 1.000991317395077e+001
0	 9.133320952629653e+000	 7.666649999985417e+000	 1.000954618869652e+001
0	 9.133320952629653e+000	 7.733319999987733e+000	 1.000916929021526e+001
0	 9.133320952629651e+000	 7.799989999990449e+000	 1.000878166672301e+001
0	 9.133320952629653e+000	 7.866659999993467e+000	 1.000838250643573e+001
0	 9.133320952629651e+000	 7.933329999996684e+000	 1.000797099756949e+001
0	 9.133320952629651e+000	 8.000000000000000e+000	 1.000754632834025e+001
0	 9.199981422001555e+000	 7.333299999983335e+000	 1.001016225661480e+001
0	 9.199981422001557e+000	 7.399969999982152e+000	 1.000986310258677e+001
0	 9.199981422001555e+000	 7.466639999981866e+000	 1.000955687846394e+001
0	 9.199981422001555e+000	 7.533309999982385e+000	 1.000924280514480e+001
0	 9.199981422001553e+000	 7.599979999983598e+000	 1.000892010352782e+001
0	 9.199981422001555e+000	 7.666649999985417e+000	 1.000858799451150e+001
0	 9.199981422001555e+000	 7.733319999987733e+000	 1.000824569899429e+001
0	 9.199981422001555e+000	 7.799989999990450e+000	 1.000789243787471e+001
0	 9.199981422001553e+000	 7.866659999993467e+000	 1.000752743205123e+001
0	 9.199981422001555e+000	 7.933329999996682e+000	 1.000714990242231e+001
0	 9.199981422001553e+000	 8.000000000000000e+000	 1.000675906988646e+001
0	 9.266642024687791e+000	 7.333299999983332e+000	 1.000907224068146e+001
0	 9.266642024687792e+000	 7.399969999982150e+000	 1.000880535352795e+001
0	 9.266642024687791e+000	 7.466639999981865e+000	 1.000853113351205e+001
0	 9.266642024687791e+000	 7.533309999982384e+000	 1.000824883021641e+001
0	 9.266642024687792e+000	 7.599979999983600e+000	 1.000795769322368e+001
0	 9.266642024687794e+000	 7.666649999985417e+000	 1.000765697211648e+001
0	 9.266642024687791e+000	 7.733319999987732e+000	 1.000734591647747e+001
0	 9.266642024687792e+000	 7.799989999990449e+000	 1.000702377588930e+001
0	 9.266642024687792e+000	 7.866659999993466e+000	 1.000668979993460e+001
0	 9.266642024687792e+000	 7.933329999996682e+000	 1.000634323819600e+001
0	 9.266642024687792e+000	 8.000000000000000e+000	 1.000598334025619e+001
0	 9.333302777352785e+000	 7.333299999983335e+000	 1.000803000585858e+001
0	 9.333302777352781e+000	 7.399969999982150e+000	 1.000779108178212e+001
0	 9.333302777352783e+000	 7.466639999981866e+000	 1.000754471314388e+001
0	 9.333302777352783e+000	 7.533309999982383e+000	 1.000729017421234e+001
0	 9.333302777352785e+000	 7.599979999983600e+000	 1.000702673925598e+001
0	 9.333302777352783e+000	 7.666649999985418e+000	 1.000675368254333e+001
0	 9.333302777352783e+000	 7.733319999987732e+000	 1.000647027834286e+001
0	 9.333302777352783e+000	 7.799989999990449e+000	 1.000617580092307e+001
0	 9.333302777352781e+000	 7.866659999993466e+000	 1.000586952455243e+001
0	 9.333302777352781e+000	 7.933329999996683e+000	 1.000555072349948e+001
0	 9.333302777352783e+000	 8.000000000000000e+000	 1.000521867203267e+001
0	 8.666700000016666e+000	 7.999999999999999e+000	 1.001341920882197e+001
0	 8.666700000016666e+000	 8.066670000003317e+000	 1.001269517967458e+001
0	 8.666700000016666e+000	 8.133340000006534e+000	 1.001198722908955e+001
0	 8.666700000016666e+000	 8.200010000009550e+000	 1.001129403845161e+001
0	 8.666700000016666e+000	 8.266680000012268e+000	 1.001061428914545e+001
0	 8.666700000016666e+000	 8.333350000014585e+000	 1.000994666255581e+001
0	 8.666700000016668e+000	 8.400020000016401e+000	 1.000928984006737e+001
0	 8.666700000016666e+000	 8.466690000017618e+000	 1.000864250306487e+001
0	 8.666700000016665e+000	 8.533360000018133e+000	 1.000800333293302e+001
0	 8.666700000016666e+000	 8.600030000017851e+000	 1.000737101105653e+001
0	 8.666700000016666e+000	 8.666700000016666e+000	 1.000674421882010e+001
0	 8.733360002791903e+000	 7.999999999999999e+000	 1.001253816043866e+001
0	 8.733360002791899e+000	 8.066670000003315e+000	 1.001186217865305e+001
0	 8.733360002791903e+000	 8.133340000006530e+000	 1.001120111469982e+001
0	 8.733360002791903e+000	 8.200010000009552e+000	 1.001055370792830e+001
0	 8.733360002791901e+000	 8.266680000012267e+000	 1.000991869768793e+001
0	 8.733360002791903e+000	 8.333350000014583e+000	 1.000929482332807e+001
0	 8.733360002791901e+000	 8.400020000016399e+000	 1.000868082419813e+001
0	 8.733360002791901e+000	 8.466690000017618e+000	 1.000807543964748e+001
0	 8.733360002791899e+000	 8.533360000018131e+000	 1.000747740902552e+001
0	 8.733360002791899e+000	 8.600030000017851e+000	 1.000688547168162e+001
0	 8.733360002791903e+000	 8.666700000016666e+000	 1.000629836696519e+001
0	 8.800020022230557e+000	 8.000000000000004e+000	 1.001167191296143e+001
0	 8.800020022230557e+000	 8.066670000003315e+000	 1.001104242260949e+001
0	 8.800020022230555e+000	 8.133340000006536e+000	 1.001042674115570e+001
0	 8.800020022230553e+000	 8.200010000009547e+000	 1.000982366811327e+001
0	 8.800020022230555e+000	 8.266680000012268e+000	 1.000923200299534e+001
0	 8.800020022230552e+000	 8.333350000014582e+000	 1.000865054531509e+001
0	 8.800020022230555e+000	 8.400020000016401e+000	 1.000807809458565e+001
0	 8.800020022230557e+000	 8.466690000017618e+000	 1.000751345032023e+001
0	 8.800020022230557e+000	 8.533360000018135e+000	 1.000695541203196e+001
0	 8.800020022230553e+000	 8.600030000017849e+000	 1.000640277923402e+001
0	 8.800020022230553e+000	 8.666700000016666e+000	 1.000585435143959e+001
0	 8.866680074997044e+000	 8.000000000000002e+000	 1.001081999893220e+001
0	 8.866680074997039e+000	 8.066670000003317e+000	 1.001023527425010e+001
0	 8.866680074997042e+000	 8.133340000006534e+000	 1.000966332384818e+001
0	 8.866680074997040e+000	 8.200010000009550e+000	 1.000910300960243e+001
0	 8.866680074997044e+000	 8.266680000012270e+000	 1.000855319338882e+001
0	 8.866680074997039e+000	 8.333350000014582e+000	 1.000801273708338e+001
0	 8.866680074997040e+000	 8.400020000016401e+000	 1.000748050256209e+001
0	 8.866680074997040e+000	 8.466690000017618e+000	 1.000695535170094e+001
0	 8.866680074997037e+000	 8.533360000018131e+000	 1.000643614637593e+001
0	 8.866680074997040e+000	 8.600030000017851e+000	 1.000592174846305e+001
0	 8.866680074997042e+000	 8.666700000016670e+000	 1.000541101983830e+001
0	 8.933340177755776e+000	 8.000000000000000e+000	 1.000998195089877e+001
0	 8.933340177755778e+000	 8.066670000003319e+000	 1.000944009628516e+001
0	 8.933340177755774e+000	 8.133340000006532e+000	 1.000891007817032e+001
0	 8.933340177755778e+000	 8.200010000009550e+000	 1.000839082299207e+001
0	 8.933340177755776e+000	 8.266680000012267e+000	 1.000788125718823e+001
0	 8.933340177755778e+000	 8.333350000014585e+000	 1.000738030719666e+001
0	 8.933340177755776e+000	 8.400020000016403e+000	 1.000688689945514e+001
0	 8.933340177755778e+000	 8.466690000017618e+000	 1.000639996040152e+001
0	 8.933340177755776e+000	 8.533360000018133e+000	 1.000591841647365e+001
0	 8.933340177755774e+000	 8.600030000017849e+000	 1.000544119410930e+001
0	 8.933340177755776e+000	 8.666700000016665e+000	 1.000496721974635e+001
0	 9.000000347171179e+000	 8.000000000000000e+000	 1.000915730141489e+001
0	 9.000000347171179e+000	 8.066670000003315e+000	 1.000865625142888e+001
0	 9.000000347171179e+000	 8.133340000006534e+000	 1.000816621951734e+001
0	 9.000000347171175e+000	 8.200010000009549e+000	 1.000768619887887e+001
0	 9.000000347171179e+000	 8.266680000012267e+000	 1.000721518271209e+001
0	 9.000000347171175e+000	 8.333350000014583e+000	 1.000675216421561e+001
0	 9.000000347171175e+000	 8.400020000016401e+000	 1.000629613658801e+001
0	 9.000000347171181e+000	 8.466690000017618e+000	 1.000584609302791e+001
0	 9.000000347171177e+000	 8.533360000018133e+000	 1.000540102673394e+001
0	 9.000000347171179e+000	 8.600030000017851e+000	 1.000495993090467e+001
0	 9.000000347171181e+000	 8.666700000016665e+000	 1.000452179873874e+001
0	 9.066660599907669e+000	 8.000000000000000e+000	 1.000834558304021e+001
0	 9.066660599907666e+000	 8.066670000003315e+000	 1.000788310239947e+001
0	 9.066660599907667e+000	 8.133340000006534e+000	 1.000743096328660e+001
0	 9.066660599907667e+000	 8.200010000009552e+000	 1.000698822785989e+001
0	 9.066660599907666e+000	 8.266680000012268e+000	 1.000655395827760e+001
0	 9.066660599907667e+000	 8.333350000014585e+000	 1.000612721669802e+001
0	 9.066660599907667e+000	 8.400020000016399e+000	 1.000570706527944e+001
0	 9.066660599907666e+000	 8.466690000017618e+000	 1.000529256618011e+001
0	 9.066660599907667e+000	 8.533360000018135e+000	 1.000488278155833e+001
0	 9.066660599907664e+000	 8.600030000017849e+000	 1.000447677357239e+001
0	 9.066660599907666e+000	 8.666700000016668e+000	 1.000407360438052e+001
0	 9.133320952629651e+000	 8.000000000000000e+000	 1.000754632834025e+001
0	 9.133320952629651e+000	 8.066670000003317e+000	 1.000712001191909e+001
0	 9.133320952629653e+000	 8.133340000006532e+000	 1.000670352487757e+001
0	 9.133320952629651e+000	 8.200010000009550e+000	 1.000629600053252e+001
0	 9.133320952629653e+000	 8.266680000012268e+000	 1.000589657220066e+001
0	 9.133320952629649e+000	 8.333350000014585e+000	 1.000550437319880e+001
0	 9.133320952629651e+000	 8.400020000016401e+000	 1.000511853684371e+001
0	 9.133320952629653e+000	 8.466690000017618e+000	 1.000473819645218e+001
0	 9.133320952629653e+000	 8.533360000018137e+000	 1.000436248534098e+001
0	 9.133320952629651e+000	 8.600030000017849e+000	 1.000399053682688e+001
0	 9.133320952629653e+000	 8.666700000016666e+000	 1.000362148422670e+001
0	 9.199981422001553e+000	 8.000000000000000e+000	 1.000675906988646e+001
0	 9.199981422001555e+000	 8.066670000003317e+000	 1.000636634271388e+001
0	 9.199981422001555e+000	 8.133340000006532e+000	 1.000598311969190e+001
0	 9.199981422001555e+000	 8.200010000009550e+000	 1.000560860749455e+001
0	 9.199981422001557e+000	 8.266680000012268e+000	 1.000524201279585e+001
0	 9.199981422001553e+000	 8.333350000014583e+000	 1.000488254226987e+001
0	 9.199981422001555e+000	 8.400020000016399e+000	 1.000452940259063e+001
0	 9.199981422001553e+000	 8.466690000017616e+000	 1.000418180043222e+001
0	 9.199981422001555e+000	 8.533360000018135e+000	 1.000383894246865e+001
0	 9.199981422001555e+000	 8.600030000017849e+000	 1.000350003537399e+001
0	 9.199981422001557e+000	 8.666700000016666e+000	 1.000316428582227e+001
0	 9.266642024687792e+000	 8.000000000000000e+000	 1.000598334025619e+001
0	 9.266642024687792e+000	 8.066670000003317e+000	 1.000562145751402e+001
0	 9.266642024687792e+000	 8.133340000006534e+000	 1.000526896313333e+001
0	 9.266642024687791e+000	 8.200010000009550e+000	 1.000492513934413e+001
0	 9.266642024687791e+000	 8.266680000012267e+000	 1.000458926837642e+001
0	 9.266642024687792e+000	 8.333350000014583e+000	 1.000426063246021e+001
0	 9.266642024687794e+000	 8.400020000016403e+000	 1.000393851382553e+001
0	 9.266642024687792e+000	 8.466690000017616e+000	 1.000362219470240e+001
0	 9.266642024687791e+000	 8.533360000018131e+000	 1.000331095732081e+001
0	 9.266642024687791e+000	 8.600030000017851e+000	 1.000300408391078e+001
0	 9.266642024687794e+000	 8.666700000016668e+000	 1.000270085670231e+001
0	 9.333302777352783e+000	 8.000000000000000e+000	 1.000521867203267e+001
0	 9.333302777352783e+000	 8.066670000003319e+000	 1.000488471905357e+001
0	 9.333302777352783e+000	 8.133340000006532e+000	 1.000456027060773e+001
0	 9.333302777352783e+000	 8.200010000009552e+000	 1.000424468667977e+001
0	 9.333302777352783e+000	 8.266680000012267e+000	 1.000393732725432e+001
0	 9.333302777352783e+000	 8.333350000014585e+000	 1.000363755231596e+001
0	 9.333302777352785e+000	 8.400020000016403e+000	 1.000334472184930e+001
0	 9.333302777352785e+000	 8.466690000017618e+000	 1.000305819583894e+001
0	 9.333302777352783e+000	 8.533360000018135e+000	 1.000277733426952e+001
0	 9.333302777352783e+000	 8.600030000017849e+000	 1.000250149712560e+001
0	 9.333302777352783e+000	 8.666700000016666e+000	 1.000223004439182e+001
0	 8.666700000016666e+000	 8.666700000016666e+000	 1.000674421882010e+001
0	 8.666700000016666e+000	 8.733360002791901e+000	 1.000613550130179e+001
0	 8.666700000016665e+000	 8.800020022230553e+000	 1.000555718757862e+001
0	 8.666700000016666e+000	 8.866680074997039e+000	 1.000500791596597e+001
0	 8.666700000016665e+000	 8.933340177755778e+000	 1.000448632469419e+001
0	 8.666700000016665e+000	 9.000000347171181e+000	 1.000399105190857e+001
0	 8.666700000016666e+000	 9.066660599907667e+000	 1.000352073566926e+001
0	 8.666700000016666e+000	 9.133320952629655e+000	 1.000307401395138e+001
0	 8.666700000016668e+000	 9.199981422001558e+000	 1.000264952464499e+001
0	 8.666700000016668e+000	 9.266642024687798e+000	 1.000224590555501e+001
0	 8.666700000016666e+000	 9.333302777352783e+000	 1.000186179440137e+001
0	 8.733360002791903e+000	 8.666700000016666e+000	 1.000629836696519e+001
0	 8.733360002791903e+000	 8.733360002791901e+000	 1.000572815313965e+001
0	 8.733360002791905e+000	 8.800020022230559e+000	 1.000518670784652e+001
0	 8.733360002791901e+000	 8.866680074997040e+000	 1.000467276272813e+001
0	 8.733360002791903e+000	 8.933340177755776e+000	 1.000418504934682e+001
0	 8.733360002791903e+000	 9.000000347171183e+000	 1.000372229918500e+001
0	 8.733360002791901e+000	 9.066660599907667e+000	 1.000328324364505e+001
0	 8.733360002791901e+000	 9.133320952629655e+000	 1.000286661404946e+001
0	 8.733360002791901e+000	 9.199981422001557e+000	 1.000247114164072e+001
0	 8.733360002791901e+000	 9.266642024687796e+000	 1.000209555758135e+001
0	 8.733360002791899e+000	 9.333302777352781e+000	 1.000173859295398e+001
0	 8.800020022230553e+000	 8.666700000016666e+000	 1.000585435143958e+001
0	 8.800020022230555e+000	 8.733360002791903e+000	 1.000532172215229e+001
0	 8.800020022230553e+000	 8.800020022230553e+000	 1.000481633436065e+001
0	 8.800020022230553e+000	 8.866680074997040e+000	 1.000433700776289e+001
0	 8.800020022230552e+000	 8.933340177755778e+000	 1.000388256198228e+001
0	 8.800020022230555e+000	 9.000000347171181e+000	 1.000345181656688e+001
0	 8.800020022230557e+000	 9.066660599907671e+000	 1.000304359098977e+001
0	 8.800020022230553e+000	 9.133320952629656e+000	 1.000265670464892e+001
0	 8.800020022230555e+000	 9.199981422001558e+000	 1.000228997686725e+001
0	 8.800020022230553e+000	 9.266642024687796e+000	 1.000194222689257e+001
0	 8.800020022230553e+000	 9.333302777352781e+000	 1.000161227389763e+001
0	 8.866680074997042e+000	 8.666700000016670e+000	 1.000541101983830e+001
0	 8.866680074997039e+000	 8.733360002791899e+000	 1.000491510219444e+001
0	 8.866680074997040e+000	 8.800020022230555e+000	 1.000444501155653e+001
0	 8.866680074997040e+000	 8.866680074997044e+000	 1.000399965040778e+001
0	 8.866680074997042e+000	 8.933340177755781e+000	 1.000357792116094e+001
0	 8.866680074997039e+000	 9.000000347171181e+000	 1.000317872615839e+001
0	 8.866680074997040e+000	 9.066660599907667e+000	 1.000280096767207e+001
0	 8.866680074997039e+000	 9.133320952629656e+000	 1.000244354790352e+001
0	 8.866680074997039e+000	 9.199981422001557e+000	 1.000210536898385e+001
0	 8.866680074997040e+000	 9.266642024687794e+000	 1.000178533297378e+001
0	 8.866680074997042e+000	 9.333302777352785e+000	 1.000148234186355e+001
0	 8.933340177755776e+000	 8.666700000016665e+000	 1.000496721974635e+001
0	 8.933340177755778e+000	 8.733360002791903e+000	 1.000450718710953e+001
0	 8.933340177755774e+000	 8.800020022230553e+000	 1.000407168385732e+001
0	 8.933340177755778e+000	 8.866680074997044e+000	 1.000365968998671e+001
0	 8.933340177755776e+000	 8.933340177755779e+000	 1.000327018542866e+001
0	 8.933340177755774e+000	 9.000000347171181e+000	 1.000290215004819e+001
0	 8.933340177755778e+000	 9.066660599907667e+000	 1.000255456364427e+001
0	 8.933340177755778e+000	 9.133320952629656e+000	 1.000222640594991e+001
0	 8.933340177755779e+000	 9.199981422001560e+000	 1.000191665663213e+001
0	 8.933340177755776e+000	 9.266642024687796e+000	 1.000162429529194e+001
0	 8.933340177755776e+000	 9.333302777352781e+000	 1.000134830146435e+001
0	 9.000000347171181e+000	 8.666700000016665e+000	 1.000452179873874e+001
0	 9.000000347171183e+000	 8.733360002791901e+000	 1.000409687072979e+001
0	 9.000000347171177e+000	 8.800020022230553e+000	 1.000369529567375e+001
0	 9.000000347171183e+000	 8.866680074997042e+000	 1.000331612581017e+001
0	 9.000000347171181e+000	 8.933340177755779e+000	 1.000295841331675e+001
0	 9.000000347171177e+000	 9.000000347171183e+000	 1.000262121030945e+001
0	 9.000000347171179e+000	 9.066660599907666e+000	 1.000230356884234e+001
0	 9.000000347171181e+000	 9.133320952629653e+000	 1.000200454090768e+001
0	 9.000000347171181e+000	 9.199981422001560e+000	 1.000172317843596e+001
0	 9.000000347171181e+000	 9.266642024687796e+000	 1.000145853329580e+001
0	 9.000000347171181e+000	 9.333302777352785e+000	 1.000120965729403e+001
0	 9.066660599907666e+000	 8.666700000016668e+000	 1.000407360438052e+001
0	 9.066660599907666e+000	 8.733360002791903e+000	 1.000368304687620e+001
0	 9.066660599907667e+000	 8.800020022230555e+000	 1.000331479140411e+001
0	 9.066660599907664e+000	 8.866680074997044e+000	 1.000296795717508e+001
0	 9.066660599907666e+000	 8.933340177755779e+000	 1.000264166334200e+001
0	 9.066660599907667e+000	 9.000000347171183e+000	 1.000233502899990e+001
0	 9.066660599907664e+000	 9.066660599907666e+000	 1.000204717318593e+001
0	 9.066660599907666e+000	 9.133320952629656e+000	 1.000177721487933e+001
0	 9.066660599907666e+000	 9.199981422001558e+000	 1.000152427300149e+001
0	 9.066660599907664e+000	 9.266642024687794e+000	 1.000128746641583e+001
0	 9.066660599907667e+000	 9.333302777352783e+000	 1.000106591392798e+001
0	 9.133320952629653e+000	 8.666700000016666e+000	 1.000362148422670e+001
0	 9.133320952629651e+000	 8.733360002791903e+000	 1.000326460935852e+001
0	 9.133320952629653e+000	 8.800020022230555e+000	 1.000292911543435e+001
0	 9.133320952629653e+000	 8.866680074997042e+000	 1.000261418336487e+001
0	 9.133320952629653e+000	 8.933340177755779e+000	 1.000231899400659e+001
0	 9.133320952629655e+000	 9.000000347171181e+000	 1.000204272816174e+001
0	 9.133320952629653e+000	 9.066660599907671e+000	 1.000178456657838e+001
0	 9.133320952629651e+000	 9.133320952629655e+000	 1.000154368995031e+001
0	 9.133320952629651e+000	 9.199981422001560e+000	 1.000131927891719e+001
0	 9.133320952629653e+000	 9.266642024687796e+000	 1.000111051406434e+001
0	 9.133320952629651e+000	 9.333302777352785e+000	 1.000091657592297e+001
0	 9.199981422001557e+000	 8.666700000016666e+000	 1.000316428582227e+001
0	 9.199981422001553e+000	 8.733360002791901e+000	 1.000284045197525e+001
0	 9.199981422001553e+000	 8.800020022230555e+000	 1.000253721213794e+001
0	 9.199981422001555e+000	 8.866680074997040e+000	 1.000225380364948e+001
0	 9.199981422001558e+000	 8.933340177755781e+000	 1.000198946379823e+001
0	 9.199981422001557e+000	 9.000000347171183e+000	 1.000174342982174e+001
0	 9.199981422001555e+000	 9.066660599907667e+000	 1.000151493890667e+001
0	 9.199981422001557e+000	 9.133320952629653e+000	 1.000130322818900e+001
0	 9.199981422001557e+000	 9.199981422001558e+000	 1.000110753475378e+001
0	 9.199981422001555e+000	 9.266642024687798e+000	 1.000092709563531e+001
0	 9.199981422001553e+000	 9.333302777352779e+000	 1.000076114781709e+001
0	 9.266642024687794e+000	 8.666700000016668e+000	 1.000270085670231e+001
0	 9.266642024687791e+000	 8.733360002791901e+000	 1.000240946851370e+001
0	 9.266642024687791e+000	 8.800020022230555e+000	 1.000213802587599e+001
0	 9.266642024687791e+000	 8.866680074997042e+000	 1.000188581728531e+001
0	 9.266642024687791e+000	 8.933340177755778e+000	 1.000165213119010e+001
0	 9.266642024687792e+000	 9.000000347171181e+000	 1.000143625599113e+001
0	 9.266642024687794e+000	 9.066660599907669e+000	 1.000123748004151e+001
0	 9.266642024687792e+000	 9.133320952629655e+000	 1.000105509164664e+001
0	 9.266642024687794e+000	 9.199981422001558e+000	 1.000088837906432e+001
0	 9.266642024687794e+000	 9.266642024687798e+000	 1.000073663050459e+001
0	 9.266642024687792e+000	 9.333302777352785e+000	 1.000059913412988e+001
0	 9.333302777352783e+000	 8.666700000016666e+000	 1.000223004439182e+001
0	 9.333302777352781e+000	 8.733360002791901e+000	 1.000197055274990e+001
0	 9.333302777352783e+000	 8.800020022230557e+000	 1.000173050099720e+001
0	 9.333302777352781e+000	 8.866680074997039e+000	 1.000150922351525e+001
0	 9.333302777352781e+000	 8.933340177755778e+000	 1.000130605464076e+001
0	 9.333302777352783e+000	 9.000000347171181e+000	 1.000112032866572e+001
0	 9.333302777352785e+000	 9.066660599907667e+000	 1.000095137983720e+001
0	 9.333302777352781e+000	 9.133320952629655e+000	 1.000079854235750e+001
0	 9.333302777352781e+000	 9.199981422001558e+000	 1.000066115038412e+001
0	 9.333302777352781e+000	 9.266642024687794e+000	 1.000053853802973e+001
0	 9.333302777352785e+000	 9.333302777352785e+000	 1.000043003936219e+001
0	 8.666700000016666e+000	 9.333302777352783e+000	 1.000186179440137e+001
0	 8.666700000016668e+000	 9.399973674588178e+000	 1.000150749021705e+001
0	 8.666700000016666e+000	 9.466644621844619e+000	 1.000119346528533e+001
0	 8.666700000016668e+000	 9.533315502450000e+000	 1.000091844908671e+001
0	 8.666700000016665e+000	 9.599986199732197e+000	 1.000068117194312e+001
0	 8.666700000016666e+000	 9.666656597019095e+000	 1.000048036501784e+001
0	 8.666700000016668e+000	 9.733326577638577e+000	 1.000031476031561e+001
0	 8.666700000016668e+000	 9.799996024918521e+000	 1.000018309068262e+001
0	 8.666700000016666e+000	 9.866664822186822e+000	 1.000008408980670e+001
0	 8.666700000016666e+000	 9.933332852771352e+000	 1.000001649221724e+001
0	 8.666700000016666e+000	 1.000000000000000e+001	 9.999979033285422e+000
0	 8.733360002791899e+000	 9.333302777352781e+000	 1.000173859295398e+001
0	 8.733360002791905e+000	 9.399973674588177e+000	 1.000140950547110e+001
0	 8.733360002791903e+000	 9.466644621844621e+000	 1.000111774922148e+001
0	 8.733360002791903e+000	 9.533315502450002e+000	 1.000086219372744e+001
0	 8.733360002791901e+000	 9.599986199732197e+000	 1.000064170929288e+001
0	 8.733360002791905e+000	 9.666656597019095e+000	 1.000045516700312e+001
0	 8.733360002791899e+000	 9.733326577638575e+000	 1.000030143872511e+001
0	 8.733360002791905e+000	 9.799996024918524e+000	 1.000017939710739e+001
0	 8.733360002791903e+000	 9.866664822186824e+000	 1.000008791558014e+001
0	 8.733360002791903e+000	 9.933332852771354e+000	 1.000002586835532e+001
0	 8.733360002791903e+000	 1.000000000000000e+001	 9.999992130426778e+000
0	 8.800020022230553e+000	 9.333302777352781e+000	 1.000161227389763e+001
0	 8.800020022230555e+000	 9.399973674588175e+000	 1.000130825445189e+001
0	 8.800020022230555e+000	 9.466644621844623e+000	 1.000103854319209e+001
0	 8.800020022230553e+000	 9.533315502450000e+000	 1.000080217221084e+001
0	 8.800020022230555e+000	 9.599986199732195e+000	 1.000059817432216e+001
0	 8.800020022230557e+000	 9.666656597019097e+000	 1.000042558306172e+001
0	 8.800020022230552e+000	 9.733326577638577e+000	 1.000028343268670e+001
0	 8.800020022230553e+000	 9.799996024918524e+000	 1.000017075817598e+001
0	 8.800020022230555e+000	 9.866664822186822e+000	 1.000008659523012e+001
0	 8.800020022230557e+000	 9.933332852771356e+000	 1.000002998027142e+001
0	 8.800020022230555e+000	 1.000000000000000e+001	 9.999999950444025e+000
0	 8.866680074997042e+000	 9.333302777352785e+000	 1.000148234186355e+001
0	 8.866680074997042e+000	 9.399973674588178e+000	 1.000120334098783e+001
0	 8.866680074997039e+000	 9.466644621844617e+000	 1.000095557397905e+001
0	 8.866680074997039e+000	 9.533315502449998e+000	 1.000073825802881e+001
0	 8.866680074997042e+000	 9.599986199732197e+000	 1.000055061099052e+001
0	 8.866680074997037e+000	 9.666656597019092e+000	 1.000039185137926e+001
0	 8.866680074997040e+000	 9.733326577638575e+000	 1.000026119837187e+001
0	 8.866680074997037e+000	 9.799996024918519e+000	 1.000015787180706e+001
0	 8.866680074997039e+000	 9.866664822186820e+000	 1.000008109218533e+001
0	 8.866680074997040e+000	 9.933332852771352e+000	 1.000003008066927e+001
0	 8.866680074997039e+000	 1.000000000000000e+001	 1.000000405908332e+001
0	 8.933340177755776e+000	 9.333302777352781e+000	 1.000134830146435e+001
0	 8.933340177755778e+000	 9.399973674588175e+000	 1.000109436888848e+001
0	 8.933340177755776e+000	 9.466644621844619e+000	 1.000086856834508e+001
0	 8.933340177755778e+000	 9.533315502450002e+000	 1.000067032465425e+001
0	 8.933340177755779e+000	 9.599986199732198e+000	 1.000049906323836e+001
0	 8.933340177755776e+000	 9.666656597019092e+000	 1.000035421012215e+001
0	 8.933340177755776e+000	 9.733326577638570e+000	 1.000023519193269e+001
0	 8.933340177755778e+000	 9.799996024918524e+000	 1.000014143589952e+001
0	 8.933340177755776e+000	 9.866664822186822e+000	 1.000007236985452e+001
0	 8.933340177755778e+000	 9.933332852771354e+000	 1.000002742223220e+001
0	 8.933340177755776e+000	 1.000000000000000e+001	 1.000000602206965e+001
0	 9.000000347171181e+000	 9.333302777352785e+000	 1.000120965729403e+001
0	 9.000000347171181e+000	 9.399973674588178e+000	 1.000098094194452e+001
0	 9.000000347171179e+000	 9.466644621844619e+000	 1.000077725303400e+001
0	 9.000000347171179e+000	 9.533315502450000e+000	 1.000059824554078e+001
0	 9.000000347171181e+000	 9.599986199732200e+000	 1.000044357498677e+001
0	 9.000000347171179e+000	 9.666656597019093e+000	 1.000031289743743e+001
0	 9.000000347171181e+000	 9.733326577638575e+000	 1.000020586950187e+001
0	 9.000000347171177e+000	 9.799996024918521e+000	 1.000012214833279e+001
0	 9.000000347171179e+000	 9.866664822186824e+000	 1.000006139162661e+001
0	 9.000000347171181e+000	 9.933332852771352e+000	 1.000002325762344e+001
0	 9.000000347171181e+000	 1.000000000000000e+001	 1.000000740510745e+001
0	 9.066660599907667e+000	 9.333302777352783e+000	 1.000106591392798e+001
0	 9.066660599907666e+000	 9.399973674588175e+000	 1.000086266392769e+001
0	 9.066660599907666e+000	 9.466644621844619e+000	 1.000068135477041e+001
0	 9.066660599907664e+000	 9.533315502449998e+000	 1.000052189412287e+001
0	 9.066660599907666e+000	 9.599986199732195e+000	 1.000038419013766e+001
0	 9.066660599907664e+000	 9.666656597019095e+000	 1.000026815145291e+001
0	 9.066660599907666e+000	 9.733326577638577e+000	 1.000017368719263e+001
0	 9.066660599907664e+000	 9.799996024918521e+000	 1.000010070696664e+001
0	 9.066660599907666e+000	 9.866664822186824e+000	 1.000004912087053e+001
0	 9.066660599907662e+000	 9.933332852771352e+000	 1.000001883948583e+001
0	 9.066660599907666e+000	 1.000000000000000e+001	 1.000000977388004e+001
0	 9.133320952629651e+000	 9.333302777352785e+000	 1.000091657592297e+001
0	 9.133320952629649e+000	 9.399973674588173e+000	 1.000073913859089e+001
0	 9.133320952629653e+000	 9.466644621844623e+000	 1.000058060025998e+001
0	 9.133320952629651e+000	 9.533315502450002e+000	 1.000044114381598e+001
0	 9.133320952629653e+000	 9.599986199732197e+000	 1.000032095257370e+001
0	 9.133320952629653e+000	 9.666656597019093e+000	 1.000022021027702e+001
0	 9.133320952629653e+000	 9.733326577638573e+000	 1.000013910109886e+001
0	 9.133320952629651e+000	 9.799996024918526e+000	 1.000007780964128e+001
0	 9.133320952629651e+000	 9.866664822186822e+000	 1.000003652093549e+001
0	 9.133320952629649e+000	 9.933332852771351e+000	 1.000001542044183e+001
0	 9.133320952629653e+000	 1.000000000000000e+001	 1.000001469404996e+001
0	 9.199981422001553e+000	 9.333302777352779e+000	 1.000076114781709e+001
0	 9.199981422001555e+000	 9.399973674588175e+000	 1.000060996966813e+001
0	 9.199981422001555e+000	 9.466644621844619e+000	 1.000047471618927e+001
0	 9.199981422001555e+000	 9.533315502450002e+000	 1.000035586801615e+001
0	 9.199981422001555e+000	 9.599986199732198e+000	 1.000025390615829e+001
0	 9.199981422001555e+000	 9.666656597019095e+000	 1.000016931199888e+001
0	 9.199981422001557e+000	 9.733326577638577e+000	 1.000010256729498e+001
0	 9.199981422001555e+000	 9.799996024918524e+000	 1.000005415417735e+001
0	 9.199981422001551e+000	 9.866664822186820e+000	 1.000002455515078e+001
0	 9.199981422001555e+000	 9.933332852771352e+000	 1.000001425309370e+001
0	 9.199981422001557e+000	 1.000000000000000e+001	 1.000002373125875e+001
0	 9.266642024687792e+000	 9.333302777352785e+000	 1.000059913412988e+001
0	 9.266642024687792e+000	 9.399973674588177e+000	 1.000047476087449e+001
0	 9.266642024687792e+000	 9.466644621844623e+000	 1.000036342922574e+001
0	 9.266642024687791e+000	 9.533315502450000e+000	 1.000026594010048e+001
0	 9.266642024687792e+000	 9.599986199732195e+000	 1.000018309473565e+001
0	 9.266642024687792e+000	 9.666656597019093e+000	 1.000011569468841e+001
0	 9.266642024687792e+000	 9.733326577638575e+000	 1.000006454183601e+001
0	 9.266642024687794e+000	 9.799996024918526e+000	 1.000003043837587e+001
0	 9.266642024687792e+000	 9.866664822186820e+000	 1.000001418682574e+001
0	 9.266642024687791e+000	 9.933332852771352e+000	 1.000001659002347e+001
0	 9.266642024687792e+000	 1.000000000000000e+001	 1.000003845112726e+001
0	 9.333302777352785e+000	 9.333302777352785e+000	 1.000043003936219e+001
0	 9.333302777352781e+000	 9.399973674588177e+000	 1.000033311590620e+001
0	 9.333302777352785e+000	 9.466644621844621e+000	 1.000024646601789e+001
0	 9.333302777352783e+000	 9.533315502450002e+000	 1.000017123342680e+001
0	 9.333302777352783e+000	 9.599986199732197e+000	 1.000010856213077e+001
0	 9.333302777352781e+000	 9.666656597019095e+000	 1.000005959639612e+001
0	 9.333302777352783e+000	 9.733326577638573e+000	 1.000002548075753e+001
0	 9.333302777352779e+000	 9.799996024918521e+000	 1.000000736001826e+001
0	 9.333302777352783e+000	 9.866664822186822e+000	 1.000000637924996e+001
0	 9.333302777352783e+000	 9.933332852771356e+000	 1.000002368379272e+001
0	 9.333302777352781e+000	 9.999999999999998e+000	 1.000006041925528e+001
0	 9.333302777352781e+000	 0.000000000000000e+000	 9.779309777683983e+000
0	 9.333302777352785e+000	 6.666714722864757e-002	 9.779377216834917e+000
0	 9.333302777352785e+000	 1.333351778131789e-001	 9.779593895351701e+000
0	 9.333302777352783e+000	 2.000039750814772e-001	 9.779960240284765e+000
0	 9.333302777352779e+000	 2.666734223614256e-001	 9.780476680710423e+000
0	 9.333302777352783e+000	 3.333434029809070e-001	 9.781143647730744e+000
0	 9.333302777352783e+000	 4.000138002678045e-001	 9.781961574473419e+000
0	 9.333302777352783e+000	 4.666844975500011e-001	 9.782930896091679e+000
0	 9.333302777352781e+000	 5.333553781553801e-001	 9.784052049764309e+000
0	 9.333302777352785e+000	 6.000263254118248e-001	 9.785325474695691e+000
0	 9.333302777352783e+000	 6.666972226472177e-001	 9.786751612115872e+000
0	 9.399973674588175e+000	 0.000000000000000e+000	 9.767480231473007e+000
0	 9.399973674588173e+000	 6.666714722864754e-002	 9.767554475292384e+000
0	 9.399973674588175e+000	 1.333351778131789e-001	 9.767783475676115e+000
0	 9.399973674588175e+000	 2.000039750814772e-001	 9.768167625297899e+000
0	 9.399973674588175e+000	 2.666734223614256e-001	 9.768707318917738e+000
0	 9.399973674588173e+000	 3.333434029809069e-001	 9.769402953381885e+000
0	 9.399973674588177e+000	 4.000138002678044e-001	 9.770254927622601e+000
0	 9.399973674588175e+000	 4.666844975500012e-001	 9.771263642658154e+000
0	 9.399973674588175e+000	 5.333553781553803e-001	 9.772429501592802e+000
0	 9.399973674588177e+000	 6.000263254118246e-001	 9.773752909616823e+000
0	 9.399973674588177e+000	 6.666972226472175e-001	 9.775234274006612e+000
0	 9.466644621844621e+000	 0.000000000000000e+000	 9.755354755954475e+000
0	 9.466644621844621e+000	 6.666714722864757e-002	 9.755436289391305e+000
0	 9.466644621844623e+000	 1.333351778131789e-001	 9.755678775969013e+000
0	 9.466644621844623e+000	 2.000039750814773e-001	 9.756082584550054e+000
0	 9.466644621844619e+000	 2.666734223614255e-001	 9.756648086152289e+000
0	 9.466644621844621e+000	 3.333434029809069e-001	 9.757375653948976e+000
0	 9.466644621844621e+000	 4.000138002678044e-001	 9.758265663268521e+000
0	 9.466644621844617e+000	 4.666844975500012e-001	 9.759318491594442e+000
0	 9.466644621844623e+000	 5.333553781553805e-001	 9.760534518565386e+000
0	 9.466644621844621e+000	 6.000263254118248e-001	 9.761914125975162e+000
0	 9.466644621844619e+000	 6.666972226472178e-001	 9.763457697772800e+000
0	 9.533315502450000e+000	 0.000000000000000e+000	 9.742912680865189e+000
0	 9.533315502450000e+000	 6.666714722864757e-002	 9.743001632992263e+000
0	 9.533315502450002e+000	 1.333351778131790e-001	 9.743258409225149e+000
0	 9.533315502449998e+000	 2.000039750814772e-001	 9.743683365178629e+000
0	 9.533315502450002e+000	 2.666734223614256e-001	 9.744276858700761e+000
0	 9.533315502449995e+000	 3.333434029809068e-001	 9.745039249872685e+000
0	 9.533315502449998e+000	 4.000138002678043e-001	 9.745970901008521e+000
0	 9.533315502449998e+000	 4.666844975500012e-001	 9.747072176655252e+000
0	 9.533315502450000e+000	 5.333553781553803e-001	 9.748343443592704e+000
0	 9.533315502449996e+000	 6.000263254118247e-001	 9.749785070833706e+000
0	 9.533315502449996e+000	 6.666972226472177e-001	 9.751397429624028e+000
0	 9.599986199732195e+000	 0.000000000000000e+000	 9.730133337839286e+000
0	 9.599986199732195e+000	 6.666714722864756e-002	 9.730229481830554e+000
0	 9.599986199732193e+000	 1.333351778131789e-001	 9.730500990289707e+000
0	 9.599986199732197e+000	 2.000039750814773e-001	 9.730948216145832e+000
0	 9.599986199732198e+000	 2.666734223614256e-001	 9.731571514647621e+000
0	 9.599986199732195e+000	 3.333434029809068e-001	 9.732371243363239e+000
0	 9.599986199732197e+000	 4.000138002678044e-001	 9.733347762180186e+000
0	 9.599986199732197e+000	 4.666844975500011e-001	 9.734501433305145e+000
0	 9.599986199732195e+000	 5.333553781553804e-001	 9.735832621264063e+000
0	 9.599986199732197e+000	 6.000263254118247e-001	 9.737341692902115e+000
0	 9.599986199732195e+000	 6.666972226472177e-001	 9.739029017383910e+000
0	 9.666656597019093e+000	 0.000000000000000e+000	 9.716996060408459e+000
0	 9.666656597019095e+000	 6.666714722864757e-002	 9.717098813516342e+000
0	 9.666656597019090e+000	 1.333351778131789e-001	 9.717385135858567e+000
0	 9.666656597019093e+000	 2.000039750814772e-001	 9.717855388238839e+000
0	 9.666656597019093e+000	 2.666734223614256e-001	 9.718509933875358e+000
0	 9.666656597019093e+000	 3.333434029809069e-001	 9.719349138400689e+000
0	 9.666656597019092e+000	 4.000138002678044e-001	 9.720373369861576e+000
0	 9.666656597019092e+000	 4.666844975500011e-001	 9.721582998718919e+000
0	 9.666656597019092e+000	 5.333553781553803e-001	 9.722978397847667e+000
0	 9.666656597019092e+000	 6.000263254118247e-001	 9.724559942536988e+000
0	 9.666656597019092e+000	 6.666972226472177e-001	 9.726328010490290e+000
0	 9.733326577638573e+000	 0.000000000000000e+000	 9.703480184002226e+000
0	 9.733326577638575e+000	 6.666714722864754e-002	 9.703588607534972e+000
0	 9.733326577638575e+000	 1.333351778131790e-001	 9.703889464478610e+000
0	 9.733326577638575e+000	 2.000039750814773e-001	 9.704383134070195e+000
0	 9.733326577638573e+000	 2.666734223614256e-001	 9.705069998064790e+000
0	 9.733326577638572e+000	 3.333434029809069e-001	 9.705950440735121e+000
0	 9.733326577638573e+000	 4.000138002678044e-001	 9.707024848871505e+000
0	 9.733326577638575e+000	 4.666844975500012e-001	 9.708293611781675e+000
0	 9.733326577638572e+000	 5.333553781553801e-001	 9.709757121290940e+000
0	 9.733326577638575e+000	 6.000263254118249e-001	 9.711415771742066e+000
0	 9.733326577638573e+000	 6.666972226472175e-001	 9.713269959995472e+000
0	 9.799996024918521e+000	 0.000000000000000e+000	 9.689565045948255e+000
0	 9.799996024918521e+000	 6.666714722864756e-002	 9.689677845247285e+000
0	 9.799996024918524e+000	 1.333351778131790e-001	 9.689992596547901e+000
0	 9.799996024918523e+000	 2.000039750814772e-001	 9.690509708078016e+000
0	 9.799996024918521e+000	 2.666734223614255e-001	 9.691229590695343e+000
0	 9.799996024918521e+000	 3.333434029809069e-001	 9.692152657887077e+000
0	 9.799996024918524e+000	 4.000138002678044e-001	 9.693279325769789e+000
0	 9.799996024918521e+000	 4.666844975500012e-001	 9.694610013089317e+000
0	 9.799996024918523e+000	 5.333553781553803e-001	 9.696145141220773e+000
0	 9.799996024918523e+000	 6.000263254118248e-001	 9.697885134168581e+000
0	 9.799996024918523e+000	 6.666972226472177e-001	 9.699830418566616e+000
0	 9.866664822186820e+000	 0.000000000000000e+000	 9.675229985472715e+000
0	 9.866664822186818e+000	 6.666714722864756e-002	 9.675345509889976e+000
0	 9.866664822186818e+000	 1.333351778131789e-001	 9.675673154316220e+000
0	 9.866664822186818e+000	 2.000039750814772e-001	 9.676213366526389e+000
0	 9.866664822186822e+000	 2.666734223614256e-001	 9.676966597045375e+000
0	 9.866664822186820e+000	 3.333434029809069e-001	 9.677933299147790e+000
0	 9.866664822186818e+000	 4.000138002678044e-001	 9.679113928857717e+000
0	 9.866664822186820e+000	 4.666844975500011e-001	 9.680508944948757e+000
0	 9.866664822186820e+000	 5.333553781553803e-001	 9.682118808943869e+000
0	 9.866664822186818e+000	 6.000263254118247e-001	 9.683943985115564e+000
0	 9.866664822186820e+000	 6.666972226472175e-001	 9.685984940485970e+000
0	 9.933332852771351e+000	 0.000000000000000e+000	 9.660454343700726e+000
0	 9.933332852771354e+000	 6.666714722864757e-002	 9.660570586576000e+000
0	 9.933332852771352e+000	 1.333351778131790e-001	 9.660909761885360e+000
0	 9.933332852771351e+000	 2.000039750814772e-001	 9.661472367505786e+000
0	 9.933332852771351e+000	 2.666734223614256e-001	 9.662258904192708e+000
0	 9.933332852771352e+000	 3.333434029809069e-001	 9.663269875579660e+000
0	 9.933332852771351e+000	 4.000138002678044e-001	 9.664505788178362e+000
0	 9.933332852771352e+000	 4.666844975500012e-001	 9.665967151378377e+000
0	 9.933332852771351e+000	 5.333553781553803e-001	 9.667654477447195e+000
0	 9.933332852771352e+000	 6.000263254118247e-001	 9.669568281530278e+000
0	 9.933332852771351e+000	 6.666972226472177e-001	 9.671709081651306e+000
0	 1.000000000000000e+001	 0.000000000000000e+000	 9.645217463656849e+000
0	 1.000000000000000e+001	 6.666714722864756e-002	 9.645332062295072e+000
0	 9.999999999999998e+000	 1.333351778131789e-001	 9.645681045209658e+000
0	 1.000000000000000e+001	 2.000039750814772e-001	 9.646264970933540e+000
0	 1.000000000000000e+001	 2.666734223614256e-001	 9.647084401014867e+000
0	 1.000000000000000e+001	 3.333434029809069e-001	 9.648139900016730e+000
0	 1.000000000000000e+001	 4.000138002678044e-001	 9.649432035517075e+000
0	 1.000000000000000e+001	 4.666844975500011e-001	 9.650961378108498e+000
0	 1.000000000000000e+001	 5.333553781553803e-001	 9.652728501398338e+000
0	 1.000000000000000e+001	 6.000263254118248e-001	 9.654733982008644e+000
0	 1.000000000000000e+001	 6.666972226472175e-001	 9.656978399576365e+000
0	 9.333302777352783e+000	 6.666972226472177e-001	 9.786751612115872e+000
0	 9.333302777352783e+000	 7.333579753122046e-001	 9.788315924699795e+000
0	 9.333302777352783e+000	 8.000185779984417e-001	 9.790004786458416e+000
0	 9.333302777352781e+000	 8.666790473703453e-001	 9.791819330806774e+000
0	 9.333302777352781e+000	 9.333394000923320e-001	 9.793760690915129e+000
0	 9.333302777352783e+000	 9.999996528288190e-001	 9.795829999708953e+000
0	 9.333302777352785e+000	 1.066659822244222e+000	 9.798028389868961e+000
0	 9.333302777352785e+000	 1.133319925002959e+000	 9.800356993831034e+000
0	 9.333302777352785e+000	 1.199979977769445e+000	 9.802816943786317e+000
0	 9.333302777352785e+000	 1.266639997208098e+000	 9.805409371681161e+000
0	 9.333302777352785e+000	 1.333299999983334e+000	 9.808135409217121e+000
0	 9.399973674588177e+000	 6.666972226472175e-001	 9.775234274006611e+000
0	 9.399973674588173e+000	 7.333579753122048e-001	 9.776858847398403e+000
0	 9.399973674588175e+000	 8.000185779984415e-001	 9.778612831534815e+000
0	 9.399973674588178e+000	 8.666790473703453e-001	 9.780497356546483e+000
0	 9.399973674588178e+000	 9.333394000923323e-001	 9.782513552311075e+000
0	 9.399973674588178e+000	 9.999996528288191e-001	 9.784662548453420e+000
0	 9.399973674588173e+000	 1.066659822244222e+000	 9.786945474345414e+000
0	 9.399973674588177e+000	 1.133319925002959e+000	 9.789363459106056e+000
0	 9.399973674588177e+000	 1.199979977769445e+000	 9.791917631601447e+000
0	 9.399973674588173e+000	 1.266639997208098e+000	 9.794609120444807e+000
0	 9.399973674588177e+000	 1.333299999983334e+000	 9.797439053996445e+000
0	 9.466644621844619e+000	 6.666972226472178e-001	 9.763457697772802e+000
0	 9.466644621844619e+000	 7.333579753122046e-001	 9.765149907362240e+000
0	 9.466644621844621e+000	 8.000185779984417e-001	 9.766976411467281e+000
0	 9.466644621844619e+000	 8.666790473703452e-001	 9.768938338916842e+000
0	 9.466644621844619e+000	 9.333394000923322e-001	 9.771036818278757e+000
0	 9.466644621844619e+000	 9.999996528288189e-001	 9.773272977859689e+000
0	 9.466644621844621e+000	 1.066659822244223e+000	 9.775647945705183e+000
0	 9.466644621844621e+000	 1.133319925002958e+000	 9.778162849599680e+000
0	 9.466644621844619e+000	 1.199979977769445e+000	 9.780818817066484e+000
0	 9.466644621844623e+000	 1.266639997208098e+000	 9.783616975367758e+000
0	 9.466644621844617e+000	 1.333299999983334e+000	 9.786558451504563e+000
0	 9.533315502449996e+000	 6.666972226472177e-001	 9.751397429624030e+000
0	 9.533315502450000e+000	 7.333579753122048e-001	 9.753164328450684e+000
0	 9.533315502450002e+000	 8.000185779984417e-001	 9.755070589658368e+000
0	 9.533315502450002e+000	 8.666790473703454e-001	 9.757117342758290e+000
0	 9.533315502450000e+000	 9.333394000923322e-001	 9.759305716991886e+000
0	 9.533315502449998e+000	 9.999996528288190e-001	 9.761636841330970e+000
0	 9.533315502449996e+000	 1.066659822244222e+000	 9.764111844477583e+000
0	 9.533315502450000e+000	 1.133319925002959e+000	 9.766731854864085e+000
0	 9.533315502449998e+000	 1.199979977769445e+000	 9.769498000653110e+000
0	 9.533315502450000e+000	 1.266639997208098e+000	 9.772411409737620e+000
0	 9.533315502450002e+000	 1.333299999983334e+000	 9.775473209740833e+000
0	 9.599986199732195e+000	 6.666972226472177e-001	 9.739029017383912e+000
0	 9.599986199732195e+000	 7.333579753122048e-001	 9.740877336103843e+000
0	 9.599986199732195e+000	 8.000185779984415e-001	 9.742870431057664e+000
0	 9.599986199732195e+000	 8.666790473703452e-001	 9.745009434423878e+000
0	 9.599986199732197e+000	 9.333394000923321e-001	 9.747295478102135e+000
0	 9.599986199732195e+000	 9.999996528288190e-001	 9.749729693713187e+000
0	 9.599986199732195e+000	 1.066659822244222e+000	 9.752313212598883e+000
0	 9.599986199732193e+000	 1.133319925002958e+000	 9.755047165822193e+000
0	 9.599986199732197e+000	 1.199979977769445e+000	 9.757932684167244e+000
0	 9.599986199732195e+000	 1.266639997208098e+000	 9.760970898139229e+000
0	 9.599986199732197e+000	 1.333299999983334e+000	 9.764162937964539e+000
0	 9.666656597019092e+000	 6.666972226472177e-001	 9.726328010490290e+000
0	 9.666656597019092e+000	 7.333579753122046e-001	 9.728264157342840e+000
0	 9.666656597019092e+000	 8.000185779984415e-001	 9.730351002161946e+000
0	 9.666656597019095e+000	 8.666790473703454e-001	 9.732589681779666e+000
0	 9.666656597019093e+000	 9.333394000923323e-001	 9.734981332739267e+000
0	 9.666656597019088e+000	 9.999996528288189e-001	 9.737527091295036e+000
0	 9.666656597019093e+000	 1.066659822244222e+000	 9.740228093412425e+000
0	 9.666656597019093e+000	 1.133319925002959e+000	 9.743085474767938e+000
0	 9.666656597019093e+000	 1.199979977769445e+000	 9.746100370749190e+000
0	 9.666656597019092e+000	 1.266639997208098e+000	 9.749273916454991e+000
0	 9.666656597019092e+000	 1.333299999983334e+000	 9.752607246695121e+000
0	 9.733326577638573e+000	 6.666972226472175e-001	 9.713269959995472e+000
0	 9.733326577638575e+000	 7.333579753122048e-001	 9.715300020770085e+000
0	 9.733326577638575e+000	 8.000185779984417e-001	 9.717487371015443e+000
0	 9.733326577638573e+000	 8.666790473703451e-001	 9.719833154204839e+000
0	 9.733326577638575e+000	 9.333394000923323e-001	 9.722338513511408e+000
0	 9.733326577638573e+000	 9.999996528288189e-001	 9.725004591808386e+000
0	 9.733326577638573e+000	 1.066659822244222e+000	 9.727832531669005e+000
0	 9.733326577638572e+000	 1.133319925002959e+000	 9.730823475366446e+000
0	 9.733326577638573e+000	 1.199979977769445e+000	 9.733978564874002e+000
0	 9.733326577638575e+000	 1.266639997208098e+000	 9.737298941864914e+000
0	 9.733326577638575e+000	 1.333299999983334e+000	 9.740785747712426e+000
0	 9.799996024918523e+000	 6.666972226472177e-001	 9.699830418566616e+000
0	 9.799996024918521e+000	 7.333579753122048e-001	 9.701960156569431e+000
0	 9.799996024918521e+000	 8.000185779984413e-001	 9.704254607210231e+000
0	 9.799996024918523e+000	 8.666790473703451e-001	 9.706714922592017e+000
0	 9.799996024918521e+000	 9.333394000923320e-001	 9.709342254505380e+000
0	 9.799996024918523e+000	 9.999996528288189e-001	 9.712137754428468e+000
0	 9.799996024918521e+000	 1.066659822244222e+000	 9.715102573527044e+000
0	 9.799996024918519e+000	 1.133319925002958e+000	 9.718237862654439e+000
0	 9.799996024918523e+000	 1.199979977769445e+000	 9.721544772351606e+000
0	 9.799996024918523e+000	 1.266639997208098e+000	 9.725024452847070e+000
0	 9.799996024918523e+000	 1.333299999983334e+000	 9.728678054056946e+000
0	 9.866664822186820e+000	 6.666972226472175e-001	 9.685984940485970e+000
0	 9.866664822186820e+000	 7.333579753122048e-001	 9.688219796506722e+000
0	 9.866664822186820e+000	 8.000185779984417e-001	 9.690627781886350e+000
0	 9.866664822186818e+000	 8.666790473703451e-001	 9.693210059347678e+000
0	 9.866664822186818e+000	 9.333394000923320e-001	 9.695967791286982e+000
0	 9.866664822186820e+000	 9.999996528288190e-001	 9.698902139774225e+000
0	 9.866664822186820e+000	 1.066659822244222e+000	 9.702014266552988e+000
0	 9.866664822186820e+000	 1.133319925002959e+000	 9.705305333040412e+000
0	 9.866664822186820e+000	 1.199979977769445e+000	 9.708776500327234e+000
0	 9.866664822186820e+000	 1.266639997208098e+000	 9.712428929177806e+000
0	 9.866664822186818e+000	 1.333299999983334e+000	 9.716263780030157e+000
0	 9.933332852771351e+000	 6.666972226472177e-001	 9.671709081651306e+000
0	 9.933332852771352e+000	 7.333579753122047e-001	 9.674054173929967e+000
0	 9.933332852771351e+000	 8.000185779984418e-001	 9.676581967732423e+000
0	 9.933332852771352e+000	 8.666790473703454e-001	 9.679293638392380e+000
0	 9.933332852771352e+000	 9.333394000923323e-001	 9.682190360901355e+000
0	 9.933332852771351e+000	 9.999996528288190e-001	 9.685273309908739e+000
0	 9.933332852771349e+000	 1.066659822244222e+000	 9.688543659721638e+000
0	 9.933332852771351e+000	 1.133319925002958e+000	 9.692002584305046e+000
0	 9.933332852771352e+000	 1.199979977769445e+000	 9.695651257281678e+000
0	 9.933332852771352e+000	 1.266639997208098e+000	 9.699490851932151e+000
0	 9.933332852771351e+000	 1.333299999983334e+000	 9.703522541194861e+000
0	 1.000000000000000e+001	 6.666972226472175e-001	 9.656978399576362e+000
0	 1.000000000000000e+001	 7.333579753122049e-001	 9.659438523770007e+000
0	 1.000000000000000e+001	 8.000185779984417e-001	 9.662092238985922e+000
0	 1.000000000000000e+001	 8.666790473703454e-001	 9.664940735161368e+000
0	 1.000000000000000e+001	 9.333394000923322e-001	 9.667985201873485e+000
0	 1.000000000000000e+001	 9.999996528288191e-001	 9.671226828339503e+000
0	 1.000000000000000e+001	 1.066659822244222e+000	 9.674666803416542e+000
0	 1.000000000000000e+001	 1.133319925002959e+000	 9.678306315601647e+000
0	 1.000000000000000e+001	 1.199979977769445e+000	 9.682146553031817e+000
0	 1.000000000000000e+001	 1.266639997208098e+000	 9.686188703484124e+000
0	 1.000000000000000e+001	 1.333299999983334e+000	 9.690433954375450e+000
0	 9.333302777352785e+000	 1.333299999983334e+000	 9.808135409217123e+000
0	 9.333302777352783e+000	 1.399969999982150e+000	 9.810965977375668e+000
0	 9.333302777352785e+000	 1.466639999981866e+000	 9.813871295852991e+000
0	 9.333302777352783e+000	 1.533309999982383e+000	 9.816852701313794e+000
0	 9.333302777352783e+000	 1.599979999983600e+000	 9.819911530422713e+000
0	 9.333302777352783e+000	 1.666649999985416e+000	 9.823049119844443e+000
0	 9.333302777352783e+000	 1.733319999987733e+000	 9.826266806243647e+000
0	 9.333302777352781e+000	 1.799989999990450e+000	 9.829565926285003e+000
0	 9.333302777352783e+000	 1.866659999993466e+000	 9.832947816633192e+000
0	 9.333302777352783e+000	 1.933329999996683e+000	 9.836413813952888e+000
0	 9.333302777352783e+000	 2.000000000000000e+000	 9.839965254908766e+000
0	 9.399973674588177e+000	 1.333299999983334e+000	 9.797439053996449e+000
0	 9.399973674588177e+000	 1.399969999982150e+000	 9.800377473201358e+000
0	 9.399973674588177e+000	 1.466639999981866e+000	 9.803393825649971e+000
0	 9.399973674588177e+000	 1.533309999982383e+000	 9.806489654400982e+000
0	 9.399973674588175e+000	 1.599979999983600e+000	 9.809666502513100e+000
0	 9.399973674588175e+000	 1.666649999985416e+000	 9.812925913045021e+000
0	 9.399973674588175e+000	 1.733319999987733e+000	 9.816269429055458e+000
0	 9.399973674588180e+000	 1.799989999990450e+000	 9.819698593603093e+000
0	 9.399973674588175e+000	 1.866659999993466e+000	 9.823214949746639e+000
0	 9.399973674588180e+000	 1.933329999996684e+000	 9.826820040544813e+000
0	 9.399973674588177e+000	 2.000000000000000e+000	 9.830515409056298e+000
0	 9.466644621844617e+000	 1.333299999983334e+000	 9.786558451504563e+000
0	 9.466644621844623e+000	 1.399969999982150e+000	 9.789612584061207e+000
0	 9.466644621844619e+000	 1.466639999981867e+000	 9.792748190913470e+000
0	 9.466644621844623e+000	 1.533309999982383e+000	 9.795966974019192e+000
0	 9.466644621844619e+000	 1.599979999983599e+000	 9.799270635336272e+000
0	 9.466644621844619e+000	 1.666649999985416e+000	 9.802660876822575e+000
0	 9.466644621844621e+000	 1.733319999987733e+000	 9.806139400435960e+000
0	 9.466644621844621e+000	 1.799989999990450e+000	 9.809707908134342e+000
0	 9.466644621844621e+000	 1.866659999993466e+000	 9.813368101875557e+000
0	 9.466644621844621e+000	 1.933329999996683e+000	 9.817121683617513e+000
0	 9.466644621844623e+000	 2.000000000000000e+000	 9.820970355318046e+000
0	 9.533315502450002e+000	 1.333299999983334e+000	 9.775473209740833e+000
0	 9.533315502449998e+000	 1.399969999982150e+000	 9.778652120717647e+000
0	 9.533315502449996e+000	 1.466639999981866e+000	 9.781916379012118e+000
0	 9.533315502450002e+000	 1.533309999982383e+000	 9.785267797987256e+000
0	 9.533315502450000e+000	 1.599979999983600e+000	 9.788708191006037e+000
0	 9.533315502449998e+000	 1.666649999985416e+000	 9.792239371431490e+000
0	 9.533315502449998e+000	 1.733319999987733e+000	 9.795863152626607e+000
0	 9.533315502450000e+000	 1.799989999990450e+000	 9.799581347954405e+000
0	 9.533315502450000e+000	 1.866659999993466e+000	 9.803395770777886e+000
0	 9.533315502449998e+000	 1.933329999996683e+000	 9.807308234460043e+000
0	 9.533315502450000e+000	 2.000000000000000e+000	 9.811320552363910e+000
0	 9.599986199732197e+000	 1.333299999983334e+000	 9.764162937964539e+000
0	 9.599986199732193e+000	 1.399969999982150e+000	 9.767476895155280e+000
0	 9.599986199732198e+000	 1.466639999981867e+000	 9.770880378498186e+000
0	 9.599986199732198e+000	 1.533309999982383e+000	 9.774375265267656e+000
0	 9.599986199732193e+000	 1.599979999983599e+000	 9.777963432738074e+000
0	 9.599986199732195e+000	 1.666649999985416e+000	 9.781646758183891e+000
0	 9.599986199732197e+000	 1.733319999987733e+000	 9.785427118879488e+000
0	 9.599986199732195e+000	 1.799989999990449e+000	 9.789306392099302e+000
0	 9.599986199732197e+000	 1.866659999993466e+000	 9.793286455117737e+000
0	 9.599986199732197e+000	 1.933329999996683e+000	 9.797369185209220e+000
0	 9.599986199732198e+000	 2.000000000000000e+000	 9.801556459648150e+000
0	 9.666656597019092e+000	 1.333299999983334e+000	 9.752607246695121e+000
0	 9.666656597019092e+000	 1.399969999982150e+000	 9.756067720581125e+000
0	 9.666656597019093e+000	 1.466639999981867e+000	 9.759622179107675e+000
0	 9.666656597019090e+000	 1.533309999982383e+000	 9.763272515966682e+000
0	 9.666656597019095e+000	 1.599979999983600e+000	 9.767020624850066e+000
0	 9.666656597019092e+000	 1.666649999985416e+000	 9.770868399449737e+000
0	 9.666656597019092e+000	 1.733319999987733e+000	 9.774817733457608e+000
0	 9.666656597019092e+000	 1.799989999990450e+000	 9.778870520565622e+000
0	 9.666656597019095e+000	 1.866659999993466e+000	 9.783028654465664e+000
0	 9.666656597019093e+000	 1.933329999996684e+000	 9.787294028849695e+000
0	 9.666656597019092e+000	 2.000000000000000e+000	 9.791668537409599e+000
0	 9.733326577638575e+000	 1.333299999983334e+000	 9.740785747712426e+000
0	 9.733326577638570e+000	 1.399969999982150e+000	 9.744405411424788e+000
0	 9.733326577638575e+000	 1.466639999981866e+000	 9.748123771760602e+000
0	 9.733326577638572e+000	 1.533309999982383e+000	 9.751942691334707e+000
0	 9.733326577638573e+000	 1.599979999983599e+000	 9.755864032761938e+000
0	 9.733326577638573e+000	 1.666649999985416e+000	 9.759889658657116e+000
0	 9.733326577638575e+000	 1.733319999987733e+000	 9.764021431635117e+000
0	 9.733326577638572e+000	 1.799989999990450e+000	 9.768261214310739e+000
0	 9.733326577638573e+000	 1.866659999993466e+000	 9.772610869298843e+000
0	 9.733326577638572e+000	 1.933329999996683e+000	 9.777072259214265e+000
0	 9.733326577638573e+000	 2.000000000000000e+000	 9.781647246671852e+000
0	 9.799996024918523e+000	 1.333299999983334e+000	 9.728678054056948e+000
0	 9.799996024918524e+000	 1.399969999982150e+000	 9.732470783338808e+000
0	 9.799996024918519e+000	 1.466639999981866e+000	 9.736367148561300e+000
0	 9.799996024918523e+000	 1.533309999982383e+000	 9.740368933766414e+000
0	 9.799996024918521e+000	 1.599979999983599e+000	 9.744477922996145e+000
0	 9.799996024918521e+000	 1.666649999985416e+000	 9.748695900292498e+000
0	 9.799996024918523e+000	 1.733319999987733e+000	 9.753024649697458e+000
0	 9.799996024918523e+000	 1.799989999990450e+000	 9.757465955253032e+000
0	 9.799996024918519e+000	 1.866659999993466e+000	 9.762021601001219e+000
0	 9.799996024918521e+000	 1.933329999996683e+000	 9.766693370984036e+000
0	 9.799996024918524e+000	 2.000000000000000e+000	 9.771483049243454e+000
0	 9.866664822186818e+000	 1.333299999983334e+000	 9.716263780030157e+000
0	 9.866664822186822e+000	 1.399969999982150e+000	 9.720244653198902e+000
0	 9.866664822186817e+000	 1.466639999981866e+000	 9.724334302798646e+000
0	 9.866664822186820e+000	 1.533309999982383e+000	 9.728534386801069e+000
0	 9.866664822186818e+000	 1.599979999983599e+000	 9.732846563177930e+000
0	 9.866664822186820e+000	 1.666649999985416e+000	 9.737272489900921e+000
0	 9.866664822186820e+000	 1.733319999987733e+000	 9.741813824941788e+000
0	 9.866664822186820e+000	 1.799989999990450e+000	 9.746472226272207e+000
0	 9.866664822186820e+000	 1.866659999993466e+000	 9.751249351863953e+000
0	 9.866664822186820e+000	 1.933329999996683e+000	 9.756146859688704e+000
0	 9.866664822186820e+000	 2.000000000000000e+000	 9.761166407718214e+000
0	 9.933332852771351e+000	 1.333299999983334e+000	 9.703522541194863e+000
0	 9.933332852771351e+000	 1.399969999982150e+000	 9.707707839104321e+000
0	 9.933332852771351e+000	 1.466639999981866e+000	 9.712007228946405e+000
0	 9.933332852771352e+000	 1.533309999982383e+000	 9.716422195122885e+000
0	 9.933332852771351e+000	 1.599979999983599e+000	 9.720954222035614e+000
0	 9.933332852771351e+000	 1.666649999985416e+000	 9.725604794086417e+000
0	 9.933332852771352e+000	 1.733319999987733e+000	 9.730375395677140e+000
0	 9.933332852771351e+000	 1.799989999990450e+000	 9.735267511209536e+000
0	 9.933332852771351e+000	 1.866659999993466e+000	 9.740282625085493e+000
0	 9.933332852771351e+000	 1.933329999996683e+000	 9.745422221706843e+000
0	 9.933332852771352e+000	 2.000000000000000e+000	 9.750687785475403e+000
0	 1.000000000000000e+001	 1.333299999983334e+000	 9.690433954375452e+000
0	 1.000000000000000e+001	 1.399969999982150e+000	 9.694841160378212e+000
0	 1.000000000000000e+001	 1.466639999981866e+000	 9.699367922663594e+000
0	 1.000000000000000e+001	 1.533309999982383e+000	 9.704015504561335e+000
0	 9.999999999999998e+000	 1.599979999983599e+000	 9.708785169401011e+000
0	 1.000000000000000e+001	 1.666649999985416e+000	 9.713678180512272e+000
0	 1.000000000000000e+001	 1.733319999987733e+000	 9.718695801224797e+000
0	 1.000000000000000e+001	 1.799989999990450e+000	 9.723839294868196e+000
0	 1.000000000000000e+001	 1.866659999993466e+000	 9.729109924772091e+000
0	 1.000000000000000e+001	 1.933329999996683e+000	 9.734508954266206e+000
0	 1.000000000000000e+001	 2.000000000000000e+000	 9.740037646680111e+000
0	 9.333302777352783e+000	 2.000000000000000e+000	 9.839965254908766e+000
0	 9.333302777352783e+000	 2.066670000003318e+000	 9.843570107418945e+000
0	 9.333302777352783e+000	 2.133340000006534e+000	 9.847196706161304e+000
0	 9.333302777352785e+000	 2.200010000009550e+000	 9.850846937940116e+000
0	 9.333302777352781e+000	 2.266680000012267e+000	 9.854522689559628e+000
0	 9.333302777352783e+000	 2.333350000014584e+000	 9.858225847824139e+000
0	 9.333302777352781e+000	 2.400020000016401e+000	 9.861958299537898e+000
0	 9.333302777352785e+000	 2.466690000017617e+000	 9.865721931505208e+000
0	 9.333302777352781e+000	 2.533360000018134e+000	 9.869518630530324e+000
0	 9.333302777352783e+000	 2.600030000017850e+000	 9.873350283417521e+000
0	 9.333302777352785e+000	 2.666700000016666e+000	 9.877218776971091e+000
0	 9.399973674588177e+000	 2.000000000000000e+000	 9.830515409056298e+000
0	 9.399973674588180e+000	 2.066670000003318e+000	 9.834268458587063e+000
0	 9.399973674588177e+000	 2.133340000006534e+000	 9.838046576304892e+000
0	 9.399973674588177e+000	 2.200010000009550e+000	 9.841851281061352e+000
0	 9.399973674588177e+000	 2.266680000012267e+000	 9.845684091707961e+000
0	 9.399973674588173e+000	 2.333350000014584e+000	 9.849546527096294e+000
0	 9.399973674588173e+000	 2.400020000016400e+000	 9.853440106077860e+000
0	 9.399973674588175e+000	 2.466690000017618e+000	 9.857366347504216e+000
0	 9.399973674588178e+000	 2.533360000018134e+000	 9.861326770226887e+000
0	 9.399973674588177e+000	 2.600030000017851e+000	 9.865322893097440e+000
0	 9.399973674588178e+000	 2.666700000016666e+000	 9.869356234967400e+000
0	 9.466644621844623e+000	 2.000000000000000e+000	 9.820970355318046e+000
0	 9.466644621844621e+000	 2.066670000003317e+000	 9.824880630206318e+000
0	 9.466644621844621e+000	 2.133340000006534e+000	 9.828818718415368e+000
0	 9.466644621844621e+000	 2.200010000009550e+000	 9.832785867258984e+000
0	 9.466644621844621e+000	 2.266680000012267e+000	 9.836783324050977e+000
0	 9.466644621844621e+000	 2.333350000014584e+000	 9.840812336105122e+000
0	 9.466644621844621e+000	 2.400020000016400e+000	 9.844874150735217e+000
0	 9.466644621844621e+000	 2.466690000017617e+000	 9.848970015255052e+000
0	 9.466644621844619e+000	 2.533360000018134e+000	 9.853101176978413e+000
0	 9.466644621844621e+000	 2.600030000017851e+000	 9.857268883219122e+000
0	 9.466644621844617e+000	 2.666700000016666e+000	 9.861474381290945e+000
0	 9.533315502450000e+000	 2.000000000000000e+000	 9.811320552363910e+000
0	 9.533315502450000e+000	 2.066670000003318e+000	 9.815398050800244e+000
0	 9.533315502450002e+000	 2.133340000006534e+000	 9.819505561964249e+000
0	 9.533315502449998e+000	 2.200010000009550e+000	 9.823644158045568e+000
0	 9.533315502450000e+000	 2.266680000012267e+000	 9.827814911233807e+000
0	 9.533315502449998e+000	 2.333350000014585e+000	 9.832018893718633e+000
0	 9.533315502450000e+000	 2.400020000016401e+000	 9.836257177689662e+000
0	 9.533315502450002e+000	 2.466690000017618e+000	 9.840530835336580e+000
0	 9.533315502449998e+000	 2.533360000018134e+000	 9.844840938848968e+000
0	 9.533315502449998e+000	 2.600030000017851e+000	 9.849188560416488e+000
0	 9.533315502450000e+000	 2.666700000016667e+000	 9.853574772228777e+000
0	 9.599986199732198e+000	 2.000000000000000e+000	 9.801556459648150e+000
0	 9.599986199732198e+000	 2.066670000003318e+000	 9.805812149608295e+000
0	 9.599986199732197e+000	 2.133340000006534e+000	 9.810099537066252e+000
0	 9.599986199732197e+000	 2.200010000009550e+000	 9.814419615500711e+000
0	 9.599986199732197e+000	 2.266680000012267e+000	 9.818773378390388e+000
0	 9.599986199732195e+000	 2.333350000014584e+000	 9.823161819213977e+000
0	 9.599986199732193e+000	 2.400020000016400e+000	 9.827585931450177e+000
0	 9.599986199732195e+000	 2.466690000017617e+000	 9.832046708577677e+000
0	 9.599986199732197e+000	 2.533360000018134e+000	 9.836545144075203e+000
0	 9.599986199732195e+000	 2.600030000017850e+000	 9.841082231421435e+000
0	 9.599986199732198e+000	 2.666700000016667e+000	 9.845658964095090e+000
0	 9.666656597019092e+000	 2.000000000000000e+000	 9.791668537409599e+000
0	 9.666656597019093e+000	 2.066670000003317e+000	 9.796114356586042e+000
0	 9.666656597019093e+000	 2.133340000006534e+000	 9.800593074479446e+000
0	 9.666656597019090e+000	 2.200010000009550e+000	 9.805105702271453e+000
0	 9.666656597019093e+000	 2.266680000012267e+000	 9.809653251143617e+000
0	 9.666656597019092e+000	 2.333350000014585e+000	 9.814236732277596e+000
0	 9.666656597019092e+000	 2.400020000016401e+000	 9.818857156855009e+000
0	 9.666656597019092e+000	 2.466690000017617e+000	 9.823515536057457e+000
0	 9.666656597019092e+000	 2.533360000018133e+000	 9.828212881066570e+000
0	 9.666656597019090e+000	 2.600030000017851e+000	 9.832950203063936e+000
0	 9.666656597019093e+000	 2.666700000016666e+000	 9.837728513231212e+000
0	 9.733326577638573e+000	 2.000000000000000e+000	 9.781647246671852e+000
0	 9.733326577638577e+000	 2.066670000003318e+000	 9.786296102405412e+000
0	 9.733326577638575e+000	 2.133340000006534e+000	 9.790978605605526e+000
0	 9.733326577638575e+000	 2.200010000009550e+000	 9.795695881572208e+000
0	 9.733326577638573e+000	 2.266680000012267e+000	 9.800449055605512e+000
0	 9.733326577638575e+000	 2.333350000014584e+000	 9.805239253005460e+000
0	 9.733326577638575e+000	 2.400020000016401e+000	 9.810067599072074e+000
0	 9.733326577638575e+000	 2.466690000017617e+000	 9.814935219105401e+000
0	 9.733326577638573e+000	 2.533360000018134e+000	 9.819843238405465e+000
0	 9.733326577638577e+000	 2.600030000017851e+000	 9.824792782272276e+000
0	 9.733326577638575e+000	 2.666700000016667e+000	 9.829784976005911e+000
0	 9.799996024918524e+000	 2.000000000000000e+000	 9.771483049243454e+000
0	 9.799996024918519e+000	 2.066670000003317e+000	 9.776348818454824e+000
0	 9.799996024918524e+000	 2.133340000006534e+000	 9.781248562489903e+000
0	 9.799996024918524e+000	 2.200010000009551e+000	 9.786183617185232e+000
0	 9.799996024918521e+000	 2.266680000012267e+000	 9.791155318377479e+000
0	 9.799996024918523e+000	 2.333350000014584e+000	 9.796165001903201e+000
0	 9.799996024918521e+000	 2.400020000016401e+000	 9.801214003599032e+000
0	 9.799996024918523e+000	 2.466690000017617e+000	 9.806303659301573e+000
0	 9.799996024918523e+000	 2.533360000018134e+000	 9.811435304847425e+000
0	 9.799996024918523e+000	 2.600030000017850e+000	 9.816610276073167e+000
0	 9.799996024918523e+000	 2.666700000016667e+000	 9.821829908815454e+000
0	 9.866664822186820e+000	 2.000000000000000e+000	 9.761166407718214e+000
0	 9.866664822186820e+000	 2.066670000003317e+000	 9.766263936839552e+000
0	 9.866664822186820e+000	 2.133340000006534e+000	 9.771395377822035e+000
0	 9.866664822186820e+000	 2.200010000009550e+000	 9.776562373460648e+000
0	 9.866664822186822e+000	 2.266680000012267e+000	 9.781766566550431e+000
0	 9.866664822186820e+000	 2.333350000014584e+000	 9.787009599886334e+000
0	 9.866664822186820e+000	 2.400020000016400e+000	 9.792293116263469e+000
0	 9.866664822186820e+000	 2.466690000017617e+000	 9.797618758476768e+000
0	 9.866664822186822e+000	 2.533360000018134e+000	 9.802988169321234e+000
0	 9.866664822186820e+000	 2.600030000017851e+000	 9.808402991591946e+000
0	 9.866664822186820e+000	 2.666700000016666e+000	 9.813864868083849e+000
0	 9.933332852771352e+000	 2.000000000000000e+000	 9.750687785475403e+000
0	 9.933332852771352e+000	 2.066670000003317e+000	 9.756032890381867e+000
0	 9.933332852771351e+000	 2.133340000006534e+000	 9.761411484935659e+000
0	 9.933332852771351e+000	 2.200010000009550e+000	 9.766825615316767e+000
0	 9.933332852771349e+000	 2.266680000012267e+000	 9.772277327705087e+000
0	 9.933332852771351e+000	 2.333350000014584e+000	 9.777768668280565e+000
0	 9.933332852771351e+000	 2.400020000016401e+000	 9.783301683223140e+000
0	 9.933332852771351e+000	 2.466690000017617e+000	 9.788878418712720e+000
0	 9.933332852771352e+000	 2.533360000018134e+000	 9.794500920929274e+000
0	 9.933332852771351e+000	 2.600030000017851e+000	 9.800171236052726e+000
0	 9.933332852771352e+000	 2.666700000016666e+000	 9.805891410263010e+000
0	 1.000000000000000e+001	 2.000000000000000e+000	 9.740037646680111e+000
0	 9.999999999999998e+000	 2.066670000003316e+000	 9.745647112621358e+000
0	 1.000000000000000e+001	 2.133340000006534e+000	 9.751289317809084e+000
0	 9.999999999999998e+000	 2.200010000009550e+000	 9.756966808240334e+000
0	 1.000000000000000e+001	 2.266680000012268e+000	 9.762682129912250e+000
0	 1.000000000000000e+001	 2.333350000014584e+000	 9.768437828821831e+000
0	 1.000000000000000e+001	 2.400020000016401e+000	 9.774236450966198e+000
0	 1.000000000000000e+001	 2.466690000017617e+000	 9.780080542342388e+000
0	 1.000000000000000e+001	 2.533360000018134e+000	 9.785972648947528e+000
0	 1.000000000000000e+001	 2.600030000017850e+000	 9.791915316778633e+000
0	 1.000000000000000e+001	 2.666700000016666e+000	 9.797911091832843e+000
0	 9.333302777352785e+000	 2.666700000016666e+000	 9.877218776971088e+000
0	 9.333302777352783e+000	 2.733360000014533e+000	 9.881091993599407e+000
0	 9.333302777352781e+000	 2.800020000011600e+000	 9.884938435234234e+000
0	 9.333302777352783e+000	 2.866680000008067e+000	 9.888759168658085e+000
0	 9.333302777352781e+000	 2.933340000004133e+000	 9.892555260653476e+000
0	 9.333302777352785e+000	 3.000000000000000e+000	 9.896327778002915e+000
0	 9.333302777352783e+000	 3.066659999995867e+000	 9.900077787488923e+000
0	 9.333302777352781e+000	 3.133319999991933e+000	 9.903806355894000e+000
0	 9.333302777352783e+000	 3.199979999988400e+000	 9.907514550000661e+000
0	 9.333302777352783e+000	 3.266639999985467e+000	 9.911203436591443e+000
0	 9.333302777352785e+000	 3.333299999983334e+000	 9.914874082448845e+000
0	 9.399973674588178e+000	 2.666700000016666e+000	 9.869356234967400e+000
0	 9.399973674588177e+000	 2.733360000014532e+000	 9.873393743029332e+000
0	 9.399973674588175e+000	 2.800020000011600e+000	 9.877403399679984e+000
0	 9.399973674588178e+000	 2.866680000008067e+000	 9.881386453062444e+000
0	 9.399973674588180e+000	 2.933340000004134e+000	 9.885344151319801e+000
0	 9.399973674588180e+000	 3.000000000000000e+000	 9.889277742595132e+000
0	 9.399973674588178e+000	 3.066659999995867e+000	 9.893188475031527e+000
0	 9.399973674588177e+000	 3.133319999991933e+000	 9.897077596772066e+000
0	 9.399973674588175e+000	 3.199979999988400e+000	 9.900946355959846e+000
0	 9.399973674588175e+000	 3.266639999985467e+000	 9.904796000737946e+000
0	 9.399973674588178e+000	 3.333299999983334e+000	 9.908627779249461e+000
0	 9.466644621844617e+000	 2.666700000016666e+000	 9.861474381290947e+000
0	 9.466644621844617e+000	 2.733360000014533e+000	 9.865683777053913e+000
0	 9.466644621844617e+000	 2.800020000011600e+000	 9.869864539879970e+000
0	 9.466644621844621e+000	 2.866680000008067e+000	 9.874018061281317e+000
0	 9.466644621844617e+000	 2.933340000004133e+000	 9.878145732770207e+000
0	 9.466644621844623e+000	 3.000000000000000e+000	 9.882248945858866e+000
0	 9.466644621844621e+000	 3.066659999995868e+000	 9.886329092059551e+000
0	 9.466644621844619e+000	 3.133319999991933e+000	 9.890387562884495e+000
0	 9.466644621844621e+000	 3.199979999988400e+000	 9.894425749845942e+000
0	 9.466644621844619e+000	 3.266639999985467e+000	 9.898445044456132e+000
0	 9.466644621844619e+000	 3.333299999983334e+000	 9.902446838227304e+000
0	 9.533315502450000e+000	 2.666700000016667e+000	 9.853574772228777e+000
0	 9.533315502450000e+000	 2.733360000014533e+000	 9.857964855454592e+000
0	 9.533315502449998e+000	 2.800020000011599e+000	 9.862325696089890e+000
0	 9.533315502450002e+000	 2.866680000008067e+000	 9.866658791025426e+000
0	 9.533315502450000e+000	 2.933340000004133e+000	 9.870965637151882e+000
0	 9.533315502449998e+000	 3.000000000000000e+000	 9.875247731359991e+000
0	 9.533315502449996e+000	 3.066659999995867e+000	 9.879506570540475e+000
0	 9.533315502450000e+000	 3.133319999991933e+000	 9.883743651584030e+000
0	 9.533315502450000e+000	 3.199979999988401e+000	 9.887960471381403e+000
0	 9.533315502449998e+000	 3.266639999985467e+000	 9.892158526823305e+000
0	 9.533315502450000e+000	 3.333299999983334e+000	 9.896339314800439e+000
0	 9.599986199732198e+000	 2.666700000016667e+000	 9.845658964095090e+000
0	 9.599986199732197e+000	 2.733360000014533e+000	 9.850239737973450e+000
0	 9.599986199732195e+000	 2.800020000011600e+000	 9.854790708464213e+000
0	 9.599986199732197e+000	 2.866680000008067e+000	 9.859313439846281e+000
0	 9.599986199732195e+000	 2.933340000004133e+000	 9.863809496398474e+000
0	 9.599986199732195e+000	 3.000000000000000e+000	 9.868280442399644e+000
0	 9.599986199732195e+000	 3.066659999995868e+000	 9.872727842128674e+000
0	 9.599986199732193e+000	 3.133319999991933e+000	 9.877153259864370e+000
0	 9.599986199732193e+000	 3.199979999988400e+000	 9.881558259885633e+000
0	 9.599986199732193e+000	 3.266639999985467e+000	 9.885944406471301e+000
0	 9.599986199732197e+000	 3.333299999983334e+000	 9.890313263900234e+000
0	 9.666656597019093e+000	 2.666700000016666e+000	 9.837728513231212e+000
0	 9.666656597019093e+000	 2.733360000014534e+000	 9.842511184313507e+000
0	 9.666656597019090e+000	 2.800020000011600e+000	 9.847263417056393e+000
0	 9.666656597019093e+000	 2.866680000008067e+000	 9.851986805136459e+000
0	 9.666656597019092e+000	 2.933340000004133e+000	 9.856682942230291e+000
0	 9.666656597019093e+000	 3.000000000000000e+000	 9.861353422014467e+000
0	 9.666656597019095e+000	 3.066659999995866e+000	 9.865999838165601e+000
0	 9.666656597019093e+000	 3.133319999991933e+000	 9.870623784360284e+000
0	 9.666656597019092e+000	 3.199979999988400e+000	 9.875226854275111e+000
0	 9.666656597019093e+000	 3.266639999985468e+000	 9.879810641586685e+000
0	 9.666656597019092e+000	 3.333299999983333e+000	 9.884376739971573e+000
0	 9.733326577638575e+000	 2.666700000016667e+000	 9.829784976005909e+000
0	 9.733326577638575e+000	 2.733360000014533e+000	 9.834781954138860e+000
0	 9.733326577638575e+000	 2.800020000011600e+000	 9.839747661818940e+000
0	 9.733326577638572e+000	 2.866680000008066e+000	 9.844683684129629e+000
0	 9.733326577638575e+000	 2.933340000004133e+000	 9.849591606154363e+000
0	 9.733326577638577e+000	 3.000000000000000e+000	 9.854473012976660e+000
0	 9.733326577638575e+000	 3.066659999995866e+000	 9.859329489679951e+000
0	 9.733326577638572e+000	 3.133319999991933e+000	 9.864162621347770e+000
0	 9.733326577638575e+000	 3.199979999988400e+000	 9.868973993063538e+000
0	 9.733326577638573e+000	 3.266639999985468e+000	 9.873765189910770e+000
0	 9.733326577638575e+000	 3.333299999983335e+000	 9.878537796972926e+000
0	 9.799996024918523e+000	 2.666700000016667e+000	 9.821829908815451e+000
0	 9.799996024918521e+000	 2.733360000014533e+000	 9.827054807074767e+000
0	 9.799996024918521e+000	 2.800020000011599e+000	 9.832247282603646e+000
0	 9.799996024918521e+000	 2.866680000008066e+000	 9.837408873900742e+000
0	 9.799996024918523e+000	 2.933340000004133e+000	 9.842541119464691e+000
0	 9.799996024918519e+000	 3.000000000000000e+000	 9.847645557794138e+000
0	 9.799996024918523e+000	 3.066659999995867e+000	 9.852723727387732e+000
0	 9.799996024918521e+000	 3.133319999991933e+000	 9.857777166744105e+000
0	 9.799996024918524e+000	 3.199979999988401e+000	 9.862807414361944e+000
0	 9.799996024918521e+000	 3.266639999985468e+000	 9.867816008739867e+000
0	 9.799996024918523e+000	 3.333299999983334e+000	 9.872804488376518e+000
0	 9.866664822186820e+000	 2.666700000016666e+000	 9.813864868083853e+000
0	 9.866664822186820e+000	 2.733360000014533e+000	 9.819332502707853e+000
0	 9.866664822186818e+000	 2.800020000011599e+000	 9.824766119161675e+000
0	 9.866664822186820e+000	 2.866680000008067e+000	 9.830167171366211e+000
0	 9.866664822186820e+000	 2.933340000004133e+000	 9.835537113242280e+000
0	 9.866664822186818e+000	 2.999999999999999e+000	 9.840877398710726e+000
0	 9.866664822186820e+000	 3.066659999995868e+000	 9.846189481692425e+000
0	 9.866664822186822e+000	 3.133319999991933e+000	 9.851474816108183e+000
0	 9.866664822186820e+000	 3.199979999988400e+000	 9.856734855878857e+000
0	 9.866664822186818e+000	 3.266639999985467e+000	 9.861971054925308e+000
0	 9.866664822186818e+000	 3.333299999983333e+000	 9.867184867168344e+000
0	 9.933332852771352e+000	 2.666700000016666e+000	 9.805891410263010e+000
0	 9.933332852771352e+000	 2.733360000014533e+000	 9.811617800586264e+000
0	 9.933332852771349e+000	 2.800020000011600e+000	 9.817308011143785e+000
0	 9.933332852771352e+000	 2.866680000008067e+000	 9.822963373283992e+000
0	 9.933332852771352e+000	 2.933340000004133e+000	 9.828585218355318e+000
0	 9.933332852771349e+000	 2.999999999999999e+000	 9.834174877706218e+000
0	 9.933332852771351e+000	 3.066659999995866e+000	 9.839733682685029e+000
0	 9.933332852771351e+000	 3.133319999991934e+000	 9.845262964640272e+000
0	 9.933332852771352e+000	 3.199979999988400e+000	 9.850764054920274e+000
0	 9.933332852771351e+000	 3.266639999985467e+000	 9.856238284873481e+000
0	 9.933332852771351e+000	 3.333299999983334e+000	 9.861686985848328e+000
0	 1.000000000000000e+001	 2.666700000016666e+000	 9.797911091832843e+000
0	 1.000000000000000e+001	 2.733360000014533e+000	 9.803913460219837e+000
0	 1.000000000000000e+001	 2.800020000011600e+000	 9.809876798100374e+000
0	 1.000000000000000e+001	 2.866680000008067e+000	 9.815802276253802e+000
0	 1.000000000000000e+001	 2.933340000004133e+000	 9.821691065459394e+000
0	 1.000000000000000e+001	 3.000000000000000e+000	 9.827544336496482e+000
0	 1.000000000000000e+001	 3.066659999995867e+000	 9.833363260144367e+000
0	 9.999999999999998e+000	 3.133319999991933e+000	 9.839149007182392e+000
0	 1.000000000000000e+001	 3.199979999988401e+000	 9.844902748389867e+000
0	 1.000000000000000e+001	 3.266639999985467e+000	 9.850625654546105e+000
0	 1.000000000000000e+001	 3.333299999983334e+000	 9.856318896430386e+000
0	 9.333302777352785e+000	 3.333299999983334e+000	 9.914874082448845e+000
0	 9.333302777352781e+000	 3.399969999982149e+000	 9.918506360610140e+000
0	 9.333302777352785e+000	 3.466639999981867e+000	 9.922078828354206e+000
0	 9.333302777352783e+000	 3.533309999982383e+000	 9.925592226837269e+000
0	 9.333302777352785e+000	 3.599979999983600e+000	 9.929047297215533e+000
0	 9.333302777352783e+000	 3.666649999985417e+000	 9.932444780645231e+000
0	 9.333302777352783e+000	 3.733319999987733e+000	 9.935785418282556e+000
0	 9.333302777352783e+000	 3.799989999990450e+000	 9.939069951283756e+000
0	 9.333302777352783e+000	 3.866659999993466e+000	 9.942299120805014e+000
0	 9.333302777352783e+000	 3.933329999996683e+000	 9.945473668002560e+000
0	 9.333302777352785e+000	 4.000000000000000e+000	 9.948594334032617e+000
0	 9.399973674588178e+000	 3.333299999983334e+000	 9.908627779249461e+000
0	 9.399973674588177e+000	 3.399969999982150e+000	 9.912420564393829e+000
0	 9.399973674588177e+000	 3.466639999981866e+000	 9.916151739659309e+000
0	 9.399973674588178e+000	 3.533309999982383e+000	 9.919822039711924e+000
0	 9.399973674588175e+000	 3.599979999983600e+000	 9.923432199217679e+000
0	 9.399973674588175e+000	 3.666649999985416e+000	 9.926982952842581e+000
0	 9.399973674588175e+000	 3.733319999987732e+000	 9.930475035252645e+000
0	 9.399973674588178e+000	 3.799989999990450e+000	 9.933909181113890e+000
0	 9.399973674588177e+000	 3.866659999993467e+000	 9.937286125092296e+000
0	 9.399973674588177e+000	 3.933329999996684e+000	 9.940606601853899e+000
0	 9.399973674588175e+000	 4.000000000000000e+000	 9.943871346064697e+000
0	 9.466644621844619e+000	 3.333299999983334e+000	 9.902446838227304e+000
0	 9.466644621844623e+000	 3.399969999982150e+000	 9.906408688430998e+000
0	 9.466644621844619e+000	 3.466639999981867e+000	 9.910306518787555e+000
0	 9.466644621844623e+000	 3.533309999982383e+000	 9.914141067740399e+000
0	 9.466644621844617e+000	 3.599979999983598e+000	 9.917913073732986e+000
0	 9.466644621844619e+000	 3.666649999985417e+000	 9.921623275208724e+000
0	 9.466644621844621e+000	 3.733319999987733e+000	 9.925272410611067e+000
0	 9.466644621844621e+000	 3.799989999990450e+000	 9.928861218383421e+000
0	 9.466644621844621e+000	 3.866659999993467e+000	 9.932390436969225e+000
0	 9.466644621844619e+000	 3.933329999996684e+000	 9.935860804811931e+000
0	 9.466644621844621e+000	 4.000000000000000e+000	 9.939273060354910e+000
0	 9.533315502450000e+000	 3.333299999983334e+000	 9.896339314800439e+000
0	 9.533315502449996e+000	 3.399969999982150e+000	 9.900478857460529e+000
0	 9.533315502449998e+000	 3.466639999981866e+000	 9.904551428761982e+000
0	 9.533315502450003e+000	 3.533309999982384e+000	 9.908557781193345e+000
0	 9.533315502450002e+000	 3.599979999983600e+000	 9.912498667243082e+000
0	 9.533315502450000e+000	 3.666649999985416e+000	 9.916374839399703e+000
0	 9.533315502450000e+000	 3.733319999987733e+000	 9.920187050151718e+000
0	 9.533315502449996e+000	 3.799989999990449e+000	 9.923936051987628e+000
0	 9.533315502449998e+000	 3.866659999993467e+000	 9.927622597395921e+000
0	 9.533315502449998e+000	 3.933329999996684e+000	 9.931247438865116e+000
0	 9.533315502450000e+000	 4.000000000000001e+000	 9.934811328883704e+000
0	 9.599986199732197e+000	 3.333299999983334e+000	 9.890313263900234e+000
0	 9.599986199732195e+000	 3.399969999982149e+000	 9.894639195694312e+000
0	 9.599986199732195e+000	 3.466639999981866e+000	 9.898894732039315e+000
0	 9.599986199732198e+000	 3.533309999982384e+000	 9.903080649736582e+000
0	 9.599986199732193e+000	 3.599979999983599e+000	 9.907197725587491e+000
0	 9.599986199732195e+000	 3.666649999985415e+000	 9.911246736393412e+000
0	 9.599986199732195e+000	 3.733319999987732e+000	 9.915228458955664e+000
0	 9.599986199732197e+000	 3.799989999990450e+000	 9.919143670075624e+000
0	 9.599986199732197e+000	 3.866659999993467e+000	 9.922993146554630e+000
0	 9.599986199732197e+000	 3.933329999996684e+000	 9.926777665194051e+000
0	 9.599986199732198e+000	 4.000000000000001e+000	 9.930498002795240e+000
0	 9.666656597019092e+000	 3.333299999983333e+000	 9.884376739971575e+000
0	 9.666656597019092e+000	 3.399969999982151e+000	 9.888897826817399e+000
0	 9.666656597019093e+000	 3.466639999981867e+000	 9.893344690509885e+000
0	 9.666656597019092e+000	 3.533309999982383e+000	 9.897718142431293e+000
0	 9.666656597019095e+000	 3.599979999983600e+000	 9.902018993963818e+000
0	 9.666656597019088e+000	 3.666649999985415e+000	 9.906248056489718e+000
0	 9.666656597019093e+000	 3.733319999987733e+000	 9.910406141391183e+000
0	 9.666656597019090e+000	 3.799989999990450e+000	 9.914494060050490e+000
0	 9.666656597019092e+000	 3.866659999993467e+000	 9.918512623849855e+000
0	 9.666656597019093e+000	 3.933329999996684e+000	 9.922462644171469e+000
0	 9.666656597019092e+000	 4.000000000000001e+000	 9.926344932397617e+000
0	 9.733326577638575e+000	 3.333299999983335e+000	 9.878537796972926e+000
0	 9.733326577638575e+000	 3.399969999982150e+000	 9.883262873988118e+000
0	 9.733326577638575e+000	 3.466639999981867e+000	 9.887909565497999e+000
0	 9.733326577638575e+000	 3.533309999982383e+000	 9.892478727734051e+000
0	 9.733326577638573e+000	 3.599979999983600e+000	 9.896971216927746e+000
0	 9.733326577638573e+000	 3.666649999985416e+000	 9.901387889310549e+000
0	 9.733326577638573e+000	 3.733319999987732e+000	 9.905729601113952e+000
0	 9.733326577638573e+000	 3.799989999990450e+000	 9.909997208569415e+000
0	 9.733326577638575e+000	 3.866659999993467e+000	 9.914191567908405e+000
0	 9.733326577638573e+000	 3.933329999996684e+000	 9.918313535362396e+000
0	 9.733326577638573e+000	 4.000000000000000e+000	 9.922363967162859e+000
0	 9.799996024918523e+000	 3.333299999983334e+000	 9.872804488376520e+000
0	 9.799996024918521e+000	 3.399969999982150e+000	 9.877742459838196e+000
0	 9.799996024918519e+000	 3.466639999981865e+000	 9.882597617761846e+000
0	 9.799996024918519e+000	 3.533309999982382e+000	 9.887370873496991e+000
0	 9.799996024918523e+000	 3.599979999983601e+000	 9.892063138393249e+000
0	 9.799996024918521e+000	 3.666649999985417e+000	 9.896675323800066e+000
0	 9.799996024918524e+000	 3.733319999987733e+000	 9.901208341067049e+000
0	 9.799996024918523e+000	 3.799989999990450e+000	 9.905663101543697e+000
0	 9.799996024918523e+000	 3.866659999993467e+000	 9.910040516579560e+000
0	 9.799996024918523e+000	 3.933329999996684e+000	 9.914341497524188e+000
0	 9.799996024918521e+000	 4.000000000000000e+000	 9.918566955727094e+000
0	 9.866664822186818e+000	 3.333299999983333e+000	 9.867184867168344e+000
0	 9.866664822186820e+000	 3.399969999982150e+000	 9.872344706472788e+000
0	 9.866664822186818e+000	 3.466639999981866e+000	 9.877417107493644e+000
0	 9.866664822186822e+000	 3.533309999982383e+000	 9.882403046967911e+000
0	 9.866664822186820e+000	 3.599979999983600e+000	 9.887303501632569e+000
0	 9.866664822186822e+000	 3.666649999985416e+000	 9.892119448224637e+000
0	 9.866664822186820e+000	 3.733319999987733e+000	 9.896851863481068e+000
0	 9.866664822186818e+000	 3.799989999990450e+000	 9.901501724138896e+000
0	 9.866664822186820e+000	 3.866659999993466e+000	 9.906070006935059e+000
0	 9.866664822186818e+000	 3.933329999996683e+000	 9.910557688606602e+000
0	 9.866664822186820e+000	 4.000000000000001e+000	 9.914965745890457e+000
0	 9.933332852771351e+000	 3.333299999983334e+000	 9.861686985848330e+000
0	 9.933332852771354e+000	 3.399969999982150e+000	 9.867077735470662e+000
0	 9.933332852771351e+000	 3.466639999981867e+000	 9.872376294319793e+000
0	 9.933332852771352e+000	 3.533309999982383e+000	 9.877583714790170e+000
0	 9.933332852771352e+000	 3.599979999983600e+000	 9.882701049276381e+000
0	 9.933332852771352e+000	 3.666649999985416e+000	 9.887729350172863e+000
0	 9.933332852771349e+000	 3.733319999987733e+000	 9.892669669874151e+000
0	 9.933332852771351e+000	 3.799989999990450e+000	 9.897523060774741e+000
0	 9.933332852771351e+000	 3.866659999993466e+000	 9.902290575269150e+000
0	 9.933332852771351e+000	 3.933329999996684e+000	 9.906973265751775e+000
0	 9.933332852771351e+000	 4.000000000000000e+000	 9.911572184617246e+000
0	 1.000000000000000e+001	 3.333299999983334e+000	 9.856318896430384e+000
0	 1.000000000000000e+001	 3.399969999982150e+000	 9.861949667884156e+000
0	 1.000000000000000e+001	 3.466639999981866e+000	 9.867483437300715e+000
0	 1.000000000000000e+001	 3.533309999982383e+000	 9.872921343002959e+000
0	 1.000000000000000e+001	 3.599979999983600e+000	 9.878264523313680e+000
0	 1.000000000000000e+001	 3.666649999985416e+000	 9.883514116555759e+000
0	 1.000000000000000e+001	 3.733319999987733e+000	 9.888671261052016e+000
0	 1.000000000000000e+001	 3.799989999990449e+000	 9.893737095125303e+000
0	 1.000000000000000e+001	 3.866659999993467e+000	 9.898712757098478e+000
0	 1.000000000000000e+001	 3.933329999996684e+000	 9.903599385294360e+000
0	 1.000000000000000e+001	 4.000000000000000e+000	 9.908398118035823e+000
0	 9.333302777352785e+000	 4.000000000000000e+000	 9.948594334032617e+000
0	 9.333302777352783e+000	 4.066670000003317e+000	 9.951647069089205e+000
0	 9.333302777352783e+000	 4.133340000006534e+000	 9.954617536502568e+000
0	 9.333302777352783e+000	 4.200010000009550e+000	 9.957506047133149e+000
0	 9.333302777352779e+000	 4.266680000012268e+000	 9.960312911841436e+000
0	 9.333302777352783e+000	 4.333350000014584e+000	 9.963038441487889e+000
0	 9.333302777352783e+000	 4.400020000016402e+000	 9.965682946932963e+000
0	 9.333302777352783e+000	 4.466690000017617e+000	 9.968246739037143e+000
0	 9.333302777352785e+000	 4.533360000018134e+000	 9.970730128660897e+000
0	 9.333302777352783e+000	 4.600030000017850e+000	 9.973133426664672e+000
0	 9.333302777352785e+000	 4.666700000016667e+000	 9.975456943908938e+000
0	 9.399973674588175e+000	 4.000000000000000e+000	 9.943871346064697e+000
0	 9.399973674588178e+000	 4.066670000003318e+000	 9.947065909270531e+000
0	 9.399973674588177e+000	 4.133340000006535e+000	 9.950175558233857e+000
0	 9.399973674588177e+000	 4.200010000009550e+000	 9.953200600445573e+000
0	 9.399973674588177e+000	 4.266680000012267e+000	 9.956141343396581e+000
0	 9.399973674588175e+000	 4.333350000014584e+000	 9.958998094577790e+000
0	 9.399973674588175e+000	 4.400020000016400e+000	 9.961771161480082e+000
0	 9.399973674588177e+000	 4.466690000017619e+000	 9.964460851594389e+000
0	 9.399973674588178e+000	 4.533360000018135e+000	 9.967067472411582e+000
0	 9.399973674588177e+000	 4.600030000017850e+000	 9.969591331422572e+000
0	 9.399973674588175e+000	 4.666700000016666e+000	 9.972032736118239e+000
0	 9.466644621844621e+000	 4.000000000000000e+000	 9.939273060354910e+000
0	 9.466644621844621e+000	 4.066670000003317e+000	 9.942612526282339e+000
0	 9.466644621844621e+000	 4.133340000006535e+000	 9.945864237546356e+000
0	 9.466644621844621e+000	 4.200010000009550e+000	 9.949028500992368e+000
0	 9.466644621844621e+000	 4.266680000012267e+000	 9.952105623465851e+000
0	 9.466644621844619e+000	 4.333350000014583e+000	 9.955095911812244e+000
0	 9.466644621844621e+000	 4.400020000016401e+000	 9.957999672877003e+000
0	 9.466644621844623e+000	 4.466690000017619e+000	 9.960817213505530e+000
0	 9.466644621844619e+000	 4.533360000018133e+000	 9.963548840543293e+000
0	 9.466644621844623e+000	 4.600030000017850e+000	 9.966194860835767e+000
0	 9.466644621844619e+000	 4.666700000016665e+000	 9.968755581228326e+000
0	 9.533315502450000e+000	 4.000000000000001e+000	 9.934811328883704e+000
0	 9.533315502450000e+000	 4.066670000003318e+000	 9.938299454600825e+000
0	 9.533315502450002e+000	 4.133340000006534e+000	 9.941696707455986e+000
0	 9.533315502449998e+000	 4.200010000009551e+000	 9.945003396373336e+000
0	 9.533315502449998e+000	 4.266680000012266e+000	 9.948219830276946e+000
0	 9.533315502449996e+000	 4.333350000014584e+000	 9.951346318090899e+000
0	 9.533315502450000e+000	 4.400020000016401e+000	 9.954383168739305e+000
0	 9.533315502450000e+000	 4.466690000017619e+000	 9.957330691146261e+000
0	 9.533315502450000e+000	 4.533360000018133e+000	 9.960189194235843e+000
0	 9.533315502449996e+000	 4.600030000017851e+000	 9.962958986932158e+000
0	 9.533315502450000e+000	 4.666700000016667e+000	 9.965640378159261e+000
0	 9.599986199732198e+000	 4.000000000000001e+000	 9.930498002795243e+000
0	 9.599986199732198e+000	 4.066670000003319e+000	 9.934139227839426e+000
0	 9.599986199732193e+000	 4.133340000006534e+000	 9.937686100091570e+000
0	 9.599986199732198e+000	 4.200010000009551e+000	 9.941138933278502e+000
0	 9.599986199732197e+000	 4.266680000012268e+000	 9.944498041127142e+000
0	 9.599986199732197e+000	 4.333350000014584e+000	 9.947763737364356e+000
0	 9.599986199732197e+000	 4.400020000016402e+000	 9.950936335717016e+000
0	 9.599986199732197e+000	 4.466690000017617e+000	 9.954016149912006e+000
0	 9.599986199732198e+000	 4.533360000018133e+000	 9.957003493676202e+000
0	 9.599986199732197e+000	 4.600030000017851e+000	 9.959898680736476e+000
0	 9.599986199732193e+000	 4.666700000016665e+000	 9.962702024819691e+000
0	 9.666656597019092e+000	 4.000000000000001e+000	 9.926344932397617e+000
0	 9.666656597019095e+000	 4.066670000003319e+000	 9.930144378749141e+000
0	 9.666656597019092e+000	 4.133340000006534e+000	 9.933845546694720e+000
0	 9.666656597019092e+000	 4.200010000009552e+000	 9.937448757488211e+000
0	 9.666656597019093e+000	 4.266680000012268e+000	 9.940954332383413e+000
0	 9.666656597019090e+000	 4.333350000014583e+000	 9.944362592634239e+000
0	 9.666656597019093e+000	 4.400020000016402e+000	 9.947673859494499e+000
0	 9.666656597019090e+000	 4.466690000017617e+000	 9.950888454218038e+000
0	 9.666656597019092e+000	 4.533360000018133e+000	 9.954006698058734e+000
0	 9.666656597019092e+000	 4.600030000017851e+000	 9.957028912270390e+000
0	 9.666656597019092e+000	 4.666700000016665e+000	 9.959955418106874e+000
0	 9.733326577638573e+000	 4.000000000000000e+000	 9.922363967162859e+000
0	 9.733326577638577e+000	 4.066670000003318e+000	 9.926327439218436e+000
0	 9.733326577638575e+000	 4.133340000006535e+000	 9.930188177620172e+000
0	 9.733326577638575e+000	 4.200010000009550e+000	 9.933946513873163e+000
0	 9.733326577638575e+000	 4.266680000012268e+000	 9.937602779482495e+000
0	 9.733326577638573e+000	 4.333350000014585e+000	 9.941157305953270e+000
0	 9.733326577638573e+000	 4.400020000016402e+000	 9.944610424790575e+000
0	 9.733326577638575e+000	 4.466690000017617e+000	 9.947962467499492e+000
0	 9.733326577638573e+000	 4.533360000018134e+000	 9.951213765585123e+000
0	 9.733326577638577e+000	 4.600030000017851e+000	 9.954364650552535e+000
0	 9.733326577638575e+000	 4.666700000016666e+000	 9.957415453906831e+000
0	 9.799996024918521e+000	 4.000000000000000e+000	 9.918566955727094e+000
0	 9.799996024918523e+000	 4.066670000003319e+000	 9.922700940273394e+000
0	 9.799996024918523e+000	 4.133340000006534e+000	 9.926727122335660e+000
0	 9.799996024918523e+000	 4.200010000009551e+000	 9.930645846394592e+000
0	 9.799996024918521e+000	 4.266680000012268e+000	 9.934457456930922e+000
0	 9.799996024918521e+000	 4.333350000014583e+000	 9.938162298425361e+000
0	 9.799996024918523e+000	 4.400020000016402e+000	 9.941760715358647e+000
0	 9.799996024918523e+000	 4.466690000017618e+000	 9.945253052211456e+000
0	 9.799996024918523e+000	 4.533360000018134e+000	 9.948639653464539e+000
0	 9.799996024918523e+000	 4.600030000017851e+000	 9.951920863598577e+000
0	 9.799996024918523e+000	 4.666700000016666e+000	 9.955097027094308e+000
0	 9.866664822186820e+000	 4.000000000000001e+000	 9.914965745890457e+000
0	 9.866664822186820e+000	 4.066670000003317e+000	 9.919277412077715e+000
0	 9.866664822186820e+000	 4.133340000006534e+000	 9.923475509421989e+000
0	 9.866664822186818e+000	 4.200010000009550e+000	 9.927560398104138e+000
0	 9.866664822186822e+000	 4.266680000012268e+000	 9.931532438305037e+000
0	 9.866664822186818e+000	 4.333350000014583e+000	 9.935391990205568e+000
0	 9.866664822186818e+000	 4.400020000016401e+000	 9.939139413986588e+000
0	 9.866664822186820e+000	 4.466690000017617e+000	 9.942775069828979e+000
0	 9.866664822186820e+000	 4.533360000018134e+000	 9.946299317913555e+000
0	 9.866664822186818e+000	 4.600030000017850e+000	 9.949712518421210e+000
0	 9.866664822186822e+000	 4.666700000016667e+000	 9.953015031532789e+000
0	 9.933332852771351e+000	 4.000000000000000e+000	 9.911572184617242e+000
0	 9.933332852771352e+000	 4.066670000003317e+000	 9.916069383932758e+000
0	 9.933332852771352e+000	 4.133340000006534e+000	 9.920446466573091e+000
0	 9.933332852771349e+000	 4.200010000009551e+000	 9.924703811143985e+000
0	 9.933332852771349e+000	 4.266680000012266e+000	 9.928841796251101e+000
0	 9.933332852771351e+000	 4.333350000014583e+000	 9.932860800500153e+000
0	 9.933332852771351e+000	 4.400020000016402e+000	 9.936761202496871e+000
0	 9.933332852771351e+000	 4.466690000017617e+000	 9.940543380846963e+000
0	 9.933332852771351e+000	 4.533360000018134e+000	 9.944207714156139e+000
0	 9.933332852771351e+000	 4.600030000017850e+000	 9.947754581030084e+000
0	 9.933332852771351e+000	 4.666700000016666e+000	 9.951184360074519e+000
0	 1.000000000000000e+001	 4.000000000000000e+000	 9.908398118035825e+000
0	 1.000000000000000e+001	 4.066670000003317e+000	 9.913089384277551e+000
0	 1.000000000000000e+001	 4.133340000006535e+000	 9.917653120596025e+000
0	 9.999999999999998e+000	 4.200010000009550e+000	 9.922089726746698e+000
0	 1.000000000000000e+001	 4.266680000012268e+000	 9.926399602485043e+000
0	 1.000000000000000e+001	 4.333350000014584e+000	 9.930583147566445e+000
0	 1.000000000000000e+001	 4.400020000016401e+000	 9.934640761746421e+000
0	 1.000000000000000e+001	 4.466690000017617e+000	 9.938572844780333e+000
0	 1.000000000000000e+001	 4.533360000018134e+000	 9.942379796423662e+000
0	 9.999999999999998e+000	 4.600030000017850e+000	 9.946062016431847e+000
0	 1.000000000000000e+001	 4.666700000016666e+000	 9.949619904560350e+000
0	 9.333302777352785e+000	 4.666700000016667e+000	 9.975456943908936e+000
0	 9.333302777352783e+000	 4.733360000014533e+000	 9.977698494731101e+000
0	 9.333302777352783e+000	 4.800020000011600e+000	 9.979856222279485e+000
0	 9.333302777352781e+000	 4.866680000008067e+000	 9.981929903003627e+000
0	 9.333302777352781e+000	 4.933340000004134e+000	 9.983919313353033e+000
0	 9.333302777352783e+000	 5.000000000000000e+000	 9.985824229777224e+000
0	 9.333302777352785e+000	 5.066659999995867e+000	 9.987644428725734e+000
0	 9.333302777352783e+000	 5.133319999991935e+000	 9.989379686648089e+000
0	 9.333302777352783e+000	 5.199979999988400e+000	 9.991029779993806e+000
0	 9.333302777352781e+000	 5.266639999985467e+000	 9.992594485212445e+000
0	 9.333302777352785e+000	 5.333299999983335e+000	 9.994073578753502e+000
0	 9.399973674588175e+000	 4.666700000016666e+000	 9.972032736118241e+000
0	 9.399973674588171e+000	 4.733360000014533e+000	 9.974389092547558e+000
0	 9.399973674588175e+000	 4.800020000011601e+000	 9.976658200754416e+000
0	 9.399973674588180e+000	 4.866680000008066e+000	 9.978839879150199e+000
0	 9.399973674588180e+000	 4.933340000004133e+000	 9.980933946146212e+000
0	 9.399973674588180e+000	 5.000000000000001e+000	 9.982940220153823e+000
0	 9.399973674588178e+000	 5.066659999995868e+000	 9.984858519584387e+000
0	 9.399973674588178e+000	 5.133319999991933e+000	 9.986688662849247e+000
0	 9.399973674588175e+000	 5.199979999988400e+000	 9.988430468359772e+000
0	 9.399973674588177e+000	 5.266639999985467e+000	 9.990083754527291e+000
0	 9.399973674588177e+000	 5.333299999983334e+000	 9.991648339763181e+000
0	 9.466644621844619e+000	 4.666700000016665e+000	 9.968755581228326e+000
0	 9.466644621844619e+000	 4.733360000014534e+000	 9.971227962738706e+000
0	 9.466644621844617e+000	 4.800020000011598e+000	 9.973609419747804e+000
0	 9.466644621844619e+000	 4.866680000008067e+000	 9.975899806024890e+000
0	 9.466644621844619e+000	 4.933340000004132e+000	 9.978098975339131e+000
0	 9.466644621844621e+000	 5.000000000000000e+000	 9.980206781459811e+000
0	 9.466644621844621e+000	 5.066659999995867e+000	 9.982223078156153e+000
0	 9.466644621844621e+000	 5.133319999991936e+000	 9.984147719197402e+000
0	 9.466644621844619e+000	 5.199979999988400e+000	 9.985980558352777e+000
0	 9.466644621844619e+000	 5.266639999985467e+000	 9.987721449391541e+000
0	 9.466644621844617e+000	 5.333299999983333e+000	 9.989370246082924e+000
0	 9.533315502450000e+000	 4.666700000016667e+000	 9.965640378159261e+000
0	 9.533315502449998e+000	 4.733360000014534e+000	 9.968229883853027e+000
0	 9.533315502450000e+000	 4.800020000011601e+000	 9.970724526830535e+000
0	 9.533315502450000e+000	 4.866680000008066e+000	 9.973124189615163e+000
0	 9.533315502449998e+000	 4.933340000004134e+000	 9.975428754730299e+000
0	 9.533315502449998e+000	 5.000000000000000e+000	 9.977638104699279e+000
0	 9.533315502449996e+000	 5.066659999995867e+000	 9.979752122045472e+000
0	 9.533315502450003e+000	 5.133319999991934e+000	 9.981770689292263e+000
0	 9.533315502450000e+000	 5.199979999988401e+000	 9.983693688962989e+000
0	 9.533315502450002e+000	 5.266639999985467e+000	 9.985521003581056e+000
0	 9.533315502450000e+000	 5.333299999983334e+000	 9.987252515669805e+000
0	 9.599986199732193e+000	 4.666700000016665e+000	 9.962702024819693e+000
0	 9.599986199732197e+000	 4.733360000014533e+000	 9.965409633421393e+000
0	 9.599986199732197e+000	 4.800020000011600e+000	 9.968018168551877e+000
0	 9.599986199732197e+000	 4.866680000008067e+000	 9.970527534884992e+000
0	 9.599986199732195e+000	 4.933340000004134e+000	 9.972937637094598e+000
0	 9.599986199732195e+000	 5.000000000000000e+000	 9.975248379854525e+000
0	 9.599986199732193e+000	 5.066659999995867e+000	 9.977459667838664e+000
0	 9.599986199732195e+000	 5.133319999991934e+000	 9.979571405720817e+000
0	 9.599986199732195e+000	 5.199979999988400e+000	 9.981583498174871e+000
0	 9.599986199732197e+000	 5.266639999985468e+000	 9.983495849874672e+000
0	 9.599986199732197e+000	 5.333299999983335e+000	 9.985308365494101e+000
0	 9.666656597019092e+000	 4.666700000016665e+000	 9.959955418106874e+000
0	 9.666656597019093e+000	 4.733360000014534e+000	 9.962781987957252e+000
0	 9.666656597019092e+000	 4.800020000011599e+000	 9.965504990439634e+000
0	 9.666656597019092e+000	 4.866680000008065e+000	 9.968124345774760e+000
0	 9.666656597019093e+000	 4.933340000004134e+000	 9.970639974183349e+000
0	 9.666656597019095e+000	 5.000000000000001e+000	 9.973051795886150e+000
0	 9.666656597019095e+000	 5.066659999995866e+000	 9.975359731103888e+000
0	 9.666656597019093e+000	 5.133319999991934e+000	 9.977563700057347e+000
0	 9.666656597019092e+000	 5.199979999988400e+000	 9.979663622967232e+000
0	 9.666656597019093e+000	 5.266639999985467e+000	 9.981659420054317e+000
0	 9.666656597019092e+000	 5.333299999983335e+000	 9.983551011539323e+000
0	 9.733326577638575e+000	 4.666700000016666e+000	 9.957415453906831e+000
0	 9.733326577638575e+000	 4.733360000014533e+000	 9.960361722956664e+000
0	 9.733326577638573e+000	 4.800020000011599e+000	 9.963199637000184e+000
0	 9.733326577638573e+000	 4.866680000008066e+000	 9.965929125201443e+000
0	 9.733326577638575e+000	 4.933340000004135e+000	 9.968550116724378e+000
0	 9.733326577638573e+000	 5.000000000000000e+000	 9.971062540733042e+000
0	 9.733326577638575e+000	 5.066659999995866e+000	 9.973466326391414e+000
0	 9.733326577638572e+000	 5.133319999991933e+000	 9.975761402863512e+000
0	 9.733326577638575e+000	 5.199979999988400e+000	 9.977947699313351e+000
0	 9.733326577638575e+000	 5.266639999985469e+000	 9.980025144904943e+000
0	 9.733326577638575e+000	 5.333299999983334e+000	 9.981993668802302e+000
0	 9.799996024918523e+000	 4.666700000016666e+000	 9.955097027094309e+000
0	 9.799996024918519e+000	 4.733360000014532e+000	 9.958163612898265e+000
0	 9.799996024918521e+000	 4.800020000011600e+000	 9.961116751718491e+000
0	 9.799996024918523e+000	 4.866680000008067e+000	 9.963956375058565e+000
0	 9.799996024918521e+000	 4.933340000004134e+000	 9.966682414422030e+000
0	 9.799996024918521e+000	 5.000000000000000e+000	 9.969294801312438e+000
0	 9.799996024918523e+000	 5.066659999995867e+000	 9.971793467233347e+000
0	 9.799996024918523e+000	 5.133319999991935e+000	 9.974178343688301e+000
0	 9.799996024918523e+000	 5.199979999988400e+000	 9.976449362180878e+000
0	 9.799996024918523e+000	 5.266639999985467e+000	 9.978606454214637e+000
0	 9.799996024918523e+000	 5.333299999983334e+000	 9.980649551293125e+000
0	 9.866664822186822e+000	 4.666700000016667e+000	 9.953015031532789e+000
0	 9.866664822186822e+000	 4.733360000014533e+000	 9.956202431243298e+000
0	 9.866664822186822e+000	 4.800020000011601e+000	 9.959270977058056e+000
0	 9.866664822186820e+000	 4.866680000008067e+000	 9.962220596216264e+000
0	 9.866664822186818e+000	 4.933340000004133e+000	 9.965051215957132e+000
0	 9.866664822186820e+000	 4.999999999999999e+000	 9.967762763519916e+000
0	 9.866664822186820e+000	 5.066659999995866e+000	 9.970355166143840e+000
0	 9.866664822186820e+000	 5.133319999991935e+000	 9.972828351068070e+000
0	 9.866664822186822e+000	 5.199979999988400e+000	 9.975182245531899e+000
0	 9.866664822186822e+000	 5.266639999985468e+000	 9.977416776774554e+000
0	 9.866664822186820e+000	 5.333299999983334e+000	 9.979531872035226e+000
0	 9.933332852771351e+000	 4.666700000016666e+000	 9.951184360074519e+000
0	 9.933332852771351e+000	 4.733360000014533e+000	 9.954492950435650e+000
0	 9.933332852771349e+000	 4.800020000011599e+000	 9.957676954460913e+000
0	 9.933332852771352e+000	 4.866680000008067e+000	 9.960736288521130e+000
0	 9.933332852771351e+000	 4.933340000004133e+000	 9.963670868987007e+000
0	 9.933332852771351e+000	 5.000000000000000e+000	 9.966480612229349e+000
0	 9.933332852771351e+000	 5.066659999995868e+000	 9.969165434618921e+000
0	 9.933332852771352e+000	 5.133319999991934e+000	 9.971725252526504e+000
0	 9.933332852771351e+000	 5.199979999988401e+000	 9.974159982322895e+000
0	 9.933332852771351e+000	 5.266639999985467e+000	 9.976469540378870e+000
0	 9.933332852771351e+000	 5.333299999983335e+000	 9.978653843065221e+000
0	 1.000000000000000e+001	 4.666700000016666e+000	 9.949619904560352e+000
0	 1.000000000000000e+001	 4.733360000014534e+000	 9.953049941901730e+000
0	 1.000000000000000e+001	 4.800020000011600e+000	 9.956349324347766e+000
0	 1.000000000000000e+001	 4.866680000008066e+000	 9.959517950796343e+000
0	 1.000000000000000e+001	 4.933340000004134e+000	 9.962555720145392e+000
0	 1.000000000000000e+001	 5.000000000000000e+000	 9.965462531292832e+000
0	 1.000000000000000e+001	 5.066659999995866e+000	 9.968238283136563e+000
0	 9.999999999999998e+000	 5.133319999991934e+000	 9.970882874574523e+000
0	 1.000000000000000e+001	 5.199979999988400e+000	 9.973396204504624e+000
0	 1.000000000000000e+001	 5.266639999985467e+000	 9.975778171824794e+000
0	 1.000000000000000e+001	 5.333299999983334e+000	 9.978028675432942e+000
0	 9.333302777352785e+000	 5.333299999983335e+000	 9.994073578753500e+000
0	 9.333302777352783e+000	 5.399969999982150e+000	 9.995473118019127e+000
0	 9.333302777352785e+000	 5.466639999981866e+000	 9.996798561488401e+000
0	 9.333302777352781e+000	 5.533309999982382e+000	 9.998049433586854e+000
0	 9.333302777352783e+000	 5.599979999983600e+000	 9.999225258740045e+000
0	 9.333302777352781e+000	 5.666649999985415e+000	 1.000032556137354e+001
0	 9.333302777352783e+000	 5.733319999987732e+000	 1.000134986591285e+001
0	 9.333302777352783e+000	 5.799989999990450e+000	 1.000229769678355e+001
0	 9.333302777352781e+000	 5.866659999993467e+000	 1.000316857841115e+001
0	 9.333302777352783e+000	 5.933329999996682e+000	 1.000396203522124e+001
0	 9.333302777352785e+000	 6.000000000000001e+000	 1.000467759163933e+001
0	 9.399973674588177e+000	 5.333299999983334e+000	 9.991648339763179e+000
0	 9.399973674588177e+000	 5.399969999982148e+000	 9.993130385968129e+000
0	 9.399973674588177e+000	 5.466639999981865e+000	 9.994535410683945e+000
0	 9.399973674588175e+000	 5.533309999982382e+000	 9.995862949930464e+000
0	 9.399973674588175e+000	 5.599979999983599e+000	 9.997112539727592e+000
0	 9.399973674588175e+000	 5.666649999985416e+000	 9.998283716095164e+000
0	 9.399973674588175e+000	 5.733319999987733e+000	 9.999376015053041e+000
0	 9.399973674588177e+000	 5.799989999990449e+000	 1.000038897262112e+001
0	 9.399973674588175e+000	 5.866659999993465e+000	 1.000132212481921e+001
0	 9.399973674588177e+000	 5.933329999996684e+000	 1.000217500766721e+001
0	 9.399973674588177e+000	 6.000000000000002e+000	 1.000294715718494e+001
0	 9.466644621844617e+000	 5.333299999983333e+000	 9.989370246082922e+000
0	 9.466644621844621e+000	 5.399969999982151e+000	 9.990933279753477e+000
0	 9.466644621844619e+000	 5.466639999981867e+000	 9.992416193539057e+000
0	 9.466644621844621e+000	 5.533309999982384e+000	 9.993818530210344e+000
0	 9.466644621844619e+000	 5.599979999983598e+000	 9.995139832538001e+000
0	 9.466644621844623e+000	 5.666649999985418e+000	 9.996379643292746e+000
0	 9.466644621844619e+000	 5.733319999987733e+000	 9.997537505245232e+000
0	 9.466644621844621e+000	 5.799989999990449e+000	 9.998612961166156e+000
0	 9.466644621844619e+000	 5.866659999993467e+000	 9.999605553826184e+000
0	 9.466644621844617e+000	 5.933329999996683e+000	 1.000051482599600e+001
0	 9.466644621844619e+000	 5.999999999999998e+000	 1.000134032044626e+001
0	 9.533315502450000e+000	 5.333299999983334e+000	 9.987252515669804e+000
0	 9.533315502449996e+000	 5.399969999982149e+000	 9.988894787830077e+000
0	 9.533315502449998e+000	 5.466639999981865e+000	 9.990453652310446e+000
0	 9.533315502450003e+000	 5.533309999982383e+000	 9.991928653788964e+000
0	 9.533315502450000e+000	 5.599979999983599e+000	 9.993319336943664e+000
0	 9.533315502449998e+000	 5.666649999985416e+000	 9.994625246452571e+000
0	 9.533315502449998e+000	 5.733319999987733e+000	 9.995845926993727e+000
0	 9.533315502450002e+000	 5.799989999990449e+000	 9.996980923245182e+000
0	 9.533315502450002e+000	 5.866659999993469e+000	 9.998029779884950e+000
0	 9.533315502449998e+000	 5.933329999996682e+000	 9.998992041591091e+000
0	 9.533315502450000e+000	 6.000000000000000e+000	 9.999867253041620e+000
0	 9.599986199732197e+000	 5.333299999983335e+000	 9.985308365494099e+000
0	 9.599986199732195e+000	 5.399969999982151e+000	 9.987027897677704e+000
0	 9.599986199732197e+000	 5.466639999981865e+000	 9.988660528292785e+000
0	 9.599986199732197e+000	 5.533309999982383e+000	 9.990205799081299e+000
0	 9.599986199732193e+000	 5.599979999983598e+000	 9.991663251785129e+000
0	 9.599986199732195e+000	 5.666649999985415e+000	 9.993032428146192e+000
0	 9.599986199732195e+000	 5.733319999987731e+000	 9.994312869906413e+000
0	 9.599986199732198e+000	 5.799989999990449e+000	 9.995504118807697e+000
0	 9.599986199732195e+000	 5.866659999993466e+000	 9.996605716591942e+000
0	 9.599986199732195e+000	 5.933329999996682e+000	 9.997617205001081e+000
0	 9.599986199732197e+000	 5.999999999999998e+000	 9.998538125777014e+000
0	 9.666656597019092e+000	 5.333299999983335e+000	 9.983551011539321e+000
0	 9.666656597019093e+000	 5.399969999982152e+000	 9.985345595801050e+000
0	 9.666656597019095e+000	 5.466639999981866e+000	 9.987049561818798e+000
0	 9.666656597019093e+000	 5.533309999982384e+000	 9.988662443554784e+000
0	 9.666656597019095e+000	 5.599979999983598e+000	 9.990183774971291e+000
0	 9.666656597019090e+000	 5.666649999985415e+000	 9.991613090030516e+000
0	 9.666656597019093e+000	 5.733319999987732e+000	 9.992949922694740e+000
0	 9.666656597019092e+000	 5.799989999990450e+000	 9.994193806926177e+000
0	 9.666656597019095e+000	 5.866659999993467e+000	 9.995344276687066e+000
0	 9.666656597019093e+000	 5.933329999996684e+000	 9.996400865939657e+000
0	 9.666656597019092e+000	 6.000000000000001e+000	 9.997363108646189e+000
0	 9.733326577638575e+000	 5.333299999983334e+000	 9.981993668802302e+000
0	 9.733326577638577e+000	 5.399969999982150e+000	 9.983860867729801e+000
0	 9.733326577638575e+000	 5.466639999981868e+000	 9.985633492259229e+000
0	 9.733326577638575e+000	 5.533309999982384e+000	 9.987311063729422e+000
0	 9.733326577638572e+000	 5.599979999983598e+000	 9.988893103479315e+000
0	 9.733326577638573e+000	 5.666649999985416e+000	 9.990379132847792e+000
0	 9.733326577638575e+000	 5.733319999987732e+000	 9.991768673173787e+000
0	 9.733326577638572e+000	 5.799989999990449e+000	 9.993061245796172e+000
0	 9.733326577638573e+000	 5.866659999993466e+000	 9.994256372053847e+000
0	 9.733326577638573e+000	 5.933329999996683e+000	 9.995353573285732e+000
0	 9.733326577638575e+000	 6.000000000000001e+000	 9.996352370830692e+000
0	 9.799996024918523e+000	 5.333299999983334e+000	 9.980649551293121e+000
0	 9.799996024918523e+000	 5.399969999982150e+000	 9.982586698018645e+000
0	 9.799996024918519e+000	 5.466639999981864e+000	 9.984425058022907e+000
0	 9.799996024918521e+000	 5.533309999982383e+000	 9.986164135177688e+000
0	 9.799996024918523e+000	 5.599979999983600e+000	 9.987803433354680e+000
0	 9.799996024918521e+000	 5.666649999985416e+000	 9.989342456425625e+000
0	 9.799996024918521e+000	 5.733319999987734e+000	 9.990780708262200e+000
0	 9.799996024918523e+000	 5.799989999990450e+000	 9.992117692736219e+000
0	 9.799996024918523e+000	 5.866659999993468e+000	 9.993352913719342e+000
0	 9.799996024918521e+000	 5.933329999996682e+000	 9.994485875083305e+000
0	 9.799996024918521e+000	 6.000000000000000e+000	 9.995516080699822e+000
0	 9.866664822186820e+000	 5.333299999983334e+000	 9.979531872035226e+000
0	 9.866664822186820e+000	 5.399969999982150e+000	 9.981536070247142e+000
0	 9.866664822186822e+000	 5.466639999981866e+000	 9.983436996556804e+000
0	 9.866664822186820e+000	 5.533309999982383e+000	 9.985234132524628e+000
0	 9.866664822186820e+000	 5.599979999983600e+000	 9.986926959711173e+000
0	 9.866664822186822e+000	 5.666649999985417e+000	 9.988514959676916e+000
0	 9.866664822186820e+000	 5.733319999987732e+000	 9.989997613982343e+000
0	 9.866664822186820e+000	 5.799989999990449e+000	 9.991374404187951e+000
0	 9.866664822186820e+000	 5.866659999993466e+000	 9.992644811854190e+000
0	 9.866664822186822e+000	 5.933329999996684e+000	 9.993808318541579e+000
0	 9.866664822186820e+000	 5.999999999999998e+000	 9.994864405810599e+000
0	 9.933332852771351e+000	 5.333299999983335e+000	 9.978653843065221e+000
0	 9.933332852771351e+000	 5.399969999982150e+000	 9.980721967019884e+000
0	 9.933332852771351e+000	 5.466639999981866e+000	 9.982682044345751e+000
0	 9.933332852771351e+000	 5.533309999982383e+000	 9.984533529447774e+000
0	 9.933332852771351e+000	 5.599979999983599e+000	 9.986275876730884e+000
0	 9.933332852771352e+000	 5.666649999985417e+000	 9.987908540599966e+000
0	 9.933332852771351e+000	 5.733319999987733e+000	 9.989430975459987e+000
0	 9.933332852771352e+000	 5.799989999990449e+000	 9.990842635715866e+000
0	 9.933332852771351e+000	 5.866659999993467e+000	 9.992142975772511e+000
0	 9.933332852771352e+000	 5.933329999996684e+000	 9.993331450034843e+000
0	 9.933332852771349e+000	 5.999999999999998e+000	 9.994407512907797e+000
0	 1.000000000000000e+001	 5.333299999983334e+000	 9.978028675432940e+000
0	 1.000000000000000e+001	 5.399969999982149e+000	 9.980157369966245e+000
0	 1.000000000000000e+001	 5.466639999981866e+000	 9.982172936912704e+000
0	 9.999999999999998e+000	 5.533309999982383e+000	 9.984074798677046e+000
0	 1.000000000000000e+001	 5.599979999983600e+000	 9.985862377663983e+000
0	 1.000000000000000e+001	 5.666649999985417e+000	 9.987535096278219e+000
0	 1.000000000000000e+001	 5.733319999987733e+000	 9.989092376924470e+000
0	 1.000000000000000e+001	 5.799989999990450e+000	 9.990533642007442e+000
0	 1.000000000000000e+001	 5.866659999993467e+000	 9.991858313931846e+000
0	 1.000000000000000e+001	 5.933329999996683e+000	 9.993065815102415e+000
0	 1.000000000000000e+001	 6.000000000000000e+000	 9.994155567923798e+000
0	 9.333302777352785e+000	 6.000000000000001e+000	 1.000467759163933e+001
0	 9.333302777352781e+000	 6.066670000003315e+000	 1.000532692384117e+001
0	 9.333302777352783e+000	 6.133340000006534e+000	 1.000592157993327e+001
0	 9.333302777352783e+000	 6.200010000009552e+000	 1.000646089223725e+001
0	 9.333302777352781e+000	 6.266680000012266e+000	 1.000694419307470e+001
0	 9.333302777352783e+000	 6.333350000014586e+000	 1.000737081476731e+001
0	 9.333302777352783e+000	 6.400020000016400e+000	 1.000774008963664e+001
0	 9.333302777352783e+000	 6.466690000017617e+000	 1.000805135000437e+001
0	 9.333302777352785e+000	 6.533360000018136e+000	 1.000830392819209e+001
0	 9.333302777352783e+000	 6.600030000017850e+000	 1.000849715652142e+001
0	 9.333302777352783e+000	 6.666700000016666e+000	 1.000863036731399e+001
0	 9.399973674588177e+000	 6.000000000000002e+000	 1.000294715718494e+001
0	 9.399973674588178e+000	 6.066670000003318e+000	 1.000365059405006e+001
0	 9.399973674588177e+000	 6.133340000006533e+000	 1.000429721115461e+001
0	 9.399973674588177e+000	 6.200010000009551e+000	 1.000488635284012e+001
0	 9.399973674588175e+000	 6.266680000012268e+000	 1.000541736344815e+001
0	 9.399973674588173e+000	 6.333350000014582e+000	 1.000588958732018e+001
0	 9.399973674588175e+000	 6.400020000016401e+000	 1.000630236879777e+001
0	 9.399973674588178e+000	 6.466690000017617e+000	 1.000665505222243e+001
0	 9.399973674588177e+000	 6.533360000018133e+000	 1.000694698193570e+001
0	 9.399973674588177e+000	 6.600030000017849e+000	 1.000717750227910e+001
0	 9.399973674588177e+000	 6.666700000016666e+000	 1.000734595759413e+001
0	 9.466644621844619e+000	 5.999999999999998e+000	 1.000134032044626e+001
0	 9.466644621844619e+000	 6.066670000003318e+000	 1.000209448061669e+001
0	 9.466644621844621e+000	 6.133340000006534e+000	 1.000278962161100e+001
0	 9.466644621844621e+000	 6.200010000009551e+000	 1.000342509369601e+001
0	 9.466644621844619e+000	 6.266680000012267e+000	 1.000400024713850e+001
0	 9.466644621844621e+000	 6.333350000014584e+000	 1.000451443220528e+001
0	 9.466644621844619e+000	 6.400020000016399e+000	 1.000496699916313e+001
0	 9.466644621844623e+000	 6.466690000017619e+000	 1.000535729827886e+001
0	 9.466644621844619e+000	 6.533360000018135e+000	 1.000568467981926e+001
0	 9.466644621844621e+000	 6.600030000017852e+000	 1.000594849405110e+001
0	 9.466644621844617e+000	 6.666700000016665e+000	 1.000614809124121e+001
0	 9.533315502450000e+000	 6.000000000000000e+000	 9.999867253041620e+000
0	 9.533315502449998e+000	 6.066670000003316e+000	 1.000066835935794e+001
0	 9.533315502450003e+000	 6.133340000006533e+000	 1.000140817594103e+001
0	 9.533315502449998e+000	 6.200010000009551e+000	 1.000208605288837e+001
0	 9.533315502450000e+000	 6.266680000012266e+000	 1.000270134029743e+001
0	 9.533315502449996e+000	 6.333350000014583e+000	 1.000325338826564e+001
0	 9.533315502450000e+000	 6.400020000016399e+000	 1.000374154689048e+001
0	 9.533315502450002e+000	 6.466690000017616e+000	 1.000416516626940e+001
0	 9.533315502450000e+000	 6.533360000018135e+000	 1.000452359649985e+001
0	 9.533315502449998e+000	 6.600030000017851e+000	 1.000481618767930e+001
0	 9.533315502449998e+000	 6.666700000016666e+000	 1.000504228990520e+001
0	 9.599986199732197e+000	 5.999999999999998e+000	 9.998538125777014e+000
0	 9.599986199732195e+000	 6.066670000003315e+000	 9.999382005301913e+000
0	 9.599986199732193e+000	 6.133340000006532e+000	 1.000016223801899e+001
0	 9.599986199732197e+000	 6.200010000009550e+000	 1.000087816776174e+001
0	 9.599986199732195e+000	 6.266680000012268e+000	 1.000152913836366e+001
0	 9.599986199732195e+000	 6.333350000014583e+000	 1.000211449365818e+001
0	 9.599986199732195e+000	 6.400020000016402e+000	 1.000263357747882e+001
0	 9.599986199732195e+000	 6.466690000017614e+000	 1.000308573365906e+001
0	 9.599986199732197e+000	 6.533360000018133e+000	 1.000347030603237e+001
0	 9.599986199732195e+000	 6.600030000017851e+000	 1.000378663843221e+001
0	 9.599986199732197e+000	 6.666700000016666e+000	 1.000403407469208e+001
0	 9.666656597019092e+000	 6.000000000000001e+000	 9.997363108646189e+000
0	 9.666656597019092e+000	 6.066670000003316e+000	 9.998245192688039e+000
0	 9.666656597019093e+000	 6.133340000006532e+000	 9.999061170954944e+000
0	 9.666656597019092e+000	 6.200010000009553e+000	 9.999810374921678e+000
0	 9.666656597019093e+000	 6.266680000012268e+000	 1.000049213606298e+001
0	 9.666656597019092e+000	 6.333350000014583e+000	 1.000110578585364e+001
0	 9.666656597019092e+000	 6.400020000016398e+000	 1.000165065576840e+001
0	 9.666656597019093e+000	 6.466690000017618e+000	 1.000212607728205e+001
0	 9.666656597019095e+000	 6.533360000018133e+000	 1.000253138186933e+001
0	 9.666656597019092e+000	 6.600030000017852e+000	 1.000286590100500e+001
0	 9.666656597019092e+000	 6.666700000016666e+000	 1.000312896616382e+001
0	 9.733326577638575e+000	 6.000000000000001e+000	 9.996352370830692e+000
0	 9.733326577638573e+000	 6.066670000003315e+000	 9.997267694967094e+000
0	 9.733326577638573e+000	 6.133340000006532e+000	 9.998114337094759e+000
0	 9.733326577638573e+000	 6.200010000009551e+000	 9.998891610234807e+000
0	 9.733326577638575e+000	 6.266680000012268e+000	 9.999598827408422e+000
0	 9.733326577638573e+000	 6.333350000014583e+000	 1.000023530163671e+001
0	 9.733326577638575e+000	 6.400020000016400e+000	 1.000080034594083e+001
0	 9.733326577638572e+000	 6.466690000017618e+000	 1.000129327334191e+001
0	 9.733326577638573e+000	 6.533360000018132e+000	 1.000171339686112e+001
0	 9.733326577638573e+000	 6.600030000017850e+000	 1.000206002951956e+001
0	 9.733326577638573e+000	 6.666700000016666e+000	 1.000233248433842e+001
0	 9.799996024918521e+000	 6.000000000000000e+000	 9.995516080699822e+000
0	 9.799996024918521e+000	 6.066670000003315e+000	 9.996459284801171e+000
0	 9.799996024918523e+000	 6.133340000006534e+000	 9.997331098020055e+000
0	 9.799996024918523e+000	 6.200010000009552e+000	 9.998130808828870e+000
0	 9.799996024918523e+000	 6.266680000012268e+000	 9.998857705700036e+000
0	 9.799996024918523e+000	 6.333350000014585e+000	 9.999511077105922e+000
0	 9.799996024918524e+000	 6.400020000016402e+000	 1.000009021151892e+001
0	 9.799996024918524e+000	 6.466690000017619e+000	 1.000059439741142e+001
0	 9.799996024918521e+000	 6.533360000018133e+000	 1.000102292325581e+001
0	 9.799996024918523e+000	 6.600030000017851e+000	 1.000137507752451e+001
0	 9.799996024918523e+000	 6.666700000016667e+000	 1.000165014868986e+001
0	 9.866664822186820e+000	 5.999999999999998e+000	 9.994864405810599e+000
0	 9.866664822186820e+000	 6.066670000003317e+000	 9.995829734063644e+000
0	 9.866664822186820e+000	 6.133340000006533e+000	 9.996720814548276e+000
0	 9.866664822186820e+000	 6.200010000009551e+000	 9.997536905092659e+000
0	 9.866664822186818e+000	 6.266680000012266e+000	 9.998277263525093e+000
0	 9.866664822186822e+000	 6.333350000014584e+000	 9.998941147673740e+000
0	 9.866664822186820e+000	 6.400020000016402e+000	 9.999527815366854e+000
0	 9.866664822186820e+000	 6.466690000017616e+000	 1.000003652443261e+001
0	 9.866664822186822e+000	 6.533360000018135e+000	 1.000046653269929e+001
0	 9.866664822186818e+000	 6.600030000017849e+000	 1.000081709799507e+001
0	 9.866664822186820e+000	 6.666700000016667e+000	 1.000108747814820e+001
0	 9.933332852771349e+000	 5.999999999999998e+000	 9.994407512907797e+000
0	 9.933332852771352e+000	 6.066670000003317e+000	 9.995388813839208e+000
0	 9.933332852771352e+000	 6.133340000006535e+000	 9.996292846732519e+000
0	 9.933332852771351e+000	 6.200010000009550e+000	 9.997118832675984e+000
0	 9.933332852771351e+000	 6.266680000012268e+000	 9.997865992757854e+000
0	 9.933332852771351e+000	 6.333350000014584e+000	 9.998533548066446e+000
0	 9.933332852771352e+000	 6.400020000016401e+000	 9.999120719690017e+000
0	 9.933332852771352e+000	 6.466690000017617e+000	 9.999626728716818e+000
0	 9.933332852771351e+000	 6.533360000018134e+000	 1.000005079623512e+001
0	 9.933332852771352e+000	 6.600030000017851e+000	 1.000039214333324e+001
0	 9.933332852771351e+000	 6.666700000016665e+000	 1.000064999109940e+001
0	 1.000000000000000e+001	 6.000000000000000e+000	 9.994155567923798e+000
0	 1.000000000000000e+001	 6.066670000003317e+000	 9.995146294423805e+000
0	 1.000000000000000e+001	 6.133340000006534e+000	 9.996056553861653e+000
0	 1.000000000000000e+001	 6.200010000009551e+000	 9.996885524489628e+000
0	 1.000000000000000e+001	 6.266680000012268e+000	 9.997632384559733e+000
0	 1.000000000000000e+001	 6.333350000014584e+000	 9.998296312324154e+000
0	 1.000000000000000e+001	 6.400020000016401e+000	 9.998876486035039e+000
0	 1.000000000000000e+001	 6.466690000017618e+000	 9.999372083944470e+000
0	 1.000000000000000e+001	 6.533360000018134e+000	 9.999782284304606e+000
0	 1.000000000000000e+001	 6.600030000017850e+000	 1.000010626536757e+001
0	 1.000000000000000e+001	 6.666700000016666e+000	 1.000034320538545e+001
0	 9.333302777352783e+000	 6.666700000016666e+000	 1.000863036731399e+001
0	 9.333302777352783e+000	 6.733360000014532e+000	 1.000871814480352e+001
0	 9.333302777352783e+000	 6.800020000011600e+000	 1.000877505435165e+001
0	 9.333302777352783e+000	 6.866680000008068e+000	 1.000880035363349e+001
0	 9.333302777352781e+000	 6.933340000004135e+000	 1.000879330032409e+001
0	 9.333302777352781e+000	 6.999999999999999e+000	 1.000875315209863e+001
0	 9.333302777352783e+000	 7.066659999995867e+000	 1.000867916663218e+001
0	 9.333302777352783e+000	 7.133319999991934e+000	 1.000857060159984e+001
0	 9.333302777352783e+000	 7.199979999988400e+000	 1.000842671467672e+001
0	 9.333302777352783e+000	 7.266639999985467e+000	 1.000824676353794e+001
0	 9.333302777352785e+000	 7.333299999983335e+000	 1.000803000585858e+001
0	 9.399973674588177e+000	 6.666700000016666e+000	 1.000734595759414e+001
0	 9.399973674588177e+000	 6.733360000014532e+000	 1.000746740731486e+001
0	 9.399973674588175e+000	 6.800020000011598e+000	 1.000755690278294e+001
0	 9.399973674588178e+000	 6.866680000008066e+000	 1.000761371446256e+001
0	 9.399973674588177e+000	 6.933340000004134e+000	 1.000763711281785e+001
0	 9.399973674588178e+000	 6.999999999999999e+000	 1.000762636831302e+001
0	 9.399973674588177e+000	 7.066659999995868e+000	 1.000758075141225e+001
0	 9.399973674588178e+000	 7.133319999991935e+000	 1.000749953257969e+001
0	 9.399973674588175e+000	 7.199979999988399e+000	 1.000738198227954e+001
0	 9.399973674588177e+000	 7.266639999985468e+000	 1.000722737097595e+001
0	 9.399973674588177e+000	 7.333299999983336e+000	 1.000703496913312e+001
0	 9.466644621844617e+000	 6.666700000016665e+000	 1.000614809124121e+001
0	 9.466644621844619e+000	 6.733360000014531e+000	 1.000629907609590e+001
0	 9.466644621844617e+000	 6.800020000011599e+000	 1.000641705429532e+001
0	 9.466644621844619e+000	 6.866680000008065e+000	 1.000650130229829e+001
0	 9.466644621844621e+000	 6.933340000004134e+000	 1.000655109656358e+001
0	 9.466644621844623e+000	 7.000000000000001e+000	 1.000656571355006e+001
0	 9.466644621844619e+000	 7.066659999995867e+000	 1.000654442971647e+001
0	 9.466644621844619e+000	 7.133319999991933e+000	 1.000648652152167e+001
0	 9.466644621844617e+000	 7.199979999988400e+000	 1.000639126542447e+001
0	 9.466644621844619e+000	 7.266639999985466e+000	 1.000625793788366e+001
0	 9.466644621844619e+000	 7.333299999983332e+000	 1.000608581535808e+001
0	 9.533315502449998e+000	 6.666700000016666e+000	 1.000504228990520e+001
0	 9.533315502450000e+000	 6.733360000014534e+000	 1.000521813275004e+001
0	 9.533315502449998e+000	 6.800020000011600e+000	 1.000535995395015e+001
0	 9.533315502449998e+000	 6.866680000008068e+000	 1.000546702916456e+001
0	 9.533315502450000e+000	 6.933340000004133e+000	 1.000553863405236e+001
0	 9.533315502450000e+000	 7.000000000000000e+000	 1.000557404427253e+001
0	 9.533315502449995e+000	 7.066659999995866e+000	 1.000557253548415e+001
0	 9.533315502450002e+000	 7.133319999991934e+000	 1.000553338334626e+001
0	 9.533315502450000e+000	 7.199979999988401e+000	 1.000545586351790e+001
0	 9.533315502449998e+000	 7.266639999985468e+000	 1.000533925165815e+001
0	 9.533315502450000e+000	 7.333299999983334e+000	 1.000518282342599e+001
0	 9.599986199732197e+000	 6.666700000016666e+000	 1.000403407469208e+001
0	 9.599986199732198e+000	 6.733360000014532e+000	 1.000422955836625e+001
0	 9.599986199732197e+000	 6.800020000011600e+000	 1.000439004632423e+001
0	 9.599986199732197e+000	 6.866680000008067e+000	 1.000451480663084e+001
0	 9.599986199732195e+000	 6.933340000004133e+000	 1.000460310735091e+001
0	 9.599986199732197e+000	 7.000000000000000e+000	 1.000465421654925e+001
0	 9.599986199732198e+000	 7.066659999995867e+000	 1.000466740229071e+001
0	 9.599986199732197e+000	 7.133319999991935e+000	 1.000464193264010e+001
0	 9.599986199732198e+000	 7.199979999988402e+000	 1.000457707566228e+001
0	 9.599986199732195e+000	 7.266639999985467e+000	 1.000447209942206e+001
0	 9.599986199732195e+000	 7.333299999983333e+000	 1.000432627198427e+001
0	 9.666656597019092e+000	 6.666700000016666e+000	 1.000312896616383e+001
0	 9.666656597019092e+000	 6.733360000014531e+000	 1.000333833351922e+001
0	 9.666656597019090e+000	 6.800020000011601e+000	 1.000351177550996e+001
0	 9.666656597019090e+000	 6.866680000008066e+000	 1.000364854581213e+001
0	 9.666656597019095e+000	 6.933340000004134e+000	 1.000374789810176e+001
0	 9.666656597019093e+000	 6.999999999999998e+000	 1.000380908605489e+001
0	 9.666656597019093e+000	 7.066659999995867e+000	 1.000383136334762e+001
0	 9.666656597019095e+000	 7.133319999991933e+000	 1.000381398365595e+001
0	 9.666656597019092e+000	 7.199979999988401e+000	 1.000375620065598e+001
0	 9.666656597019093e+000	 7.266639999985467e+000	 1.000365726802376e+001
0	 9.666656597019093e+000	 7.333299999983336e+000	 1.000351643943532e+001
0	 9.733326577638573e+000	 6.666700000016666e+000	 1.000233248433842e+001
0	 9.733326577638575e+000	 6.733360000014534e+000	 1.000254943826920e+001
0	 9.733326577638575e+000	 6.800020000011601e+000	 1.000272958511521e+001
0	 9.733326577638570e+000	 6.866680000008064e+000	 1.000287215736902e+001
0	 9.733326577638573e+000	 6.933340000004133e+000	 1.000297638752316e+001
0	 9.733326577638573e+000	 6.999999999999998e+000	 1.000304150807013e+001
0	 9.733326577638573e+000	 7.066659999995866e+000	 1.000306675150250e+001
0	 9.733326577638573e+000	 7.133319999991934e+000	 1.000305135031278e+001
0	 9.733326577638573e+000	 7.199979999988399e+000	 1.000299453699351e+001
0	 9.733326577638577e+000	 7.266639999985469e+000	 1.000289554403724e+001
0	 9.733326577638575e+000	 7.333299999983334e+000	 1.000275360393649e+001
0	 9.799996024918523e+000	 6.666700000016667e+000	 1.000165014868986e+001
0	 9.799996024918523e+000	 6.733360000014534e+000	 1.000186785216213e+001
0	 9.799996024918523e+000	 6.800020000011600e+000	 1.000204791826341e+001
0	 9.799996024918523e+000	 6.866680000008066e+000	 1.000218955150773e+001
0	 9.799996024918523e+000	 6.933340000004132e+000	 1.000229195640912e+001
0	 9.799996024918523e+000	 7.000000000000001e+000	 1.000235433748157e+001
0	 9.799996024918523e+000	 7.066659999995867e+000	 1.000237589923909e+001
0	 9.799996024918523e+000	 7.133319999991935e+000	 1.000235584619568e+001
0	 9.799996024918521e+000	 7.199979999988400e+000	 1.000229338286538e+001
0	 9.799996024918523e+000	 7.266639999985467e+000	 1.000218771376219e+001
0	 9.799996024918523e+000	 7.333299999983336e+000	 1.000203804340011e+001
0	 9.866664822186820e+000	 6.666700000016667e+000	 1.000108747814820e+001
0	 9.866664822186822e+000	 6.733360000014534e+000	 1.000129855422961e+001
0	 9.866664822186818e+000	 6.800020000011598e+000	 1.000147121759350e+001
0	 9.866664822186818e+000	 6.866680000008067e+000	 1.000160463798009e+001
0	 9.866664822186820e+000	 6.933340000004133e+000	 1.000169798512945e+001
0	 9.866664822186822e+000	 7.000000000000000e+000	 1.000175042878179e+001
0	 9.866664822186818e+000	 7.066659999995866e+000	 1.000176113867724e+001
0	 9.866664822186818e+000	 7.133319999991934e+000	 1.000172928455599e+001
0	 9.866664822186820e+000	 7.199979999988400e+000	 1.000165403615816e+001
0	 9.866664822186818e+000	 7.266639999985466e+000	 1.000153456322393e+001
0	 9.866664822186820e+000	 7.333299999983333e+000	 1.000137003549349e+001
0	 9.933332852771351e+000	 6.666700000016665e+000	 1.000064999109940e+001
0	 9.933332852771351e+000	 6.733360000014533e+000	 1.000084652298885e+001
0	 9.933332852771349e+000	 6.800020000011599e+000	 1.000100392526001e+001
0	 9.933332852771351e+000	 6.866680000008066e+000	 1.000112132608343e+001
0	 9.933332852771351e+000	 6.933340000004132e+000	 1.000119785362964e+001
0	 9.933332852771351e+000	 6.999999999999998e+000	 1.000123263606929e+001
0	 9.933332852771351e+000	 7.066659999995867e+000	 1.000122480157295e+001
0	 9.933332852771351e+000	 7.133319999991935e+000	 1.000117347831113e+001
0	 9.933332852771352e+000	 7.199979999988401e+000	 1.000107779445447e+001
0	 9.933332852771352e+000	 7.266639999985467e+000	 1.000093687817354e+001
0	 9.933332852771352e+000	 7.333299999983335e+000	 1.000074985763891e+001
0	 1.000000000000000e+001	 6.666700000016666e+000	 1.000034320538545e+001
0	 1.000000000000000e+001	 6.733360000014533e+000	 1.000051673644272e+001
0	 1.000000000000000e+001	 6.800020000011600e+000	 1.000065048293284e+001
0	 9.999999999999998e+000	 6.866680000008066e+000	 1.000074352466064e+001
0	 1.000000000000000e+001	 6.933340000004133e+000	 1.000079494143097e+001
0	 1.000000000000000e+001	 7.000000000000000e+000	 1.000080381304855e+001
0	 9.999999999999998e+000	 7.066659999995865e+000	 1.000076921931823e+001
0	 9.999999999999998e+000	 7.133319999991934e+000	 1.000069024004480e+001
0	 1.000000000000000e+001	 7.199979999988400e+000	 1.000056595503297e+001
0	 1.000000000000000e+001	 7.266639999985467e+000	 1.000039544408768e+001
0	 1.000000000000000e+001	 7.333299999983335e+000	 1.000017778701363e+001
0	 9.333302777352785e+000	 7.333299999983335e+000	 1.000803000585858e+001
0	 9.333302777352781e+000	 7.399969999982150e+000	 1.000779108178212e+001
0	 9.333302777352783e+000	 7.466639999981866e+000	 1.000754471314389e+001
0	 9.333302777352783e+000	 7.533309999982383e+000	 1.000729017421234e+001
0	 9.333302777352785e+000	 7.599979999983600e+000	 1.000702673925598e+001
0	 9.333302777352783e+000	 7.666649999985418e+000	 1.000675368254333e+001
0	 9.333302777352783e+000	 7.733319999987732e+000	 1.000647027834286e+001
0	 9.333302777352783e+000	 7.799989999990449e+000	 1.000617580092307e+001
0	 9.333302777352781e+000	 7.866659999993466e+000	 1.000586952455243e+001
0	 9.333302777352781e+000	 7.933329999996683e+000	 1.000555072349948e+001
0	 9.333302777352783e+000	 8.000000000000000e+000	 1.000521867203267e+001
0	 9.399973674588177e+000	 7.333299999983336e+000	 1.000703496913312e+001
0	 9.399973674588177e+000	 7.399969999982148e+000	 1.000681992874210e+001
0	 9.399973674588177e+000	 7.466639999981865e+000	 1.000659748055276e+001
0	 9.399973674588177e+000	 7.533309999982385e+000	 1.000636691796489e+001
0	 9.399973674588175e+000	 7.599979999983599e+000	 1.000612753437825e+001
0	 9.399973674588175e+000	 7.666649999985417e+000	 1.000587862319261e+001
0	 9.399973674588175e+000	 7.733319999987731e+000	 1.000561947780775e+001
0	 9.399973674588177e+000	 7.799989999990449e+000	 1.000534939162342e+001
0	 9.399973674588173e+000	 7.866659999993465e+000	 1.000506765803939e+001
0	 9.399973674588178e+000	 7.933329999996685e+000	 1.000477357045544e+001
0	 9.399973674588175e+000	 8.000000000000000e+000	 1.000446642227134e+001
0	 9.466644621844619e+000	 7.333299999983332e+000	 1.000608581535808e+001
0	 9.466644621844623e+000	 7.399969999982151e+000	 1.000589064199945e+001
0	 9.466644621844619e+000	 7.466639999981865e+000	 1.000568823879673e+001
0	 9.466644621844624e+000	 7.533309999982385e+000	 1.000547791116341e+001
0	 9.466644621844619e+000	 7.599979999983599e+000	 1.000525896451290e+001
0	 9.466644621844619e+000	 7.666649999985416e+000	 1.000503070425872e+001
0	 9.466644621844619e+000	 7.733319999987729e+000	 1.000479243581433e+001
0	 9.466644621844621e+000	 7.799989999990450e+000	 1.000454346459319e+001
0	 9.466644621844619e+000	 7.866659999993466e+000	 1.000428309600878e+001
0	 9.466644621844617e+000	 7.933329999996682e+000	 1.000401063547458e+001
0	 9.466644621844623e+000	 8.000000000000000e+000	 1.000372538840402e+001
0	 9.533315502450000e+000	 7.333299999983334e+000	 1.000518282342599e+001
0	 9.533315502449995e+000	 7.399969999982148e+000	 1.000500299502683e+001
0	 9.533315502449998e+000	 7.466639999981865e+000	 1.000481625874510e+001
0	 9.533315502450000e+000	 7.533309999982383e+000	 1.000462192489046e+001
0	 9.533315502450002e+000	 7.599979999983598e+000	 1.000441930377257e+001
0	 9.533315502450000e+000	 7.666649999985416e+000	 1.000420770570106e+001
0	 9.533315502449998e+000	 7.733319999987731e+000	 1.000398644098560e+001
0	 9.533315502449998e+000	 7.799989999990450e+000	 1.000375481993586e+001
0	 9.533315502450000e+000	 7.866659999993467e+000	 1.000351215286147e+001
0	 9.533315502449998e+000	 7.933329999996683e+000	 1.000325775007208e+001
0	 9.533315502450000e+000	 8.000000000000000e+000	 1.000299092187739e+001
0	 9.599986199732195e+000	 7.333299999983333e+000	 1.000432627198427e+001
0	 9.599986199732195e+000	 7.399969999982148e+000	 1.000415676108067e+001
0	 9.599986199732195e+000	 7.466639999981865e+000	 1.000398081107943e+001
0	 9.599986199732198e+000	 7.533309999982382e+000	 1.000379773006888e+001
0	 9.599986199732193e+000	 7.599979999983598e+000	 1.000360682613731e+001
0	 9.599986199732195e+000	 7.666649999985415e+000	 1.000340740737304e+001
0	 9.599986199732195e+000	 7.733319999987733e+000	 1.000319878186438e+001
0	 9.599986199732198e+000	 7.799989999990449e+000	 1.000298025769965e+001
0	 9.599986199732195e+000	 7.866659999993467e+000	 1.000275114296717e+001
0	 9.599986199732197e+000	 7.933329999996682e+000	 1.000251074575524e+001
0	 9.599986199732198e+000	 8.000000000000000e+000	 1.000225837415218e+001
0	 9.666656597019093e+000	 7.333299999983336e+000	 1.000351643943532e+001
0	 9.666656597019092e+000	 7.399969999982150e+000	 1.000335171320128e+001
0	 9.666656597019093e+000	 7.466639999981865e+000	 1.000318116629361e+001
0	 9.666656597019092e+000	 7.533309999982384e+000	 1.000300409746161e+001
0	 9.666656597019095e+000	 7.599979999983599e+000	 1.000281980545470e+001
0	 9.666656597019088e+000	 7.666649999985415e+000	 1.000262758902217e+001
0	 9.666656597019092e+000	 7.733319999987733e+000	 1.000242674691339e+001
0	 9.666656597019093e+000	 7.799989999990451e+000	 1.000221657787775e+001
0	 9.666656597019095e+000	 7.866659999993466e+000	 1.000199638066456e+001
0	 9.666656597019093e+000	 7.933329999996684e+000	 1.000176545402321e+001
0	 9.666656597019092e+000	 8.000000000000002e+000	 1.000152309670304e+001
0	 9.733326577638575e+000	 7.333299999983334e+000	 1.000275360393649e+001
0	 9.733326577638573e+000	 7.399969999982149e+000	 1.000258762421287e+001
0	 9.733326577638573e+000	 7.466639999981865e+000	 1.000241659469382e+001
0	 9.733326577638573e+000	 7.533309999982383e+000	 1.000223979767190e+001
0	 9.733326577638573e+000	 7.599979999983600e+000	 1.000205651543977e+001
0	 9.733326577638573e+000	 7.666649999985415e+000	 1.000186603029002e+001
0	 9.733326577638573e+000	 7.733319999987731e+000	 1.000166762451528e+001
0	 9.733326577638572e+000	 7.799989999990449e+000	 1.000146058040814e+001
0	 9.733326577638573e+000	 7.866659999993466e+000	 1.000124418026127e+001
0	 9.733326577638575e+000	 7.933329999996683e+000	 1.000101770636722e+001
0	 9.733326577638573e+000	 8.000000000000000e+000	 1.000078044101862e+001
0	 9.799996024918523e+000	 7.333299999983336e+000	 1.000203804340011e+001
0	 9.799996024918523e+000	 7.399969999982151e+000	 1.000186426672348e+001
0	 9.799996024918521e+000	 7.466639999981865e+000	 1.000168636639854e+001
0	 9.799996024918524e+000	 7.533309999982384e+000	 1.000150360114312e+001
0	 9.799996024918523e+000	 7.599979999983601e+000	 1.000131522967507e+001
0	 9.799996024918521e+000	 7.666649999985417e+000	 1.000112051071228e+001
0	 9.799996024918521e+000	 7.733319999987733e+000	 1.000091870297256e+001
0	 9.799996024918524e+000	 7.799989999990450e+000	 1.000070906517379e+001
0	 9.799996024918523e+000	 7.866659999993467e+000	 1.000049085603381e+001
0	 9.799996024918523e+000	 7.933329999996683e+000	 1.000026333427047e+001
0	 9.799996024918521e+000	 8.000000000000002e+000	 1.000002575860163e+001
0	 9.866664822186820e+000	 7.333299999983333e+000	 1.000137003549349e+001
0	 9.866664822186818e+000	 7.399969999982149e+000	 1.000118141312510e+001
0	 9.866664822186822e+000	 7.466639999981867e+000	 1.000098975133870e+001
0	 9.866664822186818e+000	 7.533309999982384e+000	 1.000079427815896e+001
0	 9.866664822186820e+000	 7.599979999983600e+000	 1.000059422161072e+001
0	 9.866664822186820e+000	 7.666649999985417e+000	 1.000038880971872e+001
0	 9.866664822186820e+000	 7.733319999987733e+000	 1.000017727050768e+001
0	 9.866664822186820e+000	 7.799989999990449e+000	 9.999958832002449e+000
0	 9.866664822186818e+000	 7.866659999993466e+000	 9.999732722227675e+000
0	 9.866664822186820e+000	 7.933329999996683e+000	 9.999498169208204e+000
0	 9.866664822186820e+000	 8.000000000000000e+000	 9.999254400968749e+000
0	 9.933332852771352e+000	 7.333299999983335e+000	 1.000074985763891e+001
0	 9.933332852771352e+000	 7.399969999982150e+000	 1.000053883559359e+001
0	 9.933332852771351e+000	 7.466639999981866e+000	 1.000032601925738e+001
0	 9.933332852771352e+000	 7.533309999982384e+000	 1.000011059884329e+001
0	 9.933332852771352e+000	 7.599979999983600e+000	 9.999891764564243e+000
0	 9.933332852771352e+000	 7.666649999985416e+000	 9.999668706633214e+000
0	 9.933332852771349e+000	 7.733319999987732e+000	 9.999440615263081e+000
0	 9.933332852771351e+000	 7.799989999990449e+000	 9.999206680666832e+000
0	 9.933332852771351e+000	 7.866659999993466e+000	 9.998966093057385e+000
0	 9.933332852771352e+000	 7.933329999996684e+000	 9.998718042647747e+000
0	 9.933332852771352e+000	 8.000000000000000e+000	 9.998461719650788e+000
0	 1.000000000000000e+001	 7.333299999983335e+000	 1.000017778701363e+001
0	 1.000000000000000e+001	 7.399969999982150e+000	 9.999936306088635e+000
0	 1.000000000000000e+001	 7.466639999981865e+000	 9.999694439710186e+000
0	 1.000000000000000e+001	 7.533309999982385e+000	 9.999451333160280e+000
0	 1.000000000000000e+001	 7.599979999983599e+000	 9.999206131720802e+000
0	 1.000000000000000e+001	 7.666649999985417e+000	 9.998957980673747e+000
0	 1.000000000000000e+001	 7.733319999987733e+000	 9.998706025301013e+000
0	 1.000000000000000e+001	 7.799989999990449e+000	 9.998449410884561e+000
0	 1.000000000000000e+001	 7.866659999993465e+000	 9.998187282706393e+000
0	 1.000000000000000e+001	 7.933329999996683e+000	 9.997918786048375e+000
0	 1.000000000000000e+001	 8.000000000000000e+000	 9.997643066192536e+000
0	 9.333302777352783e+000	 8.000000000000000e+000	 1.000521867203267e+001
0	 9.333302777352783e+000	 8.066670000003319e+000	 1.000488471905357e+001
0	 9.333302777352783e+000	 8.133340000006532e+000	 1.000456027060773e+001
0	 9.333302777352783e+000	 8.200010000009552e+000	 1.000424468667977e+001
0	 9.333302777352783e+000	 8.266680000012267e+000	 1.000393732725432e+001
0	 9.333302777352783e+000	 8.333350000014585e+000	 1.000363755231596e+001
0	 9.333302777352785e+000	 8.400020000016403e+000	 1.000334472184930e+001
0	 9.333302777352785e+000	 8.466690000017618e+000	 1.000305819583894e+001
0	 9.333302777352783e+000	 8.533360000018135e+000	 1.000277733426952e+001
0	 9.333302777352783e+000	 8.600030000017849e+000	 1.000250149712560e+001
0	 9.333302777352783e+000	 8.666700000016666e+000	 1.000223004439182e+001
0	 9.399973674588175e+000	 8.000000000000000e+000	 1.000446642227134e+001
0	 9.399973674588177e+000	 8.066670000003319e+000	 1.000415762154727e+001
0	 9.399973674588177e+000	 8.133340000006538e+000	 1.000385866941744e+001
0	 9.399973674588178e+000	 8.200010000009552e+000	 1.000356899889265e+001
0	 9.399973674588175e+000	 8.266680000012267e+000	 1.000328804298366e+001
0	 9.399973674588173e+000	 8.333350000014583e+000	 1.000301523470131e+001
0	 9.399973674588175e+000	 8.400020000016399e+000	 1.000275000705635e+001
0	 9.399973674588177e+000	 8.466690000017618e+000	 1.000249179305956e+001
0	 9.399973674588178e+000	 8.533360000018137e+000	 1.000224002572177e+001
0	 9.399973674588175e+000	 8.600030000017849e+000	 1.000199413805374e+001
0	 9.399973674588177e+000	 8.666700000016668e+000	 1.000175356306626e+001
0	 9.466644621844623e+000	 8.000000000000000e+000	 1.000372538840402e+001
0	 9.466644621844619e+000	 8.066670000003317e+000	 1.000343890446711e+001
0	 9.466644621844621e+000	 8.133340000006532e+000	 1.000316285929700e+001
0	 9.466644621844623e+000	 8.200010000009552e+000	 1.000289674725187e+001
0	 9.466644621844619e+000	 8.266680000012267e+000	 1.000264006268991e+001
0	 9.466644621844621e+000	 8.333350000014585e+000	 1.000239229996931e+001
0	 9.466644621844621e+000	 8.400020000016399e+000	 1.000215295344826e+001
0	 9.466644621844623e+000	 8.466690000017621e+000	 1.000192151748493e+001
0	 9.466644621844619e+000	 8.533360000018133e+000	 1.000169748643753e+001
0	 9.466644621844621e+000	 8.600030000017851e+000	 1.000148035466422e+001
0	 9.466644621844619e+000	 8.666700000016665e+000	 1.000126961652322e+001
0	 9.533315502450000e+000	 8.000000000000000e+000	 1.000299092187739e+001
0	 9.533315502450000e+000	 8.066670000003319e+000	 1.000272346863428e+001
0	 9.533315502450000e+000	 8.133340000006532e+000	 1.000246734651126e+001
0	 9.533315502450000e+000	 8.200010000009550e+000	 1.000222209953549e+001
0	 9.533315502450002e+000	 8.266680000012268e+000	 1.000198727173407e+001
0	 9.533315502449996e+000	 8.333350000014583e+000	 1.000176240713411e+001
0	 9.533315502450000e+000	 8.400020000016399e+000	 1.000154704976275e+001
0	 9.533315502450000e+000	 8.466690000017618e+000	 1.000134074364712e+001
0	 9.533315502450000e+000	 8.533360000018135e+000	 1.000114303281428e+001
0	 9.533315502449998e+000	 8.600030000017849e+000	 1.000095346129140e+001
0	 9.533315502450000e+000	 8.666700000016666e+000	 1.000077157310556e+001
0	 9.599986199732198e+000	 8.000000000000000e+000	 1.000225837415218e+001
0	 9.599986199732197e+000	 8.066670000003315e+000	 1.000200621490479e+001
0	 9.599986199732193e+000	 8.133340000006532e+000	 1.000176663737956e+001
0	 9.599986199732197e+000	 8.200010000009549e+000	 1.000153922359418e+001
0	 9.599986199732197e+000	 8.266680000012270e+000	 1.000132355556650e+001
0	 9.599986199732195e+000	 8.333350000014583e+000	 1.000111921531427e+001
0	 9.599986199732195e+000	 8.400020000016399e+000	 1.000092578485527e+001
0	 9.599986199732200e+000	 8.466690000017618e+000	 1.000074284620728e+001
0	 9.599986199732197e+000	 8.533360000018133e+000	 1.000056998138806e+001
0	 9.599986199732195e+000	 8.600030000017851e+000	 1.000040677241542e+001
0	 9.599986199732197e+000	 8.666700000016666e+000	 1.000025280130709e+001
0	 9.666656597019092e+000	 8.000000000000002e+000	 1.000152309670304e+001
0	 9.666656597019093e+000	 8.066670000003317e+000	 1.000128204416955e+001
0	 9.666656597019092e+000	 8.133340000006532e+000	 1.000105523827553e+001
0	 9.666656597019092e+000	 8.200010000009550e+000	 1.000084228735122e+001
0	 9.666656597019092e+000	 8.266680000012268e+000	 1.000064279972687e+001
0	 9.666656597019095e+000	 8.333350000014587e+000	 1.000045638373265e+001
0	 9.666656597019093e+000	 8.400020000016399e+000	 1.000028264769887e+001
0	 9.666656597019092e+000	 8.466690000017614e+000	 1.000012119995573e+001
0	 9.666656597019093e+000	 8.533360000018135e+000	 9.999971648833451e+000
0	 9.666656597019090e+000	 8.600030000017849e+000	 9.999833602662291e+000
0	 9.666656597019093e+000	 8.666700000016666e+000	 9.999706669772513e+000
0	 9.733326577638573e+000	 8.000000000000000e+000	 1.000078044101862e+001
0	 9.733326577638575e+000	 8.066670000003320e+000	 1.000054585735425e+001
0	 9.733326577638573e+000	 8.133340000006532e+000	 1.000032765562742e+001
0	 9.733326577638573e+000	 8.200010000009552e+000	 1.000012545880256e+001
0	 9.733326577638575e+000	 8.266680000012270e+000	 9.999938889844140e+000
0	 9.733326577638575e+000	 8.333350000014583e+000	 9.999767571716580e+000
0	 9.733326577638573e+000	 8.400020000016403e+000	 9.999611127384343e+000
0	 9.733326577638575e+000	 8.466690000017620e+000	 9.999469179811879e+000
0	 9.733326577638573e+000	 8.533360000018135e+000	 9.999341351963585e+000
0	 9.733326577638573e+000	 8.600030000017851e+000	 9.999227266803946e+000
0	 9.733326577638575e+000	 8.666700000016668e+000	 9.999126547297406e+000
0	 9.799996024918521e+000	 8.000000000000002e+000	 1.000002575860163e+001
0	 9.799996024918523e+000	 8.066670000003319e+000	 9.999792555419457e+000
0	 9.799996024918523e+000	 8.133340000006532e+000	 9.999578395917785e+000
0	 9.799996024918523e+000	 8.200010000009552e+000	 9.999382906016777e+000
0	 9.799996024918523e+000	 8.266680000012268e+000	 9.999205711636705e+000
0	 9.799996024918524e+000	 8.333350000014585e+000	 9.999046438697761e+000
0	 9.799996024918524e+000	 8.400020000016403e+000	 9.998904713120220e+000
0	 9.799996024918524e+000	 8.466690000017616e+000	 9.998780160824270e+000
0	 9.799996024918521e+000	 8.533360000018133e+000	 9.998672407730160e+000
0	 9.799996024918521e+000	 8.600030000017851e+000	 9.998581079758109e+000
0	 9.799996024918521e+000	 8.666700000016666e+000	 9.998505802828362e+000
0	 9.866664822186820e+000	 8.000000000000000e+000	 9.999254400968749e+000
0	 9.866664822186818e+000	 8.066670000003315e+000	 9.999017039360695e+000
0	 9.866664822186820e+000	 8.133340000006532e+000	 9.998801965683722e+000
0	 9.866664822186818e+000	 8.200010000009552e+000	 9.998608797135148e+000
0	 9.866664822186820e+000	 8.266680000012270e+000	 9.998437150912238e+000
0	 9.866664822186820e+000	 8.333350000014583e+000	 9.998286644212318e+000
0	 9.866664822186818e+000	 8.400020000016401e+000	 9.998156894232695e+000
0	 9.866664822186818e+000	 8.466690000017616e+000	 9.998047518170628e+000
0	 9.866664822186822e+000	 8.533360000018133e+000	 9.997958133223456e+000
0	 9.866664822186820e+000	 8.600030000017849e+000	 9.997888356588435e+000
0	 9.866664822186818e+000	 8.666700000016666e+000	 9.997837805462901e+000
0	 9.933332852771352e+000	 8.000000000000000e+000	 9.998461719650788e+000
0	 9.933332852771351e+000	 8.066670000003317e+000	 9.998214210208289e+000
0	 9.933332852771351e+000	 8.133340000006532e+000	 9.997992871516784e+000
0	 9.933332852771351e+000	 8.200010000009550e+000	 9.997797300371598e+000
0	 9.933332852771352e+000	 8.266680000012267e+000	 9.997627093567884e+000
0	 9.933332852771349e+000	 8.333350000014582e+000	 9.997481847900852e+000
0	 9.933332852771352e+000	 8.400020000016401e+000	 9.997361160165756e+000
0	 9.933332852771351e+000	 8.466690000017616e+000	 9.997264627157882e+000
0	 9.933332852771351e+000	 8.533360000018135e+000	 9.997191845672370e+000
0	 9.933332852771351e+000	 8.600030000017849e+000	 9.997142412504489e+000
0	 9.933332852771352e+000	 8.666700000016668e+000	 9.997115924449480e+000
0	 1.000000000000000e+001	 8.000000000000000e+000	 9.997643066192536e+000
0	 1.000000000000000e+001	 8.066670000003317e+000	 9.997378969027528e+000
0	 1.000000000000000e+001	 8.133340000006534e+000	 9.997145620063105e+000
0	 9.999999999999998e+000	 8.200010000009550e+000	 9.996942584012809e+000
0	 1.000000000000000e+001	 8.266680000012267e+000	 9.996769425590072e+000
0	 1.000000000000000e+001	 8.333350000014583e+000	 9.996625709508388e+000
0	 1.000000000000000e+001	 8.400020000016401e+000	 9.996511000481229e+000
0	 1.000000000000000e+001	 8.466690000017616e+000	 9.996424863222106e+000
0	 1.000000000000000e+001	 8.533360000018133e+000	 9.996366862444440e+000
0	 1.000000000000000e+001	 8.600030000017851e+000	 9.996336562861780e+000
0	 1.000000000000000e+001	 8.666700000016666e+000	 9.996333529187597e+000
0	 9.333302777352783e+000	 8.666700000016666e+000	 1.000223004439182e+001
0	 9.333302777352781e+000	 8.733360002791901e+000	 1.000197055274990e+001
0	 9.333302777352783e+000	 8.800020022230557e+000	 1.000173050099720e+001
0	 9.333302777352781e+000	 8.866680074997039e+000	 1.000150922351525e+001
0	 9.333302777352781e+000	 8.933340177755778e+000	 1.000130605464076e+001
0	 9.333302777352783e+000	 9.000000347171181e+000	 1.000112032866572e+001
0	 9.333302777352785e+000	 9.066660599907667e+000	 1.000095137983720e+001
0	 9.333302777352781e+000	 9.133320952629655e+000	 1.000079854235750e+001
0	 9.333302777352781e+000	 9.199981422001558e+000	 1.000066115038412e+001
0	 9.333302777352781e+000	 9.266642024687794e+000	 1.000053853802973e+001
0	 9.333302777352785e+000	 9.333302777352785e+000	 1.000043003936219e+001
0	 9.399973674588177e+000	 8.666700000016668e+000	 1.000175356306626e+001
0	 9.399973674588177e+000	 8.733360002791901e+000	 1.000152520303610e+001
0	 9.399973674588175e+000	 8.800020022230557e+000	 1.000131585579782e+001
0	 9.399973674588177e+000	 8.866680074997040e+000	 1.000112490481022e+001
0	 9.399973674588175e+000	 8.933340177755779e+000	 1.000095173348989e+001
0	 9.399973674588177e+000	 9.000000347171181e+000	 1.000079572521117e+001
0	 9.399973674588178e+000	 9.066660599907671e+000	 1.000065626330608e+001
0	 9.399973674588180e+000	 9.133320952629655e+000	 1.000053273106444e+001
0	 9.399973674588173e+000	 9.199981422001558e+000	 1.000042451173377e+001
0	 9.399973674588177e+000	 9.266642024687796e+000	 1.000033098851935e+001
0	 9.399973674588175e+000	 9.333302777352783e+000	 1.000025154458422e+001
0	 9.466644621844619e+000	 8.666700000016665e+000	 1.000126961652322e+001
0	 9.466644621844621e+000	 8.733360002791905e+000	 1.000107145857489e+001
0	 9.466644621844621e+000	 8.800020022230555e+000	 1.000089197163663e+001
0	 9.466644621844623e+000	 8.866680074997044e+000	 1.000073059988685e+001
0	 9.466644621844619e+000	 8.933340177755778e+000	 1.000058678746375e+001
0	 9.466644621844617e+000	 9.000000347171179e+000	 1.000045997846539e+001
0	 9.466644621844624e+000	 9.066660599907671e+000	 1.000034961694967e+001
0	 9.466644621844621e+000	 9.133320952629656e+000	 1.000025514693436e+001
0	 9.466644621844623e+000	 9.199981422001560e+000	 1.000017601239705e+001
0	 9.466644621844619e+000	 9.266642024687794e+000	 1.000011165727517e+001
0	 9.466644621844619e+000	 9.333302777352785e+000	 1.000006152546601e+001
0	 9.533315502450000e+000	 8.666700000016666e+000	 1.000077157310556e+001
0	 9.533315502449998e+000	 8.733360002791905e+000	 1.000060282504185e+001
0	 9.533315502449995e+000	 8.800020022230552e+000	 1.000045260212315e+001
0	 9.533315502450002e+000	 8.866680074997042e+000	 1.000032042088963e+001
0	 9.533315502449996e+000	 8.933340177755778e+000	 1.000020579784281e+001
0	 9.533315502450000e+000	 9.000000347171184e+000	 1.000010824944553e+001
0	 9.533315502450000e+000	 9.066660599907667e+000	 1.000002729212196e+001
0	 9.533315502450000e+000	 9.133320952629653e+000	 9.999962442257655e+000
0	 9.533315502450003e+000	 9.199981422001562e+000	 9.999913216199445e+000
0	 9.533315502450000e+000	 9.266642024687792e+000	 9.999879130255506e+000
0	 9.533315502449996e+000	 9.333302777352783e+000	 9.999859700695350e+000
0	 9.599986199732197e+000	 8.666700000016666e+000	 1.000025280130709e+001
0	 9.599986199732195e+000	 8.733360002791901e+000	 1.000011280826628e+001
0	 9.599986199732197e+000	 8.800020022230557e+000	 9.999991501020951e+000
0	 9.599986199732195e+000	 8.866680074997042e+000	 9.999888480115514e+000
0	 9.599986199732197e+000	 8.933340177755779e+000	 9.999803346056403e+000
0	 9.599986199732195e+000	 9.000000347171181e+000	 9.999735699312087e+000
0	 9.599986199732197e+000	 9.066660599907669e+000	 9.999685140313062e+000
0	 9.599986199732195e+000	 9.133320952629655e+000	 9.999651269451935e+000
0	 9.599986199732197e+000	 9.199981422001558e+000	 9.999633687083270e+000
0	 9.599986199732198e+000	 9.266642024687798e+000	 9.999631993523710e+000
0	 9.599986199732197e+000	 9.333302777352785e+000	 9.999645789051963e+000
0	 9.666656597019093e+000	 8.666700000016666e+000	 9.999706669772511e+000
0	 9.666656597019092e+000	 8.733360002791903e+000	 9.999594914231034e+000
0	 9.666656597019093e+000	 8.800020022230557e+000	 9.999502422247785e+000
0	 9.666656597019093e+000	 8.866680074997042e+000	 9.999428890014013e+000
0	 9.666656597019095e+000	 8.933340177755779e+000	 9.999374013682768e+000
0	 9.666656597019092e+000	 9.000000347171181e+000	 9.999337489368928e+000
0	 9.666656597019092e+000	 9.066660599907666e+000	 9.999319013149156e+000
0	 9.666656597019093e+000	 9.133320952629655e+000	 9.999318281061953e+000
0	 9.666656597019093e+000	 9.199981422001558e+000	 9.999334989107570e+000
0	 9.666656597019093e+000	 9.266642024687798e+000	 9.999368833248136e+000
0	 9.666656597019093e+000	 9.333302777352783e+000	 9.999419509407492e+000
0	 9.733326577638575e+000	 8.666700000016668e+000	 9.999126547297406e+000
0	 9.733326577638573e+000	 8.733360002791901e+000	 9.999042649072710e+000
0	 9.733326577638575e+000	 8.800020022230557e+000	 9.998979119875550e+000
0	 9.733326577638573e+000	 8.866680074997039e+000	 9.998935763187108e+000
0	 9.733326577638575e+000	 8.933340177755778e+000	 9.998912382449015e+000
0	 9.733326577638575e+000	 9.000000347171183e+000	 9.998908781063323e+000
0	 9.733326577638573e+000	 9.066660599907667e+000	 9.998924762392548e+000
0	 9.733326577638575e+000	 9.133320952629655e+000	 9.998960129759745e+000
0	 9.733326577638575e+000	 9.199981422001558e+000	 9.999014686448261e+000
0	 9.733326577638573e+000	 9.266642024687796e+000	 9.999088235702049e+000
0	 9.733326577638575e+000	 9.333302777352783e+000	 9.999180580725456e+000
0	 9.799996024918521e+000	 8.666700000016666e+000	 9.998505802828358e+000
0	 9.799996024918524e+000	 8.733360002791903e+000	 9.998449519081497e+000
0	 9.799996024918523e+000	 8.800020022230555e+000	 9.998415348130296e+000
0	 9.799996024918521e+000	 8.866680074997040e+000	 9.998403212389350e+000
0	 9.799996024918521e+000	 8.933340177755776e+000	 9.998413034231131e+000
0	 9.799996024918521e+000	 9.000000347171181e+000	 9.998444735985864e+000
0	 9.799996024918523e+000	 9.066660599907667e+000	 9.998498239941672e+000
0	 9.799996024918524e+000	 9.133320952629655e+000	 9.998573468344469e+000
0	 9.799996024918521e+000	 9.199981422001557e+000	 9.998670343398006e+000
0	 9.799996024918523e+000	 9.266642024687798e+000	 9.998788787263846e+000
0	 9.799996024918519e+000	 9.333302777352781e+000	 9.998928722061420e+000
0	 9.866664822186818e+000	 8.666700000016666e+000	 9.997837805462901e+000
0	 9.866664822186818e+000	 8.733360002791901e+000	 9.997809030701369e+000
0	 9.866664822186818e+000	 8.800020022230555e+000	 9.997804861392266e+000
0	 9.866664822186820e+000	 8.866680074997040e+000	 9.997825350527830e+000
0	 9.866664822186820e+000	 8.933340177755779e+000	 9.997870551054007e+000
0	 9.866664822186820e+000	 9.000000347171183e+000	 9.997940515870599e+000
0	 9.866664822186820e+000	 9.066660599907667e+000	 9.998035297831024e+000
0	 9.866664822186822e+000	 9.133320952629656e+000	 9.998154949742606e+000
0	 9.866664822186820e+000	 9.199981422001558e+000	 9.998299524366287e+000
0	 9.866664822186818e+000	 9.266642024687796e+000	 9.998469074416855e+000
0	 9.866664822186820e+000	 9.333302777352781e+000	 9.998663652562824e+000
0	 9.933332852771352e+000	 8.666700000016668e+000	 9.997115924449480e+000
0	 9.933332852771351e+000	 8.733360002791903e+000	 9.997114690529880e+000
0	 9.933332852771352e+000	 8.800020022230555e+000	 9.997141414195861e+000
0	 9.933332852771351e+000	 8.866680074997040e+000	 9.997196290662137e+000
0	 9.933332852771351e+000	 8.933340177755778e+000	 9.997279515091533e+000
0	 9.933332852771349e+000	 9.000000347171179e+000	 9.997391282594951e+000
0	 9.933332852771351e+000	 9.066660599907667e+000	 9.997531788231372e+000
0	 9.933332852771351e+000	 9.133320952629656e+000	 9.997701227007816e+000
0	 9.933332852771352e+000	 9.199981422001558e+000	 9.997899793879450e+000
0	 9.933332852771352e+000	 9.266642024687798e+000	 9.998127683749468e+000
0	 9.933332852771351e+000	 9.333302777352783e+000	 9.998385091469066e+000
0	 1.000000000000000e+001	 8.666700000016666e+000	 9.996333529187593e+000
0	 1.000000000000000e+001	 8.733360002791903e+000	 9.996360005318469e+000
0	 1.000000000000000e+001	 8.800020022230555e+000	 9.996418761229736e+000
0	 1.000000000000000e+001	 8.866680074997042e+000	 9.996510146004491e+000
0	 1.000000000000000e+001	 8.933340177755779e+000	 9.996634508666443e+000
0	 1.000000000000000e+001	 9.000000347171183e+000	 9.996792198179795e+000
0	 1.000000000000000e+001	 9.066660599907667e+000	 9.996983563449527e+000
0	 1.000000000000000e+001	 9.133320952629655e+000	 9.997208953321113e+000
0	 1.000000000000000e+001	 9.199981422001557e+000	 9.997468716580690e+000
0	 1.000000000000000e+001	 9.266642024687796e+000	 9.997763201955076e+000
0	 9.999999999999998e+000	 9.333302777352781e+000	 9.998092758111611e+000
0	 9.333302777352785e+000	 9.333302777352785e+000	 1.000043003936219e+001
0	 9.333302777352781e+000	 9.399973674588177e+000	 1.000033311590620e+001
0	 9.333302777352785e+000	 9.466644621844621e+000	 1.000024646601789e+001
0	 9.333302777352783e+000	 9.533315502450002e+000	 1.000017123342680e+001
0	 9.333302777352783e+000	 9.599986199732197e+000	 1.000010856213077e+001
0	 9.333302777352781e+000	 9.666656597019095e+000	 1.000005959639612e+001
0	 9.333302777352783e+000	 9.733326577638573e+000	 1.000002548075753e+001
0	 9.333302777352779e+000	 9.799996024918521e+000	 1.000000736001826e+001
0	 9.333302777352783e+000	 9.866664822186822e+000	 1.000000637924996e+001
0	 9.333302777352783e+000	 9.933332852771356e+000	 1.000002368379272e+001
0	 9.333302777352781e+000	 9.999999999999998e+000	 1.000006041925528e+001
0	 9.399973674588175e+000	 9.333302777352783e+000	 1.000025154458422e+001
0	 9.399973674588175e+000	 9.399973674588173e+000	 1.000018222173790e+001
0	 9.399973674588175e+000	 9.466644621844619e+000	 1.000012048044619e+001
0	 9.399973674588177e+000	 9.533315502450002e+000	 1.000006779931105e+001
0	 9.399973674588177e+000	 9.599986199732197e+000	 1.000002565715293e+001
0	 9.399973674588175e+000	 9.666656597019095e+000	 9.999995533011004e+000
0	 9.399973674588175e+000	 9.733326577638572e+000	 9.999978906142962e+000
0	 9.399973674588177e+000	 9.799996024918524e+000	 9.999977256025231e+000
0	 9.399973674588175e+000	 9.866664822186820e+000	 9.999992062352835e+000
0	 9.399973674588177e+000	 9.933332852771354e+000	 1.000002480503948e+001
0	 9.399973674588175e+000	 1.000000000000000e+001	 1.000007696421763e+001
0	 9.466644621844619e+000	 9.333302777352785e+000	 1.000006152546601e+001
0	 9.466644621844623e+000	 9.399973674588175e+000	 1.000002014206655e+001
0	 9.466644621844623e+000	 9.466644621844624e+000	 9.999983599114344e+000
0	 9.466644621844617e+000	 9.533315502449998e+000	 9.999953671570175e+000
0	 9.466644621844617e+000	 9.599986199732193e+000	 9.999932134564812e+000
0	 9.466644621844621e+000	 9.666656597019093e+000	 9.999920763398707e+000
0	 9.466644621844619e+000	 9.733326577638573e+000	 9.999921333542270e+000
0	 9.466644621844623e+000	 9.799996024918524e+000	 9.999935620635721e+000
0	 9.466644621844621e+000	 9.866664822186822e+000	 9.999965400489193e+000
0	 9.466644621844621e+000	 9.933332852771354e+000	 1.000001244908271e+001
0	 9.466644621844621e+000	 1.000000000000000e+001	 1.000007854256620e+001
0	 9.533315502449996e+000	 9.333302777352783e+000	 9.999859700695348e+000
0	 9.533315502449995e+000	 9.399973674588173e+000	 9.999847730461585e+000
0	 9.533315502449998e+000	 9.466644621844617e+000	 9.999837703830609e+000
0	 9.533315502449996e+000	 9.533315502449998e+000	 9.999831653615665e+000
0	 9.533315502450000e+000	 9.599986199732197e+000	 9.999831612750919e+000
0	 9.533315502450000e+000	 9.666656597019095e+000	 9.999839614291568e+000
0	 9.533315502450000e+000	 9.733326577638573e+000	 9.999857691413768e+000
0	 9.533315502450000e+000	 9.799996024918524e+000	 9.999887877414695e+000
0	 9.533315502450002e+000	 9.866664822186822e+000	 9.999932205712497e+000
0	 9.533315502449998e+000	 9.933332852771352e+000	 9.999992709846424e+000
0	 9.533315502450000e+000	 1.000000000000000e+001	 1.000007142347669e+001
0	 9.599986199732197e+000	 9.333302777352785e+000	 9.999645789051964e+000
0	 9.599986199732197e+000	 9.399973674588175e+000	 9.999665840569982e+000
0	 9.599986199732197e+000	 9.466644621844623e+000	 9.999684676465131e+000
0	 9.599986199732197e+000	 9.533315502449998e+000	 9.999704548902884e+000
0	 9.599986199732198e+000	 9.599986199732198e+000	 9.999727710119677e+000
0	 9.599986199732195e+000	 9.666656597019093e+000	 9.999756412422839e+000
0	 9.599986199732198e+000	 9.733326577638577e+000	 9.999792908190553e+000
0	 9.599986199732197e+000	 9.799996024918521e+000	 9.999839449872059e+000
0	 9.599986199732193e+000	 9.866664822186822e+000	 9.999898289987492e+000
0	 9.599986199732197e+000	 9.933332852771352e+000	 9.999971681127983e+000
0	 9.599986199732195e+000	 1.000000000000000e+001	 1.000006187595551e+001
0	 9.666656597019093e+000	 9.333302777352783e+000	 9.999419509407492e+000
0	 9.666656597019092e+000	 9.399973674588175e+000	 9.999475326116398e+000
0	 9.666656597019093e+000	 9.466644621844621e+000	 9.999526398949735e+000
0	 9.666656597019090e+000	 9.533315502449998e+000	 9.999575160931247e+000
0	 9.666656597019093e+000	 9.599986199732198e+000	 9.999624045103248e+000
0	 9.666656597019093e+000	 9.666656597019092e+000	 9.999675484526563e+000
0	 9.666656597019092e+000	 9.733326577638577e+000	 9.999731912280565e+000
0	 9.666656597019090e+000	 9.799996024918519e+000	 9.999795761463112e+000
0	 9.666656597019093e+000	 9.866664822186822e+000	 9.999869465190724e+000
0	 9.666656597019095e+000	 9.933332852771356e+000	 9.999955456598421e+000
0	 9.666656597019093e+000	 1.000000000000000e+001	 1.000005616883973e+001
0	 9.733326577638575e+000	 9.333302777352783e+000	 9.999180580725458e+000
0	 9.733326577638575e+000	 9.399973674588177e+000	 9.999277040903117e+000
0	 9.733326577638573e+000	 9.466644621844621e+000	 9.999364753278080e+000
0	 9.733326577638577e+000	 9.533315502450002e+000	 9.999446293244136e+000
0	 9.733326577638575e+000	 9.599986199732197e+000	 9.999524236157685e+000
0	 9.733326577638575e+000	 9.666656597019095e+000	 9.999601157337864e+000
0	 9.733326577638573e+000	 9.733326577638575e+000	 9.999679632066503e+000
0	 9.733326577638573e+000	 9.799996024918523e+000	 9.999762235588127e+000
0	 9.733326577638573e+000	 9.866664822186822e+000	 9.999851543110038e+000
0	 9.733326577638573e+000	 9.933332852771352e+000	 9.999950129802084e+000
0	 9.733326577638573e+000	 1.000000000000000e+001	 1.000006057079710e+001
0	 9.799996024918519e+000	 9.333302777352781e+000	 9.998928722061420e+000
0	 9.799996024918519e+000	 9.399973674588173e+000	 9.999071838810039e+000
0	 9.799996024918519e+000	 9.466644621844617e+000	 9.999201621505597e+000
0	 9.799996024918523e+000	 9.533315502450002e+000	 9.999320749428868e+000
0	 9.799996024918524e+000	 9.599986199732198e+000	 9.999431901762801e+000
0	 9.799996024918523e+000	 9.666656597019093e+000	 9.999537757592616e+000
0	 9.799996024918523e+000	 9.733326577638575e+000	 9.999640995905915e+000
0	 9.799996024918521e+000	 9.799996024918523e+000	 9.999744295592578e+000
0	 9.799996024918521e+000	 9.866664822186822e+000	 9.999850335444762e+000
0	 9.799996024918521e+000	 9.933332852771352e+000	 9.999961794157064e+000
0	 9.799996024918521e+000	 1.000000000000000e+001	 1.000008135032630e+001
0	 9.866664822186820e+000	 9.333302777352781e+000	 9.998663652562826e+000
0	 9.866664822186818e+000	 9.399973674588175e+000	 9.998860573794715e+000
0	 9.866664822186818e+000	 9.466644621844619e+000	 9.999038885749579e+000
0	 9.866664822186820e+000	 9.533315502450000e+000	 9.999201333116893e+000
0	 9.866664822186818e+000	 9.599986199732195e+000	 9.999350660422326e+000
0	 9.866664822186820e+000	 9.666656597019093e+000	 9.999489612027698e+000
0	 9.866664822186820e+000	 9.733326577638575e+000	 9.999620932131188e+000
0	 9.866664822186820e+000	 9.799996024918524e+000	 9.999747364767130e+000
0	 9.866664822186820e+000	 9.866664822186822e+000	 9.999871653806016e+000
0	 9.866664822186820e+000	 9.933332852771354e+000	 9.999996542954712e+000
0	 9.866664822186820e+000	 1.000000000000000e+001	 1.000012477575618e+001
0	 9.933332852771351e+000	 9.333302777352783e+000	 9.998385091469066e+000
0	 9.933332852771349e+000	 9.399973674588175e+000	 9.998644099892422e+000
0	 9.933332852771351e+000	 9.466644621844619e+000	 9.998878428189061e+000
0	 9.933332852771352e+000	 9.533315502450000e+000	 9.999090847983501e+000
0	 9.933332852771351e+000	 9.599986199732197e+000	 9.999284130663744e+000
0	 9.933332852771351e+000	 9.666656597019093e+000	 9.999461047380905e+000
0	 9.933332852771349e+000	 9.733326577638573e+000	 9.999624369049553e+000
0	 9.933332852771351e+000	 9.799996024918523e+000	 9.999776866347578e+000
0	 9.933332852771351e+000	 9.866664822186822e+000	 9.999921309716175e+000
0	 9.933332852771352e+000	 9.933332852771354e+000	 1.000006046935998e+001
0	 9.933332852771351e+000	 1.000000000000000e+001	 1.000019711524687e+001
0	 9.999999999999998e+000	 9.333302777352781e+000	 9.998092758111611e+000
0	 1.000000000000000e+001	 9.399973674588175e+000	 9.998423271216002e+000
0	 1.000000000000000e+001	 9.466644621844621e+000	 9.998722131064833e+000
0	 1.000000000000000e+001	 9.533315502450000e+000	 9.998992097748110e+000
0	 1.000000000000000e+001	 9.599986199732198e+000	 9.999235931038447e+000
0	 1.000000000000000e+001	 9.666656597019093e+000	 9.999456390390895e+000
0	 1.000000000000000e+001	 9.733326577638575e+000	 9.999656234942965e+000
0	 1.000000000000000e+001	 9.799996024918523e+000	 9.999838223514905e+000
0	 1.000000000000000e+001	 9.866664822186824e+000	 1.000000511460932e+001
0	 1.000000000000000e+001	 9.933332852771354e+000	 1.000015966641137e+001
0	 1.000000000000000e+001	 1.000000000000000e+001	 1.000030463678892e+001
1	 1.000000000000000e+000	 0.000000000000000e+000	 3.110325345823058e+001
1	 9.999553790721549e-001	 9.446392261750536e-003	 3.109642233297699e+001
1	 9.998208276644109e-001	 1.892867080636967e-002	 3.107690731916826e+001
1	 9.995953221430520e-001	 2.844573836262591e-002	 3.104471513874476e+001
1	 9.992778519071311e-001	 3.799646941872217e-002	 3.099985039957400e+001
1	 9.988674201817245e-001	 4.757971027342477e-002	 3.094231543214849e+001
1	 9.983630448185402e-001	 5.719427911104237e-002	 3.087211012657987e+001
1	 9.977637591031844e-001	 6.683896610081597e-002	 3.078923177027040e+001
1	 9.970686125683426e-001	 7.651253352126189e-002	 3.069367488665708e+001
1	 9.962766718121099e-001	 8.621371590998764e-002	 3.058543107543425e+001
1	 9.953870213206724e-001	 9.594122023947824e-002	 3.046448885467419e+001
1	 1.026666858896873e+000	 0.000000000000000e+000	 2.930690233481573e+001
1	 1.026621048068823e+000	 9.698297869740000e-003	 2.930805977731060e+001
1	 1.026482908597070e+000	 1.943343899728710e-002	 2.929743403903317e+001
1	 1.026251389550869e+000	 2.920429685057105e-002	 2.927496796536211e+001
1	 1.025925453379797e+000	 3.900971590386779e-002	 2.924060333003465e+001
1	 1.025504076728145e+000	 4.884851169029192e-002	 2.919428079133030e+001
1	 1.024986251256887e+000	 5.871947087877486e-002	 2.913593985010646e+001
1	 1.024370984472468e+000	 6.862135137610566e-002	 2.906551880989447e+001
1	 1.023657300561674e+000	 7.855288245458952e-002	 2.898295473926691e+001
1	 1.022844241231782e+000	 8.851276490585899e-002	 2.888818343669120e+001
1	 1.021930866555178e+000	 9.849967122134781e-002	 2.878113939808638e+001
1	 1.053334071134978e+000	 0.000000000000000e+000	 2.780245592915571e+001
1	 1.053287070390996e+000	 9.950206815530270e-003	 2.780704209064776e+001
1	 1.053145342807795e+000	 1.993821387648614e-002	 2.780093748785187e+001
1	 1.052907810157237e+000	 2.996286538957084e-002	 2.778402880645426e+001
1	 1.052573407939045e+000	 4.002297581473556e-002	 2.775620194839903e+001
1	 1.052141086216367e+000	 5.011732991903531e-002	 2.771734207884786e+001
1	 1.051609810459081e+000	 6.024468285560676e-002	 2.766733367689222e+001
1	 1.050978562394118e+000	 7.040376026835926e-002	 2.760606059011410e+001
1	 1.050246340862016e+000	 8.059325842294959e-002	 2.753340609308830e+001
1	 1.049412162678889e+000	 9.081184436458797e-002	 2.744925294991331e+001
1	 1.048475063502990e+000	 1.010581561031999e-001	 2.735348348085305e+001
1	 1.080001590045551e+000	 0.000000000000000e+000	 2.655988684435512e+001
1	 1.079953399371986e+000	 1.020211865827080e-002	 2.656384454881386e+001
1	 1.079808083636172e+000	 2.044299456059085e-002	 2.655833463172479e+001
1	 1.079564537312246e+000	 3.072144265210019e-002	 2.654319464476365e+001
1	 1.079221668949764e+000	 4.103624737807987e-002	 2.651826092500840e+001
1	 1.078778402030408e+000	 5.138616273917135e-002	 2.648336870533381e+001
1	 1.078233675832652e+000	 6.176991237235381e-002	 2.643835223079471e+001
1	 1.077586446303606e+000	 7.218618965828590e-002	 2.638304488104429e+001
1	 1.076835686937252e+000	 8.263365785559590e-002	 2.631727929882140e+001
1	 1.075980389658250e+000	 9.311095026268368e-002	 2.624088752453089e+001
1	 1.075019565710423e+000	 1.036166704075697e-001	 2.615370113692756e+001
1	 1.106669368959824e+000	 0.000000000000000e+000	 2.555206094626723e+001
1	 1.106619988345106e+000	 1.045403295711104e-002	 2.555178724489042e+001
1	 1.106471084421780e+000	 2.094778016622530e-002	 2.554334468736440e+001
1	 1.106221524365987e+000	 3.148002731063400e-002	 2.552652809246065e+001
1	 1.105870189776840e+000	 4.204952882065516e-002	 2.550112994706647e+001
1	 1.105415977554288e+000	 5.265500793021637e-002	 2.546694055390861e+001
1	 1.104857800785134e+000	 6.329515675983194e-002	 2.542374818783265e+001
1	 1.104194589636403e+000	 7.396863642659464e-002	 2.537133926069132e+001
1	 1.103425292255272e+000	 8.467407718178245e-002	 2.530949849487840e+001
1	 1.102548875674684e+000	 9.541007857665527e-002	 2.523800910552737e+001
1	 1.101564326723789e+000	 1.061752096569922e-001	 2.515665299137675e+001
1	 1.133337361209029e+000	 0.000000000000000e+000	 2.475439708874292e+001
1	 1.133286790643667e+000	 1.070594927120045e-002	 2.474670051129072e+001
1	 1.133134298504202e+000	 2.145256981001351e-002	 2.473215954957619e+001
1	 1.132878724668551e+000	 3.223861803764715e-002	 2.471053212477876e+001
1	 1.132518923785160e+000	 4.306281836921582e-002	 2.468157205175260e+001
1	 1.132053766172025e+000	 5.392386327168684e-002	 2.464502919909302e+001
1	 1.131482138724057e+000	 6.482041334885690e-002	 2.460064966065036e+001
1	 1.130802945827984e+000	 7.575109745399460e-002	 2.454817593860746e+001
1	 1.130015110283960e+000	 8.671451283076302e-002	 2.448734713821688e+001
1	 1.129117574233009e+000	 9.770922528301183e-002	 2.441789917427201e+001
1	 1.128109300089399e+000	 1.087337693740023e-001	 2.433956498936368e+001
1	 1.160005520124402e+000	 0.000000000000000e+000	 2.414457374532771e+001
1	 1.159953759600982e+000	 1.095786715968847e-002	 2.412663646298312e+001
1	 1.159797679223019e+000	 2.195736260857955e-002	 2.410315964989831e+001
1	 1.159536091570028e+000	 3.299721350561456e-002	 2.407386965121015e+001
1	 1.159167824339611e+000	 4.407611425051633e-002	 2.403848630071208e+001
1	 1.158691721267636e+000	 5.519272654309909e-002	 2.399672306929355e+001
1	 1.158106643056953e+000	 6.634567947024450e-002	 2.394828722803754e+001
1	 1.157411468313821e+000	 7.753356962119486e-002	 2.389288002621030e+001
1	 1.156605094491205e+000	 8.875496123179154e-002	 2.383019688435429e+001
1	 1.155686438838045e+000	 1.000083863582625e-001	 2.375992760267005e+001
1	 1.154654439353568e+000	 1.112923450811353e-001	 2.368175658484657e+001
1	 1.186673799037173e+000	 0.000000000000000e+000	 2.370227517316570e+001
1	 1.186620848550362e+000	 1.120978618172458e-002	 2.367161941107921e+001
1	 1.186461179917815e+000	 2.246215767854747e-002	 2.363666810409140e+001
1	 1.186193578420510e+000	 3.375581238701111e-002	 2.359712087527413e+001
1	 1.185816844805080e+000	 4.508941469131111e-002	 2.355266782494187e+001
1	 1.185329796225141e+000	 5.646159552396950e-002	 2.350298964441931e+001
1	 1.184731267191354e+000	 6.787095245481060e-002	 2.344775774799183e+001
1	 1.184020110529385e+000	 7.931604980890453e-002	 2.338663442344404e+001
1	 1.183195198344893e+000	 9.079541881412187e-002	 2.331927300156638e+001
1	 1.182255422994611e+000	 1.023075577789163e-001	 2.324531804498233e+001
1	 1.181199698062607e+000	 1.138509323009261e-001	 2.316440555661918e+001
1	 1.213342151278578e+000	 0.000000000000000e+000	 2.340897103069973e+001
1	 1.213288010825120e+000	 1.146170589645821e-002	 2.336342917013957e+001
1	 1.213124753928167e+000	 2.296695413654130e-002	 2.331473726124441e+001
1	 1.212851138570086e+000	 3.451441335431171e-002	 2.326257263254599e+001
1	 1.212465938546455e+000	 4.610271791835455e-002	 2.320659949405700e+001
1	 1.211967944428558e+000	 5.773046799381450e-002	 2.314646899416488e+001
1	 1.211355964534790e+000	 6.939622963337105e-002	 2.308181929854360e+001
1	 1.210628825910150e+000	 8.109853489783273e-002	 2.301227569171043e+001
1	 1.209785375312910e+000	 9.283588200700788e-002	 2.293745070183019e+001
1	 1.208824480207525e+000	 1.046067355214826e-001	 2.285694424933899e+001
1	 1.207745029762831e+000	 1.164095265559097e-001	 2.277034381992902e+001
1	 1.240010530179849e+000	 0.000000000000000e+000	 2.324772441592121e+001
1	 1.239955199758569e+000	 1.171362586303883e-002	 2.318541231021690e+001
1	 1.239788354593661e+000	 2.347175109918509e-002	 2.312096277955410e+001
1	 1.239508725368846e+000	 3.527301507999124e-002	 2.305403489569939e+001
1	 1.239115058928623e+000	 4.711602215840111e-002	 2.298427045193376e+001
1	 1.238606119261905e+000	 5.899934173215044e-002	 2.291129394164130e+001
1	 1.237980688494794e+000	 7.092150833674160e-002	 2.283471256305663e+001
1	 1.237237567891589e+000	 8.288102176868853e-002	 2.275411625107121e+001
1	 1.236375578863144e+000	 9.487634723970345e-002	 2.266907773697309e+001
1	 1.235393563981607e+000	 1.069059155624702e-001	 2.257915263696522e+001
1	 1.234290388000549e+000	 1.189681233686213e-001	 2.248387957027487e+001
1	 1.266678889072220e+000	 0.000000000000000e+000	 2.320302413916440e+001
1	 1.266622368684020e+000	 1.196554564061589e-002	 2.312231723771222e+001
1	 1.266451935253877e+000	 2.397654768310291e-002	 2.304032117443003e+001
1	 1.266166292166884e+000	 3.603161623652462e-002	 2.295668044518756e+001
1	 1.265764159316470e+000	 4.812932563820523e-002	 2.287101756163496e+001
1	 1.265244274109201e+000	 6.026821451849370e-002	 2.278293293076076e+001
1	 1.264605392478897e+000	 7.244678589573809e-002	 2.269200476505109e+001
1	 1.263846289909173e+000	 8.466350730218103e-002	 2.259778902447306e+001
1	 1.262965762463481e+000	 9.691681094146248e-002	 2.249981939147910e+001
1	 1.261962627821675e+000	 1.092050938783884e-001	 2.239760728020108e+001
1	 1.260835726322077e+000	 1.215267182615958e-001	 2.229064188096987e+001
1	 9.953870213206724e-001	 9.594122023947824e-002	 3.046448885467419e+001
1	 9.943989199946589e-001	 1.056922649420928e-001	 3.033055142063737e+001
1	 9.933113650226917e-001	 1.154669775827053e-001	 3.018320532977258e+001
1	 9.921235000424145e-001	 1.252640057452699e-001	 3.002233139037995e+001
1	 9.908344898374512e-001	 1.350819710464206e-001	 2.984782734524488e+001
1	 9.894435211587168e-001	 1.449194694473043e-001	 2.965960840711096e+001
1	 9.879498035443918e-001	 1.547750715930050e-001	 2.945760778269552e+001
1	 9.863525701375676e-001	 1.646473231798204e-001	 2.924177718396568e+001
1	 9.846510785005697e-001	 1.745347453506194e-001	 2.901208732537662e+001
1	 9.828446114249161e-001	 1.844358351184653e-001	 2.876852840576705e+001
1	 9.809324777358747e-001	 1.943490658186562e-001	 2.851111057359919e+001
1	 1.021930866555178e+000	 9.849967122134781e-002	 2.878113939808639e+001
1	 1.020916415669762e+000	 1.085107456576842e-001	 2.866209724812155e+001
1	 1.019799859022319e+000	 1.185461191814804e-001	 2.853124311576995e+001
1	 1.018580317413973e+000	 1.286044033119972e-001	 2.838843876630414e+001
1	 1.017256933355725e+000	 1.386841829087085e-001	 2.823355978939157e+001
1	 1.015828871911665e+000	 1.487840164914495e-001	 2.806649609177325e+001
1	 1.014295321540812e+000	 1.589024365888926e-001	 2.788715238206255e+001
1	 1.012655494936566e+000	 1.690379501156183e-001	 2.769544864655478e+001
1	 1.010908629862745e+000	 1.791890387780153e-001	 2.749132061492255e+001
1	 1.009053989985139e+000	 1.893541595092008e-001	 2.727472021465801e+001
1	 1.007090865697531e+000	 1.995317449331146e-001	 2.704561601311504e+001
1	 1.048475063502990e+000	 1.010581561031999e-001	 2.735348348085305e+001
1	 1.047434262709218e+000	 1.113292637187003e-001	 2.724677632931337e+001
1	 1.046288704002161e+000	 1.216253015794872e-001	 2.712974430026702e+001
1	 1.045037485346122e+000	 1.319448451396527e-001	 2.700222421640351e+001
1	 1.043679726979181e+000	 1.422864425010265e-001	 2.686406370468272e+001
1	 1.042214572278316e+000	 1.526486147416389e-001	 2.671512165630401e+001
1	 1.040641188623105e+000	 1.630298562732486e-001	 2.655526868250013e+001
1	 1.038958768256984e+000	 1.734286352282083e-001	 2.638438756520685e+001
1	 1.037166529144998e+000	 1.838433938759065e-001	 2.620237370163795e+001
1	 1.035263715826961e+000	 1.942725490689864e-001	 2.600913554177959e+001
1	 1.033249600264920e+000	 2.047144927194935e-001	 2.580459501780241e+001
1	 1.075019565710423e+000	 1.036166704075697e-001	 2.615370113692756e+001
1	 1.073952414705431e+000	 1.141478141926027e-001	 2.605667538402614e+001
1	 1.072777853605359e+000	 1.247045193880078e-001	 2.595071728441514e+001
1	 1.071494957537422e+000	 1.352853253822968e-001	 2.583563313671982e+001
1	 1.070102824466526e+000	 1.458887435192349e-001	 2.571123710472402e+001
1	 1.068600576082287e+000	 1.565132574346200e-001	 2.557735165425204e+001
1	 1.066987358684599e+000	 1.671573234228618e-001	 2.543380798971055e+001
1	 1.065262344066698e+000	 1.778193708336415e-001	 2.528044648948448e+001
1	 1.063424730394631e+000	 1.884978024988976e-001	 2.511711713935947e+001
1	 1.061473743082011e+000	 1.991909951903410e-001	 2.494367996311908e+001
1	 1.059408635658941e+000	 2.098973001076576e-001	 2.476000544944664e+001
1	 1.101564326723789e+000	 1.061752096569922e-001	 2.515665299137675e+001
1	 1.100470825250804e+000	 1.169663921468526e-001	 2.506657073160884e+001
1	 1.099267261475050e+000	 1.277837672183244e-001	 2.496886763304883e+001
1	 1.097952687686433e+000	 1.386258381939897e-001	 2.486331417612944e+001
1	 1.096526179576468e+000	 1.494910796591940e-001	 2.474968584024974e+001
1	 1.094986837147195e+000	 1.603779378071404e-001	 2.462776352677677e+001
1	 1.093333785618622e+000	 1.712848308145205e-001	 2.449733398567102e+001
1	 1.091566176333586e+000	 1.822101492479693e-001	 2.435819024506172e+001
1	 1.089683187658943e+000	 1.931522565015935e-001	 2.421013204307087e+001
1	 1.087684025881921e+000	 2.041094892657834e-001	 2.405296626115566e+001
1	 1.085567926100498e+000	 2.150801580274720e-001	 2.388650735821334e+001
1	 1.128109300089399e+000	 1.087337693740023e-001	 2.433956498936367e+001
1	 1.126989447937741e+000	 1.197849926489115e-001	 2.425361195961574e+001
1	 1.125756881254374e+000	 1.308630396817190e-001	 2.416128085293480e+001
1	 1.124410629491716e+000	 1.419663777287919e-001	 2.406230129766958e+001
1	 1.122949746067712e+000	 1.530934446167641e-001	 2.395640512053004e+001
1	 1.121373309296657e+000	 1.642426490959474e-001	 2.384332676453767e+001
1	 1.119680423318503e+000	 1.754123712250134e-001	 2.372280371469382e+001
1	 1.117870219025528e+000	 1.866009627872430e-001	 2.359457693081179e+001
1	 1.115941854985237e+000	 1.978067477385986e-001	 2.345839128692364e+001
1	 1.113894518358322e+000	 2.090280226878327e-001	 2.331399601663884e+001
1	 1.111727425810493e+000	 2.202630574088016e-001	 2.316114516379805e+001
1	 1.154654439353568e+000	 1.112923450811353e-001	 2.368175658484657e+001
1	 1.153508236358646e+000	 1.226036107662409e-001	 2.359704919835528e+001
1	 1.152246666586472e+000	 1.339423313894738e-001	 2.350714889964366e+001
1	 1.150868736651832e+000	 1.453069381407635e-001	 2.341173966731515e+001
1	 1.149373477698965e+000	 1.566958320878054e-001	 2.331050493665616e+001
1	 1.147759946354290e+000	 1.681073845377886e-001	 2.320312802102113e+001
1	 1.146027225677570e+000	 1.795399374311290e-001	 2.308929254516143e+001
1	 1.144174426110399e+000	 1.909918037675140e-001	 2.296868289005031e+001
1	 1.142200686420812e+000	 2.024612680645178e-001	 2.284098464871495e+001
1	 1.140105174642845e+000	 2.139465868490073e-001	 2.270588509254558e+001
1	 1.137887089009828e+000	 2.254459891815113e-001	 2.256307364751083e+001
1	 1.181199698062607e+000	 1.138509323009261e-001	 2.316440555661919e+001
1	 1.180027144105923e+000	 1.254222415663019e-001	 2.307799714596507e+001
1	 1.178736571114482e+000	 1.370216369528710e-001	 2.298753353839486e+001
1	 1.177326962865341e+000	 1.486475135839651e-001	 2.289264848001888e+001
1	 1.175797328228936e+000	 1.602982357681785e-001	 2.279297248481555e+001
1	 1.174146702143711e+000	 1.719721373694114e-001	 2.268813326762554e+001
1	 1.172374146589153e+000	 1.836675222096557e-001	 2.257775619344781e+001
1	 1.170478751556079e+000	 1.953826645048333e-001	 2.246146474268350e+001
1	 1.168459636012969e+000	 2.071158093339556e-001	 2.233888099192703e+001
1	 1.166315948867122e+000	 2.188651731418263e-001	 2.220962610985373e+001
1	 1.164046869919403e+000	 2.306289442754662e-001	 2.207332086770558e+001
1	 1.207745029762831e+000	 1.164095265559097e-001	 2.277034381992902e+001
1	 1.206546124771974e+000	 1.282408801165561e-001	 2.267923019330877e+001
1	 1.205226548481543e+000	 1.401009509831926e-001	 2.258516089226476e+001
1	 1.203785261830803e+000	 1.519880982124569e-001	 2.248771504359854e+001
1	 1.202221251416331e+000	 1.639006493537434e-001	 2.238646590049600e+001
1	 1.200533530488537e+000	 1.758369008275634e-001	 2.228098129502116e+001
1	 1.198721139946579e+000	 1.877951183373822e-001	 2.217082411140146e+001
1	 1.196783149330445e+000	 1.997735373152525e-001	 2.205555277983452e+001
1	 1.194718657809009e+000	 2.117703634015168e-001	 2.193472179049046e+001
1	 1.192526795162783e+000	 2.237837729588086e-001	 2.180788222732712e+001
1	 1.190206722760122e+000	 2.358119136205312e-001	 2.167458232127804e+001
1	 1.234290388000549e+000	 1.189681233686213e-001	 2.248387957027487e+001
1	 1.233065131949204e+000	 1.310595214844649e-001	 2.238500396961236e+001
1	 1.231716552330795e+000	 1.431802680917210e-001	 2.228424248550432e+001
1	 1.230243587246780e+000	 1.553286861802993e-001	 2.218111541761306e+001
1	 1.228645201019855e+000	 1.675030665403604e-001	 2.207513459277459e+001
1	 1.226920385212384e+000	 1.797016681489920e-001	 2.196580384462274e+001
1	 1.225068159643175e+000	 1.919227185910969e-001	 2.185261951862703e+001
1	 1.223087573401376e+000	 2.041644145148226e-001	 2.173507100234733e+001
1	 1.220977705856232e+000	 2.164249221218061e-001	 2.161264128064292e+001
1	 1.218737667661458e+000	 2.287023776924730e-001	 2.148480751550919e+001
1	 1.216366601752886e+000	 2.409948881465710e-001	 2.135104165014681e+001
1	 1.260835726322077e+000	 1.215267182615958e-001	 2.229064188096987e+001
1	 1.259584119230017e+000	 1.338781607374896e-001	 2.218089941738234e+001
1	 1.258206536305377e+000	 1.462595828897382e-001	 2.207031887955534e+001
1	 1.256701892811832e+000	 1.586692716415527e-001	 2.195835769599697e+001
1	 1.255069130798217e+000	 1.711054810238902e-001	 2.184446226081811e+001
1	 1.253307220138871e+000	 1.835664325704446e-001	 2.172806844787921e+001
1	 1.251415159572273e+000	 1.960503157475885e-001	 2.160860215510705e+001
1	 1.249391977736748e+000	 2.085552884195949e-001	 2.148547987884563e+001
1	 1.247236734201940e+000	 2.210794773494281e-001	 2.135810931803274e+001
1	 1.244948520494780e+000	 2.336209787353382e-001	 2.122589000791783e+001
1	 1.242526461118596e+000	 2.461778587834510e-001	 2.108821398296045e+001
1	 9.809324777358747e-001	 1.943490658186562e-001	 2.851111057359918e+001
1	 9.789137024229728e-001	 2.042743766435053e-001	 2.824080761334036e+001
1	 9.767879280981021e-001	 2.142087061355223e-001	 2.795866103218542e+001
1	 9.745545470450379e-001	 2.241504565049763e-001	 2.766469232449391e+001
1	 9.722129807570792e-001	 2.340980083161345e-001	 2.735894129497782e+001
1	 9.697626806991601e-001	 2.440497210832210e-001	 2.704146644218690e+001
1	 9.672031290579123e-001	 2.540039338948809e-001	 2.671234532304644e+001
1	 9.645338394785437e-001	 2.639589660669880e-001	 2.637167489726968e+001
1	 9.617543577873684e-001	 2.739131178235835e-001	 2.601957185048211e+001
1	 9.588642626988490e-001	 2.838646710056856e-001	 2.565617289491058e+001
1	 9.558631665059840e-001	 2.938118898076575e-001	 2.528163504651122e+001
1	 1.007090865697531e+000	 1.995317449331146e-001	 2.704561601311504e+001
1	 1.005018255988954e+000	 2.097217326205241e-001	 2.680491604493630e+001
1	 1.002835793940865e+000	 2.199209794745262e-001	 2.655359830211068e+001
1	 1.000542855631143e+000	 2.301278450974099e-001	 2.629165583477997e+001
1	 9.981388471261151e-001	 2.403406668682315e-001	 2.601909899774752e+001
1	 9.956232052629930e-001	 2.505577605546663e-001	 2.573595584757591e+001
1	 9.929953984199389e-001	 2.607774209541257e-001	 2.544227252217081e+001
1	 9.902549272725891e-001	 2.709979225639719e-001	 2.513811360167926e+001
1	 9.874013255358587e-001	 2.812175202806164e-001	 2.482356244953966e+001
1	 9.844341606898323e-001	 2.914344501272308e-001	 2.449872153253432e+001
1	 9.813530346885656e-001	 3.016469300097511e-001	 2.416371271871390e+001
1	 1.033249600264920e+000	 2.047144927194935e-001	 2.580459501780242e+001
1	 1.031123155447073e+000	 2.151691607766280e-001	 2.558965191804476e+001
1	 1.028884004924326e+000	 2.256333285029850e-001	 2.536527819857346e+001
1	 1.026531508568457e+000	 2.361053128922975e-001	 2.513143177010709e+001
1	 1.024065057018631e+000	 2.465834081378281e-001	 2.488808684711428e+001
1	 1.021484072484157e+000	 2.570658862601133e-001	 2.463523436840810e+001
1	 1.018788009534555e+000	 2.675509977647321e-001	 2.437288240187077e+001
1	 1.015976355875734e+000	 2.780369723299311e-001	 2.410105653212495e+001
1	 1.013048633111059e+000	 2.885220195238799e-001	 2.381980022997619e+001
1	 1.010004397486102e+000	 2.990043295512846e-001	 2.352917520245889e+001
1	 1.006843240615852e+000	 3.094820740290298e-001	 2.322926172233329e+001
1	 1.059408635658941e+000	 2.098973001076576e-001	 2.476000544944665e+001
1	 1.057228355112487e+000	 2.206166515784633e-001	 2.456703637143926e+001
1	 1.054932515462900e+000	 2.313457432239041e-001	 2.436578991637378e+001
1	 1.052520460375683e+000	 2.420828494286582e-001	 2.415618251439864e+001
1	 1.049991565062670e+000	 2.528262211996881e-001	 2.393814590222386e+001
1	 1.047345237105108e+000	 2.635740868098780e-001	 2.371162757674771e+001
1	 1.044580917263728e+000	 2.743246524724556e-001	 2.347659123465941e+001
1	 1.041698080274572e+000	 2.850761030460262e-001	 2.323301719681102e+001
1	 1.038696235629327e+000	 2.958266027699860e-001	 2.298090281615375e+001
1	 1.035574928338934e+000	 3.065742960300392e-001	 2.272026286803849e+001
1	 1.032333739679205e+000	 3.173173081534752e-001	 2.245112992168929e+001
1	 1.085567926100498e+000	 2.150801580274720e-001	 2.388650735821334e+001
1	 1.083333809300356e+000	 2.260641954926754e-001	 2.371178665513915e+001
1	 1.080981279971006e+000	 2.370582136402892e-001	 2.352991222401568e+001
1	 1.078509665571524e+000	 2.480604442455112e-001	 2.334075299313063e+001
1	 1.075918325886272e+000	 2.590690951285747e-001	 2.314419220291356e+001
1	 1.073206653868300e+000	 2.700823508142762e-001	 2.294012790181298e+001
1	 1.070374076469423e+000	 2.810983732230515e-001	 2.272847343019389e+001
1	 1.067420055455696e+000	 2.921153023934179e-001	 2.250915789101127e+001
1	 1.064344088207020e+000	 3.031312572355475e-001	 2.228212660601248e+001
1	 1.061145708499603e+000	 3.141443363156863e-001	 2.204734155621955e+001
1	 1.057824487269989e+000	 3.251526186710684e-001	 2.180478180544758e+001
1	 1.111727425810493e+000	 2.202630574088016e-001	 2.316114516379805e+001
1	 1.109439472325838e+000	 2.315117829859109e-001	 2.300099902546013e+001
1	 1.107030252863060e+000	 2.427707297551455e-001	 2.283479712678834e+001
1	 1.104499078674683e+000	 2.540380868818758e-001	 2.266235516258765e+001
1	 1.101845294117478e+000	 2.653120189992516e-001	 2.248350214728841e+001
1	 1.099068277516187e+000	 2.765906668836241e-001	 2.229808096200574e+001
1	 1.096167442013604e+000	 2.878721481622747e-001	 2.210594889185741e+001
1	 1.093142236405699e+000	 2.991545580532664e-001	 2.190697815224514e+001
1	 1.089992145960496e+000	 3.104359701371768e-001	 2.170105640279618e+001
1	 1.086716693219385e+000	 3.217144371604181e-001	 2.148808724765388e+001
1	 1.083315438779566e+000	 3.329879918697909e-001	 2.126799072080367e+001
1	 1.137887089009828e+000	 2.254459891815113e-001	 2.256307364751083e+001
1	 1.135545298504095e+000	 2.369594045248153e-001	 2.241387535258951e+001
1	 1.133079388553482e+000	 2.484832815714788e-001	 2.225969713650022e+001
1	 1.130488654203866e+000	 2.600157668767713e-001	 2.210029599188472e+001
1	 1.127772424384331e+000	 2.715549818864824e-001	 2.193544123961054e+001
1	 1.124930062791226e+000	 2.830990236282377e-001	 2.176491513568461e+001
1	 1.121960968758237e+000	 2.946459654358806e-001	 2.158851347085233e+001
1	 1.118864578111176e+000	 3.061938577067329e-001	 2.140604616152546e+001
1	 1.115640364006114e+000	 3.177407286914862e-001	 2.121733783066518e+001
1	 1.112287837749558e+000	 3.292845853164264e-001	 2.102222837723271e+001
1	 1.108806549599299e+000	 3.408234140376239e-001	 2.082057353281025e+001
1	 1.164046869919403e+000	 2.306289442754662e-001	 2.207332086770558e+001
1	 1.161651242150283e+000	 2.424070505760348e-001	 2.193148656856745e+001
1	 1.159128641456689e+000	 2.541958590922946e-001	 2.178572929239174e+001
1	 1.156478346677774e+000	 2.659934737692165e-001	 2.163574210018546e+001
1	 1.153699671314873e+000	 2.777979728650303e-001	 2.148122939018266e+001
1	 1.150791964435869e+000	 2.896074096584329e-001	 2.132190757304682e+001
1	 1.147754611565289e+000	 3.014198131896246e-001	 2.115750574237264e+001
1	 1.144587035558720e+000	 3.132331890349774e-001	 2.098776633905511e+001
1	 1.141288697460231e+000	 3.250455201150880e-001	 2.081244580806974e+001
1	 1.137859097341395e+000	 3.368547675359032e-001	 2.063131524618623e+001
1	 1.134297775120553e+000	 3.486588714625484e-001	 2.044416103912016e+001
1	 1.190206722760122e+000	 2.358119136205312e-001	 2.167458232127804e+001
1	 1.187757257579563e+000	 2.478547116062153e-001	 2.153656729115076e+001
1	 1.185177965987098e+000	 2.599084523205985e-001	 2.139567028242265e+001
1	 1.182468110615112e+000	 2.719711970982310e-001	 2.125151541307082e+001
1	 1.179626989537143e+000	 2.840409810096590e-001	 2.110373714704749e+001
1	 1.176653937192574e+000	 2.961158135845260e-001	 2.095198104599052e+001
1	 1.173548325296723e+000	 3.081936795692618e-001	 2.079590451902968e+001
1	 1.170309563734924e+000	 3.202725397191609e-001	 2.063517756916973e+001
1	 1.166937101439205e+000	 3.323503316245950e-001	 2.046948353469902e+001
1	 1.163430427246173e+000	 3.444249705710406e-001	 2.029851982404197e+001
1	 1.159789070734689e+000	 3.564943504325457e-001	 2.012199864244789e+001
1	 1.216366601752886e+000	 2.409948881465710e-001	 2.135104165014680e+001
1	 1.213863299107094e+000	 2.533023780820027e-001	 2.121333693303319e+001
1	 1.211227316559127e+000	 2.656210512593958e-001	 2.107377798576845e+001
1	 1.208457900534584e+000	 2.779489264028339e-001	 2.093191517111292e+001
1	 1.205554333679185e+000	 2.902839953951322e-001	 2.078730820569869e+001
1	 1.202515935803794e+000	 3.026242240168329e-001	 2.063952699627049e+001
1	 1.199342064814506e+000	 3.149675527205473e-001	 2.048815247699822e+001
1	 1.196032117626381e+000	 3.273118974404437e-001	 2.033277744624421e+001
1	 1.192585531059394e+000	 3.396551504366193e-001	 2.017300740112598e+001
1	 1.189001782715169e+000	 3.519951811740304e-001	 2.000846136817589e+001
1	 1.185280391833071e+000	 3.643298372355973e-001	 1.983877272836427e+001
1	 1.242526461118596e+000	 2.461778587834510e-001	 2.108821398296045e+001
1	 1.239969321048035e+000	 2.587500404700431e-001	 2.094734339544771e+001
1	 1.237276647587192e+000	 2.713336459116922e-001	 2.080563554499958e+001
1	 1.234447670954891e+000	 2.839266512220444e-001	 2.066256240929154e+001
1	 1.231481658369039e+000	 2.965270050962132e-001	 2.051760432636761e+001
1	 1.228377915011984e+000	 3.091326295656696e-001	 2.037025092325332e+001
1	 1.225135784980603e+000	 3.217414207892365e-001	 2.022000204879344e+001
1	 1.221754652219686e+000	 3.343512498799867e-001	 2.006636870898794e+001
1	 1.218233941437156e+000	 3.469599637677736e-001	 1.990887400304674e+001
1	 1.214573118999657e+000	 3.595653860970647e-001	 1.974705405833531e+001
1	 1.210771693807061e+000	 3.721653181596841e-001	 1.958045896233783e+001
1	 9.558631665059840e-001	 2.938118898076575e-001	 2.528163504651122e+001
1	 9.527507155138414e-001	 3.037530213952426e-001	 2.489638798490708e+001
1	 9.495265899749483e-001	 3.136862962449286e-001	 2.450091290667793e+001
1	 9.461905054388915e-001	 3.236099293720238e-001	 2.409548504245721e+001
1	 9.427422136050960e-001	 3.335221213151299e-001	 2.368041395168534e+001
1	 9.391815029145866e-001	 3.434210590039753e-001	 2.325604379692910e+001
1	 9.355081991183116e-001	 3.533049166519174e-001	 2.282275356762431e+001
1	 9.317221658209343e-001	 3.631718566724364e-001	 2.238095725168614e+001
1	 9.278233049990163e-001	 3.730200306188906e-001	 2.193110395352004e+001
1	 9.238115574925392e-001	 3.828475801467559e-001	 2.147367795705986e+001
1	 9.196869034687286e-001	 3.926526379975133e-001	 2.100919873256264e+001
1	 9.813530346885656e-001	 3.016469300097511e-001	 2.416371271871390e+001
1	 9.781575844051821e-001	 3.118531603513708e-001	 2.381925835511905e+001
1	 9.748474815655586e-001	 3.220513244408870e-001	 2.346612109217129e+001
1	 9.714224341338947e-001	 3.322395896935919e-001	 2.310451995089522e+001
1	 9.678821871882342e-001	 3.424161086620216e-001	 2.273470349794431e+001
1	 9.642265235280022e-001	 3.525790199269325e-001	 2.235695010975407e+001
1	 9.604552642574868e-001	 3.627264490136036e-001	 2.197156819347016e+001
1	 9.565682693441295e-001	 3.728565093327700e-001	 2.157889636325931e+001
1	 9.525654381505310e-001	 3.829673031454391e-001	 2.117930357068632e+001
1	 9.484467099390737e-001	 3.930569225507893e-001	 2.077318918791920e+001
1	 9.442120643481219e-001	 4.031234504962961e-001	 2.036098304261058e+001
1	 1.006843240615852e+000	 3.094820740290298e-001	 2.322926172233329e+001
1	 1.003564789941372e+000	 3.199534066371333e-001	 2.292096845714030e+001
1	 1.000168708661770e+000	 3.304164634760867e-001	 2.260523783304180e+001
1	 9.966546971557494e-001	 3.408693643605512e-001	 2.228223397609308e+001
1	 9.930224938798730e-001	 3.513102138563777e-001	 2.195214672194106e+001
1	 9.892718759918836e-001	 3.617371021947264e-001	 2.161519188253705e+001
1	 9.854026599493357e-001	 3.721481062121692e-001	 2.127161147564568e+001
1	 9.814147020823928e-001	 3.825412903160630e-001	 2.092167391587377e+001
1	 9.773078991396468e-001	 3.929147074744280e-001	 2.056567416600250e+001
1	 9.730821888058523e-001	 4.032664002295056e-001	 2.020393384747593e+001
1	 9.687375501904938e-001	 4.135944017341220e-001	 1.983680130897041e+001
1	 1.032333739679205e+000	 3.173173081534752e-001	 2.245112992168929e+001
1	 1.028972287659047e+000	 3.280537460765929e-001	 2.217451715123722e+001
1	 1.025490226950689e+000	 3.387816987110449e-001	 2.189146933570282e+001
1	 1.021887250347247e+000	 3.494992382703296e-001	 2.160209690274008e+001
1	 1.018163089683721e+000	 3.602044213330747e-001	 2.130653304969543e+001
1	 1.014317516476093e+000	 3.708952897803031e-001	 2.100493402503131e+001
1	 1.010350342535127e+000	 3.815698717593335e-001	 2.069747937729812e+001
1	 1.006261420553655e+000	 3.922261826735969e-001	 2.038437217044176e+001
1	 1.002050644666225e+000	 4.028622261975743e-001	 2.006583916428829e+001
1	 9.977179509799359e-001	 4.134759953160150e-001	 1.974213095910266e+001
1	 9.932633180753755e-001	 4.240654733865391e-001	 1.941352210318312e+001
1	 1.057824487269989e+000	 3.251526186710684e-001	 2.180478180544758e+001
1	 1.054380033094837e+000	 3.361541644938118e-001	 2.155550538891929e+001
1	 1.050811992119420e+000	 3.471470155062801e-001	 2.130060393305783e+001
1	 1.047120049551180e+000	 3.581291963203556e-001	 2.104013525696029e+001
1	 1.043303930603482e+000	 3.690987155269895e-001	 2.077417785956995e+001
1	 1.039363401150493e+000	 3.800535666566078e-001	 2.050283122744622e+001
1	 1.035298268356127e+000	 3.909917291668158e-001	 2.022621611361460e+001
1	 1.031108381275849e+000	 4.019111694566532e-001	 1.994447478630468e+001
1	 1.026793631430127e+000	 4.128098419065946e-001	 1.965777124642755e+001
1	 1.022353953348383e+000	 4.236856899434282e-001	 1.936629141269544e+001
1	 1.017789325082299e+000	 4.345366471290957e-001	 1.907024327333893e+001
1	 1.083315438779566e+000	 3.329879918697909e-001	 2.126799072080367e+001
1	 1.079787981785381e+000	 3.442546477128530e-001	 2.104183015498262e+001
1	 1.076133959855069e+000	 3.555123992223094e-001	 2.081070837315162e+001
1	 1.072353050610339e+000	 3.667592234080572e-001	 2.057463157898361e+001
1	 1.068444972642865e+000	 3.779930808729982e-001	 2.033362537446226e+001
1	 1.064409486184943e+000	 3.892119167965864e-001	 2.008773510516419e+001
1	 1.060246393753604e+000	 4.004136619463352e-001	 1.983702617898202e+001
1	 1.055955540766905e+000	 4.115962337165134e-001	 1.958158435707054e+001
1	 1.051536816131212e+000	 4.227575371932062e-001	 1.932151601583755e+001
1	 1.046990152798253e+000	 4.338954662448556e-001	 1.905694837884407e+001
1	 1.042315528290796e+000	 4.450079046373393e-001	 1.878802971752691e+001
1	 1.108806549599299e+000	 3.408234140376239e-001	 2.082057353281025e+001
1	 1.105196089267310e+000	 3.523551815577792e-001	 2.061342059927186e+001
1	 1.101456085844741e+000	 3.638778352196508e-001	 2.040186597406343e+001
1	 1.097586209367518e+000	 3.753893044308631e-001	 2.018586515071671e+001
1	 1.093586171805575e+000	 3.868875018059776e-001	 1.996539250995073e+001
1	 1.089455727749307e+000	 3.983703241731845e-001	 1.974044171320676e+001
1	 1.085194675068824e+000	 4.098356536096109e-001	 1.951102607085638e+001
1	 1.080802855544754e+000	 4.212813585044585e-001	 1.927717888379710e+001
1	 1.076280155469341e+000	 4.327052946491252e-001	 1.903895375718393e+001
1	 1.071626506216607e+000	 4.441053063534078e-001	 1.879642488508588e+001
1	 1.066841884780397e+000	 4.554792275868185e-001	 1.854968730490041e+001
1	 1.134297775120553e+000	 3.486588714625484e-001	 2.044416103912016e+001
1	 1.130604311077259e+000	 3.604557518526529e-001	 2.025200972544385e+001
1	 1.126778325775542e+000	 3.722433088588220e-001	 2.005595006318010e+001
1	 1.122819481665506e+000	 3.840194242862013e-001	 1.985588766101882e+001
1	 1.118727484095319e+000	 3.957819627608041e-001	 1.965174723963960e+001
1	 1.114502082013446e+000	 4.075287727593477e-001	 1.944347308385258e+001
1	 1.110143068643055e+000	 4.192576876683624e-001	 1.923102946955621e+001
1	 1.105650282127328e+000	 4.309665268717704e-001	 1.901440106411520e+001
1	 1.101023606144375e+000	 4.426530968660690e-001	 1.879359329879532e+001
1	 1.096262970490503e+000	 4.543151924021958e-001	 1.856863271192901e+001
1	 1.091368351630633e+000	 4.659505976530814e-001	 1.833956726152980e+001
1	 1.159789070734689e+000	 3.564943504325457e-001	 2.012199864244789e+001
1	 1.156012602751863e+000	 3.685563444215371e-001	 1.994093616954357e+001
1	 1.152100635334577e+000	 3.806088055003410e-001	 1.975642727557743e+001
1	 1.148052823347096e+000	 3.926495678714999e-001	 1.956832843671490e+001
1	 1.143868865515805e+000	 4.046764481723542e-001	 1.937651617039160e+001
1	 1.139548505147221e+000	 4.166872465280218e-001	 1.918088755606082e+001
1	 1.135091530817564e+000	 4.286797476343087e-001	 1.898136072984792e+001
1	 1.130497777032559e+000	 4.406517218697299e-001	 1.877787535156365e+001
1	 1.125767124856174e+000	 4.526009264357540e-001	 1.857039304256199e+001
1	 1.120899502507002e+000	 4.645251065243294e-001	 1.835889779296540e+001
1	 1.115894885921037e+000	 4.764219965116759e-001	 1.814339633682446e+001
1	 1.185280391833071e+000	 3.643298372355973e-001	 1.983877272836427e+001
1	 1.181420919827755e+000	 3.766569450884943e-001	 1.966497154126947e+001
1	 1.177422970208952e+000	 3.889743105047254e-001	 1.948818621909703e+001
1	 1.173286190255080e+000	 4.012797200841873e-001	 1.930822479107188e+001
1	 1.169010272070738e+000	 4.135709424755045e-001	 1.912491693271303e+001
1	 1.164594953320496e+000	 4.258457294521522e-001	 1.893811456486572e+001
1	 1.160040017933619e+000	 4.381018170191692e-001	 1.874769242470961e+001
1	 1.155345296778378e+000	 4.503369265496192e-001	 1.855354860700448e+001
1	 1.150510668304600e+000	 4.625487659498976e-001	 1.835560507387000e+001
1	 1.145536059153163e+000	 4.747350308529197e-001	 1.815380813143540e+001
1	 1.140421444731140e+000	 4.868934058381502e-001	 1.794812887174101e+001
1	 1.210771693807061e+000	 3.721653181596841e-001	 1.958045896233783e+001
1	 1.206829217841571e+000	 3.847575396775871e-001	 1.941016956285080e+001
1	 1.202745286085772e+000	 3.973398092324930e-001	 1.923738776990871e+001
1	 1.198519538232249e+000	 4.099098658216918e-001	 1.906187379023749e+001
1	 1.194151659763825e+000	 4.224654301051314e-001	 1.888341173131735e+001
1	 1.189641382703130e+000	 4.350042055046847e-001	 1.870181028808273e+001
1	 1.184988486332486e+000	 4.475238793346628e-001	 1.851690339867610e+001
1	 1.180192797882715e+000	 4.600221239627187e-001	 1.832855086728873e+001
1	 1.175254193189512e+000	 4.724965980002161e-001	 1.813663895215873e+001
1	 1.170172597316046e+000	 4.849449475210771e-001	 1.794108091684022e+001
1	 1.164947985140473e+000	 4.973648073080526e-001	 1.774181754290813e+001
1	 9.196869034687286e-001	 3.926526379975133e-001	 2.100919873256264e+001
1	 9.154500070382964e-001	 4.024318639757796e-001	 2.053939789780201e+001
1	 9.111003186645378e-001	 4.121848497096857e-001	 2.006568715363483e+001
1	 9.066379396471510e-001	 4.219097086716465e-001	 1.958834792269468e+001
1	 9.020630121438826e-001	 4.316045495771123e-001	 1.910766816694829e+001
1	 8.973757194803052e-001	 4.412674774614075e-001	 1.862394230010863e+001
1	 8.925762864264074e-001	 4.508965947721493e-001	 1.813747109054251e+001
1	 8.876649794392210e-001	 4.604900024760815e-001	 1.764856155461190e+001
1	 8.826421068707412e-001	 4.700458011791232e-001	 1.715752684040562e+001
1	 8.775080191404553e-001	 4.795620922583880e-001	 1.666468610183823e+001
1	 8.722631088718381e-001	 4.890369790048946e-001	 1.617036436311380e+001
1	 9.442120643481219e-001	 4.031234504962961e-001	 2.036098304261058e+001
1	 9.398621831981485e-001	 4.131634577139968e-001	 1.994372403268185e+001
1	 9.353965022980482e-001	 4.231765249420750e-001	 1.952223861570241e+001
1	 9.308151256488799e-001	 4.331607153452563e-001	 1.909685567699604e+001
1	 9.261181991993086e-001	 4.431140872044483e-001	 1.866791477862637e+001
1	 9.213059111636404e-001	 4.530346950222970e-001	 1.823576600007975e+001
1	 9.163784923057911e-001	 4.629205906447350e-001	 1.780076976081759e+001
1	 9.113362161883818e-001	 4.727698243973318e-001	 1.736329662467699e+001
1	 9.061793993862046e-001	 4.825804462352117e-001	 1.692372708613695e+001
1	 9.009084016633495e-001	 4.923505069052576e-001	 1.648245133851375e+001
1	 8.955236261133457e-001	 5.020780591192977e-001	 1.603986902418836e+001
1	 9.687375501904938e-001	 4.135944017341220e-001	 1.983680130897041e+001
1	 9.642746828240307e-001	 4.238951936465678e-001	 1.946483397971725e+001
1	 9.596930078607578e-001	 4.341683458149260e-001	 1.908846495517424e+001
1	 9.549926320031290e-001	 4.444118710955526e-001	 1.870805344592039e+001
1	 9.501737049907746e-001	 4.546237773341320e-001	 1.832397309723769e+001
1	 9.452364199267954e-001	 4.648020684999468e-001	 1.793661178088341e+001
1	 9.401810135691121e-001	 4.749447458365617e-001	 1.754637136102955e+001
1	 9.350077665860249e-001	 4.850498090276872e-001	 1.715366743435093e+001
1	 9.297170037752286e-001	 4.951152573769659e-001	 1.675892904430761e+001
1	 9.243090942455402e-001	 5.051390910003677e-001	 1.636259836972774e+001
1	 9.187844515606748e-001	 5.151193120298432e-001	 1.596513038786155e+001
1	 9.932633180753755e-001	 4.240654733865391e-001	 1.941352210318312e+001
1	 9.886874631931889e-001	 4.346270529926760e-001	 1.908026105167619e+001
1	 9.839897928328978e-001	 4.451602930922763e-001	 1.874254208382774e+001
1	 9.791704163983789e-001	 4.556631562327355e-001	 1.840073892122179e+001
1	 9.742294874202677e-001	 4.661335998239209e-001	 1.805524312575279e+001
1	 9.691672038905157e-001	 4.765695773011598e-001	 1.770646386427865e+001
1	 9.639838085611113e-001	 4.869690393050530e-001	 1.735482764060984e+001
1	 9.586795892061150e-001	 4.973299348768570e-001	 1.700077799478953e+001
1	 9.532548788462155e-001	 5.076502126681390e-001	 1.664477516970024e+001
1	 9.477100559350589e-001	 5.179278221633580e-001	 1.628729574511095e+001
1	 9.420455445066669e-001	 5.281607149139946e-001	 1.592883223936036e+001
1	 1.017789325082299e+000	 4.345366471290957e-001	 1.907024327333892e+001
1	 1.013100481582870e+000	 4.453590169715063e-001	 1.876970378277871e+001
1	 1.008286814694700e+000	 4.561523475381651e-001	 1.846474921295916e+001
1	 1.003348436523110e+000	 4.669145510670051e-001	 1.815575317780715e+001
1	 9.982855043897772e-001	 4.776435345315741e-001	 1.784311020929091e+001
1	 9.930982211755461e-001	 4.883372008327391e-001	 1.752723551581394e+001
1	 9.877868356265308e-001	 4.989934500076330e-001	 1.720856470194280e+001
1	 9.823516426226164e-001	 5.096101804545525e-001	 1.688755344936638e+001
1	 9.767929834075642e-001	 5.201852901724832e-001	 1.656467715907690e+001
1	 9.711112457799381e-001	 5.307166780138687e-001	 1.624043055485879e+001
1	 9.653068642441641e-001	 5.412022449492143e-001	 1.591532724826728e+001
1	 1.042315528290796e+000	 4.450079046373393e-001	 1.878802971752691e+001
1	 1.037513695270321e+000	 4.560910668022424e-001	 1.851477123369728e+001
1	 1.032584030926394e+000	 4.671444899166304e-001	 1.823722143899973e+001
1	 1.027526650065803e+000	 4.781660359085613e-001	 1.795574030402671e+001
1	 1.022341713801290e+000	 4.891535613148496e-001	 1.767071148944222e+001
1	 1.017029429902632e+000	 5.001049185014880e-001	 1.738254211813381e+001
1	 1.011590053110111e+000	 5.110179569017253e-001	 1.709166250348626e+001
1	 1.006023885409494e+000	 5.218905242704837e-001	 1.679852583358513e+001
1	 1.000331276267676e+000	 5.327204679537507e-001	 1.650360781126430e+001
1	 9.945126228282096e-001	 5.435056361715400e-001	 1.620740625001871e+001
1	 9.885683700660080e-001	 5.542438793129652e-001	 1.591044062591388e+001
1	 1.066841884780397e+000	 4.554792275868185e-001	 1.854968730490041e+001
1	 1.061927061532788e+000	 4.668231837040687e-001	 1.829876340595701e+001
1	 1.056881399008212e+000	 4.781367009917106e-001	 1.804373643490769e+001
1	 1.051705014714938e+000	 4.894175910676042e-001	 1.778494016664047e+001
1	 1.046398073556794e+000	 5.006636600315061e-001	 1.752273455258182e+001
1	 1.040960788192517e+000	 5.118727097142092e-001	 1.725750552585858e+001
1	 1.035393419356594e+000	 5.230425389447538e-001	 1.698966475812324e+001
1	 1.029696276140712e+000	 5.341709448343606e-001	 1.671964936773145e+001
1	 1.023869716234950e+000	 5.452557240756947e-001	 1.644792157907724e+001
1	 1.017914146127906e+000	 5.562946742560117e-001	 1.617496833300883e+001
1	 1.011830021265040e+000	 5.672855951827097e-001	 1.590130084836872e+001
1	 1.091368351630633e+000	 4.659505976530814e-001	 1.833956726152980e+001
1	 1.086340537647517e+000	 4.775553488961693e-001	 1.810648124612844e+001
1	 1.081178876420385e+000	 4.891289615274444e-001	 1.786952988550988e+001
1	 1.075883488158995e+000	 5.006691968543336e-001	 1.762900910130249e+001
1	 1.070454541558279e+000	 5.121738105393018e-001	 1.738524321090345e+001
1	 1.064892254165948e+000	 5.236405538777059e-001	 1.713858478420704e+001
1	 1.059196892710721e+000	 5.350671750941420e-001	 1.688941444825803e+001
1	 1.053368773390236e+000	 5.464514206558941e-001	 1.663814063937194e+001
1	 1.047408262117787e+000	 5.577910366020672e-001	 1.638519930238740e+001
1	 1.041315774727059e+000	 5.690837698869241e-001	 1.613105353684151e+001
1	 1.035091777134104e+000	 5.803273697359112e-001	 1.587619318998982e+001
1	 1.115894885921037e+000	 4.764219965116759e-001	 1.814339633682446e+001
1	 1.110754080891756e+000	 4.882875435977283e-001	 1.792406169013080e+001
1	 1.105476420643145e+000	 5.001212522878700e-001	 1.770113524716691e+001
1	 1.100062028086456e+000	 5.119208335789502e-001	 1.747486423477761e+001
1	 1.094511075707730e+000	 5.236839926959949e-001	 1.724552624428696e+001
1	 1.088823785943670e+000	 5.354084303987813e-001	 1.701342915771379e+001
1	 1.083000431517234e+000	 5.470918443073142e-001	 1.677891101886542e+001
1	 1.077041335732030e+000	 5.587319302447943e-001	 1.654233984867550e+001
1	 1.070946872724587e+000	 5.703263835966207e-001	 1.630411340428081e+001
1	 1.064717467673700e+000	 5.818729006839174e-001	 1.606465888146375e+001
1	 1.058353596966040e+000	 5.933691801500316e-001	 1.582443256022434e+001
1	 1.140421444731140e+000	 4.868934058381502e-001	 1.794812887174101e+001
1	 1.135167648542750e+000	 4.990197490279299e-001	 1.773883398026909e+001
1	 1.129773989156722e+000	 5.111135540370256e-001	 1.752624417207699e+001
1	 1.124240592185799e+000	 5.231724815516531e-001	 1.731054788340921e+001
1	 1.118567633907137e+000	 5.351941863593439e-001	 1.709196564845737e+001
1	 1.112755341646426e+000	 5.471763186842383e-001	 1.687075011240446e+001
1	 1.106803994120874e+000	 5.591165255416938e-001	 1.664718598696394e+001
1	 1.100713921740058e+000	 5.710124521107712e-001	 1.642158994757600e+001
1	 1.094485506863751e+000	 5.828617431231077e-001	 1.619431047155625e+001
1	 1.088119184015863e+000	 5.946620442666314e-001	 1.596572761662778e+001
1	 1.081615440053690e+000	 6.064110036025346e-001	 1.573625273940888e+001
1	 1.164947985140473e+000	 4.973648073080526e-001	 1.774181754290813e+001
1	 1.159581197877747e+000	 5.097519464059583e-001	 1.753919412178593e+001
1	 1.154071539441347e+000	 5.221058475389500e-001	 1.733358455356561e+001
1	 1.148419138145507e+000	 5.344241210826426e-001	 1.712510907084654e+001
1	 1.142624174058487e+000	 5.467043713871074e-001	 1.691392151639167e+001
1	 1.136686879394964e+000	 5.589441981408801e-001	 1.670020945981096e+001
1	 1.130607538866382e+000	 5.711411977547047e-001	 1.648419425499455e+001
1	 1.124386489988285e+000	 5.832929647635357e-001	 1.626613103722842e+001
1	 1.118024123343679e+000	 5.953970932452810e-001	 1.604630865905854e+001
1	 1.111520882801578e+000	 6.074511782547065e-001	 1.582504956410780e+001
1	 1.104877265689896e+000	 6.194528172708822e-001	 1.560270959819389e+001
1	 8.722631088718381e-001	 4.890369790048946e-001	 1.617036436311380e+001
1	 8.669069994773564e-001	 4.984699794031350e-001	 1.567387583636375e+001
1	 8.614409475685219e-001	 5.078577791162043e-001	 1.517517526395300e+001
1	 8.558654737743154e-001	 5.171984938406529e-001	 1.467535715031911e+001
1	 8.501811411206635e-001	 5.264902458615942e-001	 1.417555120857225e+001
1	 8.443885549780590e-001	 5.357311652289508e-001	 1.367692111114309e+001
1	 8.384883629704415e-001	 5.449193909360232e-001	 1.318066316795284e+001
1	 8.324812548450976e-001	 5.540530720989082e-001	 1.268800493390256e+001
1	 8.263679623034136e-001	 5.631303691352767e-001	 1.220020374767622e+001
1	 8.201492587923700e-001	 5.721494549410070e-001	 1.171854520404829e+001
1	 8.138259592567364e-001	 5.811085160631598e-001	 1.124434156207843e+001
1	 8.955236261133457e-001	 5.020780591192977e-001	 1.603986902418837e+001
1	 8.900246861062579e-001	 5.117626080080405e-001	 1.559592036042877e+001
1	 8.844128717634382e-001	 5.214007508515945e-001	 1.515092820789160e+001
1	 8.786887175973517e-001	 5.309905530979979e-001	 1.470569387907183e+001
1	 8.728528016480038e-001	 5.405300869595506e-001	 1.426104495443016e+001
1	 8.669057454291611e-001	 5.500174326204224e-001	 1.381783441862078e+001
1	 8.608482138348055e-001	 5.594506794466541e-001	 1.337693974313575e+001
1	 8.546809150055599e-001	 5.688279271970237e-001	 1.293926191654801e+001
1	 8.484046001549335e-001	 5.781472872332618e-001	 1.250572442368068e+001
1	 8.420200633552514e-001	 5.874068837280613e-001	 1.207727217517413e+001
1	 8.355281412832462e-001	 5.966048548693306e-001	 1.165487038906251e+001
1	 9.187844515606748e-001	 5.151193120298432e-001	 1.596513038786155e+001
1	 9.131426790481644e-001	 5.250554127421397e-001	 1.556680780708317e+001
1	 9.073851003396591e-001	 5.349439020332116e-001	 1.516808832427584e+001
1	 9.015122638313120e-001	 5.447827951019330e-001	 1.476953448687896e+001
1	 8.955247625774229e-001	 5.545701140871350e-001	 1.437172812384714e+001
1	 8.894232342352665e-001	 5.643038893065866e-001	 1.397526980135912e+001
1	 8.832083609691115e-001	 5.739821604984207e-001	 1.358077823996362e+001
1	 8.768808693131817e-001	 5.836029780634552e-001	 1.318888969383032e+001
1	 8.704415299933851e-001	 5.931644043068414e-001	 1.280025729287413e+001
1	 8.638911577076851e-001	 6.026645146774508e-001	 1.241555034862433e+001
1	 8.572306108650805e-001	 6.121013990034107e-001	 1.203545362481071e+001
1	 9.420455445066669e-001	 5.281607149139946e-001	 1.592883223936036e+001
1	 9.362609378459224e-001	 5.383483703426760e-001	 1.556978232228406e+001
1	 9.303575930951712e-001	 5.484872089601938e-001	 1.521055759316263e+001
1	 9.243360725344286e-001	 5.585751957156878e-001	 1.485153245875805e+001
1	 9.181969842324795e-001	 5.686103026739566e-001	 1.449309546836666e+001
1	 9.119409819903062e-001	 5.785905102858034e-001	 1.413564902599355e+001
1	 9.055687652426796e-001	 5.885138086608936e-001	 1.377960907528094e+001
1	 8.990810789176518e-001	 5.983781988415262e-001	 1.342540475743886e+001
1	 8.924787132537713e-001	 6.081816940757199e-001	 1.307347804249081e+001
1	 8.857625035748910e-001	 6.179223210879754e-001	 1.272428333422272e+001
1	 8.789333300225429e-001	 6.275981213460914e-001	 1.237828704928885e+001
1	 9.653068642441641e-001	 5.412022449492143e-001	 1.591532724826728e+001
1	 9.593794220423776e-001	 5.516414575468932e-001	 1.558970292951634e+001
1	 9.533303098279591e-001	 5.620306479316777e-001	 1.526378946945654e+001
1	 9.471601037649345e-001	 5.723677308024932e-001	 1.493782032268136e+001
1	 9.408694269367316e-001	 5.826506281496252e-001	 1.461203969832090e+001
1	 9.344589492882121e-001	 5.928772705564345e-001	 1.428670246845186e+001
1	 9.279293875248308e-001	 6.030455985036434e-001	 1.396207405702903e+001
1	 9.212815049686621e-001	 6.131535636745614e-001	 1.363843030925451e+001
1	 9.145161113710950e-001	 6.231991302596035e-001	 1.331605734134574e+001
1	 9.076340626820888e-001	 6.331802762584340e-001	 1.299525137071431e+001
1	 9.006362607759364e-001	 6.430949947780623e-001	 1.267631852661304e+001
1	 9.885683700660080e-001	 5.542438793129652e-001	 1.591044062591388e+001
1	 9.824980911803788e-001	 5.649346510920354e-001	 1.561285353580423e+001
1	 9.763032103360101e-001	 5.755741952468014e-001	 1.531460634246219e+001
1	 9.699843175810624e-001	 5.861603762255794e-001	 1.501583562451696e+001
1	 9.635420510137376e-001	 5.966910659437502e-001	 1.471668699072266e+001
1	 9.569770967229156e-001	 6.071641451168405e-001	 1.441731512689869e+001
1	 9.502901886848859e-001	 6.175775045962409e-001	 1.411788382774594e+001
1	 9.434821086159001e-001	 6.279290467058839e-001	 1.381856601321194e+001
1	 9.365536857803576e-001	 6.382166865781973e-001	 1.351954372910982e+001
1	 9.295057967545002e-001	 6.484383534876271e-001	 1.322100813173299e+001
1	 9.223393651455634e-001	 6.585919921800144e-001	 1.292315945624407e+001
1	 1.011830021265040e+000	 5.672855951827097e-001	 1.590130084836872e+001
1	 1.005616904802770e+000	 5.782279277153465e-001	 1.562677912816747e+001
1	 9.992762544173094e-001	 5.891178272047021e-001	 1.535104215842031e+001
1	 9.928086740410455e-001	 5.999531078481775e-001	 1.507417089211737e+001
1	 9.862148167870557e-001	 6.107315914859411e-001	 1.479625517219889e+001
1	 9.794953848883495e-001	 6.214511089653824e-001	 1.451739386161203e+001
1	 9.726511295921650e-001	 6.321095015082566e-001	 1.423769495931088e+001
1	 9.656828510090559e-001	 6.427046220788176e-001	 1.395727570171374e+001
1	 9.585913979165628e-001	 6.532343367512070e-001	 1.367626264916051e+001
1	 9.513776675173451e-001	 6.636965260743545e-001	 1.339479175694511e+001
1	 9.440426051517269e-001	 6.740890864326373e-001	 1.311300843053097e+001
1	 1.035091777134104e+000	 5.803273697359112e-001	 1.587619318998982e+001
1	 1.028735822452400e+000	 5.915212641540699e-001	 1.562014404307686e+001
1	 1.022249401869843e+000	 6.026615201045174e-001	 1.536220625010998e+001
1	 1.015633133203116e+000	 6.137459015335169e-001	 1.510244381717915e+001
1	 1.008887684580245e+000	 6.247721802058077e-001	 1.484093101218218e+001
1	 1.002013774378445e+000	 6.357381371004209e-001	 1.457775252466938e+001
1	 9.950121711159885e-001	 6.466415638092610e-001	 1.431300360952578e+001
1	 9.878836932978198e-001	 6.574802639366864e-001	 1.404679021392791e+001
1	 9.806292092147125e-001	 6.682520544983372e-001	 1.377922908704652e+001
1	 9.732496366958434e-001	 6.789547673174153e-001	 1.351044787200214e+001
1	 9.657459428147288e-001	 6.895862504166215e-001	 1.324058517961981e+001
1	 1.058353596966040e+000	 5.933691801500316e-001	 1.582443256022434e+001
1	 1.051854803672116e+000	 6.048146371454501e-001	 1.558260891499765e+001
1	 1.045222612491598e+000	 6.162052502453843e-001	 1.533816511275086e+001
1	 1.038457655125506e+000	 6.275387331448290e-001	 1.509118454621942e+001
1	 1.031560614716861e+000	 6.388128075329591e-001	 1.484176368799515e+001
1	 1.024532225787134e+000	 6.500252045203179e-001	 1.459001222873098e+001
1	 1.017373274125678e+000	 6.611736660688250e-001	 1.433605319400920e+001
1	 1.010084596631881e+000	 6.722559464228142e-001	 1.408002303931248e+001
1	 1.002667081109809e+000	 6.832698135392944e-001	 1.382207172258500e+001
1	 9.951216660152161e-001	 6.942130505156094e-001	 1.356236275391893e+001
1	 9.874493401548727e-001	 7.050834570126574e-001	 1.330107322195531e+001
1	 1.081615440053690e+000	 6.064110036025346e-001	 1.573625273940888e+001
1	 1.074973808004762e+000	 6.181080234267304e-001	 1.550472349368227e+001
1	 1.068195846080558e+000	 6.297489939264407e-001	 1.526983942611611e+001
1	 1.061282199866449e+000	 6.413315785453437e-001	 1.503173750653712e+001
1	 1.054233567520466e+000	 6.528534488970053e-001	 1.479057198870474e+001
1	 1.047050699708348e+000	 6.643122862234333e-001	 1.454651447718579e+001
1	 1.039734399490552e+000	 6.757057828565188e-001	 1.429975396474491e+001
1	 1.032285522160929e+000	 6.870316436805244e-001	 1.405049683977028e+001
1	 1.024704975036855e+000	 6.982875875937834e-001	 1.379896686332147e+001
1	 1.016993717200683e+000	 7.094713489677370e-001	 1.354540511545861e+001
1	 1.009152759192461e+000	 7.205806791014351e-001	 1.329006991058436e+001
1	 1.104877265689896e+000	 6.194528172708822e-001	 1.560270959819389e+001
1	 1.098092794993187e+000	 6.314013997351550e-001	 1.537783299293433e+001
1	 1.091169062434710e+000	 6.432927274468235e-001	 1.514891407727154e+001
1	 1.084106727484178e+000	 6.551244135982918e-001	 1.491617562632943e+001
1	 1.076906503314615e+000	 6.668940797275553e-001	 1.467986323418915e+001
1	 1.069569156736019e+000	 6.785993572081285e-001	 1.444024526133407e+001
1	 1.062095508079932e+000	 6.902378887419132e-001	 1.419761274157665e+001
1	 1.054486431034654e+000	 7.018073298531413e-001	 1.395227924814097e+001
1	 1.046742852430854e+000	 7.133053503815100e-001	 1.370458071867222e+001
1	 1.038865751977465e+000	 7.247296359725971e-001	 1.345487523904512e+001
1	 1.030856161947795e+000	 7.360778895636447e-001	 1.320354278594563e+001
1	 8.138259592567364e-001	 5.811085160631598e-001	 1.124434156207843e+001
1	 8.073989196223579e-001	 5.900057536711100e-001	 1.077861380196473e+001
1	 8.008690357874088e-001	 5.988393841156299e-001	 1.032157842959452e+001
1	 7.942372439580684e-001	 6.076076406512598e-001	 9.873346944154825e+000
1	 7.875045204774031e-001	 6.163087747742401e-001	 9.434013639425363e+000
1	 7.806718813845675e-001	 6.249410573556360e-001	 9.003655891122206e+000
1	 7.737403819358265e-001	 6.335027797617577e-001	 8.582334475463457e+000
1	 7.667111160878265e-001	 6.419922549603809e-001	 8.170093918229691e+000
1	 7.595852159436007e-001	 6.504078186112841e-001	 7.766962873510867e+000
1	 7.523638511618763e-001	 6.587478301396494e-001	 7.372954531252450e+000
1	 7.450482283302942e-001	 6.670106737908847e-001	 6.988067052633410e+000
1	 8.355281412832462e-001	 5.966048548693306e-001	 1.165487038906251e+001
1	 8.289297126895775e-001	 6.057393538572367e-001	 1.123843380199268e+001
1	 8.222256973632530e-001	 6.148085494782434e-001	 1.082737348564641e+001
1	 8.154170564761907e-001	 6.238106278733666e-001	 1.042190757470255e+001
1	 8.085047924075216e-001	 6.327437939117713e-001	 1.002224611332224e+001
1	 8.014899482910344e-001	 6.416062723541129e-001	 9.628591158155352e+000
1	 7.943736075234262e-001	 6.503963090028356e-001	 9.241136896138901e+000
1	 7.871568932337913e-001	 6.591121718378924e-001	 8.860069776700426e+000
1	 7.798409677148595e-001	 6.677521521363643e-001	 8.485568657939085e+000
1	 7.724270318165429e-001	 6.763145655744852e-001	 8.117804966319604e+000
1	 7.649163243024476e-001	 6.847977533105901e-001	 7.756942869376331e+000
1	 8.572306108650805e-001	 6.121013990034107e-001	 1.203545362481072e+001
1	 8.504607910413642e-001	 6.214731625150546e-001	 1.165915072968083e+001
1	 8.435826419166745e-001	 6.307779264339034e-001	 1.128556700752637e+001
1	 8.365971496289765e-001	 6.400138297868191e-001	 1.091501059107800e+001
1	 8.295053425937876e-001	 6.491790308152675e-001	 1.054778907282742e+001
1	 8.223082910398663e-001	 6.582717081688778e-001	 1.018420944631231e+001
1	 8.150071065046908e-001	 6.672900620856198e-001	 9.824578048475244e+000
1	 8.076029412901695e-001	 6.762323155570230e-001	 9.469200503010139e+000
1	 8.000969878791011e-001	 6.850967154768765e-001	 9.118381664608082e+000
1	 7.924904783129740e-001	 6.938815337718781e-001	 8.772425564008886e+000
1	 7.847846835317627e-001	 7.025850685127173e-001	 8.431635353763863e+000
1	 8.789333300225429e-001	 6.275981213460914e-001	 1.237828704928885e+001
1	 8.719921169979256e-001	 6.372071521100241e-001	 1.203423756670177e+001
1	 8.649398320725696e-001	 6.467474870358032e-001	 1.169081903241654e+001
1	 8.577774863507546e-001	 6.562172180355882e-001	 1.134841451966300e+001
1	 8.505061342846643e-001	 6.656144567226070e-001	 1.100741263148661e+001
1	 8.431268731983189e-001	 6.749373356349260e-001	 1.066820730161656e+001
1	 8.356408427702822e-001	 6.841840094455123e-001	 1.033119758527829e+001
1	 8.280492244755902e-001	 6.933526561569474e-001	 9.996787440133399e+000
1	 8.203532409874395e-001	 7.024414782792147e-001	 9.665385497553464e+000
1	 8.125541555392345e-001	 7.114487039889694e-001	 9.337404824458051e+000
1	 8.046532712476672e-001	 7.203725882687514e-001	 9.013262675974282e+000
1	 9.006362607759364e-001	 6.430949947780623e-001	 1.267631852661304e+001
1	 8.935236528794699e-001	 6.529412951076056e-001	 1.235779627711564e+001
1	 8.862972304558356e-001	 6.627172033371349e-001	 1.203830416690645e+001
1	 8.789580295758553e-001	 6.724207642636473e-001	 1.171828657977328e+001
1	 8.715071307286160e-001	 6.820500428716689e-001	 1.139819809539973e+001
1	 8.639456583336481e-001	 6.916031255872529e-001	 1.107850316993327e+001
1	 8.562747802108592e-001	 7.010781215179124e-001	 1.075967579785285e+001
1	 8.484957070086822e-001	 7.104731636768402e-001	 1.044219915554980e+001
1	 8.406096915909896e-001	 7.197864101897744e-001	 1.012656522708604e+001
1	 8.326180283833888e-001	 7.290160454828978e-001	 9.813274412637639e+000
1	 8.245220526795862e-001	 7.381602814501764e-001	 9.502835120181263e+000
1	 9.223393651455634e-001	 6.585919921800144e-001	 1.292315945624406e+001
1	 9.150553610062056e-001	 6.686755639732592e-001	 1.262448373437091e+001
1	 9.076547996913685e-001	 6.786870473910930e-001	 1.232365096817238e+001
1	 9.001387422386069e-001	 6.886244401149673e-001	 1.202115451528921e+001
1	 8.925082951741051e-001	 6.984857605003322e-001	 1.171750126042943e+001
1	 8.847646100131097e-001	 7.082690488608533e-001	 1.141321119468165e+001
1	 8.769088827170830e-001	 7.179723687382210e-001	 1.110881696986463e+001
1	 8.689423531080759e-001	 7.275938081558755e-001	 1.080486342852826e+001
1	 8.608663042408664e-001	 7.371314808549521e-001	 1.050190711028790e+001
1	 8.526820617335016e-001	 7.465835275108047e-001	 1.020051573523490e+001
1	 8.443909930569482e-001	 7.559481169284779e-001	 9.901267665228906e+000
1	 9.440426051517269e-001	 6.740890864326373e-001	 1.311300843053096e+001
1	 9.365872036983388e-001	 6.844099311724453e-001	 1.282944785918154e+001
1	 9.290125024040664e-001	 6.946569912508703e-001	 1.254288968139129e+001
1	 9.213195872733394e-001	 7.048282172335207e-001	 1.225386506624049e+001
1	 9.135095908695964e-001	 7.149215808464764e-001	 1.196292076884900e+001
1	 9.055836918039592e-001	 7.249350762907215e-001	 1.167061862650399e+001
1	 8.975431141796130e-001	 7.348667215418383e-001	 1.137753502585403e+001
1	 8.893891269924004e-001	 7.447145596332283e-001	 1.108426034195662e+001
1	 8.811230434881836e-001	 7.544766599211421e-001	 1.079139835004119e+001
1	 8.727462204776373e-001	 7.641511193298295e-001	 1.049956561092336e+001
1	 8.642600576091790e-001	 7.737360635751406e-001	 1.020939083107736e+001
1	 9.657459428147288e-001	 6.895862504166215e-001	 1.324058517961981e+001
1	 9.581191432760791e-001	 7.001443691706241e-001	 1.296827236300890e+001
1	 9.503703012188257e-001	 7.106270069696601e-001	 1.269240701968726e+001
1	 9.425005276143821e-001	 7.210320672632804e-001	 1.241354803646323e+001
1	 9.345109810635532e-001	 7.313574751479801e-001	 1.213227073002103e+001
1	 9.264028672734521e-001	 7.416011787118533e-001	 1.184916627704503e+001
1	 9.181774384891096e-001	 7.517611503641648e-001	 1.156484111365274e+001
1	 9.098359928802851e-001	 7.618353881480728e-001	 1.127991630506547e+001
1	 9.013798738840571e-001	 7.718219170347401e-001	 1.099502688652538e+001
1	 8.928104695038603e-001	 7.817187901971132e-001	 1.071082117654560e+001
1	 8.841292115657057e-001	 7.915240902616486e-001	 1.042796006365676e+001
1	 9.874493401548727e-001	 7.050834570126574e-001	 1.330107322195532e+001
1	 9.796511420596337e-001	 7.158788504332553e-001	 1.303692877395984e+001
1	 9.717281587605429e-001	 7.265970666006559e-001	 1.276890690375946e+001
1	 9.636815261960641e-001	 7.372359618482176e-001	 1.249758509688321e+001
1	 9.555124290044385e-001	 7.477934146427221e-001	 1.222355694947380e+001
1	 9.472220999888442e-001	 7.582673269592433e-001	 1.194743154878127e+001
1	 9.388118195362328e-001	 7.686556256406014e-001	 1.166983282334526e+001
1	 9.302829149903598e-001	 7.789562637395833e-001	 1.139139886390939e+001
1	 9.216367599796002e-001	 7.891672218421419e-001	 1.111278121618868e+001
1	 9.128747737002358e-001	 7.992865093697955e-001	 1.083464414668993e+001
1	 9.039984201559549e-001	 8.093121658594877e-001	 1.055766388285765e+001
1	 1.009152759192461e+000	 7.205806791014351e-001	 1.329006991058437e+001
1	 1.001183162369211e+000	 7.316133474258008e-001	 1.303173464943243e+001
1	 9.930860376541154e-001	 7.425671421970512e-001	 1.276937626453162e+001
1	 9.848625459527152e-001	 7.534398726323051e-001	 1.250358261192887e+001
1	 9.765138979407163e-001	 7.642293705685814e-001	 1.223495622347499e+001
1	 9.680413535173916e-001	 7.749334918678867e-001	 1.196411365331987e+001
1	 9.594462212116428e-001	 7.855501178065477e-001	 1.169168479654778e+001
1	 9.507298575412535e-001	 7.960771564469348e-001	 1.141831218108131e+001
1	 9.418936663259282e-001	 8.065125439897427e-001	 1.114465023405617e+001
1	 9.329390979548276e-001	 8.168542461050162e-001	 1.087136452394130e+001
1	 9.238676486093538e-001	 8.271002592401421e-001	 1.059913097974476e+001
1	 1.030856161947795e+000	 7.360778895636447e-001	 1.320354278594562e+001
1	 1.022715166525019e+000	 7.473478326137195e-001	 1.294931706427295e+001
1	 1.014443900524439e+000	 7.585372058120380e-001	 1.269105516309810e+001
1	 1.006043549818665e+000	 7.696437712595147e-001	 1.242934789651281e+001
1	 9.975153511208504e-001	 7.806653141634373e-001	 1.216479824758833e+001
1	 9.888605914263493e-001	 7.915996442727785e-001	 1.189802069582900e+001
1	 9.800806074060003e-001	 8.024445972974047e-001	 1.162964052122404e+001
1	 9.711767847515960e-001	 8.131980363093015e-001	 1.136029308608670e+001
1	 9.621505574741556e-001	 8.238578531239378e-001	 1.109062309593323e+001
1	 9.530034071557008e-001	 8.344219696599167e-001	 1.082128384071293e+001
1	 9.437368621553292e-001	 8.448883392750972e-001	 1.055293641775741e+001
1	 7.450482283302942e-001	 6.670106737908847e-001	 6.988067052633405e+000
1	 7.376407085647760e-001	 6.751935382033578e-001	 6.611312127797804e+000
1	 7.301414800067997e-001	 6.832961067697868e-001	 6.241865858629815e+000
1	 7.225518559652614e-001	 6.913168456532408e-001	 5.880124564388842e+000
1	 7.148731837902085e-001	 6.992542498395045e-001	 5.526472984599734e+000
1	 7.071068440770070e-001	 7.071068440770069e-001	 5.181284158910944e+000
1	 6.992542498395046e-001	 7.148731837902086e-001	 4.844919326009247e+000
1	 6.913168456532407e-001	 7.225518559652614e-001	 4.517727841572842e+000
1	 6.832961067697868e-001	 7.301414800067997e-001	 4.200047115192733e+000
1	 6.751935382033579e-001	 7.376407085647760e-001	 3.892202566147609e+000
1	 6.670106737908847e-001	 7.450482283302943e-001	 3.594507597872827e+000
1	 7.649163243024476e-001	 6.847977533105901e-001	 7.756942869376334e+000
1	 7.573112692520885e-001	 6.931988290128908e-001	 7.402120775748990e+000
1	 7.496120598240782e-001	 7.015174676312072e-001	 7.052596861458943e+000
1	 7.418200443491130e-001	 7.097520944260171e-001	 6.708863651089588e+000
1	 7.339366061068124e-001	 7.179011642491269e-001	 6.371404399709893e+000
1	 7.259631625086618e-001	 7.259631625086618e-001	 6.040692790272544e+000
1	 7.179011642491264e-001	 7.339366061068126e-001	 5.717192646621575e+000
1	 7.097520944260168e-001	 7.418200443491130e-001	 5.401357662483141e+000
1	 7.015174676312068e-001	 7.496120598240780e-001	 5.093631146775124e+000
1	 6.931988290128908e-001	 7.573112692520886e-001	 4.794445785529464e+000
1	 6.847977533105903e-001	 7.649163243024477e-001	 4.504223420682719e+000
1	 7.847846835317627e-001	 7.025850685127173e-001	 8.431635353763863e+000
1	 7.769820905793919e-001	 7.112043583964481e-001	 8.095147132166913e+000
1	 7.690828976316781e-001	 7.197390699298709e-001	 7.762179884505127e+000
1	 7.610884880415944e-001	 7.281875874703213e-001	 7.433307497964857e+000
1	 7.530002810188171e-001	 7.365483257350832e-001	 7.109096755126664e+000
1	 7.448197307914483e-001	 7.448197307914483e-001	 6.790106871744541e+000
1	 7.365483257350833e-001	 7.530002810188171e-001	 6.476889046858231e+000
1	 7.281875874703212e-001	 7.610884880415944e-001	 6.169986025961262e+000
1	 7.197390699298712e-001	 7.690828976316783e-001	 5.869931677915923e+000
1	 7.112043583964484e-001	 7.769820905793919e-001	 5.577250586271452e+000
1	 7.025850685127173e-001	 7.847846835317627e-001	 5.292457655607413e+000
1	 8.046532712476672e-001	 7.203725882687514e-001	 9.013262675974280e+000
1	 7.966531381217792e-001	 7.292100948435913e-001	 8.691996291145143e+000
1	 7.885539593546564e-001	 7.379608817771644e-001	 8.372696163199885e+000
1	 7.803571533219557e-001	 7.466232925231846e-001	 8.056003903094192e+000
1	 7.720641751638337e-001	 7.551957016639452e-001	 7.742556044391820e+000
1	 7.636765159254422e-001	 7.636765159254418e-001	 7.432983443039736e+000
1	 7.551957016639452e-001	 7.720641751638339e-001	 7.127910686362552e+000
1	 7.466232925231846e-001	 7.803571533219557e-001	 6.827955512304242e+000
1	 7.379608817771644e-001	 7.885539593546562e-001	 6.533728239916814e+000
1	 7.292100948435912e-001	 7.966531381217792e-001	 6.245831212072032e+000
1	 7.203725882687513e-001	 8.046532712476668e-001	 5.964858251336633e+000
1	 8.245220526795862e-001	 7.381602814501764e-001	 9.502835120181263e+000
1	 8.163243774543456e-001	 7.472160068438808e-001	 9.194118529946232e+000
1	 8.080252109180682e-001	 7.561828712844724e-001	 8.886026224525155e+000
1	 7.996260064694477e-001	 7.650591773216392e-001	 8.579254987657892e+000
1	 7.911282551794755e-001	 7.738432594022843e-001	 8.274498422094405e+000
1	 7.825334849107183e-001	 7.825334849107182e-001	 7.972446231873268e+000
1	 7.738432594022845e-001	 7.911282551794753e-001	 7.673783510859846e+000
1	 7.650591773216392e-001	 7.996260064694477e-001	 7.379190038834192e+000
1	 7.561828712844722e-001	 8.080252109180682e-001	 7.089339586395705e+000
1	 7.472160068438808e-001	 8.163243774543455e-001	 6.804899229932719e+000
1	 7.381602814501764e-001	 8.245220526795862e-001	 6.526528677879399e+000
1	 8.443909930569482e-001	 7.559481169284779e-001	 9.901267665228906e+000
1	 8.359957741521835e-001	 7.652220628868781e-001	 9.602827409068448e+000
1	 8.274966182469707e-001	 7.744050065631816e-001	 9.303873384419838e+000
1	 8.188950137633203e-001	 7.834952096027164e-001	 9.005145982268335e+000
1	 8.101924877033535e-001	 7.924909663166712e-001	 8.707384184436162e+000
1	 8.013906047473510e-001	 8.013906047473510e-001	 8.411324747867422e+000
1	 7.924909663166713e-001	 8.101924877033534e-001	 8.117701392361379e+000
1	 7.834952096027162e-001	 8.188950137633202e-001	 7.827243993261687e+000
1	 7.744050065631813e-001	 8.274966182469704e-001	 7.540677780596245e+000
1	 7.652220628868780e-001	 8.359957741521834e-001	 7.258722546147398e+000
1	 7.559481169284781e-001	 8.443909930569481e-001	 6.982091859912549e+000
1	 8.642600576091790e-001	 7.737360635751406e-001	 1.020939083107736e+001
1	 8.556672937903875e-001	 7.832282314621443e-001	 9.919315377242434e+000
1	 8.469681472664187e-001	 7.926272557246766e-001	 9.627784006098493e+000
1	 8.381641414828237e-001	 8.019313571034474e-001	 9.335570045141441e+000
1	 8.292568393730803e-001	 8.111387897736772e-001	 9.043447065617562e+000
1	 8.202478424354156e-001	 8.202478424354154e-001	 8.752187987409370e+000
1	 8.111387897736770e-001	 8.292568393730803e-001	 8.462564184695586e+000
1	 8.019313571034478e-001	 8.381641414828240e-001	 8.175344594073899e+000
1	 7.926272557246764e-001	 8.469681472664185e-001	 7.891294826827650e+000
1	 7.832282314621443e-001	 8.556672937903874e-001	 7.611176287008761e+000
1	 7.737360635751404e-001	 8.642600576091787e-001	 7.335745296993773e+000
1	 8.841292115657057e-001	 7.915240902616486e-001	 1.042796006365676e+001
1	 8.753389019440514e-001	 8.012344810592407e-001	 1.014466727360680e+001
1	 8.664397639014685e-001	 8.108495868803437e-001	 9.859165028501488e+000
1	 8.574333559072089e-001	 8.203675875608653e-001	 9.572249735945682e+000
1	 8.483212768262674e-001	 8.297866971398730e-001	 9.284719586449731e+000
1	 8.391051649749869e-001	 8.391051649749869e-001	 8.997373596680367e+000
1	 8.297866971398730e-001	 8.483212768262672e-001	 8.711010650944598e+000
1	 8.203675875608647e-001	 8.574333559072087e-001	 8.426428542737089e+000
1	 8.108495868803441e-001	 8.664397639014688e-001	 8.144423018181294e+000
1	 8.012344810592408e-001	 8.753389019440514e-001	 7.865786823190467e+000
1	 7.915240902616488e-001	 8.841292115657058e-001	 7.591308756164735e+000
1	 9.039984201559549e-001	 8.093121658594877e-001	 1.055766388285765e+001
1	 8.950105641882689e-001	 8.192407801677287e-001	 1.027987205038646e+001
1	 8.859114340771768e-001	 8.290719681415687e-001	 9.999299184612189e+000
1	 8.767026233157251e-001	 8.388038687119999e-001	 9.716755659543187e+000
1	 8.673857667005268e-001	 8.484346557818302e-001	 9.433055062191340e+000
1	 8.579625393661392e-001	 8.579625393661392e-001	 9.149013191196531e+000
1	 8.484346557818305e-001	 8.673857667005271e-001	 8.865447051269737e+000
1	 8.388038687120000e-001	 8.767026233157254e-001	 8.583173845389410e+000
1	 8.290719681415686e-001	 8.859114340771765e-001	 8.303009966694784e+000
1	 8.192407801677285e-001	 8.950105641882691e-001	 8.025769992018546e+000
1	 8.093121658594878e-001	 9.039984201559550e-001	 7.752265678997664e+000
1	 9.238676486093538e-001	 8.271002592401421e-001	 1.059913097974476e+001
1	 9.146822460981339e-001	 8.372470972771690e-001	 1.032583298380149e+001
1	 9.053831237185985e-001	 8.472943676197365e-001	 1.004935825720642e+001
1	 8.959719099876236e-001	 8.572401682938835e-001	 9.770522705418511e+000
1	 8.864502756334715e-001	 8.670826330661203e-001	 9.490146772238280e+000
1	 8.768199326089481e-001	 8.768199326089481e-001	 9.209054410124125e+000
1	 8.670826330661202e-001	 8.864502756334713e-001	 8.928072044032737e+000
1	 8.572401682938836e-001	 8.959719099876237e-001	 8.648027530789298e+000
1	 8.472943676197366e-001	 9.053831237185989e-001	 8.369749116006457e+000
1	 8.372470972771690e-001	 9.146822460981339e-001	 8.094064390577241e+000
1	 8.271002592401424e-001	 9.238676486093539e-001	 7.821799248766435e+000
1	 9.437368621553292e-001	 8.448883392750972e-001	 1.055293641775741e+001
1	 9.343539132487400e-001	 8.552534008771232e-001	 1.028337659586797e+001
1	 9.248547987507910e-001	 8.655167534262337e-001	 1.001041466109230e+001
1	 9.152411822021542e-001	 8.756764540435483e-001	 9.734864236918247e+000
1	 9.055147702627122e-001	 8.857305963593138e-001	 9.457544709688456e+000
1	 8.956773117034881e-001	 8.956773117034879e-001	 9.179280186294651e+000
1	 8.857305963593135e-001	 9.055147702627118e-001	 8.900898443216343e+000
1	 8.756764540435483e-001	 9.152411822021546e-001	 8.623229868947348e+000
1	 8.655167534262336e-001	 9.248547987507910e-001	 8.347106401870487e+000
1	 8.552534008771232e-001	 9.343539132487404e-001	 8.073360465652870e+000
1	 8.448883392750972e-001	 9.437368621553289e-001	 7.802823904238837e+000
1	 6.670106737908847e-001	 7.450482283302943e-001	 3.594507597872829e+000
1	 6.587478301396494e-001	 7.523638511618765e-001	 3.307682697454388e+000
1	 6.504078186112842e-001	 7.595852159436007e-001	 3.032108313684644e+000
1	 6.419922549603809e-001	 7.667111160878266e-001	 2.767421378980640e+000
1	 6.335027797617576e-001	 7.737403819358266e-001	 2.513225439294117e+000
1	 6.249410573556360e-001	 7.806718813845673e-001	 2.269091879604630e+000
1	 6.163087747742402e-001	 7.875045204774029e-001	 2.034561199042334e+000
1	 6.076076406512597e-001	 7.942372439580682e-001	 1.809144332556033e+000
1	 5.988393841156297e-001	 8.008690357874089e-001	 1.592324015950213e+000
1	 5.900057536711102e-001	 8.073989196223580e-001	 1.383556191022479e+000
1	 5.811085160631598e-001	 8.138259592567366e-001	 1.182271447458359e+000
1	 6.847977533105903e-001	 7.649163243024477e-001	 4.504223420682720e+000
1	 6.763145655744852e-001	 7.724270318165427e-001	 4.223213329474363e+000
1	 6.677521521363645e-001	 7.798409677148591e-001	 3.951413035386110e+000
1	 6.591121718378921e-001	 7.871568932337911e-001	 3.688706925501176e+000
1	 6.503963090028354e-001	 7.943736075234261e-001	 3.434949282754535e+000
1	 6.416062723541127e-001	 8.014899482910342e-001	 3.189965084038456e+000
1	 6.327437939117713e-001	 8.085047924075214e-001	 2.953550844994727e+000
1	 6.238106278733668e-001	 8.154170564761906e-001	 2.725475509319972e+000
1	 6.148085494782432e-001	 8.222256973632529e-001	 2.505481380312417e+000
1	 6.057393538572367e-001	 8.289297126895776e-001	 2.293285092298346e+000
1	 5.966048548693305e-001	 8.355281412832460e-001	 2.088578619495646e+000
1	 7.025850685127173e-001	 7.847846835317627e-001	 5.292457655607413e+000
1	 6.938815337718784e-001	 7.924904783129741e-001	 5.015400891123610e+000
1	 6.850967154768765e-001	 8.000969878791007e-001	 4.745750901444136e+000
1	 6.762323155570231e-001	 8.076029412901697e-001	 4.483602242164372e+000
1	 6.672900620856199e-001	 8.150071065046909e-001	 4.229022516733134e+000
1	 6.582717081688777e-001	 8.223082910398660e-001	 3.982052803462763e+000
1	 6.491790308152675e-001	 8.295053425937875e-001	 3.742708126143988e+000
1	 6.400138297868191e-001	 8.365971496289766e-001	 3.510977966885918e+000
1	 6.307779264339032e-001	 8.435826419166744e-001	 3.286826819706496e+000
1	 6.214731625150546e-001	 8.504607910413643e-001	 3.070194783307476e+000
1	 6.121013990034108e-001	 8.572306108650805e-001	 2.860998191379602e+000
1	 7.203725882687513e-001	 8.046532712476668e-001	 5.964858251336635e+000
1	 7.114487039889692e-001	 8.125541555392345e-001	 5.690317613244188e+000
1	 7.024414782792146e-001	 8.203532409874392e-001	 5.421601533495253e+000
1	 6.933526561569472e-001	 8.280492244755902e-001	 5.158980305132233e+000
1	 6.841840094455125e-001	 8.356408427702823e-001	 4.902700300397065e+000
1	 6.749373356349260e-001	 8.431268731983186e-001	 4.652984080008222e+000
1	 6.656144567226071e-001	 8.505061342846643e-001	 4.410030542820494e+000
1	 6.562172180355884e-001	 8.577774863507547e-001	 4.174015115174591e+000
1	 6.467474870358031e-001	 8.649398320725701e-001	 3.945089979153071e+000
1	 6.372071521100242e-001	 8.719921169979257e-001	 3.723384338864215e+000
1	 6.275981213460913e-001	 8.789333300225430e-001	 3.509004723789065e+000
1	 7.381602814501764e-001	 8.245220526795862e-001	 6.526528677879400e+000
1	 7.290160454828978e-001	 8.326180283833887e-001	 6.253450353979943e+000
1	 7.197864101897744e-001	 8.406096915909893e-001	 5.984819914069749e+000
1	 7.104731636768403e-001	 8.484957070086823e-001	 5.721051537442868e+000
1	 7.010781215179122e-001	 8.562747802108590e-001	 5.462538402014369e+000
1	 6.916031255872529e-001	 8.639456583336480e-001	 5.209652526577897e+000
1	 6.820500428716689e-001	 8.715071307286159e-001	 4.962744650085139e+000
1	 6.724207642636472e-001	 8.789580295758553e-001	 4.722144147839617e+000
1	 6.627172033371349e-001	 8.862972304558358e-001	 4.488158984406272e+000
1	 6.529412951076056e-001	 8.935236528794698e-001	 4.261075702949171e+000
1	 6.430949947780623e-001	 9.006362607759364e-001	 4.041159450621229e+000
1	 7.559481169284781e-001	 8.443909930569481e-001	 6.982091859912549e+000
1	 7.465835275108046e-001	 8.526820617335015e-001	 6.709769342790738e+000
1	 7.371314808549523e-001	 8.608663042408662e-001	 6.440709749933617e+000
1	 7.275938081558755e-001	 8.689423531080758e-001	 6.175441632684763e+000
1	 7.179723687382209e-001	 8.769088827170829e-001	 5.914475356416128e+000
1	 7.082690488608531e-001	 8.847646100131094e-001	 5.658302724080826e+000
1	 6.984857605003324e-001	 8.925082951741054e-001	 5.407396633290028e+000
1	 6.886244401149672e-001	 9.001387422386068e-001	 5.162210767290699e+000
1	 6.786870473910929e-001	 9.076547996913688e-001	 4.923179320134379e+000
1	 6.686755639732592e-001	 9.150553610062054e-001	 4.690716756242632e+000
1	 6.585919921800143e-001	 9.223393651455637e-001	 4.465217604487151e+000
1	 7.737360635751404e-001	 8.642600576091787e-001	 7.335745296993771e+000
1	 7.641511193298297e-001	 8.727462204776373e-001	 7.063787448188044e+000
1	 7.544766599211421e-001	 8.811230434881837e-001	 6.794086722382847e+000
1	 7.447145596332284e-001	 8.893891269924004e-001	 6.527258650771083e+000
1	 7.348667215418384e-001	 8.975431141796132e-001	 6.263903297150732e+000
1	 7.249350762907216e-001	 9.055836918039592e-001	 6.004604708911032e+000
1	 7.149215808464765e-001	 9.135095908695964e-001	 5.749930397906431e+000
1	 7.048282172335211e-001	 9.213195872733393e-001	 5.500430851985715e+000
1	 6.946569912508702e-001	 9.290125024040665e-001	 5.256639077860794e+000
1	 6.844099311724451e-001	 9.365872036983388e-001	 5.019070175921188e+000
1	 6.740890864326371e-001	 9.440426051517269e-001	 4.788220947515330e+000
1	 7.915240902616488e-001	 8.841292115657058e-001	 7.591308756164736e+000
1	 7.817187901971133e-001	 8.928104695038603e-001	 7.319611458968510e+000
1	 7.718219170347404e-001	 9.013798738840566e-001	 7.049333214374739e+000
1	 7.618353881480726e-001	 9.098359928802852e-001	 6.781151072361351e+000
1	 7.517611503641647e-001	 9.181774384891093e-001	 6.515729243797697e+000
1	 7.416011787118532e-001	 9.264028672734520e-001	 6.253718423019416e+000
1	 7.313574751479801e-001	 9.345109810635528e-001	 5.995755136519139e+000
1	 7.210320672632805e-001	 9.425005276143821e-001	 5.742461118815977e+000
1	 7.106270069696604e-001	 9.503703012188259e-001	 5.494442716495637e+000
1	 7.001443691706238e-001	 9.581191432760791e-001	 5.252290321336269e+000
1	 6.895862504166215e-001	 9.657459428147289e-001	 5.016577833358127e+000
1	 8.093121658594878e-001	 9.039984201559550e-001	 7.752265678997665e+000
1	 7.992865093697956e-001	 9.128747737002357e-001	 7.480986606935256e+000
1	 7.891672218421421e-001	 9.216367599796003e-001	 7.210445825001099e+000
1	 7.789562637395834e-001	 9.302829149903599e-001	 6.941358202111629e+000
1	 7.686556256406014e-001	 9.388118195362331e-001	 6.674428312036779e+000
1	 7.582673269592434e-001	 9.472220999888442e-001	 6.410349669912463e+000
1	 7.477934146427221e-001	 9.555124290044386e-001	 6.149803990958725e+000
1	 7.372359618482176e-001	 9.636815261960642e-001	 5.893460472677834e+000
1	 7.265970666006560e-001	 9.717281587605431e-001	 5.641975101739103e+000
1	 7.158788504332554e-001	 9.796511420596339e-001	 5.395989986692674e+000
1	 7.050834570126574e-001	 9.874493401548725e-001	 5.156132717580854e+000
1	 8.271002592401424e-001	 9.238676486093539e-001	 7.821799248766434e+000
1	 8.168542461050162e-001	 9.329390979548276e-001	 7.551335347945297e+000
1	 8.065125439897430e-001	 9.418936663259283e-001	 7.281076756470604e+000
1	 7.960771564469348e-001	 9.507298575412534e-001	 7.011754071895971e+000
1	 7.855501178065477e-001	 9.594462212116431e-001	 6.744090061720931e+000
1	 7.749334918678870e-001	 9.680413535173917e-001	 6.478798854537391e+000
1	 7.642293705685817e-001	 9.765138979407164e-001	 6.216585149336845e+000
1	 7.534398726323051e-001	 9.848625459527152e-001	 5.958143444374730e+000
1	 7.425671421970508e-001	 9.930860376541151e-001	 5.704157286934231e+000
1	 7.316133474258006e-001	 1.001183162369211e+000	 5.455298545270911e+000
1	 7.205806791014349e-001	 1.009152759192461e+000	 5.212226703958953e+000
1	 8.448883392750972e-001	 9.437368621553289e-001	 7.802823904238837e+000
1	 8.344219696599167e-001	 9.530034071557008e-001	 7.533791246959473e+000
1	 8.238578531239381e-001	 9.621505574741556e-001	 7.264569976102318e+000
1	 8.131980363093013e-001	 9.711767847515960e-001	 6.995885801372114e+000
1	 8.024445972974045e-001	 9.800806074060000e-001	 6.728458993637825e+000
1	 7.915996442727785e-001	 9.888605914263495e-001	 6.463003569898811e+000
1	 7.806653141634374e-001	 9.975153511208504e-001	 6.200226492229240e+000
1	 7.696437712595143e-001	 1.006043549818665e+000	 5.940826882139942e+000
1	 7.585372058120381e-001	 1.014443900524439e+000	 5.685495251750018e+000
1	 7.473478326137194e-001	 1.022715166525019e+000	 5.434912753112303e+000
1	 7.360778895636446e-001	 1.030856161947795e+000	 5.189750446983505e+000
1	 5.811085160631598e-001	 8.138259592567366e-001	 1.182271447458359e+000
1	 5.721494549410069e-001	 8.201492587923700e-001	 9.882979487756968e-001
1	 5.631303691352768e-001	 8.263679623034137e-001	 8.022532141869606e-001
1	 5.540530720989082e-001	 8.324812548450976e-001	 6.247177078864631e-001
1	 5.449193909360233e-001	 8.384883629704416e-001	 4.562499687673841e-001
1	 5.357311652289508e-001	 8.443885549780590e-001	 2.973859503796019e-001
1	 5.264902458615941e-001	 8.501811411206632e-001	 1.486384035835854e-001
1	 5.171984938406530e-001	 8.558654737743153e-001	 1.049630273877338e-002
1	 5.078577791162044e-001	 8.614409475685220e-001	-1.165756838532488e-001
1	 4.984699794031350e-001	 8.669069994773565e-001	-2.321376786389106e-001
1	 4.890369790048946e-001	 8.722631088718381e-001	-3.357750341524989e-001
1	 5.966048548693305e-001	 8.355281412832460e-001	 2.088578619495646e+000
1	 5.874068837280612e-001	 8.420200633552515e-001	 1.891506152720723e+000
1	 5.781472872332619e-001	 8.484046001549332e-001	 1.702648294049794e+000
1	 5.688279271970236e-001	 8.546809150055600e-001	 1.522317337245654e+000
1	 5.594506794466541e-001	 8.608482138348056e-001	 1.350803496220929e+000
1	 5.500174326204225e-001	 8.669057454291612e-001	 1.188374712546772e+000
1	 5.405300869595506e-001	 8.728528016480037e-001	 1.035276501295161e+000
1	 5.309905530979980e-001	 8.786887175973518e-001	 8.917318351279853e-001
1	 5.214007508515943e-001	 8.844128717634381e-001	 7.579410664520184e-001
1	 5.117626080080407e-001	 8.900246861062580e-001	 6.340818873713671e-001
1	 5.020780591192976e-001	 8.955236261133456e-001	 5.203093270768030e-001
1	 6.121013990034108e-001	 8.572306108650805e-001	 2.860998191379602e+000
1	 6.026645146774508e-001	 8.638911577076851e-001	 2.659605998292734e+000
1	 5.931644043068414e-001	 8.704415299933851e-001	 2.466540366469251e+000
1	 5.836029780634551e-001	 8.768808693131815e-001	 2.281913266653102e+000
1	 5.739821604984206e-001	 8.832083609691114e-001	 2.105814451228348e+000
1	 5.643038893065867e-001	 8.894232342352666e-001	 1.938311623426370e+000
1	 5.545701140871351e-001	 8.955247625774229e-001	 1.779450641530955e+000
1	 5.447827951019328e-001	 9.015122638313119e-001	 1.629255757272462e+000
1	 5.349439020332116e-001	 9.073851003396593e-001	 1.487729887526909e+000
1	 5.250554127421397e-001	 9.131426790481644e-001	 1.354854918366564e+000
1	 5.151193120298434e-001	 9.187844515606746e-001	 1.230592040439098e+000
1	 6.275981213460913e-001	 8.789333300225430e-001	 3.509004723789065e+000
1	 6.179223210879753e-001	 8.857625035748911e-001	 3.302464027910919e+000
1	 6.081816940757200e-001	 8.924787132537714e-001	 3.104209727248027e+000
1	 5.983781988415263e-001	 8.990810789176523e-001	 2.914216423760398e+000
1	 5.885138086608936e-001	 9.055687652426796e-001	 2.732436381276689e+000
1	 5.785905102858034e-001	 9.119409819903062e-001	 2.558799955440649e+000
1	 5.686103026739566e-001	 9.181969842324796e-001	 2.393216056299651e+000
1	 5.585751957156880e-001	 9.243360725344287e-001	 2.235572642199544e+000
1	 5.484872089601938e-001	 9.303575930951712e-001	 2.085737243589276e+000
1	 5.383483703426760e-001	 9.362609378459221e-001	 1.943557515281231e+000
1	 5.281607149139947e-001	 9.420455445066668e-001	 1.808861815663224e+000
1	 6.430949947780623e-001	 9.006362607759364e-001	 4.041159450621229e+000
1	 6.331802762584339e-001	 9.076340626820887e-001	 3.828995670752826e+000
1	 6.231991302596035e-001	 9.145161113710947e-001	 3.624945673750324e+000
1	 6.131535636745613e-001	 9.212815049686620e-001	 3.428905225713390e+000
1	 6.030455985036434e-001	 9.279293875248309e-001	 3.240747656016449e+000
1	 5.928772705564346e-001	 9.344589492882121e-001	 3.060324451455576e+000
1	 5.826506281496252e-001	 9.408694269367316e-001	 2.887465881619575e+000
1	 5.723677308024933e-001	 9.471601037649344e-001	 2.721981653810508e+000
1	 5.620306479316777e-001	 9.533303098279593e-001	 2.563661595787043e+000
1	 5.516414575468932e-001	 9.593794220423780e-001	 2.412276364556100e+000
1	 5.412022449492145e-001	 9.653068642441643e-001	 2.267578179397418e+000
1	 6.585919921800143e-001	 9.223393651455637e-001	 4.465217604487151e+000
1	 6.484383534876271e-001	 9.295057967545003e-001	 4.247277013132113e+000
1	 6.382166865781973e-001	 9.365536857803575e-001	 4.037162966888118e+000
1	 6.279290467058838e-001	 9.434821086159000e-001	 3.834746924036214e+000
1	 6.175775045962408e-001	 9.502901886848859e-001	 3.639877830924339e+000
1	 6.071641451168404e-001	 9.569770967229155e-001	 3.452382787781779e+000
1	 5.966910659437502e-001	 9.635420510137375e-001	 3.272067745236933e+000
1	 5.861603762255796e-001	 9.699843175810625e-001	 3.098718229709518e+000
1	 5.755741952468013e-001	 9.763032103360099e-001	 2.932100095796331e+000
1	 5.649346510920354e-001	 9.824980911803787e-001	 2.771960303726923e+000
1	 5.542438793129650e-001	 9.885683700660078e-001	 2.618027719929347e+000
1	 6.740890864326371e-001	 9.440426051517269e-001	 4.788220947515330e+000
1	 6.636965260743544e-001	 9.513776675173450e-001	 4.564641161462107e+000
1	 6.532343367512071e-001	 9.585913979165628e-001	 4.348502238961255e+000
1	 6.427046220788175e-001	 9.656828510090558e-001	 4.139702222266784e+000
1	 6.321095015082566e-001	 9.726511295921652e-001	 3.938116591885179e+000
1	 6.214511089653824e-001	 9.794953848883493e-001	 3.743598915157232e+000
1	 6.107315914859413e-001	 9.862148167870557e-001	 3.555981525889687e+000
1	 5.999531078481774e-001	 9.928086740410452e-001	 3.375076233224026e+000
1	 5.891178272047021e-001	 9.992762544173094e-001	 3.200675057881513e+000
1	 5.782279277153465e-001	 1.005616904802770e+000	 3.032550993876979e+000
1	 5.672855951827097e-001	 1.011830021265040e+000	 2.870458793756715e+000
1	 6.895862504166215e-001	 9.657459428147289e-001	 5.016577833358127e+000
1	 6.789547673174153e-001	 9.732496366958434e-001	 4.787761620028029e+000
1	 6.682520544983374e-001	 9.806292092147124e-001	 4.565916871246437e+000
1	 6.574802639366865e-001	 9.878836932978199e-001	 4.351015796059911e+000
1	 6.466415638092610e-001	 9.950121711159885e-001	 4.143008019171512e+000
1	 6.357381371004210e-001	 1.002013774378445e+000	 3.941821126699756e+000
1	 6.247721802058078e-001	 1.008887684580245e+000	 3.747361244165283e+000
1	 6.137459015335171e-001	 1.015633133203115e+000	 3.559513645081945e+000
1	 6.026615201045172e-001	 1.022249401869843e+000	 3.378143388474723e+000
1	 5.915212641540699e-001	 1.028735822452400e+000	 3.203095983594091e+000
1	 5.803273697359112e-001	 1.035091777134104e+000	 3.034198080054176e+000
1	 7.050834570126574e-001	 9.874493401548725e-001	 5.156132717580854e+000
1	 6.942130505156096e-001	 9.951216660152163e-001	 4.922724680146258e+000
1	 6.832698135392946e-001	 1.002667081109809e+000	 4.695748421722517e+000
1	 6.722559464228139e-001	 1.010084596631881e+000	 4.475294883368074e+000
1	 6.611736660688249e-001	 1.017373274125678e+000	 4.261432428085709e+000
1	 6.500252045203178e-001	 1.024532225787134e+000	 4.054207201184544e+000
1	 6.388128075329590e-001	 1.031560614716861e+000	 3.853643524850742e+000
1	 6.275387331448292e-001	 1.038457655125505e+000	 3.659744325660159e+000
1	 6.162052502453843e-001	 1.045222612491598e+000	 3.472491593697086e+000
1	 6.048146371454500e-001	 1.051854803672116e+000	 3.291846871883971e+000
1	 5.933691801500317e-001	 1.058353596966040e+000	 3.117751774071059e+000
1	 7.205806791014349e-001	 1.009152759192461e+000	 5.212226703958953e+000
1	 7.094713489677368e-001	 1.016993717200683e+000	 4.975092473985380e+000
1	 6.982875875937835e-001	 1.024704975036855e+000	 4.743792325602803e+000
1	 6.870316436805243e-001	 1.032285522160929e+000	 4.518577739597848e+000
1	 6.757057828565186e-001	 1.039734399490552e+000	 4.299677655396050e+000
1	 6.643122862234333e-001	 1.047050699708348e+000	 4.087298566207050e+000
1	 6.528534488970051e-001	 1.054233567520466e+000	 3.881624651140006e+000
1	 6.413315785453437e-001	 1.061282199866449e+000	 3.682817943533915e+000
1	 6.297489939264407e-001	 1.068195846080558e+000	 3.491018534669609e+000
1	 6.181080234267304e-001	 1.074973808004762e+000	 3.306344811952984e+000
1	 6.064110036025345e-001	 1.081615440053690e+000	 3.128893730586817e+000
1	 7.360778895636446e-001	 1.030856161947795e+000	 5.189750446983505e+000
1	 7.247296359725970e-001	 1.038865751977465e+000	 4.949958068028082e+000
1	 7.133053503815099e-001	 1.046742852430853e+000	 4.715355301368943e+000
1	 7.018073298531414e-001	 1.054486431034654e+000	 4.486393450505806e+000
1	 6.902378887419132e-001	 1.062095508079932e+000	 4.263501346071966e+000
1	 6.785993572081287e-001	 1.069569156736019e+000	 4.047085098467623e+000
1	 6.668940797275553e-001	 1.076906503314615e+000	 3.837527890977100e+000
1	 6.551244135982919e-001	 1.084106727484178e+000	 3.635189813285454e+000
1	 6.432927274468238e-001	 1.091169062434711e+000	 3.440407735213533e+000
1	 6.314013997351549e-001	 1.098092794993187e+000	 3.253495220394352e+000
1	 6.194528172708822e-001	 1.104877265689896e+000	 3.074742479520024e+000
1	 4.890369790048946e-001	 8.722631088718381e-001	-3.357750341524985e-001
1	 4.795620922583881e-001	 8.775080191404551e-001	-4.279681236700018e-001
1	 4.700458011791232e-001	 8.826421068707412e-001	-5.097065406503138e-001
1	 4.604900024760815e-001	 8.876649794392211e-001	-5.813273538852550e-001
1	 4.508965947721494e-001	 8.925762864264075e-001	-6.431837740878021e-001
1	 4.412674774614076e-001	 8.973757194803049e-001	-6.956442945829051e-001
1	 4.316045495771122e-001	 9.020630121438827e-001	-7.390918194529857e-001
1	 4.219097086716463e-001	 9.066379396471509e-001	-7.739227811084350e-001
1	 4.121848497096857e-001	 9.111003186645378e-001	-8.005462492442672e-001
1	 4.024318639757797e-001	 9.154500070382965e-001	-8.193830331308213e-001
1	 3.926526379975132e-001	 9.196869034687285e-001	-8.308647791628587e-001
1	 5.020780591192976e-001	 8.955236261133456e-001	 5.203093270768030e-001
1	 4.923505069052577e-001	 9.009084016633495e-001	 4.160610759549251e-001
1	 4.825804462352116e-001	 9.061793993862045e-001	 3.205432188000391e-001
1	 4.727698243973318e-001	 9.113362161883821e-001	 2.335835882140240e-001
1	 4.629205906447350e-001	 9.163784923057907e-001	 1.549948503883951e-001
1	 4.530346950222971e-001	 9.213059111636405e-001	 8.457508261506479e-002
1	 4.431140872044483e-001	 9.261181991993087e-001	 2.210836621059563e-002
1	 4.331607153452562e-001	 9.308151256488805e-001	-3.263460659593585e-002
1	 4.231765249420750e-001	 9.353965022980483e-001	-7.989591326927610e-002
1	 4.131634577139968e-001	 9.398621831981483e-001	-1.199297705290971e-001
1	 4.031234504962961e-001	 9.442120643481219e-001	-1.530018943286026e-001
1	 5.151193120298434e-001	 9.187844515606746e-001	 1.230592040439096e+000
1	 5.051390910003677e-001	 9.243090942455401e-001	 1.114358849705287e+000
1	 4.951152573769660e-001	 9.297170037752285e-001	 1.005558632028654e+000
1	 4.850498090276871e-001	 9.350077665860251e-001	 9.041585486099364e-001
1	 4.749447458365615e-001	 9.401810135691118e-001	 8.101110257501968e-001
1	 4.648020684999469e-001	 9.452364199267955e-001	 7.233540942945507e-001
1	 4.546237773341318e-001	 9.501737049907746e-001	 6.438117475912960e-001
1	 4.444118710955525e-001	 9.549926320031293e-001	 5.713943169485783e-001
1	 4.341683458149260e-001	 9.596930078607578e-001	 5.059988635465705e-001
1	 4.238951936465678e-001	 9.642746828240306e-001	 4.475095857416324e-001
1	 4.135944017341220e-001	 9.687375501904937e-001	 3.957982406815546e-001
1	 5.281607149139947e-001	 9.420455445066668e-001	 1.808861815663225e+000
1	 5.179278221633582e-001	 9.477100559350589e-001	 1.681096424685362e+000
1	 5.076502126681389e-001	 9.532548788462153e-001	 1.559854873736478e+000
1	 4.973299348768570e-001	 9.586795892061151e-001	 1.445220045584962e+000
1	 4.869690393050531e-001	 9.639838085611113e-001	 1.337259995927955e+000
1	 4.765695773011600e-001	 9.691672038905160e-001	 1.236028096342655e+000
1	 4.661335998239208e-001	 9.742294874202679e-001	 1.141563199091111e+000
1	 4.556631562327353e-001	 9.791704163983791e-001	 1.053889823106975e+000
1	 4.451602930922763e-001	 9.839897928328978e-001	 9.730183604511264e-001
1	 4.346270529926761e-001	 9.886874631931889e-001	 8.989453024877735e-001
1	 4.240654733865391e-001	 9.932633180753756e-001	 8.316534849983674e-001
1	 5.412022449492145e-001	 9.653068642441643e-001	 2.267578179397420e+000
1	 5.307166780138688e-001	 9.711112457799381e-001	 2.129078978521720e+000
1	 5.201852901724832e-001	 9.767929834075642e-001	 1.996547922188098e+000
1	 5.096101804545524e-001	 9.823516426226164e-001	 1.870161783971856e+000
1	 4.989934500076330e-001	 9.877868356265306e-001	 1.750081912877601e+000
1	 4.883372008327391e-001	 9.930982211755457e-001	 1.636454219425566e+000
1	 4.776435345315740e-001	 9.982855043897769e-001	 1.529409187167065e+000
1	 4.669145510670052e-001	 1.003348436523110e+000	 1.429061909218909e+000
1	 4.561523475381651e-001	 1.008286814694700e+000	 1.335512149352114e+000
1	 4.453590169715064e-001	 1.013100481582870e+000	 1.248844427121464e+000
1	 4.345366471290956e-001	 1.017789325082299e+000	 1.169128126471100e+000
1	 5.542438793129650e-001	 9.885683700660078e-001	 2.618027719929347e+000
1	 5.435056361715400e-001	 9.945126228282096e-001	 2.469906222269443e+000
1	 5.327204679537508e-001	 1.000331276267676e+000	 2.327519043221831e+000
1	 5.218905242704836e-001	 1.006023885409494e+000	 2.191116625453366e+000
1	 5.110179569017254e-001	 1.011590053110111e+000	 2.060932900854700e+000
1	 5.001049185014881e-001	 1.017029429902632e+000	 1.937185157626866e+000
1	 4.891535613148496e-001	 1.022341713801290e+000	 1.820073936608175e+000
1	 4.781660359085612e-001	 1.027526650065803e+000	 1.709782956614643e+000
1	 4.671444899166303e-001	 1.032584030926394e+000	 1.606479068498559e+000
1	 4.560910668022425e-001	 1.037513695270321e+000	 1.510312237567638e+000
1	 4.450079046373392e-001	 1.042315528290796e+000	 1.421415553945581e+000
1	 5.672855951827097e-001	 1.011830021265040e+000	 2.870458793756717e+000
1	 5.562946742560117e-001	 1.017914146127906e+000	 2.714110847154944e+000
1	 5.452557240756947e-001	 1.023869716234950e+000	 2.563556600334397e+000
1	 5.341709448343607e-001	 1.029696276140713e+000	 2.419101404355918e+000
1	 5.230425389447537e-001	 1.035393419356594e+000	 2.281032539682188e+000
1	 5.118727097142094e-001	 1.040960788192517e+000	 2.149619000528107e+000
1	 5.006636600315061e-001	 1.046398073556794e+000	 2.025111312499654e+000
1	 4.894175910676042e-001	 1.051705014714938e+000	 1.907741383400235e+000
1	 4.781367009917106e-001	 1.056881399008212e+000	 1.797722387003465e+000
1	 4.668231837040688e-001	 1.061927061532788e+000	 1.695248679517050e+000
1	 4.554792275868185e-001	 1.066841884780397e+000	 1.600495748385958e+000
1	 5.803273697359112e-001	 1.035091777134104e+000	 3.034198080054177e+000
1	 5.690837698869242e-001	 1.041315774727058e+000	 2.871278315216626e+000
1	 5.577910366020671e-001	 1.047408262117787e+000	 2.714478755442445e+000
1	 5.464514206558939e-001	 1.053368773390236e+000	 2.564142229091982e+000
1	 5.350671750941420e-001	 1.059196892710721e+000	 2.420591474216865e+000
1	 5.236405538777063e-001	 1.064892254165948e+000	 2.284128874980139e+000
1	 5.121738105393017e-001	 1.070454541558278e+000	 2.155036235650706e+000
1	 5.006691968543336e-001	 1.075883488158995e+000	 2.033574592082254e+000
1	 4.891289615274445e-001	 1.081178876420385e+000	 1.919984060496448e+000
1	 4.775553488961694e-001	 1.086340537647517e+000	 1.814483723303987e+000
1	 4.659505976530813e-001	 1.091368351630633e+000	 1.717271551610075e+000
1	 5.933691801500317e-001	 1.058353596966040e+000	 3.117751774071059e+000
1	 5.818729006839174e-001	 1.064717467673700e+000	 2.950150862371066e+000
1	 5.703263835966207e-001	 1.070946872724587e+000	 2.789239998537005e+000
1	 5.587319302447942e-001	 1.077041335732030e+000	 2.635383269744810e+000
1	 5.470918443073142e-001	 1.083000431517234e+000	 2.488922205777242e+000
1	 5.354084303987815e-001	 1.088823785943670e+000	 2.350175500991311e+000
1	 5.236839926959950e-001	 1.094511075707730e+000	 2.219438778383712e+000
1	 5.119208335789500e-001	 1.100062028086456e+000	 2.096984395622662e+000
1	 5.001212522878700e-001	 1.105476420643145e+000	 1.983061292816782e+000
1	 4.882875435977285e-001	 1.110754080891756e+000	 1.877894881692415e+000
1	 4.764219965116759e-001	 1.115894885921038e+000	 1.781686975756292e+000
1	 6.064110036025345e-001	 1.081615440053690e+000	 3.128893730586818e+000
1	 5.946620442666316e-001	 1.088119184015863e+000	 2.958718089201563e+000
1	 5.828617431231078e-001	 1.094485506863751e+000	 2.796023939230845e+000
1	 5.710124521107711e-001	 1.100713921740057e+000	 2.641181516362322e+000
1	 5.591165255416937e-001	 1.106803994120874e+000	 2.494535595864616e+000
1	 5.471763186842386e-001	 1.112755341646426e+000	 2.356405232365085e+000
1	 5.351941863593440e-001	 1.118567633907137e+000	 2.227083546487247e+000
1	 5.231724815516528e-001	 1.124240592185799e+000	 2.106837558105430e+000
1	 5.111135540370255e-001	 1.129773989156722e+000	 1.995908065866943e+000
1	 4.990197490279300e-001	 1.135167648542750e+000	 1.894509572524557e+000
1	 4.868934058381502e-001	 1.140421444731140e+000	 1.802830255518516e+000
1	 6.194528172708822e-001	 1.104877265689896e+000	 3.074742479520022e+000
1	 6.074511782547066e-001	 1.111520882801578e+000	 2.904296114932540e+000
1	 5.953970932452810e-001	 1.118024123343679e+000	 2.742324383652638e+000
1	 5.832929647635355e-001	 1.124386489988285e+000	 2.589189574303074e+000
1	 5.711411977547047e-001	 1.130607538866382e+000	 2.445225186582032e+000
1	 5.589441981408803e-001	 1.136686879394963e+000	 2.310735720004248e+000
1	 5.467043713871074e-001	 1.142624174058487e+000	 2.185996514499598e+000
1	 5.344241210826425e-001	 1.148419138145507e+000	 2.071253642451185e+000
1	 5.221058475389497e-001	 1.154071539441348e+000	 1.966723851633252e+000
1	 5.097519464059584e-001	 1.159581197877748e+000	 1.872594558399225e+000
1	 4.973648073080526e-001	 1.164947985140473e+000	 1.789023890353641e+000
1	 3.926526379975132e-001	 9.196869034687285e-001	-8.308647791628601e-001
1	 3.828475801467559e-001	 9.238115574925391e-001	-8.349836854878795e-001
1	 3.730200306188907e-001	 9.278233049990166e-001	-8.317240587102215e-001
1	 3.631718566724362e-001	 9.317221658209343e-001	-8.215328816982501e-001
1	 3.533049166519174e-001	 9.355081991183117e-001	-8.048776094460481e-001
1	 3.434210590039752e-001	 9.391815029145867e-001	-7.822450622533540e-001
1	 3.335221213151299e-001	 9.427422136050959e-001	-7.541403063040575e-001
1	 3.236099293720238e-001	 9.461905054388913e-001	-7.210855241209404e-001
1	 3.136862962449284e-001	 9.495265899749484e-001	-6.836188773378474e-001
1	 3.037530213952426e-001	 9.527507155138413e-001	-6.422933641952252e-001
1	 2.938118898076575e-001	 9.558631665059840e-001	-5.976756741268232e-001
1	 4.031234504962961e-001	 9.442120643481219e-001	-1.530018943286013e-001
1	 3.930569225507894e-001	 9.484467099390739e-001	-1.792909555147974e-001
1	 3.829673031454391e-001	 9.525654381505309e-001	-1.990110651778471e-001
1	 3.728565093327699e-001	 9.565682693441295e-001	-2.125170125287377e-001
1	 3.627264490136036e-001	 9.604552642574867e-001	-2.201819370399499e-001
1	 3.525790199269324e-001	 9.642265235280020e-001	-2.223963909230817e-001
1	 3.424161086620217e-001	 9.678821871882344e-001	-2.195673893391361e-001
1	 3.322395896935920e-001	 9.714224341338947e-001	-2.121174504810735e-001
1	 3.220513244408869e-001	 9.748474815655585e-001	-2.004836276368714e-001
1	 3.118531603513708e-001	 9.781575844051822e-001	-1.851165353237004e-001
1	 3.016469300097510e-001	 9.813530346885655e-001	-1.664793715428966e-001
1	 4.135944017341220e-001	 9.687375501904937e-001	 3.957982406815546e-001
1	 4.032664002295056e-001	 9.730821888058526e-001	 3.505521173064133e-001
1	 3.929147074744283e-001	 9.773078991396467e-001	 3.113866587124513e-001
1	 3.825412903160629e-001	 9.814147020823927e-001	 2.780218210177392e-001
1	 3.721481062121691e-001	 9.854026599493362e-001	 2.501606033588442e-001
1	 3.617371021947264e-001	 9.892718759918838e-001	 2.274898520150245e-001
1	 3.513102138563777e-001	 9.930224938798731e-001	 2.096810769943506e-001
1	 3.408693643605511e-001	 9.966546971557493e-001	 1.963912792028149e-001
1	 3.304164634760866e-001	 1.000168708661771e+000	 1.872637863314523e-001
1	 3.199534066371332e-001	 1.003564789941372e+000	 1.819290956194706e-001
1	 3.094820740290298e-001	 1.006843240615851e+000	 1.800057216759111e-001
1	 4.240654733865391e-001	 9.932633180753756e-001	 8.316534849983680e-001
1	 4.134759953160149e-001	 9.977179509799360e-001	 7.707347199815198e-001
1	 4.028622261975744e-001	 1.002050644666225e+000	 7.156788953019797e-001
1	 3.922261826735969e-001	 1.006261420553655e+000	 6.662645038893406e-001
1	 3.815698717593334e-001	 1.010350342535127e+000	 6.222537813430624e-001
1	 3.708952897803031e-001	 1.014317516476094e+000	 5.833934108828053e-001
1	 3.602044213330747e-001	 1.018163089683721e+000	 5.494152414670469e-001
1	 3.494992382703296e-001	 1.021887250347247e+000	 5.200370173788700e-001
1	 3.387816987110449e-001	 1.025490226950689e+000	 4.949631175898694e-001
1	 3.280537460765928e-001	 1.028972287659046e+000	 4.738853032244128e-001
1	 3.173173081534751e-001	 1.032333739679205e+000	 4.564834714692830e-001
1	 4.345366471290956e-001	 1.017789325082299e+000	 1.169128126471099e+000
1	 4.236856899434281e-001	 1.022353953348383e+000	 1.095885613154540e+000
1	 4.128098419065946e-001	 1.026793631430127e+000	 1.028513036659970e+000
1	 4.019111694566532e-001	 1.031108381275849e+000	 9.668323384741629e-001
1	 3.909917291668158e-001	 1.035298268356127e+000	 9.106492403610038e-001
1	 3.800535666566078e-001	 1.039363401150493e+000	 8.597538828469519e-001
1	 3.690987155269896e-001	 1.043303930603482e+000	 8.139214780754320e-001
1	 3.581291963203556e-001	 1.047120049551180e+000	 7.729129754342564e-001
1	 3.471470155062800e-001	 1.050811992119419e+000	 7.364757383645759e-001
1	 3.361541644938117e-001	 1.054380033094837e+000	 7.043442307706854e-001
1	 3.251526186710684e-001	 1.057824487269988e+000	 6.762407114609540e-001
1	 4.450079046373392e-001	 1.042315528290796e+000	 1.421415553945582e+000
1	 4.338954662448556e-001	 1.046990152798254e+000	 1.339256614678628e+000
1	 4.227575371932061e-001	 1.051536816131212e+000	 1.263157804357669e+000
1	 4.115962337165132e-001	 1.055955540766905e+000	 1.192970439536401e+000
1	 4.004136619463352e-001	 1.060246393753604e+000	 1.128529021214322e+000
1	 3.892119167965862e-001	 1.064409486184943e+000	 1.069651838195109e+000
1	 3.779930808729983e-001	 1.068444972642865e+000	 1.016141586494429e+000
1	 3.667592234080574e-001	 1.072353050610339e+000	 9.677860032332968e-001
1	 3.555123992223092e-001	 1.076133959855069e+000	 9.243585134545461e-001
1	 3.442546477128529e-001	 1.079787981785380e+000	 8.856188883057413e-001
1	 3.329879918697909e-001	 1.083315438779565e+000	 8.513139130375076e-001
1	 4.554792275868185e-001	 1.066841884780397e+000	 1.600495748385958e+000
1	 4.441053063534077e-001	 1.071626506216606e+000	 1.512880790194180e+000
1	 4.327052946491253e-001	 1.076280155469341e+000	 1.431661643690599e+000
1	 4.212813585044584e-001	 1.080802855544754e+000	 1.356705848378822e+000
1	 4.098356536096108e-001	 1.085194675068824e+000	 1.287862924908599e+000
1	 3.983703241731844e-001	 1.089455727749307e+000	 1.224964973400067e+000
1	 3.868875018059778e-001	 1.093586171805575e+000	 1.167827289962633e+000
1	 3.753893044308633e-001	 1.097586209367518e+000	 1.116248999809578e+000
1	 3.638778352196507e-001	 1.101456085844741e+000	 1.070013705366402e+000
1	 3.523551815577790e-001	 1.105196089267309e+000	 1.028890147769951e+000
1	 3.408234140376239e-001	 1.108806549599300e+000	 9.926328801613084e-001
1	 4.659505976530813e-001	 1.091368351630633e+000	 1.717271551610075e+000
1	 4.543151924021956e-001	 1.096262970490503e+000	 1.627709327067053e+000
1	 4.426530968660690e-001	 1.101023606144375e+000	 1.544989773818960e+000
1	 4.309665268717702e-001	 1.105650282127328e+000	 1.468984340662942e+000
1	 4.192576876683623e-001	 1.110143068643055e+000	 1.399544670404482e+000
1	 4.075287727593477e-001	 1.114502082013446e+000	 1.336503222106033e+000
1	 3.957819627608041e-001	 1.118727484095320e+000	 1.279673914130522e+000
1	 3.840194242862013e-001	 1.122819481665506e+000	 1.228852786277227e+000
1	 3.722433088588219e-001	 1.126778325775542e+000	 1.183818679301685e+000
1	 3.604557518526529e-001	 1.130604311077259e+000	 1.144333930106761e+000
1	 3.486588714625483e-001	 1.134297775120553e+000	 1.110145080894433e+000
1	 4.764219965116759e-001	 1.115894885921038e+000	 1.781686975756292e+000
1	 4.645251065243294e-001	 1.120899502507003e+000	 1.693730369297357e+000
1	 4.526009264357542e-001	 1.125767124856174e+000	 1.613143175657517e+000
1	 4.406517218697297e-001	 1.130497777032559e+000	 1.539789203915651e+000
1	 4.286797476343086e-001	 1.135091530817564e+000	 1.473510107729341e+000
1	 4.166872465280216e-001	 1.139548505147221e+000	 1.414126059433082e+000
1	 4.046764481723542e-001	 1.143868865515805e+000	 1.361436447974582e+000
1	 3.926495678715000e-001	 1.148052823347096e+000	 1.315220598818369e+000
1	 3.806088055003410e-001	 1.152100635334577e+000	 1.275238513937637e+000
1	 3.685563444215369e-001	 1.156012602751862e+000	 1.241231630006304e+000
1	 3.564943504325456e-001	 1.159789070734689e+000	 1.212923592905336e+000
1	 4.868934058381502e-001	 1.140421444731140e+000	 1.802830255518516e+000
1	 4.747350308529195e-001	 1.145536059153163e+000	 1.720072527436287e+000
1	 4.625487659498976e-001	 1.150510668304600e+000	 1.645262235044938e+000
1	 4.503369265496188e-001	 1.155345296778378e+000	 1.578244697446947e+000
1	 4.381018170191691e-001	 1.160040017933618e+000	 1.518840186286832e+000
1	 4.258457294521522e-001	 1.164594953320496e+000	 1.466844678680441e+000
1	 4.135709424755044e-001	 1.169010272070738e+000	 1.422030637457939e+000
1	 4.012797200841874e-001	 1.173286190255080e+000	 1.384147816619240e+000
1	 3.889743105047253e-001	 1.177422970208952e+000	 1.352924089888333e+000
1	 3.766569450884943e-001	 1.181420919827755e+000	 1.328066300242695e+000
1	 3.643298372355972e-001	 1.185280391833070e+000	 1.309261128292392e+000
1	 4.973648073080526e-001	 1.164947985140473e+000	 1.789023890353640e+000
1	 4.849449475210769e-001	 1.170172597316046e+000	 1.715095320694806e+000
1	 4.724965980002161e-001	 1.175254193189512e+000	 1.649717301284095e+000
1	 4.600221239627185e-001	 1.180192797882715e+000	 1.592706450774487e+000
1	 4.475238793346627e-001	 1.184988486332486e+000	 1.543850923737507e+000
1	 4.350042055046847e-001	 1.189641382703130e+000	 1.502911268540019e+000
1	 4.224654301051314e-001	 1.194151659763825e+000	 1.469621316434315e+000
1	 4.099098658216919e-001	 1.198519538232249e+000	 1.443689099468799e+000
1	 3.973398092324927e-001	 1.202745286085772e+000	 1.424797794808382e+000
1	 3.847575396775870e-001	 1.206829217841571e+000	 1.412606693044904e+000
1	 3.721653181596841e-001	 1.210771693807061e+000	 1.406752188075035e+000
1	 2.938118898076575e-001	 9.558631665059840e-001	-5.976756741268232e-001
1	 2.838646710056857e-001	 9.588642626988490e-001	-5.502439599702003e-001
1	 2.739131178235836e-001	 9.617543577873683e-001	-5.004120740703908e-001
1	 2.639589660669879e-001	 9.645338394785438e-001	-4.486621761176294e-001
1	 2.540039338948808e-001	 9.672031290579124e-001	-3.954789008627102e-001
1	 2.440497210832210e-001	 9.697626806991601e-001	-3.413485621506408e-001
1	 2.340980083161345e-001	 9.722129807570793e-001	-2.867583708869338e-001
1	 2.241504565049763e-001	 9.745545470450379e-001	-2.321956681190939e-001
1	 2.142087061355221e-001	 9.767879280981019e-001	-1.781471743536121e-001
1	 2.042743766435053e-001	 9.789137024229727e-001	-1.250982561585967e-001
1	 1.943490658186562e-001	 9.809324777358748e-001	-7.353221103463435e-002
1	 3.016469300097510e-001	 9.813530346885655e-001	-1.664793715428966e-001
1	 2.914344501272309e-001	 9.844341606898324e-001	-1.447398748330875e-001
1	 2.812175202806164e-001	 9.874013255358588e-001	-1.200371745815113e-001
1	 2.709979225639717e-001	 9.902549272725887e-001	-9.280397804524501e-002
1	 2.607774209541256e-001	 9.929953984199387e-001	-6.347713367368567e-002
1	 2.505577605546663e-001	 9.956232052629931e-001	-3.249686058408670e-002
1	 2.403406668682315e-001	 9.981388471261151e-001	-3.059888857566699e-004
1	 2.301278450974099e-001	 1.000542855631143e+000	 3.265078792900271e-002
1	 2.199209794745261e-001	 1.002835793940866e+000	 6.592764737003648e-002
1	 2.097217326205240e-001	 1.005018255988954e+000	 9.907835801457270e-002
1	 1.995317449331146e-001	 1.007090865697531e+000	 1.316569842191690e-001
1	 3.094820740290298e-001	 1.006843240615851e+000	 1.800057216759111e-001
1	 2.990043295512846e-001	 1.010004397486102e+000	 1.815349443491915e-001
1	 2.885220195238800e-001	 1.013048633111059e+000	 1.865514105869330e-001
1	 2.780369723299310e-001	 1.015976355875734e+000	 1.946505115158301e-001
1	 2.675509977647321e-001	 1.018788009534555e+000	 2.054219979673139e-001
1	 2.570658862601133e-001	 1.021484072484157e+000	 2.184507532255737e-001
1	 2.465834081378282e-001	 1.024065057018631e+000	 2.333175571535410e-001
1	 2.361053128922975e-001	 1.026531508568457e+000	 2.495998404154266e-001
1	 2.256333285029849e-001	 1.028884004924326e+000	 2.668724275689429e-001
1	 2.151691607766280e-001	 1.031123155447072e+000	 2.847082678637192e-001
1	 2.047144927194935e-001	 1.033249600264919e+000	 3.026791526343908e-001
1	 3.173173081534751e-001	 1.032333739679205e+000	 4.564834714692830e-001
1	 3.065742960300392e-001	 1.035574928338934e+000	 4.429253653026587e-001
1	 2.958266027699861e-001	 1.038696235629327e+000	 4.333372237322544e-001
1	 2.850761030460261e-001	 1.041698080274572e+000	 4.273225239038532e-001
1	 2.743246524724556e-001	 1.044580917263728e+000	 4.244777602009257e-001
1	 2.635740868098779e-001	 1.047345237105108e+000	 4.243932457924123e-001
1	 2.528262211996881e-001	 1.049991565062670e+000	 4.266539069654105e-001
1	 2.420828494286583e-001	 1.052520460375683e+000	 4.308400688644410e-001
1	 2.313457432239041e-001	 1.054932515462900e+000	 4.365282313172917e-001
1	 2.206166515784631e-001	 1.057228355112487e+000	 4.432918334851083e-001
1	 2.098973001076576e-001	 1.059408635658941e+000	 4.507020061332644e-001
1	 3.251526186710684e-001	 1.057824487269988e+000	 6.762407114609540e-001
1	 3.141443363156863e-001	 1.061145708499603e+000	 6.523938559706388e-001
1	 3.031312572355475e-001	 1.064344088207020e+000	 6.329562649825646e-001
1	 2.921153023934178e-001	 1.067420055455696e+000	 6.175207015310509e-001
1	 2.810983732230514e-001	 1.070374076469423e+000	 6.056717506657948e-001
1	 2.700823508142761e-001	 1.073206653868300e+000	 5.969866753928603e-001
1	 2.590690951285748e-001	 1.075918325886272e+000	 5.910362660173246e-001
1	 2.480604442455113e-001	 1.078509665571524e+000	 5.873856813846737e-001
1	 2.370582136402890e-001	 1.080981279971006e+000	 5.855952805786806e-001
1	 2.260641954926754e-001	 1.083333809300356e+000	 5.852214436919889e-001
1	 2.150801580274720e-001	 1.085567926100498e+000	 5.858173803513259e-001
1	 3.329879918697909e-001	 1.083315438779565e+000	 8.513139130375076e-001
1	 3.217144371604180e-001	 1.086716693219385e+000	 8.216830874496435e-001
1	 3.104359701371768e-001	 1.089992145960497e+000	 7.968555016206205e-001
1	 2.991545580532664e-001	 1.093142236405700e+000	 7.763955023310269e-001
1	 2.878721481622746e-001	 1.096167442013604e+000	 7.598582018913346e-001
1	 2.765906668836241e-001	 1.099068277516187e+000	 7.467904131792132e-001
1	 2.653120189992517e-001	 1.101845294117479e+000	 7.367315779337152e-001
1	 2.540380868818759e-001	 1.104499078674684e+000	 7.292146866517019e-001
1	 2.427707297551454e-001	 1.107030252863060e+000	 7.237671884932039e-001
1	 2.315117829859108e-001	 1.109439472325838e+000	 7.199118896703000e-001
1	 2.202630574088016e-001	 1.111727425810493e+000	 7.171678388613015e-001
1	 3.408234140376239e-001	 1.108806549599300e+000	 9.926328801613084e-001
1	 3.292845853164264e-001	 1.112287837749558e+000	 9.614561223086084e-001
1	 3.177407286914863e-001	 1.115640364006114e+000	 9.354295270923394e-001
1	 3.061938577067327e-001	 1.118864578111176e+000	 9.140723197447015e-001
1	 2.946459654358807e-001	 1.121960968758238e+000	 8.968935655546555e-001
1	 2.830990236282377e-001	 1.124930062791226e+000	 8.833932078951637e-001
1	 2.715549818864824e-001	 1.127772424384332e+000	 8.730630986294555e-001
1	 2.600157668767713e-001	 1.130488654203866e+000	 8.653880190575449e-001
1	 2.484832815714786e-001	 1.133079388553482e+000	 8.598466896384205e-001
1	 2.369594045248153e-001	 1.135545298504094e+000	 8.559127667919867e-001
1	 2.254459891815113e-001	 1.137887089009828e+000	 8.530558251667475e-001
1	 3.486588714625483e-001	 1.134297775120553e+000	 1.110145080894433e+000
1	 3.368547675359032e-001	 1.137859097341395e+000	 1.081417712132610e+000
1	 3.250455201150881e-001	 1.141288697460231e+000	 1.058138804824788e+000
1	 3.132331890349773e-001	 1.144587035558720e+000	 1.039766664409848e+000
1	 3.014198131896246e-001	 1.147754611565289e+000	 1.025748634891630e+000
1	 2.896074096584329e-001	 1.150791964435870e+000	 1.015522263015530e+000
1	 2.777979728650303e-001	 1.153699671314873e+000	 1.008516453233842e+000
1	 2.659934737692166e-001	 1.156478346677774e+000	 1.004152611412656e+000
1	 2.541958590922944e-001	 1.159128641456689e+000	 1.001845775314083e+000
1	 2.424070505760347e-001	 1.161651242150283e+000	 1.001005729971586e+000
1	 2.306289442754662e-001	 1.164046869919403e+000	 1.001038106161742e+000
1	 3.564943504325456e-001	 1.159789070734689e+000	 1.212923592905336e+000
1	 3.444249705710406e-001	 1.163430427246174e+000	 1.190419608906270e+000
1	 3.323503316245950e-001	 1.166937101439205e+000	 1.173612328345436e+000
1	 3.202725397191608e-001	 1.170309563734924e+000	 1.161884165720058e+000
1	 3.081936795692617e-001	 1.173548325296723e+000	 1.154605890170268e+000
1	 2.961158135845260e-001	 1.176653937192574e+000	 1.151137938293574e+000
1	 2.840409810096591e-001	 1.179626989537143e+000	 1.150831715467927e+000
1	 2.719711970982311e-001	 1.182468110615112e+000	 1.153030883400645e+000
1	 2.599084523205983e-001	 1.185177965987098e+000	 1.157072631712449e+000
1	 2.478547116062153e-001	 1.187757257579563e+000	 1.162288931462814e+000
1	 2.358119136205312e-001	 1.190206722760122e+000	 1.168007768620517e+000
1	 3.643298372355972e-001	 1.185280391833070e+000	 1.309261128292392e+000
1	 3.519951811740304e-001	 1.189001782715169e+000	 1.296552295413882e+000
1	 3.396551504366194e-001	 1.192585531059394e+000	 1.289737042326678e+000
1	 3.273118974404436e-001	 1.196032117626382e+000	 1.288107677159183e+000
1	 3.149675527205472e-001	 1.199342064814506e+000	 1.290944290470592e+000
1	 3.026242240168329e-001	 1.202515935803794e+000	 1.297516238578808e+000
1	 2.902839953951322e-001	 1.205554333679185e+000	 1.307083612447835e+000
1	 2.779489264028340e-001	 1.208457900534583e+000	 1.318898689587750e+000
1	 2.656210512593957e-001	 1.211227316559127e+000	 1.332207366529600e+000
1	 2.533023780820027e-001	 1.213863299107094e+000	 1.346250569546822e+000
1	 2.409948881465711e-001	 1.216366601752886e+000	 1.360265641411310e+000
1	 3.721653181596841e-001	 1.210771693807061e+000	 1.406752188075035e+000
1	 3.595653860970648e-001	 1.214573118999657e+000	 1.407225134971712e+000
1	 3.469599637677736e-001	 1.218233941437156e+000	 1.413735974513363e+000
1	 3.343512498799867e-001	 1.221754652219686e+000	 1.425473384871653e+000
1	 3.217414207892364e-001	 1.225135784980603e+000	 1.441613360780411e+000
1	 3.091326295656695e-001	 1.228377915011984e+000	 1.461320888693471e+000
1	 2.965270050962132e-001	 1.231481658369039e+000	 1.483751603899035e+000
1	 2.839266512220445e-001	 1.234447670954891e+000	 1.508053426756837e+000
1	 2.713336459116921e-001	 1.237276647587193e+000	 1.533368175346754e+000
1	 2.587500404700431e-001	 1.239969321048035e+000	 1.558833151948375e+000
1	 2.461778587834510e-001	 1.242526461118597e+000	 1.583582700899892e+000
1	 1.943490658186562e-001	 9.809324777358748e-001	-7.353221103463435e-002
1	 1.844358351184653e-001	 9.828446114249160e-001	-2.330109554513836e-002
1	 1.745347453506193e-001	 9.846510785005697e-001	 2.579958269506033e-002
1	 1.646473231798204e-001	 9.863525701375676e-001	 7.335292614828021e-002
1	 1.547750715930049e-001	 9.879498035443917e-001	 1.189456794387046e-001
1	 1.449194694473043e-001	 9.894435211587169e-001	 1.621687616087604e-001
1	 1.350819710464206e-001	 9.908344898374509e-001	 2.026177792783276e-001
1	 1.252640057452698e-001	 9.921235000424143e-001	 2.398935202547443e-001
1	 1.154669775827054e-001	 9.933113650226918e-001	 2.736024272079097e-001
1	 1.056922649420928e-001	 9.943989199946589e-001	 3.033570510724959e-001
1	 9.594122023947826e-002	 9.953870213206723e-001	 3.287764839039052e-001
1	 1.995317449331146e-001	 1.007090865697531e+000	 1.316569842191695e-001
1	 1.893541595092008e-001	 1.009053989985139e+000	 1.638718777049866e-001
1	 1.791890387780153e-001	 1.010908629862745e+000	 1.959646476074737e-001
1	 1.690379501156183e-001	 1.012655494936566e+000	 2.275273923856204e-001
1	 1.589024365888925e-001	 1.014295321540812e+000	 2.581552890802060e-001
1	 1.487840164914495e-001	 1.015828871911665e+000	 2.874471337308069e-001
1	 1.386841829087086e-001	 1.017256933355725e+000	 3.150058630908784e-001
1	 1.286044033119972e-001	 1.018580317413973e+000	 3.404390571696435e-001
1	 1.185461191814805e-001	 1.019799859022319e+000	 3.633594221844492e-001
1	 1.085107456576841e-001	 1.020916415669762e+000	 3.833852535654096e-001
1	 9.849967122134784e-002	 1.021930866555178e+000	 4.001408787096176e-001
1	 2.047144927194935e-001	 1.033249600264919e+000	 3.026791526343903e-001
1	 1.942725490689864e-001	 1.035263715826961e+000	 3.210622595348739e-001
1	 1.838433938759064e-001	 1.037166529144998e+000	 3.401472637317497e-001
1	 1.734286352282083e-001	 1.038958768256984e+000	 3.595179942020848e-001
1	 1.630298562732485e-001	 1.040641188623105e+000	 3.787611314334561e-001
1	 1.526486147416389e-001	 1.042214572278316e+000	 3.974667743031115e-001
1	 1.422864425010266e-001	 1.043679726979181e+000	 4.152289876823103e-001
1	 1.319448451396527e-001	 1.045037485346122e+000	 4.316463302610323e-001
1	 1.216253015794873e-001	 1.046288704002161e+000	 4.463223621482422e-001
1	 1.113292637187003e-001	 1.047434262709218e+000	 4.588661318609784e-001
1	 1.010581561032000e-001	 1.048475063502990e+000	 4.688926423762320e-001
1	 2.098973001076576e-001	 1.059408635658941e+000	 4.507020061332649e-001
1	 1.991909951903410e-001	 1.061473743082011e+000	 4.591121897861335e-001
1	 1.884978024988975e-001	 1.063424730394631e+000	 4.688699127298720e-001
1	 1.778193708336415e-001	 1.065262344066698e+000	 4.795345682808960e-001
1	 1.671573234228617e-001	 1.066987358684599e+000	 4.906684958612576e-001
1	 1.565132574346200e-001	 1.068600576082287e+000	 5.018375919281515e-001
1	 1.458887435192350e-001	 1.070102824466526e+000	 5.126119001195074e-001
1	 1.352853253822968e-001	 1.071494957537422e+000	 5.225661800681886e-001
1	 1.247045193880079e-001	 1.072777853605359e+000	 5.312804544083226e-001
1	 1.141478141926026e-001	 1.073952414705431e+000	 5.383405335580607e-001
1	 1.036166704075698e-001	 1.075019565710423e+000	 5.433385179261558e-001
1	 2.150801580274720e-001	 1.085567926100498e+000	 5.858173803513259e-001
1	 2.041094892657835e-001	 1.087684025881921e+000	 5.878193445457405e-001
1	 1.931522565015935e-001	 1.089683187658944e+000	 5.916414544367119e-001
1	 1.822101492479693e-001	 1.091566176333586e+000	 5.968034947064196e-001
1	 1.712848308145205e-001	 1.093333785618622e+000	 6.028285989943961e-001
1	 1.603779378071404e-001	 1.094986837147195e+000	 6.092439218227487e-001
1	 1.494910796591941e-001	 1.096526179576468e+000	 6.155812873173955e-001
1	 1.386258381939897e-001	 1.097952687686433e+000	 6.213778141362872e-001
1	 1.277837672183244e-001	 1.099267261475050e+000	 6.261765160892170e-001
1	 1.169663921468526e-001	 1.100470825250804e+000	 6.295268780019615e-001
1	 1.061752096569922e-001	 1.101564326723789e+000	 6.309854064492970e-001
1	 2.202630574088016e-001	 1.111727425810493e+000	 7.171678388613021e-001
1	 2.090280226878327e-001	 1.113894518358322e+000	 7.160598510242975e-001
1	 1.978067477385986e-001	 1.115941854985237e+000	 7.170764193120618e-001
1	 1.866009627872431e-001	 1.117870219025528e+000	 7.196834463666781e-001
1	 1.754123712250134e-001	 1.119680423318503e+000	 7.233508827550271e-001
1	 1.642426490959474e-001	 1.121373309296657e+000	 7.275534762447969e-001
1	 1.530934446167642e-001	 1.122949746067712e+000	 7.317714945817985e-001
1	 1.419663777287918e-001	 1.124410629491716e+000	 7.354914211287785e-001
1	 1.308630396817190e-001	 1.125756881254375e+000	 7.382066228056505e-001
1	 1.197849926489115e-001	 1.126989447937741e+000	 7.394179898532985e-001
1	 1.087337693740024e-001	 1.128109300089399e+000	 7.386345470203675e-001
1	 2.254459891815113e-001	 1.137887089009828e+000	 8.530558251667471e-001
1	 2.139465868490073e-001	 1.140105174642845e+000	 8.518942587770704e-001
1	 2.024612680645177e-001	 1.142200686420812e+000	 8.529978565816792e-001
1	 1.909918037675141e-001	 1.144174426110399e+000	 8.557651824530026e-001
1	 1.795399374311289e-001	 1.146027225677570e+000	 8.595998322446018e-001
1	 1.681073845377886e-001	 1.147759946354290e+000	 8.639112762460437e-001
1	 1.566958320878055e-001	 1.149373477698965e+000	 8.681156709907423e-001
1	 1.453069381407635e-001	 1.150868736651832e+000	 8.716366397205022e-001
1	 1.339423313894738e-001	 1.152246666586471e+000	 8.739060209017358e-001
1	 1.226036107662408e-001	 1.153508236358646e+000	 8.743645842791384e-001
1	 1.112923450811353e-001	 1.154654439353569e+000	 8.724627140438477e-001
1	 2.306289442754662e-001	 1.164046869919403e+000	 1.001038106161741e+000
1	 2.188651731418263e-001	 1.166315948867122e+000	 1.002659231009398e+000
1	 2.071158093339555e-001	 1.168459636012968e+000	 1.006526323310325e+000
1	 1.953826645048334e-001	 1.170478751556079e+000	 1.011957894511162e+000
1	 1.836675222096557e-001	 1.172374146589153e+000	 1.018278747157070e+000
1	 1.719721373694115e-001	 1.174146702143711e+000	 1.024820925867490e+000
1	 1.602982357681785e-001	 1.175797328228937e+000	 1.030924632689774e+000
1	 1.486475135839651e-001	 1.177326962865341e+000	 1.035939106069759e+000
1	 1.370216369528710e-001	 1.178736571114481e+000	 1.039223462785628e+000
1	 1.254222415663019e-001	 1.180027144105923e+000	 1.040147502293761e+000
1	 1.138509323009261e-001	 1.181199698062607e+000	 1.038092473040626e+000
1	 2.358119136205312e-001	 1.190206722760122e+000	 1.168007768620516e+000
1	 2.237837729588087e-001	 1.192526795162783e+000	 1.175047151628475e+000
1	 2.117703634015168e-001	 1.194718657809009e+000	 1.184157145354471e+000
1	 1.997735373152525e-001	 1.196783149330445e+000	 1.194564172707090e+000
1	 1.877951183373821e-001	 1.198721139946578e+000	 1.205502472726660e+000
1	 1.758369008275634e-001	 1.200533530488537e+000	 1.216215174984739e+000
1	 1.639006493537435e-001	 1.202221251416331e+000	 1.225955332578932e+000
1	 1.519880982124569e-001	 1.203785261830803e+000	 1.233986912892365e+000
1	 1.401009509831927e-001	 1.205226548481543e+000	 1.239585745411127e+000
1	 1.282408801165560e-001	 1.206546124771974e+000	 1.242040426010485e+000
1	 1.164095265559098e-001	 1.207745029762831e+000	 1.240653177239332e+000
1	 2.409948881465711e-001	 1.216366601752886e+000	 1.360265641411310e+000
1	 2.287023776924730e-001	 1.218737667661458e+000	 1.375175466162230e+000
1	 2.164249221218060e-001	 1.220977705856232e+000	 1.391827714738701e+000
1	 2.041644145148226e-001	 1.223087573401375e+000	 1.409345304439838e+000
1	 1.919227185910969e-001	 1.225068159643175e+000	 1.426860751291339e+000
1	 1.797016681489920e-001	 1.226920385212384e+000	 1.443517382369729e+000
1	 1.675030665403606e-001	 1.228645201019855e+000	 1.458470500150459e+000
1	 1.553286861802993e-001	 1.230243587246780e+000	 1.470888497976517e+000
1	 1.431802680917211e-001	 1.231716552330795e+000	 1.479953925881610e+000
1	 1.310595214844649e-001	 1.233065131949204e+000	 1.484864506141018e+000
1	 1.189681233686213e-001	 1.234290388000549e+000	 1.484834098054549e+000
1	 2.461778587834510e-001	 1.242526461118597e+000	 1.583582700899892e+000
1	 2.336209787353383e-001	 1.244948520494780e+000	 1.608647268626797e+000
1	 2.210794773494281e-001	 1.247236734201940e+000	 1.634976290972352e+000
1	 2.085552884195949e-001	 1.249391977736748e+000	 1.661578329233791e+000
1	 1.960503157475883e-001	 1.251415159572273e+000	 1.687473575945613e+000
1	 1.835664325704446e-001	 1.253307220138870e+000	 1.711695219260222e+000
1	 1.711054810238903e-001	 1.255069130798217e+000	 1.733290752012478e+000
1	 1.586692716415527e-001	 1.256701892811832e+000	 1.751323224483816e+000
1	 1.462595828897382e-001	 1.258206536305377e+000	 1.764872440040380e+000
1	 1.338781607374896e-001	 1.259584119230017e+000	 1.773036092975748e+000
1	 1.215267182615959e-001	 1.260835726322077e+000	 1.774930848040488e+000
1	 9.594122023947826e-002	 9.953870213206723e-001	 3.287764839039052e-001
1	 8.621371590998771e-002	 9.962766718121099e-001	 3.494059182152178e-001
1	 7.651253352126196e-002	 9.970686125683425e-001	 3.652015851487054e-001
1	 6.683896610081594e-002	 9.977637591031844e-001	 3.764257838563734e-001
1	 5.719427911104236e-002	 9.983630448185401e-001	 3.833549419103494e-001
1	 4.757971027342479e-002	 9.988674201817246e-001	 3.862788014085964e-001
1	 3.799646941872222e-002	 9.992778519071311e-001	 3.854996088888099e-001
1	 2.844573836262598e-002	 9.995953221430518e-001	 3.813313103786877e-001
1	 1.892867080636962e-002	 9.998208276644112e-001	 3.740987528475378e-001
1	 9.446392261750505e-003	 9.999553790721549e-001	 3.641368932715288e-001
1	 0.000000000000000e+000	 1.000000000000000e+000	 3.517900164617187e-001
1	 9.849967122134784e-002	 1.021930866555178e+000	 4.001408787096176e-001
1	 8.851276490585905e-002	 1.022844241231782e+000	 4.136462957135931e-001
1	 7.855288245458961e-002	 1.023657300561674e+000	 4.242186898781735e-001
1	 6.862135137610560e-002	 1.024370984472468e+000	 4.319490276715532e-001
1	 5.871947087877485e-002	 1.024986251256887e+000	 4.369403066632293e-001
1	 4.884851169029193e-002	 1.025504076728145e+000	 4.393070425678723e-001
1	 3.900971590386785e-002	 1.025925453379796e+000	 4.391747541560122e-001
1	 2.920429685057112e-002	 1.026251389550869e+000	 4.366794470208221e-001
1	 1.943343899728704e-002	 1.026482908597069e+000	 4.319670971609124e-001
1	 9.698297869739969e-003	 1.026621048068823e+000	 4.251931353026986e-001
1	 0.000000000000000e+000	 1.026666858896873e+000	 4.165219328514062e-001
1	 1.010581561032000e-001	 1.048475063502990e+000	 4.688926423762320e-001
1	 9.081184436458804e-002	 1.049412162678889e+000	 4.767496220315934e-001
1	 8.059325842294968e-002	 1.050246340862016e+000	 4.829893983118404e-001
1	 7.040376026835922e-002	 1.050978562394118e+000	 4.875507293235195e-001
1	 6.024468285560673e-002	 1.051609810459080e+000	 4.903831509467017e-001
1	 5.011732991903532e-002	 1.052141086216367e+000	 4.914467207924727e-001
1	 4.002297581473560e-002	 1.052573407939045e+000	 4.907117541296479e-001
1	 2.996286538957090e-002	 1.052907810157237e+000	 4.881585525118797e-001
1	 1.993821387648608e-002	 1.053145342807795e+000	 4.837771258246082e-001
1	 9.950206815530237e-003	 1.053287070390996e+000	 4.775669084605939e-001
1	 0.000000000000000e+000	 1.053334071134978e+000	 4.695364703187155e-001
1	 1.036166704075698e-001	 1.075019565710423e+000	 5.433385179261558e-001
1	 9.311095026268376e-002	 1.075980389658250e+000	 5.468354565183078e-001
1	 8.263365785559605e-002	 1.076835686937253e+000	 5.495240430854194e-001
1	 7.218618965828585e-002	 1.077586446303605e+000	 5.512083445631025e-001
1	 6.176991237235380e-002	 1.078233675832652e+000	 5.517027608530747e-001
1	 5.138616273917136e-002	 1.078778402030408e+000	 5.508319838273336e-001
1	 4.103624737807992e-002	 1.079221668949764e+000	 5.484309424383244e-001
1	 3.072144265210026e-002	 1.079564537312246e+000	 5.443447344752510e-001
1	 2.044299456059079e-002	 1.079808083636172e+000	 5.384285455183957e-001
1	 1.020211865827077e-002	 1.079953399371986e+000	 5.305475556465152e-001
1	 0.000000000000000e+000	 1.080001590045551e+000	 5.205768344634382e-001
1	 1.061752096569922e-001	 1.101564326723789e+000	 6.309854064492976e-001
1	 9.541007857665534e-002	 1.102548875674683e+000	 6.312415788492106e-001
1	 8.467407718178258e-002	 1.103425292255272e+000	 6.310617240281334e-001
1	 7.396863642659460e-002	 1.104194589636403e+000	 6.301312826766528e-001
1	 6.329515675983193e-002	 1.104857800785134e+000	 6.281463601141823e-001
1	 5.265500793021638e-002	 1.105415977554288e+000	 6.248138604277141e-001
1	 4.204952882065519e-002	 1.105870189776840e+000	 6.198516008708199e-001
1	 3.148002731063408e-002	 1.106221524365987e+000	 6.129884069423576e-001
1	 2.094778016622522e-002	 1.106471084421780e+000	 6.039641885921638e-001
1	 1.045403295711100e-002	 1.106619988345106e+000	 5.925299980236701e-001
1	 0.000000000000000e+000	 1.106669368959824e+000	 5.784480695885929e-001
1	 1.087337693740024e-001	 1.128109300089399e+000	 7.386345470203685e-001
1	 9.770922528301190e-002	 1.129117574233009e+000	 7.366160470406454e-001
1	 8.671451283076313e-002	 1.130015110283961e+000	 7.341611278537241e-001
1	 7.575109745399455e-002	 1.130802945827984e+000	 7.308513532254788e-001
1	 6.482041334885687e-002	 1.131482138724057e+000	 7.262800306579168e-001
1	 5.392386327168685e-002	 1.132053766172024e+000	 7.200524825186847e-001
1	 4.306281836921587e-002	 1.132518923785159e+000	 7.117862915903064e-001
1	 3.223861803764724e-002	 1.132878724668551e+000	 7.011115214047220e-001
1	 2.145256981001344e-002	 1.133134298504202e+000	 6.876709117711197e-001
1	 1.070594927120041e-002	 1.133286790643667e+000	 6.711200499414938e-001
1	 0.000000000000000e+000	 1.133337361209029e+000	 6.511275178967326e-001
1	 1.112923450811353e-001	 1.154654439353569e+000	 8.724627140438477e-001
1	 1.000083863582626e-001	 1.155686438838045e+000	 8.689965653950513e-001
1	 8.875496123179164e-002	 1.156605094491205e+000	 8.647788284819347e-001
1	 7.753356962119480e-002	 1.157411468313820e+000	 8.593007448276657e-001
1	 6.634567947024449e-002	 1.158106643056953e+000	 8.520670998933150e-001
1	 5.519272654309911e-002	 1.158691721267636e+000	 8.425965946596081e-001
1	 4.407611425051639e-002	 1.159167824339611e+000	 8.304221857826140e-001
1	 3.299721350561465e-002	 1.159536091570028e+000	 8.150913946994921e-001
1	 2.195736260857948e-002	 1.159797679223020e+000	 7.961665861139690e-001
1	 1.095786715968844e-002	 1.159953759600982e+000	 7.732252163406501e-001
1	 0.000000000000000e+000	 1.160005520124402e+000	 7.458600520370099e-001
1	 1.138509323009261e-001	 1.181199698062607e+000	 1.038092473040627e+000
1	 1.023075577789164e-001	 1.182255422994611e+000	 1.033879157405203e+000
1	 9.079541881412197e-002	 1.183195198344892e+000	 1.028337036186083e+000
1	 7.931604980890450e-002	 1.184020110529385e+000	 1.020879496095027e+000
1	 6.787095245481058e-002	 1.184731267191354e+000	 1.010935965103137e+000
1	 5.646159552396952e-002	 1.185329796225141e+000	 9.979523493987238e-001
1	 4.508941469131115e-002	 1.185816844805080e+000	 9.813914330564800e-001
1	 3.375581238701120e-002	 1.186193578420510e+000	 9.607332408680273e-001
1	 2.246215767854739e-002	 1.186461179917814e+000	 9.354753648454897e-001
1	 1.120978618172454e-002	 1.186620848550362e+000	 9.051332549701481e-001
1	 0.000000000000000e+000	 1.186673799037173e+000	 8.692404748148338e-001
1	 1.164095265559098e-001	 1.207745029762831e+000	 1.240653177239332e+000
1	 1.046067355214827e-001	 1.208824480207525e+000	 1.236277788076071e+000
1	 9.283588200700799e-002	 1.209785375312910e+000	 1.229782417903367e+000
1	 8.109853489783266e-002	 1.210628825910150e+000	 1.220514074398845e+000
1	 6.939622963337101e-002	 1.211355964534790e+000	 1.207838979083520e+000
1	 5.773046799381452e-002	 1.211967944428558e+000	 1.191143035910226e+000
1	 4.610271791835461e-002	 1.212465938546455e+000	 1.169832256677670e+000
1	 3.451441335431180e-002	 1.212851138570085e+000	 1.143333143851193e+000
1	 2.296695413654122e-002	 1.213124753928167e+000	 1.111093031444361e+000
1	 1.146170589645817e-002	 1.213288010825121e+000	 1.072580384681534e+000
1	 0.000000000000000e+000	 1.213342151278578e+000	 1.027285059225281e+000
1	 1.189681233686213e-001	 1.234290388000549e+000	 1.484834098054549e+000
1	 1.069059155624703e-001	 1.235393563981607e+000	 1.480776297360998e+000
1	 9.487634723970358e-002	 1.236375578863144e+000	 1.473637332087280e+000
1	 8.288102176868849e-002	 1.237237567891589e+000	 1.462708400329081e+000
1	 7.092150833674156e-002	 1.237980688494794e+000	 1.447303741902354e+000
1	 5.899934173215044e-002	 1.238606119261905e+000	 1.426761106036594e+000
1	 4.711602215840118e-002	 1.239115058928623e+000	 1.400442169972235e+000
1	 3.527301507999132e-002	 1.239508725368847e+000	 1.367732909236922e+000
1	 2.347175109918501e-002	 1.239788354593661e+000	 1.328043920451825e+000
1	 1.171362586303879e-002	 1.239955199758569e+000	 1.280810697592060e+000
1	 0.000000000000000e+000	 1.240010530179849e+000	 1.225493862693044e+000
1	 1.215267182615959e-001	 1.260835726322077e+000	 1.774930848040489e+000
1	 1.092050938783885e-001	 1.261962627821675e+000	 1.771573777196971e+000
1	 9.691681094146261e-002	 1.262965762463481e+000	 1.764044595354245e+000
1	 8.466350730218102e-002	 1.263846289909173e+000	 1.751588430508639e+000
1	 7.244678589573805e-002	 1.264605392478897e+000	 1.733477917268614e+000
1	 6.026821451849371e-002	 1.265244274109201e+000	 1.709013632241634e+000
1	 4.812932563820527e-002	 1.265764159316470e+000	 1.677524474361622e+000
1	 3.603161623652470e-002	 1.266166292166884e+000	 1.638367991182439e+000
1	 2.397654768310283e-002	 1.266451935253878e+000	 1.590930652243080e+000
1	 1.196554564061585e-002	 1.266622368684020e+000	 1.534628070684880e+000
1	 0.000000000000000e+000	 1.266678889072220e+000	 1.468905174371599e+000
1	 1.266678889072220e+000	 0.000000000000000e+000	 2.320302413916440e+001
1	 1.266622368684020e+000	 1.196554564061589e-002	 2.312231723771222e+001
1	 1.266451935253877e+000	 2.397654768310291e-002	 2.304032117443003e+001
1	 1.266166292166884e+000	 3.603161623652462e-002	 2.295668044518756e+001
1	 1.265764159316470e+000	 4.812932563820523e-002	 2.287101756163496e+001
1	 1.265244274109201e+000	 6.026821451849370e-002	 2.278293293076076e+001
1	 1.264605392478897e+000	 7.244678589573809e-002	 2.269200476505109e+001
1	 1.263846289909173e+000	 8.466350730218103e-002	 2.259778902447306e+001
1	 1.262965762463481e+000	 9.691681094146248e-002	 2.249981939147910e+001
1	 1.261962627821675e+000	 1.092050938783884e-001	 2.239760728020108e+001
1	 1.260835726322077e+000	 1.215267182615958e-001	 2.229064188096987e+001
1	 1.293343190136031e+000	 0.000000000000000e+000	 2.328475304490010e+001
1	 1.293285479961983e+000	 1.221742708636594e-002	 2.318472434864174e+001
1	 1.293111458812611e+000	 2.448126745774412e-002	 2.308405979785879e+001
1	 1.292819802778529e+000	 3.679010196516097e-002	 2.298238459809906e+001
1	 1.292409204806197e+000	 4.914247493488750e-002	 2.287929741772097e+001
1	 1.291878375723875e+000	 6.153689423456663e-002	 2.277437017772161e+001
1	 1.291226045277082e+000	 7.397183137018699e-002	 2.266714787666742e+001
1	 1.290450963172669e+000	 8.644572161462837e-002	 2.255714845225758e+001
1	 1.289551900130541e+000	 9.895696416848014e-002	 2.244386268102520e+001
1	 1.288527648942039e+000	 1.115039223538046e-001	 2.232675411765373e+001
1	 1.287377025533950e+000	 1.240849238414894e-001	 2.220525907535135e+001
1	 1.320007431208043e+000	 0.000000000000000e+000	 2.350705173951859e+001
1	 1.319948531250828e+000	 1.246930796544279e-002	 2.338690781327350e+001
1	 1.319770922390312e+000	 2.498598609687761e-002	 2.326661762257315e+001
1	 1.319473253422687e+000	 3.754858598735979e-002	 2.314577466045068e+001
1	 1.319054190347506e+000	 5.015562195217481e-002	 2.302394214360943e+001
1	 1.318512417414774e+000	 6.280557109632907e-002	 2.290065275044560e+001
1	 1.317846638181773e+000	 7.549687341352278e-002	 2.277540839849679e+001
1	 1.317055576578640e+000	 8.822793191734575e-002	 2.264768006307875e+001
1	 1.316137977981790e+000	 1.009971128054111e-001	 2.251690763884832e+001
1	 1.315092610294107e+000	 1.138027456571139e-001	 2.238249984599827e+001
1	 1.313918265030891e+000	 1.266431236656700e-001	 2.224383418275389e+001
1	 1.346671618954121e+000	 0.000000000000000e+000	 2.386225509028804e+001
1	 1.346611529216121e+000	 1.272118834083839e-002	 2.372064361386692e+001
1	 1.346430332651642e+000	 2.549070372671897e-002	 2.357927092218473e+001
1	 1.346126650762511e+000	 3.830706849278583e-002	 2.343768703455791e+001
1	 1.345699122601420e+000	 5.116876694340033e-002	 2.329540873414755e+001
1	 1.345146405840180e+000	 6.407424542099521e-002	 2.315191929078674e+001
1	 1.344467177847875e+000	 7.702191240704667e-002	 2.300666822738573e+001
1	 1.343660136777989e+000	 9.001013865592052e-002	 2.285907113183842e+001
1	 1.342724002663489e+000	 1.030372573623213e-001	 2.270850951632480e+001
1	 1.341657518518851e+000	 1.161015643630453e-001	 2.255433072586828e+001
1	 1.340459451447940e+000	 1.292013183737075e-001	 2.239584789796599e+001
1	 1.373335760040133e+000	 0.000000000000000e+000	 2.434329330394527e+001
1	 1.373274480523431e+000	 1.297306827554474e-002	 2.417834647536455e+001
1	 1.373089696261269e+000	 2.599542047348386e-002	 2.401397352028104e+001
1	 1.372780001461154e+000	 3.906554967110389e-002	 2.384966983276517e+001
1	 1.372344008228968e+000	 5.218191016189716e-002	 2.368489535838635e+001
1	 1.371780347658369e+000	 6.534291752577912e-002	 2.351907433724292e+001
1	 1.371087670930294e+000	 7.854694873205979e-002	 2.335159509455773e+001
1	 1.370264650421613e+000	 9.179234227594005e-002	 2.318180988085311e+001
1	 1.369309980821893e+000	 1.050773983492762e-001	 2.300903476368415e+001
1	 1.368222380257244e+000	 1.184003790463279e-001	 2.283254957286910e+001
1	 1.367000591420135e+000	 1.317595086051721e-001	 2.265159790110609e+001
1	 1.399999861131944e+000	 0.000000000000000e+000	 2.494363522583199e+001
1	 1.399937391838324e+000	 1.322494783255377e-002	 2.475300903106069e+001
1	 1.399749019883856e+000	 2.650013646338788e-002	 2.456329226031413e+001
1	 1.399433312181770e+000	 3.982402971197879e-002	 2.437391509413041e+001
1	 1.398988853891178e+000	 5.319505186099847e-002	 2.418427077027079e+001
1	 1.398414249527623e+000	 6.661158772789501e-002	 2.399371538123070e+001
1	 1.397708124083939e+000	 8.007198276986338e-002	 2.380156772314524e+001
1	 1.396869124160417e+000	 9.357454322299176e-002	 2.360710919812522e+001
1	 1.395895919103263e+000	 1.071175362763417e-001	 2.340958377201746e+001
1	 1.394787202150259e+000	 1.206991902816908e-001	 2.320819798953375e+001
1	 1.393541691582514e+000	 1.343176949996336e-001	 2.300212104863645e+001
1	 1.426663928895422e+000	 0.000000000000000e+000	 2.565723799832390e+001
1	 1.426600269826366e+000	 1.347682707485748e-002	 2.543814781115254e+001
1	 1.426408310184067e+000	 2.700485182264663e-002	 2.522034971287196e+001
1	 1.426086589587512e+000	 4.058250880507529e-002	 2.500319860335592e+001
1	 1.425633666249075e+000	 5.420819229403738e-002	 2.478601163628354e+001
1	 1.425048118106222e+000	 6.788025634455705e-002	 2.456806810437341e+001
1	 1.424328543963713e+000	 8.159701490175864e-002	 2.434860937968827e+001
1	 1.423473564645299e+000	 9.535674194266300e-002	 2.412683891100160e+001
1	 1.422481824153855e+000	 1.091576716535834e-001	 2.390192228016607e+001
1	 1.421351990838867e+000	 1.229979986438629e-001	 2.367298731936400e+001
1	 1.420082758570117e+000	 1.368758781966621e-001	 2.343912429105382e+001
1	 1.453327969996434e+000	 0.000000000000000e+000	 2.647850226172290e+001
1	 1.453263121153126e+000	 1.372870606544782e-002	 2.622775517779741e+001
1	 1.453067573826569e+000	 2.750956667747578e-002	 2.597877319071546e+001
1	 1.452739840341533e+000	 4.134098714005818e-002	 2.573082633548278e+001
1	 1.452278451963687e+000	 5.522133171434702e-002	 2.548314676313529e+001
1	 1.451681960052446e+000	 6.914892369297943e-002	 2.523492874597800e+001
1	 1.450948937224526e+000	 8.312204550904671e-002	 2.498532874142305e+001
1	 1.450077978527162e+000	 9.713893888054116e-002	 2.473346551630828e+001
1	 1.449067702619928e+000	 1.111978049910672e-001	 2.447842033351514e+001
1	 1.447916752964040e+000	 1.252968047075733e-001	 2.421923720263385e+001
1	 1.446623799017982e+000	 1.394340588358277e-001	 2.395492319634489e+001
1	 1.479991991100845e+000	 0.000000000000000e+000	 2.740223219852900e+001
1	 1.479925952484172e+000	 1.398058486731675e-002	 2.711625645662988e+001
1	 1.479726817476025e+000	 2.801428115409090e-002	 2.683264927596849e+001
1	 1.479393071106987e+000	 4.209946490659224e-002	 2.655058669062667e+001
1	 1.478923217696040e+000	 5.623447037526055e-002	 2.626920735518440e+001
1	 1.478315782024575e+000	 7.041759009037626e-002	 2.598761270135485e+001
1	 1.477569310521282e+000	 8.464707497302883e-002	 2.570486715660348e+001
1	 1.476682372456906e+000	 9.892113448221362e-002	 2.541999842645980e+001
1	 1.475653561147740e+000	 1.132379367988586e-001	 2.513199784215434e+001
1	 1.474481495166753e+000	 1.275956090475512e-001	 2.483982077512860e+001
1	 1.473164819561149e+000	 1.419922375567004e-001	 2.454238711987432e+001
1	 1.506655998874523e+000	 0.000000000000000e+000	 2.842359982099898e+001
1	 1.506588770485068e+000	 1.423246354345626e-002	 2.809847162089937e+001
1	 1.506386047797100e+000	 2.851899537870764e-002	 2.777648317650719e+001
1	 1.506046288547027e+000	 4.285794229434228e-002	 2.745670780137066e+001
1	 1.505567970107163e+000	 5.724760853011108e-002	 2.713818255450389e+001
1	 1.504949590680887e+000	 7.168625585396170e-002	 2.681990857898120e+001
1	 1.504189670508888e+000	 8.617210367500611e-002	 2.650085150576131e+001
1	 1.503286753085432e+000	 1.007033291932677e-001	 2.617994192421622e+001
1	 1.502239406383549e+000	 1.152780675870236e-001	 2.585607592074588e+001
1	 1.501046224087976e+000	 1.298944122385254e-001	 2.552811568676178e+001
1	 1.499705826834654e+000	 1.445504149988501e-001	 2.519489019721484e+001
1	 1.533319999983334e+000	 0.000000000000000e+000	 2.953811298539386e+001
1	 1.533251581821385e+000	 1.448434215685831e-002	 2.916958097397055e+001
1	 1.533045271454459e+000	 2.902370947754160e-002	 2.880516232361861e+001
1	 1.532699499324805e+000	 4.361641949297308e-002	 2.844381929524576e+001
1	 1.532212715858081e+000	 5.826074643223178e-002	 2.808447962046133e+001
1	 1.531583392679665e+000	 7.295492130094992e-002	 2.772603705192200e+001
1	 1.530810023842251e+000	 8.769713199627981e-002	 2.736735198201964e+001
1	 1.529891127063641e+000	 1.024855234592909e-001	 2.700725213108943e+001
1	 1.528825244973612e+000	 1.173181978656276e-001	 2.664453330620746e+001
1	 1.527610946368682e+000	 1.321932148552252e-001	 2.627796023153038e+001
1	 1.526246827473539e+000	 1.471085918018469e-001	 2.590626745100661e+001
1	 1.260835726322077e+000	 1.215267182615958e-001	 2.229064188096987e+001
1	 1.259584119230017e+000	 1.338781607374896e-001	 2.218089941738234e+001
1	 1.258206536305377e+000	 1.462595828897382e-001	 2.207031887955534e+001
1	 1.256701892811832e+000	 1.586692716415527e-001	 2.195835769599697e+001
1	 1.255069130798217e+000	 1.711054810238902e-001	 2.184446226081811e+001
1	 1.253307220138871e+000	 1.835664325704446e-001	 2.172806844787921e+001
1	 1.251415159572273e+000	 1.960503157475885e-001	 2.160860215510705e+001
1	 1.249391977736748e+000	 2.085552884195949e-001	 2.148547987884563e+001
1	 1.247236734201940e+000	 2.210794773494281e-001	 2.135810931803274e+001
1	 1.244948520494780e+000	 2.336209787353382e-001	 2.122589000791783e+001
1	 1.242526461118596e+000	 2.461778587834510e-001	 2.108821398296045e+001
1	 1.287377025533950e+000	 1.240849238414894e-001	 2.220525907535135e+001
1	 1.286099071410704e+000	 1.366963711093230e-001	 2.208166213732081e+001
1	 1.284692489592918e+000	 1.493384291424060e-001	 2.195820240800225e+001
1	 1.283156172509960e+000	 1.620093488027418e-001	 2.183427302712271e+001
1	 1.281489039940201e+000	 1.747073473676788e-001	 2.170925385395443e+001
1	 1.279690040073258e+000	 1.874306089332176e-001	 2.158251202590414e+001
1	 1.277758150570499e+000	 2.001772848530018e-001	 2.145340255177833e+001
1	 1.275692379622538e+000	 2.129454942133351e-001	 2.132126893962514e+001
1	 1.273491767002438e+000	 2.257333243445114e-001	 2.118544385897090e+001
1	 1.271155385113263e+000	 2.385388313687072e-001	 2.104524983718433e+001
1	 1.268682340028648e+000	 2.513600407846233e-001	 2.089999998961494e+001
1	 1.313918265030891e+000	 1.266431236656700e-001	 2.224383418275389e+001
1	 1.312613963935719e+000	 1.395145751404187e-001	 2.210356771617215e+001
1	 1.311178383290003e+000	 1.524172684678870e-001	 2.196430679463845e+001
1	 1.309610392688861e+000	 1.653494184489529e-001	 2.182538130791451e+001
1	 1.307908889640256e+000	 1.783092056074409e-001	 2.168610619817583e+001
1	 1.306072800649137e+000	 1.912947766017440e-001	 2.154578207537639e+001
1	 1.304101082299808e+000	 2.043042446728650e-001	 2.140369587117929e+001
1	 1.301992722335230e+000	 2.173356901292264e-001	 2.125912153134851e+001
1	 1.299746740731929e+000	 2.303871608685431e-001	 2.111132074640651e+001
1	 1.297362190769153e+000	 2.434566729370094e-001	 2.095954372026763e+001
1	 1.294838160090887e+000	 2.565422111259951e-001	 2.080302997646088e+001
1	 1.340459451447940e+000	 1.292013183737075e-001	 2.239584789796600e+001
1	 1.339128803433513e+000	 1.423327735353478e-001	 2.223613769788264e+001
1	 1.337664224017839e+000	 1.554961016359137e-001	 2.207822357194906e+001
1	 1.336064559961831e+000	 1.686894814152311e-001	 2.192137313073260e+001
1	 1.334328686503093e+000	 1.819110566436752e-001	 2.176483792559742e+001
1	 1.332455508461953e+000	 1.951589365421073e-001	 2.160785413279286e+001
1	 1.330443961345699e+000	 2.084311962389667e-001	 2.144964327940119e+001
1	 1.328293012449679e+000	 2.217258772648734e-001	 2.128941301099547e+001
1	 1.326001661953930e+000	 2.350409880850432e-001	 2.112635790075899e+001
1	 1.323568944013922e+000	 2.483745046697696e-001	 2.095966029971406e+001
1	 1.320993927844035e+000	 2.617243711031739e-001	 2.078849122760255e+001
1	 1.367000591420135e+000	 1.317595086051721e-001	 2.265159790110609e+001
1	 1.365643596532541e+000	 1.451509669986814e-001	 2.246970743737449e+001
1	 1.364150018397633e+000	 1.585749294162189e-001	 2.229035264601000e+001
1	 1.362518680942165e+000	 1.720295385366216e-001	 2.211273976640355e+001
1	 1.360748437133422e+000	 1.855129013768804e-001	 2.193605840104636e+001
1	 1.358838170107153e+000	 1.990230897203908e-001	 2.175948227993529e+001
1	 1.356786794293666e+000	 2.125581405830955e-001	 2.158217006955324e+001
1	 1.354593256540739e+000	 2.261160567178805e-001	 2.140326622619283e+001
1	 1.352256537231954e+000	 2.396948071575316e-001	 2.122190189328305e+001
1	 1.349775651399042e+000	 2.532923277965123e-001	 2.103719584226635e+001
1	 1.347149649826810e+000	 2.669065220117671e-001	 2.084825545645971e+001
1	 1.393541691582514e+000	 1.343176949996336e-001	 2.300212104863645e+001
1	 1.392158349861254e+000	 1.479691562349905e-001	 2.279534859391843e+001
1	 1.390635773050592e+000	 1.616537525785351e-001	 2.259182530774590e+001
1	 1.388972762243157e+000	 1.753695906481697e-001	 2.239069690838580e+001
1	 1.387168148135953e+000	 1.891147407075555e-001	 2.219109241348033e+001
1	 1.385220792180180e+000	 2.028872371026778e-001	 2.199212499603414e+001
1	 1.383129587729204e+000	 2.166850787370401e-001	 2.179289288713240e+001
1	 1.380893461183264e+000	 2.305062295858520e-001	 2.159248032503764e+001
1	 1.378511373129517e+000	 2.443486192495283e-001	 2.138995855019601e+001
1	 1.375982319475984e+000	 2.582101435467623e-001	 2.118438684556323e+001
1	 1.373305332577932e+000	 2.720886651473819e-001	 2.097481362153738e+001
1	 1.420082758570117e+000	 1.368758781966621e-001	 2.343912429105382e+001
1	 1.418673070048106e+000	 1.507873419488461e-001	 2.320480031727233e+001
1	 1.417121494597922e+000	 1.647325718925951e-001	 2.297443587887028e+001
1	 1.415426810478104e+000	 1.787096385849206e-001	 2.274711696941818e+001
1	 1.413587826115396e+000	 1.927165755361990e-001	 2.252191331364987e+001
1	 1.411603381276482e+000	 2.067513796550519e-001	 2.229787932599285e+001
1	 1.409472348237812e+000	 2.208120117325893e-001	 2.207405511744149e+001
1	 1.407193632952109e+000	 2.348963969663925e-001	 2.184946755026405e+001
1	 1.404766176210132e+000	 2.490024255245532e-001	 2.162313133990853e+001
1	 1.402188954796221e+000	 2.631279531500440e-001	 2.139405020334370e+001
1	 1.399460982636122e+000	 2.772708018056259e-001	 2.116121805294149e+001
1	 1.446623799017982e+000	 1.394340588358277e-001	 2.395492319634489e+001
1	 1.445187763721549e+000	 1.536055248448193e-001	 2.369040801002897e+001
1	 1.443607189660832e+000	 1.678113881281315e-001	 2.343058088341232e+001
1	 1.441880832260298e+000	 1.820496831819193e-001	 2.317446883211387e+001
1	 1.440007477676460e+000	 1.963184067633098e-001	 2.292108351311290e+001
1	 1.437985943991505e+000	 2.106155183435960e-001	 2.266942229650220e+001
1	 1.435815082404983e+000	 2.249389406015317e-001	 2.241846938666767e+001
1	 1.433493778422127e+000	 2.392865599571062e-001	 2.216719699219179e+001
1	 1.431020953037317e+000	 2.536562271461264e-001	 2.191456654364475e+001
1	 1.428395563911226e+000	 2.680457578358819e-001	 2.165952995829096e+001
1	 1.425616606540098e+000	 2.824529332821062e-001	 2.140103095059956e+001
1	 1.473164819561149e+000	 1.419922375567004e-001	 2.454238711987432e+001
1	 1.471702437510035e+000	 1.564237056274813e-001	 2.424506871056930e+001
1	 1.470092864860527e+000	 1.708902020548769e-001	 2.395320479561120e+001
1	 1.468334834203037e+000	 1.853897252742113e-001	 2.366576411331712e+001
1	 1.466427109423857e+000	 1.999202352893867e-001	 2.338170141609781e+001
1	 1.464368486920693e+000	 2.144796541343939e-001	 2.309995866585277e+001
1	 1.462157796816215e+000	 2.290658663756561e-001	 2.281946627935997e+001
1	 1.459793904168173e+000	 2.436767196555978e-001	 2.253914442272945e+001
1	 1.457275710174585e+000	 2.583100252777679e-001	 2.225790435384862e+001
1	 1.454602153372468e+000	 2.729635588338008e-001	 2.197464981160289e+001
1	 1.451772210828581e+000	 2.876350608724305e-001	 2.168827845050955e+001
1	 1.499705826834654e+000	 1.445504149988501e-001	 2.519489019721484e+001
1	 1.498217098042018e+000	 1.592418850014028e-001	 2.486218227633008e+001
1	 1.496578526818215e+000	 1.739690144425641e-001	 2.453575154936852e+001
1	 1.494788822919614e+000	 1.887297656968416e-001	 2.421450913516981e+001
1	 1.492846727962297e+000	 2.035220620149284e-001	 2.389735398718742e+001
1	 1.490751016659494e+000	 2.183437879935286e-001	 2.358317422270213e+001
1	 1.488500498057003e+000	 2.331927900867511e-001	 2.327084850209569e+001
1	 1.486094016765102e+000	 2.480668771594715e-001	 2.295924745699237e+001
1	 1.483530454185450e+000	 2.629638210829976e-001	 2.264723516592508e+001
1	 1.480808729731422e+000	 2.778813573733251e-001	 2.233367067603232e+001
1	 1.477927802040291e+000	 2.928171858722059e-001	 2.201740956913948e+001
1	 1.526246827473539e+000	 1.471085918018469e-001	 2.590626745100661e+001
1	 1.524731751945950e+000	 1.620600636711551e-001	 2.553560766122826e+001
1	 1.523064182155104e+000	 1.770478260609258e-001	 2.517212110781895e+001
1	 1.521242805023325e+000	 1.920698052848553e-001	 2.481466190812560e+001
1	 1.519266339896488e+000	 2.071238878404338e-001	 2.446207426869198e+001
1	 1.517133539803352e+000	 2.222079208870836e-001	 2.411319395824063e+001
1	 1.514843192712843e+000	 2.373197127666054e-001	 2.376684983029107e+001
1	 1.512394122787768e+000	 2.524570335663319e-001	 2.342186539392561e+001
1	 1.509785191633430e+000	 2.676176157253354e-001	 2.307706043105520e+001
1	 1.507015299539557e+000	 2.827991546839795e-001	 2.273125265838138e+001
1	 1.504083386713946e+000	 2.979993095770399e-001	 2.238325943208909e+001
1	 1.242526461118596e+000	 2.461778587834510e-001	 2.108821398296045e+001
1	 1.239969321048035e+000	 2.587500404700431e-001	 2.094734339544771e+001
1	 1.237276647587192e+000	 2.713336459116922e-001	 2.080563554499958e+001
1	 1.234447670954891e+000	 2.839266512220444e-001	 2.066256240929154e+001
1	 1.231481658369039e+000	 2.965270050962132e-001	 2.051760432636761e+001
1	 1.228377915011984e+000	 3.091326295656696e-001	 2.037025092325332e+001
1	 1.225135784980603e+000	 3.217414207892365e-001	 2.022000204879344e+001
1	 1.221754652219686e+000	 3.343512498799867e-001	 2.006636870898794e+001
1	 1.218233941437156e+000	 3.469599637677736e-001	 1.990887400304674e+001
1	 1.214573118999657e+000	 3.595653860970647e-001	 1.974705405833531e+001
1	 1.210771693807061e+000	 3.721653181596841e-001	 1.958045896233783e+001
1	 1.268682340028648e+000	 2.513600407846233e-001	 2.089999998961494e+001
1	 1.266071370725263e+000	 2.641968739471594e-001	 2.075224716776685e+001
1	 1.263322014977708e+000	 2.770453713412648e-001	 2.060464414645219e+001
1	 1.260433486800480e+000	 2.899034664766287e-001	 2.045658576599438e+001
1	 1.257405037986019e+000	 3.027690648672337e-001	 2.030747442011798e+001
1	 1.254235959090373e+000	 3.156400448021336e-001	 2.015672108007471e+001
1	 1.250925580403296e+000	 3.285142581531009e-001	 2.000374632591921e+001
1	 1.247473272901273e+000	 3.413895312189304e-001	 1.984798138308575e+001
1	 1.243878449182009e+000	 3.542636656061270e-001	 1.968886916235510e+001
1	 1.240140564378870e+000	 3.671344391456396e-001	 1.952586530124217e+001
1	 1.236259117053800e+000	 3.799996068452375e-001	 1.935843920478066e+001
1	 1.294838160090887e+000	 2.565422111259951e-001	 2.080302997646088e+001
1	 1.292173361675890e+000	 2.696436951690278e-001	 2.064464253347812e+001
1	 1.289367323769279e+000	 2.827570839196106e-001	 2.048735067012985e+001
1	 1.286419244181258e+000	 2.958802682835723e-001	 2.033047884107361e+001
1	 1.283328359278822e+000	 3.090111105938581e-001	 2.017335861208428e+001
1	 1.280093944991751e+000	 3.221474453972028e-001	 2.001532977833574e+001
1	 1.276715317802694e+000	 3.352870802784264e-001	 1.985574149213946e+001
1	 1.273191835719854e+000	 3.484277967221452e-001	 1.969395339815651e+001
1	 1.269522899230740e+000	 3.615673510116164e-001	 1.952933677402975e+001
1	 1.265707952235458e+000	 3.747034751643715e-001	 1.936127567431478e+001
1	 1.261746482958037e+000	 3.878338779042281e-001	 1.918916807552666e+001
1	 1.320993927844035e+000	 2.617243711031739e-001	 2.078849122760255e+001
1	 1.318275300425168e+000	 2.750905054974155e-001	 2.061603578106516e+001
1	 1.315412580472970e+000	 2.884687850747152e-001	 2.044559307896002e+001
1	 1.312404949593380e+000	 3.018570581371237e-001	 2.027642360949309e+001
1	 1.309251628727974e+000	 3.152531438366363e-001	 2.010779488051505e+001
1	 1.305951879180282e+000	 3.286548329777549e-001	 1.993898263068667e+001
1	 1.302505003625874e+000	 3.420598888584344e-001	 1.976927205180960e+001
1	 1.298910347104691e+000	 3.554660481492021e-001	 1.959795902019282e+001
1	 1.295167297994062e+000	 3.688710218101569e-001	 1.942435133484721e+001
1	 1.291275288960849e+000	 3.822724960455040e-001	 1.924776996022558e+001
1	 1.287233797891179e+000	 3.956681332952001e-001	 1.906755027115650e+001
1	 1.347149649826810e+000	 2.669065220117671e-001	 2.084825545645971e+001
1	 1.344377193498347e+000	 2.805373062940901e-001	 2.065859285206714e+001
1	 1.341457791599845e+000	 2.941804762345625e-001	 2.047184322872251e+001
1	 1.338390609533002e+000	 3.078338375315319e-001	 2.028720922074506e+001
1	 1.335174852813998e+000	 3.214951661561187e-001	 2.010390072864220e+001
1	 1.331809768120134e+000	 3.351622091706677e-001	 1.992113622196497e+001
1	 1.328294644319918e+000	 3.488326855863470e-001	 1.973814405445721e+001
1	 1.324628813485048e+000	 3.625042872596722e-001	 1.955416378921015e+001
1	 1.320811651882687e+000	 3.761746798276636e-001	 1.936844753144962e+001
1	 1.316842580946469e+000	 3.898415036812795e-001	 1.918026126650216e+001
1	 1.312721068224635e+000	 4.035023749766975e-001	 1.898888620041133e+001
1	 1.373305332577932e+000	 2.720886651473819e-001	 2.097481362153738e+001
1	 1.370479047420677e+000	 2.859840989208189e-001	 2.076507651652656e+001
1	 1.367502963660969e+000	 2.998921588271373e-001	 2.055914649688664e+001
1	 1.364376230496282e+000	 3.138106079610459e-001	 2.035617417232847e+001
1	 1.361098038017419e+000	 3.277371791128551e-001	 2.015531799148944e+001
1	 1.357667618275472e+000	 3.416695756028192e-001	 1.995574563535845e+001
1	 1.354084246331905e+000	 3.556054721553858e-001	 1.975663542355874e+001
1	 1.350347241290185e+000	 3.695425158131266e-001	 1.955717773103029e+001
1	 1.346455967307327e+000	 3.834783268900515e-001	 1.935657641256269e+001
1	 1.342409834583748e+000	 3.974104999639416e-001	 1.915405023254447e+001
1	 1.338208300329813e+000	 4.113366049072643e-001	 1.894883429721426e+001
1	 1.399460982636122e+000	 2.772708018056259e-001	 2.116121805294149e+001
1	 1.396580868717411e+000	 2.914308847393696e-001	 2.092879059453304e+001
1	 1.393548103167406e+000	 3.056038342804243e-001	 2.070106818238444e+001
1	 1.390361818979375e+000	 3.197873709199146e-001	 2.047715496876851e+001
1	 1.387021190818762e+000	 3.339791842673958e-001	 2.025616383288038e+001
1	 1.383525436110463e+000	 3.481769339010871e-001	 2.003721786377843e+001
1	 1.379873816108914e+000	 3.623782502587722e-001	 1.981945185619890e+001
1	 1.376065636949365e+000	 3.765807355691361e-001	 1.960201381660342e+001
1	 1.372100250678695e+000	 3.907819648232359e-001	 1.938406647672450e+001
1	 1.367977056264114e+000	 4.049794867857330e-001	 1.916478881178453e+001
1	 1.363695500578122e+000	 4.191708250454448e-001	 1.894337756047979e+001
1	 1.425616606540098e+000	 2.824529332821062e-001	 2.140103095059957e+001
1	 1.422682663913799e+000	 2.968776651115094e-001	 2.114353031881564e+001
1	 1.419593216630219e+000	 3.113155040224080e-001	 2.089164580661527e+001
1	 1.416347381478437e+000	 3.257641279023868e-001	 2.064444043313113e+001
1	 1.412944317698551e+000	 3.402211831802908e-001	 2.040098713753572e+001
1	 1.409383228089274e+000	 3.546842856923493e-001	 2.016037035050748e+001
1	 1.405663360098026e+000	 3.691510215897284e-001	 1.992168757805136e+001
1	 1.401784006891852e+000	 3.836189482872719e-001	 1.968405099483998e+001
1	 1.397744508407502e+000	 3.980855954531314e-001	 1.944658904414391e+001
1	 1.393544252378993e+000	 4.125484660388972e-001	 1.920844804132677e+001
1	 1.389182675340970e+000	 4.270050373497829e-001	 1.896879377779460e+001
1	 1.451772210828581e+000	 2.876350608724305e-001	 2.168827845050955e+001
1	 1.448784439535093e+000	 3.023244413990055e-001	 2.140353806379948e+001
1	 1.445638310560474e+000	 3.170271694810730e-001	 2.112534657134686e+001
1	 1.442332924489626e+000	 3.317408804027114e-001	 2.085273095807109e+001
1	 1.438867425137311e+000	 3.464631774120902e-001	 2.058472961776545e+001
1	 1.435241000676072e+000	 3.611916326034839e-001	 2.032039401215501e+001
1	 1.431452884746319e+000	 3.759237878414755e-001	 2.005879034126841e+001
1	 1.427502357546905e+000	 3.906571557271049e-001	 1.979900122208554e+001
1	 1.423388746904461e+000	 4.053892206056537e-001	 1.954012737232221e+001
1	 1.419111429319816e+000	 4.201174396156769e-001	 1.928128929611918e+001
1	 1.414669830989763e+000	 4.348392437788227e-001	 1.902162896831488e+001
1	 1.477927802040291e+000	 2.928171858722059e-001	 2.201740956913948e+001
1	 1.474886202106543e+000	 3.077712149636254e-001	 2.170346377622415e+001
1	 1.471683391469234e+000	 3.227388320844039e-001	 2.139702933457498e+001
1	 1.468318454509097e+000	 3.377176299151375e-001	 2.109710208440694e+001
1	 1.464790519615566e+000	 3.527051685233442e-001	 2.080269105061896e+001
1	 1.461098760335022e+000	 3.676989762613686e-001	 2.051282018856429e+001
1	 1.457242396500875e+000	 3.826965507072358e-001	 2.022653013958481e+001
1	 1.453220695343789e+000	 3.976953596482062e-001	 1.994287999305596e+001
1	 1.449032972580285e+000	 4.126928421067173e-001	 1.966094905158663e+001
1	 1.444678593478009e+000	 4.276864094083155e-001	 1.937983859592341e+001
1	 1.440156973895912e+000	 4.426734462911082e-001	 1.909867364602030e+001
1	 1.504083386713946e+000	 2.979993095770399e-001	 2.238325943208910e+001
1	 1.500987958153399e+000	 3.132179871671365e-001	 2.203832953493258e+001
1	 1.497728465867564e+000	 3.284504932603852e-001	 2.170191055430391e+001
1	 1.494303978033006e+000	 3.436943779339137e-001	 2.137297188036915e+001
1	 1.490713607613841e+000	 3.589471580746027e-001	 2.105049814263159e+001
1	 1.486956513530291e+000	 3.742063182928812e-001	 2.073349104158521e+001
1	 1.483031901808774e+000	 3.894693118802305e-001	 2.042097118808407e+001
1	 1.478939026711766e+000	 4.047335618101468e-001	 2.011197994694824e+001
1	 1.474677191845686e+000	 4.199964617822379e-001	 1.980558128122408e+001
1	 1.470245751245001e+000	 4.352553773090560e-001	 1.950086359342116e+001
1	 1.465644110430824e+000	 4.505076468451837e-001	 1.919694155996093e+001
1	 1.210771693807061e+000	 3.721653181596841e-001	 1.958045896233783e+001
1	 1.206829217841571e+000	 3.847575396775871e-001	 1.941016956285080e+001
1	 1.202745286085772e+000	 3.973398092324930e-001	 1.923738776990871e+001
1	 1.198519538232249e+000	 4.099098658216918e-001	 1.906187379023748e+001
1	 1.194151659763825e+000	 4.224654301051314e-001	 1.888341173131735e+001
1	 1.189641382703130e+000	 4.350042055046847e-001	 1.870181028808273e+001
1	 1.184988486332486e+000	 4.475238793346628e-001	 1.851690339867610e+001
1	 1.180192797882715e+000	 4.600221239627187e-001	 1.832855086728873e+001
1	 1.175254193189512e+000	 4.724965980002161e-001	 1.813663895215873e+001
1	 1.170172597316046e+000	 4.849449475210771e-001	 1.794108091684022e+001
1	 1.164947985140473e+000	 4.973648073080526e-001	 1.774181754290813e+001
1	 1.236259117053800e+000	 3.799996068452375e-001	 1.935843920478066e+001
1	 1.232233649757977e+000	 3.928569016887678e-001	 1.918777252692003e+001
1	 1.228063748948146e+000	 4.057040350748470e-001	 1.901518946688191e+001
1	 1.223749046732216e+000	 4.185386984054039e-001	 1.884040342408912e+001
1	 1.219289221972249e+000	 4.313585643590141e-001	 1.866315407684610e+001
1	 1.214684001049800e+000	 4.441612880133066e-001	 1.848320815820297e+001
1	 1.209933158600961e+000	 4.569445079992766e-001	 1.830036019773811e+001
1	 1.205036518219666e+000	 4.697058476866244e-001	 1.811443322705560e+001
1	 1.199993953127882e+000	 4.824429163991847e-001	 1.792527944683392e+001
1	 1.194805386811314e+000	 4.951533106594304e-001	 1.773278085331102e+001
1	 1.189470793619292e+000	 5.078346154609772e-001	 1.753684982214523e+001
1	 1.261746482958037e+000	 3.878338779042281e-001	 1.918916807552666e+001
1	 1.257638024518648e+000	 4.009562454770290e-001	 1.901434090241912e+001
1	 1.253382154848216e+000	 4.140682420983951e-001	 1.883827989347775e+001
1	 1.248978498470000e+000	 4.271675115750019e-001	 1.866065305446342e+001
1	 1.244426727625320e+000	 4.402516786041618e-001	 1.848115667548617e+001
1	 1.239726563054677e+000	 4.533183499193709e-001	 1.829951619003642e+001
1	 1.234877774747946e+000	 4.663651154684180e-001	 1.811548699733023e+001
1	 1.229880182662189e+000	 4.793895496231639e-001	 1.792885524554927e+001
1	 1.224733657405657e+000	 4.923892124200253e-001	 1.773943857359917e+001
1	 1.219438120886602e+000	 5.053616508301388e-001	 1.754708680906104e+001
1	 1.213993546925534e+000	 5.183044000580986e-001	 1.735168262006999e+001
1	 1.287233797891179e+000	 3.956681332952001e-001	 1.906755027115650e+001
1	 1.283042348474234e+000	 4.090555730671776e-001	 1.888519372938350e+001
1	 1.278700510115135e+000	 4.224324323941558e-001	 1.870237193163534e+001
1	 1.274207899752516e+000	 4.357963074876533e-001	 1.851870888072265e+001
1	 1.269564183006969e+000	 4.491447750638160e-001	 1.833385851389082e+001
1	 1.264769074977957e+000	 4.624753935121033e-001	 1.814750563927603e+001
1	 1.259822341009157e+000	 4.757857040971966e-001	 1.795936683358305e+001
1	 1.254723797420769e+000	 4.890732321932149e-001	 1.776919129837087e+001
1	 1.249473312207339e+000	 5.023354885492570e-001	 1.757676167237583e+001
1	 1.244070805699674e+000	 5.155699705852225e-001	 1.738189479735627e+001
1	 1.238516251189468e+000	 5.287741637167839e-001	 1.718444243500381e+001
1	 1.312721068224635e+000	 4.035023749766975e-001	 1.898888620041133e+001
1	 1.308446627975386e+000	 4.171548864840204e-001	 1.879601357998404e+001
1	 1.304018821078061e+000	 4.307966080531482e-001	 1.860351140766542e+001
1	 1.299437256886679e+000	 4.444250883005265e-001	 1.841096105288207e+001
1	 1.294701594401127e+000	 4.580378559612176e-001	 1.821797513013484e+001
1	 1.289811543079843e+000	 4.716324210807296e-001	 1.802419850737227e+001
1	 1.284766863620316e+000	 4.852062762407214e-001	 1.782930927398909e+001
1	 1.279567368705895e+000	 4.987568978176555e-001	 1.763301966566004e+001
1	 1.274212923717429e+000	 5.122817472733993e-001	 1.743507694326468e+001
1	 1.268703447408290e+000	 5.257782724767012e-001	 1.723526422321347e+001
1	 1.263038912541362e+000	 5.392439090544005e-001	 1.703340125654977e+001
1	 1.338208300329813e+000	 4.113366049072643e-001	 1.894883429721426e+001
1	 1.333850869372756e+000	 4.252541877523638e-001	 1.874281193634667e+001
1	 1.329337094066145e+000	 4.391607711663916e-001	 1.853804538322919e+001
1	 1.324666576179405e+000	 4.530538561707893e-001	 1.833407472393892e+001
1	 1.319838968091726e+000	 4.669309235196080e-001	 1.813047227554242e+001
1	 1.314853973620533e+000	 4.807894349144758e-001	 1.792684366109664e+001
1	 1.309711348817139e+000	 4.946268342541015e-001	 1.772282884315714e+001
1	 1.304410902728050e+000	 5.084405489173637e-001	 1.751810311284777e+001
1	 1.298952498120429e+000	 5.222279910789710e-001	 1.731237803159111e+001
1	 1.293336052170214e+000	 5.359865590565953e-001	 1.710540232265453e+001
1	 1.287561537111484e+000	 5.497136386883157e-001	 1.689696270973150e+001
1	 1.363695500578122e+000	 4.191708250454448e-001	 1.894337756047979e+001
1	 1.359255079016994e+000	 4.333534788970149e-001	 1.872189845142711e+001
1	 1.354655335408544e+000	 4.475249238249043e-001	 1.850259400264648e+001
1	 1.349895863937609e+000	 4.616826132556096e-001	 1.828496434883114e+001
1	 1.344976310362695e+000	 4.758239799622282e-001	 1.806854253047635e+001
1	 1.339896372860226e+000	 4.899464373025678e-001	 1.785289563041861e+001
1	 1.334655802835345e+000	 5.040473804924456e-001	 1.763762586822907e+001
1	 1.329254405697723e+000	 5.181241879132170e-001	 1.742237164937736e+001
1	 1.323692041600839e+000	 5.321742224524918e-001	 1.720680856612700e+001
1	 1.317968626143207e+000	 5.461948328769254e-001	 1.699065034717804e+001
1	 1.312084131030102e+000	 5.601833552358968e-001	 1.677364975313815e+001
1	 1.389182675340970e+000	 4.270050373497829e-001	 1.896879377779460e+001
1	 1.384659263258752e+000	 4.414527619427804e-001	 1.872985359417547e+001
1	 1.379973551434412e+000	 4.558890681197056e-001	 1.849402543973483e+001
1	 1.375125126468206e+000	 4.703113617121550e-001	 1.826077081300740e+001
1	 1.370113627497968e+000	 4.847170275123194e-001	 1.802958449466193e+001
1	 1.364938747059123e+000	 4.991034305342312e-001	 1.779999574067575e+001
1	 1.359600231910653e+000	 5.134679173108632e-001	 1.757156943316135e+001
1	 1.354097883825400e+000	 5.278078172260935e-001	 1.734390718564105e+001
1	 1.348431560343163e+000	 5.421204438804806e-001	 1.711664839961012e+001
1	 1.342601175485032e+000	 5.564030964897108e-001	 1.688947126928124e+001
1	 1.336606700427484e+000	 5.706530613145109e-001	 1.666209373146834e+001
1	 1.414669830989763e+000	 4.348392437788227e-001	 1.902162896831488e+001
1	 1.410063428448682e+000	 4.495520389144668e-001	 1.876350425212277e+001
1	 1.405291748472902e+000	 4.642532061418142e-001	 1.850943355322885e+001
1	 1.400354370078112e+000	 4.789401036975940e-001	 1.825884103370315e+001
1	 1.395250925781475e+000	 4.936100683931229e-001	 1.801118422731392e+001
1	 1.389981102477423e+000	 5.082604168986921e-001	 1.776595528460750e+001
1	 1.384544642278781e+000	 5.228884470644629e-001	 1.752268217587584e+001
1	 1.378941343321566e+000	 5.374914392768713e-001	 1.728092984870597e+001
1	 1.373171060531900e+000	 5.520666578494572e-001	 1.704030133684658e+001
1	 1.367233706353451e+000	 5.666113524469723e-001	 1.680043881717874e+001
1	 1.361129251433898e+000	 5.811227595415255e-001	 1.656102461163995e+001
1	 1.440156973895912e+000	 4.426734462911082e-001	 1.909867364602030e+001
1	 1.435467580937434e+000	 4.576513118368814e-001	 1.881990192496571e+001
1	 1.430609932853170e+000	 4.726173399822491e-001	 1.854611791518754e+001
1	 1.425583601074242e+000	 4.875688413690944e-001	 1.827670972755520e+001
1	 1.420388211497145e+000	 5.025031048278797e-001	 1.801109865831671e+001
1	 1.415023445375325e+000	 5.174173986851759e-001	 1.774874048151407e+001
1	 1.409489040175448e+000	 5.323089721083543e-001	 1.748912669994880e+001
1	 1.403784790396708e+000	 5.471750564864277e-001	 1.723178575130616e+001
1	 1.397910548351551e+000	 5.620128668459404e-001	 1.697628416608530e+001
1	 1.391866224906227e+000	 5.768196033007297e-001	 1.672222767403093e+001
1	 1.385651790179613e+000	 5.915924525343077e-001	 1.646926225582221e+001
1	 1.465644110430824e+000	 4.505076468451837e-001	 1.919694155996093e+001
1	 1.460871727075660e+000	 4.657505827348306e-001	 1.889630319370927e+001
1	 1.455928110904371e+000	 4.809814717320294e-001	 1.860156592349088e+001
1	 1.450812825763512e+000	 4.961975768838239e-001	 1.831208308081479e+001
1	 1.445525490928912e+000	 5.113961390398313e-001	 1.802724073049221e+001
1	 1.440065782013028e+000	 5.265743781829089e-001	 1.774645900596746e+001
1	 1.434433431836373e+000	 5.417294947976459e-001	 1.746919340427643e+001
1	 1.428628231261313e+000	 5.568586712756410e-001	 1.719493603717307e+001
1	 1.422650029986620e+000	 5.719590733564495e-001	 1.692321683499802e+001
1	 1.416498737301121e+000	 5.870278516030030e-001	 1.665360469990919e+001
1	 1.410174322794896e+000	 6.020621429102250e-001	 1.638570860515033e+001
1	 1.164947985140473e+000	 4.973648073080526e-001	 1.774181754290813e+001
1	 1.159581197877747e+000	 5.097519464059583e-001	 1.753919412178593e+001
1	 1.154071539441347e+000	 5.221058475389500e-001	 1.733358455356561e+001
1	 1.148419138145507e+000	 5.344241210826426e-001	 1.712510907084654e+001
1	 1.142624174058487e+000	 5.467043713871074e-001	 1.691392151639167e+001
1	 1.136686879394964e+000	 5.589441981408801e-001	 1.670020945981096e+001
1	 1.130607538866382e+000	 5.711411977547047e-001	 1.648419425499455e+001
1	 1.124386489988285e+000	 5.832929647635357e-001	 1.626613103722842e+001
1	 1.118024123343679e+000	 5.953970932452810e-001	 1.604630865905854e+001
1	 1.111520882801578e+000	 6.074511782547065e-001	 1.582504956410780e+001
1	 1.104877265689896e+000	 6.194528172708822e-001	 1.560270959819389e+001
1	 1.189470793619292e+000	 5.078346154609772e-001	 1.753684982214523e+001
1	 1.183991032474813e+000	 5.204825107846713e-001	 1.733787876334022e+001
1	 1.178365392638336e+000	 5.330964684657114e-001	 1.713626115572798e+001
1	 1.172594005125170e+000	 5.456740485767645e-001	 1.693204905692980e+001
1	 1.166677053794102e+000	 5.582128050381114e-001	 1.672532943336242e+001
1	 1.160614775748049e+000	 5.707102870103701e-001	 1.651622438087109e+001
1	 1.154407461691780e+000	 5.831640403073666e-001	 1.630489128476059e+001
1	 1.148055456245717e+000	 5.955716088276521e-001	 1.609152291793067e+001
1	 1.141559158214848e+000	 6.079305360031093e-001	 1.587634747595580e+001
1	 1.134919020811867e+000	 6.202383662630417e-001	 1.565962854808885e+001
1	 1.128135551833708e+000	 6.324926465120909e-001	 1.544166502331373e+001
1	 1.213993546925534e+000	 5.183044000580986e-001	 1.735168262006999e+001
1	 1.208400812153459e+000	 5.312130510209823e-001	 1.715363278189114e+001
1	 1.202659191177848e+000	 5.440870646650543e-001	 1.695332372063869e+001
1	 1.196768817715077e+000	 5.569239507601439e-001	 1.675074799019937e+001
1	 1.190729879414451e+000	 5.697212127968530e-001	 1.654593414383598e+001
1	 1.184542618267112e+000	 5.824763494079926e-001	 1.633894704335585e+001
1	 1.178207330971136e+000	 5.951868558105830e-001	 1.612988810648482e+001
1	 1.171724369251810e+000	 6.078502252668817e-001	 1.591889549096008e+001
1	 1.165094140136081e+000	 6.204639505628590e-001	 1.570614421398934e+001
1	 1.158317106180301e+000	 6.330255255024672e-001	 1.549184620586426e+001
1	 1.151393785650396e+000	 6.455324464160297e-001	 1.527625029666346e+001
1	 1.238516251189468e+000	 5.287741637167839e-001	 1.718444243500381e+001
1	 1.232810543015708e+000	 5.419435697974288e-001	 1.698479669378317e+001
1	 1.226952941132905e+000	 5.550776388845086e-001	 1.678331369099768e+001
1	 1.220943581958496e+000	 5.681738304451133e-001	 1.657993465286133e+001
1	 1.214782656932294e+000	 5.812295975402648e-001	 1.637463769621610e+001
1	 1.208470412933654e+000	 5.942423882750677e-001	 1.616743821140060e+001
1	 1.202007152653947e+000	 6.072096472698342e-001	 1.595838918228605e+001
1	 1.195393234923308e+000	 6.201288171506310e-001	 1.574758144183216e+001
1	 1.188629074990625e+000	 6.329973400576118e-001	 1.553514386165032e+001
1	 1.181715144755887e+000	 6.458126591694798e-001	 1.532124347420275e+001
1	 1.174651972953994e+000	 6.585722202423398e-001	 1.510608552641564e+001
1	 1.263038912541362e+000	 5.392439090544005e-001	 1.703340125654977e+001
1	 1.257220231163583e+000	 5.526740697965494e-001	 1.682983988512492e+001
1	 1.251246648576530e+000	 5.660681938716050e-001	 1.662488577455402e+001
1	 1.245118303898696e+000	 5.794236904440049e-001	 1.641843654271272e+001
1	 1.238835392360393e+000	 5.927379621452803e-001	 1.621042739807346e+001
1	 1.232398165729178e+000	 6.060084065529144e-001	 1.600083158197260e+001
1	 1.225806932689711e+000	 6.192324176906022e-001	 1.578966074715679e+001
1	 1.219062059176956e+000	 6.324073875483049e-001	 1.557696527083153e+001
1	 1.212163968661729e+000	 6.455307076204506e-001	 1.536283450057040e+001
1	 1.205113142387636e+000	 6.585997704605783e-001	 1.514739693158604e+001
1	 1.197910119558531e+000	 6.716119712506629e-001	 1.493082031401428e+001
1	 1.287561537111484e+000	 5.497136386883157e-001	 1.689696270973150e+001
1	 1.281629882699106e+000	 5.634045537008822e-001	 1.668734833901319e+001
1	 1.275540319581744e+000	 5.770587323738733e-001	 1.647679715758140e+001
1	 1.269292989578943e+000	 5.906735335691515e-001	 1.626517047237195e+001
1	 1.262888091711506e+000	 6.042463094888311e-001	 1.605236769703560e+001
1	 1.256325882635189e+000	 6.177744071828526e-001	 1.583832683979518e+001
1	 1.249606677027924e+000	 6.312551700783681e-001	 1.562302492683978e+001
1	 1.242730847929497e+000	 6.446859395293100e-001	 1.540647835937964e+001
1	 1.235698827032637e+000	 6.580640563844562e-001	 1.518874320262151e+001
1	 1.228511104924556e+000	 6.713868625722594e-001	 1.496991540506855e+001
1	 1.221168231278044e+000	 6.846517027006408e-001	 1.475013094669990e+001
1	 1.312084131030102e+000	 5.601833552358968e-001	 1.677364975313815e+001
1	 1.306039503724299e+000	 5.741350241929648e-001	 1.655601373921194e+001
1	 1.299833960221570e+000	 5.880492571388442e-001	 1.633789792811789e+001
1	 1.293467645042504e+000	 6.019233626328854e-001	 1.611913422285375e+001
1	 1.286940760998396e+000	 6.157546424478506e-001	 1.589959297227652e+001
1	 1.280253569633189e+000	 6.295403931062016e-001	 1.567918349119762e+001
1	 1.273406391618082e+000	 6.432779074386127e-001	 1.545785451541483e+001
1	 1.266399607097675e+000	 6.569644761630513e-001	 1.523559458973474e+001
1	 1.259233655986598e+000	 6.705973894827110e-001	 1.501243238717687e+001
1	 1.251909038215656e+000	 6.841739387010215e-001	 1.478843695769537e+001
1	 1.244426313926563e+000	 6.976914178519144e-001	 1.456371790490732e+001
1	 1.336606700427484e+000	 5.706530613145109e-001	 1.666209373146834e+001
1	 1.330449100341185e+000	 5.848654839553354e-001	 1.643462377348493e+001
1	 1.324127576569028e+000	 5.990397709140478e-001	 1.620712255357956e+001
1	 1.317642276332648e+000	 6.131731804475389e-001	 1.597939911606165e+001
1	 1.310993406233822e+000	 6.272629638992715e-001	 1.575130111964279e+001
1	 1.304181232704681e+000	 6.413063672642813e-001	 1.552271537684087e+001
1	 1.297206082409683e+000	 6.553006327768172e-001	 1.529356832785867e+001
1	 1.290068342598234e+000	 6.692430005189354e-001	 1.506382644695053e+001
1	 1.282768461406858e+000	 6.831307100482967e-001	 1.483349657942727e+001
1	 1.275306948109946e+000	 6.969610020433622e-001	 1.460262620759693e+001
1	 1.267684373318120e+000	 7.107311199641255e-001	 1.437130364409198e+001
1	 1.361129251433898e+000	 5.811227595415255e-001	 1.656102461163995e+001
1	 1.354858678651786e+000	 5.955959356705326e-001	 1.632205348526741e+001
1	 1.348421174697141e+000	 6.100302764470145e-001	 1.608348227975764e+001
1	 1.341816889492642e+000	 6.244229898254444e-001	 1.584510339029299e+001
1	 1.335046033430547e+000	 6.387712767200264e-001	 1.560674783031307e+001
1	 1.328108877831169e+000	 6.530723325984108e-001	 1.536828577769047e+001
1	 1.321005755352224e+000	 6.673233490984624e-001	 1.512962705505486e+001
1	 1.313737060347918e+000	 6.815215156663675e-001	 1.489072154226483e+001
1	 1.306303249176666e+000	 6.956640212142953e-001	 1.465155951916657e+001
1	 1.298704840456433e+000	 7.097480557957786e-001	 1.441217193692526e+001
1	 1.290942415266750e+000	 7.237708122969158e-001	 1.417263061637042e+001
1	 1.385651790179613e+000	 5.915924525343077e-001	 1.646926225582221e+001
1	 1.379268244758125e+000	 6.063263820210936e-001	 1.621725754378770e+001
1	 1.372714760678931e+000	 6.210207764852744e-001	 1.596605833703993e+001
1	 1.365991490565752e+000	 6.356727935789341e-001	 1.571544627926350e+001
1	 1.359098648601329e+000	 6.502795837870480e-001	 1.546524147706212e+001
1	 1.352036510994155e+000	 6.648382920499099e-001	 1.521530304073393e+001
1	 1.344805416395201e+000	 6.793460594090302e-001	 1.496552955900052e+001
1	 1.337405766263471e+000	 6.938000246747536e-001	 1.471585950570363e+001
1	 1.329838025179267e+000	 7.081973261137887e-001	 1.446627157662336e+001
1	 1.322102721104127e+000	 7.225351031547689e-001	 1.421678495472057e+001
1	 1.314200445586484e+000	 7.368104981099263e-001	 1.396745950226189e+001
1	 1.410174322794896e+000	 6.020621429102250e-001	 1.638570860515033e+001
1	 1.403677804762223e+000	 6.170568256895567e-001	 1.611926332082234e+001
1	 1.397008340587419e+000	 6.320112737763581e-001	 1.585399585558133e+001
1	 1.390166085595247e+000	 6.469225945203407e-001	 1.558968270900140e+001
1	 1.383151257758930e+000	 6.617878879772692e-001	 1.532613853415726e+001
1	 1.375964138175143e+000	 6.766042485600979e-001	 1.506321666116617e+001
1	 1.368605071488112e+000	 6.913687667140008e-001	 1.480080955461828e+001
1	 1.361074466261639e+000	 7.060785306134997e-001	 1.453884920295013e+001
1	 1.353372795297910e+000	 7.207306278798588e-001	 1.427730743795765e+001
1	 1.345500595902038e+000	 7.353221473168310e-001	 1.401619618279362e+001
1	 1.337458470091355e+000	 7.498501806627994e-001	 1.375556762695272e+001
1	 1.104877265689896e+000	 6.194528172708822e-001	 1.560270959819389e+001
1	 1.098092794993187e+000	 6.314013997351550e-001	 1.537783299293433e+001
1	 1.091169062434710e+000	 6.432927274468235e-001	 1.514891407727154e+001
1	 1.084106727484178e+000	 6.551244135982918e-001	 1.491617562632943e+001
1	 1.076906503314615e+000	 6.668940797275553e-001	 1.467986323418915e+001
1	 1.069569156736019e+000	 6.785993572081285e-001	 1.444024526133407e+001
1	 1.062095508079932e+000	 6.902378887419132e-001	 1.419761274157665e+001
1	 1.054486431034654e+000	 7.018073298531413e-001	 1.395227924814097e+001
1	 1.046742852430854e+000	 7.133053503815100e-001	 1.370458071867222e+001
1	 1.038865751977465e+000	 7.247296359725971e-001	 1.345487523904512e+001
1	 1.030856161947795e+000	 7.360778895636447e-001	 1.320354278594563e+001
1	 1.128135551833708e+000	 6.324926465120909e-001	 1.544166502331373e+001
1	 1.121208264223476e+000	 6.446927533389900e-001	 1.522077503476414e+001
1	 1.114138783211110e+000	 6.568344001685658e-001	 1.499532114197277e+001
1	 1.106927782148541e+000	 6.689151499495939e-001	 1.476561844933076e+001
1	 1.099575989221505e+000	 6.809325741521235e-001	 1.453201063378512e+001
1	 1.092084187381794e+000	 6.928842542887643e-001	 1.429486975919513e+001
1	 1.084453214229405e+000	 7.047677834389823e-001	 1.405459603852930e+001
1	 1.076683961844281e+000	 7.165807677744921e-001	 1.381161754375554e+001
1	 1.068777376567416e+000	 7.283208280838213e-001	 1.356638986340568e+001
1	 1.060734458731179e+000	 7.399856012941009e-001	 1.331939570792815e+001
1	 1.052556262338826e+000	 7.515727419881261e-001	 1.307114446307423e+001
1	 1.151393785650396e+000	 6.455324464160297e-001	 1.527625029666346e+001
1	 1.144323681448046e+000	 6.579840770396939e-001	 1.505751445296029e+001
1	 1.137108452309784e+000	 6.703760424240129e-001	 1.483392046712682e+001
1	 1.129748785469733e+000	 6.827058552742500e-001	 1.460585853236931e+001
1	 1.122245424126297e+000	 6.949710369926212e-001	 1.437375233686722e+001
1	 1.114599167373023e+000	 7.071691192309458e-001	 1.413805876428156e+001
1	 1.106810870078322e+000	 7.192976454463669e-001	 1.389926753203673e+001
1	 1.098881442713736e+000	 7.313541724581945e-001	 1.365790076738194e+001
1	 1.090811851130529e+000	 7.433362720038976e-001	 1.341451252139546e+001
1	 1.082603116284461e+000	 7.552415322922724e-001	 1.316968822125333e+001
1	 1.074256313908682e+000	 7.670675595517769e-001	 1.292404406124355e+001
1	 1.174651972953994e+000	 6.585722202423398e-001	 1.510608552641564e+001
1	 1.167439052445210e+000	 6.712753741597765e-001	 1.488772361894107e+001
1	 1.160078075472602e+000	 6.839176575982479e-001	 1.466440052653489e+001
1	 1.152569743152447e+000	 6.964965330196067e-001	 1.443656525595660e+001
1	 1.144914813695786e+000	 7.090094717583353e-001	 1.420470443738361e+001
1	 1.137114102337887e+000	 7.214539556055635e-001	 1.396934192959996e+001
1	 1.129168481215533e+000	 7.338274783962134e-001	 1.373103835440847e+001
1	 1.121078879191826e+000	 7.461275475972879e-001	 1.349039056040367e+001
1	 1.112846281628262e+000	 7.583516858952986e-001	 1.324803101642151e+001
1	 1.104471730103942e+000	 7.704974327808040e-001	 1.300462713516483e+001
1	 1.095956322081866e+000	 7.825623461280227e-001	 1.276088052768489e+001
1	 1.197910119558531e+000	 6.716119712506629e-001	 1.493082031401427e+001
1	 1.190554382993286e+000	 6.845666480217496e-001	 1.471110033877666e+001
1	 1.183047658441432e+000	 6.974592490763552e-001	 1.448647397846055e+001
1	 1.175390660901376e+000	 7.102871866330096e-001	 1.425743366835337e+001
1	 1.167584163596768e+000	 7.230478819585515e-001	 1.402451283595230e+001
1	 1.159628997904562e+000	 7.357387669835083e-001	 1.378828542870370e+001
1	 1.151526053229886e+000	 7.483572859206673e-001	 1.354936536388284e+001
1	 1.143276276827363e+000	 7.609008968848122e-001	 1.330840590085779e+001
1	 1.134880673568683e+000	 7.733670735115833e-001	 1.306609893618084e+001
1	 1.126340305656252e+000	 7.857533065733875e-001	 1.282317422215181e+001
1	 1.117656292282877e+000	 7.980571055902893e-001	 1.258039850969899e+001
1	 1.221168231278044e+000	 6.846517027006408e-001	 1.475013094669990e+001
1	 1.213669678870589e+000	 6.978579019481238e-001	 1.452736543234886e+001
1	 1.206017206958142e+000	 7.110008202434178e-001	 1.429987536395686e+001
1	 1.198211544421214e+000	 7.240778195618056e-001	 1.406818204273726e+001
1	 1.190253479496037e+000	 7.370862711025564e-001	 1.383285040295701e+001
1	 1.182143859701229e+000	 7.500235569356701e-001	 1.359448847949055e+001
1	 1.173883591710230e+000	 7.628870716518743e-001	 1.335374679184878e+001
1	 1.165473641169157e+000	 7.756742240138078e-001	 1.311131764501167e+001
1	 1.156915032459861e+000	 7.883824386063120e-001	 1.286793434760893e+001
1	 1.148208848408022e+000	 8.010091574837155e-001	 1.262437034820870e+001
1	 1.139356229936217e+000	 8.135518418120015e-001	 1.238143829069154e+001
1	 1.244426313926563e+000	 6.976914178519144e-001	 1.456371790490732e+001
1	 1.236784945855437e+000	 7.111491392614100e-001	 1.433626058402053e+001
1	 1.228986726764600e+000	 7.245423744845198e-001	 1.410435906333828e+001
1	 1.221032399416653e+000	 7.378684352533408e-001	 1.386854970834669e+001
1	 1.212922767060388e+000	 7.511246426996362e-001	 1.362941445981668e+001
1	 1.204658693356066e+000	 7.643083290329400e-001	 1.338758025787424e+001
1	 1.196241102245413e+000	 7.774168392219808e-001	 1.314371837825418e+001
1	 1.187670977766017e+000	 7.904475326773144e-001	 1.289854368112987e+001
1	 1.178949363809866e+000	 8.033977849330436e-001	 1.265281377313783e+001
1	 1.170077363825882e+000	 8.162649893254801e-001	 1.240732808344500e+001
1	 1.161056140466386e+000	 8.290465586665842e-001	 1.216292685493407e+001
1	 1.267684373318120e+000	 7.107311199641255e-001	 1.437130364409198e+001
1	 1.259900189726144e+000	 7.244403632841190e-001	 1.413754642994029e+001
1	 1.251956223602675e+000	 7.380839151847439e-001	 1.389969747763910e+001
1	 1.243853231592387e+000	 7.516590371549613e-001	 1.365829512040967e+001
1	 1.235592031956618e+000	 7.651630002590770e-001	 1.341392453755996e+001
1	 1.227173504497251e+000	 7.785930868462080e-001	 1.316721715125198e+001
1	 1.218598590424284e+000	 7.919465922631326e-001	 1.291884993249488e+001
1	 1.209868292166755e+000	 8.052208265683716e-001	 1.266954461679754e+001
1	 1.200983673126766e+000	 8.184131162453378e-001	 1.242006683015091e+001
1	 1.191945857376462e+000	 8.315208059123731e-001	 1.217122512624570e+001
1	 1.182756029297883e+000	 8.445412600274632e-001	 1.192386993606902e+001
1	 1.290942415266750e+000	 7.237708122969158e-001	 1.417263061637042e+001
1	 1.283015416261027e+000	 7.377315773387618e-001	 1.393100085213512e+001
1	 1.274925703214236e+000	 7.516254457291739e-001	 1.368567940668045e+001
1	 1.266674046653109e+000	 7.654496287140142e-001	 1.343719413873915e+001
1	 1.258261279851520e+000	 7.792013472901653e-001	 1.318612037772767e+001
1	 1.249688298752963e+000	 7.928778339463646e-001	 1.293308030890891e+001
1	 1.240956061835691e+000	 8.064763344074757e-001	 1.267874226611722e+001
1	 1.232065589920179e+000	 8.199941093800192e-001	 1.242381993250175e+001
1	 1.223017965918630e+000	 8.334284362967542e-001	 1.216907144998407e+001
1	 1.213814334526392e+000	 8.467766110580868e-001	 1.191529843836756e+001
1	 1.204455901855211e+000	 8.600359497680635e-001	 1.166334492527746e+001
1	 1.314200445586484e+000	 7.368104981099263e-001	 1.396745950226189e+001
1	 1.306130631238402e+000	 7.510227847478495e-001	 1.371641745376983e+001
1	 1.297895171341149e+000	 7.651669695028937e-001	 1.346210859938634e+001
1	 1.289494850303512e+000	 7.792402133778452e-001	 1.320503848914092e+001
1	 1.280930516411890e+000	 7.932396873021873e-001	 1.294576014557902e+001
1	 1.272203081751379e+000	 8.071625739043004e-001	 1.268487345256875e+001
1	 1.263313522068484e+000	 8.210060692871558e-001	 1.242302445126686e+001
1	 1.254262876575102e+000	 8.347673848052973e-001	 1.216090454370106e+001
1	 1.245052247693526e+000	 8.484437488408523e-001	 1.189924960466771e+001
1	 1.235682800742303e+000	 8.620324085763136e-001	 1.163883900288652e+001
1	 1.226155763562868e+000	 8.755306317618103e-001	 1.138049453259720e+001
1	 1.337458470091355e+000	 7.498501806627994e-001	 1.375556762695272e+001
1	 1.329245840436585e+000	 7.643139888338926e-001	 1.349360419351745e+001
1	 1.320864633725284e+000	 7.787084898909862e-001	 1.322880245537794e+001
1	 1.312315648248289e+000	 7.930307945938000e-001	 1.296163438537797e+001
1	 1.303599747304523e+000	 8.072780238044296e-001	 1.269261882975443e+001
1	 1.294717859120680e+000	 8.214473102909055e-001	 1.242232091541956e+001
1	 1.285670976711510e+000	 8.355358005343189e-001	 1.215135136522584e+001
1	 1.276460157680332e+000	 8.495406565372459e-001	 1.188036572165282e+001
1	 1.267086523959525e+000	 8.634590576311914e-001	 1.161006347959450e+001
1	 1.257551261490825e+000	 8.772882022807456e-001	 1.134118712916728e+001
1	 1.247855619845356e+000	 8.910253098821287e-001	 1.107452110969944e+001
1	 1.030856161947795e+000	 7.360778895636447e-001	 1.320354278594562e+001
1	 1.022715166525019e+000	 7.473478326137195e-001	 1.294931706427295e+001
1	 1.014443900524439e+000	 7.585372058120380e-001	 1.269105516309810e+001
1	 1.006043549818665e+000	 7.696437712595147e-001	 1.242934789651281e+001
1	 9.975153511208504e-001	 7.806653141634373e-001	 1.216479824758833e+001
1	 9.888605914263493e-001	 7.915996442727785e-001	 1.189802069582900e+001
1	 9.800806074060003e-001	 8.024445972974047e-001	 1.162964052122404e+001
1	 9.711767847515960e-001	 8.131980363093015e-001	 1.136029308608670e+001
1	 9.621505574741556e-001	 8.238578531239378e-001	 1.109062309593322e+001
1	 9.530034071557008e-001	 8.344219696599167e-001	 1.082128384071293e+001
1	 9.437368621553292e-001	 8.448883392750972e-001	 1.055293641775741e+001
1	 1.052556262338826e+000	 7.515727419881261e-001	 1.307114446307423e+001
1	 1.044243894396206e+000	 7.630799236604066e-001	 1.282019311376217e+001
1	 1.035798513607119e+000	 7.745048394403977e-001	 1.256513704084665e+001
1	 1.027221330807447e+000	 7.858452043199752e-001	 1.230657068929806e+001
1	 1.018513608743844e+000	 7.970987568837924e-001	 1.204509830247032e+001
1	 1.009676661503627e+000	 8.082632607748014e-001	 1.178133323221604e+001
1	 1.000711853895297e+000	 8.193365061433413e-001	 1.151589722985469e+001
1	 9.916206007802294e-001	 8.303163110778581e-001	 1.124941971923886e+001
1	 9.824043663561701e-001	 8.412005230153463e-001	 1.098253705321484e+001
1	 9.730646633932649e-001	 8.519870201296238e-001	 1.071589175482316e+001
1	 9.636030524234189e-001	 8.626737126955777e-001	 1.045013174462923e+001
1	 1.074256313908682e+000	 7.670675595517769e-001	 1.292404406124355e+001
1	 1.065772573831665e+000	 7.788119793124742e-001	 1.267582812975596e+001
1	 1.057153078645655e+000	 7.904724371441629e-001	 1.242326193635065e+001
1	 1.048399064149761e+000	 8.020466009297870e-001	 1.216695143916901e+001
1	 1.039511819124084e+000	 8.135321626314671e-001	 1.190751130408937e+001
1	 1.030492684747856e+000	 8.249268397862400e-001	 1.164556418661929e+001
1	 1.021343053967182e+000	 8.362283769850172e-001	 1.138173999657289e+001
1	 1.012064370812964e+000	 8.474345473328055e-001	 1.111667514684828e+001
1	 1.002658129669613e+000	 8.585431538882246e-001	 1.085101178766570e+001
1	 9.931258744953387e-001	 8.695520310804036e-001	 1.058539702767207e+001
1	 9.834691979947897e-001	 8.804590461013546e-001	 1.032048214335746e+001
1	 1.095956322081866e+000	 7.825623461280227e-001	 1.276088052768489e+001
1	 1.087301210213081e+000	 7.945440035026687e-001	 1.251463898662199e+001
1	 1.078507600978236e+000	 8.064400029149779e-001	 1.226367762431316e+001
1	 1.069576755139626e+000	 8.182479651390546e-001	 1.200862127759832e+001
1	 1.060509987510751e+000	 8.299655355145810e-001	 1.175010362895825e+001
1	 1.051308666362708e+000	 8.415903854727679e-001	 1.148876644964648e+001
1	 1.041974212779163e+000	 8.531202140451907e-001	 1.122525882528753e+001
1	 1.032508099960486e+000	 8.645527493535050e-001	 1.096023636533899e+001
1	 1.022911852477707e+000	 8.758857500780444e-001	 1.069436039786397e+001
1	 1.013187045477039e+000	 8.871170069033347e-001	 1.042829715110461e+001
1	 1.003335303835817e+000	 8.982443439385991e-001	 1.016271692338795e+001
1	 1.117656292282877e+000	 7.980571055902893e-001	 1.258039850969899e+001
1	 1.108829808922140e+000	 8.102760001637359e-001	 1.233516550694065e+001
1	 1.099862085943054e+000	 8.224075407444853e-001	 1.208476796187194e+001
1	 1.090754409071060e+000	 8.344493009978826e-001	 1.182985647891779e+001
1	 1.081508119153021e+000	 8.463988796412525e-001	 1.157109182718989e+001
1	 1.072124611551856e+000	 8.582539020000586e-001	 1.130914413464134e+001
1	 1.062605335488745e+000	 8.700120215466197e-001	 1.104469206218281e+001
1	 1.052951793333486e+000	 8.816709214193184e-001	 1.077842195925552e+001
1	 1.043165539843673e+000	 8.932283159202766e-001	 1.051102700241156e+001
1	 1.033248181353480e+000	 9.046819519894958e-001	 1.024320631850280e+001
1	 1.023201374912877e+000	 9.160296106534807e-001	 9.975664094126667e+000
1	 1.139356229936217e+000	 8.135518418120015e-001	 1.238143829069154e+001
1	 1.130358375340526e+000	 8.260079732284229e-001	 1.213605875504903e+001
1	 1.121216538878298e+000	 8.383750546243289e-001	 1.188503993144927e+001
1	 1.111932031238083e+000	 8.506506125563763e-001	 1.162906464044860e+001
1	 1.102506219300071e+000	 8.628321991195993e-001	 1.136882832368061e+001
1	 1.092940525518970e+000	 8.749173935337853e-001	 1.110503817911165e+001
1	 1.083236427253435e+000	 8.869038037120627e-001	 1.083841227162910e+001
1	 1.073395456042649e+000	 8.987890678096056e-001	 1.056967862056873e+001
1	 1.063419196830736e+000	 9.105708557503934e-001	 1.029957426585426e+001
1	 1.053309287139780e+000	 9.222468707299641e-001	 1.002884431448615e+001
1	 1.043067416192346e+000	 9.338148506921709e-001	 9.758240969173620e+000
1	 1.161056140466386e+000	 8.290465586665842e-001	 1.216292685493407e+001
1	 1.151886914849926e+000	 8.417399266294754e-001	 1.191607064352453e+001
1	 1.142570965122156e+000	 8.543425485461513e-001	 1.166311213681283e+001
1	 1.133109626934713e+000	 8.668519038646394e-001	 1.140477241260121e+001
1	 1.123504293201081e+000	 8.792654980577411e-001	 1.114178872297912e+001
1	 1.113756413467723e+000	 8.915808642396221e-001	 1.087491356103143e+001
1	 1.103867493230738e+000	 9.037955647642769e-001	 1.060491369618312e+001
1	 1.093839093198666e+000	 9.159071928037287e-001	 1.033256917991057e+001
1	 1.083672828502116e+000	 9.279133739038656e-001	 1.005867232363425e+001
1	 1.073370367851056e+000	 9.398117675158186e-001	 9.784026650688768e+000
1	 1.062933432640599e+000	 9.516000685008400e-001	 9.509445824340014e+000
1	 1.182756029297883e+000	 8.445412600274632e-001	 1.192386993606902e+001
1	 1.173415432832025e+000	 8.574718642996397e-001	 1.167404468396455e+001
1	 1.163925370012821e+000	 8.703100265015967e-001	 1.141770456568730e+001
1	 1.154287201454969e+000	 8.830531789727772e-001	 1.115561457985591e+001
1	 1.144502346105226e+000	 8.956987805637957e-001	 1.088856051185297e+001
1	 1.134572280601786e+000	 9.082443182832425e-001	 1.061734792259150e+001
1	 1.124498538578164e+000	 9.206873089260210e-001	 1.034280109720611e+001
1	 1.114282709912222e+000	 9.330253006810482e-001	 1.006576195553588e+001
1	 1.103926439921037e+000	 9.452558747161652e-001	 9.787088926373500e+000
1	 1.093431428502421e+000	 9.573766467381373e-001	 9.507655787559315e+000
1	 1.082799429224013e+000	 9.693852685256590e-001	 9.228350474093913e+000
1	 1.204455901855211e+000	 8.600359497680635e-001	 1.166334492527746e+001
1	 1.194943934668507e+000	 8.732037901716623e-001	 1.140890773773019e+001
1	 1.185279758888481e+000	 8.862774924823083e-001	 1.114762945916404e+001
1	 1.175464760092871e+000	 8.992544419308942e-001	 1.088032432223488e+001
1	 1.165500383261686e+000	 9.121320507458814e-001	 1.060783298325809e+001
1	 1.155388132124831e+000	 9.249077598303189e-001	 1.033102142387405e+001
1	 1.145129568453215e+000	 9.375790404200531e-001	 1.005077980195970e+001
1	 1.134726311294007e+000	 9.501433957209261e-001	 9.768021253802777e+000
1	 1.124180036150719e+000	 9.625983625227634e-001	 9.483680649691229e+000
1	 1.113492474108993e+000	 9.749415127879983e-001	 9.198713305201263e+000
1	 1.102665410908964e+000	 9.871704552127985e-001	 8.914093650590743e+000
1	 1.226155763562868e+000	 8.755306317618103e-001	 1.138049453259720e+001
1	 1.216472425741059e+000	 8.889357081782895e-001	 1.111966264275859e+001
1	 1.206634137087326e+000	 9.022449504799290e-001	 1.085178315077674e+001
1	 1.196642308142437e+000	 9.154556967890949e-001	 1.057772451100301e+001
1	 1.186498409919638e+000	 9.285653127121178e-001	 1.029838823037972e+001
1	 1.176203973240529e+000	 9.415711930465260e-001	 1.001470767406400e+001
1	 1.165760588013400e+000	 9.544707634691313e-001	 9.727646807697292e+000
1	 1.155169902454707e+000	 9.672614822027226e-001	 9.438198878499625e+000
1	 1.144433622254387e+000	 9.799408416591322e-001	 9.147385037536202e+000
1	 1.133553509685888e+000	 9.925063700564804e-001	 8.856252905667409e+000
1	 1.122531382661828e+000	 1.004955633008429e+000	 8.565875085849111e+000
1	 1.247855619845356e+000	 8.910253098821287e-001	 1.107452110969944e+001
1	 1.238000911431365e+000	 9.046676222522669e-001	 1.080538160978711e+001
1	 1.227988509947546e+000	 9.182124044861023e-001	 1.052913875719130e+001
1	 1.217819850897685e+000	 9.316569475974837e-001	 1.024671991268553e+001
1	 1.207496431328260e+000	 9.449985705706225e-001	 9.959093080469254e+000
1	 1.197019809152552e+000	 9.582346220975364e-001	 9.667265609012638e+000
1	 1.186391602416225e+000	 9.713624822960134e-001	 9.372282814067210e+000
1	 1.175613488505012e+000	 9.843795644057992e-001	 9.075226526196062e+000
1	 1.164687203295262e+000	 9.972833164607429e-001	 8.777213565383294e+000
1	 1.153614540248221e+000	 1.010071222934661e+000	 8.479394145483756e+000
1	 1.142397349448981e+000	 1.022740806358721e+000	 8.182950211466956e+000
1	 9.437368621553292e-001	 8.448883392750972e-001	 1.055293641775741e+001
1	 9.343539132487400e-001	 8.552534008771232e-001	 1.028337659586796e+001
1	 9.248547987507910e-001	 8.655167534262337e-001	 1.001041466109230e+001
1	 9.152411822021542e-001	 8.756764540435483e-001	 9.734864236918247e+000
1	 9.055147702627122e-001	 8.857305963593138e-001	 9.457544709688456e+000
1	 8.956773117034881e-001	 8.956773117034879e-001	 9.179280186294649e+000
1	 8.857305963593135e-001	 9.055147702627118e-001	 8.900898443216343e+000
1	 8.756764540435483e-001	 9.152411822021546e-001	 8.623229868947350e+000
1	 8.655167534262336e-001	 9.248547987507910e-001	 8.347106401870487e+000
1	 8.552534008771232e-001	 9.343539132487404e-001	 8.073360465652870e+000
1	 8.448883392750972e-001	 9.437368621553289e-001	 7.802823904238838e+000
1	 9.636030524234189e-001	 8.626737126955777e-001	 1.045013174462923e+001
1	 9.540225871798312e-001	 8.732569646578550e-001	 1.018304695345719e+001
1	 9.443235109940164e-001	 8.837363665345823e-001	 9.912446309701863e+000
1	 9.345075224251110e-001	 8.941099345481917e-001	 9.639134794331506e+000
1	 9.245763640591428e-001	 9.043757221987769e-001	 9.363924159264942e+000
1	 9.145318214797459e-001	 9.145318214797458e-001	 9.087631886371559e+000
1	 9.043757221987767e-001	 9.245763640591429e-001	 8.811080135984797e+000
1	 8.941099345481919e-001	 9.345075224251110e-001	 8.535094686978052e+000
1	 8.837363665345825e-001	 9.443235109940160e-001	 8.260503870472959e+000
1	 8.732569646578552e-001	 9.540225871798311e-001	 7.988137499267624e+000
1	 8.626737126955777e-001	 9.636030524234188e-001	 7.718825795080922e+000
1	 9.834691979947897e-001	 8.804590461013546e-001	 1.032048214335746e+001
1	 9.736912168585270e-001	 8.912604879328961e-001	 1.005412149008865e+001
1	 9.637921794347112e-001	 9.019559386510658e-001	 9.784177598856287e+000
1	 9.537738193008559e-001	 9.125433735797032e-001	 9.511441806670224e+000
1	 9.436379149690517e-001	 9.230208060888488e-001	 9.236712904999401e+000
1	 9.333862888354512e-001	 9.333862888354511e-001	 8.960796112339358e+000
1	 9.230208060888487e-001	 9.436379149690515e-001	 8.684502035032679e+000
1	 9.125433735797034e-001	 9.537738193008564e-001	 8.408645618367443e+000
1	 9.019559386510658e-001	 9.637921794347114e-001	 8.134045090005792e+000
1	 8.912604879328957e-001	 9.736912168585270e-001	 7.861520897811824e+000
1	 8.804590461013545e-001	 9.834691979947897e-001	 7.591894644164158e+000
1	 1.003335303835817e+000	 8.982443439385991e-001	 1.016271692338795e+001
1	 9.933598072018451e-001	 9.092639752029758e-001	 9.895577481149669e+000
1	 9.832608089399147e-001	 9.201754743304356e-001	 9.624819592177273e+000
1	 9.730400776458450e-001	 9.309767757463133e-001	 9.351216365973196e+000
1	 9.626994277577085e-001	 9.416658526906770e-001	 9.075548738864278e+000
1	 9.522407184841031e-001	 9.522407184841031e-001	 8.798604471972755e+000
1	 9.416658526906770e-001	 9.626994277577085e-001	 8.521177136730515e+000
1	 9.309767757463132e-001	 9.730400776458451e-001	 8.244065089912338e+000
1	 9.201754743304355e-001	 9.832608089399147e-001	 7.968070440190802e+000
1	 9.092639752029756e-001	 9.933598072018450e-001	 7.693998008237840e+000
1	 8.982443439385988e-001	 1.003335303835817e+000	 7.422654282412405e+000
1	 1.023201374912877e+000	 9.160296106534807e-001	 9.975664094126667e+000
1	 1.013028363126802e+000	 9.272674309688241e-001	 9.706471646285525e+000
1	 1.002729404376667e+000	 9.383949781274455e-001	 9.433644642923916e+000
1	 9.923063022765317e-001	 9.494101456562505e-001	 9.157933767928514e+000
1	 9.817609071903852e-001	 9.603108666654103e-001	 8.880097605633377e+000
1	 9.710951151391997e-001	 9.710951151391994e-001	 8.600901675636447e+000
1	 9.603108666654103e-001	 9.817609071903853e-001	 8.321117454984821e+000
1	 9.494101456562506e-001	 9.923063022765318e-001	 8.041521389627745e+000
1	 9.383949781274457e-001	 1.002729404376667e+000	 7.762893897064154e+000
1	 9.272674309688241e-001	 1.013028363126802e+000	 7.486018362133855e+000
1	 9.160296106534808e-001	 1.023201374912877e+000	 7.211680127918492e+000
1	 1.043067416192346e+000	 9.338148506921709e-001	 9.758240969173620e+000
1	 1.032696889550414e+000	 9.452708597311709e-001	 9.485932587599539e+000
1	 1.022197970612008e+000	 9.566144545968488e-001	 9.209980561296439e+000
1	 1.011572498009371e+000	 9.678434879177446e-001	 8.931109306510015e+000
1	 1.000822358032352e+000	 9.789558526741965e-001	 8.650050926269834e+000
1	 9.899494835142406e-001	 9.899494835142404e-001	 8.367544293130292e+000
1	 9.789558526741967e-001	 1.000822358032352e+000	 8.084334119625121e+000
1	 9.678434879177446e-001	 1.011572498009371e+000	 7.801170018231558e+000
1	 9.566144545968488e-001	 1.022197970612008e+000	 7.518805552667974e+000
1	 9.452708597311709e-001	 1.032696889550413e+000	 7.237997282370478e+000
1	 9.338148506921710e-001	 1.043067416192346e+000	 6.959503802010624e+000
1	 1.062933432640599e+000	 9.516000685008400e-001	 9.509445824340014e+000
1	 1.052365391389698e+000	 9.632742659907464e-001	 9.233154075947835e+000
1	 1.041666512512977e+000	 9.748339082933978e-001	 8.953205435907080e+000
1	 1.030838669660818e+000	 9.862768071390247e-001	 8.670294540266678e+000
1	 1.019883785048881e+000	 9.976008153781840e-001	 8.385123221509419e+000
1	 1.008803828322724e+000	 1.008803828322724e+000	 8.098399649960095e+000
1	 9.976008153781842e-001	 1.019883785048881e+000	 7.810837463756664e+000
1	 9.862768071390249e-001	 1.030838669660818e+000	 7.523154889052773e+000
1	 9.748339082933980e-001	 1.041666512512977e+000	 7.236073852145669e+000
1	 9.632742659907462e-001	 1.052365391389697e+000	 6.950319085243741e+000
1	 9.516000685008400e-001	 1.062933432640599e+000	 6.666617227602853e+000
1	 1.082799429224013e+000	 9.693852685256590e-001	 9.228350474093915e+000
1	 1.072033873561670e+000	 9.812776542482794e-001	 8.947389076393755e+000
1	 1.061135034946614e+000	 9.930533437718464e-001	 8.662743025391974e+000
1	 1.050104822047326e+000	 1.004710107928321e+000	 8.375073969682898e+000
1	 1.038945193005243e+000	 1.016245759438521e+000	 8.085049997080796e+000
1	 1.027658154278150e+000	 1.027658154278149e+000	 7.793344845126073e+000
1	 1.016245759438521e+000	 1.038945193005243e+000	 7.500637101495661e+000
1	 1.004710107928321e+000	 1.050104822047327e+000	 7.207609395833615e+000
1	 9.930533437718467e-001	 1.061135034946614e+000	 6.914947584539444e+000
1	 9.812776542482794e-001	 1.072033873561670e+000	 6.623339930070828e+000
1	 9.693852685256590e-001	 1.082799429224013e+000	 6.333476276328674e+000
1	 1.102665410908964e+000	 9.871704552127985e-001	 8.914093650590742e+000
1	 1.091702340983348e+000	 9.992810290045007e-001	 8.627944419590250e+000
1	 1.080603542779960e+000	 1.011272765586947e+000	 8.338058648251154e+000
1	 1.069370959985351e+000	 1.023143394893862e+000	 8.045062073760276e+000
1	 1.058006586666708e+000	 1.034890689516356e+000	 7.749585857561336e+000
1	 1.046512466094015e+000	 1.046512466094015e+000	 7.452265875101076e+000
1	 1.034890689516356e+000	 1.058006586666708e+000	 7.153741997300176e+000
1	 1.023143394893862e+000	 1.069370959985352e+000	 6.854657365087573e+000
1	 1.011272765586948e+000	 1.080603542779960e+000	 6.555657658355645e+000
1	 9.992810290045006e-001	 1.091702340983348e+000	 6.257390360706691e+000
1	 9.871704552127985e-001	 1.102665410908964e+000	 5.960504021371104e+000
1	 1.122531382661828e+000	 1.004955633008429e+000	 8.565875085849109e+000
1	 1.111370798571747e+000	 1.017284394760140e+000	 8.274176039059659e+000
1	 1.100072040880052e+000	 1.029492178293453e+000	 7.978655509186249e+000
1	 1.088637088291348e+000	 1.041576672643878e+000	 7.679900661313460e+000
1	 1.077067970798547e+000	 1.053535610272836e+000	 7.378502820540916e+000
1	 1.065366768483820e+000	 1.065366768483820e+000	 7.075056850842425e+000
1	 1.053535610272836e+000	 1.077067970798547e+000	 6.770160527937987e+000
1	 1.041576672643877e+000	 1.088637088291348e+000	 6.464413907317391e+000
1	 1.029492178293453e+000	 1.100072040880052e+000	 6.158418688565936e+000
1	 1.017284394760140e+000	 1.111370798571748e+000	 5.852777577152115e+000
1	 1.004955633008429e+000	 1.122531382661828e+000	 5.548093644842854e+000
1	 1.142397349448981e+000	 1.022740806358721e+000	 8.182950211466956e+000
1	 1.131039251243886e+000	 1.035287756015926e+000	 7.885484705476175e+000
1	 1.119540534113931e+000	 1.047711586446118e+000	 7.584071408794501e+000
1	 1.107903211781769e+000	 1.060009945786597e+000	 7.279256498665202e+000
1	 1.096129350166033e+000	 1.072180526369110e+000	 6.971588806707123e+000
1	 1.084221066161063e+000	 1.084221066161063e+000	 6.661619296509987e+000
1	 1.072180526369110e+000	 1.096129350166033e+000	 6.349900537987898e+000
1	 1.060009945786597e+000	 1.107903211781770e+000	 6.036986179405902e+000
1	 1.047711586446118e+000	 1.119540534113932e+000	 5.723430417999978e+000
1	 1.035287756015926e+000	 1.131039251243886e+000	 5.409787470113240e+000
1	 1.022740806358721e+000	 1.142397349448981e+000	 5.096611041773247e+000
1	 8.448883392750972e-001	 9.437368621553289e-001	 7.802823904238838e+000
1	 8.344219696599167e-001	 9.530034071557008e-001	 7.533791246959473e+000
1	 8.238578531239381e-001	 9.621505574741556e-001	 7.264569976102318e+000
1	 8.131980363093013e-001	 9.711767847515960e-001	 6.995885801372116e+000
1	 8.024445972974045e-001	 9.800806074060000e-001	 6.728458993637825e+000
1	 7.915996442727785e-001	 9.888605914263495e-001	 6.463003569898810e+000
1	 7.806653141634374e-001	 9.975153511208504e-001	 6.200226492229240e+000
1	 7.696437712595143e-001	 1.006043549818665e+000	 5.940826882139942e+000
1	 7.585372058120381e-001	 1.014443900524439e+000	 5.685495251750020e+000
1	 7.473478326137194e-001	 1.022715166525019e+000	 5.434912753112302e+000
1	 7.360778895636446e-001	 1.030856161947795e+000	 5.189750446983504e+000
1	 8.626737126955777e-001	 9.636030524234188e-001	 7.718825795080923e+000
1	 8.519870201296237e-001	 9.730646633932647e-001	 7.450795683038415e+000
1	 8.412005230153468e-001	 9.824043663561702e-001	 7.182282796356266e+000
1	 8.303163110778579e-001	 9.916206007802297e-001	 6.914007661561423e+000
1	 8.193365061433412e-001	 1.000711853895297e+000	 6.646687439193930e+000
1	 8.082632607748013e-001	 1.009676661503627e+000	 6.381035106594791e+000
1	 7.970987568837924e-001	 1.018513608743844e+000	 6.117758651002682e+000
1	 7.858452043199751e-001	 1.027221330807447e+000	 5.857560274426137e+000
1	 7.745048394403975e-001	 1.035798513607119e+000	 5.601135611722031e+000
1	 7.630799236604067e-001	 1.044243894396206e+000	 5.349172963270709e+000
1	 7.515727419881260e-001	 1.052556262338826e+000	 5.102352543594244e+000
1	 8.804590461013545e-001	 9.834691979947897e-001	 7.591894644164161e+000
1	 8.695520310804036e-001	 9.931258744953385e-001	 7.323343019027425e+000
1	 8.585431538882248e-001	 1.002658129669613e+000	 7.054064933162053e+000
1	 8.474345473328057e-001	 1.012064370812964e+000	 6.784794108461841e+000
1	 8.362283769850171e-001	 1.021343053967182e+000	 6.516262425074832e+000
1	 8.249268397862399e-001	 1.030492684747855e+000	 6.249199072452839e+000
1	 8.135321626314672e-001	 1.039511819124085e+000	 5.984329708171116e+000
1	 8.020466009297869e-001	 1.048399064149761e+000	 5.722375626068321e+000
1	 7.904724371441629e-001	 1.057153078645654e+000	 5.464052935227431e+000
1	 7.788119793124740e-001	 1.065772573831665e+000	 5.210071751282367e+000
1	 7.670675595517766e-001	 1.074256313908682e+000	 4.961135401497500e+000
1	 8.982443439385988e-001	 1.003335303835817e+000	 7.422654282412404e+000
1	 8.871170069033352e-001	 1.013187045477039e+000	 7.152178040976750e+000
1	 8.758857500780446e-001	 1.022911852477707e+000	 6.880760482830179e+000
1	 8.645527493535050e-001	 1.032508099960486e+000	 6.609165884417910e+000
1	 8.531202140451906e-001	 1.041974212779163e+000	 6.338157679597290e+000
1	 8.415903854727679e-001	 1.051308666362708e+000	 6.068497550334683e+000
1	 8.299655355145811e-001	 1.060509987510751e+000	 5.800944523728552e+000
1	 8.182479651390547e-001	 1.069576755139626e+000	 5.536254077045879e+000
1	 8.064400029149780e-001	 1.078507600978236e+000	 5.275177252432424e+000
1	 7.945440035026685e-001	 1.087301210213081e+000	 5.018459782924146e+000
1	 7.825623461280228e-001	 1.095956322081866e+000	 4.766841231350285e+000
1	 9.160296106534808e-001	 1.023201374912877e+000	 7.211680127918490e+000
1	 9.046819519894961e-001	 1.033248181353480e+000	 6.937987730711678e+000
1	 8.932283159202767e-001	 1.043165539843673e+000	 6.663148027099001e+000
1	 8.816709214193184e-001	 1.052951793333486e+000	 6.387972267047762e+000
1	 8.700120215466197e-001	 1.062605335488745e+000	 6.113271353709571e+000
1	 8.582539020000589e-001	 1.072124611551856e+000	 5.839854846023297e+000
1	 8.463988796412522e-001	 1.081508119153020e+000	 5.568529967260646e+000
1	 8.344493009978825e-001	 1.090754409071060e+000	 5.300100621391275e+000
1	 8.224075407444851e-001	 1.099862085943054e+000	 5.035366419116774e+000
1	 8.102760001637358e-001	 1.108829808922140e+000	 4.775121715389522e+000
1	 7.980571055902892e-001	 1.117656292282877e+000	 4.520154660192493e+000
1	 9.338148506921710e-001	 1.043067416192346e+000	 6.959503802010626e+000
1	 9.222468707299640e-001	 1.053309287139780e+000	 6.681406776463929e+000
1	 9.105708557503933e-001	 1.063419196830736e+000	 6.401946878241065e+000
1	 8.987890678096057e-001	 1.073395456042650e+000	 6.121997881194015e+000
1	 8.869038037120626e-001	 1.083236427253435e+000	 5.842433224791149e+000
1	 8.749173935337853e-001	 1.092940525518970e+000	 5.564124901690536e+000
1	 8.628321991195993e-001	 1.102506219300071e+000	 5.287942351902175e+000
1	 8.506506125563762e-001	 1.111932031238083e+000	 5.014751365656444e+000
1	 8.383750546243285e-001	 1.121216538878297e+000	 4.745412997065391e+000
1	 8.260079732284228e-001	 1.130358375340526e+000	 4.480782490625382e+000
1	 8.135518418120015e-001	 1.139356229936217e+000	 4.221708222564991e+000
1	 9.516000685008400e-001	 1.062933432640599e+000	 6.666617227602854e+000
1	 9.398117675158186e-001	 1.073370367851056e+000	 6.383022465457195e+000
1	 9.279133739038658e-001	 1.083672828502116e+000	 6.097822623748209e+000
1	 9.159071928037287e-001	 1.093839093198666e+000	 5.811968746879345e+000
1	 9.037955647642770e-001	 1.103867493230739e+000	 5.526411092509171e+000
1	 8.915808642396224e-001	 1.113756413467723e+000	 5.242097877905974e+000
1	 8.792654980577412e-001	 1.123504293201081e+000	 4.959974034537462e+000
1	 8.668519038646394e-001	 1.133109626934713e+000	 4.680979973304531e+000
1	 8.543425485461513e-001	 1.142570965122156e+000	 4.406050362788745e+000
1	 8.417399266294754e-001	 1.151886914849926e+000	 4.136112922839165e+000
1	 8.290465586665842e-001	 1.161056140466386e+000	 3.872087235770501e+000
1	 9.693852685256590e-001	 1.082799429224013e+000	 6.333476276328674e+000
1	 9.573766467381373e-001	 1.093431428502421e+000	 6.043379037832951e+000
1	 9.452558747161655e-001	 1.103926439921036e+000	 5.751392060563130e+000
1	 9.330253006810483e-001	 1.114282709912222e+000	 5.458557661399346e+000
1	 9.206873089260209e-001	 1.124498538578164e+000	 5.165916470509337e+000
1	 9.082443182832425e-001	 1.134572280601786e+000	 4.874506010985448e+000
1	 8.956987805637957e-001	 1.144502346105226e+000	 4.585359289338066e+000
1	 8.830531789727772e-001	 1.154287201454969e+000	 4.299503399592591e+000
1	 8.703100265015967e-001	 1.163925370012821e+000	 4.017958143690282e+000
1	 8.574718642996397e-001	 1.173415432832025e+000	 3.741734670837143e+000
1	 8.445412600274632e-001	 1.182756029297883e+000	 3.471834138382138e+000
1	 9.871704552127985e-001	 1.102665410908964e+000	 5.960504021371107e+000
1	 9.749415127879983e-001	 1.113492474108992e+000	 5.662981569858773e+000
1	 9.625983625227639e-001	 1.124180036150719e+000	 5.363227595854080e+000
1	 9.501433957209258e-001	 1.134726311294006e+000	 5.062388999539311e+000
1	 9.375790404200532e-001	 1.145129568453215e+000	 4.761609662758775e+000
1	 9.249077598303189e-001	 1.155388132124830e+000	 4.462028837081936e+000
1	 9.121320507458818e-001	 1.165500383261687e+000	 4.164779546292216e+000
1	 8.992544419308943e-001	 1.175464760092871e+000	 3.870987006436837e+000
1	 8.862774924823080e-001	 1.185279758888481e+000	 3.581767066511596e+000
1	 8.732037901716623e-001	 1.194943934668507e+000	 3.298224672786503e+000
1	 8.600359497680634e-001	 1.204455901855211e+000	 3.021452359701107e+000
1	 1.004955633008429e+000	 1.122531382661828e+000	 5.548093644842854e+000
1	 9.925063700564805e-001	 1.133553509685887e+000	 5.242299444740943e+000
1	 9.799408416591326e-001	 1.144433622254387e+000	 4.933861180428936e+000
1	 9.672614822027223e-001	 1.155169902454707e+000	 4.624043004009178e+000
1	 9.544707634691311e-001	 1.165760588013400e+000	 4.314104300783096e+000
1	 9.415711930465260e-001	 1.176203973240529e+000	 4.005297861479368e+000
1	 9.285653127121181e-001	 1.186498409919638e+000	 3.698868073403943e+000
1	 9.154556967890950e-001	 1.196642308142436e+000	 3.396049134080472e+000
1	 9.022449504799286e-001	 1.206634137087326e+000	 3.098063290873990e+000
1	 8.889357081782892e-001	 1.216472425741059e+000	 2.806119110006577e+000
1	 8.755306317618103e-001	 1.226155763562868e+000	 2.521409778278878e+000
1	 1.022740806358721e+000	 1.142397349448981e+000	 5.096611041773247e+000
1	 1.010071222934661e+000	 1.153614540248221e+000	 4.781769461248250e+000
1	 9.972833164607429e-001	 1.164687203295261e+000	 4.463787831686454e+000
1	 9.843795644057992e-001	 1.175613488505011e+000	 4.144059628160051e+000
1	 9.713624822960134e-001	 1.186391602416225e+000	 3.823971407429912e+000
1	 9.582346220975365e-001	 1.197019809152552e+000	 3.504900740632964e+000
1	 9.449985705706224e-001	 1.207496431328260e+000	 3.188214170291953e+000
1	 9.316569475974839e-001	 1.217819850897686e+000	 2.875265195695426e+000
1	 9.182124044861019e-001	 1.227988509947546e+000	 2.567392290603036e+000
1	 9.046676222522668e-001	 1.238000911431365e+000	 2.265916957127916e+000
1	 8.910253098821288e-001	 1.247855619845356e+000	 1.972141819532956e+000
1	 7.360778895636446e-001	 1.030856161947795e+000	 5.189750446983504e+000
1	 7.247296359725970e-001	 1.038865751977465e+000	 4.949958068028079e+000
1	 7.133053503815099e-001	 1.046742852430853e+000	 4.715355301368943e+000
1	 7.018073298531414e-001	 1.054486431034654e+000	 4.486393450505803e+000
1	 6.902378887419132e-001	 1.062095508079932e+000	 4.263501346071966e+000
1	 6.785993572081287e-001	 1.069569156736019e+000	 4.047085098467624e+000
1	 6.668940797275553e-001	 1.076906503314615e+000	 3.837527890977098e+000
1	 6.551244135982919e-001	 1.084106727484178e+000	 3.635189813285452e+000
1	 6.432927274468238e-001	 1.091169062434711e+000	 3.440407735213534e+000
1	 6.314013997351549e-001	 1.098092794993187e+000	 3.253495220394351e+000
1	 6.194528172708822e-001	 1.104877265689896e+000	 3.074742479520021e+000
1	 7.515727419881260e-001	 1.052556262338826e+000	 5.102352543594244e+000
1	 7.399856012941009e-001	 1.060734458731179e+000	 4.860406740184636e+000
1	 7.283208280838214e-001	 1.068777376567416e+000	 4.623066294838801e+000
1	 7.165807677744921e-001	 1.076683961844282e+000	 4.390986008502919e+000
1	 7.047677834389825e-001	 1.084453214229405e+000	 4.164798250893442e+000
1	 6.928842542887642e-001	 1.092084187381793e+000	 3.945112355024326e+000
1	 6.809325741521235e-001	 1.099575989221505e+000	 3.732514055947746e+000
1	 6.689151499495940e-001	 1.106927782148541e+000	 3.527564974329172e+000
1	 6.568344001685657e-001	 1.114138783211110e+000	 3.330802145361243e+000
1	 6.446927533389901e-001	 1.121208264223477e+000	 3.142737593404121e+000
1	 6.324926465120909e-001	 1.128135551833708e+000	 2.963857952624949e+000
1	 7.670675595517766e-001	 1.074256313908682e+000	 4.961135401497500e+000
1	 7.552415322922724e-001	 1.082603116284461e+000	 4.716759173365164e+000
1	 7.433362720038976e-001	 1.090811851130529e+000	 4.476556827951185e+000
1	 7.313541724581945e-001	 1.098881442713736e+000	 4.241357561546845e+000
1	 7.192976454463670e-001	 1.106810870078322e+000	 4.011968095703572e+000
1	 7.071691192309457e-001	 1.114599167373023e+000	 3.789171756869233e+000
1	 6.949710369926212e-001	 1.122245424126297e+000	 3.573727603672381e+000
1	 6.827058552742502e-001	 1.129748785469733e+000	 3.366369603095927e+000
1	 6.703760424240128e-001	 1.137108452309784e+000	 3.167805856650099e+000
1	 6.579840770396939e-001	 1.144323681448046e+000	 2.978717877517425e+000
1	 6.455324464160299e-001	 1.151393785650397e+000	 2.799759919508005e+000
1	 7.825623461280228e-001	 1.095956322081866e+000	 4.766841231350285e+000
1	 7.704974327808040e-001	 1.104471730103942e+000	 4.519628665492870e+000
1	 7.583516858952986e-001	 1.112846281628261e+000	 4.276301121325838e+000
1	 7.461275475972876e-001	 1.121078879191826e+000	 4.037834766323295e+000
1	 7.338274783962134e-001	 1.129168481215533e+000	 3.805183166275734e+000
1	 7.214539556055636e-001	 1.137114102337887e+000	 3.579276091555299e+000
1	 7.090094717583351e-001	 1.144914813695785e+000	 3.361018374179566e+000
1	 6.964965330196068e-001	 1.152569743152447e+000	 3.151288817457529e+000
1	 6.839176575982479e-001	 1.160078075472602e+000	 2.950939159851640e+000
1	 6.712753741597766e-001	 1.167439052445210e+000	 2.760793094539766e+000
1	 6.585722202423399e-001	 1.174651972953994e+000	 2.581645346005364e+000
1	 7.980571055902892e-001	 1.117656292282877e+000	 4.520154660192493e+000
1	 7.857533065733875e-001	 1.126340305656252e+000	 4.269580944526481e+000
1	 7.733670735115833e-001	 1.134880673568682e+000	 4.022736628579120e+000
1	 7.609008968848122e-001	 1.143276276827363e+000	 3.780718974476019e+000
1	 7.483572859206671e-001	 1.151526053229886e+000	 3.544602433861874e+000
1	 7.357387669835083e-001	 1.159628997904562e+000	 3.315437220750657e+000
1	 7.230478819585516e-001	 1.167584163596768e+000	 3.094247938053602e+000
1	 7.102871866330097e-001	 1.175390660901376e+000	 2.882032260031127e+000
1	 6.974592490763553e-001	 1.183047658441432e+000	 2.679759672754489e+000
1	 6.845666480217496e-001	 1.190554382993286e+000	 2.488370274494142e+000
1	 6.716119712506630e-001	 1.197910119558531e+000	 2.308773637784107e+000
1	 8.135518418120015e-001	 1.139356229936217e+000	 4.221708222564991e+000
1	 8.010091574837157e-001	 1.148208848408022e+000	 3.967138706045141e+000
1	 7.883824386063120e-001	 1.156915032459861e+000	 3.716267545191316e+000
1	 7.756742240138076e-001	 1.165473641169156e+000	 3.470288649984368e+000
1	 7.628870716518743e-001	 1.173883591710230e+000	 3.230372830733474e+000
1	 7.500235569356702e-001	 1.182143859701230e+000	 2.997666176022729e+000
1	 7.370862711025564e-001	 1.190253479496037e+000	 2.773288486952595e+000
1	 7.240778195618057e-001	 1.198211544421214e+000	 2.558331770312449e+000
1	 7.110008202434178e-001	 1.206017206958142e+000	 2.353858793144928e+000
1	 6.978579019481238e-001	 1.213669678870590e+000	 2.160901700983812e+000
1	 6.846517027006408e-001	 1.221168231278044e+000	 1.980460701863933e+000
1	 8.290465586665842e-001	 1.161056140466386e+000	 3.872087235770501e+000
1	 8.162649893254802e-001	 1.170077363825882e+000	 3.612785641920124e+000
1	 8.033977849330439e-001	 1.178949363809866e+000	 3.357267923836438e+000
1	 7.904475326773142e-001	 1.187670977766017e+000	 3.106801515419284e+000
1	 7.774168392219807e-001	 1.196241102245413e+000	 2.862630382664105e+000
1	 7.643083290329399e-001	 1.204658693356066e+000	 2.625973243878479e+000
1	 7.511246426996361e-001	 1.212922767060388e+000	 2.398021848560557e+000
1	 7.378684352533409e-001	 1.221032399416653e+000	 2.179939317890892e+000
1	 7.245423744845195e-001	 1.228986726764600e+000	 1.972858549603389e+000
1	 7.111491392614100e-001	 1.236784945855437e+000	 1.777880689811471e+000
1	 6.976914178519145e-001	 1.244426313926563e+000	 1.596073674169525e+000
1	 8.445412600274632e-001	 1.182756029297883e+000	 3.471834138382138e+000
1	 8.315208059123731e-001	 1.191945857376462e+000	 3.206970025440649e+000
1	 8.184131162453380e-001	 1.200983673126766e+000	 2.946084446722484e+000
1	 8.052208265683714e-001	 1.209868292166755e+000	 2.690496461902602e+000
1	 7.919465922631326e-001	 1.218598590424284e+000	 2.441501216728573e+000
1	 7.785930868462081e-001	 1.227173504497251e+000	 2.200368041442441e+000
1	 7.651630002590770e-001	 1.235592031956618e+000	 1.968338609989875e+000
1	 7.516590371549616e-001	 1.243853231592387e+000	 1.746625163211490e+000
1	 7.380839151847439e-001	 1.251956223602676e+000	 1.536408799019404e+000
1	 7.244403632841193e-001	 1.259900189726144e+000	 1.338837832360666e+000
1	 7.107311199641254e-001	 1.267684373318120e+000	 1.155026227564480e+000
1	 8.600359497680634e-001	 1.204455901855211e+000	 3.021452359701107e+000
1	 8.467766110580867e-001	 1.213814334526392e+000	 2.750107908840174e+000
1	 8.334284362967542e-001	 1.223017965918630e+000	 2.483038898205253e+000
1	 8.199941093800189e-001	 1.232065589920179e+000	 2.221595252573934e+000
1	 8.064763344074756e-001	 1.240956061835692e+000	 1.967102460145167e+000
1	 7.928778339463644e-001	 1.249688298752962e+000	 1.720859583952532e+000
1	 7.792013472901653e-001	 1.258261279851520e+000	 1.484137335955830e+000
1	 7.654496287140141e-001	 1.266674046653108e+000	 1.258176217182887e+000
1	 7.516254457291737e-001	 1.274925703214236e+000	 1.044184727091835e+000
1	 7.377315773387618e-001	 1.283015416261027e+000	 8.433376451170239e-001
1	 7.237708122969158e-001	 1.290942415266750e+000	 6.567743871481075e-001
1	 8.755306317618103e-001	 1.226155763562868e+000	 2.521409778278878e+000
1	 8.620324085763136e-001	 1.235682800742303e+000	 2.242585981245405e+000
1	 8.484437488408522e-001	 1.245052247693526e+000	 1.968430374810236e+000
1	 8.347673848052971e-001	 1.254262876575102e+000	 1.700304045149484e+000
1	 8.210060692871558e-001	 1.263313522068484e+000	 1.439543043661217e+000
1	 8.071625739043004e-001	 1.272203081751379e+000	 1.187456345087240e+000
1	 7.932396873021873e-001	 1.280930516411890e+000	 9.453238699800665e-001
1	 7.792402133778448e-001	 1.289494850303511e+000	 7.143945749940470e-001
1	 7.651669695028934e-001	 1.297895171341149e+000	 4.958846142752266e-001
1	 7.510227847478496e-001	 1.306130631238402e+000	 2.909755750092259e-001
1	 7.368104981099266e-001	 1.314200445586484e+000	 1.008127899671508e-001
1	 8.910253098821288e-001	 1.247855619845356e+000	 1.972141819532956e+000
1	 8.772882022807453e-001	 1.257551261490825e+000	 1.684764128391076e+000
1	 8.634590576311915e-001	 1.267086523959525e+000	 1.402537264633206e+000
1	 8.495406565372458e-001	 1.276460157680332e+000	 1.126814755597779e+000
1	 8.355358005343191e-001	 1.285670976711510e+000	 8.589244211022941e-001
1	 8.214473102909056e-001	 1.294717859120681e+000	 6.001663109976038e-001
1	 8.072780238044295e-001	 1.303599747304523e+000	 3.518107085152757e-001
1	 7.930307945938002e-001	 1.312315648248288e+000	 1.150962029306828e-001
1	 7.787084898909862e-001	 1.320864633725284e+000	-1.087721651449097e-001
1	 7.643139888338927e-001	 1.329245840436585e+000	-3.186246827498964e-001
1	 7.498501806627993e-001	 1.337458470091355e+000	-5.133286649646841e-001
1	 6.194528172708822e-001	 1.104877265689896e+000	 3.074742479520022e+000
1	 6.074511782547066e-001	 1.111520882801578e+000	 2.904296114932540e+000
1	 5.953970932452810e-001	 1.118024123343679e+000	 2.742324383652637e+000
1	 5.832929647635355e-001	 1.124386489988285e+000	 2.589189574303074e+000
1	 5.711411977547047e-001	 1.130607538866382e+000	 2.445225186582032e+000
1	 5.589441981408803e-001	 1.136686879394963e+000	 2.310735720004248e+000
1	 5.467043713871074e-001	 1.142624174058487e+000	 2.185996514499598e+000
1	 5.344241210826425e-001	 1.148419138145507e+000	 2.071253642451184e+000
1	 5.221058475389497e-001	 1.154071539441348e+000	 1.966723851633252e+000
1	 5.097519464059584e-001	 1.159581197877748e+000	 1.872594558399225e+000
1	 4.973648073080526e-001	 1.164947985140473e+000	 1.789023890353641e+000
1	 6.324926465120909e-001	 1.128135551833708e+000	 2.963857952624949e+000
1	 6.202383662630420e-001	 1.134919020811867e+000	 2.794361476906642e+000
1	 6.079305360031093e-001	 1.141559158214848e+000	 2.634334468899459e+000
1	 5.955716088276520e-001	 1.148055456245717e+000	 2.484130834354342e+000
1	 5.831640403073667e-001	 1.154407461691780e+000	 2.344072431998716e+000
1	 5.707102870103700e-001	 1.160614775748049e+000	 2.214448911684194e+000
1	 5.582128050381113e-001	 1.166677053794103e+000	 2.095517609261823e+000
1	 5.456740485767643e-001	 1.172594005125170e+000	 1.987503497589152e+000
1	 5.330964684657112e-001	 1.178365392638335e+000	 1.890599192945134e+000
1	 5.204825107846715e-001	 1.183991032474813e+000	 1.804965016007091e+000
1	 5.078346154609772e-001	 1.189470793619292e+000	 1.730729106424395e+000
1	 6.455324464160299e-001	 1.151393785650397e+000	 2.799759919508003e+000
1	 6.330255255024671e-001	 1.158317106180301e+000	 2.631126255490249e+000
1	 6.204639505628590e-001	 1.165094140136081e+000	 2.472792441422516e+000
1	 6.078502252668818e-001	 1.171724369251810e+000	 2.325116031938568e+000
1	 5.951868558105830e-001	 1.178207330971136e+000	 2.188419819869551e+000
1	 5.824763494079930e-001	 1.184542618267112e+000	 2.062991694955380e+000
1	 5.697212127968527e-001	 1.190729879414451e+000	 1.949084563670752e+000
1	 5.569239507601437e-001	 1.196768817715077e+000	 1.846916329459240e+000
1	 5.440870646650543e-001	 1.202659191177848e+000	 1.756669932533671e+000
1	 5.312130510209822e-001	 1.208400812153459e+000	 1.678493448268702e+000
1	 5.183044000580986e-001	 1.213993546925534e+000	 1.612500243086863e+000
1	 6.585722202423399e-001	 1.174651972953994e+000	 2.581645346005364e+000
1	 6.458126591694799e-001	 1.181715144755887e+000	 2.413644684614029e+000
1	 6.329973400576118e-001	 1.188629074990625e+000	 2.256639582543263e+000
1	 6.201288171506310e-001	 1.195393234923308e+000	 2.111002493249652e+000
1	 6.072096472698343e-001	 1.202007152653947e+000	 1.977068915228215e+000
1	 5.942423882750678e-001	 1.208470412933654e+000	 1.855137243444478e+000
1	 5.812295975402648e-001	 1.214782656932294e+000	 1.745468685800794e+000
1	 5.681738304451132e-001	 1.220943581958496e+000	 1.648287243885444e+000
1	 5.550776388845088e-001	 1.226952941132905e+000	 1.563779757108648e+000
1	 5.419435697974289e-001	 1.232810543015708e+000	 1.492096009190126e+000
1	 5.287741637167839e-001	 1.238516251189468e+000	 1.433348895827805e+000
1	 6.716119712506630e-001	 1.197910119558531e+000	 2.308773637784107e+000
1	 6.585997704605783e-001	 1.205113142387636e+000	 2.141044524163545e+000
1	 6.455307076204506e-001	 1.212163968661729e+000	 1.984899472855753e+000
1	 6.324073875483049e-001	 1.219062059176956e+000	 1.840736364970017e+000
1	 6.192324176906023e-001	 1.225806932689711e+000	 1.708914435101051e+000
1	 6.060084065529144e-001	 1.232398165729178e+000	 1.589754088560540e+000
1	 5.927379621452800e-001	 1.238835392360392e+000	 1.483536787110076e+000
1	 5.794236904440047e-001	 1.245118303898696e+000	 1.390505002462577e+000
1	 5.660681938716050e-001	 1.251246648576530e+000	 1.310862236666188e+000
1	 5.526740697965494e-001	 1.257220231163583e+000	 1.244773108335627e+000
1	 5.392439090544005e-001	 1.263038912541362e+000	 1.192363503552385e+000
1	 6.846517027006408e-001	 1.221168231278044e+000	 1.980460701863933e+000
1	 6.713868625722598e-001	 1.228511104924556e+000	 1.812520065806805e+000
1	 6.580640563844562e-001	 1.235698827032637e+000	 1.656670162626908e+000
1	 6.446859395293096e-001	 1.242730847929497e+000	 1.513344163728298e+000
1	 6.312551700783683e-001	 1.249606677027924e+000	 1.382935385563564e+000
1	 6.177744071828529e-001	 1.256325882635189e+000	 1.265797046595088e+000
1	 6.042463094888311e-001	 1.262888091711506e+000	 1.162242095786400e+000
1	 5.906735335691515e-001	 1.269292989578943e+000	 1.072543111971168e+000
1	 5.770587323738733e-001	 1.275540319581744e+000	 9.969322732843985e-001
1	 5.634045537008823e-001	 1.281629882699106e+000	 9.356013956831865e-001
1	 5.497136386883157e-001	 1.287561537111484e+000	 8.887020394312720e-001
1	 6.976914178519145e-001	 1.244426313926563e+000	 1.596073674169525e+000
1	 6.841739387010217e-001	 1.251909038215656e+000	 1.427325923253874e+000
1	 6.705973894827110e-001	 1.259233655986598e+000	 1.271117220326427e+000
1	 6.569644761630512e-001	 1.266399607097674e+000	 1.127925273328591e+000
1	 6.432779074386129e-001	 1.273406391618082e+000	 9.981871928211278e-001
1	 6.295403931062018e-001	 1.280253569633188e+000	 8.822991633938415e-001
1	 6.157546424478506e-001	 1.286940760998396e+000	 7.806161892079455e-001
1	 6.019233626328853e-001	 1.293467645042504e+000	 6.934519131596399e-001
1	 5.880492571388442e-001	 1.299833960221569e+000	 6.210785089797832e-001
1	 5.741350241929648e-001	 1.306039503724299e+000	 5.637266454193324e-001
1	 5.601833552358967e-001	 1.312084131030102e+000	 5.215855215065911e-001
1	 7.107311199641254e-001	 1.267684373318120e+000	 1.155026227564479e+000
1	 6.969610020433620e-001	 1.275306948109945e+000	 9.847715061906539e-001
1	 6.831307100482968e-001	 1.282768461406858e+000	 8.274675464933827e-001
1	 6.692430005189350e-001	 1.290068342598233e+000	 6.836452680130465e-001
1	 6.553006327768171e-001	 1.297206082409683e+000	 5.537947006351225e-001
1	 6.413063672642816e-001	 1.304181232704681e+000	 4.383645458969546e-001
1	 6.272629638992716e-001	 1.310993406233822e+000	 3.377618146164110e-001
1	 6.131731804475384e-001	 1.317642276332648e+000	 2.523515405285280e-001
1	 5.990397709140476e-001	 1.324127576569028e+000	 1.824565694370094e-001
1	 5.848654839553358e-001	 1.330449100341185e+000	 1.283574232074332e-001
1	 5.706530613145106e-001	 1.336606700427484e+000	 9.029223776109184e-002
1	 7.237708122969158e-001	 1.290942415266750e+000	 6.567743871481064e-001
1	 7.097480557957788e-001	 1.298704840456433e+000	 4.842160916538816e-001
1	 6.956640212142951e-001	 1.306303249176665e+000	 3.250038564058855e-001
1	 6.815215156663675e-001	 1.313737060347918e+000	 1.797299575682604e-001
1	 6.673233490984625e-001	 1.321005755352224e+000	 4.894592481986122e-002
1	 6.530723325984112e-001	 1.328108877831169e+000	-6.683803131505482e-002
1	 6.387712767200264e-001	 1.335046033430547e+000	-1.671535140292413e-001
1	 6.244229898254440e-001	 1.341816889492641e+000	-2.515743567442411e-001
1	 6.100302764470144e-001	 1.348421174697141e+000	-3.197169618192486e-001
1	 5.955959356705326e-001	 1.354858678651786e+000	-3.712405618917265e-001
1	 5.811227595415254e-001	 1.361129251433898e+000	-4.058474044657915e-001
1	 7.368104981099266e-001	 1.314200445586484e+000	 1.008127899671525e-001
1	 7.225351031547691e-001	 1.322102721104127e+000	-7.493558117567510e-002
1	 7.081973261137888e-001	 1.329838025179267e+000	-2.369402513108148e-001
1	 6.938000246747534e-001	 1.337405766263471e+000	-3.845399351608196e-001
1	 6.793460594090302e-001	 1.344805416395201e+000	-5.171135289897632e-001
1	 6.648382920499100e-001	 1.352036510994155e+000	-6.340808404930232e-001
1	 6.502795837870479e-001	 1.359098648601329e+000	-7.349032391868895e-001
1	 6.356727935789340e-001	 1.365991490565752e+000	-8.190842270428439e-001
1	 6.210207764852744e-001	 1.372714760678931e+000	-8.861699293111636e-001
1	 6.063263820210938e-001	 1.379268244758125e+000	-9.357495056752693e-001
1	 5.915924525343077e-001	 1.385651790179613e+000	-9.674554820721396e-001
1	 7.498501806627993e-001	 1.337458470091355e+000	-5.133286649646841e-001
1	 7.353221473168309e-001	 1.345500595902038e+000	-6.932372564852655e-001
1	 7.207306278798588e-001	 1.353372795297910e+000	-8.589847114725557e-001
1	 7.060785306134998e-001	 1.361074466261638e+000	-1.009833541341376e+000
1	 6.913687667140009e-001	 1.368605071488112e+000	-1.145085465050598e+000
1	 6.766042485600982e-001	 1.375964138175143e+000	-1.264082318870672e+000
1	 6.617878879772690e-001	 1.383151257758930e+000	-1.366206885641917e+000
1	 6.469225945203407e-001	 1.390166085595247e+000	-1.450883642901219e+000
1	 6.320112737763581e-001	 1.397008340587419e+000	-1.517579429463896e+000
1	 6.170568256895568e-001	 1.403677804762223e+000	-1.565804030255318e+000
1	 6.020621429102250e-001	 1.410174322794896e+000	-1.595110679390522e+000
1	 4.973648073080526e-001	 1.164947985140473e+000	 1.789023890353640e+000
1	 4.849449475210769e-001	 1.170172597316046e+000	 1.715095320694805e+000
1	 4.724965980002161e-001	 1.175254193189512e+000	 1.649717301284094e+000
1	 4.600221239627185e-001	 1.180192797882715e+000	 1.592706450774488e+000
1	 4.475238793346627e-001	 1.184988486332486e+000	 1.543850923737507e+000
1	 4.350042055046847e-001	 1.189641382703130e+000	 1.502911268540020e+000
1	 4.224654301051314e-001	 1.194151659763825e+000	 1.469621316434314e+000
1	 4.099098658216919e-001	 1.198519538232249e+000	 1.443689099468799e+000
1	 3.973398092324927e-001	 1.202745286085772e+000	 1.424797794808382e+000
1	 3.847575396775870e-001	 1.206829217841571e+000	 1.412606693044904e+000
1	 3.721653181596841e-001	 1.210771693807061e+000	 1.406752188075036e+000
1	 5.078346154609772e-001	 1.189470793619292e+000	 1.730729106424394e+000
1	 4.951533106594304e-001	 1.194805386811314e+000	 1.666835812924614e+000
1	 4.824429163991849e-001	 1.199993953127882e+000	 1.612054163826751e+000
1	 4.697058476866244e-001	 1.205036518219667e+000	 1.566169906044860e+000
1	 4.569445079992764e-001	 1.209933158600962e+000	 1.528936813601971e+000
1	 4.441612880133066e-001	 1.214684001049800e+000	 1.500077656770165e+000
1	 4.313585643590141e-001	 1.219289221972249e+000	 1.479285206379367e+000
1	 4.185386984054039e-001	 1.223749046732216e+000	 1.466223270594736e+000
1	 4.057040350748469e-001	 1.228063748948146e+000	 1.460527761441046e+000
1	 3.928569016887677e-001	 1.232233649757978e+000	 1.461807788344487e+000
1	 3.799996068452374e-001	 1.236259117053800e+000	 1.469646775956965e+000
1	 5.183044000580986e-001	 1.213993546925534e+000	 1.612500243086862e+000
1	 5.053616508301387e-001	 1.219438120886603e+000	 1.557487084820930e+000
1	 4.923892124200254e-001	 1.224733657405657e+000	 1.512068477495239e+000
1	 4.793895496231638e-001	 1.229880182662189e+000	 1.476004542876781e+000
1	 4.663651154684179e-001	 1.234877774747946e+000	 1.449020237830278e+000
1	 4.533183499193709e-001	 1.239726563054676e+000	 1.430806422169205e+000
1	 4.402516786041618e-001	 1.244426727625320e+000	 1.421020965331683e+000
1	 4.271675115750019e-001	 1.248978498470000e+000	 1.419289888904613e+000
1	 4.140682420983949e-001	 1.253382154848216e+000	 1.425208541996166e+000
1	 4.009562454770290e-001	 1.257638024518649e+000	 1.438342806445995e+000
1	 3.878338779042280e-001	 1.261746482958037e+000	 1.458230328857230e+000
1	 5.287741637167839e-001	 1.238516251189468e+000	 1.433348895827805e+000
1	 5.155699705852225e-001	 1.244070805699674e+000	 1.386177627506763e+000
1	 5.023354885492571e-001	 1.249473312207339e+000	 1.349025955531615e+000
1	 4.890732321932147e-001	 1.254723797420769e+000	 1.321633324418954e+000
1	 4.757857040971966e-001	 1.259822341009158e+000	 1.303701122962826e+000
1	 4.624753935121033e-001	 1.264769074977958e+000	 1.294893838744819e+000
1	 4.491447750638161e-001	 1.269564183006969e+000	 1.294840254839929e+000
1	 4.357963074876533e-001	 1.274207899752516e+000	 1.303134685493057e+000
1	 4.224324323941557e-001	 1.278700510115136e+000	 1.319338247518141e+000
1	 4.090555730671776e-001	 1.283042348474234e+000	 1.342980164157373e+000
1	 3.956681332952000e-001	 1.287233797891179e+000	 1.373559098133862e+000
1	 5.392439090544005e-001	 1.263038912541362e+000	 1.192363503552386e+000
1	 5.257782724767011e-001	 1.268703447408290e+000	 1.152103697006899e+000
1	 5.122817472733993e-001	 1.274212923717429e+000	 1.122249418757829e+000
1	 4.987568978176553e-001	 1.279567368705895e+000	 1.102524108469986e+000
1	 4.852062762407214e-001	 1.284766863620316e+000	 1.092610546059326e+000
1	 4.716324210807296e-001	 1.289811543079843e+000	 1.092152081274891e+000
1	 4.580378559612177e-001	 1.294701594401128e+000	 1.100753908570475e+000
1	 4.444250883005267e-001	 1.299437256886679e+000	 1.117984383824053e+000
1	 4.307966080531481e-001	 1.304018821078061e+000	 1.143376379434927e+000
1	 4.171548864840204e-001	 1.308446627975386e+000	 1.176428674314523e+000
1	 4.035023749766974e-001	 1.312721068224635e+000	 1.216607375280753e+000
1	 5.497136386883157e-001	 1.287561537111484e+000	 8.887020394312731e-001
1	 5.359865590565952e-001	 1.293336052170213e+000	 8.545228697766886e-001
1	 5.222279910789711e-001	 1.298952498120428e+000	 8.311133661373544e-001
1	 5.084405489173633e-001	 1.304410902728050e+000	 8.181853812126858e-001
1	 4.946268342541013e-001	 1.309711348817139e+000	 8.154077774224392e-001
1	 4.807894349144759e-001	 1.314853973620533e+000	 8.224077203991730e-001
1	 4.669309235196081e-001	 1.319838968091726e+000	 8.387720206013397e-001
1	 4.530538561707893e-001	 1.324666576179405e+000	 8.640485194121657e-001
1	 4.391607711663913e-001	 1.329337094066145e+000	 8.977475160628834e-001
1	 4.252541877523637e-001	 1.333850869372756e+000	 9.393432317006457e-001
1	 4.113366049072643e-001	 1.338208300329813e+000	 9.882753069151531e-001
1	 5.601833552358967e-001	 1.312084131030102e+000	 5.215855215065905e-001
1	 5.461948328769253e-001	 1.317968626143207e+000	 4.927483210112073e-001
1	 5.321742224524917e-001	 1.323692041600839e+000	 4.750391542750974e-001
1	 5.181241879132170e-001	 1.329254405697723e+000	 4.681624694321017e-001
1	 5.040473804924455e-001	 1.334655802835345e+000	 4.717776549947381e-001
1	 4.899464373025677e-001	 1.339896372860226e+000	 4.855003864941030e-001
1	 4.758239799622283e-001	 1.344976310362696e+000	 5.089040238130905e-001
1	 4.616826132556096e-001	 1.349895863937608e+000	 5.415210554167215e-001
1	 4.475249238249042e-001	 1.354655335408544e+000	 5.828445856506008e-001
1	 4.333534788970148e-001	 1.359255079016994e+000	 6.323298612596791e-001
1	 4.191708250454448e-001	 1.363695500578122e+000	 6.893958332738466e-001
1	 5.706530613145106e-001	 1.336606700427484e+000	 9.029223776109301e-002
1	 5.564030964897108e-001	 1.342601175485032e+000	 6.614373289579045e-002
1	 5.421204438804808e-001	 1.348431560343163e+000	 5.349070764112594e-002
1	 5.278078172260935e-001	 1.354097883825399e+000	 5.203416975662353e-002
1	 5.134679173108632e-001	 1.359600231910653e+000	 6.142824782694727e-002
1	 4.991034305342312e-001	 1.364938747059123e+000	 8.128158065038012e-002
1	 4.847170275123195e-001	 1.370113627497968e+000	 1.111587596487953e-001
1	 4.703113617121550e-001	 1.375125126468206e+000	 1.505818203637195e-001
1	 4.558890681197054e-001	 1.379973551434411e+000	 1.990317790698235e-001
1	 4.414527619427803e-001	 1.384659263258752e+000	 2.559502105165364e-001
1	 4.270050373497829e-001	 1.389182675340970e+000	 3.207408628005427e-001
1	 5.811227595415254e-001	 1.361129251433898e+000	-4.058474044657922e-001
1	 5.666113524469723e-001	 1.367233706353451e+000	-4.258812466576701e-001
1	 5.520666578494572e-001	 1.373171060531899e+000	-4.340293074247649e-001
1	 5.374914392768710e-001	 1.378941343321566e+000	-4.305902576764623e-001
1	 5.228884470644628e-001	 1.384544642278781e+000	-4.159112278440971e-001
1	 5.082604168986920e-001	 1.389981102477423e+000	-3.903863858000910e-001
1	 4.936100683931231e-001	 1.395250925781474e+000	-3.544554596679587e-001
1	 4.789401036975942e-001	 1.400354370078113e+000	-3.086022095697189e-001
1	 4.642532061418141e-001	 1.405291748472903e+000	-2.533528523945133e-001
1	 4.495520389144668e-001	 1.410063428448682e+000	-1.892744436942291e-001
1	 4.348392437788227e-001	 1.414669830989763e+000	-1.169732208220649e-001
1	 5.915924525343077e-001	 1.385651790179613e+000	-9.674554820721413e-001
1	 5.768196033007296e-001	 1.391866224906227e+000	-9.838750629941474e-001
1	 5.620128668459405e-001	 1.397910548351552e+000	-9.879829023885982e-001
1	 5.471750564864276e-001	 1.403784790396708e+000	-9.800737762849304e-001
1	 5.323089721083540e-001	 1.409489040175448e+000	-9.604922712058573e-001
1	 5.174173986851759e-001	 1.415023445375324e+000	-9.296313391359862e-001
1	 5.025031048278797e-001	 1.420388211497145e+000	-8.879307955234318e-001
1	 4.875688413690945e-001	 1.425583601074242e+000	-8.358757644493824e-001
1	 4.726173399822490e-001	 1.430609932853171e+000	-7.739950751392222e-001
1	 4.576513118368814e-001	 1.435467580937434e+000	-7.028596140130057e-001
1	 4.426734462911082e-001	 1.440156973895912e+000	-6.230806364856600e-001
1	 6.020621429102250e-001	 1.410174322794896e+000	-1.595110679390521e+000
1	 5.870278516030029e-001	 1.416498737301121e+000	-1.608347890133349e+000
1	 5.719590733564497e-001	 1.422650029986620e+000	-1.608799829346465e+000
1	 5.568586712756409e-001	 1.428628231261313e+000	-1.596753979702832e+000
1	 5.417294947976459e-001	 1.434433431836373e+000	-1.572548765112585e+000
1	 5.265743781829089e-001	 1.440065782013029e+000	-1.536572092187874e+000
1	 5.113961390398313e-001	 1.445525490928912e+000	-1.489259833107155e+000
1	 4.961975768838239e-001	 1.450812825763512e+000	-1.431094254077515e+000
1	 4.809814717320292e-001	 1.455928110904371e+000	-1.362602393635176e+000
1	 4.657505827348304e-001	 1.460871727075660e+000	-1.284354395049884e+000
1	 4.505076468451836e-001	 1.465644110430823e+000	-1.196961797113799e+000
1	 3.721653181596841e-001	 1.210771693807061e+000	 1.406752188075036e+000
1	 3.595653860970648e-001	 1.214573118999657e+000	 1.407225134971713e+000
1	 3.469599637677736e-001	 1.218233941437156e+000	 1.413735974513362e+000
1	 3.343512498799867e-001	 1.221754652219686e+000	 1.425473384871655e+000
1	 3.217414207892364e-001	 1.225135784980603e+000	 1.441613360780412e+000
1	 3.091326295656695e-001	 1.228377915011984e+000	 1.461320888693472e+000
1	 2.965270050962132e-001	 1.231481658369039e+000	 1.483751603899036e+000
1	 2.839266512220445e-001	 1.234447670954891e+000	 1.508053426756836e+000
1	 2.713336459116921e-001	 1.237276647587193e+000	 1.533368175346754e+000
1	 2.587500404700431e-001	 1.239969321048035e+000	 1.558833151948375e+000
1	 2.461778587834510e-001	 1.242526461118597e+000	 1.583582700899891e+000
1	 3.799996068452374e-001	 1.236259117053800e+000	 1.469646775956965e+000
1	 3.671344391456395e-001	 1.240140564378870e+000	 1.484007679392090e+000
1	 3.542636656061270e-001	 1.243878449182008e+000	 1.504541146170998e+000
1	 3.413895312189302e-001	 1.247473272901273e+000	 1.530332475371239e+000
1	 3.285142581531008e-001	 1.250925580403296e+000	 1.560453699909693e+000
1	 3.156400448021336e-001	 1.254235959090374e+000	 1.593965458628937e+000
1	 3.027690648672338e-001	 1.257405037986019e+000	 1.629918846797943e+000
1	 2.899034664766288e-001	 1.260433486800481e+000	 1.667357241892123e+000
1	 2.770453713412645e-001	 1.263322014977708e+000	 1.705318101658003e+000
1	 2.641968739471592e-001	 1.266071370725263e+000	 1.742834731615115e+000
1	 2.513600407846233e-001	 1.268682340028648e+000	 1.778938019294854e+000
1	 3.878338779042280e-001	 1.261746482958037e+000	 1.458230328857230e+000
1	 3.747034751643715e-001	 1.265707952235458e+000	 1.484833362168536e+000
1	 3.615673510116165e-001	 1.269522899230740e+000	 1.517773918038029e+000
1	 3.484277967221451e-001	 1.273191835719855e+000	 1.556046976955688e+000
1	 3.352870802784262e-001	 1.276715317802694e+000	 1.598633341738887e+000
1	 3.221474453972028e-001	 1.280093944991751e+000	 1.644501696176670e+000
1	 3.090111105938582e-001	 1.283328359278823e+000	 1.692610639288439e+000
1	 2.958802682835722e-001	 1.286419244181258e+000	 1.741910691761828e+000
1	 2.827570839196105e-001	 1.289367323769279e+000	 1.791346271290163e+000
1	 2.696436951690276e-001	 1.292173361675890e+000	 1.839857633692093e+000
1	 2.565422111259951e-001	 1.294838160090888e+000	 1.886382776859701e+000
1	 3.956681332952000e-001	 1.287233797891179e+000	 1.373559098133862e+000
1	 3.822724960455041e-001	 1.291275288960849e+000	 1.411052473782507e+000
1	 3.688710218101570e-001	 1.295167297994062e+000	 1.455073295187372e+000
1	 3.554660481492020e-001	 1.298910347104691e+000	 1.504538579607237e+000
1	 3.420598888584344e-001	 1.302505003625874e+000	 1.558349937667557e+000
1	 3.286548329777549e-001	 1.305951879180282e+000	 1.615395808665641e+000
1	 3.152531438366364e-001	 1.309251628727975e+000	 1.674553669409766e+000
1	 3.018570581371236e-001	 1.312404949593379e+000	 1.734692212856419e+000
1	 2.884687850747150e-001	 1.315412580472970e+000	 1.794673492979112e+000
1	 2.750905054974154e-001	 1.318275300425168e+000	 1.853355032479152e+000
1	 2.617243711031739e-001	 1.320993927844035e+000	 1.909591890125697e+000
1	 4.035023749766974e-001	 1.312721068224635e+000	 1.216607375280753e+000
1	 3.898415036812796e-001	 1.316842580946469e+000	 1.263910506891335e+000
1	 3.761746798276636e-001	 1.320811651882687e+000	 1.317951060222512e+000
1	 3.625042872596722e-001	 1.324628813485048e+000	 1.377579794273287e+000
1	 3.488326855863470e-001	 1.328294644319918e+000	 1.441630525459308e+000
1	 3.351622091706676e-001	 1.331809768120133e+000	 1.508922530119952e+000
1	 3.214951661561188e-001	 1.335174852813998e+000	 1.578262919175603e+000
1	 3.078338375315319e-001	 1.338390609533002e+000	 1.648448980898344e+000
1	 2.941804762345622e-001	 1.341457791599845e+000	 1.718270487942598e+000
1	 2.805373062940900e-001	 1.344377193498346e+000	 1.786511964967948e+000
1	 2.669065220117670e-001	 1.347149649826810e+000	 1.851954913380899e+000
1	 4.113366049072643e-001	 1.338208300329813e+000	 9.882753069151531e-001
1	 3.974104999639416e-001	 1.342409834583748e+000	 1.044558146282001e+000
1	 3.834783268900516e-001	 1.346455967307327e+000	 1.107803898823443e+000
1	 3.695425158131264e-001	 1.350347241290185e+000	 1.176808169413462e+000
1	 3.556054721553857e-001	 1.354084246331904e+000	 1.250347787066976e+000
1	 3.416695756028192e-001	 1.357667618275472e+000	 1.327183365593506e+000
1	 3.277371791128551e-001	 1.361098038017419e+000	 1.406061835693664e+000
1	 3.138106079610459e-001	 1.364376230496281e+000	 1.485718944162144e+000
1	 2.998921588271372e-001	 1.367502963660970e+000	 1.564881716051608e+000
1	 2.859840989208189e-001	 1.370479047420677e+000	 1.642270875852097e+000
1	 2.720886651473818e-001	 1.373305332577932e+000	 1.716603223943622e+000
1	 4.191708250454448e-001	 1.363695500578122e+000	 6.893958332738466e-001
1	 4.049794867857331e-001	 1.367977056264114e+000	 7.540601383997041e-001
1	 3.907819648232359e-001	 1.372100250678695e+000	 8.259241653499558e-001
1	 3.765807355691360e-001	 1.376065636949365e+000	 9.037389130883839e-001
1	 3.623782502587722e-001	 1.379873816108914e+000	 9.862344830597141e-001
1	 3.481769339010870e-001	 1.383525436110463e+000	 1.072122789308186e+000
1	 3.339791842673958e-001	 1.387021190818762e+000	 1.160100239990388e+000
1	 3.197873709199146e-001	 1.390361818979375e+000	 1.248850385643964e+000
1	 3.056038342804242e-001	 1.393548103167406e+000	 1.337046529774494e+000
1	 2.914308847393696e-001	 1.396580868717411e+000	 1.423354297532879e+000
1	 2.772708018056258e-001	 1.399460982636122e+000	 1.506434158467319e+000
1	 4.270050373497829e-001	 1.389182675340970e+000	 3.207408628005427e-001
1	 4.125484660388972e-001	 1.393544252378993e+000	 3.934031843670213e-001
1	 3.980855954531315e-001	 1.397744508407502e+000	 4.735094631830362e-001
1	 3.836189482872718e-001	 1.401784006891852e+000	 5.597761253920797e-001
1	 3.691510215897282e-001	 1.405663360098026e+000	 6.508962978599818e-001
1	 3.546842856923493e-001	 1.409383228089274e+000	 7.455426594235626e-001
1	 3.402211831802909e-001	 1.412944317698551e+000	 8.423702641251585e-001
1	 3.257641279023869e-001	 1.416347381478438e+000	 9.400193314924340e-001
1	 3.113155040224079e-001	 1.419593216630219e+000	 1.037117999131881e+000
1	 2.968776651115092e-001	 1.422682663913800e+000	 1.132285033121202e+000
1	 2.824529332821062e-001	 1.425616606540098e+000	 1.224132491907641e+000
1	 4.348392437788227e-001	 1.414669830989763e+000	-1.169732208220649e-001
1	 4.201174396156771e-001	 1.419111429319816e+000	-3.649702033809471e-002
1	 4.053892206056536e-001	 1.423388746904461e+000	 5.167118930301691e-002
1	 3.906571557271050e-001	 1.427502357546906e+000	 1.462228165085589e-001
1	 3.759237878414754e-001	 1.431452884746319e+000	 2.458232962398990e-001
1	 3.611916326034839e-001	 1.435241000676072e+000	 3.491150743779418e-001
1	 3.464631774120903e-001	 1.438867425137311e+000	 4.547205652900943e-001
1	 3.317408804027114e-001	 1.442332924489626e+000	 5.612450773560439e-001
1	 3.170271694810728e-001	 1.445638310560474e+000	 6.672797014232815e-001
1	 3.023244413990053e-001	 1.448784439535093e+000	 7.714041573881790e-001
1	 2.876350608724304e-001	 1.451772210828581e+000	 8.721895943267910e-001
1	 4.426734462911082e-001	 1.440156973895912e+000	-6.230806364856600e-001
1	 4.276864094083155e-001	 1.444678593478009e+000	-5.347894938163629e-001
1	 4.126928421067176e-001	 1.449032972580286e+000	-4.385578285638463e-001
1	 3.976953596482061e-001	 1.453220695343790e+000	-3.357101391463037e-001
1	 3.826965507072357e-001	 1.457242396500876e+000	-2.275998368597745e-001
1	 3.676989762613686e-001	 1.461098760335022e+000	-1.156061361111671e-001
1	 3.527051685233442e-001	 1.464790519615566e+000	-1.130969623861217e-003
1	 3.377176299151375e-001	 1.468318454509096e+000	 1.144040658366551e-001
1	 3.227388320844036e-001	 1.471683391469234e+000	 2.295607278895571e-001
1	 3.077712149636253e-001	 1.474886202106543e+000	 3.428871060198150e-001
1	 2.928171858722058e-001	 1.477927802040290e+000	 4.529205532506009e-001
1	 4.505076468451836e-001	 1.465644110430823e+000	-1.196961797113799e+000
1	 4.352553773090560e-001	 1.470245751245001e+000	-1.100682332275193e+000
1	 4.199964617822380e-001	 1.474677191845686e+000	-9.962164917561837e-001
1	 4.047335618101466e-001	 1.478939026711766e+000	-8.848959831721781e-001
1	 3.894693118802304e-001	 1.483031901808773e+000	-7.680846250633621e-001
1	 3.742063182928812e-001	 1.486956513530291e+000	-6.471751191627849e-001
1	 3.589471580746028e-001	 1.490713607613841e+000	-5.235858452162978e-001
1	 3.436943779339139e-001	 1.494303978033006e+000	-3.987576842066662e-001
1	 3.284504932603850e-001	 1.497728465867564e+000	-2.741508756107384e-001
1	 3.132179871671365e-001	 1.500987958153400e+000	-1.512419140855869e-001
1	 2.979993095770399e-001	 1.504083386713946e+000	-3.152049073832768e-002
1	 2.461778587834510e-001	 1.242526461118597e+000	 1.583582700899891e+000
1	 2.336209787353383e-001	 1.244948520494780e+000	 1.608647268626799e+000
1	 2.210794773494281e-001	 1.247236734201940e+000	 1.634976290972351e+000
1	 2.085552884195949e-001	 1.249391977736748e+000	 1.661578329233791e+000
1	 1.960503157475883e-001	 1.251415159572273e+000	 1.687473575945613e+000
1	 1.835664325704446e-001	 1.253307220138870e+000	 1.711695219260223e+000
1	 1.711054810238903e-001	 1.255069130798217e+000	 1.733290752012478e+000
1	 1.586692716415527e-001	 1.256701892811832e+000	 1.751323224483816e+000
1	 1.462595828897382e-001	 1.258206536305377e+000	 1.764872440040380e+000
1	 1.338781607374896e-001	 1.259584119230017e+000	 1.773036092975748e+000
1	 1.215267182615959e-001	 1.260835726322077e+000	 1.774930848040486e+000
1	 2.513600407846233e-001	 1.268682340028648e+000	 1.778938019294854e+000
1	 2.385388313687072e-001	 1.271155385113263e+000	 1.814778496602053e+000
1	 2.257333243445114e-001	 1.273491767002438e+000	 1.851419859313635e+000
1	 2.129454942133351e-001	 1.275692379622538e+000	 1.887755343999180e+000
1	 2.001772848530018e-001	 1.277758150570499e+000	 1.922691683188079e+000
1	 1.874306089332176e-001	 1.279690040073258e+000	 1.955150630481184e+000
1	 1.747073473676788e-001	 1.281489039940201e+000	 1.984070423018075e+000
1	 1.620093488027417e-001	 1.283156172509960e+000	 2.008407180217613e+000
1	 1.493384291424061e-001	 1.284692489592919e+000	 2.027136237890088e+000
1	 1.366963711093230e-001	 1.286099071410704e+000	 2.039253416992058e+000
1	 1.240849238414895e-001	 1.287377025533950e+000	 2.043776226468664e+000
1	 2.565422111259951e-001	 1.294838160090888e+000	 1.886382776859700e+000
1	 2.434566729370095e-001	 1.297362190769154e+000	 1.932211171367398e+000
1	 2.303871608685430e-001	 1.299746740731929e+000	 1.978538252843345e+000
1	 2.173356901292265e-001	 1.301992722335230e+000	 2.024150116285851e+000
1	 2.043042446728649e-001	 1.304101082299809e+000	 2.067847652724844e+000
1	 1.912947766017440e-001	 1.306072800649137e+000	 2.108448238570670e+000
1	 1.783092056074410e-001	 1.307908889640256e+000	 2.144787355751733e+000
1	 1.653494184489528e-001	 1.309610392688861e+000	 2.175720141431966e+000
1	 1.524172684678871e-001	 1.311178383290003e+000	 2.200122866298517e+000
1	 1.395145751404186e-001	 1.312613963935719e+000	 2.216894340603822e+000
1	 1.266431236656700e-001	 1.313918265030891e+000	 2.224957247335711e+000
1	 2.617243711031739e-001	 1.320993927844035e+000	 1.909591890125696e+000
1	 2.483745046697697e-001	 1.323568944013921e+000	 1.964825888075049e+000
1	 2.350409880850431e-001	 1.326001661953930e+000	 2.020396379610584e+000
1	 2.217258772648734e-001	 1.328293012449679e+000	 2.074990021473895e+000
1	 2.084311962389666e-001	 1.330443961345699e+000	 2.127309023616900e+000
1	 1.951589365421072e-001	 1.332455508461953e+000	 2.176073006311523e+000
1	 1.819110566436752e-001	 1.334328686503093e+000	 2.220020782215599e+000
1	 1.686894814152311e-001	 1.336064559961831e+000	 2.257912062031108e+000
1	 1.554961016359138e-001	 1.337664224017839e+000	 2.288529082608522e+000
1	 1.423327735353477e-001	 1.339128803433513e+000	 2.310678156563363e+000
1	 1.292013183737076e-001	 1.340459451447940e+000	 2.323191142678957e+000
1	 2.669065220117670e-001	 1.347149649826810e+000	 1.851954913380898e+000
1	 2.532923277965124e-001	 1.349775651399042e+000	 1.916201902062118e+000
1	 2.396948071575314e-001	 1.352256537231954e+000	 1.980743489419346e+000
1	 2.261160567178805e-001	 1.354593256540739e+000	 2.044174154685225e+000
1	 2.125581405830954e-001	 1.356786794293665e+000	 2.105104164656068e+000
1	 1.990230897203908e-001	 1.358838170107152e+000	 2.162161602102691e+000
1	 1.855129013768806e-001	 1.360748437133422e+000	 2.213994314013783e+000
1	 1.720295385366216e-001	 1.362518680942165e+000	 2.259271778125459e+000
1	 1.585749294162189e-001	 1.364150018397633e+000	 2.296686886425999e+000
1	 1.451509669986813e-001	 1.365643596532541e+000	 2.324957644554691e+000
1	 1.317595086051721e-001	 1.367000591420134e+000	 2.342828786239737e+000
1	 2.720886651473818e-001	 1.373305332577932e+000	 1.716603223943621e+000
1	 2.582101435467623e-001	 1.375982319475984e+000	 1.789645835573935e+000
1	 2.443486192495282e-001	 1.378511373129517e+000	 1.863043243973255e+000
1	 2.305062295858520e-001	 1.380893461183264e+000	 1.935304602770005e+000
1	 2.166850787370401e-001	 1.383129587729205e+000	 2.004954583224426e+000
1	 2.028872371026779e-001	 1.385220792180180e+000	 2.070535577494925e+000
1	 1.891147407075556e-001	 1.387168148135953e+000	 2.130609817300410e+000
1	 1.753695906481697e-001	 1.388972762243157e+000	 2.183761406221013e+000
1	 1.616537525785352e-001	 1.390635773050592e+000	 2.228598264133945e+000
1	 1.479691562349904e-001	 1.392158349861254e+000	 2.263753982528891e+000
1	 1.343176949996336e-001	 1.393541691582514e+000	 2.287889589688716e+000
1	 2.772708018056258e-001	 1.399460982636122e+000	 1.506434158467319e+000
1	 2.631279531500440e-001	 1.402188954796221e+000	 1.588217164880901e+000
1	 2.490024255245531e-001	 1.404766176210133e+000	 1.670500414498729e+000
1	 2.348963969663925e-001	 1.407193632952109e+000	 1.751714208979272e+000
1	 2.208120117325892e-001	 1.409472348237812e+000	 1.830303610549416e+000
1	 2.067513796550518e-001	 1.411603381276482e+000	 1.904730823695698e+000
1	 1.927165755361991e-001	 1.413587826115396e+000	 1.973477488478442e+000
1	 1.787096385849205e-001	 1.415426810478104e+000	 2.035046883475339e+000
1	 1.647325718925951e-001	 1.417121494597922e+000	 2.087966036631094e+000
1	 1.507873419488461e-001	 1.418673070048106e+000	 2.130787742554023e+000
1	 1.368758781966621e-001	 1.420082758570117e+000	 2.162092485060733e+000
1	 2.824529332821062e-001	 1.425616606540098e+000	 1.224132491907641e+000
1	 2.680457578358820e-001	 1.428395563911225e+000	 1.314750901336534e+000
1	 2.536562271461264e-001	 1.431020953037317e+000	 1.406084640036360e+000
1	 2.392865599571062e-001	 1.433493778422127e+000	 1.496491280826142e+000
1	 2.249389406015317e-001	 1.435815082404983e+000	 1.584341928794455e+000
1	 2.106155183435960e-001	 1.437985943991505e+000	 1.668023784997167e+000
1	 1.963184067633099e-001	 1.440007477676460e+000	 1.745942618649814e+000
1	 1.820496831819193e-001	 1.441880832260298e+000	 1.816525145558995e+000
1	 1.678113881281316e-001	 1.443607189660832e+000	 1.878221310822596e+000
1	 1.536055248448193e-001	 1.445187763721549e+000	 1.929506474110639e+000
1	 1.394340588358278e-001	 1.446623799017982e+000	 1.968883496112081e+000
1	 2.876350608724304e-001	 1.451772210828581e+000	 8.721895943267901e-001
1	 2.729635588338008e-001	 1.454602153372468e+000	 9.718778203111473e-001
1	 2.583100252777679e-001	 1.457275710174585e+000	 1.072551617144480e+000
1	 2.436767196555977e-001	 1.459793904168173e+000	 1.172501626698327e+000
1	 2.290658663756560e-001	 1.462157796816215e+000	 1.270030338330679e+000
1	 2.144796541343938e-001	 1.464368486920693e+000	 1.363454838183340e+000
1	 1.999202352893869e-001	 1.466427109423858e+000	 1.451109464472306e+000
1	 1.853897252742113e-001	 1.468334834203037e+000	 1.531348366227575e+000
1	 1.708902020548770e-001	 1.470092864860527e+000	 1.602547963239450e+000
1	 1.564237056274812e-001	 1.471702437510035e+000	 1.663109305266010e+000
1	 1.419922375567005e-001	 1.473164819561149e+000	 1.711460328847154e+000
1	 2.928171858722058e-001	 1.477927802040290e+000	 4.529205532505999e-001
1	 2.778813573733250e-001	 1.480808729731422e+000	 5.620425418181316e-001
1	 2.629638210829975e-001	 1.483530454185451e+000	 6.724620392618951e-001
1	 2.480668771594715e-001	 1.486094016765102e+000	 7.824082521886772e-001
1	 2.331927900867510e-001	 1.488500498057003e+000	 8.901201071314229e-001
1	 2.183437879935285e-001	 1.490751016659494e+000	 9.938491890510447e-001
1	 2.035220620149286e-001	 1.492846727962296e+000	 1.091862583938132e+000
1	 1.887297656968415e-001	 1.494788822919614e+000	 1.182445622658927e+000
1	 1.739690144425642e-001	 1.496578526818215e+000	 1.263904523503946e+000
1	 1.592418850014027e-001	 1.498217098042018e+000	 1.334568931210495e+000
1	 1.445504149988502e-001	 1.499705826834654e+000	 1.392794350538241e+000
1	 2.979993095770399e-001	 1.504083386713946e+000	-3.152049073832685e-002
1	 2.827991546839796e-001	 1.507015299539558e+000	 8.751972437870308e-002
1	 2.676176157253354e-001	 1.509785191633430e+000	 2.081985596978096e-001
1	 2.524570335663319e-001	 1.512394122787768e+000	 3.286890010604995e-001
1	 2.373197127666052e-001	 1.514843192712843e+000	 4.471711966522285e-001
1	 2.222079208870836e-001	 1.517133539803352e+000	 5.618355883225628e-001
1	 2.071238878404339e-001	 1.519266339896488e+000	 6.708859457066865e-001
1	 1.920698052848553e-001	 1.521242805023325e+000	 7.725422999537304e-001
1	 1.770478260609259e-001	 1.523064182155104e+000	 8.650437741973801e-001
1	 1.620600636711550e-001	 1.524731751945949e+000	 9.466513082315027e-001
1	 1.471085918018470e-001	 1.526246827473539e+000	 1.015650275175692e+000
1	 1.215267182615959e-001	 1.260835726322077e+000	 1.774930848040487e+000
1	 1.092050938783885e-001	 1.261962627821675e+000	 1.771573777196971e+000
1	 9.691681094146261e-002	 1.262965762463481e+000	 1.764044595354245e+000
1	 8.466350730218102e-002	 1.263846289909173e+000	 1.751588430508640e+000
1	 7.244678589573805e-002	 1.264605392478897e+000	 1.733477917268614e+000
1	 6.026821451849371e-002	 1.265244274109201e+000	 1.709013632241635e+000
1	 4.812932563820527e-002	 1.265764159316470e+000	 1.677524474361621e+000
1	 3.603161623652470e-002	 1.266166292166884e+000	 1.638367991182438e+000
1	 2.397654768310283e-002	 1.266451935253878e+000	 1.590930652243080e+000
1	 1.196554564061585e-002	 1.266622368684020e+000	 1.534628070684880e+000
1	 0.000000000000000e+000	 1.266678889072220e+000	 1.468905174371600e+000
1	 1.240849238414895e-001	 1.287377025533950e+000	 2.043776226468664e+000
1	 1.115039223538047e-001	 1.288527648942039e+000	 2.041882175958321e+000
1	 9.895696416848027e-002	 1.289551900130541e+000	 2.034838714420318e+000
1	 8.644572161462832e-002	 1.290450963172669e+000	 2.021839096468976e+000
1	 7.397183137018699e-002	 1.291226045277082e+000	 2.002108548254007e+000
1	 6.153689423456665e-002	 1.291878375723875e+000	 1.974904679265128e+000
1	 4.914247493488754e-002	 1.292409204806197e+000	 1.939517832825557e+000
1	 3.679010196516106e-002	 1.292819802778529e+000	 1.895271376544215e+000
1	 2.448126745774404e-002	 1.293111458812611e+000	 1.841521934080461e+000
1	 1.221742708636590e-002	 1.293285479961983e+000	 1.777659559656116e+000
1	 0.000000000000000e+000	 1.293343190136031e+000	 1.703107856820789e+000
1	 1.266431236656700e-001	 1.313918265030891e+000	 2.224957247335712e+000
1	 1.138027456571140e-001	 1.315092610294107e+000	 2.225699416021156e+000
1	 1.009971128054113e-001	 1.316137977981790e+000	 2.220609959167523e+000
1	 8.822793191734571e-002	 1.317055576578640e+000	 2.208810237790839e+000
1	 7.549687341352278e-002	 1.317846638181773e+000	 2.189457441335037e+000
1	 6.280557109632910e-002	 1.318512417414775e+000	 2.161745022988386e+000
1	 5.015562195217487e-002	 1.319054190347506e+000	 2.124903066912447e+000
1	 3.754858598735988e-002	 1.319473253422687e+000	 2.078198588829925e+000
1	 2.498598609687752e-002	 1.319770922390312e+000	 2.020935771513693e+000
1	 1.246930796544274e-002	 1.319948531250828e+000	 1.952456136803706e+000
1	 0.000000000000000e+000	 1.320007431208043e+000	 1.872138655859610e+000
1	 1.292013183737076e-001	 1.340459451447940e+000	 2.323191142678956e+000
1	 1.161015643630454e-001	 1.341657518518851e+000	 2.327702140542253e+000
1	 1.030372573623214e-001	 1.342724002663488e+000	 2.325942895338357e+000
1	 9.001013865592045e-002	 1.343660136777989e+000	 2.316944011115513e+000
1	 7.702191240704664e-002	 1.344467177847875e+000	 2.299775191898501e+000
1	 6.407424542099523e-002	 1.345146405840180e+000	 2.273545746119007e+000
1	 5.116876694340037e-002	 1.345699122601420e+000	 2.237405015668631e+000
1	 3.830706849278592e-002	 1.346126650762511e+000	 2.190542731135874e+000
1	 2.549070372671889e-002	 1.346430332651642e+000	 2.132189294893410e+000
1	 1.272118834083836e-002	 1.346611529216121e+000	 2.061615993800118e+000
1	 0.000000000000000e+000	 1.346671618954121e+000	 1.978135143371225e+000
1	 1.317595086051721e-001	 1.367000591420134e+000	 2.342828786239737e+000
1	 1.184003790463280e-001	 1.368222380257244e+000	 2.352203781273078e+000
1	 1.050773983492763e-001	 1.369309980821893e+000	 2.355066022846418e+000
1	 9.179234227593996e-002	 1.370264650421613e+000	 2.350337561703792e+000
1	 7.854694873205979e-002	 1.371087670930294e+000	 2.336982255696198e+000
1	 6.534291752577912e-002	 1.371780347658369e+000	 2.314006387550684e+000
1	 5.218191016189722e-002	 1.372344008228968e+000	 2.280459199472107e+000
1	 3.906554967110398e-002	 1.372780001461154e+000	 2.235433346189986e+000
1	 2.599542047348377e-002	 1.373089696261269e+000	 2.178065268182491e+000
1	 1.297306827554469e-002	 1.373274480523431e+000	 2.107535486923222e+000
1	 0.000000000000000e+000	 1.373335760040133e+000	 2.023068824097798e+000
1	 1.343176949996336e-001	 1.393541691582514e+000	 2.287889589688715e+000
1	 1.206991902816909e-001	 1.394787202150259e+000	 2.303189154699425e+000
1	 1.071175362763418e-001	 1.395895919103263e+000	 2.311885690996031e+000
1	 9.357454322299168e-002	 1.396869124160417e+000	 2.312775885458304e+000
1	 8.007198276986338e-002	 1.397708124083939e+000	 2.304700394116447e+000
1	 6.661158772789504e-002	 1.398414249527623e+000	 2.286544616212197e+000
1	 5.319505186099852e-002	 1.398988853891178e+000	 2.257239376812964e+000
1	 3.982402971197888e-002	 1.399433312181770e+000	 2.215761519580414e+000
1	 2.650013646338779e-002	 1.399749019883856e+000	 2.161134411435212e+000
1	 1.322494783255373e-002	 1.399937391838324e+000	 2.092428360988776e+000
1	 0.000000000000000e+000	 1.399999861131944e+000	 2.008760952732285e+000
1	 1.368758781966621e-001	 1.420082758570117e+000	 2.162092485060733e+000
1	 1.229979986438630e-001	 1.421351990838867e+000	 2.184345178046337e+000
1	 1.091576716535836e-001	 1.422481824153855e+000	 2.200016209936101e+000
1	 9.535674194266292e-002	 1.423473564645299e+000	 2.207761005301347e+000
1	 8.159701490175862e-002	 1.424328543963714e+000	 2.206280592707245e+000
1	 6.788025634455708e-002	 1.425048118106222e+000	 2.194322576841959e+000
1	 5.420819229403744e-002	 1.425633666249075e+000	 2.170682010439599e+000
1	 4.058250880507539e-002	 1.426086589587512e+000	 2.134202167528281e+000
1	 2.700485182264656e-002	 1.426408310184067e+000	 2.083775219696292e+000
1	 1.347682707485744e-002	 1.426600269826366e+000	 2.018342817220735e+000
1	 0.000000000000000e+000	 1.426663928895422e+000	 1.936896577042662e+000
1	 1.394340588358278e-001	 1.446623799017982e+000	 1.968883496112081e+000
1	 1.252968047075734e-001	 1.447916752964040e+000	 1.999088203538803e+000
1	 1.111978049910673e-001	 1.449067702619928e+000	 2.022806646928810e+000
1	 9.713893888054107e-002	 1.450077978527162e+000	 2.038537935317360e+000
1	 8.312204550904669e-002	 1.450948937224526e+000	 2.044827905950264e+000
1	 6.914892369297943e-002	 1.451681960052446e+000	 2.040270335167956e+000
1	 5.522133171434710e-002	 1.452278451963687e+000	 2.023508039852429e+000
1	 4.134098714005827e-002	 1.452739840341533e+000	 1.993233870840831e+000
1	 2.750956667747569e-002	 1.453067573826568e+000	 1.948191599895888e+000
1	 1.372870606544777e-002	 1.453263121153126e+000	 1.887176701998023e+000
1	 0.000000000000000e+000	 1.453327969996434e+000	 1.809037034888340e+000
1	 1.419922375567005e-001	 1.473164819561149e+000	 1.711460328847153e+000
1	 1.275956090475513e-001	 1.474481495166753e+000	 1.750588397465020e+000
1	 1.132379367988588e-001	 1.475653561147740e+000	 1.783364725585546e+000
1	 9.892113448221356e-002	 1.476682372456906e+000	 1.808117837825642e+000
1	 8.464707497302880e-002	 1.477569310521282e+000	 1.823223615983750e+000
1	 7.041759009037629e-002	 1.478315782024575e+000	 1.827106788352411e+000
1	 5.623447037526061e-002	 1.478923217696040e+000	 1.818242299901363e+000
1	 4.209946490659234e-002	 1.479393071106987e+000	 1.795156564550017e+000
1	 2.801428115409081e-002	 1.479726817476025e+000	 1.756428600961737e+000
1	 1.398058486731671e-002	 1.479925952484172e+000	 1.700691053495694e+000
1	 0.000000000000000e+000	 1.479991991100845e+000	 1.626631100142976e+000
1	 1.445504149988502e-001	 1.499705826834654e+000	 1.392794350538241e+000
1	 1.298944122385256e-001	 1.501046224087976e+000	 1.441791530190323e+000
1	 1.152780675870237e-001	 1.502239406383549e+000	 1.484578187010501e+000
1	 1.007033291932677e-001	 1.503286753085432e+000	 1.519298721179422e+000
1	 8.617210367500609e-002	 1.504189670508888e+000	 1.544145038076076e+000
1	 7.168625585396170e-002	 1.504949590680887e+000	 1.557358354752683e+000
1	 5.724760853011116e-002	 1.505567970107163e+000	 1.557230877133793e+000
1	 4.285794229434238e-002	 1.506046288547026e+000	 1.542107348916984e+000
1	 2.851899537870754e-002	 1.506386047797100e+000	 1.510386473397843e+000
1	 1.423246354345621e-002	 1.506588770485069e+000	 1.460522209676876e+000
1	 0.000000000000000e+000	 1.506655998874523e+000	 1.391024944923860e+000
1	 1.471085918018470e-001	 1.526246827473539e+000	 1.015650275175690e+000
1	 1.321932148552253e-001	 1.527610946368682e+000	 1.075438492324829e+000
1	 1.173181978656277e-001	 1.528825244973612e+000	 1.129133921851988e+000
1	 1.024855234592909e-001	 1.529891127063641e+000	 1.174683977693444e+000
1	 8.769713199627979e-002	 1.530810023842251e+000	 1.210083259344605e+000
1	 7.295492130094994e-002	 1.531583392679665e+000	 1.233375713356316e+000
1	 5.826074643223184e-002	 1.532212715858080e+000	 1.242656654961817e+000
1	 4.361641949297316e-002	 1.532699499324805e+000	 1.236074650515976e+000
1	 2.902370947754151e-002	 1.533045271454459e+000	 1.211833261709123e+000
1	 1.448434215685826e-002	 1.533251581821384e+000	 1.168192652783627e+000
1	 0.000000000000000e+000	 1.533319999983334e+000	 1.103471062235897e+000
1	 1.533319999983334e+000	 0.000000000000000e+000	 2.953811298539386e+001
1	 1.533251581821385e+000	 1.448434215685831e-002	 2.916958097397055e+001
1	 1.533045271454459e+000	 2.902370947754160e-002	 2.880516232361861e+001
1	 1.532699499324805e+000	 4.361641949297308e-002	 2.844381929524576e+001
1	 1.532212715858081e+000	 5.826074643223178e-002	 2.808447962046133e+001
1	 1.531583392679665e+000	 7.295492130094992e-002	 2.772603705192200e+001
1	 1.530810023842251e+000	 8.769713199627981e-002	 2.736735198201964e+001
1	 1.529891127063641e+000	 1.024855234592909e-001	 2.700725213108943e+001
1	 1.528825244973612e+000	 1.173181978656276e-001	 2.664453330620746e+001
1	 1.527610946368682e+000	 1.321932148552252e-001	 2.627796023153038e+001
1	 1.526246827473539e+000	 1.471085918018469e-001	 2.590626745100661e+001
1	 1.559987999982150e+000	 0.000000000000000e+000	 3.073832473525066e+001
1	 1.559918391869258e+000	 1.473625854557675e-002	 3.032333088846566e+001
1	 1.559708493285285e+000	 2.952849927044130e-002	 2.991349033462206e+001
1	 1.559356707374226e+000	 4.437501044347395e-002	 2.950765495603309e+001
1	 1.558861457611046e+000	 5.927403627859133e-002	 2.910464400425067e+001
1	 1.558221189039145e+000	 7.422377701450698e-002	 2.870324486723356e+001
1	 1.557434369519299e+000	 8.922238903169809e-002	 2.830221390782912e+001
1	 1.556499490988984e+000	 1.042679850074528e-001	 2.790027737443682e+001
1	 1.555415070730929e+000	 1.193586341098443e-001	 2.749613238459456e+001
1	 1.554179652649703e+000	 1.344923622314419e-001	 2.708844798209598e+001
1	 1.552791808555088e+000	 1.496671522635357e-001	 2.667586626810649e+001
1	 1.586655999981867e+000	 0.000000000000000e+000	 3.201223265728727e+001
1	 1.586585201918022e+000	 1.498817493449890e-002	 3.154944871233662e+001
1	 1.586371715116970e+000	 3.003328906368751e-002	 3.109275089072270e+001
1	 1.586013915424462e+000	 4.513360139441185e-002	 3.064088978295185e+001
1	 1.585510199364770e+000	 6.028732612543465e-002	 3.019258501314538e+001
1	 1.584858985399321e+000	 7.549263272855974e-002	 2.974652620428531e+001
1	 1.584058715196978e+000	 9.074764606759800e-002	 2.930137401760061e+001
1	 1.583107854914894e+000	 1.060504465560655e-001	 2.885576126668116e+001
1	 1.582004896488756e+000	 1.213990703544733e-001	 2.840829410676404e+001
1	 1.580748358931190e+000	 1.367915096080340e-001	 2.795755329948844e+001
1	 1.579336789637071e+000	 1.522257127255743e-001	 2.750209555325893e+001
1	 1.613323999982383e+000	 0.000000000000000e+000	 3.334979180036130e+001
1	 1.613252011967577e+000	 1.524009132357382e-002	 3.283833965219804e+001
1	 1.613034936949426e+000	 3.053807885719378e-002	 3.233377782448070e+001
1	 1.612671123475432e+000	 4.589219234567800e-002	 3.183476415658231e+001
1	 1.612158941119188e+000	 6.130061597264207e-002	 3.133992696214810e+001
1	 1.611496781760144e+000	 7.676148844298673e-002	 3.084786617437021e+001
1	 1.610683060875255e+000	 9.227290310386339e-002	 3.035715456808992e+001
1	 1.609716218841355e+000	 1.078329081050230e-001	 2.986633905906246e+001
1	 1.608594722247091e+000	 1.234395065994216e-001	 2.937394208056404e+001
1	 1.607317065213149e+000	 1.390906569849222e-001	 2.887846303735606e+001
1	 1.605881770719505e+000	 1.547842731878955e-001	 2.837837983685182e+001
1	 1.639991999983600e+000	 0.000000000000000e+000	 3.474161057935759e+001
1	 1.639918822017828e+000	 1.549200771275063e-002	 3.418103300052620e+001
1	 1.639698158782560e+000	 3.104286865087362e-002	 3.362800117467317e+001
1	 1.639328331527060e+000	 4.665078329716376e-002	 3.308108822011901e+001
1	 1.638807682874235e+000	 6.231390582009395e-002	 3.253883895615774e+001
1	 1.638134578121566e+000	 7.803034415766653e-002	 3.199977121096209e+001
1	 1.637307406554097e+000	 9.379816014037826e-002	 3.146237720886846e+001
1	 1.636324582768350e+000	 1.096153696542197e-001	 3.092512503715332e+001
1	 1.635184548005932e+000	 1.254799428445966e-001	 3.038646019224441e+001
1	 1.633885771495591e+000	 1.413898043620276e-001	 2.984480720513160e+001
1	 1.632426751802406e+000	 1.573428336504320e-001	 2.929857134556048e+001
1	 1.666659999985417e+000	 0.000000000000000e+000	 3.617889850308718e+001
1	 1.666585632068675e+000	 1.574392410197842e-002	 3.556913220609679e+001
1	 1.666361380616284e+000	 3.154765844464056e-002	 3.496739948722296e+001
1	 1.665985539579266e+000	 4.740937424876035e-002	 3.437219629590147e+001
1	 1.665456424629847e+000	 6.332719566767057e-002	 3.378199130442492e+001
1	 1.664772374483535e+000	 7.929919987247770e-002	 3.319522736168909e+001
1	 1.663931752233472e+000	 9.532341717702640e-002	 3.261032302874052e+001
1	 1.662932946695863e+000	 1.113978312035495e-001	 3.202567419604278e+001
1	 1.661774373765276e+000	 1.275203790899053e-001	 3.143965578219597e+001
1	 1.660454477778524e+000	 1.436889517392707e-001	 3.085062351365492e+001
1	 1.658971732885789e+000	 1.599013941131163e-001	 3.025691578479696e+001
1	 1.693327999987733e+000	 0.000000000000000e+000	 3.765341884154420e+001
1	 1.693252442120022e+000	 1.599584049120630e-002	 3.699476966242659e+001
1	 1.693024602450508e+000	 3.205244823840814e-002	 3.634445662336551e+001
1	 1.692642747631973e+000	 4.816796520035906e-002	 3.570090560927282e+001
1	 1.692105166385958e+000	 6.434048551525225e-002	 3.506251605354546e+001
1	 1.691410170846005e+000	 8.056805558729877e-002	 3.442766252143289e+001
1	 1.690556097913347e+000	 9.684867421369173e-002	 3.379469637750311e+001
1	 1.689541310623874e+000	 1.131802927529067e-001	 3.316194753695514e+001
1	 1.688364199525119e+000	 1.295608153352550e-001	 3.252772630033268e+001
1	 1.687023184061957e+000	 1.459880991165722e-001	 3.189032527099382e+001
1	 1.685516713969673e+000	 1.624599545758813e-001	 3.124802135448566e+001
1	 1.719995999990450e+000	 0.000000000000000e+000	 3.915744569643846e+001
1	 1.719919252171772e+000	 1.624775688038337e-002	 3.845056570216152e+001
1	 1.719687824285143e+000	 3.255723803208991e-002	 3.775212258587077e+001
1	 1.719299955685101e+000	 4.892655615185122e-002	 3.706047885228070e+001
1	 1.718753908142506e+000	 6.535377536271933e-002	 3.637397119199519e+001
1	 1.718047967208927e+000	 8.183691130200831e-002	 3.569091217881160e+001
1	 1.717180443593690e+000	 9.837393125025810e-002	 3.500959205329968e+001
1	 1.716149674552369e+000	 1.149627543021854e-001	 3.432828059225952e+001
1	 1.714954025285460e+000	 1.316012515805530e-001	 3.364522906346097e+001
1	 1.713591890345899e+000	 1.482872464938531e-001	 3.295867226485628e+001
1	 1.712061695054074e+000	 1.650185150386594e-001	 3.226683064724317e+001
1	 1.746663999993467e+000	 0.000000000000000e+000	 4.068372500440037e+001
1	 1.746586062223828e+000	 1.649967326945873e-002	 3.992959134789668e+001
1	 1.746351046120097e+000	 3.306202782559937e-002	 3.918377793388726e+001
1	 1.745957163738572e+000	 4.968514710312810e-002	 3.844459017683361e+001
1	 1.745402649899424e+000	 6.636706520995209e-002	 3.771030813380779e+001
1	 1.744685763572250e+000	 8.310576701648488e-002	 3.697918830055124e+001
1	 1.743804789274466e+000	 9.989918828660942e-002	 3.624946549586720e+001
1	 1.742758038481331e+000	 1.167452158512797e-001	 3.551935483383308e+001
1	 1.741543851046296e+000	 1.336416878257062e-001	 3.478705378310922e+001
1	 1.740160596630359e+000	 1.505863938710342e-001	 3.405074431240028e+001
1	 1.738606676139007e+000	 1.675770755013836e-001	 3.330859512090332e+001
1	 1.773331999996684e+000	 0.000000000000000e+000	 4.222543905887181e+001
1	 1.773252872276091e+000	 1.675158965838147e-002	 4.142533442399509e+001
1	 1.773014267955283e+000	 3.356681761885008e-002	 4.063320140863981e+001
1	 1.772614371792308e+000	 5.044373805408099e-002	 3.984729425629970e+001
1	 1.772051391656649e+000	 6.738035505683089e-002	 3.906584213620479e+001
1	 1.771323559935927e+000	 8.437462273060700e-002	 3.828705102342468e+001
1	 1.770429134955646e+000	 1.014244453226296e-001	 3.750910566925089e+001
1	 1.769366402410742e+000	 1.185276774000839e-001	 3.673017166125175e+001
1	 1.768133676807624e+000	 1.356821240706220e-001	 3.594839757217515e+001
1	 1.766729302915345e+000	 1.528855412480361e-001	 3.516191719664811e+001
1	 1.765151657224491e+000	 1.701356359639863e-001	 3.436885187439028e+001
1	 1.800000000000000e+000	 0.000000000000000e+000	 4.377617418576377e+001
1	 1.799919682328466e+000	 1.700350604710072e-002	 4.293166868083961e+001
1	 1.799677489790610e+000	 3.407160741175556e-002	 4.209454043698651e+001
1	 1.799271579846229e+000	 5.120232900460112e-002	 4.126299809732301e+001
1	 1.798700133414114e+000	 6.839364490323605e-002	 4.043522534690119e+001
1	 1.797961356299907e+000	 8.564347844425327e-002	 3.960938286258867e+001
1	 1.797053480637195e+000	 1.029497023582024e-001	 3.878361035506504e+001
1	 1.795974766340585e+000	 1.203101389484920e-001	 3.795602870225761e+001
1	 1.794723502569440e+000	 1.377225603152076e-001	 3.712474217331598e+001
1	 1.793298009200867e+000	 1.551846886247796e-001	 3.628784074199309e+001
1	 1.791696638310540e+000	 1.726941964264003e-001	 3.544340248806122e+001
1	 1.526246827473539e+000	 1.471085918018469e-001	 2.590626745100661e+001
1	 1.524731751945950e+000	 1.620600636711551e-001	 2.553560766122826e+001
1	 1.523064182155104e+000	 1.770478260609258e-001	 2.517212110781895e+001
1	 1.521242805023325e+000	 1.920698052848553e-001	 2.481466190812560e+001
1	 1.519266339896488e+000	 2.071238878404338e-001	 2.446207426869198e+001
1	 1.517133539803352e+000	 2.222079208870836e-001	 2.411319395824063e+001
1	 1.514843192712843e+000	 2.373197127666054e-001	 2.376684983029107e+001
1	 1.512394122787768e+000	 2.524570335663319e-001	 2.342186539392561e+001
1	 1.509785191633430e+000	 2.676176157253354e-001	 2.307706043105520e+001
1	 1.507015299539557e+000	 2.827991546839795e-001	 2.273125265838138e+001
1	 1.504083386713946e+000	 2.979993095770399e-001	 2.238325943208909e+001
1	 1.552791808555088e+000	 1.496671522635357e-001	 2.667586626810649e+001
1	 1.551250382341223e+000	 1.648786649929308e-001	 2.626486792797007e+001
1	 1.549553809634328e+000	 1.801270994193072e-001	 2.586193396734044e+001
1	 1.547700754519251e+000	 1.954103457901381e-001	 2.546586796400370e+001
1	 1.545689914068317e+000	 2.107262538441939e-001	 2.507546612159264e+001
1	 1.543520019622557e+000	 2.260726332979972e-001	 2.468951888297296e+001
1	 1.541189838070859e+000	 2.414472543753199e-001	 2.430681259227972e+001
1	 1.538698173125491e+000	 2.568478483801319e-001	 2.392613120380925e+001
1	 1.536043866592424e+000	 2.722721083133523e-001	 2.354625803580780e+001
1	 1.533225799634873e+000	 2.877176895336973e-001	 2.316597756703322e+001
1	 1.530242894028381e+000	 3.031822104628573e-001	 2.278407727380123e+001
1	 1.579336789637071e+000	 1.522257127255743e-001	 2.750209555325894e+001
1	 1.577769012736920e+000	 1.676972663150494e-001	 2.704870038607036e+001
1	 1.576043437113978e+000	 1.832063727780419e-001	 2.660416314944417e+001
1	 1.574158704015620e+000	 1.987508862957980e-001	 2.616724878641481e+001
1	 1.572113488240613e+000	 2.143286198483647e-001	 2.573671753920451e+001
1	 1.569906499442260e+000	 2.299373457093609e-001	 2.531132668681189e+001
1	 1.567536483429407e+000	 2.455747959845261e-001	 2.488983232963346e+001
1	 1.565002223463775e+000	 2.612386631944633e-001	 2.447099121903229e+001
1	 1.562302541552006e+000	 2.769266009019343e-001	 2.405356262959806e+001
1	 1.559436299730789e+000	 2.926362243840045e-001	 2.363631027167447e+001
1	 1.556402401343417e+000	 3.083651113492743e-001	 2.321800424156195e+001
1	 1.605881770719505e+000	 1.547842731878955e-001	 2.837837983685182e+001
1	 1.604287643133057e+000	 1.705158676374521e-001	 2.788075207784167e+001
1	 1.602533064594071e+000	 1.862856461370759e-001	 2.739267339296838e+001
1	 1.600616653512444e+000	 2.020914268017832e-001	 2.691288136341446e+001
1	 1.598537062413384e+000	 2.179309858528943e-001	 2.644011167771177e+001
1	 1.596292979262458e+000	 2.338020581211211e-001	 2.597309997787088e+001
1	 1.593883128788470e+000	 2.497023375941674e-001	 2.551058375030990e+001
1	 1.591306273802593e+000	 2.656294780092663e-001	 2.505130425921855e+001
1	 1.588561216512131e+000	 2.815810934910187e-001	 2.459400851982095e+001
1	 1.585646799827250e+000	 2.975547592348355e-001	 2.413745130882985e+001
1	 1.582561908658987e+000	 3.135480122362240e-001	 2.368039720921459e+001
1	 1.632426751802406e+000	 1.573428336504320e-001	 2.929857134556048e+001
1	 1.630806273529654e+000	 1.733344689600800e-001	 2.875508326877086e+001
1	 1.629022692074626e+000	 1.893649194963554e-001	 2.822172850002612e+001
1	 1.627074603009735e+000	 2.054319673080419e-001	 2.769722794074933e+001
1	 1.624960636586632e+000	 2.215333518577308e-001	 2.718030354094552e+001
1	 1.622679459083146e+000	 2.376667705332243e-001	 2.666968023871593e+001
1	 1.620229774148032e+000	 2.538298792041876e-001	 2.616408794173503e+001
1	 1.617610324141914e+000	 2.700202928244812e-001	 2.566226354806069e+001
1	 1.614819891472758e+000	 2.862355860805423e-001	 2.516295300347532e+001
1	 1.611857299924204e+000	 3.024732940861247e-001	 2.466491339238349e+001
1	 1.608721415975027e+000	 3.187309131236401e-001	 2.416691505912242e+001
1	 1.658971732885789e+000	 1.599013941131163e-001	 3.025691578479695e+001
1	 1.657324903926732e+000	 1.761530702828741e-001	 2.966613438787996e+001
1	 1.655512319555662e+000	 1.924441928558264e-001	 2.908595940921940e+001
1	 1.653532552507511e+000	 2.087725078145225e-001	 2.851510519957763e+001
1	 1.651384210760366e+000	 2.251357178628224e-001	 2.795229023096555e+001
1	 1.649065938904318e+000	 2.415314829456167e-001	 2.739623911485883e+001
1	 1.646576419508075e+000	 2.579574208145299e-001	 2.684568465894930e+001
1	 1.643914374481710e+000	 2.744111076400478e-001	 2.629936995955010e+001
1	 1.641078566433845e+000	 2.908900786704421e-001	 2.575605052659986e+001
1	 1.638067800021593e+000	 3.073918289378069e-001	 2.521449643804129e+001
1	 1.634880923291471e+000	 3.239138140114559e-001	 2.467349452018204e+001
1	 1.685516713969673e+000	 1.624599545758813e-001	 3.124802135448565e+001
1	 1.683843534324310e+000	 1.789716716057755e-001	 3.060869609199855e+001
1	 1.682001947037197e+000	 1.955234662154352e-001	 2.998033528571755e+001
1	 1.679990502005782e+000	 2.121130483211732e-001	 2.936165634668549e+001
1	 1.677807784934589e+000	 2.287380838681173e-001	 2.875138400976024e+001
1	 1.675452418725971e+000	 2.453961953582446e-001	 2.814825241629297e+001
1	 1.672923064868585e+000	 2.620849624251379e-001	 2.755100723133564e+001
1	 1.670218424821950e+000	 2.788019224559066e-001	 2.695840779225600e+001
1	 1.667337241395350e+000	 2.955445712606550e-001	 2.636922928546712e+001
1	 1.664278300119365e+000	 3.123103637898162e-001	 2.578226494781204e+001
1	 1.661040430608252e+000	 3.290967148996047e-001	 2.519632828898065e+001
1	 1.712061695054074e+000	 1.650185150386594e-001	 3.226683064724316e+001
1	 1.710362164722407e+000	 1.817902729287253e-001	 3.157788211490076e+001
1	 1.708491574519249e+000	 1.986027395751275e-001	 3.090013730077167e+001
1	 1.706448451504562e+000	 2.154535888279422e-001	 3.023232580109846e+001
1	 1.704231359109308e+000	 2.323404498735635e-001	 2.957318786696587e+001
1	 1.701838898548098e+000	 2.492609077710546e-001	 2.892147653761743e+001
1	 1.699269710229544e+000	 2.662125040359551e-001	 2.827595980372747e+001
1	 1.696522475162606e+000	 2.831927372719976e-001	 2.763542279727819e+001
1	 1.693595916357230e+000	 3.001990638511179e-001	 2.699867000452453e+001
1	 1.690488800217466e+000	 3.172288986420876e-001	 2.636452749836781e+001
1	 1.687199937925307e+000	 3.342796157880200e-001	 2.573184518630072e+001
1	 1.738606676139007e+000	 1.675770755013836e-001	 3.330859512090333e+001
1	 1.736880795121043e+000	 1.846088742516645e-001	 3.256910460367239e+001
1	 1.734981202001836e+000	 2.016820129348496e-001	 3.184093481322933e+001
1	 1.732906401003865e+000	 2.187941293347777e-001	 3.112283619959586e+001
1	 1.730654933284528e+000	 2.359428158791092e-001	 3.041357332577270e+001
1	 1.728225378370697e+000	 2.531256201839929e-001	 2.971192703826105e+001
1	 1.725616355590934e+000	 2.703400456469253e-001	 2.901669666240819e+001
1	 1.722826525503650e+000	 2.875835520882610e-001	 2.832670221900983e+001
1	 1.719854591319444e+000	 3.048535564417678e-001	 2.764078665844088e+001
1	 1.716699300315840e+000	 3.221474334945551e-001	 2.695781810842995e+001
1	 1.713359445242568e+000	 3.394625166766351e-001	 2.627669213144338e+001
1	 1.765151657224491e+000	 1.701356359639863e-001	 3.436885187439028e+001
1	 1.763399425520238e+000	 1.874274755745342e-001	 3.357805168048116e+001
1	 1.761470829484977e+000	 2.047612862945475e-001	 3.279856370019446e+001
1	 1.759364350503703e+000	 2.221346698416280e-001	 3.202916747702104e+001
1	 1.757078507460254e+000	 2.395451818847026e-001	 3.126866025140750e+001
1	 1.754611858193762e+000	 2.569903325970059e-001	 3.051585915541589e+001
1	 1.751963000952741e+000	 2.744675872579916e-001	 2.976960342652860e+001
1	 1.749130575845050e+000	 2.919743669046370e-001	 2.902875663682539e+001
1	 1.746113266281949e+000	 3.095080490325418e-001	 2.829220893360533e+001
1	 1.742909800414432e+000	 3.270659683471534e-001	 2.755887928737844e+001
1	 1.739518952559972e+000	 3.446454175653835e-001	 2.682771774301097e+001
1	 1.791696638310540e+000	 1.726941964264003e-001	 3.544340248806122e+001
1	 1.789918055920011e+000	 1.902460768972756e-001	 3.460066699895607e+001
1	 1.787960456968690e+000	 2.078405596541674e-001	 3.376910661394734e+001
1	 1.785822300004091e+000	 2.254752103484413e-001	 3.294753780621254e+001
1	 1.783502081636491e+000	 2.431475478902916e-001	 3.213479845450722e+001
1	 1.780998338017287e+000	 2.608550450100400e-001	 3.132975004924093e+001
1	 1.778309646314947e+000	 2.785951288690977e-001	 3.053127991148189e+001
1	 1.775434626186778e+000	 2.963651817210658e-001	 2.973830342092107e+001
1	 1.772371941244703e+000	 3.141625416233767e-001	 2.894976624868237e+001
1	 1.769120300513190e+000	 3.319845031998169e-001	 2.816464659072712e+001
1	 1.765678459877450e+000	 3.498283184541985e-001	 2.738195739747078e+001
1	 1.504083386713946e+000	 2.979993095770399e-001	 2.238325943208910e+001
1	 1.500987958153399e+000	 3.132179871671365e-001	 2.203832953493258e+001
1	 1.497728465867564e+000	 3.284504932603852e-001	 2.170191055430391e+001
1	 1.494303978033006e+000	 3.436943779339137e-001	 2.137297188036915e+001
1	 1.490713607613841e+000	 3.589471580746027e-001	 2.105049814263159e+001
1	 1.486956513530291e+000	 3.742063182928812e-001	 2.073349104158521e+001
1	 1.483031901808774e+000	 3.894693118802305e-001	 2.042097118808407e+001
1	 1.478939026711766e+000	 4.047335618101468e-001	 2.011197994694824e+001
1	 1.474677191845686e+000	 4.199964617822379e-001	 1.980558128122408e+001
1	 1.470245751245001e+000	 4.352553773090560e-001	 1.950086359342116e+001
1	 1.465644110430824e+000	 4.505076468451837e-001	 1.919694155996093e+001
1	 1.530242894028381e+000	 3.031822104628573e-001	 2.278407727380123e+001
1	 1.527093628768171e+000	 3.186655762418404e-001	 2.240601740709537e+001
1	 1.523777446333049e+000	 3.341630110338180e-001	 2.203747144826642e+001
1	 1.520293398692991e+000	 3.496720223060635e-001	 2.167738970020085e+001
1	 1.516640583384481e+000	 3.651900837583482e-001	 2.132474002913668e+001
1	 1.512818144699393e+000	 3.807146362526285e-001	 2.097850977628227e+001
1	 1.508825274855080e+000	 3.962430887872052e-001	 2.063770767451376e+001
1	 1.504661215143897e+000	 4.117728195150920e-001	 2.030136576644309e+001
1	 1.500325257060339e+000	 4.273011768062745e-001	 1.996854132004621e+001
1	 1.495816743404018e+000	 4.428254803534433e-001	 1.963831873794717e+001
1	 1.491135069356658e+000	 4.583430223207199e-001	 1.930981145636852e+001
1	 1.556402401343417e+000	 3.083651113492743e-001	 2.321800424156195e+001
1	 1.553199299383525e+000	 3.241131653171373e-001	 2.280430004069123e+001
1	 1.549826426799085e+000	 3.398755288078223e-001	 2.240107966289031e+001
1	 1.546282819353484e+000	 3.556496666787523e-001	 2.200728416758592e+001
1	 1.542567559155575e+000	 3.714330094425919e-001	 2.162187476146413e+001
1	 1.538679775868886e+000	 3.872229542128295e-001	 2.124383477921691e+001
1	 1.534618647901714e+000	 4.030168656945872e-001	 2.087217166605277e+001
1	 1.530383403576289e+000	 4.188120772204010e-001	 2.050591895803999e+001
1	 1.525973322275190e+000	 4.346058918306374e-001	 2.014413825625104e+001
1	 1.521387735563173e+000	 4.503955833981296e-001	 1.978592119058641e+001
1	 1.516626028282580e+000	 4.661783977965402e-001	 1.943039136907426e+001
1	 1.582561908658987e+000	 3.135480122362240e-001	 2.368039720921459e+001
1	 1.579304969999390e+000	 3.295607543929612e-001	 2.322868721514854e+001
1	 1.575875407265591e+000	 3.455880465823346e-001	 2.278840098886140e+001
1	 1.572272240014396e+000	 3.616273110519195e-001	 2.235847973759256e+001
1	 1.568494534927030e+000	 3.776759351272775e-001	 2.193788765327388e+001
1	 1.564541407038679e+000	 3.937312721734312e-001	 2.152561395188784e+001
1	 1.560412020948581e+000	 4.097906426023273e-001	 2.112067491061217e+001
1	 1.556105592008850e+000	 4.258513349260275e-001	 2.072211589860084e+001
1	 1.551621387490148e+000	 4.419106068552816e-001	 2.032901339715671e+001
1	 1.546958727722380e+000	 4.579656864430683e-001	 1.994047700496422e+001
1	 1.542116987208505e+000	 4.740137732725954e-001	 1.955565142397584e+001
1	 1.608721415975027e+000	 3.187309131236401e-001	 2.416691505912242e+001
1	 1.605410640615688e+000	 3.350083434692462e-001	 2.367498077279046e+001
1	 1.601924387732486e+000	 3.513005643572913e-001	 2.319538313212917e+001
1	 1.598261660675640e+000	 3.676049554255052e-001	 2.272707246035107e+001
1	 1.594421510698755e+000	 3.839188608123485e-001	 2.226902515036584e+001
1	 1.590403038208676e+000	 4.002395901343809e-001	 2.182024575253428e+001
1	 1.586205393995587e+000	 4.165644195103766e-001	 2.137976905558111e+001
1	 1.581827780441484e+000	 4.328905926319244e-001	 2.094666215630377e+001
1	 1.577269452705119e+000	 4.492153218801608e-001	 2.052002651362450e+001
1	 1.572529719881547e+000	 4.655357894882130e-001	 2.009899998245389e+001
1	 1.567607946134350e+000	 4.818491487488354e-001	 1.968275882276589e+001
1	 1.634880923291471e+000	 3.239138140114559e-001	 2.467349452018204e+001
1	 1.631516311232345e+000	 3.404559325459265e-001	 2.413925125254132e+001
1	 1.627973368199684e+000	 3.570130821326286e-001	 2.361823315946748e+001
1	 1.624251081337129e+000	 3.735825997994487e-001	 2.310940825227539e+001
1	 1.620348486470660e+000	 3.901617864977486e-001	 2.261177393898056e+001
1	 1.616264669378785e+000	 4.067479080956263e-001	 2.212435915051413e+001
1	 1.611998767042638e+000	 4.233381964186860e-001	 2.164622645483211e+001
1	 1.607549968874099e+000	 4.399298503380456e-001	 2.117647415434754e+001
1	 1.602917517920016e+000	 4.565200369052302e-001	 2.071423836203158e+001
1	 1.598100712040590e+000	 4.731058925335174e-001	 2.025869505145943e+001
1	 1.593098905060033e+000	 4.896845242252110e-001	 1.980906207601721e+001
1	 1.661040430608252e+000	 3.290967148996047e-001	 2.519632828898065e+001
1	 1.657621981849287e+000	 3.459035216229360e-001	 2.461781673158929e+001
1	 1.654022348667107e+000	 3.627255999082827e-001	 2.405339707527679e+001
1	 1.650240501998774e+000	 3.795602441736897e-001	 2.350206322050668e+001
1	 1.646275462242652e+000	 3.964047121834209e-001	 2.296284202822341e+001
1	 1.642126300548912e+000	 4.132562260571145e-001	 2.243479547485742e+001
1	 1.637792140089639e+000	 4.301119733272061e-001	 2.191702278933414e+001
1	 1.633272157306602e+000	 4.469691080443441e-001	 2.140866256731172e+001
1	 1.628565583134742e+000	 4.638247519304442e-001	 2.090889485779883e+001
1	 1.623671704199419e+000	 4.806759955789353e-001	 2.041694321724324e+001
1	 1.618589863985467e+000	 4.975198997016720e-001	 1.993207672613425e+001
1	 1.687199937925307e+000	 3.342796157880200e-001	 2.573184518630073e+001
1	 1.683727652466438e+000	 3.513511107002090e-001	 2.510722363536922e+001
1	 1.680071329134671e+000	 3.684381176841904e-001	 2.449754129831817e+001
1	 1.676229922660488e+000	 3.855378885481679e-001	 2.390182581773706e+001
1	 1.672202438014640e+000	 4.026476378693090e-001	 2.331914159235559e+001
1	 1.667987931718963e+000	 4.197645440187934e-001	 2.274859195141484e+001
1	 1.663585513136496e+000	 4.368857502358879e-001	 2.218932130453743e+001
1	 1.658994345738899e+000	 4.540083657507736e-001	 2.164051726212216e+001
1	 1.654213648349210e+000	 4.711294669557572e-001	 2.110141272122545e+001
1	 1.649242696357944e+000	 4.882460986244200e-001	 2.057128791184328e+001
1	 1.644080822910571e+000	 5.053552751781691e-001	 2.004947239847168e+001
1	 1.713359445242568e+000	 3.394625166766351e-001	 2.627669213144338e+001
1	 1.709833323083724e+000	 3.567986997776795e-001	 2.560422930550040e+001
1	 1.706120309602293e+000	 3.741506354602879e-001	 2.494753583532233e+001
1	 1.702219343322184e+000	 3.915155329228228e-001	 2.430568063179014e+001
1	 1.698129413786532e+000	 4.088905635553564e-001	 2.367777338486455e+001
1	 1.693849562888844e+000	 4.262728619806097e-001	 2.306296674813130e+001
1	 1.689378886183114e+000	 4.436595271446825e-001	 2.246045849173632e+001
1	 1.684716534170896e+000	 4.610476234572876e-001	 2.186949361854109e+001
1	 1.679861713563326e+000	 4.784341819811238e-001	 2.128936643827706e+001
1	 1.674813688516081e+000	 4.958162016699257e-001	 2.071942259444357e+001
1	 1.669571781835260e+000	 5.131906506546526e-001	 2.015906103867121e+001
1	 1.739518952559972e+000	 3.446454175653835e-001	 2.682771774301097e+001
1	 1.735938993701071e+000	 3.622462888552817e-001	 2.610578614062183e+001
1	 1.732169290069892e+000	 3.798631532365110e-001	 2.540043897284659e+001
1	 1.728208763983774e+000	 3.974931772975942e-001	 2.471079363787022e+001
1	 1.724056389558237e+000	 4.151334892415066e-001	 2.403601255885515e+001
1	 1.719711194058461e+000	 4.327811799425113e-001	 2.337530536968665e+001
1	 1.715172259229400e+000	 4.504333040535404e-001	 2.272793106140486e+001
1	 1.710438722602501e+000	 4.680868811638395e-001	 2.209320008396141e+001
1	 1.705509778777000e+000	 4.857388970064985e-001	 2.147047639790336e+001
1	 1.700384680673739e+000	 5.033863047154056e-001	 2.085917947056526e+001
1	 1.695062740759450e+000	 5.210260261310729e-001	 2.025878621134505e+001
1	 1.765678459877450e+000	 3.498283184541985e-001	 2.738195739747077e+001
1	 1.762044664318403e+000	 3.676938779329496e-001	 2.660902714700147e+001
1	 1.758218270537386e+000	 3.855756710127969e-001	 2.585348332992344e+001
1	 1.754198184645169e+000	 4.034708216724215e-001	 2.511449876178791e+001
1	 1.749983365329663e+000	 4.213764149277031e-001	 2.439129574791337e+001
1	 1.745572825227723e+000	 4.392894979044454e-001	 2.368314826156238e+001
1	 1.740965632275259e+000	 4.572070809624127e-001	 2.298938407451610e+001
1	 1.736160911033618e+000	 4.751261388703825e-001	 2.230938683449687e+001
1	 1.731157843990140e+000	 4.930436120318356e-001	 2.164259808386944e+001
1	 1.725955672830830e+000	 5.109564077608136e-001	 2.098851921404647e+001
1	 1.720553699683057e+000	 5.288614016073797e-001	 2.034671335003514e+001
1	 1.465644110430824e+000	 4.505076468451837e-001	 1.919694155996093e+001
1	 1.460871727075660e+000	 4.657505827348306e-001	 1.889630319370927e+001
1	 1.455928110904371e+000	 4.809814717320294e-001	 1.860156592349088e+001
1	 1.450812825763512e+000	 4.961975768838239e-001	 1.831208308081479e+001
1	 1.445525490928912e+000	 5.113961390398313e-001	 1.802724073049221e+001
1	 1.440065782013028e+000	 5.265743781829089e-001	 1.774645900596746e+001
1	 1.434433431836373e+000	 5.417294947976459e-001	 1.746919340427643e+001
1	 1.428628231261313e+000	 5.568586712756410e-001	 1.719493603717307e+001
1	 1.422650029986620e+000	 5.719590733564495e-001	 1.692321683499802e+001
1	 1.416498737301121e+000	 5.870278516030030e-001	 1.665360469990919e+001
1	 1.410174322794896e+000	 6.020621429102250e-001	 1.638570860515033e+001
1	 1.491135069356658e+000	 4.583430223207199e-001	 1.930981145636852e+001
1	 1.486279683158418e+000	 4.738510683077294e-001	 1.898549582957628e+001
1	 1.481250086007147e+000	 4.893468578788444e-001	 1.866796028095316e+001
1	 1.476045834163695e+000	 5.048276064791276e-001	 1.835653270373821e+001
1	 1.470666540282229e+000	 5.202905069701495e-001	 1.805057336923877e+001
1	 1.465111874333372e+000	 5.357327309837993e-001	 1.774947629276227e+001
1	 1.459381564490777e+000	 5.511514303145783e-001	 1.745267055989392e+001
1	 1.453475397979445e+000	 5.665437383493174e-001	 1.715962160960893e+001
1	 1.447393221884075e+000	 5.819067715331873e-001	 1.686983247074026e+001
1	 1.441134943915833e+000	 5.972376308707768e-001	 1.658284494836556e+001
1	 1.434700533135920e+000	 6.125334034609495e-001	 1.629824075673094e+001
1	 1.516626028282580e+000	 4.661783977965402e-001	 1.943039136907426e+001
1	 1.511687639241224e+000	 4.819515538809139e-001	 1.907996879299618e+001
1	 1.506572061109939e+000	 4.977122440259598e-001	 1.873717154160288e+001
1	 1.501278842563869e+000	 5.134576360747547e-001	 1.840131898855754e+001
1	 1.495807589635517e+000	 5.291848749008191e-001	 1.807176297290056e+001
1	 1.490157966653669e+000	 5.448910837850698e-001	 1.774788917561726e+001
1	 1.484329697145122e+000	 5.605733658319159e-001	 1.742911845616028e+001
1	 1.478322564697501e+000	 5.762288054234166e-001	 1.711490814538300e+001
1	 1.472136413781435e+000	 5.918544697103531e-001	 1.680475329137383e+001
1	 1.465771150530427e+000	 6.074474101389680e-001	 1.649818785472319e+001
1	 1.459226743476797e+000	 6.230046640120598e-001	 1.619478584981189e+001
1	 1.542116987208505e+000	 4.740137732725954e-001	 1.955565142397584e+001
1	 1.537095595323997e+000	 4.900520394543282e-001	 1.917686132141824e+001
1	 1.531894036212673e+000	 5.060776301733111e-001	 1.880651865831404e+001
1	 1.526511850963969e+000	 5.220876656706314e-001	 1.844395047984819e+001
1	 1.520948638988720e+000	 5.380792428317555e-001	 1.808851681121835e+001
1	 1.515204058973875e+000	 5.540494365866256e-001	 1.773961202537192e+001
1	 1.509277829799371e+000	 5.699953013495547e-001	 1.739666616922485e+001
1	 1.503169731415458e+000	 5.859138724978268e-001	 1.705914624480603e+001
1	 1.496879605678688e+000	 6.018021678878297e-001	 1.672655744180525e+001
1	 1.490407357144906e+000	 6.176571894074572e-001	 1.639844431805198e+001
1	 1.483752953817541e+000	 6.334759245634387e-001	 1.607439192450980e+001
1	 1.567607946134350e+000	 4.818491487488354e-001	 1.968275882276589e+001
1	 1.562503551406660e+000	 4.981525250279171e-001	 1.927349872835772e+001
1	 1.557216011315279e+000	 5.144430163208340e-001	 1.887349497057696e+001
1	 1.551744859363929e+000	 5.307176952666832e-001	 1.848209777695749e+001
1	 1.546089688341783e+000	 5.469736107628745e-001	 1.809869128278133e+001
1	 1.540250151293942e+000	 5.632077893883718e-001	 1.772269487098438e+001
1	 1.534225962453488e+000	 5.794172368673900e-001	 1.735356446801612e+001
1	 1.528016898133288e+000	 5.955989395724354e-001	 1.699079379210123e+001
1	 1.521622797575823e+000	 6.117498660655001e-001	 1.663391555039261e+001
1	 1.515043563759269e+000	 6.278669686761254e-001	 1.628250258156008e+001
1	 1.508279164158169e+000	 6.439471851149696e-001	 1.593616894042497e+001
1	 1.593098905060033e+000	 4.896845242252110e-001	 1.980906207601721e+001
1	 1.587911507489136e+000	 5.062530106016241e-001	 1.936737751650695e+001
1	 1.582537986417684e+000	 5.228084024684645e-001	 1.893575425281577e+001
1	 1.576977867763687e+000	 5.393477248628366e-001	 1.851358056892297e+001
1	 1.571230737694647e+000	 5.558679786940914e-001	 1.810027998407507e+001
1	 1.565296243613825e+000	 5.723661421902139e-001	 1.769531254629628e+001
1	 1.559174095107435e+000	 5.888391723853176e-001	 1.729817607829384e+001
1	 1.552864064850969e+000	 6.052840066471303e-001	 1.690840737222833e+001
1	 1.546365989472827e+000	 6.216975642432467e-001	 1.652558332987029e+001
1	 1.539679770373518e+000	 6.380767479448533e-001	 1.614932204472923e+001
1	 1.532805374498695e+000	 6.544184456665354e-001	 1.577928382281568e+001
1	 1.618589863985467e+000	 4.975198997016720e-001	 1.993207672613425e+001
1	 1.613319463571345e+000	 5.143534961753936e-001	 1.945615189755617e+001
1	 1.607859961519817e+000	 5.311737886161386e-001	 1.899109808104526e+001
1	 1.602210876163177e+000	 5.479777544590171e-001	 1.853635589450296e+001
1	 1.596371787047260e+000	 5.647623466253220e-001	 1.809140290592365e+001
1	 1.590342335933476e+000	 5.815244949920563e-001	 1.765575486235439e+001
1	 1.584122227761178e+000	 5.982611079032335e-001	 1.722896686668234e+001
1	 1.577711231568475e+000	 6.149690737218001e-001	 1.681063449875907e+001
1	 1.571109181369688e+000	 6.316452624209524e-001	 1.640039487743604e+001
1	 1.564315976987654e+000	 6.482865272135218e-001	 1.599792766016123e+001
1	 1.557331584839137e+000	 6.648897062180198e-001	 1.560295597687550e+001
1	 1.644080822910571e+000	 5.053552751781691e-001	 2.004947239847168e+001
1	 1.638727419653209e+000	 5.224539817491696e-001	 1.953762156605031e+001
1	 1.633181936621605e+000	 5.395391747637919e-001	 1.903746437478372e+001
1	 1.627443884562336e+000	 5.566077840551512e-001	 1.854850749435439e+001
1	 1.621512836399563e+000	 5.736567145564816e-001	 1.807029663496637e+001
1	 1.615388428252850e+000	 5.906828477938049e-001	 1.760241769398283e+001
1	 1.609070360414681e+000	 6.076830434210331e-001	 1.714449784483643e+001
1	 1.602558398285783e+000	 6.246541407963322e-001	 1.669620656477929e+001
1	 1.595852373266393e+000	 6.415929605984999e-001	 1.625725659811846e+001
1	 1.588952183601679e+000	 6.584963064820117e-001	 1.582740485167529e+001
1	 1.581857795179509e+000	 6.753609667693055e-001	 1.540645321930894e+001
1	 1.669571781835260e+000	 5.131906506546526e-001	 2.015906103867121e+001
1	 1.664135375734650e+000	 5.305544673228969e-001	 1.960972059325535e+001
1	 1.658503911722976e+000	 5.479045609113603e-001	 1.907291698861585e+001
1	 1.652676892961098e+000	 5.652378136511652e-001	 1.854823613863391e+001
1	 1.646653885751501e+000	 5.825510824874859e-001	 1.803530545275541e+001
1	 1.640434520571898e+000	 5.998412005953645e-001	 1.753379488289445e+001
1	 1.634018493067907e+000	 6.171049789386121e-001	 1.704341790608805e+001
1	 1.627405565002866e+000	 6.343392078706147e-001	 1.656393243954269e+001
1	 1.620595565162932e+000	 6.515406587757719e-001	 1.609514168481119e+001
1	 1.613588390215593e+000	 6.687060857502039e-001	 1.563689489794703e+001
1	 1.606384005519828e+000	 6.858322273202755e-001	 1.518908808260633e+001
1	 1.695062740759450e+000	 5.210260261310729e-001	 2.025878621134505e+001
1	 1.689543331815590e+000	 5.386549528965192e-001	 1.967050732313277e+001
1	 1.683825886823860e+000	 5.562699470587799e-001	 1.909563624291014e+001
1	 1.677909901359400e+000	 5.738678432469843e-001	 1.853385082734081e+001
1	 1.671794935103017e+000	 5.914454504182500e-001	 1.798487323798302e+001
1	 1.665480612890576e+000	 6.089995533966403e-001	 1.744847087138574e+001
1	 1.658966625720819e+000	 6.265269144558662e-001	 1.692445721746609e+001
1	 1.652252731719701e+000	 6.440242749445355e-001	 1.641269264289987e+001
1	 1.645338757059289e+000	 6.614883569526509e-001	 1.591308509637425e+001
1	 1.638224596829399e+000	 6.789158650179793e-001	 1.542559073268262e+001
1	 1.630910215860108e+000	 6.963034878708130e-001	 1.495021445278458e+001
1	 1.720553699683057e+000	 5.288614016073797e-001	 2.034671335003514e+001
1	 1.714951287895950e+000	 5.467554384699808e-001	 1.971815516649448e+001
1	 1.709147861924183e+000	 5.646353332059860e-001	 1.910391029629255e+001
1	 1.703142909757176e+000	 5.824978728425351e-001	 1.850376077289100e+001
1	 1.696935984454057e+000	 6.003398183486900e-001	 1.791753608854695e+001
1	 1.690526705208835e+000	 6.181579061975373e-001	 1.734511399084695e+001
1	 1.683914758373382e+000	 6.359488499726911e-001	 1.678642119912186e+001
1	 1.677099898436262e+000	 6.537093420179821e-001	 1.624143403758148e+001
1	 1.670081948955454e+000	 6.714360551290194e-001	 1.571017898214904e+001
1	 1.662860803443095e+000	 6.891256442852184e-001	 1.519273311812928e+001
1	 1.655436426200365e+000	 7.067747484208016e-001	 1.468922450601035e+001
1	 1.410174322794896e+000	 6.020621429102250e-001	 1.638570860515033e+001
1	 1.403677804762223e+000	 6.170568256895567e-001	 1.611926332082234e+001
1	 1.397008340587419e+000	 6.320112737763581e-001	 1.585399585558133e+001
1	 1.390166085595247e+000	 6.469225945203407e-001	 1.558968270900140e+001
1	 1.383151257758930e+000	 6.617878879772692e-001	 1.532613853415726e+001
1	 1.375964138175143e+000	 6.766042485600979e-001	 1.506321666116617e+001
1	 1.368605071488112e+000	 6.913687667140008e-001	 1.480080955461828e+001
1	 1.361074466261639e+000	 7.060785306134997e-001	 1.453884920295014e+001
1	 1.353372795297910e+000	 7.207306278798588e-001	 1.427730743795765e+001
1	 1.345500595902038e+000	 7.353221473168310e-001	 1.401619618279362e+001
1	 1.337458470091355e+000	 7.498501806627994e-001	 1.375556762695272e+001
1	 1.434700533135920e+000	 6.125334034609495e-001	 1.629824075673094e+001
1	 1.428091025549134e+000	 6.277888786388084e-001	 1.601562013047068e+001
1	 1.421305563884740e+000	 6.430034193492565e-001	 1.573458881864620e+001
1	 1.414344306168952e+000	 6.581740826320957e-001	 1.545492296487344e+001
1	 1.407207474166046e+000	 6.732979181063205e-001	 1.517643646988108e+001
1	 1.399895353861613e+000	 6.883719696499761e-001	 1.489898148948492e+001
1	 1.392408295894034e+000	 7.033932771043159e-001	 1.462244886642938e+001
1	 1.384746715932977e+000	 7.183588780004508e-001	 1.434676849420890e+001
1	 1.376911095003749e+000	 7.332658093066115e-001	 1.407190961112497e+001
1	 1.368901979756440e+000	 7.481111091940828e-001	 1.379788102298539e+001
1	 1.360719982678853e+000	 7.628918188198210e-001	 1.352473125300988e+001
1	 1.459226743476797e+000	 6.230046640120598e-001	 1.619478584981189e+001
1	 1.452504246335858e+000	 6.385209315883906e-001	 1.589401985974397e+001
1	 1.445602787181828e+000	 6.539955649224104e-001	 1.559537021488283e+001
1	 1.438522526742372e+000	 6.694255707440153e-001	 1.529861680900864e+001
1	 1.431263690572821e+000	 6.848079482354361e-001	 1.500357687310330e+001
1	 1.423826569547684e+000	 7.001396907398114e-001	 1.471010544275600e+001
1	 1.416211520299499e+000	 7.154177874944814e-001	 1.441809575937511e+001
1	 1.408418965603801e+000	 7.306392253871504e-001	 1.412747960338666e+001
1	 1.400449394709020e+000	 7.458009907330195e-001	 1.383822755774354e+001
1	 1.392303363610223e+000	 7.609000710709124e-001	 1.355034920022160e+001
1	 1.383981495265687e+000	 7.759334569763623e-001	 1.326389322313832e+001
1	 1.483752953817541e+000	 6.334759245634387e-001	 1.607439192450980e+001
1	 1.476917467122426e+000	 6.492529845381935e-001	 1.575374899347127e+001
1	 1.469900010478731e+000	 6.649877104957208e-001	 1.543586377590903e+001
1	 1.462700747315572e+000	 6.806770588560147e-001	 1.512052395498637e+001
1	 1.455319906979338e+000	 6.963179783645463e-001	 1.480755410685200e+001
1	 1.447757785233454e+000	 7.119074118295533e-001	 1.449681613253303e+001
1	 1.440014744704620e+000	 7.274422978844636e-001	 1.418820962353664e+001
1	 1.432091215274239e+000	 7.429195727735806e-001	 1.388167215941634e+001
1	 1.423987694413863e+000	 7.583361721590806e-001	 1.357717953570382e+001
1	 1.415704747463540e+000	 7.736890329473285e-001	 1.327474592076229e+001
1	 1.407243007852023e+000	 7.889750951324396e-001	 1.297442394027643e+001
1	 1.508279164158169e+000	 6.439471851149696e-001	 1.593616894042497e+001
1	 1.501330687908871e+000	 6.599850374881072e-001	 1.559414042651480e+001
1	 1.494197233775495e+000	 6.759798560690888e-001	 1.525562421184327e+001
1	 1.486878967888615e+000	 6.919285469680097e-001	 1.492041974562417e+001
1	 1.479376123385674e+000	 7.078280084935836e-001	 1.458836290080324e+001
1	 1.471689000919019e+000	 7.236751329191492e-001	 1.425932636554946e+001
1	 1.463817969109509e+000	 7.394668082742285e-001	 1.393321996832185e+001
1	 1.455763464944417e+000	 7.551999201597240e-001	 1.360999093485120e+001
1	 1.447525994118421e+000	 7.708713535847911e-001	 1.328962407552484e+001
1	 1.439106131316547e+000	 7.864779948233394e-001	 1.297214190181695e+001
1	 1.430504520438026e+000	 8.020167332880692e-001	 1.265760467057005e+001
1	 1.532805374498695e+000	 6.544184456665354e-001	 1.577928382281568e+001
1	 1.525743908695221e+000	 6.707170904380223e-001	 1.541456975076737e+001
1	 1.518494457072168e+000	 6.869720016424157e-001	 1.505423473289170e+001
1	 1.511057188461564e+000	 7.031800350799156e-001	 1.469809390257199e+001
1	 1.503432339791911e+000	 7.193380386224789e-001	 1.434599832194840e+001
1	 1.495620216604477e+000	 7.354428540085495e-001	 1.399783532816896e+001
1	 1.487621193514281e+000	 7.514913186637426e-001	 1.365352881304888e+001
1	 1.479435714614465e+000	 7.674802675455639e-001	 1.331303943456996e+001
1	 1.471064293822835e+000	 7.834065350101486e-001	 1.297636475880274e+001
1	 1.462507515169399e+000	 7.992669566989542e-001	 1.264353933099089e+001
1	 1.453766033023863e+000	 8.150583714432672e-001	 1.231463467470161e+001
1	 1.557331584839137e+000	 6.648897062180198e-001	 1.560295597687550e+001
1	 1.550157129481510e+000	 6.814491433878283e-001	 1.521445189300358e+001
1	 1.542791680368797e+000	 6.979641472156025e-001	 1.483130480512813e+001
1	 1.535235409034484e+000	 7.144315231916468e-001	 1.445334939406133e+001
1	 1.527488556198130e+000	 7.308480687511643e-001	 1.408045574803350e+001
1	 1.519551432289924e+000	 7.472105750977020e-001	 1.371252965891333e+001
1	 1.511424417919046e+000	 7.635158290529712e-001	 1.334951285163616e+001
1	 1.503107964284511e+000	 7.797606149310816e-001	 1.299138314537333e+001
1	 1.494602593527249e+000	 7.959417164351500e-001	 1.263815454512828e+001
1	 1.485908899022250e+000	 8.120559185741813e-001	 1.228987726260458e+001
1	 1.477027545609700e+000	 8.281000095980499e-001	 1.194663766535688e+001
1	 1.581857795179509e+000	 6.753609667693055e-001	 1.540645321930893e+001
1	 1.574570350267766e+000	 6.921811963374154e-001	 1.499323806550513e+001
1	 1.567088903665430e+000	 7.089562927885509e-001	 1.458646811504972e+001
1	 1.559413629607439e+000	 7.256830113031196e-001	 1.418600140798540e+001
1	 1.551544772604411e+000	 7.423580988795705e-001	 1.379173084346907e+001
1	 1.543482647975456e+000	 7.589782961865553e-001	 1.340358442121515e+001
1	 1.535227642323919e+000	 7.755403394418812e-001	 1.302152541591523e+001
1	 1.526780213954683e+000	 7.920409623162604e-001	 1.264555248327701e+001
1	 1.518140893231805e+000	 8.084768978597926e-001	 1.227569969647942e+001
1	 1.509310282875257e+000	 8.248448804490292e-001	 1.191203651200343e+001
1	 1.500289058195703e+000	 8.411416477524337e-001	 1.155466766396587e+001
1	 1.606384005519828e+000	 6.858322273202755e-001	 1.518908808260633e+001
1	 1.598983571054024e+000	 7.029132492866742e-001	 1.475041299603271e+001
1	 1.591386126962114e+000	 7.199484383611617e-001	 1.431938072059510e+001
1	 1.583591850180492e+000	 7.369344994142486e-001	 1.389587641905334e+001
1	 1.575600989010834e+000	 7.538681290076297e-001	 1.347981953744726e+001
1	 1.567413863661173e+000	 7.707460172750590e-001	 1.307116398705874e+001
1	 1.559030866729012e+000	 7.875648498304381e-001	 1.266989825908875e+001
1	 1.550452463625108e+000	 8.043213097010831e-001	 1.227604547080944e+001
1	 1.541679192936645e+000	 8.210120792840731e-001	 1.188966334210892e+001
1	 1.532711666728574e+000	 8.376338423235071e-001	 1.151084410151079e+001
1	 1.523550570782039e+000	 8.541832859064347e-001	 1.113971432092059e+001
1	 1.630910215860108e+000	 6.963034878708130e-001	 1.495021445278458e+001
1	 1.623396791840312e+000	 7.136453022354944e-001	 1.448549240773796e+001
1	 1.615683350258895e+000	 7.309405839333361e-001	 1.402971936899646e+001
1	 1.607770070753706e+000	 7.481859875249498e-001	 1.358281134011503e+001
1	 1.599657205417480e+000	 7.653781591352731e-001	 1.314471800403300e+001
1	 1.591345079347169e+000	 7.825137383631613e-001	 1.271542284089009e+001
1	 1.582834091134438e+000	 7.995893602186086e-001	 1.229494317826705e+001
1	 1.574124713295916e+000	 8.166016570855321e-001	 1.188333017273675e+001
1	 1.565217492641910e+000	 8.335472607079891e-001	 1.148066872177171e+001
1	 1.556113050582356e+000	 8.504228041976230e-001	 1.108707730522198e+001
1	 1.546812083368873e+000	 8.672249240600691e-001	 1.070270775574888e+001
1	 1.655436426200365e+000	 7.067747484208016e-001	 1.468922450601035e+001
1	 1.647810012626662e+000	 7.243773551837668e-001	 1.419802072309443e+001
1	 1.639980573555821e+000	 7.419327295049750e-001	 1.371717996416341e+001
1	 1.631948291327146e+000	 7.594374756351380e-001	 1.324665274892766e+001
1	 1.623713421824428e+000	 7.768881892624319e-001	 1.278642264402531e+001
1	 1.615276295033542e+000	 7.942814594508109e-001	 1.233650631206441e+001
1	 1.606637315540310e+000	 8.116138706063586e-001	 1.189695349277184e+001
1	 1.597796962967233e+000	 8.288820044695902e-001	 1.146784691526796e+001
1	 1.588755792347744e+000	 8.460824421315375e-001	 1.104930214065087e+001
1	 1.579514434436757e+000	 8.632117660713861e-001	 1.064146733424297e+001
1	 1.570073595956371e+000	 8.802665622133532e-001	 1.024452296702902e+001
1	 1.337458470091355e+000	 7.498501806627994e-001	 1.375556762695272e+001
1	 1.329245840436585e+000	 7.643139888338926e-001	 1.349360419351745e+001
1	 1.320864633725284e+000	 7.787084898909862e-001	 1.322880245537794e+001
1	 1.312315648248289e+000	 7.930307945938000e-001	 1.296163438537796e+001
1	 1.303599747304523e+000	 8.072780238044296e-001	 1.269261882975443e+001
1	 1.294717859120680e+000	 8.214473102909055e-001	 1.242232091541956e+001
1	 1.285670976711510e+000	 8.355358005343189e-001	 1.215135136522584e+001
1	 1.276460157680332e+000	 8.495406565372459e-001	 1.188036572165282e+001
1	 1.267086523959525e+000	 8.634590576311914e-001	 1.161006347959450e+001
1	 1.257551261490825e+000	 8.772882022807456e-001	 1.134118712916728e+001
1	 1.247855619845356e+000	 8.910253098821287e-001	 1.107452110969944e+001
1	 1.360719982678853e+000	 7.628918188198210e-001	 1.352473125300988e+001
1	 1.352364516298867e+000	 7.776071862455712e-001	 1.325070142836813e+001
1	 1.343837540915352e+000	 7.922520411454747e-001	 1.297432562744627e+001
1	 1.335139868703277e+000	 8.068234440286460e-001	 1.269603360242566e+001
1	 1.326272377976344e+000	 8.213184656822814e-001	 1.241630095901884e+001
1	 1.317236013105266e+000	 8.357341890065823e-001	 1.213564859587532e+001
1	 1.308031784375627e+000	 8.500677108533143e-001	 1.185464205367466e+001
1	 1.298660767784928e+000	 8.643161438656809e-001	 1.157389077430610e+001
1	 1.289124104778561e+000	 8.784766183172065e-001	 1.129404727076958e+001
1	 1.279423001924546e+000	 8.925462839472684e-001	 1.101580620867023e+001
1	 1.269558730526954e+000	 9.065223117909245e-001	 1.073990340041489e+001
1	 1.383981495265687e+000	 7.759334569763623e-001	 1.326389322313833e+001
1	 1.375483192160448e+000	 7.909003836567357e-001	 1.297715521922371e+001
1	 1.366810448104691e+000	 8.057955923994367e-001	 1.268869629171603e+001
1	 1.357964089157520e+000	 8.206160934629746e-001	 1.239889788677622e+001
1	 1.348945008647412e+000	 8.353589075596424e-001	 1.210818603449643e+001
1	 1.339754167089103e+000	 8.500210677218110e-001	 1.181703083290109e+001
1	 1.330392592039014e+000	 8.645996211719169e-001	 1.152594584388643e+001
1	 1.320861377888823e+000	 8.790916311937900e-001	 1.123548740143527e+001
1	 1.311161685596942e+000	 8.934941790029705e-001	 1.094625383267369e+001
1	 1.301294742357671e+000	 9.078043656136207e-001	 1.065888459256719e+001
1	 1.291261841208033e+000	 9.220193136996339e-001	 1.037405931328565e+001
1	 1.407243007852023e+000	 7.889750951324396e-001	 1.297442394027643e+001
1	 1.398601868021504e+000	 8.041935810674046e-001	 1.267455691229238e+001
1	 1.389783355293484e+000	 8.193391436528905e-001	 1.237372022467920e+001
1	 1.380788309611204e+000	 8.344087428967986e-001	 1.207224132980723e+001
1	 1.371617639317917e+000	 8.493993494365167e-001	 1.177049075077041e+001
1	 1.362272321072382e+000	 8.643079464365847e-001	 1.146888162209701e+001
1	 1.352753399701855e+000	 8.791315314901063e-001	 1.116786914518595e+001
1	 1.343061987992202e+000	 8.938671185215376e-001	 1.086794995872049e+001
1	 1.333199266414842e+000	 9.085117396884321e-001	 1.056966142453367e+001
1	 1.323166482790366e+000	 9.230624472797356e-001	 1.027358082962365e+001
1	 1.312964951888744e+000	 9.375163156081748e-001	 9.980324505241446e+000
1	 1.430504520438026e+000	 8.020167332880692e-001	 1.265760467057005e+001
1	 1.421720543882209e+000	 8.174867784775972e-001	 1.234439434590769e+001
1	 1.412756262481913e+000	 8.328826949058533e-001	 1.203108574750301e+001
1	 1.403612530064516e+000	 8.482013923301294e-001	 1.171794701789275e+001
1	 1.394290269988049e+000	 8.634397913129078e-001	 1.140528761925341e+001
1	 1.384790475055292e+000	 8.785948251508937e-001	 1.109345794260237e+001
1	 1.375114207364341e+000	 8.936634418078613e-001	 1.078284883503709e+001
1	 1.365262598095244e+000	 9.086426058488873e-001	 1.047389104515736e+001
1	 1.355236847232435e+000	 9.235293003735394e-001	 1.016705458702960e+001
1	 1.345038223222794e+000	 9.383205289455460e-001	 9.862848023266434e+000
1	 1.334668062569236e+000	 9.530133175164640e-001	 9.561817668011418e+000
1	 1.453766033023863e+000	 8.150583714432672e-001	 1.231463467470161e+001
1	 1.444839219742738e+000	 8.307799758873320e-001	 1.198806013160607e+001
1	 1.435729169670161e+000	 8.464262461583425e-001	 1.166237312296354e+001
1	 1.426436750517643e+000	 8.619940417629792e-001	 1.133777751336963e+001
1	 1.416962900657996e+000	 8.774802331888187e-001	 1.101451650346410e+001
1	 1.407308629038023e+000	 8.928817038647322e-001	 1.069287231909083e+001
1	 1.397475015026657e+000	 9.081953521251606e-001	 1.037316582232384e+001
1	 1.387463208198132e+000	 9.234180931758037e-001	 1.005575604437666e+001
1	 1.377274428049897e+000	 9.385468610582417e-001	 9.741039640615075e+000
1	 1.366909963655117e+000	 9.535786106109838e-001	 9.429450268097980e+000
1	 1.356371173249661e+000	 9.685103194244188e-001	 9.121457886277169e+000
1	 1.477027545609700e+000	 8.281000095980499e-001	 1.194663766535689e+001
1	 1.467957895603269e+000	 8.440731732966296e-001	 1.160685915269874e+001
1	 1.458702076858409e+000	 8.599697974103761e-001	 1.126906306443312e+001
1	 1.449260970970773e+000	 8.757866911953606e-001	 1.093338434512388e+001
1	 1.439635531327949e+000	 8.915206750642536e-001	 1.059999506429847e+001
1	 1.429826783020763e+000	 9.071685825780912e-001	 1.026910419674223e+001
1	 1.419835822688992e+000	 9.227272624419833e-001	 9.940957328993539e+000
1	 1.409663818301048e+000	 9.381935805022509e-001	 9.615836291908167e+000
1	 1.399312008867401e+000	 9.535644217424867e-001	 9.294058719351611e+000
1	 1.388781704087501e+000	 9.688366922759821e-001	 8.975977533271692e+000
1	 1.378074283930169e+000	 9.840073213319565e-001	 8.661980355598164e+000
1	 1.500289058195703e+000	 8.411416477524337e-001	 1.155466766396587e+001
1	 1.491076571463974e+000	 8.573663707055079e-001	 1.120201536526557e+001
1	 1.481674984046840e+000	 8.735133486619712e-001	 1.085254445329230e+001
1	 1.472085191424092e+000	 8.895793406272855e-001	 1.050631661628538e+001
1	 1.462308161998095e+000	 9.055611169392154e-001	 1.016342823359707e+001
1	 1.452344937003705e+000	 9.214554612909641e-001	 9.824010258022270e+000
1	 1.442196630351531e+000	 9.372591727583078e-001	 9.488228029161858e+000
1	 1.431864428404175e+000	 9.529690678281924e-001	 9.156281017518644e+000
1	 1.421349589685121e+000	 9.685819824262231e-001	 8.828402499201655e+000
1	 1.410653444520108e+000	 9.840947739404731e-001	 8.504859161294849e+000
1	 1.399777394610910e+000	 9.995043232389941e-001	 8.185950638128135e+000
1	 1.523550570782039e+000	 8.541832859064347e-001	 1.113971432092060e+001
1	 1.514195247325030e+000	 8.706595681139866e-001	 1.077467797612514e+001
1	 1.504647891235637e+000	 8.870568999131455e-001	 1.041412134936717e+001
1	 1.494909411877786e+000	 9.033719900587659e-001	 1.005802882339101e+001
1	 1.484980792668627e+000	 9.196015588137076e-001	 9.706416819859998e+000
1	 1.474863090987035e+000	 9.357423400033417e-001	 9.359333794364977e+000
1	 1.464557438014463e+000	 9.517910830741139e-001	 9.016860167789154e+000
1	 1.454065038507694e+000	 9.677445551535929e-001	 8.679108193538795e+000
1	 1.443387170503232e+000	 9.835995431093992e-001	 8.346221760311165e+000
1	 1.432525184953105e+000	 9.993528556043897e-001	 8.018376130236174e+000
1	 1.421480505292034e+000	 1.015001325145448e+000	 7.695777612396907e+000
1	 1.546812083368873e+000	 8.672249240600691e-001	 1.070270775574888e+001
1	 1.537313923186612e+000	 8.839527655220844e-001	 1.032592706336545e+001
1	 1.527620798424980e+000	 9.006004511639167e-001	 9.955019368813797e+000
1	 1.517733632332044e+000	 9.171646394898141e-001	 9.589887970023520e+000
1	 1.507653423339732e+000	 9.336420006877344e-001	 9.230465337466882e+000
1	 1.497381244970944e+000	 9.500292187152168e-001	 8.876713232246891e+000
1	 1.486918245677973e+000	 9.663229933893792e-001	 8.528622766347271e+000
1	 1.476265648611787e+000	 9.825200424784158e-001	 8.186214404344259e+000
1	 1.465424751321909e+000	 9.986171037919641e-001	 7.849537906025713e+000
1	 1.454396925386652e+000	 1.014610937267665e+000	 7.518672209512782e+000
1	 1.443183615973692e+000	 1.030498327051237e+000	 7.193725254631737e+000
1	 1.570073595956371e+000	 8.802665622133532e-001	 1.024452296702903e+001
1	 1.560432599048893e+000	 8.972459629298201e-001	 9.856778697247162e+000
1	 1.550593705615053e+000	 9.141440024143019e-001	 9.476391495051287e+000
1	 1.540557852787052e+000	 9.309572889204422e-001	 9.103180048095403e+000
1	 1.530326054011600e+000	 9.476824425612989e-001	 8.736989139931488e+000
1	 1.519899398955622e+000	 9.643160974265818e-001	 8.377689901350118e+000
1	 1.509279053342250e+000	 9.808549037040831e-001	 8.025180010164025e+000
1	 1.498466258716638e+000	 9.972955298026260e-001	 7.679383838505434e+000
1	 1.487462332141325e+000	 1.013634664473865e+000	 7.340252546836189e+000
1	 1.476268665820915e+000	 1.029869018930230e+000	 7.007764124001962e+000
1	 1.464886726656035e+000	 1.045995328956277e+000	 6.681923372797599e+000
1	 1.247855619845356e+000	 8.910253098821287e-001	 1.107452110969944e+001
1	 1.238000911431365e+000	 9.046676222522669e-001	 1.080538160978711e+001
1	 1.227988509947546e+000	 9.182124044861023e-001	 1.052913875719130e+001
1	 1.217819850897685e+000	 9.316569475974837e-001	 1.024671991268553e+001
1	 1.207496431328260e+000	 9.449985705706225e-001	 9.959093080469254e+000
1	 1.197019809152552e+000	 9.582346220975364e-001	 9.667265609012638e+000
1	 1.186391602416225e+000	 9.713624822960134e-001	 9.372282814067210e+000
1	 1.175613488505012e+000	 9.843795644057992e-001	 9.075226526196062e+000
1	 1.164687203295262e+000	 9.972833164607429e-001	 8.777213565383294e+000
1	 1.153614540248221e+000	 1.010071222934661e+000	 8.479394145483756e+000
1	 1.142397349448981e+000	 1.022740806358721e+000	 8.182950211466956e+000
1	 1.269558730526954e+000	 9.065223117909245e-001	 1.073990340041489e+001
1	 1.259532625819865e+000	 9.204018956938826e-001	 1.046165796978034e+001
1	 1.249346085393796e+000	 9.341822531847158e-001	 1.017650268048744e+001
1	 1.239000569719292e+000	 9.478606281616913e-001	 9.885410601891170e+000
1	 1.228497601879959e+000	 9.614342929799052e-001	 9.589402535286277e+000
1	 1.217838766884827e+000	 9.749005502189513e-001	 9.289545628518530e+000
1	 1.207025710921144e+000	 9.882567344307593e-001	 8.986951899166643e+000
1	 1.196060140548291e+000	 1.001500213865284e+000	 8.682776668787524e+000
1	 1.184943821833555e+000	 1.014628392171736e+000	 8.378216910960743e+000
1	 1.173678579430655e+000	 1.027638710073067e+000	 8.074509516103232e+000
1	 1.162266295601971e+000	 1.040528647011485e+000	 7.772929476253975e+000
1	 1.291261841208033e+000	 9.220193136996339e-001	 1.037405931328565e+001
1	 1.281064340207938e+000	 9.361361691354978e-001	 1.008720884628365e+001
1	 1.270703660839725e+000	 9.501521018834158e-001	 9.793923534858324e+000
1	 1.260181288540694e+000	 9.640643087260686e-001	 9.495192261398742e+000
1	 1.249498772431579e+000	 9.778700153894413e-001	 9.192056825283075e+000
1	 1.238657724617147e+000	 9.915664783407002e-001	 8.885610516123595e+000
1	 1.227659819426233e+000	 1.005150986565916e+000	 8.576996585545791e+000
1	 1.216506792591863e+000	 1.018620863325253e+000	 8.267406620054356e+000
1	 1.205200440372255e+000	 1.031973467883280e+000	 7.958078817806866e+000
1	 1.193742618613598e+000	 1.045206197212085e+000	 7.650296172378808e+000
1	 1.182135241755561e+000	 1.058316487664915e+000	 7.345384566857356e+000
1	 1.312964951888744e+000	 9.375163156081748e-001	 9.980324505241443e+000
1	 1.302596054595719e+000	 9.518704425770157e-001	 9.685511891263445e+000
1	 1.292061236285450e+000	 9.661219505820893e-001	 9.384954560283633e+000
1	 1.281362007361988e+000	 9.802679892904931e-001	 9.079628754590090e+000
1	 1.270499942983189e+000	 9.943057377990964e-001	 8.770566981277657e+000
1	 1.259476682349561e+000	 1.008232406462639e+000	 8.458856587759193e+000
1	 1.248293927931517e+000	 1.022045238701332e+000	 8.145638229238905e+000
1	 1.236953444635726e+000	 1.035741512785547e+000	 7.832104230681055e+000
1	 1.225457058911339e+000	 1.049318543595212e+000	 7.519496846093532e+000
1	 1.213806657797006e+000	 1.062773684351549e+000	 7.209106418224922e+000
1	 1.202004187909683e+000	 1.076104328318845e+000	 6.902269442045442e+000
1	 1.334668062569236e+000	 9.530133175164640e-001	 9.561817668011418e+000
1	 1.324127768983342e+000	 9.676047160183382e-001	 9.259818555529659e+000
1	 1.313418811731085e+000	 9.820917992806265e-001	 8.952917879023465e+000
1	 1.302542726183266e+000	 9.964716698548412e-001	 8.642052136136810e+000
1	 1.291501113534862e+000	 1.010741460208737e+000	 8.328215661830758e+000
1	 1.280295640082116e+000	 1.024898334584625e+000	 8.012459248639805e+000
1	 1.268928036437022e+000	 1.038939490836855e+000	 7.695888655693187e+000
1	 1.257400096679885e+000	 1.052862162246009e+000	 7.379663008938337e+000
1	 1.245713677450784e+000	 1.066663619307370e+000	 7.064993095298715e+000
1	 1.233870696980833e+000	 1.080341171491293e+000	 6.753139553785755e+000
1	 1.221873134064270e+000	 1.093892168973107e+000	 6.445410966865260e+000
1	 1.356371173249661e+000	 9.685103194244188e-001	 9.121457886277169e+000
1	 1.345659483370942e+000	 9.833389894593682e-001	 8.813172185805074e+000
1	 1.334776387176746e+000	 9.980616479789166e-001	 8.500922986034086e+000
1	 1.323723445004623e+000	 1.012675350418991e+000	 8.185581197698211e+000
1	 1.312502284086669e+000	 1.027177182618228e+000	 7.868075424012722e+000
1	 1.301114597814863e+000	 1.041564262706513e+000	 7.549390667074392e+000
1	 1.289562144942771e+000	 1.055833742972335e+000	 7.230566923120859e+000
1	 1.277846748724337e+000	 1.069982811706480e+000	 6.912697668915639e+000
1	 1.265970295990567e+000	 1.084008695019590e+000	 6.596928241819613e+000
1	 1.253934736165034e+000	 1.097908658631153e+000	 6.284454116397543e+000
1	 1.241742080219257e+000	 1.111680009627535e+000	 5.976519080689156e+000
1	 1.378074283930169e+000	 9.840073213319565e-001	 8.661980355598166e+000
1	 1.367191197758651e+000	 9.990732629000086e-001	 8.348424411744565e+000
1	 1.356133962622546e+000	 1.014031496676848e+000	 8.031883492164791e+000
1	 1.344904163826153e+000	 1.028879030982817e+000	 7.713138261176626e+000
1	 1.333503454638683e+000	 1.043612905027437e+000	 7.393025267706962e+000
1	 1.321933555547848e+000	 1.058230190828161e+000	 7.072435778222663e+000
1	 1.310196253448787e+000	 1.072727995107619e+000	 6.752314501827981e+000
1	 1.298293400769084e+000	 1.087103461166803e+000	 6.433658209551133e+000
1	 1.286226914530664e+000	 1.101353770731710e+000	 6.117514250127050e+000
1	 1.273998775349563e+000	 1.115476145770962e+000	 5.804978964863304e+000
1	 1.261611026374577e+000	 1.129467850281964e+000	 5.497196004449934e+000
1	 1.399777394610910e+000	 9.995043232389941e-001	 8.185950638128135e+000
1	 1.388722912146604e+000	 1.014807536340161e+000	 7.868250008500669e+000
1	 1.377491538068603e+000	 1.030001345374311e+000	 7.548532309766709e+000
1	 1.366084882647951e+000	 1.045082711546199e+000	 7.227464409727797e+000
1	 1.354504625190976e+000	 1.060048627436228e+000	 6.905765640827860e+000
1	 1.342752513281120e+000	 1.074896118949426e+000	 6.584206799051868e+000
1	 1.330830361955098e+000	 1.089622247242557e+000	 6.263609041438961e+000
1	 1.318740052814126e+000	 1.104224110626819e+000	 5.944842683915978e+000
1	 1.306483533071053e+000	 1.118698846443568e+000	 5.628825901424479e+000
1	 1.294062814534374e+000	 1.133043632910556e+000	 5.316523332578039e+000
1	 1.281479972530163e+000	 1.147255690936225e+000	 5.008944591344296e+000
1	 1.421480505292034e+000	 1.015001325145448e+000	 7.695777612396907e+000
1	 1.410254626534935e+000	 1.030541809779729e+000	 7.375160397762659e+000
1	 1.398849113515031e+000	 1.045971194071194e+000	 7.053435447181744e+000
1	 1.387265601470111e+000	 1.061286392109012e+000	 6.731133323492347e+000
1	 1.375505795743618e+000	 1.076484349844469e+000	 6.408832069944132e+000
1	 1.363571471014727e+000	 1.091562047070162e+000	 6.087156413610741e+000
1	 1.351464470461725e+000	 1.106516499376995e+000	 5.766776876936128e+000
1	 1.339186704859462e+000	 1.121344760086371e+000	 5.448408798732837e+000
1	 1.326740151611712e+000	 1.136043922155000e+000	 5.132811266192755e+000
1	 1.314126853719423e+000	 1.150611120049767e+000	 4.820785959709547e+000
1	 1.301348918685950e+000	 1.165043531590152e+000	 4.513175912546869e+000
1	 1.443183615973692e+000	 1.030498327051237e+000	 7.193725254631737e+000
1	 1.431786340923777e+000	 1.046276083218615e+000	 6.871515930594837e+000
1	 1.420206688961944e+000	 1.061941042767387e+000	 6.549004558552753e+000
1	 1.408446320292726e+000	 1.077490072671134e+000	 6.226563866927001e+000
1	 1.396506966296683e+000	 1.092920072252026e+000	 5.904607561008859e+000
1	 1.384390428748719e+000	 1.108227975190228e+000	 5.583589768594165e+000
1	 1.372098578968695e+000	 1.123410751510783e+000	 5.264004406277627e+000
1	 1.359633356905095e+000	 1.138465409545300e+000	 4.946384467268180e+000
1	 1.346996770152616e+000	 1.153388997865844e+000	 4.631301231795123e+000
1	 1.334190892904664e+000	 1.168178607188432e+000	 4.319363401381359e+000
1	 1.321217864841871e+000	 1.182831372243579e+000	 4.011216158464142e+000
1	 1.464886726656035e+000	 1.045995328956277e+000	 6.681923372797599e+000
1	 1.453318055313266e+000	 1.062010356656721e+000	 6.359537078412466e+000
1	 1.441564264409459e+000	 1.077910891462778e+000	 6.037508378039331e+000
1	 1.429627039115891e+000	 1.093693753232441e+000	 5.716031557206177e+000
1	 1.417508136850242e+000	 1.109355794658762e+000	 5.395333897747653e+000
1	 1.405209386483143e+000	 1.124893903309479e+000	 5.075675402582228e+000
1	 1.392732687476031e+000	 1.140305003643770e+000	 4.757348456620843e+000
1	 1.380080008951025e+000	 1.155586059003449e+000	 4.440677424142818e+000
1	 1.367253388693743e+000	 1.170734073575938e+000	 4.126018183142121e+000
1	 1.354254932090050e+000	 1.185746094326383e+000	 3.813757597313389e+000
1	 1.341086810997859e+000	 1.200619212896339e+000	 3.504312926512908e+000
1	 1.142397349448981e+000	 1.022740806358721e+000	 8.182950211466956e+000
1	 1.131039251243886e+000	 1.035287756015926e+000	 7.885484705476176e+000
1	 1.119540534113931e+000	 1.047711586446118e+000	 7.584071408794501e+000
1	 1.107903211781769e+000	 1.060009945786597e+000	 7.279256498665201e+000
1	 1.096129350166033e+000	 1.072180526369110e+000	 6.971588806707123e+000
1	 1.084221066161063e+000	 1.084221066161063e+000	 6.661619296509987e+000
1	 1.072180526369110e+000	 1.096129350166033e+000	 6.349900537987893e+000
1	 1.060009945786597e+000	 1.107903211781770e+000	 6.036986179405902e+000
1	 1.047711586446118e+000	 1.119540534113932e+000	 5.723430417999978e+000
1	 1.035287756015926e+000	 1.131039251243886e+000	 5.409787470113241e+000
1	 1.022740806358721e+000	 1.142397349448981e+000	 5.096611041773247e+000
1	 1.162266295601971e+000	 1.040528647011485e+000	 7.772929476253975e+000
1	 1.150710653660098e+000	 1.053293817296594e+000	 7.470609272873456e+000
1	 1.139011947103368e+000	 1.065933727024969e+000	 7.164073450550235e+000
1	 1.127172224677734e+000	 1.078445983429568e+000	 6.853849062425675e+000
1	 1.115193588232937e+000	 1.090828238706443e+000	 6.540464776494333e+000
1	 1.103078191481013e+000	 1.103078191481013e+000	 6.224450413158448e+000
1	 1.090828238706443e+000	 1.115193588232937e+000	 5.906336481505176e+000
1	 1.078445983429568e+000	 1.127172224677734e+000	 5.586653715080739e+000
1	 1.065933727024968e+000	 1.139011947103368e+000	 5.265932607936220e+000
1	 1.053293817296594e+000	 1.150710653660097e+000	 4.944702951717997e+000
1	 1.040528647011485e+000	 1.162266295601972e+000	 4.623493374573361e+000
1	 1.182135241755561e+000	 1.058316487664915e+000	 7.345384566857355e+000
1	 1.170382056076979e+000	 1.071299878577974e+000	 7.039876705978198e+000
1	 1.158483360093529e+000	 1.084155867604568e+000	 6.729676935087990e+000
1	 1.146441237574461e+000	 1.096882021073315e+000	 6.415337513066604e+000
1	 1.134257826300627e+000	 1.109475951044568e+000	 6.097412417464466e+000
1	 1.121935316801759e+000	 1.121935316801759e+000	 5.776456856667757e+000
1	 1.109475951044568e+000	 1.134257826300627e+000	 5.453026780773606e+000
1	 1.096882021073315e+000	 1.146441237574461e+000	 5.127678391993415e+000
1	 1.084155867604569e+000	 1.158483360093529e+000	 4.800967655404421e+000
1	 1.071299878577974e+000	 1.170382056076979e+000	 4.473449810868172e+000
1	 1.058316487664915e+000	 1.182135241755561e+000	 4.145678886929511e+000
1	 1.202004187909683e+000	 1.076104328318845e+000	 6.902269442045441e+000
1	 1.190053458494446e+000	 1.089305939859901e+000	 6.594837462093442e+000
1	 1.177954773084311e+000	 1.102378008184755e+000	 6.282068618967128e+000
1	 1.165710250471834e+000	 1.115318058717681e+000	 5.964582324600939e+000
1	 1.153322064368974e+000	 1.128123663383335e+000	 5.643000919976712e+000
1	 1.140792442123159e+000	 1.140792442123158e+000	 5.317949078979322e+000
1	 1.128123663383335e+000	 1.153322064368973e+000	 4.990053209018723e+000
1	 1.115318058717681e+000	 1.165710250471834e+000	 4.659940849464718e+000
1	 1.102378008184754e+000	 1.177954773084312e+000	 4.328240068945915e+000
1	 1.089305939859901e+000	 1.190053458494445e+000	 3.995578862565529e+000
1	 1.076104328318845e+000	 1.202004187909682e+000	 3.662584550087383e+000
1	 1.221873134064270e+000	 1.093892168973107e+000	 6.445410966865262e+000
1	 1.209724860912411e+000	 1.107312001142208e+000	 6.136941150238549e+000
1	 1.197426186075614e+000	 1.120600148765364e+000	 5.822358067094394e+000
1	 1.184979263369735e+000	 1.133754096362508e+000	 5.502388002182166e+000
1	 1.172386302437845e+000	 1.146771375722591e+000	 5.177762451848731e+000
1	 1.159649567445070e+000	 1.159649567445070e+000	 4.849217338931275e+000
1	 1.146771375722591e+000	 1.172386302437845e+000	 4.517492220590977e+000
1	 1.133754096362507e+000	 1.184979263369735e+000	 4.183329490538223e+000
1	 1.120600148765364e+000	 1.197426186075614e+000	 3.847473577113667e+000
1	 1.107312001142208e+000	 1.209724860912411e+000	 3.510670138699920e+000
1	 1.093892168973107e+000	 1.221873134064270e+000	 3.173665257943162e+000
1	 1.241742080219257e+000	 1.111680009627535e+000	 5.976519080689156e+000
1	 1.229396263330790e+000	 1.125318062424730e+000	 5.667544599447610e+000
1	 1.216897599067334e+000	 1.138822289346235e+000	 5.351583828389194e+000
1	 1.204248276268045e+000	 1.152190134007636e+000	 5.029507559854928e+000
1	 1.191450540507110e+000	 1.165419088062188e+000	 4.702195120319726e+000
1	 1.178506692767354e+000	 1.178506692767353e+000	 4.370533317793804e+000
1	 1.165419088062188e+000	 1.191450540507110e+000	 4.035415376499077e+000
1	 1.152190134007636e+000	 1.204248276268046e+000	 3.697739860848992e+000
1	 1.138822289346235e+000	 1.216897599067333e+000	 3.358409590788670e+000
1	 1.125318062424730e+000	 1.229396263330790e+000	 3.018330550571934e+000
1	 1.111680009627535e+000	 1.241742080219257e+000	 2.678410793067831e+000
1	 1.261611026374577e+000	 1.129467850281964e+000	 5.497196004449934e+000
1	 1.249067665749498e+000	 1.143324123707302e+000	 5.187919164668025e+000
1	 1.236369012059369e+000	 1.157044429927205e+000	 4.870719027890966e+000
1	 1.223517289166649e+000	 1.170626171652911e+000	 4.546646575188387e+000
1	 1.210514778576640e+000	 1.184066800401973e+000	 4.216765654128285e+000
1	 1.197363818089865e+000	 1.197363818089865e+000	 3.882151582147693e+000
1	 1.184066800401974e+000	 1.210514778576640e+000	 3.543889729732751e+000
1	 1.170626171652911e+000	 1.223517289166650e+000	 3.203074086184976e+000
1	 1.157044429927205e+000	 1.236369012059368e+000	 2.860805810796463e+000
1	 1.143324123707303e+000	 1.249067665749498e+000	 2.518191772291595e+000
1	 1.129467850281964e+000	 1.261611026374577e+000	 2.176343079421595e+000
1	 1.281479972530163e+000	 1.147255690936225e+000	 5.008944591344296e+000
1	 1.268739068168448e+000	 1.161330184989758e+000	 4.699257353005467e+000
1	 1.255840425051615e+000	 1.175266570508109e+000	 4.380676438642899e+000
1	 1.242786302065429e+000	 1.189062209298173e+000	 4.054466866714749e+000
1	 1.229579016646303e+000	 1.202714512741798e+000	 3.721911836081605e+000
1	 1.216220943412465e+000	 1.216220943412465e+000	 3.384310910673731e+000
1	 1.202714512741798e+000	 1.229579016646304e+000	 3.042978174740008e+000
1	 1.189062209298173e+000	 1.242786302065429e+000	 2.699240362371041e+000
1	 1.175266570508110e+000	 1.255840425051614e+000	 2.354434965055062e+000
1	 1.161330184989758e+000	 1.268739068168449e+000	 2.009908321080455e+000
1	 1.147255690936225e+000	 1.281479972530163e+000	 1.667013690643007e+000
1	 1.301348918685950e+000	 1.165043531590152e+000	 4.513175912546869e+000
1	 1.288410470587557e+000	 1.179336246271932e+000	 4.202678842952991e+000
1	 1.275311838043971e+000	 1.193488711088788e+000	 3.882313088951884e+000
1	 1.262055314964265e+000	 1.207498246943265e+000	 3.553589834485781e+000
1	 1.248643254715969e+000	 1.221362225081510e+000	 3.218044712782336e+000
1	 1.235078068735010e+000	 1.235078068735010e+000	 2.877235499398053e+000
1	 1.221362225081510e+000	 1.248643254715969e+000	 2.532739764889501e+000
1	 1.207498246943265e+000	 1.262055314964265e+000	 2.186152491883576e+000
1	 1.193488711088788e+000	 1.275311838043970e+000	 1.839083661409283e+000
1	 1.179336246271932e+000	 1.288410470587557e+000	 1.493155813432743e+000
1	 1.165043531590152e+000	 1.301348918685950e+000	 1.150001586598341e+000
1	 1.321217864841871e+000	 1.182831372243579e+000	 4.011216158464142e+000
1	 1.308081873006736e+000	 1.197342307553658e+000	 3.699235960504241e+000
1	 1.294783251036333e+000	 1.211710851669076e+000	 3.376434453934629e+000
1	 1.281324327863042e+000	 1.225934284588030e+000	 3.044599499210507e+000
1	 1.267707492785507e+000	 1.240009937420960e+000	 2.705550604971510e+000
1	 1.253935194057360e+000	 1.253935194057359e+000	 2.361136058187947e+000
1	 1.240009937420960e+000	 1.267707492785507e+000	 2.013230001288078e+000
1	 1.225934284588030e+000	 1.281324327863042e+000	 1.663729462276322e+000
1	 1.211710851669076e+000	 1.294783251036333e+000	 1.314551343974786e+000
1	 1.197342307553658e+000	 1.308081873006736e+000	 9.676293786237240e-001
1	 1.182831372243579e+000	 1.321217864841870e+000	 6.249110541623756e-001
1	 1.341086810997859e+000	 1.200619212896339e+000	 3.504312926512908e+000
1	 1.327753275425903e+000	 1.215348368834772e+000	 3.189918668476876e+000
1	 1.314254664028600e+000	 1.229932992248813e+000	 2.863798274463334e+000
1	 1.300593340761640e+000	 1.244370322232309e+000	 2.528045271233717e+000
1	 1.286771730854787e+000	 1.258657649759996e+000	 2.184792939165375e+000
1	 1.272792319379371e+000	 1.272792319379371e+000	 1.836210809776662e+000
1	 1.258657649759996e+000	 1.286771730854787e+000	 1.484501095924541e+000
1	 1.244370322232309e+000	 1.300593340761641e+000	 1.131895062081616e+000
1	 1.229932992248813e+000	 1.314254664028600e+000	 7.806493422553986e-001
1	 1.215348368834772e+000	 1.327753275425902e+000	 4.330422132461648e-001
1	 1.200619212896339e+000	 1.341086810997858e+000	 9.136983105002157e-002
1	 1.022740806358721e+000	 1.142397349448981e+000	 5.096611041773247e+000
1	 1.010071222934661e+000	 1.153614540248221e+000	 4.781769461248248e+000
1	 9.972833164607429e-001	 1.164687203295261e+000	 4.463787831686454e+000
1	 9.843795644057992e-001	 1.175613488505011e+000	 4.144059628160051e+000
1	 9.713624822960134e-001	 1.186391602416225e+000	 3.823971407429913e+000
1	 9.582346220975365e-001	 1.197019809152552e+000	 3.504900740632966e+000
1	 9.449985705706224e-001	 1.207496431328260e+000	 3.188214170291954e+000
1	 9.316569475974839e-001	 1.217819850897686e+000	 2.875265195695426e+000
1	 9.182124044861019e-001	 1.227988509947546e+000	 2.567392290603035e+000
1	 9.046676222522668e-001	 1.238000911431365e+000	 2.265916957127916e+000
1	 8.910253098821288e-001	 1.247855619845356e+000	 1.972141819532958e+000
1	 1.040528647011485e+000	 1.162266295601972e+000	 4.623493374573362e+000
1	 1.027638710073067e+000	 1.173678579430655e+000	 4.300109561845400e+000
1	 1.014628392171736e+000	 1.184943821833555e+000	 3.973110096149523e+000
1	 1.001500213865284e+000	 1.196060140548291e+000	 3.644001844872180e+000
1	 9.882567344307596e-001	 1.207025710921144e+000	 3.314282520674387e+000
1	 9.749005502189513e-001	 1.217838766884827e+000	 2.985438398803034e+000
1	 9.614342929799058e-001	 1.228497601879960e+000	 2.658942064162519e+000
1	 9.478606281616914e-001	 1.239000569719292e+000	 2.336250192625366e+000
1	 9.341822531847158e-001	 1.249346085393796e+000	 2.018801370949014e+000
1	 9.204018956938826e-001	 1.259532625819865e+000	 1.708013959545679e+000
1	 9.065223117909241e-001	 1.269558730526953e+000	 1.405284002215878e+000
1	 1.058316487664915e+000	 1.182135241755561e+000	 4.145678886929510e+000
1	 1.045206197212085e+000	 1.193742618613598e+000	 3.815410399866110e+000
1	 1.031973467883280e+000	 1.205200440372255e+000	 3.481186295931260e+000
1	 1.018620863325253e+000	 1.216506792591863e+000	 3.144584655778278e+000
1	 1.005150986565916e+000	 1.227659819426233e+000	 2.807172386588474e+000
1	 9.915664783407000e-001	 1.238657724617147e+000	 2.470502794358903e+000
1	 9.778700153894413e-001	 1.249498772431579e+000	 2.136113190589066e+000
1	 9.640643087260685e-001	 1.260181288540694e+000	 1.805522538132208e+000
1	 9.501521018834153e-001	 1.270703660839725e+000	 1.480229140854263e+000
1	 9.361361691354979e-001	 1.281064340207938e+000	 1.161708381604029e+000
1	 9.220193136996340e-001	 1.291261841208033e+000	 8.514105128509227e-001
1	 1.076104328318845e+000	 1.202004187909682e+000	 3.662584550087383e+000
1	 1.062773684351549e+000	 1.213806657797006e+000	 3.326965787983142e+000
1	 1.049318543595212e+000	 1.225457058911340e+000	 2.987191728456601e+000
1	 1.035741512785547e+000	 1.236953444635727e+000	 2.644871505416904e+000
1	 1.022045238701332e+000	 1.248293927931518e+000	 2.301601267440184e+000
1	 1.008232406462639e+000	 1.259476682349561e+000	 1.958961673380778e+000
1	 9.943057377990965e-001	 1.270499942983189e+000	 1.618515426243089e+000
1	 9.802679892904931e-001	 1.281362007361988e+000	 1.281804850230900e+000
1	 9.661219505820892e-001	 1.292061236285451e+000	 9.503495157540020e-001
1	 9.518704425770156e-001	 1.302596054595719e+000	 6.256439170244722e-001
1	 9.375163156081747e-001	 1.312964951888744e+000	 3.091552067131648e-001
1	 1.093892168973107e+000	 1.221873134064270e+000	 3.173665257943161e+000
1	 1.080341171491293e+000	 1.233870696980833e+000	 2.834115472272900e+000
1	 1.066663619307370e+000	 1.245713677450784e+000	 2.490355333286000e+000
1	 1.052862162246009e+000	 1.257400096679885e+000	 2.143986755845698e+000
1	 1.038939490836855e+000	 1.268928036437022e+000	 1.796597054426963e+000
1	 1.024898334584625e+000	 1.280295640082117e+000	 1.449756428521301e+000
1	 1.010741460208737e+000	 1.291501113534862e+000	 1.105015489412133e+000
1	 9.964716698548413e-001	 1.302542726183266e+000	 7.639028332506433e-001
1	 9.820917992806263e-001	 1.313418811731085e+000	 4.279226652191195e-001
1	 9.676047160183381e-001	 1.324127768983342e+000	 9.855247941214521e-002
1	 9.530133175164638e-001	 1.334668062569236e+000	-2.227592011046019e-001
1	 1.111680009627535e+000	 1.241742080219257e+000	 2.678410793067829e+000
1	 1.097908658631153e+000	 1.253934736165034e+000	 2.336241457345018e+000
1	 1.084008695019590e+000	 1.265970295990567e+000	 1.989955400512824e+000
1	 1.069982811706480e+000	 1.277846748724338e+000	 1.641110812976907e+000
1	 1.055833742972335e+000	 1.289562144942771e+000	 1.291249857069192e+000
1	 1.041564262706513e+000	 1.301114597814863e+000	 9.418962069620834e-001
1	 1.027177182618228e+000	 1.312502284086669e+000	 5.945526323299830e-001
1	 1.012675350418990e+000	 1.323723445004623e+000	 2.506986305711398e-001
1	 9.980616479789162e-001	 1.334776387176746e+000	-8.821188774692536e-002
1	 9.833389894593683e-001	 1.345659483370942e+000	-4.207528557158837e-001
1	 9.685103194244189e-001	 1.356371173249662e+000	-7.455282448610425e-001
1	 1.129467850281964e+000	 1.261611026374577e+000	 2.176343079421595e+000
1	 1.115476145770963e+000	 1.273998775349563e+000	 1.832764678721992e+000
1	 1.101353770731711e+000	 1.286226914530664e+000	 1.485315684688557e+000
1	 1.087103461166803e+000	 1.298293400769084e+000	 1.135475713441078e+000
1	 1.072727995107619e+000	 1.310196253448788e+000	 7.847071038696479e-001
1	 1.058230190828162e+000	 1.321933555547848e+000	 4.344525751278394e-001
1	 1.043612905027437e+000	 1.333503454638683e+000	 8.613292953903842e-002
1	 1.028879030982817e+000	 1.344904163826153e+000	-2.588551945198978e-001
1	 1.014031496676848e+000	 1.356133962622547e+000	-5.991415153421255e-001
1	 9.990732629000086e-001	 1.367191197758652e+000	-9.333842419719546e-001
1	 9.840073213319562e-001	 1.378074283930169e+000	-1.260272145567114e+000
1	 1.147255690936225e+000	 1.281479972530163e+000	 1.667013690643008e+000
1	 1.133043632910556e+000	 1.294062814534374e+000	 1.323141984781139e+000
1	 1.118698846443568e+000	 1.306483533071053e+000	 9.758018802616827e-001
1	 1.104224110626819e+000	 1.318740052814126e+000	 6.263611219965954e-001
1	 1.089622247242556e+000	 1.330830361955098e+000	 2.761690987490374e-001
1	 1.074896118949426e+000	 1.342752513281120e+000	-7.344532026741243e-002
1	 1.060048627436229e+000	 1.354504625190975e+000	-4.211759024045541e-001
1	 1.045082711546199e+000	 1.366084882647951e+000	-7.657411180199615e-001
1	 1.030001345374311e+000	 1.377491538068603e+000	-1.105886152300628e+000
1	 1.014807536340161e+000	 1.388722912146604e+000	-1.440384858592248e+000
1	 9.995043232389940e-001	 1.399777394610910e+000	-1.768041649527703e+000
1	 1.165043531590152e+000	 1.301348918685950e+000	 1.150001586598340e+000
1	 1.150611120049767e+000	 1.314126853719422e+000	 8.068633951744103e-001
1	 1.136043922155001e+000	 1.326740151611712e+000	 4.608184198941790e-001
1	 1.121344760086371e+000	 1.339186704859463e+000	 1.130906956075105e-001
1	 1.106516499376995e+000	 1.351464470461725e+000	-2.351150154530472e-001
1	 1.091562047070163e+000	 1.363571471014728e+000	-5.826151478887646e-001
1	 1.076484349844469e+000	 1.375505795743618e+000	-9.282492106704219e-001
1	 1.061286392109012e+000	 1.387265601470110e+000	-1.270881614300274e+000
1	 1.045971194071194e+000	 1.398849113515031e+000	-1.609403444055977e+000
1	 1.030541809779729e+000	 1.410254626534935e+000	-1.942734175927535e+000
1	 1.015001325145448e+000	 1.421480505292034e+000	-2.269823332027517e+000
1	 1.182831372243579e+000	 1.321217864841870e+000	 6.249110541623755e-001
1	 1.168178607188432e+000	 1.334190892904663e+000	 2.834496066209942e-001
1	 1.153388997865845e+000	 1.346996770152616e+000	-6.019443833376709e-002
1	 1.138465409545300e+000	 1.359633356905095e+000	-4.049712244087064e-001
1	 1.123410751510783e+000	 1.372098578968695e+000	-7.498509292636200e-001
1	 1.108227975190228e+000	 1.384390428748719e+000	-1.093825390826877e+000
1	 1.092920072252026e+000	 1.396506966296683e+000	-1.435909687293737e+000
1	 1.077490072671134e+000	 1.408446320292725e+000	-1.775143667734896e+000
1	 1.061941042767387e+000	 1.420206688961944e+000	-2.110593430384685e+000
1	 1.046276083218615e+000	 1.431786340923777e+000	-2.441352745828111e+000
1	 1.030498327051237e+000	 1.443183615973693e+000	-2.766544422464307e+000
1	 1.200619212896339e+000	 1.341086810997858e+000	 9.136983105002099e-002
1	 1.185746094326383e+000	 1.354254932090050e+000	-2.475502795813343e-001
1	 1.170734073575938e+000	 1.367253388693743e+000	-5.877632647908513e-001
1	 1.155586059003449e+000	 1.380080008951025e+000	-9.284226261875357e-001
1	 1.140305003643770e+000	 1.392732687476032e+000	-1.268702512419896e+000
1	 1.124893903309479e+000	 1.405209386483143e+000	-1.607798990155553e+000
1	 1.109355794658762e+000	 1.417508136850241e+000	-1.944931269750596e+000
1	 1.093693753232441e+000	 1.429627039115892e+000	-2.279342883276364e+000
1	 1.077910891462778e+000	 1.441564264409459e+000	-2.610302812705014e+000
1	 1.062010356656721e+000	 1.453318055313266e+000	-2.937106566194854e+000
1	 1.045995328956277e+000	 1.464886726656035e+000	-3.259077200560470e+000
1	 8.910253098821288e-001	 1.247855619845356e+000	 1.972141819532958e+000
1	 8.772882022807453e-001	 1.257551261490825e+000	 1.684764128391076e+000
1	 8.634590576311915e-001	 1.267086523959525e+000	 1.402537264633206e+000
1	 8.495406565372458e-001	 1.276460157680332e+000	 1.126814755597779e+000
1	 8.355358005343191e-001	 1.285670976711510e+000	 8.589244211022925e-001
1	 8.214473102909056e-001	 1.294717859120681e+000	 6.001663109976055e-001
1	 8.072780238044295e-001	 1.303599747304523e+000	 3.518107085152757e-001
1	 7.930307945938002e-001	 1.312315648248288e+000	 1.150962029306811e-001
1	 7.787084898909862e-001	 1.320864633725284e+000	-1.087721651449115e-001
1	 7.643139888338927e-001	 1.329245840436585e+000	-3.186246827498964e-001
1	 7.498501806627993e-001	 1.337458470091355e+000	-5.133286649646842e-001
1	 9.065223117909241e-001	 1.269558730526953e+000	 1.405284002215878e+000
1	 8.925462839472682e-001	 1.279423001924546e+000	 1.109391333850954e+000
1	 8.784766183172065e-001	 1.289124104778561e+000	 8.190956787978340e-001
1	 8.643161438656806e-001	 1.298660767784928e+000	 5.357264566218120e-001
1	 8.500677108533142e-001	 1.308031784375627e+000	 2.605867452900516e-001
1	 8.357341890065820e-001	 1.317236013105266e+000	-5.048772735323252e-003
1	 8.213184656822814e-001	 1.326272377976344e+000	-2.599357975134845e-001
1	 8.068234440286461e-001	 1.335139868703277e+000	-5.028623282408679e-001
1	 7.922520411454743e-001	 1.343837540915351e+000	-7.326505061706258e-001
1	 7.776071862455714e-001	 1.352364516298867e+000	-9.481583807609489e-001
1	 7.628918188198212e-001	 1.360719982678853e+000	-1.148281596203712e+000
1	 9.220193136996340e-001	 1.291261841208033e+000	 8.514105128509227e-001
1	 9.078043656136207e-001	 1.301294742357671e+000	 5.482069065694686e-001
1	 8.934941790029707e-001	 1.311161685596942e+000	 2.508886586127874e-001
1	 8.790916311937900e-001	 1.320861377888824e+000	-3.925341400802002e-002
1	 8.645996211719170e-001	 1.330392592039014e+000	-3.209553210205354e-001
1	 8.500210677218111e-001	 1.339754167089103e+000	-5.929819186245836e-001
1	 8.353589075596423e-001	 1.348945008647412e+000	-8.541288617165648e-001
1	 8.206160934629750e-001	 1.357964089157520e+000	-1.103224485157343e+000
1	 8.057955923994367e-001	 1.366810448104691e+000	-1.339131610851983e+000
1	 7.909003836567353e-001	 1.375483192160448e+000	-1.560749277630257e+000
1	 7.759334569763624e-001	 1.383981495265687e+000	-1.767014391145286e+000
1	 9.375163156081747e-001	 1.312964951888744e+000	 3.091552067131648e-001
1	 9.230624472797354e-001	 1.323166482790366e+000	-1.535996303403434e-004
1	 9.085117396884321e-001	 1.333199266414842e+000	-3.034446330990993e-001
1	 8.938671185215374e-001	 1.343061987992202e+000	-5.994794621741836e-001
1	 8.791315314901061e-001	 1.352753399701856e+000	-8.870468218670559e-001
1	 8.643079464365844e-001	 1.362272321072382e+000	-1.164964574333656e+000
1	 8.493993494365169e-001	 1.371617639317917e+000	-1.432081601828685e+000
1	 8.344087428967989e-001	 1.380788309611204e+000	-1.687279628664861e+000
1	 8.193391436528904e-001	 1.389783355293484e+000	-1.929474969053528e+000
1	 8.041935810674046e-001	 1.398601868021504e+000	-2.157620197925899e+000
1	 7.889750951324397e-001	 1.407243007852023e+000	-2.370705742058558e+000
1	 9.530133175164638e-001	 1.334668062569236e+000	-2.227592011046019e-001
1	 9.383205289455460e-001	 1.345038223222794e+000	-5.369658815884275e-001
1	 9.235293003735396e-001	 1.355236847232435e+000	-8.451765189222926e-001
1	 9.086426058488871e-001	 1.365262598095244e+000	-1.146218184475998e+000
1	 8.936634418078615e-001	 1.375114207364341e+000	-1.438945313946660e+000
1	 8.785948251508936e-001	 1.384790475055292e+000	-1.722241584550776e+000
1	 8.634397913129078e-001	 1.394290269988049e+000	-1.995021724865232e+000
1	 8.482013923301294e-001	 1.403612530064517e+000	-2.256233254138133e+000
1	 8.328826949058532e-001	 1.412756262481913e+000	-2.504858148102755e+000
1	 8.174867784775971e-001	 1.421720543882209e+000	-2.739914428544173e+000
1	 8.020167332880693e-001	 1.430504520438026e+000	-2.960457674091762e+000
1	 9.685103194244189e-001	 1.356371173249662e+000	-7.455282448610425e-001
1	 9.535786106109838e-001	 1.366909963655117e+000	-1.063423987137767e+000
1	 9.385468610582419e-001	 1.377274428049897e+000	-1.375497888398281e+000
1	 9.234180931758037e-001	 1.387463208198132e+000	-1.680655017352914e+000
1	 9.081953521251606e-001	 1.397475015026658e+000	-1.977827865980961e+000
1	 8.928817038647322e-001	 1.407308629038023e+000	-2.265978119601245e+000
1	 8.774802331888189e-001	 1.416962900657996e+000	-2.544098360348504e+000
1	 8.619940417629793e-001	 1.426436750517643e+000	-2.811213701080470e+000
1	 8.464262461583425e-001	 1.435729169670161e+000	-3.066383346947236e+000
1	 8.307799758873323e-001	 1.444839219742739e+000	-3.308702082067414e+000
1	 8.150583714432672e-001	 1.453766033023863e+000	-3.537301678973191e+000
1	 9.840073213319562e-001	 1.378074283930169e+000	-1.260272145567114e+000
1	 9.688366922759821e-001	 1.388781704087501e+000	-1.580646744501750e+000
1	 9.535644217424868e-001	 1.399312008867400e+000	-1.895524610416903e+000
1	 9.381935805022507e-001	 1.409663818301048e+000	-2.203900720113355e+000
1	 9.227272624419833e-001	 1.419835822688992e+000	-2.504797396688877e+000
1	 9.071685825780912e-001	 1.429826783020764e+000	-2.797265949352444e+000
1	 8.915206750642536e-001	 1.439635531327948e+000	-3.080388247840937e+000
1	 8.757866911953608e-001	 1.449260970970773e+000	-3.353278228712335e+000
1	 8.599697974103759e-001	 1.458702076858409e+000	-3.615083330988155e+000
1	 8.440731732966296e-001	 1.467957895603269e+000	-3.864985858827060e+000
1	 8.281000095980499e-001	 1.477027545609700e+000	-4.102204269119439e+000
1	 9.995043232389940e-001	 1.399777394610910e+000	-1.768041649527703e+000
1	 9.840947739404727e-001	 1.410653444520108e+000	-2.089683593576583e+000
1	 9.685819824262233e-001	 1.421349589685121e+000	-2.406303349074907e+000
1	 9.529690678281922e-001	 1.431864428404175e+000	-2.716997164162487e+000
1	 9.372591727583082e-001	 1.442196630351531e+000	-3.020888423149553e+000
1	 9.214554612909641e-001	 1.452344937003705e+000	-3.317129133469803e+000
1	 9.055611169392154e-001	 1.462308161998095e+000	-3.604901348863754e+000
1	 8.895793406272856e-001	 1.472085191424091e+000	-3.883418526359240e+000
1	 8.735133486619712e-001	 1.481674984046840e+000	-4.151926814807749e+000
1	 8.573663707055079e-001	 1.491076571463974e+000	-4.409706272933716e+000
1	 8.411416477524336e-001	 1.500289058195703e+000	-4.656072015055215e+000
1	 1.015001325145448e+000	 1.421480505292034e+000	-2.269823332027517e+000
1	 9.993528556043898e-001	 1.432525184953105e+000	-2.591519883022939e+000
1	 9.835995431093997e-001	 1.443387170503232e+000	-2.908816846756734e+000
1	 9.677445551535926e-001	 1.454065038507694e+000	-3.220922591891648e+000
1	 9.517910830741139e-001	 1.464557438014463e+000	-3.527072282570592e+000
1	 9.357423400033419e-001	 1.474863090987035e+000	-3.826529190400910e+000
1	 9.196015588137076e-001	 1.484980792668627e+000	-4.118585944719746e+000
1	 9.033719900587662e-001	 1.494909411877786e+000	-4.402565719045198e+000
1	 8.870568999131454e-001	 1.504647891235637e+000	-4.677823351796794e+000
1	 8.706595681139866e-001	 1.514195247325030e+000	-4.943746399561368e+000
1	 8.541832859064348e-001	 1.523550570782039e+000	-5.199756121366207e+000
1	 1.030498327051237e+000	 1.443183615973693e+000	-2.766544422464307e+000
1	 1.014610937267665e+000	 1.454396925386652e+000	-3.087081689400343e+000
1	 9.986171037919640e-001	 1.465424751321909e+000	-3.403988730522192e+000
1	 9.825200424784156e-001	 1.476265648611788e+000	-3.716596401057482e+000
1	 9.663229933893792e-001	 1.486918245677973e+000	-4.024261882895441e+000
1	 9.500292187152167e-001	 1.497381244970944e+000	-4.326369799961108e+000
1	 9.336420006877344e-001	 1.507653423339732e+000	-4.622333274339458e+000
1	 9.171646394898144e-001	 1.517733632332045e+000	-4.911594921430752e+000
1	 9.006004511639166e-001	 1.527620798424980e+000	-5.193627782590474e+000
1	 8.839527655220841e-001	 1.537313923186611e+000	-5.467936193884197e+000
1	 8.672249240600692e-001	 1.546812083368872e+000	-5.734056589763489e+000
1	 1.045995328956277e+000	 1.464886726656035e+000	-3.259077200560470e+000
1	 1.029869018930230e+000	 1.476268665820915e+000	-3.577240207912639e+000
1	 1.013634664473865e+000	 1.487462332141325e+000	-3.892687891238068e+000
1	 9.972955298026258e-001	 1.498466258716639e+000	-4.204883503861733e+000
1	 9.808549037040830e-001	 1.509279053342249e+000	-4.513316031113291e+000
1	 9.643160974265818e-001	 1.519899398955622e+000	-4.817501087891145e+000
1	 9.476824425612986e-001	 1.530326054011600e+000	-5.116981759853202e+000
1	 9.309572889204426e-001	 1.540557852787053e+000	-5.411329386936662e+000
1	 9.141440024143019e-001	 1.550593705615053e+000	-5.700144288067963e+000
1	 8.972459629298201e-001	 1.560432599048893e+000	-5.983056426087956e+000
1	 8.802665622133532e-001	 1.570073595956371e+000	-6.259726012078789e+000
1	 7.498501806627993e-001	 1.337458470091355e+000	-5.133286649646848e-001
1	 7.353221473168309e-001	 1.345500595902038e+000	-6.932372564852655e-001
1	 7.207306278798588e-001	 1.353372795297910e+000	-8.589847114725572e-001
1	 7.060785306134998e-001	 1.361074466261638e+000	-1.009833541341375e+000
1	 6.913687667140009e-001	 1.368605071488112e+000	-1.145085465050599e+000
1	 6.766042485600982e-001	 1.375964138175143e+000	-1.264082318870671e+000
1	 6.617878879772690e-001	 1.383151257758930e+000	-1.366206885641917e+000
1	 6.469225945203407e-001	 1.390166085595247e+000	-1.450883642901217e+000
1	 6.320112737763581e-001	 1.397008340587419e+000	-1.517579429463895e+000
1	 6.170568256895568e-001	 1.403677804762223e+000	-1.565804030255319e+000
1	 6.020621429102250e-001	 1.410174322794896e+000	-1.595110679390522e+000
1	 7.628918188198212e-001	 1.360719982678853e+000	-1.148281596203712e+000
1	 7.481111091940829e-001	 1.368901979756440e+000	-1.333356930637559e+000
1	 7.332658093066115e-001	 1.376911095003749e+000	-1.503934950287272e+000
1	 7.183588780004508e-001	 1.384746715932977e+000	-1.659202543731614e+000
1	 7.033932771043161e-001	 1.392408295894034e+000	-1.798384626920200e+000
1	 6.883719696499764e-001	 1.399895353861612e+000	-1.920745237971809e+000
1	 6.732979181063208e-001	 1.407207474166046e+000	-2.025588550711038e+000
1	 6.581740826320958e-001	 1.414344306168952e+000	-2.112259805936954e+000
1	 6.430034193492565e-001	 1.421305563884740e+000	-2.180146159636505e+000
1	 6.277888786388084e-001	 1.428091025549134e+000	-2.228677447573976e+000
1	 6.125334034609495e-001	 1.434700533135920e+000	-2.257326865902022e+000
1	 7.759334569763624e-001	 1.383981495265687e+000	-1.767014391145285e+000
1	 7.609000710709125e-001	 1.392303363610223e+000	-1.958212902998718e+000
1	 7.458009907330193e-001	 1.400449394709020e+000	-2.134774210627092e+000
1	 7.306392253871503e-001	 1.408418965603801e+000	-2.295817356229265e+000
1	 7.154177874944816e-001	 1.416211520299499e+000	-2.440498215912706e+000
1	 7.001396907398116e-001	 1.423826569547684e+000	-2.568010767818010e+000
1	 6.848079482354358e-001	 1.431263690572821e+000	-2.677588278361944e+000
1	 6.694255707440150e-001	 1.438522526742372e+000	-2.768504405232803e+000
1	 6.539955649224103e-001	 1.445602787181828e+000	-2.840074215996199e+000
1	 6.385209315883906e-001	 1.452504246335858e+000	-2.891655121400279e+000
1	 6.230046640120596e-001	 1.459226743476797e+000	-2.922647722692137e+000
1	 7.889750951324397e-001	 1.407243007852023e+000	-2.370705742058557e+000
1	 7.736890329473286e-001	 1.415704747463540e+000	-2.568937944076242e+000
1	 7.583361721590805e-001	 1.423987694413863e+000	-2.752593363711226e+000
1	 7.429195727735806e-001	 1.432091215274239e+000	-2.920730527051409e+000
1	 7.274422978844638e-001	 1.440014744704620e+000	-3.072443584054933e+000
1	 7.119074118295534e-001	 1.447757785233454e+000	-3.206863738770167e+000
1	 6.963179783645463e-001	 1.455319906979338e+000	-3.323160597188535e+000
1	 6.806770588560146e-001	 1.462700747315572e+000	-3.420543431019924e+000
1	 6.649877104957208e-001	 1.469900010478731e+000	-3.498262355920589e+000
1	 6.492529845381936e-001	 1.476917467122426e+000	-3.555609422934790e+000
1	 6.334759245634387e-001	 1.483752953817541e+000	-3.591919622150276e+000
1	 8.020167332880693e-001	 1.430504520438026e+000	-2.960457674091761e+000
1	 7.864779948233396e-001	 1.439106131316547e+000	-3.166591144201425e+000
1	 7.708713535847912e-001	 1.447525994118420e+000	-3.358412325888928e+000
1	 7.551999201597239e-001	 1.455763464944417e+000	-3.534926142234881e+000
1	 7.394668082742286e-001	 1.463817969109509e+000	-3.695171910501783e+000
1	 7.236751329191496e-001	 1.471689000919019e+000	-3.838224923664166e+000
1	 7.078280084935832e-001	 1.479376123385674e+000	-3.963197949214282e+000
1	 6.919285469680097e-001	 1.486878967888615e+000	-4.069242643214811e+000
1	 6.759798560690888e-001	 1.494197233775495e+000	-4.155550877812487e+000
1	 6.599850374881072e-001	 1.501330687908871e+000	-4.221355980672013e+000
1	 6.439471851149695e-001	 1.508279164158169e+000	-4.265933885032339e+000
1	 8.150583714432672e-001	 1.453766033023863e+000	-3.537301678973190e+000
1	 7.992669566989544e-001	 1.462507515169399e+000	-3.752163808262165e+000
1	 7.834065350101485e-001	 1.471064293822835e+000	-3.953185735336207e+000
1	 7.674802675455636e-001	 1.479435714614465e+000	-4.139325302906894e+000
1	 7.514913186637425e-001	 1.487621193514281e+000	-4.309573495652858e+000
1	 7.354428540085497e-001	 1.495620216604477e+000	-4.462956162689478e+000
1	 7.193380386224788e-001	 1.503432339791911e+000	-4.598535657086600e+000
1	 7.031800350799152e-001	 1.511057188461564e+000	-4.715412390104850e+000
1	 6.869720016424156e-001	 1.518494457072168e+000	-4.812726298070597e+000
1	 6.707170904380223e-001	 1.525743908695221e+000	-4.889658220062048e+000
1	 6.544184456665354e-001	 1.532805374498695e+000	-4.945431184829493e+000
1	 8.281000095980499e-001	 1.477027545609700e+000	-4.102204269119440e+000
1	 8.120559185741816e-001	 1.485908899022251e+000	-4.326584793423570e+000
1	 7.959417164351506e-001	 1.494602593527250e+000	-4.537808092342972e+000
1	 7.797606149310815e-001	 1.503107964284512e+000	-4.734791084990796e+000
1	 7.635158290529713e-001	 1.511424417919046e+000	-4.916482555010228e+000
1	 7.472105750977021e-001	 1.519551432289924e+000	-5.081865004002819e+000
1	 7.308480687511642e-001	 1.527488556198130e+000	-5.229956421905037e+000
1	 7.144315231916465e-001	 1.535235409034484e+000	-5.359811971701379e+000
1	 6.979641472156025e-001	 1.542791680368797e+000	-5.470525586118959e+000
1	 6.814491433878283e-001	 1.550157129481510e+000	-5.561231474205458e+000
1	 6.648897062180196e-001	 1.557331584839138e+000	-5.631105535954037e+000
1	 8.411416477524336e-001	 1.500289058195703e+000	-4.656072015055216e+000
1	 8.248448804490295e-001	 1.509310282875257e+000	-4.890725350290443e+000
1	 8.084768978597926e-001	 1.518140893231805e+000	-5.113118421409203e+000
1	 7.920409623162603e-001	 1.526780213954683e+000	-5.322133037519842e+000
1	 7.755403394418811e-001	 1.535227642323919e+000	-5.516681567072964e+000
1	 7.589782961865559e-001	 1.543482647975457e+000	-5.695708912633140e+000
1	 7.423580988795706e-001	 1.551544772604411e+000	-5.858194402624799e+000
1	 7.256830113031192e-001	 1.559413629607439e+000	-6.003153597177699e+000
1	 7.089562927885509e-001	 1.567088903665430e+000	-6.129640005458481e+000
1	 6.921811963374156e-001	 1.574570350267766e+000	-6.236746712137887e+000
1	 6.753609667693055e-001	 1.581857795179509e+000	-6.323607910911797e+000
1	 8.541832859064348e-001	 1.523550570782039e+000	-5.199756121366207e+000
1	 8.376338423235072e-001	 1.532711666728574e+000	-5.445403520581396e+000
1	 8.210120792840733e-001	 1.541679192936644e+000	-5.679904506256575e+000
1	 8.043213097010831e-001	 1.550452463625108e+000	-5.902111268870160e+000
1	 7.875648498304384e-001	 1.559030866729012e+000	-6.110905222930725e+000
1	 7.707460172750591e-001	 1.567413863661173e+000	-6.305199093818866e+000
1	 7.538681290076296e-001	 1.575600989010834e+000	-6.483938921755599e+000
1	 7.369344994142486e-001	 1.583591850180492e+000	-6.646105979775353e+000
1	 7.199484383611615e-001	 1.591386126962113e+000	-6.790718602849478e+000
1	 7.029132492866742e-001	 1.598983571054023e+000	-6.916833925574569e+000
1	 6.858322273202755e-001	 1.606384005519828e+000	-7.023549526113436e+000
1	 8.672249240600692e-001	 1.546812083368872e+000	-5.734056589763493e+000
1	 8.504228041976235e-001	 1.556113050582356e+000	-5.991388138000589e+000
1	 8.335472607079892e-001	 1.565217492641910e+000	-6.238906742714503e+000
1	 8.166016570855321e-001	 1.574124713295916e+000	-6.475440164292759e+000
1	 7.995893602186089e-001	 1.582834091134438e+000	-6.699844019484684e+000
1	 7.825137383631615e-001	 1.591345079347169e+000	-6.911003971364395e+000
1	 7.653781591352729e-001	 1.599657205417480e+000	-7.107837836694292e+000
1	 7.481859875249496e-001	 1.607770070753707e+000	-7.289297607341094e+000
1	 7.309405839333361e-001	 1.615683350258895e+000	-7.454371382663632e+000
1	 7.136453022354947e-001	 1.623396791840312e+000	-7.602085210068638e+000
1	 6.963034878708130e-001	 1.630910215860108e+000	-7.731504831206395e+000
1	 8.802665622133532e-001	 1.570073595956371e+000	-6.259726012078792e+000
1	 8.632117660713863e-001	 1.579514434436757e+000	-6.529402473458373e+000
1	 8.460824421315376e-001	 1.588755792347744e+000	-6.790821649110515e+000
1	 8.288820044695899e-001	 1.597796962967234e+000	-7.042791772981149e+000
1	 8.116138706063589e-001	 1.606637315540310e+000	-7.284147533255593e+000
1	 7.942814594508111e-001	 1.615276295033541e+000	-7.513752356794399e+000
1	 7.768881892624316e-001	 1.623713421824429e+000	-7.730500611368934e+000
1	 7.594374756351380e-001	 1.631948291327146e+000	-7.933319722135328e+000
1	 7.419327295049752e-001	 1.639980573555821e+000	-8.121172199058156e+000
1	 7.243773551837668e-001	 1.647810012626662e+000	-8.293057572275060e+000
1	 7.067747484208015e-001	 1.655436426200365e+000	-8.448014232675506e+000
1	 6.020621429102250e-001	 1.410174322794896e+000	-1.595110679390522e+000
1	 5.870278516030029e-001	 1.416498737301121e+000	-1.608347890133348e+000
1	 5.719590733564497e-001	 1.422650029986620e+000	-1.608799829346465e+000
1	 5.568586712756409e-001	 1.428628231261313e+000	-1.596753979702831e+000
1	 5.417294947976459e-001	 1.434433431836373e+000	-1.572548765112585e+000
1	 5.265743781829089e-001	 1.440065782013029e+000	-1.536572092187875e+000
1	 5.113961390398313e-001	 1.445525490928912e+000	-1.489259833107155e+000
1	 4.961975768838239e-001	 1.450812825763512e+000	-1.431094254077516e+000
1	 4.809814717320292e-001	 1.455928110904371e+000	-1.362602393635175e+000
1	 4.657505827348304e-001	 1.460871727075660e+000	-1.284354395049885e+000
1	 4.505076468451836e-001	 1.465644110430823e+000	-1.196961797113799e+000
1	 6.125334034609495e-001	 1.434700533135920e+000	-2.257326865902021e+000
1	 5.972376308707766e-001	 1.441134943915833e+000	-2.269225052005830e+000
1	 5.819067715331873e-001	 1.447393221884075e+000	-2.267971989513252e+000
1	 5.665437383493174e-001	 1.453475397979446e+000	-2.253825865699305e+000
1	 5.511514303145781e-001	 1.459381564490778e+000	-2.227096751585889e+000
1	 5.357327309837993e-001	 1.465111874333371e+000	-2.188145170425429e+000
1	 5.202905069701495e-001	 1.470666540282229e+000	-2.137380605488727e+000
1	 5.048276064791278e-001	 1.476045834163695e+000	-2.075259951348552e+000
1	 4.893468578788444e-001	 1.481250086007147e+000	-2.002285912895782e+000
1	 4.738510683077294e-001	 1.486279683158419e+000	-1.919005356356848e+000
1	 4.583430223207198e-001	 1.491135069356658e+000	-1.826007616599830e+000
1	 6.230046640120596e-001	 1.459226743476797e+000	-2.922647722692138e+000
1	 6.074474101389679e-001	 1.465771150530428e+000	-2.936480242139899e+000
1	 5.918544697103533e-001	 1.472136413781435e+000	-2.937051932059965e+000
1	 5.762288054234166e-001	 1.478322564697501e+000	-2.924552291985774e+000
1	 5.605733658319158e-001	 1.484329697145122e+000	-2.899223485701438e+000
1	 5.448910837850698e-001	 1.490157966653669e+000	-2.861359007250450e+000
1	 5.291848749008191e-001	 1.495807589635517e+000	-2.811302283032620e+000
1	 5.134576360747548e-001	 1.501278842563868e+000	-2.749445214054864e+000
1	 4.977122440259597e-001	 1.506572061109939e+000	-2.676226662458152e+000
1	 4.819515538809139e-001	 1.511687639241224e+000	-2.592130886485340e+000
1	 4.661783977965402e-001	 1.516626028282580e+000	-2.497685928084653e+000
1	 6.334759245634387e-001	 1.483752953817541e+000	-3.591919622150276e+000
1	 6.176571894074571e-001	 1.490407357144906e+000	-3.610923294988343e+000
1	 6.018021678878300e-001	 1.496879605678688e+000	-3.616793056661844e+000
1	 5.859138724978267e-001	 1.503169731415457e+000	-3.609612210155751e+000
1	 5.699953013495547e-001	 1.509277829799371e+000	-3.589517341663802e+000
1	 5.540494365866255e-001	 1.515204058973874e+000	-3.556697152803503e+000
1	 5.380792428317556e-001	 1.520948638988721e+000	-3.511391224610789e+000
1	 5.220876656706315e-001	 1.526511850963969e+000	-3.453888717140571e+000
1	 5.060776301733108e-001	 1.531894036212673e+000	-3.384527008570041e+000
1	 4.900520394543282e-001	 1.537095595323997e+000	-3.303690277762035e+000
1	 4.740137732725954e-001	 1.542116987208505e+000	-3.211808034291192e+000
1	 6.439471851149695e-001	 1.508279164158169e+000	-4.265933885032338e+000
1	 6.278669686761252e-001	 1.515043563759268e+000	-4.293311369952624e+000
1	 6.117498660655004e-001	 1.521622797575824e+000	-4.307899758699135e+000
1	 5.955989395724353e-001	 1.528016898133288e+000	-4.309640409925329e+000
1	 5.794172368673897e-001	 1.534225962453487e+000	-4.298528423336247e+000
1	 5.632077893883719e-001	 1.540250151293942e+000	-4.274611705083563e+000
1	 5.469736107628745e-001	 1.546089688341782e+000	-4.237989959568421e+000
1	 5.307176952666834e-001	 1.551744859363929e+000	-4.188813611124642e+000
1	 5.144430163208340e-001	 1.557216011315279e+000	-4.127282659147052e+000
1	 4.981525250279170e-001	 1.562503551406660e+000	-4.053645470312760e+000
1	 4.818491487488355e-001	 1.567607946134351e+000	-3.968197511609920e+000
1	 6.544184456665354e-001	 1.532805374498695e+000	-4.945431184829491e+000
1	 6.380767479448531e-001	 1.539679770373518e+000	-4.984353165614430e+000
1	 6.216975642432467e-001	 1.546365989472827e+000	-5.011031349812479e+000
1	 6.052840066471301e-001	 1.552864064850969e+000	-5.025231052274505e+000
1	 5.888391723853175e-001	 1.559174095107435e+000	-5.026771626033241e+000
1	 5.723661421902138e-001	 1.565296243613825e+000	-5.015525826255026e+000
1	 5.558679786940914e-001	 1.571230737694648e+000	-4.991419094188919e+000
1	 5.393477248628367e-001	 1.576977867763687e+000	-4.954428764121812e+000
1	 5.228084024684643e-001	 1.582537986417684e+000	-4.904583196467701e+000
1	 5.062530106016239e-001	 1.587911507489136e+000	-4.841960840227339e+000
1	 4.896845242252109e-001	 1.593098905060032e+000	-4.766689228152524e+000
1	 6.648897062180196e-001	 1.557331584839138e+000	-5.631105535954036e+000
1	 6.482865272135217e-001	 1.564315976987654e+000	-5.684712735751414e+000
1	 6.316452624209525e-001	 1.571109181369688e+000	-5.726805607992474e+000
1	 6.149690737218001e-001	 1.577711231568476e+000	-5.756940868730175e+000
1	 5.982611079032335e-001	 1.584122227761179e+000	-5.774729408994777e+000
1	 5.815244949920564e-001	 1.590342335933476e+000	-5.779836021181352e+000
1	 5.647623466253220e-001	 1.596371787047260e+000	-5.771979038011114e+000
1	 5.479777544590173e-001	 1.602210876163178e+000	-5.750929886501580e+000
1	 5.311737886161385e-001	 1.607859961519817e+000	-5.716512559533162e+000
1	 5.143534961753934e-001	 1.613319463571345e+000	-5.668603007741494e+000
1	 4.975198997016720e-001	 1.618589863985467e+000	-5.607128454592806e+000
1	 6.753609667693055e-001	 1.581857795179509e+000	-6.323607910911795e+000
1	 6.584963064820117e-001	 1.588952183601679e+000	-6.395012950356115e+000
1	 6.415929605985001e-001	 1.595852373266394e+000	-6.455801997411123e+000
1	 6.246541407963321e-001	 1.602558398285783e+000	-6.505292063026210e+000
1	 6.076830434210330e-001	 1.609070360414681e+000	-6.542854309942237e+000
1	 5.906828477938049e-001	 1.615388428252850e+000	-6.567914203990592e+000
1	 5.736567145564815e-001	 1.621512836399564e+000	-6.579951569550648e+000
1	 5.566077840551514e-001	 1.627443884562336e+000	-6.578500550921437e+000
1	 5.395391747637919e-001	 1.633181936621605e+000	-6.563149481553151e+000
1	 5.224539817491696e-001	 1.638727419653209e+000	-6.533540663262583e+000
1	 5.053552751781693e-001	 1.644080822910571e+000	-6.489370057724712e+000
1	 6.858322273202755e-001	 1.606384005519828e+000	-7.023549526113435e+000
1	 6.687060857502040e-001	 1.613588390215593e+000	-7.115838639598334e+000
1	 6.515406587757721e-001	 1.620595565162931e+000	-7.198564593291679e+000
1	 6.343392078706145e-001	 1.627405565002866e+000	-7.270774946948738e+000
1	 6.171049789386121e-001	 1.634018493067907e+000	-7.331571229281616e+000
1	 5.998412005953645e-001	 1.640434520571898e+000	-7.380109575327385e+000
1	 5.825510824874860e-001	 1.646653885751501e+000	-7.415601258588337e+000
1	 5.652378136511652e-001	 1.652676892961099e+000	-7.437313118917968e+000
1	 5.479045609113603e-001	 1.658503911722977e+000	-7.444567887355613e+000
1	 5.305544673228969e-001	 1.664135375734651e+000	-7.436744409333612e+000
1	 5.131906506546526e-001	 1.669571781835260e+000	-7.413277767895978e+000
1	 6.963034878708130e-001	 1.630910215860108e+000	-7.731504831206397e+000
1	 6.789158650179793e-001	 1.638224596829399e+000	-7.847739454107627e+000
1	 6.614883569526509e-001	 1.645338757059289e+000	-7.955604742867112e+000
1	 6.440242749445354e-001	 1.652252731719701e+000	-8.053850338348727e+000
1	 6.265269144558660e-001	 1.658966625720819e+000	-8.141279508202922e+000
1	 6.089995533966401e-001	 1.665480612890576e+000	-8.216750330220748e+000
1	 5.914454504182501e-001	 1.671794935103017e+000	-8.279176760126084e+000
1	 5.738678432469846e-001	 1.677909901359400e+000	-8.327529583891064e+000
1	 5.562699470587798e-001	 1.683825886823860e+000	-8.360837254937325e+000
1	 5.386549528965191e-001	 1.689543331815590e+000	-8.378186616856324e+000
1	 5.210260261310727e-001	 1.695062740759449e+000	-8.378723512542264e+000
1	 7.067747484208015e-001	 1.655436426200365e+000	-8.448014232675506e+000
1	 6.891256442852183e-001	 1.662860803443095e+000	-8.591232470995953e+000
1	 6.714360551290197e-001	 1.670081948955455e+000	-8.727403489796869e+000
1	 6.537093420179819e-001	 1.677099898436262e+000	-8.854951745987400e+000
1	 6.359488499726910e-001	 1.683914758373383e+000	-8.972354822049883e+000
1	 6.181579061975374e-001	 1.690526705208835e+000	-9.078145214133347e+000
1	 6.003398183486900e-001	 1.696935984454057e+000	-9.170911993318629e+000
1	 5.824978728425352e-001	 1.703142909757176e+000	-9.249302339152356e+000
1	 5.646353332059857e-001	 1.709147861924183e+000	-9.312022944875407e+000
1	 5.467554384699808e-001	 1.714951287895949e+000	-9.357841294095115e+000
1	 5.288614016073797e-001	 1.720553699683057e+000	-9.385586808964909e+000
1	 4.505076468451836e-001	 1.465644110430823e+000	-1.196961797113799e+000
1	 4.352553773090560e-001	 1.470245751245001e+000	-1.100682332275193e+000
1	 4.199964617822380e-001	 1.474677191845686e+000	-9.962164917561827e-001
1	 4.047335618101466e-001	 1.478939026711766e+000	-8.848959831721776e-001
1	 3.894693118802304e-001	 1.483031901808773e+000	-7.680846250633633e-001
1	 3.742063182928812e-001	 1.486956513530291e+000	-6.471751191627837e-001
1	 3.589471580746028e-001	 1.490713607613841e+000	-5.235858452162979e-001
1	 3.436943779339139e-001	 1.494303978033006e+000	-3.987576842066662e-001
1	 3.284504932603850e-001	 1.497728465867564e+000	-2.741508756107384e-001
1	 3.132179871671365e-001	 1.500987958153400e+000	-1.512419140855869e-001
1	 2.979993095770399e-001	 1.504083386713946e+000	-3.152049073832768e-002
1	 4.583430223207198e-001	 1.491135069356658e+000	-1.826007616599830e+000
1	 4.428254803534434e-001	 1.495816743404018e+000	-1.723706708761511e+000
1	 4.273011768062746e-001	 1.500325257060339e+000	-1.612961288942918e+000
1	 4.117728195150919e-001	 1.504661215143897e+000	-1.495087127850757e+000
1	 3.962430887872050e-001	 1.508825274855079e+000	-1.371435547836884e+000
1	 3.807146362526286e-001	 1.512818144699393e+000	-1.243390109539406e+000
1	 3.651900837583481e-001	 1.516640583384481e+000	-1.112363317518193e+000
1	 3.496720223060635e-001	 1.520293398692991e+000	-9.797933510084603e-001
1	 3.341630110338178e-001	 1.523777446333049e+000	-8.471408256916522e-001
1	 3.186655762418404e-001	 1.527093628768171e+000	-7.158855921505100e-001
1	 3.031822104628572e-001	 1.530242894028381e+000	-5.875235764316518e-001
1	 4.661783977965402e-001	 1.516626028282580e+000	-2.497685928084653e+000
1	 4.503955833981298e-001	 1.521387735563174e+000	-2.393472347273300e+000
1	 4.346058918306376e-001	 1.525973322275190e+000	-2.280518632864498e+000
1	 4.188120772204008e-001	 1.530383403576289e+000	-2.160087991453626e+000
1	 4.030168656945870e-001	 1.534618647901714e+000	-2.033482847394244e+000
1	 3.872229542128294e-001	 1.538679775868886e+000	-1.902041500181336e+000
1	 3.714330094425919e-001	 1.542567559155575e+000	-1.767134795613636e+000
1	 3.556496666787524e-001	 1.546282819353483e+000	-1.630162817060848e+000
1	 3.398755288078220e-001	 1.549826426799085e+000	-1.492551602943897e+000
1	 3.241131653171372e-001	 1.553199299383525e+000	-1.355749896307719e+000
1	 3.083651113492741e-001	 1.556402401343417e+000	-1.221225932129295e+000
1	 4.740137732725954e-001	 1.542116987208505e+000	-3.211808034291192e+000
1	 4.579656864430685e-001	 1.546958727722380e+000	-3.109634172976260e+000
1	 4.419106068552816e-001	 1.551621387490147e+000	-2.998375154598204e+000
1	 4.258513349260272e-001	 1.556105592008849e+000	-2.879206747132849e+000
1	 4.097906426023272e-001	 1.560412020948581e+000	-2.753347821342719e+000
1	 3.937312721734311e-001	 1.564541407038679e+000	-2.622057033732422e+000
1	 3.776759351272775e-001	 1.568494534927030e+000	-2.486629516448701e+000
1	 3.616273110519196e-001	 1.572272240014395e+000	-2.348393580586537e+000
1	 3.455880465823344e-001	 1.575875407265591e+000	-2.208707439155727e+000
1	 3.295607543929611e-001	 1.579304969999389e+000	-2.068955955747187e+000
1	 3.135480122362239e-001	 1.582561908658987e+000	-1.930547424708729e+000
1	 4.818491487488355e-001	 1.567607946134351e+000	-3.968197511609920e+000
1	 4.655357894882131e-001	 1.572529719881547e+000	-3.871869556159650e+000
1	 4.492153218801609e-001	 1.577269452705120e+000	-3.766050876902529e+000
1	 4.328905926319242e-001	 1.581827780441484e+000	-3.651796567378428e+000
1	 4.165644195103765e-001	 1.586205393995588e+000	-3.530208921801796e+000
1	 4.002395901343810e-001	 1.590403038208677e+000	-3.402434196980491e+000
1	 3.839188608123486e-001	 1.594421510698755e+000	-3.269659372762185e+000
1	 3.676049554255053e-001	 1.598261660675640e+000	-3.133108917538880e+000
1	 3.513005643572911e-001	 1.601924387732485e+000	-2.994041565153107e+000
1	 3.350083434692461e-001	 1.605410640615688e+000	-2.853747109347141e+000
1	 3.187309131236400e-001	 1.608721415975027e+000	-2.713543221686401e+000
1	 4.896845242252109e-001	 1.593098905060032e+000	-4.766689228152524e+000
1	 4.731058925335175e-001	 1.598100712040590e+000	-4.679876516529783e+000
1	 4.565200369052304e-001	 1.602917517920015e+000	-4.583096542738977e+000
1	 4.399298503380454e-001	 1.607549968874099e+000	-4.477252023877234e+000
1	 4.233381964186858e-001	 1.611998767042638e+000	-4.363297182795459e+000
1	 4.067479080956263e-001	 1.616264669378785e+000	-4.242234641024811e+000
1	 3.901617864977485e-001	 1.620348486470660e+000	-4.115112300264893e+000
1	 3.735825997994487e-001	 1.624251081337129e+000	-3.983020218970006e+000
1	 3.570130821326285e-001	 1.627973368199685e+000	-3.847087490406059e+000
1	 3.404559325459264e-001	 1.631516311232345e+000	-3.708479128370968e+000
1	 3.239138140114558e-001	 1.634880923291471e+000	-3.568392966581736e+000
1	 4.975198997016720e-001	 1.618589863985467e+000	-5.607128454592806e+000
1	 4.806759955789353e-001	 1.623671704199418e+000	-5.533372097185416e+000
1	 4.638247519304444e-001	 1.628565583134742e+000	-5.449091196229660e+000
1	 4.469691080443440e-001	 1.633272157306602e+000	-5.355005827560315e+000
1	 4.301119733272060e-001	 1.637792140089639e+000	-5.251892079724678e+000
1	 4.132562260571145e-001	 1.642126300548911e+000	-5.140579128699378e+000
1	 3.964047121834209e-001	 1.646275462242652e+000	-5.021946289685906e+000
1	 3.795602441736897e-001	 1.650240501998774e+000	-4.896920052464779e+000
1	 3.627255999082826e-001	 1.654022348667107e+000	-4.766471106652304e+000
1	 3.459035216229358e-001	 1.657621981849287e+000	-4.631611363052947e+000
1	 3.290967148996046e-001	 1.661040430608253e+000	-4.493390977136132e+000
1	 5.053552751781693e-001	 1.644080822910571e+000	-6.489370057724712e+000
1	 4.882460986244200e-001	 1.649242696357944e+000	-6.432090889858761e+000
1	 4.711294669557573e-001	 1.654213648349210e+000	-6.363639988654312e+000
1	 4.540083657507736e-001	 1.658994345738900e+000	-6.284525871917937e+000
1	 4.368857502358878e-001	 1.663585513136496e+000	-6.195317774025543e+000
1	 4.197645440187933e-001	 1.667987931718962e+000	-6.096642952028230e+000
1	 4.026476378693090e-001	 1.672202438014639e+000	-5.989183955866957e+000
1	 3.855378885481678e-001	 1.676229922660488e+000	-5.873675869057536e+000
1	 3.684381176841902e-001	 1.680071329134671e+000	-5.750903526106699e+000
1	 3.513511107002089e-001	 1.683727652466438e+000	-5.621698712800299e+000
1	 3.342796157880199e-001	 1.687199937925307e+000	-5.486937355372977e+000
1	 5.131906506546526e-001	 1.669571781835260e+000	-7.413277767895978e+000
1	 4.958162016699257e-001	 1.674813688516081e+000	-7.375783695256791e+000
1	 4.784341819811238e-001	 1.679861713563327e+000	-7.326372185434971e+000
1	 4.610476234572875e-001	 1.684716534170897e+000	-7.265312547169555e+000
1	 4.436595271446824e-001	 1.689378886183114e+000	-7.192939701845686e+000
1	 4.262728619806095e-001	 1.693849562888843e+000	-7.109651769477517e+000
1	 4.088905635553564e-001	 1.698129413786532e+000	-7.015907604369696e+000
1	 3.915155329228229e-001	 1.702219343322185e+000	-6.912224286643214e+000
1	 3.741506354602876e-001	 1.706120309602293e+000	-6.799174575745845e+000
1	 3.567986997776794e-001	 1.709833323083725e+000	-6.677384331987224e+000
1	 3.394625166766352e-001	 1.713359445242568e+000	-6.547529912045468e+000
1	 5.210260261310727e-001	 1.695062740759449e+000	-8.378723512542264e+000
1	 5.033863047154056e-001	 1.700384680673738e+000	-8.364216304279200e+000
1	 4.857388970064985e-001	 1.705509778777000e+000	-8.336939352950573e+000
1	 4.680868811638395e-001	 1.710438722602501e+000	-8.296896296776906e+000
1	 4.504333040535402e-001	 1.715172259229400e+000	-8.244161470525482e+000
1	 4.327811799425113e-001	 1.719711194058462e+000	-8.178877818812799e+000
1	 4.151334892415067e-001	 1.724056389558237e+000	-8.101254743224063e+000
1	 3.974931772975942e-001	 1.728208763983774e+000	-8.011565889197986e+000
1	 3.798631532365108e-001	 1.732169290069892e+000	-7.910146878604524e+000
1	 3.622462888552815e-001	 1.735938993701071e+000	-7.797392993906355e+000
1	 3.446454175653834e-001	 1.739518952559972e+000	-7.673756819742572e+000
1	 5.288614016073797e-001	 1.720553699683057e+000	-9.385586808964909e+000
1	 5.109564077608135e-001	 1.725955672830829e+000	-9.397168387578359e+000
1	 4.930436120318358e-001	 1.731157843990140e+000	-9.395013706531968e+000
1	 4.751261388703822e-001	 1.736160911033619e+000	-9.378835391167039e+000
1	 4.572070809624126e-001	 1.740965632275259e+000	-9.348422030960670e+000
1	 4.392894979044454e-001	 1.745572825227723e+000	-9.303636466608026e+000
1	 4.213764149277031e-001	 1.749983365329664e+000	-9.244413993652030e+000
1	 4.034708216724216e-001	 1.754198184645169e+000	-9.170760488313723e+000
1	 3.855756710127967e-001	 1.758218270537386e+000	-9.082750461205597e+000
1	 3.676938779329494e-001	 1.762044664318403e+000	-8.980525044620471e+000
1	 3.498283184541985e-001	 1.765678459877450e+000	-8.864289919084678e+000
1	 2.979993095770399e-001	 1.504083386713946e+000	-3.152049073832685e-002
1	 2.827991546839796e-001	 1.507015299539558e+000	 8.751972437870308e-002
1	 2.676176157253354e-001	 1.509785191633430e+000	 2.081985596978096e-001
1	 2.524570335663319e-001	 1.512394122787768e+000	 3.286890010605007e-001
1	 2.373197127666052e-001	 1.514843192712843e+000	 4.471711966522297e-001
1	 2.222079208870836e-001	 1.517133539803352e+000	 5.618355883225630e-001
1	 2.071238878404339e-001	 1.519266339896488e+000	 6.708859457066865e-001
1	 1.920698052848553e-001	 1.521242805023325e+000	 7.725422999537307e-001
1	 1.770478260609259e-001	 1.523064182155104e+000	 8.650437741973813e-001
1	 1.620600636711550e-001	 1.524731751945949e+000	 9.466513082315027e-001
1	 1.471085918018470e-001	 1.526246827473539e+000	 1.015650275175694e+000
1	 3.031822104628572e-001	 1.530242894028381e+000	-5.875235764316508e-001
1	 2.877176895336974e-001	 1.533225799634873e+000	-4.594243841970124e-001
1	 2.722721083133522e-001	 1.536043866592425e+000	-3.291548860001352e-001
1	 2.568478483801319e-001	 1.538698173125490e+000	-1.985729422654387e-001
1	 2.414472543753198e-001	 1.541189838070859e+000	-6.953234026377200e-002
1	 2.260726332979972e-001	 1.543520019622557e+000	 5.612050203441141e-002
1	 2.107262538441941e-001	 1.545689914068317e+000	 1.765497351786930e-001
1	 1.954103457901381e-001	 1.547700754519251e+000	 2.899331770057115e-001
1	 1.801270994193073e-001	 1.549553809634328e+000	 3.944653077700338e-001
1	 1.648786649929307e-001	 1.551250382341223e+000	 4.883601587927337e-001
1	 1.496671522635357e-001	 1.552791808555088e+000	 5.698540921160705e-001
1	 3.083651113492741e-001	 1.556402401343417e+000	-1.221225932129295e+000
1	 2.926362243840046e-001	 1.559436299730789e+000	-1.086207319680087e+000
1	 2.769266009019342e-001	 1.562302541552006e+000	-9.481229955733233e-001
1	 2.612386631944633e-001	 1.565002223463775e+000	-8.088175161202083e-001
1	 2.455747959845260e-001	 1.567536483429407e+000	-6.701350814020022e-001
1	 2.299373457093609e-001	 1.569906499442260e+000	-5.339161327667050e-001
1	 2.143286198483649e-001	 1.572113488240614e+000	-4.019940444685061e-001
1	 1.987508862957979e-001	 1.574158704015620e+000	-2.761919132644818e-001
1	 1.832063727780419e-001	 1.576043437113978e+000	-1.583194494408403e-001
1	 1.676972663150494e-001	 1.577769012736919e+000	-5.016997239758070e-002
1	 1.522257127255744e-001	 1.579336789637071e+000	 4.648248641928252e-002
1	 3.135480122362239e-001	 1.582561908658987e+000	-1.930547424708729e+000
1	 2.975547592348355e-001	 1.585646799827250e+000	-1.790545631537938e+000
1	 2.815810934910186e-001	 1.588561216512131e+000	-1.646213389101031e+000
1	 2.656294780092664e-001	 1.591306273802593e+000	-1.499340048704788e+000
1	 2.497023375941673e-001	 1.593883128788470e+000	-1.351718931990885e+000
1	 2.338020581211211e-001	 1.596292979262458e+000	-1.205143878847680e+000
1	 2.179309858528945e-001	 1.598537062413384e+000	-1.061405884226698e+000
1	 2.020914268017831e-001	 1.600616653512443e+000	-9.222898279312689e-001
1	 1.862856461370760e-001	 1.602533064594071e+000	-7.895713011050634e-001
1	 1.705158676374521e-001	 1.604287643133056e+000	-6.650135328078313e-001
1	 1.547842731878955e-001	 1.605881770719505e+000	-5.503644197279840e-001
1	 3.187309131236400e-001	 1.608721415975027e+000	-2.713543221686400e+000
1	 3.024732940861249e-001	 1.611857299924204e+000	-2.570304394499455e+000
1	 2.862355860805422e-001	 1.614819891472758e+000	-2.421095801573020e+000
1	 2.700202928244812e-001	 1.617610324141914e+000	-2.267611791490198e+000
1	 2.538298792041875e-001	 1.620229774148032e+000	-2.111555602459458e+000
1	 2.376667705332243e-001	 1.622679459083146e+000	-1.954635915825031e+000
1	 2.215333518577310e-001	 1.624960636586633e+000	-1.798563490847116e+000
1	 2.054319673080420e-001	 1.627074603009736e+000	-1.645047885037182e+000
1	 1.893649194963556e-001	 1.629022692074626e+000	-1.495794264000434e+000
1	 1.733344689600799e-001	 1.630806273529654e+000	-1.352500304407236e+000
1	 1.573428336504320e-001	 1.632426751802406e+000	-1.216853193385754e+000
1	 3.239138140114558e-001	 1.634880923291471e+000	-3.568392966581736e+000
1	 3.073918289378070e-001	 1.638067800021593e+000	-3.423485325892203e+000
1	 2.908900786704420e-001	 1.641078566433846e+000	-3.270589112996464e+000
1	 2.744111076400478e-001	 1.643914374481710e+000	-3.111265844595677e+000
1	 2.579574208145298e-001	 1.646576419508075e+000	-2.947091423201044e+000
1	 2.415314829456166e-001	 1.649065938904318e+000	-2.779652749937332e+000
1	 2.251357178628226e-001	 1.651384210760366e+000	-2.610544408641411e+000
1	 2.087725078145225e-001	 1.653532552507511e+000	-2.441365425719865e+000
1	 1.924441928558265e-001	 1.655512319555662e+000	-2.273716109913591e+000
1	 1.761530702828740e-001	 1.657324903926732e+000	-2.109194975802896e+000
1	 1.599013941131164e-001	 1.658971732885789e+000	-1.949395754569454e+000
1	 3.290967148996046e-001	 1.661040430608253e+000	-4.493390977136130e+000
1	 3.123103637898164e-001	 1.664278300119365e+000	-4.348216025810830e+000
1	 2.955445712606549e-001	 1.667337241395350e+000	-4.192649604069256e+000
1	 2.788019224559066e-001	 1.670218424821950e+000	-4.028084412123356e+000
1	 2.620849624251379e-001	 1.672923064868585e+000	-3.855933594238912e+000
1	 2.453961953582447e-001	 1.675452418725971e+000	-3.677627463133421e+000
1	 2.287380838681175e-001	 1.677807784934590e+000	-3.494610283404374e+000
1	 2.121130483211732e-001	 1.679990502005783e+000	-3.308337118592759e+000
1	 1.955234662154353e-001	 1.682001947037197e+000	-3.120270746198983e+000
1	 1.789716716057754e-001	 1.683843534324309e+000	-2.931878644671181e+000
1	 1.624599545758813e-001	 1.685516713969673e+000	-2.744630056092801e+000
1	 3.342796157880199e-001	 1.687199937925307e+000	-5.486937355372977e+000
1	 3.172288986420876e-001	 1.690488800217466e+000	-5.342740218252120e+000
1	 3.001990638511178e-001	 1.693595916357230e+000	-5.185360304406000e+000
1	 2.831927372719975e-001	 1.696522475162606e+000	-5.015987243104906e+000
1	 2.662125040359551e-001	 1.699269710229544e+000	-4.835837714059611e+000
1	 2.492609077710546e-001	 1.701838898548099e+000	-4.646152334410334e+000
1	 2.323404498735637e-001	 1.704231359109308e+000	-4.448192590234269e+000
1	 2.154535888279422e-001	 1.706448451504562e+000	-4.243237817288350e+000
1	 1.986027395751276e-001	 1.708491574519248e+000	-4.032582235441514e+000
1	 1.817902729287252e-001	 1.710362164722407e+000	-3.817532040983309e+000
1	 1.650185150386595e-001	 1.712061695054074e+000	-3.599402560729077e+000
1	 3.394625166766352e-001	 1.713359445242568e+000	-6.547529912045467e+000
1	 3.221474334945552e-001	 1.716699300315839e+000	-6.405408886238036e+000
1	 3.048535564417678e-001	 1.719854591319444e+000	-6.246921316549985e+000
1	 2.875835520882611e-001	 1.722826525503650e+000	-6.073021131347273e+000
1	 2.703400456469252e-001	 1.725616355590934e+000	-5.884696450902292e+000
1	 2.531256201839929e-001	 1.728225378370697e+000	-5.682966686740508e+000
1	 2.359428158791093e-001	 1.730654933284528e+000	-5.468879668795876e+000
1	 2.187941293347777e-001	 1.732906401003865e+000	-5.243508805167625e+000
1	 2.016820129348497e-001	 1.734981202001836e+000	-5.007950279042217e+000
1	 1.846088742516645e-001	 1.736880795121043e+000	-4.763320287113960e+000
1	 1.675770755013836e-001	 1.738606676139007e+000	-4.510752323600280e+000
1	 3.446454175653834e-001	 1.739518952559972e+000	-7.673756819742572e+000
1	 3.270659683471535e-001	 1.742909800414432e+000	-7.534672206818057e+000
1	 3.095080490325418e-001	 1.746113266281949e+000	-7.375641013049820e+000
1	 2.919743669046372e-001	 1.749130575845050e+000	-7.197350362709156e+000
1	 2.744675872579915e-001	 1.751963000952741e+000	-7.000529236239035e+000
1	 2.569903325970060e-001	 1.754611858193762e+000	-6.785945830572702e+000
1	 2.395451818847027e-001	 1.757078507460254e+000	-6.554404928393692e+000
1	 2.221346698416279e-001	 1.759364350503703e+000	-6.306745281171677e+000
1	 2.047612862945476e-001	 1.761470829484977e+000	-6.043837010622192e+000
1	 1.874274755745342e-001	 1.763399425520239e+000	-5.766579033047189e+000
1	 1.701356359639863e-001	 1.765151657224491e+000	-5.475896510815014e+000
1	 3.498283184541985e-001	 1.765678459877450e+000	-8.864289919084678e+000
1	 3.319845031998169e-001	 1.769120300513190e+000	-8.729072202995537e+000
1	 3.141625416233765e-001	 1.772371941244703e+000	-8.569928016058141e+000
1	 2.963651817210658e-001	 1.775434626186778e+000	-8.387248011550710e+000
1	 2.785951288690975e-001	 1.778309646314947e+000	-8.181472874436050e+000
1	 2.608550450100400e-001	 1.780998338017287e+000	-7.953090990181723e+000
1	 2.431475478902918e-001	 1.783502081636491e+000	-7.702636101535089e+000
1	 2.254752103484412e-001	 1.785822300004091e+000	-7.430684958097732e+000
1	 2.078405596541675e-001	 1.787960456968690e+000	-7.137854963404941e+000
1	 1.902460768972755e-001	 1.789918055920011e+000	-6.824801824070450e+000
1	 1.726941964264004e-001	 1.791696638310540e+000	-6.492217205402545e+000
1	 1.471085918018470e-001	 1.526246827473539e+000	 1.015650275175692e+000
1	 1.321932148552253e-001	 1.527610946368682e+000	 1.075438492324829e+000
1	 1.173181978656277e-001	 1.528825244973612e+000	 1.129133921851988e+000
1	 1.024855234592909e-001	 1.529891127063641e+000	 1.174683977693447e+000
1	 8.769713199627979e-002	 1.530810023842251e+000	 1.210083259344603e+000
1	 7.295492130094994e-002	 1.531583392679665e+000	 1.233375713356319e+000
1	 5.826074643223184e-002	 1.532212715858080e+000	 1.242656654961817e+000
1	 4.361641949297316e-002	 1.532699499324805e+000	 1.236074650515974e+000
1	 2.902370947754151e-002	 1.533045271454459e+000	 1.211833261709120e+000
1	 1.448434215685826e-002	 1.533251581821384e+000	 1.168192652783627e+000
1	 0.000000000000000e+000	 1.533319999983334e+000	 1.103471062235897e+000
1	 1.496671522635357e-001	 1.552791808555088e+000	 5.698540921160685e-001
1	 1.344923622314420e-001	 1.554179652649703e+000	 6.425094100352283e-001
1	 1.193586341098445e-001	 1.555415070730929e+000	 7.095111568634951e-001
1	 1.042679850074528e-001	 1.556499490988984e+000	 7.686149798491667e-001
1	 8.922238903169807e-002	 1.557434369519299e+000	 8.176228967080529e-001
1	 7.422377701450698e-002	 1.558221189039145e+000	 8.543858200460829e-001
1	 5.927403627859138e-002	 1.558861457611046e+000	 8.768059317687562e-001
1	 4.437501044347406e-002	 1.559356707374226e+000	 8.828389078354739e-001
1	 2.952849927044121e-002	 1.559708493285285e+000	 8.704959940299797e-001
1	 1.473625854557671e-002	 1.559918391869258e+000	 8.378459337204129e-001
1	 0.000000000000000e+000	 1.559987999982150e+000	 7.830167488675320e-001
1	 1.522257127255744e-001	 1.579336789637071e+000	 4.648248641928252e-002
1	 1.367915096080341e-001	 1.580748358931190e+000	 1.353649777615245e-001
1	 1.213990703544734e-001	 1.582004896488756e+000	 2.197186338608786e-001
1	 1.060504465560655e-001	 1.583107854914895e+000	 2.971293172818818e-001
1	 9.074764606759797e-002	 1.584058715196978e+000	 3.652279229786221e-001
1	 7.549263272855974e-002	 1.584858985399321e+000	 4.216932446712811e-001
1	 6.028732612543471e-002	 1.585510199364770e+000	 4.642546823847149e-001
1	 4.513360139441194e-002	 1.586013915424461e+000	 4.906947911779651e-001
1	 3.003328906368742e-002	 1.586371715116971e+000	 4.988516714417673e-001
1	 1.498817493449885e-002	 1.586585201918022e+000	 4.866212014720053e-001
1	 0.000000000000000e+000	 1.586655999981867e+000	 4.519591133450913e-001
1	 1.547842731878955e-001	 1.605881770719505e+000	-5.503644197279840e-001
1	 1.390906569849223e-001	 1.607317065213150e+000	-4.417261903108875e-001
1	 1.234395065994218e-001	 1.608594722247091e+000	-3.358064912684826e-001
1	 1.078329081050230e-001	 1.609716218841355e+000	-2.351686189161253e-001
1	 9.227290310386338e-002	 1.610683060875255e+000	-1.423326861242631e-001
1	 7.676148844298673e-002	 1.611496781760144e+000	-5.977243405359480e-002
1	 6.130061597264214e-002	 1.612158941119188e+000	 1.008778972617222e-002
1	 4.589219234567812e-002	 1.612671123475431e+000	 6.487588643236870e-002
1	 3.053807885719368e-002	 1.613034936949425e+000	 1.022746946554229e-001
1	 1.524009132357377e-002	 1.613252011967577e+000	 1.200245127700361e-001
1	 0.000000000000000e+000	 1.613323999982383e+000	 1.159254559529544e-001
1	 1.573428336504320e-001	 1.632426751802406e+000	-1.216853193385754e+000
1	 1.413898043620276e-001	 1.633885771495591e+000	-1.084773128673491e+000
1	 1.254799428445967e-001	 1.635184548005932e+000	-9.529156739774322e-001
1	 1.096153696542196e-001	 1.636324582768350e+000	-8.239739266766685e-001
1	 9.379816014037826e-002	 1.637307406554097e+000	-7.006001491849183e-001
1	 7.803034415766655e-002	 1.638134578121565e+000	-5.854022780160294e-001
1	 6.231390582009404e-002	 1.638807682874235e+000	-4.809406055350109e-001
1	 4.665078329716386e-002	 1.639328331527060e+000	-3.897246350281203e-001
1	 3.104286865087352e-002	 1.639698158782560e+000	-3.142101093266753e-001
1	 1.549200771275058e-002	 1.639918822017827e+000	-2.567962128289040e-001
1	 0.000000000000000e+000	 1.639991999983600e+000	-2.198229463953875e-001
1	 1.599013941131164e-001	 1.658971732885789e+000	-1.949395754569454e+000
1	 1.436889517392707e-001	 1.660454477778524e+000	-1.790040307401212e+000
1	 1.275203790899055e-001	 1.661774373765276e+000	-1.627725890905441e+000
1	 1.113978312035494e-001	 1.662932946695862e+000	-1.465257232540781e+000
1	 9.532341717702637e-002	 1.663931752233472e+000	-1.305401062207942e+000
1	 7.929919987247772e-002	 1.664772374483535e+000	-1.150882337072881e+000
1	 6.332719566767064e-002	 1.665456424629846e+000	-1.004380644163874e+000
1	 4.740937424876045e-002	 1.665985539579266e+000	-8.685267817152850e-001
1	 3.154765844464044e-002	 1.666361380616284e+000	-7.458995198054175e-001
1	 1.574392410197837e-002	 1.666585632068675e+000	-6.390225404237107e-001
1	 0.000000000000000e+000	 1.666659999985417e+000	-5.503615567085727e-001
1	 1.624599545758813e-001	 1.685516713969673e+000	-2.744630056092798e+000
1	 1.459880991165724e-001	 1.687023184061957e+000	-2.554027518045801e+000
1	 1.295608153352552e-001	 1.688364199525119e+000	-2.356598731587826e+000
1	 1.131802927529066e-001	 1.689541310623874e+000	-2.155242995339555e+000
1	 9.684867421369169e-002	 1.690556097913347e+000	-1.952824926761397e+000
1	 8.056805558729877e-002	 1.691410170846005e+000	-1.752170420417439e+000
1	 6.434048551525232e-002	 1.692105166385958e+000	-1.556062787922087e+000
1	 4.816796520035917e-002	 1.692642747631972e+000	-1.367239080883141e+000
1	 3.205244823840803e-002	 1.693024602450508e+000	-1.188386597709591e+000
1	 1.599584049120625e-002	 1.693252442120022e+000	-1.022139574717980e+000
1	 0.000000000000000e+000	 1.693327999987733e+000	-8.710760615551959e-001
1	 1.650185150386595e-001	 1.712061695054074e+000	-3.599402560729075e+000
1	 1.482872464938533e-001	 1.713591890345898e+000	-3.373451630706741e+000
1	 1.316012515805531e-001	 1.714954025285460e+000	-3.136121435224002e+000
1	 1.149627543021853e-001	 1.716149674552370e+000	-2.890389828243906e+000
1	 9.837393125025805e-002	 1.717180443593689e+000	-2.639203768634925e+000
1	 8.183691130200831e-002	 1.718047967208927e+000	-2.385475028862836e+000
1	 6.535377536271937e-002	 1.718753908142505e+000	-2.132076088121720e+000
1	 4.892655615185134e-002	 1.719299955685101e+000	-1.881836211564550e+000
1	 3.255723803208980e-002	 1.719687824285142e+000	-1.637537716827185e+000
1	 1.624775688038331e-002	 1.719919252171772e+000	-1.401912428588036e+000
1	 0.000000000000000e+000	 1.719995999990450e+000	-1.177638321468869e+000
1	 1.675770755013836e-001	 1.738606676139007e+000	-4.510752323600280e+000
1	 1.505863938710343e-001	 1.740160596630359e+000	-4.245230022296176e+000
1	 1.336416878257064e-001	 1.741543851046296e+000	-3.963089664625094e+000
1	 1.167452158512796e-001	 1.742758038481330e+000	-3.667372623466725e+000
1	 9.989918828660938e-002	 1.743804789274466e+000	-3.361093623587160e+000
1	 8.310576701648489e-002	 1.744685763572250e+000	-3.047236217091841e+000
1	 6.636706520995218e-002	 1.745402649899424e+000	-2.728748444948880e+000
1	 4.968514710312822e-002	 1.745957163738571e+000	-2.408538686595742e+000
1	 3.306202782559926e-002	 1.746351046120098e+000	-2.089471699154120e+000
1	 1.649967326945867e-002	 1.746586062223828e+000	-1.774364847312899e+000
1	 0.000000000000000e+000	 1.746663999993467e+000	-1.465984524482706e+000
1	 1.701356359639863e-001	 1.765151657224491e+000	-5.475896510815017e+000
1	 1.528855412480362e-001	 1.766729302915345e+000	-5.166465500074131e+000
1	 1.356821240706222e-001	 1.768133676807624e+000	-4.834491834471010e+000
1	 1.185276774000838e-001	 1.769366402410742e+000	-4.483066289856123e+000
1	 1.014244453226295e-001	 1.770429134955646e+000	-4.115257693636844e+000
1	 8.437462273060702e-002	 1.771323559935927e+000	-3.734108182708631e+000
1	 6.738035505683096e-002	 1.772051391656648e+000	-3.342628647991085e+000
1	 5.044373805408110e-002	 1.772614371792308e+000	-2.943794367934526e+000
1	 3.356681761884998e-002	 1.773014267955283e+000	-2.540540832863872e+000
1	 1.675158965838142e-002	 1.773252872276091e+000	-2.135759761542939e+000
1	 0.000000000000000e+000	 1.773331999996684e+000	-1.732295310873183e+000
1	 1.726941964264004e-001	 1.791696638310540e+000	-6.492217205402545e+000
1	 1.551846886247798e-001	 1.793298009200867e+000	-6.134432565380921e+000
1	 1.377225603152077e-001	 1.794723502569440e+000	-5.747494832681031e+000
1	 1.203101389484920e-001	 1.795974766340585e+000	-5.334530936108614e+000
1	 1.029497023582024e-001	 1.797053480637194e+000	-4.898651000647321e+000
1	 8.564347844425330e-002	 1.797961356299908e+000	-4.442943403007981e+000
1	 6.839364490323611e-002	 1.798700133414114e+000	-3.970470013242025e+000
1	 5.120232900460125e-002	 1.799271579846228e+000	-3.484261625143325e+000
1	 3.407160741175545e-002	 1.799677489790610e+000	-2.987313577652440e+000
1	 1.700350604710066e-002	 1.799919682328466e+000	-2.482581568979650e+000
1	 0.000000000000000e+000	 1.800000000000000e+000	-1.972977664681677e+000
1	 1.800000000000000e+000	 0.000000000000000e+000	 4.377617418576377e+001
1	 1.799919682328466e+000	 1.700350604710072e-002	 4.293166868083961e+001
1	 1.799677489790610e+000	 3.407160741175556e-002	 4.209454043698651e+001
1	 1.799271579846229e+000	 5.120232900460112e-002	 4.126299809732301e+001
1	 1.798700133414114e+000	 6.839364490323605e-002	 4.043522534690119e+001
1	 1.797961356299907e+000	 8.564347844425327e-002	 3.960938286258867e+001
1	 1.797053480637195e+000	 1.029497023582024e-001	 3.878361035506504e+001
1	 1.795974766340585e+000	 1.203101389484920e-001	 3.795602870225761e+001
1	 1.794723502569440e+000	 1.377225603152076e-001	 3.712474217331598e+001
1	 1.793298009200867e+000	 1.551846886247796e-001	 3.628784074199309e+001
1	 1.791696638310540e+000	 1.726941964264003e-001	 3.544340248806122e+001
1	 1.826668000003317e+000	 0.000000000000000e+000	 4.534849414057616e+001
1	 1.826586492380854e+000	 1.725542243558252e-002	 4.446027311763502e+001
1	 1.826340711625984e+000	 3.457639720425813e-002	 4.357854854091600e+001
1	 1.825928787900252e+000	 5.196091995461603e-002	 4.270149412784176e+001
1	 1.825348875171750e+000	 6.940693474908760e-002	 4.182725945115740e+001
1	 1.824599152664132e+000	 8.691233415734241e-002	 4.095397195734909e+001
1	 1.823677826319064e+000	 1.044749593932500e-001	 4.007973907789125e+001
1	 1.822583130270824e+000	 1.220926004964327e-001	 3.920265043254488e+001
1	 1.821313328331721e+000	 1.397629965593995e-001	 3.832078012370175e+001
1	 1.819866715486908e+000	 1.574838360012101e-001	 3.743218912053000e+001
1	 1.818241619397146e+000	 1.752527568885780e-001	 3.653492773143427e+001
1	 1.853336000006534e+000	 0.000000000000000e+000	 4.695704759091876e+001
1	 1.853253302433154e+000	 1.750733882386080e-002	 4.602450946766981e+001
1	 1.853003933461306e+000	 3.508118699641538e-002	 4.509730182464095e+001
1	 1.852585995954273e+000	 5.271951090419778e-002	 4.417357894815424e+001
1	 1.851997616929445e+000	 7.042022459446448e-002	 4.325147332083279e+001
1	 1.851236949028488e+000	 8.818118986995370e-002	 4.232909771985928e+001
1	 1.850302172001139e+000	 1.060002164278468e-001	 4.140454740666919e+001
1	 1.849191494201343e+000	 1.238750620439718e-001	 4.047590240711493e+001
1	 1.847903154094349e+000	 1.418034328032531e-001	 3.954122988090317e+001
1	 1.846435421773350e+000	 1.597829833773704e-001	 3.859858657886695e+001
1	 1.844786600484193e+000	 1.778113173505509e-001	 3.764602138639006e+001
1	 1.880004000009551e+000	 0.000000000000000e+000	 4.859896101573678e+001
1	 1.879920112485265e+000	 1.775925521198643e-002	 4.762118957665948e+001
1	 1.879667155296469e+000	 3.558597678831360e-002	 4.664734527934946e+001
1	 1.879243204008180e+000	 5.347810185345472e-002	 4.567557774649065e+001
1	 1.878646358687084e+000	 7.143351443948540e-002	 4.470401862330689e+001
1	 1.877874745392853e+000	 8.945004558220661e-002	 4.373078376668016e+001
1	 1.876926517683292e+000	 1.075254734621056e-001	 4.275397552224635e+001
1	 1.875799858132006e+000	 1.256575235912099e-001	 4.177168508823122e+001
1	 1.874492979857182e+000	 1.438438690468528e-001	 4.078199496455463e+001
1	 1.873004128060052e+000	 1.620821307533283e-001	 3.978298148548919e+001
1	 1.871331581571538e+000	 1.803698778123701e-001	 3.877271743391447e+001
1	 1.906672000012268e+000	 0.000000000000000e+000	 5.027152165796184e+001
1	 1.906586922537085e+000	 1.801117160001031e-002	 4.924730365700281e+001
1	 1.906330377131368e+000	 3.609076658003917e-002	 4.822541719254804e+001
1	 1.905900412061863e+000	 5.423669280249505e-002	 4.720402130465400e+001
1	 1.905295100444551e+000	 7.244680428426897e-002	 4.618126232745420e+001
1	 1.904512541757102e+000	 9.071890129422063e-002	 4.515527617989122e+001
1	 1.903550863365390e+000	 1.090507304961390e-001	 4.412419073894348e+001
1	 1.902408222062676e+000	 1.274399851382472e-001	 4.308612829375524e+001
1	 1.901082805620080e+000	 1.458843052902832e-001	 4.203920807883950e+001
1	 1.899572834346869e+000	 1.643812781291511e-001	 4.098154888428581e+001
1	 1.897876562659040e+000	 1.829284382740870e-001	 3.991127174065979e+001
1	 1.933340000014584e+000	 0.000000000000000e+000	 5.197216643682355e+001
1	 1.933253732588514e+000	 1.826308798798332e-002	 5.090000798605789e+001
1	 1.932993598965897e+000	 3.659555637167841e-002	 4.982843581666011e+001
1	 1.932557620115213e+000	 5.499528375142715e-002	 4.875563181849252e+001
1	 1.931943842201727e+000	 7.346009412893391e-002	 4.767977185457409e+001
1	 1.931150338121113e+000	 9.198775700611517e-002	 4.659902816392648e+001
1	 1.930175209047304e+000	 1.105759875300598e-001	 4.551157183944784e+001
1	 1.929016585993217e+000	 1.292224466851841e-001	 4.441557537878290e+001
1	 1.927672631382903e+000	 1.479247415336291e-001	 4.330921530592332e+001
1	 1.926141540633660e+000	 1.666804255049063e-001	 4.219067486103546e+001
1	 1.924421543746556e+000	 1.854869987357526e-001	 4.105814675577272e+001
1	 1.960008000016401e+000	 0.000000000000000e+000	 5.369847176532041e+001
1	 1.959920542639449e+000	 1.851500437595633e-002	 5.257661360868738e+001
1	 1.959656820799952e+000	 3.710034616331763e-002	 5.145348712595222e+001
1	 1.959214828168119e+000	 5.575387470035925e-002	 5.032730987593832e+001
1	 1.958592583958498e+000	 7.447338397359885e-002	 4.919630144154510e+001
1	 1.957788134484761e+000	 9.325661271800975e-002	 4.805868595497160e+001
1	 1.956799554728904e+000	 1.121012445639806e-001	 4.691269468854947e+001
1	 1.955624949923494e+000	 1.310049082321211e-001	 4.575656870863506e+001
1	 1.954262457145510e+000	 1.499651777769750e-001	 4.458856158977852e+001
1	 1.952710246920282e+000	 1.689795728806617e-001	 4.340694218615607e+001
1	 1.950966524833943e+000	 1.880455591974182e-001	 4.220999745701815e+001
1	 1.986676000017618e+000	 0.000000000000000e+000	 5.544814418779740e+001
1	 1.986587352689790e+000	 1.876692076398024e-002	 5.427457594970638e+001
1	 1.986320042633429e+000	 3.760513595504324e-002	 5.309781355952449e+001
1	 1.985872036220470e+000	 5.651246564939969e-002	 5.191612248384158e+001
1	 1.985241325714745e+000	 7.548667381838249e-002	 5.072777960229863e+001
1	 1.984425930847923e+000	 9.452546843002384e-002	 4.953107586522571e+001
1	 1.983423900410058e+000	 1.136265015980141e-001	 4.832431900555525e+001
1	 1.982233313853369e+000	 1.327873697791584e-001	 4.710583630186132e+001
1	 1.980852282907762e+000	 1.520056140204056e-001	 4.587397738914937e+001
1	 1.979278953206592e+000	 1.712787202564845e-001	 4.462711711379554e+001
1	 1.977511505921061e+000	 1.906041196591351e-001	 4.336365842881014e+001
1	 2.013344000018134e+000	 0.000000000000000e+000	 5.721901176159055e+001
1	 2.013254162739435e+000	 1.901883715210593e-002	 5.599148525186918e+001
1	 2.012983264466222e+000	 3.810992574694156e-002	 5.475880365893786e+001
1	 2.012529244272157e+000	 5.727105659865670e-002	 5.351929204635768e+001
1	 2.011890067470352e+000	 7.649996366340349e-002	 5.227129758577636e+001
1	 2.011063727210476e+000	 9.579432414227686e-002	 5.101319235680450e+001
1	 2.010048246090639e+000	 1.151517586322731e-001	 4.974337618794866e+001
1	 2.008841677782708e+000	 1.345698313263965e-001	 4.846027953477466e+001
1	 2.007442108669516e+000	 1.540460502640053e-001	 4.716236639125650e+001
1	 2.005847659492447e+000	 1.735778676324424e-001	 4.584813723004788e+001
1	 2.004056487007765e+000	 1.931626801209543e-001	 4.451613196719979e+001
1	 2.040012000017850e+000	 0.000000000000000e+000	 5.900901611465092e+001
1	 2.039920972788282e+000	 1.927075354038426e-002	 5.772505776385010e+001
1	 2.039646486298226e+000	 3.861471553909891e-002	 5.643398251861239e+001
1	 2.039186452323067e+000	 5.802964754823859e-002	 5.513418620781236e+001
1	 2.038538809225204e+000	 7.751325350878056e-002	 5.382409873918565e+001
1	 2.037701523572295e+000	 9.706317985488830e-002	 5.250218705106476e+001
1	 2.036672591770513e+000	 1.166770156668700e-001	 5.116695809009885e+001
1	 2.035450041711373e+000	 1.363522928739358e-001	 4.981696181037856e+001
1	 2.034031934430634e+000	 1.560864865078590e-001	 4.845079418917452e+001
1	 2.032416365777704e+000	 1.758770150086029e-001	 4.706710025429274e+001
1	 2.030601468093916e+000	 1.957212405829273e-001	 4.566457711784698e+001
1	 2.066680000016667e+000	 0.000000000000000e+000	 6.081620511808917e+001
1	 2.066587782836231e+000	 1.952266992886615e-002	 5.947312761047564e+001
1	 2.066309708129336e+000	 3.911950533160163e-002	 5.812100297558181e+001
1	 2.065843660373092e+000	 5.878823849825369e-002	 5.675830848196030e+001
1	 2.065187550979181e+000	 7.852654335463230e-002	 5.538356869478120e+001
1	 2.064339319933258e+000	 9.833203556797766e-002	 5.399535858885679e+001
1	 2.063296937449552e+000	 1.182022727019178e-001	 5.259230667075251e+001
1	 2.062058405639229e+000	 1.381347544218766e-001	 5.117309810457675e+001
1	 2.060621760190974e+000	 1.581269227520511e-001	 4.973647783583793e+001
1	 2.058985072062221e+000	 1.781761623850334e-001	 4.828125370756550e+001
1	 2.057146449179369e+000	 1.982798010451051e-001	 4.680629956270153e+001
1	 1.791696638310540e+000	 1.726941964264003e-001	 3.544340248806122e+001
1	 1.789918055920011e+000	 1.902460768972756e-001	 3.460066699895607e+001
1	 1.787960456968690e+000	 2.078405596541674e-001	 3.376910661394734e+001
1	 1.785822300004091e+000	 2.254752103484413e-001	 3.294753780621254e+001
1	 1.783502081636491e+000	 2.431475478902916e-001	 3.213479845450722e+001
1	 1.780998338017287e+000	 2.608550450100400e-001	 3.132975004924093e+001
1	 1.778309646314947e+000	 2.785951288690977e-001	 3.053127991148189e+001
1	 1.775434626186778e+000	 2.963651817210658e-001	 2.973830342092107e+001
1	 1.772371941244703e+000	 3.141625416233767e-001	 2.894976624868237e+001
1	 1.769120300513190e+000	 3.319845031998169e-001	 2.816464659072712e+001
1	 1.765678459877450e+000	 3.498283184541985e-001	 2.738195739747078e+001
1	 1.818241619397146e+000	 1.752527568885780e-001	 3.653492773143427e+001
1	 1.816436686320356e+000	 1.930646782198457e-001	 3.563867627455542e+001
1	 1.814450084452968e+000	 2.109198330136685e-001	 3.475337733261689e+001
1	 1.812280249505019e+000	 2.288157508551775e-001	 3.387789190990517e+001
1	 1.809925655813227e+000	 2.467499138958354e-001	 3.301110647465386e+001
1	 1.807384817841255e+000	 2.647197574230519e-001	 3.215193517001224e+001
1	 1.804656291677526e+000	 2.827226704801977e-001	 3.129932203096697e+001
1	 1.801738676528800e+000	 3.007559965374987e-001	 3.045224320304493e+001
1	 1.798630616207665e+000	 3.188170342142214e-001	 2.960970915849090e+001
1	 1.795330800612061e+000	 3.369030380524929e-001	 2.877076690548730e+001
1	 1.791837967194950e+000	 3.550112193430273e-001	 2.793450218586489e+001
1	 1.844786600484193e+000	 1.778113173505509e-001	 3.764602138639006e+001
1	 1.842955316721160e+000	 1.958832795422660e-001	 3.669370599310870e+001
1	 1.840939711937706e+000	 2.139991063730644e-001	 3.575208944126782e+001
1	 1.838738199006388e+000	 2.321562913618431e-001	 3.482008471100598e+001
1	 1.836349229990372e+000	 2.503522799013354e-001	 3.389663487103893e+001
1	 1.833771297665584e+000	 2.685844698360398e-001	 3.298071529395904e+001
1	 1.831002937040409e+000	 2.868502120912876e-001	 3.207133586953965e+001
1	 1.828042726871060e+000	 3.051468113539312e-001	 3.116754321164300e+001
1	 1.824889291170791e+000	 3.234715268050728e-001	 3.026842285420941e+001
1	 1.821541300711023e+000	 3.418215729051807e-001	 2.937310143169061e+001
1	 1.817997474512457e+000	 3.601941202318723e-001	 2.848074883918723e+001
1	 1.871331581571538e+000	 1.803698778123701e-001	 3.877271743391447e+001
1	 1.869473947122285e+000	 1.987018808645739e-001	 3.776190253540657e+001
1	 1.867429339422771e+000	 2.170783797323811e-001	 3.676151510544886e+001
1	 1.865196148508078e+000	 2.354968318684564e-001	 3.577052728783005e+001
1	 1.862772804167814e+000	 2.539546459068037e-001	 3.478794649238123e+001
1	 1.860157777490180e+000	 2.724491822490121e-001	 3.381281761402273e+001
1	 1.857349582403519e+000	 2.909777537023743e-001	 3.284422524091005e+001
1	 1.854346777213499e+000	 3.095376261703707e-001	 3.188129584702465e+001
1	 1.851147966134042e+000	 3.281260193959392e-001	 3.092319996444581e+001
1	 1.847751800810049e+000	 3.467401077578917e-001	 2.996915433044155e+001
1	 1.844156981829971e+000	 3.653770211207496e-001	 2.901842400442790e+001
1	 1.897876562659040e+000	 1.829284382740870e-001	 3.991127174065979e+001
1	 1.895992577523594e+000	 2.015204821868070e-001	 3.883962787950720e+001
1	 1.893918966908032e+000	 2.201576530916455e-001	 3.777813505073360e+001
1	 1.891654098009965e+000	 2.388373723750355e-001	 3.672583150700606e+001
1	 1.889196378345448e+000	 2.575570119122527e-001	 3.568179648465978e+001
1	 1.886544257314950e+000	 2.763138946619772e-001	 3.464515242588774e+001
1	 1.883696227766776e+000	 2.951052953134651e-001	 3.361506718018217e+001
1	 1.880650827556055e+000	 3.139284409868237e-001	 3.259075618009531e+001
1	 1.877406641097374e+000	 3.327805119868296e-001	 3.157148458629190e+001
1	 1.873962300909120e+000	 3.516586426106381e-001	 3.055656939678373e+001
1	 1.870316489147490e+000	 3.705599220096755e-001	 2.954538151516577e+001
1	 1.924421543746556e+000	 1.854869987357526e-001	 4.105814675577270e+001
1	 1.922511207924948e+000	 2.043390835090027e-001	 3.992344473126737e+001
1	 1.920408594393359e+000	 2.232369264508839e-001	 3.879862417860135e+001
1	 1.918112047511930e+000	 2.421779128815985e-001	 3.768279617536212e+001
1	 1.915619952523162e+000	 2.611593779176943e-001	 3.657511902861661e+001
1	 1.912930737139797e+000	 2.801786070749439e-001	 3.547480049961871e+001
1	 1.910042873130104e+000	 2.992328369245657e-001	 3.438109999699515e+001
1	 1.906954877898667e+000	 3.183192558032973e-001	 3.329333073317302e+001
1	 1.903665316060748e+000	 3.374350045777525e-001	 3.221086183873529e+001
1	 1.900172801008211e+000	 3.565771774634312e-001	 3.113312042932552e+001
1	 1.896475996465010e+000	 3.757428228986662e-001	 3.005959361967177e+001
1	 1.950966524833943e+000	 1.880455591974182e-001	 4.220999745701815e+001
1	 1.949029838326206e+000	 2.071576848311984e-001	 4.101010286876307e+001
1	 1.946898221878620e+000	 2.263161998101231e-001	 3.981983835658505e+001
1	 1.944569997013850e+000	 2.455184533881637e-001	 3.863839432232151e+001
1	 1.942043526700847e+000	 2.647617439231412e-001	 3.746501515996214e+001
1	 1.939317216964629e+000	 2.840433194879206e-001	 3.629900148223159e+001
1	 1.936389518493424e+000	 3.033603785356841e-001	 3.513971230396301e+001
1	 1.933258928241277e+000	 3.227100706197985e-001	 3.398656717669849e+001
1	 1.929923991024120e+000	 3.420894971687166e-001	 3.283904826889304e+001
1	 1.926383301107304e+000	 3.614957123162832e-001	 3.169670238605429e+001
1	 1.922635503782531e+000	 3.809257237877376e-001	 3.055914292511837e+001
1	 1.977511505921061e+000	 1.906041196591351e-001	 4.336365842881013e+001
1	 1.975548468727234e+000	 2.099762861534317e-001	 4.209652658653832e+001
1	 1.973387849363684e+000	 2.293954731693894e-001	 4.083880227234878e+001
1	 1.971027946515604e+000	 2.488589938947491e-001	 3.958976150658165e+001
1	 1.968467100878397e+000	 2.683641099286054e-001	 3.834874157054819e+001
1	 1.965703696789349e+000	 2.879080319009157e-001	 3.711514323432827e+001
1	 1.962736163856657e+000	 3.074879201468265e-001	 3.588843292877012e+001
1	 1.959562978583822e+000	 3.271008854363341e-001	 3.466814485577797e+001
1	 1.956182665987450e+000	 3.467439897597304e-001	 3.345388303093269e+001
1	 1.952593801206374e+000	 3.664142471692058e-001	 3.224532325246684e+001
1	 1.948795011100049e+000	 3.861086246769064e-001	 3.104221499060687e+001
1	 2.004056487007765e+000	 1.931626801209543e-001	 4.451613196719979e+001
1	 2.002067099127891e+000	 2.127948874757400e-001	 4.317980313770661e+001
1	 1.999877476848420e+000	 2.324747465287094e-001	 4.185269825304672e+001
1	 1.997485896017071e+000	 2.521995344013732e-001	 4.053418505210475e+001
1	 1.994890675055700e+000	 2.719664759340992e-001	 3.922370029955351e+001
1	 1.992090176613864e+000	 2.917727443139377e-001	 3.792075201418885e+001
1	 1.989082809219724e+000	 3.116154617579996e-001	 3.662492162799013e+001
1	 1.985867028926242e+000	 3.314917002529110e-001	 3.533586606961742e+001
1	 1.982441340950695e+000	 3.513984823508029e-001	 3.405331976603764e+001
1	 1.978804301305400e+000	 3.713327820222112e-001	 3.277709655596962e+001
1	 1.974954518417563e+000	 3.912915255661883e-001	 3.150709150885470e+001
1	 2.030601468093916e+000	 1.957212405829273e-001	 4.566457711784698e+001
1	 2.028585729528039e+000	 2.156134887981609e-001	 4.425717208259393e+001
1	 2.026367104332694e+000	 2.355540198881095e-001	 4.285885596163406e+001
1	 2.023943845518130e+000	 2.555400749080538e-001	 4.146909412838222e+001
1	 2.021314249232647e+000	 2.755688419396347e-001	 4.008742923323964e+001
1	 2.018476656438079e+000	 2.956374567269953e-001	 3.871348343177288e+001
1	 2.015429454582549e+000	 3.157430033692104e-001	 3.734696052926505e+001
1	 2.012171079268478e+000	 3.358825150695361e-001	 3.598764803495264e+001
1	 2.008700015913814e+000	 3.560529749419423e-001	 3.463541911926588e+001
1	 2.005014801404359e+000	 3.762513168753105e-001	 3.329023446741099e+001
1	 2.001114025735070e+000	 3.964744264555998e-001	 3.195214402267580e+001
1	 2.057146449179369e+000	 1.982798010451051e-001	 4.680629956270153e+001
1	 2.055104359927541e+000	 2.184320901207318e-001	 4.532601546203911e+001
1	 2.052856731816378e+000	 2.386332932476165e-001	 4.385474289091741e+001
1	 2.050401795018658e+000	 2.588806154148092e-001	 4.239205059871161e+001
1	 2.047737823409130e+000	 2.791712079452241e-001	 4.093759334024145e+001
1	 2.044863136261900e+000	 2.995021691400968e-001	 3.949111410308659e+001
1	 2.041776099945052e+000	 3.198705449804656e-001	 3.805244623605403e+001
1	 2.038475129610468e+000	 3.402733298862165e-001	 3.662151547169250e+001
1	 2.034958690876766e+000	 3.607074675331576e-001	 3.519834183577407e+001
1	 2.031225301503230e+000	 3.811698517285159e-001	 3.378304143671135e+001
1	 2.027273533052570e+000	 4.016573273451569e-001	 3.237582812794829e+001
1	 1.765678459877450e+000	 3.498283184541985e-001	 2.738195739747077e+001
1	 1.762044664318403e+000	 3.676938779329496e-001	 2.660902714700147e+001
1	 1.758218270537386e+000	 3.855756710127969e-001	 2.585348332992344e+001
1	 1.754198184645169e+000	 4.034708216724215e-001	 2.511449876178791e+001
1	 1.749983365329663e+000	 4.213764149277031e-001	 2.439129574791337e+001
1	 1.745572825227723e+000	 4.392894979044454e-001	 2.368314826156238e+001
1	 1.740965632275259e+000	 4.572070809624127e-001	 2.298938407451610e+001
1	 1.736160911033618e+000	 4.751261388703825e-001	 2.230938683449687e+001
1	 1.731157843990140e+000	 4.930436120318356e-001	 2.164259808386944e+001
1	 1.725955672830830e+000	 5.109564077608136e-001	 2.098851921404647e+001
1	 1.720553699683057e+000	 5.288614016073797e-001	 2.034671335003514e+001
1	 1.791837967194950e+000	 3.550112193430273e-001	 2.793450218586489e+001
1	 1.788150334935661e+000	 3.731414670106319e-001	 2.710853902590487e+001
1	 1.784267251004713e+000	 3.912881887890966e-001	 2.630080756485605e+001
1	 1.780187605306307e+000	 4.094484660472604e-001	 2.551054637102915e+001
1	 1.775910341100748e+000	 4.276193406139058e-001	 2.473704801350454e+001
1	 1.771434456396564e+000	 4.457978158663766e-001	 2.397966121558058e+001
1	 1.766759005320630e+000	 4.639808578712684e-001	 2.323779295184937e+001
1	 1.761883099464191e+000	 4.821653965768894e-001	 2.251091048318622e+001
1	 1.756805909202691e+000	 5.003483270571109e-001	 2.179854332393490e+001
1	 1.751526664987303e+000	 5.185265108061258e-001	 2.110028513558553e+001
1	 1.746044658606035e+000	 5.366967770835491e-001	 2.041579554127161e+001
1	 1.817997474512457e+000	 3.601941202318723e-001	 2.848074883918723e+001
1	 1.814256005552847e+000	 3.785890560883355e-001	 2.759930661922478e+001
1	 1.810316231471889e+000	 3.970007065654229e-001	 2.673703153183688e+001
1	 1.806177025967220e+000	 4.154261104221302e-001	 2.589324147860444e+001
1	 1.801837316871536e+000	 4.338622663001412e-001	 2.506731275232743e+001
1	 1.797296087565045e+000	 4.523061338283390e-001	 2.425868214044106e+001
1	 1.792552378365584e+000	 4.707546347801496e-001	 2.346684896290969e+001
1	 1.787605287894299e+000	 4.892046542834107e-001	 2.269137703876126e+001
1	 1.782453974414742e+000	 5.076530420823824e-001	 2.193189657544025e+001
1	 1.777097657143252e+000	 5.260966138514088e-001	 2.118810597519047e+001
1	 1.771535617528480e+000	 5.445321525596547e-001	 2.045977355273153e+001
1	 1.844156981829971e+000	 3.653770211207496e-001	 2.901842400442790e+001
1	 1.840361676169979e+000	 3.840366451660823e-001	 2.807927874086669e+001
1	 1.836365211938953e+000	 4.027132243418037e-001	 2.716031446068756e+001
1	 1.832166446627964e+000	 4.214037547970656e-001	 2.626094148480117e+001
1	 1.827764292642103e+000	 4.401051919864520e-001	 2.538063280000730e+001
1	 1.823157718733256e+000	 4.588144517903843e-001	 2.451892608761804e+001
1	 1.818345751410225e+000	 4.775284116891163e-001	 2.367542567703439e+001
1	 1.813327476324059e+000	 4.962439119900156e-001	 2.284980441835539e+001
1	 1.808102039626417e+000	 5.149577571077297e-001	 2.204180546813521e+001
1	 1.802668649298809e+000	 5.336667168967519e-001	 2.125124398245935e+001
1	 1.797026576450526e+000	 5.523675280357959e-001	 2.047800871158556e+001
1	 1.870316489147490e+000	 3.705599220096755e-001	 2.954538151516577e+001
1	 1.866467346787076e+000	 3.894842342438936e-001	 2.854651896181980e+001
1	 1.862414192405942e+000	 4.084257421182668e-001	 2.756891856623801e+001
1	 1.858155867288595e+000	 4.273813991721014e-001	 2.661209568793231e+001
1	 1.853691268412522e+000	 4.463481176728810e-001	 2.567563251570061e+001
1	 1.849019349901286e+000	 4.653227697525628e-001	 2.475917999720932e+001
1	 1.844139124454657e+000	 4.843021885982289e-001	 2.386245968363409e+001
1	 1.839049664753587e+000	 5.032831696967739e-001	 2.298526548339331e+001
1	 1.833750104837843e+000	 5.222624721332319e-001	 2.212746531906889e+001
1	 1.828239641454104e+000	 5.412368199422443e-001	 2.128900268168828e+001
1	 1.822517535372305e+000	 5.602029035120719e-001	 2.046989807664012e+001
1	 1.896475996465010e+000	 3.757428228986662e-001	 3.005959361967177e+001
1	 1.892573017404154e+000	 3.949318233217910e-001	 2.899919769550751e+001
1	 1.888463172872894e+000	 4.141382598948402e-001	 2.796120194558208e+001
1	 1.884145287949170e+000	 4.333590435472731e-001	 2.694523894624705e+001
1	 1.879618244182866e+000	 4.525910433594707e-001	 2.595101215952130e+001
1	 1.874880981069227e+000	 4.718310877149263e-001	 2.497829773986997e+001
1	 1.869932497498986e+000	 4.910759655075478e-001	 2.402694624577884e+001
1	 1.864771853182998e+000	 5.103224274037551e-001	 2.309688425015362e+001
1	 1.859398170049142e+000	 5.295671871589681e-001	 2.218811584365784e+001
1	 1.853810633609267e+000	 5.488069229879747e-001	 2.130072402520828e+001
1	 1.848008494293951e+000	 5.680382789885818e-001	 2.043487197397206e+001
1	 1.922635503782531e+000	 3.809257237877376e-001	 3.055914292511836e+001
1	 1.918678688021233e+000	 4.003794123997962e-001	 2.943558492926149e+001
1	 1.914512153339845e+000	 4.198507776715516e-001	 2.833561205517569e+001
1	 1.910134708609745e+000	 4.393366879226153e-001	 2.725898585726035e+001
1	 1.905545219953211e+000	 4.588339690462645e-001	 2.620554272897398e+001
1	 1.900742612237167e+000	 4.783394056775260e-001	 2.517519556350472e+001
1	 1.895725870543315e+000	 4.978497424171325e-001	 2.416793530860996e+001
1	 1.890494041612410e+000	 5.173616851110288e-001	 2.318383240968745e+001
1	 1.885046235260442e+000	 5.368719021850177e-001	 2.222303813525060e+001
1	 1.879381625764431e+000	 5.563770260340328e-001	 2.128578577911356e+001
1	 1.873499453215596e+000	 5.758736544654248e-001	 2.037239173374543e+001
1	 1.948795011100049e+000	 3.861086246769064e-001	 3.104221499060686e+001
1	 1.944784358638330e+000	 4.058270014779307e-001	 2.985404354120687e+001
1	 1.940561133806835e+000	 4.255632954484291e-001	 2.869067971329299e+001
1	 1.936124129270376e+000	 4.453143322981630e-001	 2.755202540588246e+001
1	 1.931472195723630e+000	 4.650768947333048e-001	 2.643806121126346e+001
1	 1.926604243405198e+000	 4.848477236404131e-001	 2.534884790668620e+001
1	 1.921519243587748e+000	 5.046235193270440e-001	 2.428452782923659e+001
1	 1.916216230041939e+000	 5.244009428186647e-001	 2.324532612802474e+001
1	 1.910694300471868e+000	 5.441766172114603e-001	 2.223155188795987e+001
1	 1.904952617919726e+000	 5.639471290805075e-001	 2.124359911954472e+001
1	 1.898990412137376e+000	 5.837090299427000e-001	 2.028194760930609e+001
1	 1.974954518417563e+000	 3.912915255661883e-001	 3.150709150885470e+001
1	 1.970890029255462e+000	 4.112745905562160e-001	 3.025302314827955e+001
1	 1.966610114273898e+000	 4.312758132255003e-001	 2.902501357913011e+001
1	 1.962113549931120e+000	 4.512919766739514e-001	 2.782311603788174e+001
1	 1.957399171494197e+000	 4.713198204206343e-001	 2.664746621292108e+001
1	 1.952465874573409e+000	 4.913560416036388e-001	 2.549828354479669e+001
1	 1.947312616632389e+000	 5.113972962373419e-001	 2.437587239830935e+001
1	 1.941938418471698e+000	 5.314402005267319e-001	 2.328062310068037e+001
1	 1.936342365683544e+000	 5.514813322383744e-001	 2.221301284020675e+001
1	 1.930523610075283e+000	 5.715172321274878e-001	 2.117360642000411e+001
1	 1.924481371059422e+000	 5.915444054205067e-001	 2.016305686165390e+001
1	 2.001114025735070e+000	 3.964744264555998e-001	 3.195214402267580e+001
1	 1.996995699872648e+000	 4.167221796346737e-001	 3.063105443677343e+001
1	 1.992659094741075e+000	 4.369883310027933e-001	 2.933729506493911e+001
1	 1.988102970592032e+000	 4.572696210500152e-001	 2.807108111975963e+001
1	 1.983326147264985e+000	 4.775627461082961e-001	 2.683271393222079e+001
1	 1.978327505741890e+000	 4.978643595672543e-001	 2.562258203844642e+001
1	 1.973105989677343e+000	 5.181710731480865e-001	 2.444116212657984e+001
1	 1.967660606901807e+000	 5.384794582353005e-001	 2.328901983818918e+001
1	 1.961990430895594e+000	 5.587860472658397e-001	 2.216681041877981e+001
1	 1.956094602231232e+000	 5.790873351750629e-001	 2.107527921222314e+001
1	 1.949972329981867e+000	 5.993797808989435e-001	 2.001526199415880e+001
1	 2.027273533052570e+000	 4.016573273451569e-001	 3.237582812794830e+001
1	 2.023101370489906e+000	 4.221697687133256e-001	 3.098674393183208e+001
1	 2.018708075208402e+000	 4.427008487803357e-001	 2.962627364207880e+001
1	 2.014092391253171e+000	 4.632472654263895e-001	 2.829480475013430e+001
1	 2.009253123036069e+000	 4.838056717963328e-001	 2.699281444342148e+001
1	 2.004189136910731e+000	 5.043726775313110e-001	 2.572087045686516e+001
1	 1.998899362722714e+000	 5.249448500593382e-001	 2.447963177251175e+001
1	 1.993382795332379e+000	 5.455187159444398e-001	 2.326984916180274e+001
1	 1.987638496108145e+000	 5.660907622939356e-001	 2.209236556529792e+001
1	 1.981665594387705e+000	 5.866574382233224e-001	 2.094811630490445e+001
1	 1.975463288904845e+000	 6.072151563781103e-001	 1.983812912395020e+001
1	 1.720553699683057e+000	 5.288614016073797e-001	 2.034671335003514e+001
1	 1.714951287895950e+000	 5.467554384699808e-001	 1.971815516649448e+001
1	 1.709147861924183e+000	 5.646353332059860e-001	 1.910391029629255e+001
1	 1.703142909757176e+000	 5.824978728425351e-001	 1.850376077289100e+001
1	 1.696935984454057e+000	 6.003398183486900e-001	 1.791753608854695e+001
1	 1.690526705208835e+000	 6.181579061975373e-001	 1.734511399084695e+001
1	 1.683914758373382e+000	 6.359488499726911e-001	 1.678642119912186e+001
1	 1.677099898436262e+000	 6.537093420179821e-001	 1.624143403758148e+001
1	 1.670081948955454e+000	 6.714360551290194e-001	 1.571017898214904e+001
1	 1.662860803443095e+000	 6.891256442852184e-001	 1.519273311812928e+001
1	 1.655436426200365e+000	 7.067747484208016e-001	 1.468922450601035e+001
1	 1.746044658606035e+000	 5.366967770835491e-001	 2.041579554127161e+001
1	 1.740359243975685e+000	 5.548559240432534e-001	 1.974580855870062e+001
1	 1.734469837023907e+000	 5.730007193529454e-001	 1.909115214875102e+001
1	 1.728375918154393e+000	 5.911279024377772e-001	 1.845171483755370e+001
1	 1.722077033804590e+000	 6.092341862787581e-001	 1.782743569401850e+001
1	 1.715572797526653e+000	 6.273162589980009e-001	 1.721830498625183e+001
1	 1.708862891025579e+000	 6.453707854890249e-001	 1.662436474941374e+001
1	 1.701947065152540e+000	 6.633944090908884e-001	 1.604570926197349e+001
1	 1.694825140851425e+000	 6.813837533048076e-001	 1.548248542748676e+001
1	 1.687497010056690e+000	 6.993354235518501e-001	 1.493489305919612e+001
1	 1.679962636540613e+000	 7.172460089701713e-001	 1.440318506494575e+001
1	 1.771535617528480e+000	 5.445321525596547e-001	 2.045977355273153e+001
1	 1.765767200054896e+000	 5.629564096164186e-001	 1.974738941448434e+001
1	 1.759791812123126e+000	 5.813661054997464e-001	 1.905152814522435e+001
1	 1.753608926551138e+000	 5.997579320328049e-001	 1.837217770553486e+001
1	 1.747218083154697e+000	 6.181285542085545e-001	 1.770937921428337e+001
1	 1.740618889844100e+000	 6.364746117981359e-001	 1.706322746825805e+001
1	 1.733811023677468e+000	 6.547927210049779e-001	 1.643387136562505e+001
1	 1.726794231868579e+000	 6.730794761633666e-001	 1.582151423029438e+001
1	 1.719568332747231e+000	 6.913314514801310e-001	 1.522641403446821e+001
1	 1.712133216670199e+000	 7.095452028179921e-001	 1.464888351684513e+001
1	 1.704488846880856e+000	 7.277172695190416e-001	 1.408929019416724e+001
1	 1.797026576450526e+000	 5.523675280357959e-001	 2.047800871158556e+001
1	 1.791175156133712e+000	 5.710568951895859e-001	 1.972234319683938e+001
1	 1.785113787221967e+000	 5.897314916465082e-001	 1.898455406921752e+001
1	 1.778841934947530e+000	 6.083879616277473e-001	 1.826472202186568e+001
1	 1.772359132504484e+000	 6.270229221382164e-001	 1.756298306722714e+001
1	 1.765664982161268e+000	 6.456329645980879e-001	 1.687952892307705e+001
1	 1.758759156329126e+000	 6.642146565207018e-001	 1.621460729556108e+001
1	 1.751641398584439e+000	 6.827645432355753e-001	 1.556852205646343e+001
1	 1.744311524642915e+000	 7.012791496551516e-001	 1.494163331213510e+001
1	 1.736769423283643e+000	 7.197549820838096e-001	 1.433435736173504e+001
1	 1.729015057221095e+000	 7.381885300675790e-001	 1.374716654266673e+001
1	 1.822517535372305e+000	 5.602029035120719e-001	 2.046989807664012e+001
1	 1.816583112212264e+000	 5.791573807628641e-001	 1.967014639327445e+001
1	 1.810435762320553e+000	 5.980968777933491e-001	 1.888977279455065e+001
1	 1.804074943343685e+000	 6.170179912227317e-001	 1.812894434067843e+001
1	 1.797500181854058e+000	 6.359172900678811e-001	 1.738788513089022e+001
1	 1.790711074478250e+000	 6.547913173980022e-001	 1.666687655890521e+001
1	 1.783707288980629e+000	 6.736365920363487e-001	 1.596625745936321e+001
1	 1.776488565300180e+000	 6.924496103076727e-001	 1.528642414259955e+001
1	 1.769054716538517e+000	 7.112268478300332e-001	 1.462783031535683e+001
1	 1.761405629897045e+000	 7.299647613494685e-001	 1.399098688526788e+001
1	 1.753541267561331e+000	 7.486597906159502e-001	 1.337646164719519e+001
1	 1.848008494293951e+000	 5.680382789885818e-001	 2.043487197397206e+001
1	 1.841991068290684e+000	 5.872578663363626e-001	 1.959030437609192e+001
1	 1.835757737419014e+000	 6.064622639403886e-001	 1.876675241697447e+001
1	 1.829307951739722e+000	 6.256480208178875e-001	 1.796446347622601e+001
1	 1.822641231203525e+000	 6.448116579976857e-001	 1.718374326338808e+001
1	 1.815757166795140e+000	 6.639496701980235e-001	 1.642495594572338e+001
1	 1.808655421632055e+000	 6.830585275520714e-001	 1.568852416170113e+001
1	 1.801335732015862e+000	 7.021346773798167e-001	 1.497492891770733e+001
1	 1.793797908434078e+000	 7.211745460049378e-001	 1.428470936574762e+001
1	 1.786041836510427e+000	 7.401745406151347e-001	 1.361846246016468e+001
1	 1.778067477901566e+000	 7.591310511643219e-001	 1.297684249165972e+001
1	 1.873499453215596e+000	 5.758736544654248e-001	 2.037239173374543e+001
1	 1.867399024369105e+000	 5.953583519101902e-001	 1.948234943734577e+001
1	 1.861079712517474e+000	 6.148276500877451e-001	 1.861508453831388e+001
1	 1.854540960135761e+000	 6.342780504133426e-001	 1.777091898851846e+001
1	 1.847782280552992e+000	 6.537060259277667e-001	 1.695023394365993e+001
1	 1.840803259112029e+000	 6.731080229982975e-001	 1.615346976613839e+001
1	 1.833603554283482e+000	 6.924804630680213e-001	 1.538112590909744e+001
1	 1.826182898731544e+000	 7.118197444521655e-001	 1.463376067933168e+001
1	 1.818541100329639e+000	 7.311222441800274e-001	 1.391199087700389e+001
1	 1.810678043123807e+000	 7.503843198809727e-001	 1.321649131038672e+001
1	 1.802593688241801e+000	 7.696023117128608e-001	 1.254799418412671e+001
1	 1.898990412137376e+000	 5.837090299427000e-001	 2.028194760930609e+001
1	 1.892806980447657e+000	 6.034588374844561e-001	 1.934583898206528e+001
1	 1.886401687616062e+000	 6.231930362355383e-001	 1.843438268880757e+001
1	 1.879773968531916e+000	 6.429080800092252e-001	 1.754796979092712e+001
1	 1.872923329902566e+000	 6.626003938582620e-001	 1.668705102169225e+001
1	 1.865849351429012e+000	 6.822663757989691e-001	 1.585213666683224e+001
1	 1.858551686934985e+000	 7.019023985843514e-001	 1.504379632250523e+001
1	 1.851030065447285e+000	 7.215048115248769e-001	 1.426265852850661e+001
1	 1.843284292225242e+000	 7.410699423554661e-001	 1.350941027484921e+001
1	 1.835314249737209e+000	 7.605940991471488e-001	 1.278479638012819e+001
1	 1.827119898582037e+000	 7.800735722617330e-001	 1.208961874037957e+001
1	 1.924481371059422e+000	 5.915444054205067e-001	 2.016305686165390e+001
1	 1.918214936526472e+000	 6.115593230592692e-001	 1.918035386506949e+001
1	 1.911723662714902e+000	 6.315584223838865e-001	 1.822428087483049e+001
1	 1.905006976928308e+000	 6.515381096056636e-001	 1.729529286844765e+001
1	 1.898064379252353e+000	 6.714947617893090e-001	 1.639390456806656e+001
1	 1.890895443746181e+000	 6.914247286001838e-001	 1.552069020129120e+001
1	 1.883499819586643e+000	 7.113243341012138e-001	 1.467628313630756e+001
1	 1.875877232163145e+000	 7.311898785981096e-001	 1.386137538934760e+001
1	 1.868027484120925e+000	 7.510176405314150e-001	 1.307671700281566e+001
1	 1.859950456350654e+000	 7.708038784138285e-001	 1.232311529269422e+001
1	 1.851646108922276e+000	 7.905448328111059e-001	 1.160143396415188e+001
1	 1.949972329981867e+000	 5.993797808989435e-001	 2.001526199415880e+001
1	 1.943622892605683e+000	 6.196598086347391e-001	 1.898549685823397e+001
1	 1.937045637814120e+000	 6.399238085329084e-001	 1.798443224052508e+001
1	 1.930239985325053e+000	 6.601681392027861e-001	 1.701258209649597e+001
1	 1.923205428602461e+000	 6.803891297210442e-001	 1.607051981374315e+001
1	 1.915941536063627e+000	 7.005830814020861e-001	 1.515887785546163e+001
1	 1.908447952238531e+000	 7.207462696187605e-001	 1.427834727582991e+001
1	 1.900724398879184e+000	 7.408749456720213e-001	 1.342967710554184e+001
1	 1.892770676016732e+000	 7.609653387080378e-001	 1.261367360600619e+001
1	 1.884586662964163e+000	 7.810136576811767e-001	 1.183119939103887e+001
1	 1.876172319262519e+000	 8.010160933611453e-001	 1.108317241518930e+001
1	 1.975463288904845e+000	 6.072151563781103e-001	 1.983812912395020e+001
1	 1.969030848685419e+000	 6.277602942109749e-001	 1.876089123642573e+001
1	 1.962367612913845e+000	 6.482891946827240e-001	 1.771450783305290e+001
1	 1.955472993722270e+000	 6.687981688007213e-001	 1.669954715115624e+001
1	 1.948346477952993e+000	 6.892834976536050e-001	 1.571663617192917e+001
1	 1.940987628381445e+000	 7.097414342048217e-001	 1.476646014884225e+001
1	 1.933396084890728e+000	 7.301682051371444e-001	 1.384976200627435e+001
1	 1.925571565595462e+000	 7.505600127467703e-001	 1.296734160679101e+001
1	 1.917513867912702e+000	 7.709130368854965e-001	 1.212005488579491e+001
1	 1.909222869577758e+000	 7.912234369493599e-001	 1.130881285258779e+001
1	 1.900698529602766e+000	 8.114873539120181e-001	 1.053458045720672e+001
1	 1.655436426200365e+000	 7.067747484208016e-001	 1.468922450601035e+001
1	 1.647810012626662e+000	 7.243773551837668e-001	 1.419802072309443e+001
1	 1.639980573555821e+000	 7.419327295049750e-001	 1.371717996416341e+001
1	 1.631948291327146e+000	 7.594374756351380e-001	 1.324665274892766e+001
1	 1.623713421824428e+000	 7.768881892624319e-001	 1.278642264402531e+001
1	 1.615276295033542e+000	 7.942814594508109e-001	 1.233650631206441e+001
1	 1.606637315540310e+000	 8.116138706063586e-001	 1.189695349277184e+001
1	 1.597796962967233e+000	 8.288820044695902e-001	 1.146784691526796e+001
1	 1.588755792347744e+000	 8.460824421315375e-001	 1.104930214065087e+001
1	 1.579514434436757e+000	 8.632117660713861e-001	 1.064146733424297e+001
1	 1.570073595956371e+000	 8.802665622133532e-001	 1.024452296702902e+001
1	 1.679962636540613e+000	 7.172460089701713e-001	 1.440318506494575e+001
1	 1.672223233413097e+000	 7.351094081314266e-001	 1.388553593933849e+001
1	 1.664277796852925e+000	 7.529248750760244e-001	 1.337974054467845e+001
1	 1.656126511900855e+000	 7.706889637447699e-001	 1.288578217180614e+001
1	 1.647769638231734e+000	 7.883982193890754e-001	 1.240367655962469e+001
1	 1.639207510720357e+000	 8.060491805379906e-001	 1.193347187991711e+001
1	 1.630440539946704e+000	 8.236383809936843e-001	 1.147524865393994e+001
1	 1.621469212639147e+000	 8.411623518532655e-001	 1.102911959993601e+001
1	 1.612294092054240e+000	 8.586176235547385e-001	 1.059522941087664e+001
1	 1.602915818291883e+000	 8.760007279448256e-001	 1.017375446191589e+001
1	 1.593335108544644e+000	 8.933082003663226e-001	 9.764902447217494e+000
1	 1.704488846880856e+000	 7.277172695190416e-001	 1.408929019416724e+001
1	 1.696636454199607e+000	 7.458414610785946e-001	 1.354558618254017e+001
1	 1.688575020150184e+000	 7.639170206466033e-001	 1.301527621733419e+001
1	 1.680304732474796e+000	 7.819404518539632e-001	 1.249836945088199e+001
1	 1.671825854639347e+000	 7.999082495153213e-001	 1.199490697861825e+001
1	 1.663138726407550e+000	 8.178169016248166e-001	 1.150496177312577e+001
1	 1.654243764353546e+000	 8.356628913807013e-001	 1.102863854963015e+001
1	 1.645141462311571e+000	 8.534426992366735e-001	 1.056607356218187e+001
1	 1.635832391761306e+000	 8.711528049777059e-001	 1.011743432993391e+001
1	 1.626317202147628e+000	 8.887896898180558e-001	 9.682919293097870e+000
1	 1.616596621133582e+000	 9.063498385190917e-001	 9.262757398342421e+000
1	 1.729015057221095e+000	 7.381885300675790e-001	 1.374716654266674e+001
1	 1.721049674986173e+000	 7.565735140254359e-001	 1.317776919628555e+001
1	 1.712872243447557e+000	 7.749091662168746e-001	 1.262336094054438e+001
1	 1.704482953048910e+000	 7.931919399628793e-001	 1.208397020788084e+001
1	 1.695882071047190e+000	 8.114182796413252e-001	 1.155965695967952e+001
1	 1.687069942095028e+000	 8.295846227114402e-001	 1.105051258264414e+001
1	 1.678046988760721e+000	 8.476874017675545e-001	 1.055665971629381e+001
1	 1.668813711984378e+000	 8.657230466199545e-001	 1.007825201088995e+001
1	 1.659370691468799e+000	 8.836879864005771e-001	 9.615473815271873e+000
1	 1.649718586003838e+000	 9.015786516912098e-001	 9.168539794257116e+000
1	 1.639858133723017e+000	 9.193914766717938e-001	 8.737694475443712e+000
1	 1.753541267561331e+000	 7.486597906159502e-001	 1.337646164719519e+001
1	 1.745462895772776e+000	 7.673055669721173e-001	 1.278170522908141e+001
1	 1.737169466745007e+000	 7.859013117870025e-001	 1.220359250834501e+001
1	 1.728661173623140e+000	 8.044434280716768e-001	 1.164216492602757e+001
1	 1.719938287455186e+000	 8.229283097672420e-001	 1.109749512584230e+001
1	 1.711001157782695e+000	 8.413523437980105e-001	 1.056968682563361e+001
1	 1.701850213168122e+000	 8.597119121543899e-001	 1.005887461963899e+001
1	 1.692485961657440e+000	 8.780033940032495e-001	 9.565223710900421e+000
1	 1.682908991176575e+000	 8.962231678234885e-001	 9.088929573346421e+000
1	 1.673119969860359e+000	 9.143676135644235e-001	 8.630217543245367e+000
1	 1.663119646312785e+000	 9.324331148245619e-001	 8.189342339913724e+000
1	 1.778067477901566e+000	 7.591310511643219e-001	 1.297684249165972e+001
1	 1.769876116559397e+000	 7.780376199188031e-001	 1.235703548221897e+001
1	 1.761466690042496e+000	 7.968934573571500e-001	 1.175559090648145e+001
1	 1.752839394197428e+000	 8.156949161805156e-001	 1.117255723537985e+001
1	 1.743994503863259e+000	 8.344383398932268e-001	 1.060801390135876e+001
1	 1.734932373470456e+000	 8.531200648846792e-001	 1.006207115736511e+001
1	 1.725653437575634e+000	 8.717364225413528e-001	 9.534869866321969e+000
1	 1.716158211330630e+000	 8.902837413866996e-001	 9.026581220447053e+000
1	 1.706447290884493e+000	 9.087583492465784e-001	 8.537406389953395e+000
1	 1.696521353717034e+000	 9.271565754378304e-001	 8.067576100850223e+000
1	 1.686381158902719e+000	 9.454747529775295e-001	 7.617350141746710e+000
1	 1.802593688241801e+000	 7.696023117128608e-001	 1.254799418412671e+001
1	 1.794289337346019e+000	 7.887696728656601e-001	 1.190342068434851e+001
1	 1.785763913339985e+000	 8.078856029274806e-001	 1.127899680269827e+001
1	 1.777017614771716e+000	 8.269464042895565e-001	 1.067477233814072e+001
1	 1.768050720271332e+000	 8.459483700194359e-001	 1.009082789249401e+001
1	 1.758863589158218e+000	 8.648877859715959e-001	 9.527274729094886e+000
1	 1.749456661983145e+000	 8.837609329285885e-001	 8.984254561629973e+000
1	 1.739830461003819e+000	 9.025640887704454e-001	 8.461939272484136e+000
1	 1.729985590592412e+000	 9.212935306699824e-001	 7.960530560132974e+000
1	 1.719922737573709e+000	 9.399455373115648e-001	 7.480259515288340e+000
1	 1.709642671492654e+000	 9.585163911308307e-001	 7.021386125692092e+000
1	 1.827119898582037e+000	 7.800735722617330e-001	 1.208961874037957e+001
1	 1.818702558132622e+000	 7.995017258128541e-001	 1.142053978085830e+001
1	 1.810061136637434e+000	 8.188777484981575e-001	 1.077347015862240e+001
1	 1.801195835345945e+000	 8.381978923989577e-001	 1.014845556079749e+001
1	 1.792106936679328e+000	 8.574584001460236e-001	 9.545572398732425e+000
1	 1.782794804845885e+000	 8.766555070589113e-001	 8.964927678197892e+000
1	 1.773259886390545e+000	 8.957854433162426e-001	 8.406658799437032e+000
1	 1.763502710676882e+000	 9.148444361546280e-001	 7.870933286382347e+000
1	 1.753523890300187e+000	 9.338287120938384e-001	 7.357948444530293e+000
1	 1.743324121430230e+000	 9.527344991857624e-001	 6.867930947147405e+000
1	 1.732904184082422e+000	 9.715580292845978e-001	 6.401136349668780e+000
1	 1.851646108922276e+000	 7.905448328111059e-001	 1.160143396415188e+001
1	 1.843115778919188e+000	 8.102337787605508e-001	 1.090808872741377e+001
1	 1.834358359934808e+000	 8.298698940693451e-001	 1.023868895196474e+001
1	 1.825374055920060e+000	 8.494493805088802e-001	 9.593271021327626e+000
1	 1.816163153087172e+000	 8.689684302731456e-001	 8.971902042303990e+000
1	 1.806726020533363e+000	 8.884232281467754e-001	 8.374679738296019e+000
1	 1.797063110797721e+000	 9.078099537044606e-001	 7.801732272168748e+000
1	 1.787174960349689e+000	 9.271247835393879e-001	 7.253217997905634e+000
1	 1.777062190007680e+000	 9.463638935182838e-001	 6.729325140487713e+000
1	 1.766725505286440e+000	 9.655234610605563e-001	 6.230271403609372e+000
1	 1.756165696671858e+000	 9.845996674389648e-001	 5.756303505032113e+000
1	 1.876172319262519e+000	 8.010160933611453e-001	 1.108317241518930e+001
1	 1.867528999705698e+000	 8.209658317089156e-001	 1.036577937812520e+001
1	 1.858655583232066e+000	 8.408620396412051e-001	 9.674347998945986e+000
1	 1.849552276494000e+000	 8.607008686194831e-001	 9.008900400942023e+000
1	 1.840219369494784e+000	 8.804784604009575e-001	 8.369489505203498e+000
1	 1.830657236220556e+000	 9.001909492353390e-001	 7.756198958400482e+000
1	 1.820866335204563e+000	 9.198344640933875e-001	 7.169142989794073e+000
1	 1.810847210022113e+000	 9.394051309248664e-001	 6.608466196645742e+000
1	 1.800600489714745e+000	 9.588990749434547e-001	 6.074343257369520e+000
1	 1.790126889142184e+000	 9.783124229360810e-001	 5.566978571954428e+000
1	 1.779427209260795e+000	 9.976413055940653e-001	 5.086605829372762e+000
1	 1.900698529602766e+000	 8.114873539120181e-001	 1.053458045720672e+001
1	 1.891942220492132e+000	 8.316978846581148e-001	 9.793338459796297e+000
1	 1.882952806529170e+000	 8.518541852139021e-001	 9.080157867893318e+000
1	 1.873730497067709e+000	 8.719523567309262e-001	 8.395041810923287e+000
1	 1.864275585902089e+000	 8.919884905296139e-001	 7.738024363993124e+000
1	 1.854588451907370e+000	 9.119586703247523e-001	 7.109170521222003e+000
1	 1.844669559610956e+000	 9.318589744831690e-001	 6.508576097996562e+000
1	 1.834519459694026e+000	 9.516854783112039e-001	 5.936367561207892e+000
1	 1.824138789421242e+000	 9.714342563694888e-001	 5.392701786704488e+000
1	 1.813528272997309e+000	 9.911013848124718e-001	 4.877765743378395e+000
1	 1.802688721849068e+000	 1.010682943750032e+000	 4.391776103489800e+000
1	 1.570073595956371e+000	 8.802665622133532e-001	 1.024452296702903e+001
1	 1.560432599048893e+000	 8.972459629298201e-001	 9.856778697247162e+000
1	 1.550593705615053e+000	 9.141440024143019e-001	 9.476391495051287e+000
1	 1.540557852787052e+000	 9.309572889204422e-001	 9.103180048095403e+000
1	 1.530326054011600e+000	 9.476824425612989e-001	 8.736989139931488e+000
1	 1.519899398955622e+000	 9.643160974265818e-001	 8.377689901350118e+000
1	 1.509279053342250e+000	 9.808549037040831e-001	 8.025180010164025e+000
1	 1.498466258716638e+000	 9.972955298026260e-001	 7.679383838505434e+000
1	 1.487462332141325e+000	 1.013634664473865e+000	 7.340252546836189e+000
1	 1.476268665820915e+000	 1.029869018930230e+000	 7.007764124001962e+000
1	 1.464886726656035e+000	 1.045995328956277e+000	 6.681923372797599e+000
1	 1.593335108544644e+000	 8.933082003663226e-001	 9.764902447217494e+000
1	 1.583551274911993e+000	 9.105391603372328e-001	 9.366900946511622e+000
1	 1.573566612805977e+000	 9.276875536643393e-001	 8.977758775428374e+000
1	 1.563382073242935e+000	 9.447499383506840e-001	 8.597214548598751e+000
1	 1.552998684684357e+000	 9.617228844344273e-001	 8.225029824395728e+000
1	 1.542417552941194e+000	 9.786029761374548e-001	 7.860989485579639e+000
1	 1.531639861007416e+000	 9.953868140182343e-001	 7.504902074789121e+000
1	 1.520666868822365e+000	 1.012071017126220e+000	 7.156600083727539e+000
1	 1.509499912961594e+000	 1.028652225155088e+000	 6.815940195004603e+000
1	 1.498140406255998e+000	 1.045127100592058e+000	 6.482803475707330e+000
1	 1.486589837339156e+000	 1.061492330860527e+000	 6.157095521893646e+000
1	 1.616596621133582e+000	 9.063498385190917e-001	 9.262757398342421e+000
1	 1.606669950775794e+000	 9.238323577444372e-001	 8.855064167384830e+000
1	 1.596539519997630e+000	 9.412311049141447e-001	 8.457682026974268e+000
1	 1.586206293699568e+000	 9.585425877806584e-001	 8.070281622986242e+000
1	 1.575671315357876e+000	 9.757633263072424e-001	 7.692553447192108e+000
1	 1.564935706927530e+000	 9.928898548479597e-001	 7.324208329603443e+000
1	 1.554000668673342e+000	 1.009918724331957e+000	 6.964977891844119e+000
1	 1.542867478928837e+000	 1.026846504449323e+000	 6.614614960211783e+000
1	 1.531537493782587e+000	 1.043669785835758e+000	 6.272893937184500e+000
1	 1.520012146691774e+000	 1.060385182253275e+000	 5.939611130224776e+000
1	 1.508292948022929e+000	 1.076989332764112e+000	 5.614585036836432e+000
1	 1.639858133723017e+000	 9.193914766717938e-001	 8.737694475443712e+000
1	 1.629788626640121e+000	 9.371255551515679e-001	 8.320908686693404e+000
1	 1.619512427189830e+000	 9.547746561638559e-001	 7.915837050914885e+000
1	 1.609030514156762e+000	 9.723352372105052e-001	 7.522093869842970e+000
1	 1.598343946031964e+000	 9.898037681798880e-001	 7.139310244063431e+000
1	 1.587453860914438e+000	 1.007176733558246e+000	 6.767134659908392e+000
1	 1.576361476339833e+000	 1.024450634645407e+000	 6.405233543348349e+000
1	 1.565068089035861e+000	 1.041621991772096e+000	 6.053291779388702e+000
1	 1.553575074604111e+000	 1.058687346516041e+000	 5.711013195554696e+000
1	 1.541883887128053e+000	 1.075643263914047e+000	 5.378121008130988e+000
1	 1.529996058707169e+000	 1.092486334667199e+000	 5.054358229908195e+000
1	 1.663119646312785e+000	 9.324331148245619e-001	 8.189342339913724e+000
1	 1.652907302504798e+000	 9.504187525587583e-001	 7.764094953790997e+000
1	 1.642485334382394e+000	 9.683182074136089e-001	 7.351917786327511e+000
1	 1.631854734614329e+000	 9.861278866403652e-001	 6.952379966914524e+000
1	 1.621016576706430e+000	 1.003844210052509e+000	 6.565064424238221e+000
1	 1.609972014901722e+000	 1.021463612268464e+000	 6.189568551010091e+000
1	 1.598722284006695e+000	 1.038982544958740e+000	 5.825504841457803e+000
1	 1.587268699143245e+000	 1.056397479094699e+000	 5.472501499962713e+000
1	 1.575612655425975e+000	 1.073704907196097e+000	 5.130203019290559e+000
1	 1.563755627564647e+000	 1.090901345574538e+000	 4.798270726927531e+000
1	 1.551699169391692e+000	 1.107983336569954e+000	 4.476383298106857e+000
1	 1.686381158902719e+000	 9.454747529775295e-001	 7.617350141746711e+000
1	 1.676025978369649e+000	 9.637119499661433e-001	 7.184302152732868e+000
1	 1.665458241575140e+000	 9.818617586635405e-001	 6.765635059196107e+000
1	 1.654678955072082e+000	 9.999205360703791e-001	 6.360883562147535e+000
1	 1.643689207381082e+000	 1.017884651925251e+000	 5.969593206696968e+000
1	 1.632490168889190e+000	 1.035750490978762e+000	 5.591321108309504e+000
1	 1.621083091673733e+000	 1.053514455272107e+000	 5.225636657389805e+000
1	 1.609469309250792e+000	 1.071172966417289e+000	 4.872122200489242e+000
1	 1.597650236247988e+000	 1.088722467876090e+000	 4.530373696477097e+000
1	 1.585627368001368e+000	 1.106159427234916e+000	 4.200001346068564e+000
1	 1.573402280076318e+000	 1.123480338472545e+000	 3.880630193159543e+000
1	 1.709642671492654e+000	 9.585163911308307e-001	 7.021386125692092e+000
1	 1.699144654234502e+000	 9.770051473738575e-001	 6.581226927747595e+000
1	 1.688431148767885e+000	 9.954053099137871e-001	 6.156715433588972e+000
1	 1.677503175529833e+000	 1.013713185500686e+000	 5.747362255261788e+000
1	 1.666361838055729e+000	 1.031925093798258e+000	 5.352685935114236e+000
1	 1.655008322876648e+000	 1.050037369689292e+000	 4.972213717657835e+000
1	 1.643443899340753e+000	 1.068046365585667e+000	 4.605482305132075e+000
1	 1.631669919358312e+000	 1.085948453740026e+000	 4.252038595008775e+000
1	 1.619687817069959e+000	 1.103740028556184e+000	 3.911440397704202e+000
1	 1.607499108438030e+000	 1.121417508895345e+000	 3.583257132803653e+000
1	 1.595105390760859e+000	 1.138977340375136e+000	 3.267070502147661e+000
1	 1.732904184082422e+000	 9.715580292845978e-001	 6.401136349668782e+000
1	 1.722263330099178e+000	 9.902983447820338e-001	 5.954582211359985e+000
1	 1.711404055960447e+000	 1.008948861164486e+000	 5.524900155363580e+000
1	 1.700327395987393e+000	 1.027505834931428e+000	 5.111586661346869e+000
1	 1.689034468730179e+000	 1.045965535671676e+000	 4.714143264083731e+000
1	 1.677526476863901e+000	 1.064324248400201e+000	 4.332077355362158e+000
1	 1.665804707007561e+000	 1.082578275899572e+000	 3.964902974787965e+000
1	 1.653870529465609e+000	 1.100723941063069e+000	 3.612141587692114e+000
1	 1.641725397891696e+000	 1.118757589236542e+000	 3.273322848366752e+000
1	 1.629370848874443e+000	 1.136675590555991e+000	 2.947985346879639e+000
1	 1.616808501445135e+000	 1.154474342277896e+000	 2.635677337746698e+000
1	 1.756165696671858e+000	 9.845996674389648e-001	 5.756303505032113e+000
1	 1.745382005963505e+000	 1.003591542190808e+000	 5.304096145647408e+000
1	 1.734376963152643e+000	 1.022492412415774e+000	 4.869944179818869e+000
1	 1.723151616444576e+000	 1.041298484362744e+000	 4.453339548878505e+000
1	 1.711707099404241e+000	 1.060005977545648e+000	 4.053776410017197e+000
1	 1.700044630850756e+000	 1.078611127111641e+000	 3.670751953027239e+000
1	 1.688165514673963e+000	 1.097110186213977e+000	 3.303767210956054e+000
1	 1.676071139572491e+000	 1.115499428386579e+000	 2.952327862879537e+000
1	 1.663762978713008e+000	 1.133775149917325e+000	 2.615945027008471e+000
1	 1.651242589310420e+000	 1.151933672217020e+000	 2.294136042353137e+000
1	 1.638511612128961e+000	 1.169971344180990e+000	 1.986425237188799e+000
1	 1.779427209260795e+000	 9.976413055940653e-001	 5.086605829372762e+000
1	 1.768500681827304e+000	 1.016884739600314e+000	 4.629511088107338e+000
1	 1.757349870344291e+000	 1.036035963667787e+000	 4.191615275613513e+000
1	 1.745975836901192e+000	 1.055091133794776e+000	 3.772415045344339e+000
1	 1.734379730077722e+000	 1.074046419420320e+000	 3.371406460798973e+000
1	 1.722562784837020e+000	 1.092898005823761e+000	 2.988085812216244e+000
1	 1.710526322339763e+000	 1.111642096529037e+000	 2.621950432022897e+000
1	 1.698271749678765e+000	 1.130274915710713e+000	 2.272499507275222e+000
1	 1.685800559533704e+000	 1.148792710598699e+000	 1.939234887325956e+000
1	 1.673114329745773e+000	 1.167191753878597e+000	 1.621661884947848e+000
1	 1.660214722812154e+000	 1.185468346084587e+000	 1.319290069150456e+000
1	 1.802688721849068e+000	 1.010682943750032e+000	 4.391776103489800e+000
1	 1.791619357690404e+000	 1.030177937010685e+000	 3.930582694493205e+000
1	 1.780322777535209e+000	 1.049579514920662e+000	 3.489693198061413e+000
1	 1.768800057357055e+000	 1.068883783227662e+000	 3.068617904372369e+000
1	 1.757052360750431e+000	 1.088086861295837e+000	 2.666863738888796e+000
1	 1.745080938822499e+000	 1.107184884536711e+000	 2.283935064429588e+000
1	 1.732887130004770e+000	 1.126174006844907e+000	 1.919334486673377e+000
1	 1.720472359784236e+000	 1.145050403035631e+000	 1.572563661392369e+000
1	 1.707838140353593e+000	 1.163810271280825e+000	 1.243124101696014e+000
1	 1.694986070180313e+000	 1.182449835540888e+000	 9.305179835524722e-001
1	 1.681917833494530e+000	 1.200965347988850e+000	 6.342489478490436e-001
1	 1.464886726656035e+000	 1.045995328956277e+000	 6.681923372797599e+000
1	 1.453318055313266e+000	 1.062010356656721e+000	 6.359537078412466e+000
1	 1.441564264409459e+000	 1.077910891462778e+000	 6.037508378039331e+000
1	 1.429627039115891e+000	 1.093693753232441e+000	 5.716031557206177e+000
1	 1.417508136850242e+000	 1.109355794658762e+000	 5.395333897747653e+000
1	 1.405209386483143e+000	 1.124893903309479e+000	 5.075675402582228e+000
1	 1.392732687476031e+000	 1.140305003643770e+000	 4.757348456620843e+000
1	 1.380080008951025e+000	 1.155586059003449e+000	 4.440677424142818e+000
1	 1.367253388693743e+000	 1.170734073575938e+000	 4.126018183142121e+000
1	 1.354254932090050e+000	 1.185746094326383e+000	 3.813757597313389e+000
1	 1.341086810997859e+000	 1.200619212896339e+000	 3.504312926512908e+000
1	 1.486589837339156e+000	 1.061492330860527e+000	 6.157095521893647e+000
1	 1.474849769703483e+000	 1.077744630093995e+000	 5.835513829275846e+000
1	 1.462921839857642e+000	 1.093880740157302e+000	 5.514813418266738e+000
1	 1.450807757939659e+000	 1.109897433792857e+000	 5.195023257541508e+000
1	 1.438509307404328e+000	 1.125791517064594e+000	 4.876197172325960e+000
1	 1.426028344218016e+000	 1.141559831427820e+000	 4.558413830219714e+000
1	 1.413366795983732e+000	 1.157199255775851e+000	 4.241776678919610e+000
1	 1.400526660997231e+000	 1.172706708460706e+000	 3.926413835691107e+000
1	 1.387510007235056e+000	 1.188079149285163e+000	 3.612477928560653e+000
1	 1.374318971275530e+000	 1.203313581463499e+000	 3.300145889327188e+000
1	 1.360955757153845e+000	 1.218407053548307e+000	 2.989618698617752e+000
1	 1.508292948022929e+000	 1.076989332764112e+000	 5.614585036836432e+000
1	 1.496381484094301e+000	 1.093478903530556e+000	 5.294332175509950e+000
1	 1.484279415306369e+000	 1.109850588851077e+000	 4.975409132612018e+000
1	 1.471988476763907e+000	 1.126101114352495e+000	 4.657724543271065e+000
1	 1.459510477958825e+000	 1.142227239469625e+000	 4.341204865105549e+000
1	 1.446847301953224e+000	 1.158225759545347e+000	 4.025794553700581e+000
1	 1.434000904491688e+000	 1.174093507907113e+000	 3.711456203480624e+000
1	 1.420973313043610e+000	 1.189827357917149e+000	 3.398170653478509e+000
1	 1.407766625776456e+000	 1.205424224993586e+000	 3.085937057589692e+000
1	 1.394383010461012e+000	 1.220881068599836e+000	 2.774772918991564e+000
1	 1.380824703309748e+000	 1.236194894199525e+000	 2.464714088500287e+000
1	 1.529996058707169e+000	 1.092486334667199e+000	 5.054358229908195e+000
1	 1.517913198485543e+000	 1.109213176966573e+000	 4.736007230628107e+000
1	 1.505636990755471e+000	 1.125820437544266e+000	 4.419393474966601e+000
1	 1.493169195588471e+000	 1.142304794911510e+000	 4.104348394355385e+000
1	 1.480511648513576e+000	 1.158662961874006e+000	 3.790715277009794e+000
1	 1.467666259688621e+000	 1.174891687662203e+000	 3.478349563416602e+000
1	 1.454635012999764e+000	 1.190987760037691e+000	 3.167119118498596e+000
1	 1.441419965090037e+000	 1.206948007372900e+000	 2.856904479745824e+000
1	 1.428023244317834e+000	 1.222769300701319e+000	 2.547599080661835e+000
1	 1.414447049646399e+000	 1.238448555735490e+000	 2.239109448935946e+000
1	 1.400693649465486e+000	 1.253982734850077e+000	 1.931355378815618e+000
1	 1.551699169391692e+000	 1.107983336569954e+000	 4.476383298106857e+000
1	 1.539444912877032e+000	 1.124947450402209e+000	 4.160553262591338e+000
1	 1.526994566204773e+000	 1.141790286237030e+000	 3.846858919023915e+000
1	 1.514349914413188e+000	 1.158508475470063e+000	 3.535095875228237e+000
1	 1.501512819068427e+000	 1.175098684277891e+000	 3.225066663207347e+000
1	 1.488485217424060e+000	 1.191557615778533e+000	 2.916581086652704e+000
1	 1.475269121507824e+000	 1.207882012167718e+000	 2.609456554250231e+000
1	 1.461866617136390e+000	 1.224068656828084e+000	 2.303518397996498e+000
1	 1.448279862859078e+000	 1.240114376408472e+000	 1.998600175774621e+000
1	 1.434511088831594e+000	 1.256016042870559e+000	 1.694543957477064e+000
1	 1.420562595620974e+000	 1.271770575500045e+000	 1.391200594003901e+000
1	 1.573402280076318e+000	 1.123480338472545e+000	 3.880630193159543e+000
1	 1.560976627268588e+000	 1.140681723837632e+000	 3.567983752125076e+000
1	 1.548352141654106e+000	 1.157760134929534e+000	 3.257892836241676e+000
1	 1.535530633237893e+000	 1.174712156028311e+000	 2.950156956595333e+000
1	 1.522513989623221e+000	 1.191534406681430e+000	 2.644578615642198e+000
1	 1.509304175159396e+000	 1.208223543894480e+000	 2.340963640310488e+000
1	 1.495903230015734e+000	 1.224776264297331e+000	 2.039121507909540e+000
1	 1.482313269182544e+000	 1.241189306282822e+000	 1.738865664115793e+000
1	 1.468536481400075e+000	 1.257459452115157e+000	 1.440013832322778e+000
1	 1.454575128016497e+000	 1.273583530005140e+000	 1.142388313663271e+000
1	 1.440431541776130e+000	 1.289558416149514e+000	 8.458162770343232e-001
1	 1.595105390760859e+000	 1.138977340375136e+000	 3.267070502147661e+000
1	 1.582508341660034e+000	 1.156415997273006e+000	 2.958311446274984e+000
1	 1.569709717103297e+000	 1.173729983621940e+000	 2.652577842948606e+000
1	 1.556711352062423e+000	 1.190915836586413e+000	 2.349711270144176e+000
1	 1.543515160177803e+000	 1.207970129084775e+000	 2.049553332699136e+000
1	 1.530123132894483e+000	 1.224889472010190e+000	 1.751945916054800e+000
1	 1.516537338523357e+000	 1.241670516426661e+000	 1.456731437755655e+000
1	 1.502759921228375e+000	 1.258309955737241e+000	 1.163753096160236e+000
1	 1.488793099940716e+000	 1.274804527821486e+000	 8.728551158247266e-001
1	 1.474639167201012e+000	 1.291151017139334e+000	 5.838829890284771e-001
1	 1.460300487930869e+000	 1.307346256798567e+000	 2.966837129200145e-001
1	 1.616808501445135e+000	 1.154474342277896e+000	 2.635677337746697e+000
1	 1.604040056051193e+000	 1.172150270708497e+000	 2.331548407649390e+000
1	 1.591067292552176e+000	 1.189699832314410e+000	 2.030992119495016e+000
1	 1.577892070886612e+000	 1.207119517144526e+000	 1.733928802469511e+000
1	 1.564516330732018e+000	 1.224405851488079e+000	 1.440276786609509e+000
1	 1.550942090629174e+000	 1.241555400125803e+000	 1.149952513629591e+000
1	 1.537171447030557e+000	 1.258564768555845e+000	 8.628706484413827e-001
1	 1.523206573273758e+000	 1.275430605191462e+000	 5.789441911314666e-001
1	 1.509049718480886e+000	 1.292149603527569e+000	 2.980845891657446e-001
1	 1.494703206385040e+000	 1.308718504273237e+000	 2.020184958873061e-002
1	 1.480169434085108e+000	 1.325134097447286e+000	-2.547953490123175e-001
1	 1.638511612128961e+000	 1.169971344180990e+000	 1.986425237188799e+000
1	 1.625571770441885e+000	 1.187884544144271e+000	 1.687706059748259e+000
1	 1.612424868000571e+000	 1.205669681007109e+000	 1.393209704039349e+000
1	 1.599072789710299e+000	 1.223323197702809e+000	 1.102970533849487e+000
1	 1.585517501285710e+000	 1.240841573891492e+000	 8.170197980788742e-001
1	 1.571761048363325e+000	 1.258221328241467e+000	 5.353855364206275e-001
1	 1.557805555537200e+000	 1.275459020685017e+000	 2.580924866958425e-001
1	 1.543653225318572e+000	 1.292551254645610e+000	-1.483800595141075e-002
1	 1.529306337020477e+000	 1.309494679233518e+000	-2.833880777949340e-001
1	 1.514767245568484e+000	 1.326285991406947e+000	-5.475434329992590e-001
1	 1.500038380238764e+000	 1.342921938095756e+000	-8.072934276229493e-001
1	 1.660214722812154e+000	 1.185468346084587e+000	 1.319290069150456e+000
1	 1.647103484831933e+000	 1.203618817580494e+000	 1.026795228736793e+000
1	 1.633782443448310e+000	 1.221639529700198e+000	 7.393007632915702e-001
1	 1.620253508533317e+000	 1.239526878261420e+000	 4.569890269198806e-001
1	 1.606518671838723e+000	 1.257277296295168e+000	 1.800390266265682e-001
1	 1.592580006096787e+000	 1.274887256357323e+000	-9.137393812948672e-002
1	 1.578439664043150e+000	 1.292353272814311e+000	-3.570786351927495e-001
1	 1.564099877362689e+000	 1.309671904099807e+000	-6.169082580149755e-001
1	 1.549562955559376e+000	 1.326839754939444e+000	-8.707007817358013e-001
1	 1.534831284751244e+000	 1.343853478540562e+000	-1.118299316268005e+000
1	 1.519907326391754e+000	 1.360709778744060e+000	-1.359552455615148e+000
1	 1.681917833494530e+000	 1.200965347988850e+000	 6.342489478490441e-001
1	 1.668635199221159e+000	 1.219353091017331e+000	 3.488261819848195e-001
1	 1.655140018895221e+000	 1.237609378393840e+000	 6.933184229486950e-002
1	 1.641434227355505e+000	 1.255730558820518e+000	-2.038710302286538e-001
1	 1.627519842390902e+000	 1.273713018699258e+000	-4.704221157497755e-001
1	 1.613398963829417e+000	 1.291553184473516e+000	-7.299645019498037e-001
1	 1.599073772548270e+000	 1.309247524943862e+000	-9.821453725576044e-001
1	 1.584546529405988e+000	 1.326792553554179e+000	-1.226616696602808e+000
1	 1.569819574097471e+000	 1.344184830645459e+000	-1.463035916930572e+000
1	 1.554895323933223e+000	 1.361420965674179e+000	-1.691066636505646e+000
1	 1.539776272543993e+000	 1.378497619392281e+000	-1.910379301027761e+000
1	 1.341086810997859e+000	 1.200619212896339e+000	 3.504312926512908e+000
1	 1.327753275425903e+000	 1.215348368834772e+000	 3.189918668476876e+000
1	 1.314254664028600e+000	 1.229932992248813e+000	 2.863798274463334e+000
1	 1.300593340761640e+000	 1.244370322232309e+000	 2.528045271233717e+000
1	 1.286771730854787e+000	 1.258657649759996e+000	 2.184792939165375e+000
1	 1.272792319379371e+000	 1.272792319379371e+000	 1.836210809776662e+000
1	 1.258657649759996e+000	 1.286771730854787e+000	 1.484501095924541e+000
1	 1.244370322232309e+000	 1.300593340761641e+000	 1.131895062081616e+000
1	 1.229932992248813e+000	 1.314254664028600e+000	 7.806493422553986e-001
1	 1.215348368834772e+000	 1.327753275425902e+000	 4.330422132461648e-001
1	 1.200619212896339e+000	 1.341086810997858e+000	 9.136983105002157e-002
1	 1.360955757153845e+000	 1.218407053548307e+000	 2.989618698617753e+000
1	 1.347424677844972e+000	 1.233354430115146e+000	 2.673207276012550e+000
1	 1.333726077020677e+000	 1.248155132827871e+000	 2.344530779489317e+000
1	 1.319862353659959e+000	 1.262806359875977e+000	 2.005947417896955e+000
1	 1.305835968923696e+000	 1.277305362098496e+000	 1.659862492005596e+000
1	 1.291649444700928e+000	 1.291649444700928e+000	 1.308724320583978e+000
1	 1.277305362098497e+000	 1.305835968923696e+000	 9.550200860714709e-001
1	 1.262806359875977e+000	 1.319862353659959e+000	 6.012716085216711e-001
1	 1.248155132827870e+000	 1.333726077020677e+000	 2.500310566828255e-001
1	 1.233354430115146e+000	 1.347424677844972e+000	-9.612339475962770e-002
1	 1.218407053548307e+000	 1.360955757153844e+000	-4.345919526193852e-001
1	 1.380824703309748e+000	 1.236194894199525e+000	 2.464714088500287e+000
1	 1.367096080263875e+000	 1.251360491394808e+000	 2.148352597503066e+000
1	 1.353197490012505e+000	 1.266377273406264e+000	 1.819804184095258e+000
1	 1.339131366557947e+000	 1.281242397519037e+000	 1.481584928190588e+000
1	 1.324900206992199e+000	 1.295953074436450e+000	 1.136262960664093e+000
1	 1.310506570022006e+000	 1.310506570022005e+000	 7.864540058300987e-001
1	 1.295953074436450e+000	 1.324900206992199e+000	 4.348168344756200e-001
1	 1.281242397519037e+000	 1.339131366557946e+000	 8.404863699555672e-002
1	 1.266377273406264e+000	 1.353197490012506e+000	-2.631196736146059e-001
1	 1.251360491394808e+000	 1.367096080263875e+000	-6.039282189738707e-001
1	 1.236194894199525e+000	 1.380824703309748e+000	-9.355929626539904e-001
1	 1.400693649465486e+000	 1.253982734850077e+000	 1.931355378815619e+000
1	 1.386767482682543e+000	 1.269366552673829e+000	 1.617366913911739e+000
1	 1.372668903004032e+000	 1.284599413984047e+000	 1.291813948409028e+000
1	 1.358400379455570e+000	 1.299678435161525e+000	 9.572681865846254e-001
1	 1.343964445060277e+000	 1.314600786773875e+000	 6.163560303204111e-001
1	 1.329363695342603e+000	 1.329363695342603e+000	 2.717539211807345e-001
1	 1.314600786773875e+000	 1.343964445060277e+000	-7.381641204294932e-002
1	 1.299678435161524e+000	 1.358400379455569e+000	-4.175927902988219e-001
1	 1.284599413984047e+000	 1.372668903004031e+000	-7.567774955094830e-001
1	 1.269366552673829e+000	 1.386767482682543e+000	-1.088542245641196e+000
1	 1.253982734850077e+000	 1.400693649465486e+000	-1.410033223014984e+000
1	 1.420562595620974e+000	 1.271770575500045e+000	 1.391200594003901e+000
1	 1.406438885100908e+000	 1.287372613952274e+000	 1.082149925727330e+000
1	 1.392140315995205e+000	 1.302821554561270e+000	 7.626327038146996e-001
1	 1.377669392352793e+000	 1.318114472803472e+000	 4.351783191680458e-001
1	 1.363028683127914e+000	 1.333248499110788e+000	 1.023712576677578e-001
1	 1.348220820662723e+000	 1.348220820662722e+000	-2.331535793387125e-001
1	 1.333248499110788e+000	 1.363028683127914e+000	-5.687156503037285e-001
1	 1.318114472803472e+000	 1.377669392352793e+000	-9.015936343907947e-001
1	 1.302821554561270e+000	 1.392140315995205e+000	-1.229030367693478e+000
1	 1.287372613952274e+000	 1.406438885100908e+000	-1.548237844232502e+000
1	 1.271770575500045e+000	 1.420562595620974e+000	-1.856402271039294e+000
1	 1.440431541776130e+000	 1.289558416149514e+000	 8.458162770343232e-001
1	 1.426110287518902e+000	 1.305378675230213e+000	 5.444965174958377e-001
1	 1.411611728985973e+000	 1.321043695137985e+000	 2.342187242945936e-001
1	 1.396938405249583e+000	 1.336550510444917e+000	-8.262389156532458e-002
1	 1.382092921195092e+000	 1.351896211447207e+000	-4.035848163535198e-001
1	 1.367077945982363e+000	 1.367077945982363e+000	-7.261687600485403e-001
1	 1.351896211447207e+000	 1.382092921195092e+000	-1.047836275965062e+000
1	 1.336550510444917e+000	 1.396938405249583e+000	-1.366008463750048e+000
1	 1.321043695137985e+000	 1.411611728985973e+000	-1.678071745705140e+000
1	 1.305378675230213e+000	 1.426110287518902e+000	-1.981382706204042e+000
1	 1.289558416149514e+000	 1.440431541776130e+000	-2.273272983815863e+000
1	 1.460300487930869e+000	 1.307346256798567e+000	 2.966837129200148e-001
1	 1.445781689936458e+000	 1.323384736507712e+000	 6.103888484245963e-003
1	 1.431083141976286e+000	 1.339265835714243e+000	-2.915762937984268e-001
1	 1.416207418145903e+000	 1.354986548085892e+000	-5.941898197017739e-001
1	 1.401157159261793e+000	 1.370543923783149e+000	-8.995202977530231e-001
1	 1.385935071301524e+000	 1.385935071301523e+000	-1.205306161847626e+000
1	 1.370543923783149e+000	 1.401157159261793e+000	-1.509244960781013e+000
1	 1.354986548085892e+000	 1.416207418145904e+000	-1.808997725534260e+000
1	 1.339265835714243e+000	 1.431083141976285e+000	-2.102193404943896e+000
1	 1.323384736507713e+000	 1.445781689936458e+000	-2.386433360210595e+000
1	 1.307346256798566e+000	 1.460300487930869e+000	-2.659295908554272e+000
1	 1.480169434085108e+000	 1.325134097447286e+000	-2.547953490123175e-001
1	 1.465453092353505e+000	 1.341390797784841e+000	-5.314218909637214e-001
1	 1.450554554966089e+000	 1.357487976290097e+000	-8.130000785560095e-001
1	 1.435476431041720e+000	 1.373422585726433e+000	-1.097675468279441e+000
1	 1.420221397328001e+000	 1.389191636118633e+000	-1.383550244715618e+000
1	 1.404792196620206e+000	 1.404792196620206e+000	-1.668686932296883e+000
1	 1.389191636118633e+000	 1.420221397328000e+000	-1.951112184068750e+000
1	 1.373422585726434e+000	 1.435476431041720e+000	-2.228820639314992e+000
1	 1.357487976290097e+000	 1.450554554966089e+000	-2.499778841722597e+000
1	 1.341390797784841e+000	 1.465453092353505e+000	-2.761929209607104e+000
1	 1.325134097447286e+000	 1.480169434085108e+000	-3.013194049588560e+000
1	 1.500038380238764e+000	 1.342921938095756e+000	-8.072934276229491e-001
1	 1.485124494769979e+000	 1.359396859061667e+000	-1.066559844129694e+000
1	 1.470025967955333e+000	 1.375710116865597e+000	-1.328393197819567e+000
1	 1.454745443936998e+000	 1.391858623366575e+000	-1.591334539908930e+000
1	 1.439285635393696e+000	 1.407839348453674e+000	-1.853889584359160e+000
1	 1.423649321938409e+000	 1.423649321938408e+000	-2.114531765259723e+000
1	 1.407839348453675e+000	 1.439285635393696e+000	-2.371705357727883e+000
1	 1.391858623366575e+000	 1.454745443936998e+000	-2.623828655565433e+000
1	 1.375710116865597e+000	 1.470025967955333e+000	-2.869297198763096e+000
1	 1.359396859061667e+000	 1.485124494769979e+000	-3.106487043812376e+000
1	 1.342921938095756e+000	 1.500038380238765e+000	-3.333758069677354e+000
1	 1.519907326391754e+000	 1.360709778744060e+000	-1.359552455615148e+000
1	 1.504795897185810e+000	 1.377402920338258e+000	-1.597868526000544e+000
1	 1.489497380943965e+000	 1.393932257440796e+000	-1.836182990955180e+000
1	 1.474014456831702e+000	 1.410294661006352e+000	-2.073512050898508e+000
1	 1.458349873458863e+000	 1.426487060788292e+000	-2.308846585065180e+000
1	 1.442506447256132e+000	 1.442506447256132e+000	-2.541154394320578e+000
1	 1.426487060788292e+000	 1.458349873458862e+000	-2.769382490497915e+000
1	 1.410294661006352e+000	 1.474014456831703e+000	-2.992459427230825e+000
1	 1.393932257440795e+000	 1.489497380943965e+000	-3.209297667144550e+000
1	 1.377402920338257e+000	 1.504795897185810e+000	-3.418795980172837e+000
1	 1.360709778744060e+000	 1.519907326391754e+000	-3.619841867689339e+000
1	 1.539776272543993e+000	 1.378497619392281e+000	-1.910379301027761e+000
1	 1.524467299600929e+000	 1.395408981614681e+000	-2.123980891966988e+000
1	 1.508968793931934e+000	 1.412154398015745e+000	-2.334877970446751e+000
1	 1.493283469725799e+000	 1.428730698645799e+000	-2.542638439791157e+000
1	 1.477414111523483e+000	 1.445134773122503e+000	-2.746816834199501e+000
1	 1.461363572573377e+000	 1.461363572573377e+000	-2.946955589960581e+000
1	 1.445134773122503e+000	 1.477414111523483e+000	-3.142586342746052e+000
1	 1.428730698645800e+000	 1.493283469725799e+000	-3.333231248036175e+000
1	 1.412154398015745e+000	 1.508968793931934e+000	-3.518404321667954e+000
1	 1.395408981614681e+000	 1.524467299600929e+000	-3.697612797441450e+000
1	 1.378497619392282e+000	 1.539776272543993e+000	-3.870358498676239e+000
1	 1.200619212896339e+000	 1.341086810997858e+000	 9.136983105002099e-002
1	 1.185746094326383e+000	 1.354254932090050e+000	-2.475502795813343e-001
1	 1.170734073575938e+000	 1.367253388693743e+000	-5.877632647908513e-001
1	 1.155586059003449e+000	 1.380080008951025e+000	-9.284226261875357e-001
1	 1.140305003643770e+000	 1.392732687476032e+000	-1.268702512419896e+000
1	 1.124893903309479e+000	 1.405209386483143e+000	-1.607798990155553e+000
1	 1.109355794658762e+000	 1.417508136850241e+000	-1.944931269750596e+000
1	 1.093693753232441e+000	 1.429627039115892e+000	-2.279342883276364e+000
1	 1.077910891462778e+000	 1.441564264409459e+000	-2.610302812705014e+000
1	 1.062010356656721e+000	 1.453318055313266e+000	-2.937106566194854e+000
1	 1.045995328956277e+000	 1.464886726656035e+000	-3.259077200560470e+000
1	 1.218407053548307e+000	 1.360955757153844e+000	-4.345919526193843e-001
1	 1.203313581463500e+000	 1.374318971275530e+000	-7.688975738339388e-001
1	 1.188079149285163e+000	 1.387510007235055e+000	-1.103762217174400e+000
1	 1.172706708460706e+000	 1.400526660997231e+000	-1.438536163173054e+000
1	 1.157199255775851e+000	 1.413366795983732e+000	-1.772590366915807e+000
1	 1.141559831427820e+000	 1.426028344218016e+000	-2.105317383910640e+000
1	 1.125791517064594e+000	 1.438509307404328e+000	-2.436132252623916e+000
1	 1.109897433792857e+000	 1.450807757939659e+000	-2.764473332065638e+000
1	 1.093880740157302e+000	 1.462921839857642e+000	-3.089803092929692e+000
1	 1.077744630093995e+000	 1.474849769703483e+000	-3.411608860920010e+000
1	 1.061492330860527e+000	 1.486589837339156e+000	-3.729403511024720e+000
1	 1.236194894199525e+000	 1.380824703309748e+000	-9.355929626539911e-001
1	 1.220881068599836e+000	 1.394383010461012e+000	-1.262111936954195e+000
1	 1.205424224993587e+000	 1.407766625776456e+000	-1.588913139006341e+000
1	 1.189827357917149e+000	 1.420973313043610e+000	-1.915503407602931e+000
1	 1.174093507907113e+000	 1.434000904491688e+000	-2.241409272528582e+000
1	 1.158225759545347e+000	 1.446847301953224e+000	-2.566177611014735e+000
1	 1.142227239469625e+000	 1.459510477958824e+000	-2.889376264130836e+000
1	 1.126101114352494e+000	 1.471988476763906e+000	-3.210594612041346e+000
1	 1.109850588851077e+000	 1.484279415306369e+000	-3.529444107166882e+000
1	 1.093478903530556e+000	 1.496381484094301e+000	-3.845558764401848e+000
1	 1.076989332764112e+000	 1.508292948022929e+000	-4.158595607654651e+000
1	 1.253982734850077e+000	 1.400693649465486e+000	-1.410033223014985e+000
1	 1.238448555735490e+000	 1.414447049646399e+000	-1.725822675097060e+000
1	 1.222769300701319e+000	 1.428023244317834e+000	-2.042042868237597e+000
1	 1.206948007372900e+000	 1.441419965090038e+000	-2.358318839246242e+000
1	 1.190987760037690e+000	 1.454635012999764e+000	-2.674293344562133e+000
1	 1.174891687662203e+000	 1.467666259688620e+000	-2.989627321020599e+000
1	 1.158662961874007e+000	 1.480511648513576e+000	-3.304000311094540e+000
1	 1.142304794911510e+000	 1.493169195588471e+000	-3.617110851922763e+000
1	 1.125820437544266e+000	 1.505636990755471e+000	-3.928676827531429e+000
1	 1.109213176966573e+000	 1.517913198485543e+000	-4.238435783754277e+000
1	 1.092486334667199e+000	 1.529996058707168e+000	-4.546145205453414e+000
1	 1.271770575500045e+000	 1.420562595620974e+000	-1.856402271039294e+000
1	 1.256016042870559e+000	 1.434511088831594e+000	-2.158735780211760e+000
1	 1.240114376408472e+000	 1.448279862859077e+000	-2.462043877361949e+000
1	 1.224068656828083e+000	 1.461866617136390e+000	-2.766033193408763e+000
1	 1.207882012167718e+000	 1.475269121507824e+000	-3.070425141709771e+000
1	 1.191557615778533e+000	 1.488485217424060e+000	-3.374956255004139e+000
1	 1.175098684277891e+000	 1.501512819068427e+000	-3.679378492617138e+000
1	 1.158508475470063e+000	 1.514349914413188e+000	-3.983459517459722e+000
1	 1.141790286237030e+000	 1.526994566204773e+000	-4.286982942435430e+000
1	 1.124947450402209e+000	 1.539444912877032e+000	-4.589748545949076e+000
1	 1.107983336569954e+000	 1.551699169391692e+000	-4.891572456291288e+000
1	 1.289558416149514e+000	 1.440431541776130e+000	-2.273272983815863e+000
1	 1.273583530005141e+000	 1.454575128016497e+000	-2.559628641120053e+000
1	 1.257459452115157e+000	 1.468536481400075e+000	-2.847869746684570e+000
1	 1.241189306282822e+000	 1.482313269182545e+000	-3.137749581059789e+000
1	 1.224776264297331e+000	 1.495903230015734e+000	-3.429032324975249e+000
1	 1.208223543894480e+000	 1.509304175159395e+000	-3.721493342565541e+000
1	 1.191534406681430e+000	 1.522513989623221e+000	-4.014919441872275e+000
1	 1.174712156028311e+000	 1.535530633237893e+000	-4.309109112219795e+000
1	 1.157760134929534e+000	 1.548352141654106e+000	-4.603872738124001e+000
1	 1.140681723837632e+000	 1.560976627268588e+000	-4.899032789456811e+000
1	 1.123480338472544e+000	 1.573402280076317e+000	-5.194423987650813e+000
1	 1.307346256798566e+000	 1.460300487930869e+000	-2.659295908554273e+000
1	 1.291151017139334e+000	 1.474639167201012e+000	-2.927345186362882e+000
1	 1.274804527821486e+000	 1.488793099940715e+000	-3.198531007137320e+000
1	 1.258309955737241e+000	 1.502759921228375e+000	-3.472619925698228e+000
1	 1.241670516426661e+000	 1.516537338523357e+000	-3.749384589347300e+000
1	 1.224889472010190e+000	 1.530123132894483e+000	-4.028604035820576e+000
1	 1.207970129084775e+000	 1.543515160177802e+000	-4.310063976740474e+000
1	 1.190915836586413e+000	 1.556711352062423e+000	-4.593557066075060e+000
1	 1.173729983621940e+000	 1.569709717103298e+000	-4.878883153155166e+000
1	 1.156415997273006e+000	 1.582508341660034e+000	-5.165849519841832e+000
1	 1.138977340375136e+000	 1.595105390760859e+000	-5.454271101482078e+000
1	 1.325134097447286e+000	 1.480169434085108e+000	-3.013194049588561e+000
1	 1.308718504273237e+000	 1.494703206385040e+000	-3.260791418244667e+000
1	 1.292149603527569e+000	 1.509049718480886e+000	-3.513091317915482e+000
1	 1.275430605191462e+000	 1.523206573273759e+000	-3.769841687194996e+000
1	 1.258564768555845e+000	 1.537171447030557e+000	-4.030790842598756e+000
1	 1.241555400125804e+000	 1.550942090629174e+000	-4.295687858113946e+000
1	 1.224405851488079e+000	 1.564516330732018e+000	-4.564282939663753e+000
1	 1.207119517144526e+000	 1.577892070886612e+000	-4.836327793751299e+000
1	 1.189699832314410e+000	 1.591067292552177e+000	-5.111575989572645e+000
1	 1.172150270708497e+000	 1.604040056051192e+000	-5.389783313907558e+000
1	 1.154474342277895e+000	 1.616808501445135e+000	-5.670708118123049e+000
1	 1.342921938095756e+000	 1.500038380238765e+000	-3.333758069677355e+000
1	 1.326285991406947e+000	 1.514767245568484e+000	-3.558931301804452e+000
1	 1.309494679233518e+000	 1.529306337020477e+000	-3.790663947892156e+000
1	 1.292551254645610e+000	 1.543653225318572e+000	-4.028654846004575e+000
1	 1.275459020685017e+000	 1.557805555537200e+000	-4.272596608297141e+000
1	 1.258221328241467e+000	 1.571761048363324e+000	-4.522176147545341e+000
1	 1.240841573891492e+000	 1.585517501285710e+000	-4.777075209174954e+000
1	 1.223323197702809e+000	 1.599072789710299e+000	-5.036970907671427e+000
1	 1.205669681007109e+000	 1.612424868000571e+000	-5.301536266243814e+000
1	 1.187884544144271e+000	 1.625571770441885e+000	-5.570440758617368e+000
1	 1.169971344180991e+000	 1.638511612128961e+000	-5.843350851834630e+000
1	 1.360709778744060e+000	 1.519907326391754e+000	-3.619841867689340e+000
1	 1.343853478540562e+000	 1.534831284751244e+000	-3.820782976234008e+000
1	 1.326839754939444e+000	 1.549562955559376e+000	-4.030408533012539e+000
1	 1.309671904099807e+000	 1.564099877362689e+000	-4.248339123918748e+000
1	 1.292353272814311e+000	 1.578439664043150e+000	-4.474181632509851e+000
1	 1.274887256357323e+000	 1.592580006096787e+000	-4.707529977481916e+000
1	 1.257277296295169e+000	 1.606518671838723e+000	-4.947965867392637e+000
1	 1.239526878261420e+000	 1.620253508533317e+000	-5.195059570974721e+000
1	 1.221639529700197e+000	 1.633782443448310e+000	-5.448370701353150e+000
1	 1.203618817580493e+000	 1.647103484831933e+000	-5.707449012458188e+000
1	 1.185468346084587e+000	 1.660214722812154e+000	-5.971835205907181e+000
1	 1.378497619392282e+000	 1.539776272543993e+000	-3.870358498676239e+000
1	 1.361420965674179e+000	 1.554895323933223e+000	-4.045415259619104e+000
1	 1.344184830645459e+000	 1.569819574097472e+000	-4.231528084739283e+000
1	 1.326792553554179e+000	 1.584546529405988e+000	-4.428211419997701e+000
1	 1.309247524943862e+000	 1.599073772548270e+000	-4.634957675804475e+000
1	 1.291553184473516e+000	 1.613398963829417e+000	-4.851238238070022e+000
1	 1.273713018699258e+000	 1.627519842390902e+000	-5.076504509393200e+000
1	 1.255730558820517e+000	 1.641434227355505e+000	-5.310188978048994e+000
1	 1.237609378393840e+000	 1.655140018895221e+000	-5.551706312385176e+000
1	 1.219353091017331e+000	 1.668635199221159e+000	-5.800454478187824e+000
1	 1.200965347988850e+000	 1.681917833494530e+000	-6.055815876537396e+000
1	 1.045995328956277e+000	 1.464886726656035e+000	-3.259077200560470e+000
1	 1.029869018930230e+000	 1.476268665820915e+000	-3.577240207912639e+000
1	 1.013634664473865e+000	 1.487462332141325e+000	-3.892687891238068e+000
1	 9.972955298026258e-001	 1.498466258716639e+000	-4.204883503861733e+000
1	 9.808549037040830e-001	 1.509279053342249e+000	-4.513316031113291e+000
1	 9.643160974265818e-001	 1.519899398955622e+000	-4.817501087891145e+000
1	 9.476824425612986e-001	 1.530326054011600e+000	-5.116981759853202e+000
1	 9.309572889204426e-001	 1.540557852787053e+000	-5.411329386936662e+000
1	 9.141440024143019e-001	 1.550593705615053e+000	-5.700144288067963e+000
1	 8.972459629298201e-001	 1.560432599048893e+000	-5.983056426087956e+000
1	 8.802665622133532e-001	 1.570073595956371e+000	-6.259726012078789e+000
1	 1.061492330860527e+000	 1.486589837339156e+000	-3.729403511024720e+000
1	 1.045127100592058e+000	 1.498140406255998e+000	-4.044346037134889e+000
1	 1.028652225155088e+000	 1.509499912961594e+000	-4.357624041438820e+000
1	 1.012071017126219e+000	 1.520666868822365e+000	-4.668831225283864e+000
1	 9.953868140182343e-001	 1.531639861007416e+000	-4.977586349020881e+000
1	 9.786029761374547e-001	 1.542417552941193e+000	-5.283533911340153e+000
1	 9.617228844344271e-001	 1.552998684684357e+000	-5.586344775228831e+000
1	 9.447499383506842e-001	 1.563382073242935e+000	-5.885716739674056e+000
1	 9.276875536643391e-001	 1.573566612805977e+000	-6.181375056383252e+000
1	 9.105391603372328e-001	 1.583551274911993e+000	-6.473072890941239e+000
1	 8.933082003663225e-001	 1.593335108544643e+000	-6.760591727972503e+000
1	 1.076989332764112e+000	 1.508292948022929e+000	-4.158595607654651e+000
1	 1.060385182253275e+000	 1.520012146691774e+000	-4.469843237893310e+000
1	 1.043669785835759e+000	 1.531537493782587e+000	-4.780602617543007e+000
1	 1.026846504449323e+000	 1.542867478928838e+000	-5.090584766616447e+000
1	 1.009918724331957e+000	 1.554000668673342e+000	-5.399525058244360e+000
1	 9.928898548479597e-001	 1.564935706927531e+000	-5.707183699477976e+000
1	 9.757633263072423e-001	 1.575671315357876e+000	-6.013346161542594e+000
1	 9.585425877806589e-001	 1.586206293699568e+000	-6.317823559051634e+000
1	 9.412311049141445e-001	 1.596539519997630e+000	-6.620452977824859e+000
1	 9.238323577444372e-001	 1.606669950775794e+000	-6.921097751090991e+000
1	 9.063498385190917e-001	 1.616596621133581e+000	-7.219647683989374e+000
1	 1.092486334667199e+000	 1.529996058707168e+000	-4.546145205453414e+000
1	 1.075643263914047e+000	 1.541883887128052e+000	-4.853226917827898e+000
1	 1.058687346516041e+000	 1.553575074604111e+000	-5.161119867059938e+000
1	 1.041621991772096e+000	 1.565068089035862e+000	-5.469639826577518e+000
1	 1.024450634645408e+000	 1.576361476339833e+000	-5.778626183331637e+000
1	 1.007176733558246e+000	 1.587453860914438e+000	-6.087942239199469e+000
1	 9.898037681798880e-001	 1.598343946031964e+000	-6.397475464510386e+000
1	 9.723352372105052e-001	 1.609030514156761e+000	-6.707137703550084e+000
1	 9.547746561638559e-001	 1.619512427189830e+000	-7.016865332026111e+000
1	 9.371255551515678e-001	 1.629788626640121e+000	-7.326619366598904e+000
1	 9.193914766717937e-001	 1.639858133723017e+000	-7.636385526705604e+000
1	 1.107983336569954e+000	 1.551699169391692e+000	-4.891572456291288e+000
1	 1.090901345574538e+000	 1.563755627564647e+000	-5.194020431638641e+000
1	 1.073704907196097e+000	 1.575612655425975e+000	-5.498700220787030e+000
1	 1.056397479094698e+000	 1.587268699143244e+000	-5.805520317876434e+000
1	 1.038982544958740e+000	 1.598722284006695e+000	-6.114412056486103e+000
1	 1.021463612268464e+000	 1.609972014901722e+000	-6.425329750244512e+000
1	 1.003844210052509e+000	 1.621016576706430e+000	-6.738250788079422e+000
1	 9.861278866403656e-001	 1.631854734614329e+000	-7.053175684276648e+000
1	 9.683182074136085e-001	 1.642485334382394e+000	-7.370128083631856e+000
1	 9.504187525587582e-001	 1.652907302504798e+000	-7.689154722091963e+000
1	 9.324331148245619e-001	 1.663119646312786e+000	-8.010325343392905e+000
1	 1.123480338472544e+000	 1.573402280076317e+000	-5.194423987650813e+000
1	 1.106159427234916e+000	 1.585627368001368e+000	-5.491773432922017e+000
1	 1.088722467876090e+000	 1.597650236247987e+000	-5.792894349044455e+000
1	 1.071172966417288e+000	 1.609469309250792e+000	-6.097776421330708e+000
1	 1.053514455272107e+000	 1.621083091673733e+000	-6.406431365223834e+000
1	 1.035750490978762e+000	 1.632490168889190e+000	-6.718892924220586e+000
1	 1.017884651925251e+000	 1.643689207381082e+000	-7.035216824803655e+000
1	 9.999205360703791e-001	 1.654678955072082e+000	-7.355480688830356e+000
1	 9.818617586635403e-001	 1.665458241575140e+000	-7.679783903929512e+000
1	 9.637119499661435e-001	 1.676025978369650e+000	-8.008247452562143e+000
1	 9.454747529775296e-001	 1.686381158902720e+000	-8.341013700500007e+000
1	 1.138977340375136e+000	 1.595105390760859e+000	-5.454271101482078e+000
1	 1.121417508895345e+000	 1.607499108438029e+000	-5.746060085047826e+000
1	 1.103740028556184e+000	 1.619687817069959e+000	-6.043277376591326e+000
1	 1.085948453740026e+000	 1.631669919358312e+000	-6.345982798837518e+000
1	 1.068046365585667e+000	 1.643443899340753e+000	-6.654257359412447e+000
1	 1.050037369689291e+000	 1.655008322876647e+000	-6.968203123712720e+000
1	 1.031925093798258e+000	 1.666361838055729e+000	-7.287943047011514e+000
1	 1.013713185500686e+000	 1.677503175529833e+000	-7.613620766490660e+000
1	 9.954053099137867e-001	 1.688431148767885e+000	-7.945400353986965e+000
1	 9.770051473738575e-001	 1.699144654234502e+000	-8.283466030333296e+000
1	 9.585163911308307e-001	 1.709642671492654e+000	-8.628021842264900e+000
1	 1.154474342277895e+000	 1.616808501445135e+000	-5.670708118123049e+000
1	 1.136675590555991e+000	 1.629370848874443e+000	-5.956477416133457e+000
1	 1.118757589236542e+000	 1.641725397891696e+000	-6.249447241313724e+000
1	 1.100723941063069e+000	 1.653870529465609e+000	-6.549736950273986e+000
1	 1.082578275899572e+000	 1.665804707007561e+000	-6.857486202716475e+000
1	 1.064324248400201e+000	 1.677526476863901e+000	-7.172854726438136e+000
1	 1.045965535671676e+000	 1.689034468730179e+000	-7.496022043658416e+000
1	 1.027505834931428e+000	 1.700327395987393e+000	-7.827187159572939e+000
1	 1.008948861164486e+000	 1.711404055960447e+000	-8.166568214122007e+000
1	 9.902983447820342e-001	 1.722263330099179e+000	-8.514402098050105e+000
1	 9.715580292845979e-001	 1.732904184082422e+000	-8.870944034412151e+000
1	 1.169971344180991e+000	 1.638511612128961e+000	-5.843350851834630e+000
1	 1.151933672217020e+000	 1.651242589310421e+000	-6.122643804754503e+000
1	 1.133775149917325e+000	 1.663762978713008e+000	-6.411023183354112e+000
1	 1.115499428386579e+000	 1.676071139572491e+000	-6.708657700980234e+000
1	 1.097110186213977e+000	 1.688165514673963e+000	-7.015735455059430e+000
1	 1.078611127111641e+000	 1.700044630850756e+000	-7.332463600996739e+000
1	 1.060005977545648e+000	 1.711707099404241e+000	-7.659067989355763e+000
1	 1.041298484362745e+000	 1.723151616444576e+000	-7.995792767396842e+000
1	 1.022492412415773e+000	 1.734376963152644e+000	-8.342899946134304e+000
1	 1.003591542190808e+000	 1.745382005963505e+000	-8.700668934151169e+000
1	 9.845996674389650e-001	 1.756165696671858e+000	-9.069396039483019e+000
1	 1.185468346084587e+000	 1.660214722812154e+000	-5.971835205907181e+000
1	 1.167191753878597e+000	 1.673114329745773e+000	-6.244197584428006e+000
1	 1.148792710598699e+000	 1.685800559533704e+000	-6.527644352745234e+000
1	 1.130274915710713e+000	 1.698271749678765e+000	-6.822383807876779e+000
1	 1.111642096529037e+000	 1.710526322339764e+000	-7.128642674113573e+000
1	 1.092898005823761e+000	 1.722562784837020e+000	-7.446665702176570e+000
1	 1.074046419420320e+000	 1.734379730077722e+000	-7.776715233481308e+000
1	 1.055091133794776e+000	 1.745975836901192e+000	-8.119070730733203e+000
1	 1.036035963667787e+000	 1.757349870344292e+000	-8.474028276152724e+000
1	 1.016884739600314e+000	 1.768500681827304e+000	-8.841900038702276e+000
1	 9.976413055940656e-001	 1.779427209260796e+000	-9.223013711752358e+000
1	 1.200965347988850e+000	 1.681917833494530e+000	-6.055815876537396e+000
1	 1.182449835540888e+000	 1.694986070180314e+000	-6.320795756141028e+000
1	 1.163810271280825e+000	 1.707838140353592e+000	-6.598968524845184e+000
1	 1.145050403035632e+000	 1.720472359784237e+000	-6.890572673499909e+000
1	 1.126174006844908e+000	 1.732887130004770e+000	-7.195864125066451e+000
1	 1.107184884536711e+000	 1.745080938822499e+000	-7.515115775013852e+000
1	 1.088086861295837e+000	 1.757052360750431e+000	-7.848616998524636e+000
1	 1.068883783227663e+000	 1.768800057357055e+000	-8.196673125847079e+000
1	 1.049579514920662e+000	 1.780322777535210e+000	-8.559604887202040e+000
1	 1.030177937010685e+000	 1.791619357690404e+000	-8.937747828718081e+000
1	 1.010682943750033e+000	 1.802688721849068e+000	-9.331451700931124e+000
1	 8.802665622133532e-001	 1.570073595956371e+000	-6.259726012078792e+000
1	 8.632117660713863e-001	 1.579514434436757e+000	-6.529402473458373e+000
1	 8.460824421315376e-001	 1.588755792347744e+000	-6.790821649110515e+000
1	 8.288820044695899e-001	 1.597796962967234e+000	-7.042791772981149e+000
1	 8.116138706063589e-001	 1.606637315540310e+000	-7.284147533255593e+000
1	 7.942814594508111e-001	 1.615276295033541e+000	-7.513752356794399e+000
1	 7.768881892624316e-001	 1.623713421824429e+000	-7.730500611368934e+000
1	 7.594374756351380e-001	 1.631948291327146e+000	-7.933319722135328e+000
1	 7.419327295049752e-001	 1.639980573555821e+000	-8.121172199058156e+000
1	 7.243773551837668e-001	 1.647810012626662e+000	-8.293057572275060e+000
1	 7.067747484208015e-001	 1.655436426200365e+000	-8.448014232675506e+000
1	 8.933082003663225e-001	 1.593335108544643e+000	-6.760591727972503e+000
1	 8.760007279448260e-001	 1.602915818291883e+000	-7.043029152060213e+000
1	 8.586176235547386e-001	 1.612294092054241e+000	-7.318888020867754e+000
1	 8.411623518532653e-001	 1.621469212639146e+000	-7.586968149989939e+000
1	 8.236383809936846e-001	 1.630440539946704e+000	-7.846094459804615e+000
1	 8.060491805379904e-001	 1.639207510720356e+000	-8.095119334053326e+000
1	 7.883982193890753e-001	 1.647769638231734e+000	-8.332924896787160e+000
1	 7.706889637447694e-001	 1.656126511900855e+000	-8.558425203942237e+000
1	 7.529248750760244e-001	 1.664277796852925e+000	-8.770568346087050e+000
1	 7.351094081314270e-001	 1.672223233413098e+000	-8.968338459165915e+000
1	 7.172460089701712e-001	 1.679962636540613e+000	-9.150757640347733e+000
1	 9.063498385190917e-001	 1.616596621133581e+000	-7.219647683989375e+000
1	 8.887896898180561e-001	 1.626317202147628e+000	-7.515042794031636e+000
1	 8.711528049777059e-001	 1.635832391761306e+000	-7.805567116101829e+000
1	 8.534426992366734e-001	 1.645141462311570e+000	-8.090029029011411e+000
1	 8.356628913807014e-001	 1.654243764353546e+000	-8.367260804957668e+000
1	 8.178169016248167e-001	 1.663138726407550e+000	-8.636121010585153e+000
1	 7.999082495153213e-001	 1.671825854639347e+000	-8.895496827184095e+000
1	 7.819404518539631e-001	 1.680304732474796e+000	-9.144306286179759e+000
1	 7.639170206466032e-001	 1.688575020150183e+000	-9.381500416345617e+000
1	 7.458414610785948e-001	 1.696636454199607e+000	-9.606065299455301e+000
1	 7.277172695190414e-001	 1.704488846880856e+000	-9.817024031376473e+000
1	 9.193914766717937e-001	 1.639858133723017e+000	-7.636385526705604e+000
1	 9.015786516912100e-001	 1.649718586003838e+000	-7.944944682295045e+000
1	 8.836879864005770e-001	 1.659370691468799e+000	-8.250379498603483e+000
1	 8.657230466199544e-001	 1.668813711984378e+000	-8.551523163265767e+000
1	 8.476874017675546e-001	 1.678046988760721e+000	-8.847231679562762e+000
1	 8.295846227114402e-001	 1.687069942095027e+000	-9.136386279072175e+000
1	 8.114182796413252e-001	 1.695882071047190e+000	-9.417895754430665e+000
1	 7.931919399628790e-001	 1.704482953048911e+000	-9.690698708313123e+000
1	 7.749091662168747e-001	 1.712872243447557e+000	-9.953765715009853e+000
1	 7.565735140254362e-001	 1.721049674986173e+000	-1.020610139126671e+001
1	 7.381885300675789e-001	 1.729015057221095e+000	-1.044674637333884e+001
1	 9.324331148245619e-001	 1.663119646312786e+000	-8.010325343392905e+000
1	 9.143676135644236e-001	 1.673119969860358e+000	-8.332264001346731e+000
1	 8.962231678234888e-001	 1.682908991176575e+000	-8.652872555036613e+000
1	 8.780033940032496e-001	 1.692485961657440e+000	-8.971024551741044e+000
1	 8.597119121543899e-001	 1.701850213168122e+000	-9.285615406146865e+000
1	 8.413523437980107e-001	 1.711001157782695e+000	-9.595564794426821e+000
1	 8.229283097672420e-001	 1.719938287455187e+000	-9.899818969603377e+000
1	 8.044434280716766e-001	 1.728661173623140e+000	-1.019735299431342e+001
1	 7.859013117870025e-001	 1.737169466745007e+000	-1.048717288736349e+001
1	 7.673055669721173e-001	 1.745462895772776e+000	-1.076831768074393e+001
1	 7.486597906159502e-001	 1.753541267561331e+000	-1.103986138405662e+001
1	 9.454747529775296e-001	 1.686381158902720e+000	-8.341013700500005e+000
1	 9.271565754378307e-001	 1.696521353717034e+000	-8.676555912920721e+000
1	 9.087583492465783e-001	 1.706447290884493e+000	-9.012618644998831e+000
1	 8.902837413866998e-001	 1.716158211330630e+000	-9.348130698024594e+000
1	 8.717364225413530e-001	 1.725653437575633e+000	-9.682041918035399e+000
1	 8.531200648846794e-001	 1.734932373470456e+000	-1.001332554184656e+001
1	 8.344383398932268e-001	 1.743994503863259e+000	-1.034098046573930e+001
1	 8.156949161805157e-001	 1.752839394197428e+000	-1.066403343298870e+001
1	 7.968934573571501e-001	 1.761466690042496e+000	-1.098154113668505e+001
1	 7.780376199188031e-001	 1.769876116559398e+000	-1.129259223457692e+001
1	 7.591310511643220e-001	 1.778067477901566e+000	-1.159630927294670e+001
1	 9.585163911308307e-001	 1.709642671492654e+000	-8.628021842264902e+000
1	 9.399455373115651e-001	 1.719922737573709e+000	-8.977399788748416e+000
1	 9.212935306699827e-001	 1.729985590592412e+000	-9.329213402103699e+000
1	 9.025640887704454e-001	 1.739830461003820e+000	-9.682461011276748e+000
1	 8.837609329285886e-001	 1.749456661983145e+000	-1.003616128916258e+001
1	 8.648877859715963e-001	 1.758863589158218e+000	-1.038935552176818e+001
1	 8.459483700194360e-001	 1.768050720271332e+000	-1.074110980159615e+001
1	 8.269464042895561e-001	 1.777017614771715e+000	-1.109051714155724e+001
1	 8.078856029274806e-001	 1.785763913339985e+000	-1.143669950598375e+001
1	 7.887696728656604e-001	 1.794289337346019e+000	-1.177880975558829e+001
1	 7.696023117128608e-001	 1.802593688241801e+000	-1.211603350348638e+001
1	 9.715580292845979e-001	 1.732904184082422e+000	-8.870944034412151e+000
1	 9.527344991857626e-001	 1.743324121430229e+000	-9.234397585652616e+000
1	 9.338287120938384e-001	 1.753523890300188e+000	-9.602274171895845e+000
1	 9.148444361546277e-001	 1.763502710676882e+000	-9.973655335991625e+000
1	 8.957854433162428e-001	 1.773259886390545e+000	-1.034764238229077e+001
1	 8.766555070589114e-001	 1.782794804845885e+000	-1.072335854073594e+001
1	 8.574584001460237e-001	 1.792106936679329e+000	-1.109995105692570e+001
1	 8.381978923989577e-001	 1.801195835345946e+000	-1.147659320464129e+001
1	 8.188777484981575e-001	 1.810061136637435e+000	-1.185248621758426e+001
1	 7.995017258128542e-001	 1.818702558132622e+000	-1.222686113733496e+001
1	 7.800735722617330e-001	 1.827119898582037e+000	-1.259898057481012e+001
1	 9.845996674389650e-001	 1.756165696671858e+000	-9.069396039483021e+000
1	 9.655234610605563e-001	 1.766725505286440e+000	-9.447172349779004e+000
1	 9.463638935182839e-001	 1.777062190007680e+000	-9.831438573909779e+000
1	 9.271247835393878e-001	 1.787174960349689e+000	-1.022137259860278e+001
1	 9.078099537044607e-001	 1.797063110797722e+000	-1.061617160466167e+001
1	 8.884232281467757e-001	 1.806726020533363e+000	-1.101505409836480e+001
1	 8.689684302731457e-001	 1.816163153087172e+000	-1.141726187077488e+001
1	 8.494493805088798e-001	 1.825374055920060e+000	-1.182206188168815e+001
1	 8.298698940693450e-001	 1.834358359934808e+000	-1.222874806519867e+001
1	 8.102337787605508e-001	 1.843115778919188e+000	-1.263664305410723e+001
1	 7.905448328111057e-001	 1.851646108922276e+000	-1.304509982066303e+001
1	 9.976413055940656e-001	 1.779427209260796e+000	-9.223013711752358e+000
1	 9.783124229360812e-001	 1.790126889142184e+000	-9.615366838148272e+000
1	 9.588990749434547e-001	 1.800600489714745e+000	-1.001636317651417e+001
1	 9.394051309248662e-001	 1.810847210022113e+000	-1.042528956024245e+001
1	 9.198344640933878e-001	 1.820866335204562e+000	-1.084145176124754e+001
1	 9.001909492353392e-001	 1.830657236220556e+000	-1.126417636160373e+001
1	 8.804784604009575e-001	 1.840219369494784e+000	-1.169281255521821e+001
1	 8.607008686194827e-001	 1.849552276494000e+000	-1.212673387655670e+001
1	 8.408620396412051e-001	 1.858655583232066e+000	-1.256533985367910e+001
1	 8.209658317089157e-001	 1.867528999705697e+000	-1.300805758308615e+001
1	 8.010160933611453e-001	 1.876172319262519e+000	-1.345434322412453e+001
1	 1.010682943750033e+000	 1.802688721849068e+000	-9.331451700931124e+000
1	 9.911013848124723e-001	 1.813528272997309e+000	-9.738642246930768e+000
1	 9.714342563694887e-001	 1.824138789421242e+000	-1.015672227435266e+001
1	 9.516854783112035e-001	 1.834519459694026e+000	-1.058509966606581e+001
1	 9.318589744831693e-001	 1.844669559610956e+000	-1.102320099678651e+001
1	 9.119586703247526e-001	 1.854588451907370e+000	-1.147047321841456e+001
1	 8.919884905296137e-001	 1.864275585902090e+000	-1.192638527770745e+001
1	 8.719523567309262e-001	 1.873730497067710e+000	-1.239042966365533e+001
1	 8.518541852139021e-001	 1.882952806529170e+000	-1.286212388214787e+001
1	 8.316978846581150e-001	 1.891942220492133e+000	-1.334101185575459e+001
1	 8.114873539120182e-001	 1.900698529602767e+000	-1.382666524667539e+001
1	 7.067747484208015e-001	 1.655436426200365e+000	-8.448014232675506e+000
1	 6.891256442852183e-001	 1.662860803443095e+000	-8.591232470995953e+000
1	 6.714360551290197e-001	 1.670081948955455e+000	-8.727403489796869e+000
1	 6.537093420179819e-001	 1.677099898436262e+000	-8.854951745987400e+000
1	 6.359488499726910e-001	 1.683914758373383e+000	-8.972354822049883e+000
1	 6.181579061975374e-001	 1.690526705208835e+000	-9.078145214133347e+000
1	 6.003398183486900e-001	 1.696935984454057e+000	-9.170911993318629e+000
1	 5.824978728425352e-001	 1.703142909757176e+000	-9.249302339152356e+000
1	 5.646353332059857e-001	 1.709147861924183e+000	-9.312022944875407e+000
1	 5.467554384699808e-001	 1.714951287895949e+000	-9.357841294095115e+000
1	 5.288614016073797e-001	 1.720553699683057e+000	-9.385586808964909e+000
1	 7.172460089701712e-001	 1.679962636540613e+000	-9.150757640347733e+000
1	 6.993354235518500e-001	 1.687497010056689e+000	-9.323047558446415e+000
1	 6.813837533048077e-001	 1.694825140851425e+000	-9.489720057258161e+000
1	 6.633944090908881e-001	 1.701947065152540e+000	-9.648878346566049e+000
1	 6.453707854890251e-001	 1.708862891025580e+000	-9.798678017596368e+000
1	 6.273162589980006e-001	 1.715572797526653e+000	-9.937329443144444e+000
1	 6.092341862787581e-001	 1.722077033804590e+000	-1.006310003979434e+001
1	 5.911279024377771e-001	 1.728375918154393e+000	-1.017431639032001e+001
1	 5.730007193529454e-001	 1.734469837023908e+000	-1.026936622473497e+001
1	 5.548559240432534e-001	 1.740359243975686e+000	-1.034670025883417e+001
1	 5.366967770835491e-001	 1.746044658606036e+000	-1.040483388944166e+001
1	 7.277172695190414e-001	 1.704488846880856e+000	-9.817024031376473e+000
1	 7.095452028179917e-001	 1.712133216670198e+000	-1.001958948478037e+001
1	 6.913314514801311e-001	 1.719568332747231e+000	-1.021806451839247e+001
1	 6.730794761633667e-001	 1.726794231868579e+000	-1.041026446550478e+001
1	 6.547927210049780e-001	 1.733811023677469e+000	-1.059405597513801e+001
1	 6.364746117981360e-001	 1.740618889844100e+000	-1.076735998167035e+001
1	 6.181285542085547e-001	 1.747218083154697e+000	-1.092815452675640e+001
1	 5.997579320328053e-001	 1.753608926551139e+000	-1.107447743066992e+001
1	 5.813661054997462e-001	 1.759791812123126e+000	-1.120442881063100e+001
1	 5.629564096164186e-001	 1.765767200054896e+000	-1.131617344410361e+001
1	 5.445321525596547e-001	 1.771535617528480e+000	-1.140794297546912e+001
1	 7.381885300675789e-001	 1.729015057221095e+000	-1.044674637333884e+001
1	 7.197549820838096e-001	 1.736769423283644e+000	-1.068086442069774e+001
1	 7.012791496551518e-001	 1.744311524642915e+000	-1.091251915391711e+001
1	 6.827645432355752e-001	 1.751641398584440e+000	-1.113926996144180e+001
1	 6.642146565207017e-001	 1.758759156329126e+000	-1.135872616789324e+001
1	 6.456329645980879e-001	 1.765664982161268e+000	-1.156855053195539e+001
1	 6.270229221382165e-001	 1.772359132504484e+000	-1.176646258799029e+001
1	 6.083879616277474e-001	 1.778841934947530e+000	-1.195024182761673e+001
1	 5.897314916465081e-001	 1.785113787221967e+000	-1.211773071795628e+001
1	 5.710568951895859e-001	 1.791175156133712e+000	-1.226683755372180e+001
1	 5.523675280357959e-001	 1.797026576450526e+000	-1.239553914078808e+001
1	 7.486597906159502e-001	 1.753541267561331e+000	-1.103986138405662e+001
1	 7.299647613494683e-001	 1.761405629897045e+000	-1.130687819167028e+001
1	 7.112268478300333e-001	 1.769054716538517e+000	-1.157316164121729e+001
1	 6.924496103076727e-001	 1.776488565300181e+000	-1.183604574945479e+001
1	 6.736365920363487e-001	 1.783707288980629e+000	-1.209291278324033e+001
1	 6.547913173980023e-001	 1.790711074478250e+000	-1.234119724564126e+001
1	 6.359172900678811e-001	 1.797500181854058e+000	-1.257838969842665e+001
1	 6.170179912227322e-001	 1.804074943343686e+000	-1.280204041632706e+001
1	 5.980968777933491e-001	 1.810435762320554e+000	-1.300976286896085e+001
1	 5.791573807628641e-001	 1.816583112212264e+000	-1.319923702683400e+001
1	 5.602029035120719e-001	 1.822517535372305e+000	-1.336821248832845e+001
1	 7.591310511643220e-001	 1.778067477901566e+000	-1.159630927294670e+001
1	 7.401745406151347e-001	 1.786041836510427e+000	-1.189763630175159e+001
1	 7.211745460049378e-001	 1.793797908434078e+000	-1.220006537183185e+001
1	 7.021346773798164e-001	 1.801335732015862e+000	-1.250073441788669e+001
1	 6.830585275520711e-001	 1.808655421632055e+000	-1.279682763902488e+001
1	 6.639496701980238e-001	 1.815757166795140e+000	-1.308557993420989e+001
1	 6.448116579976856e-001	 1.822641231203525e+000	-1.336428116792465e+001
1	 6.256480208178877e-001	 1.829307951739723e+000	-1.363028026064599e+001
1	 6.064622639403884e-001	 1.835757737419014e+000	-1.388098909926938e+001
1	 5.872578663363622e-001	 1.841991068290684e+000	-1.411388626316587e+001
1	 5.680382789885817e-001	 1.848008494293950e+000	-1.432652056210179e+001
1	 7.696023117128608e-001	 1.802593688241801e+000	-1.211603350348638e+001
1	 7.503843198809724e-001	 1.810678043123807e+000	-1.245314395544278e+001
1	 7.311222441800278e-001	 1.818541100329640e+000	-1.279329974302072e+001
1	 7.118197444521650e-001	 1.826182898731543e+000	-1.313347079481605e+001
1	 6.924804630680210e-001	 1.833603554283482e+000	-1.347067102506300e+001
1	 6.731080229982976e-001	 1.840803259112029e+000	-1.380196318060992e+001
1	 6.537060259277669e-001	 1.847782280552992e+000	-1.412446351310884e+001
1	 6.342780504133430e-001	 1.854540960135760e+000	-1.443534627026828e+001
1	 6.148276500877450e-001	 1.861079712517475e+000	-1.473184800059336e+001
1	 5.953583519101899e-001	 1.867399024369105e+000	-1.501127166661563e+001
1	 5.758736544654247e-001	 1.873499453215596e+000	-1.527099056219575e+001
1	 7.800735722617330e-001	 1.827119898582037e+000	-1.259898057481012e+001
1	 7.605940991471489e-001	 1.835314249737210e+000	-1.297340607779790e+001
1	 7.410699423554661e-001	 1.843284292225242e+000	-1.335293042584944e+001
1	 7.215048115248767e-001	 1.851030065447285e+000	-1.373438246890373e+001
1	 7.019023985843511e-001	 1.858551686934985e+000	-1.411463247686996e+001
1	 6.822663757989691e-001	 1.865849351429012e+000	-1.449059736135196e+001
1	 6.626003938582623e-001	 1.872923329902566e+000	-1.485924571871707e+001
1	 6.429080800092253e-001	 1.879773968531916e+000	-1.521760268766160e+001
1	 6.231930362355381e-001	 1.886401687616062e+000	-1.556275461503054e+001
1	 6.034588374844560e-001	 1.892806980447657e+000	-1.589185352425381e+001
1	 5.837090299427000e-001	 1.898990412137376e+000	-1.620212138137144e+001
1	 7.905448328111057e-001	 1.851646108922276e+000	-1.304509982066303e+001
1	 7.708038784138284e-001	 1.859950456350654e+000	-1.345842733293069e+001
1	 7.510176405314152e-001	 1.868027484120925e+000	-1.387901961196769e+001
1	 7.311898785981090e-001	 1.875877232163145e+000	-1.430359026884584e+001
1	 7.113243341012138e-001	 1.883499819586643e+000	-1.472889148789664e+001
1	 6.914247286001836e-001	 1.890895443746181e+000	-1.515171958737461e+001
1	 6.714947617893092e-001	 1.898064379252353e+000	-1.556892039870447e+001
1	 6.515381096056636e-001	 1.905006976928308e+000	-1.597739445681781e+001
1	 6.315584223838864e-001	 1.911723662714902e+000	-1.637410199471140e+001
1	 6.115593230592691e-001	 1.918214936526472e+000	-1.675606773599178e+001
1	 5.915444054205066e-001	 1.924481371059421e+000	-1.712038547980465e+001
1	 8.010160933611453e-001	 1.876172319262519e+000	-1.345434322412453e+001
1	 7.810136576811766e-001	 1.884586662964163e+000	-1.390821214107006e+001
1	 7.609653387080380e-001	 1.892770676016731e+000	-1.437162624103227e+001
1	 7.408749456720213e-001	 1.900724398879184e+000	-1.484120870522106e+001
1	 7.207462696187608e-001	 1.908447952238532e+000	-1.531361816590314e+001
1	 7.005830814020861e-001	 1.915941536063627e+000	-1.578555457111331e+001
1	 6.803891297210440e-001	 1.923205428602460e+000	-1.625376486627664e+001
1	 6.601681392027861e-001	 1.930239985325052e+000	-1.671504848464749e+001
1	 6.399238085329084e-001	 1.937045637814121e+000	-1.716626263911557e+001
1	 6.196598086347389e-001	 1.943622892605682e+000	-1.760432740858452e+001
1	 5.993797808989435e-001	 1.949972329981867e+000	-1.802623061278248e+001
1	 8.114873539120182e-001	 1.900698529602767e+000	-1.382666524667538e+001
1	 7.912234369493598e-001	 1.909222869577757e+000	-1.432276469429541e+001
1	 7.709130368854968e-001	 1.917513867912702e+000	-1.483080621052183e+001
1	 7.505600127467703e-001	 1.925571565595462e+000	-1.534734637812841e+001
1	 7.301682051371443e-001	 1.933396084890728e+000	-1.586897383851325e+001
1	 7.097414342048215e-001	 1.940987628381445e+000	-1.639231542643873e+001
1	 6.892834976536051e-001	 1.948346477952993e+000	-1.691404212107758e+001
1	 6.687981688007214e-001	 1.955472993722270e+000	-1.743087480471299e+001
1	 6.482891946827237e-001	 1.962367612913845e+000	-1.793958982110742e+001
1	 6.277602942109746e-001	 1.969030848685419e+000	-1.843702432622065e+001
1	 6.072151563781101e-001	 1.975463288904845e+000	-1.892008142463655e+001
1	 5.288614016073797e-001	 1.720553699683057e+000	-9.385586808964909e+000
1	 5.109564077608135e-001	 1.725955672830829e+000	-9.397168387578359e+000
1	 4.930436120318358e-001	 1.731157843990140e+000	-9.395013706531968e+000
1	 4.751261388703822e-001	 1.736160911033619e+000	-9.378835391167039e+000
1	 4.572070809624126e-001	 1.740965632275259e+000	-9.348422030960670e+000
1	 4.392894979044454e-001	 1.745572825227723e+000	-9.303636466608026e+000
1	 4.213764149277031e-001	 1.749983365329664e+000	-9.244413993652030e+000
1	 4.034708216724216e-001	 1.754198184645169e+000	-9.170760488313723e+000
1	 3.855756710127967e-001	 1.758218270537386e+000	-9.082750461205597e+000
1	 3.676938779329494e-001	 1.762044664318403e+000	-8.980525044620471e+000
1	 3.498283184541985e-001	 1.765678459877450e+000	-8.864289919084678e+000
1	 5.366967770835491e-001	 1.746044658606036e+000	-1.040483388944166e+001
1	 5.185265108061257e-001	 1.751526664987303e+000	-1.044582344918040e+001
1	 5.003483270571110e-001	 1.756805909202691e+000	-1.047223512938538e+001
1	 4.821653965768892e-001	 1.761883099464191e+000	-1.048346010335098e+001
1	 4.639808578712683e-001	 1.766759005320630e+000	-1.047897063645883e+001
1	 4.457978158663765e-001	 1.771434456396564e+000	-1.045831880870520e+001
1	 4.276193406139059e-001	 1.775910341100748e+000	-1.042113513523361e+001
1	 4.094484660472607e-001	 1.780187605306307e+000	-1.036712709014011e+001
1	 3.912881887890963e-001	 1.784267251004713e+000	-1.029607753890292e+001
1	 3.731414670106318e-001	 1.788150334935661e+000	-1.020784308485338e+001
1	 3.550112193430272e-001	 1.791837967194950e+000	-1.010235233515253e+001
1	 5.445321525596547e-001	 1.771535617528480e+000	-1.140794297546912e+001
1	 5.260966138514088e-001	 1.777097657143252e+000	-1.148196046468059e+001
1	 5.076530420823825e-001	 1.782453974414742e+000	-1.154090678642942e+001
1	 4.892046542834104e-001	 1.787605287894299e+000	-1.158381642342207e+001
1	 4.707546347801495e-001	 1.792552378365583e+000	-1.160980962414800e+001
1	 4.523061338283391e-001	 1.797296087565045e+000	-1.161809163730068e+001
1	 4.338622663001412e-001	 1.801837316871536e+000	-1.160795182451865e+001
1	 4.154261104221303e-001	 1.806177025967220e+000	-1.157876265620903e+001
1	 3.970007065654226e-001	 1.810316231471889e+000	-1.152997859535864e+001
1	 3.785890560883355e-001	 1.814256005552847e+000	-1.146113487436454e+001
1	 3.601941202318723e-001	 1.817997474512458e+000	-1.137184617002113e+001
1	 5.523675280357959e-001	 1.797026576450526e+000	-1.239553914078808e+001
1	 5.336667168967521e-001	 1.802668649298809e+000	-1.250623305377413e+001
1	 5.149577571077297e-001	 1.808102039626417e+000	-1.260168137430947e+001
1	 4.962439119900155e-001	 1.813327476324059e+000	-1.268052810697973e+001
1	 4.775284116891162e-001	 1.818345751410224e+000	-1.274150725031855e+001
1	 4.588144517903843e-001	 1.823157718733256e+000	-1.278344261806003e+001
1	 4.401051919864520e-001	 1.827764292642103e+000	-1.280524751790662e+001
1	 4.214037547970657e-001	 1.832166446627964e+000	-1.280592429194665e+001
1	 4.027132243418035e-001	 1.836365211938954e+000	-1.278456372306737e+001
1	 3.840366451660822e-001	 1.840361676169979e+000	-1.274034431190192e+001
1	 3.653770211207496e-001	 1.844156981829972e+000	-1.267253142902247e+001
1	 5.602029035120719e-001	 1.822517535372305e+000	-1.336821248832845e+001
1	 5.412368199422444e-001	 1.828239641454104e+000	-1.351925826829318e+001
1	 5.222624721332320e-001	 1.833750104837843e+000	-1.365517507344871e+001
1	 5.032831696967738e-001	 1.839049664753587e+000	-1.377418401255735e+001
1	 4.843021885982289e-001	 1.844139124454658e+000	-1.387459997919733e+001
1	 4.653227697525628e-001	 1.849019349901286e+000	-1.395483213336412e+001
1	 4.463481176728810e-001	 1.853691268412522e+000	-1.401338421867636e+001
1	 4.273813991721016e-001	 1.858155867288595e+000	-1.404885471857825e+001
1	 4.084257421182667e-001	 1.862414192405942e+000	-1.405993685521053e+001
1	 3.894842342438936e-001	 1.866467346787076e+000	-1.404541843489194e+001
1	 3.705599220096755e-001	 1.870316489147490e+000	-1.400418154439621e+001
1	 5.680382789885817e-001	 1.848008494293950e+000	-1.432652056210179e+001
1	 5.488069229879748e-001	 1.853810633609267e+000	-1.452161911424602e+001
1	 5.295671871589682e-001	 1.859398170049142e+000	-1.470197006652630e+001
1	 5.103224274037549e-001	 1.864771853182998e+000	-1.486534050842851e+001
1	 4.910759655075475e-001	 1.869932497498987e+000	-1.500959467560640e+001
1	 4.718310877149262e-001	 1.874880981069227e+000	-1.513269516400332e+001
1	 4.525910433594708e-001	 1.879618244182866e+000	-1.523270395658127e+001
1	 4.333590435472733e-001	 1.884145287949170e+000	-1.530778326518861e+001
1	 4.141382598948399e-001	 1.888463172872894e+000	-1.535619619045709e+001
1	 3.949318233217909e-001	 1.892573017404154e+000	-1.537630720296874e+001
1	 3.757428228986661e-001	 1.896475996465010e+000	-1.536658244925316e+001
1	 5.758736544654247e-001	 1.873499453215596e+000	-1.527099056219575e+001
1	 5.563770260340329e-001	 1.879381625764431e+000	-1.551386686796606e+001
1	 5.368719021850180e-001	 1.885046235260443e+000	-1.574261685135549e+001
1	 5.173616851110285e-001	 1.890494041612411e+000	-1.595452368293077e+001
1	 4.978497424171324e-001	 1.895725870543315e+000	-1.614697061862036e+001
1	 4.783394056775259e-001	 1.900742612237167e+000	-1.631744301725632e+001
1	 4.588339690462645e-001	 1.905545219953211e+000	-1.646353014665532e+001
1	 4.393366879226154e-001	 1.910134708609745e+000	-1.658292677979425e+001
1	 4.198507776715514e-001	 1.914512153339845e+000	-1.667343458308451e+001
1	 4.003794123997961e-001	 1.918678688021233e+000	-1.673296329917623e+001
1	 3.809257237877377e-001	 1.922635503782531e+000	-1.675953172713754e+001
1	 5.837090299427000e-001	 1.898990412137376e+000	-1.620212138137144e+001
1	 5.639471290805076e-001	 1.904952617919726e+000	-1.649652320571726e+001
1	 5.441766172114603e-001	 1.910694300471868e+000	-1.677763636748130e+001
1	 5.244009428186642e-001	 1.916216230041938e+000	-1.704223137676851e+001
1	 5.046235193270438e-001	 1.921519243587748e+000	-1.728718135304355e+001
1	 4.848477236404132e-001	 1.926604243405198e+000	-1.750946491578917e+001
1	 4.650768947333047e-001	 1.931472195723630e+000	-1.770616883857966e+001
1	 4.453143322981632e-001	 1.936124129270376e+000	-1.787449046703761e+001
1	 4.255632954484288e-001	 1.940561133806834e+000	-1.801173990167986e+001
1	 4.058270014779305e-001	 1.944784358638330e+000	-1.811534194718108e+001
1	 3.861086246769064e-001	 1.948795011100049e+000	-1.818283783008332e+001
1	 5.915444054205066e-001	 1.924481371059421e+000	-1.712038547980465e+001
1	 5.715172321274878e-001	 1.930523610075283e+000	-1.747008216405117e+001
1	 5.514813322383746e-001	 1.936342365683543e+000	-1.780752195376952e+001
1	 5.314402005267317e-001	 1.941938418471699e+000	-1.812893505380116e+001
1	 5.113972962373418e-001	 1.947312616632389e+000	-1.843065639374268e+001
1	 4.913560416036388e-001	 1.952465874573409e+000	-1.870912946027770e+001
1	 4.713198204206343e-001	 1.957399171494196e+000	-1.896090986675850e+001
1	 4.512919766739515e-001	 1.962113549931120e+000	-1.918266865930596e+001
1	 4.312758132255001e-001	 1.966610114273899e+000	-1.937119535933269e+001
1	 4.112745905562159e-001	 1.970890029255462e+000	-1.952340074301226e+001
1	 3.912915255661882e-001	 1.974954518417563e+000	-1.963631935881557e+001
1	 5.993797808989435e-001	 1.949972329981867e+000	-1.802623061278248e+001
1	 5.790873351750631e-001	 1.956094602231232e+000	-1.843501194640415e+001
1	 5.587860472658400e-001	 1.961990430895594e+000	-1.883274115245245e+001
1	 5.384794582353004e-001	 1.967660606901807e+000	-1.921508152509615e+001
1	 5.181710731480863e-001	 1.973105989677342e+000	-1.957780279630058e+001
1	 4.978643595672542e-001	 1.978327505741890e+000	-1.991678597731018e+001
1	 4.775627461082961e-001	 1.983326147264985e+000	-2.022802791018775e+001
1	 4.572696210500153e-001	 1.988102970592032e+000	-2.050764552736849e+001
1	 4.369883310027929e-001	 1.992659094741074e+000	-2.075187981793029e+001
1	 4.167221796346737e-001	 1.996995699872648e+000	-2.095709949999855e+001
1	 3.964744264555997e-001	 2.001114025735070e+000	-2.111980439940791e+001
1	 6.072151563781101e-001	 1.975463288904845e+000	-1.892008142463655e+001
1	 5.866574382233224e-001	 1.981665594387705e+000	-1.939175658982285e+001
1	 5.660907622939357e-001	 1.987638496108145e+000	-1.985373737350079e+001
1	 5.455187159444396e-001	 1.993382795332379e+000	-2.030109453950148e+001
1	 5.249448500593381e-001	 1.998899362722714e+000	-2.072900660606575e+001
1	 5.043726775313110e-001	 2.004189136910731e+000	-2.113276576293147e+001
1	 4.838056717963329e-001	 2.009253123036070e+000	-2.150778347026668e+001
1	 4.632472654263897e-001	 2.014092391253171e+000	-2.184959573599335e+001
1	 4.427008487803356e-001	 2.018708075208402e+000	-2.215386806889264e+001
1	 4.221697687133255e-001	 2.023101370489906e+000	-2.241640010571106e+001
1	 4.016573273451569e-001	 2.027273533052570e+000	-2.263312991129877e+001
1	 3.498283184541985e-001	 1.765678459877450e+000	-8.864289919084678e+000
1	 3.319845031998169e-001	 1.769120300513190e+000	-8.729072202995537e+000
1	 3.141625416233765e-001	 1.772371941244703e+000	-8.569928016058141e+000
1	 2.963651817210658e-001	 1.775434626186778e+000	-8.387248011550710e+000
1	 2.785951288690975e-001	 1.778309646314947e+000	-8.181472874436050e+000
1	 2.608550450100400e-001	 1.780998338017287e+000	-7.953090990181723e+000
1	 2.431475478902918e-001	 1.783502081636491e+000	-7.702636101535089e+000
1	 2.254752103484412e-001	 1.785822300004091e+000	-7.430684958097732e+000
1	 2.078405596541675e-001	 1.787960456968690e+000	-7.137854963404941e+000
1	 1.902460768972755e-001	 1.789918055920011e+000	-6.824801824070450e+000
1	 1.726941964264004e-001	 1.791696638310540e+000	-6.492217205402545e+000
1	 3.550112193430272e-001	 1.791837967194950e+000	-1.010235233515253e+001
1	 3.369030380524930e-001	 1.795330800612061e+000	-9.974175371493280e+000
1	 3.188170342142214e-001	 1.798630616207665e+000	-9.817874554875212e+000
1	 3.007559965374987e-001	 1.801738676528800e+000	-9.633516430520810e+000
1	 2.827226704801975e-001	 1.804656291677526e+000	-9.421226306229599e+000
1	 2.647197574230519e-001	 1.807384817841254e+000	-9.181186271470221e+000
1	 2.467499138958356e-001	 1.809925655813227e+000	-8.913633181373843e+000
1	 2.288157508551774e-001	 1.812280249505019e+000	-8.618856610461593e+000
1	 2.109198330136687e-001	 1.814450084452968e+000	-8.297196780852872e+000
1	 1.930646782198457e-001	 1.816436686320356e+000	-7.949042469607608e+000
1	 1.752527568885781e-001	 1.818241619397146e+000	-7.574828899749528e+000
1	 3.601941202318723e-001	 1.817997474512458e+000	-1.137184617002113e+001
1	 3.418215729051807e-001	 1.821541300711022e+000	-1.125617687943059e+001
1	 3.234715268050726e-001	 1.824889291170791e+000	-1.110815563927646e+001
1	 3.051468113539313e-001	 1.828042726871060e+000	-1.092749904437457e+001
1	 2.868502120912874e-001	 1.831002937040409e+000	-1.071399177993239e+001
1	 2.685844698360398e-001	 1.833771297665584e+000	-1.046748502718773e+001
1	 2.503522799013355e-001	 1.836349229990371e+000	-1.018789480887761e+001
1	 2.321562913618431e-001	 1.838738199006388e+000	-9.875200279346069e+000
1	 2.139991063730645e-001	 1.840939711937706e+000	-9.529441964072149e+000
1	 1.958832795422659e-001	 1.842955316721160e+000	-9.150719953361781e+000
1	 1.778113173505509e-001	 1.844786600484193e+000	-8.739192054895767e+000
1	 3.653770211207496e-001	 1.844156981829972e+000	-1.267253142902247e+001
1	 3.467401077578918e-001	 1.847751800810049e+000	-1.257464571467629e+001
1	 3.281260193959391e-001	 1.851147966134042e+000	-1.244015230448939e+001
1	 3.095376261703706e-001	 1.854346777213498e+000	-1.226839297689230e+001
1	 2.909777537023743e-001	 1.857349582403519e+000	-1.205878751115537e+001
1	 2.724491822490120e-001	 1.860157777490180e+000	-1.181083251523652e+001
1	 2.539546459068039e-001	 1.862772804167814e+000	-1.152410016640071e+001
1	 2.354968318684564e-001	 1.865196148508078e+000	-1.119823686938525e+001
1	 2.170783797323812e-001	 1.867429339422771e+000	-1.083296183692018e+001
1	 1.987018808645739e-001	 1.869473947122285e+000	-1.042806559743623e+001
1	 1.803698778123702e-001	 1.871331581571538e+000	-9.983408434800758e+000
1	 3.705599220096755e-001	 1.870316489147490e+000	-1.400418154439621e+001
1	 3.516586426106382e-001	 1.873962300909120e+000	-1.392917497880298e+001
1	 3.327805119868295e-001	 1.877406641097375e+000	-1.381328021477532e+001
1	 3.139284409868238e-001	 1.880650827556055e+000	-1.365544027012636e+001
1	 2.951052953134649e-001	 1.883696227766776e+000	-1.345468664310315e+001
1	 2.763138946619772e-001	 1.886544257314950e+000	-1.321013859752568e+001
1	 2.575570119122528e-001	 1.889196378345448e+000	-1.292100233168324e+001
1	 2.388373723750355e-001	 1.891654098009965e+000	-1.258657003571507e+001
1	 2.201576530916456e-001	 1.893918966908032e+000	-1.220621884230708e+001
1	 2.015204821868069e-001	 1.895992577523594e+000	-1.177940967562324e+001
1	 1.829284382740870e-001	 1.897876562659040e+000	-1.130568600346357e+001
1	 3.757428228986661e-001	 1.896475996465010e+000	-1.536658244925316e+001
1	 3.565771774634313e-001	 1.900172801008212e+000	-1.531938022399627e+001
1	 3.374350045777524e-001	 1.903665316060748e+000	-1.522698727510927e+001
1	 3.183192558032973e-001	 1.906954877898667e+000	-1.508792478644560e+001
1	 2.992328369245657e-001	 1.910042873130104e+000	-1.490081345828823e+001
1	 2.801786070749438e-001	 1.912930737139797e+000	-1.466437328431533e+001
1	 2.611593779176946e-001	 1.915619952523162e+000	-1.437742318138048e+001
1	 2.421779128815985e-001	 1.918112047511930e+000	-1.403888047677673e+001
1	 2.232369264508841e-001	 1.920408594393359e+000	-1.364776025783083e+001
1	 2.043390835090026e-001	 1.922511207924947e+000	-1.320317458883200e+001
1	 1.854869987357526e-001	 1.924421543746556e+000	-1.270433160044120e+001
1	 3.809257237877377e-001	 1.922635503782531e+000	-1.675953172713754e+001
1	 3.614957123162833e-001	 1.926383301107304e+000	-1.674489792573213e+001
1	 3.420894971687164e-001	 1.929923991024120e+000	-1.668075143783375e+001
1	 3.227100706197986e-001	 1.933258928241276e+000	-1.656516936348562e+001
1	 3.033603785356840e-001	 1.936389518493424e+000	-1.639633989950717e+001
1	 2.840433194879206e-001	 1.939317216964629e+000	-1.617256264230438e+001
1	 2.647617439231413e-001	 1.942043526700847e+000	-1.589224871065012e+001
1	 2.455184533881636e-001	 1.944569997013850e+000	-1.555392069303532e+001
1	 2.263161998101232e-001	 1.946898221878620e+000	-1.515621242444547e+001
1	 2.071576848311983e-001	 1.949029838326206e+000	-1.469786859765066e+001
1	 1.880455591974182e-001	 1.950966524833943e+000	-1.417774421431172e+001
1	 3.861086246769064e-001	 1.948795011100049e+000	-1.818283783008332e+001
1	 3.664142471692060e-001	 1.952593801206374e+000	-1.820538407846647e+001
1	 3.467439897597303e-001	 1.956182665987450e+000	-1.817407868596622e+001
1	 3.271008854363341e-001	 1.959562978583822e+000	-1.808653319824083e+001
1	 3.074879201468264e-001	 1.962736163856656e+000	-1.794048237101915e+001
1	 2.879080319009157e-001	 1.965703696789349e+000	-1.773378503228352e+001
1	 2.683641099286056e-001	 1.968467100878397e+000	-1.746442472970237e+001
1	 2.488589938947491e-001	 1.971027946515605e+000	-1.713051016783392e+001
1	 2.293954731693895e-001	 1.973387849363684e+000	-1.673027543995527e+001
1	 2.099762861534316e-001	 1.975548468727234e+000	-1.626208005969041e+001
1	 1.906041196591352e-001	 1.977511505921061e+000	-1.572440879789592e+001
1	 3.912915255661882e-001	 1.974954518417563e+000	-1.963631935881556e+001
1	 3.713327820222112e-001	 1.978804301305400e+000	-1.970051290293001e+001
1	 3.513984823508028e-001	 1.982441340950695e+000	-1.970650117678034e+001
1	 3.314917002529111e-001	 1.985867028926243e+000	-1.965140943905292e+001
1	 3.116154617579995e-001	 1.989082809219724e+000	-1.953249879394725e+001
1	 2.917727443139378e-001	 1.992090176613864e+000	-1.934716764579569e+001
1	 2.719664759340993e-001	 1.994890675055700e+000	-1.909295290236162e+001
1	 2.521995344013732e-001	 1.997485896017071e+000	-1.876753093124329e+001
1	 2.324747465287095e-001	 1.999877476848419e+000	-1.836871827423708e+001
1	 2.127948874757400e-001	 2.002067099127891e+000	-1.789447212491016e+001
1	 1.931626801209544e-001	 2.004056487007765e+000	-1.734289057500708e+001
1	 3.964744264555997e-001	 2.001114025735070e+000	-2.111980439940792e+001
1	 3.762513168753105e-001	 2.005014801404359e+000	-2.122997565481608e+001
1	 3.560529749419423e-001	 2.008700015913815e+000	-2.127757553099509e+001
1	 3.358825150695361e-001	 2.012171079268478e+000	-2.125922296647089e+001
1	 3.157430033692104e-001	 2.015429454582549e+000	-2.117168589263833e+001
1	 2.956374567269953e-001	 2.018476656438079e+000	-2.101188331344350e+001
1	 2.755688419396348e-001	 2.021314249232647e+000	-2.077688709534237e+001
1	 2.555400749080536e-001	 2.023943845518130e+000	-2.046392347186075e+001
1	 2.355540198881096e-001	 2.026367104332694e+000	-2.007037426759943e+001
1	 2.156134887981608e-001	 2.028585729528039e+000	-1.959377784701274e+001
1	 1.957212405829273e-001	 2.030601468093916e+000	-1.903182979374936e+001
1	 4.016573273451569e-001	 2.027273533052570e+000	-2.263312991129877e+001
1	 3.811698517285161e-001	 2.031225301503230e+000	-2.279347952570380e+001
1	 3.607074675331575e-001	 2.034958690876767e+000	-2.288688125442010e+001
1	 3.402733298862165e-001	 2.038475129610468e+000	-2.290942834592308e+001
1	 3.198705449804655e-001	 2.041776099945052e+000	-2.285737669112077e+001
1	 2.995021691400967e-001	 2.044863136261900e+000	-2.272714756030562e+001
1	 2.791712079452243e-001	 2.047737823409130e+000	-2.251533001017474e+001
1	 2.588806154148092e-001	 2.050401795018658e+000	-2.221868296512795e+001
1	 2.386332932476166e-001	 2.052856731816378e+000	-2.183413697767066e+001
1	 2.184320901207317e-001	 2.055104359927540e+000	-2.135879567332887e+001
1	 1.982798010451052e-001	 2.057146449179369e+000	-2.078993688603022e+001
1	 1.726941964264004e-001	 1.791696638310540e+000	-6.492217205402545e+000
1	 1.551846886247798e-001	 1.793298009200867e+000	-6.134432565380921e+000
1	 1.377225603152077e-001	 1.794723502569440e+000	-5.747494832681031e+000
1	 1.203101389484920e-001	 1.795974766340585e+000	-5.334530936108614e+000
1	 1.029497023582024e-001	 1.797053480637194e+000	-4.898651000647321e+000
1	 8.564347844425330e-002	 1.797961356299908e+000	-4.442943403007981e+000
1	 6.839364490323611e-002	 1.798700133414114e+000	-3.970470013242025e+000
1	 5.120232900460125e-002	 1.799271579846228e+000	-3.484261625143325e+000
1	 3.407160741175545e-002	 1.799677489790610e+000	-2.987313577652440e+000
1	 1.700350604710066e-002	 1.799919682328466e+000	-2.482581568979650e+000
1	 0.000000000000000e+000	 1.800000000000000e+000	-1.972977664681677e+000
1	 1.752527568885781e-001	 1.818241619397146e+000	-7.574828899749528e+000
1	 1.574838360012102e-001	 1.819866715486908e+000	-7.168498510995015e+000
1	 1.397629965593997e-001	 1.821313328331721e+000	-6.725872793402723e+000
1	 1.220926004964326e-001	 1.822583130270824e+000	-6.250060381192791e+000
1	 1.044749593932499e-001	 1.823677826319064e+000	-5.744159686200968e+000
1	 8.691233415734243e-002	 1.824599152664132e+000	-5.211253803155294e+000
1	 6.940693474908768e-002	 1.825348875171750e+000	-4.654405596705798e+000
1	 5.196091995461615e-002	 1.825928787900252e+000	-4.076652973318182e+000
1	 3.457639720425804e-002	 1.826340711625985e+000	-3.481004340628471e+000
1	 1.725542243558246e-002	 1.826586492380854e+000	-2.870434256350269e+000
1	 0.000000000000000e+000	 1.826668000003317e+000	-2.247879268339086e+000
1	 1.778113173505509e-001	 1.844786600484193e+000	-8.739192054895767e+000
1	 1.597829833773705e-001	 1.846435421773350e+000	-8.288367088921563e+000
1	 1.418034328032533e-001	 1.847903154094349e+000	-7.793745387824169e+000
1	 1.238750620439718e-001	 1.849191494201344e+000	-7.258323866647058e+000
1	 1.060002164278468e-001	 1.850302172001139e+000	-6.685098184929484e+000
1	 8.818118986995374e-002	 1.851236949028488e+000	-6.077057589809415e+000
1	 7.042022459446456e-002	 1.851997616929445e+000	-5.437179930177885e+000
1	 5.271951090419792e-002	 1.852585995954273e+000	-4.768426845434366e+000
1	 3.508118699641526e-002	 1.853003933461306e+000	-4.073739131884536e+000
1	 1.750733882386074e-002	 1.853253302433154e+000	-3.356032289324192e+000
1	 0.000000000000000e+000	 1.853336000006534e+000	-2.618192249866402e+000
1	 1.803698778123702e-001	 1.871331581571538e+000	-9.983408434800762e+000
1	 1.620821307533284e-001	 1.873004128060052e+000	-9.492027980631780e+000
1	 1.438438690468529e-001	 1.874492979857181e+000	-8.949016880281000e+000
1	 1.256575235912098e-001	 1.875799858132006e+000	-8.357170886228373e+000
1	 1.075254734621056e-001	 1.876926517683292e+000	-7.719295778591357e+000
1	 8.945004558220665e-002	 1.877874745392853e+000	-7.038202232216933e+000
1	 7.143351443948548e-002	 1.878646358687085e+000	-6.316700837863327e+000
1	 5.347810185345483e-002	 1.879243204008180e+000	-5.557597281510433e+000
1	 3.558597678831350e-002	 1.879667155296469e+000	-4.763687685348263e+000
1	 1.775925521198637e-002	 1.879920112485265e+000	-3.937754113508583e+000
1	 0.000000000000000e+000	 1.880004000009551e+000	-3.082560245138409e+000
1	 1.829284382740870e-001	 1.897876562659040e+000	-1.130568600346357e+001
1	 1.643812781291512e-001	 1.899572834346869e+000	-1.077758333828133e+001
1	 1.458843052902834e-001	 1.901082805620080e+000	-1.018970878459914e+001
1	 1.274399851382471e-001	 1.902408222062676e+000	-9.544571247415419e+000
1	 1.090507304961390e-001	 1.903550863365390e+000	-8.844703193459674e+000
1	 9.071890129422065e-002	 1.904512541757102e+000	-8.092655626607018e+000
1	 7.244680428426906e-002	 1.905295100444551e+000	-7.290993194286169e+000
1	 5.423669280249519e-002	 1.905900412061864e+000	-6.442289429457352e+000
1	 3.609076658003904e-002	 1.906330377131367e+000	-5.549122132276281e+000
1	 1.801117160001025e-002	 1.906586922537085e+000	-4.614068895107621e+000
1	 0.000000000000000e+000	 1.906672000012268e+000	-3.639702774104274e+000
1	 1.854869987357526e-001	 1.924421543746556e+000	-1.270433160044120e+001
1	 1.666804255049065e-001	 1.926141540633660e+000	-1.214324002775034e+001
1	 1.479247415336293e-001	 1.927672631382903e+000	-1.151395177754674e+001
1	 1.292224466851840e-001	 1.929016585993217e+000	-1.081860677352488e+001
1	 1.105759875300598e-001	 1.930175209047304e+000	-1.005938422444865e+001
1	 9.198775700611518e-002	 1.931150338121113e+000	-9.238497790495483e+000
1	 7.346009412893398e-002	 1.931943842201728e+000	-8.358190851478398e+000
1	 5.499528375142728e-002	 1.932557620115213e+000	-7.420731882108075e+000
1	 3.659555637167828e-002	 1.932993598965896e+000	-6.428409939040711e+000
1	 1.826308798798325e-002	 1.933253732588513e+000	-5.383530264037886e+000
1	 0.000000000000000e+000	 1.933340000014584e+000	-4.288410007159214e+000
1	 1.880455591974182e-001	 1.950966524833943e+000	-1.417774421431172e+001
1	 1.689795728806618e-001	 1.952710246920282e+000	-1.358730250493398e+001
1	 1.499651777769752e-001	 1.954262457145510e+000	-1.291997827244297e+001
1	 1.310049082321210e-001	 1.955624949923494e+000	-1.217746368323634e+001
1	 1.121012445639806e-001	 1.956799554728904e+000	-1.136150804301626e+001
1	 9.325661271800977e-002	 1.957788134484761e+000	-1.047391323503647e+001
1	 7.447338397359894e-002	 1.958592583958498e+000	-9.516529225202955e+000
1	 5.575387470035939e-002	 1.959214828168119e+000	-8.491249639825330e+000
1	 3.710034616331752e-002	 1.959656820799952e+000	-7.400007421449353e+000
1	 1.851500437595628e-002	 1.959920542639449e+000	-6.244770567833754e+000
1	 0.000000000000000e+000	 1.960008000016401e+000	-5.027537958770691e+000
1	 1.906041196591352e-001	 1.977511505921061e+000	-1.572440879789592e+001
1	 1.712787202564847e-001	 1.979278953206592e+000	-1.510816626578041e+001
1	 1.520056140204057e-001	 1.980852282907762e+000	-1.440611559089240e+001
1	 1.327873697791583e-001	 1.982233313853369e+000	-1.361942558387499e+001
1	 1.136265015980141e-001	 1.983423900410058e+000	-1.274934212459283e+001
1	 9.452546843002388e-002	 1.984425930847923e+000	-1.179718395170881e+001
1	 7.548667381838257e-002	 1.985241325714745e+000	-1.076433847828777e+001
1	 5.651246564939982e-002	 1.985872036220470e+000	-9.652257639903954e+000
1	 3.760513595504313e-002	 1.986320042633429e+000	-8.462453781425911e+000
1	 1.876692076398018e-002	 1.986587352689790e+000	-7.196495588346163e+000
1	 0.000000000000000e+000	 1.986676000017618e+000	-5.856004068212688e+000
1	 1.931626801209544e-001	 2.004056487007765e+000	-1.734289057500709e+001
1	 1.735778676324426e-001	 2.005847659492447e+000	-1.670431181687890e+001
1	 1.540460502640055e-001	 2.007442108669516e+000	-1.597077967718702e+001
1	 1.345698313263964e-001	 2.008841677782708e+000	-1.514286702154416e+001
1	 1.151517586322730e-001	 2.010048246090638e+000	-1.422124573809305e+001
1	 9.579432414227686e-002	 2.011063727210475e+000	-1.320668295637687e+001
1	 7.649996366340360e-002	 2.011890067470353e+000	-1.210003724570502e+001
1	 5.727105659865683e-002	 2.012529244272157e+000	-1.090225480021683e+001
1	 3.810992574694144e-002	 2.012983264466222e+000	-9.614365617617766e+000
1	 1.901883715210586e-002	 2.013254162739434e+000	-8.237479678325316e+000
1	 0.000000000000000e+000	 2.013344000018134e+000	-6.772783131515946e+000
1	 1.957212405829273e-001	 2.030601468093916e+000	-1.903182979374935e+001
1	 1.758770150086030e-001	 2.032416365777704e+000	-1.837429911896357e+001
1	 1.560864865078591e-001	 2.034031934430634e+000	-1.761246930571842e+001
1	 1.363522928739357e-001	 2.035450041711373e+000	-1.674624753715209e+001
1	 1.166770156668700e-001	 2.036672591770513e+000	-1.577566394607738e+001
1	 9.706317985488833e-002	 2.037701523572295e+000	-1.470086833972210e+001
1	 7.751325350878065e-002	 2.038538809225204e+000	-1.352212685182300e+001
1	 5.802964754823874e-002	 2.039186452323067e+000	-1.223981853004588e+001
1	 3.861471553909877e-002	 2.039646486298226e+000	-1.085443186656372e+001
1	 1.927075354038420e-002	 2.039920972788282e+000	-9.366561279464889e+000
1	 0.000000000000000e+000	 2.040012000017850e+000	-7.776903552494600e+000
1	 1.982798010451052e-001	 2.057146449179369e+000	-2.078993688603022e+001
1	 1.781761623850336e-001	 2.058985072062221e+000	-2.011676246061645e+001
1	 1.581269227520513e-001	 2.060621760190973e+000	-1.932976073686784e+001
1	 1.381347544218765e-001	 2.062058405639229e+000	-1.842810618263764e+001
1	 1.182022727019177e-001	 2.063296937449552e+000	-1.741112206943700e+001
1	 9.833203556797766e-002	 2.064339319933258e+000	-1.627827777830596e+001
1	 7.852654335463237e-002	 2.065187550979181e+000	-1.502918597537408e+001
1	 5.878823849825383e-002	 2.065843660373091e+000	-1.366359966589985e+001
1	 3.911950533160152e-002	 2.066309708129337e+000	-1.218140913552976e+001
1	 1.952266992886609e-002	 2.066587782836232e+000	-1.058263878745153e+001
1	 0.000000000000000e+000	 2.066680000016667e+000	-8.867443884029139e+000
1	 2.066680000016667e+000	 0.000000000000000e+000	 6.081620511808917e+001
1	 2.066587782836231e+000	 1.952266992886615e-002	 5.947312761047564e+001
1	 2.066309708129336e+000	 3.911950533160163e-002	 5.812100297558181e+001
1	 2.065843660373092e+000	 5.878823849825369e-002	 5.675830848196030e+001
1	 2.065187550979181e+000	 7.852654335463230e-002	 5.538356869478120e+001
1	 2.064339319933258e+000	 9.833203556797766e-002	 5.399535858885679e+001
1	 2.063296937449552e+000	 1.182022727019178e-001	 5.259230667075251e+001
1	 2.062058405639229e+000	 1.381347544218766e-001	 5.117309810457675e+001
1	 2.060621760190974e+000	 1.581269227520511e-001	 4.973647783583793e+001
1	 2.058985072062221e+000	 1.781761623850334e-001	 4.828125370756550e+001
1	 2.057146449179369e+000	 1.982798010451051e-001	 4.680629956270153e+001
1	 2.093344000014533e+000	 0.000000000000000e+000	 6.267173574095650e+001
1	 2.093250593061714e+000	 1.977454853201645e-002	 6.126210289278190e+001
1	 2.092968930676188e+000	 3.962421940982406e-002	 5.984181555543157e+001
1	 2.092496870040883e+000	 5.954671566582060e-002	 5.840944246602219e+001
1	 2.091832295620812e+000	 7.953968121516000e-002	 5.696361296229728e+001
1	 2.090973120823608e+000	 9.960070096278299e-002	 5.550302024336358e+001
1	 2.089917289675494e+000	 1.197273009603743e-001	 5.402642462199393e+001
1	 2.088662778511150e+000	 1.399169486144205e-001	 5.253265676226266e+001
1	 2.087207597675990e+000	 1.601670529465026e-001	 5.102062089608858e+001
1	 2.085549793239212e+000	 1.804749649069133e-001	 4.948929801208031e+001
1	 2.083687448715941e+000	 2.008379777426381e-001	 4.793774900990688e+001
1	 2.120008000011600e+000	 0.000000000000000e+000	 6.460185483847030e+001
1	 2.119913403286397e+000	 2.002642713537022e-002	 6.311424912366433e+001
1	 2.119628153222235e+000	 4.012893348839165e-002	 6.161494161862276e+001
1	 2.119150079707866e+000	 6.030519283382015e-002	 6.010260218783803e+001
1	 2.118477040261631e+000	 8.055281907616123e-002	 5.857597356955710e+001
1	 2.117606921713150e+000	 1.008693663580642e-001	 5.703387474832964e+001
1	 2.116537641900631e+000	 1.212523292192781e-001	 5.547520430214673e+001
1	 2.115267151382275e+000	 1.416991428073603e-001	 5.389894371719031e+001
1	 2.113793435160225e+000	 1.622071831412843e-001	 5.230416066303698e+001
1	 2.112114514415441e+000	 1.827737674290515e-001	 5.069001222099239e+001
1	 2.110228448251783e+000	 2.033961544403597e-001	 4.905574805808087e+001
1	 2.146672000008067e+000	 0.000000000000000e+000	 6.659687871414813e+001
1	 2.146576213510477e+000	 2.027830573887656e-002	 6.502081940185173e+001
1	 2.146287375767672e+000	 4.063364756721792e-002	 6.343252379328509e+001
1	 2.145803289374231e+000	 6.106367000214360e-002	 6.183077244215593e+001
1	 2.145121784901822e+000	 8.156595693751639e-002	 6.021443004852225e+001
1	 2.144240722602052e+000	 1.021380317536996e-001	 5.858244890798982e+001
1	 2.143157994125120e+000	 1.227773574785130e-001	 5.693387231905017e+001
1	 2.141871524252747e+000	 1.434813370005902e-001	 5.526783794091452e+001
1	 2.140379272643811e+000	 1.642473133363034e-001	 5.358358109403446e+001
1	 2.138679235591033e+000	 1.850725699513688e-001	 5.188043799535023e+001
1	 2.136769447787005e+000	 2.059543311382027e-001	 5.015784892017481e+001
1	 2.173336000004134e+000	 0.000000000000000e+000	 6.864759889686572e+001
1	 2.173239023734152e+000	 2.053018434248459e-002	 6.697349607839932e+001
1	 2.172946598312694e+000	 4.113836164621647e-002	 6.528709030640385e+001
1	 2.172456499040166e+000	 6.182214717068232e-002	 6.358728229342818e+001
1	 2.171766529541564e+000	 8.257909479910577e-002	 6.187306719929629e+001
1	 2.170874523490487e+000	 1.034066971495681e-001	 6.014353812249125e+001
1	 2.169778346349123e+000	 1.243023857379629e-001	 5.839788953374184e+001
1	 2.168475897122718e+000	 1.452635311940044e-001	 5.663542064357772e+001
1	 2.166965110126884e+000	 1.662874435314671e-001	 5.485553869547113e+001
1	 2.165243956766109e+000	 1.873713724737860e-001	 5.305776217605146e+001
1	 2.163310447321718e+000	 2.085125078360998e-001	 5.124172393376453e+001
1	 2.200000000000001e+000	 0.000000000000000e+000	 7.074525334219979e+001
1	 2.199901833957622e+000	 2.078206294614344e-002	 6.896436474399738e+001
1	 2.199605820857498e+000	 4.164307572530086e-002	 6.717153161652858e+001
1	 2.199109708705859e+000	 6.258062433932760e-002	 6.536578421306660e+001
1	 2.198411274181037e+000	 8.359223266080977e-002	 6.354625659087444e+001
1	 2.197508324378621e+000	 1.046753625455480e-001	 6.171219011098050e+001
1	 2.196398698572797e+000	 1.258274139975117e-001	 5.986293686471341e+001
1	 2.195080269992334e+000	 1.470457253874971e-001	 5.799796301825091e+001
1	 2.193550947609579e+000	 1.683275737266827e-001	 5.611685206630351e+001
1	 2.191808677940789e+000	 1.896701749962238e-001	 5.421930798594391e+001
1	 2.189851446856028e+000	 2.110706845339837e-001	 5.230515828149788e+001
1	 2.226663999995867e+000	 0.000000000000000e+000	 7.288149970293075e+001
1	 2.226564644181085e+000	 2.103394154980220e-002	 7.098589008526967e+001
1	 2.226265043402275e+000	 4.214778980438460e-002	 6.907907872540228e+001
1	 2.225762918371497e+000	 6.333910150797077e-002	 6.716023471566867e+001
1	 2.225056018820421e+000	 8.460537052250870e-002	 6.522863939104974e+001
1	 2.224142125266629e+000	 1.059440279415181e-001	 6.328368980417341e+001
1	 2.223019050796304e+000	 1.273524422570433e-001	 6.132490211211877e+001
1	 2.221684642861741e+000	 1.488279195809625e-001	 5.935191486583413e+001
1	 2.220136785092031e+000	 1.703677039218573e-001	 5.736449219287167e+001
1	 2.218373399115199e+000	 1.919689775186032e-001	 5.536252686404812e+001
1	 2.216392446390048e+000	 2.136288612317870e-001	 5.334604323457207e+001
1	 2.253327999991934e+000	 0.000000000000000e+000	 7.504839049731177e+001
1	 2.253227454404741e+000	 2.128582015341000e-002	 7.303089345525068e+001
1	 2.252924265947221e+000	 4.265250388338127e-002	 7.100328302944300e+001
1	 2.252416128037271e+000	 6.409757867650315e-002	 6.896487637005220e+001
1	 2.251700763459897e+000	 8.561850838408298e-002	 6.691511041537805e+001
1	 2.250775926154679e+000	 1.072126933373569e-001	 6.485354530953759e+001
1	 2.249639403019801e+000	 1.288774705164418e-001	 6.277986771745020e+001
1	 2.248289015731089e+000	 1.506101137742947e-001	 6.069389402757724e+001
1	 2.246722622574374e+000	 1.724078341168981e-001	 5.859557343277425e+001
1	 2.244938120289457e+000	 1.942677800408449e-001	 5.648499087954211e+001
1	 2.242933445923886e+000	 2.161870379294425e-001	 5.436236987591710e+001
1	 2.279991999988401e+000	 0.000000000000000e+000	 7.723835001974723e+001
1	 2.279890264628786e+000	 2.153769875691595e-002	 7.509253201771153e+001
1	 2.279583488492532e+000	 4.315721796220443e-002	 7.293799758501979e+001
1	 2.279069337703367e+000	 6.485605584481599e-002	 7.077422107255143e+001
1	 2.278345508099645e+000	 8.663164624541291e-002	 6.860080329540602e+001
1	 2.277409727042943e+000	 1.084813587329429e-001	 6.641747486127898e+001
1	 2.276259755243449e+000	 1.304024987755909e-001	 6.422409938210215e+001
1	 2.274893388600523e+000	 1.523923079673880e-001	 6.202067655910668e+001
1	 2.273308460056743e+000	 1.744479643117125e-001	 5.980734513139298e+001
1	 2.271502841463688e+000	 1.965665825628696e-001	 5.758438567804650e+001
1	 2.269474445457651e+000	 2.187452146268828e-001	 5.535222326381561e+001
1	 2.306655999985467e+000	 0.000000000000000e+000	 7.944415285288896e+001
1	 2.306553074853420e+000	 2.178957736026917e-002	 7.716427933798464e+001
1	 2.306242711038400e+000	 4.366193204076763e-002	 7.487735967312280e+001
1	 2.305722547369975e+000	 6.561453301280069e-002	 7.258303448043627e+001
1	 2.304990252739845e+000	 8.764478410637885e-002	 7.028107667559456e+001
1	 2.304043527931590e+000	 1.097500241281548e-001	 6.797139467544533e+001
1	 2.302880107467407e+000	 1.319275270343746e-001	 6.565403547532289e+001
1	 2.301497761470192e+000	 1.541745021601365e-001	 6.332918758595794e+001
1	 2.299894297539273e+000	 1.764880945062075e-001	 6.099718381987467e+001
1	 2.298067562638013e+000	 1.988653850845982e-001	 5.865850391713825e+001
1	 2.296015444991454e+000	 2.213033913240406e-001	 5.631377700031906e+001
1	 2.333319999983334e+000	 0.000000000000000e+000	 8.165890385304995e+001
1	 2.333215885078842e+000	 2.204145596341876e-002	 7.923990730457696e+001
1	 2.332901933585021e+000	 4.416664611898443e-002	 7.681577455948653e+001
1	 2.332375757037283e+000	 6.637301018034852e-002	 7.438632151265342e+001
1	 2.331634997380677e+000	 8.865792196686113e-002	 7.195150135664926e+001
1	 2.330677328820791e+000	 1.110186895228712e-001	 6.951140763774457e+001
1	 2.329500459691833e+000	 1.334525552926768e-001	 6.706627716841010e+001
1	 2.328102134340243e+000	 1.559566963524343e-001	 6.461649278609761e+001
1	 2.326480135022099e+000	 1.785282247002904e-001	 6.216258594805828e+001
1	 2.324632283812556e+000	 2.011641876059514e-001	 5.970523915195808e+001
1	 2.322556444525403e+000	 2.238615680208486e-001	 5.724528817208078e+001
1	 2.057146449179369e+000	 1.982798010451051e-001	 4.680629956270153e+001
1	 2.055104359927541e+000	 2.184320901207318e-001	 4.532601546203911e+001
1	 2.052856731816378e+000	 2.386332932476165e-001	 4.385474289091741e+001
1	 2.050401795018658e+000	 2.588806154148092e-001	 4.239205059871161e+001
1	 2.047737823409130e+000	 2.791712079452241e-001	 4.093759334024145e+001
1	 2.044863136261900e+000	 2.995021691400968e-001	 3.949111410308660e+001
1	 2.041776099945052e+000	 3.198705449804656e-001	 3.805244623605403e+001
1	 2.038475129610468e+000	 3.402733298862165e-001	 3.662151547169250e+001
1	 2.034958690876766e+000	 3.607074675331576e-001	 3.519834183577407e+001
1	 2.031225301503230e+000	 3.811698517285159e-001	 3.378304143671135e+001
1	 2.027273533052570e+000	 4.016573273451569e-001	 3.237582812794829e+001
1	 2.083687448715941e+000	 2.008379777426381e-001	 4.793774900990688e+001
1	 2.081619012730616e+000	 2.212502686744141e-001	 4.638076977956474e+001
1	 2.079342386053916e+000	 2.417121047393327e-001	 4.483300980277358e+001
1	 2.076855776024568e+000	 2.622206548656227e-001	 4.329414443309465e+001
1	 2.074157434247109e+000	 2.827730336229843e-001	 4.176394342187419e+001
1	 2.071245658311171e+000	 3.033663018753616e-001	 4.024227313225328e+001
1	 2.068118793507961e+000	 3.239974674914737e-001	 3.872909863928367e+001
1	 2.064775234541886e+000	 3.446634861136526e-001	 3.722448570865236e+001
1	 2.061213427235205e+000	 3.653612619854609e-001	 3.572860264656635e+001
1	 2.057431870223552e+000	 3.860876488384815e-001	 3.424172201342461e+001
1	 2.053429116640150e+000	 4.068394508385930e-001	 3.276422219399866e+001
1	 2.110228448251783e+000	 2.033961544403597e-001	 4.905574805808087e+001
1	 2.108133665533004e+000	 2.240684472282250e-001	 4.741649710806951e+001
1	 2.105828040290817e+000	 2.447909162311279e-001	 4.578715299273271e+001
1	 2.103309757029900e+000	 2.655606943164766e-001	 4.416749861983054e+001
1	 2.100577045084579e+000	 2.863748593007571e-001	 4.255741856689308e+001
1	 2.097628180360006e+000	 3.072304346106214e-001	 4.095690125806886e+001
1	 2.094461487070513e+000	 3.281243900024697e-001	 3.936604101321642e+001
1	 2.091075339473031e+000	 3.490536423410803e-001	 3.778503996142471e+001
1	 2.087468163593456e+000	 3.700150564377693e-001	 3.621420981122255e+001
1	 2.083638438943774e+000	 3.910054459484762e-001	 3.465397346983572e+001
1	 2.079584700227718e+000	 4.120215743320919e-001	 3.310486650397435e+001
1	 2.136769447787005e+000	 2.059543311382027e-001	 5.015784892017481e+001
1	 2.134648318334801e+000	 2.268866257821053e-001	 4.843121717493632e+001
1	 2.132313694527165e+000	 2.478697277229482e-001	 4.671562089438080e+001
1	 2.129763738034729e+000	 2.689007337673182e-001	 4.501095162228335e+001
1	 2.126996655921599e+000	 2.899766849784880e-001	 4.331720875357577e+001
1	 2.124010702408456e+000	 3.110945673458185e-001	 4.163450165062648e+001
1	 2.120804180632748e+000	 3.322513125133902e-001	 3.996305161905576e+001
1	 2.117375444403931e+000	 3.534437985684282e-001	 3.830319373503100e+001
1	 2.113722899951540e+000	 3.746688508900029e-001	 3.665537851608484e+001
1	 2.109845007663906e+000	 3.959232430584103e-001	 3.502017342762100e+001
1	 2.105740283815281e+000	 4.172036978255548e-001	 3.339826421742360e+001
1	 2.163310447321718e+000	 2.085125078360998e-001	 5.124172393376453e+001
1	 2.161162971136105e+000	 2.297048043359963e-001	 4.942304688900268e+001
1	 2.158799348763049e+000	 2.509485392147393e-001	 4.761693808409399e+001
1	 2.156217719039129e+000	 2.722407732180951e-001	 4.582339890597970e+001
1	 2.153416266758237e+000	 2.935785106561236e-001	 4.404254371184361e+001
1	 2.150393224456572e+000	 3.149587000808951e-001	 4.227460186184186e+001
1	 2.147146874194708e+000	 3.363782350241716e-001	 4.051991959979046e+001
1	 2.143675549334621e+000	 3.578339547956261e-001	 3.877896177358828e+001
1	 2.139977636309479e+000	 3.793226453420825e-001	 3.705231338727289e+001
1	 2.136051576383962e+000	 4.008410401681957e-001	 3.534068097675465e+001
1	 2.131895867402834e+000	 4.223858213188828e-001	 3.364489380144826e+001
1	 2.189851446856028e+000	 2.110706845339837e-001	 5.230515828149788e+001
1	 2.187677623937013e+000	 2.325229828898390e-001	 5.039019445136433e+001
1	 2.185285002998553e+000	 2.540273507064468e-001	 4.848970066678489e+001
1	 2.182671700043172e+000	 2.755808126687546e-001	 4.660378948427736e+001
1	 2.179835877594552e+000	 2.971803363336100e-001	 4.473269051431169e+001
1	 2.176775746504409e+000	 3.188228328157937e-001	 4.287675234791431e+001
1	 2.173489567756436e+000	 3.405051575347510e-001	 4.103644432075785e+001
1	 2.169975654265129e+000	 3.622241110226026e-001	 3.921235810641939e+001
1	 2.166232372667292e+000	 3.839764397939289e-001	 3.740520913063267e+001
1	 2.162258145103953e+000	 4.057588372777426e-001	 3.561583779852950e+001
1	 2.158051450990382e+000	 4.275679448119764e-001	 3.384521052706539e+001
1	 2.216392446390048e+000	 2.136288612317870e-001	 5.334604323457205e+001
1	 2.214192276737622e+000	 2.353411614435744e-001	 5.133095388931250e+001
1	 2.211770657233760e+000	 2.571061621980169e-001	 4.933257199317975e+001
1	 2.209125681046936e+000	 2.789208521192439e-001	 4.735112271222462e+001
1	 2.206255488430610e+000	 3.007821620108933e-001	 4.538695134041966e+001
1	 2.203158268552019e+000	 3.226869655504569e-001	 4.344052509794781e+001
1	 2.199832261317972e+000	 3.446320800450645e-001	 4.151243475758700e+001
1	 2.196275759195487e+000	 3.666142672492870e-001	 3.960339609085045e+001
1	 2.192487109025002e+000	 3.886302342454619e-001	 3.771425112570574e+001
1	 2.188464713823888e+000	 4.106766343869623e-001	 3.584596920788952e+001
1	 2.184207034577926e+000	 4.327500683047373e-001	 3.399964785805685e+001
1	 2.242933445923886e+000	 2.161870379294425e-001	 5.436236987591710e+001
1	 2.240706929538030e+000	 2.381593399971436e-001	 5.224369997835644e+001
1	 2.238256311468759e+000	 2.601849736893952e-001	 5.014427868116398e+001
1	 2.235579662050491e+000	 2.822608915695107e-001	 4.806444530805246e+001
1	 2.232675099266471e+000	 3.043839876879194e-001	 4.600466139930743e+001
1	 2.229540790599451e+000	 3.265510982848271e-001	 4.396551235993859e+001
1	 2.226174954879359e+000	 3.487590025550492e-001	 4.194770892759771e+001
1	 2.222575864125728e+000	 3.710044234756086e-001	 3.995208845196950e+001
1	 2.218741845382629e+000	 3.932840286966024e-001	 3.797961597752704e+001
1	 2.214671282543780e+000	 4.155944314957660e-001	 3.603138512175773e+001
1	 2.210362618165463e+000	 4.379321917970662e-001	 3.410861874121158e+001
1	 2.269474445457651e+000	 2.187452146268828e-001	 5.535222326381562e+001
1	 2.267221582338333e+000	 2.409775185504877e-001	 5.312688352056065e+001
1	 2.264741965703633e+000	 2.632637851805277e-001	 5.092360691630523e+001
1	 2.262033643053913e+000	 2.856009310195024e-001	 4.874284858366466e+001
1	 2.259094710102200e+000	 3.079858133646347e-001	 4.658518699843956e+001
1	 2.255923312646760e+000	 3.304152310188462e-001	 4.445132545615840e+001
1	 2.252517648440637e+000	 3.528859250646414e-001	 4.234209336109683e+001
1	 2.248875969055882e+000	 3.753945797014968e-001	 4.025844731959536e+001
1	 2.244996581740197e+000	 3.979378231472712e-001	 3.820147202970402e+001
1	 2.240877851263638e+000	 4.205122286040643e-001	 3.617238095941771e+001
1	 2.236518201752999e+000	 4.431143152888640e-001	 3.417251680603352e+001
1	 2.296015444991454e+000	 2.213033913240406e-001	 5.631377700031906e+001
1	 2.293736235138629e+000	 2.437956971035477e-001	 5.397902695036509e+001
1	 2.291227619938468e+000	 2.663425966713601e-001	 5.166939900896259e+001
1	 2.288487624057276e+000	 2.889409704691661e-001	 4.938546586721420e+001
1	 2.285514320937859e+000	 3.115876390409852e-001	 4.712792374618518e+001
1	 2.282305834693997e+000	 3.342793637524572e-001	 4.489759368069995e+001
1	 2.278860342001849e+000	 3.570128475737778e-001	 4.269542260934490e+001
1	 2.275176073985981e+000	 3.797847359268805e-001	 4.052248426268265e+001
1	 2.271251318097723e+000	 4.025916175973881e-001	 3.837997984190982e+001
1	 2.267084419983474e+000	 4.254300257117684e-001	 3.626923848044737e+001
1	 2.262673785340533e+000	 4.482964387800323e-001	 3.419171748124068e+001
1	 2.322556444525403e+000	 2.238615680208486e-001	 5.724528817208077e+001
1	 2.320250887939015e+000	 2.466138756562646e-001	 5.479872024169233e+001
1	 2.317713274173349e+000	 2.694214081618382e-001	 5.238055018745785e+001
1	 2.314941605060654e+000	 2.922810099184495e-001	 4.999147010240095e+001
1	 2.311933931773511e+000	 3.151894647169170e-001	 4.763229487763829e+001
1	 2.308688356741215e+000	 3.381434964856023e-001	 4.530396327261201e+001
1	 2.305203035563035e+000	 3.611397700823949e-001	 4.300753878625838e+001
1	 2.301476178916054e+000	 3.841748921516888e-001	 4.074421032136747e+001
1	 2.297506054455230e+000	 4.072454120468744e-001	 3.851529263463683e+001
1	 2.293290988703300e+000	 4.303478228187891e-001	 3.632222656519911e+001
1	 2.288829368928065e+000	 4.534785622704716e-001	 3.416657903471156e+001
1	 2.027273533052570e+000	 4.016573273451569e-001	 3.237582812794830e+001
1	 2.023101370489906e+000	 4.221697687133256e-001	 3.098674393183208e+001
1	 2.018708075208402e+000	 4.427008487803357e-001	 2.962627364207880e+001
1	 2.014092391253171e+000	 4.632472654263895e-001	 2.829480475013430e+001
1	 2.009253123036069e+000	 4.838056717963328e-001	 2.699281444342148e+001
1	 2.004189136910731e+000	 5.043726775313110e-001	 2.572087045686516e+001
1	 1.998899362722714e+000	 5.249448500593382e-001	 2.447963177251175e+001
1	 1.993382795332379e+000	 5.455187159444398e-001	 2.326984916180274e+001
1	 1.987638496108145e+000	 5.660907622939356e-001	 2.209236556529792e+001
1	 1.981665594387705e+000	 5.866574382233224e-001	 2.094811630490445e+001
1	 1.975463288904845e+000	 6.072151563781103e-001	 1.983812912395020e+001
1	 2.053429116640150e+000	 4.068394508385930e-001	 3.276422219399866e+001
1	 2.049203125452439e+000	 4.276165406946643e-001	 3.130621320596425e+001
1	 2.044753148524194e+000	 4.484125097233065e-001	 2.987826450531702e+001
1	 2.040077913696388e+000	 4.692240132012558e-001	 2.848093024626162e+001
1	 2.035176209955583e+000	 4.900476610927235e-001	 2.711485736396824e+001
1	 2.030046889029278e+000	 5.108800192969424e-001	 2.578078618849238e+001
1	 2.024688866956064e+000	 5.317176109553853e-001	 2.447955089547574e+001
1	 2.019101125628145e+000	 5.525569178183158e-001	 2.321207978838833e+001
1	 2.013282714303859e+000	 5.733943816702276e-001	 2.197939540734080e+001
1	 2.007232751087750e+000	 5.942264058136259e-001	 2.078261445978970e+001
1	 2.000950424375789e+000	 6.150493566104990e-001	 1.962294756877462e+001
1	 2.079584700227718e+000	 4.120215743320919e-001	 3.310486650397435e+001
1	 2.075304880415053e+000	 4.330633126761094e-001	 3.157699584948987e+001
1	 2.070798221840153e+000	 4.541241706664352e-001	 3.008093706306762e+001
1	 2.066063436139859e+000	 4.752007609763388e-001	 2.861739027943621e+001
1	 2.061099296875428e+000	 4.962896503893942e-001	 2.718715061749010e+001
1	 2.055904641148230e+000	 5.173873610629187e-001	 2.579110857291734e+001
1	 2.050478371189883e+000	 5.384903718518439e-001	 2.443025023808506e+001
1	 2.044819455924433e+000	 5.595951196926688e-001	 2.310565734415191e+001
1	 2.038926932500135e+000	 5.806980010470583e-001	 2.181850712067501e+001
1	 2.032799907788383e+000	 6.017953734045253e-001	 2.057007196830200e+001
1	 2.026437559847334e+000	 6.228835568435334e-001	 1.936171894048338e+001
1	 2.105740283815281e+000	 4.172036978255548e-001	 3.339826421742361e+001
1	 2.101406635377738e+000	 4.385100846575524e-001	 3.179969229288821e+001
1	 2.096843295156265e+000	 4.598358316096043e-001	 3.023496965081892e+001
1	 2.092048958583554e+000	 4.811775087515100e-001	 2.870492256795386e+001
1	 2.087022383795570e+000	 5.025316396862062e-001	 2.721047364899009e+001
1	 2.081762393267542e+000	 5.238947028290933e-001	 2.575264201380612e+001
1	 2.076267875424119e+000	 5.452631327485581e-001	 2.433254330417164e+001
1	 2.070537786221185e+000	 5.666333215673344e-001	 2.295138950513119e+001
1	 2.064571150696912e+000	 5.880016204242573e-001	 2.161048857657454e+001
1	 2.058367064489540e+000	 6.093643409958431e-001	 2.031124389085158e+001
1	 2.051924695319411e+000	 6.307177570770309e-001	 1.905515347266110e+001
1	 2.131895867402834e+000	 4.223858213188828e-001	 3.364489380144825e+001
1	 2.127508390340486e+000	 4.439568566388839e-001	 3.197487350064179e+001
1	 2.122888368472507e+000	 4.655474925526937e-001	 3.034100731489071e+001
1	 2.118034481027448e+000	 4.871542565266411e-001	 2.874422862674287e+001
1	 2.112945470715970e+000	 5.087736289830220e-001	 2.718556765237412e+001
1	 2.107620145387170e+000	 5.304020445953191e-001	 2.566615143888646e+001
1	 2.102057379658718e+000	 5.520358936453725e-001	 2.418720367503999e+001
1	 2.096256116518343e+000	 5.736715234421500e-001	 2.275004431083404e+001
1	 2.090215368894127e+000	 5.953052398016531e-001	 2.135608898169779e+001
1	 2.083934221191156e+000	 6.169333085874018e-001	 2.000684823341883e+001
1	 2.077411830791955e+000	 6.385519573108083e-001	 1.870392654432923e+001
1	 2.158051450990382e+000	 4.275679448119764e-001	 3.384521052706539e+001
1	 2.153610145303288e+000	 4.494036286199951e-001	 3.210308275687518e+001
1	 2.148933441788862e+000	 4.712591534955853e-001	 3.039966382975712e+001
1	 2.144020003471510e+000	 4.931310043016033e-001	 2.873597596128759e+001
1	 2.138868557636592e+000	 5.150156182797036e-001	 2.711313788846730e+001
1	 2.133477897507068e+000	 5.369093863614491e-001	 2.553236469218919e+001
1	 2.127846883893632e+000	 5.588086545421322e-001	 2.399496742877215e+001
1	 2.121974446815849e+000	 5.807097253169513e-001	 2.250235256621178e+001
1	 2.115859587091717e+000	 6.026088591790751e-001	 2.105602122116288e+001
1	 2.109501377893164e+000	 6.245022761790249e-001	 1.965756819305274e+001
1	 2.102898966264897e+000	 6.463861575446830e-001	 1.830868079213261e+001
1	 2.184207034577926e+000	 4.327500683047373e-001	 3.399964785805685e+001
1	 2.179711900266134e+000	 4.548504006007772e-001	 3.218483732269739e+001
1	 2.174978515105309e+000	 4.769708144381600e-001	 3.041152357042694e+001
1	 2.170005525915712e+000	 4.991077520762679e-001	 2.868080010392052e+001
1	 2.164791644557400e+000	 5.212576075761127e-001	 2.699385583648206e+001
1	 2.159335649627190e+000	 5.434167281273360e-001	 2.535197475440904e+001
1	 2.153636388128806e+000	 5.655814154386811e-001	 2.375653538570724e+001
1	 2.147692777113644e+000	 5.877479271915754e-001	 2.220901007105282e+001
1	 2.141503805289620e+000	 6.099124785563528e-001	 2.071096403327525e+001
1	 2.135068534595499e+000	 6.320712437705344e-001	 1.926405424203180e+001
1	 2.128386101738172e+000	 6.542203577784719e-001	 1.787002807076689e+001
1	 2.210362618165463e+000	 4.379321917970662e-001	 3.410861874121158e+001
1	 2.205813655229016e+000	 4.602971725811210e-001	 3.222062997587427e+001
1	 2.201023588421832e+000	 4.826824753802987e-001	 3.037714325188646e+001
1	 2.195991048360028e+000	 5.050844998505065e-001	 2.857930650553945e+001
1	 2.190714731478355e+000	 5.274995968721120e-001	 2.682836119273485e+001
1	 2.185193401747493e+000	 5.499240698928333e-001	 2.512564180562231e+001
1	 2.179425892364189e+000	 5.723541763348634e-001	 2.347257519449456e+001
1	 2.173411107411672e+000	 5.947861290658582e-001	 2.187067969109165e+001
1	 2.167148023487771e+000	 6.172160979333151e-001	 2.032156402985149e+001
1	 2.160635691298096e+000	 6.396402113617532e-001	 1.882692606405173e+001
1	 2.153873237211714e+000	 6.620545580119925e-001	 1.738855127421764e+001
1	 2.236518201752999e+000	 4.431143152888640e-001	 3.417251680603352e+001
1	 2.231915410191926e+000	 4.657439445609178e-001	 3.221093044246431e+001
1	 2.227068661738412e+000	 4.883941363218828e-001	 3.029705354648822e+001
1	 2.221976570804428e+000	 5.110612476241907e-001	 2.843207229458561e+001
1	 2.216637818399421e+000	 5.337415861675627e-001	 2.661726372911504e+001
1	 2.211051153867931e+000	 5.564314116577933e-001	 2.485399514326599e+001
1	 2.205215396599727e+000	 5.791269372305239e-001	 2.314372327177087e+001
1	 2.199129437709874e+000	 6.018243309396368e-001	 2.148799328379055e+001
1	 2.192792241686112e+000	 6.245197173097915e-001	 1.988843757477997e+001
1	 2.186202848000890e+000	 6.472091789525045e-001	 1.834677435455362e+001
1	 2.179360372685457e+000	 6.698887582450618e-001	 1.686480602920581e+001
1	 2.262673785340533e+000	 4.482964387800323e-001	 3.419171748124068e+001
1	 2.258017165154852e+000	 4.711907165400585e-001	 3.215618672915992e+001
1	 2.253113735055028e+000	 4.941057972627939e-001	 3.017176058916149e+001
1	 2.247962093248883e+000	 5.170379953971916e-001	 2.823964791402337e+001
1	 2.242560905320561e+000	 5.399835754623272e-001	 2.636114502265536e+001
1	 2.236908905988459e+000	 5.629387534220696e-001	 2.453763496709102e+001
1	 2.231004900835369e+000	 5.858996981255067e-001	 2.277058660730659e+001
1	 2.224847768008192e+000	 6.088625328127471e-001	 2.106155349055428e+001
1	 2.218436459884576e+000	 6.318233366856108e-001	 1.941217253228884e+001
1	 2.211770004703814e+000	 6.547781465426102e-001	 1.782416249618544e+001
1	 2.204847508159331e+000	 6.777229584774968e-001	 1.629932227117969e+001
1	 2.288829368928065e+000	 4.534785622704716e-001	 3.416657903471158e+001
1	 2.284118920117788e+000	 4.766374885184339e-001	 3.205682636427627e+001
1	 2.279158808371665e+000	 4.998174582029122e-001	 3.000174737941799e+001
1	 2.273947615693367e+000	 5.230147431693808e-001	 2.800255864608022e+001
1	 2.268483992241738e+000	 5.462255647562675e-001	 2.606056006651424e+001
1	 2.262766658109032e+000	 5.694460951855148e-001	 2.417713404172987e+001
1	 2.256794405071063e+000	 5.926724590196567e-001	 2.235374444538217e+001
1	 2.250566098306568e+000	 6.159007346850259e-001	 2.059193540606130e+001
1	 2.244080678083104e+000	 6.391269560606027e-001	 1.889332989534464e+001
1	 2.237337161406804e+000	 6.623471141318938e-001	 1.725962811938598e+001
1	 2.230334643633273e+000	 6.855571587091147e-001	 1.569260571224905e+001
1	 1.975463288904845e+000	 6.072151563781103e-001	 1.983812912395020e+001
1	 1.969030848685419e+000	 6.277602942109749e-001	 1.876089123642573e+001
1	 1.962367612913845e+000	 6.482891946827240e-001	 1.771450783305290e+001
1	 1.955472993722270e+000	 6.687981688007213e-001	 1.669954715115624e+001
1	 1.948346477952993e+000	 6.892834976536050e-001	 1.571663617192917e+001
1	 1.940987628381445e+000	 7.097414342048217e-001	 1.476646014884225e+001
1	 1.933396084890728e+000	 7.301682051371444e-001	 1.384976200627435e+001
1	 1.925571565595462e+000	 7.505600127467703e-001	 1.296734160679101e+001
1	 1.917513867912702e+000	 7.709130368854965e-001	 1.212005488579491e+001
1	 1.909222869577758e+000	 7.912234369493599e-001	 1.130881285258778e+001
1	 1.900698529602766e+000	 8.114873539120181e-001	 1.053458045720672e+001
1	 2.000950424375789e+000	 6.150493566104990e-001	 1.962294756877462e+001
1	 1.994434993762919e+000	 6.358595647759501e-001	 1.849861713005042e+001
1	 1.987685789907810e+000	 6.566533260882138e-001	 1.740737041860857e+001
1	 1.980702217358025e+000	 6.774269039598259e-001	 1.634981923030447e+001
1	 1.973483756335180e+000	 6.981765314985874e-001	 1.532663320510999e+001
1	 1.966029963973694e+000	 7.188984133242424e-001	 1.433853925555705e+001
1	 1.958340475510495e+000	 7.395887274367914e-001	 1.338632086433517e+001
1	 1.950415005423359e+000	 7.602436271350284e-001	 1.247081724964400e+001
1	 1.942253348515647e+000	 7.808592429837707e-001	 1.159292239721089e+001
1	 1.933855380945223e+000	 8.014316848281606e-001	 1.075358395820279e+001
1	 1.925221061195408e+000	 8.219570438532781e-001	 9.953802012592570e+000
1	 2.026437559847334e+000	 6.228835568435334e-001	 1.936171894048338e+001
1	 2.019839138841012e+000	 6.439588353416125e-001	 1.819138216604820e+001
1	 2.013003966902344e+000	 6.650174574944245e-001	 1.705643462842856e+001
1	 2.005931440994312e+000	 6.860556391196769e-001	 1.595751523466461e+001
1	 1.998621034717845e+000	 7.070695653443356e-001	 1.489531978347122e+001
1	 1.991072299566360e+000	 7.280553924444430e-001	 1.387060032122004e+001
1	 1.983284866130609e+000	 7.490092497372286e-001	 1.288416436657640e+001
1	 1.975258445251525e+000	 7.699272415240817e-001	 1.193687400252513e+001
1	 1.966992829118775e+000	 7.908054490828436e-001	 1.102964483483057e+001
1	 1.958487892312784e+000	 8.116399327077613e-001	 1.016344481630187e+001
1	 1.949743592788055e+000	 8.324267337953375e-001	 9.339292936567826e+000
1	 2.051924695319411e+000	 6.307177570770309e-001	 1.905515347266110e+001
1	 2.045243283919631e+000	 6.520581059077750e-001	 1.783984766572068e+001
1	 2.038322143897384e+000	 6.733815889011648e-001	 1.666231647249185e+001
1	 2.031160664631070e+000	 6.946843742800805e-001	 1.552321010323376e+001
1	 2.023758313100938e+000	 7.159625991906542e-001	 1.442323465601602e+001
1	 2.016114635159398e+000	 7.372123715652268e-001	 1.336315142714097e+001
1	 2.008229256751030e+000	 7.584297720382565e-001	 1.234377609028156e+001
1	 2.000101885079928e+000	 7.796108559137310e-001	 1.136597774315587e+001
1	 1.991732309722068e+000	 8.007516551825156e-001	 1.043067782087424e+001
1	 1.983120403680432e+000	 8.218481805879621e-001	 9.538848875420575e+000
1	 1.974266124380708e+000	 8.428964237379968e-001	 8.691513221066787e+000
1	 2.077411830791955e+000	 6.385519573108083e-001	 1.870392654432923e+001
1	 2.070647428998710e+000	 6.601573764742490e-001	 1.744464249616592e+001
1	 2.063640320892865e+000	 6.817457203082433e-001	 1.622560173021725e+001
1	 2.056389888268241e+000	 7.033131094408428e-001	 1.504745055999842e+001
1	 2.048895591484403e+000	 7.248556330373464e-001	 1.391089013275306e+001
1	 2.041156970752760e+000	 7.463693506863948e-001	 1.281667572064577e+001
1	 2.033173647371722e+000	 7.678502943396767e-001	 1.176561588128003e+001
1	 2.024945324908542e+000	 7.892944703037774e-001	 1.075857148640584e+001
1	 2.016471790325502e+000	 8.106978612825859e-001	 9.796454617996870e+000
1	 2.007752915048153e+000	 8.320564284685622e-001	 8.880227331202311e+000
1	 1.998788655973365e+000	 8.533661136810563e-001	 8.010900284015847e+000
1	 2.102898966264897e+000	 6.463861575446830e-001	 1.830868079213261e+001
1	 2.096051574078183e+000	 6.682566470408484e-001	 1.700636503700323e+001
1	 2.088958497888727e+000	 6.901098517154685e-001	 1.574684778243537e+001
1	 2.081619111905765e+000	 7.119418446017694e-001	 1.453075682376422e+001
1	 2.074032869868189e+000	 7.337486668842165e-001	 1.335877368689973e+001
1	 2.066199306346401e+000	 7.555263298077501e-001	 1.223163292607586e+001
1	 2.058118037992645e+000	 7.772708166412899e-001	 1.115012129207342e+001
1	 2.049788764737333e+000	 7.989780846940209e-001	 1.011507676978184e+001
1	 2.041211270929059e+000	 8.206440673828559e-001	 9.127387484278030e+000
1	 2.032385426415939e+000	 8.422646763493622e-001	 8.187990474923847e+000
1	 2.023311187566027e+000	 8.638358036243159e-001	 7.297870337318514e+000
1	 2.128386101738172e+000	 6.542203577784719e-001	 1.787002807076689e+001
1	 2.121455719157986e+000	 6.763559176073852e-001	 1.652558500579023e+001
1	 2.114276674884903e+000	 6.984739831226499e-001	 1.522658531173497e+001
1	 2.106848335543585e+000	 7.205705797626663e-001	 1.397362419513575e+001
1	 2.099170148252240e+000	 7.426417007310675e-001	 1.276734944196840e+001
1	 2.091241641940274e+000	 7.646833089290945e-001	 1.160846074722382e+001
1	 2.083062428613760e+000	 7.866913389428978e-001	 1.049770891663355e+001
1	 2.074632204566274e+000	 8.086616990842620e-001	 9.435894939370545e+000
1	 2.065950751532719e+000	 8.305902734831250e-001	 8.423868930856846e+000
1	 2.057017937783778e+000	 8.524729242301623e-001	 7.462528945130413e+000
1	 2.047833719158692e+000	 8.743054935675753e-001	 6.552819656552083e+000
1	 2.153873237211714e+000	 6.620545580119925e-001	 1.738855127421764e+001
1	 2.146859864238053e+000	 6.844551881736720e-001	 1.600284515383728e+001
1	 2.139594851881333e+000	 7.068381145295958e-001	 1.466531988208619e+001
1	 2.132077559181639e+000	 7.291993149233395e-001	 1.337652453082245e+001
1	 2.124307426636505e+000	 7.515347345777036e-001	 1.213705955327094e+001
1	 2.116283977534334e+000	 7.738402880502304e-001	 1.094757617019731e+001
1	 2.108006819235030e+000	 7.961118612443013e-001	 9.808775630431438e+000
1	 2.099475644395333e+000	 8.183453134743010e-001	 8.721408344480762e+000
1	 2.090690232136461e+000	 8.405364795831936e-001	 7.686272890276147e+000
1	 2.081650449151659e+000	 8.626811721107623e-001	 6.704214890405872e+000
1	 2.072356250751360e+000	 8.847751835106346e-001	 5.776125760516783e+000
1	 2.179360372685457e+000	 6.698887582450618e-001	 1.686480602920581e+001
1	 2.172264009318315e+000	 6.925544587395214e-001	 1.543866284302871e+001
1	 2.164913028877952e+000	 7.152022459361156e-001	 1.406353340762416e+001
1	 2.157306782819872e+000	 7.378280500835952e-001	 1.273990761449438e+001
1	 2.149444705020930e+000	 7.604277684239289e-001	 1.146832549248490e+001
1	 2.141326313128531e+000	 7.829972671709592e-001	 1.024937667486291e+001
1	 2.132951209856413e+000	 8.055323835453013e-001	 9.083699743454732e+000
1	 2.124319084224482e+000	 8.280289278639389e-001	 7.971981448459117e+000
1	 2.115429712740264e+000	 8.504826856828617e-001	 6.914955802845529e+000
1	 2.106282960519573e+000	 8.728894199909624e-001	 5.913403050552924e+000
1	 2.096878782344030e+000	 8.952448734532940e-001	 4.968148508017937e+000
1	 2.204847508159331e+000	 6.777229584774968e-001	 1.629932227117969e+001
1	 2.197668154398711e+000	 7.006537293047456e-001	 1.483353151327980e+001
1	 2.190231205874697e+000	 7.235663773420179e-001	 1.342168551956086e+001
1	 2.182536006458222e+000	 7.464567852432394e-001	 1.206420243255892e+001
1	 2.174581983405460e+000	 7.693208022695464e-001	 1.076154924312561e+001
1	 2.166368648722823e+000	 7.921542462910846e-001	 9.514241362267054e+000
1	 2.157895600477876e+000	 8.149529058456997e-001	 8.322842073255012e+000
1	 2.149162524053690e+000	 8.377125422529760e-001	 7.187961862462179e+000
1	 2.140169193344107e+000	 8.604288917819297e-001	 6.110257627656820e+000
1	 2.130915471887508e+000	 8.830976678705622e-001	 5.090431762785383e+000
1	 2.121401313936701e+000	 9.057145633953535e-001	 4.129231118577604e+000
1	 2.230334643633273e+000	 6.855571587091147e-001	 1.569260571224905e+001
1	 2.223072299479172e+000	 7.087529998691573e-001	 1.418792204937746e+001
1	 2.215549382871506e+000	 7.319305087471114e-001	 1.274021483937522e+001
1	 2.207765230096631e+000	 7.550855204020772e-001	 1.134981836246375e+001
1	 2.199719261790046e+000	 7.782138361143607e-001	 1.001711441405032e+001
1	 2.191410984317160e+000	 8.013112254104075e-001	 8.742532004755535e+000
1	 2.182839991099376e+000	 8.243734281452965e-001	 7.526546944421388e+000
1	 2.174005963882928e+000	 8.473961566412124e-001	 6.369681308348391e+000
1	 2.164908673947971e+000	 8.703750978801975e-001	 5.272502784279465e+000
1	 2.155547983255453e+000	 8.933059157493628e-001	 4.235623898930660e+000
1	 2.145923845529373e+000	 9.161842533366132e-001	 3.259701123161487e+000
1	 1.900698529602766e+000	 8.114873539120181e-001	 1.053458045720673e+001
1	 1.891942220492132e+000	 8.316978846581148e-001	 9.793338459796297e+000
1	 1.882952806529170e+000	 8.518541852139021e-001	 9.080157867893318e+000
1	 1.873730497067709e+000	 8.719523567309262e-001	 8.395041810923287e+000
1	 1.864275585902089e+000	 8.919884905296139e-001	 7.738024363993124e+000
1	 1.854588451907370e+000	 9.119586703247523e-001	 7.109170521222001e+000
1	 1.844669559610956e+000	 9.318589744831690e-001	 6.508576097996563e+000
1	 1.834519459694026e+000	 9.516854783112039e-001	 5.936367561207893e+000
1	 1.824138789421242e+000	 9.714342563694888e-001	 5.392701786704488e+000
1	 1.813528272997309e+000	 9.911013848124718e-001	 4.877765743378396e+000
1	 1.802688721849068e+000	 1.010682943750032e+000	 4.391776103489801e+000
1	 1.925221061195408e+000	 8.219570438532781e-001	 9.953802012592568e+000
1	 1.916351779478452e+000	 8.424283278807977e-001	 9.189375695242131e+000
1	 1.907246385424817e+000	 8.628446820481397e-001	 8.455154716459763e+000
1	 1.897905091089386e+000	 8.832021572044753e-001	 7.751127721164090e+000
1	 1.888328194056983e+000	 9.034967942410130e-001	 7.077314560817026e+000
1	 1.878516078090858e+000	 9.237246263451977e-001	 6.433766307489168e+000
1	 1.868469213711673e+000	 9.438816812875146e-001	 5.820565196267208e+000
1	 1.858188158705416e+000	 9.639639837384756e-001	 5.237824494956204e+000
1	 1.847673558558638e+000	 9.839675576132633e-001	 4.685688300206477e+000
1	 1.836926146819623e+000	 1.003888428441440e+000	 4.164331259379078e+000
1	 1.825946745384119e+000	 1.023722625759030e+000	 3.673958217652394e+000
1	 1.949743592788055e+000	 8.324267337953375e-001	 9.339292936567826e+000
1	 1.940761338464687e+000	 8.531587711042798e-001	 8.552826660930110e+000
1	 1.931539964320292e+000	 8.738351788831774e-001	 7.798714213310814e+000
1	 1.922079685110801e+000	 8.944519576788236e-001	 7.076943033849798e+000
1	 1.912380802211533e+000	 9.150050979532125e-001	 6.387532181251870e+000
1	 1.902443704273920e+000	 9.354905823664447e-001	 5.730532367322107e+000
1	 1.892268867811892e+000	 9.559043880926642e-001	 5.106025918714022e+000
1	 1.881856857716237e+000	 9.762424891665525e-001	 4.514126664772821e+000
1	 1.871208327695403e+000	 9.965008588578462e-001	 3.954979750535176e+000
1	 1.860324020641252e+000	 1.016675472071220e+000	 3.428761374132701e+000
1	 1.849204768918440e+000	 1.036762307768845e+000	 2.935678448038849e+000
1	 1.974266124380708e+000	 8.428964237379968e-001	 8.691513221066785e+000
1	 1.965170897450847e+000	 8.638892143283621e-001	 7.884163569851896e+000
1	 1.955833543215612e+000	 8.848256757188150e-001	 7.111322702999600e+000
1	 1.946254279131986e+000	 9.057017581537731e-001	 6.372989668685842e+000
1	 1.936433410365777e+000	 9.265134016660142e-001	 5.669195692724618e+000
1	 1.926371330456609e+000	 9.472565383882964e-001	 5.000004213727405e+000
1	 1.916068521911670e+000	 9.679270948984196e-001	 4.365510843810481e+000
1	 1.905525556726559e+000	 9.885209945952411e-001	 3.765843253694585e+000
1	 1.894743096831615e+000	 1.009034160103045e+000	 3.201160981224398e+000
1	 1.883721894462284e+000	 1.029462515701623e+000	 2.671655162526570e+000
1	 1.872462792452129e+000	 1.049801989779293e+000	 2.177548185219966e+000
1	 1.998788655973365e+000	 8.533661136810563e-001	 8.010900284015845e+000
1	 1.989580456436942e+000	 8.746196575528440e-001	 7.183835461245491e+000
1	 1.980127122110799e+000	 8.958161725548529e-001	 6.393442662822437e+000
1	 1.970428873152970e+000	 9.169515586291239e-001	 5.639744913773789e+000
1	 1.960486018519757e+000	 9.380217053792193e-001	 4.922798118982525e+000
1	 1.950298956638970e+000	 9.590224944105530e-001	 4.242691079523873e+000
1	 1.939868176011067e+000	 9.799498017045860e-001	 3.599545432358481e+000
1	 1.929194255736452e+000	 1.000799500024346e+000	 2.993515512221515e+000
1	 1.918277865967356e+000	 1.021567461348670e+000	 2.424788134735973e+000
1	 1.907119768282811e+000	 1.042249559332463e+000	 1.893582299975669e+000
1	 1.895720815985286e+000	 1.062841671790190e+000	 1.400148815904958e+000
1	 2.023311187566027e+000	 8.638358036243159e-001	 7.297870337318513e+000
1	 2.013990015422981e+000	 8.853501007775261e-001	 6.452269604925065e+000
1	 2.004420701005870e+000	 9.068066693910915e-001	 5.645514149174733e+000
1	 1.994603467173784e+000	 9.282013591046769e-001	 4.877662918286617e+000
1	 1.984538626673510e+000	 9.495300090926281e-001	 4.148808581980396e+000
1	 1.974226582821057e+000	 9.707884504330185e-001	 3.459077509922329e+000
1	 1.963667830110143e+000	 9.919725085109665e-001	 2.808629670819507e+000
1	 1.952862954745983e+000	 1.013078005453673e+000	 2.197658451028968e+000
1	 1.941812635102705e+000	 1.034100762594528e+000	 1.626390391744862e+000
1	 1.930517642102919e+000	 1.055036602963550e+000	 1.095084844030960e+000
1	 1.918978839518010e+000	 1.075881353801352e+000	 6.040335411758789e-001
1	 2.047833719158692e+000	 8.743054935675753e-001	 6.552819656552082e+000
1	 2.038399574408974e+000	 8.960805440022087e-001	 5.689872804710563e+000
1	 2.028714279900847e+000	 9.177971662273304e-001	 4.867956139987612e+000
1	 2.018778061194453e+000	 9.394511595802317e-001	 4.087176077896656e+000
1	 2.008591234827077e+000	 9.610383128060426e-001	 3.347673732984438e+000
1	 1.998154209002917e+000	 9.825544064554941e-001	 2.649624840679638e+000
1	 1.987467484208959e+000	 1.003995215317365e+000	 1.993239596573730e+000
1	 1.976531653755224e+000	 1.025356510883029e+000	 1.378762412059565e+000
1	 1.965347404237740e+000	 1.046634063840428e+000	 8.064715854584524e-001
1	 1.953915515922700e+000	 1.067823646594697e+000	 2.766788879805721e-001
1	 1.942236863050402e+000	 1.088921035812597e+000	-2.102709359168490e-001
1	 2.072356250751360e+000	 8.847751835106346e-001	 5.776125760516784e+000
1	 2.062809133394929e+000	 9.068109872266907e-001	 4.897032609315427e+000
1	 2.053007858795747e+000	 9.287876630633706e-001	 4.061167781852696e+000
1	 2.042952655215010e+000	 9.507009600555888e-001	 3.268696321839674e+000
1	 2.032643842980497e+000	 9.725466165192632e-001	 2.519819082069349e+000
1	 2.022081835184600e+000	 9.943203624777819e-001	 1.814772571305359e+000
1	 2.011267138307571e+000	 1.016017922123584e+000	 1.153828714887400e+000
1	 2.000200352764243e+000	 1.037635016312218e+000	 5.372945280692867e-001
1	 1.988882173372540e+000	 1.059167365086179e+000	-3.448829867977406e-002
1	 1.977313389742244e+000	 1.080610690225716e+000	-5.611439029528973e-001
1	 1.965494886582561e+000	 1.101960717823740e+000	-1.042262842576244e+000
1	 2.096878782344030e+000	 8.952448734532940e-001	 4.968148508017937e+000
1	 2.087218692380858e+000	 9.175414304507734e-001	 4.074118438267685e+000
1	 2.077301437690591e+000	 9.397781598990115e-001	 3.225529549637988e+000
1	 2.067127249235484e+000	 9.619507605305498e-001	 2.422616309667121e+000
1	 2.056696451133809e+000	 9.840549202320910e-001	 1.665650234326120e+000
1	 2.046009461366154e+000	 1.006086318499684e+000	 9.549396419122145e-001
1	 2.035066792406040e+000	 1.028040628929428e+000	 2.908293164534156e-001
1	 2.023869051773110e+000	 1.049913521741047e+000	-3.262999202408027e-001
1	 2.012416942507187e+000	 1.071700666331588e+000	-8.960317285180726e-001
1	 2.000711263561638e+000	 1.093397733856419e+000	-1.417914863208168e+000
1	 1.988752910114585e+000	 1.115000399834598e+000	-1.891463878489633e+000
1	 2.121401313936701e+000	 9.057145633953535e-001	 4.129231118577605e+000
1	 2.111628251366767e+000	 9.282718736742562e-001	 3.221482629740195e+000
1	 2.101595016585397e+000	 9.507686567340533e-001	 2.361404325675485e+000
1	 2.091301843255902e+000	 9.732005610049138e-001	 1.549310544994880e+000
1	 2.080749059287054e+000	 9.955632239443274e-001	 7.855540403297336e-001
1	 2.069937087547631e+000	 1.017852274521003e+000	 7.052562150763055e-002
1	 2.058866446504426e+000	 1.040063335734701e+000	-5.953462964494826e-001
1	 2.047537750781894e+000	 1.062192027169320e+000	-1.211596241220240e+000
1	 2.035951711641758e+000	 1.084233967576464e+000	-1.777722327442157e+000
1	 2.024109137380973e+000	 1.106184777486618e+000	-2.293186997551591e+000
1	 2.012010933646574e+000	 1.128040081844988e+000	-2.757417859166729e+000
1	 2.145923845529373e+000	 9.161842533366132e-001	 3.259701123161487e+000
1	 2.136037810352666e+000	 9.390023168969390e-001	 2.339461416536112e+000
1	 2.125888595480185e+000	 9.617591535682968e-001	 1.469138404954430e+000
1	 2.115476437276295e+000	 9.844503614784820e-001	 6.491364128875893e-001
1	 2.104801667440269e+000	 1.007071527655773e+000	-1.201003322749923e-001
1	 2.093864713729079e+000	 1.029618230541540e+000	-8.380881851902143e-001
1	 2.082666100602788e+000	 1.052086042539205e+000	-1.504304667868997e+000
1	 2.071206449790665e+000	 1.074470532596845e+000	-2.118189155862587e+000
1	 2.059486480776334e+000	 1.096767268820616e+000	-2.679143665600849e+000
1	 2.047507011200339e+000	 1.118971821116124e+000	-3.186533742889157e+000
1	 2.035268957178629e+000	 1.141079763854727e+000	-3.639689452297223e+000
1	 1.802688721849068e+000	 1.010682943750032e+000	 4.391776103489800e+000
1	 1.791619357690404e+000	 1.030177937010685e+000	 3.930582694493205e+000
1	 1.780322777535209e+000	 1.049579514920662e+000	 3.489693198061413e+000
1	 1.768800057357055e+000	 1.068883783227662e+000	 3.068617904372369e+000
1	 1.757052360750431e+000	 1.088086861295837e+000	 2.666863738888796e+000
1	 1.745080938822499e+000	 1.107184884536711e+000	 2.283935064429589e+000
1	 1.732887130004770e+000	 1.126174006844907e+000	 1.919334486673376e+000
1	 1.720472359784236e+000	 1.145050403035631e+000	 1.572563661392368e+000
1	 1.707838140353593e+000	 1.163810271280825e+000	 1.243124101696015e+000
1	 1.694986070180313e+000	 1.182449835540888e+000	 9.305179835524726e-001
1	 1.681917833494530e+000	 1.200965347988850e+000	 6.342489478490452e-001
1	 1.825946745384119e+000	 1.023722625759030e+000	 3.673958217652394e+000
1	 1.814734565924675e+000	 1.043469140542086e+000	 3.209941095962594e+000
1	 1.803292238961473e+000	 1.063121034743368e+000	 2.767333943894153e+000
1	 1.791620854350134e+000	 1.082674363867519e+000	 2.345668390733565e+000
1	 1.779721590697669e+000	 1.102125197211310e+000	 1.944469846154133e+000
1	 1.767595715252836e+000	 1.121469620325929e+000	 1.563258273983086e+000
1	 1.755244583715393e+000	 1.140703737484130e+000	 1.201548974108357e+000
1	 1.742669639963753e+000	 1.159823674149157e+000	 8.588533709103489e-001
1	 1.729872415700694e+000	 1.178825579442343e+000	 5.346798065755009e-001
1	 1.716854530016881e+000	 1.197705628606193e+000	 2.285343376253138e-001
1	 1.703617688872131e+000	 1.216460025459840e+000	-6.007846702460817e-002
1	 1.849204768918440e+000	 1.036762307768845e+000	 2.935678448038849e+000
1	 1.837849774158181e+000	 1.056760344074309e+000	 2.470589463566023e+000
1	 1.826261700386945e+000	 1.076662554566901e+000	 2.028053976784528e+000
1	 1.814441651342400e+000	 1.096464944508205e+000	 1.607631492793355e+000
1	 1.802390820644081e+000	 1.116163533127615e+000	 1.208872253329660e+000
1	 1.790110491682342e+000	 1.135754356115979e+000	 8.313179694067509e-001
1	 1.777602037425184e+000	 1.155233468124176e+000	 4.745025670198084e-001
1	 1.764866920142439e+000	 1.174596945263497e+000	 1.379529444217184e-001
1	 1.751906691046967e+000	 1.193840887604655e+000	-1.788102605685753e-001
1	 1.738722989852626e+000	 1.212961421672268e+000	-4.762718947977553e-001
1	 1.725317544248913e+000	 1.231954702931564e+000	-7.549215071534335e-001
1	 1.872462792452129e+000	 1.049801989779293e+000	 2.177548185219966e+000
1	 1.860964982391031e+000	 1.070051547607175e+000	 1.713148462849046e+000
1	 1.849231161811743e+000	 1.090204074391089e+000	 1.272479240043278e+000
1	 1.837262448333983e+000	 1.110255525149559e+000	 8.551342067062460e-001
1	 1.825060050589807e+000	 1.130201869044597e+000	 4.606945593444469e-001
1	 1.812625268111165e+000	 1.150039091906711e+000	 8.872967999700140e-002
1	 1.799959491134298e+000	 1.169763198764909e+000	-2.612021666189737e-001
1	 1.787064200320456e+000	 1.189370216378519e+000	-5.895531190997575e-001
1	 1.773940966392586e+000	 1.208856195767643e+000	-8.967849898866561e-001
1	 1.760591449687725e+000	 1.228217214739001e+000	-1.183368521789259e+000
1	 1.747017399625063e+000	 1.247449380403922e+000	-1.449782631994476e+000
1	 1.895720815985286e+000	 1.062841671790190e+000	 1.400148815904956e+000
1	 1.884080190623331e+000	 1.083342751140507e+000	 9.382083003285854e-001
1	 1.872200623235985e+000	 1.103745594215760e+000	 5.012049589474695e-001
1	 1.860083245325013e+000	 1.124046105791413e+000	 8.877275892531129e-002
1	 1.847729280534987e+000	 1.144240204962098e+000	-2.994702398555230e-001
1	 1.835140044539452e+000	 1.164323827697978e+000	-6.639212719171428e-001
1	 1.822316944842891e+000	 1.184292929406189e+000	-1.004992229727862e+000
1	 1.809261480497970e+000	 1.204143487494096e+000	-1.323109004841062e+000
1	 1.795975241737718e+000	 1.223871503931185e+000	-1.618710807873588e+000
1	 1.782459909522359e+000	 1.243473007806281e+000	-1.892249468625358e+000
1	 1.768717255000763e+000	 1.262944057876813e+000	-2.144188717699053e+000
1	 1.918978839518010e+000	 1.075881353801352e+000	 6.040335411758795e-001
1	 1.907195398855194e+000	 1.096633954674126e+000	 1.463305693104118e-001
1	 1.895170084659793e+000	 1.117287114040742e+000	-2.852024977460944e-001
1	 1.882904042315616e+000	 1.137836686433605e+000	-6.908855291535170e-001
1	 1.870398510479757e+000	 1.158278540879961e+000	-1.071057896766241e+000
1	 1.857654820967350e+000	 1.178608563489632e+000	-1.426077940431517e+000
1	 1.844674398551119e+000	 1.198822660047875e+000	-1.756322404123287e+000
1	 1.831458760675146e+000	 1.218916758610096e+000	-2.062185843889426e+000
1	 1.818009517082537e+000	 1.238886812095163e+000	-2.344080008665797e+000
1	 1.804328369356703e+000	 1.258728800874001e+000	-2.602433195082761e+000
1	 1.790417110376194e+000	 1.278438735350138e+000	-2.837689577460803e+000
1	 1.942236863050402e+000	 1.088921035812597e+000	-2.102709359168487e-001
1	 1.930310607086727e+000	 1.109925158207855e+000	-6.619500369139161e-001
1	 1.918139546083284e+000	 1.130828633865865e+000	-1.086203890036163e+000
1	 1.905724839305924e+000	 1.151627267075969e+000	-1.483300510520359e+000
1	 1.893067740424256e+000	 1.172316876798029e+000	-1.853531191031790e+000
1	 1.880169597395008e+000	 1.192893299281524e+000	-2.197210057047227e+000
1	 1.867031852259138e+000	 1.213352390689829e+000	-2.514673587275475e+000
1	 1.853656040852145e+000	 1.233690029726389e+000	-2.806280099864511e+000
1	 1.840043792427213e+000	 1.253902120259454e+000	-3.072409205233494e+000
1	 1.826196829190936e+000	 1.273984593942049e+000	-3.313461226452151e+000
1	 1.812116965751543e+000	 1.293933412823795e+000	-3.529856588175469e+000
1	 1.965494886582561e+000	 1.101960717823740e+000	-1.042262842576243e+000
1	 1.953425815318042e+000	 1.123216361741514e+000	-1.486124133505349e+000
1	 1.941109007506578e+000	 1.144370153690955e+000	-1.901285501581410e+000
1	 1.928545636296065e+000	 1.165417847718342e+000	-2.287957604756265e+000
1	 1.915736970368623e+000	 1.186355212716147e+000	-2.646378330360664e+000
1	 1.902684373822573e+000	 1.207178035073504e+000	-2.976812452279812e+000
1	 1.889389305967105e+000	 1.227882121331912e+000	-3.279551247153864e+000
1	 1.875853321029134e+000	 1.248463300842847e+000	-3.554912070097949e+000
1	 1.862078067771918e+000	 1.268917428423940e+000	-3.803237890536609e+000
1	 1.848065289025234e+000	 1.289240387010314e+000	-4.024896788847416e+000
1	 1.833816821126989e+000	 1.309428090297686e+000	-4.220281414606538e+000
1	 1.988752910114585e+000	 1.115000399834598e+000	-1.891463878489632e+000
1	 1.976541023549247e+000	 1.136507565274927e+000	-2.325706164193299e+000
1	 1.964078468929796e+000	 1.157911673515843e+000	-2.729957647232680e+000
1	 1.951366433286169e+000	 1.179208428360558e+000	-3.104366303054898e+000
1	 1.938406200312997e+000	 1.200393548634157e+000	-3.449111463647617e+000
1	 1.925199150250191e+000	 1.221462770865427e+000	-3.764403588021784e+000
1	 1.911746759675175e+000	 1.242411851973984e+000	-4.050483985494250e+000
1	 1.898050601206275e+000	 1.263236571959339e+000	-4.307624491983259e+000
1	 1.884112343116823e+000	 1.283932736588499e+000	-4.536127099642462e+000
1	 1.869933748859776e+000	 1.304496180078686e+000	-4.736323540274136e+000
1	 1.855516676502718e+000	 1.324922767771708e+000	-4.908574823074302e+000
1	 2.012010933646574e+000	 1.128040081844988e+000	-2.757417859166729e+000
1	 1.999656231780452e+000	 1.149798768807915e+000	-3.180233024032913e+000
1	 1.987047930353056e+000	 1.171453193340354e+000	-3.571753284078640e+000
1	 1.974187230276363e+000	 1.192999009002452e+000	-3.932058776932139e+000
1	 1.961075430257516e+000	 1.214431884551902e+000	-4.261265297221732e+000
1	 1.947713926678010e+000	 1.235747506657143e+000	-4.559524191697189e+000
1	 1.934104213383504e+000	 1.256941582615906e+000	-4.827022200714051e+000
1	 1.920247881383731e+000	 1.278009843075735e+000	-5.063981245985827e+000
1	 1.906146618462098e+000	 1.298948044753012e+000	-5.270658164635693e+000
1	 1.891802208694739e+000	 1.319751973147056e+000	-5.447344389707586e+000
1	 1.877216531878911e+000	 1.340417445245763e+000	-5.594365577424755e+000
1	 2.035268957178629e+000	 1.141079763854727e+000	-3.639689452297223e+000
1	 2.022771440011766e+000	 1.163089972340299e+000	-4.049262776592764e+000
1	 2.010017391776478e+000	 1.184994713164319e+000	-4.426226717725566e+000
1	 1.997008027266777e+000	 1.206789589643860e+000	-4.770588582329697e+000
1	 1.983744660202318e+000	 1.228470220469227e+000	-5.082395805971406e+000
1	 1.970228703106179e+000	 1.250032242448504e+000	-5.361735984065166e+000
1	 1.956461667092249e+000	 1.271471313257540e+000	-5.608736842504702e+000
1	 1.942445161561669e+000	 1.292783114191905e+000	-5.823566147580939e+000
1	 1.928180893807916e+000	 1.313963352917359e+000	-6.006431554897802e+000
1	 1.913670668530300e+000	 1.335007766215311e+000	-6.157580397140724e+000
1	 1.898916387255753e+000	 1.355912122719749e+000	-6.277299410696178e+000
1	 1.681917833494530e+000	 1.200965347988850e+000	 6.342489478490441e-001
1	 1.668635199221159e+000	 1.219353091017331e+000	 3.488261819848192e-001
1	 1.655140018895221e+000	 1.237609378393840e+000	 6.933184229486936e-002
1	 1.641434227355505e+000	 1.255730558820518e+000	-2.038710302286535e-001
1	 1.627519842390902e+000	 1.273713018699258e+000	-4.704221157497756e-001
1	 1.613398963829417e+000	 1.291553184473516e+000	-7.299645019498040e-001
1	 1.599073772548270e+000	 1.309247524943862e+000	-9.821453725576053e-001
1	 1.584546529405988e+000	 1.326792553554179e+000	-1.226616696602808e+000
1	 1.569819574097471e+000	 1.344184830645459e+000	-1.463035916930572e+000
1	 1.554895323933223e+000	 1.361420965674179e+000	-1.691066636505645e+000
1	 1.539776272543993e+000	 1.378497619392281e+000	-1.910379301027760e+000
1	 1.703617688872131e+000	 1.216460025459840e+000	-6.007846702460817e-002
1	 1.690163684013768e+000	 1.235085004431891e+000	-3.367654626786910e-001
1	 1.676494390865051e+000	 1.253576831730622e+000	-6.064498514165224e-001
1	 1.662611769227780e+000	 1.271931808949659e+000	-8.686032262686489e-001
1	 1.648517862924069e+000	 1.290146275868779e+000	-1.122699307792571e+000
1	 1.634214798873599e+000	 1.308216612825929e+000	-1.368214934142086e+000
1	 1.619704786090954e+000	 1.326139243062656e+000	-1.604631056070796e+000
1	 1.604990114603931e+000	 1.343910635039803e+000	-1.831433734786882e+000
1	 1.590073154293838e+000	 1.361527304720379e+000	-2.048115140551435e+000
1	 1.574956353658965e+000	 1.378985817816562e+000	-2.254174549893607e+000
1	 1.559642238502527e+000	 1.396282791997798e+000	-2.449119339303564e+000
1	 1.725317544248913e+000	 1.231954702931564e+000	-7.549215071534333e-001
1	 1.711692168805565e+000	 1.250816917847140e+000	-1.020445402808722e+000
1	 1.697848762834074e+000	 1.269544285068040e+000	-1.277778858753823e+000
1	 1.683789311099254e+000	 1.288133059079376e+000	-1.526289042828985e+000
1	 1.669515883456440e+000	 1.306579533038807e+000	-1.765345547227492e+000
1	 1.655030633916995e+000	 1.324880041178775e+000	-1.994321580436403e+000
1	 1.640335799632866e+000	 1.343030961181805e+000	-2.212595164853795e+000
1	 1.625433699801120e+000	 1.361028716525699e+000	-2.419550337568954e+000
1	 1.610326734489472e+000	 1.378869778795487e+000	-2.614578351763996e+000
1	 1.595017383384004e+000	 1.396550669959047e+000	-2.797078876172779e+000
1	 1.579508204460395e+000	 1.414067964603332e+000	-2.966461190020174e+000
1	 1.747017399625063e+000	 1.247449380403922e+000	-1.449782631994475e+000
1	 1.733220653596737e+000	 1.266548831262988e+000	-1.701764228973760e+000
1	 1.719203134802480e+000	 1.285511738406013e+000	-1.944273530669359e+000
1	 1.704966852970118e+000	 1.304334309209597e+000	-2.176632008612078e+000
1	 1.690513903988211e+000	 1.323012790209282e+000	-2.398164723207265e+000
1	 1.675846468959799e+000	 1.341543469532005e+000	-2.608201617874353e+000
1	 1.660966813174197e+000	 1.359922679301271e+000	-2.806078817621006e+000
1	 1.645877284997742e+000	 1.378146798011843e+000	-2.991139929311471e+000
1	 1.630580314684557e+000	 1.396212252870773e+000	-3.162737340860660e+000
1	 1.615078413108516e+000	 1.414115522101638e+000	-3.320233516567799e+000
1	 1.599374170417763e+000	 1.431853137208900e+000	-3.463002285791945e+000
1	 1.768717255000763e+000	 1.262944057876813e+000	-2.144188717699055e+000
1	 1.754749138387473e+000	 1.282280744679345e+000	-2.380294586412607e+000
1	 1.740557506770460e+000	 1.301479191744462e+000	-2.605570947459439e+000
1	 1.726144394840567e+000	 1.320535559340253e+000	-2.819350201584367e+000
1	 1.711511924519575e+000	 1.339446047380145e+000	-3.020970348980976e+000
1	 1.696662304002206e+000	 1.358206897885572e+000	-3.209776288014833e+000
1	 1.681597826715140e+000	 1.376814397421019e+000	-3.385121115193102e+000
1	 1.666320870193986e+000	 1.395264879498211e+000	-3.546367423611609e+000
1	 1.650833894879276e+000	 1.413554726946223e+000	-3.692888597090058e+000
1	 1.635139442832677e+000	 1.431680374244336e+000	-3.824070097195813e+000
1	 1.619240136374797e+000	 1.449638309814519e+000	-3.939310740353381e+000
1	 1.790417110376194e+000	 1.278438735350138e+000	-2.837689577460804e+000
1	 1.776277623177960e+000	 1.298012658096122e+000	-3.055629838521004e+000
1	 1.761911878738208e+000	 1.317446645083307e+000	-3.261325783765814e+000
1	 1.747321936710794e+000	 1.336736809471274e+000	-3.454175367290714e+000
1	 1.732509945050727e+000	 1.355879304551337e+000	-3.633584978673618e+000
1	 1.717478139044409e+000	 1.374870326239427e+000	-3.798970650624260e+000
1	 1.702228840255884e+000	 1.393706115541010e+000	-3.949759262781172e+000
1	 1.686764455390040e+000	 1.412382960984778e+000	-4.085389739053594e+000
1	 1.671087475073812e+000	 1.430897201021828e+000	-4.205314235900293e+000
1	 1.655200472556662e+000	 1.449245226387142e+000	-4.308999318938083e+000
1	 1.639106102331665e+000	 1.467423482420205e+000	-4.395927125283436e+000
1	 1.812116965751543e+000	 1.293933412823795e+000	-3.529856588175470e+000
1	 1.797806107968385e+000	 1.313744571513226e+000	-3.727382826365803e+000
1	 1.783266250705911e+000	 1.333414098422468e+000	-3.911209255125863e+000
1	 1.768499478580991e+000	 1.352938059602591e+000	-4.080852100517173e+000
1	 1.753507965581860e+000	 1.372312561722800e+000	-4.235839665969580e+000
1	 1.738293974086600e+000	 1.391533754593522e+000	-4.375713355063787e+000
1	 1.722859853796624e+000	 1.410597833661210e+000	-4.500028683484988e+000
1	 1.707208040586091e+000	 1.429501042471520e+000	-4.608356277904613e+000
1	 1.691341055268346e+000	 1.448239675097573e+000	-4.700282859560438e+000
1	 1.675261502280647e+000	 1.466810078530060e+000	-4.775412210324268e+000
1	 1.658972068288533e+000	 1.485208655025974e+000	-4.833366119073399e+000
1	 1.833816821126989e+000	 1.309428090297686e+000	-4.220281414606536e+000
1	 1.819334592758936e+000	 1.329476484930569e+000	-4.395184716272269e+000
1	 1.804620622673762e+000	 1.349381551761863e+000	-4.554908139316687e+000
1	 1.789677020451354e+000	 1.369139309734133e+000	-4.699137085054780e+000
1	 1.774505986113169e+000	 1.388745818894472e+000	-4.827573461229042e+000
1	 1.759109809128975e+000	 1.408197182947809e+000	-4.939936427907758e+000
1	 1.743490867337550e+000	 1.427489551781582e+000	-5.035963123732926e+000
1	 1.727651625782327e+000	 1.446619123958412e+000	-5.115409370823776e+000
1	 1.711594635463063e+000	 1.465582149173449e+000	-5.178050356678934e+000
1	 1.695322532004806e+000	 1.484374930673091e+000	-5.223681291463315e+000
1	 1.678838034245567e+000	 1.502993827631844e+000	-5.252118039112819e+000
1	 1.855516676502718e+000	 1.324922767771708e+000	-4.908574823074302e+000
1	 1.840863077549801e+000	 1.345208398348059e+000	-5.058683928274650e+000
1	 1.825974994641952e+000	 1.365349005101414e+000	-5.192123866370197e+000
1	 1.810854562322073e+000	 1.385340559865832e+000	-5.308798386808298e+000
1	 1.795504006644848e+000	 1.405179076066297e+000	-5.408632943891020e+000
1	 1.779925644171727e+000	 1.424860611302240e+000	-5.491575075464752e+000
1	 1.764121880878855e+000	 1.444381269902088e+000	-5.557594751323432e+000
1	 1.748095210978938e+000	 1.463737205445430e+000	-5.606684690366520e+000
1	 1.731848215658145e+000	 1.482924623249444e+000	-5.638860645620614e+000
1	 1.715383561729319e+000	 1.501939782816236e+000	-5.654161656302782e+000
1	 1.698704000202935e+000	 1.520779000237831e+000	-5.652650266177838e+000
1	 1.877216531878911e+000	 1.340417445245763e+000	-5.594365577424755e+000
1	 1.862391562341168e+000	 1.360940311765608e+000	-5.717545138886838e+000
1	 1.847329366610672e+000	 1.381316458441041e+000	-5.822571671702454e+000
1	 1.832032104193344e+000	 1.401541809997616e+000	-5.909614795932976e+000
1	 1.816502027177093e+000	 1.421612333238214e+000	-5.978871787307823e+000
1	 1.800741479215049e+000	 1.441524039656767e+000	-6.030567499995435e+000
1	 1.784752894420728e+000	 1.461272988022692e+000	-6.064954246666345e+000
1	 1.768538796176111e+000	 1.480855286932549e+000	-6.082311635809297e+000
1	 1.752101795853774e+000	 1.500267097325546e+000	-6.082946366362372e+000
1	 1.735444591454357e+000	 1.519504634959500e+000	-6.067191979825375e+000
1	 1.718569966160802e+000	 1.538564172843951e+000	-6.035408570120698e+000
1	 1.898916387255753e+000	 1.355912122719749e+000	-6.277299410696178e+000
1	 1.883920047133223e+000	 1.376672225183124e+000	-6.371448352247942e+000
1	 1.868683738580113e+000	 1.397283911780662e+000	-6.445979807308672e+000
1	 1.853209646065358e+000	 1.417743060129417e+000	-6.501375214077852e+000
1	 1.837500047710095e+000	 1.438045590410163e+000	-6.538150353416667e+000
1	 1.821557314259136e+000	 1.458187468011342e+000	-6.556854728531058e+000
1	 1.805383907963363e+000	 1.478164706143358e+000	-6.558070887768510e+000
1	 1.788982381374034e+000	 1.497973368419745e+000	-6.542413691588658e+000
1	 1.772355376050134e+000	 1.517609571401743e+000	-6.510529524911656e+000
1	 1.755505621180099e+000	 1.537069487102882e+000	-6.463095456187014e+000
1	 1.738435932119337e+000	 1.556349345450221e+000	-6.400818344663155e+000
1	 1.539776272543993e+000	 1.378497619392281e+000	-1.910379301027761e+000
1	 1.524467299600929e+000	 1.395408981614681e+000	-2.123980891966988e+000
1	 1.508968793931934e+000	 1.412154398015745e+000	-2.334877970446751e+000
1	 1.493283469725799e+000	 1.428730698645799e+000	-2.542638439791158e+000
1	 1.477414111523483e+000	 1.445134773122503e+000	-2.746816834199502e+000
1	 1.461363572573377e+000	 1.461363572573377e+000	-2.946955589960582e+000
1	 1.445134773122503e+000	 1.477414111523483e+000	-3.142586342746052e+000
1	 1.428730698645800e+000	 1.493283469725799e+000	-3.333231248036174e+000
1	 1.412154398015745e+000	 1.508968793931934e+000	-3.518404321667954e+000
1	 1.395408981614681e+000	 1.524467299600929e+000	-3.697612797441450e+000
1	 1.378497619392282e+000	 1.539776272543993e+000	-3.870358498676238e+000
1	 1.559642238502527e+000	 1.396282791997798e+000	-2.449119339303564e+000
1	 1.544135751452474e+000	 1.413412342116847e+000	-2.635715724526175e+000
1	 1.528437286353301e+000	 1.430373805406068e+000	-2.817181593197378e+000
1	 1.512549592411856e+000	 1.447163971017574e+000	-2.993621950208782e+000
1	 1.496475490094825e+000	 1.463779688439336e+000	-3.165140176007660e+000
1	 1.480217869462783e+000	 1.480217869462783e+000	-3.331838336111607e+000
1	 1.463779688439336e+000	 1.496475490094825e+000	-3.493817496512456e+000
1	 1.447163971017574e+000	 1.512549592411856e+000	-3.651178044088081e+000
1	 1.430373805406068e+000	 1.528437286353301e+000	-3.804020011123985e+000
1	 1.413412342116847e+000	 1.544135751452474e+000	-3.952443403034326e+000
1	 1.396282791997798e+000	 1.559642238502527e+000	-4.096548528361597e+000
1	 1.579508204460395e+000	 1.414067964603332e+000	-2.966461190020174e+000
1	 1.563804203303395e+000	 1.431415702618946e+000	-3.125415265537270e+000
1	 1.547905778774097e+000	 1.448593212796243e+000	-3.277425045162263e+000
1	 1.531815715097399e+000	 1.465597243389118e+000	-3.423031670125273e+000
1	 1.515536868665719e+000	 1.482424603755863e+000	-3.562784124245432e+000
1	 1.499072166351807e+000	 1.499072166351807e+000	-3.697238753568102e+000
1	 1.482424603755862e+000	 1.515536868665718e+000	-3.826958775555720e+000
1	 1.465597243389118e+000	 1.531815715097399e+000	-3.952513778650305e+000
1	 1.448593212796242e+000	 1.547905778774097e+000	-4.074479213047707e+000
1	 1.431415702618947e+000	 1.563804203303396e+000	-4.193435873544681e+000
1	 1.414067964603332e+000	 1.579508204460395e+000	-4.309969375336054e+000
1	 1.599374170417763e+000	 1.431853137208900e+000	-3.463002285791944e+000
1	 1.583472655153850e+000	 1.449419063121011e+000	-3.593787792801586e+000
1	 1.567374271194464e+000	 1.466812620186314e+000	-3.716364751811069e+000
1	 1.551081837782558e+000	 1.484030515760497e+000	-3.831613269257705e+000
1	 1.534598247236275e+000	 1.501069519072161e+000	-3.940428541488078e+000
1	 1.517926463240549e+000	 1.517926463240549e+000	-4.043719752475999e+000
1	 1.501069519072162e+000	 1.534598247236275e+000	-4.142408948534714e+000
1	 1.484030515760496e+000	 1.551081837782558e+000	-4.237429892182850e+000
1	 1.466812620186314e+000	 1.567374271194464e+000	-4.329726897375356e+000
1	 1.449419063121011e+000	 1.583472655153850e+000	-4.420253648356034e+000
1	 1.431853137208900e+000	 1.599374170417763e+000	-4.509972004427172e+000
1	 1.619240136374797e+000	 1.449638309814519e+000	-3.939310740353381e+000
1	 1.603141107003993e+000	 1.467422423623072e+000	-4.041506825536701e+000
1	 1.586842763614545e+000	 1.485032027576333e+000	-4.134720017193294e+000
1	 1.570347960467461e+000	 1.502463788131775e+000	-4.220075823739359e+000
1	 1.553659625806610e+000	 1.519714434388317e+000	-4.298719926198635e+000
1	 1.536780760129105e+000	 1.536780760129105e+000	-4.371816618284602e+000
1	 1.519714434388316e+000	 1.553659625806610e+000	-4.440547214620268e+000
1	 1.502463788131775e+000	 1.570347960467461e+000	-4.506108430245119e+000
1	 1.485032027576333e+000	 1.586842763614545e+000	-4.569710734631031e+000
1	 1.467422423623072e+000	 1.603141107003993e+000	-4.632576683491767e+000
1	 1.449638309814519e+000	 1.619240136374797e+000	-4.695939231724655e+000
1	 1.639106102331665e+000	 1.467423482420205e+000	-4.395927125283436e+000
1	 1.622809558853981e+000	 1.485425784125162e+000	-4.469213230746841e+000
1	 1.606311256034485e+000	 1.503251434966346e+000	-4.533175273496423e+000
1	 1.589614083152236e+000	 1.520897060503017e+000	-4.589094033691018e+000
1	 1.572721004376836e+000	 1.538359349704408e+000	-4.638273434593300e+000
1	 1.555635057017574e+000	 1.555635057017573e+000	-4.682038685803463e+000
1	 1.538359349704408e+000	 1.572721004376835e+000	-4.721734389406429e+000
1	 1.520897060503017e+000	 1.589614083152237e+000	-4.758722612826942e+000
1	 1.503251434966346e+000	 1.606311256034484e+000	-4.794380932271222e+000
1	 1.485425784125162e+000	 1.622809558853982e+000	-4.830100450706746e+000
1	 1.467423482420205e+000	 1.639106102331665e+000	-4.867283794393904e+000
1	 1.658972068288533e+000	 1.485208655025974e+000	-4.833366119073399e+000
1	 1.642478010703969e+000	 1.503429144627313e+000	-4.877517178252047e+000
1	 1.625779748454424e+000	 1.521470842356402e+000	-4.912382168975334e+000
1	 1.608880205837015e+000	 1.539330332874287e+000	-4.939310281461644e+000
1	 1.591782382947066e+000	 1.557004265020518e+000	-4.959674757237322e+000
1	 1.574489353906053e+000	 1.574489353906053e+000	-4.974870892979502e+000
1	 1.557004265020518e+000	 1.591782382947067e+000	-4.986314005614848e+000
1	 1.539330332874287e+000	 1.608880205837015e+000	-4.995437362773771e+000
1	 1.521470842356401e+000	 1.625779748454424e+000	-5.003690082787816e+000
1	 1.503429144627313e+000	 1.642478010703968e+000	-5.012535008493786e+000
1	 1.485208655025974e+000	 1.658972068288533e+000	-5.023446559172015e+000
1	 1.678838034245567e+000	 1.502993827631844e+000	-5.252118039112819e+000
1	 1.662146462554112e+000	 1.521432505129557e+000	-5.266999956912506e+000
1	 1.645248240874508e+000	 1.539690249746549e+000	-5.272961507640498e+000
1	 1.628146328521925e+000	 1.557763605245652e+000	-5.271336543735988e+000
1	 1.610843761517417e+000	 1.575649180336727e+000	-5.263481862404674e+000
1	 1.593343650794640e+000	 1.593343650794641e+000	-5.250775224357529e+000
1	 1.575649180336727e+000	 1.610843761517417e+000	-5.234613335650132e+000
1	 1.557763605245651e+000	 1.628146328521925e+000	-5.216409796694191e+000
1	 1.539690249746549e+000	 1.645248240874507e+000	-5.197593022595685e+000
1	 1.521432505129557e+000	 1.662146462554112e+000	-5.179604139047130e+000
1	 1.502993827631845e+000	 1.678838034245567e+000	-5.163894858058888e+000
1	 1.698704000202935e+000	 1.520779000237831e+000	-5.652650266177838e+000
1	 1.681814914404567e+000	 1.539435865631926e+000	-5.638215663410576e+000
1	 1.664716733294878e+000	 1.557909657136836e+000	-5.615505052841207e+000
1	 1.647412451207094e+000	 1.576196877617173e+000	-5.585756169472186e+000
1	 1.629905140088000e+000	 1.594294095653117e+000	-5.550226617108278e+000
1	 1.612197947683434e+000	 1.612197947683434e+000	-5.510192053255026e+000
1	 1.594294095653117e+000	 1.629905140088000e+000	-5.466944342404061e+000
1	 1.576196877617174e+000	 1.647412451207094e+000	-5.421789681420986e+000
1	 1.557909657136836e+000	 1.664716733294878e+000	-5.376046700821926e+000
1	 1.539435865631927e+000	 1.681814914404567e+000	-5.331044545784688e+000
1	 1.520779000237831e+000	 1.698704000202935e+000	-5.288120940790297e+000
1	 1.718569966160802e+000	 1.538564172843951e+000	-6.035408570120699e+000
1	 1.701483366255489e+000	 1.557439226134452e+000	-5.991692773903199e+000
1	 1.684185225715678e+000	 1.576129064527310e+000	-5.940577205756378e+000
1	 1.666678573892654e+000	 1.594630149988919e+000	-5.883125534525818e+000
1	 1.648966518658931e+000	 1.612939010969770e+000	-5.820416295699744e+000
1	 1.631052244572532e+000	 1.631052244572532e+000	-5.753541390847199e+000
1	 1.612939010969769e+000	 1.648966518658930e+000	-5.683604564114167e+000
1	 1.594630149988920e+000	 1.666678573892654e+000	-5.611719858813443e+000
1	 1.576129064527309e+000	 1.684185225715677e+000	-5.539010057195418e+000
1	 1.557439226134453e+000	 1.701483366255490e+000	-5.466605106527749e+000
1	 1.538564172843951e+000	 1.718569966160803e+000	-5.395640534644137e+000
1	 1.738435932119337e+000	 1.556349345450221e+000	-6.400818344663155e+000
1	 1.721151818107034e+000	 1.575442586637167e+000	-6.327935607913947e+000
1	 1.703653718137051e+000	 1.594348471918019e+000	-6.248716568799904e+000
1	 1.685944696578731e+000	 1.613063422360952e+000	-6.163975582825037e+000
1	 1.668027897230322e+000	 1.631583926286766e+000	-6.074534985031751e+000
1	 1.649906541462032e+000	 1.649906541462032e+000	-5.981224049608133e+000
1	 1.631583926286766e+000	 1.668027897230322e+000	-5.884877938552146e+000
1	 1.613063422360952e+000	 1.685944696578732e+000	-5.786336641432738e+000
1	 1.594348471918019e+000	 1.703653718137051e+000	-5.686443908309205e+000
1	 1.575442586637168e+000	 1.721151818107034e+000	-5.586046177886485e+000
1	 1.556349345450221e+000	 1.738435932119336e+000	-5.485991502993008e+000
1	 1.378497619392282e+000	 1.539776272543993e+000	-3.870358498676239e+000
1	 1.361420965674179e+000	 1.554895323933223e+000	-4.045415259619105e+000
1	 1.344184830645459e+000	 1.569819574097472e+000	-4.231528084739284e+000
1	 1.326792553554179e+000	 1.584546529405988e+000	-4.428211419997702e+000
1	 1.309247524943862e+000	 1.599073772548270e+000	-4.634957675804474e+000
1	 1.291553184473516e+000	 1.613398963829417e+000	-4.851238238070020e+000
1	 1.273713018699258e+000	 1.627519842390902e+000	-5.076504509393200e+000
1	 1.255730558820517e+000	 1.641434227355505e+000	-5.310188978048994e+000
1	 1.237609378393840e+000	 1.655140018895221e+000	-5.551706312385176e+000
1	 1.219353091017331e+000	 1.668635199221159e+000	-5.800454478187824e+000
1	 1.200965347988850e+000	 1.681917833494530e+000	-6.055815876537393e+000
1	 1.396282791997798e+000	 1.559642238502527e+000	-4.096548528361597e+000
1	 1.378985817816562e+000	 1.574956353658965e+000	-4.245346406068453e+000
1	 1.361527304720379e+000	 1.590073154293837e+000	-4.407368621592140e+000
1	 1.343910635039803e+000	 1.604990114603931e+000	-4.582037624939313e+000
1	 1.326139243062656e+000	 1.619704786090954e+000	-4.768746136576084e+000
1	 1.308216612825929e+000	 1.634214798873599e+000	-4.966858408499358e+000
1	 1.290146275868779e+000	 1.648517862924069e+000	-5.175711527368101e+000
1	 1.271931808949659e+000	 1.662611769227780e+000	-5.394616756733293e+000
1	 1.253576831730622e+000	 1.676494390865051e+000	-5.622860915324067e+000
1	 1.235085004431890e+000	 1.690163684013768e+000	-5.859707788279201e+000
1	 1.216460025459840e+000	 1.703617688872130e+000	-6.104399568150705e+000
1	 1.414067964603332e+000	 1.579508204460395e+000	-4.309969375336054e+000
1	 1.396550669959048e+000	 1.595017383384004e+000	-4.433098423230169e+000
1	 1.378869778795487e+000	 1.610326734489471e+000	-4.571022219620191e+000
1	 1.361028716525699e+000	 1.625433699801120e+000	-4.723125095084233e+000
1	 1.343030961181805e+000	 1.640335799632866e+000	-4.888756044784847e+000
1	 1.324880041178775e+000	 1.655030633916994e+000	-5.067230132368705e+000
1	 1.306579533038807e+000	 1.669515883456440e+000	-5.257829944829023e+000
1	 1.288133059079376e+000	 1.683789311099253e+000	-5.459807094990187e+000
1	 1.269544285068039e+000	 1.697848762834074e+000	-5.672383768175328e+000
1	 1.250816917847140e+000	 1.711692168805566e+000	-5.894754309527687e+000
1	 1.231954702931564e+000	 1.725317544248913e+000	-6.126086848382216e+000
1	 1.431853137208900e+000	 1.599374170417763e+000	-4.509972004427172e+000
1	 1.414115522101638e+000	 1.615078413108516e+000	-4.607725830892195e+000
1	 1.396212252870773e+000	 1.630580314684557e+000	-4.721305921936750e+000
1	 1.378146798011843e+000	 1.645877284997743e+000	-4.850110266482319e+000
1	 1.359922679301271e+000	 1.660966813174197e+000	-4.993497950653922e+000
1	 1.341543469532005e+000	 1.675846468959799e+000	-5.150790599626030e+000
1	 1.323012790209282e+000	 1.690513903988210e+000	-5.321273876370811e+000
1	 1.304334309209597e+000	 1.704966852970118e+000	-5.504199033830563e+000
1	 1.285511738406013e+000	 1.719203134802480e+000	-5.698784516923722e+000
1	 1.266548831262987e+000	 1.733220653596737e+000	-5.904217610692439e+000
1	 1.247449380403922e+000	 1.747017399625063e+000	-6.119656130810339e+000
1	 1.449638309814519e+000	 1.619240136374797e+000	-4.695939231724654e+000
1	 1.431680374244336e+000	 1.635139442832677e+000	-4.768329548081761e+000
1	 1.413554726946223e+000	 1.650833894879276e+000	-4.857094825011659e+000
1	 1.395264879498211e+000	 1.666320870193986e+000	-4.961696491793290e+000
1	 1.376814397421018e+000	 1.681597826715139e+000	-5.081555498836429e+000
1	 1.358206897885572e+000	 1.696662304002206e+000	-5.216053694789092e+000
1	 1.339446047380145e+000	 1.711511924519575e+000	-5.364535263576506e+000
1	 1.320535559340253e+000	 1.726144394840567e+000	-5.526308217994742e+000
1	 1.301479191744462e+000	 1.740557506770461e+000	-5.700645946359531e+000
1	 1.282280744679345e+000	 1.754749138387473e+000	-5.886788808602306e+000
1	 1.262944057876814e+000	 1.768717255000763e+000	-6.083945778106776e+000
1	 1.467423482420205e+000	 1.639106102331665e+000	-4.867283794393906e+000
1	 1.449245226387142e+000	 1.655200472556662e+000	-4.914054081271563e+000
1	 1.430897201021827e+000	 1.671087475073811e+000	-4.977318560637964e+000
1	 1.412382960984778e+000	 1.686764455390040e+000	-5.056649985139981e+000
1	 1.393706115541010e+000	 1.702228840255884e+000	-5.151580998893056e+000
1	 1.374870326239427e+000	 1.717478139044408e+000	-5.261605349254688e+000
1	 1.355879304551337e+000	 1.732509945050727e+000	-5.386179158701692e+000
1	 1.336736809471274e+000	 1.747321936710794e+000	-5.524722253766786e+000
1	 1.317446645083307e+000	 1.761911878738207e+000	-5.676619547867217e+000
1	 1.298012658096122e+000	 1.776277623177960e+000	-5.841222474743100e+000
1	 1.278438735350138e+000	 1.790417110376195e+000	-6.017850469121818e+000
1	 1.485208655025974e+000	 1.658972068288533e+000	-5.023446559172015e+000
1	 1.466810078530060e+000	 1.675261502280647e+000	-5.044084914611197e+000
1	 1.448239675097573e+000	 1.691341055268345e+000	-5.080958030666587e+000
1	 1.429501042471520e+000	 1.707208040586091e+000	-5.133796058321395e+000
1	 1.410597833661210e+000	 1.722859853796624e+000	-5.202291314027527e+000
1	 1.391533754593522e+000	 1.738293974086600e+000	-5.286099227540935e+000
1	 1.372312561722800e+000	 1.753507965581860e+000	-5.384839347222779e+000
1	 1.352938059602591e+000	 1.768499478580991e+000	-5.498096400325923e+000
1	 1.333414098422467e+000	 1.783266250705911e+000	-5.625421405664830e+000
1	 1.313744571513226e+000	 1.797806107968385e+000	-5.766332835953254e+000
1	 1.293933412823795e+000	 1.812116965751542e+000	-5.920317826991412e+000
1	 1.502993827631845e+000	 1.678838034245567e+000	-5.163894858058888e+000
1	 1.484374930673091e+000	 1.695322532004807e+000	-5.157646085449406e+000
1	 1.465582149173450e+000	 1.711594635463063e+000	-5.167042373571565e+000
1	 1.446619123958412e+000	 1.727651625782327e+000	-5.192015624250075e+000
1	 1.427489551781582e+000	 1.743490867337551e+000	-5.232464041717515e+000
1	 1.408197182947809e+000	 1.759109809128975e+000	-5.288252719801815e+000
1	 1.388745818894472e+000	 1.774505986113169e+000	-5.359214281180244e+000
1	 1.369139309734133e+000	 1.789677020451354e+000	-5.445149567008068e+000
1	 1.349381551761863e+000	 1.804620622673762e+000	-5.545828375116392e+000
1	 1.329476484930569e+000	 1.819334592758937e+000	-5.660990244866425e+000
1	 1.309428090297686e+000	 1.833816821126989e+000	-5.790345286645668e+000
1	 1.520779000237831e+000	 1.698704000202935e+000	-5.288120940790298e+000
1	 1.501939782816236e+000	 1.715383561729319e+000	-5.253997929978842e+000
1	 1.482924623249444e+000	 1.731848215658145e+000	-5.234646143867074e+000
1	 1.463737205445429e+000	 1.748095210978939e+000	-5.230241945739261e+000
1	 1.444381269902088e+000	 1.764121880878854e+000	-5.240933962345711e+000
1	 1.424860611302240e+000	 1.779925644171726e+000	-5.266843215541501e+000
1	 1.405179076066297e+000	 1.795504006644849e+000	-5.308063297873014e+000
1	 1.385340559865832e+000	 1.810854562322073e+000	-5.364660591433680e+000
1	 1.365349005101414e+000	 1.825974994641952e+000	-5.436674529206987e+000
1	 1.345208398348060e+000	 1.840863077549801e+000	-5.524117898018022e+000
1	 1.324922767771708e+000	 1.855516676502718e+000	-5.626977182119639e+000
1	 1.538564172843951e+000	 1.718569966160803e+000	-5.395640534644137e+000
1	 1.519504634959500e+000	 1.735444591454357e+000	-5.332434985237224e+000
1	 1.500267097325547e+000	 1.752101795853774e+000	-5.282886687153660e+000
1	 1.480855286932549e+000	 1.768538796176111e+000	-5.247457609785655e+000
1	 1.461272988022692e+000	 1.784752894420728e+000	-5.226589734145132e+000
1	 1.441524039656768e+000	 1.800741479215049e+000	-5.220704635775039e+000
1	 1.421612333238213e+000	 1.816502027177092e+000	-5.230203100815389e+000
1	 1.401541809997616e+000	 1.832032104193344e+000	-5.255464775775836e+000
1	 1.381316458441040e+000	 1.847329366610672e+000	-5.296847851481544e+000
1	 1.360940311765608e+000	 1.862391562341168e+000	-5.354688781576265e+000
1	 1.340417445245762e+000	 1.877216531878911e+000	-5.429302035881350e+000
1	 1.556349345450221e+000	 1.738435932119336e+000	-5.485991502993008e+000
1	 1.537069487102882e+000	 1.755505621180099e+000	-5.392284034957739e+000
1	 1.517609571401743e+000	 1.772355376050134e+000	-5.310921695143805e+000
1	 1.497973368419745e+000	 1.788982381374034e+000	-5.242691709310813e+000
1	 1.478164706143358e+000	 1.805383907963363e+000	-5.188370814755259e+000
1	 1.458187468011342e+000	 1.821557314259135e+000	-5.148724202961118e+000
1	 1.438045590410163e+000	 1.837500047710095e+000	-5.124504481977207e+000
1	 1.417743060129417e+000	 1.853209646065358e+000	-5.116450660518961e+000
1	 1.397283911780661e+000	 1.868683738580113e+000	-5.125287155732083e+000
1	 1.376672225183124e+000	 1.883920047133223e+000	-5.151722826488859e+000
1	 1.355912122719749e+000	 1.898916387255753e+000	-5.196450034016937e+000
1	 1.200965347988850e+000	 1.681917833494530e+000	-6.055815876537393e+000
1	 1.182449835540888e+000	 1.694986070180314e+000	-6.320795756141028e+000
1	 1.163810271280825e+000	 1.707838140353592e+000	-6.598968524845184e+000
1	 1.145050403035632e+000	 1.720472359784237e+000	-6.890572673499910e+000
1	 1.126174006844908e+000	 1.732887130004770e+000	-7.195864125066452e+000
1	 1.107184884536711e+000	 1.745080938822499e+000	-7.515115775013854e+000
1	 1.088086861295837e+000	 1.757052360750431e+000	-7.848616998524637e+000
1	 1.068883783227663e+000	 1.768800057357055e+000	-8.196673125847079e+000
1	 1.049579514920662e+000	 1.780322777535210e+000	-8.559604887202042e+000
1	 1.030177937010685e+000	 1.791619357690404e+000	-8.937747828718081e+000
1	 1.010682943750033e+000	 1.802688721849068e+000	-9.331451700931124e+000
1	 1.216460025459840e+000	 1.703617688872130e+000	-6.104399568150705e+000
1	 1.197705628606193e+000	 1.716854530016881e+000	-6.360366894085523e+000
1	 1.178825579442343e+000	 1.729872415700694e+000	-6.631726131916923e+000
1	 1.159823674149157e+000	 1.742669639963754e+000	-6.918745095406139e+000
1	 1.140703737484130e+000	 1.755244583715394e+000	-7.221707672747138e+000
1	 1.121469620325929e+000	 1.767595715252836e+000	-7.540913313674083e+000
1	 1.102125197211310e+000	 1.779721590697669e+000	-7.876676485643433e+000
1	 1.082674363867519e+000	 1.791620854350134e+000	-8.229326100524288e+000
1	 1.063121034743368e+000	 1.803292238961474e+000	-8.599204913293741e+000
1	 1.043469140542086e+000	 1.814734565924676e+000	-8.986668894294844e+000
1	 1.023722625759031e+000	 1.825946745384120e+000	-9.392086576668449e+000
1	 1.231954702931564e+000	 1.725317544248913e+000	-6.126086848382216e+000
1	 1.212961421672267e+000	 1.738722989852626e+000	-6.370345193636498e+000
1	 1.193840887604656e+000	 1.751906691046967e+000	-6.632255904363551e+000
1	 1.174596945263497e+000	 1.764866920142439e+000	-6.912123423668861e+000
1	 1.155233468124176e+000	 1.777602037425184e+000	-7.210266235391926e+000
1	 1.135754356115979e+000	 1.790110491682342e+000	-7.527016293141595e+000
1	 1.116163533127615e+000	 1.802390820644081e+000	-7.862718421909560e+000
1	 1.096464944508205e+000	 1.814441651342400e+000	-8.217729693782699e+000
1	 1.076662554566900e+000	 1.826261700386945e+000	-8.592418779335723e+000
1	 1.056760344074309e+000	 1.837849774158181e+000	-8.987165276331343e+000
1	 1.036762307768846e+000	 1.849204768918440e+000	-9.402359017402210e+000
1	 1.247449380403922e+000	 1.747017399625063e+000	-6.119656130810339e+000
1	 1.228217214739000e+000	 1.760591449687726e+000	-6.349675887382833e+000
1	 1.208856195767644e+000	 1.773940966392586e+000	-6.599654426334953e+000
1	 1.189370216378519e+000	 1.787064200320456e+000	-6.869939976860852e+000
1	 1.169763198764909e+000	 1.799959491134297e+000	-7.160892114478973e+000
1	 1.150039091906711e+000	 1.812625268111165e+000	-7.472881127255912e+000
1	 1.130201869044597e+000	 1.825060050589807e+000	-7.806287359323670e+000
1	 1.110255525149559e+000	 1.837262448333983e+000	-8.161500533299208e+000
1	 1.090204074391088e+000	 1.849231161811743e+000	-8.538919053259543e+000
1	 1.070051547607175e+000	 1.860964982391030e+000	-8.938949289962174e+000
1	 1.049801989779293e+000	 1.872462792452129e+000	-9.362004850032676e+000
1	 1.262944057876814e+000	 1.768717255000763e+000	-6.083945778106776e+000
1	 1.243473007806282e+000	 1.782459909522359e+000	-6.297355970399261e+000
1	 1.223871503931186e+000	 1.795975241737718e+000	-6.533062616921586e+000
1	 1.204143487494095e+000	 1.809261480497971e+000	-6.791464747357273e+000
1	 1.184292929406188e+000	 1.822316944842891e+000	-7.072969397153554e+000
1	 1.164323827697979e+000	 1.835140044539452e+000	-7.377990906231395e+000
1	 1.144240204962098e+000	 1.847729280534987e+000	-7.706950200899884e+000
1	 1.124046105791414e+000	 1.860083245325012e+000	-8.060274060665485e+000
1	 1.103745594215759e+000	 1.872200623235985e+000	-8.438394371655161e+000
1	 1.083342751140507e+000	 1.884080190623331e+000	-8.841747368394666e+000
1	 1.062841671790189e+000	 1.895720815985286e+000	-9.270772865697861e+000
1	 1.278438735350138e+000	 1.790417110376195e+000	-6.017850469121818e+000
1	 1.258728800874001e+000	 1.804328369356703e+000	-6.212431063440161e+000
1	 1.238886812095163e+000	 1.818009517082537e+000	-6.431663043457181e+000
1	 1.218916758610096e+000	 1.831458760675146e+000	-6.676003118303822e+000
1	 1.198822660047875e+000	 1.844674398551119e+000	-6.945912030016726e+000
1	 1.178608563489632e+000	 1.857654820967351e+000	-7.241853780069404e+000
1	 1.158278540879960e+000	 1.870398510479757e+000	-7.564294846194561e+000
1	 1.137836686433605e+000	 1.882904042315616e+000	-7.913703391264916e+000
1	 1.117287114040742e+000	 1.895170084659792e+000	-8.290548466010701e+000
1	 1.096633954674127e+000	 1.907195398855193e+000	-8.695299207354067e+000
1	 1.075881353801352e+000	 1.918978839518011e+000	-9.128424034140760e+000
1	 1.293933412823795e+000	 1.812116965751542e+000	-5.920317826991412e+000
1	 1.273984593942049e+000	 1.826196829190936e+000	-6.093992501510269e+000
1	 1.253902120259454e+000	 1.840043792427213e+000	-6.294677427858639e+000
1	 1.233690029726389e+000	 1.853656040852145e+000	-6.522893744618365e+000
1	 1.213352390689829e+000	 1.867031852259139e+000	-6.779162031310972e+000
1	 1.192893299281523e+000	 1.880169597395008e+000	-7.064001458120710e+000
1	 1.172316876798029e+000	 1.893067740424256e+000	-7.377928934152743e+000
1	 1.151627267075970e+000	 1.905724839305924e+000	-7.721458256066798e+000
1	 1.130828633865865e+000	 1.918139546083284e+000	-8.095099258915802e+000
1	 1.109925158207855e+000	 1.930310607086728e+000	-8.499356970999509e+000
1	 1.088921035812597e+000	 1.942236863050402e+000	-8.934730774524047e+000
1	 1.309428090297686e+000	 1.833816821126989e+000	-5.790345286645668e+000
1	 1.289240387010314e+000	 1.848065289025234e+000	-5.941174629143742e+000
1	 1.268917428423940e+000	 1.862078067771918e+000	-6.121364330013552e+000
1	 1.248463300842847e+000	 1.875853321029134e+000	-6.331506584439819e+000
1	 1.227882121331912e+000	 1.889389305967105e+000	-6.572187830038976e+000
1	 1.207178035073505e+000	 1.902684373822573e+000	-6.843987815177737e+000
1	 1.186355212716147e+000	 1.915736970368623e+000	-7.147478675211547e+000
1	 1.165417847718342e+000	 1.928545636296065e+000	-7.483224018551772e+000
1	 1.144370153690955e+000	 1.941109007506578e+000	-7.851778024433751e+000
1	 1.123216361741515e+000	 1.953425815318042e+000	-8.253684554218982e+000
1	 1.101960717823740e+000	 1.965494886582560e+000	-8.689476278016013e+000
1	 1.324922767771708e+000	 1.855516676502718e+000	-5.626977182119639e+000
1	 1.304496180078686e+000	 1.869933748859776e+000	-5.753152285470316e+000
1	 1.283932736588499e+000	 1.884112343116823e+000	-5.911016993720911e+000
1	 1.263236571959339e+000	 1.898050601206275e+000	-6.101241068707199e+000
1	 1.242411851973984e+000	 1.911746759675175e+000	-6.324482721623856e+000
1	 1.221462770865427e+000	 1.925199150250191e+000	-6.581387595374959e+000
1	 1.200393548634157e+000	 1.938406200312997e+000	-6.872587765352963e+000
1	 1.179208428360558e+000	 1.951366433286168e+000	-7.198700760618169e+000
1	 1.157911673515842e+000	 1.964078468929797e+000	-7.560328607389339e+000
1	 1.136507565274927e+000	 1.976541023549247e+000	-7.958056896688388e+000
1	 1.115000399834598e+000	 1.988752910114585e+000	-8.392453877909695e+000
1	 1.340417445245762e+000	 1.877216531878911e+000	-5.429302035881350e+000
1	 1.319751973147055e+000	 1.891802208694739e+000	-5.529138463710343e+000
1	 1.298948044753012e+000	 1.906146618462098e+000	-5.662961342032421e+000
1	 1.278009843075734e+000	 1.920247881383732e+000	-5.831524397692535e+000
1	 1.256941582615906e+000	 1.934104213383504e+000	-6.035563430681380e+000
1	 1.235747506657143e+000	 1.947713926678010e+000	-6.275795205984376e+000
1	 1.214431884551902e+000	 1.961075430257515e+000	-6.552916375475379e+000
1	 1.192999009002452e+000	 1.974187230276363e+000	-6.867602431888101e+000
1	 1.171453193340355e+000	 1.987047930353057e+000	-7.220506696804397e+000
1	 1.149798768807915e+000	 1.999656231780452e+000	-7.612259344505642e+000
1	 1.128040081844989e+000	 2.012010933646574e+000	-8.043466463428949e+000
1	 1.355912122719749e+000	 1.898916387255753e+000	-5.196450034016937e+000
1	 1.335007766215312e+000	 1.913670668530300e+000	-5.268382131147518e+000
1	 1.313963352917359e+000	 1.928180893807915e+000	-5.376554110042846e+000
1	 1.292783114191905e+000	 1.942445161561669e+000	-5.521809954331610e+000
1	 1.271471313257540e+000	 1.956461667092249e+000	-5.704968772335491e+000
1	 1.250032242448504e+000	 1.970228703106179e+000	-5.926823593913356e+000
1	 1.228470220469227e+000	 1.983744660202318e+000	-6.188140210058931e+000
1	 1.206789589643861e+000	 1.997008027266777e+000	-6.489656057341060e+000
1	 1.184994713164319e+000	 2.010017391776478e+000	-6.832079149151174e+000
1	 1.163089972340300e+000	 2.022771440011767e+000	-7.216087055594232e+000
1	 1.141079763854727e+000	 2.035268957178629e+000	-7.642325933727180e+000
1	 1.010682943750033e+000	 1.802688721849068e+000	-9.331451700931124e+000
1	 9.911013848124723e-001	 1.813528272997309e+000	-9.738642246930768e+000
1	 9.714342563694887e-001	 1.824138789421242e+000	-1.015672227435266e+001
1	 9.516854783112035e-001	 1.834519459694026e+000	-1.058509966606581e+001
1	 9.318589744831693e-001	 1.844669559610956e+000	-1.102320099678651e+001
1	 9.119586703247526e-001	 1.854588451907370e+000	-1.147047321841456e+001
1	 8.919884905296137e-001	 1.864275585902090e+000	-1.192638527770745e+001
1	 8.719523567309262e-001	 1.873730497067710e+000	-1.239042966365532e+001
1	 8.518541852139021e-001	 1.882952806529170e+000	-1.286212388214787e+001
1	 8.316978846581150e-001	 1.891942220492133e+000	-1.334101185575459e+001
1	 8.114873539120182e-001	 1.900698529602767e+000	-1.382666524667539e+001
1	 1.023722625759031e+000	 1.825946745384120e+000	-9.392086576668447e+000
1	 1.003888428441440e+000	 1.836926146819623e+000	-9.813337330094186e+000
1	 9.839675576132633e-001	 1.847673558558638e+000	-1.024784417983427e+001
1	 9.639639837384755e-001	 1.858188158705416e+000	-1.069512647507027e+001
1	 9.438816812875148e-001	 1.868469213711674e+000	-1.115472193612840e+001
1	 9.237246263451980e-001	 1.878516078090857e+000	-1.162618816788154e+001
1	 9.034967942410129e-001	 1.888328194056983e+000	-1.210910410768960e+001
1	 8.832021572044748e-001	 1.897905091089385e+000	-1.260307140555898e+001
1	 8.628446820481395e-001	 1.907246385424817e+000	-1.310771573441997e+001
1	 8.424283278807979e-001	 1.916351779478452e+000	-1.362268802864132e+001
1	 8.219570438532781e-001	 1.925221061195408e+000	-1.414766564912116e+001
1	 1.036762307768846e+000	 1.849204768918440e+000	-9.402359017402214e+000
1	 1.016675472071220e+000	 1.860324020641252e+000	-9.835861365323524e+000
1	 9.965008588578460e-001	 1.871208327695403e+000	-1.028512209546013e+001
1	 9.762424891665522e-001	 1.881856857716237e+000	-1.074974190310807e+001
1	 9.559043880926638e-001	 1.892268867811892e+000	-1.122933928191061e+001
1	 9.354905823664451e-001	 1.902443704273920e+000	-1.172355191939620e+001
1	 9.150050979532124e-001	 1.912380802211533e+000	-1.223203802887677e+001
1	 8.944519576788237e-001	 1.922079685110802e+000	-1.275447761560013e+001
1	 8.738351788831772e-001	 1.931539964320292e+000	-1.329057367526310e+001
1	 8.531587711042796e-001	 1.940761338464687e+000	-1.384005332320300e+001
1	 8.324267337953374e-001	 1.949743592788055e+000	-1.440266885279558e+001
1	 1.049801989779293e+000	 1.872462792452129e+000	-9.362004850032676e+000
1	 1.029462515701623e+000	 1.883721894462284e+000	-9.805959016814621e+000
1	 1.009034160103046e+000	 1.894743096831615e+000	-1.026829719286802e+001
1	 9.885209945952407e-001	 1.905525556726559e+000	-1.074867244089461e+001
1	 9.679270948984198e-001	 1.916068521911670e+000	-1.124675480135815e+001
1	 9.472565383882966e-001	 1.926371330456608e+000	-1.176223262305750e+001
1	 9.265134016660140e-001	 1.936433410365777e+000	-1.229481383151075e+001
1	 9.057017581537732e-001	 1.946254279131987e+000	-1.284422713315789e+001
1	 8.848256757188148e-001	 1.955833543215612e+000	-1.341022315359633e+001
1	 8.638892143283621e-001	 1.965170897450847e+000	-1.399257550826738e+001
1	 8.428964237379969e-001	 1.974266124380708e+000	-1.459108180422083e+001
1	 1.062841671790189e+000	 1.895720815985286e+000	-9.270772865697863e+000
1	 1.042249559332463e+000	 1.907119768282810e+000	-9.723387479312223e+000
1	 1.021567461348670e+000	 1.918277865967356e+000	-1.019712334564109e+001
1	 1.000799500024346e+000	 1.929194255736451e+000	-1.069165800155342e+001
1	 9.799498017045861e-001	 1.939868176011067e+000	-1.120668489740405e+001
1	 9.590224944105535e-001	 1.950298956638970e+000	-1.174191471442537e+001
1	 9.380217053792190e-001	 1.960486018519756e+000	-1.229707662102015e+001
1	 9.169515586291239e-001	 1.970428873152970e+000	-1.287191946597647e+001
1	 8.958161725548528e-001	 1.980127122110799e+000	-1.346621290682899e+001
1	 8.746196575528441e-001	 1.989580456436942e+000	-1.407974847179055e+001
1	 8.533661136810564e-001	 1.998788655973366e+000	-1.471234055388917e+001
1	 1.075881353801352e+000	 1.918978839518011e+000	-9.128424034140762e+000
1	 1.055036602963550e+000	 1.930517642102919e+000	-9.587915718759172e+000
1	 1.034100762594529e+000	 1.941812635102705e+000	-1.007136635957008e+001
1	 1.013078005453673e+000	 1.952862954745983e+000	-1.057845110721841e+001
1	 9.919725085109667e-001	 1.963667830110144e+000	-1.110885972176566e+001
1	 9.707884504330185e-001	 1.974226582821057e+000	-1.166229792762229e+001
1	 9.495300090926281e-001	 1.984538626673510e+000	-1.223848870812056e+001
1	 9.282013591046765e-001	 1.994603467173783e+000	-1.283717353766266e+001
1	 9.068066693910913e-001	 2.004420701005870e+000	-1.345811354957862e+001
1	 8.853501007775266e-001	 2.013990015422982e+000	-1.410109063803809e+001
1	 8.638358036243158e-001	 2.023311187566027e+000	-1.476590849256205e+001
1	 1.088921035812597e+000	 1.942236863050402e+000	-8.934730774524045e+000
1	 1.067823646594697e+000	 1.953915515922700e+000	-9.399323767503997e+000
1	 1.046634063840428e+000	 1.965347404237740e+000	-9.890803258220792e+000
1	 1.025356510883029e+000	 1.976531653755224e+000	-1.040881613407863e+001
1	 1.003995215317365e+000	 1.987467484208959e+000	-1.095302235174576e+001
1	 9.825544064554943e-001	 1.998154209002917e+000	-1.152309637934174e+001
1	 9.610383128060425e-001	 2.008591234827077e+000	-1.211872857865982e+001
1	 9.394511595802311e-001	 2.018778061194452e+000	-1.273962652517391e+001
1	 9.177971662273304e-001	 2.028714279900847e+000	-1.338551626378785e+001
1	 8.960805440022087e-001	 2.038399574408974e+000	-1.405614349848989e+001
1	 8.743054935675751e-001	 2.047833719158692e+000	-1.475127471429055e+001
1	 1.101960717823740e+000	 1.965494886582560e+000	-8.689476278016013e+000
1	 1.080610690225716e+000	 1.977313389742243e+000	-9.157402069548217e+000
1	 1.059167365086179e+000	 1.988882173372540e+000	-9.655221619225468e+000
1	 1.037635016312218e+000	 2.000200352764243e+000	-1.018252861102282e+001
1	 1.016017922123584e+000	 2.011267138307571e+000	-1.073892802547953e+001
1	 9.943203624777822e-001	 2.022081835184600e+000	-1.132403771789269e+001
1	 9.725466165192630e-001	 2.032643842980497e+000	-1.193748993660293e+001
1	 9.507009600555887e-001	 2.042952655215010e+000	-1.257893277884459e+001
1	 9.287876630633704e-001	 2.053007858795747e+000	-1.324803158184198e+001
1	 9.068109872266910e-001	 2.062809133394929e+000	-1.394447024705032e+001
1	 8.847751835106342e-001	 2.072356250751360e+000	-1.466795249565919e+001
1	 1.115000399834598e+000	 1.988752910114585e+000	-8.392453877909691e+000
1	 1.093397733856419e+000	 2.000711263561638e+000	-8.861950871736749e+000
1	 1.071700666331588e+000	 2.012416942507187e+000	-9.364418957145585e+000
1	 1.049913521741047e+000	 2.023869051773110e+000	-9.899374567498390e+000
1	 1.028040628929428e+000	 2.035066792406040e+000	-1.046634343084419e+001
1	 1.006086318499684e+000	 2.046009461366154e+000	-1.106486233195283e+001
1	 9.840549202320906e-001	 2.056696451133809e+000	-1.169448081417006e+001
1	 9.619507605305493e-001	 2.067127249235484e+000	-1.235476281819178e+001
1	 9.397781598990115e-001	 2.077301437690591e+000	-1.304528825507365e+001
1	 9.175414304507735e-001	 2.087218692380858e+000	-1.376565451102258e+001
1	 8.952448734532940e-001	 2.096878782344030e+000	-1.451547788173924e+001
1	 1.128040081844989e+000	 2.012010933646574e+000	-8.043466463428949e+000
1	 1.106184777486618e+000	 2.024109137380973e+000	-8.512779657173608e+000
1	 1.084233967576464e+000	 2.035951711641759e+000	-9.018202149137766e+000
1	 1.062192027169320e+000	 2.047537750781894e+000	-9.559149926600721e+000
1	 1.040063335734701e+000	 2.058866446504426e+000	-1.013504604368699e+001
1	 1.017852274521003e+000	 2.069937087547630e+000	-1.074532261420184e+001
1	 9.955632239443272e-001	 2.080749059287053e+000	-1.138942274369276e+001
1	 9.732005610049137e-001	 2.091301843255902e+000	-1.206680239736941e+001
1	 9.507686567340532e-001	 2.101595016585397e+000	-1.277693220074493e+001
1	 9.282718736742566e-001	 2.111628251366767e+000	-1.351929917010067e+001
1	 9.057145633953535e-001	 2.121401313936701e+000	-1.429340837011694e+001
1	 1.141079763854727e+000	 2.035268957178629e+000	-7.642325933727180e+000
1	 1.118971821116124e+000	 2.047507011200339e+000	-8.109706617486070e+000
1	 1.096767268820617e+000	 2.059486480776334e+000	-8.616386899999469e+000
1	 1.074470532596845e+000	 2.071206449790665e+000	-9.161659939775184e+000
1	 1.052086042539205e+000	 2.082666100602788e+000	-9.744823511428219e+000
1	 1.029618230541540e+000	 2.093864713729079e+000	-1.036518227544317e+001
1	 1.007071527655773e+000	 2.104801667440268e+000	-1.102204998625180e+001
1	 9.844503614784818e-001	 2.115476437276296e+000	-1.171475163470054e+001
1	 9.617591535682968e-001	 2.125888595480185e+000	-1.244262552122977e+001
1	 9.390023168969391e-001	 2.136037810352666e+000	-1.320502525633640e+001
1	 9.161842533366131e-001	 2.145923845529372e+000	-1.400132168515138e+001
1	 8.114873539120182e-001	 1.900698529602767e+000	-1.382666524667539e+001
1	 7.912234369493598e-001	 1.909222869577757e+000	-1.432276469429541e+001
1	 7.709130368854968e-001	 1.917513867912702e+000	-1.483080621052183e+001
1	 7.505600127467703e-001	 1.925571565595462e+000	-1.534734637812841e+001
1	 7.301682051371443e-001	 1.933396084890728e+000	-1.586897383851325e+001
1	 7.097414342048215e-001	 1.940987628381445e+000	-1.639231542643873e+001
1	 6.892834976536051e-001	 1.948346477952993e+000	-1.691404212107758e+001
1	 6.687981688007214e-001	 1.955472993722270e+000	-1.743087480471299e+001
1	 6.482891946827237e-001	 1.962367612913845e+000	-1.793958982110742e+001
1	 6.277602942109746e-001	 1.969030848685419e+000	-1.843702432622065e+001
1	 6.072151563781101e-001	 1.975463288904845e+000	-1.892008142463655e+001
1	 8.219570438532781e-001	 1.925221061195408e+000	-1.414766564912116e+001
1	 8.014316848281604e-001	 1.933855380945222e+000	-1.468594090147752e+001
1	 7.808592429837711e-001	 1.942253348515646e+000	-1.523852399740405e+001
1	 7.602436271350281e-001	 1.950415005423360e+000	-1.580194577864133e+001
1	 7.395887274367915e-001	 1.958340475510496e+000	-1.637276583187222e+001
1	 7.188984133242422e-001	 1.966029963973694e+000	-1.694757882343914e+001
1	 6.981765314985874e-001	 1.973483756335180e+000	-1.752302065094997e+001
1	 6.774269039598260e-001	 1.980702217358025e+000	-1.809577440268447e+001
1	 6.566533260882138e-001	 1.987685789907810e+000	-1.866257611638368e+001
1	 6.358595647759500e-001	 1.994434993762919e+000	-1.922022032968851e+001
1	 6.150493566104991e-001	 2.000950424375790e+000	-1.976556541517810e+001
1	 8.324267337953374e-001	 1.949743592788055e+000	-1.440266885279558e+001
1	 8.116399327077611e-001	 1.958487892312784e+000	-1.498126995517011e+001
1	 7.908054490828439e-001	 1.966992829118775e+000	-1.557638548766167e+001
1	 7.699272415240813e-001	 1.975258445251525e+000	-1.618457754222836e+001
1	 7.490092497372286e-001	 1.983284866130609e+000	-1.680243405996679e+001
1	 7.280553924444432e-001	 1.991072299566360e+000	-1.742657526076046e+001
1	 7.070695653443357e-001	 1.998621034717844e+000	-1.805365989171225e+001
1	 6.860556391196770e-001	 2.005931440994312e+000	-1.868039128501414e+001
1	 6.650174574944245e-001	 2.013003966902344e+000	-1.930352321658705e+001
1	 6.439588353416124e-001	 2.019839138841012e+000	-1.991986555750388e+001
1	 6.228835568435334e-001	 2.026437559847334e+000	-2.052628971090537e+001
1	 8.428964237379969e-001	 1.974266124380708e+000	-1.459108180422083e+001
1	 8.218481805879621e-001	 1.983120403680432e+000	-1.520811196494395e+001
1	 8.007516551825158e-001	 1.991732309722067e+000	-1.584373288086566e+001
1	 7.796108559137310e-001	 2.000101885079929e+000	-1.649459271619111e+001
1	 7.584297720382563e-001	 2.008229256751030e+000	-1.715736299850537e+001
1	 7.372123715652267e-001	 2.016114635159398e+000	-1.782874504051079e+001
1	 7.159625991906543e-001	 2.023758313100938e+000	-1.850547618372678e+001
1	 6.946843742800806e-001	 2.031160664631070e+000	-1.918433585472906e+001
1	 6.733815889011646e-001	 2.038322143897384e+000	-1.986215142518106e+001
1	 6.520581059077746e-001	 2.045243283919630e+000	-2.053580386758756e+001
1	 6.307177570770309e-001	 2.051924695319412e+000	-2.120223319939113e+001
1	 8.533661136810564e-001	 1.998788655973366e+000	-1.471234055388917e+001
1	 8.320564284685621e-001	 2.007752915048153e+000	-1.536585844285298e+001
1	 8.106978612825863e-001	 2.016471790325503e+000	-1.603994065799930e+001
1	 7.892944703037772e-001	 2.024945324908542e+000	-1.673137419504268e+001
1	 7.678502943396766e-001	 2.033173647371722e+000	-1.743696732991598e+001
1	 7.463693506863949e-001	 2.041156970752760e+000	-1.815355593184910e+001
1	 7.248556330373465e-001	 2.048895591484403e+000	-1.887800960284588e+001
1	 7.033131094408428e-001	 2.056389888268241e+000	-1.960723763424061e+001
1	 6.817457203082428e-001	 2.063640320892865e+000	-2.033819477167327e+001
1	 6.601573764742492e-001	 2.070647428998710e+000	-2.106788678049559e+001
1	 6.385519573108083e-001	 2.077411830791955e+000	-2.179337580429187e+001
1	 8.638358036243158e-001	 2.023311187566027e+000	-1.476590849256205e+001
1	 8.422646763493622e-001	 2.032385426415939e+000	-1.545393040044374e+001
1	 8.206440673828561e-001	 2.041211270929060e+000	-1.616441362520469e+001
1	 7.989780846940207e-001	 2.049788764737333e+000	-1.689433479056695e+001
1	 7.772708166412898e-001	 2.058118037992645e+000	-1.764069011281920e+001
1	 7.555263298077501e-001	 2.066199306346401e+000	-1.840050150648161e+001
1	 7.337486668842164e-001	 2.074032869868189e+000	-1.917082252204057e+001
1	 7.119418446017694e-001	 2.081619111905766e+000	-1.994874410670967e+001
1	 6.901098517154681e-001	 2.088958497888726e+000	-2.073140017981682e+001
1	 6.682566470408484e-001	 2.096051574078183e+000	-2.151597301506337e+001
1	 6.463861575446830e-001	 2.102898966264897e+000	-2.229969842256141e+001
1	 8.743054935675751e-001	 2.047833719158692e+000	-1.475127471429055e+001
1	 8.524729242301624e-001	 2.057017937783778e+000	-1.547177658249357e+001
1	 8.305902734831250e-001	 2.065950751532719e+000	-1.621658509808469e+001
1	 8.086616990842614e-001	 2.074632204566274e+000	-1.698291544054225e+001
1	 7.866913389428977e-001	 2.083062428613760e+000	-1.776800108302271e+001
1	 7.646833089290944e-001	 2.091241641940274e+000	-1.856909959375264e+001
1	 7.426417007310678e-001	 2.099170148252240e+000	-1.938349827637603e+001
1	 7.205705797626665e-001	 2.106848335543585e+000	-2.020851964065924e+001
1	 6.984739831226497e-001	 2.114276674884903e+000	-2.104152669557603e+001
1	 6.763559176073851e-001	 2.121455719157986e+000	-2.187992805741382e+001
1	 6.542203577784720e-001	 2.128386101738172e+000	-2.272118286617507e+001
1	 8.847751835106342e-001	 2.072356250751360e+000	-1.466795249565919e+001
1	 8.626811721107622e-001	 2.081650449151659e+000	-1.541887182615121e+001
1	 8.405364795831936e-001	 2.090690232136461e+000	-1.619591521491724e+001
1	 8.183453134743008e-001	 2.099475644395333e+000	-1.699658354464449e+001
1	 7.961118612443011e-001	 2.108006819235029e+000	-1.781839507514406e+001
1	 7.738402880502302e-001	 2.116283977534334e+000	-1.865889084542079e+001
1	 7.515347345777037e-001	 2.124307426636505e+000	-1.951563992277210e+001
1	 7.291993149233398e-001	 2.132077559181640e+000	-2.038624449093792e+001
1	 7.068381145295957e-001	 2.139594851881333e+000	-2.126834476990597e+001
1	 6.844551881736718e-001	 2.146859864238052e+000	-2.215962376056480e+001
1	 6.620545580119923e-001	 2.153873237211714e+000	-2.305781180799159e+001
1	 8.952448734532940e-001	 2.096878782344030e+000	-1.451547788173924e+001
1	 8.728894199909623e-001	 2.106282960519573e+000	-1.529471553521507e+001
1	 8.504826856828617e-001	 2.115429712740264e+000	-1.610188936822960e+001
1	 8.280289278639385e-001	 2.124319084224482e+000	-1.693483141711624e+001
1	 8.055323835453017e-001	 2.132951209856415e+000	-1.779139055498557e+001
1	 7.829972671709593e-001	 2.141326313128531e+000	-1.866943740114436e+001
1	 7.604277684239289e-001	 2.149444705020930e+000	-1.956686908679004e+001
1	 7.378280500835953e-001	 2.157306782819872e+000	-2.048161386978496e+001
1	 7.152022459361153e-001	 2.164913028877952e+000	-2.141163559185848e+001
1	 6.925544587395210e-001	 2.172264009318316e+000	-2.235493797213213e+001
1	 6.698887582450617e-001	 2.179360372685457e+000	-2.330956873141383e+001
1	 9.057145633953535e-001	 2.121401313936701e+000	-1.429340837011694e+001
1	 8.830976678705623e-001	 2.130915471887508e+000	-1.509883026023053e+001
1	 8.604288917819299e-001	 2.140169193344108e+000	-1.593401674515424e+001
1	 8.377125422529758e-001	 2.149162524053690e+000	-1.679717484675685e+001
1	 8.149529058456995e-001	 2.157895600477876e+000	-1.768652825370034e+001
1	 7.921542462910846e-001	 2.166368648722823e+000	-1.860032164652442e+001
1	 7.693208022695467e-001	 2.174581983405461e+000	-1.953682488940261e+001
1	 7.464567852432394e-001	 2.182536006458223e+000	-2.049433708232319e+001
1	 7.235663773420178e-001	 2.190231205874698e+000	-2.147119046794166e+001
1	 7.006537293047455e-001	 2.197668154398711e+000	-2.246575418785428e+001
1	 6.777229584774968e-001	 2.204847508159331e+000	-2.347643788354080e+001
1	 9.161842533366131e-001	 2.145923845529372e+000	-1.400132168515138e+001
1	 8.933059157493626e-001	 2.155547983255453e+000	-1.483076037594418e+001
1	 8.703750978801976e-001	 2.164908673947971e+000	-1.569182896786589e+001
1	 8.473961566412123e-001	 2.174005963882928e+000	-1.658315175564529e+001
1	 8.243734281452965e-001	 2.182839991099376e+000	-1.750336989560656e+001
1	 8.013112254104073e-001	 2.191410984317160e+000	-1.845114505630302e+001
1	 7.782138361143608e-001	 2.199719261790046e+000	-1.942516294735116e+001
1	 7.550855204020774e-001	 2.207765230096631e+000	-2.042413672132802e+001
1	 7.319305087471113e-001	 2.215549382871506e+000	-2.144681024403433e+001
1	 7.087529998691573e-001	 2.223072299479171e+000	-2.249196122887248e+001
1	 6.855571587091146e-001	 2.230334643633273e+000	-2.355840423153202e+001
1	 6.072151563781101e-001	 1.975463288904845e+000	-1.892008142463655e+001
1	 5.866574382233224e-001	 1.981665594387705e+000	-1.939175658982285e+001
1	 5.660907622939357e-001	 1.987638496108145e+000	-1.985373737350079e+001
1	 5.455187159444396e-001	 1.993382795332379e+000	-2.030109453950147e+001
1	 5.249448500593381e-001	 1.998899362722714e+000	-2.072900660606575e+001
1	 5.043726775313110e-001	 2.004189136910731e+000	-2.113276576293147e+001
1	 4.838056717963329e-001	 2.009253123036070e+000	-2.150778347026668e+001
1	 4.632472654263897e-001	 2.014092391253171e+000	-2.184959573599335e+001
1	 4.427008487803356e-001	 2.018708075208402e+000	-2.215386806889264e+001
1	 4.221697687133255e-001	 2.023101370489906e+000	-2.241640010571106e+001
1	 4.016573273451569e-001	 2.027273533052570e+000	-2.263312991129877e+001
1	 6.150493566104991e-001	 2.000950424375790e+000	-1.976556541517810e+001
1	 5.942264058136259e-001	 2.007232751087749e+000	-2.030152620539248e+001
1	 5.733943816702277e-001	 2.013282714303859e+000	-2.082936941630040e+001
1	 5.525569178183158e-001	 2.019101125628146e+000	-2.134360916909876e+001
1	 5.317176109553852e-001	 2.024688866956063e+000	-2.183886798962163e+001
1	 5.108800192969422e-001	 2.030046889029278e+000	-2.230988376977346e+001
1	 4.900476610927235e-001	 2.035176209955582e+000	-2.275151638426080e+001
1	 4.692240132012560e-001	 2.040077913696388e+000	-2.315875395776363e+001
1	 4.484125097233062e-001	 2.044753148524193e+000	-2.352671877864131e+001
1	 4.276165406946642e-001	 2.049203125452439e+000	-2.385067285620091e+001
1	 4.068394508385930e-001	 2.053429116640149e+000	-2.412602311947172e+001
1	 6.228835568435334e-001	 2.026437559847334e+000	-2.052628971090537e+001
1	 6.017953734045254e-001	 2.032799907788383e+000	-2.112561870120494e+001
1	 5.806980010470585e-001	 2.038926932500136e+000	-2.171871202538415e+001
1	 5.595951196926687e-001	 2.044819455924433e+000	-2.229962128673012e+001
1	 5.384903718518437e-001	 2.050478371189883e+000	-2.286250621999101e+001
1	 5.173873610629187e-001	 2.055904641148230e+000	-2.340164257121583e+001
1	 4.962896503893941e-001	 2.061099296875428e+000	-2.391142961059746e+001
1	 4.752007609763390e-001	 2.066063436139859e+000	-2.438639727220096e+001
1	 4.541241706664351e-001	 2.070798221840154e+000	-2.482121291549389e+001
1	 4.330633126761093e-001	 2.075304880415053e+000	-2.521068770462636e+001
1	 4.120215743320919e-001	 2.079584700227718e+000	-2.554978260241237e+001
1	 6.307177570770309e-001	 2.051924695319412e+000	-2.120223319939113e+001
1	 6.093643409958433e-001	 2.058367064489541e+000	-2.186415904747054e+001
1	 5.880016204242572e-001	 2.064571150696912e+000	-2.252204595745415e+001
1	 5.666333215673344e-001	 2.070537786221184e+000	-2.316957359109232e+001
1	 5.452631327485580e-001	 2.076267875424119e+000	-2.380052856870930e+001
1	 5.238947028290932e-001	 2.081762393267542e+000	-2.440881314444581e+001
1	 5.025316396862062e-001	 2.087022383795570e+000	-2.498845349638218e+001
1	 4.811775087515102e-001	 2.092048958583554e+000	-2.553360762429040e+001
1	 4.598358316096041e-001	 2.096843295156265e+000	-2.603857284888069e+001
1	 4.385100846575524e-001	 2.101406635377738e+000	-2.649779290751211e+001
1	 4.172036978255548e-001	 2.105740283815280e+000	-2.690586464242389e+001
1	 6.385519573108083e-001	 2.077411830791955e+000	-2.179337580429187e+001
1	 6.169333085874019e-001	 2.083934221191156e+000	-2.251726608150927e+001
1	 5.953052398016532e-001	 2.090215368894127e+000	-2.323963819113320e+001
1	 5.736715234421498e-001	 2.096256116518343e+000	-2.395388705553521e+001
1	 5.520358936453728e-001	 2.102057379658719e+000	-2.465351250558809e+001
1	 5.304020445953191e-001	 2.107620145387170e+000	-2.533212863110751e+001
1	 5.087736289830221e-001	 2.112945470715970e+000	-2.598347273213280e+001
1	 4.871542565266414e-001	 2.118034481027448e+000	-2.660141386279631e+001
1	 4.655474925526936e-001	 2.122888368472507e+000	-2.717996096071185e+001
1	 4.439568566388837e-001	 2.127508390340486e+000	-2.771327055598110e+001
1	 4.223858213188826e-001	 2.131895867402835e+000	-2.819565405506583e+001
1	 6.463861575446830e-001	 2.102898966264897e+000	-2.229969842256141e+001
1	 6.245022761790250e-001	 2.109501377893164e+000	-2.308505287940408e+001
1	 6.026088591790755e-001	 2.115859587091717e+000	-2.387174276191729e+001
1	 5.807097253169511e-001	 2.121974446815848e+000	-2.465296224461687e+001
1	 5.588086545421321e-001	 2.127846883893632e+000	-2.542200750469906e+001
1	 5.369093863614490e-001	 2.133477897507068e+000	-2.617228663013486e+001
1	 5.150156182797036e-001	 2.138868557636592e+000	-2.689732911856822e+001
1	 4.931310043016035e-001	 2.144020003471510e+000	-2.759079495789245e+001
1	 4.712591534955852e-001	 2.148933441788862e+000	-2.824648328062081e+001
1	 4.494036286199950e-001	 2.153610145303287e+000	-2.885834058537671e+001
1	 4.275679448119763e-001	 2.158051450990382e+000	-2.942046852003825e+001
1	 6.542203577784720e-001	 2.128386101738172e+000	-2.272118286617507e+001
1	 6.320712437705345e-001	 2.135068534595499e+000	-2.356762710095076e+001
1	 6.099124785563529e-001	 2.141503805289619e+000	-2.441860153713532e+001
1	 5.877479271915753e-001	 2.147692777113644e+000	-2.526718053606621e+001
1	 5.655814154386809e-001	 2.153636388128806e+000	-2.610653672059980e+001
1	 5.434167281273361e-001	 2.159335649627190e+000	-2.692995132584767e+001
1	 5.212576075761130e-001	 2.164791644557400e+000	-2.773082413460563e+001
1	 4.991077520762680e-001	 2.170005525915713e+000	-2.850268298760884e+001
1	 4.769708144381596e-001	 2.174978515105310e+000	-2.923919286001789e+001
1	 4.548504006007771e-001	 2.179711900266135e+000	-2.993416449679811e+001
1	 4.327500683047372e-001	 2.184207034577925e+000	-3.058156260089522e+001
1	 6.620545580119923e-001	 2.153873237211714e+000	-2.305781180799159e+001
1	 6.396402113617532e-001	 2.160635691298096e+000	-2.396509131011674e+001
1	 6.172160979333151e-001	 2.167148023487771e+000	-2.488044493588910e+001
1	 5.947861290658582e-001	 2.173411107411672e+000	-2.579690525598709e+001
1	 5.723541763348633e-001	 2.179425892364188e+000	-2.670759854554933e+001
1	 5.499240698928331e-001	 2.185193401747493e+000	-2.760575546495338e+001
1	 5.274995968721120e-001	 2.190714731478355e+000	-2.848472132303262e+001
1	 5.050844998505067e-001	 2.195991048360028e+000	-2.933796591224290e+001
1	 4.826824753802985e-001	 2.201023588421832e+000	-3.015909290658996e+001
1	 4.602971725811209e-001	 2.205813655229016e+000	-3.094184881440951e+001
1	 4.379321917970661e-001	 2.210362618165464e+000	-3.168013147936292e+001
1	 6.698887582450617e-001	 2.179360372685457e+000	-2.330956873141383e+001
1	 6.472091789525045e-001	 2.186202848000890e+000	-2.427754327301411e+001
1	 6.245197173097914e-001	 2.192792241686111e+000	-2.525749259847529e+001
1	 6.018243309396364e-001	 2.199129437709874e+000	-2.624248273440682e+001
1	 5.791269372305237e-001	 2.205215396599727e+000	-2.722566805745522e+001
1	 5.564314116577933e-001	 2.211051153867931e+000	-2.820030219482706e+001
1	 5.337415861675627e-001	 2.216637818399421e+000	-2.915974850877987e+001
1	 5.110612476241907e-001	 2.221976570804427e+000	-3.009749015409515e+001
1	 4.883941363218828e-001	 2.227068661738413e+000	-3.100713969885639e+001
1	 4.657439445609177e-001	 2.231915410191926e+000	-3.188244830015452e+001
1	 4.431143152888640e-001	 2.236518201752999e+000	-3.271731442762545e+001
1	 6.777229584774968e-001	 2.204847508159331e+000	-2.347643788354080e+001
1	 6.547781465426102e-001	 2.211770004703814e+000	-2.450507623520514e+001
1	 6.318233366856110e-001	 2.218436459884577e+000	-2.554995400937796e+001
1	 6.088625328127469e-001	 2.224847768008192e+000	-2.660424328761454e+001
1	 5.858996981255067e-001	 2.231004900835369e+000	-2.766119836739572e+001
1	 5.629387534220697e-001	 2.236908905988459e+000	-2.871416677429129e+001
1	 5.399835754623272e-001	 2.242560905320560e+000	-2.975659986333973e+001
1	 5.170379953971918e-001	 2.247962093248883e+000	-3.078206299827925e+001
1	 4.941057972627936e-001	 2.253113735055029e+000	-3.178424529857839e+001
1	 4.711907165400582e-001	 2.258017165154852e+000	-3.275696894550667e+001
1	 4.482964387800322e-001	 2.262673785340533e+000	-3.369419803978154e+001
1	 6.855571587091146e-001	 2.230334643633273e+000	-2.355840423153202e+001
1	 6.623471141318938e-001	 2.237337161406804e+000	-2.464777917999575e+001
1	 6.391269560606028e-001	 2.244080678083104e+000	-2.575802907754624e+001
1	 6.159007346850257e-001	 2.250566098306568e+000	-2.688250213314485e+001
1	 5.926724590196567e-001	 2.256794405071064e+000	-2.801462187474772e+001
1	 5.694460951855147e-001	 2.262766658109031e+000	-2.914789816709780e+001
1	 5.462255647562676e-001	 2.268483992241738e+000	-3.027593782763809e+001
1	 5.230147431693810e-001	 2.273947615693367e+000	-3.139245482892211e+001
1	 4.998174582029119e-001	 2.279158808371665e+000	-3.249128007719224e+001
1	 4.766374885184339e-001	 2.284118920117789e+000	-3.356637075808990e+001
1	 4.534785622704716e-001	 2.288829368928065e+000	-3.461181924173665e+001
1	 4.016573273451569e-001	 2.027273533052570e+000	-2.263312991129877e+001
1	 3.811698517285161e-001	 2.031225301503230e+000	-2.279347952570380e+001
1	 3.607074675331575e-001	 2.034958690876767e+000	-2.288688125442010e+001
1	 3.402733298862165e-001	 2.038475129610468e+000	-2.290942834592308e+001
1	 3.198705449804655e-001	 2.041776099945052e+000	-2.285737669112077e+001
1	 2.995021691400967e-001	 2.044863136261900e+000	-2.272714756030562e+001
1	 2.791712079452243e-001	 2.047737823409130e+000	-2.251533001017475e+001
1	 2.588806154148092e-001	 2.050401795018658e+000	-2.221868296512795e+001
1	 2.386332932476166e-001	 2.052856731816378e+000	-2.183413697767066e+001
1	 2.184320901207317e-001	 2.055104359927540e+000	-2.135879567332887e+001
1	 1.982798010451052e-001	 2.057146449179369e+000	-2.078993688603022e+001
1	 4.068394508385930e-001	 2.053429116640149e+000	-2.412602311947172e+001
1	 3.860876488384815e-001	 2.057431870223552e+000	-2.434170921586972e+001
1	 3.653612619854609e-001	 2.061213427235205e+000	-2.448669811834089e+001
1	 3.446634861136527e-001	 2.064775234541886e+000	-2.455656650084356e+001
1	 3.239974674914737e-001	 2.068118793507961e+000	-2.454706657270582e+001
1	 3.033663018753617e-001	 2.071245658311171e+000	-2.445412948534263e+001
1	 2.827730336229843e-001	 2.074157434247109e+000	-2.427386836949457e+001
1	 2.622206548656227e-001	 2.076855776024568e+000	-2.400258100704501e+001
1	 2.417121047393329e-001	 2.079342386053916e+000	-2.363675214218093e+001
1	 2.212502686744141e-001	 2.081619012730616e+000	-2.317305543734086e+001
1	 2.008379777426382e-001	 2.083687448715941e+000	-2.260835508002814e+001
1	 4.120215743320919e-001	 2.079584700227718e+000	-2.554978260241237e+001
1	 3.910054459484762e-001	 2.083638438943773e+000	-2.582707241136074e+001
1	 3.700150564377691e-001	 2.087468163593456e+000	-2.603114704955424e+001
1	 3.490536423410803e-001	 2.091075339473030e+000	-2.615710258858196e+001
1	 3.281243900024696e-001	 2.094461487070513e+000	-2.620022155558187e+001
1	 3.072304346106214e-001	 2.097628180360005e+000	-2.615597700329814e+001
1	 2.863748593007571e-001	 2.100577045084578e+000	-2.602003617417909e+001
1	 2.655606943164766e-001	 2.103309757029900e+000	-2.578826376234167e+001
1	 2.447909162311281e-001	 2.105828040290817e+000	-2.545672477803273e+001
1	 2.240684472282249e-001	 2.108133665533004e+000	-2.502168701998015e+001
1	 2.033961544403598e-001	 2.110228448251783e+000	-2.447962316175362e+001
1	 4.172036978255548e-001	 2.105740283815280e+000	-2.690586464242389e+001
1	 3.959232430584104e-001	 2.109845007663906e+000	-2.725110164179892e+001
1	 3.746688508900027e-001	 2.113722899951540e+000	-2.752179232641039e+001
1	 3.534437985684283e-001	 2.117375444403932e+000	-2.771258663115494e+001
1	 3.322513125133900e-001	 2.120804180632748e+000	-2.781832994055943e+001
1	 3.110945673458185e-001	 2.124010702408456e+000	-2.783406781622607e+001
1	 2.899766849784881e-001	 2.126996655921599e+000	-2.775505028483346e+001
1	 2.689007337673182e-001	 2.129763738034729e+000	-2.757673569021533e+001
1	 2.478697277229483e-001	 2.132313694527165e+000	-2.729479411393392e+001
1	 2.268866257821052e-001	 2.134648318334801e+000	-2.690511036961276e+001
1	 2.059543311382028e-001	 2.136769447787005e+000	-2.640378657710269e+001
1	 4.223858213188826e-001	 2.131895867402835e+000	-2.819565405506583e+001
1	 4.008410401681958e-001	 2.136051576383963e+000	-2.861525422824252e+001
1	 3.793226453420824e-001	 2.139977636309478e+000	-2.896012146063356e+001
1	 3.578339547956261e-001	 2.143675549334621e+000	-2.922449258357979e+001
1	 3.363782350241716e-001	 2.147146874194709e+000	-2.940280699040469e+001
1	 3.149587000808950e-001	 2.150393224456572e+000	-2.948971201574631e+001
1	 2.935785106561237e-001	 2.153416266758236e+000	-2.948006784488855e+001
1	 2.722407732180950e-001	 2.156217719039128e+000	-2.936895195624222e+001
1	 2.509485392147394e-001	 2.158799348763049e+000	-2.915166310110056e+001
1	 2.297048043359962e-001	 2.161162971136105e+000	-2.882372482572722e+001
1	 2.085125078360999e-001	 2.163310447321717e+000	-2.838088854172183e+001
1	 4.275679448119763e-001	 2.158051450990382e+000	-2.942046852003825e+001
1	 4.057588372777426e-001	 2.162258145103952e+000	-2.992091684082362e+001
1	 3.839764397939287e-001	 2.166232372667292e+000	-3.034754984937899e+001
1	 3.622241110226025e-001	 2.169975654265129e+000	-3.069422294353397e+001
1	 3.405051575347509e-001	 2.173489567756436e+000	-3.095499935594465e+001
1	 3.188228328157938e-001	 2.176775746504410e+000	-3.112415618023656e+001
1	 2.971803363336101e-001	 2.179835877594552e+000	-3.119618989946117e+001
1	 2.755808126687545e-001	 2.182671700043172e+000	-3.116582141957076e+001
1	 2.540273507064469e-001	 2.185285002998553e+000	-3.102800061167228e+001
1	 2.325229828898389e-001	 2.187677623937013e+000	-3.077791036783134e+001
1	 2.110706845339838e-001	 2.189851446856028e+000	-3.041097017616013e+001
1	 4.327500683047372e-001	 2.184207034577925e+000	-3.058156260089522e+001
1	 4.106766343869625e-001	 2.188464713823888e+000	-3.116940972892455e+001
1	 3.886302342454617e-001	 2.192487109025002e+000	-3.168542509304313e+001
1	 3.666142672492871e-001	 2.196275759195488e+000	-3.212311302981451e+001
1	 3.446320800450644e-001	 2.199832261317972e+000	-3.247618918415966e+001
1	 3.226869655504569e-001	 2.203158268552019e+000	-3.273858717764407e+001
1	 3.007821620108935e-001	 2.206255488430609e+000	-3.290446475420165e+001
1	 2.789208521192439e-001	 2.209125681046935e+000	-3.296820940548626e+001
1	 2.571061621980170e-001	 2.211770657233760e+000	-3.292444347917337e+001
1	 2.353411614435743e-001	 2.214192276737622e+000	-3.276802877461748e+001
1	 2.136288612317871e-001	 2.216392446390048e+000	-3.249407063131078e+001
1	 4.379321917970661e-001	 2.210362618165464e+000	-3.168013147936291e+001
1	 4.155944314957661e-001	 2.214671282543780e+000	-3.236199065101496e+001
1	 3.932840286966023e-001	 2.218741845382629e+000	-3.297503100651419e+001
1	 3.710044234756087e-001	 2.222575864125727e+000	-3.351243495703091e+001
1	 3.487590025550489e-001	 2.226174954879359e+000	-3.396759793460593e+001
1	 3.265510982848270e-001	 2.229540790599451e+000	-3.433413569830160e+001
1	 3.043839876879196e-001	 2.232675099266471e+000	-3.460589109566740e+001
1	 2.822608915695107e-001	 2.235579662050491e+000	-3.477694028112774e+001
1	 2.601849736893954e-001	 2.238256311468759e+000	-3.484159839410268e+001
1	 2.381593399971435e-001	 2.240706929538030e+000	-3.479442470082791e+001
1	 2.161870379294426e-001	 2.242933445923886e+000	-3.463022720494674e+001
1	 4.431143152888640e-001	 2.236518201752999e+000	-3.271731442762545e+001
1	 4.205122286040645e-001	 2.240877851263638e+000	-3.349985852873850e+001
1	 3.979378231472710e-001	 2.244996581740196e+000	-3.421759134895812e+001
1	 3.753945797014967e-001	 2.248875969055882e+000	-3.486340133139927e+001
1	 3.528859250646412e-001	 2.252517648440637e+000	-3.543038992804476e+001
1	 3.304152310188463e-001	 2.255923312646761e+000	-3.591187953985060e+001
1	 3.079858133646348e-001	 2.259094710102200e+000	-3.630142089274351e+001
1	 2.856009310195024e-001	 2.262033643053914e+000	-3.659279985046869e+001
1	 2.632637851805277e-001	 2.264741965703632e+000	-3.678004366651327e+001
1	 2.409775185504876e-001	 2.267221582338333e+000	-3.685742667855800e+001
1	 2.187452146268828e-001	 2.269474445457651e+000	-3.681947545007888e+001
1	 4.482964387800322e-001	 2.262673785340533e+000	-3.369419803978154e+001
1	 4.254300257117685e-001	 2.267084419983474e+000	-3.458415684756012e+001
1	 4.025916175973881e-001	 2.271251318097723e+000	-3.541427329491619e+001
1	 3.797847359268805e-001	 2.275176073985980e+000	-3.617716869020531e+001
1	 3.570128475737776e-001	 2.278860342001849e+000	-3.686567564894744e+001
1	 3.342793637524572e-001	 2.282305834693997e+000	-3.747284666432970e+001
1	 3.115876390409853e-001	 2.285514320937858e+000	-3.799196209682793e+001
1	 2.889409704691662e-001	 2.288487624057277e+000	-3.841653758318896e+001
1	 2.663425966713602e-001	 2.291227619938468e+000	-3.874033086634321e+001
1	 2.437956971035476e-001	 2.293736235138629e+000	-3.895734804911132e+001
1	 2.213033913240406e-001	 2.296015444991454e+000	-3.906184927579856e+001
1	 4.534785622704716e-001	 2.288829368928065e+000	-3.461181924173665e+001
1	 4.303478228187894e-001	 2.293290988703301e+000	-3.561597682424856e+001
1	 4.072454120468742e-001	 2.297506054455230e+000	-3.656619066740649e+001
1	 3.841748921516889e-001	 2.301476178916054e+000	-3.745484070544021e+001
1	 3.611397700823948e-001	 2.305203035563035e+000	-3.827451482156399e+001
1	 3.381434964856022e-001	 2.308688356741214e+000	-3.901801804565470e+001
1	 3.151894647169172e-001	 2.311933931773511e+000	-3.967838115687901e+001
1	 2.922810099184495e-001	 2.314941605060654e+000	-4.024886869072357e+001
1	 2.694214081618384e-001	 2.317713274173349e+000	-4.072298635127726e+001
1	 2.466138756562645e-001	 2.320250887939014e+000	-4.109448783096239e+001
1	 2.238615680208486e-001	 2.322556444525402e+000	-4.135738104120666e+001
1	 1.982798010451052e-001	 2.057146449179369e+000	-2.078993688603022e+001
1	 1.781761623850336e-001	 2.058985072062221e+000	-2.011676246061645e+001
1	 1.581269227520513e-001	 2.060621760190973e+000	-1.932976073686784e+001
1	 1.381347544218765e-001	 2.062058405639229e+000	-1.842810618263764e+001
1	 1.182022727019177e-001	 2.063296937449552e+000	-1.741112206943700e+001
1	 9.833203556797766e-002	 2.064339319933258e+000	-1.627827777830596e+001
1	 7.852654335463237e-002	 2.065187550979181e+000	-1.502918597537408e+001
1	 5.878823849825383e-002	 2.065843660373091e+000	-1.366359966589984e+001
1	 3.911950533160152e-002	 2.066309708129337e+000	-1.218140913552976e+001
1	 1.952266992886609e-002	 2.066587782836232e+000	-1.058263878745153e+001
1	 0.000000000000000e+000	 2.066680000016667e+000	-8.867443884029134e+000
1	 2.008379777426382e-001	 2.083687448715941e+000	-2.260835508002815e+001
1	 1.804749649069134e-001	 2.085549793239212e+000	-2.193131517843488e+001
1	 1.601670529465028e-001	 2.087207597675990e+000	-2.113163901444482e+001
1	 1.399169486144204e-001	 2.088662778511150e+000	-2.020774795403758e+001
1	 1.197273009603743e-001	 2.089917289675494e+000	-1.915823790909598e+001
1	 9.960070096278301e-002	 2.090973120823608e+000	-1.798187727281841e+001
1	 7.953968121516011e-002	 2.091832295620812e+000	-1.667760466556056e+001
1	 5.954671566582075e-002	 2.092496870040883e+000	-1.524452650067399e+001
1	 3.962421940982393e-002	 2.092968930676188e+000	-1.368191437996788e+001
1	 1.977454853201639e-002	 2.093250593061714e+000	-1.198920232844459e+001
1	 0.000000000000000e+000	 2.093344000014533e+000	-1.016598387796266e+001
1	 2.033961544403598e-001	 2.110228448251783e+000	-2.447962316175362e+001
1	 1.827737674290516e-001	 2.112114514415441e+000	-2.381871096207033e+001
1	 1.622071831412844e-001	 2.113793435160225e+000	-2.302791713995523e+001
1	 1.416991428073602e-001	 2.115267151382274e+000	-2.210493336498399e+001
1	 1.212523292192780e-001	 2.116537641900631e+000	-2.104764952033347e+001
1	 1.008693663580642e-001	 2.117606921713150e+000	-1.985415229028030e+001
1	 8.055281907616133e-002	 2.118477040261631e+000	-1.852272350107113e+001
1	 6.030519283382028e-002	 2.119150079707866e+000	-1.705183822540861e+001
1	 4.012893348839152e-002	 2.119628153222235e+000	-1.544016266095075e+001
1	 2.002642713537015e-002	 2.119913403286397e+000	-1.368655179334422e+001
1	 0.000000000000000e+000	 2.120008000011600e+000	-1.179004685440051e+001
1	 2.059543311382028e-001	 2.136769447787005e+000	-2.640378657710269e+001
1	 1.850725699513690e-001	 2.138679235591033e+000	-2.577856231772438e+001
1	 1.642473133363036e-001	 2.140379272643812e+000	-2.501771302035123e+001
1	 1.434813370005900e-001	 2.141871524252748e+000	-2.411822277652773e+001
1	 1.227773574785129e-001	 2.143157994125120e+000	-2.307729553886333e+001
1	 1.021380317536997e-001	 2.144240722602053e+000	-2.189235438308910e+001
1	 8.156595693751645e-002	 2.145121784901822e+000	-2.056104046857544e+001
1	 6.106367000214374e-002	 2.145803289374232e+000	-1.908121170812064e+001
1	 4.063364756721779e-002	 2.146287375767672e+000	-1.745094115807621e+001
1	 2.027830573887649e-002	 2.146576213510476e+000	-1.566851514008838e+001
1	 0.000000000000000e+000	 2.146672000008067e+000	-1.373243110591655e+001
1	 2.085125078360999e-001	 2.163310447321717e+000	-2.838088854172183e+001
1	 1.873713724737861e-001	 2.165243956766109e+000	-2.781050076777141e+001
1	 1.662874435314673e-001	 2.166965110126885e+000	-2.710018785110981e+001
1	 1.452635311940043e-001	 2.168475897122718e+000	-2.624624719969084e+001
1	 1.243023857379628e-001	 2.169778346349123e+000	-2.524521576140878e+001
1	 1.034066971495681e-001	 2.170874523490486e+000	-2.409386998311968e+001
1	 8.257909479910586e-002	 2.171766529541564e+000	-2.278922541529877e+001
1	 6.182214717068246e-002	 2.172456499040166e+000	-2.132853597360687e+001
1	 4.113836164621634e-002	 2.172946598312695e+000	-1.970929286899226e+001
1	 2.053018434248453e-002	 2.173239023734152e+000	-1.792922321826481e+001
1	 0.000000000000000e+000	 2.173336000004134e+000	-1.598628834734427e+001
1	 2.110706845339838e-001	 2.189851446856028e+000	-3.041097017616013e+001
1	 1.896701749962240e-001	 2.191808677940790e+000	-2.991417569837728e+001
1	 1.683275737266829e-001	 2.193550947609579e+000	-2.927454349294702e+001
1	 1.470457253874970e-001	 2.195080269992333e+000	-2.848770401407663e+001
1	 1.258274139975116e-001	 2.196398698572797e+000	-2.754954501534383e+001
1	 1.046753625455481e-001	 2.197508324378621e+000	-2.645621222802593e+001
1	 8.359223266080985e-002	 2.198411274181037e+000	-2.520410963427020e+001
1	 6.258062433932776e-002	 2.199109708705858e+000	-2.378989934674016e+001
1	 4.164307572530071e-002	 2.199605820857498e+000	-2.221050110682139e+001
1	 2.078206294614337e-002	 2.199901833957623e+000	-2.046309141387578e+001
1	 0.000000000000000e+000	 2.200000000000001e+000	-1.854510229838662e+001
1	 2.136288612317871e-001	 2.216392446390048e+000	-3.249407063131078e+001
1	 1.919689775186034e-001	 2.218373399115199e+000	-3.208925328991617e+001
1	 1.703677039218575e-001	 2.220136785092031e+000	-3.154002003701309e+001
1	 1.488279195809624e-001	 2.221684642861741e+000	-3.084135299409401e+001
1	 1.273524422570433e-001	 2.223019050796304e+000	-2.998850746879521e+001
1	 1.059440279415181e-001	 2.224142125266629e+000	-2.897701337481571e+001
1	 8.460537052250881e-002	 2.225056018820421e+000	-2.780267619786191e+001
1	 6.333910150797092e-002	 2.225762918371497e+000	-2.646157751951049e+001
1	 4.214778980438445e-002	 2.226265043402274e+000	-2.495007511143181e+001
1	 2.103394154980214e-002	 2.226564644181086e+000	-2.326480261291091e+001
1	 0.000000000000000e+000	 2.226663999995867e+000	-2.140266880504845e+001
1	 2.161870379294426e-001	 2.242933445923886e+000	-3.463022720494674e+001
1	 1.942677800408450e-001	 2.244938120289457e+000	-3.433541552332615e+001
1	 1.724078341168984e-001	 2.246722622574373e+000	-3.389589354295617e+001
1	 1.506101137742947e-001	 2.248289015731089e+000	-3.330601261731653e+001
1	 1.288774705164417e-001	 2.249639403019801e+000	-3.256041134472184e+001
1	 1.072126933373569e-001	 2.250775926154679e+000	-3.165401775205485e+001
1	 8.561850838408310e-002	 2.251700763459898e+000	-3.058205097763768e+001
1	 6.409757867650329e-002	 2.252416128037270e+000	-2.934002246529316e+001
1	 4.265250388338113e-002	 2.252924265947220e+000	-2.792373668229391e+001
1	 2.128582015340993e-002	 2.253227454404740e+000	-2.632929137448869e+001
1	 0.000000000000000e+000	 2.253327999991934e+000	-2.455307737242565e+001
1	 2.187452146268828e-001	 2.269474445457651e+000	-3.681947545007888e+001
1	 1.965665825628697e-001	 2.271502841463688e+000	-3.665235925618779e+001
1	 1.744479643117127e-001	 2.273308460056742e+000	-3.634147393570283e+001
1	 1.523923079673879e-001	 2.274893388600523e+000	-3.588055663187807e+001
1	 1.304024987755909e-001	 2.276259755243449e+000	-3.526364400589991e+001
1	 1.084813587329429e-001	 2.277409727042943e+000	-3.448507520660476e+001
1	 8.663164624541299e-002	 2.278345508099645e+000	-3.353949429432676e+001
1	 6.485605584481614e-002	 2.279069337703367e+000	-3.242185213098828e+001
1	 4.315721796220429e-002	 2.279583488492531e+000	-3.112740774929108e+001
1	 2.153769875691588e-002	 2.279890264628786e+000	-2.965172921454770e+001
1	 0.000000000000000e+000	 2.279991999988401e+000	-2.799069399331436e+001
1	 2.213033913240406e-001	 2.296015444991454e+000	-3.906184927579856e+001
1	 1.988653850845983e-001	 2.298067562638013e+000	-3.903979536288368e+001
1	 1.764880945062078e-001	 2.299894297539273e+000	-3.887610304811343e+001
1	 1.541745021601364e-001	 2.301497761470192e+000	-3.856391086194637e+001
1	 1.319275270343746e-001	 2.302880107467406e+000	-3.809666738080183e+001
1	 1.097500241281549e-001	 2.304043527931590e+000	-3.746813500487937e+001
1	 8.764478410637891e-002	 2.304990252739845e+000	-3.667239314693449e+001
1	 6.561453301280085e-002	 2.305722547369975e+000	-3.570384084408799e+001
1	 4.366193204076749e-002	 2.306242711038399e+000	-3.455719880558882e+001
1	 2.178957736026910e-002	 2.306553074853420e+000	-3.322751091022457e+001
1	 0.000000000000000e+000	 2.306655999985467e+000	-3.171014516778506e+001
1	 2.238615680208486e-001	 2.322556444525402e+000	-4.135738104120667e+001
1	 2.011641876059516e-001	 2.324632283812556e+000	-4.149744793371273e+001
1	 1.785282247002906e-001	 2.326480135022100e+000	-4.149915279784185e+001
1	 1.559566963524342e-001	 2.328102134340242e+000	-4.135505023222862e+001
1	 1.334525552926767e-001	 2.329500459691833e+000	-4.105801370309907e+001
1	 1.110186895228712e-001	 2.330677328820791e+000	-4.060124015226087e+001
1	 8.865792196686122e-002	 2.331634997380677e+000	-3.997825397466398e+001
1	 6.637301018034868e-002	 2.332375757037283e+000	-3.918291037748276e+001
1	 4.416664611898429e-002	 2.332901933585021e+000	-3.820939813360342e+001
1	 2.204145596341870e-002	 2.333215885078842e+000	-3.705224174327142e+001
1	 0.000000000000000e+000	 2.333319999983334e+000	-3.570630301845358e+001
1	 2.333319999983334e+000	 0.000000000000000e+000	 8.165890385304995e+001
1	 2.333215885078842e+000	 2.204145596341876e-002	 7.923990730457696e+001
1	 2.332901933585021e+000	 4.416664611898443e-002	 7.681577455948653e+001
1	 2.332375757037283e+000	 6.637301018034852e-002	 7.438632151265344e+001
1	 2.331634997380677e+000	 8.865792196686113e-002	 7.195150135664926e+001
1	 2.330677328820791e+000	 1.110186895228712e-001	 6.951140763774457e+001
1	 2.329500459691833e+000	 1.334525552926768e-001	 6.706627716841010e+001
1	 2.328102134340243e+000	 1.559566963524343e-001	 6.461649278609761e+001
1	 2.326480135022099e+000	 1.785282247002904e-001	 6.216258594805828e+001
1	 2.324632283812556e+000	 2.011641876059514e-001	 5.970523915195808e+001
1	 2.322556444525403e+000	 2.238615680208486e-001	 5.724528817208078e+001
1	 2.359987999982150e+000	 0.000000000000000e+000	 8.388580039930616e+001
1	 2.359882695126717e+000	 2.229337235189980e-002	 8.132032872948024e+001
1	 2.359565155415852e+000	 4.467143591148032e-002	 7.875213697584044e+001
1	 2.359032965086723e+000	 6.713160113034042e-002	 7.618121290922247e+001
1	 2.358283739133689e+000	 8.967121181265775e-002	 7.360768603714477e+001
1	 2.357315125180361e+000	 1.122875452358524e-001	 7.103183050519655e+001
1	 2.356124805369035e+000	 1.349778123275370e-001	 6.845406784255309e+001
1	 2.354710498265832e+000	 1.577391579000762e-001	 6.587496954127617e+001
1	 2.353069960779785e+000	 1.805686609440348e-001	 6.329525945905437e+001
1	 2.351200990094103e+000	 2.034633349817420e-001	 6.071581603506751e+001
1	 2.349101425607677e+000	 2.264201284821455e-001	 5.813767430871462e+001
1	 2.386655999981866e+000	 0.000000000000000e+000	 8.612804222986982e+001
1	 2.386549505175481e+000	 2.254528874017717e-002	 8.340626329230427e+001
1	 2.386228377247541e+000	 4.517622570362982e-002	 8.068497258747182e+001
1	 2.385690173136973e+000	 6.789019207989576e-002	 7.796431455933723e+001
1	 2.384932480887448e+000	 9.068450165797154e-002	 7.524457951272044e+001
1	 2.383952921540606e+000	 1.135564009483399e-001	 7.252620638433866e+001
1	 2.382749151046835e+000	 1.365030693619190e-001	 6.980978534676545e+001
1	 2.381318862191934e+000	 1.595216194472729e-001	 6.709606023482675e+001
1	 2.379659786537899e+000	 1.826090971873751e-001	 6.438593078397412e+001
1	 2.377769696375999e+000	 2.057624823571689e-001	 6.168045467022269e+001
1	 2.375646406690224e+000	 2.289786889431086e-001	 5.898084934132296e+001
1	 2.413323999982383e+000	 0.000000000000000e+000	 8.838015942518406e+001
1	 2.413216315225037e+000	 2.279720512830178e-002	 8.549251882224831e+001
1	 2.412891599079999e+000	 4.568101549551953e-002	 8.260936479075382e+001
1	 2.412347381187954e+000	 6.864878302912364e-002	 7.973098411758615e+001
1	 2.411581222641890e+000	 9.169779150292323e-002	 7.685781326806796e+001
1	 2.410590717901479e+000	 1.148252566604571e-001	 7.399044105034749e+001
1	 2.409373496725197e+000	 1.380283263959423e-001	 7.112961110262937e+001
1	 2.407927226118532e+000	 1.613040809941355e-001	 6.827622419261896e+001
1	 2.406249612296439e+000	 1.846495334304123e-001	 6.543134031858872e+001
1	 2.404338402658252e+000	 2.080616297323231e-001	 6.259618060154347e+001
1	 2.402191387773061e+000	 2.315372494038215e-001	 5.977212895805758e+001
1	 2.439991999983599e+000	 0.000000000000000e+000	 9.063692120058209e+001
1	 2.439883125275288e+000	 2.304912151632456e-002	 8.757413014073885e+001
1	 2.439554820913136e+000	 4.618580528723603e-002	 8.452061192699725e+001
1	 2.439004589239588e+000	 6.940737397813324e-002	 8.147678219342994e+001
1	 2.438229964396953e+000	 9.271108134763358e-002	 7.844320977140107e+001
1	 2.437228514262929e+000	 1.160941123723274e-001	 7.542061927044321e+001
1	 2.435997842404091e+000	 1.395535834297265e-001	 7.240989347301348e+001
1	 2.434535590045607e+000	 1.630865425407754e-001	 6.941207553234010e+001
1	 2.432839438055403e+000	 1.866899696732476e-001	 6.642837096262363e+001
1	 2.430907108940868e+000	 2.103607771072954e-001	 6.346014941093742e+001
1	 2.428736368856203e+000	 2.340958098643674e-001	 6.050894620028913e+001
1	 2.466659999985416e+000	 0.000000000000000e+000	 9.289332297939787e+001
1	 2.466549935326134e+000	 2.330103790429640e-002	 8.964634679093452e+001
1	 2.466218042746860e+000	 4.669059507886593e-002	 8.641421566319464e+001
1	 2.465661797291797e+000	 7.016596492703370e-002	 8.319746138009081e+001
1	 2.464878706152569e+000	 9.372437119222317e-002	 7.999677215047856e+001
1	 2.463866310624908e+000	 1.173629680840743e-001	 7.681299512813496e+001
1	 2.462622188083482e+000	 1.410788404633911e-001	 7.364713873774421e+001
1	 2.461143953973147e+000	 1.648690040873041e-001	 7.050037479592965e+001
1	 2.459429263814787e+000	 1.887304059159818e-001	 6.737404041643598e+001
1	 2.457475815223860e+000	 2.126599244821766e-001	 6.426963968865988e+001
1	 2.455281349939667e+000	 2.366543703248298e-001	 6.118884511885560e+001
1	 2.493327999987733e+000	 0.000000000000000e+000	 9.514457429565343e+001
1	 2.493216745377482e+000	 2.355295429226825e-002	 9.170462155468414e+001
1	 2.492881264581083e+000	 4.719538487049581e-002	 8.828587011842350e+001
1	 2.492319005344500e+000	 7.092455587593410e-002	 8.488895598750726e+001
1	 2.491527447908675e+000	 9.473766103681273e-002	 8.151467453116339e+001
1	 2.490504106987368e+000	 1.186318237958211e-001	 7.816398296840221e+001
1	 2.489246533763340e+000	 1.426040974970558e-001	 7.483800264840906e+001
1	 2.487752317901132e+000	 1.666514656338327e-001	 7.153802111899708e+001
1	 2.486019089574589e+000	 1.907708421587160e-001	 6.826549397204946e+001
1	 2.484044521507234e+000	 2.149590718570578e-001	 6.502204645498468e+001
1	 2.481826331023469e+000	 2.392129307852923e-001	 6.180947483741801e+001
1	 2.519995999990449e+000	 0.000000000000000e+000	 9.738608746486926e+001
1	 2.519883555429231e+000	 2.380487068029099e-002	 9.374459969860422e+001
1	 2.519544486415716e+000	 4.770017466221225e-002	 9.013145168067317e+001
1	 2.518976213397622e+000	 7.168314682494363e-002	 8.654737242719826e+001
1	 2.518176189665208e+000	 9.575095088152302e-002	 8.299325298943812e+001
1	 2.517141903350260e+000	 1.199006795076914e-001	 7.947014891781535e+001
1	 2.515870879443631e+000	 1.441293545308398e-001	 7.597928251939030e+001
1	 2.514360681829545e+000	 1.684339271804727e-001	 7.252204489744588e+001
1	 2.512608915334807e+000	 1.928112784015512e-001	 6.909999776192429e+001
1	 2.510613227791000e+000	 2.172582192320301e-001	 6.571487499956814e+001
1	 2.508371312107629e+000	 2.417714912458381e-001	 6.236858399276500e+001
1	 2.546663999993466e+000	 0.000000000000000e+000	 9.961346696669310e+001
1	 2.546550365481286e+000	 2.405678706841556e-002	 9.576210889583025e+001
1	 2.546207708250668e+000	 4.820496445410191e-002	 9.194700946348424e+001
1	 2.545633421451082e+000	 7.244173777417141e-002	 8.816898020125073e+001
1	 2.544824931422100e+000	 9.676424072647459e-002	 8.442899707190932e+001
1	 2.543779699713533e+000	 1.211695352198085e-001	 8.072820293745062e+001
1	 2.542495225124322e+000	 1.456546115648631e-001	 7.706790981582249e+001
1	 2.540969045758369e+000	 1.702163887273352e-001	 7.344960091485609e+001
1	 2.539198741095438e+000	 1.948517146445884e-001	 6.987493243191017e+001
1	 2.537181934075167e+000	 2.195573666071841e-001	 6.634573510788850e+001
1	 2.534916293192159e+000	 2.443300517065509e-001	 6.286401552443582e+001
1	 2.573331999996683e+000	 0.000000000000000e+000	 1.018224994877092e+002
1	 2.573217175533549e+000	 2.430870345669286e-002	 9.775314977442699e+001
1	 2.572870930085849e+000	 4.870975424625130e-002	 9.372875635598800e+001
1	 2.572290629504804e+000	 7.320032872372663e-002	 8.975020345160560e+001
1	 2.571473673179290e+000	 9.777753057178830e-002	 8.581854184356115e+001
1	 2.570417496077141e+000	 1.224383909322958e-001	 8.193499136994912e+001
1	 2.569119570805381e+000	 1.471798685992449e-001	 7.810094320242546e+001
1	 2.567577409687590e+000	 1.719988502745317e-001	 7.431796189720167e+001
1	 2.565788566856480e+000	 1.968921508879285e-001	 7.058778720761038e+001
1	 2.563750640359744e+000	 2.218565139826109e-001	 6.691233564668119e+001
1	 2.561461274277079e+000	 2.468886121675139e-001	 6.329370178832069e+001
1	 2.600000000000000e+000	 0.000000000000000e+000	 1.040091445770296e+002
1	 2.599883985585924e+000	 2.456061984517381e-002	 9.971388704746363e+001
1	 2.599534151921172e+000	 4.921454403874706e-002	 9.547306062374028e+001
1	 2.598947837558706e+000	 7.395891967371834e-002	 9.128761302941389e+001
1	 2.598122414936712e+000	 9.879082041758469e-002	 8.715866042490197e+001
1	 2.597055292441034e+000	 1.237072466452768e-001	 8.308748994524146e+001
1	 2.595743916486777e+000	 1.487051256341049e-001	 7.907556202012309e+001
1	 2.594185773617187e+000	 1.737813118221734e-001	 7.512451246422069e+001
1	 2.592378392617928e+000	 1.989325871316728e-001	 7.123615432591106e+001
1	 2.590319346644739e+000	 2.241556613584015e-001	 6.741247948259473e+001
1	 2.588006255362404e+000	 2.494471726288108e-001	 6.365565997097769e+001
1	 2.322556444525403e+000	 2.238615680208486e-001	 5.724528817208077e+001
1	 2.320250887939015e+000	 2.466138756562646e-001	 5.479872024169233e+001
1	 2.317713274173349e+000	 2.694214081618382e-001	 5.238055018745785e+001
1	 2.314941605060654e+000	 2.922810099184495e-001	 4.999147010240095e+001
1	 2.311933931773511e+000	 3.151894647169170e-001	 4.763229487763829e+001
1	 2.308688356741215e+000	 3.381434964856023e-001	 4.530396327261201e+001
1	 2.305203035563035e+000	 3.611397700823949e-001	 4.300753878625838e+001
1	 2.301476178916054e+000	 3.841748921516888e-001	 4.074421032136747e+001
1	 2.297506054455230e+000	 4.072454120468744e-001	 3.851529263463683e+001
1	 2.293290988703300e+000	 4.303478228187891e-001	 3.632222656519911e+001
1	 2.288829368928065e+000	 4.534785622704716e-001	 3.416657903471156e+001
1	 2.349101425607677e+000	 2.264201284821455e-001	 5.813767430871463e+001
1	 2.346769518335254e+000	 2.494324769776625e-001	 5.557674066795273e+001
1	 2.344202901653812e+000	 2.725006815198410e-001	 5.304785049883353e+001
1	 2.341399554558111e+000	 2.956215504233459e-001	 5.055180092217623e+001
1	 2.338357505947168e+000	 3.187918307202850e-001	 4.808951039939678e+001
1	 2.335074836562539e+000	 3.420082088961281e-001	 4.566201960150195e+001
1	 2.331549680923443e+000	 3.652673116907452e-001	 4.327049207527022e+001
1	 2.327780229256406e+000	 3.885657069651761e-001	 4.091621469914156e+001
1	 2.323764729417043e+000	 4.118999046346667e-001	 3.860059792160209e+001
1	 2.319501488801562e+000	 4.352663576684167e-001	 3.632517577514434e+001
1	 2.314988876245497e+000	 4.586614631563876e-001	 3.409160565920889e+001
1	 2.375646406690224e+000	 2.289786889431086e-001	 5.898084934132295e+001
1	 2.373288148731701e+000	 2.522510782987388e-001	 5.630288235061921e+001
1	 2.370692529134423e+000	 2.755799548775168e-001	 5.366114249272383e+001
1	 2.367857504055670e+000	 2.989620909278955e-001	 5.105650211896538e+001
1	 2.364781080120887e+000	 3.223941967232736e-001	 4.848995292654459e+001
1	 2.361461316383892e+000	 3.458729213062330e-001	 4.596260667097310e+001
1	 2.357896326283851e+000	 3.693948532986258e-001	 4.347569567398158e+001
1	 2.354084279596734e+000	 3.929565217781407e-001	 4.103057311965226e+001
1	 2.350023404378815e+000	 4.165543972218820e-001	 3.862871313180564e+001
1	 2.345711988899768e+000	 4.401848925174142e-001	 3.627171062597783e+001
1	 2.341148383562864e+000	 4.638443640416253e-001	 3.396128092965986e+001
1	 2.402191387773061e+000	 2.315372494038215e-001	 5.977212895805757e+001
1	 2.399806779128375e+000	 2.550696796195738e-001	 5.697475231683929e+001
1	 2.397182156615205e+000	 2.786592282349472e-001	 5.421832225873860e+001
1	 2.394315453553343e+000	 3.023026314321842e-001	 5.150375786039864e+001
1	 2.391204654294674e+000	 3.259965627259768e-001	 4.883209502494604e+001
1	 2.387847796205268e+000	 3.497376337160196e-001	 4.620448708161942e+001
1	 2.384242971644243e+000	 3.735223949061500e-001	 4.362220518114508e+001
1	 2.380388329937012e+000	 3.973473365907070e-001	 4.108663847981391e+001
1	 2.376282079340506e+000	 4.212088898086548e-001	 3.859929410549582e+001
1	 2.371922488997865e+000	 4.451034273659248e-001	 3.616179689913762e+001
1	 2.367307890880099e+000	 4.690272649263335e-001	 3.377588892563230e+001
1	 2.428736368856203e+000	 2.340958098643674e-001	 6.050894620028913e+001
1	 2.426325409525294e+000	 2.578882809402479e-001	 5.759006221016880e+001
1	 2.423671784096173e+000	 2.817385015922139e-001	 5.471737786561175e+001
1	 2.420773403051145e+000	 3.056431719362983e-001	 5.189183169898418e+001
1	 2.417628228468532e+000	 3.295989287284877e-001	 4.911447603709831e+001
1	 2.414234276026662e+000	 3.536023461255909e-001	 4.638647753087835e+001
1	 2.410589617004602e+000	 3.776499365134308e-001	 4.370911748301172e+001
1	 2.406692380277210e+000	 4.017381514029980e-001	 4.108379196670609e+001
1	 2.402540754302072e+000	 4.258633823951184e-001	 3.851201172895627e+001
1	 2.398132989095801e+000	 4.500219622140910e-001	 3.599540187203373e+001
1	 2.393467398197139e+000	 4.742101658106620e-001	 3.353570130725240e+001
1	 2.455281349939667e+000	 2.366543703248298e-001	 6.118884511885561e+001
1	 2.452844039922479e+000	 2.607068822608415e-001	 5.814662263533312e+001
1	 2.450161411577347e+000	 2.848177749493983e-001	 5.515638438909485e+001
1	 2.447231352549091e+000	 3.089837124403242e-001	 5.221906228080785e+001
1	 2.444051802642469e+000	 3.332012947309000e-001	 4.933569847239386e+001
1	 2.440620755848070e+000	 3.574670585350495e-001	 4.650744588872314e+001
1	 2.436936262364911e+000	 3.817774781205810e-001	 4.373556852145667e+001
1	 2.432996430617297e+000	 4.061289662151378e-001	 4.102144152829461e+001
1	 2.428799429263472e+000	 4.305178749814069e-001	 3.836655112116357e+001
1	 2.424343489193518e+000	 4.549404970620558e-001	 3.577249423718021e+001
1	 2.419626905513916e+000	 4.793930666947602e-001	 3.324097798656104e+001
1	 2.481826331023469e+000	 2.392129307852923e-001	 6.180947483741801e+001
1	 2.479362670319949e+000	 2.635254835814351e-001	 5.864233786591018e+001
1	 2.476651039058744e+000	 2.878970483065821e-001	 5.553349925893308e+001
1	 2.473689302047192e+000	 3.123242529443478e-001	 5.248385932962425e+001
1	 2.470475376816489e+000	 3.368036607333074e-001	 4.949442462903529e+001
1	 2.467007235669486e+000	 3.613317709444980e-001	 4.656630846102073e+001
1	 2.463282907725154e+000	 3.859050197277140e-001	 4.370073120533418e+001
1	 2.459300480957246e+000	 4.105197810272501e-001	 4.089902044229352e+001
1	 2.455058104224664e+000	 4.351723675676544e-001	 3.816261087264106e+001
1	 2.450553989290963e+000	 4.598590319099618e-001	 3.549304402651713e+001
1	 2.445786412830364e+000	 4.845759675787774e-001	 3.289196775578634e+001
1	 2.508371312107629e+000	 2.417714912458381e-001	 6.236858399276502e+001
1	 2.505881300717724e+000	 2.663440849021089e-001	 5.907520088805108e+001
1	 2.503140666540384e+000	 2.909763216638469e-001	 5.584695790128622e+001
1	 2.500147251545462e+000	 3.156647934484557e-001	 5.268469988593980e+001
1	 2.496898950990597e+000	 3.404060267358030e-001	 4.958937343044319e+001
1	 2.493393715490908e+000	 3.651964833540393e-001	 4.656202742665406e+001
1	 2.489629553085315e+000	 3.900325613349428e-001	 4.360381345445179e+001
1	 2.485604531297026e+000	 4.149105958394586e-001	 4.071598597589741e+001
1	 2.481316779185606e+000	 4.398268601539944e-001	 3.789990233264141e+001
1	 2.476764489388081e+000	 4.647775667579515e-001	 3.515702254053758e+001
1	 2.471945920146419e+000	 4.897588684628632e-001	 3.248890887572349e+001
1	 2.534916293192159e+000	 2.443300517065509e-001	 6.286401552443582e+001
1	 2.532399931115824e+000	 2.691626862229434e-001	 5.944328875560601e+001
1	 2.529630294022282e+000	 2.940555950212740e-001	 5.609506965493862e+001
1	 2.526605201043915e+000	 3.190053339527335e-001	 5.282012478239577e+001
1	 2.523322525164801e+000	 3.440083927384807e-001	 4.961931746043371e+001
1	 2.519780195312328e+000	 3.690611957637762e-001	 4.649360843567074e+001
1	 2.515976198445378e+000	 3.941601029423806e-001	 4.344405636644263e+001
1	 2.511908581636609e+000	 4.193014106518870e-001	 4.047181812972357e+001
1	 2.507575454146253e+000	 4.444813527405609e-001	 3.757814894111626e+001
1	 2.502974989484819e+000	 4.696961016061680e-001	 3.476440228186767e+001
1	 2.498105427462015e+000	 4.949417693471667e-001	 3.203202962714679e+001
1	 2.561461274277079e+000	 2.468886121675139e-001	 6.329370178832068e+001
1	 2.558918561514267e+000	 2.719812875440190e-001	 5.974475823406458e+001
1	 2.556119921504460e+000	 2.971348683789455e-001	 5.627621394143614e+001
1	 2.553063150542562e+000	 3.223458744572679e-001	 5.288873533830919e+001
1	 2.549746099339105e+000	 3.476107587414337e-001	 4.958308018274697e+001
1	 2.546166675133743e+000	 3.729259081738113e-001	 4.636009835677746e+001
1	 2.542322843805324e+000	 3.982876445501403e-001	 4.322073249762008e+001
1	 2.538212631975964e+000	 4.236922254646593e-001	 4.016601845985483e+001
1	 2.533834129106566e+000	 4.491358453274881e-001	 3.719708560222330e+001
1	 2.529185489581120e+000	 4.746146364547536e-001	 3.431515689297665e+001
1	 2.524264934777087e+000	 5.001246702318375e-001	 3.152154882793499e+001
1	 2.588006255362404e+000	 2.494471726288108e-001	 6.365565997097768e+001
1	 2.585437191913076e+000	 2.747998888654162e-001	 5.997784171257573e+001
1	 2.582609548986936e+000	 3.002141417369426e-001	 5.638883667091893e+001
1	 2.579521100041420e+000	 3.256864149621451e-001	 5.288919025763735e+001
1	 2.576169673513514e+000	 3.512131247447558e-001	 4.947953333168962e+001
1	 2.572553154955151e+000	 3.767906205842475e-001	 4.616058316345693e+001
1	 2.568669489165140e+000	 4.024151861583352e-001	 4.293314424963160e+001
1	 2.564516682315065e+000	 4.280830402778990e-001	 3.979810897237559e+001
1	 2.560092804066504e+000	 4.537903379149099e-001	 3.675645809638867e+001
1	 2.555395989676932e+000	 4.795331713038518e-001	 3.380926109772015e+001
1	 2.550424442091569e+000	 5.053075711170251e-001	 3.095767631837212e+001
1	 2.288829368928065e+000	 4.534785622704716e-001	 3.416657903471158e+001
1	 2.284118920117788e+000	 4.766374885184339e-001	 3.205682636427627e+001
1	 2.279158808371665e+000	 4.998174582029122e-001	 3.000174737941799e+001
1	 2.273947615693367e+000	 5.230147431693808e-001	 2.800255864608022e+001
1	 2.268483992241738e+000	 5.462255647562675e-001	 2.606056006651424e+001
1	 2.262766658109032e+000	 5.694460951855148e-001	 2.417713404172986e+001
1	 2.256794405071063e+000	 5.926724590196567e-001	 2.235374444538217e+001
1	 2.250566098306568e+000	 6.159007346850259e-001	 2.059193540606130e+001
1	 2.244080678083104e+000	 6.391269560606027e-001	 1.889332989534463e+001
1	 2.237337161406804e+000	 6.623471141318938e-001	 1.725962811938598e+001
1	 2.230334643633273e+000	 6.855571587091147e-001	 1.569260571224905e+001
1	 2.314988876245497e+000	 4.586614631563876e-001	 3.409160565920888e+001
1	 2.310224590735523e+000	 4.820850775934856e-001	 3.190804716434466e+001
1	 2.305207788840002e+000	 5.055299759769892e-001	 2.978292045616886e+001
1	 2.299937036356030e+000	 5.289923875425029e-001	 2.771742967043680e+001
1	 2.294410968014828e+000	 5.524684904413271e-001	 2.571285715645056e+001
1	 2.288628289280320e+000	 5.759544131469154e-001	 2.377056255402477e+001
1	 2.282587778119268e+000	 5.994462359286034e-001	 2.189198168763481e+001
1	 2.276288286740297e+000	 6.229399923922245e-001	 2.007862527500605e+001
1	 2.269728743299059e+000	 6.464316710871186e-001	 1.833207744778883e+001
1	 2.262908153566842e+000	 6.699172171789136e-001	 1.665399408237277e+001
1	 2.255825602559878e+000	 6.933925341873451e-001	 1.504610093931852e+001
1	 2.341148383562864e+000	 4.638443640416253e-001	 3.396128092965987e+001
1	 2.336330261353183e+000	 4.875326666678163e-001	 3.170521846334322e+001
1	 2.331256769308257e+000	 5.112424937503096e-001	 2.951154167344845e+001
1	 2.325926457018605e+000	 5.349700319148381e-001	 2.738141723040620e+001
1	 2.320337943787829e+000	 5.587114161255757e-001	 2.531608364946154e+001
1	 2.314489920451514e+000	 5.824627311074863e-001	 2.331685030674393e+001
1	 2.308381151167378e+000	 6.062200128367058e-001	 2.138509628098684e+001
1	 2.302010475173931e+000	 6.299792500985681e-001	 1.952226901845912e+001
1	 2.295376808514921e+000	 6.537363861127731e-001	 1.772988281904673e+001
1	 2.288479145726790e+000	 6.774873202250676e-001	 1.600951714181655e+001
1	 2.281316561486399e+000	 7.012279096647086e-001	 1.436281472880634e+001
1	 2.367307890880099e+000	 4.690272649263335e-001	 3.377588892563230e+001
1	 2.362435931970694e+000	 4.929802557415794e-001	 3.144893531170798e+001
1	 2.357305749776348e+000	 5.169550115230278e-001	 2.918849367459993e+001
1	 2.351915877681005e+000	 5.409476762865410e-001	 2.699566916370862e+001
1	 2.346264919560646e+000	 5.649543418091653e-001	 2.487163118572034e+001
1	 2.340351551622521e+000	 5.889710490673754e-001	 2.281761238389473e+001
1	 2.334174524215299e+000	 6.129937897441082e-001	 2.083490745414510e+001
1	 2.327732663607379e+000	 6.370185078041980e-001	 1.892487179579189e+001
1	 2.321024873730601e+000	 6.610411011377028e-001	 1.708891999522659e+001
1	 2.314050137886562e+000	 6.850574232704915e-001	 1.532852414109819e+001
1	 2.306807520412753e+000	 7.090632851413388e-001	 1.364521197002544e+001
1	 2.393467398197139e+000	 4.742101658106620e-001	 3.353570130725240e+001
1	 2.388541602587979e+000	 4.984278448149279e-001	 3.113976674535448e+001
1	 2.383354730244194e+000	 5.226675292952986e-001	 2.881462051540860e+001
1	 2.377905298343142e+000	 5.469253206577649e-001	 2.656128312669199e+001
1	 2.372191895333188e+000	 5.711972674922478e-001	 2.438083056542952e+001
1	 2.366213182793248e+000	 5.954793670267320e-001	 2.227439326095702e+001
1	 2.359967897262938e+000	 6.197675666509557e-001	 2.024315490245522e+001
1	 2.353454852040546e+000	 6.440577655092539e-001	 1.828835110446512e+001
1	 2.346672938946006e+000	 6.683458161620447e-001	 1.641126791972917e+001
1	 2.339621130046071e+000	 6.926275263153183e-001	 1.461324019825019e+001
1	 2.332298479338855e+000	 7.168986606173690e-001	 1.289564979182448e+001
1	 2.419626905513916e+000	 4.793930666947602e-001	 3.324097798656104e+001
1	 2.414647273204966e+000	 5.038754338880156e-001	 3.077825719194162e+001
1	 2.409403710711710e+000	 5.283800470672767e-001	 2.839072975002550e+001
1	 2.403894719004927e+000	 5.529029650286648e-001	 2.607930930698131e+001
1	 2.398118871105364e+000	 5.774401931749745e-001	 2.384495503764101e+001
1	 2.392074813963600e+000	 6.019876849857039e-001	 2.168867062176134e+001
1	 2.385761270310199e+000	 6.265413435573921e-001	 1.961150308722847e+001
1	 2.379177040473338e+000	 6.510970232138766e-001	 1.761454151876014e+001
1	 2.372321004161045e+000	 6.756505311859365e-001	 1.569891563096226e+001
1	 2.365192122205227e+000	 7.001976293596834e-001	 1.386579420491410e+001
1	 2.357789438264623e+000	 7.247340360929329e-001	 1.211638338778476e+001
1	 2.445786412830364e+000	 4.845759675787774e-001	 3.289196775578634e+001
1	 2.440752943821578e+000	 5.093230229609954e-001	 3.036492778688994e+001
1	 2.435452691178814e+000	 5.340925648391165e-001	 2.791759438302807e+001
1	 2.429884139666275e+000	 5.588806093993936e-001	 2.555075296204526e+001
1	 2.424045846877084e+000	 5.836831188574979e-001	 2.326522337801815e+001
1	 2.417936445133483e+000	 6.084960029444394e-001	 2.106185893042085e+001
1	 2.411554643356989e+000	 6.333151204635623e-001	 1.894154525916207e+001
1	 2.404899228905664e+000	 6.581362809182071e-001	 1.690519912440476e+001
1	 2.397969069375629e+000	 6.829552462095149e-001	 1.495376707034479e+001
1	 2.390763114363941e+000	 7.077677324037210e-001	 1.308822397240490e+001
1	 2.383280397189971e+000	 7.325694115681636e-001	 1.130957146758834e+001
1	 2.471945920146419e+000	 4.897588684628632e-001	 3.248890887572348e+001
1	 2.466858614437743e+000	 5.147706120340211e-001	 2.990027760583837e+001
1	 2.461501671645428e+000	 5.398050826109729e-001	 2.739595469753400e+001
1	 2.455873560327097e+000	 5.648582537701059e-001	 2.497657679657554e+001
1	 2.449972822648255e+000	 5.899260445399690e-001	 2.264280277117409e+001
1	 2.443798076302805e+000	 6.150043209030871e-001	 2.039531277646242e+001
1	 2.437348016403213e+000	 6.400888973696106e-001	 1.823480722629058e+001
1	 2.430621417337429e+000	 6.651755386223857e-001	 1.616200567162080e+001
1	 2.423617134589663e+000	 6.902599612329167e-001	 1.417764558502525e+001
1	 2.416334106522128e+000	 7.153378354475658e-001	 1.228248105102474e+001
1	 2.408771356114817e+000	 7.404047870431946e-001	 1.047728136224954e+001
1	 2.498105427462015e+000	 4.949417693471667e-001	 3.203202962714679e+001
1	 2.492964285053382e+000	 5.202182011072452e-001	 2.938478481966545e+001
1	 2.487550652111465e+000	 5.455176003830007e-001	 2.682651996845391e+001
1	 2.481862980987305e+000	 5.708358981409557e-001	 2.435770319049451e+001
1	 2.475899798418785e+000	 5.961689702225396e-001	 2.197881151191156e+001
1	 2.469659707471471e+000	 6.215126388617955e-001	 1.969033000978158e+001
1	 2.463141389448778e+000	 6.468626742756822e-001	 1.749275088519561e+001
1	 2.456343605768538e+000	 6.722147963265528e-001	 1.538657246723417e+001
1	 2.449265199803056e+000	 6.975646762562793e-001	 1.337229814769248e+001
1	 2.441905098679697e+000	 7.229079384913518e-001	 1.145043524657669e+001
1	 2.434262315039078e+000	 7.482401625181596e-001	 9.621493808582676e+000
1	 2.524264934777087e+000	 5.001246702318375e-001	 3.152154882793499e+001
1	 2.519069955668423e+000	 5.256657901808217e-001	 2.881890777769203e+001
1	 2.513599632576846e+000	 5.512301181553541e-001	 2.620997006921525e+001
1	 2.507852401646812e+000	 5.768135425120967e-001	 2.369501628842689e+001
1	 2.501826774188584e+000	 6.024118959053616e-001	 2.127432153850155e+001
1	 2.495521338639389e+000	 6.280209568207136e-001	 1.894815468066828e+001
1	 2.488934762493587e+000	 6.536364511819210e-001	 1.671677753264727e+001
1	 2.482065794198899e+000	 6.792540540308492e-001	 1.458044402477590e+001
1	 2.474913265015719e+000	 7.048693912797397e-001	 1.253939931400137e+001
1	 2.467476090836561e+000	 7.304780415352139e-001	 1.059387885604506e+001
1	 2.459753273962669e+000	 7.560755379931917e-001	 8.744107436174796e+000
1	 2.550424442091569e+000	 5.053075711170251e-001	 3.095767631837212e+001
1	 2.545175626282793e+000	 5.311133792549038e-001	 2.820308602422192e+001
1	 2.539648613041488e+000	 5.569426359281883e-001	 2.554695697960572e+001
1	 2.533841822305532e+000	 5.827911868836830e-001	 2.298936396058203e+001
1	 2.527753749957560e+000	 6.086548215885872e-001	 2.053036081005998e+001
1	 2.521382969806465e+000	 6.345292747799887e-001	 1.816997979889865e+001
1	 2.514728135537550e+000	 6.604102280884717e-001	 1.590823097344206e+001
1	 2.507787982628420e+000	 6.862933117354155e-001	 1.374510148995060e+001
1	 2.500561330227559e+000	 7.121741063034355e-001	 1.168055493645251e+001
1	 2.493047082992633e+000	 7.380481445792869e-001	 9.714530642605306e+000
1	 2.485244232885506e+000	 7.639109134684247e-001	 7.846942978223349e+000
1	 2.230334643633273e+000	 6.855571587091147e-001	 1.569260571224905e+001
1	 2.223072299479172e+000	 7.087529998691573e-001	 1.418792204937746e+001
1	 2.215549382871506e+000	 7.319305087471114e-001	 1.274021483937522e+001
1	 2.207765230096631e+000	 7.550855204020772e-001	 1.134981836246375e+001
1	 2.199719261790046e+000	 7.782138361143607e-001	 1.001711441405032e+001
1	 2.191410984317160e+000	 8.013112254104075e-001	 8.742532004755535e+000
1	 2.182839991099376e+000	 8.243734281452965e-001	 7.526546944421388e+000
1	 2.174005963882928e+000	 8.473961566412124e-001	 6.369681308348392e+000
1	 2.164908673947971e+000	 8.703750978801975e-001	 5.272502784279465e+000
1	 2.155547983255453e+000	 8.933059157493628e-001	 4.235623898930661e+000
1	 2.145923845529373e+000	 9.161842533366132e-001	 3.259701123161488e+000
1	 2.255825602559878e+000	 6.933925341873451e-001	 1.504610093931852e+001
1	 2.248480255562493e+000	 7.168534854447088e-001	 1.350386611952901e+001
1	 2.240871357974673e+000	 7.402958948964447e-001	 1.202171512119840e+001
1	 2.232998238497061e+000	 7.637155499996891e-001	 1.059989529289737e+001
1	 2.224860311143484e+000	 7.871082040467171e-001	 9.238699641080290e+000
1	 2.216457076637509e+000	 8.104695782130247e-001	 7.938466658728068e+000
1	 2.207788123753673e+000	 8.337953636636194e-001	 6.699580042615615e+000
1	 2.198853130600829e+000	 8.570812237159357e-001	 5.522468297263819e+000
1	 2.189651865845055e+000	 8.803227960576487e-001	 4.407604223890988e+000
1	 2.180184189869628e+000	 9.035156950175444e-001	 3.355504292946153e+000
1	 2.170450055869658e+000	 9.266555138874861e-001	 2.366727899085236e+000
1	 2.281316561486399e+000	 7.012279096647086e-001	 1.436281472880634e+001
1	 2.273888211645736e+000	 7.249539710193941e-001	 1.278507332209996e+001
1	 2.266193333077769e+000	 7.486612810449148e-001	 1.127055394312876e+001
1	 2.258231246897426e+000	 7.723455795964405e-001	 9.819422593227525e+000
1	 2.250001360496865e+000	 7.960025719782181e-001	 8.431888084255149e+000
1	 2.241503168957809e+000	 8.196279310147910e-001	 7.108201973825579e+000
1	 2.232736256407929e+000	 8.432172991810966e-001	 5.848658395172356e+000
1	 2.223700297318700e+000	 8.667662907898179e-001	 4.653593779588793e+000
1	 2.214395057742118e+000	 8.902704942342625e-001	 3.523386469623209e+000
1	 2.204820396483794e+000	 9.137254742848917e-001	 2.458456221460658e+000
1	 2.194976266209943e+000	 9.371267744375259e-001	 1.459263595182828e+000
1	 2.306807520412753e+000	 7.090632851413388e-001	 1.364521197002544e+001
1	 2.299296167728821e+000	 7.330544565933477e-001	 1.203412711963425e+001
1	 2.291515308180721e+000	 7.570266671926574e-001	 1.048940829305619e+001
1	 2.283464255297661e+000	 7.809756091924723e-001	 9.011145548836868e+000
1	 2.275142409850133e+000	 8.048969399090080e-001	 7.599467939453965e+000
1	 2.266549261278012e+000	 8.287862838158566e-001	 6.254543531563537e+000
1	 2.257684389062107e+000	 8.526392346978825e-001	 4.976579328234037e+000
1	 2.248547464036510e+000	 8.764513578630184e-001	 3.765821091060376e+000
1	 2.239138249639141e+000	 9.002181924102024e-001	 2.622553060270362e+000
1	 2.229456603097937e+000	 9.239352535515704e-001	 1.547097571166818e+000
1	 2.219502476550226e+000	 9.475980349868982e-001	 5.398145654923607e-001
1	 2.332298479338855e+000	 7.168986606173690e-001	 1.289564979182448e+001
1	 2.324704123811673e+000	 7.411549421667038e-001	 1.125349803040653e+001
1	 2.316837283283455e+000	 7.653920533398096e-001	 9.680838125844156e+000
1	 2.308697263697703e+000	 7.896056387879249e-001	 8.177689426240034e+000
1	 2.300283459203230e+000	 8.137913078392319e-001	 6.744105507719300e+000
1	 2.291595353598070e+000	 8.379446366163708e-001	 5.380174258552863e+000
1	 2.282632521716166e+000	 8.620611702141319e-001	 4.086017873948417e+000
1	 2.273394630754231e+000	 8.861364249356956e-001	 2.861792759419626e+000
1	 2.263881441536102e+000	 9.101658905856304e-001	 1.707689340843723e+000
1	 2.254092809712048e+000	 9.341450328177450e-001	 6.239317795278998e-001
1	 2.244028686890507e+000	 9.580692955357705e-001	-3.892224091734260e-001
1	 2.357789438264623e+000	 7.247340360929329e-001	 1.211638338778476e+001
1	 2.350112079894210e+000	 7.492554277395965e-001	 1.044554973383957e+001
1	 2.342159258385902e+000	 7.737574394865083e-001	 8.847292689772569e+000
1	 2.333930272097482e+000	 7.982356683829374e-001	 7.321565960932012e+000
1	 2.325424508556097e+000	 8.226856757690343e-001	 5.868351784514692e+000
1	 2.316641445917932e+000	 8.471029894164828e-001	 4.487661056844117e+000
1	 2.307580654370066e+000	 8.714831057299988e-001	 3.179533381303216e+000
1	 2.298241797471829e+000	 8.958214920080092e-001	 1.944037034917530e+000
1	 2.288624633432979e+000	 9.201135887607101e-001	 7.812688517615759e-001
1	 2.278729016326116e+000	 9.443548120835820e-001	-3.086459784512596e-001
1	 2.268554897230787e+000	 9.685405560843096e-001	-1.325554198037884e+000
1	 2.383280397189971e+000	 7.325694115681636e-001	 1.130957146758834e+001
1	 2.375520035976356e+000	 7.573559133121597e-001	 9.612544784109753e+000
1	 2.367481233487989e+000	 7.821228256328895e-001	 7.991116446984668e+000
1	 2.359163280496938e+000	 8.068656979776510e-001	 6.445179428882165e+000
1	 2.350565557908681e+000	 8.315800436985599e-001	 4.974648626119897e+000
1	 2.341687538237552e+000	 8.562613422163423e-001	 3.579461008773104e+000
1	 2.332528787023769e+000	 8.809050412456384e-001	 2.259575702714005e+000
1	 2.323088964189278e+000	 9.055065590801182e-001	 1.014974001729597e+000
1	 2.313367825329754e+000	 9.300612869356039e-001	-1.543406919837553e-001
1	 2.303365222940131e+000	 9.545645913492464e-001	-1.248343000486165e+000
1	 2.293081107571061e+000	 9.790118166326809e-001	-2.266985777288809e+000
1	 2.408771356114817e+000	 7.404047870431946e-001	 1.047728136224954e+001
1	 2.400927992058032e+000	 7.654563988845280e-001	 8.756649960965298e+000
1	 2.392803208589645e+000	 7.904882117790897e-001	 7.114554618013247e+000
1	 2.384396288896006e+000	 8.154957275722057e-001	 5.550832332516890e+000
1	 2.375706607260921e+000	 8.404744116279526e-001	 4.065334524488946e+000
1	 2.366733630556880e+000	 8.654196950160988e-001	 2.657927187827605e+000
1	 2.357476919677233e+000	 8.903269767612047e-001	 1.328490987792583e+000
1	 2.347936130906541e+000	 9.151916261521809e-001	 7.692130132377185e-002
1	 2.338111017226406e+000	 9.400089851104752e-001	-1.096871801308193e+000
1	 2.328001429554082e+000	 9.647743706149041e-001	-2.192963634895768e+000
1	 2.317607317911332e+000	 9.894830771810523e-001	-3.211415038965841e+000
1	 2.434262315039078e+000	 7.482401625181596e-001	 9.621493808582676e+000
1	 2.426335948139160e+000	 7.735568844568357e-001	 7.879941284350243e+000
1	 2.418125183690795e+000	 7.988535979252458e-001	 6.219758377941570e+000
1	 2.409629297294618e+000	 8.241257571667410e-001	 4.640730729449348e+000
1	 2.400847656612762e+000	 8.493687795573580e-001	 3.142650019271064e+000
1	 2.391779722875867e+000	 8.745780478159020e-001	 1.725314104414842e+000
1	 2.382425052330418e+000	 8.997489122768517e-001	 3.885271130902827e-001
1	 2.372783297623596e+000	 9.248766932243574e-001	-8.679005037729453e-001
1	 2.362854209122914e+000	 9.499566832854866e-001	-2.044151965338146e+000
1	 2.352637636167958e+000	 9.749841498807208e-001	-3.140404199159579e+000
1	 2.342133528251599e+000	 9.999543377295894e-001	-4.156827926007862e+000
1	 2.459753273962669e+000	 7.560755379931917e-001	 8.744107436174796e+000
1	 2.451743904219661e+000	 7.816573700292162e-001	 6.984408717222548e+000
1	 2.443447158791370e+000	 8.072189840714945e-001	 5.308789729470989e+000
1	 2.434862305692713e+000	 8.327557867613982e-001	 3.716989229872620e+000
1	 2.425988705964147e+000	 8.582631474869201e-001	 2.208742773316262e+000
1	 2.416825815194466e+000	 8.837364006159015e-001	 7.837828130147967e-001
1	 2.407373184983288e+000	 9.091708477927348e-001	-5.581612257762700e-001
1	 2.397630464340407e+000	 9.345617602968064e-001	-1.817362899723701e+000
1	 2.387597401019257e+000	 9.599043814608010e-001	-2.994098730011073e+000
1	 2.377273842781749e+000	 9.851939291468613e-001	-4.088648214435487e+000
1	 2.366659738591859e+000	 1.010425598278460e+000	-5.101293869799622e+000
1	 2.485244232885506e+000	 7.639109134684247e-001	 7.846942978223349e+000
1	 2.477151860299458e+000	 7.897578556018046e-001	 6.071960578953543e+000
1	 2.468769133891298e+000	 8.155843702179724e-001	 4.383626076092158e+000
1	 2.460095314090223e+000	 8.413858163563166e-001	 2.781635686405414e+000
1	 2.451129755315018e+000	 8.671575154167841e-001	 1.265672335826199e+000
1	 2.441871907512629e+000	 8.928947534162470e-001	-1.645942949683612e-001
1	 2.432321317635803e+000	 9.185927833090084e-001	-1.509507735376762e+000
1	 2.422477631056948e+000	 9.442468273696871e-001	-2.769424700699815e+000
1	 2.412340592915415e+000	 9.698520796365817e-001	-3.944715079546566e+000
1	 2.401910049395445e+000	 9.954037084134922e-001	-5.035761933352561e+000
1	 2.391185948932115e+000	 1.020896858827830e+000	-6.042961508498897e+000
1	 2.145923845529373e+000	 9.161842533366132e-001	 3.259701123161488e+000
1	 2.136037810352666e+000	 9.390023168969390e-001	 2.339461416536112e+000
1	 2.125888595480185e+000	 9.617591535682968e-001	 1.469138404954430e+000
1	 2.115476437276295e+000	 9.844503614784820e-001	 6.491364128875889e-001
1	 2.104801667440269e+000	 1.007071527655773e+000	-1.201003322749940e-001
1	 2.093864713729079e+000	 1.029618230541540e+000	-8.380881851902149e-001
1	 2.082666100602788e+000	 1.052086042539205e+000	-1.504304667868997e+000
1	 2.071206449790665e+000	 1.074470532596845e+000	-2.118189155862587e+000
1	 2.059486480776334e+000	 1.096767268820616e+000	-2.679143665600848e+000
1	 2.047507011200339e+000	 1.118971821116124e+000	-3.186533742889157e+000
1	 2.035268957178629e+000	 1.141079763854727e+000	-3.639689452297223e+000
1	 2.170450055869658e+000	 9.266555138874861e-001	 2.366727899085235e+000
1	 2.160451031138595e+000	 9.497343698461394e-001	 1.435901908507922e+000
1	 2.150185818776248e+000	 9.727512991410006e-001	 5.572785648247479e-001
1	 2.139654657848451e+000	 9.957018495899493e-001	-2.686512781943750e-001
1	 2.128857883845541e+000	 1.018581557784486e+000	-1.041355702066333e+000
1	 2.117795929413422e+000	 1.041385951631064e+000	-1.760262337471778e+000
1	 2.106469325006327e+000	 1.064110552929180e+000	-2.424759083099447e+000
1	 2.094878699459406e+000	 1.086750879983490e+000	-3.034194929803005e+000
1	 2.083024780479415e+000	 1.109302450247109e+000	-3.587880890138818e+000
1	 2.070908395051891e+000	 1.131760782993169e+000	-4.085091033070571e+000
1	 2.058530469763273e+000	 1.154121402011593e+000	-4.525063623339983e+000
1	 2.194976266209943e+000	 9.371267744375259e-001	 1.459263595182828e+000
1	 2.184864251924532e+000	 9.604664227945057e-001	 5.203407346981703e-001
1	 2.174483042072331e+000	 9.837434447128692e-001	-3.640442938403904e-001
1	 2.163832878420640e+000	 1.006953337700580e+000	-1.193330636951915e+000
1	 2.152914100250859e+000	 1.030091587912363e+000	-1.966915979011407e+000
1	 2.141727145097828e+000	 1.053153672719756e+000	-2.684157269497708e+000
1	 2.130272549409948e+000	 1.076135063318328e+000	-3.344371558297232e+000
1	 2.118550949128249e+000	 1.099031227369320e+000	-3.946836939226124e+000
1	 2.106563080182627e+000	 1.121837631672806e+000	-4.490793601647245e+000
1	 2.094309778903607e+000	 1.144549744869444e+000	-4.975444989764488e+000
1	 2.081791982348114e+000	 1.167163040167724e+000	-5.399959068879768e+000
1	 2.219502476550226e+000	 9.475980349868982e-001	 5.398145654923604e-001
1	 2.209277472710488e+000	 9.711984757422032e-001	-4.048480343455925e-001
1	 2.198780265368454e+000	 9.947355902840656e-001	-1.292603743471695e+000
1	 2.188011098992888e+000	 1.018204825810533e+000	-2.122837784689611e+000
1	 2.176970316656258e+000	 1.041601618039557e+000	-2.894894268571750e+000
1	 2.165658360782336e+000	 1.064921393807760e+000	-3.608077018811061e+000
1	 2.154075773813694e+000	 1.088159573706788e+000	-4.261650507205569e+000
1	 2.142223198797243e+000	 1.111311574754465e+000	-4.854840898266112e+000
1	 2.130101379886014e+000	 1.134372813097828e+000	-5.386837203143390e+000
1	 2.117711162755524e+000	 1.157338706745061e+000	-5.856792542270072e+000
1	 2.105053494933187e+000	 1.180204678323221e+000	-6.263825515809849e+000
1	 2.244028686890507e+000	 9.580692955357705e-001	-3.892224091734260e-001
1	 2.233690693496472e+000	 9.819305286893982e-001	-1.337394118108453e+000
1	 2.223077488664634e+000	 1.005727735854752e+000	-2.226270691851215e+000
1	 2.212189319565223e+000	 1.029456313919966e+000	-3.055199071723239e+000
1	 2.201026533061774e+000	 1.053111648166220e+000	-3.823486167796014e+000
1	 2.189589576466989e+000	 1.076689114895224e+000	-4.530399767340005e+000
1	 2.177878998217611e+000	 1.100184084094699e+000	-5.175169552998360e+000
1	 2.165895448466434e+000	 1.123591922139056e+000	-5.756988230511428e+000
1	 2.153639679589622e+000	 1.146907994522294e+000	-6.275012765520200e+000
1	 2.141112546607686e+000	 1.170127668620127e+000	-6.728365728674048e+000
1	 2.128315007518526e+000	 1.193246316478183e+000	-7.116136747961838e+000
1	 2.268554897230787e+000	 9.685405560843096e-001	-1.325554198037884e+000
1	 2.258103914282494e+000	 9.926625816362567e-001	-2.275125415540510e+000
1	 2.247374711960891e+000	 1.016719881425092e+000	-3.163008120464466e+000
1	 2.236367540137673e+000	 1.040707802029039e+000	-3.988526199878962e+000
1	 2.225082749467440e+000	 1.064621678292507e+000	-4.750965306080176e+000
1	 2.213520792151827e+000	 1.088456835982292e+000	-5.449573833381874e+000
1	 2.201682222621746e+000	 1.112208594482198e+000	-6.083564003260358e+000
1	 2.189567698135869e+000	 1.135872269523220e+000	-6.652113057524375e+000
1	 2.177177979293499e+000	 1.159443175946325e+000	-7.154364558882357e+000
1	 2.164513930460135e+000	 1.182916630494756e+000	-7.589429797978402e+000
1	 2.151576520104164e+000	 1.206287954632712e+000	-7.956389305661913e+000
1	 2.293081107571061e+000	 9.790118166326809e-001	-2.266985777288807e+000
1	 2.282517135068562e+000	 1.003394634582944e+000	-3.215962754544173e+000
1	 2.271671935257244e+000	 1.027712026995249e+000	-4.100866160516452e+000
1	 2.260545760710265e+000	 1.051959290137911e+000	-4.921011658003388e+000
1	 2.249138965873294e+000	 1.076131708418570e+000	-5.675679172097122e+000
1	 2.237452007836891e+000	 1.100224557069113e+000	-6.364113920799659e+000
1	 2.225485447026142e+000	 1.124233104869425e+000	-6.985527551183541e+000
1	 2.213239947805595e+000	 1.148152616907090e+000	-7.539099380620513e+000
1	 2.200716278997688e+000	 1.171978357370042e+000	-8.023977742307620e+000
1	 2.187915314312909e+000	 1.195705592369057e+000	-8.439281434023037e+000
1	 2.174838032690135e+000	 1.219329592786908e+000	-8.784101268742763e+000
1	 2.317607317911332e+000	 9.894830771810523e-001	-3.211415038965841e+000
1	 2.306930355854685e+000	 1.014126687529626e+000	-4.157914974844776e+000
1	 2.295969158553711e+000	 1.038704172565387e+000	-5.037977481597265e+000
1	 2.284723981283027e+000	 1.063210778246740e+000	-5.850924447297476e+000
1	 2.273195182279369e+000	 1.087641738544563e+000	-6.596045205696774e+000
1	 2.261383223522225e+000	 1.111992278155832e+000	-7.272597606377012e+000
1	 2.249288671430845e+000	 1.136257615256517e+000	-7.879809186222195e+000
1	 2.236912197475659e+000	 1.160432964290793e+000	-8.416878441592303e+000
1	 2.224254578702236e+000	 1.184513538793563e+000	-8.882976200297508e+000
1	 2.211316698166055e+000	 1.208494554243140e+000	-9.277247092181034e+000
1	 2.198099545276473e+000	 1.232371230940871e+000	-9.598811116828344e+000
1	 2.342133528251599e+000	 9.999543377295894e-001	-4.156827926007862e+000
1	 2.331343576640874e+000	 1.024858740476468e+000	-5.099074319806368e+000
1	 2.320266381850311e+000	 1.049696318135667e+000	-5.972552970080160e+000
1	 2.308902201855987e+000	 1.074462266355686e+000	-6.776606075229573e+000
1	 2.297251398685700e+000	 1.099151768670638e+000	-7.510547135353836e+000
1	 2.285314439207865e+000	 1.123759999242595e+000	-8.173662047874208e+000
1	 2.273091895835900e+000	 1.148282125643612e+000	-8.765210298852798e+000
1	 2.260584447146108e+000	 1.172713311674460e+000	-9.284426249259417e+000
1	 2.247792878407190e+000	 1.197048720217011e+000	-9.730520515164706e+000
1	 2.234718082019611e+000	 1.221283516117117e+000	-1.010268144056021e+001
1	 2.221361057863212e+000	 1.245412869094703e+000	-1.040007666122752e+001
1	 2.366659738591859e+000	 1.010425598278460e+000	-5.101293869799622e+000
1	 2.355756797427137e+000	 1.035590793423637e+000	-6.037612114781389e+000
1	 2.344563605147063e+000	 1.060688463706254e+000	-6.902877676233524e+000
1	 2.333080422429172e+000	 1.085713754464907e+000	-7.696466798544133e+000
1	 2.321307615092325e+000	 1.110661798796949e+000	-8.417731543350392e+000
1	 2.309245654893859e+000	 1.135527720329549e+000	-9.066000896774852e+000
1	 2.296895120241353e+000	 1.160306636030850e+000	-9.640581965358011e+000
1	 2.284256696816990e+000	 1.184993659058219e+000	-1.014076125981639e+001
1	 2.271331178112595e+000	 1.209583901640504e+000	-1.056580606549598e+001
1	 2.258119465873619e+000	 1.234072477991097e+000	-1.091496589812946e+001
1	 2.244622570450384e+000	 1.258454507248503e+000	-1.118747404324185e+001
1	 2.391185948932115e+000	 1.020896858827830e+000	-6.042961508498897e+000
1	 2.380170018213486e+000	 1.046322846371298e+000	-6.971774711421116e+000
1	 2.368860828443987e+000	 1.071680609277310e+000	-7.827307010754156e+000
1	 2.357258643002612e+000	 1.096965242574563e+000	-8.608982097481514e+000
1	 2.345363831499277e+000	 1.122171828923650e+000	-9.316204642342591e+000
1	 2.333176870580242e+000	 1.147295441416840e+000	-9.948361401027091e+000
1	 2.320698344647250e+000	 1.172331146418369e+000	-1.050482239970923e+001
1	 2.307928946488350e+000	 1.197274006442202e+000	-1.098494219993539e+001
1	 2.294869477818497e+000	 1.222119083064165e+000	-1.138806124163880e+001
1	 2.281520849728123e+000	 1.246861439865192e+000	-1.171350726281124e+001
1	 2.267884083038025e+000	 1.271496145402371e+000	-1.196059679411902e+001
1	 2.035268957178629e+000	 1.141079763854727e+000	-3.639689452297223e+000
1	 2.022771440011766e+000	 1.163089972340299e+000	-4.049262776592764e+000
1	 2.010017391776478e+000	 1.184994713164319e+000	-4.426226717725566e+000
1	 1.997008027266777e+000	 1.206789589643860e+000	-4.770588582329697e+000
1	 1.983744660202318e+000	 1.228470220469227e+000	-5.082395805971406e+000
1	 1.970228703106179e+000	 1.250032242448504e+000	-5.361735984065166e+000
1	 1.956461667092249e+000	 1.271471313257540e+000	-5.608736842504701e+000
1	 1.942445161561669e+000	 1.292783114191905e+000	-5.823566147580941e+000
1	 1.928180893807916e+000	 1.313963352917359e+000	-6.006431554897802e+000
1	 1.913670668530300e+000	 1.335007766215311e+000	-6.157580397140724e+000
1	 1.898916387255753e+000	 1.355912122719749e+000	-6.277299410696178e+000
1	 2.058530469763273e+000	 1.154121402011593e+000	-4.525063623339982e+000
1	 2.045890115871281e+000	 1.176383169751865e+000	-4.919341221789309e+000
1	 2.032990298963952e+000	 1.198538264418723e+000	-5.279806404411672e+000
1	 2.019832247719413e+000	 1.220582239078633e+000	-5.606399450564417e+000
1	 2.006417290872079e+000	 1.242510662346993e+000	-5.899104942223567e+000
1	 1.992746857089031e+000	 1.264319121164056e+000	-6.157951920980039e+000
1	 1.978822474754979e+000	 1.286003223576338e+000	-6.383013978527167e+000
1	 1.964645771665227e+000	 1.307558601520036e+000	-6.574409279900091e+000
1	 1.950218474626249e+000	 1.328980913602921e+000	-6.732300518880837e+000
1	 1.935542408963624e+000	 1.350265847881186e+000	-6.856894805138809e+000
1	 1.920619497937211e+000	 1.371409124627651e+000	-6.948443482835835e+000
1	 2.081791982348114e+000	 1.167163040167724e+000	-5.399959068879768e+000
1	 2.069008791731038e+000	 1.189676367162741e+000	-5.776827596950422e+000
1	 2.055963206151714e+000	 1.212081815672490e+000	-6.118898538183609e+000
1	 2.042656468172388e+000	 1.234374888512827e+000	-6.426061362879836e+000
1	 2.029089921542231e+000	 1.256551104224243e+000	-6.698253260816395e+000
1	 2.015265011072332e+000	 1.278605999879157e+000	-6.935459394189818e+000
1	 2.001183282418213e+000	 1.300535133894753e+000	-7.137713078872738e+000
1	 1.986846381769342e+000	 1.322334088847847e+000	-7.305095893005555e+000
1	 1.972256055445192e+000	 1.343998474288225e+000	-7.437737712107914e+000
1	 1.957414149397602e+000	 1.365523929546859e+000	-7.535816670061681e+000
1	 1.942322608619367e+000	 1.386906126535401e+000	-7.599559045489910e+000
1	 2.105053494933187e+000	 1.180204678323221e+000	-6.263825515809850e+000
1	 2.092127467591057e+000	 1.202969564573016e+000	-6.621419928352449e+000
1	 2.078936113339772e+000	 1.225625366925698e+000	-6.943429185593289e+000
1	 2.065480688625693e+000	 1.248167537946512e+000	-7.229707731060521e+000
1	 2.051762552212749e+000	 1.270591546101038e+000	-7.480160404217123e+000
1	 2.037783165056030e+000	 1.292892878593861e+000	-7.694742759766624e+000
1	 2.023544090081879e+000	 1.315067044212827e+000	-7.873461311124991e+000
1	 2.009046991873926e+000	 1.337109576175375e+000	-8.016373696909092e+000
1	 1.994293636264635e+000	 1.359016034973300e+000	-8.123588769464842e+000
1	 1.979285889832116e+000	 1.380782011212353e+000	-8.195266604635823e+000
1	 1.964025719302089e+000	 1.402403128443017e+000	-8.231618432153725e+000
1	 2.128315007518526e+000	 1.193246316478183e+000	-7.116136747961837e+000
1	 2.115246143451361e+000	 1.216262761982781e+000	-7.452829444014180e+000
1	 2.101909020528132e+000	 1.239168918178429e+000	-7.753327645430411e+000
1	 2.088304909079315e+000	 1.261960187379757e+000	-8.017466134373574e+000
1	 2.074435182883600e+000	 1.284631987977440e+000	-8.245132040709818e+000
1	 2.060301319040078e+000	 1.307179757308217e+000	-8.436265198621118e+000
1	 2.045904897745909e+000	 1.329598954530604e+000	-8.590858424247298e+000
1	 2.031247601978889e+000	 1.351885063502655e+000	-8.708957713106923e+000
1	 2.016331217084475e+000	 1.374033595658174e+000	-8.790662356224949e+000
1	 2.001157630267043e+000	 1.396040092877691e+000	-8.836124974080528e+000
1	 1.985728829985244e+000	 1.417900130350513e+000	-8.845551467677511e+000
1	 2.151576520104164e+000	 1.206287954632712e+000	-7.956389305661911e+000
1	 2.138364819311972e+000	 1.229555959392127e+000	-8.270779860051606e+000
1	 2.124881927716801e+000	 1.252712469430764e+000	-8.548526273997787e+000
1	 2.111129129533247e+000	 1.275752836812638e+000	-8.789458634856642e+000
1	 2.097107813554756e+000	 1.298672429853509e+000	-8.993460619796737e+000
1	 2.082819473024427e+000	 1.321466636022281e+000	-9.160469861166298e+000
1	 2.068265705410237e+000	 1.344130864848129e+000	-9.290478230748470e+000
1	 2.053448212084144e+000	 1.366660550829724e+000	-9.383532041619869e+000
1	 2.038368797904605e+000	 1.389051156342877e+000	-9.439732166511792e+000
1	 2.023029370702263e+000	 1.411298174542895e+000	-9.459234071763506e+000
1	 2.007431940668699e+000	 1.433397132257910e+000	-9.442247766152050e+000
1	 2.174838032690135e+000	 1.219329592786908e+000	-8.784101268742761e+000
1	 2.161483495172912e+000	 1.242849156801144e+000	-9.075006712830417e+000
1	 2.147854834905787e+000	 1.266256020682782e+000	-9.328960321599467e+000
1	 2.133953349987477e+000	 1.289545486245221e+000	-9.545802072372315e+000
1	 2.119780444226189e+000	 1.312712871729308e+000	-9.725426079121810e+000
1	 2.105337627009026e+000	 1.335753514736103e+000	-9.867780938523055e+000
1	 2.090626513074790e+000	 1.358662775165445e+000	-9.972869993731452e+000
1	 2.075648822189603e+000	 1.381436038156617e+000	-1.004075151463431e+001
1	 2.060406378724920e+000	 1.404068717027437e+000	-1.007153879351178e+001
1	 2.044901111137655e+000	 1.426556256207987e+000	-1.006540015523499e+001
1	 2.029135051352321e+000	 1.448894134165222e+000	-1.002255888132881e+001
1	 2.198099545276473e+000	 1.232371230940871e+000	-9.598811116828344e+000
1	 2.184602171034203e+000	 1.256142354209923e+000	-9.865256733523868e+000
1	 2.170827742095097e+000	 1.279799571934566e+000	-1.009456777941127e+001
1	 2.156777570441994e+000	 1.303338135677579e+000	-1.028660834092815e+001
1	 2.142453074897868e+000	 1.326753313604898e+000	-1.044129650650812e+001
1	 2.127855780993828e+000	 1.350040393449737e+000	-1.055860466570912e+001
1	 2.112987320739501e+000	 1.373194685482595e+000	-1.063855972587072e+001
1	 2.097849432295178e+000	 1.396211525483370e+000	-1.068124324514497e+001
1	 2.082443959545315e+000	 1.419086277711884e+000	-1.068679148093686e+001
1	 2.066772851573099e+000	 1.441814337872990e+000	-1.065539535298317e+001
1	 2.050838162035976e+000	 1.464391136072466e+000	-1.058730032049841e+001
1	 2.221361057863212e+000	 1.245412869094703e+000	-1.040007666122752e+001
1	 2.207720846895866e+000	 1.269435551618553e+000	-1.064128726196732e+001
1	 2.193800649284738e+000	 1.293343123186194e+000	-1.084528923597230e+001
1	 2.179601790896790e+000	 1.317130785109783e+000	-1.101198464763517e+001
1	 2.165125705569764e+000	 1.340793755480339e+000	-1.114132876039897e+001
1	 2.150373934978783e+000	 1.364327272163235e+000	-1.123333026179726e+001
1	 2.135348128404301e+000	 1.387726595799625e+000	-1.128805140677449e+001
1	 2.120050042400781e+000	 1.410987012810021e+000	-1.130560807829553e+001
1	 2.104481540365684e+000	 1.434103838396246e+000	-1.128616976444218e+001
1	 2.088644592008472e+000	 1.457072419537926e+000	-1.122995945138736e+001
1	 2.072541272719534e+000	 1.479888137979660e+000	-1.113725343183634e+001
1	 2.244622570450384e+000	 1.258454507248503e+000	-1.118747404324185e+001
1	 2.230839522757925e+000	 1.282728749027127e+000	-1.140286569695894e+001
1	 2.216773556474716e+000	 1.306886674437748e+000	-1.158106774259995e+001
1	 2.202426011351853e+000	 1.330923434541904e+000	-1.172203375556460e+001
1	 2.187798336241849e+000	 1.354834197355695e+000	-1.182576905172079e+001
1	 2.172892088963843e+000	 1.378614150876649e+000	-1.189233081161516e+001
1	 2.157708936069120e+000	 1.402258506116577e+000	-1.192182812465204e+001
1	 2.142250652506323e+000	 1.425762500136603e+000	-1.191442195247610e+001
1	 2.126519121185921e+000	 1.449121399080551e+000	-1.187032501098140e+001
1	 2.110516332443655e+000	 1.472330501202817e+000	-1.178980157055949e+001
1	 2.094244383402860e+000	 1.495385139886820e+000	-1.167316717439460e+001
1	 2.267884083038025e+000	 1.271496145402371e+000	-1.196059679411902e+001
1	 2.253958198620401e+000	 1.296021946435735e+000	-1.214976898038975e+001
1	 2.239746463665040e+000	 1.320430225689309e+000	-1.230184868708727e+001
1	 2.225250231807174e+000	 1.344716083974012e+000	-1.241685421165899e+001
1	 2.210470966914092e+000	 1.368874639231026e+000	-1.249485348993681e+001
1	 2.195410242948957e+000	 1.392901029590033e+000	-1.253596409318399e+001
1	 2.180069743733891e+000	 1.416790416433498e+000	-1.254035314772126e+001
1	 2.164451262611717e+000	 1.440537987463155e+000	-1.250823717665659e+001
1	 2.148556702005920e+000	 1.464138959764830e+000	-1.243988186342783e+001
1	 2.132388072878528e+000	 1.487588582867686e+000	-1.233560173705215e+001
1	 2.115947494085821e+000	 1.510882141793964e+000	-1.219575977916559e+001
1	 1.898916387255753e+000	 1.355912122719749e+000	-6.277299410696178e+000
1	 1.883920047133223e+000	 1.376672225183124e+000	-6.371448352247944e+000
1	 1.868683738580113e+000	 1.397283911780662e+000	-6.445979807308672e+000
1	 1.853209646065358e+000	 1.417743060129417e+000	-6.501375214077852e+000
1	 1.837500047710095e+000	 1.438045590410163e+000	-6.538150353416667e+000
1	 1.821557314259136e+000	 1.458187468011342e+000	-6.556854728531057e+000
1	 1.805383907963363e+000	 1.478164706143358e+000	-6.558070887768510e+000
1	 1.788982381374034e+000	 1.497973368419745e+000	-6.542413691588658e+000
1	 1.772355376050134e+000	 1.517609571401743e+000	-6.510529524911655e+000
1	 1.755505621180099e+000	 1.537069487102882e+000	-6.463095456187014e+000
1	 1.738435932119337e+000	 1.556349345450221e+000	-6.400818344663155e+000
1	 1.920619497937211e+000	 1.371409124627651e+000	-6.948443482835835e+000
1	 1.905451761521779e+000	 1.392406498623549e+000	-7.012857679679418e+000
1	 1.890041314026554e+000	 1.413253760477749e+000	-7.056357164767020e+000
1	 1.874390364887229e+000	 1.433946740691739e+000	-7.079720392228547e+000
1	 1.858501218262075e+000	 1.454481312817197e+000	-7.083766434314400e+000
1	 1.842376271991649e+000	 1.474853396130154e+000	-7.069353835419546e+000
1	 1.826018016468425e+000	 1.495058958275174e+000	-7.037379395790577e+000
1	 1.809429033417307e+000	 1.515094017876017e+000	-6.988776887044856e+000
1	 1.792611994588221e+000	 1.534954647109299e+000	-6.924515701813253e+000
1	 1.775569660362075e+000	 1.554636974237704e+000	-6.845599439992689e+000
1	 1.758304878271573e+000	 1.574137186099347e+000	-6.753064434263264e+000
1	 1.942322608619367e+000	 1.386906126535401e+000	-7.599559045489910e+000
1	 1.926983475911071e+000	 1.408140772063864e+000	-7.634933909921423e+000
1	 1.911398889473760e+000	 1.429223609174760e+000	-7.648380527659933e+000
1	 1.895571083709891e+000	 1.450150421254014e+000	-7.640901384386905e+000
1	 1.879502388814862e+000	 1.470917035224207e+000	-7.613544332724013e+000
1	 1.863195229724980e+000	 1.491519324248966e+000	-7.567401040217154e+000
1	 1.846652124974304e+000	 1.511953210407013e+000	-7.503605356772122e+000
1	 1.829875685461390e+000	 1.532214667332336e+000	-7.423331604502329e+000
1	 1.812868613127101e+000	 1.552299722816931e+000	-7.327792793159645e+000
1	 1.795633699544820e+000	 1.572204461372635e+000	-7.218238764521403e+000
1	 1.778173824424543e+000	 1.591925026748623e+000	-7.095954269299663e+000
1	 1.964025719302089e+000	 1.402403128443017e+000	-8.231618432153725e+000
1	 1.948515190300958e+000	 1.423875045504080e+000	-8.238672041221079e+000
1	 1.932756464921588e+000	 1.445193457871702e+000	-8.223034481355105e+000
1	 1.916751802533197e+000	 1.466354101816246e+000	-8.185861683987762e+000
1	 1.900503559368311e+000	 1.487352757631197e+000	-8.128358204904384e+000
1	 1.884014187458984e+000	 1.508185252367777e+000	-8.051775383495366e+000
1	 1.867286233480865e+000	 1.528847462538872e+000	-7.957409414372675e+000
1	 1.850322337506154e+000	 1.549335316788698e+000	-7.846599334906256e+000
1	 1.833125231666656e+000	 1.569644798524630e+000	-7.720724932467915e+000
1	 1.815697738728223e+000	 1.589771948507662e+000	-7.581204575390375e+000
1	 1.798042770578147e+000	 1.609712867398032e+000	-7.429492971859736e+000
1	 1.985728829985244e+000	 1.417900130350513e+000	-8.845551467677510e+000
1	 1.970046904691298e+000	 1.439609318944210e+000	-8.825023572318406e+000
1	 1.954114040369892e+000	 1.461163306568586e+000	-8.781260566944935e+000
1	 1.937932521356998e+000	 1.482557782378439e+000	-8.715503536655028e+000
1	 1.921504729922277e+000	 1.503788480038169e+000	-8.629043990598037e+000
1	 1.904833145193523e+000	 1.524851180486588e+000	-8.523221847593566e+000
1	 1.887920341987970e+000	 1.545741714670747e+000	-8.399423330116715e+000
1	 1.870768989551473e+000	 1.566455966245095e+000	-8.259078770569575e+000
1	 1.853381850206766e+000	 1.586989874232388e+000	-8.103660334002509e+000
1	 1.835761777912175e+000	 1.607339435642774e+000	-7.934679661679656e+000
1	 1.817911716732283e+000	 1.627500708047558e+000	-7.753685440103200e+000
1	 2.007431940668699e+000	 1.433397132257910e+000	-9.442247766152049e+000
1	 1.991578619081951e+000	 1.455343592384267e+000	-9.394898853895015e+000
1	 1.975471615818524e+000	 1.477133155265418e+000	-9.323959608086861e+000
1	 1.959113240181150e+000	 1.498761462940601e+000	-9.230690169930421e+000
1	 1.942505900476613e+000	 1.520224202445124e+000	-9.116401478897750e+000
1	 1.925652102928453e+000	 1.541517108605399e+000	-8.982453197701650e+000
1	 1.908554450495487e+000	 1.562635966802639e+000	-8.830251544672347e+000
1	 1.891215641597215e+000	 1.583576615701524e+000	-8.661247037596388e+000
1	 1.873638468747310e+000	 1.604334949940195e+000	-8.476932153320874e+000
1	 1.855825817096565e+000	 1.624906922777959e+000	-8.278838907660632e+000
1	 1.837780662886852e+000	 1.645288548697183e+000	-8.068536360366872e+000
1	 2.029135051352321e+000	 1.448894134165222e+000	-1.002255888132881e+001
1	 2.013110333472775e+000	 1.471077865824262e+000	-9.949169289119805e+000
1	 1.996829191267340e+000	 1.493103003962208e+000	-9.851993888519779e+000
1	 1.980293959005503e+000	 1.514965143502737e+000	-9.732247879910791e+000
1	 1.963507071031173e+000	 1.536659924852068e+000	-9.591196241537075e+000
1	 1.946471060663631e+000	 1.558183036724210e+000	-9.430151704792005e+000
1	 1.929188559003277e+000	 1.579530218934542e+000	-9.250472638935808e+000
1	 1.911662293643256e+000	 1.600697265157980e+000	-9.053560849215044e+000
1	 1.893895087288171e+000	 1.621680025648045e+000	-8.840859292593619e+000
1	 1.875889856281284e+000	 1.642474409913206e+000	-8.613849715535137e+000
1	 1.857649609041756e+000	 1.663076389346893e+000	-8.374050218492684e+000
1	 2.050838162035976e+000	 1.464391136072466e+000	-1.058730032049841e+001
1	 2.034642047863630e+000	 1.486812139264209e+000	-1.048866939447010e+001
1	 2.018186766716196e+000	 1.509072852658963e+000	-1.036618919131841e+001
1	 2.001474677829912e+000	 1.531168824064851e+000	-1.022096798539346e+001
1	 1.984508241585813e+000	 1.553095647259001e+000	-1.005416144342586e+001
1	 1.967290018398917e+000	 1.574848964843020e+000	-9.866970759153173e+000
1	 1.949822667511205e+000	 1.596424471066456e+000	-9.660640702343812e+000
1	 1.932108945689464e+000	 1.617817914614457e+000	-9.436457585880442e+000
1	 1.914151705829226e+000	 1.639025101355928e+000	-9.195747154790981e+000
1	 1.895953895466220e+000	 1.660041897048499e+000	-8.939872401332380e+000
1	 1.877518555196891e+000	 1.680864229996668e+000	-8.670231310436266e+000
1	 2.072541272719534e+000	 1.479888137979660e+000	-1.113725343183634e+001
1	 2.056173762254373e+000	 1.502546412704118e+000	-1.101419873107083e+001
1	 2.039544342164942e+000	 1.525042701355693e+000	-1.086733671002021e+001
1	 2.022655396654229e+000	 1.547372504626949e+000	-1.069760865924211e+001
1	 2.005509412140386e+000	 1.569531369665925e+000	-1.050599953942937e+001
1	 1.988108976134170e+000	 1.591514892961831e+000	-1.029353638254498e+001
1	 1.970456776019136e+000	 1.613318723198377e+000	-1.006128661521452e+001
1	 1.952555597735713e+000	 1.634938564070948e+000	-9.810356307512492e+000
1	 1.934408324370359e+000	 1.656370177063837e+000	-9.541888350483065e+000
1	 1.916017934651266e+000	 1.677609384183830e+000	-9.257060565931752e+000
1	 1.897387501352160e+000	 1.698652070646494e+000	-8.957083752209288e+000
1	 2.094244383402860e+000	 1.495385139886820e+000	-1.167316717439460e+001
1	 2.077705476644865e+000	 1.518280686144002e+000	-1.152652371594405e+001
1	 2.060901917613437e+000	 1.541012550052406e+000	-1.135619484092011e+001
1	 2.043836115478306e+000	 1.563576185189036e+000	-1.116289664587919e+001
1	 2.026510582694747e+000	 1.585967092072845e+000	-1.094738386564245e+001
1	 2.008927933869246e+000	 1.608180821080641e+000	-1.071044864632836e+001
1	 1.991090884526934e+000	 1.630212975330304e+000	-1.045291925135300e+001
1	 1.973002249781874e+000	 1.652059213527451e+000	-1.017565870279464e+001
1	 1.954664942911448e+000	 1.673715252771762e+000	-9.879563360692217e+000
1	 1.936081973836309e+000	 1.695176871319186e+000	-9.565561443015453e+000
1	 1.917256447507461e+000	 1.716439911296353e+000	-9.234611489203161e+000
1	 2.115947494085821e+000	 1.510882141793964e+000	-1.219575977916559e+001
1	 2.099237191034965e+000	 1.534014959583876e+000	-1.202637932179153e+001
1	 2.082259493061532e+000	 1.556982398749111e+000	-1.183349086506440e+001
1	 2.065016834301999e+000	 1.579779865751119e+000	-1.161752887308160e+001
1	 2.047511753248752e+000	 1.602402814479762e+000	-1.137896013273463e+001
1	 2.029746891604005e+000	 1.624846749199451e+000	-1.111828300232165e+001
1	 2.011724993034462e+000	 1.647107227462233e+000	-1.083602660664685e+001
1	 1.993448901827818e+000	 1.669179862983960e+000	-1.053274998005092e+001
1	 1.974921561452375e+000	 1.691060328479696e+000	-1.020904115895189e+001
1	 1.956146013021240e+000	 1.712744358454553e+000	-9.865516225607856e+000
1	 1.937125393662695e+000	 1.734227751946229e+000	-9.502818304939412e+000
1	 1.738435932119337e+000	 1.556349345450221e+000	-6.400818344663155e+000
1	 1.721151818107034e+000	 1.575442586637167e+000	-6.327935607913947e+000
1	 1.703653718137051e+000	 1.594348471918019e+000	-6.248716568799904e+000
1	 1.685944696578731e+000	 1.613063422360952e+000	-6.163975582825036e+000
1	 1.668027897230322e+000	 1.631583926286766e+000	-6.074534985031751e+000
1	 1.649906541462032e+000	 1.649906541462032e+000	-5.981224049608133e+000
1	 1.631583926286766e+000	 1.668027897230322e+000	-5.884877938552145e+000
1	 1.613063422360952e+000	 1.685944696578732e+000	-5.786336641432738e+000
1	 1.594348471918019e+000	 1.703653718137051e+000	-5.686443908309205e+000
1	 1.575442586637168e+000	 1.721151818107034e+000	-5.586046177886485e+000
1	 1.556349345450221e+000	 1.738435932119336e+000	-5.485991502993008e+000
1	 1.758304878271573e+000	 1.574137186099347e+000	-6.753064434263266e+000
1	 1.740823220522151e+000	 1.593448647914248e+000	-6.651167270551530e+000
1	 1.723125131125022e+000	 1.612570612493426e+000	-6.543810034509169e+000
1	 1.705213709472846e+000	 1.631499460000704e+000	-6.431566821618387e+000
1	 1.687092135294994e+000	 1.650231638621166e+000	-6.315013034197701e+000
1	 1.668763666779384e+000	 1.668763666779383e+000	-6.194724791914321e+000
1	 1.650231638621165e+000	 1.687092135294993e+000	-6.071278343044067e+000
1	 1.631499460000704e+000	 1.705213709472847e+000	-5.945249477538521e+000
1	 1.612570612493427e+000	 1.723125131125022e+000	-5.817212942953782e+000
1	 1.593448647914248e+000	 1.740823220522151e+000	-5.687741864285321e+000
1	 1.574137186099347e+000	 1.758304878271573e+000	-5.557407168742292e+000
1	 1.778173824424543e+000	 1.591925026748623e+000	-7.095954269299663e+000
1	 1.760494622937957e+000	 1.611454709191528e+000	-6.965078265990559e+000
1	 1.742596544113631e+000	 1.630792753069090e+000	-6.829121828090266e+000
1	 1.724482722367539e+000	 1.649935497640772e+000	-6.688508418320570e+000
1	 1.706156373360178e+000	 1.668879350955947e+000	-6.543658389099080e+000
1	 1.687620792097182e+000	 1.687620792097182e+000	-6.394988683524673e+000
1	 1.668879350955947e+000	 1.706156373360178e+000	-6.242912544929915e+000
1	 1.649935497640772e+000	 1.724482722367539e+000	-6.087839235426569e+000
1	 1.630792753069090e+000	 1.742596544113631e+000	-5.930173763844035e+000
1	 1.611454709191528e+000	 1.760494622937957e+000	-5.770316623435769e+000
1	 1.591925026748623e+000	 1.778173824424543e+000	-5.608663539701365e+000
1	 1.798042770578147e+000	 1.609712867398032e+000	-7.429492971859736e+000
1	 1.780166025354362e+000	 1.629460770468984e+000	-7.269509690818336e+000
1	 1.762067957102794e+000	 1.649014893644979e+000	-7.104382277110559e+000
1	 1.743751735262737e+000	 1.668371535281121e+000	-6.934470181379449e+000
1	 1.725220611425817e+000	 1.687527063291067e+000	-6.760127533114377e+000
1	 1.706477917415377e+000	 1.706477917415377e+000	-6.581702974739451e+000
1	 1.687527063291067e+000	 1.725220611425817e+000	-6.399539508284865e+000
1	 1.668371535281121e+000	 1.743751735262737e+000	-6.213974354771048e+000
1	 1.649014893644979e+000	 1.762067957102794e+000	-6.025338826401399e+000
1	 1.629460770468984e+000	 1.780166025354362e+000	-5.833958211624415e+000
1	 1.609712867398033e+000	 1.798042770578147e+000	-5.640151673091185e+000
1	 1.817911716732283e+000	 1.627500708047558e+000	-7.753685440103203e+000
1	 1.799837427771275e+000	 1.647466831746595e+000	-7.564309588590165e+000
1	 1.781539370092433e+000	 1.667237034221067e+000	-7.369333498724948e+000
1	 1.763020748158372e+000	 1.686807572921716e+000	-7.169136354615965e+000
1	 1.744284849491846e+000	 1.706174775626481e+000	-6.964091967542651e+000
1	 1.725335042733917e+000	 1.725335042733916e+000	-6.754568588705959e+000
1	 1.706174775626482e+000	 1.744284849491846e+000	-6.540928734835637e+000
1	 1.686807572921716e+000	 1.763020748158372e+000	-6.323529026824017e+000
1	 1.667237034221068e+000	 1.781539370092433e+000	-6.102720041519150e+000
1	 1.647466831746596e+000	 1.799837427771275e+000	-5.878846176775545e+000
1	 1.627500708047558e+000	 1.817911716732282e+000	-5.652245529824256e+000
1	 1.837780662886852e+000	 1.645288548697183e+000	-8.068536360366872e+000
1	 1.819508830188606e+000	 1.665472893024340e+000	-7.849332574297804e+000
1	 1.801010783082467e+000	 1.685459174797326e+000	-7.623728762367270e+000
1	 1.782289761054373e+000	 1.705243610562522e+000	-7.392204836892517e+000
1	 1.763349087558206e+000	 1.724822487962146e+000	-7.155237399781608e+000
1	 1.744192168052747e+000	 1.744192168052746e+000	-6.913299382306675e+000
1	 1.724822487962147e+000	 1.763349087558206e+000	-6.666859694327542e+000
1	 1.705243610562521e+000	 1.782289761054373e+000	-6.416382883502893e+000
1	 1.685459174797326e+000	 1.801010783082468e+000	-6.162328804998133e+000
1	 1.665472893024339e+000	 1.819508830188606e+000	-5.905152302169925e+000
1	 1.645288548697184e+000	 1.837780662886852e+000	-5.645302898678150e+000
1	 1.857649609041756e+000	 1.663076389346893e+000	-8.374050218492682e+000
1	 1.839180232606266e+000	 1.683478954302194e+000	-8.124439482937341e+000
1	 1.820482196072817e+000	 1.703681315373725e+000	-7.867331893340483e+000
1	 1.801558773950668e+000	 1.723679648203500e+000	-7.603386451858614e+000
1	 1.782413325624835e+000	 1.743470200298019e+000	-7.333262983603076e+000
1	 1.763049293371817e+000	 1.763049293371817e+000	-7.057621454479476e+000
1	 1.743470200298020e+000	 1.782413325624836e+000	-6.777121291447534e+000
1	 1.723679648203500e+000	 1.801558773950668e+000	-6.492420706430585e+000
1	 1.703681315373725e+000	 1.820482196072818e+000	-6.204176025093005e+000
1	 1.683478954302193e+000	 1.839180232606266e+000	-5.913041021687801e+000
1	 1.663076389346893e+000	 1.857649609041755e+000	-5.619666261160523e+000
1	 1.877518555196891e+000	 1.680864229996668e+000	-8.670231310436266e+000
1	 1.858851635024165e+000	 1.701485015580136e+000	-8.389497040391341e+000
1	 1.839953609063402e+000	 1.721903455950237e+000	-8.099916714276453e+000
1	 1.820827786847187e+000	 1.742115685844617e+000	-7.802404264064567e+000
1	 1.801477563691672e+000	 1.762117912634056e+000	-7.497880607668263e+000
1	 1.781906418691073e+000	 1.781906418691073e+000	-7.187272498456565e+000
1	 1.762117912634056e+000	 1.801477563691672e+000	-6.871511366595167e+000
1	 1.742115685844617e+000	 1.820827786847188e+000	-6.551532154450041e+000
1	 1.721903455950237e+000	 1.839953609063402e+000	-6.228272148309574e+000
1	 1.701485015580136e+000	 1.858851635024165e+000	-5.902669808686106e+000
1	 1.680864229996669e+000	 1.877518555196891e+000	-5.575663601459385e+000
1	 1.897387501352160e+000	 1.698652070646494e+000	-8.957083752209291e+000
1	 1.878523037442211e+000	 1.719491076858146e+000	-8.644377554989834e+000
1	 1.859425022054142e+000	 1.740125596526834e+000	-8.321266521688548e+000
1	 1.840096799743861e+000	 1.760551723485837e+000	-7.988992938043720e+000
1	 1.820541801758657e+000	 1.780765624970212e+000	-7.648814228745286e+000
1	 1.800763544010466e+000	 1.800763544010466e+000	-7.302001194702068e+000
1	 1.780765624970212e+000	 1.820541801758657e+000	-6.949836228020272e+000
1	 1.760551723485837e+000	 1.840096799743862e+000	-6.593611508259447e+000
1	 1.740125596526833e+000	 1.859425022054142e+000	-6.234627183581448e+000
1	 1.719491076858146e+000	 1.878523037442211e+000	-5.874189540442290e+000
1	 1.698652070646494e+000	 1.897387501352160e+000	-5.513609165503547e+000
1	 1.917256447507461e+000	 1.716439911296353e+000	-9.234611489203161e+000
1	 1.898194439860316e+000	 1.737497138136198e+000	-8.888958628249551e+000
1	 1.878896435044956e+000	 1.758347737103486e+000	-8.531173595072346e+000
1	 1.859365812640619e+000	 1.778987761127123e+000	-8.162898137246730e+000
1	 1.839606039825727e+000	 1.799413337306444e+000	-7.785799246387106e+000
1	 1.819620669329943e+000	 1.819620669329943e+000	-7.401566641596754e+000
1	 1.799413337306444e+000	 1.839606039825727e+000	-7.011910213051968e+000
1	 1.778987761127123e+000	 1.859365812640619e+000	-6.618557430925604e+000
1	 1.758347737103485e+000	 1.878896435044956e+000	-6.223250724943069e+000
1	 1.737497138136199e+000	 1.898194439860315e+000	-5.827744839937291e+000
1	 1.716439911296353e+000	 1.917256447507461e+000	-5.433804172825710e+000
1	 1.937125393662695e+000	 1.734227751946229e+000	-9.502818304939412e+000
1	 1.917865842278389e+000	 1.755503199414275e+000	-9.123122883414872e+000
1	 1.898367848035766e+000	 1.776569877680164e+000	-8.729438736216665e+000
1	 1.878634825537390e+000	 1.797423798768443e+000	-8.323875959966218e+000
1	 1.858670277892823e+000	 1.818061049642710e+000	-7.908581916092742e+000
1	 1.838477794649450e+000	 1.838477794649450e+000	-7.485737821159022e+000
1	 1.818061049642710e+000	 1.858670277892823e+000	-7.057555276330426e+000
1	 1.797423798768442e+000	 1.878634825537390e+000	-6.626272743135885e+000
1	 1.776569877680166e+000	 1.898367848035766e+000	-6.194151972807727e+000
1	 1.755503199414274e+000	 1.917865842278389e+000	-5.763474396604746e+000
1	 1.734227751946229e+000	 1.937125393662695e+000	-5.336537484615841e+000
1	 1.556349345450221e+000	 1.738435932119336e+000	-5.485991502993008e+000
1	 1.537069487102882e+000	 1.755505621180099e+000	-5.392284034957736e+000
1	 1.517609571401743e+000	 1.772355376050134e+000	-5.310921695143805e+000
1	 1.497973368419745e+000	 1.788982381374034e+000	-5.242691709310812e+000
1	 1.478164706143358e+000	 1.805383907963363e+000	-5.188370814755259e+000
1	 1.458187468011342e+000	 1.821557314259135e+000	-5.148724202961118e+000
1	 1.438045590410163e+000	 1.837500047710095e+000	-5.124504481977207e+000
1	 1.417743060129417e+000	 1.853209646065358e+000	-5.116450660518962e+000
1	 1.397283911780661e+000	 1.868683738580113e+000	-5.125287155732085e+000
1	 1.376672225183124e+000	 1.883920047133223e+000	-5.151722826488857e+000
1	 1.355912122719749e+000	 1.898916387255753e+000	-5.196450034016937e+000
1	 1.574137186099347e+000	 1.758304878271573e+000	-5.557407168742292e+000
1	 1.554636974237704e+000	 1.775569660362075e+000	-5.432075873312165e+000
1	 1.534954647109299e+000	 1.792611994588220e+000	-5.318002174639858e+000
1	 1.515094017876017e+000	 1.809429033417307e+000	-5.216277109611816e+000
1	 1.495058958275174e+000	 1.826018016468425e+000	-5.127990507740591e+000
1	 1.474853396130154e+000	 1.842376271991649e+000	-5.054229324517658e+000
1	 1.454481312817197e+000	 1.858501218262075e+000	-4.996075981217292e+000
1	 1.433946740691739e+000	 1.874390364887230e+000	-4.954606714532278e+000
1	 1.413253760477749e+000	 1.890041314026554e+000	-4.930889939386351e+000
1	 1.392406498623549e+000	 1.905451761521779e+000	-4.925984628219541e+000
1	 1.371409124627651e+000	 1.920619497937210e+000	-4.940938709986398e+000
1	 1.591925026748623e+000	 1.778173824424543e+000	-5.608663539701365e+000
1	 1.572204461372635e+000	 1.795633699544820e+000	-5.451158506873060e+000
1	 1.552299722816932e+000	 1.812868613127101e+000	-5.304405799467412e+000
1	 1.532214667332336e+000	 1.829875685461390e+000	-5.169720468089464e+000
1	 1.511953210407012e+000	 1.846652124974303e+000	-5.048423499000638e+000
1	 1.491519324248966e+000	 1.863195229724980e+000	-4.941839688753939e+000
1	 1.470917035224207e+000	 1.879502388814862e+000	-4.851295514886723e+000
1	 1.450150421254014e+000	 1.895571083709891e+000	-4.778117007101243e+000
1	 1.429223609174760e+000	 1.911398889473761e+000	-4.723627623343495e+000
1	 1.408140772063863e+000	 1.926983475911071e+000	-4.689146135159222e+000
1	 1.386906126535401e+000	 1.942322608619366e+000	-4.675984526658432e+000
1	 1.609712867398033e+000	 1.798042770578147e+000	-5.640151673091187e+000
1	 1.589771948507662e+000	 1.815697738728223e+000	-5.450110436592477e+000
1	 1.569644798524630e+000	 1.833125231666656e+000	-5.270842736641383e+000
1	 1.549335316788698e+000	 1.850322337506154e+000	-5.103810573363959e+000
1	 1.528847462538872e+000	 1.867286233480864e+000	-4.950486933522413e+000
1	 1.508185252367777e+000	 1.884014187458984e+000	-4.812353354072508e+000
1	 1.487352757631197e+000	 1.900503559368311e+000	-4.690897474219769e+000
1	 1.466354101816245e+000	 1.916751802533197e+000	-4.587610581123299e+000
1	 1.445193457871702e+000	 1.932756464921588e+000	-4.503985154389253e+000
1	 1.423875045504080e+000	 1.948515190300959e+000	-4.441512414475842e+000
1	 1.402403128443016e+000	 1.964025719302089e+000	-4.401679880095092e+000
1	 1.627500708047558e+000	 1.817911716732282e+000	-5.652245529824256e+000
1	 1.607339435642774e+000	 1.835761777912175e+000	-5.429484872415922e+000
1	 1.586989874232388e+000	 1.853381850206765e+000	-5.217992105969846e+000
1	 1.566455966245095e+000	 1.870768989551473e+000	-5.019301729655346e+000
1	 1.545741714670747e+000	 1.887920341987970e+000	-4.834962232203898e+000
1	 1.524851180486588e+000	 1.904833145193523e+000	-4.666533489217366e+000
1	 1.503788480038169e+000	 1.921504729922276e+000	-4.515584144204513e+000
1	 1.482557782378439e+000	 1.937932521356998e+000	-4.383688978886752e+000
1	 1.461163306568586e+000	 1.954114040369892e+000	-4.272426278318788e+000
1	 1.439609318944210e+000	 1.970046904691297e+000	-4.183375196355893e+000
1	 1.417900130350514e+000	 1.985728829985244e+000	-4.118113126969775e+000
1	 1.645288548697184e+000	 1.837780662886852e+000	-5.645302898678152e+000
1	 1.624906922777959e+000	 1.855825817096565e+000	-5.389811100435662e+000
1	 1.604334949940195e+000	 1.873638468747310e+000	-5.146503658369842e+000
1	 1.583576615701524e+000	 1.891215641597216e+000	-4.916915620903304e+000
1	 1.562635966802639e+000	 1.908554450495487e+000	-4.702597022987527e+000
1	 1.541517108605399e+000	 1.925652102928452e+000	-4.505110259300929e+000
1	 1.520224202445124e+000	 1.942505900476613e+000	-4.326027439147096e+000
1	 1.498761462940601e+000	 1.959113240181150e+000	-4.166927728668475e+000
1	 1.477133155265418e+000	 1.975471615818524e+000	-4.029394685997391e+000
1	 1.455343592384267e+000	 1.991578619081951e+000	-3.915013594960286e+000
1	 1.433397132257910e+000	 2.007431940668699e+000	-3.825368802923820e+000
1	 1.663076389346893e+000	 1.857649609041755e+000	-5.619666261160520e+000
1	 1.642474409913205e+000	 1.875889856281284e+000	-5.331595762307969e+000
1	 1.621680025648045e+000	 1.893895087288170e+000	-5.056999346477959e+000
1	 1.600697265157980e+000	 1.911662293643256e+000	-4.797343055258084e+000
1	 1.579530218934542e+000	 1.929188559003277e+000	-4.554106948064658e+000
1	 1.558183036724210e+000	 1.946471060663631e+000	-4.328782590795952e+000
1	 1.536659924852067e+000	 1.963507071031173e+000	-4.122870526856995e+000
1	 1.514965143502737e+000	 1.980293959005503e+000	-3.937877735930028e+000
1	 1.493103003962208e+000	 1.996829191267341e+000	-3.775315085871912e+000
1	 1.471077865824262e+000	 2.013110333472775e+000	-3.636694783113326e+000
1	 1.448894134165222e+000	 2.029135051352321e+000	-3.523527826910662e+000
1	 1.680864229996669e+000	 1.877518555196891e+000	-5.575663601459383e+000
1	 1.660041897048500e+000	 1.895953895466221e+000	-5.255324053433126e+000
1	 1.639025101355929e+000	 1.914151705829226e+000	-4.950074795535018e+000
1	 1.617817914614456e+000	 1.932108945689464e+000	-4.661245598804260e+000
1	 1.596424471066456e+000	 1.949822667511206e+000	-4.390177356330212e+000
1	 1.574848964843020e+000	 1.967290018398917e+000	-4.138219824459135e+000
1	 1.553095647259001e+000	 1.984508241585813e+000	-3.906729349704138e+000
1	 1.531168824064851e+000	 2.001474677829911e+000	-3.697066586179318e+000
1	 1.509072852658963e+000	 2.018186766716196e+000	-3.510594208383689e+000
1	 1.486812139264208e+000	 2.034642047863629e+000	-3.348674624151924e+000
1	 1.464391136072466e+000	 2.050838162035976e+000	-3.212667692564521e+000
1	 1.698652070646494e+000	 1.897387501352160e+000	-5.513609165503548e+000
1	 1.677609384183830e+000	 1.916017934651266e+000	-5.161460845853267e+000
1	 1.656370177063837e+000	 1.934408324370359e+000	-4.826300681853749e+000
1	 1.634938564070948e+000	 1.952555597735713e+000	-4.509257106637377e+000
1	 1.613318723198377e+000	 1.970456776019136e+000	-4.211464889500398e+000
1	 1.591514892961830e+000	 1.988108976134169e+000	-3.934063264400332e+000
1	 1.569531369665925e+000	 2.005509412140386e+000	-3.678194050107499e+000
1	 1.547372504626950e+000	 2.022655396654229e+000	-3.444999765973043e+000
1	 1.525042701355693e+000	 2.039544342164943e+000	-3.235621747273234e+000
1	 1.502546412704118e+000	 2.056173762254373e+000	-3.051198264075782e+000
1	 1.479888137979660e+000	 2.072541272719535e+000	-2.892862647545873e+000
1	 1.716439911296353e+000	 1.917256447507461e+000	-5.433804172825711e+000
1	 1.695176871319185e+000	 1.936081973836309e+000	-5.050451741329271e+000
1	 1.673715252771762e+000	 1.954664942911448e+000	-4.686224025574843e+000
1	 1.652059213527451e+000	 1.973002249781873e+000	-4.341985158738826e+000
1	 1.630212975330304e+000	 1.991090884526934e+000	-4.018598969606344e+000
1	 1.608180821080641e+000	 2.008927933869245e+000	-3.716927630831988e+000
1	 1.585967092072845e+000	 2.026510582694747e+000	-3.437830307387384e+000
1	 1.563576185189036e+000	 2.043836115478306e+000	-3.182161807997615e+000
1	 1.541012550052406e+000	 2.060901917613437e+000	-2.950771242355540e+000
1	 1.518280686144002e+000	 2.077705476644866e+000	-2.744500686877660e+000
1	 1.495385139886820e+000	 2.094244383402859e+000	-2.564183861734915e+000
1	 1.734227751946229e+000	 1.937125393662695e+000	-5.336537484615840e+000
1	 1.712744358454553e+000	 1.956146013021241e+000	-4.922724059609830e+000
1	 1.691060328479696e+000	 1.974921561452375e+000	-4.530369403864541e+000
1	 1.669179862983960e+000	 1.993448901827818e+000	-4.160012407484859e+000
1	 1.647107227462233e+000	 2.011724993034462e+000	-3.812183194945113e+000
1	 1.624846749199452e+000	 2.029746891604005e+000	-3.487402423414258e+000
1	 1.602402814479762e+000	 2.047511753248752e+000	-3.186180592346313e+000
1	 1.579779865751119e+000	 2.065016834301999e+000	-2.909017365680719e+000
1	 1.556982398749111e+000	 2.082259493061532e+000	-2.656400907967873e+000
1	 1.534014959583875e+000	 2.099237191034965e+000	-2.428807235698019e+000
1	 1.510882141793964e+000	 2.115947494085821e+000	-2.226699585074413e+000
1	 1.355912122719749e+000	 1.898916387255753e+000	-5.196450034016937e+000
1	 1.335007766215312e+000	 1.913670668530300e+000	-5.268382131147518e+000
1	 1.313963352917359e+000	 1.928180893807915e+000	-5.376554110042844e+000
1	 1.292783114191905e+000	 1.942445161561669e+000	-5.521809954331610e+000
1	 1.271471313257540e+000	 1.956461667092249e+000	-5.704968772335489e+000
1	 1.250032242448504e+000	 1.970228703106179e+000	-5.926823593913356e+000
1	 1.228470220469227e+000	 1.983744660202318e+000	-6.188140210058933e+000
1	 1.206789589643861e+000	 1.997008027266777e+000	-6.489656057341060e+000
1	 1.184994713164319e+000	 2.010017391776478e+000	-6.832079149151173e+000
1	 1.163089972340300e+000	 2.022771440011767e+000	-7.216087055594231e+000
1	 1.141079763854727e+000	 2.035268957178629e+000	-7.642325933727181e+000
1	 1.371409124627651e+000	 1.920619497937210e+000	-4.940938709986398e+000
1	 1.350265847881186e+000	 1.935542408963624e+000	-4.984968259354548e+000
1	 1.328980913602921e+000	 1.950218474626249e+000	-5.067237103151571e+000
1	 1.307558601520036e+000	 1.964645771665227e+000	-5.188682855830548e+000
1	 1.286003223576339e+000	 1.978822474754980e+000	-5.350211768113980e+000
1	 1.264319121164056e+000	 1.992746857089031e+000	-5.552697417628919e+000
1	 1.242510662346993e+000	 2.006417290872079e+000	-5.796979454384553e+000
1	 1.220582239078634e+000	 2.019832247719414e+000	-6.083862403266893e+000
1	 1.198538264418724e+000	 2.032990298963953e+000	-6.414114525571299e+000
1	 1.176383169751866e+000	 2.045890115871281e+000	-6.788466741433570e+000
1	 1.154121402011593e+000	 2.058530469763273e+000	-7.207611614856933e+000
1	 1.386906126535401e+000	 1.942322608619366e+000	-4.675984526658432e+000
1	 1.365523929546859e+000	 1.957414149397602e+000	-4.693467551413480e+000
1	 1.343998474288224e+000	 1.972256055445191e+000	-4.750754918849746e+000
1	 1.322334088847847e+000	 1.986846381769343e+000	-4.848878306034135e+000
1	 1.300535133894753e+000	 2.001183282418213e+000	-4.988833004077926e+000
1	 1.278605999879158e+000	 2.015265011072332e+000	-5.171576484887956e+000
1	 1.256551104224244e+000	 2.029089921542232e+000	-5.398027032545763e+000
1	 1.234374888512827e+000	 2.042656468172388e+000	-5.669062441641366e+000
1	 1.212081815672489e+000	 2.055963206151714e+000	-5.985518784705352e+000
1	 1.189676367162741e+000	 2.069008791731038e+000	-6.348189250699032e+000
1	 1.167163040167724e+000	 2.081791982348114e+000	-6.757823056332620e+000
1	 1.402403128443016e+000	 1.964025719302089e+000	-4.401679880095092e+000
1	 1.380782011212353e+000	 1.979285889832116e+000	-4.393761648597091e+000
1	 1.359016034973300e+000	 1.994293636264635e+000	-4.426813013003232e+000
1	 1.337109576175375e+000	 2.009046991873925e+000	-4.501960050333994e+000
1	 1.315067044212827e+000	 2.023544090081880e+000	-4.620288864812300e+000
1	 1.292892878593861e+000	 2.037783165056030e+000	-4.782844013369559e+000
1	 1.270591546101038e+000	 2.051762552212749e+000	-4.990627003302445e+000
1	 1.248167537946512e+000	 2.065480688625692e+000	-5.244594864620703e+000
1	 1.225625366925698e+000	 2.078936113339772e+000	-5.545658799422323e+000
1	 1.202969564573016e+000	 2.092127467591057e+000	-5.894682910426854e+000
1	 1.180204678323221e+000	 2.105053494933187e+000	-6.292483010583748e+000
1	 1.417900130350514e+000	 1.985728829985244e+000	-4.118113126969775e+000
1	 1.396040092877691e+000	 2.001157630267043e+000	-4.085737366604464e+000
1	 1.374033595658175e+000	 2.016331217084475e+000	-4.095129718408472e+000
1	 1.351885063502655e+000	 2.031247601978889e+000	-4.147510906375802e+000
1	 1.329598954530604e+000	 2.045904897745910e+000	-4.244059500774797e+000
1	 1.307179757308217e+000	 2.060301319040078e+000	-4.385910185349552e+000
1	 1.284631987977439e+000	 2.074435182883600e+000	-4.574152101967758e+000
1	 1.261960187379758e+000	 2.088304909079315e+000	-4.809827275532582e+000
1	 1.239168918178429e+000	 2.101909020528132e+000	-5.093929121753901e+000
1	 1.216262761982781e+000	 2.115246143451361e+000	-5.427401040151797e+000
1	 1.193246316478183e+000	 2.128315007518526e+000	-5.811135094433070e+000
1	 1.433397132257910e+000	 2.007431940668699e+000	-3.825368802923820e+000
1	 1.411298174542895e+000	 2.023029370702263e+000	-3.769286415847021e+000
1	 1.389051156342877e+000	 2.038368797904605e+000	-3.755435548705656e+000
1	 1.366660550829724e+000	 2.053448212084144e+000	-3.785131733072330e+000
1	 1.344130864848129e+000	 2.068265705410237e+000	-3.859647543586516e+000
1	 1.321466636022281e+000	 2.082819473024427e+000	-3.980210690077755e+000
1	 1.298672429853509e+000	 2.097107813554756e+000	-4.148002190242500e+000
1	 1.275752836812638e+000	 2.111129129533246e+000	-4.364154626027934e+000
1	 1.252712469430764e+000	 2.124881927716801e+000	-4.629750486644364e+000
1	 1.229555959392127e+000	 2.138364819311972e+000	-4.945820600890445e+000
1	 1.206287954632712e+000	 2.151576520104164e+000	-5.313342661232074e+000
1	 1.448894134165222e+000	 2.029135051352321e+000	-3.523527826910662e+000
1	 1.426556256207987e+000	 2.044901111137655e+000	-3.444305139686048e+000
1	 1.404068717027438e+000	 2.060406378724921e+000	-3.407472546962485e+000
1	 1.381436038156617e+000	 2.075648822189604e+000	-3.414440465779654e+000
1	 1.358662775165444e+000	 2.090626513074790e+000	-3.466576903767805e+000
1	 1.335753514736103e+000	 2.105337627009026e+000	-3.565205359697240e+000
1	 1.312712871729308e+000	 2.119780444226189e+000	-3.711602805530160e+000
1	 1.289545486245221e+000	 2.133953349987476e+000	-3.906997753527361e+000
1	 1.266256020682782e+000	 2.147854834905787e+000	-4.152568411721830e+000
1	 1.242849156801144e+000	 2.161483495172912e+000	-4.449440930824546e+000
1	 1.219329592786908e+000	 2.174838032690134e+000	-4.798687745376240e+000
1	 1.464391136072466e+000	 2.050838162035976e+000	-3.212667692564521e+000
1	 1.441814337872990e+000	 2.066772851573099e+000	-3.110694269289910e+000
1	 1.419086277711884e+000	 2.082443959545315e+000	-3.050993675620199e+000
1	 1.396211525483370e+000	 2.097849432295178e+000	-3.035071212734479e+000
1	 1.373194685482595e+000	 2.112987320739501e+000	-3.064391644812452e+000
1	 1.350040393449737e+000	 2.127855780993828e+000	-3.140376891776973e+000
1	 1.326753313604898e+000	 2.142453074897868e+000	-3.264403802364355e+000
1	 1.303338135677579e+000	 2.156777570441995e+000	-3.437802011532980e+000
1	 1.279799571934565e+000	 2.170827742095097e+000	-3.661851885977410e+000
1	 1.256142354209923e+000	 2.184602171034203e+000	-3.937782561263092e+000
1	 1.232371230940871e+000	 2.198099545276473e+000	-4.266770073839411e+000
1	 1.479888137979660e+000	 2.072541272719535e+000	-2.892862647545873e+000
1	 1.457072419537926e+000	 2.088644592008472e+000	-2.768358693894570e+000
1	 1.434103838396246e+000	 2.104481540365685e+000	-2.685762244769388e+000
1	 1.410987012810020e+000	 2.120050042400781e+000	-2.646673408263559e+000
1	 1.387726595799625e+000	 2.135348128404301e+000	-2.652654928004298e+000
1	 1.364327272163235e+000	 2.150373934978783e+000	-2.705229652107726e+000
1	 1.340793755480339e+000	 2.165125705569764e+000	-2.805878079195363e+000
1	 1.317130785109784e+000	 2.179601790896790e+000	-2.956035985998204e+000
1	 1.293343123186193e+000	 2.193800649284738e+000	-3.157092140835216e+000
1	 1.269435551618554e+000	 2.207720846895866e+000	-3.410386106997565e+000
1	 1.245412869094703e+000	 2.221361057863212e+000	-3.717206139813095e+000
1	 1.495385139886820e+000	 2.094244383402859e+000	-2.564183861734915e+000
1	 1.472330501202817e+000	 2.110516332443655e+000	-2.417207245348394e+000
1	 1.449121399080551e+000	 2.126519121185920e+000	-2.311551375975014e+000
1	 1.425762500136603e+000	 2.142250652506322e+000	-2.248911018645492e+000
1	 1.402258506116577e+000	 2.157708936069120e+000	-2.230948022844298e+000
1	 1.378614150876650e+000	 2.172892088963843e+000	-2.259288551939422e+000
1	 1.354834197355695e+000	 2.187798336241849e+000	-2.335520384344273e+000
1	 1.330923434541905e+000	 2.202426011351853e+000	-2.461190291513081e+000
1	 1.306886674437748e+000	 2.216773556474716e+000	-2.637801497636508e+000
1	 1.282728749027127e+000	 2.230839522757924e+000	-2.866811225654645e+000
1	 1.258454507248502e+000	 2.244622570450384e+000	-3.149628333946719e+000
1	 1.510882141793964e+000	 2.115947494085821e+000	-2.226699585074413e+000
1	 1.487588582867686e+000	 2.132388072878528e+000	-2.057152495916941e+000
1	 1.464138959764830e+000	 2.148556702005919e+000	-1.928143499098868e+000
1	 1.440537987463155e+000	 2.164451262611717e+000	-1.841461796845049e+000
1	 1.416790416433498e+000	 2.180069743733891e+000	-1.798869378377593e+000
1	 1.392901029590033e+000	 2.195410242948957e+000	-1.802097994315216e+000
1	 1.368874639231026e+000	 2.210470966914093e+000	-1.852846195441094e+000
1	 1.344716083974012e+000	 2.225250231807173e+000	-1.952776441573967e+000
1	 1.320430225689309e+000	 2.239746463665041e+000	-2.103512286051144e+000
1	 1.296021946435735e+000	 2.253958198620401e+000	-2.306635641091369e+000
1	 1.271496145402372e+000	 2.267884083038025e+000	-2.563684129052462e+000
1	 1.141079763854727e+000	 2.035268957178629e+000	-7.642325933727181e+000
1	 1.118971821116124e+000	 2.047507011200339e+000	-8.109706617486067e+000
1	 1.096767268820617e+000	 2.059486480776334e+000	-8.616386899999469e+000
1	 1.074470532596845e+000	 2.071206449790665e+000	-9.161659939775184e+000
1	 1.052086042539205e+000	 2.082666100602788e+000	-9.744823511428221e+000
1	 1.029618230541540e+000	 2.093864713729079e+000	-1.036518227544317e+001
1	 1.007071527655773e+000	 2.104801667440268e+000	-1.102204998625180e+001
1	 9.844503614784818e-001	 2.115476437276296e+000	-1.171475163470054e+001
1	 9.617591535682968e-001	 2.125888595480185e+000	-1.244262552122977e+001
1	 9.390023168969391e-001	 2.136037810352666e+000	-1.320502525633640e+001
1	 9.161842533366131e-001	 2.145923845529372e+000	-1.400132168515138e+001
1	 1.154121402011593e+000	 2.058530469763273e+000	-7.207611614856934e+000
1	 1.131760782993169e+000	 2.070908395051891e+000	-7.670766288049667e+000
1	 1.109302450247109e+000	 2.083024780479415e+000	-8.176291690194246e+000
1	 1.086750879983489e+000	 2.094878699459406e+000	-8.723367895609870e+000
1	 1.064110552929180e+000	 2.106469325006327e+000	-9.311176989790294e+000
1	 1.041385951631065e+000	 2.117795929413422e+000	-9.938905606478089e+000
1	 1.018581557784487e+000	 2.128857883845541e+000	-1.060574740256274e+001
1	 9.957018495899491e-001	 2.139654657848452e+000	-1.131090546633077e+001
1	 9.727512991410008e-001	 2.150185818776249e+000	-1.205359465485544e+001
1	 9.497343698461394e-001	 2.160451031138595e+000	-1.283304385657787e+001
1	 9.266555138874860e-001	 2.170450055869658e+000	-1.364849817540660e+001
1	 1.167163040167724e+000	 2.081791982348114e+000	-6.757823056332618e+000
1	 1.144549744869445e+000	 2.094309778903606e+000	-7.213988965472066e+000
1	 1.121837631672807e+000	 2.106563080182627e+000	-7.715315128224094e+000
1	 1.099031227369319e+000	 2.118550949128249e+000	-8.260909064587681e+000
1	 1.076135063318328e+000	 2.130272549409948e+000	-8.849877616600699e+000
1	 1.053153672719756e+000	 2.141727145097828e+000	-9.481329688640299e+000
1	 1.030091587912363e+000	 2.152914100250859e+000	-1.015437892619230e+001
1	 1.006953337700580e+000	 2.163832878420640e+000	-1.086814632818152e+001
1	 9.837434447128693e-001	 2.174483042072332e+000	-1.162176278822287e+001
1	 9.604664227945058e-001	 2.184864251924533e+000	-1.241437156042497e+001
1	 9.371267744375259e-001	 2.194976266209944e+000	-1.324513064566351e+001
1	 1.180204678323221e+000	 2.105053494933187e+000	-6.292483010583751e+000
1	 1.157338706745061e+000	 2.117711162755524e+000	-6.739011607459047e+000
1	 1.134372813097828e+000	 2.130101379886014e+000	-7.233214382611090e+000
1	 1.111311574754465e+000	 2.142223198797243e+000	-7.774165586035158e+000
1	 1.088159573706788e+000	 2.154075773813694e+000	-8.360936020047454e+000
1	 1.064921393807760e+000	 2.165658360782337e+000	-8.992595919916571e+000
1	 1.041601618039557e+000	 2.176970316656258e+000	-9.668217774727081e+000
1	 1.018204825810532e+000	 2.188011098992888e+000	-1.038687908323739e+001
1	 9.947355902840654e-001	 2.198780265368455e+000	-1.114766503976902e+001
1	 9.711984757422031e-001	 2.209277472710488e+000	-1.194967114543787e+001
1	 9.475980349868981e-001	 2.219502476550226e+000	-1.279200574032754e+001
1	 1.193246316478183e+000	 2.128315007518526e+000	-5.811135094433069e+000
1	 1.170127668620127e+000	 2.141112546607686e+000	-6.245487043263627e+000
1	 1.146907994522294e+000	 2.153639679589622e+000	-6.729757238027140e+000
1	 1.123591922139055e+000	 2.165895448466434e+000	-7.263024751933616e+000
1	 1.100184084094699e+000	 2.177878998217611e+000	-7.844362363674901e+000
1	 1.076689114895224e+000	 2.189589576466989e+000	-8.472839516633348e+000
1	 1.053111648166220e+000	 2.201026533061774e+000	-9.147525221181336e+000
1	 1.029456313919965e+000	 2.212189319565223e+000	-9.867490894614129e+000
1	 1.005727735854752e+000	 2.223077488664634e+000	-1.063181313353126e+001
1	 9.819305286893987e-001	 2.233690693496472e+000	-1.143957641375291e+001
1	 9.580692955357707e-001	 2.244028686890507e+000	-1.228987571314806e+001
1	 1.206287954632712e+000	 2.151576520104164e+000	-5.313342661232074e+000
1	 1.182916630494756e+000	 2.164513930460135e+000	-5.733083115719311e+000
1	 1.159443175946325e+000	 2.177177979293498e+000	-6.204721521418128e+000
1	 1.135872269523220e+000	 2.189567698135869e+000	-6.727378728382486e+000
1	 1.112208594482198e+000	 2.201682222621746e+000	-7.300166371500989e+000
1	 1.088456835982293e+000	 2.213520792151826e+000	-7.922189847618053e+000
1	 1.064621678292507e+000	 2.225082749467440e+000	-8.592551239683113e+000
1	 1.040707802029039e+000	 2.236367540137672e+000	-9.310352182358301e+000
1	 1.016719881425092e+000	 2.247374711960891e+000	-1.007469666377578e+001
1	 9.926625816362568e-001	 2.258103914282494e+000	-1.088469375840460e+001
1	 9.685405560843093e-001	 2.268554897230786e+000	-1.173946028627046e+001
1	 1.219329592786908e+000	 2.174838032690134e+000	-4.798687745376238e+000
1	 1.195705592369057e+000	 2.187915314312910e+000	-5.201481878332872e+000
1	 1.171978357370042e+000	 2.200716278997688e+000	-5.657894564955480e+000
1	 1.148152616907090e+000	 2.213239947805595e+000	-6.167124294937555e+000
1	 1.124233104869425e+000	 2.225485447026141e+000	-6.728357351522599e+000
1	 1.100224557069113e+000	 2.237452007836891e+000	-7.340770746915696e+000
1	 1.076131708418570e+000	 2.249138965873294e+000	-8.003535109724238e+000
1	 1.051959290137910e+000	 2.260545760710265e+000	-8.715817518845361e+000
1	 1.027712026995249e+000	 2.271671935257245e+000	-9.476784278469719e+000
1	 1.003394634582944e+000	 2.282517135068562e+000	-1.028560362912886e+001
1	 9.790118166326809e-001	 2.293081107571061e+000	-1.114144838998499e+001
1	 1.232371230940871e+000	 2.198099545276473e+000	-4.266770073839411e+000
1	 1.208494554243141e+000	 2.211316698166054e+000	-4.650378843358066e+000
1	 1.184513538793563e+000	 2.224254578702237e+000	-5.089072703088344e+000
1	 1.160432964290793e+000	 2.236912197475659e+000	-5.582162600500311e+000
1	 1.136257615256517e+000	 2.249288671430844e+000	-6.128944217727843e+000
1	 1.111992278155832e+000	 2.261383223522224e+000	-6.728700806649649e+000
1	 1.087641738544563e+000	 2.273195182279368e+000	-7.380705982043433e+000
1	 1.063210778246740e+000	 2.284723981283027e+000	-8.084226467323809e+000
1	 1.038704172565387e+000	 2.295969158553711e+000	-8.838524787607698e+000
1	 1.014126687529626e+000	 2.306930355854685e+000	-9.642861905095314e+000
1	 9.894830771810521e-001	 2.317607317911332e+000	-1.049649979200891e+001
1	 1.245412869094703e+000	 2.221361057863212e+000	-3.717206139813095e+000
1	 1.221283516117117e+000	 2.234718082019610e+000	-4.079482277113169e+000
1	 1.197048720217010e+000	 2.247792878407190e+000	-4.498060801196070e+000
1	 1.172713311674459e+000	 2.260584447146108e+000	-4.972398934544396e+000
1	 1.148282125643612e+000	 2.273091895835900e+000	-5.501935510726288e+000
1	 1.123759999242596e+000	 2.285314439207865e+000	-6.086093651481628e+000
1	 1.099151768670638e+000	 2.297251398685700e+000	-6.724283408954178e+000
1	 1.074462266355686e+000	 2.308902201855987e+000	-7.415904367773437e+000
1	 1.049696318135667e+000	 2.320266381850311e+000	-8.160348201902460e+000
1	 1.024858740476468e+000	 2.331343576640874e+000	-8.957001181389870e+000
1	 9.999543377295893e-001	 2.342133528251598e+000	-9.805246624401079e+000
1	 1.258454507248502e+000	 2.244622570450384e+000	-3.149628333946719e+000
1	 1.234072477991097e+000	 2.258119465873619e+000	-3.488512539115082e+000
1	 1.209583901640504e+000	 2.271331178112595e+000	-3.884671813548580e+000
1	 1.184993659058219e+000	 2.284256696816990e+000	-4.337742512567244e+000
1	 1.160306636030851e+000	 2.296895120241353e+000	-4.847339417095555e+000
1	 1.135527720329550e+000	 2.309245654893858e+000	-5.413058196006181e+000
1	 1.110661798796949e+000	 2.321307615092325e+000	-6.034477841697476e+000
1	 1.085713754464907e+000	 2.333080422429172e+000	-6.711163073899240e+000
1	 1.060688463706254e+000	 2.344563605147063e+000	-7.442666706889546e+000
1	 1.035590793423637e+000	 2.355756797427138e+000	-8.228531975504781e+000
1	 1.010425598278460e+000	 2.366659738591860e+000	-9.068294815533310e+000
1	 1.271496145402372e+000	 2.267884083038025e+000	-2.563684129052464e+000
1	 1.246861439865192e+000	 2.281520849728122e+000	-2.877201461884326e+000
1	 1.222119083064165e+000	 2.294869477818497e+000	-3.248726368470623e+000
1	 1.197274006442202e+000	 2.307928946488350e+000	-3.678106274745713e+000
1	 1.172331146418369e+000	 2.320698344647250e+000	-4.165163787537732e+000
1	 1.147295441416841e+000	 2.333176870580241e+000	-4.709698886304402e+000
1	 1.122171828923650e+000	 2.345363831499277e+000	-5.311491097187240e+000
1	 1.096965242574563e+000	 2.357258643002612e+000	-5.970301644770043e+000
1	 1.071680609277310e+000	 2.368860828443987e+000	-6.685875577084872e+000
1	 1.046322846371299e+000	 2.380170018213485e+000	-7.457943859579313e+000
1	 1.020896858827830e+000	 2.391185948932115e+000	-8.286225433936345e+000
1	 9.161842533366131e-001	 2.145923845529372e+000	-1.400132168515138e+001
1	 8.933059157493626e-001	 2.155547983255453e+000	-1.483076037594417e+001
1	 8.703750978801976e-001	 2.164908673947971e+000	-1.569182896786589e+001
1	 8.473961566412123e-001	 2.174005963882928e+000	-1.658315175564529e+001
1	 8.243734281452965e-001	 2.182839991099376e+000	-1.750336989560656e+001
1	 8.013112254104073e-001	 2.191410984317160e+000	-1.845114505630302e+001
1	 7.782138361143608e-001	 2.199719261790046e+000	-1.942516294735116e+001
1	 7.550855204020774e-001	 2.207765230096631e+000	-2.042413672132802e+001
1	 7.319305087471113e-001	 2.215549382871506e+000	-2.144681024403433e+001
1	 7.087529998691573e-001	 2.223072299479171e+000	-2.249196122887248e+001
1	 6.855571587091146e-001	 2.230334643633273e+000	-2.355840423153202e+001
1	 9.266555138874860e-001	 2.170450055869658e+000	-1.364849817540660e+001
1	 9.035156950175441e-001	 2.180184189869629e+000	-1.449896768774262e+001
1	 8.803227960576489e-001	 2.189651865845055e+000	-1.538306574188754e+001
1	 8.570812237159355e-001	 2.198853130600830e+000	-1.629984152684407e+001
1	 8.337953636636191e-001	 2.207788123753673e+000	-1.724836101998129e+001
1	 8.104695782130246e-001	 2.216457076637510e+000	-1.822770994437034e+001
1	 7.871082040467171e-001	 2.224860311143484e+000	-1.923699661669638e+001
1	 7.637155499996888e-001	 2.232998238497061e+000	-2.027535468174312e+001
1	 7.402958948964443e-001	 2.240871357974673e+000	-2.134194572982886e+001
1	 7.168534854447088e-001	 2.248480255562493e+000	-2.243596179396243e+001
1	 6.933925341873450e-001	 2.255825602559878e+000	-2.355662772387146e+001
1	 9.371267744375259e-001	 2.194976266209944e+000	-1.324513064566351e+001
1	 9.137254742848916e-001	 2.204820396483794e+000	-1.411291507553719e+001
1	 8.902704942342629e-001	 2.214395057742118e+000	-1.501652343186463e+001
1	 8.667662907898178e-001	 2.223700297318701e+000	-1.595540426714607e+001
1	 8.432172991810966e-001	 2.232736256407930e+000	-1.692902196376881e+001
1	 8.196279310147911e-001	 2.241503168957810e+000	-1.793685904887908e+001
1	 7.960025719782182e-001	 2.250001360496865e+000	-1.897841841277345e+001
1	 7.723455795964405e-001	 2.258231246897425e+000	-2.005322542782680e+001
1	 7.486612810449145e-001	 2.266193333077768e+000	-2.116082996530400e+001
1	 7.249539710193939e-001	 2.273888211645735e+000	-2.230080830773206e+001
1	 7.012279096647085e-001	 2.281316561486399e+000	-2.347276495484135e+001
1	 9.475980349868981e-001	 2.219502476550226e+000	-1.279200574032754e+001
1	 9.239352535515701e-001	 2.229456603097937e+000	-1.367349653998622e+001
1	 9.002181924102023e-001	 2.239138249639140e+000	-1.459317554086613e+001
1	 8.764513578630181e-001	 2.248547464036511e+000	-1.555086607188175e+001
1	 8.526392346978823e-001	 2.257684389062107e+000	-1.654640546568359e+001
1	 8.287862838158566e-001	 2.266549261278012e+000	-1.757964678074968e+001
1	 8.048969399090081e-001	 2.275142409850134e+000	-1.865046044050104e+001
1	 7.809756091924724e-001	 2.283464255297661e+000	-1.975873578737226e+001
1	 7.570266671926571e-001	 2.291515308180720e+000	-2.090438255004265e+001
1	 7.330544565933475e-001	 2.299296167728821e+000	-2.208733222231014e+001
1	 7.090632851413385e-001	 2.306807520412753e+000	-2.330753935236179e+001
1	 9.580692955357707e-001	 2.244028686890507e+000	-1.228987571314806e+001
1	 9.341450328177451e-001	 2.254092809712048e+000	-1.318156699767225e+001
1	 9.101658905856305e-001	 2.263881441536101e+000	-1.411395301218500e+001
1	 8.861364249356952e-001	 2.273394630754231e+000	-1.508720817736753e+001
1	 8.620611702141319e-001	 2.282632521716167e+000	-1.610151824062596e+001
1	 8.379446366163711e-001	 2.291595353598070e+000	-1.715708145398262e+001
1	 8.137913078392323e-001	 2.300283459203229e+000	-1.825410968305550e+001
1	 7.896056387879250e-001	 2.308697263697702e+000	-1.939282944586299e+001
1	 7.653920533398095e-001	 2.316837283283455e+000	-2.057348288041323e+001
1	 7.411549421667035e-001	 2.324704123811672e+000	-2.179632864025670e+001
1	 7.168986606173690e-001	 2.332298479338855e+000	-2.306164271740484e+001
1	 9.685405560843093e-001	 2.268554897230786e+000	-1.173946028627047e+001
1	 9.443548120835819e-001	 2.278729016326116e+000	-1.263794439386633e+001
1	 9.201135887607101e-001	 2.288624633432979e+000	-1.357974652998766e+001
1	 8.958214920080091e-001	 2.298241797471829e+000	-1.456536938584518e+001
1	 8.714831057299987e-001	 2.307580654370066e+000	-1.559532346758687e+001
1	 8.471029894164829e-001	 2.316641445917933e+000	-1.667012777751484e+001
1	 8.226856757690345e-001	 2.325424508556098e+000	-1.779031044101186e+001
1	 7.982356683829376e-001	 2.333930272097482e+000	-1.895640927861291e+001
1	 7.737574394865078e-001	 2.342159258385901e+000	-2.016897232283023e+001
1	 7.492554277395961e-001	 2.350112079894209e+000	-2.142855827950735e+001
1	 7.247340360929326e-001	 2.357789438264623e+000	-2.273573693364941e+001
1	 9.790118166326809e-001	 2.293081107571061e+000	-1.114144838998499e+001
1	 9.545645913492464e-001	 2.303365222940131e+000	-1.204341167970605e+001
1	 9.300612869356041e-001	 2.313367825329754e+000	-1.299140867232038e+001
1	 9.055065590801177e-001	 2.323088964189277e+000	-1.398624833480194e+001
1	 8.809050412456383e-001	 2.332528787023769e+000	-1.502874311789255e+001
1	 8.562613422163421e-001	 2.341687538237552e+000	-1.611970918716294e+001
1	 8.315800436985597e-001	 2.350565557908681e+000	-1.725996661495541e+001
1	 8.068656979776513e-001	 2.359163280496939e+000	-1.845033953324181e+001
1	 7.821228256328890e-001	 2.367481233487989e+000	-1.969165624754777e+001
1	 7.573559133121597e-001	 2.375520035976356e+000	-2.098474931221983e+001
1	 7.325694115681635e-001	 2.383280397189971e+000	-2.233045556741999e+001
1	 9.894830771810521e-001	 2.317607317911332e+000	-1.049649979200891e+001
1	 9.647743706149043e-001	 2.328001429554083e+000	-1.139871866383267e+001
1	 9.400089851104753e-001	 2.338111017226406e+000	-1.234975592741040e+001
1	 9.151916261521811e-001	 2.347936130906542e+000	-1.335070562219911e+001
1	 8.903269767612044e-001	 2.357476919677232e+000	-1.440266013561667e+001
1	 8.654196950160987e-001	 2.366733630556880e+000	-1.550671002949825e+001
1	 8.404744116279526e-001	 2.375706607260921e+000	-1.666394384315701e+001
1	 8.154957275722060e-001	 2.384396288896006e+000	-1.787544787357359e+001
1	 7.904882117790896e-001	 2.392803208589645e+000	-1.914230593331661e+001
1	 7.654563988845279e-001	 2.400927992058032e+000	-2.046559908686047e+001
1	 7.404047870431946e-001	 2.408771356114817e+000	-2.184640536603614e+001
1	 9.999543377295893e-001	 2.342133528251598e+000	-9.805246624401079e+000
1	 9.749841498807206e-001	 2.352637636167958e+000	-1.070458374768868e+001
1	 9.499566832854869e-001	 2.362854209122914e+000	-1.165557058328147e+001
1	 9.248766932243571e-001	 2.372783297623596e+000	-1.265956579817198e+001
1	 8.997489122768516e-001	 2.382425052330420e+000	-1.371792048099593e+001
1	 8.745780478159022e-001	 2.391779722875868e+000	-1.483197760850931e+001
1	 8.493687795573580e-001	 2.400847656612761e+000	-1.600307150493763e+001
1	 8.241257571667413e-001	 2.409629297294619e+000	-1.723252729511657e+001
1	 7.988535979252458e-001	 2.418125183690795e+000	-1.852166035237023e+001
1	 7.735568844568355e-001	 2.426335948139160e+000	-1.987177574209308e+001
1	 7.482401625181595e-001	 2.434262315039077e+000	-2.128416766202041e+001
1	 1.010425598278460e+000	 2.366659738591860e+000	-9.068294815533312e+000
1	 9.851939291468612e-001	 2.377273842781749e+000	-9.961695552915968e+000
1	 9.599043814608010e-001	 2.387597401019256e+000	-1.090960249987416e+001
1	 9.345617602968062e-001	 2.397630464340408e+000	-1.191361923288707e+001
1	 9.091708477927346e-001	 2.407373184983288e+000	-1.297533504678819e+001
1	 8.837364006159016e-001	 2.416825815194467e+000	-1.409632410500264e+001
1	 8.582631474869203e-001	 2.425988705964147e+000	-1.527814459946557e+001
1	 8.327557867613982e-001	 2.434862305692712e+000	-1.652233792143951e+001
1	 8.072189840714941e-001	 2.443447158791370e+000	-1.783042784442234e+001
1	 7.816573700292160e-001	 2.451743904219661e+000	-1.920391972031604e+001
1	 7.560755379931917e-001	 2.459753273962668e+000	-2.064429968999383e+001
1	 1.020896858827830e+000	 2.391185948932115e+000	-8.286225433936346e+000
1	 9.954037084134920e-001	 2.401910049395444e+000	-9.170714448601254e+000
1	 9.698520796365818e-001	 2.412340592915415e+000	-1.011257077210787e+001
1	 9.442468273696867e-001	 2.422477631056949e+000	-1.111362386944814e+001
1	 9.185927833090082e-001	 2.432321317635803e+000	-1.217568145669405e+001
1	 8.928947534162468e-001	 2.441871907512629e+000	-1.330052837788201e+001
1	 8.671575154167843e-001	 2.451129755315018e+000	-1.448992550892904e+001
1	 8.413858163563170e-001	 2.460095314090223e+000	-1.574560868999599e+001
1	 8.155843702179720e-001	 2.468769133891297e+000	-1.706928768764340e+001
1	 7.897578556018043e-001	 2.477151860299458e+000	-1.846264518805474e+001
1	 7.639109134684247e-001	 2.485244232885506e+000	-1.992733582252708e+001
1	 6.855571587091146e-001	 2.230334643633273e+000	-2.355840423153202e+001
1	 6.623471141318938e-001	 2.237337161406804e+000	-2.464777917999575e+001
1	 6.391269560606028e-001	 2.244080678083104e+000	-2.575802907754624e+001
1	 6.159007346850257e-001	 2.250566098306568e+000	-2.688250213314485e+001
1	 5.926724590196567e-001	 2.256794405071064e+000	-2.801462187474772e+001
1	 5.694460951855147e-001	 2.262766658109031e+000	-2.914789816709781e+001
1	 5.462255647562676e-001	 2.268483992241738e+000	-3.027593782763809e+001
1	 5.230147431693810e-001	 2.273947615693367e+000	-3.139245482892211e+001
1	 4.998174582029119e-001	 2.279158808371665e+000	-3.249128007719224e+001
1	 4.766374885184339e-001	 2.284118920117789e+000	-3.356637075808990e+001
1	 4.534785622704716e-001	 2.288829368928065e+000	-3.461181924173665e+001
1	 6.933925341873450e-001	 2.255825602559878e+000	-2.355662772387146e+001
1	 6.699172171789138e-001	 2.262908153566841e+000	-2.470535273860251e+001
1	 6.464316710871189e-001	 2.269728743299059e+000	-2.587976421642719e+001
1	 6.229399923922244e-001	 2.276288286740297e+000	-2.707348423680261e+001
1	 5.994462359286032e-001	 2.282587778119269e+000	-2.828020251463132e+001
1	 5.759544131469153e-001	 2.288628289280320e+000	-2.949368726935791e+001
1	 5.524684904413270e-001	 2.294410968014828e+000	-3.070779570597120e+001
1	 5.289923875425029e-001	 2.299937036356029e+000	-3.191648409620735e+001
1	 5.055299759769889e-001	 2.305207788840002e+000	-3.311381744951824e+001
1	 4.820850775934855e-001	 2.310224590735523e+000	-3.429397876463194e+001
1	 4.586614631563876e-001	 2.314988876245497e+000	-3.545127785378502e+001
1	 7.012279096647085e-001	 2.281316561486399e+000	-2.347276495484135e+001
1	 6.774873202250681e-001	 2.288479145726790e+000	-2.467783609811233e+001
1	 6.537363861127734e-001	 2.295376808514921e+000	-2.591339490474009e+001
1	 6.299792500985683e-001	 2.302010475173931e+000	-2.717346140190025e+001
1	 6.062200128367057e-001	 2.308381151167378e+000	-2.845211476530464e+001
1	 5.824627311074861e-001	 2.314489920451514e+000	-2.974350383809376e+001
1	 5.587114161255758e-001	 2.320337943787829e+000	-3.104185728149070e+001
1	 5.349700319148383e-001	 2.325926457018605e+000	-3.234149334567405e+001
1	 5.112424937503095e-001	 2.331256769308258e+000	-3.363682925054812e+001
1	 4.875326666678159e-001	 2.336330261353183e+000	-3.492239016730296e+001
1	 4.638443640416252e-001	 2.341148383562864e+000	-3.619281779286606e+001
1	 7.090632851413385e-001	 2.306807520412753e+000	-2.330753935236179e+001
1	 6.850574232704915e-001	 2.314050137886563e+000	-2.456584699144651e+001
1	 6.610411011377029e-001	 2.321024873730600e+000	-2.585945420190365e+001
1	 6.370185078041978e-001	 2.327732663607379e+000	-2.718289883004105e+001
1	 6.129937897441081e-001	 2.334174524215300e+000	-2.853076860325400e+001
1	 5.889710490673755e-001	 2.340351551622521e+000	-2.989771110077808e+001
1	 5.649543418091654e-001	 2.346264919560645e+000	-3.127844338202882e+001
1	 5.409476762865411e-001	 2.351915877681005e+000	-3.266776126138956e+001
1	 5.169550115230276e-001	 2.357305749776349e+000	-3.406054821945795e+001
1	 4.929802557415790e-001	 2.362435931970693e+000	-3.545178394190766e+001
1	 4.690272649263334e-001	 2.367307890880099e+000	-3.683655247826351e+001
1	 7.168986606173690e-001	 2.332298479338855e+000	-2.306164271740484e+001
1	 6.926275263153182e-001	 2.339621130046071e+000	-2.436997614537123e+001
1	 6.683458161620449e-001	 2.346672938946006e+000	-2.571845186295229e+001
1	 6.440577655092538e-001	 2.353454852040546e+000	-2.710224138506385e+001
1	 6.197675666509556e-001	 2.359967897262938e+000	-2.851655608154304e+001
1	 5.954793670267321e-001	 2.366213182793248e+000	-2.995665640524267e+001
1	 5.711972674922478e-001	 2.372191895333188e+000	-3.141786080941150e+001
1	 5.469253206577651e-001	 2.377905298343142e+000	-3.289555434386356e+001
1	 5.226675292952985e-001	 2.383354730244194e+000	-3.438519692049326e+001
1	 4.984278448149279e-001	 2.388541602587979e+000	-3.588233123975632e+001
1	 4.742101658106621e-001	 2.393467398197139e+000	-3.738259037077854e+001
1	 7.247340360929326e-001	 2.357789438264623e+000	-2.273573693364941e+001
1	 7.001976293596834e-001	 2.365192122205227e+000	-2.409078874036603e+001
1	 6.756505311859367e-001	 2.372321004161045e+000	-2.549087559829887e+001
1	 6.510970232138765e-001	 2.379177040473339e+000	-2.693191469243933e+001
1	 6.265413435573920e-001	 2.385761270310199e+000	-2.840985229869676e+001
1	 6.019876849857038e-001	 2.392074813963600e+000	-2.992067207808178e+001
1	 5.774401931749748e-001	 2.398118871105365e+000	-3.146040309766055e+001
1	 5.529029650286649e-001	 2.403894719004927e+000	-3.302512756865271e+001
1	 5.283800470672764e-001	 2.409403710711710e+000	-3.461098829299395e+001
1	 5.038754338880155e-001	 2.414647273204967e+000	-3.621419581063304e+001
1	 4.793930666947601e-001	 2.419626905513915e+000	-3.783103524076952e+001
1	 7.325694115681635e-001	 2.383280397189971e+000	-2.233045556741999e+001
1	 7.077677324037210e-001	 2.390763114363942e+000	-2.372882577680673e+001
1	 6.829552462095150e-001	 2.397969069375628e+000	-2.517719225265248e+001
1	 6.581362809182069e-001	 2.404899228905663e+000	-2.667232616811345e+001
1	 6.333151204635621e-001	 2.411554643356989e+000	-2.821101630540835e+001
1	 6.084960029444394e-001	 2.417936445133482e+000	-2.979007622796871e+001
1	 5.836831188574980e-001	 2.424045846877084e+000	-3.140635122253887e+001
1	 5.588806093993937e-001	 2.429884139666275e+000	-3.305672500270151e+001
1	 5.340925648391162e-001	 2.435452691178814e+000	-3.473812616612165e+001
1	 5.093230229609952e-001	 2.440752943821578e+000	-3.644753439861956e+001
1	 4.845759675787774e-001	 2.445786412830363e+000	-3.818198641899136e+001
1	 7.404047870431946e-001	 2.408771356114817e+000	-2.184640536603614e+001
1	 7.153378354475657e-001	 2.416334106522127e+000	-2.328460535440178e+001
1	 6.902599612329170e-001	 2.423617134589662e+000	-2.477784890908099e+001
1	 6.651755386223857e-001	 2.430621417337429e+000	-2.632386598202352e+001
1	 6.400888973696106e-001	 2.437348016403214e+000	-2.792039195367483e+001
1	 6.150043209030871e-001	 2.443798076302805e+000	-2.956517349796538e+001
1	 5.899260445399690e-001	 2.449972822648255e+000	-3.125597426604239e+001
1	 5.648582537701060e-001	 2.455873560327097e+000	-3.299058038154585e+001
1	 5.398050826109726e-001	 2.461501671645427e+000	-3.476680574090445e+001
1	 5.147706120340209e-001	 2.466858614437742e+000	-3.658249711278635e+001
1	 4.897588684628631e-001	 2.471945920146419e+000	-3.843553903150669e+001
1	 7.482401625181595e-001	 2.434262315039077e+000	-2.128416766202041e+001
1	 7.229079384913520e-001	 2.441905098679697e+000	-2.275862387124097e+001
1	 6.975646762562796e-001	 2.449265199803056e+000	-2.429327392370401e+001
1	 6.722147963265527e-001	 2.456343605768539e+000	-2.588690796107672e+001
1	 6.468626742756821e-001	 2.463141389448778e+000	-2.753830869258022e+001
1	 6.215126388617955e-001	 2.469659707471471e+000	-2.924625577056395e+001
1	 5.961689702225396e-001	 2.475899798418785e+000	-3.100953003914211e+001
1	 5.708358981409558e-001	 2.481862980987305e+000	-3.282691765025280e+001
1	 5.455176003830004e-001	 2.487550652111466e+000	-3.469721404199472e+001
1	 5.202182011072450e-001	 2.492964285053382e+000	-3.661922777459326e+001
1	 4.949417693471666e-001	 2.498105427462015e+000	-3.859178421983879e+001
1	 7.560755379931917e-001	 2.459753273962668e+000	-2.064429968999383e+001
1	 7.304780415352139e-001	 2.467476090836561e+000	-2.215135714828841e+001
1	 7.048693912797398e-001	 2.474913265015718e+000	-2.372387789605029e+001
1	 6.792540540308489e-001	 2.482065794198899e+000	-2.536181043598140e+001
1	 6.536364511819208e-001	 2.488934762493587e+000	-2.706508231459848e+001
1	 6.280209568207131e-001	 2.495521338639388e+000	-2.883360282888939e+001
1	 6.024118959053617e-001	 2.501826774188583e+000	-3.066726566580461e+001
1	 5.768135425120966e-001	 2.507852401646812e+000	-3.256595147072368e+001
1	 5.512301181553538e-001	 2.513599632576846e+000	-3.452953034133701e+001
1	 5.256657901808214e-001	 2.519069955668422e+000	-3.655786424368854e+001
1	 5.001246702318374e-001	 2.524264934777087e+000	-3.865080934743406e+001
1	 7.639109134684247e-001	 2.485244232885506e+000	-1.992733582252708e+001
1	 7.380481445792873e-001	 2.493047082992633e+000	-2.146326148467179e+001
1	 7.121741063034353e-001	 2.500561330227558e+000	-2.307005457969787e+001
1	 6.862933117354153e-001	 2.507787982628420e+000	-2.474891703596396e+001
1	 6.604102280884718e-001	 2.514728135537550e+000	-2.650101565596661e+001
1	 6.345292747799888e-001	 2.521382969806464e+000	-2.832748297721038e+001
1	 6.086548215885872e-001	 2.527753749957561e+000	-3.022941813107007e+001
1	 5.827911868836834e-001	 2.533841822305532e+000	-3.220788769777795e+001
1	 5.569426359281881e-001	 2.539648613041488e+000	-3.426392655576198e+001
1	 5.311133792549037e-001	 2.545175626282792e+000	-3.639853872365841e+001
1	 5.053075711170251e-001	 2.550424442091569e+000	-3.861269819341950e+001
1	 4.534785622704716e-001	 2.288829368928065e+000	-3.461181924173665e+001
1	 4.303478228187894e-001	 2.293290988703301e+000	-3.561597682424856e+001
1	 4.072454120468742e-001	 2.297506054455230e+000	-3.656619066740649e+001
1	 3.841748921516889e-001	 2.301476178916054e+000	-3.745484070544021e+001
1	 3.611397700823948e-001	 2.305203035563035e+000	-3.827451482156399e+001
1	 3.381434964856022e-001	 2.308688356741214e+000	-3.901801804565470e+001
1	 3.151894647169172e-001	 2.311933931773511e+000	-3.967838115687901e+001
1	 2.922810099184495e-001	 2.314941605060654e+000	-4.024886869072356e+001
1	 2.694214081618384e-001	 2.317713274173349e+000	-4.072298635127726e+001
1	 2.466138756562645e-001	 2.320250887939014e+000	-4.109448783096239e+001
1	 2.238615680208486e-001	 2.322556444525402e+000	-4.135738104120666e+001
1	 4.586614631563876e-001	 2.314988876245497e+000	-3.545127785378502e+001
1	 4.352663576684167e-001	 2.319501488801562e+000	-3.657424752767663e+001
1	 4.118999046346665e-001	 2.323764729417043e+000	-3.765021720498455e+001
1	 3.885657069651761e-001	 2.327780229256406e+000	-3.867142295463725e+001
1	 3.652673116907450e-001	 2.331549680923443e+000	-3.963030358818844e+001
1	 3.420082088961280e-001	 2.335074836562539e+000	-4.051951036558787e+001
1	 3.187918307202851e-001	 2.338357505947168e+000	-4.133191609773193e+001
1	 2.956215504233459e-001	 2.341399554558111e+000	-4.206062364451820e+001
1	 2.725006815198411e-001	 2.344202901653812e+000	-4.269897380856843e+001
1	 2.494324769776624e-001	 2.346769518335254e+000	-4.324055262617984e+001
1	 2.264201284821455e-001	 2.349101425607677e+000	-4.367919805840105e+001
1	 4.638443640416252e-001	 2.341148383562864e+000	-3.619281779286606e+001
1	 4.401848925174144e-001	 2.345711988899768e+000	-3.743692858388011e+001
1	 4.165543972218820e-001	 2.350023404378815e+000	-3.864217318367170e+001
1	 3.929565217781408e-001	 2.354084279596734e+000	-3.980080977537908e+001
1	 3.693948532986258e-001	 2.357896326283851e+000	-4.090529205081293e+001
1	 3.458729213062330e-001	 2.361461316383892e+000	-4.194827919202121e+001
1	 3.223941967232739e-001	 2.364781080120888e+000	-4.292264525079125e+001
1	 2.989620909278954e-001	 2.367857504055670e+000	-4.382148792425704e+001
1	 2.755799548775170e-001	 2.370692529134423e+000	-4.463813672624463e+001
1	 2.522510782987388e-001	 2.373288148731701e+000	-4.536616055539265e+001
1	 2.289786889431087e-001	 2.375646406690224e+000	-4.599937466245360e+001
1	 4.690272649263334e-001	 2.367307890880099e+000	-3.683655247826351e+001
1	 4.451034273659250e-001	 2.371922488997865e+000	-3.820407061475174e+001
1	 4.212088898086547e-001	 2.376282079340507e+000	-3.954206242018420e+001
1	 3.973473365907070e-001	 2.380388329937013e+000	-4.084296831701978e+001
1	 3.735223949061499e-001	 2.384242971644242e+000	-4.209941502186943e+001
1	 3.497376337160195e-001	 2.387847796205267e+000	-4.330422557498127e+001
1	 3.259965627259769e-001	 2.391204654294674e+000	-4.445042877798341e+001
1	 3.023026314321841e-001	 2.394315453553343e+000	-4.553126803767639e+001
1	 2.786592282349474e-001	 2.397182156615205e+000	-4.654020961511431e+001
1	 2.550696796195737e-001	 2.399806779128375e+000	-4.747095028061872e+001
1	 2.315372494038215e-001	 2.402191387773061e+000	-4.831742437672354e+001
1	 4.742101658106621e-001	 2.393467398197139e+000	-3.738259037077854e+001
1	 4.500219622140912e-001	 2.398132989095801e+000	-3.887572202908909e+001
1	 4.258633823951184e-001	 2.402540754302073e+000	-4.034988856437990e+001
1	 4.017381514029981e-001	 2.406692380277210e+000	-4.179786716508457e+001
1	 3.776499365134305e-001	 2.410589617004602e+000	-4.321261016367284e+001
1	 3.536023461255908e-001	 2.414234276026661e+000	-4.458725489040807e+001
1	 3.295989287284878e-001	 2.417628228468532e+000	-4.591513295470156e+001
1	 3.056431719362983e-001	 2.420773403051146e+000	-4.718977895164151e+001
1	 2.817385015922140e-001	 2.423671784096174e+000	-4.840493859268999e+001
1	 2.578882809402479e-001	 2.426325409525293e+000	-4.955457626091529e+001
1	 2.340958098643675e-001	 2.428736368856203e+000	-5.063288199244308e+001
1	 4.793930666947601e-001	 2.419626905513915e+000	-3.783103524076952e+001
1	 4.549404970620559e-001	 2.424343489193518e+000	-3.945192914222750e+001
1	 4.305178749814069e-001	 2.428799429263473e+000	-4.106565510827772e+001
1	 4.061289662151379e-001	 2.432996430617297e+000	-4.266547626363564e+001
1	 3.817774781205808e-001	 2.436936262364910e+000	-4.424481783436453e+001
1	 3.574670585350495e-001	 2.440620755848070e+000	-4.579727660630924e+001
1	 3.332012947309002e-001	 2.444051802642469e+000	-4.731662983933026e+001
1	 3.089837124403241e-001	 2.447231352549091e+000	-4.879684363487377e+001
1	 2.848177749493984e-001	 2.450161411577347e+000	-5.023208075576670e+001
1	 2.607068822608414e-001	 2.452844039922479e+000	-5.161670789843956e+001
1	 2.366543703248299e-001	 2.455281349939667e+000	-5.294530241904349e+001
1	 4.845759675787774e-001	 2.445786412830363e+000	-3.818198641899136e+001
1	 4.598590319099618e-001	 2.450553989290962e+000	-3.993273628799535e+001
1	 4.351723675676542e-001	 2.455058104224664e+000	-4.168936539449923e+001
1	 4.105197810272501e-001	 2.459300480957246e+000	-4.344576684261919e+001
1	 3.859050197277137e-001	 2.463282907725154e+000	-4.519598094374442e+001
1	 3.613317709444980e-001	 2.467007235669486e+000	-4.693420406392281e+001
1	 3.368036607333075e-001	 2.470475376816489e+000	-4.865479696397905e+001
1	 3.123242529443478e-001	 2.473689302047192e+000	-5.035229263002151e+001
1	 2.878970483065824e-001	 2.476651039058744e+000	-5.202140359326361e+001
1	 2.635254835814349e-001	 2.479362670319949e+000	-5.365702873931198e+001
1	 2.392129307852924e-001	 2.481826331023470e+000	-5.525425960825974e+001
1	 4.897588684628631e-001	 2.471945920146419e+000	-3.843553903150669e+001
1	 4.647775667579517e-001	 2.476764489388081e+000	-4.031818592356200e+001
1	 4.398268601539943e-001	 2.481316779185606e+000	-4.222102262417381e+001
1	 4.149105958394587e-001	 2.485604531297026e+000	-4.413871134982591e+001
1	 3.900325613349427e-001	 2.489629553085316e+000	-4.606604481825458e+001
1	 3.651964833540393e-001	 2.493393715490908e+000	-4.799795427277318e+001
1	 3.404060267358032e-001	 2.496898950990598e+000	-4.992951704485286e+001
1	 3.156647934484556e-001	 2.500147251545462e+000	-5.185596365290339e+001
1	 2.909763216638470e-001	 2.503140666540383e+000	-5.377268443634932e+001
1	 2.663440849021088e-001	 2.505881300717724e+000	-5.567523572522030e+001
1	 2.417714912458383e-001	 2.508371312107629e+000	-5.755934554655038e+001
1	 4.949417693471666e-001	 2.498105427462015e+000	-3.859178421983879e+001
1	 4.696961016061681e-001	 2.502974989484819e+000	-4.060831872769629e+001
1	 4.444813527405609e-001	 2.507575454146253e+000	-4.266062986434652e+001
1	 4.193014106518871e-001	 2.511908581636609e+000	-4.474428338712606e+001
1	 3.941601029423804e-001	 2.515976198445378e+000	-4.685495707444817e+001
1	 3.690611957637762e-001	 2.519780195312328e+000	-4.898844771860514e+001
1	 3.440083927384809e-001	 2.523322525164801e+000	-5.114067771082002e+001
1	 3.190053339527335e-001	 2.526605201043914e+000	-5.330770121693055e+001
1	 2.940555950212743e-001	 2.529630294022282e+000	-5.548570994311461e+001
1	 2.691626862229433e-001	 2.532399931115825e+000	-5.767103849204573e+001
1	 2.443300517065510e-001	 2.534916293192159e+000	-5.986016931082355e+001
1	 5.001246702318374e-001	 2.524264934777087e+000	-3.865080934743406e+001
1	 4.746146364547537e-001	 2.529185489581120e+000	-4.080317369291685e+001
1	 4.491358453274879e-001	 2.533834129106566e+000	-4.300819005492657e+001
1	 4.236922254646594e-001	 2.538212631975964e+000	-4.526245765067073e+001
1	 3.982876445501403e-001	 2.542322843805324e+000	-4.756266750032462e+001
1	 3.729259081738113e-001	 2.546166675133743e+000	-4.990560818326024e+001
1	 3.476107587414339e-001	 2.549746099339105e+000	-5.228817124885713e+001
1	 3.223458744572680e-001	 2.553063150542563e+000	-5.470735628088270e+001
1	 2.971348683789456e-001	 2.556119921504460e+000	-5.716027561528839e+001
1	 2.719812875440190e-001	 2.558918561514268e+000	-5.964415871210031e+001
1	 2.468886121675140e-001	 2.561461274277079e+000	-6.215635618287750e+001
1	 5.053075711170251e-001	 2.550424442091569e+000	-3.861269819341950e+001
1	 4.795331713038518e-001	 2.555395989676932e+000	-4.090278821197085e+001
1	 4.537903379149098e-001	 2.560092804066504e+000	-4.326370601520688e+001
1	 4.280830402778991e-001	 2.564516682315065e+000	-4.569320987477098e+001
1	 4.024151861583350e-001	 2.568669489165140e+000	-4.818912794396830e+001
1	 3.767906205842475e-001	 2.572553154955150e+000	-5.074936257563751e+001
1	 3.512131247447561e-001	 2.576169673513514e+000	-5.337189436516110e+001
1	 3.256864149621451e-001	 2.579521100041421e+000	-5.605478591836024e+001
1	 3.002141417369426e-001	 2.582609548986935e+000	-5.879618534469559e+001
1	 2.747998888654161e-001	 2.585437191913076e+000	-6.159432947684372e+001
1	 2.494471726288109e-001	 2.588006255362404e+000	-6.444754681833997e+001
1	 2.238615680208486e-001	 2.322556444525402e+000	-4.135738104120667e+001
1	 2.011641876059516e-001	 2.324632283812556e+000	-4.149744793371273e+001
1	 1.785282247002906e-001	 2.326480135022100e+000	-4.149915279784185e+001
1	 1.559566963524342e-001	 2.328102134340242e+000	-4.135505023222862e+001
1	 1.334525552926767e-001	 2.329500459691833e+000	-4.105801370309907e+001
1	 1.110186895228712e-001	 2.330677328820791e+000	-4.060124015226087e+001
1	 8.865792196686122e-002	 2.331634997380677e+000	-3.997825397466398e+001
1	 6.637301018034868e-002	 2.332375757037283e+000	-3.918291037748276e+001
1	 4.416664611898429e-002	 2.332901933585021e+000	-3.820939813360342e+001
1	 2.204145596341870e-002	 2.333215885078842e+000	-3.705224174327142e+001
1	 0.000000000000000e+000	 2.333319999983334e+000	-3.570630301845358e+001
1	 2.264201284821455e-001	 2.349101425607677e+000	-4.367919805840105e+001
1	 2.034633349817422e-001	 2.351200990094103e+000	-4.400060518091592e+001
1	 1.805686609440350e-001	 2.353069960779786e+000	-4.418885687119395e+001
1	 1.577391579000761e-001	 2.354710498265832e+000	-4.423597917640328e+001
1	 1.349778123275369e-001	 2.356124805369036e+000	-4.413432341626357e+001
1	 1.122875452358524e-001	 2.357315125180360e+000	-4.387657159137162e+001
1	 8.967121181265779e-002	 2.358283739133688e+000	-4.345574112409539e+001
1	 6.713160113034059e-002	 2.359032965086723e+000	-4.286518894377095e+001
1	 4.467143591148018e-002	 2.359565155415852e+000	-4.209861492896593e+001
1	 2.229337235189973e-002	 2.359882695126717e+000	-4.115006472052762e+001
1	 0.000000000000000e+000	 2.359987999982150e+000	-4.001393192001710e+001
1	 2.289786889431087e-001	 2.375646406690224e+000	-4.599937466245359e+001
1	 2.057624823571691e-001	 2.377769696375999e+000	-4.652354002266355e+001
1	 1.826090971873753e-001	 2.379659786537899e+000	-4.692247273207012e+001
1	 1.595216194472727e-001	 2.381318862191933e+000	-4.718776450482853e+001
1	 1.365030693619190e-001	 2.382749151046835e+000	-4.731133562258768e+001
1	 1.135564009483399e-001	 2.383952921540606e+000	-4.728544106250183e+001
1	 9.068450165797164e-002	 2.384932480887448e+000	-4.710267592772941e+001
1	 6.789019207989593e-002	 2.385690173136972e+000	-4.675598019187173e+001
1	 4.517622570362967e-002	 2.386228377247542e+000	-4.623864276990831e+001
1	 2.254528874017709e-002	 2.386549505175481e+000	-4.554430492921588e+001
1	 0.000000000000000e+000	 2.386655999981866e+000	-4.466696305521255e+001
1	 2.315372494038215e-001	 2.402191387773061e+000	-4.831742437672353e+001
1	 2.080616297323233e-001	 2.404338402658252e+000	-4.906560701241552e+001
1	 1.846495334304126e-001	 2.406249612296440e+000	-4.969915865362372e+001
1	 1.613040809941353e-001	 2.407927226118531e+000	-5.020932709384292e+001
1	 1.380283263959423e-001	 2.409373496725197e+000	-5.058768894312015e+001
1	 1.148252566604571e-001	 2.410590717901478e+000	-5.082615639698929e+001
1	 9.169779150292333e-002	 2.411581222641891e+000	-5.091698328461546e+001
1	 6.864878302912381e-002	 2.412347381187954e+000	-5.085277040724523e+001
1	 4.568101549551938e-002	 2.412891599079999e+000	-5.062647017923123e+001
1	 2.279720512830171e-002	 2.413216315225037e+000	-5.023139058499195e+001
1	 0.000000000000000e+000	 2.413323999982383e+000	-4.966119846628617e+001
1	 2.340958098643675e-001	 2.428736368856203e+000	-5.063288199244306e+001
1	 2.103607771072956e-001	 2.430907108940868e+000	-5.162618892138018e+001
1	 1.866899696732478e-001	 2.432839438055403e+000	-5.251810970777377e+001
1	 1.630865425407753e-001	 2.434535590045608e+000	-5.329963499710785e+001
1	 1.395535834297265e-001	 2.435997842404091e+000	-5.396208151591924e+001
1	 1.160941123723274e-001	 2.437228514262929e+000	-5.449709940470424e+001
1	 9.271108134763365e-002	 2.438229964396952e+000	-5.489667881343658e+001
1	 6.940737397813342e-002	 2.439004589239588e+000	-5.515315577037074e+001
1	 4.618580528723588e-002	 2.439554820913136e+000	-5.525921733602785e+001
1	 2.304912151632448e-002	 2.439883125275287e+000	-5.520790605540710e+001
1	 0.000000000000000e+000	 2.439991999983599e+000	-5.499262372253455e+001
1	 2.366543703248299e-001	 2.455281349939667e+000	-5.294530241904349e+001
1	 2.126599244821769e-001	 2.457475815223860e+000	-5.420469521315088e+001
1	 1.887304059159820e-001	 2.459429263814787e+000	-5.537855577597968e+001
1	 1.648690040873040e-001	 2.461143953973148e+000	-5.645770089534879e+001
1	 1.410788404633911e-001	 2.462622188083482e+000	-5.743326777874957e+001
1	 1.173629680840743e-001	 2.463866310624908e+000	-5.829672187500162e+001
1	 9.372437119222328e-002	 2.464878706152569e+000	-5.903986394848957e+001
1	 7.016596492703386e-002	 2.465661797291797e+000	-5.965483641616465e+001
1	 4.669059507886578e-002	 2.466218042746861e+000	-6.013412895875542e+001
1	 2.330103790429633e-002	 2.466549935326134e+000	-6.047058341882330e+001
1	 0.000000000000000e+000	 2.466659999985416e+000	-6.065739799940278e+001
1	 2.392129307852924e-001	 2.481826331023470e+000	-5.525425960825974e+001
1	 2.149590718570580e-001	 2.484044521507234e+000	-5.680056061623228e+001
1	 1.907708421587163e-001	 2.486019089574589e+000	-5.827975968767199e+001
1	 1.666514656338326e-001	 2.487752317901131e+000	-5.968257970975835e+001
1	 1.426040974970557e-001	 2.489246533763340e+000	-6.100005545824745e+001
1	 1.186318237958212e-001	 2.490504106987368e+000	-6.222354183430971e+001
1	 9.473766103681285e-002	 2.491527447908676e+000	-6.334472135037837e+001
1	 7.092455587593428e-002	 2.492319005344500e+000	-6.435561087463276e+001
1	 4.719538487049566e-002	 2.492881264581084e+000	-6.524856764503168e+001
1	 2.355295429226817e-002	 2.493216745377481e+000	-6.601629456503017e+001
1	 0.000000000000000e+000	 2.493327999987733e+000	-6.665184479425122e+001
1	 2.417714912458383e-001	 2.508371312107629e+000	-5.755934554655038e+001
1	 2.172582192320302e-001	 2.510613227791001e+000	-5.941324378720487e+001
1	 1.928112784015514e-001	 2.512608915334807e+000	-6.122101547688564e+001
1	 1.684339271804726e-001	 2.514360681829545e+000	-6.297336636693770e+001
1	 1.441293545308398e-001	 2.515870879443632e+000	-6.466130275026072e+001
1	 1.199006795076914e-001	 2.517141903350260e+000	-6.627614004134468e+001
1	 9.575095088152311e-002	 2.518176189665208e+000	-6.780951060810619e+001
1	 7.168314682494381e-002	 2.518976213397623e+000	-6.925337086451512e+001
1	 4.770017466221212e-002	 2.519544486415716e+000	-7.060000763432339e+001
1	 2.380487068029092e-002	 2.519883555429232e+000	-7.184204379743585e+001
1	 0.000000000000000e+000	 2.519995999990449e+000	-7.297244323162823e+001
1	 2.443300517065510e-001	 2.534916293192159e+000	-5.986016931082355e+001
1	 2.195573666071843e-001	 2.537181934075167e+000	-6.204222605788285e+001
1	 1.948517146445887e-001	 2.539198741095438e+000	-6.420164674842765e+001
1	 1.702163887273351e-001	 2.540969045758370e+000	-6.632919370426679e+001
1	 1.456546115648630e-001	 2.542495225124322e+000	-6.841591567734791e+001
1	 1.211695352198084e-001	 2.543779699713533e+000	-7.045315670253196e+001
1	 9.676424072647473e-002	 2.544824931422101e+000	-7.243256421120805e+001
1	 7.244173777417159e-002	 2.545633421451083e+000	-7.434609641404875e+001
1	 4.820496445410175e-002	 2.546207708250668e+000	-7.618602896252787e+001
1	 2.405678706841549e-002	 2.546550365481287e+000	-7.794496090006591e+001
1	 0.000000000000000e+000	 2.546663999993466e+000	-7.961581991483622e+001
1	 2.468886121675140e-001	 2.561461274277079e+000	-6.215635618287750e+001
1	 2.218565139826111e-001	 2.563750640359744e+000	-6.468701026037326e+001
1	 1.968921508879288e-001	 2.565788566856479e+000	-6.722100514563779e+001
1	 1.719988502745316e-001	 2.567577409687589e+000	-6.974923050551753e+001
1	 1.471798685992448e-001	 2.569119570805381e+000	-7.226284561058778e+001
1	 1.224383909322958e-001	 2.570417496077141e+000	-7.475328839166060e+001
1	 9.777753057178837e-002	 2.571473673179289e+000	-7.721228377233236e+001
1	 7.320032872372678e-002	 2.572290629504803e+000	-7.963185128511684e+001
1	 4.870975424625112e-002	 2.572870930085848e+000	-8.200431198001887e+001
1	 2.430870345669278e-002	 2.573217175533550e+000	-8.432229463565152e+001
1	 0.000000000000000e+000	 2.573331999996683e+000	-8.657874128416212e+001
1	 2.494471726288109e-001	 2.588006255362404e+000	-6.444754681833997e+001
1	 2.241556613584017e-001	 2.590319346644739e+000	-6.734711962444284e+001
1	 1.989325871316730e-001	 2.592378392617928e+000	-7.027846891244383e+001
1	 1.737813118221734e-001	 2.594185773617187e+000	-7.323267965735845e+001
1	 1.487051256341049e-001	 2.595743916486777e+000	-7.620108694389937e+001
1	 1.237072466452768e-001	 2.597055292441034e+000	-7.917528515910725e+001
1	 9.879082041758477e-002	 2.598122414936711e+000	-8.214713648229211e+001
1	 7.395891967371854e-002	 2.598947837558706e+000	-8.510877867900499e+001
1	 4.921454403874689e-002	 2.599534151921171e+000	-8.805263220706019e+001
1	 2.456061984517374e-002	 2.599883985585925e+000	-9.097140664385519e+001
1	 0.000000000000000e+000	 2.600000000000000e+000	-9.385810644539438e+001
1	 2.600000000000000e+000	 0.000000000000000e+000	 1.040091445770296e+002
1	 2.599883985585924e+000	 2.456061984517381e-002	 9.971388704746363e+001
1	 2.599534151921172e+000	 4.921454403874706e-002	 9.547306062374028e+001
1	 2.598947837558706e+000	 7.395891967371834e-002	 9.128761302941389e+001
1	 2.598122414936712e+000	 9.879082041758469e-002	 8.715866042490197e+001
1	 2.597055292441034e+000	 1.237072466452768e-001	 8.308748994524146e+001
1	 2.595743916486777e+000	 1.487051256341049e-001	 7.907556202012309e+001
1	 2.594185773617187e+000	 1.737813118221734e-001	 7.512451246422069e+001
1	 2.592378392617928e+000	 1.989325871316728e-001	 7.123615432591106e+001
1	 2.590319346644739e+000	 2.241556613584015e-001	 6.741247948259473e+001
1	 2.588006255362404e+000	 2.494471726288108e-001	 6.365565997097769e+001
1	 2.626668000003317e+000	 0.000000000000000e+000	 1.060812182518021e+002
1	 2.626550795638311e+000	 2.481253623389235e-002	 1.015601222858856e+002
1	 2.626197373756539e+000	 4.971933383164689e-002	 9.710347028699468e+001
1	 2.625605045612707e+000	 7.471751062421944e-002	 9.271225249816696e+001
1	 2.624771156694291e+000	 9.980411026394442e-002	 8.838762819800843e+001
1	 2.623693088805149e+000	 1.249761023588340e-001	 8.413092829274113e+001
1	 2.622368262168459e+000	 1.502303826695234e-001	 7.994365769011390e+001
1	 2.620794137547128e+000	 1.755637733703355e-001	 7.582749744302240e+001
1	 2.618968218379761e+000	 2.009730233758896e-001	 7.178430665075341e+001
1	 2.616888052930141e+000	 2.264548087346183e-001	 6.781612410588095e+001
1	 2.614551236448130e+000	 2.520057330904997e-001	 6.392516967498451e+001
1	 2.653336000006534e+000	 0.000000000000000e+000	 1.079493671010522e+002
1	 2.653217605690610e+000	 2.506445262281456e-002	 1.032105771237895e+002
1	 2.652860595591853e+000	 5.022412362489322e-002	 9.854651122209447e+001
1	 2.652262253666700e+000	 7.547610157515745e-002	 9.395816965571382e+001
1	 2.651419898451922e+000	 1.008174001107879e-001	 8.944672005482744e+001
1	 2.650330885169382e+000	 1.262449580728870e-001	 8.501350006501433e+001
1	 2.648992607850320e+000	 1.517556397054235e-001	 8.066001977727575e+001
1	 2.647402501477304e+000	 1.773462349189483e-001	 7.638796393090226e+001
1	 2.645558044141876e+000	 2.030134596205188e-001	 7.219919387703540e+001
1	 2.643456759215848e+000	 2.287539561112104e-001	 6.809574929087340e+001
1	 2.641096217534166e+000	 2.545642935525384e-001	 6.407984962060607e+001
1	 2.680004000009550e+000	 0.000000000000000e+000	 1.096139110161938e+002
1	 2.679884415742721e+000	 2.531636901188953e-002	 1.046658945970007e+002
1	 2.679523817427007e+000	 5.072891341839956e-002	 9.980310196591069e+001
1	 2.678919461720578e+000	 7.623469252642372e-002	 9.502651191549830e+001
1	 2.678068640209494e+000	 1.018306899579955e-001	 9.033726672661392e+001
1	 2.676968681533611e+000	 1.275138137873141e-001	 8.573667486502406e+001
1	 2.675616953532235e+000	 1.532808967416889e-001	 8.122621346985501e+001
1	 2.674010865407591e+000	 1.791286964679060e-001	 7.680753062168620e+001
1	 2.672147869904146e+000	 2.050538958654672e-001	 7.248244737818679e+001
1	 2.670025465501747e+000	 2.310531034880989e-001	 6.825295956527562e+001
1	 2.667641198620404e+000	 2.571228540148596e-001	 6.412123931190313e+001
1	 2.706672000012267e+000	 0.000000000000000e+000	 1.110751572814836e+002
1	 2.706551225794539e+000	 2.556828540106636e-002	 1.059266923988159e+002
1	 2.706187039261895e+000	 5.123370321207944e-002	 1.008741248550774e+002
1	 2.705576669774231e+000	 7.699328347790951e-002	 9.591838147052525e+001
1	 2.704717381966886e+000	 1.028439798054474e-001	 9.106054649948871e+001
1	 2.703606477897717e+000	 1.287826695019940e-001	 8.630186437755921e+001
1	 2.702241299214084e+000	 1.548061537782039e-001	 8.164374227083575e+001
1	 2.700619229337863e+000	 1.809111580171026e-001	 7.708775241524283e+001
1	 2.698737695666448e+000	 2.070943321106422e-001	 7.263563423396838e+001
1	 2.696594171787714e+000	 2.333522508652042e-001	 6.828929622113402e+001
1	 2.694186179706736e+000	 2.596814144773962e-001	 6.405081757991202e+001
1	 2.733340000014584e+000	 0.000000000000000e+000	 1.123334011890304e+002
1	 2.733218035845967e+000	 2.582020179029416e-002	 1.069935641162809e+002
1	 2.732850261096416e+000	 5.173849300584640e-002	 1.017604277919391e+002
1	 2.732233877827550e+000	 7.775187442950614e-002	 9.663483749933977e+001
1	 2.731366123723988e+000	 1.038572696530241e-001	 9.161778777285899e+001
1	 2.730244274261579e+000	 1.300515252168051e-001	 8.671042519464591e+001
1	 2.728865644895743e+000	 1.563314108148520e-001	 8.191405100712004e+001
1	 2.727227593267996e+000	 1.826936195664325e-001	 7.723012352953239e+001
1	 2.725327521428660e+000	 2.091347683559510e-001	 7.266026036689827e+001
1	 2.723162878073631e+000	 2.356513982424473e-001	 6.820624039965118e+001
1	 2.720731160793048e+000	 2.622399749400806e-001	 6.387000554244529e+001
1	 2.760008000016400e+000	 0.000000000000000e+000	 1.133889266181503e+002
1	 2.759884845896901e+000	 2.607211817952203e-002	 1.078670803947966e+002
1	 2.759513482930462e+000	 5.224328279961397e-002	 1.024628259081203e+002
1	 2.758891085880423e+000	 7.851046538110483e-002	 9.717689824411801e+001
1	 2.758014865480682e+000	 1.048705595006057e-001	 9.201017146951787e+001
1	 2.756882070625080e+000	 1.313203809316261e-001	 8.696366147715891e+001
1	 2.755489990577086e+000	 1.578566678515173e-001	 8.203852866425542e+001
1	 2.753835957197865e+000	 1.844760811157896e-001	 7.723608043223840e+001
1	 2.751917347190656e+000	 2.111752046013007e-001	 7.255777349684739e+001
1	 2.749731584359378e+000	 2.379505456197489e-001	 6.800521599716095e+001
1	 2.747276141879232e+000	 2.647985354028454e-001	 6.358016939230173e+001
1	 2.786676000017617e+000	 0.000000000000000e+000	 1.142420065814557e+002
1	 2.786551655947241e+000	 2.632403456869907e-002	 1.085477900358543e+002
1	 2.786176704763929e+000	 5.274807259329568e-002	 1.029821031325744e+002
1	 2.785548293932743e+000	 7.926905633259697e-002	 9.754554296943530e+001
1	 2.784663607236856e+000	 1.058838493480727e-001	 9.223883330735863e+001
1	 2.783519866988098e+000	 1.325892366463356e-001	 8.706282746360668e+001
1	 2.782114336257991e+000	 1.593819248880836e-001	 8.201851105839489e+001
1	 2.780444321127344e+000	 1.862585426650683e-001	 7.710700460406795e+001
1	 2.778507172952311e+000	 2.132156408465986e-001	 7.232956592598579e+001
1	 2.776300290644838e+000	 2.402496929970298e-001	 6.768759240424555e+001
1	 2.773821122965178e+000	 2.673570958656236e-001	 6.318262302538052e+001
1	 2.813344000018133e+000	 0.000000000000000e+000	 1.148929037398861e+002
1	 2.813218465996884e+000	 2.657595095777438e-002	 1.090362210323384e+002
1	 2.812839926596714e+000	 5.325286238680507e-002	 1.033190136704505e+002
1	 2.812205501984400e+000	 8.002764728387371e-002	 9.774171380963114e+001
1	 2.811312348992394e+000	 1.068971391953054e-001	 9.230486594188547e+001
1	 2.810157663350513e+000	 1.338580923608121e-001	 8.700912983622941e+001
1	 2.808738681938335e+000	 1.609071819244348e-001	 8.185528335629024e+001
1	 2.807052685056305e+000	 1.880410042141626e-001	 7.684422514489067e+001
1	 2.805096998713504e+000	 2.152560770917517e-001	 7.197697716533557e+001
1	 2.802868996929889e+000	 2.425488403742108e-001	 6.725468708906628e+001
1	 2.800366104050776e+000	 2.699156563283477e-001	 6.267863051932179e+001
1	 2.840012000017850e+000	 0.000000000000000e+000	 1.153418708887212e+002
1	 2.839885276045730e+000	 2.682786734669706e-002	 1.093328815454986e+002
1	 2.839503148428710e+000	 5.375765218005565e-002	 1.034742833986397e+002
1	 2.838862710035285e+000	 8.078623823482643e-002	 9.776631751209156e+001
1	 2.837961090747182e+000	 1.079104290421840e-001	 9.220932098801474e+001
1	 2.836795459712210e+000	 1.351269480749341e-001	 8.680372995379008e+001
1	 2.835363027617994e+000	 1.624324389604548e-001	 8.155008245330721e+001
1	 2.833661048984628e+000	 1.898234657629666e-001	 7.644902123304561e+001
1	 2.831686824474109e+000	 2.172965133366674e-001	 7.150129641334233e+001
1	 2.829437703214413e+000	 2.448479877512126e-001	 6.670776803514782e+001
1	 2.826911085135918e+000	 2.724742167909504e-001	 6.206940847249946e+001
1	 2.866680000016666e+000	 0.000000000000000e+000	 1.155891514164669e+002
1	 2.866552086093679e+000	 2.707978373541622e-002	 1.094382608273916e+002
1	 2.866166370259814e+000	 5.426244197296101e-002	 1.034486111834271e+002
1	 2.865519918085286e+000	 8.154482918534640e-002	 9.762022708322803e+001
1	 2.864609832501105e+000	 1.089237188885890e-001	 9.195321092902559e+001
1	 2.863433256073065e+000	 1.363958037885802e-001	 8.644774595973898e+001
1	 2.861987373296846e+000	 1.639576959960276e-001	 8.110409921870853e+001
1	 2.860269412912185e+000	 1.916059273113747e-001	 7.592262444737867e+001
1	 2.858276650234000e+000	 2.193369495812528e-001	 7.090376489610161e+001
1	 2.856006409498290e+000	 2.471471351279561e-001	 6.604805604309378e+001
1	 2.853456066220490e+000	 2.750327772533643e-001	 6.135612821245969e+001
1	 2.588006255362404e+000	 2.494471726288108e-001	 6.365565997097768e+001
1	 2.585437191913076e+000	 2.747998888654162e-001	 5.997784171257573e+001
1	 2.582609548986936e+000	 3.002141417369426e-001	 5.638883667091893e+001
1	 2.579521100041420e+000	 3.256864149621451e-001	 5.288919025763735e+001
1	 2.576169673513514e+000	 3.512131247447558e-001	 4.947953333168962e+001
1	 2.572553154955151e+000	 3.767906205842475e-001	 4.616058316345693e+001
1	 2.568669489165140e+000	 4.024151861583352e-001	 4.293314424963160e+001
1	 2.564516682315065e+000	 4.280830402778990e-001	 3.979810897237559e+001
1	 2.560092804066504e+000	 4.537903379149099e-001	 3.675645809638867e+001
1	 2.555395989676932e+000	 4.795331713038518e-001	 3.380926109772015e+001
1	 2.550424442091569e+000	 5.053075711170251e-001	 3.095767631837213e+001
1	 2.614551236448130e+000	 2.520057330904997e-001	 6.392516967498451e+001
1	 2.611955822312248e+000	 2.776184901871920e-001	 6.012276211694395e+001
1	 2.609099176469710e+000	 3.032934150953239e-001	 5.641772992514232e+001
1	 2.605979049540490e+000	 3.290269554674278e-001	 5.281048574368420e+001
1	 2.602593247688028e+000	 3.548154907485161e-001	 4.930152131341119e+001
1	 2.598939634776541e+000	 3.806553329951613e-001	 4.589140862399177e+001
1	 2.595016134524813e+000	 4.065427277670499e-001	 4.258080093145652e+001
1	 2.590820732653894e+000	 4.324738550916992e-001	 3.937043363463603e+001
1	 2.586351479026042e+000	 4.584448305029269e-001	 3.626112500409069e+001
1	 2.581606489772227e+000	 4.844517061535696e-001	 3.325377675727588e+001
1	 2.576583949405427e+000	 5.104904720028427e-001	 3.034937447386552e+001
1	 2.641096217534166e+000	 2.545642935525384e-001	 6.407984962060607e+001
1	 2.638474452711707e+000	 2.804370915093107e-001	 6.016188175992688e+001
1	 2.635588803952722e+000	 3.063726884540587e-001	 5.634962014489969e+001
1	 2.632436999039727e+000	 3.323674959730879e-001	 5.264334145123264e+001
1	 2.629016821862626e+000	 3.584178567526872e-001	 4.904339461630929e+001
1	 2.625326114597917e+000	 3.845200454065251e-001	 4.555020217695785e+001
1	 2.621362779884366e+000	 4.106702693762562e-001	 4.216426148816133e+001
1	 2.617124782992493e+000	 4.368646699060307e-001	 3.888614581617794e+001
1	 2.612610153985244e+000	 4.630993230915091e-001	 3.571650529963545e+001
1	 2.607816989867085e+000	 4.893702410038771e-001	 3.265606777228026e+001
1	 2.602743456718762e+000	 5.156733728892600e-001	 2.970563944120258e+001
1	 2.667641198620404e+000	 2.571228540148596e-001	 6.412123931190311e+001
1	 2.664993083111360e+000	 2.832556928317136e-001	 6.009665184713729e+001
1	 2.662078431435898e+000	 3.094519618130928e-001	 5.618586094758250e+001
1	 2.658894948539081e+000	 3.357080364790731e-001	 5.238900416950818e+001
1	 2.655440396037278e+000	 3.620202227572167e-001	 4.870628402068882e+001
1	 2.651712594419278e+000	 3.883847578182854e-001	 4.513796948166837e+001
1	 2.647709425243826e+000	 4.147978109858976e-001	 4.168439742429918e+001
1	 2.643428833330921e+000	 4.412554847208339e-001	 3.834597392106281e+001
1	 2.638868828944195e+000	 4.677538156805937e-001	 3.512317543873890e+001
1	 2.634027489961617e+000	 4.942887758547080e-001	 3.201654991006451e+001
1	 2.628902964031701e+000	 5.208562737762097e-001	 2.902671767712811e+001
1	 2.694186179706736e+000	 2.596814144773962e-001	 6.405081757991202e+001
1	 2.691511713511108e+000	 2.860742941543416e-001	 5.992846639107381e+001
1	 2.688568058919160e+000	 3.125312351723725e-001	 5.592775260349477e+001
1	 2.685352898038497e+000	 3.390485769853321e-001	 5.204867155082911e+001
1	 2.681863970211957e+000	 3.656225887620534e-001	 4.829127574194779e+001
1	 2.678099074240624e+000	 3.922494702303885e-001	 4.465567656364357e+001
1	 2.674056070603223e+000	 4.189253525959177e-001	 4.114204589777140e+001
1	 2.669732883669233e+000	 4.456462995360488e-001	 3.775061764639948e+001
1	 2.665127503902978e+000	 4.724083082701173e-001	 3.448168915856395e+001
1	 2.660237990055931e+000	 4.992073107059976e-001	 3.133562255225791e+001
1	 2.655062471344379e+000	 5.260391746636258e-001	 2.831284592534330e+001
1	 2.720731160793048e+000	 2.622399749400806e-001	 6.387000554244529e+001
1	 2.718030343910860e+000	 2.888928954771356e-001	 5.965866500116158e+001
1	 2.715057686402431e+000	 3.156105085318434e-001	 5.557654463827427e+001
1	 2.711810847537922e+000	 3.423891174918127e-001	 5.162349450764289e+001
1	 2.708287544386637e+000	 3.692249547671451e-001	 4.779941360457877e+001
1	 2.704485554061953e+000	 3.961141826427811e-001	 4.410425174805833e+001
1	 2.700402715962583e+000	 4.230528942062603e-001	 4.053801139535372e+001
1	 2.696036934007484e+000	 4.500371143516156e-001	 3.710074938274991e+001
1	 2.691386178861675e+000	 4.770628008600171e-001	 3.379257858599544e+001
1	 2.686448490150135e+000	 5.041258455576796e-001	 3.061366949412832e+001
1	 2.681221978656926e+000	 5.312220755514417e-001	 2.756425169033548e+001
1	 2.747276141879232e+000	 2.647985354028454e-001	 6.358016939230173e+001
1	 2.744548974310516e+000	 2.917114968000369e-001	 5.928853551204420e+001
1	 2.741547313885638e+000	 3.186897818914522e-001	 5.513343828444106e+001
1	 2.738268797037303e+000	 3.457296579984634e-001	 5.111457947059743e+001
1	 2.734711118561289e+000	 3.728273207724399e-001	 4.723170109013522e+001
1	 2.730872033883267e+000	 3.999788950554091e-001	 4.348458748110092e+001
1	 2.726749361321934e+000	 4.271804358168683e-001	 3.987306731108588e+001
1	 2.722340984345731e+000	 4.544279291674743e-001	 3.639701553334842e+001
1	 2.717644853820373e+000	 4.817172934502300e-001	 3.305635528166411e+001
1	 2.712658990244341e+000	 5.090443804096893e-001	 2.985105969758228e+001
1	 2.707381485969473e+000	 5.364049764395906e-001	 2.678115368373802e+001
1	 2.773821122965178e+000	 2.673570958656236e-001	 6.318262302538051e+001
1	 2.771067604709985e+000	 2.945300981229868e-001	 5.881931646096149e+001
1	 2.768036941368701e+000	 3.217690552511445e-001	 5.459958879218092e+001
1	 2.764726746536587e+000	 3.490701985052323e-001	 5.052299051695619e+001
1	 2.761134692735884e+000	 3.764296867778861e-001	 4.658910326760564e+001
1	 2.757258513704563e+000	 4.038436074682190e-001	 4.279754204675082e+001
1	 2.753096006681305e+000	 4.313079774276856e-001	 3.914795743403189e+001
1	 2.748645034684032e+000	 4.588187439835653e-001	 3.564003775757242e+001
1	 2.743903528779152e+000	 4.863717860406929e-001	 3.227351122402398e+001
1	 2.738869490338654e+000	 5.139629152619604e-001	 2.904814800092835e+001
1	 2.733540993282150e+000	 5.415878773280060e-001	 2.596376224506089e+001
1	 2.800366104050776e+000	 2.699156563283477e-001	 6.267863051932179e+001
1	 2.797586235109169e+000	 2.973486994459259e-001	 5.825219942422785e+001
1	 2.794526568851548e+000	 3.248483286108667e-001	 5.397610760870372e+001
1	 2.791184696035717e+000	 3.524107390120678e-001	 4.984975137796030e+001
1	 2.787558266910396e+000	 3.800320527834318e-001	 4.587254861399855e+001
1	 2.783644993525842e+000	 4.077083198811574e-001	 4.204394118591576e+001
1	 2.779442652040724e+000	 4.354355190386557e-001	 3.836339735142425e+001
1	 2.774949085022441e+000	 4.632095587998287e-001	 3.483041414369148e+001
1	 2.770162203738096e+000	 4.910262786313429e-001	 3.144451973746054e+001
1	 2.765079990433185e+000	 5.188814501144279e-001	 2.820527578827292e+001
1	 2.759700500595092e+000	 5.467707782166210e-001	 2.511227973849215e+001
1	 2.826911085135918e+000	 2.724742167909504e-001	 6.206940847249946e+001
1	 2.824104865507971e+000	 3.001673007687956e-001	 5.758833122207127e+001
1	 2.821016196334098e+000	 3.279276019705644e-001	 5.326406443481529e+001
1	 2.817642645534646e+000	 3.557512795189181e-001	 4.909584733309487e+001
1	 2.813981841084797e+000	 3.836344187890252e-001	 4.508293073235453e+001
1	 2.810031473347105e+000	 4.115730322941703e-001	 4.122457962434549e+001
1	 2.805789297400218e+000	 4.395630606497219e-001	 3.752007577275433e+001
1	 2.801253135361017e+000	 4.676003736162049e-001	 3.396872031554260e+001
1	 2.796420878697291e+000	 4.956807712221167e-001	 3.056983636810880e+001
1	 2.791290490528042e+000	 5.237999849670262e-001	 2.732277162120210e+001
1	 2.785860007908426e+000	 5.519536791053696e-001	 2.422690092734352e+001
1	 2.853456066220490e+000	 2.750327772533643e-001	 6.135612821245969e+001
1	 2.850623495906301e+000	 3.029859020915370e-001	 5.682881600040644e+001
1	 2.847505823816279e+000	 3.310068753301843e-001	 5.246448916669894e+001
1	 2.844100595033316e+000	 3.590918200257314e-001	 4.826222699862396e+001
1	 2.840405415259059e+000	 3.872367847946143e-001	 4.422110997386479e+001
1	 2.836417953168350e+000	 4.154377447072045e-001	 4.034022251526258e+001
1	 2.832135942759817e+000	 4.436906022608281e-001	 3.661865577995668e+001
1	 2.827557185699815e+000	 4.719911884326337e-001	 3.305551047743533e+001
1	 2.822679553656821e+000	 5.003352638129518e-001	 2.964989971078628e+001
1	 2.817500990623338e+000	 5.287185198196899e-001	 2.640095183520505e+001
1	 2.812019515222285e+000	 5.571365799941846e-001	 2.330781332759563e+001
1	 2.550424442091569e+000	 5.053075711170251e-001	 3.095767631837212e+001
1	 2.545175626282793e+000	 5.311133792549038e-001	 2.820308602422192e+001
1	 2.539648613041488e+000	 5.569426359281883e-001	 2.554695697960572e+001
1	 2.533841822305532e+000	 5.827911868836830e-001	 2.298936396058203e+001
1	 2.527753749957560e+000	 6.086548215885872e-001	 2.053036081005998e+001
1	 2.521382969806465e+000	 6.345292747799887e-001	 1.816997979889865e+001
1	 2.514728135537550e+000	 6.604102280884717e-001	 1.590823097344206e+001
1	 2.507787982628420e+000	 6.862933117354155e-001	 1.374510148995060e+001
1	 2.500561330227559e+000	 7.121741063034355e-001	 1.168055493645251e+001
1	 2.493047082992633e+000	 7.380481445792869e-001	 9.714530642605306e+000
1	 2.485244232885506e+000	 7.639109134684247e-001	 7.846942978223351e+000
1	 2.576583949405427e+000	 5.104904720028427e-001	 3.034937447386551e+001
1	 2.571281296896450e+000	 5.365609683296080e-001	 2.754788284911130e+001
1	 2.565697593505349e+000	 5.626551537016215e-001	 2.484935682745623e+001
1	 2.559831242963416e+000	 5.887688312558329e-001	 2.225366963588796e+001
1	 2.553680725725668e+000	 6.148977472723327e-001	 1.976065807562601e+001
1	 2.547244600972649e+000	 6.410375927397363e-001	 1.737012200320226e+001
1	 2.540521508580615e+000	 6.671840049954465e-001	 1.508182382700717e+001
1	 2.533510171057051e+000	 6.933325694403609e-001	 1.289548802017293e+001
1	 2.526209395438530e+000	 7.194788213274720e-001	 1.081080065066916e+001
1	 2.518618075147866e+000	 7.456182476236749e-001	 8.827408929489973e+000
1	 2.510735191807548e+000	 7.717462889439608e-001	 6.944920777811827e+000
1	 2.602743456718762e+000	 5.156733728892600e-001	 2.970563944120259e+001
1	 2.597386967509508e+000	 5.420085574049052e-001	 2.686363440478628e+001
1	 2.591746573968552e+000	 5.683676714756258e-001	 2.412858212898649e+001
1	 2.585820663620601e+000	 5.947464756285220e-001	 2.150018008683954e+001
1	 2.579607701493043e+000	 6.211406729565766e-001	 1.897807477900276e+001
1	 2.573106232138085e+000	 6.475459106999375e-001	 1.656186131336436e+001
1	 2.566314881622926e+000	 6.739577819028286e-001	 1.425108302723260e+001
1	 2.559232359484934e+000	 7.003718271456700e-001	 1.204523115338556e+001
1	 2.551857460648768e+000	 7.267835363518348e-001	 9.943744531212211e+000
1	 2.544189067302395e+000	 7.531883506683609e-001	 7.946009364119133e+000
1	 2.536226150728920e+000	 7.795816644197814e-001	 6.051359024319279e+000
1	 2.628902964031701e+000	 5.208562737762097e-001	 2.902671767712811e+001
1	 2.623492638122118e+000	 5.474561464807289e-001	 2.615042345750911e+001
1	 2.617795554431263e+000	 5.740801892501384e-001	 2.338457128024953e+001
1	 2.611810084277259e+000	 6.007241200016894e-001	 2.072870787694343e+001
1	 2.605534677259869e+000	 6.273835986412624e-001	 1.818231538422880e+001
1	 2.598967863302959e+000	 6.540542286605391e-001	 1.574481100085096e+001
1	 2.592108254664672e+000	 6.807315588105687e-001	 1.341554671253793e+001
1	 2.584954547912257e+000	 7.074110848512966e-001	 1.119380908637868e+001
1	 2.577505525858459e+000	 7.340882513764790e-001	 9.078819136292191e+000
1	 2.569760059456394e+000	 7.607584537132994e-001	 7.069732261066057e+000
1	 2.561717109649789e+000	 7.874170398958366e-001	 5.165638256329359e+000
1	 2.655062471344379e+000	 5.260391746636258e-001	 2.831284592534330e+001
1	 2.649598308734428e+000	 5.529037355570140e-001	 2.540832951166421e+001
1	 2.643844534893646e+000	 5.797927070250948e-001	 2.261726510515974e+001
1	 2.637799504933566e+000	 6.067017643752749e-001	 1.993907295672342e+001
1	 2.631461653026330e+000	 6.336265243263336e-001	 1.737309600264147e+001
1	 2.624829494467459e+000	 6.605625466214887e-001	 1.491859957839481e+001
1	 2.617901627706041e+000	 6.875053357186183e-001	 1.257477122365947e+001
1	 2.610676736339205e+000	 7.144503425571936e-001	 1.034072058060377e+001
1	 2.603153591067784e+000	 7.413929664013583e-001	 8.215479387431406e+000
1	 2.595331051610041e+000	 7.683285567584446e-001	 6.198001568961434e+000
1	 2.587208068570322e+000	 7.952524153720765e-001	 4.287163425869237e+000
1	 2.681221978656926e+000	 5.312220755514417e-001	 2.756425169033548e+001
1	 2.675703979346590e+000	 5.583513246336942e-001	 2.463742896888186e+001
1	 2.669893515355863e+000	 5.855052248004324e-001	 2.182660673705503e+001
1	 2.663788925589698e+000	 6.126794087492185e-001	 1.913110230336107e+001
1	 2.657388628792607e+000	 6.398694500117333e-001	 1.655014382468898e+001
1	 2.650691125631771e+000	 6.670708645827341e-001	 1.408287005648380e+001
1	 2.643695000747222e+000	 6.942791126269274e-001	 1.172833021569020e+001
1	 2.636398924765966e+000	 7.214896002633147e-001	 9.485483958971635e+000
1	 2.628801656276926e+000	 7.486976814264279e-001	 7.353201478518862e+000
1	 2.620902043763512e+000	 7.758986598037490e-001	 5.330263717557648e+000
1	 2.612699027490689e+000	 8.030877908484521e-001	 3.415362707453240e+000
1	 2.707381485969473e+000	 5.364049764395906e-001	 2.678115368373803e+001
1	 2.701809649958751e+000	 5.637989137107040e-001	 2.383779527793694e+001
1	 2.695942495818080e+000	 5.912177425760865e-001	 2.101254150712539e+001
1	 2.689778346245831e+000	 6.186570531234596e-001	 1.830462958122770e+001
1	 2.683315604558885e+000	 6.461123756974059e-001	 1.571319658468257e+001
1	 2.676552756796084e+000	 6.735791825442223e-001	 1.323727924295330e+001
1	 2.669488373788400e+000	 7.010528895354475e-001	 1.087581382159796e+001
1	 2.662121113192726e+000	 7.285288579696132e-001	 8.627636160810043e+000
1	 2.654449721486068e+000	 7.560023964516416e-001	 6.491481848111196e+000
1	 2.646473035916982e+000	 7.834687628491664e-001	 4.465986531633171e+000
1	 2.638189986411056e+000	 8.109231663249131e-001	 2.549686376170756e+000
1	 2.733540993282150e+000	 5.415878773280060e-001	 2.596376224506090e+001
1	 2.727915320571063e+000	 5.692465027879770e-001	 2.300949907604063e+001
1	 2.721991476280464e+000	 5.969302603519942e-001	 2.017501683924772e+001
1	 2.715767766902137e+000	 6.246346974979377e-001	 1.745949482190846e+001
1	 2.709242580325347e+000	 6.523553013832940e-001	 1.486200205628200e+001
1	 2.702414387960584e+000	 6.800875005059013e-001	 1.238149708279526e+001
1	 2.695281746829769e+000	 7.078266664441295e-001	 1.001682786377369e+001
1	 2.687843301619676e+000	 7.355681156760430e-001	 7.766731851084386e+000
1	 2.680097786695394e+000	 7.633071114769547e-001	 5.629836210743228e+000
1	 2.672044028070629e+000	 7.910388658946514e-001	 3.604658207259246e+000
1	 2.663680945331590e+000	 8.187585418014102e-001	 1.689605750193158e+000
1	 2.759700500595092e+000	 5.467707782166210e-001	 2.511227973849215e+001
1	 2.754020991183672e+000	 5.746940918654475e-001	 2.215260832209606e+001
1	 2.748040456743174e+000	 6.026427781280914e-001	 1.931398215080195e+001
1	 2.741757187558796e+000	 6.306123418725927e-001	 1.659554412242471e+001
1	 2.735169556092172e+000	 6.585982270693414e-001	 1.399631757667519e+001
1	 2.728276019125458e+000	 6.865958184677176e-001	 1.151520603551550e+001
1	 2.721075119871516e+000	 7.146004433529241e-001	 9.150993110422649e+000
1	 2.713565490046998e+000	 7.426073733825569e-001	 6.902342580281313e+000
1	 2.705745851905085e+000	 7.706118265023212e-001	 4.767798643332234e+000
1	 2.697615020224629e+000	 7.986089689401570e-001	 2.745786346291249e+000
1	 2.689171904252460e+000	 8.265939172778939e-001	 8.346121934251830e-001
1	 2.785860007908426e+000	 5.519536791053696e-001	 2.422690092734352e+001
1	 2.780126661796730e+000	 5.801416809430494e-001	 2.126718842244648e+001
1	 2.774089437206379e+000	 6.083552959043150e-001	 1.842938875907502e+001
1	 2.767746608215981e+000	 6.365899862473640e-001	 1.571262936045878e+001
1	 2.761096531859549e+000	 6.648411527554916e-001	 1.311590959756570e+001
1	 2.754137650290895e+000	 6.931041364296191e-001	 1.063810048757098e+001
1	 2.746868492913828e+000	 7.213742202617819e-001	 8.277944573850762e+000
1	 2.739287678474881e+000	 7.496466310891085e-001	 6.034055991625081e+000
1	 2.731393917115323e+000	 7.779165415276959e-001	 3.904920723054778e+000
1	 2.723186012379159e+000	 8.061790719856368e-001	 1.888897045257275e+000
1	 2.714662863173830e+000	 8.344292927543137e-001	-1.578382565235976e-002
1	 2.812019515222285e+000	 5.571365799941846e-001	 2.330781332759563e+001
1	 2.806232332410390e+000	 5.855892700207178e-001	 2.035330234960434e+001
1	 2.800138417670241e+000	 6.140678136806009e-001	 1.752118979288940e+001
1	 2.793736028873866e+000	 6.425676306221915e-001	 1.481060792547410e+001
1	 2.787023507627656e+000	 6.710840784416882e-001	 1.222055326122277e+001
1	 2.779999281457081e+000	 6.996124543915534e-001	 9.749886197602828e+000
1	 2.772661865956895e+000	 7.281479971706544e-001	 7.397330847918425e+000
1	 2.765009866903514e+000	 7.566858887956516e-001	 5.161475072544086e+000
1	 2.757041982326296e+000	 7.852212565530333e-001	 3.040770713344317e+000
1	 2.748757004534392e+000	 8.137491750310452e-001	 1.033534035101759e+000
1	 2.740153822095873e+000	 8.422646682306209e-001	-8.620536226078257e-001
1	 2.485244232885506e+000	 7.639109134684247e-001	 7.846942978223351e+000
1	 2.477151860299458e+000	 7.897578556018046e-001	 6.071960578953542e+000
1	 2.468769133891298e+000	 8.155843702179724e-001	 4.383626076092159e+000
1	 2.460095314090223e+000	 8.413858163563166e-001	 2.781635686405415e+000
1	 2.451129755315018e+000	 8.671575154167841e-001	 1.265672335826200e+000
1	 2.441871907512629e+000	 8.928947534162470e-001	-1.645942949683612e-001
1	 2.432321317635803e+000	 9.185927833090084e-001	-1.509507735376762e+000
1	 2.422477631056948e+000	 9.442468273696871e-001	-2.769424700699814e+000
1	 2.412340592915415e+000	 9.698520796365817e-001	-3.944715079546566e+000
1	 2.401910049395445e+000	 9.954037084134922e-001	-5.035761933352560e+000
1	 2.391185948932115e+000	 1.020896858827830e+000	-6.042961508498897e+000
1	 2.510735191807548e+000	 7.717462889439608e-001	 6.944920777811827e+000
1	 2.502559816378509e+000	 7.978583411747027e-001	 5.157362030518484e+000
1	 2.494091108990538e+000	 8.239497563647817e-001	 3.458827147226691e+000
1	 2.485328322487116e+000	 8.500158459516010e-001	 1.848979869458977e+000
1	 2.476270804665347e+000	 8.760518833470556e-001	 3.274607183811892e-001
1	 2.466917999830329e+000	 9.020531062170464e-001	-1.106113026705332e+000
1	 2.457269450287938e+000	 9.280147188257830e-001	-2.452147344404518e+000
1	 2.447324797773200e+000	 9.539318944431129e-001	-3.711071481986179e+000
1	 2.437083784811378e+000	 9.797997778129441e-001	-4.883337961047653e+000
1	 2.426546256009037e+000	 1.005613487680731e+000	-5.969422578248729e+000
1	 2.415712159272363e+000	 1.031368119377818e+000	-6.969824401283950e+000
1	 2.536226150728920e+000	 7.795816644197814e-001	 6.051359024319279e+000
1	 2.527967772456935e+000	 8.059588267478867e-001	 4.253718577453201e+000
1	 2.519413084089206e+000	 8.323151425118924e-001	 2.547264530653095e+000
1	 2.510561330883490e+000	 8.586458755472128e-001	 9.316437592962380e-001
1	 2.501411854015220e+000	 8.849462512776898e-001	-5.935288731419689e-001
1	 2.491964092147640e+000	 9.112114590182462e-001	-2.028670609529420e+000
1	 2.482217582939757e+000	 9.374366543429982e-001	-3.374230874195847e+000
1	 2.472171964489210e+000	 9.636169615170172e-001	-4.630691328519221e+000
1	 2.461826976707175e+000	 9.897474759898183e-001	-5.798565906791694e+000
1	 2.451182462622545e+000	 1.015823266948505e+000	-6.878400832195854e+000
1	 2.440238369612606e+000	 1.041839379928356e+000	-7.870774612742148e+000
1	 2.561717109649789e+000	 7.874170398958366e-001	 5.165638256329359e+000
1	 2.553375728534892e+000	 8.140593123213009e-001	 3.360409437462987e+000
1	 2.544735059187441e+000	 8.406805286592410e-001	 1.648340949829028e+000
1	 2.535794339279474e+000	 8.672759051430786e-001	 2.907802797123509e-002
1	 2.526552903364751e+000	 8.938406192086001e-001	-1.497773783738158e+000
1	 2.517010184464659e+000	 9.203698118197515e-001	-2.932648804283821e+000
1	 2.507165715591338e+000	 9.468585898605495e-001	-4.276021357988858e+000
1	 2.497019131205037e+000	 9.733020285912878e-001	-5.528405884713857e+000
1	 2.486570168602850e+000	 9.996951741670863e-001	-6.690357017737521e+000
1	 2.475818669235987e+000	 1.026033046216697e+000	-7.762469628824779e+000
1	 2.464764579952845e+000	 1.052310640479326e+000	-8.745378840034370e+000
1	 2.587208068570322e+000	 7.952524153720765e-001	 4.287163425869237e+000
1	 2.578783684612534e+000	 8.221597978948896e-001	 2.476838293752854e+000
1	 2.570057034285386e+000	 8.490459148067618e-001	 7.614826673317560e-001
1	 2.561027347675200e+000	 8.759059347391240e-001	-8.592450030333143e-001
1	 2.551693952714053e+000	 9.027349871397038e-001	-2.385732545876671e+000
1	 2.542056276781484e+000	 9.295281646214674e-001	-3.818414326330310e+000
1	 2.532113848242760e+000	 9.562805253783324e-001	-5.157771462685258e+000
1	 2.521866297920744e+000	 9.829870956658126e-001	-6.404332000889526e+000
1	 2.511313360498441e+000	 1.009642872344632e+000	-7.558671046119949e+000
1	 2.500454875849389e+000	 1.036242825485187e+000	-8.621410850627107e+000
1	 2.489290790293080e+000	 1.062781901030612e+000	-9.593220857117705e+000
1	 2.612699027490689e+000	 8.030877908484521e-001	 3.415362707453240e+000
1	 2.604191640690019e+000	 8.302602834685960e-001	 1.602432101531758e+000
1	 2.595379009383188e+000	 8.574113009543917e-001	-1.138616634461547e-001
1	 2.586260356070796e+000	 8.845359643352752e-001	-1.733832418925968e+000
1	 2.576835002063240e+000	 9.116293550709154e-001	-3.257845797228992e+000
1	 2.567102369098211e+000	 9.386865174232990e-001	-4.686319579509973e+000
1	 2.557061980894103e+000	 9.657024608962423e-001	-6.019723994549420e+000
1	 2.546713464636391e+000	 9.926721627404799e-001	-7.258581967139500e+000
1	 2.536056552393992e+000	 1.019590570522337e+000	-8.403469314896022e+000
1	 2.525091082462769e+000	 1.046452604753855e+000	-9.455014892404641e+000
1	 2.513817000633315e+000	 1.073253161582096e+000	-1.041390068169144e+001
1	 2.638189986411056e+000	 8.109231663249131e-001	 2.549686376170756e+000
1	 2.629599596767505e+000	 8.383607690423659e-001	 7.366399637082389e-001
1	 2.620700984480991e+000	 8.657766871020663e-001	-9.782220800296844e-001
1	 2.611493364466391e+000	 8.931659939314580e-001	-2.595171706499260e+000
1	 2.601976051412428e+000	 9.205237230021509e-001	-4.114537145192509e+000
1	 2.592148461414938e+000	 9.478448702251517e-001	-5.536703347553717e+000
1	 2.582010113545447e+000	 9.751243964141759e-001	-6.862112375590113e+000
1	 2.571560631352037e+000	 1.002357229815177e+000	-8.091263733642229e+000
1	 2.560799744289543e+000	 1.029538268700084e+000	-9.224714641861157e+000
1	 2.549727289076148e+000	 1.056662384022583e+000	-1.026308025002746e+001
1	 2.538343210973550e+000	 1.083724422133662e+000	-1.120703379043840e+001
1	 2.663680945331590e+000	 8.187585418014102e-001	 1.689605750193158e+000
1	 2.655007552845147e+000	 8.464612546161422e-001	-1.210679288575559e-001
1	 2.646022959578938e+000	 8.741420732497217e-001	-1.832108330482247e+000
1	 2.636726372862116e+000	 9.017960235275986e-001	-3.443731691896620e+000
1	 2.627117100761730e+000	 9.294180909333258e-001	-4.956213981774194e+000
1	 2.617194553731764e+000	 9.570032230269308e-001	-6.369891445792479e+000
1	 2.606958246196869e+000	 9.845463319320279e-001	-7.685161092588958e+000
1	 2.596407798067744e+000	 1.012042296889793e+000	-8.902481118322356e+000
1	 2.585542936185135e+000	 1.039485966877756e+000	-1.002237126812251e+001
1	 2.574363495689549e+000	 1.066872163291252e+000	-1.104541313280491e+001
1	 2.562869421313786e+000	 1.094195682685192e+000	-1.197225037932625e+001
1	 2.689171904252460e+000	 8.265939172778939e-001	 8.346121934251830e-001
1	 2.680415508923102e+000	 8.545617401898698e-001	-9.712012968290502e-001
1	 2.671344934677172e+000	 8.825074593972931e-001	-2.676010835035955e+000
1	 2.661959381258101e+000	 9.104260531236234e-001	-4.279963425044299e+000
1	 2.652258150111261e+000	 9.383124588643561e-001	-5.783268252128006e+000
1	 2.642240646048783e+000	 9.661615758285405e-001	-7.186197335801824e+000
1	 2.631906378848450e+000	 9.939682674496944e-001	-8.489086120590375e+000
1	 2.621254964783572e+000	 1.021727363964215e+000	-9.692334002701307e+000
1	 2.610286128080809e+000	 1.049433665055237e+000	-1.079640479064033e+001
1	 2.598999702302992e+000	 1.077081942559741e+000	-1.180182709790301e+001
1	 2.587395631654025e+000	 1.104666943236571e+000	-1.270919466597898e+001
1	 2.714662863173830e+000	 8.344292927543137e-001	-1.578382565235976e-002
1	 2.705823465001528e+000	 8.626622257634926e-001	-1.814250715557367e+000
1	 2.696666909775837e+000	 8.908728455447167e-001	-3.510401593543181e+000
1	 2.687192389654475e+000	 9.190560827194575e-001	-5.104301014253674e+000
1	 2.677399199461134e+000	 9.472068267951564e-001	-6.596077179792525e+000
1	 2.667286738366093e+000	 9.753199286298869e-001	-7.985922705416953e+000
1	 2.656854511500270e+000	 1.003390202967071e+000	-9.274095322532144e+000
1	 2.646102131499581e+000	 1.031412431038331e+000	-1.046091851671336e+001
1	 2.635029319976607e+000	 1.059381363232407e+000	-1.154678209857013e+001
1	 2.623635908916500e+000	 1.087291721827933e+000	-1.253214270535900e+001
1	 2.611921841994267e+000	 1.115138203787681e+000	-1.341752423135317e+001
1	 2.740153822095873e+000	 8.422646682306209e-001	-8.620536226078257e-001
1	 2.731231421080580e+000	 8.707627113369549e-001	-2.650688505601363e+000
1	 2.721988884875082e+000	 8.992382316919291e-001	-4.335735042277074e+000
1	 2.712425398051369e+000	 9.276861123150280e-001	-5.917162414239152e+000
1	 2.702540248811464e+000	 9.561011947256431e-001	-7.395003951448202e+000
1	 2.692332830683795e+000	 9.844782814308750e-001	-8.769358016373513e+000
1	 2.681802644152406e+000	 1.012812138484053e+000	-1.004038882656966e+001
1	 2.670949298215834e+000	 1.041097498112028e+000	-1.120832721320613e+001
1	 2.659772511872570e+000	 1.069329061409152e+000	-1.227347131315781e+001
1	 2.648272115530094e+000	 1.097501501095708e+000	-1.323618719235152e+001
1	 2.636448052334516e+000	 1.125609464338406e+000	-1.409690939815951e+001
1	 2.391185948932115e+000	 1.020896858827830e+000	-6.042961508498897e+000
1	 2.380170018213486e+000	 1.046322846371298e+000	-6.971774711421116e+000
1	 2.368860828443987e+000	 1.071680609277310e+000	-7.827307010754156e+000
1	 2.357258643002612e+000	 1.096965242574563e+000	-8.608982097481514e+000
1	 2.345363831499277e+000	 1.122171828923650e+000	-9.316204642342589e+000
1	 2.333176870580242e+000	 1.147295441416840e+000	-9.948361401027091e+000
1	 2.320698344647250e+000	 1.172331146418369e+000	-1.050482239970923e+001
1	 2.307928946488350e+000	 1.197274006442202e+000	-1.098494219993539e+001
1	 2.294869477818497e+000	 1.222119083064165e+000	-1.138806124163880e+001
1	 2.281520849728123e+000	 1.246861439865192e+000	-1.171350726281124e+001
1	 2.267884083038025e+000	 1.271496145402371e+000	-1.196059679411902e+001
1	 2.415712159272363e+000	 1.031368119377818e+000	-6.969824401283948e+000
1	 2.404583238999920e+000	 1.057054899319571e+000	-7.889839936816637e+000
1	 2.393158051741089e+000	 1.082672754848955e+000	-8.734376456423380e+000
1	 2.381436863576317e+000	 1.108216730684771e+000	-9.502925678551309e+000
1	 2.369420047906573e+000	 1.133681859050856e+000	-1.019496682530416e+001
1	 2.357108086267037e+000	 1.159063162504583e+000	-1.080996770543344e+001
1	 2.344501569053610e+000	 1.184355656806279e+000	-1.134738586657342e+001
1	 2.331601196160210e+000	 1.209554353826513e+000	-1.180666981562168e+001
1	 2.318407777524915e+000	 1.234654264488092e+000	-1.218726030595049e+001
1	 2.304922233583135e+000	 1.259650401739496e+000	-1.248859168991844e+001
1	 2.291145595626142e+000	 1.284537783556398e+000	-1.271009333493473e+001
1	 2.440238369612606e+000	 1.041839379928356e+000	-7.870774612742145e+000
1	 2.428996459786430e+000	 1.067786952268393e+000	-8.780785737755576e+000
1	 2.417455275038343e+000	 1.093664900421135e+000	-9.613142656778683e+000
1	 2.405615084150245e+000	 1.119468218795488e+000	-1.036743253063556e+001
1	 2.393476264314157e+000	 1.145191889178536e+000	-1.104323860409488e+001
1	 2.381039301954177e+000	 1.170830883592758e+000	-1.164014124013196e+001
1	 2.368304793460358e+000	 1.196380167194577e+000	-1.215771900824597e+001
1	 2.355273445832485e+000	 1.221834701211166e+000	-1.259554982561827e+001
1	 2.341946077231757e+000	 1.247189445912312e+000	-1.295321214971772e+001
1	 2.328323617438561e+000	 1.272439363614045e+000	-1.323028622077842e+001
1	 2.314407108214644e+000	 1.297579421710628e+000	-1.342635535239650e+001
1	 2.464764579952845e+000	 1.052310640479326e+000	-8.745378840034366e+000
1	 2.453409680572995e+000	 1.078519005217651e+000	-9.643981995772203e+000
1	 2.441752498335712e+000	 1.104657045993749e+000	-1.046281761616089e+001
1	 2.429793304724341e+000	 1.130719706906630e+000	-1.120159490044522e+001
1	 2.417532480721959e+000	 1.156701919306625e+000	-1.186002972837262e+001
1	 2.404970517641571e+000	 1.182598604681319e+000	-1.243784561959756e+001
1	 2.392108017867391e+000	 1.208404677583234e+000	-1.293477472791792e+001
1	 2.378945695505065e+000	 1.234115048596146e+000	-1.335055886901032e+001
1	 2.365484376938910e+000	 1.259724627336829e+000	-1.368495058019820e+001
1	 2.351725001294287e+000	 1.285228325488860e+000	-1.393771421065261e+001
1	 2.337668620803414e+000	 1.310621059865093e+000	-1.410862704029461e+001
1	 2.489290790293080e+000	 1.062781901030612e+000	-9.593220857117709e+000
1	 2.477822901359597e+000	 1.089251058167239e+000	-1.047882342584967e+001
1	 2.466049721633156e+000	 1.115649191566700e+000	-1.128264439441947e+001
1	 2.453971525298550e+000	 1.141971195018112e+000	-1.200454080993865e+001
1	 2.441588697129901e+000	 1.168211949435054e+000	-1.264438897431371e+001
1	 2.428901733329134e+000	 1.194366325770216e+000	-1.320208530304592e+001
1	 2.415911242274610e+000	 1.220429187972218e+000	-1.367754719566083e+001
1	 2.402617945177838e+000	 1.246395395981444e+000	-1.407071391631360e+001
1	 2.389022676646253e+000	 1.272259808761648e+000	-1.438154748303887e+001
1	 2.375126385150191e+000	 1.298017287363961e+000	-1.461003356403688e+001
1	 2.360930133392335e+000	 1.323662698019824e+000	-1.475618237931538e+001
1	 2.513817000633315e+000	 1.073253161582096e+000	-1.041390068169144e+001
1	 2.502236122146217e+000	 1.099983111117045e+000	-1.128472836497505e+001
1	 2.490346944930636e+000	 1.126641337139889e+000	-1.207189559193781e+001
1	 2.478149745872810e+000	 1.153222683129850e+000	-1.277543231110475e+001
1	 2.465644913537911e+000	 1.179721979563755e+000	-1.339540224079019e+001
1	 2.452832949016774e+000	 1.206134046859399e+000	-1.393190360191272e+001
1	 2.439714466681911e+000	 1.232453698361500e+000	-1.438506983531254e+001
1	 2.426290194850694e+000	 1.258675743367047e+000	-1.475507030199421e+001
1	 2.412560976353672e+000	 1.284794990186778e+000	-1.504211096470542e+001
1	 2.398527769006154e+000	 1.310806249239369e+000	-1.524643504925283e+001
1	 2.384191645981290e+000	 1.336704336174856e+000	-1.536832368395277e+001
1	 2.538343210973550e+000	 1.083724422133662e+000	-1.120703379043840e+001
1	 2.526649342932838e+000	 1.110715164066960e+000	-1.206113763092593e+001
1	 2.514644168228117e+000	 1.137633482713217e+000	-1.282987192248728e+001
1	 2.502327966447069e+000	 1.164474171241759e+000	-1.351346384192298e+001
1	 2.489701129945919e+000	 1.191232009692661e+000	-1.411219075591852e+001
1	 2.476764164704405e+000	 1.217901767948820e+000	-1.462638080284648e+001
1	 2.463517691089194e+000	 1.244478208751050e+000	-1.505641342807087e+001
1	 2.449962444523521e+000	 1.270956090752944e+000	-1.540271987105063e+001
1	 2.436099276061050e+000	 1.297330171612221e+000	-1.566578360260207e+001
1	 2.421929152862056e+000	 1.323595211115106e+000	-1.584614071074879e+001
1	 2.407453158570164e+000	 1.349745974330221e+000	-1.594438023366098e+001
1	 2.562869421313786e+000	 1.094195682685192e+000	-1.197225037932625e+001
1	 2.551062563719440e+000	 1.121447217016874e+000	-1.280751344658456e+001
1	 2.538941391525559e+000	 1.148625628286586e+000	-1.355590086802647e+001
1	 2.526506187021271e+000	 1.175725659353757e+000	-1.421786067672233e+001
1	 2.513757346353844e+000	 1.202742039821704e+000	-1.479390938658646e+001
1	 2.500695380391937e+000	 1.229669489038429e+000	-1.528463239847743e+001
1	 2.487320915496360e+000	 1.256502719140836e+000	-1.569068432497710e+001
1	 2.473634694196210e+000	 1.283236438139122e+000	-1.601278923201690e+001
1	 2.459637575768267e+000	 1.309865353037983e+000	-1.625174079566755e+001
1	 2.445330536717780e+000	 1.336384172991190e+000	-1.640840237256473e+001
1	 2.430714671158838e+000	 1.362787612485952e+000	-1.648370698260503e+001
1	 2.587395631654025e+000	 1.104666943236571e+000	-1.270919466597898e+001
1	 2.575475784506004e+000	 1.132179269966677e+000	-1.352333842543116e+001
1	 2.563238614822923e+000	 1.159617773859896e+000	-1.424933541000818e+001
1	 2.550684407595356e+000	 1.186977147465758e+000	-1.488787746467554e+001
1	 2.537813562761619e+000	 1.214252069950818e+000	-1.543974504412506e+001
1	 2.524626596079279e+000	 1.241437210128177e+000	-1.590580741881061e+001
1	 2.511124139903305e+000	 1.268527229530830e+000	-1.628702276106359e+001
1	 2.497306943868649e+000	 1.295516785525570e+000	-1.658443810932592e+001
1	 2.483175875475209e+000	 1.322400534464070e+000	-1.679918920878045e+001
1	 2.468731920573206e+000	 1.349173134867645e+000	-1.693250022691221e+001
1	 2.453976183747196e+000	 1.375829250642081e+000	-1.698568334279356e+001
1	 2.611921841994267e+000	 1.115138203787681e+000	-1.341752423135317e+001
1	 2.599889005292512e+000	 1.142911322916259e+000	-1.420811461419529e+001
1	 2.587535838120173e+000	 1.170609919433050e+000	-1.490955283216573e+001
1	 2.574862628169269e+000	 1.198228635577678e+000	-1.552279685063579e+001
1	 2.561869779169168e+000	 1.225762100079934e+000	-1.604891517980623e+001
1	 2.548557811766347e+000	 1.253204931218014e+000	-1.648908685662952e+001
1	 2.534927364309929e+000	 1.280551739920999e+000	-1.684460126448357e+001
1	 2.520979193540728e+000	 1.307797132912276e+000	-1.711685778850131e+001
1	 2.506714175181758e+000	 1.334935715890488e+000	-1.730736530480777e+001
1	 2.492133304428215e+000	 1.361962096744488e+000	-1.741774150227450e+001
1	 2.477237696335122e+000	 1.388870888798642e+000	-1.744971203577090e+001
1	 2.636448052334516e+000	 1.125609464338406e+000	-1.409690939815950e+001
1	 2.624302226078947e+000	 1.153643375865511e+000	-1.486136258894285e+001
1	 2.611833061417271e+000	 1.181602065005949e+000	-1.553595359012305e+001
1	 2.599040848742955e+000	 1.209480123689433e+000	-1.612192817295295e+001
1	 2.585925995576417e+000	 1.237272130208986e+000	-1.662066636431603e+001
1	 2.572489027453051e+000	 1.264972652307893e+000	-1.703368218078809e+001
1	 2.558730588716130e+000	 1.292576250311315e+000	-1.736262315443763e+001
1	 2.544651443212335e+000	 1.320077480299228e+000	-1.760926964813353e+001
1	 2.530252474887798e+000	 1.347470897317242e+000	-1.777553395858930e+001
1	 2.515534688282688e+000	 1.374751058621742e+000	-1.786345920584871e+001
1	 2.500499208922499e+000	 1.401912526955667e+000	-1.787521800840356e+001
1	 2.267884083038025e+000	 1.271496145402371e+000	-1.196059679411902e+001
1	 2.253958198620401e+000	 1.296021946435735e+000	-1.214976898038975e+001
1	 2.239746463665040e+000	 1.320430225689309e+000	-1.230184868708727e+001
1	 2.225250231807174e+000	 1.344716083974012e+000	-1.241685421165899e+001
1	 2.210470966914092e+000	 1.368874639231026e+000	-1.249485348993681e+001
1	 2.195410242948957e+000	 1.392901029590033e+000	-1.253596409318399e+001
1	 2.180069743733891e+000	 1.416790416433498e+000	-1.254035314772126e+001
1	 2.164451262611717e+000	 1.440537987463155e+000	-1.250823717665659e+001
1	 2.148556702005920e+000	 1.464138959764830e+000	-1.243988186342783e+001
1	 2.132388072878528e+000	 1.487588582867686e+000	-1.233560173705215e+001
1	 2.115947494085821e+000	 1.510882141793964e+000	-1.219575977916559e+001
1	 2.291145595626142e+000	 1.284537783556398e+000	-1.271009333493473e+001
1	 2.277076874483293e+000	 1.309315143844457e+000	-1.287305255861530e+001
1	 2.262719370855698e+000	 1.333973776940951e+000	-1.299911270279221e+001
1	 2.248074452262729e+000	 1.358508733406175e+000	-1.308835109066258e+001
1	 2.233143597586459e+000	 1.382915081106391e+000	-1.314089185060812e+001
1	 2.217928396934077e+000	 1.407187908303436e+000	-1.315690579272019e+001
1	 2.202430551398550e+000	 1.431322326750428e+000	-1.313661021189023e+001
1	 2.186651872716886e+000	 1.455313474789711e+000	-1.308026861727837e+001
1	 2.170594282825593e+000	 1.479156520449109e+000	-1.298819038814913e+001
1	 2.154259813312990e+000	 1.502846664532555e+000	-1.286073035624017e+001
1	 2.137650604768313e+000	 1.526379143701107e+000	-1.269828831501063e+001
1	 2.314407108214644e+000	 1.297579421710628e+000	-1.342635535239651e+001
1	 2.300195550346515e+000	 1.322608341253345e+000	-1.356348517150402e+001
1	 2.285692278046610e+000	 1.347517328192726e+000	-1.366402375190798e+001
1	 2.270898672718448e+000	 1.372301382838444e+000	-1.372808358634745e+001
1	 2.255816228258888e+000	 1.396955522981840e+000	-1.375582032349978e+001
1	 2.240446550919154e+000	 1.421474787016904e+000	-1.374743256286836e+001
1	 2.224791359063059e+000	 1.445854237067408e+000	-1.370316158204296e+001
1	 2.208852482821807e+000	 1.470088962116305e+000	-1.362329099636635e+001
1	 2.192631863644929e+000	 1.494174081133418e+000	-1.350814635120472e+001
1	 2.176131553747041e+000	 1.518104746197447e+000	-1.335809464718337e+001
1	 2.159353715450340e+000	 1.541876145608267e+000	-1.317354379891464e+001
1	 2.337668620803414e+000	 1.310621059865093e+000	-1.410862704029461e+001
1	 2.323314226209956e+000	 1.335901538662437e+000	-1.422043985699161e+001
1	 2.308665185237677e+000	 1.361060879444680e+000	-1.429606965606337e+001
1	 2.293722893174245e+000	 1.386094032270866e+000	-1.433564102847289e+001
1	 2.278488858931313e+000	 1.410995964857420e+000	-1.433931727114452e+001
1	 2.262964704904139e+000	 1.435761665730482e+000	-1.430730013841679e+001
1	 2.247152166727390e+000	 1.460386147384479e+000	-1.423982953346918e+001
1	 2.231053092926468e+000	 1.484864449442972e+000	-1.413718313991239e+001
1	 2.214669444463933e+000	 1.509191641817784e+000	-1.399967599387750e+001
1	 2.198003294180702e+000	 1.533362827862384e+000	-1.382765999708492e+001
1	 2.181056826131934e+000	 1.557373147515461e+000	-1.362152337152078e+001
1	 2.360930133392335e+000	 1.323662698019824e+000	-1.475618237931538e+001
1	 2.346432902073507e+000	 1.349194736071776e+000	-1.484331436206406e+001
1	 2.331638092428801e+000	 1.374604430696857e+000	-1.489475842222484e+001
1	 2.316547113630038e+000	 1.399886681703489e+000	-1.491062893162322e+001
1	 2.301161489603666e+000	 1.425036406733176e+000	-1.489107373205089e+001
1	 2.285482858888984e+000	 1.450048544444212e+000	-1.483627388083017e+001
1	 2.269512974391514e+000	 1.474918057701679e+000	-1.474644334572334e+001
1	 2.253253703030859e+000	 1.499639936769747e+000	-1.462182864946715e+001
1	 2.236707025282611e+000	 1.524209202502237e+000	-1.446270846433661e+001
1	 2.219875034613992e+000	 1.548620909527387e+000	-1.426939315726391e+001
1	 2.202759936813130e+000	 1.572870149422705e+000	-1.404222428616118e+001
1	 2.384191645981290e+000	 1.336704336174856e+000	-1.536832368395277e+001
1	 2.369551577937059e+000	 1.362487933481405e+000	-1.543152993738066e+001
1	 2.354610999619883e+000	 1.388147981949305e+000	-1.545961725799896e+001
1	 2.339371334085742e+000	 1.413679331136361e+000	-1.545266820566659e+001
1	 2.323834120275880e+000	 1.439076848609157e+000	-1.541079280233343e+001
1	 2.308001012873640e+000	 1.464335423158140e+000	-1.533412830863328e+001
1	 2.291873782055399e+000	 1.489449968019049e+000	-1.522283896093697e+001
1	 2.275454313134966e+000	 1.514415424096662e+000	-1.507711566917480e+001
1	 2.258744606100967e+000	 1.539226763186804e+000	-1.489717567583125e+001
1	 2.241746775046933e+000	 1.563878991192479e+000	-1.468326217660997e+001
1	 2.224463047493960e+000	 1.588367151330018e+000	-1.443564390335957e+001
1	 2.407453158570164e+000	 1.349745974330221e+000	-1.594438023366098e+001
1	 2.392670253800501e+000	 1.375781130891361e+000	-1.598453020177770e+001
1	 2.377583906810825e+000	 1.401691533202069e+000	-1.599019164402172e+001
1	 2.362195554541274e+000	 1.427471980569528e+000	-1.596139441198639e+001
1	 2.346506750947888e+000	 1.453117290485408e+000	-1.589818905319241e+001
1	 2.330519166858057e+000	 1.478622301872309e+000	-1.580064665502018e+001
1	 2.314234589719017e+000	 1.503981878336627e+000	-1.566885866193980e+001
1	 2.297654923238780e+000	 1.529190911423754e+000	-1.550293666631361e+001
1	 2.280782186919011e+000	 1.554244323871514e+000	-1.530301217310572e+001
1	 2.263618515479547e+000	 1.579137072857684e+000	-1.506923633889564e+001
1	 2.246166158174458e+000	 1.603864153237414e+000	-1.480177968565275e+001
1	 2.430714671158838e+000	 1.362787612485952e+000	-1.648370698260503e+001
1	 2.415788929663723e+000	 1.389074328301687e+000	-1.650178007197066e+001
1	 2.400556814001531e+000	 1.415235084455195e+000	-1.648604445961014e+001
1	 2.385019774996549e+000	 1.441264630003040e+000	-1.643645706241921e+001
1	 2.369179381619623e+000	 1.467157732361976e+000	-1.635298798184076e+001
1	 2.353037320842188e+000	 1.492909180586763e+000	-1.623562045086468e+001
1	 2.336595397382336e+000	 1.518513788654454e+000	-1.608435076886299e+001
1	 2.319855533342289e+000	 1.543966398751055e+000	-1.589918822443809e+001
1	 2.302819767736746e+000	 1.569261884556395e+000	-1.568015500648462e+001
1	 2.285490255911854e+000	 1.594395154523023e+000	-1.542728610368839e+001
1	 2.267869268854655e+000	 1.619361155144911e+000	-1.514062919270927e+001
1	 2.453976183747196e+000	 1.375829250642081e+000	-1.698568334279356e+001
1	 2.438907605526619e+000	 1.402367525712424e+000	-1.698276475312967e+001
1	 2.423529721191897e+000	 1.428778635708728e+000	-1.694675515814207e+001
1	 2.407843995451483e+000	 1.455057279436942e+000	-1.687751895806533e+001
1	 2.391852012291019e+000	 1.481198174238908e+000	-1.677492549365992e+001
1	 2.375555474825982e+000	 1.507196059301545e+000	-1.663884913144758e+001
1	 2.358956205045328e+000	 1.533045698972568e+000	-1.646916935299778e+001
1	 2.342056143445480e+000	 1.558741886078600e+000	-1.626577084828547e+001
1	 2.324857348554177e+000	 1.584279445241475e+000	-1.602854361311949e+001
1	 2.307361996343875e+000	 1.609653236188518e+000	-1.575738305062312e+001
1	 2.289572379534585e+000	 1.634858157052527e+000	-1.545219007672597e+001
1	 2.477237696335122e+000	 1.388870888798642e+000	-1.744971203577090e+001
1	 2.462026281389074e+000	 1.415660723123613e+000	-1.742698878632620e+001
1	 2.446502628381830e+000	 1.442322186962715e+000	-1.737191898889580e+001
1	 2.430668215905994e+000	 1.468849928871283e+000	-1.728425556535115e+001
1	 2.414524642962007e+000	 1.495238616116251e+000	-1.716374741353089e+001
1	 2.398073628809393e+000	 1.521482938016701e+000	-1.701013966534039e+001
1	 2.381317012707962e+000	 1.547577609291011e+000	-1.682317396677576e+001
1	 2.364256753548344e+000	 1.573517373406423e+000	-1.660258877967428e+001
1	 2.346894929371312e+000	 1.599297005926782e+000	-1.634811970492615e+001
1	 2.329233736775630e+000	 1.624911317854192e+000	-1.605949982681440e+001
1	 2.311275490214280e+000	 1.650355158960276e+000	-1.573646007808349e+001
1	 2.500499208922499e+000	 1.401912526955667e+000	-1.787521800840356e+001
1	 2.485144957250983e+000	 1.428953920535294e+000	-1.783397514914824e+001
1	 2.469475535571229e+000	 1.455865738217200e+000	-1.776114626232373e+001
1	 2.453492436359996e+000	 1.482642578306111e+000	-1.765635442691750e+001
1	 2.437197273632522e+000	 1.509279057994052e+000	-1.751920902444134e+001
1	 2.420591782792370e+000	 1.535769816732273e+000	-1.734930620400414e+001
1	 2.403677820370210e+000	 1.562109519609821e+000	-1.714622938882036e+001
1	 2.386457363650868e+000	 1.588292860734559e+000	-1.690954982367883e+001
1	 2.368932510188156e+000	 1.614314566612345e+000	-1.663882716277676e+001
1	 2.351105477207142e+000	 1.640169399520067e+000	-1.633361009720415e+001
1	 2.332978600893775e+000	 1.665852160868178e+000	-1.599343702124479e+001
1	 2.115947494085821e+000	 1.510882141793964e+000	-1.219575977916559e+001
1	 2.099237191034965e+000	 1.534014959583876e+000	-1.202637932179152e+001
1	 2.082259493061532e+000	 1.556982398749111e+000	-1.183349086506440e+001
1	 2.065016834301999e+000	 1.579779865751119e+000	-1.161752887308160e+001
1	 2.047511753248752e+000	 1.602402814479762e+000	-1.137896013273463e+001
1	 2.029746891604005e+000	 1.624846749199451e+000	-1.111828300232165e+001
1	 2.011724993034462e+000	 1.647107227462233e+000	-1.083602660664685e+001
1	 1.993448901827818e+000	 1.669179862983960e+000	-1.053274998005092e+001
1	 1.974921561452375e+000	 1.691060328479696e+000	-1.020904115895189e+001
1	 1.956146013021240e+000	 1.712744358454553e+000	-9.865516225607856e+000
1	 1.937125393662695e+000	 1.734227751946229e+000	-9.502818304939412e+000
1	 2.137650604768313e+000	 1.526379143701107e+000	-1.269828831501063e+001
1	 2.120768905424560e+000	 1.549749233023748e+000	-1.250676690475413e+001
1	 2.103617068509114e+000	 1.572952247445816e+000	-1.229186503313569e+001
1	 2.086197553125190e+000	 1.595983546313200e+000	-1.205372977946378e+001
1	 2.068512923802284e+000	 1.618838536886680e+000	-1.179253403535088e+001
1	 2.050565849338336e+000	 1.641512677318262e+000	-1.150847624640653e+001
1	 2.032359101541615e+000	 1.664001479594162e+000	-1.120178011441607e+001
1	 2.013895553873444e+000	 1.686300512440469e+000	-1.087269426045861e+001
1	 1.995178179993043e+000	 1.708405404187631e+000	-1.052149184951363e+001
1	 1.976210052205971e+000	 1.730311845589922e+000	-1.014847017719972e+001
1	 1.956994339817781e+000	 1.752015592596107e+000	-9.753950219382167e+000
1	 2.159353715450340e+000	 1.541876145608267e+000	-1.317354379891464e+001
1	 2.142300619813662e+000	 1.565483506463633e+000	-1.296023670848686e+001
1	 2.124974643956197e+000	 1.588922096142529e+000	-1.272354919932038e+001
1	 2.107378271947896e+000	 1.612187226875289e+000	-1.246338390557006e+001
1	 2.089514094355360e+000	 1.635274259293601e+000	-1.217966362679270e+001
1	 2.071384807072250e+000	 1.658178605437074e+000	-1.187233149595711e+001
1	 2.052993210048401e+000	 1.680895731726092e+000	-1.154135112013814e+001
1	 2.034342205918758e+000	 1.703421161896978e+000	-1.118670669348932e+001
1	 2.015434798533458e+000	 1.725750479895566e+000	-1.080840308214958e+001
1	 1.996274091390502e+000	 1.747879332725291e+000	-1.040646588080164e+001
1	 1.976863285972716e+000	 1.769803433245986e+000	-9.980941440663177e+000
1	 2.181056826131934e+000	 1.557373147515461e+000	-1.362152337152078e+001
1	 2.163832334202313e+000	 1.581217779903542e+000	-1.338682335591416e+001
1	 2.146332219402827e+000	 1.604891944839259e+000	-1.312863291534811e+001
1	 2.128558990770164e+000	 1.628390907437387e+000	-1.284665194248065e+001
1	 2.110515264908027e+000	 1.651709981700529e+000	-1.254059569291036e+001
1	 2.092203764805794e+000	 1.674844533555892e+000	-1.221019531392710e+001
1	 2.073627318554861e+000	 1.697789983858026e+000	-1.185519835637492e+001
1	 2.054788857963797e+000	 1.720541811353488e+000	-1.147536926849266e+001
1	 2.035691417073644e+000	 1.743095555603501e+000	-1.107048987062801e+001
1	 2.016338130574856e+000	 1.765446819860659e+000	-1.064035980975635e+001
1	 1.996732232127518e+000	 1.787591273895864e+000	-1.018479699277255e+001
1	 2.202759936813130e+000	 1.572870149422705e+000	-1.404222428616118e+001
1	 2.185364048590552e+000	 1.596952053343488e+000	-1.378656010544440e+001
1	 2.167689794849050e+000	 1.620861793536015e+000	-1.350720220364677e+001
1	 2.149739709592041e+000	 1.644594587999505e+000	-1.320368824831830e+001
1	 2.131516435460329e+000	 1.668145704107467e+000	-1.287556729353644e+001
1	 2.113022722539009e+000	 1.691510461674715e+000	-1.252240060496108e+001
1	 2.094261427061033e+000	 1.714684235989961e+000	-1.214376247668972e+001
1	 2.075235510008592e+000	 1.737662460810000e+000	-1.173924103817613e+001
1	 2.055948035613634e+000	 1.760440631311437e+000	-1.130843904948181e+001
1	 2.036402169759054e+000	 1.783014306996029e+000	-1.085097468314171e+001
1	 2.016601178282201e+000	 1.805379114545742e+000	-1.036648229094152e+001
1	 2.224463047493960e+000	 1.588367151330018e+000	-1.443564390335957e+001
1	 2.206895762978422e+000	 1.612686326783483e+000	-1.415947891753482e+001
1	 2.189047370294912e+000	 1.636831642232806e+000	-1.385933972951166e+001
1	 2.170920428413575e+000	 1.660798268561644e+000	-1.353464115718767e+001
1	 2.152517606012314e+000	 1.684581426514421e+000	-1.318480623694824e+001
1	 2.133841680271940e+000	 1.708176389793547e+000	-1.280926728168531e+001
1	 2.114895535566959e+000	 1.731578488121902e+000	-1.240746693759175e+001
1	 2.095682162053178e+000	 1.754783110266514e+000	-1.197885923751895e+001
1	 2.076204654153453e+000	 1.777785707019373e+000	-1.152291064867044e+001
1	 2.056466208943119e+000	 1.800581794131398e+000	-1.103910111239845e+001
1	 2.036470124436785e+000	 1.823166955195621e+000	-1.052692507386898e+001
1	 2.246166158174458e+000	 1.603864153237414e+000	-1.480177968565275e+001
1	 2.228427477365963e+000	 1.628420600223541e+000	-1.450561051739750e+001
1	 2.210404945740458e+000	 1.652801490929641e+000	-1.418512496329347e+001
1	 2.192101147234814e+000	 1.677001949123813e+000	-1.383965327020441e+001
1	 2.173518776564031e+000	 1.701017148921394e+000	-1.346853152682399e+001
1	 2.154660638004631e+000	 1.724842317912389e+000	-1.307110289237090e+001
1	 2.135529644072676e+000	 1.748472740253847e+000	-1.264671882935057e+001
1	 2.116128814097590e+000	 1.771903759723029e+000	-1.219474033781808e+001
1	 2.096461272693131e+000	 1.795130782727311e+000	-1.171453918854801e+001
1	 2.076530248127072e+000	 1.818149281266767e+000	-1.120549915249698e+001
1	 2.056339070591284e+000	 1.840954795845499e+000	-1.066701722392953e+001
1	 2.267869268854655e+000	 1.619361155144911e+000	-1.514062919270927e+001
1	 2.249959191753217e+000	 1.644154873663671e+000	-1.482498445410471e+001
1	 2.231762521185734e+000	 1.668771339626526e+000	-1.448463433327361e+001
1	 2.213281866055804e+000	 1.693205629686017e+000	-1.411886172981370e+001
1	 2.194519947115524e+000	 1.717452871328388e+000	-1.372695378353496e+001
1	 2.175479595737126e+000	 1.741508246031245e+000	-1.330820321255735e+001
1	 2.156163752578225e+000	 1.765366992385799e+000	-1.286190965910660e+001
1	 2.136575466141861e+000	 1.789024409179548e+000	-1.238738104021240e+001
1	 2.116717891232695e+000	 1.812475858435248e+000	-1.188393490047539e+001
1	 2.096594287310937e+000	 1.835716768402137e+000	-1.135089976403743e+001
1	 2.076208016745718e+000	 1.858742636495377e+000	-1.078761648286713e+001
1	 2.289572379534585e+000	 1.634858157052527e+000	-1.545219007672597e+001
1	 2.271490906140224e+000	 1.659889147103888e+000	-1.511762915633249e+001
1	 2.253120096630787e+000	 1.684741188323473e+000	-1.475794136984469e+001
1	 2.234462584876594e+000	 1.709409310248261e+000	-1.437239847850686e+001
1	 2.215521117666840e+000	 1.733888593735408e+000	-1.396027564147709e+001
1	 2.196298553469467e+000	 1.758174174150114e+000	-1.352085280302778e+001
1	 2.176797861083645e+000	 1.782261244517759e+000	-1.305341608944183e+001
1	 2.157022118186025e+000	 1.806145058636070e+000	-1.255725921270010e+001
1	 2.136974509772173e+000	 1.829820934143187e+000	-1.203168487801064e+001
1	 2.116658326494735e+000	 1.853284255537506e+000	-1.147600619219366e+001
1	 2.096076962900100e+000	 1.876530477145256e+000	-1.088954806990921e+001
1	 2.311275490214280e+000	 1.650355158960276e+000	-1.573646007808349e+001
1	 2.293022620527026e+000	 1.675623420544203e+000	-1.538357198496430e+001
1	 2.274477672075661e+000	 1.700711037020488e+000	-1.500511684156784e+001
1	 2.255643303697231e+000	 1.725612990810552e+000	-1.460039050296186e+001
1	 2.236522288218026e+000	 1.750324316142456e+000	-1.416869212401664e+001
1	 2.217117511201701e+000	 1.774840102269001e+000	-1.370932553634731e+001
1	 2.197431969588975e+000	 1.799155496649727e+000	-1.322160063533958e+001
1	 2.177468770230118e+000	 1.823265708092595e+000	-1.270483477436435e+001
1	 2.157231128311593e+000	 1.847166009851127e+000	-1.215835416324037e+001
1	 2.136722365678489e+000	 1.870851742672875e+000	-1.158149526796640e+001
1	 2.115945909054448e+000	 1.894318317795134e+000	-1.097360620871521e+001
1	 2.332978600893775e+000	 1.665852160868178e+000	-1.599343702124479e+001
1	 2.314554334913666e+000	 1.691357693984630e+000	-1.562283928275752e+001
1	 2.295835247520404e+000	 1.716680885717582e+000	-1.522622888363603e+001
1	 2.276824022517764e+000	 1.741816671372895e+000	-1.480296006455672e+001
1	 2.257523458769130e+000	 1.766760038549538e+000	-1.435239099750735e+001
1	 2.237936468933869e+000	 1.791506030387907e+000	-1.387388509401202e+001
1	 2.218066078094256e+000	 1.816049748781706e+000	-1.336681232224206e+001
1	 2.197915422274171e+000	 1.840386357549125e+000	-1.283055053024420e+001
1	 2.177487746850984e+000	 1.864511085559069e+000	-1.226448677247631e+001
1	 2.156786404862220e+000	 1.888419229808245e+000	-1.166801863680531e+001
1	 2.135814855208781e+000	 1.912106158445013e+000	-1.104055556909649e+001
1	 1.937125393662695e+000	 1.734227751946229e+000	-9.502818304939412e+000
1	 1.917865842278389e+000	 1.755503199414275e+000	-9.123122883414872e+000
1	 1.898367848035766e+000	 1.776569877680164e+000	-8.729438736216663e+000
1	 1.878634825537390e+000	 1.797423798768443e+000	-8.323875959966218e+000
1	 1.858670277892823e+000	 1.818061049642710e+000	-7.908581916092742e+000
1	 1.838477794649450e+000	 1.838477794649450e+000	-7.485737821159022e+000
1	 1.818061049642710e+000	 1.858670277892823e+000	-7.057555276330426e+000
1	 1.797423798768442e+000	 1.878634825537390e+000	-6.626272743135882e+000
1	 1.776569877680166e+000	 1.898367848035766e+000	-6.194151972807726e+000
1	 1.755503199414274e+000	 1.917865842278389e+000	-5.763474396604743e+000
1	 1.734227751946229e+000	 1.937125393662695e+000	-5.336537484615843e+000
1	 1.956994339817781e+000	 1.752015592596107e+000	-9.753950219382165e+000
1	 1.937537244696356e+000	 1.773509260692354e+000	-9.340193133891615e+000
1	 1.917839261026503e+000	 1.794792018256848e+000	-8.910801102826209e+000
1	 1.897903838434115e+000	 1.815859836409762e+000	-8.468345914999905e+000
1	 1.877734515959893e+000	 1.836708761978973e+000	-8.015448634730998e+000
1	 1.857334919968946e+000	 1.857334919968946e+000	-7.554775298920541e+000
1	 1.836708761978973e+000	 1.877734515959894e+000	-7.089032532207281e+000
1	 1.815859836409761e+000	 1.897903838434115e+000	-6.620963089297496e+000
1	 1.794792018256848e+000	 1.917839261026503e+000	-6.153341333756925e+000
1	 1.773509260692353e+000	 1.937537244696356e+000	-5.688968662711957e+000
1	 1.752015592596108e+000	 1.956994339817781e+000	-5.230668887039426e+000
1	 1.976863285972716e+000	 1.769803433245986e+000	-9.980941440663177e+000
1	 1.957208647114214e+000	 1.791515321970432e+000	-9.534348059520017e+000
1	 1.937310674017164e+000	 1.813014158833529e+000	-9.070969457796615e+000
1	 1.917172851330790e+000	 1.834295874051076e+000	-8.593759996491714e+000
1	 1.896798754026930e+000	 1.855356474315226e+000	-8.105733436924457e+000
1	 1.876192045288421e+000	 1.876192045288421e+000	-7.609957880485484e+000
1	 1.855356474315226e+000	 1.896798754026930e+000	-7.109550608596297e+000
1	 1.834295874051076e+000	 1.917172851330789e+000	-6.607672833634609e+000
1	 1.813014158833529e+000	 1.937310674017163e+000	-6.107524371815970e+000
1	 1.791515321970433e+000	 1.957208647114214e+000	-5.612338249217894e+000
1	 1.769803433245986e+000	 1.976863285972716e+000	-5.125375252298626e+000
1	 1.996732232127518e+000	 1.787591273895864e+000	-1.018479699277255e+001
1	 1.976880049531974e+000	 1.809521383248510e+000	-9.706722766867168e+000
1	 1.956782087007755e+000	 1.831236299410209e+000	-9.211167486446819e+000
1	 1.936441864227417e+000	 1.852731911692388e+000	-8.701391359826458e+000
1	 1.915862992093939e+000	 1.874004186651469e+000	-8.180722273034540e+000
1	 1.895049170607881e+000	 1.895049170607881e+000	-7.652550105717763e+000
1	 1.874004186651470e+000	 1.915862992093939e+000	-7.120320932531764e+000
1	 1.852731911692388e+000	 1.936441864227417e+000	-6.587531122150926e+000
1	 1.831236299410209e+000	 1.956782087007756e+000	-6.057721346295957e+000
1	 1.809521383248510e+000	 1.976880049531974e+000	-5.534470511407950e+000
1	 1.787591273895864e+000	 1.996732232127518e+000	-5.021389625786562e+000
1	 2.016601178282201e+000	 1.805379114545742e+000	-1.036648229094151e+001
1	 1.996551451949648e+000	 1.827527444526589e+000	-9.858407627087964e+000
1	 1.976253499998287e+000	 1.849458439986889e+000	-9.332570647727664e+000
1	 1.955710877124004e+000	 1.871167949333697e+000	-8.792462984367864e+000
1	 1.934927230160922e+000	 1.892651898987706e+000	-8.241650413141766e+000
1	 1.913906295927326e+000	 1.913906295927326e+000	-7.683766678004278e+000
1	 1.892651898987707e+000	 1.934927230160922e+000	-7.122507187788083e+000
1	 1.871167949333697e+000	 1.955710877124005e+000	-6.561622600348002e+000
1	 1.849458439986889e+000	 1.976253499998287e+000	-6.004912307313163e+000
1	 1.827527444526589e+000	 1.996551451949648e+000	-5.456217833221324e+000
1	 1.805379114545742e+000	 2.016601178282202e+000	-4.919416163020258e+000
1	 2.036470124436785e+000	 1.823166955195621e+000	-1.052692507386898e+001
1	 2.016222854367249e+000	 1.845533505804667e+000	-9.990450458244249e+000
1	 1.995724912988767e+000	 1.867680580563567e+000	-9.436308526839557e+000
1	 1.974979890020558e+000	 1.889603986975002e+000	-8.868150121185837e+000
1	 1.953991468227883e+000	 1.911299611323936e+000	-8.289704919372369e+000
1	 1.932763421246759e+000	 1.932763421246759e+000	-7.704774895418428e+000
1	 1.911299611323936e+000	 1.953991468227883e+000	-7.117227643929837e+000
1	 1.889603986975003e+000	 1.974979890020558e+000	-6.530989584084838e+000
1	 1.867680580563567e+000	 1.995724912988767e+000	-5.950039057306531e+000
1	 1.845533505804666e+000	 2.016222854367249e+000	-5.378399333251445e+000
1	 1.823166955195621e+000	 2.036470124436785e+000	-4.820131538969803e+000
1	 2.056339070591284e+000	 1.840954795845499e+000	-1.066701722392953e+001
1	 2.035894256784788e+000	 1.863539567082745e+000	-1.010385858110664e+001
1	 2.015196325979205e+000	 1.885902721140246e+000	-9.523467051460148e+000
1	 1.994248902917082e+000	 1.908040024616306e+000	-8.929582598879758e+000
1	 1.973055706294826e+000	 1.929947323660161e+000	-8.326026974894434e+000
1	 1.951620546566180e+000	 1.951620546566180e+000	-7.716696940939658e+000
1	 1.929947323660161e+000	 1.973055706294827e+000	-7.105557350338621e+000
1	 1.908040024616306e+000	 1.994248902917082e+000	-6.496634104584423e+000
1	 1.885902721140245e+000	 2.015196325979205e+000	-5.894006998838562e+000
1	 1.863539567082745e+000	 2.035894256784789e+000	-5.301802471843319e+000
1	 1.840954795845499e+000	 2.056339070591284e+000	-4.724186275683724e+000
1	 2.076208016745718e+000	 1.858742636495377e+000	-1.078761648286713e+001
1	 2.055565659202280e+000	 1.881545628360823e+000	-1.019960075691424e+001
1	 2.034667738969607e+000	 1.904124861716922e+000	-9.595090580718265e+000
1	 2.013517915813583e+000	 1.926476062257608e+000	-8.977846997003853e+000
1	 1.992119944361754e+000	 1.948595035996382e+000	-8.351714079185971e+000
1	 1.970477671885594e+000	 1.970477671885594e+000	-7.720612041171044e+000
1	 1.948595035996382e+000	 1.992119944361754e+000	-7.088530204260527e+000
1	 1.926476062257608e+000	 2.013517915813584e+000	-6.459519836018202e+000
1	 1.904124861716923e+000	 2.034667738969607e+000	-5.837686876297384e+000
1	 1.881545628360823e+000	 2.055565659202280e+000	-5.227184565912802e+000
1	 1.858742636495377e+000	 2.076208016745717e+000	-4.632205993683242e+000
1	 2.096076962900100e+000	 1.876530477145256e+000	-1.088954806990921e+001
1	 2.075237061619735e+000	 1.899551689638900e+000	-1.027860901492514e+001
1	 2.054139151959984e+000	 1.922347002293599e+000	-9.652183875358579e+000
1	 2.032786928710067e+000	 1.944912099898908e+000	-9.013988695879611e+000
1	 2.011184182428673e+000	 1.967242748332599e+000	-8.367822118447529e+000
1	 1.989334797205001e+000	 1.989334797205000e+000	-7.717558502280658e+000
1	 1.967242748332600e+000	 2.011184182428673e+000	-7.067140901234772e+000
1	 1.944912099898908e+000	 2.032786928710067e+000	-6.420573913459888e+000
1	 1.922347002293599e+000	 2.054139151959985e+000	-5.781916418540396e+000
1	 1.899551689638900e+000	 2.075237061619735e+000	-5.155274217611371e+000
1	 1.876530477145256e+000	 2.096076962900100e+000	-4.544792592183929e+000
1	 2.115945909054448e+000	 1.894318317795134e+000	-1.097360620871521e+001
1	 2.094908464037164e+000	 1.917557750916978e+000	-1.034178037700153e+001
1	 2.073610564950345e+000	 1.940569142870276e+000	-9.695713956905683e+000
1	 2.052055941606541e+000	 1.963348137540208e+000	-9.039013810920675e+000
1	 2.030248420495583e+000	 1.985890460668814e+000	-8.375367319366688e+000
1	 2.008191922524404e+000	 2.008191922524404e+000	-7.708535631236750e+000
1	 1.985890460668814e+000	 2.030248420495583e+000	-7.042346775633488e+000
1	 1.963348137540208e+000	 2.052055941606541e+000	-6.380688648414480e+000
1	 1.940569142870276e+000	 2.073610564950345e+000	-5.727501888989864e+000
1	 1.917557750916979e+000	 2.094908464037165e+000	-5.086772662498510e+000
1	 1.894318317795134e+000	 2.115945909054448e+000	-4.462525362823196e+000
1	 2.135814855208781e+000	 1.912106158445013e+000	-1.104055556909649e+001
1	 2.114579866454582e+000	 1.935563812195057e+000	-1.038997848593436e+001
1	 2.093081977940697e+000	 1.958791283446953e+000	-9.726611863056242e+000
1	 2.071324954503008e+000	 1.981784175181508e+000	-9.053891018990431e+000
1	 2.049312658562491e+000	 2.004538173005029e+000	-8.375328093830293e+000
1	 2.027049047843805e+000	 2.027049047843805e+000	-7.694505549806165e+000
1	 2.004538173005029e+000	 2.049312658562490e+000	-7.015069538469280e+000
1	 1.981784175181508e+000	 2.071324954503008e+000	-6.340723148592746e+000
1	 1.958791283446953e+000	 2.093081977940697e+000	-5.675219549208093e+000
1	 1.935563812195057e+000	 2.114579866454582e+000	-5.022355042464595e+000
1	 1.912106158445013e+000	 2.135814855208781e+000	-4.385962041223102e+000
1	 1.734227751946229e+000	 1.937125393662695e+000	-5.336537484615840e+000
1	 1.712744358454553e+000	 1.956146013021241e+000	-4.922724059609830e+000
1	 1.691060328479696e+000	 1.974921561452375e+000	-4.530369403864541e+000
1	 1.669179862983960e+000	 1.993448901827818e+000	-4.160012407484859e+000
1	 1.647107227462233e+000	 2.011724993034462e+000	-3.812183194945113e+000
1	 1.624846749199452e+000	 2.029746891604005e+000	-3.487402423414258e+000
1	 1.602402814479762e+000	 2.047511753248752e+000	-3.186180592346313e+000
1	 1.579779865751119e+000	 2.065016834301999e+000	-2.909017365680721e+000
1	 1.556982398749111e+000	 2.082259493061532e+000	-2.656400907967873e+000
1	 1.534014959583875e+000	 2.099237191034965e+000	-2.428807235698019e+000
1	 1.510882141793964e+000	 2.115947494085821e+000	-2.226699585074415e+000
1	 1.752015592596108e+000	 1.956994339817781e+000	-5.230668887039425e+000
1	 1.730311845589922e+000	 1.976210052205971e+000	-4.788014433730112e+000
1	 1.708405404187631e+000	 1.995178179993043e+000	-4.368974797275254e+000
1	 1.686300512440468e+000	 2.013895553873444e+000	-3.973765961918557e+000
1	 1.664001479594162e+000	 2.032359101541615e+000	-3.602586547007782e+000
1	 1.641512677318262e+000	 2.050565849338336e+000	-3.255617761338422e+000
1	 1.618838536886680e+000	 2.068512923802285e+000	-2.933023380117258e+000
1	 1.595983546313200e+000	 2.086197553125190e+000	-2.634949744415478e+000
1	 1.572952247445815e+000	 2.103617068509114e+000	-2.361525782932755e+000
1	 1.549749233023748e+000	 2.120768905424560e+000	-2.112863055845700e+000
1	 1.526379143701107e+000	 2.137650604768313e+000	-1.889055820468227e+000
1	 1.769803433245986e+000	 1.976863285972716e+000	-5.125375252298626e+000
1	 1.747879332725290e+000	 1.996274091390502e+000	-4.656187108174030e+000
1	 1.725750479895566e+000	 2.015434798533457e+000	-4.212267669469244e+000
1	 1.703421161896978e+000	 2.034342205918758e+000	-3.793572999299726e+000
1	 1.680895731726092e+000	 2.052993210048401e+000	-3.400034699476382e+000
1	 1.658178605437075e+000	 2.071384807072250e+000	-3.031560405296451e+000
1	 1.635274259293601e+000	 2.089514094355360e+000	-2.688034312360438e+000
1	 1.612187226875288e+000	 2.107378271947896e+000	-2.369317734064421e+000
1	 1.588922096142529e+000	 2.124974643956197e+000	-2.075249688353306e+000
1	 1.565483506463633e+000	 2.142300619813663e+000	-1.805647512263577e+000
1	 1.541876145608268e+000	 2.159353715450340e+000	-1.560307502731286e+000
1	 1.787591273895864e+000	 1.996732232127518e+000	-5.021389625786562e+000
1	 1.765446819860660e+000	 2.016338130574856e+000	-4.527829592775911e+000
1	 1.743095555603502e+000	 2.035691417073645e+000	-4.060725973646447e+000
1	 1.720541811353488e+000	 2.054788857963797e+000	-3.619835962199946e+000
1	 1.697789983858025e+000	 2.073627318554860e+000	-3.204886668545461e+000
1	 1.674844533555892e+000	 2.092203764805794e+000	-2.815576040830811e+000
1	 1.651709981700529e+000	 2.110515264908027e+000	-2.451573826488338e+000
1	 1.628390907437388e+000	 2.128558990770164e+000	-2.112522570673414e+000
1	 1.604891944839259e+000	 2.146332219402827e+000	-1.798038649500051e+000
1	 1.581217779903542e+000	 2.163832334202313e+000	-1.507713335613350e+000
1	 1.557373147515461e+000	 2.181056826131934e+000	-1.241113893578919e+000
1	 1.805379114545742e+000	 2.016601178282202e+000	-4.919416163020258e+000
1	 1.783014306996028e+000	 2.036402169759053e+000	-4.403506243160802e+000
1	 1.760440631311437e+000	 2.055948035613634e+000	-3.914808826507659e+000
1	 1.737662460810000e+000	 2.075235510008592e+000	-3.452941432623099e+000
1	 1.714684235989961e+000	 2.094261427061034e+000	-3.017487321308374e+000
1	 1.691510461674715e+000	 2.113022722539008e+000	-2.607996729753949e+000
1	 1.668145704107468e+000	 2.131516435460329e+000	-2.223988154801126e+000
1	 1.644594587999504e+000	 2.149739709592041e+000	-1.864949677270989e+000
1	 1.620861793536015e+000	 2.167689794849050e+000	-1.530340325233913e+000
1	 1.596952053343488e+000	 2.185364048590552e+000	-1.219591473021682e+000
1	 1.572870149422705e+000	 2.202759936813131e+000	-9.321082727217467e-001
1	 1.823166955195621e+000	 2.036470124436785e+000	-4.820131538969805e+000
1	 1.800581794131398e+000	 2.056466208943119e+000	-4.283759390271928e+000
1	 1.777785707019373e+000	 2.076204654153453e+000	-3.774957427152062e+000
1	 1.754783110266514e+000	 2.095682162053179e+000	-3.293260905728279e+000
1	 1.731578488121901e+000	 2.114895535566959e+000	-2.838168065990170e+000
1	 1.708176389793547e+000	 2.133841680271940e+000	-2.409141574752022e+000
1	 1.684581426514422e+000	 2.152517606012314e+000	-2.005610017451728e+000
1	 1.660798268561644e+000	 2.170920428413575e+000	-1.626969435271571e+000
1	 1.636831642232806e+000	 2.189047370294912e+000	-1.272584903970795e+000
1	 1.612686326783484e+000	 2.206895762978422e+000	-9.417921507420940e-001
1	 1.588367151330017e+000	 2.224463047493960e+000	-6.338992053409587e-001
1	 1.840954795845499e+000	 2.056339070591284e+000	-4.724186275683724e+000
1	 1.818149281266767e+000	 2.076530248127072e+000	-4.169110404415086e+000
1	 1.795130782727311e+000	 2.096461272693131e+000	-3.641595922702579e+000
1	 1.771903759723029e+000	 2.116128814097590e+000	-3.141151518697293e+000
1	 1.748472740253847e+000	 2.135529644072676e+000	-2.667247502165015e+000
1	 1.724842317912389e+000	 2.154660638004631e+000	-2.219317345459344e+000
1	 1.701017148921394e+000	 2.173518776564031e+000	-1.796759275237634e+000
1	 1.677001949123814e+000	 2.192101147234814e+000	-1.398937911157949e+000
1	 1.652801490929640e+000	 2.210404945740458e+000	-1.025185947704529e+000
1	 1.628420600223541e+000	 2.228427477365963e+000	-6.748058752106579e-001
1	 1.603864153237414e+000	 2.246166158174458e+000	-3.470717360830516e-001
1	 1.858742636495377e+000	 2.076208016745717e+000	-4.632205993683242e+000
1	 1.835716768402137e+000	 2.096594287310937e+000	-4.060060698206754e+000
1	 1.812475858435249e+000	 2.116717891232694e+000	-3.515132224227892e+000
1	 1.789024409179548e+000	 2.136575466141861e+000	-2.996956737751269e+000
1	 1.765366992385799e+000	 2.156163752578225e+000	-2.505032033639120e+000
1	 1.741508246031244e+000	 2.175479595737126e+000	-2.038819068583847e+000
1	 1.717452871328388e+000	 2.194519947115523e+000	-1.597743544909496e+000
1	 1.693205629686017e+000	 2.213281866055804e+000	-1.181197541438027e+000
1	 1.668771339626526e+000	 2.231762521185735e+000	-7.885411875663900e-001
1	 1.644154873663671e+000	 2.249959191753217e+000	-4.191043766218822e-001
1	 1.619361155144911e+000	 2.267869268854655e+000	-7.218851449668494e-002
1	 1.876530477145256e+000	 2.096076962900100e+000	-4.544792592183929e+000
1	 1.853284255537506e+000	 2.116658326494735e+000	-3.957092672479816e+000
1	 1.829820934143187e+000	 2.136974509772172e+000	-3.395958776259415e+000
1	 1.806145058636069e+000	 2.157022118186025e+000	-2.861007006093509e+000
1	 1.782261244517759e+000	 2.176797861083645e+000	-2.351816446475656e+000
1	 1.758174174150114e+000	 2.196298553469467e+000	-1.867930584469782e+000
1	 1.733888593735408e+000	 2.215521117666840e+000	-1.408858779484734e+000
1	 1.709409310248261e+000	 2.234462584876594e+000	-9.740777786450520e-001
1	 1.684741188323472e+000	 2.253120096630787e+000	-5.630332741376658e-001
1	 1.659889147103889e+000	 2.271490906140225e+000	-1.751414988389709e-001
1	 1.634858157052526e+000	 2.289572379534584e+000	 1.902091435390345e-001
1	 1.894318317795134e+000	 2.115945909054448e+000	-4.462525362823194e+000
1	 1.870851742672876e+000	 2.136722365678489e+000	-3.860670608896566e+000
1	 1.847166009851127e+000	 2.157231128311593e+000	-3.284453282952892e+000
1	 1.823265708092595e+000	 2.177468770230117e+000	-2.733620355346580e+000
1	 1.799155496649727e+000	 2.197431969588976e+000	-2.207884454453929e+000
1	 1.774840102269001e+000	 2.217117511201700e+000	-1.706925072303052e+000
1	 1.750324316142456e+000	 2.236522288218026e+000	-1.230389815865556e+000
1	 1.725612990810552e+000	 2.255643303697231e+000	-7.778957009418799e-001
1	 1.700711037020488e+000	 2.274477672075662e+000	-3.490304854890284e-001
1	 1.675623420544203e+000	 2.293022620527026e+000	 5.664596083378076e-002
1	 1.650355158960276e+000	 2.311275490214281e+000	 4.396002541882093e-001
1	 1.912106158445013e+000	 2.135814855208781e+000	-4.385962041223102e+000
1	 1.888419229808245e+000	 2.156786404862220e+000	-3.771241512738967e+000
1	 1.864511085559069e+000	 2.177487746850984e+000	-3.180979393718550e+000
1	 1.840386357549125e+000	 2.197915422274170e+000	-2.615102982861492e+000
1	 1.816049748781705e+000	 2.218066078094255e+000	-2.073509214082473e+000
1	 1.791506030387908e+000	 2.237936468933869e+000	-1.556065546001658e+000
1	 1.766760038549538e+000	 2.257523458769129e+000	-1.062610891891121e+000
1	 1.741816671372895e+000	 2.276824022517764e+000	-5.929565876991607e-001
1	 1.716680885717582e+000	 2.295835247520404e+000	-1.468873956998463e-001
1	 1.691357693984630e+000	 2.314554334913665e+000	 2.758374587517986e-001
1	 1.665852160868179e+000	 2.332978600893775e+000	 6.754832199386873e-001
1	 1.510882141793964e+000	 2.115947494085821e+000	-2.226699585074415e+000
1	 1.487588582867686e+000	 2.132388072878528e+000	-2.057152495916945e+000
1	 1.464138959764830e+000	 2.148556702005919e+000	-1.928143499098870e+000
1	 1.440537987463155e+000	 2.164451262611717e+000	-1.841461796845049e+000
1	 1.416790416433498e+000	 2.180069743733891e+000	-1.798869378377591e+000
1	 1.392901029590033e+000	 2.195410242948957e+000	-1.802097994315216e+000
1	 1.368874639231026e+000	 2.210470966914093e+000	-1.852846195441094e+000
1	 1.344716083974012e+000	 2.225250231807173e+000	-1.952776441573967e+000
1	 1.320430225689309e+000	 2.239746463665041e+000	-2.103512286051144e+000
1	 1.296021946435735e+000	 2.253958198620401e+000	-2.306635641091369e+000
1	 1.271496145402372e+000	 2.267884083038025e+000	-2.563684129052465e+000
1	 1.526379143701107e+000	 2.137650604768313e+000	-1.889055820468227e+000
1	 1.502846664532555e+000	 2.154259813312990e+000	-1.696982741343271e+000
1	 1.479156520449109e+000	 2.170594282825592e+000	-1.544711262602090e+000
1	 1.455313474789710e+000	 2.186651872716886e+000	-1.434091842956911e+000
1	 1.431322326750428e+000	 2.202430551398550e+000	-1.366953606006769e+000
1	 1.407187908303436e+000	 2.217928396934077e+000	-1.345101115185882e+000
1	 1.382915081106392e+000	 2.233143597586459e+000	-1.370311204824707e+000
1	 1.358508733406175e+000	 2.248074452262729e+000	-1.444329873585427e+000
1	 1.333973776940951e+000	 2.262719370855698e+000	-1.568869246321439e+000
1	 1.309315143844457e+000	 2.277076874483293e+000	-1.745604610181424e+000
1	 1.284537783556399e+000	 2.291145595626142e+000	-1.976171530535285e+000
1	 1.541876145608268e+000	 2.159353715450340e+000	-1.560307502731286e+000
1	 1.518104746197447e+000	 2.176131553747041e+000	-1.346065686436047e+000
1	 1.494174081133418e+000	 2.192631863644929e+000	-1.171142304547764e+000
1	 1.470088962116304e+000	 2.208852482821807e+000	-1.037384342891560e+000
1	 1.445854237067409e+000	 2.224791359063059e+000	-9.466224532145385e-001
1	 1.421474787016904e+000	 2.240446550919154e+000	-9.006676537454925e-001
1	 1.396955522981841e+000	 2.255816228258888e+000	-9.013080778377663e-001
1	 1.372301382838444e+000	 2.270898672718448e+000	-9.503057772199103e-001
1	 1.347517328192726e+000	 2.285692278046610e+000	-1.049393586182349e+000
1	 1.322608341253345e+000	 2.300195550346515e+000	-1.200272052814437e+000
1	 1.297579421710628e+000	 2.314407108214644e+000	-1.404606443178387e+000
1	 1.557373147515461e+000	 2.181056826131934e+000	-1.241113893578919e+000
1	 1.533362827862384e+000	 2.198003294180702e+000	-1.005162291930025e+000
1	 1.509191641817784e+000	 2.214669444463932e+000	-8.082725130792502e-001
1	 1.484864449442972e+000	 2.231053092926468e+000	-6.522253301920079e-001
1	 1.460386147384479e+000	 2.247152166727390e+000	-5.387893230818154e-001
1	 1.435761665730482e+000	 2.262964704904139e+000	-4.697176273290223e-001
1	 1.410995964857420e+000	 2.278488858931313e+000	-4.467447236765490e-001
1	 1.386094032270866e+000	 2.293722893174245e+000	-4.715832742278480e-001
1	 1.361060879444679e+000	 2.308665185237677e+000	-5.459210117965585e-001
1	 1.335901538662437e+000	 2.323314226209955e+000	-6.714176885619593e-001
1	 1.310621059865092e+000	 2.337668620803414e+000	-8.497020899738766e-001
1	 1.572870149422705e+000	 2.202759936813131e+000	-9.321082727217467e-001
1	 1.548620909527387e+000	 2.219875034613992e+000	-6.750035285197766e-001
1	 1.524209202502237e+000	 2.236707025282611e+000	-4.569048333537834e-001
1	 1.499639936769747e+000	 2.253253703030858e+000	-2.794659191467758e-001
1	 1.474918057701679e+000	 2.269512974391513e+000	-1.443316207805857e-001
1	 1.450048544444212e+000	 2.285482858888984e+000	-5.313479469000309e-002
1	 1.425036406733176e+000	 2.301161489603666e+000	-7.493270146904121e-003
1	 1.399886681703489e+000	 2.316547113630037e+000	-9.006839504038543e-003
1	 1.374604430696857e+000	 2.331638092428801e+000	-5.925429351225858e-002
1	 1.349194736071777e+000	 2.346432902073507e+000	-1.597905076547379e-001
1	 1.323662698019824e+000	 2.360930133392335e+000	-3.121435852536815e-001
1	 1.588367151330017e+000	 2.224463047493960e+000	-6.338992053409587e-001
1	 1.563878991192479e+000	 2.241746775046933e+000	-3.562918398581453e-001
1	 1.539226763186804e+000	 2.258744606100968e+000	-1.178108745937422e-001
1	 1.514415424096663e+000	 2.275454313134967e+000	 8.007599175066077e-002
1	 1.489449968019049e+000	 2.291873782055399e+000	 2.359074903465536e-001
1	 1.464335423158140e+000	 2.308001012873640e+000	 3.482315752043519e-001
1	 1.439076848609157e+000	 2.323834120275879e+000	 4.156081908195602e-001
1	 1.413679331136361e+000	 2.339371334085742e+000	 4.366120087415781e-001
1	 1.388147981949305e+000	 2.354610999619884e+000	 4.098351274355719e-001
1	 1.362487933481405e+000	 2.369551577937059e+000	 3.338897299535954e-001
1	 1.336704336174856e+000	 2.384191645981290e+000	 2.074106940909455e-001
1	 1.603864153237414e+000	 2.246166158174458e+000	-3.470717360830516e-001
1	 1.579137072857684e+000	 2.263618515479547e+000	-4.970252073906964e-002
1	 1.554244323871514e+000	 2.280782186919011e+000	 2.082675760286669e-001
1	 1.529190911423754e+000	 2.297654923238781e+000	 4.256141150987201e-001
1	 1.503981878336627e+000	 2.314234589719017e+000	 6.011174345143944e-001
1	 1.478622301872309e+000	 2.330519166858057e+000	 7.335650369211130e-001
1	 1.453117290485408e+000	 2.346506750947888e+000	 8.217539588424886e-001
1	 1.427471980569528e+000	 2.362195554541273e+000	 8.644931167984181e-001
1	 1.401691533202069e+000	 2.377583906810825e+000	 8.606056253697955e-001
1	 1.375781130891361e+000	 2.392670253800501e+000	 8.089310824291635e-001
1	 1.349745974330221e+000	 2.407453158570164e+000	 7.083278168850059e-001
1	 1.619361155144911e+000	 2.267869268854655e+000	-7.218851449668494e-002
1	 1.594395154523023e+000	 2.285490255911854e+000	 2.441149838535344e-001
1	 1.569261884556395e+000	 2.302819767736746e+000	 5.206171264327266e-001
1	 1.543966398751055e+000	 2.319855533342289e+000	 7.563922620246345e-001
1	 1.518513788654454e+000	 2.336595397382336e+000	 9.505186642086331e-001
1	 1.492909180586763e+000	 2.353037320842188e+000	 1.102080397984574e+000
1	 1.467157732361976e+000	 2.369179381619624e+000	 1.210169175185788e+000
1	 1.441264630003040e+000	 2.385019774996548e+000	 1.273886194691660e+000
1	 1.415235084455194e+000	 2.400556814001531e+000	 1.292343963523154e+000
1	 1.389074328301687e+000	 2.415788929663724e+000	 1.264668094985570e+000
1	 1.362787612485953e+000	 2.430714671158838e+000	 1.189999080114390e+000
1	 1.634858157052526e+000	 2.289572379534584e+000	 1.902091435390345e-001
1	 1.609653236188518e+000	 2.307361996343875e+000	 5.245358535793852e-001
1	 1.584279445241475e+000	 2.324857348554177e+000	 8.185514338278170e-001
1	 1.558741886078600e+000	 2.342056143445480e+000	 1.071682915648031e+000
1	 1.533045698972569e+000	 2.358956205045327e+000	 1.283361189583955e+000
1	 1.507196059301545e+000	 2.375555474825982e+000	 1.453022237624837e+000
1	 1.481198174238908e+000	 2.391852012291019e+000	 1.580108361000565e+000
1	 1.455057279436942e+000	 2.407843995451483e+000	 1.664069400773672e+000
1	 1.428778635708728e+000	 2.423529721191897e+000	 1.704363948529973e+000
1	 1.402367525712424e+000	 2.438907605526619e+000	 1.700460544515443e+000
1	 1.375829250642081e+000	 2.453976183747196e+000	 1.651838860618867e+000
1	 1.650355158960276e+000	 2.311275490214281e+000	 4.396002541882093e-001
1	 1.624911317854192e+000	 2.329233736775629e+000	 7.909587366026933e-001
1	 1.599297005926782e+000	 2.346894929371312e+000	 1.101409934735794e+000
1	 1.573517373406423e+000	 2.364256753548344e+000	 1.370785884916307e+000
1	 1.547577609291011e+000	 2.381317012707963e+000	 1.598923190716632e+000
1	 1.521482938016701e+000	 2.398073628809392e+000	 1.785663508981211e+000
1	 1.495238616116251e+000	 2.414524642962007e+000	 1.930854037924692e+000
1	 1.468849928871284e+000	 2.430668215905993e+000	 2.034348006060963e+000
1	 1.442322186962715e+000	 2.446502628381830e+000	 2.096005160724751e+000
1	 1.415660723123613e+000	 2.462026281389075e+000	 2.115692254950255e+000
1	 1.388870888798642e+000	 2.477237696335122e+000	 2.093283531481333e+000
1	 1.665852160868179e+000	 2.332978600893775e+000	 6.754832199386873e-001
1	 1.640169399520067e+000	 2.351105477207141e+000	 1.042804657984107e+000
1	 1.614314566612346e+000	 2.368932510188156e+000	 1.368556645898709e+000
1	 1.588292860734558e+000	 2.386457363650868e+000	 1.653027033578267e+000
1	 1.562109519609820e+000	 2.403677820370209e+000	 1.896509707315888e+000
1	 1.535769816732273e+000	 2.420591782792370e+000	 2.099304219325660e+000
1	 1.509279057994052e+000	 2.437197273632522e+000	 2.261715425675281e+000
1	 1.482642578306111e+000	 2.453492436359996e+000	 2.384053133122516e+000
1	 1.455865738217200e+000	 2.469475535571230e+000	 2.466631755311135e+000
1	 1.428953920535294e+000	 2.485144957250983e+000	 2.509769978742811e+000
1	 1.401912526955667e+000	 2.500499208922499e+000	 2.513790438900421e+000
1	 1.271496145402372e+000	 2.267884083038025e+000	-2.563684129052467e+000
1	 1.246861439865192e+000	 2.281520849728122e+000	-2.877201461884326e+000
1	 1.222119083064165e+000	 2.294869477818497e+000	-3.248726368470623e+000
1	 1.197274006442202e+000	 2.307928946488350e+000	-3.678106274745713e+000
1	 1.172331146418369e+000	 2.320698344647250e+000	-4.165163787537732e+000
1	 1.147295441416841e+000	 2.333176870580241e+000	-4.709698886304399e+000
1	 1.122171828923650e+000	 2.345363831499277e+000	-5.311491097187240e+000
1	 1.096965242574563e+000	 2.357258643002612e+000	-5.970301644770043e+000
1	 1.071680609277310e+000	 2.368860828443987e+000	-6.685875577084873e+000
1	 1.046322846371299e+000	 2.380170018213485e+000	-7.457943859579311e+000
1	 1.020896858827830e+000	 2.391185948932115e+000	-8.286225433936345e+000
1	 1.284537783556399e+000	 2.291145595626142e+000	-1.976171530535285e+000
1	 1.259650401739495e+000	 2.304922233583134e+000	-2.263314111070148e+000
1	 1.234654264488093e+000	 2.318407777524915e+000	-2.608866936095645e+000
1	 1.209554353826513e+000	 2.331601196160211e+000	-3.012931361477490e+000
1	 1.184355656806279e+000	 2.344501569053610e+000	-3.475580423918899e+000
1	 1.159063162504583e+000	 2.357108086267037e+000	-3.996860687301440e+000
1	 1.133681859050856e+000	 2.369420047906573e+000	-4.576794082097129e+000
1	 1.108216730684771e+000	 2.381436863576317e+000	-5.215379733753653e+000
1	 1.082672754848956e+000	 2.393158051741090e+000	-5.912595776077985e+000
1	 1.057054899319571e+000	 2.404583238999920e+000	-6.668401145776135e+000
1	 1.031368119377818e+000	 2.415712159272363e+000	-7.482737354449200e+000
1	 1.297579421710628e+000	 2.314407108214644e+000	-1.404606443178385e+000
1	 1.272439363614045e+000	 2.328323617438562e+000	-1.665230138937072e+000
1	 1.247189445912312e+000	 2.341946077231757e+000	-1.984243716344002e+000
1	 1.221834701211165e+000	 2.355273445832486e+000	-2.362055756858856e+000
1	 1.196380167194577e+000	 2.368304793460358e+000	-2.799042578013472e+000
1	 1.170830883592758e+000	 2.381039301954176e+000	-3.295549641060014e+000
1	 1.145191889178537e+000	 2.393476264314158e+000	-3.851892964763624e+000
1	 1.119468218795488e+000	 2.405615084150246e+000	-4.468360541913625e+000
1	 1.093664900421135e+000	 2.417455275038343e+000	-5.145213755205358e+000
1	 1.067786952268393e+000	 2.428996459786429e+000	-5.882688789233278e+000
1	 1.041839379928356e+000	 2.440238369612607e+000	-6.680998035429841e+000
1	 1.310621059865092e+000	 2.337668620803414e+000	-8.497020899738766e-001
1	 1.285228325488860e+000	 2.351725001294286e+000	-1.083591748564913e+000
1	 1.259724627336829e+000	 2.365484376938910e+000	-1.375426906224800e+000
1	 1.234115048596146e+000	 2.378945695505065e+000	-1.725975094485150e+000
1	 1.208404677583233e+000	 2.392108017867391e+000	-2.135967203819061e+000
1	 1.182598604681320e+000	 2.404970517641572e+000	-2.606098360719568e+000
1	 1.156701919306625e+000	 2.417532480721959e+000	-3.137028826282482e+000
1	 1.130719706906629e+000	 2.429793304724341e+000	-3.729384913692796e+000
1	 1.104657045993749e+000	 2.441752498335712e+000	-4.383759922038333e+000
1	 1.078519005217652e+000	 2.453409680572995e+000	-5.100715083907357e+000
1	 1.052310640479326e+000	 2.464764579952846e+000	-5.880780524268134e+000
1	 1.323662698019824e+000	 2.360930133392335e+000	-3.121435852536815e-001
1	 1.298017287363962e+000	 2.375126385150190e+000	-5.190158333220702e-001
1	 1.272259808761648e+000	 2.389022676646254e+000	-7.829642308493161e-001
1	 1.246395395981444e+000	 2.402617945177838e+000	-1.105165474654483e+000
1	 1.220429187972218e+000	 2.415911242274609e+000	-1.486754822858725e+000
1	 1.194366325770216e+000	 2.428901733329134e+000	-1.928826350882215e+000
1	 1.168211949435054e+000	 2.441588697129901e+000	-2.432433246559300e+000
1	 1.141971195018111e+000	 2.453971525298550e+000	-2.998588142746643e+000
1	 1.115649191566700e+000	 2.466049721633156e+000	-3.628263485761436e+000
1	 1.089251058167239e+000	 2.477822901359597e+000	-4.322391937958258e+000
1	 1.062781901030611e+000	 2.489290790293080e+000	-5.081866812727273e+000
1	 1.336704336174856e+000	 2.384191645981290e+000	 2.074106940909455e-001
1	 1.310806249239370e+000	 2.398527769006154e+000	 2.790478845597259e-002
1	 1.284794990186778e+000	 2.412560976353672e+000	-2.073820396732335e-001
1	 1.258675743367047e+000	 2.426290194850694e+000	-5.000844172569111e-001
1	 1.232453698361500e+000	 2.439714466681910e+000	-8.517903258031072e-001
1	 1.206134046859400e+000	 2.452832949016774e+000	-1.264040647083718e+000
1	 1.179721979563755e+000	 2.465644913537913e+000	-1.738328767804116e+000
1	 1.153222683129849e+000	 2.478149745872810e+000	-2.276100242725670e+000
1	 1.126641337139889e+000	 2.490346944930636e+000	-2.878752515633265e+000
1	 1.099983111117046e+000	 2.502236122146217e+000	-3.547634697438584e+000
1	 1.073253161582096e+000	 2.513817000633315e+000	-4.284047400611966e+000
1	 1.349745974330221e+000	 2.407453158570164e+000	 7.083278168850079e-001
1	 1.323595211115106e+000	 2.421929152862056e+000	 5.566002103667731e-001
1	 1.297330171612221e+000	 2.436099276061050e+000	 3.508136608143363e-001
1	 1.270956090752944e+000	 2.449962444523522e+000	 8.882824057914701e-002
1	 1.244478208751050e+000	 2.463517691089195e+000	-2.314437276196898e-001
1	 1.217901767948820e+000	 2.476764164704405e+000	-6.120364181924629e-001
1	 1.191232009692661e+000	 2.489701129945918e+000	-1.054929331155742e+000
1	 1.164474171241759e+000	 2.502327966447070e+000	-1.562046202360584e+000
1	 1.137633482713217e+000	 2.514644168228116e+000	-2.135253996057698e+000
1	 1.110715164066960e+000	 2.526649342932837e+000	-2.776361980203634e+000
1	 1.083724422133662e+000	 2.538343210973550e+000	-3.487120884732911e+000
1	 1.362787612485953e+000	 2.430714671158838e+000	 1.189999080114390e+000
1	 1.336384172991191e+000	 2.445330536717780e+000	 1.066522341624993e+000
1	 1.309865353037983e+000	 2.459637575768267e+000	 8.911362336979202e-001
1	 1.283236438139122e+000	 2.473634694196211e+000	 6.611494983824467e-001
1	 1.256502719140836e+000	 2.487320915496360e+000	 3.739291206380706e-001
1	 1.229669489038429e+000	 2.500695380391936e+000	 2.690246578127738e-002
1	 1.202742039821704e+000	 2.513757346353843e+000	-3.824406882353176e-001
1	 1.175725659353757e+000	 2.526506187021271e+000	-8.565462259000481e-001
1	 1.148625628286586e+000	 2.538941391525559e+000	-1.397793878493160e+000
1	 1.121447217016874e+000	 2.551062563719440e+000	-2.008495519358792e+000
1	 1.094195682685192e+000	 2.562869421313786e+000	-2.690893571471816e+000
1	 1.375829250642081e+000	 2.453976183747196e+000	 1.651838860618865e+000
1	 1.349173134867645e+000	 2.468731920573207e+000	 1.557143873099337e+000
1	 1.322400534464071e+000	 2.483175875475210e+000	 1.413117493603913e+000
1	 1.295516785525570e+000	 2.497306943868649e+000	 1.216472394356158e+000
1	 1.268527229530830e+000	 2.511124139903305e+000	 9.639858605242971e-001
1	 1.241437210128177e+000	 2.524626596079280e+000	 6.525028981696159e-001
1	 1.214252069950818e+000	 2.537813562761620e+000	 2.789392107069596e-001
1	 1.186977147465758e+000	 2.550684407595357e+000	-1.597159598737342e-001
1	 1.159617773859896e+000	 2.563238614822923e+000	-6.663971304100053e-001
1	 1.132179269966677e+000	 2.575475784506003e+000	-1.243960015610262e+000
1	 1.104666943236571e+000	 2.587395631654025e+000	-1.895179111382365e+000
1	 1.388870888798642e+000	 2.477237696335122e+000	 2.093283531481335e+000
1	 1.361962096744488e+000	 2.492133304428215e+000	 2.027957301603283e+000
1	 1.334935715890488e+000	 2.506714175181758e+000	 1.916306840391672e+000
1	 1.307797132912276e+000	 2.520979193540728e+000	 1.754405252354143e+000
1	 1.280551739921000e+000	 2.534927364309929e+000	 1.538396992715701e+000
1	 1.253204931218015e+000	 2.548557811766348e+000	 1.264502030302680e+000
1	 1.225762100079934e+000	 2.561869779169168e+000	 9.290198505136419e-001
1	 1.198228635577678e+000	 2.574862628169270e+000	 5.283332929204208e-001
1	 1.170609919433050e+000	 2.587535838120172e+000	 5.891221851129030e-002
1	 1.142911322916260e+000	 2.599889005292512e+000	-4.826829979349023e-001
1	 1.115138203787681e+000	 2.611921841994268e+000	-1.099798154377379e+000
1	 1.401912526955667e+000	 2.500499208922499e+000	 2.513790438900421e+000
1	 1.374751058621742e+000	 2.515534688282688e+000	 2.478474008646876e+000
1	 1.347470897317242e+000	 2.530252474887798e+000	 2.400270441198407e+000
1	 1.320077480299228e+000	 2.544651443212336e+000	 2.274570970888375e+000
1	 1.292576250311316e+000	 2.558730588716131e+000	 2.096845278886224e+000
1	 1.264972652307893e+000	 2.572489027453051e+000	 1.862646794371046e+000
1	 1.237272130208986e+000	 2.585925995576417e+000	 1.567617805286218e+000
1	 1.209480123689433e+000	 2.599040848742956e+000	 1.207494371372996e+000
1	 1.181602065005949e+000	 2.611833061417270e+000	 7.781110327595591e-001
1	 1.153643375865511e+000	 2.624302226078947e+000	 2.754053079731826e-001
1	 1.125609464338406e+000	 2.636448052334516e+000	-3.045780241626744e-001
1	 1.020896858827830e+000	 2.391185948932115e+000	-8.286225433936346e+000
1	 9.954037084134920e-001	 2.401910049395444e+000	-9.170714448601254e+000
1	 9.698520796365818e-001	 2.412340592915415e+000	-1.011257077210787e+001
1	 9.442468273696867e-001	 2.422477631056949e+000	-1.111362386944814e+001
1	 9.185927833090082e-001	 2.432321317635803e+000	-1.217568145669405e+001
1	 8.928947534162468e-001	 2.441871907512629e+000	-1.330052837788201e+001
1	 8.671575154167843e-001	 2.451129755315018e+000	-1.448992550892904e+001
1	 8.413858163563170e-001	 2.460095314090223e+000	-1.574560868999599e+001
1	 8.155843702179720e-001	 2.468769133891297e+000	-1.706928768764340e+001
1	 7.897578556018043e-001	 2.477151860299458e+000	-1.846264518805474e+001
1	 7.639109134684247e-001	 2.485244232885506e+000	-1.992733582252708e+001
1	 1.031368119377818e+000	 2.415712159272363e+000	-7.482737354449198e+000
1	 1.005613487680731e+000	 2.426546256009037e+000	-8.355866625753421e+000
1	 9.797997778129447e-001	 2.437083784811378e+000	-9.289213387289914e+000
1	 9.539318944431129e-001	 2.447324797773200e+000	-1.028480898006692e+001
1	 9.280147188257829e-001	 2.457269450287938e+000	-1.134465548815939e+001
1	 9.020531062170464e-001	 2.466917999830329e+000	-1.247072437985003e+001
1	 8.760518833470560e-001	 2.476270804665348e+000	-1.366495519255460e+001
1	 8.500158459516012e-001	 2.485328322487115e+000	-1.492925426308387e+001
1	 8.239497563647820e-001	 2.494091108990540e+000	-1.626549350467935e+001
1	 7.978583411747026e-001	 2.502559816378510e+000	-1.767550923214871e+001
1	 7.717462889439609e-001	 2.510735191807548e+000	-1.916110103631011e+001
1	 1.041839379928356e+000	 2.440238369612607e+000	-6.680998035429844e+000
1	 1.015823266948505e+000	 2.451182462622545e+000	-7.540701092787660e+000
1	 9.897474759898185e-001	 2.461826976707176e+000	-8.463465585948757e+000
1	 9.636169615170168e-001	 2.472171964489210e+000	-9.451495821264569e+000
1	 9.374366543429982e-001	 2.482217582939757e+000	-1.050696000352534e+001
1	 9.112114590182460e-001	 2.491964092147640e+000	-1.163198867386224e+001
1	 8.849462512776898e-001	 2.501411854015221e+000	-1.282867320647180e+001
1	 8.586458755472132e-001	 2.510561330883490e+000	-1.409906436582392e+001
1	 8.323151425118923e-001	 2.519413084089207e+000	-1.544517092586212e+001
1	 8.059588267478868e-001	 2.527967772456936e+000	-1.686895835255355e+001
1	 7.795816644197812e-001	 2.536226150728919e+000	-1.837234755099245e+001
1	 1.052310640479326e+000	 2.464764579952846e+000	-5.880780524268134e+000
1	 1.026033046216697e+000	 2.475818669235988e+000	-6.724853341047119e+000
1	 9.996951741670866e-001	 2.486570168602849e+000	-7.634835355342811e+000
1	 9.733020285912875e-001	 2.497019131205038e+000	-8.613075719470945e+000
1	 9.468585898605494e-001	 2.507165715591338e+000	-9.661881287329404e+000
1	 9.203698118197512e-001	 2.517010184464658e+000	-1.078351488101368e+001
1	 8.938406192086004e-001	 2.526552903364751e+000	-1.198019362960942e+001
1	 8.672759051430791e-001	 2.535794339279474e+000	-1.325408738190353e+001
1	 8.406805286592407e-001	 2.544735059187440e+000	-1.460731719457204e+001
1	 8.140593123213008e-001	 2.553375728534892e+000	-1.604195389721465e+001
1	 7.874170398958365e-001	 2.561717109649788e+000	-1.756001673542394e+001
1	 1.062781901030611e+000	 2.489290790293080e+000	-5.081866812727273e+000
1	 1.036242825485187e+000	 2.500454875849389e+000	-5.907973227436556e+000
1	 1.009642872344632e+000	 2.511313360498441e+000	-6.802850073324640e+000
1	 9.829870956658121e-001	 2.521866297920744e+000	-7.768963989402179e+000
1	 9.562805253783321e-001	 2.532113848242760e+000	-8.808733752176082e+000
1	 9.295281646214674e-001	 2.542056276781485e+000	-9.924528402403020e+000
1	 9.027349871397038e-001	 2.551693952714053e+000	-1.111866545571746e+001
1	 8.759059347391242e-001	 2.561027347675200e+000	-1.239340919893144e+001
1	 8.490459148067616e-001	 2.570057034285387e+000	-1.375096907358893e+001
1	 8.221597978948889e-001	 2.578783684612533e+000	-1.519349814814352e+001
1	 7.952524153720766e-001	 2.587208068570322e+000	-1.672309167991270e+001
1	 1.073253161582096e+000	 2.513817000633315e+000	-4.284047400611966e+000
1	 1.046452604753855e+000	 2.525091082462769e+000	-5.089724273629591e+000
1	 1.019590570522337e+000	 2.536056552393992e+000	-5.967055562413686e+000
1	 9.926721627404798e-001	 2.546713464636391e+000	-6.918598763844720e+000
1	 9.657024608962423e-001	 2.557061980894103e+000	-7.946858566570995e+000
1	 9.386865174232991e-001	 2.567102369098211e+000	-9.054284868814975e+000
1	 9.116293550709155e-001	 2.576835002063241e+000	-1.024327089012406e+001
1	 8.845359643352754e-001	 2.586260356070796e+000	-1.151615137889007e+001
1	 8.574113009543914e-001	 2.595379009383189e+000	-1.287520091722496e+001
1	 8.302602834685960e-001	 2.604191640690019e+000	-1.432263232453934e+001
1	 8.030877908484519e-001	 2.612699027490689e+000	-1.586059516093456e+001
1	 1.083724422133662e+000	 2.538343210973550e+000	-3.487120884732913e+000
1	 1.056662384022583e+000	 2.549727289076148e+000	-4.269783005904402e+000
1	 1.029538268700084e+000	 2.560799744289543e+000	-5.127015198707184e+000
1	 1.002357229815177e+000	 2.571560631352037e+000	-6.061439891281163e+000
1	 9.751243964141757e-001	 2.582010113545447e+000	-7.075622362304262e+000
1	 9.478448702251516e-001	 2.592148461414938e+000	-8.172068680280384e+000
1	 9.205237230021511e-001	 2.601976051412428e+000	-9.353223745236075e+000
1	 8.931659939314584e-001	 2.611493364466390e+000	-1.062146943465576e+001
1	 8.657766871020662e-001	 2.620700984480991e+000	-1.197912285522296e+001
1	 8.383607690423656e-001	 2.629599596767504e+000	-1.342843470167673e+001
1	 8.109231663249130e-001	 2.638189986411056e+000	-1.497158772383729e+001
1	 1.094195682685192e+000	 2.562869421313786e+000	-2.690893571471818e+000
1	 1.066872163291252e+000	 2.574363495689549e+000	-3.447838332884370e+000
1	 1.039485966877756e+000	 2.585542936185134e+000	-4.282309071957407e+000
1	 1.012042296889793e+000	 2.596407798067745e+000	-5.196967896813156e+000
1	 9.845463319320278e-001	 2.606958246196870e+000	-6.194416016054883e+000
1	 9.570032230269305e-001	 2.617194553731764e+000	-7.277191629492977e+000
1	 9.294180909333261e-001	 2.627117100761730e+000	-8.447767928168227e+000
1	 9.017960235275987e-001	 2.636726372862115e+000	-9.708551205477953e+000
1	 8.741420732497214e-001	 2.646022959578938e+000	-1.106187908093372e+001
1	 8.464612546161421e-001	 2.655007552845147e+000	-1.251001883780525e+001
1	 8.187585418014102e-001	 2.663680945331590e+000	-1.405516587563315e+001
1	 1.104666943236571e+000	 2.587395631654025e+000	-1.895179111382363e+000
1	 1.077081942559741e+000	 2.598999702302993e+000	-2.623590958670203e+000
1	 1.049433665055237e+000	 2.610286128080809e+000	-3.432533193418526e+000
1	 1.021727363964214e+000	 2.621254964783572e+000	-4.324683002182018e+000
1	 9.939682674496941e-001	 2.631906378848451e+000	-5.302653500290727e+000
1	 9.661615758285405e-001	 2.642240646048783e+000	-6.368991603519178e+000
1	 9.383124588643562e-001	 2.652258150111261e+000	-7.526176014387813e+000
1	 9.104260531236235e-001	 2.661959381258100e+000	-8.776615324852815e+000
1	 8.825074593972930e-001	 2.671344934677172e+000	-1.012264623685256e+001
1	 8.545617401898695e-001	 2.680415508923102e+000	-1.156653190189344e+001
1	 8.265939172778938e-001	 2.689171904252460e+000	-1.311046038057602e+001
1	 1.115138203787681e+000	 2.611921841994268e+000	-1.099798154377381e+000
1	 1.087291721827932e+000	 2.623635908916500e+000	-1.796752829036406e+000
1	 1.059381363232407e+000	 2.635029319976607e+000	-2.577298748324119e+000
1	 1.031412431038330e+000	 2.646102131499581e+000	-3.444104201001481e+000
1	 1.003390202967071e+000	 2.656854511500270e+000	-4.399770798909849e+000
1	 9.753199286298868e-001	 2.667286738366093e+000	-5.446831358653997e+000
1	 9.472068267951563e-001	 2.677399199461133e+000	-6.587747901721053e+000
1	 9.190560827194577e-001	 2.687192389654475e+000	-7.824909774718223e+000
1	 8.908728455447166e-001	 2.696666909775838e+000	-9.160631891115523e+000
1	 8.626622257634922e-001	 2.705823465001527e+000	-1.059715309558870e+001
1	 8.344292927543137e-001	 2.714662863173830e+000	-1.213663465176655e+001
1	 1.125609464338406e+000	 2.636448052334516e+000	-3.045780241626724e-001
1	 1.097501501095708e+000	 2.648272115530094e+000	-9.670466085389082e-001
1	 1.069329061409152e+000	 2.659772511872570e+000	-1.716231390088688e+000
1	 1.041097498112028e+000	 2.670949298215834e+000	-2.554768385607467e+000
1	 1.012812138484053e+000	 2.681802644152406e+000	-3.485224883406418e+000
1	 9.844782814308749e-001	 2.692332830683794e+000	-4.510097363660436e+000
1	 9.561011947256430e-001	 2.702540248811464e+000	-5.631809539488262e+000
1	 9.276861123150281e-001	 2.712425398051369e+000	-6.852710520347729e+000
1	 8.992382316919289e-001	 2.721988884875083e+000	-8.175073099032453e+000
1	 8.707627113369547e-001	 2.731231421080581e+000	-9.601092163257457e+000
1	 8.422646682306207e-001	 2.740153822095873e+000	-1.113288323253265e+001
1	 7.639109134684247e-001	 2.485244232885506e+000	-1.992733582252708e+001
1	 7.380481445792873e-001	 2.493047082992633e+000	-2.146326148467179e+001
1	 7.121741063034353e-001	 2.500561330227558e+000	-2.307005457969787e+001
1	 6.862933117354153e-001	 2.507787982628420e+000	-2.474891703596396e+001
1	 6.604102280884718e-001	 2.514728135537550e+000	-2.650101565596661e+001
1	 6.345292747799888e-001	 2.521382969806464e+000	-2.832748297721039e+001
1	 6.086548215885872e-001	 2.527753749957561e+000	-3.022941813107007e+001
1	 5.827911868836834e-001	 2.533841822305532e+000	-3.220788769777795e+001
1	 5.569426359281881e-001	 2.539648613041488e+000	-3.426392655576198e+001
1	 5.311133792549037e-001	 2.545175626282792e+000	-3.639853872365841e+001
1	 5.053075711170251e-001	 2.550424442091569e+000	-3.861269819341949e+001
1	 7.717462889439609e-001	 2.510735191807548e+000	-1.916110103631011e+001
1	 7.456182476236746e-001	 2.518618075147865e+000	-2.072238634219718e+001
1	 7.194788213274722e-001	 2.526209395438529e+000	-2.235995315891909e+001
1	 6.933325694403606e-001	 2.533510171057052e+000	-2.407624247490628e+001
1	 6.671840049954464e-001	 2.540521508580616e+000	-2.587364606283889e+001
1	 6.410375927397362e-001	 2.547244600972648e+000	-2.775450548813960e+001
1	 6.148977472723328e-001	 2.553680725725668e+000	-2.972111118088400e+001
1	 5.887688312558331e-001	 2.559831242963416e+000	-3.177570157126830e+001
1	 5.626551537016211e-001	 2.565697593505348e+000	-3.392046228865943e+001
1	 5.365609683296077e-001	 2.571281296896450e+000	-3.615752542413839e+001
1	 5.104904720028426e-001	 2.576583949405427e+000	-3.848896885633486e+001
1	 7.795816644197812e-001	 2.536226150728919e+000	-1.837234755099245e+001
1	 7.531883506683611e-001	 2.544189067302395e+000	-1.995574520552975e+001
1	 7.267835363518351e-001	 2.551857460648769e+000	-2.162070413137938e+001
1	 7.003718271456699e-001	 2.559232359484935e+000	-2.337078506738989e+001
1	 6.739577819028284e-001	 2.566314881622927e+000	-2.520948622658278e+001
1	 6.475459106999372e-001	 2.573106232138085e+000	-2.714024061216326e+001
1	 6.211406729565766e-001	 2.579607701493043e+000	-2.916641345763897e+001
1	 5.947464756285221e-001	 2.585820663620601e+000	-3.129129979300654e+001
1	 5.683676714756254e-001	 2.591746573968552e+000	-3.351812213865942e+001
1	 5.420085574049048e-001	 2.597386967509508e+000	-3.585002832835728e+001
1	 5.156733728892596e-001	 2.602743456718761e+000	-3.829008946229773e+001
1	 7.874170398958365e-001	 2.561717109649788e+000	-1.756001673542394e+001
1	 7.607584537132998e-001	 2.569760059456395e+000	-1.916225955431256e+001
1	 7.340882513764792e-001	 2.577505525858459e+000	-2.085119532697513e+001
1	 7.074110848512961e-001	 2.584954547912257e+000	-2.263138884014223e+001
1	 6.807315588105687e-001	 2.592108254664673e+000	-2.450732980289423e+001
1	 6.540542286605390e-001	 2.598967863302960e+000	-2.648342862705469e+001
1	 6.273835986412624e-001	 2.605534677259869e+000	-2.856401238773439e+001
1	 6.007241200016894e-001	 2.611810084277258e+000	-3.075332096762343e+001
1	 5.740801892501380e-001	 2.617795554431263e+000	-3.305550338814189e+001
1	 5.474561464807286e-001	 2.623492638122118e+000	-3.547461433006855e+001
1	 5.208562737762096e-001	 2.628902964031701e+000	-3.801461084579391e+001
1	 7.952524153720766e-001	 2.587208068570322e+000	-1.672309167991270e+001
1	 7.683285567584447e-001	 2.595331051610042e+000	-1.834089337349547e+001
1	 7.413929664013588e-001	 2.603153591067784e+000	-2.005035840707226e+001
1	 7.144503425571933e-001	 2.610676736339205e+000	-2.185694337767692e+001
1	 6.875053357186182e-001	 2.617901627706041e+000	-2.376601799041618e+001
1	 6.605625466214887e-001	 2.624829494467460e+000	-2.578285945719870e+001
1	 6.336265243263337e-001	 2.631461653026330e+000	-2.791264712709443e+001
1	 6.067017643752751e-001	 2.637799504933566e+000	-3.016045735337778e+001
1	 5.797927070250946e-001	 2.643844534893646e+000	-3.253125860165597e+001
1	 5.529037355570139e-001	 2.649598308734429e+000	-3.502990680283379e+001
1	 5.260391746636258e-001	 2.655062471344380e+000	-3.766114095402531e+001
1	 8.030877908484519e-001	 2.612699027490689e+000	-1.586059516093456e+001
1	 7.758986598037490e-001	 2.620902043763512e+000	-1.749065107980740e+001
1	 7.486976814264280e-001	 2.628801656276926e+000	-1.921716672628404e+001
1	 7.214896002633143e-001	 2.636398924765966e+000	-2.104638159985662e+001
1	 6.942791126269274e-001	 2.643695000747222e+000	-2.298443721145995e+001
1	 6.670708645827340e-001	 2.650691125631771e+000	-2.503737025169102e+001
1	 6.398694500117332e-001	 2.657388628792607e+000	-2.721110603765684e+001
1	 6.126794087492188e-001	 2.663788925589698e+000	-2.951145224478147e+001
1	 5.855052248004320e-001	 2.669893515355864e+000	-3.194409292910115e+001
1	 5.583513246336941e-001	 2.675703979346590e+000	-3.451458284477964e+001
1	 5.312220755514417e-001	 2.681221978656926e+000	-3.722834206079178e+001
1	 8.109231663249130e-001	 2.638189986411056e+000	-1.497158772383729e+001
1	 7.834687628491668e-001	 2.646473035916982e+000	-1.661057556843824e+001
1	 7.560023964516420e-001	 2.654449721486068e+000	-1.835063331820993e+001
1	 7.285288579696130e-001	 2.662121113192726e+000	-2.019867766830001e+001
1	 7.010528895354476e-001	 2.669488373788401e+000	-2.216151692718459e+001
1	 6.735791825442224e-001	 2.676552756796084e+000	-2.424584310284372e+001
1	 6.461123756974059e-001	 2.683315604558885e+000	-2.645822431015868e+001
1	 6.186570531234599e-001	 2.689778346245831e+000	-2.880509750696465e+001
1	 5.912177425760863e-001	 2.695942495818081e+000	-3.129276156525214e+001
1	 5.637989137107039e-001	 2.701809649958751e+000	-3.392737068308590e+001
1	 5.364049764395906e-001	 2.707381485969473e+000	-3.671492814189484e+001
1	 8.187585418014102e-001	 2.663680945331590e+000	-1.405516587563315e+001
1	 7.910388658946517e-001	 2.672044028070630e+000	-1.569974637187861e+001
1	 7.633071114769551e-001	 2.680097786695394e+000	-1.744980899683122e+001
1	 7.355681156760424e-001	 2.687843301619675e+000	-1.931284501299992e+001
1	 7.078266664441294e-001	 2.695281746829770e+000	-2.129622757822594e+001
1	 6.800875005059012e-001	 2.702414387960583e+000	-2.340720289569194e+001
1	 6.523553013832940e-001	 2.709242580325346e+000	-2.565288172341980e+001
1	 6.246346974979380e-001	 2.715767766902138e+000	-2.804023125161445e+001
1	 5.969302603519940e-001	 2.721991476280464e+000	-3.057606735515651e+001
1	 5.692465027879767e-001	 2.727915320571062e+000	-3.326704722750593e+001
1	 5.415878773280060e-001	 2.733540993282151e+000	-3.611966240124194e+001
1	 8.265939172778938e-001	 2.689171904252460e+000	-1.311046038057602e+001
1	 7.986089689401570e-001	 2.697615020224630e+000	-1.475727792347434e+001
1	 7.706118265023212e-001	 2.705745851905084e+000	-1.651378056588855e+001
1	 7.426073733825566e-001	 2.713565490046997e+000	-1.838793447117714e+001
1	 7.146004433529239e-001	 2.721075119871516e+000	-2.038757864245143e+001
1	 6.865958184677173e-001	 2.728276019125458e+000	-2.252041527980960e+001
1	 6.585982270693412e-001	 2.735169556092173e+000	-2.479400053106644e+001
1	 6.306123418725927e-001	 2.741757187558796e+000	-2.721573564509349e+001
1	 6.026427781280914e-001	 2.748040456743174e+000	-2.979285853572340e+001
1	 5.746940918654472e-001	 2.754020991183672e+000	-3.253243576302893e+001
1	 5.467707782166210e-001	 2.759700500595091e+000	-3.544135493765392e+001
1	 8.344292927543137e-001	 2.714662863173830e+000	-1.213663465176655e+001
1	 8.061790719856369e-001	 2.723186012379159e+000	-1.378231791881419e+001
1	 7.779165415276959e-001	 2.731393917115324e+000	-1.554166912914510e+001
1	 7.496466310891083e-001	 2.739287678474881e+000	-1.742303253099210e+001
1	 7.213742202617817e-001	 2.746868492913827e+000	-1.943461680214299e+001
1	 6.931041364296190e-001	 2.754137650290895e+000	-2.158448475539356e+001
1	 6.648411527554916e-001	 2.761096531859548e+000	-2.388054346731734e+001
1	 6.365899862473644e-001	 2.767746608215980e+000	-2.633053484005179e+001
1	 6.083552959043146e-001	 2.774089437206379e+000	-2.894202660455315e+001
1	 5.801416809430494e-001	 2.780126661796730e+000	-3.172240377253988e+001
1	 5.519536791053693e-001	 2.785860007908425e+000	-3.467886054312513e+001
1	 8.422646682306207e-001	 2.740153822095873e+000	-1.113288323253265e+001
1	 8.137491750310451e-001	 2.748757004534392e+000	-1.277404576857874e+001
1	 7.852212565530335e-001	 2.757041982326296e+000	-1.453262849496443e+001
1	 7.566858887956514e-001	 2.765009866903514e+000	-1.641725967328698e+001
1	 7.281479971706540e-001	 2.772661865956894e+000	-1.843642421348044e+001
1	 6.996124543915533e-001	 2.779999281457081e+000	-2.059845286617625e+001
1	 6.710840784416883e-001	 2.787023507627656e+000	-2.291151186408060e+001
1	 6.425676306221918e-001	 2.793736028873866e+000	-2.538359302248708e+001
1	 6.140678136806004e-001	 2.800138417670240e+000	-2.802250430772117e+001
1	 5.855892700207175e-001	 2.806232332410390e+000	-3.083586088101017e+001
1	 5.571365799941845e-001	 2.812019515222284e+000	-3.383107662397723e+001
1	 5.053075711170251e-001	 2.550424442091569e+000	-3.861269819341950e+001
1	 4.795331713038518e-001	 2.555395989676932e+000	-4.090278821197085e+001
1	 4.537903379149098e-001	 2.560092804066504e+000	-4.326370601520689e+001
1	 4.280830402778991e-001	 2.564516682315065e+000	-4.569320987477098e+001
1	 4.024151861583350e-001	 2.568669489165140e+000	-4.818912794396829e+001
1	 3.767906205842475e-001	 2.572553154955150e+000	-5.074936257563751e+001
1	 3.512131247447561e-001	 2.576169673513514e+000	-5.337189436516110e+001
1	 3.256864149621451e-001	 2.579521100041421e+000	-5.605478591836024e+001
1	 3.002141417369426e-001	 2.582609548986935e+000	-5.879618534469559e+001
1	 2.747998888654161e-001	 2.585437191913076e+000	-6.159432947684372e+001
1	 2.494471726288109e-001	 2.588006255362404e+000	-6.444754681833997e+001
1	 5.104904720028426e-001	 2.576583949405427e+000	-3.848896885633487e+001
1	 4.844517061535697e-001	 2.581606489772226e+000	-4.091287206960206e+001
1	 4.584448305029267e-001	 2.586351479026043e+000	-4.342596901492803e+001
1	 4.324738550916993e-001	 2.590820732653894e+000	-4.602724132762621e+001
1	 4.065427277670497e-001	 2.595016134524814e+000	-4.871571795249107e+001
1	 3.806553329951613e-001	 2.598939634776542e+000	-5.149047790375851e+001
1	 3.548154907485164e-001	 2.602593247688027e+000	-5.435065282526249e+001
1	 3.290269554674278e-001	 2.605979049540489e+000	-5.729542935139550e+001
1	 3.032934150953240e-001	 2.609099176469709e+000	-6.032405126995612e+001
1	 2.776184901871918e-001	 2.611955822312248e+000	-6.343582148842057e+001
1	 2.520057330904998e-001	 2.614551236448130e+000	-6.663010380560908e+001
1	 5.156733728892596e-001	 2.602743456718761e+000	-3.829008946229773e+001
1	 4.893702410038772e-001	 2.607816989867085e+000	-4.083811449677641e+001
1	 4.630993230915090e-001	 2.612610153985244e+000	-4.349278110258501e+001
1	 4.368646699060309e-001	 2.617124782992494e+000	-4.625430005508265e+001
1	 4.106702693762561e-001	 2.621362779884366e+000	-4.912290724239715e+001
1	 3.845200454065251e-001	 2.625326114597917e+000	-5.209886482814650e+001
1	 3.584178567526873e-001	 2.629016821862626e+000	-5.518246229026864e+001
1	 3.323674959730879e-001	 2.632436999039727e+000	-5.837401733748041e+001
1	 3.063726884540590e-001	 2.635588803952722e+000	-6.167387670515693e+001
1	 2.804370915093106e-001	 2.638474452711707e+000	-6.508241683267904e+001
1	 2.545642935525385e-001	 2.641096217534166e+000	-6.860004442453625e+001
1	 5.208562737762096e-001	 2.628902964031701e+000	-3.801461084579391e+001
1	 4.942887758547083e-001	 2.634027489961617e+000	-4.067706552172021e+001
1	 4.677538156805934e-001	 2.638868828944194e+000	-4.346270539291891e+001
1	 4.412554847208340e-001	 2.643428833330921e+000	-4.637297609036068e+001
1	 4.147978109858974e-001	 2.647709425243827e+000	-4.940932653140220e+001
1	 3.883847578182855e-001	 2.651712594419279e+000	-5.257320844609313e+001
1	 3.620202227572169e-001	 2.655440396037277e+000	-5.586607585636302e+001
1	 3.357080364790732e-001	 2.658894948539082e+000	-5.928938451057157e+001
1	 3.094519618130930e-001	 2.662078431435898e+000	-6.284459127596561e+001
1	 2.832556928317134e-001	 2.664993083111359e+000	-6.653315349164745e+001
1	 2.571228540148597e-001	 2.667641198620404e+000	-7.035652828469121e+001
1	 5.260391746636258e-001	 2.655062471344380e+000	-3.766114095402531e+001
1	 4.992073107059977e-001	 2.660237990055931e+000	-4.042833231715193e+001
1	 4.724083082701172e-001	 2.665127503902978e+000	-4.333436162941289e+001
1	 4.456462995360489e-001	 2.669732883669232e+000	-4.638191503454522e+001
1	 4.189253525959176e-001	 2.674056070603222e+000	-4.957366050167934e+001
1	 3.922494702303885e-001	 2.678099074240623e+000	-5.291224567620610e+001
1	 3.656225887620537e-001	 2.681863970211957e+000	-5.640029576115639e+001
1	 3.390485769853320e-001	 2.685352898038498e+000	-6.004041143258565e+001
1	 3.125312351723726e-001	 2.688568058919159e+000	-6.383516679231340e+001
1	 2.860742941543414e-001	 2.691511713511108e+000	-6.778710736120935e+001
1	 2.596814144773963e-001	 2.694186179706736e+000	-7.189874811606288e+001
1	 5.312220755514417e-001	 2.681221978656926e+000	-3.722834206079178e+001
1	 5.041258455576798e-001	 2.686448490150136e+000	-4.009057641261280e+001
1	 4.770628008600168e-001	 2.691386178861674e+000	-4.310642342178382e+001
1	 4.500371143516156e-001	 2.696036934007483e+000	-4.627981534582913e+001
1	 4.230528942062600e-001	 2.700402715962583e+000	-4.961464516732084e+001
1	 3.961141826427810e-001	 2.704485554061952e+000	-5.311476273042022e+001
1	 3.692249547671452e-001	 2.708287544386637e+000	-5.678397098642977e+001
1	 3.423891174918126e-001	 2.711810847537922e+000	-6.062602235290557e+001
1	 3.156105085318437e-001	 2.715057686402432e+000	-6.464461519052819e+001
1	 2.888928954771354e-001	 2.718030343910860e+000	-6.884339040155929e+001
1	 2.622399749400806e-001	 2.720731160793048e+000	-7.322592815335156e+001
1	 5.364049764395906e-001	 2.707381485969473e+000	-3.671492814189485e+001
1	 5.090443804096894e-001	 2.712658990244341e+000	-3.966251106841070e+001
1	 4.817172934502299e-001	 2.717644853820371e+000	-4.277761564362593e+001
1	 4.544279291674744e-001	 2.722340984345731e+000	-4.606542578591021e+001
1	 4.271804358168682e-001	 2.726749361321934e+000	-4.953106539441916e+001
1	 3.999788950554091e-001	 2.730872033883266e+000	-5.317959273256480e+001
1	 3.728273207724401e-001	 2.734711118561287e+000	-5.701599499985611e+001
1	 3.457296579984633e-001	 2.738268797037303e+000	-6.104518309777450e+001
1	 3.186897818914524e-001	 2.741547313885638e+000	-6.527198659476976e+001
1	 2.917114968000368e-001	 2.744548974310516e+000	-6.970114889488298e+001
1	 2.647985354028455e-001	 2.747276141879232e+000	-7.433732261393163e+001
1	 5.415878773280060e-001	 2.733540993282151e+000	-3.611966240124194e+001
1	 5.139629152619605e-001	 2.738869490338654e+000	-3.914289880034843e+001
1	 4.863717860406928e-001	 2.743903528779151e+000	-4.234671197948000e+001
1	 4.588187439835655e-001	 2.748645034684032e+000	-4.573754301301193e+001
1	 4.313079774276855e-001	 2.753096006681305e+000	-4.932175256354179e+001
1	 4.038436074682189e-001	 2.757258513704562e+000	-5.310561347367104e+001
1	 3.764296867778863e-001	 2.761134692735884e+000	-5.709530362638911e+001
1	 3.490701985052323e-001	 2.764726746536587e+000	-6.129689908088022e+001
1	 3.217690552511447e-001	 2.768036941368701e+000	-6.571636748977606e+001
1	 2.945300981229865e-001	 2.771067604709985e+000	-7.035956180308082e+001
1	 2.673570958656238e-001	 2.773821122965178e+000	-7.523221426320608e+001
1	 5.467707782166210e-001	 2.759700500595091e+000	-3.544135493765392e+001
1	 5.188814501144281e-001	 2.765079990433186e+000	-3.853054904523241e+001
1	 4.910262786313429e-001	 2.770162203738097e+000	-4.181253261141148e+001
1	 4.632095587998288e-001	 2.774949085022442e+000	-4.529500931180250e+001
1	 4.354355190386554e-001	 2.779442652040723e+000	-4.898558236515151e+001
1	 4.077083198811573e-001	 2.783644993525843e+000	-5.289174529494532e+001
1	 3.800320527834320e-001	 2.787558266910397e+000	-5.702087304071688e+001
1	 3.524107390120677e-001	 2.791184696035717e+000	-6.138021342708606e+001
1	 3.248483286108669e-001	 2.794526568851548e+000	-6.597687899753313e+001
1	 2.973486994459259e-001	 2.797586235109167e+000	-7.081783921889415e+001
1	 2.699156563283478e-001	 2.800366104050776e+000	-7.590991306155779e+001
1	 5.519536791053693e-001	 2.785860007908425e+000	-3.467886054312513e+001
1	 5.237999849670263e-001	 2.791290490528043e+000	-3.782431595790845e+001
1	 4.956807712221167e-001	 2.796420878697292e+000	-4.117394203592851e+001
1	 4.676003736162050e-001	 2.801253135361017e+000	-4.473671045120900e+001
1	 4.395630606497217e-001	 2.805789297400218e+000	-4.852147271923538e+001
1	 4.115730322941702e-001	 2.810031473347105e+000	-5.253694909001697e+001
1	 3.836344187890254e-001	 2.813981841084797e+000	-5.679171787282115e+001
1	 3.557512795189180e-001	 2.817642645534646e+000	-6.129420520187225e+001
1	 3.279276019705646e-001	 2.821016196334099e+000	-6.605267525103901e+001
1	 3.001673007687956e-001	 2.824104865507973e+000	-7.107522090429727e+001
1	 2.724742167909505e-001	 2.826911085135917e+000	-7.636975488753090e+001
1	 5.571365799941845e-001	 2.812019515222284e+000	-3.383107662397722e+001
1	 5.287185198196900e-001	 2.817500990623337e+000	-3.702309633125834e+001
1	 5.003352638129517e-001	 2.822679553656821e+000	-4.042984700275195e+001
1	 4.719911884326337e-001	 2.827557185699814e+000	-4.406157366180335e+001
1	 4.436906022608280e-001	 2.832135942759818e+000	-4.792838181105122e+001
1	 4.154377447072045e-001	 2.836417953168350e+000	-5.204022441869384e+001
1	 3.872367847946145e-001	 2.840405415259060e+000	-5.640688941927831e+001
1	 3.590918200257314e-001	 2.844100595033316e+000	-6.103798773960377e+001
1	 3.310068753301844e-001	 2.847505823816278e+000	-6.594294185883773e+001
1	 3.029859020915368e-001	 2.850623495906301e+000	-7.113097491047014e+001
1	 2.750327772533645e-001	 2.853456066220491e+000	-7.661110033228108e+001
1	 2.494471726288109e-001	 2.588006255362404e+000	-6.444754681833997e+001
1	 2.241556613584017e-001	 2.590319346644739e+000	-6.734711962444284e+001
1	 1.989325871316730e-001	 2.592378392617928e+000	-7.027846891244383e+001
1	 1.737813118221734e-001	 2.594185773617187e+000	-7.323267965735845e+001
1	 1.487051256341049e-001	 2.595743916486777e+000	-7.620108694389937e+001
1	 1.237072466452768e-001	 2.597055292441034e+000	-7.917528515910725e+001
1	 9.879082041758477e-002	 2.598122414936711e+000	-8.214713648229211e+001
1	 7.395891967371854e-002	 2.598947837558706e+000	-8.510877867900499e+001
1	 4.921454403874689e-002	 2.599534151921171e+000	-8.805263220706019e+001
1	 2.456061984517374e-002	 2.599883985585925e+000	-9.097140664385519e+001
1	 0.000000000000000e+000	 2.600000000000000e+000	-9.385810644539438e+001
1	 2.520057330904998e-001	 2.614551236448130e+000	-6.663010380560908e+001
1	 2.264548087346185e-001	 2.616888052930142e+000	-6.989940684169297e+001
1	 2.009730233758899e-001	 2.618968218379762e+000	-7.322982510732210e+001
1	 1.755637733703354e-001	 2.620794137547128e+000	-7.661276887331373e+001
1	 1.502303826695234e-001	 2.622368262168459e+000	-8.003987614347533e+001
1	 1.249761023588341e-001	 2.623693088805149e+000	-8.350302183768746e+001
1	 9.980411026394451e-002	 2.624771156694291e+000	-8.699432630250632e+001
1	 7.471751062421959e-002	 2.625605045612707e+000	-9.050616315515680e+001
1	 4.971933383164673e-002	 2.626197373756539e+000	-9.403116646804861e+001
1	 2.481253623389227e-002	 2.626550795638311e+000	-9.756223730214870e+001
1	 0.000000000000000e+000	 2.626668000003317e+000	-1.010925495986728e+002
1	 2.545642935525385e-001	 2.641096217534166e+000	-6.860004442453625e+001
1	 2.287539561112106e-001	 2.643456759215848e+000	-7.222054610341978e+001
1	 2.030134596205190e-001	 2.645558044141875e+000	-7.593086993962405e+001
1	 1.773462349189482e-001	 2.647402501477304e+000	-7.972294150960683e+001
1	 1.517556397054234e-001	 2.648992607850319e+000	-8.358888866640046e+001
1	 1.262449580728870e-001	 2.650330885169382e+000	-8.752105049075405e+001
1	 1.008174001107880e-001	 2.651419898451923e+000	-9.151198561176167e+001
1	 7.547610157515765e-002	 2.652262253666700e+000	-9.555447990200617e+001
1	 5.022412362489306e-002	 2.652860595591853e+000	-9.964155355344504e+001
1	 2.506445262281448e-002	 2.653217605690610e+000	-1.037664675414178e+002
1	 0.000000000000000e+000	 2.653336000006534e+000	-1.079227294852290e+002
1	 2.571228540148597e-001	 2.667641198620404e+000	-7.035652828469121e+001
1	 2.310531034880990e-001	 2.670025465501747e+000	-7.430982934714525e+001
1	 2.050538958654675e-001	 2.672147869904146e+000	-7.838103209139410e+001
1	 1.791286964679059e-001	 2.674010865407591e+000	-8.256276185200701e+001
1	 1.532808967416889e-001	 2.675616953532234e+000	-8.684781777476536e+001
1	 1.275138137873141e-001	 2.676968681533611e+000	-9.122918131674116e+001
1	 1.018306899579956e-001	 2.678068640209493e+000	-9.570002416941482e+001
1	 7.623469252642391e-002	 2.678919461720579e+000	-1.002537156090267e+002
1	 5.072891341839939e-002	 2.679523817427006e+000	-1.048838292794747e+002
1	 2.531636901188944e-002	 2.679884415742720e+000	-1.095841494141369e+002
1	 0.000000000000000e+000	 2.680004000009550e+000	-1.143486765040001e+002
1	 2.596814144773963e-001	 2.694186179706736e+000	-7.189874811606286e+001
1	 2.333522508652044e-001	 2.696594171787714e+000	-7.616657641566198e+001
1	 2.070943321106425e-001	 2.698737695666449e+000	-8.057976276073983e+001
1	 1.809111580171025e-001	 2.700619229337863e+000	-8.513181135809755e+001
1	 1.548061537782039e-001	 2.702241299214085e+000	-8.981636881941745e+001
1	 1.287826695019940e-001	 2.703606477897717e+000	-9.462723199428913e+001
1	 1.028439798054475e-001	 2.704717381966886e+000	-9.955835529125629e+001
1	 7.699328347790971e-002	 2.705576669774232e+000	-1.046038574902526e+002
1	 5.123370321207928e-002	 2.706187039261896e+000	-1.097580280508046e+002
1	 2.556828540106627e-002	 2.706551225794539e+000	-1.150153329213454e+002
1	 0.000000000000000e+000	 2.706672000012267e+000	-1.203704198558813e+002
1	 2.622399749400806e-001	 2.720731160793048e+000	-7.322592815335156e+001
1	 2.356513982424475e-001	 2.723162878073632e+000	-7.779013369573607e+001
1	 2.091347683559512e-001	 2.725327521428659e+000	-8.252653456343444e+001
1	 1.826936195664324e-001	 2.727227593267997e+000	-8.742968781958710e+001
1	 1.563314108148519e-001	 2.728865644895742e+000	-9.249425865023807e+001
1	 1.300515252168052e-001	 2.730244274261580e+000	-9.771502731733823e+001
1	 1.038572696530242e-001	 2.731366123723988e+000	-1.030868956760183e+002
1	 7.775187442950630e-002	 2.732233877827550e+000	-1.086048932586900e+002
1	 5.173849300584624e-002	 2.732850261096415e+000	-1.142641829294034e+002
1	 2.582020179029408e-002	 2.733218035845966e+000	-1.200600661127221e+002
1	 0.000000000000000e+000	 2.733340000014584e+000	-1.259879876021659e+002
1	 2.647985354028455e-001	 2.747276141879232e+000	-7.433732261393162e+001
1	 2.379505456197491e-001	 2.749731584359379e+000	-7.917987283572990e+001
1	 2.111752046013010e-001	 2.751917347190656e+000	-8.422084049819925e+001
1	 1.844760811157895e-001	 2.753835957197865e+000	-8.945600457318430e+001
1	 1.578566678515173e-001	 2.755489990577085e+000	-9.488121506060885e+001
1	 1.313203809316262e-001	 2.756882070625080e+000	-1.004923988513799e+002
1	 1.048705595006058e-001	 2.758014865480682e+000	-1.062855652419391e+002
1	 7.851046538110504e-002	 2.758891085880423e+000	-1.122568111022101e+002
1	 5.224328279961380e-002	 2.759513482930462e+000	-1.184023256994078e+002
1	 2.607211817952194e-002	 2.759884845896900e+000	-1.247183951808556e+002
1	 0.000000000000000e+000	 2.760008000016400e+000	-1.312014067195999e+002
1	 2.673570958656238e-001	 2.773821122965178e+000	-7.523221426320608e+001
1	 2.402496929970300e-001	 2.776300290644838e+000	-8.033518953685652e+001
1	 2.132156408465988e-001	 2.778507172952312e+000	-8.566219297139742e+001
1	 1.862585426650682e-001	 2.780444321127342e+000	-9.121038975678425e+001
1	 1.593819248880836e-001	 2.782114336257992e+000	-9.697697626377332e+001
1	 1.325892366463357e-001	 2.783519866988098e+000	-1.029591846094428e+002
1	 1.058838493480728e-001	 2.784663607236856e+000	-1.091542869727136e+002
1	 7.926905633259714e-002	 2.785548293932743e+000	-1.155595996608269e+002
1	 5.274807259329551e-002	 2.786176704763929e+000	-1.221724869282647e+002
1	 2.632403456869898e-002	 2.786551655947240e+000	-1.289903645501036e+002
1	 0.000000000000000e+000	 2.786676000017617e+000	-1.360107031522731e+002
1	 2.699156563283478e-001	 2.800366104050776e+000	-7.590991306155779e+001
1	 2.425488403742109e-001	 2.802868996929889e+000	-8.125550241318210e+001
1	 2.152560770917520e-001	 2.805096998713504e+000	-8.685012287719884e+001
1	 1.880410042141624e-001	 2.807052685056305e+000	-9.269248560795782e+001
1	 1.609071819244348e-001	 2.808738681938335e+000	-9.878129039898388e+001
1	 1.338580923608121e-001	 2.810157663350514e+000	-1.051152287465098e+002
1	 1.068971391953055e-001	 2.811312348992394e+000	-1.116929867722037e+002
1	 8.002764728387389e-002	 2.812205501984400e+000	-1.185132480052677e+002
1	 5.325286238680489e-002	 2.812839926596714e+000	-1.255746960243966e+002
1	 2.657595095777430e-002	 2.813218465996884e+000	-1.328760169603984e+002
1	 0.000000000000000e+000	 2.813344000018133e+000	-1.404159018605611e+002
1	 2.724742167909505e-001	 2.826911085135917e+000	-7.636975488753090e+001
1	 2.448479877512127e-001	 2.829437703214412e+000	-8.194025191585594e+001
1	 2.172965133366677e-001	 2.831686824474107e+000	-8.778417872956767e+001
1	 1.898234657629665e-001	 2.833661048984628e+000	-9.390194780196502e+001
1	 1.624324389604548e-001	 2.835363027617995e+000	-1.002939150654704e+002
1	 1.351269480749341e-001	 2.836795459712210e+000	-1.069603812711495e+002
1	 1.079104290421841e-001	 2.837961090747182e+000	-1.139015933273350e+002
1	 8.078623823482663e-002	 2.838862710035284e+000	-1.211177456167501e+002
1	 5.375765218005548e-002	 2.839503148428710e+000	-1.286089812916175e+002
1	 2.682786734669698e-002	 2.839885276045730e+000	-1.363753935463276e+002
1	 0.000000000000000e+000	 2.840012000017850e+000	-1.444170268673080e+002
1	 2.750327772533645e-001	 2.853456066220491e+000	-7.661110033228108e+001
1	 2.471471351279563e-001	 2.856006409498290e+000	-8.238889931738659e+001
1	 2.193369495812531e-001	 2.858276650234000e+000	-8.846392584270127e+001
1	 1.916059273113746e-001	 2.860269412912185e+000	-9.483844482671914e+001
1	 1.639576959960275e-001	 2.861987373296846e+000	-1.015146168824210e+002
1	 1.363958037885802e-001	 2.863433256073065e+000	-1.084944977732450e+002
1	 1.089237188885891e-001	 2.864609832501104e+000	-1.157800379786472e+002
1	 8.154482918534663e-002	 2.865519918085287e+000	-1.233730823678889e+002
1	 5.426244197296083e-002	 2.866166370259814e+000	-1.312753699805114e+002
1	 2.707978373541613e-002	 2.866552086093679e+000	-1.394885339118064e+002
1	 0.000000000000000e+000	 2.866680000016666e+000	-1.480141013014325e+002
1	 2.866680000016666e+000	 0.000000000000000e+000	 1.155891514164669e+002
1	 2.866552086093679e+000	 2.707978373541622e-002	 1.094382608273916e+002
1	 2.866166370259814e+000	 5.426244197296101e-002	 1.034486111834271e+002
1	 2.865519918085286e+000	 8.154482918534640e-002	 9.762022708322803e+001
1	 2.864609832501105e+000	 1.089237188885890e-001	 9.195321092902560e+001
1	 2.863433256073065e+000	 1.363958037885802e-001	 8.644774595973898e+001
1	 2.861987373296846e+000	 1.639576959960276e-001	 8.110409921870853e+001
1	 2.860269412912185e+000	 1.916059273113747e-001	 7.592262444737867e+001
1	 2.858276650234000e+000	 2.193369495812528e-001	 7.090376489610161e+001
1	 2.856006409498290e+000	 2.471471351279561e-001	 6.604805604309378e+001
1	 2.853456066220490e+000	 2.750327772533643e-001	 6.135612821245969e+001
1	 2.893344000014533e+000	 0.000000000000000e+000	 1.155985619955668e+002
1	 2.893214896319162e+000	 2.733166233832871e-002	 1.093225369320312e+002
1	 2.892825592806659e+000	 5.476715605077943e-002	 1.032179290688077e+002
1	 2.892173127753058e+000	 8.230330635240593e-002	 9.728455218752728e+001
1	 2.891254577142689e+000	 1.099368567485596e-001	 9.152227918691207e+001
1	 2.890067056963325e+000	 1.376644691828235e-001	 8.593104514575718e+001
1	 2.888607725522634e+000	 1.654827242539523e-001	 8.051085035133841e+001
1	 2.886873785783859e+000	 1.933881215034428e-001	 7.526176328543725e+001
1	 2.884862487718648e+000	 2.213770797753011e-001	 7.018392355997919e+001
1	 2.882571130674752e+000	 2.494459376495117e-001	 6.527754479409703e+001
1	 2.879997065756335e+000	 2.775909539506485e-001	 6.054291742426644e+001
1	 2.920008000011599e+000	 0.000000000000000e+000	 1.153372231927003e+002
1	 2.919877706543843e+000	 2.758354094103635e-002	 1.089588920212641e+002
1	 2.919484815352702e+000	 5.527187012824735e-002	 1.027609100022332e+002
1	 2.918826337420027e+000	 8.306178351902126e-002	 9.674291544385696e+001
1	 2.917899321783473e+000	 1.109499946080370e-001	 9.090458807497083e+001
1	 2.916700857852796e+000	 1.389331345765616e-001	 8.524565210617878e+001
1	 2.915228077747647e+000	 1.670077525113894e-001	 7.976587928500618e+001
1	 2.913478158654786e+000	 1.951703156950627e-001	 7.446509193807268e+001
1	 2.911448325202586e+000	 2.234172099689541e-001	 6.934316599310125e+001
1	 2.909135851850560e+000	 2.517447401707311e-001	 6.440003397335755e+001
1	 2.906538065291594e+000	 2.801491306476535e-001	 5.963568795690492e+001
1	 2.946672000008066e+000	 0.000000000000000e+000	 1.148101223491835e+002
1	 2.946540516767922e+000	 2.783541954358862e-002	 1.083521682844861e+002
1	 2.946144037898134e+000	 5.577658420544583e-002	 1.020822653935204e+002
1	 2.945479547086380e+000	 8.382026068528942e-002	 9.599991075206054e+001
1	 2.944544066423636e+000	 1.119631324671209e-001	 9.010462612990506e+001
1	 2.943334658741643e+000	 1.402017999698862e-001	 8.439596101910792e+001
1	 2.941848429972040e+000	 1.685327807684142e-001	 7.887349568250576e+001
1	 2.940082531525107e+000	 1.969525098862874e-001	 7.353684421643851e+001
1	 2.938034162685941e+000	 2.254573401622396e-001	 6.838565762129797e+001
1	 2.935700573025822e+000	 2.540435426916158e-001	 6.341962687328125e+001
1	 2.933079064826362e+000	 2.827073073443561e-001	 5.863848599048002e+001
1	 2.973336000004133e+000	 0.000000000000000e+000	 1.140220679063211e+002
1	 2.973203326991598e+000	 2.808729814603502e-002	 1.075070342177995e+002
1	 2.972803260443157e+000	 5.628129828245599e-002	 1.011865376503610e+002
1	 2.972132756752305e+000	 8.457873785130762e-002	 9.505996722503369e+001
1	 2.971188811063356e+000	 1.129762703259114e-001	 8.912672088093025e+001
1	 2.969968459630034e+000	 1.414704653628895e-001	 8.338620843987928e+001
1	 2.968468782195969e+000	 1.700578090251025e-001	 7.783785461549296e+001
1	 2.966686904394960e+000	 1.987347040771702e-001	 7.248110206140918e+001
1	 2.964620000168841e+000	 2.274974703551854e-001	 6.731541445315683e+001
1	 2.962265294200649e+000	 2.563423452121671e-001	 6.234027959780715e+001
1	 2.959620064360733e+000	 2.852654840407330e-001	 5.755521256529409e+001
1	 3.000000000000000e+000	 0.000000000000000e+000	 1.129776973557255e+002
1	 2.999866137215068e+000	 2.833917674842506e-002	 1.064279923429436e+002
1	 2.999462482987958e+000	 5.678601235935887e-002	 1.000781076887769e+002
1	 2.998785966417990e+000	 8.533721501717292e-002	 9.392735651185639e+001
1	 2.997833555702814e+000	 1.139894081845084e-001	 8.797504600494675e+001
1	 2.996602260518139e+000	 1.427391307556632e-001	 8.222048030581360e+001
1	 2.995089134419591e+000	 1.715828372815295e-001	 7.666296343451552e+001
1	 2.993291277264493e+000	 2.005168982677645e-001	 7.130180229269485e+001
1	 2.991205837651412e+000	 2.295376005478191e-001	 6.613630972012419e+001
1	 2.988830015375152e+000	 2.586411477323863e-001	 6.116580760346257e+001
1	 2.986161063894799e+000	 2.878236607367614e-001	 5.638963003185972e+001
1	 3.026663999995867e+000	 0.000000000000000e+000	 1.116814847693971e+002
1	 3.026528947438530e+000	 2.859105535080819e-002	 1.051193865182186e+002
1	 3.026121705532733e+000	 5.729072643623559e-002	 9.876120204658658e+001
1	 3.025439176083625e+000	 8.609569218298241e-002	 9.260619973383767e+001
1	 3.024478300342188e+000	 1.150025460430116e-001	 8.665362810350317e+001
1	 3.023236061406126e+000	 1.440077961482992e-001	 8.090271857071440e+001
1	 3.021709486643062e+000	 1.731078655377712e-001	 7.535268827590538e+001
1	 3.019895650133845e+000	 2.022990924581237e-001	 7.000274300120996e+001
1	 3.017791675133779e+000	 2.315777307401684e-001	 6.485208016562372e+001
1	 3.015394736549442e+000	 2.609399502522750e-001	 5.989989189467003e+001
1	 3.012702063428655e+000	 2.903818374324178e-001	 5.514536815997677e+001
1	 3.053327999991933e+000	 0.000000000000000e+000	 1.101377479352525e+002
1	 3.053191757662185e+000	 2.884293395323394e-002	 1.035854088663397e+002
1	 3.052780928077679e+000	 5.779544051316723e-002	 9.723989962414919e+001
1	 3.052092385749396e+000	 8.685416934883318e-002	 9.110047405713489e+001
1	 3.051123044981657e+000	 1.160156839015211e-001	 8.516635312466896e+001
1	 3.049869862294164e+000	 1.452764615408896e-001	 7.943672749173990e+001
1	 3.048329838866539e+000	 1.746328937939028e-001	 7.391076022773196e+001
1	 3.046500023003159e+000	 2.040812866483011e-001	 6.858758960650411e+001
1	 3.044377512616071e+000	 2.336178609322612e-001	 6.346633200464627e+001
1	 3.041959457723628e+000	 2.632387527718343e-001	 5.854608489444129e+001
1	 3.039243062962394e+000	 2.929400141276791e-001	 5.382592992771407e+001
1	 3.079991999988400e+000	 0.000000000000000e+000	 1.083506551220130e+002
1	 3.079854567886232e+000	 2.909481255575181e-002	 1.018301063424394e+002
1	 3.079440150622987e+000	 5.830015459023485e-002	 9.551813807497530e+001
1	 3.078745595415490e+000	 8.761264651482240e-002	 8.941401892397174e+001
1	 3.077767789621402e+000	 1.170288217601367e-001	 8.351697245133708e+001
1	 3.076503663182423e+000	 1.465451269335261e-001	 7.782617958971572e+001
1	 3.074950191090176e+000	 1.761579220499999e-001	 7.234078117547746e+001
1	 3.073104395872575e+000	 2.058634808383499e-001	 6.705988059955105e+001
1	 3.070963350098414e+000	 2.356579911241252e-001	 6.198254657378056e+001
1	 3.068524178897822e+000	 2.655375552910657e-001	 5.710781601012995e+001
1	 3.065784062496109e+000	 2.954981908225221e-001	 5.243469700969465e+001
1	 3.106655999985466e+000	 0.000000000000000e+000	 1.063242314957198e+002
1	 3.106517378110865e+000	 2.934669115841125e-002	 9.985738696383498e+001
1	 3.106099373168855e+000	 5.880486866751958e-002	 9.359971986723767e+001
1	 3.105398805082099e+000	 8.837112368104710e-002	 8.755054196296585e+001
1	 3.104412534261600e+000	 1.180419596189583e-001	 8.170910867599528e+001
1	 3.103137464071066e+000	 1.478137923263007e-001	 7.607462130250831e+001
1	 3.101570543314130e+000	 1.776829503061382e-001	 7.064622934667696e+001
1	 3.099708768742238e+000	 2.076456750283234e-001	 6.542303298980123e+001
1	 3.097549187580935e+000	 2.376981213157881e-001	 6.040408569028402e+001
1	 3.095088900072133e+000	 2.678363578099707e-001	 5.558839691256371e+001
1	 3.092325062029892e+000	 2.980563675169238e-001	 5.097493498274957e+001
1	 3.133319999983334e+000	 0.000000000000000e+000	 1.040623652086284e+002
1	 3.133180188336287e+000	 2.959856976126182e-002	 9.767102572171098e+001
1	 3.132758595715477e+000	 5.930958274510247e-002	 9.148831803578923e+001
1	 3.132052014749406e+000	 8.912960084760442e-002	 8.551362459768137e+001
1	 3.131057278902433e+000	 1.190550974780861e-001	 7.974626108064388e+001
1	 3.129771264960267e+000	 1.490824577193053e-001	 7.418547834974375e+001
1	 3.128190895538556e+000	 1.792079785623932e-001	 6.883046457245426e+001
1	 3.126313141612289e+000	 2.094278692182753e-001	 6.368034747411269e+001
1	 3.124135025063762e+000	 2.397382515072778e-001	 5.873419673752427e+001
1	 3.121653621246674e+000	 2.701351603285506e-001	 5.399102654562964e+001
1	 3.118866061563838e+000	 3.006145442108607e-001	 4.944979826577664e+001
1	 2.853456066220490e+000	 2.750327772533643e-001	 6.135612821245969e+001
1	 2.850623495906301e+000	 3.029859020915370e-001	 5.682881600040644e+001
1	 2.847505823816279e+000	 3.310068753301843e-001	 5.246448916669895e+001
1	 2.844100595033316e+000	 3.590918200257314e-001	 4.826222699862396e+001
1	 2.840405415259059e+000	 3.872367847946143e-001	 4.422110997386479e+001
1	 2.836417953168350e+000	 4.154377447072045e-001	 4.034022251526258e+001
1	 2.832135942759817e+000	 4.436906022608281e-001	 3.661865577995668e+001
1	 2.827557185699815e+000	 4.719911884326337e-001	 3.305551047743533e+001
1	 2.822679553656821e+000	 5.003352638129518e-001	 2.964989971078628e+001
1	 2.817500990623338e+000	 5.287185198196899e-001	 2.640095183520505e+001
1	 2.812019515222285e+000	 5.571365799941846e-001	 2.330781332759563e+001
1	 2.879997065756335e+000	 2.775909539506485e-001	 6.054291742426644e+001
1	 2.877138148708408e+000	 3.058040806450335e-001	 5.597964215827466e+001
1	 2.873991478052574e+000	 3.340856868217606e-001	 5.158499089482122e+001
1	 2.870554576037689e+000	 3.624318594764292e-001	 4.735790302812964e+001
1	 2.866825026095203e+000	 3.908386104722579e-001	 4.329730839245364e+001
1	 2.862800475215494e+000	 4.193018774423222e-001	 3.940213014870864e+001
1	 2.858478636320326e+000	 4.478175247716250e-001	 3.567128772716721e+001
1	 2.853857290628595e+000	 4.763813446597570e-001	 3.210369982104245e+001
1	 2.848934290012431e+000	 5.049890582647982e-001	 2.869828742550109e+001
1	 2.843707559340701e+000	 5.336363169290087e-001	 2.545397691636901e+001
1	 2.838175098806853e+000	 5.623187034867332e-001	 2.236970316252246e+001
1	 2.906538065291594e+000	 2.801491306476535e-001	 5.963568795690492e+001
1	 2.903652801510020e+000	 3.086222591982991e-001	 5.504856979652445e+001
1	 2.900477132288479e+000	 3.371644983131445e-001	 5.063493235910045e+001
1	 2.897008557041791e+000	 3.657718989269653e-001	 4.639361711318696e+001
1	 2.893244636931203e+000	 3.944404361497634e-001	 4.232344493457192e+001
1	 2.889182997262623e+000	 4.231660101773192e-001	 3.842321904766912e+001
1	 2.884821329880951e+000	 4.519444472823136e-001	 3.469172804331564e+001
1	 2.880157395557621e+000	 4.807715008867808e-001	 3.112774896821073e+001
1	 2.875189026368409e+000	 5.096428527165516e-001	 2.773005048091003e+001
1	 2.869914128058541e+000	 5.385541140382391e-001	 2.449739606897298e+001
1	 2.864330682391995e+000	 5.675008269791980e-001	 2.142854732154979e+001
1	 2.933079064826362e+000	 2.827073073443561e-001	 5.863848599048003e+001
1	 2.930167454311211e+000	 3.114404377512897e-001	 5.403958178408233e+001
1	 2.926962786524052e+000	 3.402433098042759e-001	 4.961821563794049e+001
1	 2.923462538045659e+000	 3.691119383772669e-001	 4.537317175497739e+001
1	 2.919664247767075e+000	 3.980422618270483e-001	 4.130320243268765e+001
1	 2.915565519309738e+000	 4.270301429121071e-001	 3.740703098342023e+001
1	 2.911164023441680e+000	 4.560713697928024e-001	 3.368335475009197e+001
1	 2.906457500486859e+000	 4.851616571136128e-001	 3.013084821309210e+001
1	 2.901443762724703e+000	 5.142966471681204e-001	 2.674816618378724e+001
1	 2.896120696776793e+000	 5.434719111472925e-001	 2.353394707968566e+001
1	 2.890486265977629e+000	 5.726829504714953e-001	 2.048681627597398e+001
1	 2.959620064360733e+000	 2.852654840407330e-001	 5.755521256529410e+001
1	 2.956682107112062e+000	 3.142586163039617e-001	 5.295651812109597e+001
1	 2.953448440759354e+000	 3.433221212950945e-001	 4.853860283898855e+001
1	 2.949916519049338e+000	 3.724519778272608e-001	 4.430023305584237e+001
1	 2.946083858602846e+000	 4.016440875040307e-001	 4.024013161304351e+001
1	 2.941948041356847e+000	 4.308942756465978e-001	 3.635698068099384e+001
1	 2.937506717002493e+000	 4.601982923030001e-001	 3.264942469677395e+001
1	 2.932757605416278e+000	 4.895518133401607e-001	 2.911607341136728e+001
1	 2.927698499081266e+000	 5.189504416194138e-001	 2.575550504246796e+001
1	 2.922327265495393e+000	 5.483897082560816e-001	 2.256626952851979e+001
1	 2.916641849563674e+000	 5.778650739635413e-001	 1.954689187925748e+001
1	 2.986161063894799e+000	 2.878236607367614e-001	 5.638963003185972e+001
1	 2.983196759912645e+000	 3.170767948562714e-001	 5.180308228802274e+001
1	 2.979934094994438e+000	 3.464009327855402e-001	 4.739972231943561e+001
1	 2.976370500052862e+000	 3.757920172768744e-001	 4.317833678084792e+001
1	 2.972503469438535e+000	 4.052459131806286e-001	 3.913765696645815e+001
1	 2.968330563403949e+000	 4.347584083807031e-001	 3.527636146511287e+001
1	 2.963849410563380e+000	 4.643252148128150e-001	 3.159307894512956e+001
1	 2.959057710345845e+000	 4.939419695663320e-001	 2.808639106589179e+001
1	 2.953953235438047e+000	 5.236042360703407e-001	 2.475483551297137e+001
1	 2.948533834214270e+000	 5.533075053645180e-001	 2.159690915313635e+001
1	 2.942797433150047e+000	 5.830471974552515e-001	 1.861107130520579e+001
1	 3.012702063428655e+000	 2.903818374324178e-001	 5.514536815997677e+001
1	 3.009711412713035e+000	 3.198949734081749e-001	 5.058284725911729e+001
1	 3.006419749229365e+000	 3.494797442755525e-001	 4.620507457752365e+001
1	 3.002824481056273e+000	 3.791320567260345e-001	 4.201089409894614e+001
1	 2.998923080274163e+000	 4.088477388567596e-001	 3.799908230880708e+001
1	 2.994713085451048e+000	 4.386225411143345e-001	 3.416835060769292e+001
1	 2.990192104124325e+000	 4.684521373221555e-001	 3.051734786968311e+001
1	 2.985357815275526e+000	 4.983321257920344e-001	 2.704466314352415e+001
1	 2.980207971794994e+000	 5.282580305208098e-001	 2.374882849425234e+001
1	 2.974740402933362e+000	 5.582253024725133e-001	 2.062832198245942e+001
1	 2.968953016736668e+000	 5.882293209465432e-001	 1.768157077797936e+001
1	 3.039243062962394e+000	 2.929400141276791e-001	 5.382592992771407e+001
1	 3.036226065513310e+000	 3.227131519596282e-001	 4.929926120083235e+001
1	 3.032905403464191e+000	 3.525585557650713e-001	 4.495803783535714e+001
1	 3.029278462059609e+000	 3.824720961746682e-001	 4.080119702331929e+001
1	 3.025342691109753e+000	 4.124495645323417e-001	 3.682759605015357e+001
1	 3.021095607498148e+000	 4.424866738474040e-001	 3.303601439515292e+001
1	 3.016534797685311e+000	 4.725790598309302e-001	 2.942515599074493e+001
1	 3.011657920205290e+000	 5.027222820171755e-001	 2.599365163956823e+001
1	 3.006462708152062e+000	 5.329118249707301e-001	 2.274006158791695e+001
1	 3.000946971652601e+000	 5.631430995799793e-001	 1.966287825370377e+001
1	 2.995108600323453e+000	 5.934114444373319e-001	 1.676052910666555e+001
1	 3.065784062496109e+000	 2.954981908225221e-001	 5.243469700969465e+001
1	 3.062740718313545e+000	 3.255313305105880e-001	 4.795565287422790e+001
1	 3.059391057698973e+000	 3.556373672540363e-001	 4.366187333172741e+001
1	 3.055732443062912e+000	 3.858121356227027e-001	 3.955242356913625e+001
1	 3.051762301945324e+000	 4.160513902072927e-001	 3.562627619018503e+001
1	 3.047478129545251e+000	 4.463508065798235e-001	 3.188231293251448e+001
1	 3.042877491246323e+000	 4.767059823390475e-001	 2.831932655639889e+001
1	 3.037958025135103e+000	 5.071124382416631e-001	 2.493602290512521e+001
1	 3.032717444509198e+000	 5.375656194200105e-001	 2.173102313667576e+001
1	 3.027153540371921e+000	 5.680608966868282e-001	 1.870286612594033e+001
1	 3.021264183910321e+000	 5.985935679275342e-001	 1.585001103625450e+001
1	 3.092325062029892e+000	 2.980563675169238e-001	 5.097493498274957e+001
1	 3.089255371113814e+000	 3.283495090610101e-001	 4.655523675917169e+001
1	 3.085876711933771e+000	 3.587161787423873e-001	 4.231973034237098e+001
1	 3.082186424066219e+000	 3.891521750700648e-001	 3.826764264569884e+001
1	 3.078181912780898e+000	 4.196532158815303e-001	 3.439809505639848e+001
1	 3.073860651592361e+000	 4.502149393115046e-001	 3.071010470010383e+001
1	 3.069220184807347e+000	 4.808329048464161e-001	 2.720258588853054e+001
1	 3.064258130064935e+000	 5.115025944654049e-001	 2.387435175159895e+001
1	 3.058972180866352e+000	 5.422194138685597e-001	 2.072411605482813e+001
1	 3.053360109091255e+000	 5.729786937929715e-001	 1.775049520242335e+001
1	 3.047419767497192e+000	 6.037756914170658e-001	 1.495201042604906e+001
1	 3.118866061563838e+000	 3.006145442108607e-001	 4.944979826577664e+001
1	 3.115770023914197e+000	 3.311676876108510e-001	 4.510111791690317e+001
1	 3.112362366168643e+000	 3.617949902300638e-001	 4.093465094389914e+001
1	 3.108640405069572e+000	 3.924922145166819e-001	 3.694981869880075e+001
1	 3.104601523616499e+000	 4.232550415549727e-001	 3.314592380035951e+001
1	 3.100243173639482e+000	 4.540790720423593e-001	 2.952215087759317e+001
1	 3.095562878368369e+000	 4.849598273529443e-001	 2.607756750695179e+001
1	 3.090558234994752e+000	 5.158927506883083e-001	 2.281112534562959e+001
1	 3.085226917223479e+000	 5.468732083162871e-001	 1.972166146316605e+001
1	 3.079566677810541e+000	 5.778964908983216e-001	 1.680789987307148e+001
1	 3.073575351083983e+000	 6.089578149058433e-001	 1.406845326578841e+001
1	 2.812019515222285e+000	 5.571365799941846e-001	 2.330781332759563e+001
1	 2.806232332410390e+000	 5.855892700207178e-001	 2.035330234960434e+001
1	 2.800138417670241e+000	 6.140678136806009e-001	 1.752118979288940e+001
1	 2.793736028873866e+000	 6.425676306221915e-001	 1.481060792547410e+001
1	 2.787023507627656e+000	 6.710840784416882e-001	 1.222055326122277e+001
1	 2.779999281457081e+000	 6.996124543915534e-001	 9.749886197602828e+000
1	 2.772661865956895e+000	 7.281479971706544e-001	 7.397330847918425e+000
1	 2.765009866903514e+000	 7.566858887956516e-001	 5.161475072544087e+000
1	 2.757041982326296e+000	 7.852212565530333e-001	 3.040770713344316e+000
1	 2.748757004534392e+000	 8.137491750310452e-001	 1.033534035101759e+000
1	 2.740153822095873e+000	 8.422646682306209e-001	-8.620536226078251e-001
1	 2.838175098806853e+000	 5.623187034867332e-001	 2.236970316252246e+001
1	 2.832334087369945e+000	 5.910360420008765e-001	 1.942613615131923e+001
1	 2.826183490983165e+000	 6.197794746220591e-001	 1.660506076155618e+001
1	 2.819721551314392e+000	 6.485443783951878e-001	 1.390563354845531e+001
1	 2.812946594544702e+000	 6.773260677358409e-001	 1.132686831960789e+001
1	 2.805857033573426e+000	 7.061197961545839e-001	 8.867635690766624e+000
1	 2.798451370188331e+000	 7.349207580637585e-001	 6.526662847454856e+000
1	 2.790728197197666e+000	 7.637240906662786e-001	 4.302533517331000e+000
1	 2.782686200520693e+000	 7.925248759258216e-001	 2.193688157886488e+000
1	 2.774324161233401e+000	 8.213181426176583e-001	 1.984243636723091e-001
1	 2.765640957566033e+000	 8.500988684592170e-001	-1.685102503157161e+000
1	 2.864330682391995e+000	 5.675008269791980e-001	 2.142854732154979e+001
1	 2.858435842330151e+000	 5.964828139809569e-001	 1.850206035805817e+001
1	 2.852228564296800e+000	 6.254911355634441e-001	 1.569775334620839e+001
1	 2.845707073755671e+000	 6.545211261681152e-001	 1.301482566435705e+001
1	 2.838869681462532e+000	 6.835680570299278e-001	 1.045232757400614e+001
1	 2.831714785690566e+000	 7.126271379175480e-001	 8.009159669961816e+000
1	 2.824240874420563e+000	 7.416935189567915e-001	 5.684072546123235e+000
1	 2.816446527492603e+000	 7.707622925368255e-001	 3.475666682264216e+000
1	 2.808330418715852e+000	 7.998284952985153e-001	 1.382392556795362e+000
1	 2.799891317933140e+000	 8.288871102041546e-001	-5.974490099041373e-001
1	 2.791128093036881e+000	 8.579330686876658e-001	-2.465706277419158e+000
1	 2.890486265977629e+000	 5.726829504714953e-001	 2.048681627597398e+001
1	 2.884537597290914e+000	 6.019295859608803e-001	 1.758326930175527e+001
1	 2.878273637611040e+000	 6.312027965046843e-001	 1.480119640544012e+001
1	 2.871692596197584e+000	 6.604978739409091e-001	 1.213985771181364e+001
1	 2.864792768381011e+000	 6.898100463238917e-001	 9.598358470720218e+000
1	 2.857572537808359e+000	 7.191344796803980e-001	 7.175648378286165e+000
1	 2.850030378653443e+000	 7.484662798497171e-001	 4.870521122078050e+000
1	 2.842164857788168e+000	 7.778004944072670e-001	 2.681614155996263e+000
1	 2.833974636911618e+000	 8.071321146711009e-001	 6.074087103191648e-001
1	 2.825458474633451e+000	 8.364560777905349e-001	-1.353769958097339e+000
1	 2.816615228508264e+000	 8.657672689159827e-001	-3.203752070896372e+000
1	 2.916641849563674e+000	 5.778650739635413e-001	 1.954689187925748e+001
1	 2.910639352252136e+000	 6.073763579405682e-001	 1.667187860185661e+001
1	 2.904318710925769e+000	 6.369144574457069e-001	 1.391724960810430e+001
1	 2.897678118640007e+000	 6.664746217135051e-001	 1.128234310184232e+001
1	 2.890715855300007e+000	 6.960520356176770e-001	 8.766337252382826e+000
1	 2.883430289926667e+000	 7.256418214430882e-001	 6.368249363841569e+000
1	 2.875819882886823e+000	 7.552390407424989e-001	 4.086935275225920e+000
1	 2.867883188084215e+000	 7.848386962775789e-001	 1.921088997529482e+000
1	 2.859618855107833e+000	 8.144357340435661e-001	-1.307574063072408e-001
1	 2.851025631334183e+000	 8.440250453767995e-001	-2.070233693128290e+000
1	 2.842102363980034e+000	 8.736014691441837e-001	-3.899131057989190e+000
1	 2.942797433150047e+000	 5.830471974552515e-001	 1.861107130520579e+001
1	 2.936741107213719e+000	 6.128231299199427e-001	 1.576992866330357e+001
1	 2.930363784240882e+000	 6.426261183864404e-001	 1.304770650810520e+001
1	 2.923663641082820e+000	 6.724513694858384e-001	 1.044383788547064e+001
1	 2.916638942219389e+000	 7.022940249112274e-001	 7.957591233448127e+000
1	 2.909288042045350e+000	 7.321491632055713e-001	 5.588069377099810e+000
1	 2.901609387120556e+000	 7.620118016351007e-001	 3.334208759438845e+000
1	 2.893601518380587e+000	 7.918768981477353e-001	 1.194778915193637e+000
1	 2.885263073304349e+000	 8.217393534158990e-001	-8.316178062788646e-001
1	 2.876592788035182e+000	 8.515940129629497e-001	-2.746546263030946e+000
1	 2.867589499452040e+000	 8.814356693722830e-001	-4.551738282062996e+000
1	 2.968953016736668e+000	 5.882293209465432e-001	 1.768157077797936e+001
1	 2.962842862175569e+000	 6.182699018989246e-001	 1.487938798961893e+001
1	 2.956408857556267e+000	 6.483377793268121e-001	 1.219429745666271e+001
1	 2.949649163525900e+000	 6.784281172578441e-001	 9.625843280358149e+000
1	 2.942562029139025e+000	 7.085360142044866e-001	 7.173400955404431e+000
1	 2.935145794164261e+000	 7.386565049678002e-001	 4.836176167976953e+000
1	 2.927398891354493e+000	 7.687845625274863e-001	 2.613203833777744e+000
1	 2.919319848677137e+000	 7.989151000177122e-001	 5.033473833050220e-001
1	 2.910907291501007e+000	 8.290429727880865e-001	-1.494701698857406e+000
1	 2.902159944736293e+000	 8.591629805489864e-001	-3.382424074351038e+000
1	 2.893076634924131e+000	 8.892698696002971e-001	-5.161472485026254e+000
1	 2.995108600323453e+000	 5.934114444373319e-001	 1.676052910666555e+001
1	 2.988944617137589e+000	 6.237166738774360e-001	 1.400215632239865e+001
1	 2.982453930871814e+000	 6.540494402667511e-001	 1.135869236198394e+001
1	 2.975634685969126e+000	 6.844048650294583e-001	 8.829808065031473e+000
1	 2.968485116058780e+000	 7.147780034973984e-001	 6.415002229061405e+000
1	 2.961003546283265e+000	 7.451638467297289e-001	 4.113600188747111e+000
1	 2.953188395588489e+000	 7.755573234196188e-001	 1.924752637676545e+000
1	 2.945038178973707e+000	 8.059533018874843e-001	-1.525652996837750e-001
1	 2.936551509697654e+000	 8.363465921601163e-001	-2.119554738525176e+000
1	 2.927727101437364e+000	 8.667319481349110e-001	-3.977593439853963e+000
1	 2.918563770396158e+000	 8.971040698282408e-001	-5.728235945838250e+000
1	 3.021264183910321e+000	 5.985935679275342e-001	 1.585001103625450e+001
1	 3.015046372099683e+000	 6.291634458553986e-001	 1.314006761772899e+001
1	 3.008499004187416e+000	 6.597611012061848e-001	 1.054250330558944e+001
1	 3.001620208412377e+000	 6.903816128006163e-001	 8.057130848755781e+000
1	 2.994408202978528e+000	 7.210199927899073e-001	 5.683588070754568e+000
1	 2.986861298402219e+000	 7.516711884913101e-001	 3.421336208501871e+000
1	 2.978977899822394e+000	 7.823300843114627e-001	 1.269658494695134e+000
1	 2.970756509270149e+000	 8.129915037570266e-001	-7.723410079973614e-001
1	 2.962195727894137e+000	 8.436502115319760e-001	-2.705738313140110e+000
1	 2.953294258138242e+000	 8.743009157207239e-001	-4.531790149725871e+000
1	 2.944050905867969e+000	 9.049382700561296e-001	-6.251934327405055e+000
1	 3.047419767497192e+000	 6.037756914170658e-001	 1.495201042604906e+001
1	 3.041148127061755e+000	 6.346102178327341e-001	 1.229489286932671e+001
1	 3.034544077502959e+000	 6.654727621450411e-001	 9.747287023905559e+000
1	 3.027605730855529e+000	 6.963583605712530e-001	 7.309162224514177e+000
1	 3.020331289898130e+000	 7.272619820819563e-001	 4.980310538840885e+000
1	 3.012719050520982e+000	 7.581785302524974e-001	 2.760344844469512e+000
1	 3.004767404056063e+000	 7.891028452029806e-001	 6.486971491328655e-001
1	 2.996474839566311e+000	 8.200297056263144e-001	-1.355382837012510e+000
1	 2.987839946090303e+000	 8.509538309036530e-001	-3.252828868748967e+000
1	 2.978861414838772e+000	 8.818698833064261e-001	-5.044759064857095e+000
1	 2.969538041339417e+000	 9.127724702839788e-001	-6.732476531360159e+000
1	 3.073575351083983e+000	 6.089578149058433e-001	 1.406845326578841e+001
1	 3.067249882023707e+000	 6.400569898093638e-001	 1.146834278753231e+001
1	 3.060589150818339e+000	 6.711844230832489e-001	 8.974547263149745e+000
1	 3.053591253298464e+000	 7.023351083413045e-001	 6.587206812058454e+000
1	 3.046254376817458e+000	 7.335039713734894e-001	 4.306282476424557e+000
1	 3.038576802639415e+000	 7.646858720132437e-001	 2.131554015146834e+000
1	 3.030556908289346e+000	 7.958756060941377e-001	 6.261793950172019e-002
1	 3.022193169862039e+000	 8.270679074953229e-001	-1.901114200316783e+000
1	 3.013484164285995e+000	 8.582574502751353e-001	-3.760417268874905e+000
1	 3.004428571538802e+000	 8.894388508920191e-001	-5.516253730891739e+000
1	 2.995025176810348e+000	 9.206066705118045e-001	-7.169774560259633e+000
1	 2.740153822095873e+000	 8.422646682306209e-001	-8.620536226078251e-001
1	 2.731231421080580e+000	 8.707627113369549e-001	-2.650688505601363e+000
1	 2.721988884875082e+000	 8.992382316919291e-001	-4.335735042277074e+000
1	 2.712425398051369e+000	 9.276861123150280e-001	-5.917162414239151e+000
1	 2.702540248811464e+000	 9.561011947256431e-001	-7.395003951448202e+000
1	 2.692332830683795e+000	 9.844782814308750e-001	-8.769358016373513e+000
1	 2.681802644152406e+000	 1.012812138484053e+000	-1.004038882656966e+001
1	 2.670949298215834e+000	 1.041097498112028e+000	-1.120832721320613e+001
1	 2.659772511872570e+000	 1.069329061409152e+000	-1.227347131315781e+001
1	 2.648272115530094e+000	 1.097501501095708e+000	-1.323618719235152e+001
1	 2.636448052334516e+000	 1.125609464338406e+000	-1.409690939815951e+001
1	 2.765640957566033e+000	 8.500988684592170e-001	-1.685102503157161e+000
1	 2.756635566157504e+000	 8.788619818981299e-001	-3.461073578211573e+000
1	 2.747307061868638e+000	 9.076023630936984e-001	-5.132256878679995e+000
1	 2.737654621686848e+000	 9.363148474705652e-001	-6.698531323256023e+000
1	 2.727677527193472e+000	 9.649942285672722e-001	-8.159840365591148e+000
1	 2.717375166275937e+000	 9.936352605472042e-001	-9.516192988541430e+000
1	 2.706747034772116e+000	 1.022232660780905e+000	-1.076766463801186e+001
1	 2.695792738043704e+000	 1.050781112497805e+000	-1.191439809374465e+001
1	 2.684511992475504e+000	 1.079275267505267e+000	-1.295660427447088e+001
1	 2.672904626897554e+000	 1.107709748972663e+000	-1.389456297492688e+001
1	 2.660970583927155e+000	 1.136079154278113e+000	-1.472862353232572e+001
1	 2.791128093036881e+000	 8.579330686876658e-001	-2.465706277419158e+000
1	 2.782039711235067e+000	 8.869612524591196e-001	-4.225972604691082e+000
1	 2.772625238862780e+000	 9.159664944952385e-001	-5.880376747389387e+000
1	 2.762883845322852e+000	 9.449435826258268e-001	-7.428729953216588e+000
1	 2.752814805575939e+000	 9.738872624085790e-001	-8.870909106481070e+000
1	 2.742417501868467e+000	 1.002792239663169e+000	-1.020685781038129e+001
1	 2.731691425392141e+000	 1.031653183077356e+000	-1.143658740841411e+001
1	 2.720636177871811e+000	 1.060464726883158e+000	-1.256017794208219e+001
1	 2.709251473078593e+000	 1.089221473600946e+000	-1.357777904214701e+001
1	 2.697537138265090e+000	 1.117917996849190e+000	-1.448961075075412e+001
1	 2.685493115519782e+000	 1.146548844217417e+000	-1.529596427184544e+001
1	 2.816615228508264e+000	 8.657672689159827e-001	-3.203752070896372e+000
1	 2.807443856313126e+000	 8.950605230199543e-001	-4.945478803358489e+000
1	 2.797943415857370e+000	 9.243306258965954e-001	-6.580404273214153e+000
1	 2.788113068959254e+000	 9.535723177808729e-001	-8.108294164004978e+000
1	 2.777952083958753e+000	 9.827802962496398e-001	-9.528981598960392e+000
1	 2.767459837461291e+000	 1.011949218778858e+000	-1.084236828954842e+001
1	 2.756635816012398e+000	 1.041073705373506e+000	-1.204842562105238e+001
1	 2.745479617700091e+000	 1.070148341268192e+000	-1.314719567218797e+001
1	 2.733990953681790e+000	 1.099167679696300e+000	-1.413879216585013e+001
1	 2.722169649632665e+000	 1.128126244725396e+000	-1.502340134816043e+001
1	 2.710015647112380e+000	 1.157018534156420e+000	-1.580128279307872e+001
1	 2.842102363980034e+000	 8.736014691441837e-001	-3.899131057989190e+000
1	 2.832848001391535e+000	 9.031597935806651e-001	-5.619682048711350e+000
1	 2.823261592852275e+000	 9.326947572978150e-001	-7.232637974463627e+000
1	 2.813342292595934e+000	 9.622010529357664e-001	-8.737740593768015e+000
1	 2.803089362341806e+000	 9.916733300905299e-001	-1.013480159622594e+001
1	 2.792502173054308e+000	 1.021106197894358e+000	-1.142370379584084e+001
1	 2.781580206632806e+000	 1.050494227669454e+000	-1.260440225766394e+001
1	 2.770323057528475e+000	 1.079831955653012e+000	-1.367692535463052e+001
1	 2.758730434285045e+000	 1.109113885791435e+000	-1.464137575153220e+001
1	 2.746802161000247e+000	 1.138334492601386e+000	-1.549793131316111e+001
1	 2.734538178704933e+000	 1.167488224095222e+000	-1.624684593376069e+001
1	 2.867589499452040e+000	 8.814356693722830e-001	-4.551738282062996e+000
1	 2.858252146470148e+000	 9.112590641412822e-001	-6.248669020025871e+000
1	 2.848579769847359e+000	 9.410588886989445e-001	-7.837365756520859e+000
1	 2.838571516232765e+000	 9.708297880905689e-001	-9.317567513129463e+000
1	 2.828226640724981e+000	 1.000566363931325e+000	-1.068908640955740e+001
1	 2.817544508647426e+000	 1.030263177009759e+000	-1.195180888049813e+001
1	 2.806524597253285e+000	 1.059914749965296e+000	-1.310569682053626e+001
1	 2.795166497356901e+000	 1.089515570037725e+000	-1.415078865381868e+001
1	 2.783469914888307e+000	 1.119060091886461e+000	-1.508720032531200e+001
1	 2.771434672367803e+000	 1.148542740477269e+000	-1.591512621056569e+001
1	 2.759060710297422e+000	 1.177957914033924e+000	-1.663483994100985e+001
1	 2.893076634924131e+000	 8.892698696002971e-001	-5.161472485026254e+000
1	 2.883656291548827e+000	 9.193583347018371e-001	-6.832523342101957e+000
1	 2.873897946842486e+000	 9.494230201000297e-001	-8.394865379326136e+000
1	 2.863800739869623e+000	 9.794585232453412e-001	-9.848255634252354e+000
1	 2.853363919108170e+000	 1.009459397772102e+000	-1.119252807304418e+001
1	 2.842586844240541e+000	 1.039420156125150e+000	-1.242759480990687e+001
1	 2.831468987873751e+000	 1.069335272261134e+000	-1.355344724771158e+001
1	 2.820009937185299e+000	 1.099199184422435e+000	-1.457015713641441e+001
1	 2.808209395491529e+000	 1.129006297981486e+000	-1.547787754597446e+001
1	 2.796067183735300e+000	 1.158750988353152e+000	-1.627684375059334e+001
1	 2.783583241889829e+000	 1.188427603972625e+000	-1.696737402122378e+001
1	 2.918563770396158e+000	 8.971040698282408e-001	-5.728235945838250e+000
1	 2.909060436627422e+000	 9.274576052623600e-001	-7.371325718633766e+000
1	 2.899216123837521e+000	 9.577871515011176e-001	-8.905404900366632e+000
1	 2.889029963506384e+000	 9.880872584001460e-001	-1.033026887750891e+001
1	 2.878501197491262e+000	 1.018352431612936e+000	-1.164579444728516e+001
1	 2.867629179833561e+000	 1.048577135240618e+000	-1.285194101894537e+001
1	 2.856413378494124e+000	 1.078755794557065e+000	-1.394875172784175e+001
1	 2.844853377013607e+000	 1.108882798807248e+000	-1.493635445879297e+001
1	 2.832948876094660e+000	 1.138952504076619e+000	-1.581496277534425e+001
1	 2.820699695102703e+000	 1.168959236229142e+000	-1.658487675166468e+001
1	 2.808105773482136e+000	 1.198897293911427e+000	-1.724648370397230e+001
1	 2.944050905867969e+000	 9.049382700561296e-001	-6.251934327405055e+000
1	 2.934464581705792e+000	 9.355568758228819e-001	-7.865154058652228e+000
1	 2.924534300832328e+000	 9.661512829022541e-001	-9.369243094655078e+000
1	 2.914259187142924e+000	 9.967159935550441e-001	-1.076405509832764e+001
1	 2.903638475874143e+000	 1.027245465453903e+000	-1.204953026575830e+001
1	 2.892671515426388e+000	 1.057734114356252e+000	-1.322569648883730e+001
1	 2.881357769114322e+000	 1.088176316853187e+000	-1.429267042077353e+001
1	 2.869696816841759e+000	 1.118566413192270e+000	-1.525065844087932e+001
1	 2.857688356697652e+000	 1.148898710171969e+000	-1.609995751514654e+001
1	 2.845332206469981e+000	 1.179167484105347e+000	-1.684095594929697e+001
1	 2.832628305074325e+000	 1.209366983850430e+000	-1.747413403115976e+001
1	 2.969538041339417e+000	 9.127724702839788e-001	-6.732476531360159e+000
1	 2.959868726783792e+000	 9.436561463834332e-001	-8.314083596456586e+000
1	 2.949852477826773e+000	 9.745154143034851e-001	-9.786629853081459e+000
1	 2.939488410779118e+000	 1.005344728710098e+000	-1.115004677660957e+001
1	 2.928775754256706e+000	 1.036138499295079e+000	-1.240435812730571e+001
1	 2.917713851018922e+000	 1.066891093472140e+000	-1.354968105404943e+001
1	 2.906302159734261e+000	 1.097596839149599e+000	-1.458622708952926e+001
1	 2.894540256669687e+000	 1.128250027577606e+000	-1.551430303318830e+001
1	 2.882427837300455e+000	 1.158844916267644e+000	-1.633431171837637e+001
1	 2.869964717837100e+000	 1.189375731981873e+000	-1.704675266034926e+001
1	 2.857150836666380e+000	 1.219836673789734e+000	-1.765222258195493e+001
1	 2.995025176810348e+000	 9.206066705118045e-001	-7.169774560259633e+000
1	 2.985272871861278e+000	 9.517554169440450e-001	-8.718187005422102e+000
1	 2.975170654820722e+000	 9.828795457048585e-001	-1.015780656042468e+001
1	 2.964717634414846e+000	 1.013973463865370e+000	-1.148866167094392e+001
1	 2.953913032638836e+000	 1.045031533136540e+000	-1.271087943794313e+001
1	 2.942756186611073e+000	 1.076048072588372e+000	-1.382468664246101e+001
1	 2.931246550353865e+000	 1.107017361446401e+000	-1.483041064895967e+001
1	 2.919383696497328e+000	 1.137933641963363e+000	-1.572848018342960e+001
1	 2.907167317903020e+000	 1.168791122363753e+000	-1.651942598265178e+001
1	 2.894597229204027e+000	 1.199583979858828e+000	-1.720388131123412e+001
1	 2.881673368258283e+000	 1.230306363729441e+000	-1.778258234327086e+001
1	 2.636448052334516e+000	 1.125609464338406e+000	-1.409690939815950e+001
1	 2.624302226078947e+000	 1.153643375865511e+000	-1.486136258894285e+001
1	 2.611833061417271e+000	 1.181602065005949e+000	-1.553595359012305e+001
1	 2.599040848742955e+000	 1.209480123689433e+000	-1.612192817295296e+001
1	 2.585925995576417e+000	 1.237272130208986e+000	-1.662066636431603e+001
1	 2.572489027453051e+000	 1.264972652307893e+000	-1.703368218078809e+001
1	 2.558730588716130e+000	 1.292576250311315e+000	-1.736262315443763e+001
1	 2.544651443212335e+000	 1.320077480299228e+000	-1.760926964813353e+001
1	 2.530252474887798e+000	 1.347470897317242e+000	-1.777553395858930e+001
1	 2.515534688282688e+000	 1.374751058621742e+000	-1.786345920584871e+001
1	 2.500499208922499e+000	 1.401912526955667e+000	-1.787521800840356e+001
1	 2.660970583927155e+000	 1.136079154278113e+000	-1.472862353232572e+001
1	 2.648711785065264e+000	 1.164373819086899e+000	-1.546525354550108e+001
1	 2.636126640312910e+000	 1.192592561839123e+000	-1.611182138038232e+001
1	 2.623215442764610e+000	 1.220729924162126e+000	-1.666984600947579e+001
1	 2.609978603731262e+000	 1.248780433919723e+000	-1.714100344453918e+001
1	 2.596416653636446e+000	 1.276738608327862e+000	-1.752712623204469e+001
1	 2.582530242816688e+000	 1.304598957115368e+000	-1.783020269592838e+001
1	 2.568320142223471e+000	 1.332355985726398e+000	-1.805237592526180e+001
1	 2.553787244024815e+000	 1.360004198561121e+000	-1.819594250505324e+001
1	 2.538932562104461e+000	 1.387538102251040e+000	-1.826335098897260e+001
1	 2.523757232456807e+000	 1.414952208965249e+000	-1.825720011339540e+001
1	 2.685493115519782e+000	 1.146548844217417e+000	-1.529596427184544e+001
1	 2.673121344051483e+000	 1.175104262307936e+000	-1.600424257480833e+001
1	 2.660420219208369e+000	 1.203583058672014e+000	-1.662291821718700e+001
1	 2.647390036786003e+000	 1.231979724634620e+000	-1.715373388549181e+001
1	 2.634031211885770e+000	 1.260288737630354e+000	-1.759860853281672e+001
1	 2.620344279819432e+000	 1.288504564347824e+000	-1.795963667727612e+001
1	 2.606329896916778e+000	 1.316621663919515e+000	-1.823908740997079e+001
1	 2.591988841234089e+000	 1.344634491153756e+000	-1.843940310999481e+001
1	 2.577322013161276e+000	 1.372537499805272e+000	-1.856319786466110e+001
1	 2.562330435925657e+000	 1.400325145880683e+000	-1.861325559380425e+001
1	 2.547015255990533e+000	 1.427991890975229e+000	-1.859252787771922e+001
1	 2.710015647112380e+000	 1.157018534156420e+000	-1.580128279307873e+001
1	 2.697530903037604e+000	 1.185834705528708e+000	-1.648093012882524e+001
1	 2.684713798103659e+000	 1.214573555504691e+000	-1.707202694197857e+001
1	 2.671564630807157e+000	 1.243229525106964e+000	-1.757649147986050e+001
1	 2.658083820039975e+000	 1.271797041340906e+000	-1.799643399544184e+001
1	 2.644271906002056e+000	 1.300270520367780e+000	-1.833415588970572e+001
1	 2.630129551016453e+000	 1.328644370723730e+000	-1.859214853237916e+001
1	 2.615657540244252e+000	 1.356912996581256e+000	-1.877309175843069e+001
1	 2.600856782297251e+000	 1.385070801049629e+000	-1.887985203847229e+001
1	 2.585728309746352e+000	 1.413112189510584e+000	-1.891548032196602e+001
1	 2.570273279523759e+000	 1.441031572985507e+000	-1.888320955291374e+001
1	 2.734538178704933e+000	 1.167488224095222e+000	-1.624684593376069e+001
1	 2.721940462023623e+000	 1.196565148749303e+000	-1.689782337916792e+001
1	 2.709007376998789e+000	 1.225564052337229e+000	-1.746183057339414e+001
1	 2.695739224828096e+000	 1.254479325579208e+000	-1.794091445758327e+001
1	 2.682136428193909e+000	 1.283305345051404e+000	-1.833732629490851e+001
1	 2.668199532184363e+000	 1.312036476387733e+000	-1.865352069721707e+001
1	 2.653929205115769e+000	 1.340667077527991e+000	-1.889215430538509e+001
1	 2.639326239254022e+000	 1.369191502008848e+000	-1.905608412067334e+001
1	 2.624391551432814e+000	 1.397604102294122e+000	-1.914836548517593e+001
1	 2.609126183566625e+000	 1.425899233140657e+000	-1.917224971027890e+001
1	 2.593531303056567e+000	 1.454071254995983e+000	-1.913118135288785e+001
1	 2.759060710297422e+000	 1.177957914033924e+000	-1.663483994100985e+001
1	 2.746350021009535e+000	 1.207295591969811e+000	-1.725734036248622e+001
1	 2.733300955893769e+000	 1.236554549169694e+000	-1.779491674339171e+001
1	 2.719913818848843e+000	 1.265729126051403e+000	-1.824969909217911e+001
1	 2.706189036347608e+000	 1.294813648761876e+000	-1.862403069627583e+001
1	 2.692127158366396e+000	 1.323802432407684e+000	-1.892046707278874e+001
1	 2.677728859214780e+000	 1.352689784332276e+000	-1.914177455467231e+001
1	 2.662994938263464e+000	 1.381470007436487e+000	-1.929092850955079e+001
1	 2.647926320568034e+000	 1.410137403538683e+000	-1.937111118923323e+001
1	 2.632524057386552e+000	 1.438686276770816e+000	-1.938570920883060e+001
1	 2.616789326589044e+000	 1.467110937006559e+000	-1.933831065527303e+001
1	 2.783583241889829e+000	 1.188427603972625e+000	-1.696737402122378e+001
1	 2.770759579995339e+000	 1.218026035190319e+000	-1.756181390672496e+001
1	 2.757594534788612e+000	 1.247545046002160e+000	-1.807378189888975e+001
1	 2.744088412869419e+000	 1.276978926523597e+000	-1.850544664372972e+001
1	 2.730241644501109e+000	 1.306321952472349e+000	-1.885919572476272e+001
1	 2.716054784548201e+000	 1.335568388427635e+000	-1.913763457700083e+001
1	 2.701528513313543e+000	 1.364712491136561e+000	-1.934358502447716e+001
1	 2.686663637272640e+000	 1.393748512864127e+000	-1.948008343841065e+001
1	 2.671461089702981e+000	 1.422670704783245e+000	-1.955037851398604e+001
1	 2.655921931206211e+000	 1.451473320400976e+000	-1.955792866462663e+001
1	 2.640047350121268e+000	 1.480150619017134e+000	-1.950639903355776e+001
1	 2.808105773482136e+000	 1.198897293911427e+000	-1.724648370397230e+001
1	 2.795169138981031e+000	 1.228756478410914e+000	-1.781349535166269e+001
1	 2.781888113683326e+000	 1.258535542834697e+000	-1.830083528325540e+001
1	 2.768263006889848e+000	 1.288228726995841e+000	-1.871066750753005e+001
1	 2.754294252654443e+000	 1.317830256182848e+000	-1.904537738977988e+001
1	 2.739982410729826e+000	 1.347334344447589e+000	-1.930757056776966e+001
1	 2.725328167412110e+000	 1.376735197940822e+000	-1.950007148554506e+001
1	 2.710332336281615e+000	 1.406027018291719e+000	-1.962592154210945e+001
1	 2.694995858837728e+000	 1.435204006027737e+000	-1.968837685287492e+001
1	 2.679319805025680e+000	 1.464260364031049e+000	-1.969090562271105e+001
1	 2.663305373653324e+000	 1.493190301027610e+000	-1.963718513034873e+001
1	 2.832628305074325e+000	 1.209366983850430e+000	-1.747413403115976e+001
1	 2.819578697966607e+000	 1.239486921631686e+000	-1.801455807619388e+001
1	 2.806181692577922e+000	 1.269526039667374e+000	-1.847840271098220e+001
1	 2.792437600910154e+000	 1.299478527468185e+000	-1.886778514724564e+001
1	 2.778346860807648e+000	 1.329338559893400e+000	-1.918504318955282e+001
1	 2.763910036911314e+000	 1.359100300467545e+000	-1.943273419141600e+001
1	 2.749127821510537e+000	 1.388757904745037e+000	-1.961363362970727e+001
1	 2.734001035290451e+000	 1.418305523719218e+000	-1.973073329433391e+001
1	 2.718530627972343e+000	 1.447737307272093e+000	-1.978723909100244e+001
1	 2.702717678845036e+000	 1.477047407660950e+000	-1.978656845581638e+001
1	 2.686563397185296e+000	 1.506229983037888e+000	-1.973234738138597e+001
1	 2.857150836666380e+000	 1.219836673789734e+000	-1.765222258195493e+001
1	 2.843988256952065e+000	 1.250217364852722e+000	-1.816710084396691e+001
1	 2.830475271472410e+000	 1.280516536500265e+000	-1.860873014798250e+001
1	 2.816612194930361e+000	 1.310728327940679e+000	-1.897913982552341e+001
1	 2.802399468960757e+000	 1.340846863604030e+000	-1.928057590951821e+001
1	 2.787837663092711e+000	 1.370866256487507e+000	-1.951550016820483e+001
1	 2.772927475608878e+000	 1.400780611549183e+000	-1.968658876389802e+001
1	 2.757669734299212e+000	 1.430584029146576e+000	-1.979673053349091e+001
1	 2.742065397106900e+000	 1.460270608516245e+000	-1.984902488843569e+001
1	 2.726115552664357e+000	 1.489834451290593e+000	-1.984677933284551e+001
1	 2.709821420717266e+000	 1.519269665047867e+000	-1.979350659927905e+001
1	 2.881673368258283e+000	 1.230306363729441e+000	-1.778258234327086e+001
1	 2.868397815937404e+000	 1.260947808074110e+000	-1.827315097819680e+001
1	 2.854768850366804e+000	 1.291507033333439e+000	-1.869398710907417e+001
1	 2.840786788950488e+000	 1.321978128413373e+000	-1.904699214412154e+001
1	 2.826452077113804e+000	 1.352355167314767e+000	-1.933427722677828e+001
1	 2.811765289274062e+000	 1.382632212507475e+000	-1.955816238459945e+001
1	 2.796727129707190e+000	 1.412803318353237e+000	-1.972117531555904e+001
1	 2.781338433307961e+000	 1.442862534573747e+000	-1.982604980856917e+001
1	 2.765600166241469e+000	 1.472803909760124e+000	-1.987572379586690e+001
1	 2.749513426483720e+000	 1.502621494919891e+000	-1.987333703578641e+001
1	 2.733079444249319e+000	 1.532309347057451e+000	-1.982222842532047e+001
1	 2.500499208922499e+000	 1.401912526955667e+000	-1.787521800840356e+001
1	 2.485144957250983e+000	 1.428953920535294e+000	-1.783397514914824e+001
1	 2.469475535571229e+000	 1.455865738217200e+000	-1.776114626232373e+001
1	 2.453492436359996e+000	 1.482642578306111e+000	-1.765635442691750e+001
1	 2.437197273632522e+000	 1.509279057994052e+000	-1.751920902444134e+001
1	 2.420591782792370e+000	 1.535769816732273e+000	-1.734930620400414e+001
1	 2.403677820370210e+000	 1.562109519609821e+000	-1.714622938882036e+001
1	 2.386457363650868e+000	 1.588292860734559e+000	-1.690954982367883e+001
1	 2.368932510188156e+000	 1.614314566612345e+000	-1.663882716277676e+001
1	 2.351105477207142e+000	 1.640169399520067e+000	-1.633361009720415e+001
1	 2.332978600893775e+000	 1.665852160868178e+000	-1.599343702124479e+001
1	 2.523757232456807e+000	 1.414952208965249e+000	-1.825720011339540e+001
1	 2.508260165484269e+000	 1.442245124067567e+000	-1.819982415264986e+001
1	 2.492444996996238e+000	 1.469407258041089e+000	-1.811143602643636e+001
1	 2.476313233351541e+000	 1.496433158947471e+000	-1.799152738484921e+001
1	 2.459866503577958e+000	 1.523317393911350e+000	-1.783956694720343e+001
1	 2.443106559220670e+000	 1.550054552523622e+000	-1.765500118312136e+001
1	 2.426035274078606e+000	 1.576639250251452e+000	-1.743725505393452e+001
1	 2.408654643828038e+000	 1.603066131850734e+000	-1.718573281362208e+001
1	 2.390966785532879e+000	 1.629329874776702e+000	-1.689981886833737e+001
1	 2.372973937041403e+000	 1.655425192588333e+000	-1.657887869340185e+001
1	 2.354678456269270e+000	 1.681346838342176e+000	-1.622225980647834e+001
1	 2.547015255990533e+000	 1.427991890975229e+000	-1.859252787771922e+001
1	 2.531375373716986e+000	 1.455536327600267e+000	-1.852222514324905e+001
1	 2.515414458420706e+000	 1.482948777865413e+000	-1.842112249089868e+001
1	 2.499134030342586e+000	 1.510223739589257e+000	-1.828859456561568e+001
1	 2.482535733522948e+000	 1.537355729829050e+000	-1.812398540689631e+001
1	 2.465621335648581e+000	 1.564339288315340e+000	-1.792660933046583e+001
1	 2.448392727786678e+000	 1.591168980893409e+000	-1.769575188629947e+001
1	 2.430851924004946e+000	 1.617839402967187e+000	-1.743067089191079e+001
1	 2.413001060877399e+000	 1.644345182941285e+000	-1.713059753961899e+001
1	 2.394842396875518e+000	 1.670680985656779e+000	-1.679473757629284e+001
1	 2.376378311644662e+000	 1.696841515816308e+000	-1.642227255385630e+001
1	 2.570273279523759e+000	 1.441031572985507e+000	-1.888320955291374e+001
1	 2.554490581949220e+000	 1.468827531133287e+000	-1.880287590235133e+001
1	 2.538383919844723e+000	 1.496490297690064e+000	-1.869162303226328e+001
1	 2.521954827333227e+000	 1.524014320231365e+000	-1.854872250989741e+001
1	 2.505204963467584e+000	 1.551394065747053e+000	-1.837340915186521e+001
1	 2.488136112076197e+000	 1.578624024107333e+000	-1.816488209129291e+001
1	 2.470750181494516e+000	 1.605698711535611e+000	-1.792230593452686e+001
1	 2.453049204181680e+000	 1.632612674083848e+000	-1.764481200603287e+001
1	 2.435035336221801e+000	 1.659360491106038e+000	-1.733149967987581e+001
1	 2.416710856709561e+000	 1.685936778725359e+000	-1.698143779591674e+001
1	 2.398078167020021e+000	 1.712336193290541e+000	-1.659366615861609e+001
1	 2.593531303056567e+000	 1.454071254995983e+000	-1.913118135288784e+001
1	 2.577605790181059e+000	 1.482118734666520e+000	-1.904341331055055e+001
1	 2.561353381268382e+000	 1.510031817514932e+000	-1.892430418462291e+001
1	 2.544775624323555e+000	 1.537804900873685e+000	-1.877303591360349e+001
1	 2.527874193411962e+000	 1.565432401665257e+000	-1.858874904155692e+001
1	 2.510650888503613e+000	 1.592908759899511e+000	-1.837054395589987e+001
1	 2.493107635202212e+000	 1.620228442177975e+000	-1.811748222518351e+001
1	 2.475246484358327e+000	 1.647385945200647e+000	-1.782858803523212e+001
1	 2.457069611566164e+000	 1.674375799270905e+000	-1.750284972171401e+001
1	 2.438579316543607e+000	 1.701192571794027e+000	-1.713922139694234e+001
1	 2.419778022395412e+000	 1.727830870764843e+000	-1.673662466842642e+001
1	 2.616789326589044e+000	 1.467110937006559e+000	-1.933831065527303e+001
1	 2.600720998412591e+000	 1.495409938199861e+000	-1.924541605406106e+001
1	 2.584322842691773e+000	 1.523573337339909e+000	-1.912048389904969e+001
1	 2.567596421313664e+000	 1.551595481516112e+000	-1.896261948745338e+001
1	 2.550543423356176e+000	 1.579470737583562e+000	-1.877088355254256e+001
1	 2.533165664930922e+000	 1.607193495691781e+000	-1.854429365750441e+001
1	 2.515465088909857e+000	 1.634758172820419e+000	-1.828182569701127e+001
1	 2.497443764534976e+000	 1.662159216317515e+000	-1.798241550458114e+001
1	 2.479103886910575e+000	 1.689391107435829e+000	-1.764496056351163e+001
1	 2.460447776377734e+000	 1.716448364862740e+000	-1.726832181886617e+001
1	 2.441477877770901e+000	 1.743325548239177e+000	-1.685132558769341e+001
1	 2.640047350121268e+000	 1.480150619017134e+000	-1.950639903355775e+001
1	 2.623836206643904e+000	 1.508701141733200e+000	-1.941040718809263e+001
1	 2.607292304114989e+000	 1.537114857164887e+000	-1.928143368360399e+001
1	 2.590417218303648e+000	 1.565386062158538e+000	-1.911851971826465e+001
1	 2.573212653300319e+000	 1.593509073501868e+000	-1.892066020493467e+001
1	 2.555680441358219e+000	 1.621478231484052e+000	-1.868680530680540e+001
1	 2.537822542617543e+000	 1.649287903462864e+000	-1.841586208576573e+001
1	 2.519641044711714e+000	 1.676932487434384e+000	-1.810669626130960e+001
1	 2.501138162255115e+000	 1.704406415600752e+000	-1.775813407748389e+001
1	 2.482316236212016e+000	 1.731704157931453e+000	-1.736896427505759e+001
1	 2.463177733146556e+000	 1.758820225713511e+000	-1.693794016578139e+001
1	 2.663305373653324e+000	 1.493190301027610e+000	-1.963718513034873e+001
1	 2.646951414875084e+000	 1.521992345266434e+000	-1.953985656591345e+001
1	 2.630261765538118e+000	 1.550656376989756e+000	-1.940838063121462e+001
1	 2.613238015293598e+000	 1.579176642800859e+000	-1.924174653795485e+001
1	 2.595881883244487e+000	 1.607547409420072e+000	-1.903889691406506e+001
1	 2.578195217785595e+000	 1.635762967276229e+000	-1.879872946709655e+001
1	 2.560179996325362e+000	 1.663817634105228e+000	-1.852009876269212e+001
1	 2.541838324888631e+000	 1.691705758551183e+000	-1.820181811569513e+001
1	 2.523172437599868e+000	 1.719421723765620e+000	-1.784266159112801e+001
1	 2.504184696046531e+000	 1.746959951000122e+000	-1.744136611194314e+001
1	 2.484877588522445e+000	 1.774314903187812e+000	-1.699663367013211e+001
1	 2.686563397185296e+000	 1.506229983037888e+000	-1.973234738138597e+001
1	 2.670066623106221e+000	 1.535283548799453e+000	-1.963518314174009e+001
1	 2.653231226961252e+000	 1.564197896814407e+000	-1.950250934222441e+001
1	 2.636058812283610e+000	 1.592967223442966e+000	-1.933327490585089e+001
1	 2.618551113188773e+000	 1.621585745338075e+000	-1.912638327195210e+001
1	 2.600709994213145e+000	 1.650047703068222e+000	-1.888069417353538e+001
1	 2.582537450033408e+000	 1.678347364747429e+000	-1.859502552944865e+001
1	 2.564035605065816e+000	 1.706479029667844e+000	-1.826815544866467e+001
1	 2.545206712944915e+000	 1.734437031930372e+000	-1.789882434365986e+001
1	 2.526053155881353e+000	 1.762215744068701e+000	-1.748573714953373e+001
1	 2.506577443898632e+000	 1.789809580662045e+000	-1.702756564519717e+001
1	 2.709821420717266e+000	 1.519269665047867e+000	-1.979350659927905e+001
1	 2.693181831337400e+000	 1.548574752332153e+000	-1.969775715503537e+001
1	 2.676200688384482e+000	 1.577739416638730e+000	-1.956496374793045e+001
1	 2.658879609273776e+000	 1.606757804084753e+000	-1.939404630951367e+001
1	 2.641220343133271e+000	 1.635624081255775e+000	-1.918388176277660e+001
1	 2.623224770640963e+000	 1.664332438859940e+000	-1.893330589992285e+001
1	 2.604894903741769e+000	 1.692877095389386e+000	-1.864111537209317e+001
1	 2.586232885243353e+000	 1.721252300784296e+000	-1.830606978810578e+001
1	 2.567240988290342e+000	 1.749452340094955e+000	-1.792689391894604e+001
1	 2.547921615716559e+000	 1.777471537137146e+000	-1.750228000441544e+001
1	 2.528277299275187e+000	 1.805304258136177e+000	-1.703089015803634e+001
1	 2.733079444249319e+000	 1.532309347057451e+000	-1.982222842532047e+001
1	 2.716297039568712e+000	 1.561865955864427e+000	-1.972890220327810e+001
1	 2.699170149807901e+000	 1.591280936462619e+000	-1.959684884101609e+001
1	 2.681700406264190e+000	 1.620548384726113e+000	-1.942497018893245e+001
1	 2.663889573078078e+000	 1.649662417173072e+000	-1.921212891629626e+001
1	 2.645739547069145e+000	 1.678617174651290e+000	-1.895715047612003e+001
1	 2.627252357450537e+000	 1.707406826031018e+000	-1.865882517657235e+001
1	 2.608430165421335e+000	 1.736025571900473e+000	-1.831591035575220e+001
1	 2.589275263636230e+000	 1.764467648259312e+000	-1.792713265633023e+001
1	 2.569790075552226e+000	 1.792727330205414e+000	-1.749119039624925e+001
1	 2.549977154652176e+000	 1.820798935610175e+000	-1.700675603137569e+001
1	 2.332978600893775e+000	 1.665852160868178e+000	-1.599343702124479e+001
1	 2.314554334913666e+000	 1.691357693984630e+000	-1.562283928275752e+001
1	 2.295835247520404e+000	 1.716680885717582e+000	-1.522622888363603e+001
1	 2.276824022517764e+000	 1.741816671372895e+000	-1.480296006455672e+001
1	 2.257523458769130e+000	 1.766760038549538e+000	-1.435239099750734e+001
1	 2.237936468933869e+000	 1.791506030387907e+000	-1.387388509401202e+001
1	 2.218066078094256e+000	 1.816049748781706e+000	-1.336681232224206e+001
1	 2.197915422274171e+000	 1.840386357549125e+000	-1.283055053024420e+001
1	 2.177487746850984e+000	 1.864511085559069e+000	-1.226448677247631e+001
1	 2.156786404862220e+000	 1.888419229808245e+000	-1.166801863680531e+001
1	 2.135814855208781e+000	 1.912106158445013e+000	-1.104055556909649e+001
1	 2.354678456269270e+000	 1.681346838342176e+000	-1.622225980647834e+001
1	 2.336082819704505e+000	 1.707089607402158e+000	-1.583453386700087e+001
1	 2.317189619488916e+000	 1.732648339057221e+000	-1.542034463272758e+001
1	 2.298001564389259e+000	 1.758017921504730e+000	-1.497913825487125e+001
1	 2.278521479302110e+000	 1.783193295721556e+000	-1.451036628165261e+001
1	 2.258752303978483e+000	 1.808169458742603e+000	-1.401348683970896e+001
1	 2.238697091637989e+000	 1.832941466902575e+000	-1.348796582140892e+001
1	 2.218359007473745e+000	 1.857504439036639e+000	-1.293327807554952e+001
1	 2.197741327049500e+000	 1.881853559635735e+000	-1.234890859887750e+001
1	 2.176847434590536e+000	 1.905984081952293e+000	-1.173435372584894e+001
1	 2.155680821170189e+000	 1.929891331052193e+000	-1.108912231402381e+001
1	 2.376378311644662e+000	 1.696841515816308e+000	-1.642227255385630e+001
1	 2.357611304495278e+000	 1.722821520819784e+000	-1.601791311005951e+001
1	 2.338543991457385e+000	 1.748615792396929e+000	-1.558663748673190e+001
1	 2.319179106260727e+000	 1.774219171636611e+000	-1.512801653347493e+001
1	 2.299519499835069e+000	 1.799626552893600e+000	-1.464162889933705e+001
1	 2.279568139023079e+000	 1.824832887097314e+000	-1.412706202961988e+001
1	 2.259328105181699e+000	 1.849833185023448e+000	-1.358391316363826e+001
1	 2.238802592673292e+000	 1.874622520524149e+000	-1.301179033127086e+001
1	 2.217994907247979e+000	 1.899196033712393e+000	-1.241031334611510e+001
1	 2.196908464318808e+000	 1.923548934096329e+000	-1.177911479304823e+001
1	 2.175546787131546e+000	 1.947676503659357e+000	-1.111784100798709e+001
1	 2.398078167020021e+000	 1.712336193290541e+000	-1.659366615861609e+001
1	 2.379139789286039e+000	 1.738553434237483e+000	-1.617312855637340e+001
1	 2.359898363425856e+000	 1.764583245736689e+000	-1.572523584681136e+001
1	 2.340356648132197e+000	 1.790420421768526e+000	-1.524971548697176e+001
1	 2.320517520368025e+000	 1.816059810065665e+000	-1.474630605537413e+001
1	 2.300383974067660e+000	 1.841496315452034e+000	-1.421475800726504e+001
1	 2.279959118725377e+000	 1.866724903144321e+000	-1.365483442392402e+001
1	 2.259246177872786e+000	 1.891740602011651e+000	-1.306631175433475e+001
1	 2.238248487446389e+000	 1.916538507789036e+000	-1.244898054752999e+001
1	 2.216969494046992e+000	 1.941113786240340e+000	-1.180264617392204e+001
1	 2.195412753092805e+000	 1.965461676266488e+000	-1.112712953393952e+001
1	 2.419778022395412e+000	 1.727830870764843e+000	-1.673662466842642e+001
1	 2.400668274076846e+000	 1.754285347655232e+000	-1.630032631435929e+001
1	 2.381252735394372e+000	 1.780550699076482e+000	-1.583626350827371e+001
1	 2.361534190003698e+000	 1.806621671900462e+000	-1.534435137642579e+001
1	 2.341515540900994e+000	 1.832493067237742e+000	-1.482452039163659e+001
1	 2.321199809112225e+000	 1.858159743806755e+000	-1.427671683083232e+001
1	 2.300590132269011e+000	 1.883616621265188e+000	-1.370090321782287e+001
1	 2.279689763072207e+000	 1.908858683499138e+000	-1.309705875021416e+001
1	 2.258502067644693e+000	 1.933880981865654e+000	-1.246517970937309e+001
1	 2.237030523775047e+000	 1.958678638384314e+000	-1.180527985239223e+001
1	 2.215278719053913e+000	 1.983246848873568e+000	-1.111739078503024e+001
1	 2.441477877770901e+000	 1.743325548239177e+000	-1.685132558769341e+001
1	 2.422196758867754e+000	 1.770017261073006e+000	-1.639964729798781e+001
1	 2.402607107362975e+000	 1.796518152416293e+000	-1.591983986525604e+001
1	 2.382711731875265e+000	 1.822822922032409e+000	-1.541203632958798e+001
1	 2.362513561433991e+000	 1.848926324409821e+000	-1.487639018983383e+001
1	 2.342015644156779e+000	 1.874823172161472e+000	-1.431307550805712e+001
1	 2.321221145812591e+000	 1.900508339386042e+000	-1.372228698851151e+001
1	 2.300133348271529e+000	 1.925976764986603e+000	-1.310424003073493e+001
1	 2.278755647842860e+000	 1.951223455942238e+000	-1.245917075640937e+001
1	 2.257091553502927e+000	 1.976243490528240e+000	-1.178733600968833e+001
1	 2.235144685014823e+000	 2.001032021480582e+000	-1.108901333075139e+001
1	 2.463177733146556e+000	 1.758820225713511e+000	-1.693794016578138e+001
1	 2.443725243658819e+000	 1.785749174490779e+000	-1.647122745559080e+001
1	 2.423961479331708e+000	 1.812485605756102e+000	-1.597608010459008e+001
1	 2.403889273746923e+000	 1.839024172164353e+000	-1.545287852296247e+001
1	 2.383511581967032e+000	 1.865359581581895e+000	-1.490202956357016e+001
1	 2.362831479201324e+000	 1.891486600516179e+000	-1.432396621868732e+001
1	 2.341852159356105e+000	 1.917400057506879e+000	-1.371914727867057e+001
1	 2.320576933470728e+000	 1.943094846474039e+000	-1.308805695296925e+001
1	 2.299009228040850e+000	 1.968565930018779e+000	-1.243120445396771e+001
1	 2.277152583230591e+000	 1.993808342672106e+000	-1.174912354423839e+001
1	 2.255010650975482e+000	 2.018817194087512e+000	-1.104237204787316e+001
1	 2.484877588522445e+000	 1.774314903187812e+000	-1.699663367013210e+001
1	 2.465253728450097e+000	 1.801481087908528e+000	-1.651519798668025e+001
1	 2.445315851300619e+000	 1.828453059095895e+000	-1.600509538950887e+001
1	 2.425066815618706e+000	 1.855225422296282e+000	-1.546698235433307e+001
1	 2.404509602500136e+000	 1.881792838753954e+000	-1.490154864034044e+001
1	 2.383647314245862e+000	 1.908150028870870e+000	-1.430951652529158e+001
1	 2.362483172899539e+000	 1.934291775627691e+000	-1.369163998812300e+001
1	 2.341020518669781e+000	 1.960212927961440e+000	-1.304870384037242e+001
1	 2.319262808238635e+000	 1.985908404095269e+000	-1.238152280787688e+001
1	 2.297213612957994e+000	 2.011373194815898e+000	-1.169094056431910e+001
1	 2.274876616935843e+000	 2.036602366694342e+000	-1.097782871832076e+001
1	 2.506577443898632e+000	 1.789809580662045e+000	-1.702756564519717e+001
1	 2.486782213241644e+000	 1.817213001326228e+000	-1.653168554750489e+001
1	 2.466670223269748e+000	 1.844420512435651e+000	-1.600699303381168e+001
1	 2.446244357490642e+000	 1.871426672428186e+000	-1.545444860632828e+001
1	 2.425507623033317e+000	 1.898226095925993e+000	-1.487505373407192e+001
1	 2.404463149290395e+000	 1.924813457225536e+000	-1.426984957311764e+001
1	 2.383114186442888e+000	 1.951183493748474e+000	-1.363991561808949e+001
1	 2.361464103868667e+000	 1.977331009448800e+000	-1.298636828723845e+001
1	 2.339516388436177e+000	 2.003250878171699e+000	-1.231035944362765e+001
1	 2.317274642685093e+000	 2.028938046959606e+000	-1.161307485511659e+001
1	 2.294742582895855e+000	 2.054387539301056e+000	-1.089573259599541e+001
1	 2.528277299275187e+000	 1.805304258136177e+000	-1.703089015803633e+001
1	 2.508310698033515e+000	 1.832944914743853e+000	-1.652081244602115e+001
1	 2.488024595239138e+000	 1.860387965775353e+000	-1.598187666705996e+001
1	 2.467421899362762e+000	 1.887627922560051e+000	-1.541537460156322e+001
1	 2.446505643566593e+000	 1.914659353098001e+000	-1.482264750878086e+001
1	 2.425278984334927e+000	 1.941476885580175e+000	-1.420508427965855e+001
1	 2.403745199986136e+000	 1.968075211869223e+000	-1.356411950286598e+001
1	 2.381907689067360e+000	 1.994449090936112e+000	-1.290123144747755e+001
1	 2.359769968633441e+000	 2.020593352248060e+000	-1.221793996600922e+001
1	 2.337335672411845e+000	 2.046502899103217e+000	-1.151580432173436e+001
1	 2.314608548855468e+000	 2.072172711907637e+000	-1.079642094440569e+001
1	 2.549977154652176e+000	 1.820798935610175e+000	-1.700675603137569e+001
1	 2.529839182825770e+000	 1.848676828161380e+000	-1.648269682690927e+001
1	 2.509378967208837e+000	 1.876355419114987e+000	-1.592984639133816e+001
1	 2.488599441235097e+000	 1.903829172691866e+000	-1.534985434985989e+001
1	 2.467503664099979e+000	 1.931092610269970e+000	-1.474442913387293e+001
1	 2.446094819379461e+000	 1.958140313934778e+000	-1.411533551453984e+001
1	 2.424376213529276e+000	 1.984966929989930e+000	-1.346439202967131e+001
1	 2.402351274265837e+000	 2.011567172423368e+000	-1.279346830864846e+001
1	 2.380023548830396e+000	 2.037935826324343e+000	-1.210448230038268e+001
1	 2.357396702138207e+000	 2.064067751246718e+000	-1.139939740958218e+001
1	 2.334474514814633e+000	 2.089957884514068e+000	-1.068021954684828e+001
1	 2.135814855208781e+000	 1.912106158445013e+000	-1.104055556909649e+001
1	 2.114579866454582e+000	 1.935563812195057e+000	-1.038997848593436e+001
1	 2.093081977940697e+000	 1.958791283446953e+000	-9.726611863056244e+000
1	 2.071324954503008e+000	 1.981784175181508e+000	-9.053891018990429e+000
1	 2.049312658562491e+000	 2.004538173005029e+000	-8.375328093830294e+000
1	 2.027049047843805e+000	 2.027049047843805e+000	-7.694505549806165e+000
1	 2.004538173005029e+000	 2.049312658562490e+000	-7.015069538469280e+000
1	 1.981784175181508e+000	 2.071324954503008e+000	-6.340723148592747e+000
1	 1.958791283446953e+000	 2.093081977940697e+000	-5.675219549208093e+000
1	 1.935563812195057e+000	 2.114579866454582e+000	-5.022355042464597e+000
1	 1.912106158445013e+000	 2.135814855208781e+000	-4.385962041223102e+000
1	 2.155680821170189e+000	 1.929891331052193e+000	-1.108912231402381e+001
1	 2.134248318309155e+000	 1.953567172698978e+000	-1.042185935498550e+001
1	 2.112550470365117e+000	 1.977010690839198e+000	-9.743433498719380e+000
1	 2.090591077192041e+000	 2.000217447555418e+000	-9.057054059665283e+000
1	 2.068374037136654e+000	 2.023183088324236e+000	-8.366002268503671e+000
1	 2.045903344735822e+000	 2.045903344735822e+000	-7.673625128122651e+000
1	 2.023183088324237e+000	 2.068374037136653e+000	-6.983329144328158e+000
1	 2.000217447555417e+000	 2.090591077192041e+000	-6.298573944660744e+000
1	 1.977010690839198e+000	 2.112550470365117e+000	-5.622865798975681e+000
1	 1.953567172698978e+000	 2.134248318309155e+000	-4.959751055696048e+000
1	 1.929891331052193e+000	 2.155680821170189e+000	-4.312809507858019e+000
1	 2.175546787131546e+000	 1.947676503659357e+000	-1.111784100798709e+001
1	 2.153916770163675e+000	 1.971570533202878e+000	-1.043586592526277e+001
1	 2.132018962789484e+000	 1.995230098231415e+000	-9.744511341587442e+000
1	 2.109857199881020e+000	 2.018650719929294e+000	-9.046713661916918e+000
1	 2.087435415710766e+000	 2.041828003643404e+000	-8.345475489154909e+000
1	 2.064757641627792e+000	 2.064757641627792e+000	-7.643859928386387e+000
1	 2.041828003643404e+000	 2.087435415710766e+000	-6.944984775385957e+000
1	 2.018650719929294e+000	 2.109857199881021e+000	-6.252016601819028e+000
1	 1.995230098231415e+000	 2.132018962789484e+000	-5.568164749825146e+000
1	 1.971570533202878e+000	 2.153916770163674e+000	-4.896675248907876e+000
1	 1.947676503659357e+000	 2.175546787131546e+000	-4.240824668246595e+000
1	 2.195412753092805e+000	 1.965461676266488e+000	-1.112712953393952e+001
1	 2.173585222018087e+000	 1.989573893706733e+000	-1.043248606976249e+001
1	 2.151487455213741e+000	 2.013449505623575e+000	-9.730388940667595e+000
1	 2.129123322569894e+000	 2.037083992303101e+000	-9.023456042329180e+000
1	 2.106496794284778e+000	 2.060472918962490e+000	-8.314364949755776e+000
1	 2.083611938519672e+000	 2.083611938519672e+000	-7.605847761333092e+000
1	 2.060472918962490e+000	 2.106496794284777e+000	-6.900685838056297e+000
1	 2.037083992303101e+000	 2.129123322569894e+000	-6.201704449224327e+000
1	 2.013449505623575e+000	 2.151487455213741e+000	-5.511767336115694e+000
1	 1.989573893706733e+000	 2.173585222018087e+000	-4.833771205375930e+000
1	 1.965461676266487e+000	 2.195412753092805e+000	-4.170640164023909e+000
1	 2.215278719053913e+000	 1.983246848873568e+000	-1.111739078503024e+001
1	 2.193253673872338e+000	 2.007577254210522e+000	-1.041219016107671e+001
1	 2.170955947637836e+000	 2.031668913015651e+000	-9.701590347418598e+000
1	 2.148389445258608e+000	 2.055517264676805e+000	-8.987846389416312e+000
1	 2.125558172858639e+000	 2.079117834281456e+000	-8.273265705024221e+000
1	 2.102466235411413e+000	 2.102466235411413e+000	-7.560203558904379e+000
1	 2.079117834281456e+000	 2.125558172858639e+000	-6.851058444011978e+000
1	 2.055517264676805e+000	 2.148389445258608e+000	-6.148267380580825e+000
1	 2.031668913015651e+000	 2.170955947637836e+000	-5.454301142657180e+000
1	 2.007577254210522e+000	 2.193253673872338e+000	-4.771659422516015e+000
1	 1.983246848873568e+000	 2.215278719053913e+000	-4.102865943450754e+000
1	 2.235144685014823e+000	 2.001032021480582e+000	-1.108901333075139e+001
1	 2.212922125726377e+000	 2.025580614714222e+000	-1.037543184911111e+001
1	 2.190424440061712e+000	 2.049888320407614e+000	-9.658620982221512e+000
1	 2.167655567947108e+000	 2.073950537050373e+000	-8.940429798110424e+000
1	 2.144619551432299e+000	 2.097762749600260e+000	-8.222751654292654e+000
1	 2.121320532302972e+000	 2.121320532302971e+000	-7.507520390981324e+000
1	 2.097762749600260e+000	 2.144619551432299e+000	-6.796706445403619e+000
1	 2.073950537050372e+000	 2.167655567947108e+000	-6.092312895611507e+000
1	 2.049888320407614e+000	 2.190424440061712e+000	-5.396371442364151e+000
1	 2.025580614714222e+000	 2.212922125726376e+000	-4.710938337819695e+000
1	 2.001032021480582e+000	 2.235144685014823e+000	-4.038090269907157e+000
1	 2.255010650975482e+000	 2.018817194087512e+000	-1.104237204787316e+001
1	 2.232590577580147e+000	 2.043583975217812e+000	-1.032264879769395e+001
1	 2.209892932485317e+000	 2.068107727799438e+000	-9.601968455050864e+000
1	 2.186921690635343e+000	 2.092383809423768e+000	-8.881732154853385e+000
1	 2.163680930005709e+000	 2.116407664918862e+000	-8.163376473370995e+000
1	 2.140174829194301e+000	 2.140174829194301e+000	-7.448370428375382e+000
1	 2.116407664918862e+000	 2.163680930005709e+000	-6.738212415357983e+000
1	 2.092383809423768e+000	 2.186921690635343e+000	-6.034427086479492e+000
1	 2.068107727799437e+000	 2.209892932485317e+000	-5.338562179061434e+000
1	 2.043583975217812e+000	 2.232590577580147e+000	-4.652185300560898e+000
1	 2.018817194087512e+000	 2.255010650975482e+000	-3.976880677078869e+000
1	 2.274876616935843e+000	 2.036602366694342e+000	-1.097782871832076e+001
1	 2.252259029433597e+000	 2.061587335721270e+000	-1.025426338258963e+001
1	 2.229361424908593e+000	 2.086327135191092e+000	-9.532103343145062e+000
1	 2.206187813323257e+000	 2.110817081796956e+000	-8.812260976313372e+000
1	 2.182742308578817e+000	 2.135052580237221e+000	-8.095674497583014e+000
1	 2.159029126085356e+000	 2.159029126085355e+000	-7.383305855361823e+000
1	 2.135052580237221e+000	 2.182742308578817e+000	-6.676138577101750e+000
1	 2.110817081796957e+000	 2.206187813323258e+000	-5.975175572524211e+000
1	 2.086327135191092e+000	 2.229361424908593e+000	-5.281436898793826e+000
1	 2.061587335721269e+000	 2.252259029433597e+000	-4.595957492588208e+000
1	 2.036602366694342e+000	 2.274876616935843e+000	-3.919784874095457e+000
1	 2.294742582895855e+000	 2.054387539301056e+000	-1.089573259599540e+001
1	 2.271927481286673e+000	 2.079590696224573e+000	-1.017068335325490e+001
1	 2.248829917331490e+000	 2.104546542582549e+000	-9.449479928282402e+000
1	 2.225453936010800e+000	 2.129250354169905e+000	-8.732506204535337e+000
1	 2.201803687151573e+000	 2.153697495555299e+000	-8.020161558935373e+000
1	 2.177883422976089e+000	 2.177883422976089e+000	-7.312859734813471e+000
1	 2.153697495555299e+000	 2.201803687151573e+000	-6.611027684823724e+000
1	 2.129250354169905e+000	 2.225453936010800e+000	-5.915104386444398e+000
1	 2.104546542582549e+000	 2.248829917331490e+000	-5.225539632760969e+000
1	 2.079590696224572e+000	 2.271927481286673e+000	-4.542792801288714e+000
1	 2.054387539301056e+000	 2.294742582895855e+000	-3.867331603652449e+000
1	 2.314608548855468e+000	 2.072172711907637e+000	-1.079642094440569e+001
1	 2.291595933139321e+000	 2.097594056727699e+000	-1.007230246051682e+001
1	 2.268298409753951e+000	 2.122765949973781e+000	-9.354536896089467e+000
1	 2.244720058697916e+000	 2.147683626542579e+000	-8.642940961143976e+000
1	 2.220865065723928e+000	 2.172342410873053e+000	-7.937335780174514e+000
1	 2.196737719866457e+000	 2.196737719866457e+000	-7.237546828782607e+000
1	 2.172342410873052e+000	 2.220865065723928e+000	-6.543403859175309e+000
1	 2.147683626542579e+000	 2.244720058697916e+000	-5.854740814845576e+000
1	 2.122765949973781e+000	 2.268298409753950e+000	-5.171395734783564e+000
1	 2.097594056727699e+000	 2.291595933139321e+000	-4.493210647596580e+000
1	 2.072172711907637e+000	 2.314608548855468e+000	-3.820031455942943e+000
1	 2.334474514814633e+000	 2.089957884514068e+000	-1.068021954684828e+001
1	 2.311264384991488e+000	 2.115597417230627e+000	-9.959501052202013e+000
1	 2.287766902175922e+000	 2.140985357364761e+000	-9.247697999643622e+000
1	 2.263986181384554e+000	 2.166116898914944e+000	-8.544022263037803e+000
1	 2.239926444295830e+000	 2.190987326190443e+000	-7.847678328300282e+000
1	 2.215592016756413e+000	 2.215592016756412e+000	-7.157864377184566e+000
1	 2.190987326190444e+000	 2.239926444295831e+000	-6.473773380111013e+000
1	 2.166116898914944e+000	 2.263986181384554e+000	-5.794594195869429e+000
1	 2.140985357364762e+000	 2.287766902175922e+000	-5.119512676009393e+000
1	 2.115597417230626e+000	 2.311264384991489e+000	-4.447712771724285e+000
1	 2.089957884514069e+000	 2.334474514814633e+000	-3.778377641030670e+000
1	 1.912106158445013e+000	 2.135814855208781e+000	-4.385962041223102e+000
1	 1.888419229808245e+000	 2.156786404862220e+000	-3.771241512738967e+000
1	 1.864511085559069e+000	 2.177487746850984e+000	-3.180979393718550e+000
1	 1.840386357549125e+000	 2.197915422274170e+000	-2.615102982861492e+000
1	 1.816049748781705e+000	 2.218066078094255e+000	-2.073509214082475e+000
1	 1.791506030387908e+000	 2.237936468933869e+000	-1.556065546001660e+000
1	 1.766760038549538e+000	 2.257523458769129e+000	-1.062610891891121e+000
1	 1.741816671372895e+000	 2.276824022517764e+000	-5.929565876991607e-001
1	 1.716680885717582e+000	 2.295835247520404e+000	-1.468873956998463e-001
1	 1.691357693984630e+000	 2.314554334913665e+000	 2.758374587518009e-001
1	 1.665852160868179e+000	 2.332978600893775e+000	 6.754832199386873e-001
1	 1.929891331052193e+000	 2.155680821170189e+000	-4.312809507858021e+000
1	 1.905984081952293e+000	 2.176847434590535e+000	-3.686557237977508e+000
1	 1.881853559635735e+000	 2.197741327049500e+000	-3.083408412408076e+000
1	 1.857504439036638e+000	 2.218359007473745e+000	-2.503504396610415e+000
1	 1.832941466902574e+000	 2.238697091637989e+000	-1.946960729806479e+000
1	 1.808169458742604e+000	 2.258752303978484e+000	-1.413867629005775e+000
1	 1.783193295721556e+000	 2.278521479302110e+000	-9.042905276911738e-001
1	 1.758017921504730e+000	 2.298001564389258e+000	-4.182706476304322e-001
1	 1.732648339057221e+000	 2.317189619488917e+000	 4.417439778726434e-002
1	 1.707089607402157e+000	 2.336082819704504e+000	 4.830499703518139e-001
1	 1.681346838342176e+000	 2.354678456269270e+000	 8.983837456891067e-001
1	 1.947676503659357e+000	 2.175546787131546e+000	-4.240824668246595e+000
1	 1.923548934096329e+000	 2.196908464318807e+000	-3.604478363472225e+000
1	 1.899196033712393e+000	 2.217994907247979e+000	-2.989758769297243e+000
1	 1.874622520524149e+000	 2.238802592673292e+000	-2.397039995833136e+000
1	 1.849833185023448e+000	 2.259328105181699e+000	-1.826674706179926e+000
1	 1.824832887097314e+000	 2.279568139023080e+000	-1.278994196675247e+000
1	 1.799626552893600e+000	 2.299519499835069e+000	-7.543085065457599e-001
1	 1.774219171636611e+000	 2.319179106260727e+000	-2.529065563508622e-001
1	 1.748615792396929e+000	 2.338543991457386e+000	 2.249436854517822e-001
1	 1.722821520819784e+000	 2.357611304495278e+000	 6.789950085482993e-001
1	 1.696841515816308e+000	 2.376378311644662e+000	 1.109020740203506e+000
1	 1.965461676266487e+000	 2.195412753092805e+000	-4.170640164023911e+000
1	 1.941113786240340e+000	 2.216969494046992e+000	-3.525623838089257e+000
1	 1.916538507789037e+000	 2.238248487446389e+000	-2.900632554731975e+000
1	 1.891740602011651e+000	 2.259246177872786e+000	-2.296291331732263e+000
1	 1.866724903144321e+000	 2.279959118725377e+000	-1.713207964819979e+000
1	 1.841496315452034e+000	 2.300383974067659e+000	-1.151972646337277e+000
1	 1.816059810065665e+000	 2.320517520368025e+000	-6.131576085755177e-001
1	 1.790420421768526e+000	 2.340356648132197e+000	-9.731679217986548e-002
1	 1.764583245736689e+000	 2.359898363425857e+000	 3.950144600417627e-001
1	 1.738553434237483e+000	 2.379139789286039e+000	 8.633196836268523e-001
1	 1.712336193290541e+000	 2.398078167020021e+000	 1.307101547062951e+000
1	 1.983246848873568e+000	 2.215278719053913e+000	-4.102865943450753e+000
1	 1.958678638384314e+000	 2.237030523775047e+000	-3.450590408491219e+000
1	 1.933880981865654e+000	 2.258502067644693e+000	-2.816610261583845e+000
1	 1.908858683499138e+000	 2.279689763072207e+000	-2.201819094791808e+000
1	 1.883616621265188e+000	 2.300590132269012e+000	-1.607097353695630e+000
1	 1.858159743806755e+000	 2.321199809112224e+000	-1.033311457144340e+000
1	 1.832493067237741e+000	 2.341515540900993e+000	-4.813129374739961e-001
1	 1.806621671900462e+000	 2.361534190003698e+000	 4.806239733162565e-002
1	 1.780550699076482e+000	 2.381252735394371e+000	 5.539952781183788e-001
1	 1.754285347655232e+000	 2.400668274076846e+000	 1.035683764316508e+000
1	 1.727830870764843e+000	 2.419778022395412e+000	 1.492344007674143e+000
1	 2.001032021480582e+000	 2.235144685014823e+000	-4.038090269907157e+000
1	 1.976243490528240e+000	 2.257091553502927e+000	-3.379953605803182e+000
1	 1.951223455942238e+000	 2.278755647842859e+000	-2.738251745041459e+000
1	 1.925976764986603e+000	 2.300133348271529e+000	-2.114164041827416e+000
1	 1.900508339386043e+000	 2.321221145812591e+000	-1.508860634756639e+000
1	 1.874823172161473e+000	 2.342015644156779e+000	-9.235010307977635e-001
1	 1.848926324409820e+000	 2.362513561433990e+000	-3.592327060479923e-001
1	 1.822822922032408e+000	 2.382711731875264e+000	 1.828102741056530e-001
1	 1.796518152416293e+000	 2.402607107362974e+000	 7.015086128399747e-001
1	 1.770017261073006e+000	 2.422196758867754e+000	 1.195759115248472e+000
1	 1.743325548239177e+000	 2.441477877770901e+000	 1.664475994746050e+000
1	 2.018817194087512e+000	 2.255010650975482e+000	-3.976880677078872e+000
1	 1.993808342672107e+000	 2.277152583230591e+000	-3.314268680125335e+000
1	 1.968565930018780e+000	 2.299009228040851e+000	-2.666097131669785e+000
1	 1.943094846474039e+000	 2.320576933470728e+000	-2.033847874034722e+000
1	 1.917400057506879e+000	 2.341852159356104e+000	-1.418997324644129e+000
1	 1.891486600516179e+000	 2.362831479201324e+000	-8.230144878325986e-001
1	 1.865359581581894e+000	 2.383511581967032e+000	-2.473589802358097e-001
1	 1.839024172164352e+000	 2.403889273746924e+000	 3.065209263684952e-001
1	 1.812485605756102e+000	 2.423961479331709e+000	 8.371902409570199e-001
1	 1.785749174490779e+000	 2.443725243658818e+000	 1.343229164149804e+000
1	 1.758820225713511e+000	 2.463177733146556e+000	 1.823234970426139e+000
1	 2.036602366694342e+000	 2.274876616935843e+000	-3.919784874095457e+000
1	 2.011373194815899e+000	 2.297213612957994e+000	-3.254071486080295e+000
1	 1.985908404095269e+000	 2.319262808238634e+000	-2.600667680837270e+000
1	 1.960212927961440e+000	 2.341020518669781e+000	-1.961374069030633e+000
1	 1.934291775627691e+000	 2.362483172899540e+000	-1.337989491350681e+000
1	 1.908150028870870e+000	 2.383647314245862e+000	-7.323084221793473e-001
1	 1.881792838753955e+000	 2.404509602500136e+000	-1.461183841415783e-001
1	 1.855225422296282e+000	 2.425066815618706e+000	 4.188026212770887e-001
1	 1.828453059095894e+000	 2.445315851300618e+000	 9.606886619261069e-001
1	 1.801481087908528e+000	 2.465253728450097e+000	 1.477788396954391e+000
1	 1.774314903187812e+000	 2.484877588522445e+000	 1.968367567588747e+000
1	 2.054387539301056e+000	 2.294742582895855e+000	-3.867331603652451e+000
1	 2.028938046959606e+000	 2.317274642685093e+000	-3.199879322362438e+000
1	 2.003250878171699e+000	 2.339516388436176e+000	-2.542466601398346e+000
1	 1.977331009448800e+000	 2.361464103868666e+000	-1.897228669676266e+000
1	 1.951183493748474e+000	 2.383114186442888e+000	-1.266302509499588e+000
1	 1.924813457225537e+000	 2.404463149290396e+000	-6.518236165319821e-001
1	 1.898226095925993e+000	 2.425507623033317e+000	-5.592276844764874e-002
1	 1.871426672428187e+000	 2.446244357490643e+000	 5.192771911723800e-001
1	 1.844420512435650e+000	 2.466670223269748e+000	 1.071664547197191e+000
1	 1.817213001326227e+000	 2.486782213241644e+000	 1.599141879139263e+000
1	 1.789809580662045e+000	 2.506577443898633e+000	 2.099629192872645e+000
1	 2.072172711907637e+000	 2.314608548855468e+000	-3.820031455942940e+000
1	 2.046502899103217e+000	 2.337335672411845e+000	-3.152191728052851e+000
1	 2.020593352248060e+000	 2.359769968633441e+000	-2.491979826318735e+000
1	 1.994449090936111e+000	 2.381907689067359e+000	-1.841881032277308e+000
1	 1.968075211869222e+000	 2.403745199986136e+000	-1.204385776729398e+000
1	 1.941476885580175e+000	 2.425278984334927e+000	-5.819857208761639e-001
1	 1.914659353098001e+000	 2.446505643566593e+000	 2.283015559396543e-002
1	 1.887627922560051e+000	 2.467421899362762e+000	 6.075794514388793e-001
1	 1.860387965775354e+000	 2.488024595239140e+000	 1.169790217860846e+000
1	 1.832944914743853e+000	 2.508310698033516e+000	 1.707004801710787e+000
1	 1.805304258136177e+000	 2.528277299275187e+000	 2.216783650160937e+000
1	 2.089957884514069e+000	 2.334474514814633e+000	-3.778377641030668e+000
1	 2.064067751246718e+000	 2.357396702138207e+000	-3.111491238275213e+000
1	 2.037935826324343e+000	 2.380023548830395e+000	-2.449676747749299e+000
1	 2.011567172423368e+000	 2.402351274265837e+000	-1.795784536582587e+000
1	 1.984966929989930e+000	 2.424376213529276e+000	-1.152673393500454e+000
1	 1.958140313934778e+000	 2.446094819379461e+000	-5.232058963727411e-001
1	 1.931092610269970e+000	 2.467503664099979e+000	 8.975621454139691e-002
1	 1.903829172691866e+000	 2.488599441235097e+000	 6.833566480873727e-001
1	 1.876355419114987e+000	 2.509378967208838e+000	 1.254749148966267e+000
1	 1.848676828161380e+000	 2.529839182825770e+000	 1.801102050372473e+000
1	 1.820798935610176e+000	 2.549977154652176e+000	 2.319602783285815e+000
1	 1.665852160868179e+000	 2.332978600893775e+000	 6.754832199386873e-001
1	 1.640169399520067e+000	 2.351105477207141e+000	 1.042804657984107e+000
1	 1.614314566612346e+000	 2.368932510188156e+000	 1.368556645898709e+000
1	 1.588292860734558e+000	 2.386457363650868e+000	 1.653027033578267e+000
1	 1.562109519609820e+000	 2.403677820370209e+000	 1.896509707315888e+000
1	 1.535769816732273e+000	 2.420591782792370e+000	 2.099304219325663e+000
1	 1.509279057994052e+000	 2.437197273632522e+000	 2.261715425675283e+000
1	 1.482642578306111e+000	 2.453492436359996e+000	 2.384053133122516e+000
1	 1.455865738217200e+000	 2.469475535571230e+000	 2.466631755311133e+000
1	 1.428953920535294e+000	 2.485144957250983e+000	 2.509769978742811e+000
1	 1.401912526955667e+000	 2.500499208922499e+000	 2.513790438900421e+000
1	 1.681346838342176e+000	 2.354678456269270e+000	 8.983837456891067e-001
1	 1.655425192588333e+000	 2.372973937041403e+000	 1.280599472380174e+000
1	 1.629329874776701e+000	 2.390966785532879e+000	 1.620579226676557e+000
1	 1.603066131850734e+000	 2.408654643828039e+000	 1.919061271138571e+000
1	 1.576639250251452e+000	 2.426035274078607e+000	 2.176791900879436e+000
1	 1.550054552523622e+000	 2.443106559220670e+000	 2.394524210555473e+000
1	 1.523317393911349e+000	 2.459866503577958e+000	 2.573016875250300e+000
1	 1.496433158947471e+000	 2.476313233351541e+000	 2.713032947508921e+000
1	 1.469407258041088e+000	 2.492444996996238e+000	 2.815338672701174e+000
1	 1.442245124067568e+000	 2.508260165484270e+000	 2.880702324811149e+000
1	 1.414952208965249e+000	 2.523757232456807e+000	 2.909893064662652e+000
1	 1.696841515816308e+000	 2.376378311644662e+000	 1.109020740203506e+000
1	 1.670680985656779e+000	 2.394842396875518e+000	 1.505160013897677e+000
1	 1.644345182941285e+000	 2.413001060877398e+000	 1.858439813265629e+000
1	 1.617839402967188e+000	 2.430851924004947e+000	 2.169989450728033e+000
1	 1.591168980893409e+000	 2.448392727786678e+000	 2.440948565258329e+000
1	 1.564339288315340e+000	 2.465621335648581e+000	 2.672465122633183e+000
1	 1.537355729829050e+000	 2.482535733522948e+000	 2.865693433570866e+000
1	 1.510223739589258e+000	 2.499134030342586e+000	 3.021792193593411e+000
1	 1.482948777865412e+000	 2.515414458420706e+000	 3.141922548339680e+000
1	 1.455536327600267e+000	 2.531375373716986e+000	 3.227246187940301e+000
1	 1.427991890975229e+000	 2.547015255990533e+000	 3.278923473937222e+000
1	 1.712336193290541e+000	 2.398078167020021e+000	 1.307101547062951e+000
1	 1.685936778725359e+000	 2.416710856709561e+000	 1.716256388980125e+000
1	 1.659360491106039e+000	 2.435035336221800e+000	 2.081970003633023e+000
1	 1.632612674083848e+000	 2.453049204181680e+000	 2.405705028348370e+000
1	 1.605698711535610e+000	 2.470750181494515e+000	 2.688937013329651e+000
1	 1.578624024107333e+000	 2.488136112076197e+000	 2.933151749359310e+000
1	 1.551394065747053e+000	 2.505204963467584e+000	 3.139842615910974e+000
1	 1.524014320231365e+000	 2.521954827333227e+000	 3.310507954910869e+000
1	 1.496490297690064e+000	 2.538383919844724e+000	 3.446648475252259e+000
1	 1.468827531133287e+000	 2.554490581949219e+000	 3.549764693020811e+000
1	 1.441031572985507e+000	 2.570273279523760e+000	 3.621354412228902e+000
1	 1.727830870764843e+000	 2.419778022395412e+000	 1.492344007674143e+000
1	 1.701192571794027e+000	 2.438579316543607e+000	 1.913666950541087e+000
1	 1.674375799270905e+000	 2.457069611566164e+000	 2.291007436464769e+000
1	 1.647385945200647e+000	 2.475246484358327e+000	 2.626105281821345e+000
1	 1.620228442177975e+000	 2.493107635202212e+000	 2.920716089192027e+000
1	 1.592908759899511e+000	 2.510650888503613e+000	 3.176607995159928e+000
1	 1.565432401665257e+000	 2.527874193411962e+000	 3.395558439591024e+000
1	 1.537804900873685e+000	 2.544775624323555e+000	 3.579350962863818e+000
1	 1.510031817514932e+000	 2.561353381268382e+000	 3.729772037359485e+000
1	 1.482118734666520e+000	 2.577605790181060e+000	 3.848607939354609e+000
1	 1.454071254995983e+000	 2.593531303056567e+000	 3.937641667272547e+000
1	 1.743325548239177e+000	 2.441477877770901e+000	 1.664475994746050e+000
1	 1.716448364862740e+000	 2.460447776377734e+000	 2.097177931491314e+000
1	 1.689391107435829e+000	 2.479103886910575e+000	 2.485395522715930e+000
1	 1.662159216317515e+000	 2.497443764534976e+000	 2.831091140947379e+000
1	 1.634758172820419e+000	 2.515465088909857e+000	 3.136246100118215e+000
1	 1.607193495691781e+000	 2.533165664930923e+000	 3.402856914610331e+000
1	 1.579470737583563e+000	 2.550543423356175e+000	 3.632931579427026e+000
1	 1.551595481516112e+000	 2.567596421313664e+000	 3.828485879011155e+000
1	 1.523573337339909e+000	 2.584322842691774e+000	 3.991539732061536e+000
1	 1.495409938199861e+000	 2.600720998412591e+000	 4.124113579512386e+000
1	 1.467110937006559e+000	 2.616789326589043e+000	 4.228224822636464e+000
1	 1.758820225713511e+000	 2.463177733146556e+000	 1.823234970426139e+000
1	 1.731704157931453e+000	 2.482316236212016e+000	 2.266583097636608e+000
1	 1.704406415600752e+000	 2.501138162255115e+000	 2.664983191351132e+000
1	 1.676932487434383e+000	 2.519641044711714e+000	 3.020567026641291e+000
1	 1.649287903462864e+000	 2.537822542617543e+000	 3.335488752104723e+000
1	 1.621478231484051e+000	 2.555680441358218e+000	 3.611920749869968e+000
1	 1.593509073501868e+000	 2.573212653300319e+000	 3.852049514962929e+000
1	 1.565386062158539e+000	 2.590417218303647e+000	 4.058071562435884e+000
1	 1.537114857164887e+000	 2.607292304114989e+000	 4.232189370485894e+000
1	 1.508701141733201e+000	 2.623836206643904e+000	 4.376607367593290e+000
1	 1.480150619017134e+000	 2.640047350121267e+000	 4.493527971491764e+000
1	 1.774314903187812e+000	 2.484877588522445e+000	 1.968367567588747e+000
1	 1.746959951000122e+000	 2.504184696046531e+000	 2.421683418762852e+000
1	 1.719421723765620e+000	 2.523172437599867e+000	 2.829624648407117e+000
1	 1.691705758551183e+000	 2.541838324888631e+000	 3.194440698497052e+000
1	 1.663817634105228e+000	 2.560179996325362e+000	 3.518407088798012e+000
1	 1.635762967276229e+000	 2.578195217785595e+000	 3.803820966155497e+000
1	 1.607547409420072e+000	 2.595881883244487e+000	 4.052996669988662e+000
1	 1.579176642800859e+000	 2.613238015293599e+000	 4.268261323103388e+000
1	 1.550656376989755e+000	 2.630261765538118e+000	 4.451950456763357e+000
1	 1.521992345266434e+000	 2.646951414875085e+000	 4.606403678758223e+000
1	 1.493190301027610e+000	 2.663305373653324e+000	 4.733960392982449e+000
1	 1.789809580662045e+000	 2.506577443898633e+000	 2.099629192872645e+000
1	 1.762215744068701e+000	 2.526053155881353e+000	 2.562286756805781e+000
1	 1.734437031930373e+000	 2.545206712944916e+000	 2.979179148570271e+000
1	 1.706479029667844e+000	 2.564035605065815e+000	 3.352623110270174e+000
1	 1.678347364747429e+000	 2.582537450033407e+000	 3.684965433593516e+000
1	 1.650047703068223e+000	 2.600709994213145e+000	 3.978578285371672e+000
1	 1.621585745338075e+000	 2.618551113188773e+000	 4.235854544810906e+000
1	 1.592967223442966e+000	 2.636058812283610e+000	 4.459203162059816e+000
1	 1.564197896814406e+000	 2.653231226961252e+000	 4.651044547603390e+000
1	 1.535283548799454e+000	 2.670066623106221e+000	 4.813806001776348e+000
1	 1.506229983037888e+000	 2.686563397185296e+000	 4.949917193462938e+000
1	 1.805304258136177e+000	 2.528277299275187e+000	 2.216783650160937e+000
1	 1.777471537137146e+000	 2.547921615716559e+000	 2.688207570079179e+000
1	 1.749452340094956e+000	 2.567240988290342e+000	 3.113510778517492e+000
1	 1.721252300784296e+000	 2.586232885243353e+000	 3.495028272802781e+000
1	 1.692877095389386e+000	 2.604894903741769e+000	 3.835129334715970e+000
1	 1.664332438859940e+000	 2.623224770640964e+000	 4.136212718010063e+000
1	 1.635624081255775e+000	 2.641220343133271e+000	 4.400701841712608e+000
1	 1.606757804084753e+000	 2.658879609273776e+000	 4.631039999260671e+000
1	 1.577739416638730e+000	 2.676200688384482e+000	 4.829685593352313e+000
1	 1.548574752332153e+000	 2.693181831337400e+000	 4.999107406207368e+000
1	 1.519269665047867e+000	 2.709821420717266e+000	 5.141779914713645e+000
1	 1.820798935610176e+000	 2.549977154652176e+000	 2.319602783285815e+000
1	 1.792727330205413e+000	 2.569790075552224e+000	 2.799266632604822e+000
1	 1.764467648259313e+000	 2.589275263636230e+000	 3.232488251319177e+000
1	 1.736025571900472e+000	 2.608430165421335e+000	 3.621573123947095e+000
1	 1.707406826031018e+000	 2.627252357450538e+000	 3.968865513104247e+000
1	 1.678617174651289e+000	 2.645739547069144e+000	 4.276743593419139e+000
1	 1.649662417173072e+000	 2.663889573078078e+000	 4.547614584006281e+000
1	 1.620548384726113e+000	 2.681700406264190e+000	 4.783909889766878e+000
1	 1.591280936462618e+000	 2.699170149807902e+000	 4.988080261637406e+000
1	 1.561865955864427e+000	 2.716297039568712e+000	 5.162590985729739e+000
1	 1.532309347057451e+000	 2.733079444249318e+000	 5.309917111101738e+000
1	 1.401912526955667e+000	 2.500499208922499e+000	 2.513790438900421e+000
1	 1.374751058621742e+000	 2.515534688282688e+000	 2.478474008646873e+000
1	 1.347470897317242e+000	 2.530252474887798e+000	 2.400270441198407e+000
1	 1.320077480299228e+000	 2.544651443212336e+000	 2.274570970888375e+000
1	 1.292576250311316e+000	 2.558730588716131e+000	 2.096845278886227e+000
1	 1.264972652307893e+000	 2.572489027453051e+000	 1.862646794371048e+000
1	 1.237272130208986e+000	 2.585925995576417e+000	 1.567617805286218e+000
1	 1.209480123689433e+000	 2.599040848742956e+000	 1.207494371372996e+000
1	 1.181602065005949e+000	 2.611833061417270e+000	 7.781110327595547e-001
1	 1.153643375865511e+000	 2.624302226078947e+000	 2.754053079731826e-001
1	 1.125609464338406e+000	 2.636448052334516e+000	-3.045780241626724e-001
1	 1.414952208965249e+000	 2.523757232456807e+000	 2.909893064662652e+000
1	 1.387538102251041e+000	 2.538932562104462e+000	 2.903328162999867e+000
1	 1.360004198561121e+000	 2.553787244024815e+000	 2.857377439848934e+000
1	 1.332355985726399e+000	 2.568320142223472e+000	 2.766793678579697e+000
1	 1.304598957115369e+000	 2.582530242816688e+000	 2.626414801645873e+000
1	 1.276738608327862e+000	 2.596416653636446e+000	 2.431170254145632e+000
1	 1.248780433919723e+000	 2.609978603731262e+000	 2.176087167871363e+000
1	 1.220729924162126e+000	 2.623215442764610e+000	 1.856296296786695e+000
1	 1.192592561839122e+000	 2.636126640312910e+000	 1.467037715554851e+000
1	 1.164373819086900e+000	 2.648711785065263e+000	 1.003666273440251e+000
1	 1.136079154278112e+000	 2.660970583927155e+000	 4.616567966132203e-001
1	 1.427991890975229e+000	 2.547015255990533e+000	 3.278923473937222e+000
1	 1.400325145880683e+000	 2.562330435925657e+000	 3.298005404350024e+000
1	 1.372537499805272e+000	 2.577322013161275e+000	 3.280899158373639e+000
1	 1.344634491153757e+000	 2.591988841234090e+000	 3.221844946550267e+000
1	 1.316621663919515e+000	 2.606329896916777e+000	 3.115173670819841e+000
1	 1.288504564347824e+000	 2.620344279819433e+000	 2.955314198425652e+000
1	 1.260288737630354e+000	 2.634031211885770e+000	 2.736800392045955e+000
1	 1.231979724634620e+000	 2.647390036786003e+000	 2.454277885641226e+000
1	 1.203583058672014e+000	 2.660420219208370e+000	 2.102510596279855e+000
1	 1.175104262307936e+000	 2.673121344051484e+000	 1.676386962995267e+000
1	 1.146548844217417e+000	 2.685493115519782e+000	 1.170925904527152e+000
1	 1.441031572985507e+000	 2.570273279523760e+000	 3.621354412228898e+000
1	 1.413112189510584e+000	 2.585728309746352e+000	 3.663093472147739e+000
1	 1.385070801049629e+000	 2.600856782297251e+000	 3.671534259312494e+000
1	 1.356912996581255e+000	 2.615657540244252e+000	 3.640526966423638e+000
1	 1.328644370723730e+000	 2.630129551016453e+000	 3.564016916063080e+000
1	 1.300270520367781e+000	 2.644271906002056e+000	 3.436052535908685e+000
1	 1.271797041340905e+000	 2.658083820039974e+000	 3.250793070668207e+000
1	 1.243229525106963e+000	 2.671564630807158e+000	 3.002516019078747e+000
1	 1.214573555504692e+000	 2.684713798103659e+000	 2.685624285163823e+000
1	 1.185834705528708e+000	 2.697530903037604e+000	 2.294653033801561e+000
1	 1.157018534156420e+000	 2.710015647112380e+000	 1.824276241533031e+000
1	 1.454071254995983e+000	 2.593531303056567e+000	 3.937641667272547e+000
1	 1.425899233140657e+000	 2.609126183566624e+000	 3.999159023146429e+000
1	 1.397604102294122e+000	 2.624391551432815e+000	 4.029956343606333e+000
1	 1.369191502008848e+000	 2.639326239254022e+000	 4.023613154551372e+000
1	 1.340667077527991e+000	 2.653929205115769e+000	 3.973807461582370e+000
1	 1.312036476387733e+000	 2.668199532184362e+000	 3.874324240388482e+000
1	 1.283305345051404e+000	 2.682136428193909e+000	 3.719063649031039e+000
1	 1.254479325579208e+000	 2.695739224828096e+000	 3.502048949631715e+000
1	 1.225564052337228e+000	 2.709007376998789e+000	 3.217434127869436e+000
1	 1.196565148749303e+000	 2.721940462023622e+000	 2.859511199609524e+000
1	 1.167488224095222e+000	 2.734538178704933e+000	 2.422717194917989e+000
1	 1.467110937006559e+000	 2.616789326589043e+000	 4.228224822636467e+000
1	 1.438686276770817e+000	 2.632524057386552e+000	 4.306748568317659e+000
1	 1.410137403538683e+000	 2.647926320568034e+000	 4.356815064334481e+000
1	 1.381470007436487e+000	 2.662994938263464e+000	 4.371849430785996e+000
1	 1.352689784332277e+000	 2.677728859214781e+000	 4.345377552902416e+000
1	 1.323802432407685e+000	 2.692127158366396e+000	 4.271034903261783e+000
1	 1.294813648761876e+000	 2.706189036347608e+000	 4.142575075699869e+000
1	 1.265729126051403e+000	 2.719913818848843e+000	 3.953878017878097e+000
1	 1.236554549169694e+000	 2.733300955893768e+000	 3.698957950410096e+000
1	 1.207295591969811e+000	 2.746350021009535e+000	 3.371970961401987e+000
1	 1.177957914033923e+000	 2.759060710297422e+000	 2.967222266231800e+000
1	 1.480150619017134e+000	 2.640047350121267e+000	 4.493527971491761e+000
1	 1.451473320400976e+000	 2.655921931206211e+000	 4.586389360242542e+000
1	 1.422670704783244e+000	 2.671461089702981e+000	 4.652737181581927e+000
1	 1.393748512864127e+000	 2.686663637272641e+000	 4.685955429660575e+000
1	 1.364712491136561e+000	 2.701528513313543e+000	 4.679530108215579e+000
1	 1.335568388427636e+000	 2.716054784548201e+000	 4.627058203972887e+000
1	 1.306321952472348e+000	 2.730241644501108e+000	 4.522256366089992e+000
1	 1.276978926523597e+000	 2.744088412869419e+000	 4.358969278357622e+000
1	 1.247545046002160e+000	 2.757594534788612e+000	 4.131177711833883e+000
1	 1.218026035190319e+000	 2.770759579995338e+000	 3.833006246560552e+000
1	 1.188427603972625e+000	 2.783583241889828e+000	 3.458730651999770e+000
1	 1.493190301027610e+000	 2.663305373653324e+000	 4.733960392982451e+000
1	 1.464260364031049e+000	 2.679319805025680e+000	 4.838590234006988e+000
1	 1.435204006027738e+000	 2.694995858837727e+000	 4.918327562035389e+000
1	 1.406027018291719e+000	 2.710332336281614e+000	 4.966625648106355e+000
1	 1.376735197940822e+000	 2.725328167412109e+000	 4.977039998925577e+000
1	 1.347334344447589e+000	 2.739982410729826e+000	 4.943237303411562e+000
1	 1.317830256182847e+000	 2.754294252654444e+000	 4.859004084117986e+000
1	 1.288228726995841e+000	 2.768263006889848e+000	 4.718255040295113e+000
1	 1.258535542834697e+000	 2.781888113683325e+000	 4.515041070312828e+000
1	 1.228756478410915e+000	 2.795169138981031e+000	 4.243556962145413e+000
1	 1.198897293911427e+000	 2.808105773482135e+000	 3.898148741611378e+000
1	 1.506229983037888e+000	 2.686563397185296e+000	 4.949917193462940e+000
1	 1.477047407660950e+000	 2.702717678845036e+000	 5.063842404418305e+000
1	 1.447737307272094e+000	 2.718530627972343e+000	 5.154170126657081e+000
1	 1.418305523719217e+000	 2.734001035290450e+000	 5.214530533554830e+000
1	 1.388757904745038e+000	 2.749127821510537e+000	 5.238655263675925e+000
1	 1.359100300467546e+000	 2.763910036911314e+000	 5.220386164933990e+000
1	 1.329338559893399e+000	 2.778346860807648e+000	 5.153683746891494e+000
1	 1.299478527468185e+000	 2.792437600910155e+000	 5.032635328294526e+000
1	 1.269526039667374e+000	 2.806181692577922e+000	 4.851462867884512e+000
1	 1.239486921631686e+000	 2.819578697966607e+000	 4.604530467493027e+000
1	 1.209366983850430e+000	 2.832628305074326e+000	 4.286351537404603e+000
1	 1.519269665047867e+000	 2.709821420717266e+000	 5.141779914713644e+000
1	 1.489834451290593e+000	 2.726115552664356e+000	 5.262620222167271e+000
1	 1.460270608516245e+000	 2.742065397106899e+000	 5.360828749556178e+000
1	 1.430584029146575e+000	 2.757669734299212e+000	 5.430317516005305e+000
1	 1.400780611549183e+000	 2.772927475608878e+000	 5.465098259859401e+000
1	 1.370866256487507e+000	 2.787837663092711e+000	 5.459290807354744e+000
1	 1.340846863604030e+000	 2.802399468960756e+000	 5.407131157061688e+000
1	 1.310728327940679e+000	 2.816612194930360e+000	 5.302979267811022e+000
1	 1.280516536500265e+000	 2.830475271472410e+000	 5.141326538733862e+000
1	 1.250217364852722e+000	 2.843988256952066e+000	 4.916802970979195e+000
1	 1.219836673789734e+000	 2.857150836666380e+000	 4.624184001619388e+000
1	 1.532309347057451e+000	 2.733079444249318e+000	 5.309917111101736e+000
1	 1.502621494919892e+000	 2.749513426483720e+000	 5.435381891381624e+000
1	 1.472803909760124e+000	 2.765600166241469e+000	 5.538848110964691e+000
1	 1.442862534573746e+000	 2.781338433307961e+000	 5.614611987396520e+000
1	 1.412803318353237e+000	 2.796727129707190e+000	 5.657066756332573e+000
1	 1.382632212507476e+000	 2.811765289274062e+000	 5.660710493962379e+000
1	 1.352355167314767e+000	 2.826452077113804e+000	 5.620153667147148e+000
1	 1.321978128413372e+000	 2.840786788950489e+000	 5.530126399882505e+000
1	 1.291507033333439e+000	 2.854768850366804e+000	 5.385485445569675e+000
1	 1.260947808074111e+000	 2.868397815937405e+000	 5.181220855465052e+000
1	 1.230306363729441e+000	 2.881673368258283e+000	 4.912462334577435e+000
1	 1.125609464338406e+000	 2.636448052334516e+000	-3.045780241626724e-001
1	 1.097501501095708e+000	 2.648272115530094e+000	-9.670466085389082e-001
1	 1.069329061409152e+000	 2.659772511872570e+000	-1.716231390088690e+000
1	 1.041097498112028e+000	 2.670949298215834e+000	-2.554768385607467e+000
1	 1.012812138484053e+000	 2.681802644152406e+000	-3.485224883406418e+000
1	 9.844782814308749e-001	 2.692332830683794e+000	-4.510097363660436e+000
1	 9.561011947256430e-001	 2.702540248811464e+000	-5.631809539488265e+000
1	 9.276861123150281e-001	 2.712425398051369e+000	-6.852710520347727e+000
1	 8.992382316919289e-001	 2.721988884875083e+000	-8.175073099032451e+000
1	 8.707627113369547e-001	 2.731231421080581e+000	-9.601092163257457e+000
1	 8.422646682306207e-001	 2.740153822095873e+000	-1.113288323253265e+001
1	 1.136079154278112e+000	 2.660970583927155e+000	 4.616567966132203e-001
1	 1.107709748972663e+000	 2.672904626897555e+000	-1.651388041636156e-001
1	 1.079275267505267e+000	 2.684511992475504e+000	-8.815148812611894e-001
1	 1.050781112497805e+000	 2.695792738043705e+000	-1.690083768438535e+000
1	 1.022232660780904e+000	 2.706747034772115e+000	-2.593387339327441e+000
1	 9.936352605472041e-001	 2.717375166275937e+000	-3.593894946931173e+000
1	 9.649942285672726e-001	 2.727677527193472e+000	-4.694001486034793e+000
1	 9.363148474705654e-001	 2.737654621686848e+000	-5.896025580051268e+000
1	 9.076023630936984e-001	 2.747307061868639e+000	-7.202207893527371e+000
1	 8.788619818981297e-001	 2.756635566157504e+000	-8.614709571231312e+000
1	 8.500988684592170e-001	 2.765640957566034e+000	-1.013561080445212e+001
1	 1.146548844217417e+000	 2.685493115519782e+000	 1.170925904527152e+000
1	 1.117917996849190e+000	 2.697537138265089e+000	 5.790504470537351e-001
1	 1.089221473600947e+000	 2.709251473078593e+000	-1.046863814494596e-001
1	 1.060464726883158e+000	 2.720636177871812e+000	-8.829126882179328e-001
1	 1.031653183077356e+000	 2.731691425392141e+000	-1.758184483344291e+000
1	 1.002792239663169e+000	 2.742417501868468e+000	-2.732983571681893e+000
1	 9.738872624085796e-001	 2.752814805575940e+000	-3.809715571084969e+000
1	 9.449435826258267e-001	 2.762883845322851e+000	-4.990708058557488e+000
1	 9.159664944952384e-001	 2.772625238862780e+000	-6.278208845571872e+000
1	 8.869612524591194e-001	 2.782039711235068e+000	-7.674384383507846e+000
1	 8.579330686876658e-001	 2.791128093036881e+000	-9.181318299859854e+000
1	 1.157018534156420e+000	 2.710015647112380e+000	 1.824276241533029e+000
1	 1.128126244725395e+000	 2.722169649632665e+000	 1.266508703787908e+000
1	 1.099167679696300e+000	 2.733990953681790e+000	 6.151734322885434e-001
1	 1.070148341268192e+000	 2.745479617700091e+000	-1.324119000450589e-001
1	 1.041073705373506e+000	 2.756635816012397e+000	-9.788559833153170e-001
1	 1.011949218778857e+000	 2.767459837461291e+000	-1.926691649149399e+000
1	 9.827802962496399e-001	 2.777952083958754e+000	-2.978373780191473e+000
1	 9.535723177808729e-001	 2.788113068959254e+000	-4.136277352307794e+000
1	 9.243306258965952e-001	 2.797943415857371e+000	-5.402695610902216e+000
1	 8.950605230199542e-001	 2.807443856313125e+000	-6.779838382413284e+000
1	 8.657672689159829e-001	 2.816615228508264e+000	-8.269830521748027e+000
1	 1.167488224095222e+000	 2.734538178704933e+000	 2.422717194917989e+000
1	 1.138334492601386e+000	 2.746802161000247e+000	 1.898188100173542e+000
1	 1.109113885791435e+000	 2.758730434285045e+000	 1.278950906026226e+000
1	 1.079831955653012e+000	 2.770323057528476e+000	 5.622315930933056e-001
1	 1.050494227669453e+000	 2.781580206632806e+000	-2.546687808378226e-001
1	 1.021106197894358e+000	 2.792502173054308e+000	-1.174371681012003e+000
1	 9.916733300905299e-001	 2.803089362341805e+000	-2.199418832761309e+000
1	 9.622010529357666e-001	 2.813342292595933e+000	-3.332270097389556e+000
1	 9.326947572978148e-001	 2.823261592852275e+000	-4.575301488517283e+000
1	 9.031597935806648e-001	 2.832848001391535e+000	-5.930803330172125e+000
1	 8.736014691441837e-001	 2.842102363980035e+000	-7.400978557570650e+000
1	 1.177957914033923e+000	 2.759060710297422e+000	 2.967222266231798e+000
1	 1.148542740477269e+000	 2.771434672367803e+000	 2.475006920071774e+000
1	 1.119060091886461e+000	 2.783469914888308e+000	 1.887500874460472e+000
1	 1.089515570037725e+000	 2.795166497356900e+000	 1.201801884539480e+000
1	 1.059914749965296e+000	 2.806524597253285e+000	 4.150841207971937e-001
1	 1.030263177009759e+000	 2.817544508647425e+000	-4.753991888099204e-001
1	 1.000566363931325e+000	 2.828226640724981e+000	-1.472313260642840e+000
1	 9.708297880905690e-001	 2.838571516232765e+000	-2.578239403405685e+000
1	 9.410588886989444e-001	 2.848579769847359e+000	-3.795672814371775e+000
1	 9.112590641412821e-001	 2.858252146470149e+000	-5.127020525399656e+000
1	 8.814356693722830e-001	 2.867589499452040e+000	-6.574599499962211e+000
1	 1.188427603972625e+000	 2.783583241889828e+000	 3.458730651999770e+000
1	 1.158750988353152e+000	 2.796067183735299e+000	 2.997851088124058e+000
1	 1.129006297981487e+000	 2.808209395491530e+000	 2.441648048940385e+000
1	 1.099199184422435e+000	 2.820009937185299e+000	 1.787055437127996e+000
1	 1.069335272261134e+000	 2.831468987873751e+000	 1.031084804583463e+000
1	 1.039420156125150e+000	 2.842586844240541e+000	 1.708283000451654e-001
1	 1.009459397772102e+000	 2.853363919108170e+000	-7.965385354174469e-001
1	 9.794585232453414e-001	 2.863800739869622e+000	-1.873754127841042e+000
1	 9.494230201000294e-001	 2.873897946842485e+000	-3.063468387117686e+000
1	 9.193583347018369e-001	 2.883656291548827e+000	-4.368240383038675e+000
1	 8.892698696002970e-001	 2.893076634924131e+000	-5.790536182218157e+000
1	 1.198897293911427e+000	 2.808105773482135e+000	 3.898148741611378e+000
1	 1.168959236229143e+000	 2.820699695102704e+000	 3.467575582679709e+000
1	 1.138952504076620e+000	 2.832948876094660e+000	 2.942188332768355e+000
1	 1.108882798807248e+000	 2.844853377013607e+000	 2.318722289639974e+000
1	 1.078755794557065e+000	 2.856413378494124e+000	 1.593991527628064e+000
1	 1.048577135240618e+000	 2.867629179833561e+000	 7.648922131309129e-001
1	 1.018352431612936e+000	 2.878501197491262e+000	-1.715942414178222e-001
1	 9.880872584001462e-001	 2.889029963506384e+000	-1.218398188449315e+000
1	 9.577871515011172e-001	 2.899216123837520e+000	-2.378358923935192e+000
1	 9.274576052623599e-001	 2.909060436627422e+000	-3.654222036305296e+000
1	 8.971040698282408e-001	 2.918563770396158e+000	-5.048636927635667e+000
1	 1.209366983850430e+000	 2.832628305074326e+000	 4.286351537404605e+000
1	 1.179167484105347e+000	 2.845332206469981e+000	 3.885005775331734e+000
1	 1.148898710171969e+000	 2.857688356697653e+000	 3.389890068180242e+000
1	 1.118566413192270e+000	 2.869696816841759e+000	 2.797507200589947e+000
1	 1.088176316853187e+000	 2.881357769114321e+000	 2.104439752474760e+000
1	 1.057734114356251e+000	 2.892671515426387e+000	 1.307353843965356e+000
1	 1.027245465453903e+000	 2.903638475874144e+000	 4.030027082973324e-001
1	 9.967159935550445e-001	 2.914259187142925e+000	-6.117699113565571e-001
1	 9.661512829022537e-001	 2.924534300832329e+000	-1.740026544628872e+000
1	 9.355568758228816e-001	 2.934464581705792e+000	-2.984732959311041e+000
1	 9.049382700561295e-001	 2.944050905867970e+000	-4.348755311874180e+000
1	 1.219836673789734e+000	 2.857150836666380e+000	 4.624184001619388e+000
1	 1.189375731981873e+000	 2.869964717837100e+000	 4.250938701470632e+000
1	 1.158844916267644e+000	 2.882427837300455e+000	 3.785495219109667e+000
1	 1.128250027577606e+000	 2.894540256669687e+000	 3.224090733111357e+000
1	 1.097596839149599e+000	 2.906302159734262e+000	 2.563043125317144e+000
1	 1.066891093472140e+000	 2.917713851018923e+000	 1.798755216046256e+000
1	 1.036138499295079e+000	 2.928775754256705e+000	 9.277188155941870e-001
1	 1.005344728710099e+000	 2.939488410779119e+000	-5.348141273567840e-002
1	 9.745154143034851e-001	 2.949852477826773e+000	-1.148164282291862e+000
1	 9.436561463834331e-001	 2.959868726783791e+000	-2.359548609119108e+000
1	 9.127724702839787e-001	 2.969538041339417e+000	-3.690749937553911e+000
1	 1.230306363729441e+000	 2.881673368258283e+000	 4.912462334577435e+000
1	 1.199583979858828e+000	 2.894597229204027e+000	 4.566144265964801e+000
1	 1.168791122363753e+000	 2.907167317903020e+000	 4.129720493561665e+000
1	 1.137933641963362e+000	 2.919383696497329e+000	 3.599130284448923e+000
1	 1.107017361446401e+000	 2.931246550353865e+000	 2.970394404265289e+000
1	 1.076048072588372e+000	 2.942756186611073e+000	 2.239619902773763e+000
1	 1.045031533136541e+000	 2.953913032638836e+000	 1.403004702944179e+000
1	 1.013973463865370e+000	 2.964717634414845e+000	 4.568419879479779e-001
1	 9.828795457048584e-001	 2.975170654820722e+000	-6.024756189549539e-001
1	 9.517554169440449e-001	 2.985272871861279e+000	-1.778452086076635e+000
1	 9.206066705118042e-001	 2.995025176810348e+000	-3.074484220362870e+000
1	 8.422646682306207e-001	 2.740153822095873e+000	-1.113288323253265e+001
1	 8.137491750310451e-001	 2.748757004534392e+000	-1.277404576857874e+001
1	 7.852212565530335e-001	 2.757041982326296e+000	-1.453262849496443e+001
1	 7.566858887956514e-001	 2.765009866903514e+000	-1.641725967328698e+001
1	 7.281479971706540e-001	 2.772661865956894e+000	-1.843642421348044e+001
1	 6.996124543915533e-001	 2.779999281457081e+000	-2.059845286617625e+001
1	 6.710840784416883e-001	 2.787023507627656e+000	-2.291151186408060e+001
1	 6.425676306221918e-001	 2.793736028873866e+000	-2.538359302248708e+001
1	 6.140678136806004e-001	 2.800138417670240e+000	-2.802250430772117e+001
1	 5.855892700207175e-001	 2.806232332410390e+000	-3.083586088101017e+001
1	 5.571365799941845e-001	 2.812019515222284e+000	-3.383107662397723e+001
1	 8.500988684592170e-001	 2.765640957566034e+000	-1.013561080445212e+001
1	 8.213181426176583e-001	 2.774324161233401e+000	-1.176884411054825e+001
1	 7.925248759258222e-001	 2.782686200520694e+000	-1.352294425881066e+001
1	 7.637240906662782e-001	 2.790728197197665e+000	-1.540672734758588e+001
1	 7.349207580637582e-001	 2.798451370188332e+000	-1.742885894954992e+001
1	 7.061197961545841e-001	 2.805857033573426e+000	-1.959784293718837e+001
1	 6.773260677358410e-001	 2.812946594544702e+000	-2.192201077872354e+001
1	 6.485443783951879e-001	 2.819721551314391e+000	-2.440951131484652e+001
1	 6.197794746220587e-001	 2.826183490983165e+000	-2.706830102523481e+001
1	 5.910360420008765e-001	 2.832334087369945e+000	-2.990613479246785e+001
1	 5.623187034867332e-001	 2.838175098806854e+000	-3.293055716961005e+001
1	 8.579330686876658e-001	 2.791128093036881e+000	-9.181318299859854e+000
1	 8.288871102041550e-001	 2.799891317933140e+000	-1.080326560406289e+001
1	 7.998284952985155e-001	 2.808330418715853e+000	-1.254914525281541e+001
1	 7.707622925368254e-001	 2.816446527492603e+000	-1.442786309843078e+001
1	 7.416935189567913e-001	 2.824240874420564e+000	-1.644816787731501e+001
1	 7.126271379175478e-001	 2.831714785690565e+000	-1.861863982203766e+001
1	 6.835680570299277e-001	 2.838869681462531e+000	-2.094767976087065e+001
1	 6.545211261681154e-001	 2.845707073755670e+000	-2.344349871520473e+001
1	 6.254911355634437e-001	 2.852228564296800e+000	-2.611410800382657e+001
1	 5.964828139809565e-001	 2.858435842330152e+000	-2.896730986163722e+001
1	 5.675008269791978e-001	 2.864330682391994e+000	-3.201068857900026e+001
1	 8.657672689159829e-001	 2.816615228508264e+000	-8.269830521748027e+000
1	 8.364560777905351e-001	 2.825458474633451e+000	-9.877231115779955e+000
1	 8.071321146711011e-001	 2.833974636911618e+000	-1.161123610455536e+001
1	 7.778004944072667e-001	 2.842164857788169e+000	-1.348074579319962e+001
1	 7.484662798497168e-001	 2.850030378653444e+000	-1.549449734978253e+001
1	 7.191344796803980e-001	 2.857572537808359e+000	-1.766105335508169e+001
1	 6.898100463238918e-001	 2.864792768381011e+000	-1.998879085249277e+001
1	 6.604978739409093e-001	 2.871692596197583e+000	-2.248589090835693e+001
1	 6.312027965046840e-001	 2.878273637611040e+000	-2.516032869152287e+001
1	 6.019295859608801e-001	 2.884537597290914e+000	-2.801986407952842e+001
1	 5.726829504714950e-001	 2.890486265977629e+000	-3.107203279737392e+001
1	 8.736014691441837e-001	 2.842102363980035e+000	-7.400978557570650e+000
1	 8.440250453767998e-001	 2.851025631334182e+000	-8.990664350935644e+000
1	 8.144357340435665e-001	 2.859618855107834e+000	-1.070922127561315e+001
1	 7.848386962775786e-001	 2.867883188084215e+000	-1.256545147023342e+001
1	 7.552390407424986e-001	 2.875819882886823e+000	-1.456798847015695e+001
1	 7.256418214430880e-001	 2.883430289926668e+000	-1.672528584374724e+001
1	 6.960520356176770e-001	 2.890715855300007e+000	-1.904560633719085e+001
1	 6.664746217135055e-001	 2.897678118640007e+000	-2.153701153780835e+001
1	 6.369144574457066e-001	 2.904318710925770e+000	-2.420735206433661e+001
1	 6.073763579405679e-001	 2.910639352252135e+000	-2.706425829121966e+001
1	 5.778650739635411e-001	 2.916641849563674e+000	-3.011513161251837e+001
1	 8.814356693722830e-001	 2.867589499452040e+000	-6.574599499962211e+000
1	 8.515940129629499e-001	 2.876592788035181e+000	-8.143491727198965e+000
1	 8.217393534158993e-001	 2.885263073304349e+000	-9.843105068954056e+000
1	 7.918768981477350e-001	 2.893601518380587e+000	-1.168205346455865e+001
1	 7.620118016351005e-001	 2.901609387120555e+000	-1.366877732514175e+001
1	 7.321491632055712e-001	 2.909288042045349e+000	-1.581153240302715e+001
1	 7.022940249112275e-001	 2.916638942219389e+000	-1.811837917385876e+001
1	 6.724513694858385e-001	 2.923663641082820e+000	-2.059717274088881e+001
1	 6.426261183864400e-001	 2.930363784240881e+000	-2.325555326940402e+001
1	 6.128231299199424e-001	 2.936741107213719e+000	-2.610093695782286e+001
1	 5.830471974552516e-001	 2.942797433150047e+000	-2.914050755057886e+001
1	 8.892698696002970e-001	 2.893076634924131e+000	-5.790536182218157e+000
1	 8.591629805489868e-001	 2.902159944736293e+000	-7.335642255192838e+000
1	 8.290429727880866e-001	 2.910907291501006e+000	-9.012891635912947e+000
1	 7.989151000177117e-001	 2.919319848677136e+000	-1.083062252696392e+001
1	 7.687845625274860e-001	 2.927398891354493e+000	-1.279699520590866e+001
1	 7.386565049678001e-001	 2.935145794164261e+000	-1.491998127229631e+001
1	 7.085360142044868e-001	 2.942562029139025e+000	-1.720735340742239e+001
1	 6.784281172578444e-001	 2.949649163525900e+000	-1.966667565558316e+001
1	 6.483377793268119e-001	 2.956408857556268e+000	-2.230529423412570e+001
1	 6.182699018989245e-001	 2.962842862175569e+000	-2.513032887817303e+001
1	 5.882293209465432e-001	 2.968953016736668e+000	-2.814866472450549e+001
1	 8.971040698282408e-001	 2.918563770396158e+000	-5.048636927635667e+000
1	 8.667319481349111e-001	 2.927727101437364e+000	-6.567047425275883e+000
1	 8.363465921601164e-001	 2.936551509697653e+000	-8.218584982814905e+000
1	 8.059533018874838e-001	 2.945038178973707e+000	-1.001122693683831e+001
1	 7.755573234196188e-001	 2.953188395588489e+000	-1.195276881748935e+001
1	 7.451638467297289e-001	 2.961003546283265e+000	-1.405081411552756e+001
1	 7.147780034973986e-001	 2.968485116058781e+000	-1.631276455805801e+001
1	 6.844048650294586e-001	 2.975634685969126e+000	-1.874581090080479e+001
1	 6.540494402667507e-001	 2.982453930871813e+000	-2.135692424339158e+001
1	 6.237166738774358e-001	 2.988944617137589e+000	-2.415284787270362e+001
1	 5.934114444373317e-001	 2.995108600323453e+000	-2.714008963804431e+001
1	 9.049382700561295e-001	 2.944050905867970e+000	-4.348755311874180e+000
1	 8.743009157207239e-001	 2.953294258138242e+000	-5.837641100204770e+000
1	 8.436502115319762e-001	 2.962195727894138e+000	-7.460188977252119e+000
1	 8.129915037570263e-001	 2.970756509270149e+000	-9.223932609147299e+000
1	 7.823300843114625e-001	 2.978977899822394e+000	-1.113622047729005e+001
1	 7.516711884913101e-001	 2.986861298402220e+000	-1.320420630591366e+001
1	 7.210199927899071e-001	 2.994408202978527e+000	-1.543483999019314e+001
1	 6.903816128006164e-001	 3.001620208412377e+000	-1.783485903172263e+001
1	 6.597611012061844e-001	 3.008499004187415e+000	-2.041078048682256e+001
1	 6.291634458553985e-001	 3.015046372099683e+000	-2.316889343179924e+001
1	 5.985935679275339e-001	 3.021264183910321e+000	-2.611525194796644e+001
1	 9.127724702839787e-001	 2.969538041339417e+000	-3.690749937553911e+000
1	 8.818698833064261e-001	 2.978861414838771e+000	-5.147359413324568e+000
1	 8.509538309036534e-001	 2.987839946090302e+000	-6.737707354037582e+000
1	 8.200297056263139e-001	 2.996474839566310e+000	-8.468803195900867e+000
1	 7.891028452029805e-001	 3.004767404056062e+000	-1.034746830338366e+001
1	 7.581785302524970e-001	 3.012719050520981e+000	-1.238032719583170e+001
1	 7.272619820819561e-001	 3.020331289898130e+000	-1.457379926250519e+001
1	 6.963583605712533e-001	 3.027605730855529e+000	-1.693409097163995e+001
1	 6.654727621450409e-001	 3.034544077502960e+000	-1.946718857783096e+001
1	 6.346102178327339e-001	 3.041148127061754e+000	-2.217885133076044e+001
1	 6.037756914170657e-001	 3.047419767497193e+000	-2.507460518704490e+001
1	 9.206066705118042e-001	 2.995025176810348e+000	-3.074484220362870e+000
1	 8.894388508920191e-001	 3.004428571538802e+000	-4.496140671956933e+000
1	 8.582574502751356e-001	 3.013484164285996e+000	-6.051143720854516e+000
1	 8.270679074953227e-001	 3.022193169862039e+000	-7.745900182440144e+000
1	 7.958756060941372e-001	 3.030556908289346e+000	-9.586626393187832e+000
1	 7.646858720132438e-001	 3.038576802639415e+000	-1.157934037302395e+001
1	 7.335039713734896e-001	 3.046254376817458e+000	-1.372985446004935e+001
1	 7.023351083413049e-001	 3.053591253298464e+000	-1.604376842182208e+001
1	 6.711844230832484e-001	 3.060589150818338e+000	-1.852646304617829e+001
1	 6.400569898093635e-001	 3.067249882023707e+000	-2.118309421336831e+001
1	 6.089578149058431e-001	 3.073575351083983e+000	-2.401858745011689e+001
1	 5.571365799941845e-001	 2.812019515222284e+000	-3.383107662397723e+001
1	 5.287185198196900e-001	 2.817500990623337e+000	-3.702309633125834e+001
1	 5.003352638129517e-001	 2.822679553656821e+000	-4.042984700275194e+001
1	 4.719911884326337e-001	 2.827557185699814e+000	-4.406157366180335e+001
1	 4.436906022608280e-001	 2.832135942759818e+000	-4.792838181105122e+001
1	 4.154377447072045e-001	 2.836417953168350e+000	-5.204022441869384e+001
1	 3.872367847946145e-001	 2.840405415259060e+000	-5.640688941927831e+001
1	 3.590918200257314e-001	 2.844100595033316e+000	-6.103798773960377e+001
1	 3.310068753301844e-001	 2.847505823816278e+000	-6.594294185883773e+001
1	 3.029859020915368e-001	 2.850623495906301e+000	-7.113097491047014e+001
1	 2.750327772533645e-001	 2.853456066220491e+000	-7.661110033228110e+001
1	 5.623187034867332e-001	 2.838175098806854e+000	-3.293055716961005e+001
1	 5.336363169290086e-001	 2.843707559340700e+000	-3.615855366502746e+001
1	 5.049890582647981e-001	 2.848934290012431e+000	-3.961081016633872e+001
1	 4.763813446597570e-001	 2.853857290628595e+000	-4.329874575270243e+001
1	 4.478175247716248e-001	 2.858478636320324e+000	-4.723362154290992e+001
1	 4.193018774423222e-001	 2.862800475215494e+000	-5.142652589733602e+001
1	 3.908386104722579e-001	 2.866825026095203e+000	-5.588836021291726e+001
1	 3.624318594764292e-001	 2.870554576037689e+000	-6.062982532294635e+001
1	 3.340856868217608e-001	 2.873991478052573e+000	-6.566140851176050e+001
1	 3.058040806450334e-001	 2.877138148708408e+000	-7.099337115270329e+001
1	 2.775909539506486e-001	 2.879997065756335e+000	-7.663573697609012e+001
1	 5.675008269791978e-001	 2.864330682391994e+000	-3.201068857900026e+001
1	 5.385541140382393e-001	 2.869914128058542e+000	-3.526324642285884e+001
1	 5.096428527165515e-001	 2.875189026368409e+000	-3.874832712677802e+001
1	 4.807715008867807e-001	 2.880157395557621e+000	-4.247832423268881e+001
1	 4.519444472823133e-001	 2.884821329880952e+000	-4.646545636153584e+001
1	 4.231660101773191e-001	 2.889182997262622e+000	-5.072175091033483e+001
1	 3.944404361497635e-001	 2.893244636931202e+000	-5.525902841132582e+001
1	 3.657718989269654e-001	 2.897008557041791e+000	-6.008888756595051e+001
1	 3.371644983131448e-001	 2.900477132288479e+000	-6.522269096447599e+001
1	 3.086222591982989e-001	 2.903652801510019e+000	-7.067155150021250e+001
1	 2.801491306476536e-001	 2.906538065291594e+000	-7.644631948542308e+001
1	 5.726829504714950e-001	 2.890486265977629e+000	-3.107203279737392e+001
1	 5.434719111472928e-001	 2.896120696776794e+000	-3.433780899262069e+001
1	 5.142966471681203e-001	 2.901443762724703e+000	-3.784307440791528e+001
1	 4.851616571136129e-001	 2.906457500486858e+000	-4.160100319298301e+001
1	 4.560713697928022e-001	 2.911164023441680e+000	-4.562457906105858e+001
1	 4.270301429121070e-001	 2.915565519309739e+000	-4.992657775590426e+001
1	 3.980422618270485e-001	 2.919664247767075e+000	-5.451955024070009e+001
1	 3.691119383772667e-001	 2.923462538045660e+000	-5.941580662222189e+001
1	 3.402433098042760e-001	 2.926962786524052e+000	-6.462740082164969e+001
1	 3.114404377512897e-001	 2.930167454311213e+000	-7.016611600131820e+001
1	 2.827073073443562e-001	 2.933079064826362e+000	-7.604345075472078e+001
1	 5.778650739635411e-001	 2.916641849563674e+000	-3.011513161251837e+001
1	 5.483897082560818e-001	 2.922327265495393e+000	-3.338285300616516e+001
1	 5.189504416194137e-001	 2.927698499081265e+000	-3.689570426612752e+001
1	 4.895518133401608e-001	 2.932757605416278e+000	-4.066745182718021e+001
1	 4.601982923030000e-001	 2.937506717002495e+000	-4.471165758450997e+001
1	 4.308942756465977e-001	 2.941948041356846e+000	-4.904166040114068e+001
1	 4.016440875040310e-001	 2.946083858602847e+000	-5.367055838785985e+001
1	 3.724519778272609e-001	 2.949916519049338e+000	-5.861119196949503e+001
1	 3.433221212950947e-001	 2.953448440759354e+000	-6.387612774918305e+001
1	 3.142586163039616e-001	 2.956682107112062e+000	-6.947764318011423e+001
1	 2.852654840407330e-001	 2.959620064360732e+000	-7.542771205210627e+001
1	 5.830471974552516e-001	 2.942797433150047e+000	-2.914050755057886e+001
1	 5.533075053645181e-001	 2.948533834214270e+000	-3.239896835060552e+001
1	 5.236042360703406e-001	 2.953953235438047e+000	-3.590684576876953e+001
1	 4.939419695663320e-001	 2.959057710345844e+000	-3.967831553770147e+001
1	 4.643252148128148e-001	 2.963849410563381e+000	-4.372733612820762e+001
1	 4.347584083807031e-001	 2.968330563403949e+000	-4.806762956329907e+001
1	 4.052459131806289e-001	 2.972503469438534e+000	-5.271266304634015e+001
1	 3.757920172768744e-001	 2.976370500052862e+000	-5.767563141734875e+001
1	 3.464009327855405e-001	 2.979934094994439e+000	-6.296944044917360e+001
1	 3.170767948562713e-001	 2.983196759912645e+000	-6.860669099300516e+001
1	 2.878236607367615e-001	 2.986161063894799e+000	-7.459966398045920e+001
1	 5.882293209465432e-001	 2.968953016736668e+000	-2.814866472450549e+001
1	 5.582253024725135e-001	 2.974740402933362e+000	-3.138672412614045e+001
1	 5.282580305208096e-001	 2.980207971794995e+000	-3.487710581561634e+001
1	 4.983321257920345e-001	 2.985357815275526e+000	-3.863421698375977e+001
1	 4.684521373221553e-001	 2.990192104124325e+000	-4.267223618776271e+001
1	 4.386225411143345e-001	 2.994713085451048e+000	-4.700509373391365e+001
1	 4.088477388567599e-001	 2.998923080274164e+000	-5.164645290718661e+001
1	 3.791320567260345e-001	 3.002824481056273e+000	-5.660969206165746e+001
1	 3.494797442755527e-001	 3.006419749229364e+000	-6.190788758333959e+001
1	 3.198949734081747e-001	 3.009711412713036e+000	-6.755379773468188e+001
1	 2.903818374324179e-001	 3.012702063428656e+000	-7.355984738768861e+001
1	 5.934114444373317e-001	 2.995108600323453e+000	-2.714008963804431e+001
1	 5.631430995799795e-001	 3.000946971652601e+000	-3.034666955368992e+001
1	 5.329118249707298e-001	 3.006462708152062e+000	-3.380707010678519e+001
1	 5.027222820171757e-001	 3.011657920205289e+000	-3.753575707441618e+001
1	 4.725790598309299e-001	 3.016534797685309e+000	-4.154695754928006e+001
1	 4.424866738474040e-001	 3.021095607498148e+000	-4.585464014925934e+001
1	 4.124495645323420e-001	 3.025342691109753e+000	-5.047249609783791e+001
1	 3.824720961746682e-001	 3.029278462059609e+000	-5.541392118903085e+001
1	 3.525585557650715e-001	 3.032905403464190e+000	-6.069199864806002e+001
1	 3.227131519596281e-001	 3.036226065513310e+000	-6.631948289662942e+001
1	 2.929400141276792e-001	 3.039243062962394e+000	-7.230878422931195e+001
1	 5.985935679275339e-001	 3.021264183910321e+000	-2.611525194796644e+001
1	 5.680608966868284e-001	 3.027153540371921e+000	-2.927933483538766e+001
1	 5.375656194200102e-001	 3.032717444509198e+000	-3.269730406038060e+001
1	 5.071124382416632e-001	 3.037958025135104e+000	-3.638351591005369e+001
1	 4.767059823390474e-001	 3.042877491246323e+000	-4.035207922907340e+001
1	 4.463508065798235e-001	 3.047478129545251e+000	-4.461683571040307e+001
1	 4.160513902072929e-001	 3.051762301945324e+000	-4.919134107223925e+001
1	 3.858121356227026e-001	 3.055732443062912e+000	-5.408884713427563e+001
1	 3.556373672540364e-001	 3.059391057698973e+000	-5.932228480396341e+001
1	 3.255313305105878e-001	 3.062740718313544e+000	-6.490424798103832e+001
1	 2.954981908225223e-001	 3.065784062496107e+000	-7.084697838622743e+001
1	 6.037756914170657e-001	 3.047419767497193e+000	-2.507460518704490e+001
1	 5.729786937929718e-001	 3.053360109091257e+000	-2.818523197075880e+001
1	 5.422194138685594e-001	 3.058972180866353e+000	-3.154835368288350e+001
1	 5.115025944654048e-001	 3.064258130064935e+000	-3.517805367536789e+001
1	 4.808329048464157e-001	 3.069220184807347e+000	-3.908816036498673e+001
1	 4.502149393115045e-001	 3.073860651592361e+000	-4.329222785587684e+001
1	 4.196532158815305e-001	 3.078181912780898e+000	-4.780351745511685e+001
1	 3.891521750700649e-001	 3.082186424066220e+000	-5.263498009369939e+001
1	 3.587161787423874e-001	 3.085876711933772e+000	-5.779923966279451e+001
1	 3.283495090610099e-001	 3.089255371113814e+000	-6.330857727280478e+001
1	 2.980563675169238e-001	 3.092325062029892e+000	-6.917491644037521e+001
1	 6.089578149058431e-001	 3.073575351083983e+000	-2.401858745011689e+001
1	 5.778964908983216e-001	 3.079566677810540e+000	-2.706485553122560e+001
1	 5.468732083162867e-001	 3.085226917223479e+000	-3.036074639509937e+001
1	 5.158927506883084e-001	 3.090558234994752e+000	-3.391991148676251e+001
1	 4.849598273529440e-001	 3.095562878368370e+000	-3.775574106220636e+001
1	 4.540790720423593e-001	 3.100243173639482e+000	-4.188134538979165e+001
1	 4.232550415549730e-001	 3.104601523616498e+000	-4.630953684314587e+001
1	 3.924922145166819e-001	 3.108640405069572e+000	-5.105281289688890e+001
1	 3.617949902300640e-001	 3.112362366168643e+000	-5.612334003410386e+001
1	 3.311676876108508e-001	 3.115770023914197e+000	-6.153293857211097e+001
1	 3.006145442108607e-001	 3.118866061563839e+000	-6.729306841079240e+001
1	 2.750327772533645e-001	 2.853456066220491e+000	-7.661110033228108e+001
1	 2.471471351279563e-001	 2.856006409498290e+000	-8.238889931738659e+001
1	 2.193369495812531e-001	 2.858276650234000e+000	-8.846392584270127e+001
1	 1.916059273113746e-001	 2.860269412912185e+000	-9.483844482671914e+001
1	 1.639576959960275e-001	 2.861987373296846e+000	-1.015146168824210e+002
1	 1.363958037885802e-001	 2.863433256073065e+000	-1.084944977732450e+002
1	 1.089237188885891e-001	 2.864609832501104e+000	-1.157800379786472e+002
1	 8.154482918534663e-002	 2.865519918085287e+000	-1.233730823678889e+002
1	 5.426244197296083e-002	 2.866166370259814e+000	-1.312753699805114e+002
1	 2.707978373541613e-002	 2.866552086093679e+000	-1.394885339118064e+002
1	 0.000000000000000e+000	 2.866680000016666e+000	-1.480141013014325e+002
1	 2.775909539506486e-001	 2.879997065756335e+000	-7.663573697609012e+001
1	 2.494459376495118e-001	 2.882571130674752e+000	-8.259561911568261e+001
1	 2.213770797753014e-001	 2.884862487718647e+000	-8.887464483399332e+001
1	 1.933881215034428e-001	 2.886873785783859e+000	-9.547692293872369e+001
1	 1.654827242539523e-001	 2.888607725522634e+000	-1.024064110209793e+002
1	 1.376644691828235e-001	 2.890067056963326e+000	-1.096669129756217e+002
1	 1.099368567485598e-001	 2.891254577142689e+000	-1.172620767619981e+002
1	 8.230330635240611e-002	 2.892173127753059e+000	-1.251953924029614e+002
1	 5.476715605077925e-002	 2.892825592806658e+000	-1.334701902196657e+002
1	 2.733166233832862e-002	 2.893214896319162e+000	-1.420896392992153e+002
1	 0.000000000000000e+000	 2.893344000014533e+000	-1.510567461918576e+002
1	 2.801491306476536e-001	 2.906538065291594e+000	-7.644631948542308e+001
1	 2.517447401707313e-001	 2.909135851850559e+000	-8.255546803807252e+001
1	 2.234172099689544e-001	 2.911448325202585e+000	-8.900254624766987e+001
1	 1.951703156950626e-001	 2.913478158654786e+000	-9.579334520666947e+001
1	 1.670077525113893e-001	 2.915228077747647e+000	-1.029334620674858e+002
1	 1.389331345765616e-001	 2.916700857852796e+000	-1.104282957587377e+002
1	 1.109499946080371e-001	 2.917899321783473e+000	-1.182830430629010e+002
1	 8.306178351902145e-002	 2.918826337420027e+000	-1.265026950526422e+002
1	 5.527187012824718e-002	 2.919484815352702e+000	-1.350920338824274e+002
1	 2.758354094103625e-002	 2.919877706543843e+000	-1.440556299313656e+002
1	 0.000000000000000e+000	 2.920008000011599e+000	-1.533978392926459e+002
1	 2.827073073443562e-001	 2.933079064826362e+000	-7.604345075472078e+001
1	 2.540435426916159e-001	 2.935700573025820e+000	-8.226907938218513e+001
1	 2.254573401622399e-001	 2.938034162685941e+000	-8.884833418138744e+001
1	 1.969525098862872e-001	 2.940082531525106e+000	-9.578853176347195e+001
1	 1.685327807684142e-001	 2.941848429972040e+000	-1.030967561842787e+002
1	 1.402017999698863e-001	 2.943334658741643e+000	-1.107798529855395e+002
1	 1.119631324671211e-001	 2.944544066423636e+000	-1.188444237089209e+002
1	 8.382026068528964e-002	 2.945479547086380e+000	-1.272968208796095e+002
1	 5.577658420544564e-002	 2.946144037898136e+000	-1.361431434552424e+002
1	 2.783541954358854e-002	 2.946540516767923e+000	-1.453892327351353e+002
1	 0.000000000000000e+000	 2.946672000008066e+000	-1.550406687239505e+002
1	 2.852654840407330e-001	 2.959620064360732e+000	-7.542771205210627e+001
1	 2.563423452121673e-001	 2.962265294200649e+000	-8.173706372874634e+001
1	 2.274974703551856e-001	 2.964620000168841e+000	-8.841268747624784e+001
1	 1.987347040771700e-001	 2.966686904394960e+000	-9.546327332321580e+001
1	 1.700578090251024e-001	 2.968468782195969e+000	-1.028972441592570e+002
1	 1.414704653628895e-001	 2.969968459630035e+000	-1.107227482278283e+002
1	 1.129762703259115e-001	 2.971188811063356e+000	-1.189476521939213e+002
1	 8.457873785130782e-002	 2.972132756752305e+000	-1.275795347827809e+002
1	 5.628129828245580e-002	 2.972803260443156e+000	-1.366256809847551e+002
1	 2.808729814603493e-002	 2.973203326991598e+000	-1.460930768203270e+002
1	 0.000000000000000e+000	 2.973336000004133e+000	-1.559884046583846e+002
1	 2.878236607367615e-001	 2.986161063894799e+000	-7.459966398045920e+001
1	 2.586411477323866e-001	 2.988830015375152e+000	-8.096000995111935e+001
1	 2.295376005478193e-001	 2.991205837651410e+000	-8.769626083919968e+001
1	 2.005168982677644e-001	 2.993291277264493e+000	-9.481833248852696e+001
1	 1.715828372815295e-001	 2.995089134419591e+000	-1.023358429779208e+002
1	 1.427391307556633e-001	 2.996602260518139e+000	-1.102581036901159e+002
1	 1.139894081845085e-001	 2.997833555702813e+000	-1.185941110482108e+002
1	 8.533721501717312e-002	 2.998785966417991e+000	-1.273525389154118e+002
1	 5.678601235935869e-002	 2.999462482987957e+000	-1.365417316525548e+002
1	 2.833917674842496e-002	 2.999866137215068e+000	-1.461696978266599e+002
1	 0.000000000000000e+000	 3.000000000000000e+000	-1.562441045626121e+002
1	 2.903818374324179e-001	 3.012702063428656e+000	-7.355984738768861e+001
1	 2.609399502522751e-001	 3.015394736549441e+000	-7.993848617148099e+001
1	 2.315777307401687e-001	 3.017791675133779e+000	-8.669968590611150e+001
1	 2.022990924581236e-001	 3.019895650133845e+000	-9.385444498884066e+001
1	 1.731078655377712e-001	 3.021709486643062e+000	-1.014134373123156e+002
1	 1.440077961482993e-001	 3.023236061406127e+000	-1.093870020317925e+002
1	 1.150025460430117e-001	 3.024478300342188e+000	-1.177851340834125e+002
1	 8.609569218298260e-002	 3.025439176083625e+000	-1.266174754489470e+002
1	 5.729072643623540e-002	 3.026121705532733e+000	-1.358933071609650e+002
1	 2.859105535080810e-002	 3.026528947438530e+000	-1.456215420409880e+002
1	 0.000000000000000e+000	 3.026663999995867e+000	-1.558107181618803e+002
1	 2.929400141276792e-001	 3.039243062962394e+000	-7.230878422931194e+001
1	 2.632387527718345e-001	 3.041959457723628e+000	-7.867304066689832e+001
1	 2.336178609322615e-001	 3.044377512616071e+000	-8.542357224914343e+001
1	 2.040812866483010e-001	 3.046500023003159e+000	-9.257232085378678e+001
1	 1.746328937939027e-001	 3.048329838866538e+000	-1.001308809319609e+002
1	 1.452764615408896e-001	 3.049869862294165e+000	-1.081104880938165e+002
1	 1.160156839015212e-001	 3.051123044981657e+000	-1.165220085197062e+002
1	 8.685416934883342e-002	 3.052092385749397e+000	-1.253759291920550e+002
1	 5.779544051316703e-002	 3.052780928077678e+000	-1.346823489414299e+002
1	 2.884293395323386e-002	 3.053191757662185e+000	-1.444509702987890e+002
1	 0.000000000000000e+000	 3.053327999991933e+000	-1.546910921444237e+002
1	 2.954981908225223e-001	 3.065784062496107e+000	-7.084697838622745e+001
1	 2.655375552910660e-001	 3.068524178897822e+000	-7.716420272834125e+001
1	 2.356579911241255e-001	 3.070963350098414e+000	-8.386850833179274e+001
1	 2.058634808383497e-001	 3.073104395872575e+000	-9.097264552562750e+001
1	 1.761579220499999e-001	 3.074950191090176e+000	-9.848899804149140e+001
1	 1.465451269335261e-001	 3.076503663182422e+000	-1.064295705357170e+002
1	 1.170288217601368e-001	 3.077767789621401e+000	-1.148059770025779e+002
1	 8.761264651482260e-002	 3.078745595415491e+000	-1.236294300736234e+002
1	 5.830015459023467e-002	 3.079440150622987e+000	-1.329107311962490e+002
1	 2.909481255575171e-002	 3.079854567886232e+000	-1.426602616829994e+002
1	 0.000000000000000e+000	 3.079991999988400e+000	-1.528879746215100e+002
1	 2.980563675169238e-001	 3.092325062029892e+000	-6.917491644037521e+001
1	 2.678363578099709e-001	 3.095088900072134e+000	-7.541248347545775e+001
1	 2.376981213157884e-001	 3.097549187580936e+000	-8.203506241475805e+001
1	 2.076456750283233e-001	 3.099708768742238e+000	-8.905608091440641e+001
1	 1.776829503061382e-001	 3.101570543314130e+000	-9.648858454941205e+001
1	 1.478137923263007e-001	 3.103137464071066e+000	-1.043452233882925e+002
1	 1.180419596189585e-001	 3.104412534261600e+000	-1.126382395157110e+002
1	 8.837112368104731e-002	 3.105398805082098e+000	-1.213794554978865e+002
1	 5.880486866751938e-002	 3.106099373168855e+000	-1.305802637836667e+002
1	 2.934669115841117e-002	 3.106517378110866e+000	-1.402516170323698e+002
1	 0.000000000000000e+000	 3.106655999985466e+000	-1.504040193578056e+002
1	 3.006145442108607e-001	 3.118866061563839e+000	-6.729306841079240e+001
1	 2.701351603285507e-001	 3.121653621246674e+000	-7.341837662974730e+001
1	 2.397382515072781e-001	 3.124135025063762e+000	-7.992378341555025e+001
1	 2.094278692182750e-001	 3.126313141612288e+000	-8.682326639922361e+001
1	 1.792079785623931e-001	 3.128190895538556e+000	-9.413040927207423e+001
1	 1.490824577193054e-001	 3.129771264960268e+000	-1.018583875270342e+002
1	 1.190550974780862e-001	 3.131057278902433e+000	-1.100199551962074e+002
1	 8.912960084760466e-002	 3.132052014749406e+000	-1.186274325793022e+002
1	 5.930958274510228e-002	 3.132758595715478e+000	-1.276926949556588e+002
1	 2.959856976126172e-002	 3.133180188336288e+000	-1.372271622706856e+002
1	 0.000000000000000e+000	 3.133319999983334e+000	-1.472417897857413e+002
1	 3.133319999983334e+000	 0.000000000000000e+000	 1.040623652086284e+002
1	 3.133180188336287e+000	 2.959856976126182e-002	 9.767102572171098e+001
1	 3.132758595715477e+000	 5.930958274510247e-002	 9.148831803578923e+001
1	 3.132052014749406e+000	 8.912960084760442e-002	 8.551362459768137e+001
1	 3.131057278902433e+000	 1.190550974780861e-001	 7.974626108064388e+001
1	 3.129771264960267e+000	 1.490824577193053e-001	 7.418547834974375e+001
1	 3.128190895538556e+000	 1.792079785623932e-001	 6.883046457245426e+001
1	 3.126313141612289e+000	 2.094278692182753e-001	 6.368034747411269e+001
1	 3.124135025063762e+000	 2.397382515072778e-001	 5.873419673752427e+001
1	 3.121653621246674e+000	 2.701351603285506e-001	 5.399102654562964e+001
1	 3.118866061563838e+000	 3.006145442108607e-001	 4.944979826577664e+001
1	 3.159987999982150e+000	 0.000000000000000e+000	 1.016037130595767e+002
1	 3.159846998384162e+000	 2.985048614990570e-002	 9.530767818357415e+001
1	 3.159421817546308e+000	 5.981437253772166e-002	 8.921858330216739e+001
1	 3.158709222798846e+000	 8.988819179751430e-002	 8.333591656145404e+001
1	 3.157706020655442e+000	 1.200683873234670e-001	 7.765909010166448e+001
1	 3.156409061319833e+000	 1.503513134314466e-001	 7.218744175196181e+001
1	 3.154815241215753e+000	 1.807332355959375e-001	 6.692023687942512e+001
1	 3.152921505537872e+000	 2.112103307641125e-001	 6.185667039263478e+001
1	 3.150724850821439e+000	 2.417786877487557e-001	 5.699586889992871e+001
1	 3.148222327528215e+000	 2.724343077016803e-001	 5.233689302203430e+001
1	 3.145411042646106e+000	 3.031731046692103e-001	 4.787873985840617e+001
1	 3.186655999981866e+000	 0.000000000000000e+000	 9.898916833141499e+001
1	 3.186513808432925e+000	 3.010240253874214e-002	 9.280599978093441e+001
1	 3.186085039377992e+000	 6.031916233064432e-002	 8.682693790960842e+001
1	 3.185366430849083e+000	 9.064678274776808e-002	 8.105161872156367e+001
1	 3.184354762409181e+000	 1.210816771691726e-001	 7.547959454680790e+001
1	 3.183046857680052e+000	 1.516201691438456e-001	 7.011033542822246e+001
1	 3.181439586893518e+000	 1.822584926296357e-001	 6.494323066821171e+001
1	 3.179529869463931e+000	 2.129927923099749e-001	 5.997759053616985e+001
1	 3.177314676579507e+000	 2.438191239901172e-001	 5.521264813758843e+001
1	 3.174791033810060e+000	 2.747334550745508e-001	 5.064756144527492e+001
1	 3.171956023728604e+000	 3.057316651271696e-001	 4.628141549278539e+001
1	 3.213323999982383e+000	 0.000000000000000e+000	 9.622465307726951e+001
1	 3.213180618482476e+000	 3.035431892772296e-002	 9.017149684921380e+001
1	 3.212748261210434e+000	 6.082395212379461e-002	 8.431849474153573e+001
1	 3.212023638900032e+000	 9.140537369827975e-002	 7.866547152252853e+001
1	 3.211003504163571e+000	 1.220949670151219e-001	 7.321216215383188e+001
1	 3.209684654040851e+000	 1.528890248564378e-001	 6.795821283285608e+001
1	 3.208063932571784e+000	 1.837837496634492e-001	 6.290318219689349e+001
1	 3.206138233390415e+000	 2.147752538558561e-001	 5.804654269078425e+001
1	 3.203904502337919e+000	 2.458595602313912e-001	 5.338768209968567e+001
1	 3.201359740092178e+000	 2.770326024472273e-001	 4.892590524815577e+001
1	 3.198501004811306e+000	 3.082902255848360e-001	 4.466043586641484e+001
1	 3.239991999983599e+000	 0.000000000000000e+000	 9.331589437530938e+001
1	 3.239847428532718e+000	 3.060623531680004e-002	 8.740949443578083e+001
1	 3.239411483043539e+000	 6.132874191709668e-002	 8.169819834715622e+001
1	 3.238680846951603e+000	 9.216396464896334e-002	 7.618205933666074e+001
1	 3.237652245918530e+000	 1.231082568612335e-001	 7.086103620064563e+001
1	 3.236322450402155e+000	 1.541578805691587e-001	 6.573499396613987e+001
1	 3.234688278250491e+000	 1.853090066973396e-001	 6.080370471272070e+001
1	 3.232746597317268e+000	 2.165577154017499e-001	 5.606684855724148e+001
1	 3.230494328096633e+000	 2.478999964726069e-001	 5.152401480366189e+001
1	 3.227928446374532e+000	 2.793317498197739e-001	 4.717470325991313e+001
1	 3.225045985894188e+000	 3.108487860423074e-001	 4.301832572340179e+001
1	 3.266659999985416e+000	 0.000000000000000e+000	 9.026843228732116e+001
1	 3.266514238583552e+000	 3.085815170592526e-002	 8.452514369984742e+001
1	 3.266074704877213e+000	 6.183353171047463e-002	 7.897083181260189e+001
1	 3.265338055003706e+000	 9.292255559973295e-002	 7.360581683469182e+001
1	 3.264300987673976e+000	 1.241215467074265e-001	 6.843032140193695e+001
1	 3.262960246763894e+000	 1.554267362819441e-001	 6.344447082168569e+001
1	 3.261312623929575e+000	 1.868342637312685e-001	 5.864829347322669e+001
1	 3.259354961244441e+000	 2.183401769476501e-001	 5.404172136696901e+001
1	 3.257084153855605e+000	 2.499404327137935e-001	 4.962459086530520e+001
1	 3.254497152657088e+000	 2.816308971922559e-001	 4.539664356778665e+001
1	 3.251590966977224e+000	 3.134073464996811e-001	 4.135752736294472e+001
1	 3.293327999987732e+000	 0.000000000000000e+000	 8.708762743061145e+001
1	 3.293181048634878e+000	 3.111006809505051e-002	 8.152342895283779e+001
1	 3.292737926711361e+000	 6.233832150385259e-002	 7.614102329823321e+001
1	 3.291995263056253e+000	 9.368114655050250e-002	 7.094103504687840e+001
1	 3.290949729429830e+000	 1.251348365536193e-001	 6.592398951930919e+001
1	 3.289598043125996e+000	 1.566955919947295e-001	 6.109031256916394e+001
1	 3.287936969608975e+000	 1.883595207651974e-001	 5.644033052338570e+001
1	 3.285963325171877e+000	 2.201226384935503e-001	 5.197427027375656e+001
1	 3.283673979614794e+000	 2.519808689549801e-001	 4.769225952331636e+001
1	 3.281065858939814e+000	 2.839300445647379e-001	 4.359432719097382e+001
1	 3.278135948060388e+000	 3.159659069570548e-001	 3.968040397735601e+001
1	 3.319995999990449e+000	 0.000000000000000e+000	 8.377866818498045e+001
1	 3.319847858686600e+000	 3.136198448412762e-002	 7.840917435944553e+001
1	 3.319401148545888e+000	 6.284311129715468e-002	 7.321325226087679e+001
1	 3.318652471109157e+000	 9.443973750118619e-002	 6.819186713199156e+001
1	 3.317598471186008e+000	 1.261481263997311e-001	 6.334588470103623e+001
1	 3.316235839488389e+000	 1.579644477074505e-001	 5.867607048724482e+001
1	 3.314561315288624e+000	 1.898847777990878e-001	 5.418308924253554e+001
1	 3.312571689099526e+000	 2.219051000394441e-001	 4.986750453379487e+001
1	 3.310263805374155e+000	 2.540213051961959e-001	 4.572977846991031e+001
1	 3.307634565222676e+000	 2.862291919372846e-001	 4.177027157751756e+001
1	 3.304680929143654e+000	 3.185244674145260e-001	 3.798924282920782e+001
1	 3.346663999993465e+000	 0.000000000000000e+000	 8.034657755512176e+001
1	 3.346514668738617e+000	 3.161390087310848e-002	 7.518705031830486e+001
1	 3.346064370380700e+000	 6.334790109030505e-002	 7.019185537856926e+001
1	 3.345309679162327e+000	 9.519832845169791e-002	 6.536233387048364e+001
1	 3.344247212942429e+000	 1.271614162456804e-001	 6.069972856651748e+001
1	 3.342873635850999e+000	 1.592333034200427e-001	 5.620518266068971e+001
1	 3.341185660968463e+000	 1.914100348329014e-001	 5.187973867390554e+001
1	 3.339180053027334e+000	 2.236875615853254e-001	 4.772433748586197e+001
1	 3.336853631133645e+000	 2.560617414374699e-001	 4.373981749827148e+001
1	 3.334203271505639e+000	 2.885283393099609e-001	 3.992691393400332e+001
1	 3.331225910226997e+000	 3.210830278721923e-001	 3.628625827657482e+001
1	 3.373331999996682e+000	 0.000000000000000e+000	 7.679621970751619e+001
1	 3.373181478790831e+000	 3.186581726194498e-002	 7.186157954000679e+001
1	 3.372727592215700e+000	 6.385269088322784e-002	 6.708103219427237e+001
1	 3.371966887215674e+000	 9.595691940195179e-002	 6.245632889709709e+001
1	 3.370895954699014e+000	 1.281747060913862e-001	 5.798912504956015e+001
1	 3.369511432213755e+000	 1.605021591324418e-001	 5.368097845464435e+001
1	 3.367810006648429e+000	 1.929352918665996e-001	 4.953334764878147e+001
1	 3.365788416955247e+000	 2.254700231311879e-001	 4.554759034271638e+001
1	 3.363443456893223e+000	 2.581021776788313e-001	 4.172496197699906e+001
1	 3.360771977788671e+000	 2.908274866828314e-001	 3.806661439731778e+001
1	 3.357770891310390e+000	 3.236415883301514e-001	 3.457359465477995e+001
1	 3.400000000000000e+000	 0.000000000000000e+000	 7.313230619969228e+001
1	 3.399848288843145e+000	 3.211773365058896e-002	 6.843714283907612e+001
1	 3.399390814050797e+000	 6.435748067584715e-002	 6.388485049398787e+001
1	 3.398624095269110e+000	 9.671551035186184e-002	 5.947762368721973e+001
1	 3.397544696455680e+000	 1.291879959367673e-001	 5.521756501373180e+001
1	 3.396149228576581e+000	 1.617710148445832e-001	 5.110668277836633e+001
1	 3.394434352328458e+000	 1.944605489001441e-001	 4.714688871658200e+001
1	 3.392396780883214e+000	 2.272524846770251e-001	 4.333999580406270e+001
1	 3.390033282652842e+000	 2.601426139203092e-001	 3.968771616104016e+001
1	 3.387340684071737e+000	 2.931266340559610e-001	 3.619165905714085e+001
1	 3.384315872393811e+000	 3.262001487885011e-001	 3.285332902252169e+001
1	 3.118866061563838e+000	 3.006145442108607e-001	 4.944979826577664e+001
1	 3.115770023914197e+000	 3.311676876108510e-001	 4.510111791690317e+001
1	 3.112362366168643e+000	 3.617949902300638e-001	 4.093465094389914e+001
1	 3.108640405069572e+000	 3.924922145166819e-001	 3.694981869880075e+001
1	 3.104601523616499e+000	 4.232550415549727e-001	 3.314592380035951e+001
1	 3.100243173639482e+000	 4.540790720423593e-001	 2.952215087759317e+001
1	 3.095562878368369e+000	 4.849598273529443e-001	 2.607756750695179e+001
1	 3.090558234994752e+000	 5.158927506883083e-001	 2.281112534562960e+001
1	 3.085226917223479e+000	 5.468732083162871e-001	 1.972166146316605e+001
1	 3.079566677810541e+000	 5.778964908983216e-001	 1.680789987307148e+001
1	 3.073575351083983e+000	 6.089578149058433e-001	 1.406845326578841e+001
1	 3.145411042646106e+000	 3.031731046692103e-001	 4.787873985840617e+001
1	 3.142288654310429e+000	 3.339862889291540e-001	 4.361108252098580e+001
1	 3.138851993649093e+000	 3.648742635849500e-001	 3.952281619309171e+001
1	 3.135098354567004e+000	 3.958327550185429e-001	 3.561358736251542e+001
1	 3.131025097790100e+000	 4.268574075554641e-001	 3.188291095261425e+001
1	 3.126629653460699e+000	 4.579437844502214e-001	 2.833017049414753e+001
1	 3.121909523728592e+000	 4.890873689588726e-001	 2.495461849934187e+001
1	 3.116862285334807e+000	 5.202835654996194e-001	 2.175537704206118e+001
1	 3.111485592184849e+000	 5.515277009021272e-001	 1.873143854758753e+001
1	 3.105777177908167e+000	 5.828150257461737e-001	 1.588166679512799e+001
1	 3.099734858400542e+000	 6.141407157900874e-001	 1.320479813574934e+001
1	 3.171956023728604e+000	 3.057316651271696e-001	 4.628141549278539e+001
1	 3.168807284706830e+000	 3.368048902469569e-001	 4.210295794686127e+001
1	 3.165341621129662e+000	 3.679535369392486e-001	 3.810030697067629e+001
1	 3.161556304064507e+000	 3.991732955197488e-001	 3.427336290768299e+001
1	 3.157448671963742e+000	 4.304597735552531e-001	 3.062188271140284e+001
1	 3.153016133281928e+000	 4.618084968573515e-001	 2.714547951213334e+001
1	 3.148256169088800e+000	 4.932149105640555e-001	 2.384362239205410e+001
1	 3.143166335674824e+000	 5.246743803101855e-001	 2.071563637395526e+001
1	 3.137744267146154e+000	 5.561821934872367e-001	 1.776070262846533e+001
1	 3.131987678005701e+000	 5.877335605933205e-001	 1.497785890428646e+001
1	 3.125894365716972e+000	 6.193236166736610e-001	 1.236600018555118e+001
1	 3.198501004811306e+000	 3.082902255848360e-001	 4.466043586641484e+001
1	 3.195325915103382e+000	 3.396234915643845e-001	 4.057910544809352e+001
1	 3.191831248610334e+000	 3.710328102931060e-001	 3.666925054537543e+001
1	 3.188014253562082e+000	 4.025138360204639e-001	 3.293105325680853e+001
1	 3.183872246137423e+000	 4.340621395545155e-001	 2.936454145158852e+001
1	 3.179402613103171e+000	 4.656732092639323e-001	 2.596958769809571e+001
1	 3.174602814449003e+000	 4.973424521686788e-001	 2.274590840459116e+001
1	 3.169470386014815e+000	 5.290651951201936e-001	 1.969306317864306e+001
1	 3.164002942107412e+000	 5.608366860717980e-001	 1.681045441154117e+001
1	 3.158198178103163e+000	 5.926520954399380e-001	 1.409732709361397e+001
1	 3.152053873033303e+000	 6.245065175567317e-001	 1.155276886599460e+001
1	 3.225045985894188e+000	 3.108487860423074e-001	 4.301832572340179e+001
1	 3.221844545500062e+000	 3.424420928815619e-001	 3.904180853742921e+001
1	 3.218320876091100e+000	 3.741120836466697e-001	 3.523170414870199e+001
1	 3.214472203059718e+000	 4.058543765208516e-001	 3.158850351684011e+001
1	 3.210295820311139e+000	 4.376645055534267e-001	 2.811253349983217e+001
1	 3.205789092924430e+000	 4.695379216701471e-001	 2.480395511172420e+001
1	 3.200949459809202e+000	 5.014699937729293e-001	 2.166276199384730e+001
1	 3.195774436354789e+000	 5.334560099298289e-001	 1.868877910750740e+001
1	 3.190261617068639e+000	 5.654911786559939e-001	 1.588166165578300e+001
1	 3.184408678200579e+000	 5.975706302862023e-001	 1.324089424176691e+001
1	 3.178213380349571e+000	 6.296894184394666e-001	 1.076579027024974e+001
1	 3.251590966977224e+000	 3.134073464996811e-001	 4.135752736294472e+001
1	 3.248363175896857e+000	 3.452606941986143e-001	 3.749327616005701e+001
1	 3.244810503571942e+000	 3.771913570000863e-001	 3.378965783376933e+001
1	 3.240930152557404e+000	 4.091949170210756e-001	 3.024749854320215e+001
1	 3.236719394484887e+000	 4.412668715521624e-001	 2.686745142239312e+001
1	 3.232175572745705e+000	 4.734026340761792e-001	 2.364999413480956e+001
1	 3.227296105169404e+000	 5.055975353769933e-001	 2.059542664042987e+001
1	 3.222078486694756e+000	 5.378468247392779e-001	 1.770386918467357e+001
1	 3.216520292029850e+000	 5.701456712400072e-001	 1.497526051822115e+001
1	 3.210619178297972e+000	 6.024891651322905e-001	 1.240935635649596e+001
1	 3.204372887665806e+000	 6.348723193220344e-001	 1.000572808727825e+001
1	 3.278135948060388e+000	 3.159659069570548e-001	 3.968040397735601e+001
1	 3.274881806293744e+000	 3.480792955156667e-001	 3.593564571269289e+001
1	 3.271300131052852e+000	 3.802706303535028e-001	 3.234503719520490e+001
1	 3.267388102055136e+000	 4.125354575212996e-001	 2.890976537925428e+001
1	 3.263142968658663e+000	 4.448692375508979e-001	 2.563083620177582e+001
1	 3.258562052566994e+000	 4.772673464822108e-001	 2.250907140162237e+001
1	 3.253642750529617e+000	 5.097250769810574e-001	 1.954510554819169e+001
1	 3.248382537034727e+000	 5.422376395487271e-001	 1.673938328997079e+001
1	 3.242778966991063e+000	 5.748001638240202e-001	 1.409215683344490e+001
1	 3.236829678395365e+000	 6.074076999783786e-001	 1.160348366259300e+001
1	 3.230532394982041e+000	 6.400552202046016e-001	 9.273224508932946e+000
1	 3.304680929143654e+000	 3.185244674145260e-001	 3.798924282920782e+001
1	 3.301400436690708e+000	 3.508978968328442e-001	 3.437098591715983e+001
1	 3.297789758533816e+000	 3.833499037070663e-001	 3.089970595797658e+001
1	 3.293846051552904e+000	 4.158759980216872e-001	 2.757697557817957e+001
1	 3.289566542832464e+000	 4.484716035498091e-001	 2.440417930847217e+001
1	 3.284948532388303e+000	 4.811320588884258e-001	 2.138250963625680e+001
1	 3.279989395889841e+000	 5.138526185853077e-001	 1.851296326185418e+001
1	 3.274686587374711e+000	 5.466284543583624e-001	 1.579633757042190e+001
1	 3.269037641952293e+000	 5.794546564082163e-001	 1.323322733143334e+001
1	 3.263040178492782e+000	 6.123262348246432e-001	 1.082402163740393e+001
1	 3.256691902298309e+000	 6.452381210873367e-001	 8.568901093339740e+000
1	 3.331225910226997e+000	 3.210830278721923e-001	 3.628625827657482e+001
1	 3.327919067087726e+000	 3.537164981502716e-001	 3.280129955657780e+001
1	 3.324279386014817e+000	 3.864291770609236e-001	 2.945546844244462e+001
1	 3.320304001050700e+000	 4.192165385224021e-001	 2.625074741386074e+001
1	 3.315990117006285e+000	 4.520739695490713e-001	 2.318892467365198e+001
1	 3.311335012209628e+000	 4.849967712950066e-001	 2.027158940212875e+001
1	 3.306336041250085e+000	 5.179801601899309e-001	 1.750012720728976e+001
1	 3.300990637714719e+000	 5.510192691683700e-001	 1.487571578424780e+001
1	 3.295296316913555e+000	 5.841091489927772e-001	 1.239932079716055e+001
1	 3.289250678590245e+000	 6.172447696712604e-001	 1.007169199683303e+001
1	 3.282851409614640e+000	 6.504210219704071e-001	 7.893359586999801e+000
1	 3.357770891310390e+000	 3.236415883301514e-001	 3.457359465477995e+001
1	 3.354437697484784e+000	 3.565350994680742e-001	 3.122852608176810e+001
1	 3.350769013495848e+000	 3.895084504152220e-001	 2.801407191248770e+001
1	 3.346761950548515e+000	 4.225570790236078e-001	 2.493264798688709e+001
1	 3.342413691180124e+000	 4.556763355488602e-001	 2.198647056828195e+001
1	 3.337721492030971e+000	 4.888614837021363e-001	 1.917755076848957e+001
1	 3.332682686610352e+000	 5.221077017951133e-001	 1.650768915874383e+001
1	 3.327294688054763e+000	 5.554100839789362e-001	 1.397847058112178e+001
1	 3.321554991874868e+000	 5.887636415778864e-001	 1.159125917519659e+001
1	 3.315461178687778e+000	 6.221633045184065e-001	 9.347193634577284e+000
1	 3.309010916931069e+000	 6.556039228539804e-001	 7.247182707897399e+000
1	 3.384315872393811e+000	 3.262001487885011e-001	 3.285332902252169e+001
1	 3.380956327881860e+000	 3.593537007863772e-001	 2.965454409499640e+001
1	 3.377258640976893e+000	 3.925877237701081e-001	 2.657720881312376e+001
1	 3.373219900046344e+000	 4.258976195254685e-001	 2.362419523145050e+001
1	 3.368837265353978e+000	 4.592787015493513e-001	 2.079817139381101e+001
1	 3.364107971852335e+000	 4.927261961099983e-001	 1.810159489851169e+001
1	 3.359029331970650e+000	 5.262352434010416e-001	 1.553670663700759e+001
1	 3.353598738394850e+000	 5.598008987902470e-001	 1.310552472217342e+001
1	 3.347813666836249e+000	 5.934181341637267e-001	 1.080983862232496e+001
1	 3.341671678785408e+000	 6.270818393662587e-001	 8.651203517159766e+000
1	 3.335170424247629e+000	 6.607868237382245e-001	 6.630934891753168e+000
1	 3.073575351083983e+000	 6.089578149058433e-001	 1.406845326578841e+001
1	 3.067249882023707e+000	 6.400569898093638e-001	 1.146834278753231e+001
1	 3.060589150818339e+000	 6.711844230832489e-001	 8.974547263149747e+000
1	 3.053591253298464e+000	 7.023351083413045e-001	 6.587206812058454e+000
1	 3.046254376817458e+000	 7.335039713734894e-001	 4.306282476424557e+000
1	 3.038576802639415e+000	 7.646858720132437e-001	 2.131554015146833e+000
1	 3.030556908289346e+000	 7.958756060941377e-001	 6.261793950172102e-002
1	 3.022193169862039e+000	 8.270679074953229e-001	-1.901114200316783e+000
1	 3.013484164285995e+000	 8.582574502751353e-001	-3.760417268874905e+000
1	 3.004428571538802e+000	 8.894388508920191e-001	-5.516253730891738e+000
1	 2.995025176810348e+000	 9.206066705118045e-001	-7.169774560259633e+000
1	 3.099734858400542e+000	 6.141407157900874e-001	 1.320479813574934e+001
1	 3.093355552640277e+000	 6.455045788827545e-001	 1.066482684544142e+001
1	 3.086638131285181e+000	 6.768969408555950e-001	 8.227730423491581e+000
1	 3.079580673959276e+000	 7.083127527125638e-001	 5.893825725937520e+000
1	 3.072181352588336e+000	 7.397468970565123e-001	 3.663249340463893e+000
1	 3.064438433808137e+000	 7.711941899724107e-001	 1.535955093333545e+000
1	 3.056350281334656e+000	 8.026493830006506e-001	-4.882882048246022e-001
1	 3.047915358292586e+000	 8.341071651999052e-001	-2.409898764622294e+000
1	 3.039132229498539e+000	 8.655621652988897e-001	-4.229483565494762e+000
1	 3.029999563695274e+000	 8.970089539361906e-001	-5.947839836205063e+000
1	 3.020516135733327e+000	 9.284420459871778e-001	-7.565956259617437e+000
1	 3.125894365716972e+000	 6.193236166736610e-001	 1.236600018555118e+001
1	 3.119461223256674e+000	 6.509521679555176e-001	 9.888284177623042e+000
1	 3.112687111751801e+000	 6.826094586273640e-001	 7.509851323764051e+000
1	 3.105570094619815e+000	 7.142903970833028e-001	 5.231193199231427e+000
1	 3.098108328358891e+000	 7.459898227390769e-001	 3.052620625702144e+000
1	 3.090300064976482e+000	 7.777025079311872e-001	 9.742609038075167e-001
1	 3.082143654379540e+000	 8.094231599068452e-001	-1.003944719213213e+000
1	 3.073637546722665e+000	 8.411464229042439e-001	-2.882243336522926e+000
1	 3.064780294710580e+000	 8.728668803224782e-001	-4.661072413454797e+000
1	 3.055570555851222e+000	 9.045790569802747e-001	-6.341061554475439e+000
1	 3.046007094655772e+000	 9.362774214625445e-001	-7.923033996165857e+000
1	 3.152053873033303e+000	 6.245065175567317e-001	 1.155276886599460e+001
1	 3.145566893872943e+000	 6.563997570278102e-001	 9.139293980613793e+000
1	 3.138736092218256e+000	 6.883219763987002e-001	 6.821373619557287e+000
1	 3.131559515280151e+000	 7.202680414536518e-001	 4.599672090118044e+000
1	 3.124035304129199e+000	 7.522327484212990e-001	 2.474673154934384e+000
1	 3.116161696144542e+000	 7.842108258896712e-001	 4.466770025636391e-001
1	 3.107937027424103e+000	 8.161969368128006e-001	-1.484202551484996e+000
1	 3.099359735152392e+000	 8.481856806083998e-001	-3.318040622619834e+000
1	 3.090428359922246e+000	 8.801715953459420e-001	-5.055103563585838e+000
1	 3.081141548006777e+000	 9.121491600242940e-001	-6.695851009407956e+000
1	 3.071498053577817e+000	 9.441127969379057e-001	-8.240937651195649e+000
1	 3.178213380349571e+000	 6.296894184394666e-001	 1.076579027024974e+001
1	 3.171672564489124e+000	 6.618473460997888e-001	 8.418416381751033e+000
1	 3.164785072684600e+000	 6.940344941697481e-001	 6.162745701279011e+000
1	 3.157548935940349e+000	 7.262456858237404e-001	 3.999613310200247e+000
1	 3.149962279899344e+000	 7.584756741032915e-001	 1.929674636969765e+000
1	 3.142023327312415e+000	 7.907191438479604e-001	-4.659782203376348e-002
1	 3.133730400468455e+000	 8.229707137185969e-001	-1.928917556786288e+000
1	 3.125081923581885e+000	 8.552249383124343e-001	-3.717186861992966e+000
1	 3.116076425133662e+000	 8.874763103693230e-001	-5.411499408805912e+000
1	 3.106712540162070e+000	 9.197192630682695e-001	-7.012142559436437e+000
1	 3.096989012499596e+000	 9.519481724132636e-001	-8.519599414554747e+000
1	 3.204372887665806e+000	 6.348723193220344e-001	 1.000572808727825e+001
1	 3.197778235105262e+000	 6.672949351716107e-001	 7.726193217547878e+000
1	 3.190834053150890e+000	 6.997470119406513e-001	 5.534401317255252e+000
1	 3.183538356600479e+000	 7.322233301936987e-001	 3.431356312146448e+000
1	 3.175889255669407e+000	 7.647185997851698e-001	 1.417884038650384e+000
1	 3.167884958480192e+000	 7.972274618061515e-001	-5.053712730071890e-001
1	 3.159523773512700e+000	 8.297444906243137e-001	-2.337950297279397e+000
1	 3.150804112011262e+000	 8.622641960164075e-001	-4.079581682010710e+000
1	 3.141724490344950e+000	 8.947810253926620e-001	-5.730184876274413e+000
1	 3.132283532317233e+000	 9.272893661122239e-001	-7.289872706505321e+000
1	 3.122479971421242e+000	 9.597835478886196e-001	-8.758953690416581e+000
1	 3.230532394982041e+000	 6.400552202046016e-001	 9.273224508932945e+000
1	 3.223883905721403e+000	 6.727425242434327e-001	 7.063148774250476e+000
1	 3.216883033617179e+000	 7.054595297115548e-001	 4.936760166557995e+000
1	 3.209527777260608e+000	 7.382009745636572e-001	 2.895229553638732e+000
1	 3.201816231439470e+000	 7.709615254670480e-001	 9.395519387948884e-001
1	 3.193746589647970e+000	 8.037357797643429e-001	-9.294572819430659e-001
1	 3.185317146556945e+000	 8.365182675300302e-001	-2.711165851565426e+000
1	 3.176526300440638e+000	 8.693034537203809e-001	-4.405127961145265e+000
1	 3.167372555556240e+000	 9.020857404160014e-001	-6.011087324785933e+000
1	 3.157854524472395e+000	 9.348594691561776e-001	-7.528980009283126e+000
1	 3.147970930342888e+000	 9.676189233639758e-001	-8.958937007626393e+000
1	 3.256691902298309e+000	 6.452381210873367e-001	 8.568901093339740e+000
1	 3.249989576337585e+000	 6.781901133154114e-001	 6.429790492703964e+000
1	 3.242932014083523e+000	 7.111720474826022e-001	 4.370228463260700e+000
1	 3.235517197920808e+000	 7.441786189337459e-001	 2.391550938961338e+000
1	 3.227743207209616e+000	 7.772044511490409e-001	 4.949208650844044e-001
1	 3.219608220815842e+000	 8.102440977226320e-001	-1.318675758835973e+000
1	 3.211110519601295e+000	 8.432920444358265e-001	-3.048433633291933e+000
1	 3.202248488870132e+000	 8.763427114244150e-001	-4.693731698399446e+000
1	 3.193020620767656e+000	 9.093904554393821e-001	-6.254136447109078e+000
1	 3.183425516627689e+000	 9.424295722001536e-001	-7.729405000558825e+000
1	 3.173461889264666e+000	 9.754542988393339e-001	-9.119487934368479e+000
1	 3.282851409614640e+000	 6.504210219704071e-001	 7.893359586999802e+000
1	 3.276095246953852e+000	 6.836377023877039e-001	 5.826609639517768e+000
1	 3.268980994549979e+000	 7.168845652539385e-001	 3.835199473716526e+000
1	 3.261506618581141e+000	 7.501562633040946e-001	 1.920628239475749e+000
1	 3.253670182979924e+000	 7.834473768312622e-001	 8.422561484082994e-002
1	 3.245469851983902e+000	 8.167524156811156e-001	-1.672852353893031e+000
1	 3.236903892645860e+000	 8.500658213417824e-001	-3.349627218433214e+000
1	 3.227970677299860e+000	 8.833819691285709e-001	-4.945301888976551e+000
1	 3.218668685979320e+000	 9.166951704628458e-001	-6.459264176994893e+000
1	 3.208996508783244e+000	 9.499996752441726e-001	-7.891090108587616e+000
1	 3.198952848186713e+000	 9.832896743146952e-001	-9.240546996913537e+000
1	 3.309010916931069e+000	 6.556039228539804e-001	 7.247182707897401e+000
1	 3.302200917570249e+000	 6.890852914604667e-001	 5.254081946395870e+000
1	 3.295029975016599e+000	 7.225970830257074e-001	 3.332054028351515e+000
1	 3.287496039241681e+000	 7.561339076748331e-001	 1.482759494151625e+000
1	 3.279597158750476e+000	 7.896903025138271e-001	-2.923064394098803e-001
1	 3.271331483152246e+000	 8.232607336398923e-001	-1.991818230636798e+000
1	 3.262697265690743e+000	 8.568395982479766e-001	-3.614624180763287e+000
1	 3.253692865729938e+000	 8.904212268329097e-001	-5.159750405847385e+000
1	 3.244316751191362e+000	 9.239998854864342e-001	-6.626404600595783e+000
1	 3.234567500939192e+000	 9.575697782882571e-001	-8.013979582167350e+000
1	 3.224443807109157e+000	 9.911250497900616e-001	-9.322056602219680e+000
1	 3.335170424247629e+000	 6.607868237382245e-001	 6.630934891753170e+000
1	 3.328306588186820e+000	 6.945328805338576e-001	 4.712668219378852e+000
1	 3.321078955483442e+000	 7.283096007980534e-001	 2.861161009372412e+000
1	 3.313485459902493e+000	 7.621115520460923e-001	 1.078233391248176e+000
1	 3.305524134521356e+000	 7.959332281968499e-001	-6.344550587548528e-001
1	 3.297193114320970e+000	 8.297690515990592e-001	-2.275409849685750e+000
1	 3.288490638736053e+000	 8.636133751544897e-001	-3.843305935071476e+000
1	 3.279415054160485e+000	 8.974604845374922e-001	-5.336991886891205e+000
1	 3.269964816403906e+000	 9.313046005101889e-001	-6.755493872053500e+000
1	 3.260138493095666e+000	 9.651398813324287e-001	-8.098019419241126e+000
1	 3.249934766032135e+000	 9.989604252654352e-001	-9.363960964176421e+000
1	 2.995025176810348e+000	 9.206066705118045e-001	-7.169774560259633e+000
1	 2.985272871861278e+000	 9.517554169440450e-001	-8.718187005422101e+000
1	 2.975170654820722e+000	 9.828795457048585e-001	-1.015780656042468e+001
1	 2.964717634414846e+000	 1.013973463865370e+000	-1.148866167094392e+001
1	 2.953913032638836e+000	 1.045031533136540e+000	-1.271087943794313e+001
1	 2.942756186611073e+000	 1.076048072588372e+000	-1.382468664246101e+001
1	 2.931246550353865e+000	 1.107017361446401e+000	-1.483041064895967e+001
1	 2.919383696497328e+000	 1.137933641963363e+000	-1.572848018342960e+001
1	 2.907167317903020e+000	 1.168791122363753e+000	-1.651942598265178e+001
1	 2.894597229204027e+000	 1.199583979858828e+000	-1.720388131123412e+001
1	 2.881673368258283e+000	 1.230306363729441e+000	-1.778258234327086e+001
1	 3.020516135733327e+000	 9.284420459871778e-001	-7.565956259617437e+000
1	 3.010680827941015e+000	 9.598559025168252e-001	-9.080141686376141e+000
1	 3.000492629920439e+000	 9.912449318515900e-001	-1.048598561672656e+001
1	 2.989950642812039e+000	 1.022603493460617e+000	-1.178362047261332e+001
1	 2.979054081989313e+000	 1.053925901066823e+000	-1.297328431001747e+001
1	 2.967802278928781e+000	 1.085206425389242e+000	-1.405532176377089e+001
1	 2.956194683005870e+000	 1.116439296963322e+000	-1.503018485688063e+001
1	 2.944230863213302e+000	 1.147618709037034e+000	-1.589843367045416e+001
1	 2.931910509798535e+000	 1.178738820540489e+000	-1.666073687055288e+001
1	 2.919233435816973e+000	 1.209793759126601e+000	-1.731787208855117e+001
1	 2.906199578597639e+000	 1.240777624280165e+000	-1.787072615184517e+001
1	 3.046007094655772e+000	 9.362774214625445e-001	-7.923033996165857e+000
1	 3.036088784020225e+000	 9.679563880896780e-001	-9.402412598553514e+000
1	 3.025814605019650e+000	 9.996103179984717e-001	-1.077407226075957e+001
1	 3.015183651208757e+000	 1.031233523056087e+000	-1.203824456154500e+001
1	 3.004195131339357e+000	 1.062820268997393e+000	-1.319527428934746e+001
1	 2.992848371246103e+000	 1.094364778190455e+000	-1.424562032477224e+001
1	 2.981142815657544e+000	 1.125861232480630e+000	-1.518985637274927e+001
1	 2.969078029928998e+000	 1.157303776111121e+000	-1.602867154029050e+001
1	 2.956653701693830e+000	 1.188686518717651e+000	-1.676287075604947e+001
1	 2.943869642429749e+000	 1.220003538394793e+000	-1.739337502817228e+001
1	 2.930725788936877e+000	 1.251248884831276e+000	-1.792122153722892e+001
1	 3.071498053577817e+000	 9.441127969379057e-001	-8.240937651195649e+000
1	 3.061496740099039e+000	 9.760568736625853e-001	-9.684925579692255e+000
1	 3.051136580118482e+000	 1.007975704145466e+000	-1.102199937004050e+001
1	 3.040416659605120e+000	 1.039863552651724e+000	-1.225248510321537e+001
1	 3.029336180689076e+000	 1.071714636928179e+000	-1.337683023358761e+001
1	 3.017894463563138e+000	 1.103523130991923e+000	-1.439560442646323e+001
1	 3.006090948308972e+000	 1.135283167998224e+000	-1.530950022965929e+001
1	 2.993925196644493e+000	 1.166988843185512e+000	-1.611933357484190e+001
1	 2.981396893588967e+000	 1.198634216895122e+000	-1.682604410465229e+001
1	 2.968505849042415e+000	 1.230213317663281e+000	-1.743069532197237e+001
1	 2.955251999276042e+000	 1.261720145382654e+000	-1.793447455801688e+001
1	 3.096989012499596e+000	 9.519481724132636e-001	-8.519599414554747e+000
1	 3.086904696177589e+000	 9.841573592355289e-001	-9.927608909216028e+000
1	 3.076458555217060e+000	 1.016341090292535e+000	-1.122970203199750e+001
1	 3.065649668001247e+000	 1.048493582247471e+000	-1.242629487090793e+001
1	 3.054477230038581e+000	 1.080609004859105e+000	-1.351793363062787e+001
1	 3.042940555879987e+000	 1.112681483793558e+000	-1.450529544220040e+001
1	 3.031039080960242e+000	 1.144705103516002e+000	-1.538918899035087e+001
1	 3.018772363359863e+000	 1.176673910260096e+000	-1.617055495389805e+001
1	 3.006140085484014e+000	 1.208581915072786e+000	-1.685046625506238e+001
1	 2.993142055655025e+000	 1.240423096931949e+000	-1.743012811383054e+001
1	 2.979778209615191e+000	 1.272191405934185e+000	-1.791087790391856e+001
1	 3.122479971421242e+000	 9.597835478886196e-001	-8.758953690416581e+000
1	 3.112312652256008e+000	 9.922578448084910e-001	-1.013039320856801e+001
1	 3.101780530315512e+000	 1.024706476439641e+000	-1.139711745376457e+001
1	 3.090882676397256e+000	 1.057123611843272e+000	-1.255962818008478e+001
1	 3.079618279387981e+000	 1.089503372790100e+000	-1.361856657286797e+001
1	 3.067986648196746e+000	 1.121839836595270e+000	-1.457471404739990e+001
1	 3.055987213611441e+000	 1.154127039033863e+000	-1.542899284804612e+001
1	 3.043619530075186e+000	 1.186358977334763e+000	-1.618246644298577e+001
1	 3.030883277379037e+000	 1.218529613250524e+000	-1.683633971007618e+001
1	 3.017778262267638e+000	 1.250632876200675e+000	-1.739195890977369e+001
1	 3.004304419954370e+000	 1.282662666485751e+000	-1.785081144145511e+001
1	 3.147970930342888e+000	 9.676189233639758e-001	-8.958937007626393e+000
1	 3.137720608334429e+000	 1.000358330381453e+000	-1.029321134638735e+001
1	 3.127102505413965e+000	 1.033071862586746e+000	-1.152418487635901e+001
1	 3.116115684793268e+000	 1.065753641439071e+000	-1.265244082594674e+001
1	 3.104759328737387e+000	 1.098397740721089e+000	-1.367871173274207e+001
1	 3.093032740513514e+000	 1.130998189396973e+000	-1.460388024779501e+001
1	 3.080935346262661e+000	 1.163548974551708e+000	-1.542897972238625e+001
1	 3.068466696790536e+000	 1.196044044409403e+000	-1.615519457209328e+001
1	 3.055626469274102e+000	 1.228477311428221e+000	-1.678386041335722e+001
1	 3.042414468880311e+000	 1.260842655469342e+000	-1.731646396819284e+001
1	 3.028830630293633e+000	 1.293133927037236e+000	-1.775464273314372e+001
1	 3.173461889264666e+000	 9.754542988393339e-001	-9.119487934368479e+000
1	 3.163128564412980e+000	 1.008458815954396e+000	-1.041599834825533e+001
1	 3.152424480512546e+000	 1.041437248733814e+000	-1.161084549299475e+001
1	 3.141348693189401e+000	 1.074383671034812e+000	-1.270469002400263e+001
1	 3.129900378086907e+000	 1.107292108652000e+000	-1.369835233942251e+001
1	 3.118078832830393e+000	 1.140156542198578e+000	-1.459281340633238e+001
1	 3.105883478913983e+000	 1.172970910069433e+000	-1.538921535074393e+001
1	 3.093313863505990e+000	 1.205729111483904e+000	-1.608886180578050e+001
1	 3.080369661169276e+000	 1.238425009605759e+000	-1.669321801286813e+001
1	 3.067050675493100e+000	 1.271052434737831e+000	-1.720391067125327e+001
1	 3.053356840633026e+000	 1.303605187588521e+000	-1.762272753165962e+001
1	 3.198952848186713e+000	 9.832896743146952e-001	-9.240546996913537e+000
1	 3.188536520491794e+000	 1.016559301527303e+000	-1.049869131075698e+001
1	 3.177746455611380e+000	 1.049802634880804e+000	-1.165704237130157e+001
1	 3.166581701585774e+000	 1.083013700630437e+000	-1.271633435348031e+001
1	 3.155041427436653e+000	 1.116186476582760e+000	-1.367747215663765e+001
1	 3.143124925147479e+000	 1.149314894999995e+000	-1.454153226878199e+001
1	 3.130831611565499e+000	 1.182392845586940e+000	-1.530976337517085e+001
1	 3.118161030221624e+000	 1.215414178558155e+000	-1.598358670515653e+001
1	 3.105112853064621e+000	 1.248372707783021e+000	-1.656459611170817e+001
1	 3.091686882106064e+000	 1.281262214006022e+000	-1.705455787854676e+001
1	 3.077883050972603e+000	 1.314076448139491e+000	-1.745541025037147e+001
1	 3.224443807109157e+000	 9.911250497900616e-001	-9.322056602219680e+000
1	 3.213944476571005e+000	 1.024659787100156e+000	-1.054122931961879e+001
1	 3.203068430710595e+000	 1.058168021027681e+000	-1.166272037923326e+001
1	 3.191814709982509e+000	 1.091643730225893e+000	-1.268733370342176e+001
1	 3.180182476786732e+000	 1.125080844513294e+000	-1.361605546154192e+001
1	 3.168171017464872e+000	 1.158473247801137e+000	-1.445005498813247e+001
1	 3.155779744217294e+000	 1.191814781104125e+000	-1.519068542522029e+001
1	 3.143008196937515e+000	 1.225099245632047e+000	-1.583948408217359e+001
1	 3.129856044960206e+000	 1.258320405959892e+000	-1.639817250705244e+001
1	 3.116323088719257e+000	 1.291471993273796e+000	-1.686865626396910e+001
1	 3.102409261312411e+000	 1.324547708690029e+000	-1.725302441155802e+001
1	 3.249934766032135e+000	 9.989604252654352e-001	-9.363960964176421e+000
1	 3.239352432650741e+000	 1.032760272672935e+000	-1.054355337169924e+001
1	 3.228390405810319e+000	 1.066533407174408e+000	-1.162782611446331e+001
1	 3.217047718379721e+000	 1.100273759821121e+000	-1.261764922131495e+001
1	 3.205323526137257e+000	 1.133975212443531e+000	-1.351408702458006e+001
1	 3.193217109782673e+000	 1.167631600601917e+000	-1.431839914783839e+001
1	 3.180727876869459e+000	 1.201236716620890e+000	-1.503204119687259e+001
1	 3.167855363653740e+000	 1.234784312705469e+000	-1.565666514665998e+001
1	 3.154599236856098e+000	 1.268268104136253e+000	-1.619411941784635e+001
1	 3.140959295332737e+000	 1.301681772541035e+000	-1.664644863674376e+001
1	 3.126935471652506e+000	 1.335018969240017e+000	-1.701589307353097e+001
1	 2.881673368258283e+000	 1.230306363729441e+000	-1.778258234327086e+001
1	 2.868397815937404e+000	 1.260947808074110e+000	-1.827315097819680e+001
1	 2.854768850366804e+000	 1.291507033333439e+000	-1.869398710907418e+001
1	 2.840786788950488e+000	 1.321978128413373e+000	-1.904699214412153e+001
1	 2.826452077113804e+000	 1.352355167314767e+000	-1.933427722677828e+001
1	 2.811765289274062e+000	 1.382632212507475e+000	-1.955816238459945e+001
1	 2.796727129707190e+000	 1.412803318353237e+000	-1.972117531555904e+001
1	 2.781338433307961e+000	 1.442862534573747e+000	-1.982604980856917e+001
1	 2.765600166241469e+000	 1.472803909760124e+000	-1.987572379586691e+001
1	 2.749513426483720e+000	 1.502621494919891e+000	-1.987333703578641e+001
1	 2.733079444249319e+000	 1.532309347057451e+000	-1.982222842532047e+001
1	 2.906199578597639e+000	 1.240777624280165e+000	-1.787072615184517e+001
1	 2.892811036722654e+000	 1.271679861023362e+000	-1.833806093183851e+001
1	 2.879066073662390e+000	 1.302499178906338e+000	-1.873921040325341e+001
1	 2.864965009522325e+000	 1.333229616525127e+000	-1.907592694790470e+001
1	 2.850508293518875e+000	 1.363865197443818e+000	-1.935016379549039e+001
1	 2.835696504958288e+000	 1.394399933597353e+000	-1.956407430566848e+001
1	 2.820530354110670e+000	 1.424827828743552e+000	-1.972001090381104e+001
1	 2.805010682976677e+000	 1.455142881960698e+000	-1.982052366719519e+001
1	 2.789138465944542e+000	 1.485339091186876e+000	-1.986835855919385e+001
1	 2.772914810335272e+000	 1.515410456797143e+000	-1.986645530985534e+001
1	 2.756340956833962e+000	 1.545350985214473e+000	-1.981794494210551e+001
1	 2.930725788936877e+000	 1.251248884831276e+000	-1.792122153722893e+001
1	 2.917224257507826e+000	 1.282411913972944e+000	-1.836618749568677e+001
1	 2.903363296957934e+000	 1.313491324479491e+000	-1.874841502792626e+001
1	 2.889143230094150e+000	 1.344481104637046e+000	-1.906950475838857e+001
1	 2.874564509923965e+000	 1.375375227572934e+000	-1.933124848077384e+001
1	 2.859627720642560e+000	 1.406167654687189e+000	-1.953562857279047e+001
1	 2.844333578514223e+000	 1.436852339133718e+000	-1.968481708233445e+001
1	 2.828682932645491e+000	 1.467423229347397e+000	-1.978117448183211e+001
1	 2.812676765647745e+000	 1.497874272613284e+000	-1.982724808823898e+001
1	 2.796316194186986e+000	 1.528199418673973e+000	-1.982577014696854e+001
1	 2.779602469418804e+000	 1.558392623371014e+000	-1.977965557882489e+001
1	 2.955251999276042e+000	 1.261720145382654e+000	-1.793447455801688e+001
1	 2.941637478292966e+000	 1.293143966922747e+000	-1.835803736737409e+001
1	 2.927660520253484e+000	 1.324483470052802e+000	-1.872219575228925e+001
1	 2.913321450666013e+000	 1.355732592749046e+000	-1.902839594173424e+001
1	 2.898620726329122e+000	 1.386885257702045e+000	-1.927826487598939e+001
1	 2.883558936326928e+000	 1.417935375776930e+000	-1.947360975358684e+001
1	 2.868136802917897e+000	 1.448876849523699e+000	-1.961641726890500e+001
1	 2.852355182314455e+000	 1.479703576733827e+000	-1.970885253714304e+001
1	 2.836215065351123e+000	 1.510409454039345e+000	-1.975325770411498e+001
1	 2.819717578038901e+000	 1.540988380550389e+000	-1.975215023903644e+001
1	 2.802863982003876e+000	 1.571434261527091e+000	-1.970822090922847e+001
1	 2.979778209615191e+000	 1.272191405934185e+000	-1.791087790391856e+001
1	 2.966050699078124e+000	 1.303876019872661e+000	-1.831410056225387e+001
1	 2.951957743549081e+000	 1.335475615626169e+000	-1.866112776363240e+001
1	 2.937499671237958e+000	 1.366984080861041e+000	-1.895324879327677e+001
1	 2.922676942734390e+000	 1.398395287831081e+000	-1.919192242200872e+001
1	 2.907490152011438e+000	 1.429703096866527e+000	-1.937877658493687e+001
1	 2.891940027321741e+000	 1.460901359913464e+000	-1.951560777147188e+001
1	 2.876027431983614e+000	 1.491983924119971e+000	-1.960438012341168e+001
1	 2.859753365054722e+000	 1.522944635465056e+000	-1.964722423850214e+001
1	 2.843118961891063e+000	 1.553777342426399e+000	-1.964643567755869e+001
1	 2.826125494589216e+000	 1.584475899682720e+000	-1.960447317393424e+001
1	 3.004304419954370e+000	 1.282662666485751e+000	-1.785081144145511e+001
1	 2.990463919863343e+000	 1.314608072822576e+000	-1.823485109434567e+001
1	 2.976254966844774e+000	 1.346467761199496e+000	-1.856576746664244e+001
1	 2.961677891810029e+000	 1.378235568972947e+000	-1.884469043842231e+001
1	 2.946733159139817e+000	 1.409905317959977e+000	-1.907290739308153e+001
1	 2.931421367696138e+000	 1.441470817955927e+000	-1.925186302734870e+001
1	 2.915743251725804e+000	 1.472925870302978e+000	-1.938315889473899e+001
1	 2.899699681653019e+000	 1.504264271505810e+000	-1.946855267922969e+001
1	 2.883291664758590e+000	 1.535479816890413e+000	-1.950995719654311e+001
1	 2.866520345743509e+000	 1.566566304302014e+000	-1.950943912104885e+001
1	 2.849387007174854e+000	 1.597517537837919e+000	-1.946921743694267e+001
1	 3.028830630293633e+000	 1.293133927037236e+000	-1.775464273314372e+001
1	 3.014877140648670e+000	 1.325340125772382e+000	-1.812074762419579e+001
1	 3.000552190140605e+000	 1.357459906772683e+000	-1.843665324387138e+001
1	 2.985856112382270e+000	 1.389487057084678e+000	-1.870332768977431e+001
1	 2.970789375545449e+000	 1.421415348088662e+000	-1.892188383480434e+001
1	 2.955352583381074e+000	 1.453238539045079e+000	-1.909357926810332e+001
1	 2.939546476130134e+000	 1.484950380692207e+000	-1.921981599298241e+001
1	 2.923371931322718e+000	 1.516544618891328e+000	-1.930213987866601e+001
1	 2.906829964462770e+000	 1.548014998315415e+000	-1.934223986323747e+001
1	 2.889921729596284e+000	 1.579355266177241e+000	-1.934194690573872e+001
1	 2.872648519760826e+000	 1.610559175992701e+000	-1.930323268596159e+001
1	 3.053356840633026e+000	 1.303605187588521e+000	-1.762272753165962e+001
1	 3.039290361434153e+000	 1.336072178721969e+000	-1.797223407551437e+001
1	 3.024849413436621e+000	 1.368452052345632e+000	-1.827430617955453e+001
1	 3.010034332954730e+000	 1.400738545196150e+000	-1.852974786295120e+001
1	 2.994845591951334e+000	 1.432925378217068e+000	-1.873949445688324e+001
1	 2.979283799066296e+000	 1.465006260133933e+000	-1.890461267605176e+001
1	 2.963349700534780e+000	 1.496974891081117e+000	-1.902630047212721e+001
1	 2.947044180992758e+000	 1.528824966276507e+000	-1.910588666603973e+001
1	 2.930368264167312e+000	 1.560550179740057e+000	-1.914483035651368e+001
1	 2.913323113449429e+000	 1.592144228052089e+000	-1.914472010275237e+001
1	 2.895910032347164e+000	 1.623600814147085e+000	-1.910727287970020e+001
1	 3.077883050972603e+000	 1.314076448139491e+000	-1.745541025037147e+001
1	 3.063703582219838e+000	 1.346804231671227e+000	-1.778974022233017e+001
1	 3.049146636732866e+000	 1.379444197918242e+000	-1.807923074882118e+001
1	 3.034212553527452e+000	 1.411990033307279e+000	-1.832451955339794e+001
1	 3.018901808357516e+000	 1.444435408345127e+000	-1.852636148321273e+001
1	 3.003215014751850e+000	 1.476773981222436e+000	-1.868562871076220e+001
1	 2.987152924939791e+000	 1.508999401469674e+000	-1.880331074391355e+001
1	 2.970716430663188e+000	 1.541105313661330e+000	-1.888051424121923e+001
1	 2.953906563872260e+000	 1.573085361164338e+000	-1.891846262995221e+001
1	 2.936724497302984e+000	 1.604933189926567e+000	-1.891849552473531e+001
1	 2.919171544933902e+000	 1.636642452301086e+000	-1.888206794509105e+001
1	 3.102409261312411e+000	 1.324547708690029e+000	-1.725302441155802e+001
1	 3.088116803005770e+000	 1.357536284620048e+000	-1.757368224829481e+001
1	 3.073443860029386e+000	 1.390436343490416e+000	-1.785191547421460e+001
1	 3.058390774100482e+000	 1.423241521417980e+000	-1.808819337635132e+001
1	 3.042958024764042e+000	 1.455945438472771e+000	-1.828308746163263e+001
1	 3.027146230437786e+000	 1.488541702310539e+000	-1.843727178854338e+001
1	 3.010956149345215e+000	 1.521023911857844e+000	-1.855152313480383e+001
1	 2.994388680334057e+000	 1.553385661045778e+000	-1.862672099818553e+001
1	 2.977444863577661e+000	 1.585620542588254e+000	-1.866384742794630e+001
1	 2.960125881156992e+000	 1.617722151800683e+000	-1.866398668473591e+001
1	 2.942433057521074e+000	 1.649684090454720e+000	-1.862832472721040e+001
1	 3.126935471652506e+000	 1.335018969240017e+000	-1.701589307353097e+001
1	 3.112530023792000e+000	 1.368268337568320e+000	-1.732446327966540e+001
1	 3.097741083326226e+000	 1.401428489062056e+000	-1.759283355131483e+001
1	 3.082568994673866e+000	 1.434493009528169e+000	-1.782130267198183e+001
1	 3.067014241170958e+000	 1.467455468599930e+000	-1.801025603557684e+001
1	 3.051077446124150e+000	 1.500309423398188e+000	-1.816016610771193e+001
1	 3.034759373751101e+000	 1.533048422245595e+000	-1.827159275211535e+001
1	 3.018060930005414e+000	 1.565666008429837e+000	-1.834518341942576e+001
1	 3.000983163283562e+000	 1.598155724011803e+000	-1.838167319591175e+001
1	 2.983527265011496e+000	 1.630511113674446e+000	-1.838188470996085e+001
1	 2.965694570108715e+000	 1.662725728608005e+000	-1.834672789449429e+001
1	 2.733079444249319e+000	 1.532309347057451e+000	-1.982222842532047e+001
1	 2.716297039568712e+000	 1.561865955864427e+000	-1.972890220327810e+001
1	 2.699170149807901e+000	 1.591280936462619e+000	-1.959684884101609e+001
1	 2.681700406264190e+000	 1.620548384726113e+000	-1.942497018893245e+001
1	 2.663889573078078e+000	 1.649662417173072e+000	-1.921212891629626e+001
1	 2.645739547069145e+000	 1.678617174651290e+000	-1.895715047612003e+001
1	 2.627252357450537e+000	 1.707406826031018e+000	-1.865882517657235e+001
1	 2.608430165421335e+000	 1.736025571900473e+000	-1.831591035575220e+001
1	 2.589275263636230e+000	 1.764467648259312e+000	-1.792713265633023e+001
1	 2.569790075552226e+000	 1.792727330205414e+000	-1.749119039624925e+001
1	 2.549977154652176e+000	 1.820798935610175e+000	-1.700675603137569e+001
1	 2.756340956833962e+000	 1.545350985214473e+000	-1.981794494210551e+001
1	 2.739415715428227e+000	 1.575159153276105e+000	-1.972734801599320e+001
1	 2.722143056995375e+000	 1.604824487717100e+000	-1.959631040282770e+001
1	 2.704524626716822e+000	 1.634341034160935e+000	-1.942373420131653e+001
1	 2.686562203747829e+000	 1.663702859050867e+000	-1.920848723521951e+001
1	 2.668257701051977e+000	 1.692904053366853e+000	-1.894940507893654e+001
1	 2.649613165113236e+000	 1.721938736349818e+000	-1.864529318201381e+001
1	 2.630630775524840e+000	 1.750801059228598e+000	-1.829492908918686e+001
1	 2.611312844454483e+000	 1.779485208944865e+000	-1.789706475227756e+001
1	 2.591661815985434e+000	 1.807985411871278e+000	-1.745042892996974e+001
1	 2.571680265333477e+000	 1.836295937518066e+000	-1.695372967120278e+001
1	 2.779602469418804e+000	 1.558392623371014e+000	-1.977965557882489e+001
1	 2.762534391287983e+000	 1.588452350687268e+000	-1.969154272674081e+001
1	 2.745115964183133e+000	 1.618368038971054e+000	-1.956135690739207e+001
1	 2.727348847169785e+000	 1.648133683595235e+000	-1.938802604646275e+001
1	 2.709234834417954e+000	 1.677743300928162e+000	-1.917044951033168e+001
1	 2.690775855035223e+000	 1.707190932081953e+000	-1.890750015310621e+001
1	 2.671973972776374e+000	 1.736470646668199e+000	-1.859802645308972e+001
1	 2.652831385628806e+000	 1.765576546556353e+000	-1.824085473516441e+001
1	 2.633350425273202e+000	 1.794502769630099e+000	-1.783479147528988e+001
1	 2.613533556419093e+000	 1.823243493536874e+000	-1.737862568304861e+001
1	 2.593383376015194e+000	 1.851792939425738e+000	-1.687113135790818e+001
1	 2.802863982003876e+000	 1.571434261527091e+000	-1.970822090922846e+001
1	 2.785653067148002e+000	 1.601745548097935e+000	-1.962233911205080e+001
1	 2.768088871371186e+000	 1.631911590224498e+000	-1.949284493762497e+001
1	 2.750173067623071e+000	 1.661926333029029e+000	-1.931871709546097e+001
1	 2.731907465088427e+000	 1.691783742804963e+000	-1.909891224748999e+001
1	 2.713294009018838e+000	 1.721477810796585e+000	-1.883236703780470e+001
1	 2.694334780439897e+000	 1.751002556986144e+000	-1.851800020051173e+001
1	 2.675031995733158e+000	 1.780352033883711e+000	-1.815471474210098e+001
1	 2.655388006092302e+000	 1.809520330314980e+000	-1.774140019448769e+001
1	 2.635405296853118e+000	 1.838501575202161e+000	-1.727693493463987e+001
1	 2.615086486697246e+000	 1.867289941333142e+000	-1.676018856647085e+001
1	 2.826125494589216e+000	 1.584475899682720e+000	-1.960447317393424e+001
1	 2.808771743008305e+000	 1.615038745508126e+000	-1.952056187203358e+001
1	 2.791061778559539e+000	 1.645455141477451e+000	-1.939160287470266e+001
1	 2.772997288076671e+000	 1.675718982462327e+000	-1.921665003078291e+001
1	 2.754580095759225e+000	 1.705824184681278e+000	-1.899474243640767e+001
1	 2.735812163002780e+000	 1.735764689510745e+000	-1.872490640922754e+001
1	 2.716695588103744e+000	 1.765534467303639e+000	-1.840615752760519e+001
1	 2.697232605837830e+000	 1.795127521210649e+000	-1.803750273117602e+001
1	 2.677425586911706e+000	 1.824537890999473e+000	-1.761794247895294e+001
1	 2.657277037287425e+000	 1.853759656867096e+000	-1.714647296094367e+001
1	 2.636789597379548e+000	 1.882786943240229e+000	-1.662208835905020e+001
1	 2.849387007174854e+000	 1.597517537837919e+000	-1.946921743694268e+001
1	 2.831890418868914e+000	 1.628331942917860e+000	-1.938700877641537e+001
1	 2.814034685748200e+000	 1.658998692729931e+000	-1.925843204921338e+001
1	 2.795821508530576e+000	 1.689511631895144e+000	-1.908264001730645e+001
1	 2.777252726430318e+000	 1.719864626557111e+000	-1.885877875545720e+001
1	 2.758330316987007e+000	 1.750051568224430e+000	-1.858598953220526e+001
1	 2.739056395767859e+000	 1.780066377620673e+000	-1.826341074088237e+001
1	 2.719433215942749e+000	 1.809903008537144e+000	-1.789017987710738e+001
1	 2.699463167731334e+000	 1.839555451683543e+000	-1.746543555903090e+001
1	 2.679148777721928e+000	 1.869017738531633e+000	-1.698831958642780e+001
1	 2.658492708062018e+000	 1.898283945146948e+000	-1.645797903457458e+001
1	 2.872648519760826e+000	 1.610559175992701e+000	-1.930323268596159e+001
1	 2.855009094729853e+000	 1.641625140327156e+000	-1.922245175489390e+001
1	 2.837007592937177e+000	 1.672542243981955e+000	-1.909410783637898e+001
1	 2.818645728984777e+000	 1.703304281327492e+000	-1.891747581644592e+001
1	 2.799925357101683e+000	 1.733905068432466e+000	-1.869183271793717e+001
1	 2.780848470971473e+000	 1.764338446937636e+000	-1.841645945100811e+001
1	 2.761417203432182e+000	 1.794598287937230e+000	-1.809064259694136e+001
1	 2.741633826047844e+000	 1.824678495863168e+000	-1.771367622184083e+001
1	 2.721500748551104e+000	 1.854573012367157e+000	-1.728486371663406e+001
1	 2.701020518156543e+000	 1.884275820195732e+000	-1.680351965968266e+001
1	 2.680195818744573e+000	 1.913780947053250e+000	-1.626897169818398e+001
1	 2.895910032347164e+000	 1.623600814147085e+000	-1.910727287970020e+001
1	 2.878127770591144e+000	 1.654918337736034e+000	-1.902763793494311e+001
1	 2.859980500126478e+000	 1.686085795233540e+000	-1.889938069849234e+001
1	 2.841469949439266e+000	 1.717096930759384e+000	-1.872192084658598e+001
1	 2.822597987773292e+000	 1.747945510307352e+000	-1.849468976309479e+001
1	 2.803366624956138e+000	 1.778625325650358e+000	-1.821713212275960e+001
1	 2.783778011096657e+000	 1.809130198253296e+000	-1.788870748926980e+001
1	 2.763834436153042e+000	 1.839453983188698e+000	-1.750889192492606e+001
1	 2.743538329370936e+000	 1.869590573050278e+000	-1.707717960853996e+001
1	 2.722892258591185e+000	 1.899533901859347e+000	-1.659308445814652e+001
1	 2.701898929427128e+000	 1.929277948959084e+000	-1.605614175503288e+001
1	 2.919171544933902e+000	 1.636642452301086e+000	-1.888206794509105e+001
1	 2.901246446452806e+000	 1.668211535144512e+000	-1.880329062999994e+001
1	 2.882953407316110e+000	 1.699629346484705e+000	-1.867497717751455e+001
1	 2.864294169894032e+000	 1.730889580190834e+000	-1.849671419281525e+001
1	 2.845270618445120e+000	 1.761985952181773e+000	-1.826811029498530e+001
1	 2.825884778940959e+000	 1.792912204362594e+000	-1.798879749666033e+001
1	 2.806138818761223e+000	 1.823662108568856e+000	-1.765843257830690e+001
1	 2.786035046258273e+000	 1.854229470513710e+000	-1.727669845411054e+001
1	 2.765575910190750e+000	 1.884608133732874e+000	-1.684330552642054e+001
1	 2.744763999025769e+000	 1.914791983522436e+000	-1.635799302566956e+001
1	 2.723602040109602e+000	 1.944774950864403e+000	-1.582053033267259e+001
1	 2.942433057521074e+000	 1.649684090454720e+000	-1.862832472721040e+001
1	 2.924365122314863e+000	 1.681504732552608e+000	-1.855011028077753e+001
1	 2.905926314506080e+000	 1.713172897735468e+000	-1.842160084059017e+001
1	 2.887118390349069e+000	 1.744682229621855e+000	-1.824257156876485e+001
1	 2.867943249117139e+000	 1.776026394055733e+000	-1.801283067205457e+001
1	 2.848402932925892e+000	 1.807199083074341e+000	-1.773222054202066e+001
1	 2.828499626425824e+000	 1.838194018883899e+000	-1.740061886790203e+001
1	 2.808235656363467e+000	 1.869004957838178e+000	-1.701793971946000e+001
1	 2.787613491010467e+000	 1.899625694414908e+000	-1.658413459710414e+001
1	 2.766635739460210e+000	 1.930050065184955e+000	-1.609919344663279e+001
1	 2.745305150791908e+000	 1.960271952769154e+000	-1.556314563596555e+001
1	 2.965694570108715e+000	 1.662725728608005e+000	-1.834672789449429e+001
1	 2.947483798177338e+000	 1.694797929960343e+000	-1.826877535228003e+001
1	 2.928899221696398e+000	 1.726716448985847e+000	-1.813993318106503e+001
1	 2.909942610804364e+000	 1.758474879052459e+000	-1.796018623318184e+001
1	 2.890615879789327e+000	 1.790066835929240e+000	-1.772956415015148e+001
1	 2.870921086910895e+000	 1.821485961785593e+000	-1.744814222791305e+001
1	 2.850860434090400e+000	 1.852725929198409e+000	-1.711604223111478e+001
1	 2.830436266468553e+000	 1.883780445162080e+000	-1.673343315410544e+001
1	 2.809651071830005e+000	 1.914643255096348e+000	-1.630053192635222e+001
1	 2.788507479894426e+000	 1.945308146846862e+000	-1.581760406010564e+001
1	 2.767008261473969e+000	 1.975768954673289e+000	-1.528496423823565e+001
1	 2.549977154652176e+000	 1.820798935610175e+000	-1.700675603137569e+001
1	 2.529839182825770e+000	 1.848676828161380e+000	-1.648269682690927e+001
1	 2.509378967208837e+000	 1.876355419114987e+000	-1.592984639133816e+001
1	 2.488599441235097e+000	 1.903829172691866e+000	-1.534985434985989e+001
1	 2.467503664099979e+000	 1.931092610269970e+000	-1.474442913387293e+001
1	 2.446094819379461e+000	 1.958140313934778e+000	-1.411533551453984e+001
1	 2.424376213529276e+000	 1.984966929989930e+000	-1.346439202967131e+001
1	 2.402351274265837e+000	 2.011567172423368e+000	-1.279346830864846e+001
1	 2.380023548830396e+000	 2.037935826324343e+000	-1.210448230038268e+001
1	 2.357396702138207e+000	 2.064067751246718e+000	-1.139939740958218e+001
1	 2.334474514814633e+000	 2.089957884514068e+000	-1.068021954684828e+001
1	 2.571680265333477e+000	 1.836295937518066e+000	-1.695372967120278e+001
1	 2.551370897214117e+000	 1.864411101601794e+000	-1.641667042089030e+001
1	 2.530736542655011e+000	 1.892325267812062e+000	-1.585111285503873e+001
1	 2.509780160056639e+000	 1.920032853254175e+000	-1.525904073019358e+001
1	 2.488504834651568e+000	 1.947528332676985e+000	-1.464250526583050e+001
1	 2.466913777111521e+000	 1.974806242053562e+000	-1.400362209237770e+001
1	 2.445010322033827e+000	 2.001861182121705e+000	-1.334456807397775e+001
1	 2.422797926308551e+000	 2.028687821879580e+000	-1.266757801187973e+001
1	 2.400280167367885e+000	 2.055280902031814e+000	-1.197494123468951e+001
1	 2.377460741319559e+000	 2.081635238381421e+000	-1.126899808202220e+001
1	 2.354343460966238e+000	 2.107745725163034e+000	-1.055213628840226e+001
1	 2.593383376015194e+000	 1.851792939425738e+000	-1.687113135790818e+001
1	 2.572902611602827e+000	 1.880145375042032e+000	-1.632288258986045e+001
1	 2.552094118101473e+000	 1.908295116508996e+000	-1.574673591631423e+001
1	 2.530960878878383e+000	 1.936236533816368e+000	-1.514493679341250e+001
1	 2.509506005203260e+000	 1.963964055083904e+000	-1.451980467107442e+001
1	 2.487732734843586e+000	 1.991472170172263e+000	-1.387372947349176e+001
1	 2.465644430538283e+000	 2.018755434253400e+000	-1.320916794006184e+001
1	 2.443244578351072e+000	 2.045808471335707e+000	-1.252863983359235e+001
1	 2.420536785905097e+000	 2.072625977739186e+000	-1.183472402298763e+001
1	 2.397524780500567e+000	 2.099202725516005e+000	-1.113005444798353e+001
1	 2.374212407117443e+000	 2.125533565811849e+000	-1.041731597383211e+001
1	 2.615086486697246e+000	 1.867289941333142e+000	-1.676018856647085e+001
1	 2.594434325991823e+000	 1.895879648482040e+000	-1.620261881974093e+001
1	 2.573451693548162e+000	 1.924264965205734e+000	-1.561802406861219e+001
1	 2.552141597700285e+000	 1.952440214378395e+000	-1.500884083308749e+001
1	 2.530507175755037e+000	 1.980399777490679e+000	-1.437758406839096e+001
1	 2.508551692575658e+000	 2.008138098290838e+000	-1.372684329425733e+001
1	 2.486278539042668e+000	 2.035649686384982e+000	-1.305927857457921e+001
1	 2.463691230393453e+000	 2.062929120791727e+000	-1.237761635496133e+001
1	 2.440793404442102e+000	 2.089971053446450e+000	-1.168464516613457e+001
1	 2.417588819681313e+000	 2.116770212650470e+000	-1.098321120156637e+001
1	 2.394081353268349e+000	 2.143321406460531e+000	-1.027621377796463e+001
1	 2.636789597379548e+000	 1.882786943240229e+000	-1.662208835905020e+001
1	 2.615966040381032e+000	 1.911613921921764e+000	-1.605712227370773e+001
1	 2.594809268995017e+000	 1.940234813902221e+000	-1.546624272514550e+001
1	 2.573322316522301e+000	 1.968643894940201e+000	-1.485200839837084e+001
1	 2.551508346306874e+000	 1.996835499897263e+000	-1.421705880093684e+001
1	 2.529370650307736e+000	 2.024804026409246e+000	-1.356411015570485e+001
1	 2.506912647547007e+000	 2.052543938516416e+000	-1.289595113805528e+001
1	 2.484137882435738e+000	 2.080049770247615e+000	-1.221543846558330e+001
1	 2.461050022978969e+000	 2.107316129153594e+000	-1.152549234873743e+001
1	 2.437652858861884e+000	 2.134337699784820e+000	-1.082909181125991e+001
1	 2.413950299419056e+000	 2.161109247109096e+000	-1.012926988966082e+001
1	 2.658492708062018e+000	 1.898283945146948e+000	-1.645797903457458e+001
1	 2.637497754770377e+000	 1.927348195361151e+000	-1.588759551974056e+001
1	 2.616166844441978e+000	 1.956204662598404e+000	-1.529261597736123e+001
1	 2.594503035344390e+000	 1.984847575501736e+000	-1.467565403875747e+001
1	 2.572509516858754e+000	 2.013271222303608e+000	-1.403940452512853e+001
1	 2.550189608039823e+000	 2.041469954527444e+000	-1.338663921688217e+001
1	 2.527546756051328e+000	 2.069438190647670e+000	-1.272020246561996e+001
1	 2.504584534477977e+000	 2.097170419703349e+000	-1.204300665707775e+001
1	 2.481306641515768e+000	 2.124661204860606e+000	-1.135802753375113e+001
1	 2.457716898042369e+000	 2.151905186919057e+000	-1.066829938633916e+001
1	 2.433819245569663e+000	 2.178897087757561e+000	-9.976910123519842e+000
1	 2.680195818744573e+000	 1.913780947053250e+000	-1.626897169818398e+001
1	 2.659029469159782e+000	 1.943082468800149e+000	-1.569520217423784e+001
1	 2.637524419888981e+000	 1.972174511294227e+000	-1.509832826797271e+001
1	 2.615683754166508e+000	 2.001051256062946e+000	-1.448095296407571e+001
1	 2.593510687410649e+000	 2.029706944709663e+000	-1.384575881747596e+001
1	 2.571008565771920e+000	 2.058135882645392e+000	-1.319550371080294e+001
1	 2.548180864555651e+000	 2.086332442778711e+000	-1.253301645677150e+001
1	 2.525031186520220e+000	 2.114291069158907e+000	-1.186119225383805e+001
1	 2.501563260052567e+000	 2.142006280567476e+000	-1.118298800389438e+001
1	 2.477780937222855e+000	 2.169472674053184e+000	-1.050141750116707e+001
1	 2.453688191720270e+000	 2.196684928405941e+000	-9.819546501863192e+000
1	 2.701898929427128e+000	 1.929277948959084e+000	-1.605614175503288e+001
1	 2.680561183549176e+000	 1.958816742238704e+000	-1.548106846641731e+001
1	 2.658881995335964e+000	 1.988144359989638e+000	-1.488452598336017e+001
1	 2.636864472988613e+000	 2.017254936623779e+000	-1.426904262447490e+001
1	 2.614511857962542e+000	 2.046142667115383e+000	-1.363722270397463e+001
1	 2.591827523504031e+000	 2.074801810763047e+000	-1.299174238733300e+001
1	 2.568814973060007e+000	 2.103226694909506e+000	-1.233534539816087e+001
1	 2.545477838562512e+000	 2.131411718614264e+000	-1.167083858446640e+001
1	 2.521819878589437e+000	 2.159351356274191e+000	-1.100108735287510e+001
1	 2.497844976403427e+000	 2.187040161187201e+000	-1.032901097976996e+001
1	 2.473557137870976e+000	 2.214472769054255e+000	-9.657577808669881e+000
1	 2.723602040109602e+000	 1.944774950864403e+000	-1.582053033267258e+001
1	 2.702092897938480e+000	 1.974551015676761e+000	-1.524628472792116e+001
1	 2.680239570782870e+000	 2.004114208684582e+000	-1.465231896983600e+001
1	 2.658045191810659e+000	 2.033458617184183e+000	-1.404102421487140e+001
1	 2.635513028514410e+000	 2.062578389520717e+000	-1.341486211637539e+001
1	 2.612646481236155e+000	 2.091467738880369e+000	-1.277636088709136e+001
1	 2.589449081564420e+000	 2.120120947040020e+000	-1.212811122313172e+001
1	 2.565924490604902e+000	 2.148532368069398e+000	-1.147276209720060e+001
1	 2.542076497126445e+000	 2.176696431980742e+000	-1.081301642922374e+001
1	 2.517909015584173e+000	 2.204607648321111e+000	-1.015162664290049e+001
1	 2.493426084021882e+000	 2.232260609702518e+000	-9.491390117027430e+000
1	 2.745305150791908e+000	 1.960271952769154e+000	-1.556314563596555e+001
1	 2.723624612327620e+000	 1.990285289114268e+000	-1.499190681176373e+001
1	 2.701597146229636e+000	 2.020084057379005e+000	-1.440278197798953e+001
1	 2.679225910632606e+000	 2.049662297744106e+000	-1.379796410803423e+001
1	 2.656514199066231e+000	 2.079014111925619e+000	-1.317970927937894e+001
1	 2.633465438968294e+000	 2.108133666997313e+000	-1.255033305018187e+001
1	 2.610083190068913e+000	 2.137015199170221e+000	-1.191220671151650e+001
1	 2.586371142647441e+000	 2.165653017524286e+000	-1.126775342243300e+001
1	 2.562333115663661e+000	 2.194041507687116e+000	-1.061944423535766e+001
1	 2.537973054765180e+000	 2.222175135454916e+000	-9.969794019665896e+000
1	 2.513295030173088e+000	 2.250048450350747e+000	-9.321357291564048e+000
1	 2.767008261473969e+000	 1.975768954673289e+000	-1.528496423823565e+001
1	 2.745156326716522e+000	 2.006019562551172e+000	-1.471895744450243e+001
1	 2.722954721676198e+000	 2.036053906072851e+000	-1.413695603905847e+001
1	 2.700406629454409e+000	 2.065865978303493e+000	-1.354089522022787e+001
1	 2.677515369617984e+000	 2.095449834330041e+000	-1.293276403254723e+001
1	 2.654284396700450e+000	 2.124799595113841e+000	-1.231460216333505e+001
1	 2.630717298573514e+000	 2.153909451300075e+000	-1.168849663296893e+001
1	 2.606817794690175e+000	 2.182773666978905e+000	-1.105657838522568e+001
1	 2.582589734201157e+000	 2.211386583393304e+000	-1.042101878433437e+001
1	 2.558037093946534e+000	 2.239742622588618e+000	-9.784026025665639e+000
1	 2.533163976324692e+000	 2.267836290998960e+000	-9.147841467235761e+000
1	 2.334474514814633e+000	 2.089957884514068e+000	-1.068021954684828e+001
1	 2.311264384991488e+000	 2.115597417230627e+000	-9.959501052202013e+000
1	 2.287766902175922e+000	 2.140985357364761e+000	-9.247697999643620e+000
1	 2.263986181384554e+000	 2.166116898914944e+000	-8.544022263037805e+000
1	 2.239926444295830e+000	 2.190987326190443e+000	-7.847678328300282e+000
1	 2.215592016756413e+000	 2.215592016756412e+000	-7.157864377184569e+000
1	 2.190987326190444e+000	 2.239926444295831e+000	-6.473773380111012e+000
1	 2.166116898914944e+000	 2.263986181384554e+000	-5.794594195869429e+000
1	 2.140985357364762e+000	 2.287766902175922e+000	-5.119512676009393e+000
1	 2.115597417230626e+000	 2.311264384991489e+000	-4.447712771724286e+000
1	 2.089957884514069e+000	 2.334474514814633e+000	-3.778377641030670e+000
1	 2.354343460966238e+000	 2.107745725163034e+000	-1.055213628840226e+001
1	 2.330935787405982e+000	 2.133603478507495e+000	-9.836785227114943e+000
1	 2.307238315163295e+000	 2.159207497939899e+000	-9.132648717973828e+000
1	 2.283255194278109e+000	 2.184552936554364e+000	-8.438368885557805e+000
1	 2.258990682359991e+000	 2.209635038524449e+000	-7.752569209981655e+000
1	 2.234449142073308e+000	 2.234449142073308e+000	-7.073856705700337e+000
1	 2.209635038524449e+000	 2.258990682359990e+000	-6.400824128665822e+000
1	 2.184552936554364e+000	 2.283255194278110e+000	-5.732052207287482e+000
1	 2.159207497939899e+000	 2.307238315163295e+000	-5.066111892586013e+000
1	 2.133603478507495e+000	 2.330935787405982e+000	-4.401566622884234e+000
1	 2.107745725163034e+000	 2.354343460966238e+000	-3.736974598345732e+000
1	 2.374212407117443e+000	 2.125533565811849e+000	-1.041731597383212e+001
1	 2.350607189820049e+000	 2.151609539784174e+000	-9.708637175863037e+000
1	 2.326709728150233e+000	 2.177429638514804e+000	-9.012918737605682e+000
1	 2.302524207171238e+000	 2.202988974193504e+000	-8.328338556177100e+000
1	 2.278054920423748e+000	 2.228282750858128e+000	-7.653046419865258e+000
1	 2.253306267389836e+000	 2.253306267389836e+000	-6.985167096404831e+000
1	 2.228282750858128e+000	 2.278054920423748e+000	-6.322803465927186e+000
1	 2.202988974193504e+000	 2.302524207171238e+000	-5.664039692051998e+000
1	 2.177429638514803e+000	 2.326709728150233e+000	-5.006944424487697e+000
1	 2.151609539784174e+000	 2.350607189820048e+000	-4.349574026431405e+000
1	 2.125533565811849e+000	 2.374212407117443e+000	-3.689975820000057e+000
1	 2.394081353268349e+000	 2.143321406460531e+000	-1.027621377796463e+001
1	 2.370278592233794e+000	 2.169615601060698e+000	-9.575330727099662e+000
1	 2.346181141136843e+000	 2.195651779089522e+000	-8.888633406909682e+000
1	 2.321793220064046e+000	 2.221425011832426e+000	-8.213938316990308e+000
1	 2.297119158487202e+000	 2.246930463191558e+000	-7.549026146141888e+000
1	 2.272163392706085e+000	 2.272163392706085e+000	-6.891645587310888e+000
1	 2.246930463191558e+000	 2.297119158487202e+000	-6.239517210578606e+000
1	 2.221425011832426e+000	 2.321793220064046e+000	-5.590337386070505e+000
1	 2.195651779089522e+000	 2.346181141136843e+000	-4.941782248530410e+000
1	 2.169615601060697e+000	 2.370278592233793e+000	-4.291511695198968e+000
1	 2.143321406460531e+000	 2.394081353268349e+000	-3.637173408557235e+000
1	 2.413950299419056e+000	 2.161109247109096e+000	-1.012926988966082e+001
1	 2.389949994647324e+000	 2.187621662337096e+000	-9.437130694070044e+000
1	 2.365652554123235e+000	 2.213873919664102e+000	-8.759913947344629e+000
1	 2.341062232956640e+000	 2.239861049471193e+000	-8.095174978241612e+000
1	 2.316183396550450e+000	 2.265578175524814e+000	-7.440427336383794e+000
1	 2.291020518022143e+000	 2.291020518022143e+000	-6.793147153710896e+000
1	 2.265578175524814e+000	 2.316183396550451e+000	-6.150777574439873e+000
1	 2.239861049471193e+000	 2.341062232956640e+000	-5.510733244200614e+000
1	 2.213873919664102e+000	 2.365652554123235e+000	-4.870404848860454e+000
1	 2.187621662337096e+000	 2.389949994647325e+000	-4.227163693423895e+000
1	 2.161109247109096e+000	 2.413950299419056e+000	-3.578366311300456e+000
1	 2.433819245569663e+000	 2.178897087757561e+000	-9.976910123519838e+000
1	 2.409621397060749e+000	 2.205627723613400e+000	-9.294293242606498e+000
1	 2.385123967109518e+000	 2.232096060238592e+000	-8.626877621911806e+000
1	 2.360331245849126e+000	 2.258297087109868e+000	-7.972055127788531e+000
1	 2.335247634613596e+000	 2.284225887857976e+000	-7.327171584911193e+000
1	 2.309877643338102e+000	 2.309877643338101e+000	-6.689531506644620e+000
1	 2.284225887857977e+000	 2.335247634613597e+000	-6.056402901509023e+000
1	 2.258297087109868e+000	 2.360331245849125e+000	-5.425022145583546e+000
1	 2.232096060238591e+000	 2.385123967109518e+000	-4.792598910516810e+000
1	 2.205627723613399e+000	 2.409621397060749e+000	-4.156321136674126e+000
1	 2.178897087757560e+000	 2.433819245569663e+000	-3.513360040841563e+000
1	 2.453688191720270e+000	 2.196684928405941e+000	-9.819546501863195e+000
1	 2.429292799474172e+000	 2.223633784889643e+000	-9.147066241244245e+000
1	 2.404595380095800e+000	 2.250318200813038e+000	-8.489637895424700e+000
1	 2.379600258741609e+000	 2.276733124748515e+000	-7.844585140105876e+000
1	 2.354311872676735e+000	 2.302873600191120e+000	-7.209183025630844e+000
1	 2.328734768654050e+000	 2.328734768654050e+000	-6.580662901158565e+000
1	 2.302873600191121e+000	 2.354311872676736e+000	-5.956217419683393e+000
1	 2.276733124748514e+000	 2.379600258741609e+000	-5.333005613294247e+000
1	 2.250318200813038e+000	 2.404595380095800e+000	-4.708158027881924e+000
1	 2.223633784889643e+000	 2.429292799474172e+000	-4.078781906354653e+000
1	 2.196684928405941e+000	 2.453688191720269e+000	-3.441966409304282e+000
1	 2.473557137870976e+000	 2.214472769054255e+000	-9.657577808669879e+000
1	 2.448964201887703e+000	 2.241639846165858e+000	-8.995689594463217e+000
1	 2.424066793082190e+000	 2.268540341387490e+000	-8.348304587054697e+000
1	 2.398869271634196e+000	 2.295169162387196e+000	-7.712771184855940e+000
1	 2.373376110739969e+000	 2.321521312524323e+000	-7.086388230039479e+000
1	 2.347591893970077e+000	 2.347591893970077e+000	-6.466409953806485e+000
1	 2.321521312524323e+000	 2.373376110739969e+000	-5.850051004446090e+000
1	 2.295169162387196e+000	 2.398869271634196e+000	-5.234491547503067e+000
1	 2.268540341387491e+000	 2.424066793082190e+000	-4.616882427183660e+000
1	 2.241639846165858e+000	 2.448964201887703e+000	-3.994350377973262e+000
1	 2.214472769054255e+000	 2.473557137870976e+000	-3.364003275318840e+000
1	 2.493426084021882e+000	 2.232260609702518e+000	-9.491390117027432e+000
1	 2.468635604301448e+000	 2.259645907442076e+000	-8.840395559997603e+000
1	 2.443538206068797e+000	 2.286762481961994e+000	-8.202984015583063e+000
1	 2.418138284526992e+000	 2.313605200025974e+000	-7.576619235048800e+000
1	 2.392440348803396e+000	 2.340169024857662e+000	-6.958716110103659e+000
1	 2.366449019286273e+000	 2.366449019286272e+000	-6.346645468875387e+000
1	 2.340169024857661e+000	 2.392440348803396e+000	-5.737738953851289e+000
1	 2.313605200025974e+000	 2.418138284526992e+000	-5.129293971395272e+000
1	 2.286762481961994e+000	 2.443538206068797e+000	-4.518578702265027e+000
1	 2.259645907442075e+000	 2.468635604301448e+000	-3.902837162397943e+000
1	 2.232260609702518e+000	 2.493426084021882e+000	-3.279294303112890e+000
1	 2.513295030173088e+000	 2.250048450350747e+000	-9.321357291564050e+000
1	 2.488307006715512e+000	 2.277651968718327e+000	-8.681409051093839e+000
1	 2.463009619055729e+000	 2.304984622536598e+000	-8.053779137763572e+000
1	 2.437407297420105e+000	 2.332041237664912e+000	-7.436135074815506e+000
1	 2.411504586867115e+000	 2.358816737191213e+000	-6.826097825746644e+000
1	 2.385306144602727e+000	 2.385306144602727e+000	-6.221246272854018e+000
1	 2.358816737191213e+000	 2.411504586867115e+000	-5.619121774182420e+000
1	 2.332041237664912e+000	 2.437407297420106e+000	-5.017232789142315e+000
1	 2.304984622536598e+000	 2.463009619055729e+000	-4.413059562886882e+000
1	 2.277651968718327e+000	 2.488307006715513e+000	-3.804058859387570e+000
1	 2.250048450350747e+000	 2.513295030173087e+000	-3.187668733029510e+000
1	 2.533163976324692e+000	 2.267836290998960e+000	-9.147841467235761e+000
1	 2.507978409130006e+000	 2.295658029994647e+000	-8.518947924544435e+000
1	 2.482481032043097e+000	 2.323206763111350e+000	-7.900789680173069e+000
1	 2.456676310313640e+000	 2.350477275304074e+000	-7.291324306815571e+000
1	 2.430568824931228e+000	 2.377464449525057e+000	-6.688466696688654e+000
1	 2.404163269919529e+000	 2.404163269919529e+000	-6.090093056691625e+000
1	 2.377464449525057e+000	 2.430568824931227e+000	-5.494044975697769e+000
1	 2.350477275304074e+000	 2.456676310313640e+000	-4.898133555263477e+000
1	 2.323206763111350e+000	 2.482481032043097e+000	-4.300143594876026e+000
1	 2.295658029994646e+000	 2.507978409130006e+000	-3.697837822721543e+000
1	 2.267836290998959e+000	 2.533163976324692e+000	-3.088961162844954e+000
1	 2.089957884514069e+000	 2.334474514814633e+000	-3.778377641030668e+000
1	 2.064067751246718e+000	 2.357396702138207e+000	-3.111491238275213e+000
1	 2.037935826324343e+000	 2.380023548830395e+000	-2.449676747749299e+000
1	 2.011567172423368e+000	 2.402351274265837e+000	-1.795784536582587e+000
1	 1.984966929989930e+000	 2.424376213529276e+000	-1.152673393500449e+000
1	 1.958140313934778e+000	 2.446094819379461e+000	-5.232058963727454e-001
1	 1.931092610269970e+000	 2.467503664099979e+000	 8.975621454139691e-002
1	 1.903829172691866e+000	 2.488599441235097e+000	 6.833566480873747e-001
1	 1.876355419114987e+000	 2.509378967208838e+000	 1.254749148966265e+000
1	 1.848676828161380e+000	 2.529839182825770e+000	 1.801102050372473e+000
1	 1.820798935610176e+000	 2.549977154652176e+000	 2.319602783285815e+000
1	 2.107745725163034e+000	 2.354343460966238e+000	-3.736974598345732e+000
1	 2.081635238381421e+000	 2.377460741319560e+000	-3.072065559620301e+000
1	 2.055280902031814e+000	 2.400280167367884e+000	-2.409843949086024e+000
1	 2.028687821879580e+000	 2.422797926308551e+000	-1.753489820777588e+000
1	 2.001861182121705e+000	 2.445010322033828e+000	-1.106194582544173e+000
1	 1.974806242053562e+000	 2.466913777111521e+000	-4.711557080495657e-001
1	 1.947528332676985e+000	 2.488504834651568e+000	 1.484285465195106e-001
1	 1.920032853254174e+000	 2.509780160056640e+000	 7.493644100590478e-001
1	 1.892325267812062e+000	 2.530736542655012e+000	 1.328467837580083e+000
1	 1.864411101601794e+000	 2.551370897214117e+000	 1.882569713905637e+000
1	 1.836295937518066e+000	 2.571680265333477e+000	 2.408521009425448e+000
1	 2.125533565811849e+000	 2.374212407117443e+000	-3.689975820000059e+000
1	 2.099202725516006e+000	 2.397524780500568e+000	-3.027766205812244e+000
1	 2.072625977739186e+000	 2.420536785905096e+000	-2.366339495961993e+000
1	 2.045808471335707e+000	 2.443244578351072e+000	-1.709121179588528e+000
1	 2.018755434253400e+000	 2.465644430538283e+000	-1.059550476336601e+000
1	 1.991472170172263e+000	 2.487732734843587e+000	-4.210745421369510e-001
1	 1.963964055083904e+000	 2.509506005203261e+000	 2.028573212305215e-001
1	 1.936236533816368e+000	 2.530960878878383e+000	 8.087994407128577e-001
1	 1.908295116508996e+000	 2.552094118101472e+000	 1.393315518719512e+000
1	 1.880145375042031e+000	 2.572902611602827e+000	 1.952984340171642e+000
1	 1.851792939425738e+000	 2.593383376015194e+000	 2.484405428189333e+000
1	 2.143321406460531e+000	 2.394081353268349e+000	-3.637173408557235e+000
1	 2.116770212650470e+000	 2.417588819681313e+000	-2.978397427675033e+000
1	 2.089971053446451e+000	 2.440793404442101e+000	-2.318965934056817e+000
1	 2.062929120791727e+000	 2.463691230393453e+000	-1.662467691059218e+000
1	 2.035649686384982e+000	 2.486278539042668e+000	-1.012507020547988e+000
1	 2.008138098290838e+000	 2.508551692575658e+000	-3.726976496428602e-001
1	 1.980399777490679e+000	 2.530507175755036e+000	 2.533434396159424e-001
1	 1.952440214378395e+000	 2.552141597700285e+000	 8.620021448118383e-001
1	 1.924264965205734e+000	 2.573451693548162e+000	 1.449673349142369e+000
1	 1.895879648482040e+000	 2.594434325991823e+000	 2.012766986232388e+000
1	 1.867289941333142e+000	 2.615086486697246e+000	 2.547714051325042e+000
1	 2.161109247109096e+000	 2.413950299419056e+000	-3.578366311300458e+000
1	 2.134337699784820e+000	 2.437652858861884e+000	-2.923769920788629e+000
1	 2.107316129153595e+000	 2.461050022978969e+000	-2.267532309945308e+000
1	 2.080049770247615e+000	 2.484137882435739e+000	-1.613325377530993e+000
1	 2.052543938516416e+000	 2.506912647547007e+000	-9.648378667457778e-001
1	 2.024804026409246e+000	 2.529370650307736e+000	-3.257689980492919e-001
1	 1.996835499897263e+000	 2.551508346306874e+000	 3.001778958932782e-001
1	 1.968643894940202e+000	 2.573322316522302e+000	 9.093017197894533e-001
1	 1.940234813902220e+000	 2.594809268995017e+000	 1.497909936577200e+000
1	 1.911613921921764e+000	 2.615966040381032e+000	 2.062324846461245e+000
1	 1.882786943240229e+000	 2.636789597379548e+000	 2.598889811212734e+000
1	 2.178897087757560e+000	 2.433819245569663e+000	-3.513360040841560e+000
1	 2.151905186919057e+000	 2.457716898042369e+000	-2.863700562423666e+000
1	 2.124661204860606e+000	 2.481306641515767e+000	-2.211853905741041e+000
1	 2.097170419703349e+000	 2.504584534477977e+000	-1.561496922187110e+000
1	 2.069438190647671e+000	 2.527546756051328e+000	-9.163240578514037e-001
1	 2.041469954527445e+000	 2.550189608039823e+000	-2.800409155190262e-001
1	 2.013271222303608e+000	 2.572509516858754e+000	 3.436421819331976e-001
1	 1.984847575501735e+000	 2.594503035344390e+000	 9.510166132155936e-001
1	 1.956204662598403e+000	 2.616166844441977e+000	 1.538381851955147e+000
1	 1.927348195361151e+000	 2.637497754770376e+000	 2.102051818396756e+000
1	 1.898283945146948e+000	 2.658492708062018e+000	 2.638361176381709e+000
1	 2.196684928405941e+000	 2.453688191720269e+000	-3.441966409304280e+000
1	 2.169472674053184e+000	 2.477780937222855e+000	-2.798012161257670e+000
1	 2.142006280567476e+000	 2.501563260052567e+000	-2.151751986631908e+000
1	 2.114291069158906e+000	 2.525031186520220e+000	-1.506791399368848e+000
1	 2.086332442778711e+000	 2.548180864555652e+000	-8.667537288797994e-001
1	 2.058135882645392e+000	 2.571008565771921e+000	-2.352737523888955e-001
1	 2.029706944709663e+000	 2.593510687410649e+000	 3.840086719901890e-001
1	 2.001051256062946e+000	 2.615683754166508e+000	 9.874549580362306e-001
1	 1.972174511294227e+000	 2.637524419888981e+000	 1.571434116755065e+000
1	 1.943082468800149e+000	 2.659029469159783e+000	 2.132329041103636e+000
1	 1.913780947053250e+000	 2.680195818744573e+000	 2.666542737121523e+000
1	 2.214472769054255e+000	 2.473557137870976e+000	-3.364003275318839e+000
1	 2.187040161187200e+000	 2.497844976403427e+000	-2.726533219153604e+000
1	 2.159351356274192e+000	 2.521819878589436e+000	-2.087053560583875e+000
1	 2.131411718614264e+000	 2.545477838562512e+000	-1.449024017889164e+000
1	 2.103226694909506e+000	 2.568814973060009e+000	-8.159218221013939e-001
1	 2.074801810763048e+000	 2.591827523504031e+000	-1.912355589774633e-001
1	 2.046142667115383e+000	 2.614511857962541e+000	 4.215409888905935e-001
1	 2.017254936623779e+000	 2.636864472988613e+000	 1.018914986836832e+000
1	 1.988144359989638e+000	 2.658881995335965e+000	 1.597400666860705e+000
1	 1.958816742238703e+000	 2.680561183549176e+000	 2.153525407587755e+000
1	 1.929277948959085e+000	 2.701898929427129e+000	 2.683835762869610e+000
1	 2.232260609702518e+000	 2.493426084021882e+000	-3.279294303112889e+000
1	 2.204607648321111e+000	 2.517909015584173e+000	-2.649097704327845e+000
1	 2.176696431980743e+000	 2.542076497126444e+000	-2.017591149532868e+000
1	 2.148532368069398e+000	 2.565924490604902e+000	-1.388015876618789e+000
1	 2.120120947040020e+000	 2.589449081564420e+000	-7.636298158228269e-001
1	 2.091467738880369e+000	 2.612646481236154e+000	-1.477017787970654e-001
1	 2.062578389520717e+000	 2.635513028514410e+000	 4.564943527130272e-001
1	 2.033458617184183e+000	 2.658045191810659e+000	 1.045685426299093e+000
1	 2.004114208684582e+000	 2.680239570782871e+000	 1.616604794240436e+000
1	 1.974551015676761e+000	 2.702092897938480e+000	 2.165998052711570e+000
1	 1.944774950864403e+000	 2.723602040109602e+000	 2.690628732949364e+000
1	 2.250048450350747e+000	 2.513295030173087e+000	-3.187668733029510e+000
1	 2.222175135454916e+000	 2.537973054765179e+000	-2.565544835277955e+000
1	 2.194041507687117e+000	 2.562333115663662e+000	-1.943202571430425e+000
1	 2.165653017524286e+000	 2.586371142647441e+000	-1.323593731665841e+000
1	 2.137015199170221e+000	 2.610083190068913e+000	-7.096854660324007e-001
1	 2.108133666997313e+000	 2.633465438968294e+000	-1.044549563177308e-001
1	 2.079014111925619e+000	 2.656514199066230e+000	 4.891159129296551e-001
1	 2.049662297744106e+000	 2.679225910632606e+000	 1.068045872947431e+000
1	 2.020084057379004e+000	 2.701597146229636e+000	 1.629359567676654e+000
1	 1.990285289114268e+000	 2.723624612327620e+000	 2.170092817966597e+000
1	 1.960271952769154e+000	 2.745305150791909e+000	 2.687297842133844e+000
1	 2.267836290998959e+000	 2.533163976324692e+000	-3.088961162844954e+000
1	 2.239742622588619e+000	 2.558037093946534e+000	-2.475718874878650e+000
1	 2.211386583393305e+000	 2.582589734201157e+000	-1.863730732546055e+000
1	 2.182773666978905e+000	 2.606817794690176e+000	-1.255589774511908e+000
1	 2.153909451300075e+000	 2.630717298573514e+000	-6.539025602039114e-001
1	 2.124799595113840e+000	 2.654284396700450e+000	-6.128445848428389e-002
1	 2.095449834330041e+000	 2.677515369617983e+000	 5.196450649166886e-001
1	 2.065865978303493e+000	 2.700406629454409e+000	 1.086267151212475e+000
1	 2.036053906072851e+000	 2.722954721676199e+000	 1.635968233695192e+000
1	 2.006019562551172e+000	 2.745156326716522e+000	 2.166144694372616e+000
1	 1.975768954673289e+000	 2.767008261473968e+000	 2.674207482416807e+000
1	 1.820798935610176e+000	 2.549977154652176e+000	 2.319602783285815e+000
1	 1.792727330205413e+000	 2.569790075552224e+000	 2.799266632604819e+000
1	 1.764467648259313e+000	 2.589275263636230e+000	 3.232488251319177e+000
1	 1.736025571900472e+000	 2.608430165421335e+000	 3.621573123947093e+000
1	 1.707406826031018e+000	 2.627252357450538e+000	 3.968865513104247e+000
1	 1.678617174651289e+000	 2.645739547069144e+000	 4.276743593419139e+000
1	 1.649662417173072e+000	 2.663889573078078e+000	 4.547614584006285e+000
1	 1.620548384726113e+000	 2.681700406264190e+000	 4.783909889766878e+000
1	 1.591280936462618e+000	 2.699170149807902e+000	 4.988080261637407e+000
1	 1.561865955864427e+000	 2.716297039568712e+000	 5.162590985729739e+000
1	 1.532309347057451e+000	 2.733079444249318e+000	 5.309917111101737e+000
1	 1.836295937518066e+000	 2.571680265333477e+000	 2.408521009425448e+000
1	 1.807985411871278e+000	 2.591661815985435e+000	 2.895323996738341e+000
1	 1.779485208944865e+000	 2.611312844454483e+000	 3.335534406367556e+000
1	 1.750801059228598e+000	 2.630630775524840e+000	 3.731386785313329e+000
1	 1.721938736349818e+000	 2.649613165113236e+000	 4.085158832419420e+000
1	 1.692904053366853e+000	 2.668257701051977e+000	 4.399166555412760e+000
1	 1.663702859050867e+000	 2.686562203747828e+000	 4.675759418651140e+000
1	 1.634341034160935e+000	 2.704524626716821e+000	 4.917315491915587e+000
1	 1.604824487717100e+000	 2.722143056995375e+000	 5.126236610454763e+000
1	 1.575159153276105e+000	 2.739415715428226e+000	 5.304943556328326e+000
1	 1.545350985214473e+000	 2.756340956833962e+000	 5.455871270910179e+000
1	 1.851792939425738e+000	 2.593383376015194e+000	 2.484405428189333e+000
1	 1.823243493536874e+000	 2.613533556419093e+000	 2.976657676125046e+000
1	 1.794502769630099e+000	 2.633350425273200e+000	 3.422467825432158e+000
1	 1.765576546556352e+000	 2.652831385628806e+000	 3.823964200097213e+000
1	 1.736470646668198e+000	 2.671973972776374e+000	 4.183322157216020e+000
1	 1.707190932081953e+000	 2.690775855035223e+000	 4.502759336344210e+000
1	 1.677743300928162e+000	 2.709234834417954e+000	 4.784530891788848e+000
1	 1.648133683595235e+000	 2.727348847169784e+000	 5.030924718099316e+000
1	 1.618368038971053e+000	 2.745115964183133e+000	 5.244256678906638e+000
1	 1.588452350687268e+000	 2.762534391287983e+000	 5.426865849120134e+000
1	 1.558392623371014e+000	 2.779602469418803e+000	 5.581109780324033e+000
1	 1.867289941333142e+000	 2.615086486697246e+000	 2.547714051325042e+000
1	 1.838501575202161e+000	 2.635405296853118e+000	 3.043754151943495e+000
1	 1.809520330314980e+000	 2.655388006092302e+000	 3.493791416918483e+000
1	 1.780352033883710e+000	 2.675031995733159e+000	 3.899813553232634e+000
1	 1.751002556986143e+000	 2.694334780439896e+000	 4.263858696607854e+000
1	 1.721477810796585e+000	 2.713294009018838e+000	 4.588010821409951e+000
1	 1.691783742804964e+000	 2.731907465088427e+000	 4.874395125809457e+000
1	 1.661926333029029e+000	 2.750173067623071e+000	 5.125173402234147e+000
1	 1.631911590224498e+000	 2.768088871371186e+000	 5.342539403061126e+000
1	 1.601745548097935e+000	 2.785653067148001e+000	 5.528714211379430e+000
1	 1.571434261527091e+000	 2.802863982003876e+000	 5.685941626509397e+000
1	 1.882786943240229e+000	 2.636789597379548e+000	 2.598889811212734e+000
1	 1.853759656867096e+000	 2.657277037287426e+000	 3.097083888690582e+000
1	 1.824537890999473e+000	 2.677425586911706e+000	 3.549991531708120e+000
1	 1.795127521210649e+000	 2.697232605837831e+000	 3.959426298407727e+000
1	 1.765534467303639e+000	 2.716695588103744e+000	 4.327255092284644e+000
1	 1.735764689510745e+000	 2.735812163002779e+000	 4.655393799976507e+000
1	 1.705824184681278e+000	 2.754580095759224e+000	 4.945802896705366e+000
1	 1.675718982462327e+000	 2.772997288076670e+000	 5.200483029042294e+000
1	 1.645455141477451e+000	 2.791061778559538e+000	 5.421470584600111e+000
1	 1.615038745508127e+000	 2.808771743008305e+000	 5.610833258168069e+000
1	 1.584475899682721e+000	 2.826125494589216e+000	 5.770665623682223e+000
1	 1.898283945146948e+000	 2.658492708062018e+000	 2.638361176381709e+000
1	 1.869017738531634e+000	 2.679148777721928e+000	 3.137101987957723e+000
1	 1.839555451683543e+000	 2.699463167731334e+000	 3.591538639011222e+000
1	 1.809903008537143e+000	 2.719433215942749e+000	 4.003277841008358e+000
1	 1.780066377620673e+000	 2.739056395767860e+000	 4.373982094768620e+000
1	 1.750051568224430e+000	 2.758330316987007e+000	 4.705365622587284e+000
1	 1.719864626557111e+000	 2.777252726430318e+000	 4.999190260487364e+000
1	 1.689511631895144e+000	 2.795821508530576e+000	 5.257261319763850e+000
1	 1.658998692729931e+000	 2.814034685748200e+000	 5.481423426944543e+000
1	 1.628331942917861e+000	 2.831890418868914e+000	 5.673556351226109e+000
1	 1.597517537837919e+000	 2.849387007174854e+000	 5.835570828352294e+000
1	 1.913780947053250e+000	 2.680195818744573e+000	 2.666542737121523e+000
1	 1.884275820195732e+000	 2.701020518156543e+000	 3.164248810442926e+000
1	 1.854573012367156e+000	 2.721500748551103e+000	 3.618887969382097e+000
1	 1.824678495863168e+000	 2.741633826047844e+000	 4.031828187880223e+000
1	 1.794598287937230e+000	 2.761417203432182e+000	 4.404495206814574e+000
1	 1.764338446937635e+000	 2.780848470971473e+000	 4.738368826048207e+000
1	 1.733905068432467e+000	 2.799925357101683e+000	 5.034979149165863e+000
1	 1.703304281327492e+000	 2.818645728984777e+000	 5.295902789411367e+000
1	 1.672542243981954e+000	 2.837007592937177e+000	 5.522759045331616e+000
1	 1.641625140327156e+000	 2.855009094729854e+000	 5.717206054595312e+000
1	 1.610559175992701e+000	 2.872648519760826e+000	 5.880936934392331e+000
1	 1.929277948959085e+000	 2.701898929427129e+000	 2.683835762869610e+000
1	 1.899533901859347e+000	 2.722892258591184e+000	 3.178950567984504e+000
1	 1.869590573050279e+000	 2.743538329370937e+000	 3.632480126744704e+000
1	 1.839453983188698e+000	 2.763834436153043e+000	 4.045522565775795e+000
1	 1.809130198253296e+000	 2.783778011096656e+000	 4.419235295801179e+000
1	 1.778625325650358e+000	 2.803366624956139e+000	 4.754831728387126e+000
1	 1.747945510307352e+000	 2.822597987773292e+000	 5.053577938008710e+000
1	 1.717096930759385e+000	 2.841469949439266e+000	 5.316789277167334e+000
1	 1.686085795233540e+000	 2.859980500126478e+000	 5.545826952308705e+000
1	 1.654918337736034e+000	 2.878127770591143e+000	 5.742094568283802e+000
1	 1.623600814147085e+000	 2.895910032347164e+000	 5.907034649066859e+000
1	 1.944774950864403e+000	 2.723602040109602e+000	 2.690628732949364e+000
1	 1.914791983522436e+000	 2.744763999025769e+000	 3.181619887289545e+000
1	 1.884608133732874e+000	 2.765575910190751e+000	 3.632741671156440e+000
1	 1.854229470513710e+000	 2.786035046258275e+000	 4.044792010232214e+000
1	 1.823662108568856e+000	 2.806138818761223e+000	 4.418629176843206e+000
1	 1.792912204362594e+000	 2.825884778940959e+000	 4.755168995367662e+000
1	 1.761985952181773e+000	 2.845270618445119e+000	 5.055381985677658e+000
1	 1.730889580190835e+000	 2.864294169894032e+000	 5.320290451422975e+000
1	 1.699629346484705e+000	 2.882953407316110e+000	 5.550965520015315e+000
1	 1.668211535144512e+000	 2.901246446452806e+000	 5.748524141196581e+000
1	 1.636642452301086e+000	 2.919171544933902e+000	 5.914126051082470e+000
1	 1.960271952769154e+000	 2.745305150791909e+000	 2.687297842133844e+000
1	 1.930050065184955e+000	 2.766635739460210e+000	 3.172656346922506e+000
1	 1.899625694414909e+000	 2.787613491010468e+000	 3.620085673929515e+000
1	 1.869004957838178e+000	 2.808235656363468e+000	 4.030053926517227e+000
1	 1.838194018883899e+000	 2.828499626425822e+000	 4.403090168244713e+000
1	 1.807199083074341e+000	 2.848402932925892e+000	 4.739782180131417e+000
1	 1.776026394055733e+000	 2.867943249117138e+000	 5.040774148744556e+000
1	 1.744682229621855e+000	 2.887118390349068e+000	 5.306764290861161e+000
1	 1.713172897735468e+000	 2.905926314506080e+000	 5.538502420537429e+000
1	 1.681504732552608e+000	 2.924365122314863e+000	 5.736787464479533e+000
1	 1.649684090454720e+000	 2.942433057521074e+000	 5.902464931654696e+000
1	 1.975768954673289e+000	 2.767008261473968e+000	 2.674207482416807e+000
1	 1.945308146846862e+000	 2.788507479894426e+000	 3.152446989022491e+000
1	 1.914643255096348e+000	 2.809651071830004e+000	 3.594912246627703e+000
1	 1.883780445162079e+000	 2.830436266468553e+000	 4.001712624176006e+000
1	 1.852725929198409e+000	 2.850860434090399e+000	 4.373018620812147e+000
1	 1.821485961785593e+000	 2.870921086910894e+000	 4.709060237443930e+000
1	 1.790066835929240e+000	 2.890615879789326e+000	 5.010125271993697e+000
1	 1.758474879052460e+000	 2.909942610804365e+000	 5.276557542899194e+000
1	 1.726716448985847e+000	 2.928899221696398e+000	 5.508755045538301e+000
1	 1.694797929960344e+000	 2.947483798177338e+000	 5.707168046352123e+000
1	 1.662725728608005e+000	 2.965694570108715e+000	 5.872297119523879e+000
1	 1.532309347057451e+000	 2.733079444249318e+000	 5.309917111101733e+000
1	 1.502621494919892e+000	 2.749513426483720e+000	 5.435381891381624e+000
1	 1.472803909760124e+000	 2.765600166241469e+000	 5.538848110964691e+000
1	 1.442862534573746e+000	 2.781338433307961e+000	 5.614611987396520e+000
1	 1.412803318353237e+000	 2.796727129707190e+000	 5.657066756332571e+000
1	 1.382632212507476e+000	 2.811765289274062e+000	 5.660710493962379e+000
1	 1.352355167314767e+000	 2.826452077113804e+000	 5.620153667147148e+000
1	 1.321978128413372e+000	 2.840786788950489e+000	 5.530126399882504e+000
1	 1.291507033333439e+000	 2.854768850366804e+000	 5.385485445569675e+000
1	 1.260947808074111e+000	 2.868397815937405e+000	 5.181220855465052e+000
1	 1.230306363729441e+000	 2.881673368258283e+000	 4.912462334577434e+000
1	 1.545350985214473e+000	 2.756340956833962e+000	 5.455871270910179e+000
1	 1.515410456797143e+000	 2.772914810335272e+000	 5.584691511124200e+000
1	 1.485339091186876e+000	 2.789138465944542e+000	 5.691931052863457e+000
1	 1.455142881960698e+000	 2.805010682976676e+000	 5.772318940429445e+000
1	 1.424827828743552e+000	 2.820530354110669e+000	 5.820677921980099e+000
1	 1.394399933597354e+000	 2.835696504958287e+000	 5.831931641959891e+000
1	 1.363865197443819e+000	 2.850508293518875e+000	 5.801111575602802e+000
1	 1.333229616525126e+000	 2.864965009522324e+000	 5.723363695152310e+000
1	 1.302499178906338e+000	 2.879066073662390e+000	 5.593954858261228e+000
1	 1.271679861023363e+000	 2.892811036722655e+000	 5.408278909865126e+000
1	 1.240777624280165e+000	 2.906199578597639e+000	 5.161862489664123e+000
1	 1.558392623371014e+000	 2.779602469418803e+000	 5.581109780324034e+000
1	 1.528199418673973e+000	 2.796316194186986e+000	 5.712943135249949e+000
1	 1.497874272613285e+000	 2.812676765647745e+000	 5.823513677947052e+000
1	 1.467423229347397e+000	 2.828682932645490e+000	 5.907979791084856e+000
1	 1.436852339133718e+000	 2.844333578514223e+000	 5.961589966832049e+000
1	 1.406167654687189e+000	 2.859627720642560e+000	 5.979689371137572e+000
1	 1.375375227572934e+000	 2.874564509923965e+000	 5.957726164993595e+000
1	 1.344481104637046e+000	 2.889143230094151e+000	 5.891257573348570e+000
1	 1.313491324479492e+000	 2.903363296957934e+000	 5.775955693100094e+000
1	 1.282411913972944e+000	 2.917224257507826e+000	 5.607613032372301e+000
1	 1.251248884831276e+000	 2.930725788936877e+000	 5.382147774065023e+000
1	 1.571434261527091e+000	 2.802863982003876e+000	 5.685941626509397e+000
1	 1.540988380550389e+000	 2.819717578038901e+000	 5.820393607585428e+000
1	 1.510409454039345e+000	 2.836215065351122e+000	 5.933795314482003e+000
1	 1.479703576733828e+000	 2.852355182314455e+000	 6.021731060174403e+000
1	 1.448876849523699e+000	 2.868136802917896e+000	 6.079871397520945e+000
1	 1.417935375776931e+000	 2.883558936326929e+000	 6.103979057108788e+000
1	 1.386885257702045e+000	 2.898620726329122e+000	 6.089914657537526e+000
1	 1.355732592749046e+000	 2.913321450666013e+000	 6.033642179821244e+000
1	 1.324483470052802e+000	 2.927660520253484e+000	 5.931234198295226e+000
1	 1.293143966922747e+000	 2.941637478292966e+000	 5.778876861130335e+000
1	 1.261720145382654e+000	 2.955251999276043e+000	 5.572874614280534e+000
1	 1.584475899682721e+000	 2.826125494589216e+000	 5.770665623682222e+000
1	 1.553777342426400e+000	 2.843118961891062e+000	 5.907291315750043e+000
1	 1.522944635465056e+000	 2.859753365054722e+000	 6.022968728143235e+000
1	 1.491983924119970e+000	 2.876027431983614e+000	 6.113704773761850e+000
1	 1.460901359913464e+000	 2.891940027321741e+000	 6.175588465198648e+000
1	 1.429703096866527e+000	 2.907490152011438e+000	 6.204796227738024e+000
1	 1.398395287831081e+000	 2.922676942734390e+000	 6.197597000789889e+000
1	 1.366984080861041e+000	 2.937499671237958e+000	 6.150357120441900e+000
1	 1.335475615626169e+000	 2.951957743549081e+000	 6.059544976462167e+000
1	 1.303876019872661e+000	 2.966050699078124e+000	 5.921735437740561e+000
1	 1.272191405934185e+000	 2.979778209615192e+000	 5.733614040819972e+000
1	 1.597517537837919e+000	 2.849387007174854e+000	 5.835570828352294e+000
1	 1.566566304302014e+000	 2.866520345743511e+000	 5.973876536325430e+000
1	 1.535479816890413e+000	 2.883291664758588e+000	 6.091220389889076e+000
1	 1.504264271505810e+000	 2.899699681653019e+000	 6.184028646631656e+000
1	 1.472925870302978e+000	 2.915743251725803e+000	 6.248805257601677e+000
1	 1.441470817955927e+000	 2.931421367696138e+000	 6.282136556926393e+000
1	 1.409905317959977e+000	 2.946733159139817e+000	 6.280695756399381e+000
1	 1.378235568972946e+000	 2.961677891810029e+000	 6.241247238714023e+000
1	 1.346467761199496e+000	 2.976254966844774e+000	 6.160650643609267e+000
1	 1.314608072822576e+000	 2.990463919863343e+000	 6.035864741790562e+000
1	 1.282662666485751e+000	 3.004304419954371e+000	 5.863951092088598e+000
1	 1.610559175992701e+000	 2.872648519760826e+000	 5.880936934392330e+000
1	 1.579355266177241e+000	 2.889921729596284e+000	 6.020381763254446e+000
1	 1.548014998315415e+000	 2.906829964462771e+000	 6.138730730821293e+000
1	 1.516544618891328e+000	 2.923371931322718e+000	 6.232826256843871e+000
1	 1.484950380692207e+000	 2.939546476130134e+000	 6.299583786643512e+000
1	 1.453238539045079e+000	 2.955352583381074e+000	 6.335995858699004e+000
1	 1.421415348088662e+000	 2.970789375545450e+000	 6.339135994269186e+000
1	 1.389487057084678e+000	 2.985856112382272e+000	 6.306162403712158e+000
1	 1.357459906772683e+000	 3.000552190140606e+000	 6.234321504692038e+000
1	 1.325340125772382e+000	 3.014877140648669e+000	 6.120951247997856e+000
1	 1.293133927037235e+000	 3.028830630293632e+000	 5.963484247237055e+000
1	 1.623600814147085e+000	 2.895910032347164e+000	 5.907034649066859e+000
1	 1.592144228052090e+000	 2.913323113449428e+000	 6.047032020412988e+000
1	 1.560550179740057e+000	 2.930368264167312e+000	 6.165674384762035e+000
1	 1.528824966276507e+000	 2.947044180992758e+000	 6.260217211876234e+000
1	 1.496974891081117e+000	 2.963349700534780e+000	 6.327984071785437e+000
1	 1.465006260133933e+000	 2.979283799066296e+000	 6.366370081577397e+000
1	 1.432925378217068e+000	 2.994845591951334e+000	 6.372845191818572e+000
1	 1.400738545196150e+000	 3.010034332954731e+000	 6.344957308241626e+000
1	 1.368452052345631e+000	 3.024849413436621e+000	 6.280335244804538e+000
1	 1.336072178721969e+000	 3.039290361434152e+000	 6.176691504697288e+000
1	 1.303605187588521e+000	 3.053356840633026e+000	 6.031824886344815e+000
1	 1.636642452301086e+000	 2.919171544933902e+000	 5.914126051082470e+000
1	 1.604933189926567e+000	 2.936724497302984e+000	 6.054045159237342e+000
1	 1.573085361164337e+000	 2.953906563872260e+000	 6.172220419233017e+000
1	 1.541105313661329e+000	 2.970716430663187e+000	 6.266317306822844e+000
1	 1.508999401469674e+000	 2.987152924939791e+000	 6.334064219421109e+000
1	 1.476773981222437e+000	 3.003215014751852e+000	 6.373255303220879e+000
1	 1.444435408345127e+000	 3.018901808357515e+000	 6.381753138061417e+000
1	 1.411990033307279e+000	 3.034212553527452e+000	 6.357491276648311e+000
1	 1.379444197918242e+000	 3.049146636732866e+000	 6.298476635134958e+000
1	 1.346804231671228e+000	 3.063703582219837e+000	 6.202791732481292e+000
1	 1.314076448139491e+000	 3.077883050972602e+000	 6.068596776412853e+000
1	 1.649684090454720e+000	 2.942433057521074e+000	 5.902464931654696e+000
1	 1.617722151800683e+000	 2.960125881156992e+000	 6.041632142234136e+000
1	 1.585620542588254e+000	 2.977444863577661e+000	 6.158532555478465e+000
1	 1.553385661045779e+000	 2.994388680334057e+000	 6.251238675088927e+000
1	 1.521023911857845e+000	 3.010956149345216e+000	 6.317880498496002e+000
1	 1.488541702310539e+000	 3.027146230437786e+000	 6.356647725322235e+000
1	 1.455945438472771e+000	 3.042958024764042e+000	 6.365791842234184e+000
1	 1.423241521417981e+000	 3.058390774100482e+000	 6.343628081744772e+000
1	 1.390436343490416e+000	 3.073443860029386e+000	 6.288537252869031e+000
1	 1.357536284620048e+000	 3.088116803005770e+000	 6.198967441878146e+000
1	 1.324547708690028e+000	 3.102409261312412e+000	 6.073435581737414e+000
1	 1.662725728608005e+000	 2.965694570108715e+000	 5.872297119523879e+000
1	 1.630511113674446e+000	 2.983527265011494e+000	 6.009997313147950e+000
1	 1.598155724011803e+000	 3.000983163283563e+000	 6.124769378133643e+000
1	 1.565666008429836e+000	 3.018060930005414e+000	 6.215089931993728e+000
1	 1.533048422245595e+000	 3.034759373751101e+000	 6.279487412567735e+000
1	 1.500309423398188e+000	 3.051077446124149e+000	 6.316543668743505e+000
1	 1.467455468599930e+000	 3.067014241170959e+000	 6.324895446724280e+000
1	 1.434493009528169e+000	 3.082568994673866e+000	 6.303235770351946e+000
1	 1.401428489062056e+000	 3.097741083326226e+000	 6.250315214274756e+000
1	 1.368268337568320e+000	 3.112530023792000e+000	 6.164943069022561e+000
1	 1.335018969240017e+000	 3.126935471652506e+000	 6.045988397326061e+000
1	 1.230306363729441e+000	 2.881673368258283e+000	 4.912462334577434e+000
1	 1.199583979858828e+000	 2.894597229204027e+000	 4.566144265964803e+000
1	 1.168791122363753e+000	 2.907167317903020e+000	 4.129720493561663e+000
1	 1.137933641963362e+000	 2.919383696497329e+000	 3.599130284448923e+000
1	 1.107017361446401e+000	 2.931246550353865e+000	 2.970394404265289e+000
1	 1.076048072588372e+000	 2.942756186611073e+000	 2.239619902773764e+000
1	 1.045031533136541e+000	 2.953913032638836e+000	 1.403004702944180e+000
1	 1.013973463865370e+000	 2.964717634414845e+000	 4.568419879479799e-001
1	 9.828795457048584e-001	 2.975170654820722e+000	-6.024756189549539e-001
1	 9.517554169440449e-001	 2.985272871861279e+000	-1.778452086076636e+000
1	 9.206066705118042e-001	 2.995025176810348e+000	-3.074484220362872e+000
1	 1.240777624280165e+000	 2.906199578597639e+000	 5.161862489664123e+000
1	 1.209793759126601e+000	 2.919233435816973e+000	 4.841155826872800e+000
1	 1.178738820540489e+000	 2.931910509798534e+000	 4.432663249072843e+000
1	 1.147618709037034e+000	 2.944230863213301e+000	 3.932028953767282e+000
1	 1.116439296963322e+000	 2.956194683005870e+000	 3.334979806134784e+000
1	 1.085206425389242e+000	 2.967802278928781e+000	 2.637330667034845e+000
1	 1.053925901066823e+000	 2.979054081989313e+000	 1.834989511165864e+000
1	 1.022603493460617e+000	 2.989950642812039e+000	 9.239623289521446e-001
1	 9.912449318515898e-001	 3.000492629920440e+000	-9.964219362915514e-002
1	 9.598559025168251e-001	 3.010680827941015e+000	-1.239608222433247e+000
1	 9.284420459871779e-001	 3.020516135733327e+000	-2.499608554260161e+000
1	 1.251248884831276e+000	 2.930725788936877e+000	 5.382147774065022e+000
1	 1.220003538394792e+000	 2.943869642429749e+000	 5.085556262306000e+000
1	 1.188686518717652e+000	 2.956653701693829e+000	 4.703451877629524e+000
1	 1.157303776111121e+000	 2.969078029928999e+000	 4.231220641675127e+000
1	 1.125861232480630e+000	 2.981142815657544e+000	 3.664333265848112e+000
1	 1.094364778190454e+000	 2.992848371246103e+000	 2.998350946916200e+000
1	 1.062820268997394e+000	 3.004195131339357e+000	 2.228930939318885e+000
1	 1.031233523056087e+000	 3.015183651208757e+000	 1.351831897096208e+000
1	 9.996103179984714e-001	 3.025814605019650e+000	 3.629189790279971e-001
1	 9.679563880896778e-001	 3.036088784020224e+000	-7.418312887373485e-001
1	 9.362774214625443e-001	 3.046007094655771e+000	-1.966326397599794e+000
1	 1.261720145382654e+000	 2.955251999276043e+000	 5.572874614280531e+000
1	 1.230213317663281e+000	 2.968505849042415e+000	 5.298814223476819e+000
1	 1.198634216895123e+000	 2.981396893588967e+000	 4.941490028545323e+000
1	 1.166988843185511e+000	 2.993925196644493e+000	 4.496065777161107e+000
1	 1.135283167998224e+000	 3.006090948308973e+000	 3.957792769462109e+000
1	 1.103523130991923e+000	 3.017894463563139e+000	 3.322016047517773e+000
1	 1.071714636928179e+000	 3.029336180689076e+000	 2.584180347989762e+000
1	 1.039863552651724e+000	 3.040416659605120e+000	 1.739835810372354e+000
1	 1.007975704145466e+000	 3.051136580118482e+000	 7.846434339304400e-001
1	 9.760568736625851e-001	 3.061496740099038e+000	-2.856197228133593e-001
1	 9.441127969379056e-001	 3.071498053577817e+000	-1.475055605456575e+000
1	 1.272191405934185e+000	 2.979778209615192e+000	 5.733614040819972e+000
1	 1.240423096931948e+000	 2.993142055655025e+000	 5.480415855479675e+000
1	 1.208581915072786e+000	 3.006140085484014e+000	 5.146200985108544e+000
1	 1.176673910260096e+000	 3.018772363359864e+000	 4.725945846154564e+000
1	 1.144705103516002e+000	 3.031039080960243e+000	 4.214718098875180e+000
1	 1.112681483793558e+000	 3.042940555879987e+000	 3.607683158047848e+000
1	 1.080609004859105e+000	 3.054477230038581e+000	 2.900110453270062e+000
1	 1.048493582247471e+000	 3.065649668001247e+000	 2.087379430864798e+000
1	 1.016341090292535e+000	 3.076458555217061e+000	 1.164985290180513e+000
1	 9.841573592355286e-001	 3.086904696177588e+000	 1.285444478518072e-001
1	 9.519481724132636e-001	 3.096989012499596e+000	-1.026200275637117e+000
1	 1.282662666485751e+000	 3.004304419954371e+000	 5.863951092088598e+000
1	 1.250632876200675e+000	 3.017778262267638e+000	 5.629864083217979e+000
1	 1.218529613250524e+000	 3.030883277379036e+000	 5.317026863153674e+000
1	 1.186358977334763e+000	 3.043619530075185e+000	 4.920262532013997e+000
1	 1.154127039033863e+000	 3.055987213611442e+000	 4.434489942154901e+000
1	 1.121839836595271e+000	 3.067986648196746e+000	 3.854730458547589e+000
1	 1.089503372790100e+000	 3.079618279387982e+000	 3.176114455057687e+000
1	 1.057123611843272e+000	 3.090882676397256e+000	 2.393887538416975e+000
1	 1.024706476439640e+000	 3.101780530315511e+000	 1.503416492491317e+000
1	 9.922578448084908e-001	 3.112312652256009e+000	 5.001949362640600e-001
1	 9.597835478886195e-001	 3.122479971421242e+000	-6.201513102303120e-001
1	 1.293133927037235e+000	 3.028830630293632e+000	 5.963484247237057e+000
1	 1.260842655469342e+000	 3.042414468880311e+000	 5.746677932024306e+000
1	 1.228477311428221e+000	 3.055626469274102e+000	 5.453427848570750e+000
1	 1.196044044409403e+000	 3.068466696790535e+000	 5.078436897774910e+000
1	 1.163548974551707e+000	 3.080935346262660e+000	 4.616509047090480e+000
1	 1.130998189396973e+000	 3.093032740513514e+000	 4.062556270015782e+000
1	 1.098397740721089e+000	 3.104759328737387e+000	 3.411605207710077e+000
1	 1.065753641439071e+000	 3.116115684793267e+000	 2.658803544447010e+000
1	 1.033071862586746e+000	 3.127102505413966e+000	 1.799426089464640e+000
1	 1.000358330381453e+000	 3.137720608334429e+000	 8.288805586222907e-001
1	 9.676189233639758e-001	 3.147970930342888e+000	-2.572869498744760e-001
1	 1.303605187588521e+000	 3.053356840633026e+000	 6.031824886344815e+000
1	 1.271052434737831e+000	 3.067050675493101e+000	 5.830391881024006e+000
1	 1.238425009605759e+000	 3.080369661169275e+000	 5.554881471563105e+000
1	 1.205729111483903e+000	 3.093313863505989e+000	 5.199908607809746e+000
1	 1.172970910069433e+000	 3.105883478913984e+000	 4.760195415540281e+000
1	 1.140156542198578e+000	 3.118078832830393e+000	 4.230578245493595e+000
1	 1.107292108652001e+000	 3.129900378086907e+000	 3.606014430667982e+000
1	 1.074383671034811e+000	 3.141348693189400e+000	 2.881588743653202e+000
1	 1.041437248733813e+000	 3.152424480512545e+000	 2.052519546652596e+000
1	 1.008458815954396e+000	 3.163128564412980e+000	 1.114164627733409e+000
1	 9.754542988393339e-001	 3.173461889264667e+000	 6.202671772467578e-002
1	 1.314076448139491e+000	 3.077883050972602e+000	 6.068596776412855e+000
1	 1.281262214006022e+000	 3.091686882106064e+000	 5.880555247414764e+000
1	 1.248372707783021e+000	 3.105112853064621e+000	 5.620881915603732e+000
1	 1.215414178558155e+000	 3.118161030221624e+000	 5.284135186701030e+000
1	 1.182392845586939e+000	 3.130831611565499e+000	 4.864987536298247e+000
1	 1.149314894999995e+000	 3.143124925147479e+000	 4.358232599824409e+000
1	 1.116186476582760e+000	 3.155041427436653e+000	 3.758791956820318e+000
1	 1.083013700630438e+000	 3.166581701585775e+000	 3.061721601496487e+000
1	 1.049802634880804e+000	 3.177746455611380e+000	 2.262218092462523e+000
1	 1.016559301527304e+000	 3.188536520491794e+000	 1.355624375428738e+000
1	 9.832896743146951e-001	 3.198952848186712e+000	 3.374352735887355e-001
1	 1.324547708690028e+000	 3.102409261312412e+000	 6.073435581737414e+000
1	 1.291471993273796e+000	 3.116323088719257e+000	 5.896731599951991e+000
1	 1.258320405959892e+000	 3.129856044960207e+000	 5.650939359170099e+000
1	 1.225099245632046e+000	 3.143008196937515e+000	 5.330591313268521e+000
1	 1.191814781104125e+000	 3.155779744217294e+000	 4.930341654348192e+000
1	 1.158473247801138e+000	 3.168171017464872e+000	 4.444973375948671e+000
1	 1.125080844513294e+000	 3.180182476786733e+000	 3.869405016521309e+000
1	 1.091643730225893e+000	 3.191814709982507e+000	 3.198697075479918e+000
1	 1.058168021027681e+000	 3.203068430710596e+000	 2.428058095087835e+000
1	 1.024659787100156e+000	 3.213944476571005e+000	 1.552850402377329e+000
1	 9.911250497900614e-001	 3.224443807109156e+000	 5.685955062288992e-001
1	 1.335018969240017e+000	 3.126935471652506e+000	 6.045988397326061e+000
1	 1.301681772541034e+000	 3.140959295332738e+000	 5.878498200036347e+000
1	 1.268268104136253e+000	 3.154599236856098e+000	 5.644579348457645e+000
1	 1.234784312705468e+000	 3.167855363653740e+000	 5.338768147820432e+000
1	 1.201236716620890e+000	 3.180727876869459e+000	 4.955731074507660e+000
1	 1.167631600601917e+000	 3.193217109782673e+000	 4.490271745727918e+000
1	 1.133975212443531e+000	 3.205323526137257e+000	 3.937337555302884e+000
1	 1.100273759821121e+000	 3.217047718379722e+000	 3.292025968369475e+000
1	 1.066533407174408e+000	 3.228390405810319e+000	 2.549590468761154e+000
1	 1.032760272672935e+000	 3.239352432650741e+000	 1.705446153791377e+000
1	 9.989604252654352e-001	 3.249934766032135e+000	 7.551749721145016e-001
1	 9.206066705118042e-001	 2.995025176810348e+000	-3.074484220362872e+000
1	 8.894388508920191e-001	 3.004428571538802e+000	-4.496140671956935e+000
1	 8.582574502751356e-001	 3.013484164285996e+000	-6.051143720854516e+000
1	 8.270679074953227e-001	 3.022193169862039e+000	-7.745900182440144e+000
1	 7.958756060941372e-001	 3.030556908289346e+000	-9.586626393187830e+000
1	 7.646858720132438e-001	 3.038576802639415e+000	-1.157934037302395e+001
1	 7.335039713734896e-001	 3.046254376817458e+000	-1.372985446004935e+001
1	 7.023351083413049e-001	 3.053591253298464e+000	-1.604376842182208e+001
1	 6.711844230832484e-001	 3.060589150818338e+000	-1.852646304617829e+001
1	 6.400569898093635e-001	 3.067249882023707e+000	-2.118309421336831e+001
1	 6.089578149058431e-001	 3.073575351083983e+000	-2.401858745011689e+001
1	 9.284420459871779e-001	 3.020516135733327e+000	-2.499608554260161e+000
1	 8.970089539361903e-001	 3.029999563695273e+000	-3.885096764987284e+000
1	 8.655621652988902e-001	 3.039132229498540e+000	-5.403072708761481e+000
1	 8.341071651999050e-001	 3.047915358292587e+000	-7.059302815066340e+000
1	 8.026493830006501e-001	 3.056350281334656e+000	-8.859361285047172e+000
1	 7.711941899724105e-001	 3.064438433808137e+000	-1.080862325312079e+001
1	 7.397468970565124e-001	 3.072181352588336e+000	-1.291225840232818e+001
1	 7.083127527125638e-001	 3.079580673959275e+000	-1.517522503616856e+001
1	 6.768969408555946e-001	 3.086638131285180e+000	-1.760226460851182e+001
1	 6.455045788827541e-001	 3.093355552640277e+000	-2.019789671207297e+001
1	 6.141407157900874e-001	 3.099734858400542e+000	-2.296641452484879e+001
1	 9.362774214625443e-001	 3.046007094655771e+000	-1.966326397599794e+000
1	 9.045790569802750e-001	 3.055570555851223e+000	-3.315800684886029e+000
1	 8.728668803224783e-001	 3.064780294710581e+000	-4.796455759850890e+000
1	 8.411464229042434e-001	 3.073637546722664e+000	-6.413419259253042e+000
1	 8.094231599068449e-001	 3.082143654379540e+000	-8.171625677221229e+000
1	 7.777025079311873e-001	 3.090300064976481e+000	-1.007581051750141e+001
1	 7.459898227390770e-001	 3.098108328358891e+000	-1.213050487964858e+001
1	 7.142903970833032e-001	 3.105570094619816e+000	-1.434003048047978e+001
1	 6.826094586273637e-001	 3.112687111751801e+000	-1.670849511104945e+001
1	 6.509521679555173e-001	 3.119461223256674e+000	-1.923978852838122e+001
1	 6.193236166736610e-001	 3.125894365716972e+000	-2.193757878019645e+001
1	 9.441127969379056e-001	 3.071498053577817e+000	-1.475055605456575e+000
1	 9.121491600242940e-001	 3.081141548006778e+000	-2.788591027155349e+000
1	 8.801715953459424e-001	 3.090428359922246e+000	-4.231568662809874e+000
1	 8.481856806083995e-001	 3.099359735152392e+000	-5.808478874861589e+000
1	 8.161969368128004e-001	 3.107937027424103e+000	-7.523618791382533e+000
1	 7.842108258896708e-001	 3.116161696144542e+000	-9.381087440629820e+000
1	 7.522327484212990e-001	 3.124035304129198e+000	-1.138478129857421e+001
1	 7.202680414536518e-001	 3.131559515280150e+000	-1.353839024933864e+001
1	 6.883219763986999e-001	 3.138736092218256e+000	-1.584539395751556e+001
1	 6.563997570278098e-001	 3.145566893872942e+000	-1.830905865039226e+001
1	 6.245065175567315e-001	 3.152053873033303e+000	-2.093243430720888e+001
1	 9.519481724132636e-001	 3.096989012499596e+000	-1.026200275637117e+000
1	 9.197192630682695e-001	 3.106712540162070e+000	-2.303795239534869e+000
1	 8.874763103693232e-001	 3.116076425133662e+000	-3.708678126385795e+000
1	 8.552249383124337e-001	 3.125081923581885e+000	-5.244703470414794e+000
1	 8.229707137185969e-001	 3.133730400468455e+000	-6.915533290120986e+000
1	 7.907191438479603e-001	 3.142023327312415e+000	-8.724633197079049e+000
1	 7.584756741032915e-001	 3.149962279899343e+000	-1.067526889558146e+001
1	 7.262456858237402e-001	 3.157548935940349e+000	-1.277050307171897e+001
1	 6.940344941697477e-001	 3.164785072684600e+000	-1.501319266961657e+001
1	 6.618473460997887e-001	 3.171672564489124e+000	-1.740598655169389e+001
1	 6.296894184394667e-001	 3.178213380349571e+000	-1.995132353900410e+001
1	 9.597835478886195e-001	 3.122479971421242e+000	-6.201513102303120e-001
1	 9.272893661122238e-001	 3.132283532317234e+000	-1.861730077036141e+000
1	 8.947810253926622e-001	 3.141724490344950e+000	-3.228042150015217e+000
1	 8.622641960164071e-001	 3.150804112011263e+000	-4.722307611330896e+000
1	 8.297444906243133e-001	 3.159523773512700e+000	-6.347555544675519e+000
1	 7.972274618061515e-001	 3.167884958480192e+000	-8.106621110518889e+000
1	 7.647185997851699e-001	 3.175889255669407e+000	-1.000214298891247e+001
1	 7.322233301936989e-001	 3.183538356600478e+000	-1.203656118714709e+001
1	 6.997470119406511e-001	 3.190834053150890e+000	-1.421211520877248e+001
1	 6.672949351716104e-001	 3.197778235105263e+000	-1.653084257973002e+001
1	 6.348723193220341e-001	 3.204372887665806e+000	-1.899457772662791e+001
1	 9.676189233639758e-001	 3.147970930342888e+000	-2.572869498744760e-001
1	 9.348594691561778e-001	 3.157854524472396e+000	-1.462702034868911e+000
1	 9.020857404160018e-001	 3.167372555556241e+000	-2.789910376445827e+000
1	 8.693034537203804e-001	 3.176526300440638e+000	-4.241498913181598e+000
1	 8.365182675300302e-001	 3.185317146556945e+000	-5.819865889657361e+000
1	 8.037357797643429e-001	 3.193746589647969e+000	-7.527218890606823e+000
1	 7.709615254670481e-001	 3.201816231439471e+000	-9.365573218192278e+000
1	 7.382009745636574e-001	 3.209527777260609e+000	-1.133675060844595e+001
1	 7.054595297115545e-001	 3.216883033617179e+000	-1.344237828221678e+001
1	 6.727425242434325e-001	 3.223883905721402e+000	-1.568388832529933e+001
1	 6.400552202046016e-001	 3.230532394982041e+000	-1.806251739179210e+001
1	 9.754542988393339e-001	 3.173461889264667e+000	 6.202671772467578e-002
1	 9.424295722001534e-001	 3.183425516627688e+000	-1.107007760502495e+000
1	 9.093904554393824e-001	 3.193020620767654e+000	-2.394524427363402e+000
1	 8.763427114244147e-001	 3.202248488870132e+000	-3.802478320816753e+000
1	 8.432920444358267e-001	 3.211110519601296e+000	-5.332638865497571e+000
1	 8.102440977226320e-001	 3.219608220815843e+000	-6.986588858461658e+000
1	 7.772044511490408e-001	 3.227743207209616e+000	-8.765723772496907e+000
1	 7.441786189337460e-001	 3.235517197920807e+000	-1.067125137181603e+001
1	 7.111720474826019e-001	 3.242932014083524e+000	-1.270419163434421e+001
1	 6.781901133154112e-001	 3.249989576337585e+000	-1.486537697424511e+001
1	 6.452381210873366e-001	 3.256691902298308e+000	-1.715545275779332e+001
1	 9.832896743146951e-001	 3.198952848186712e+000	 3.374352735887355e-001
1	 9.499996752441726e-001	 3.208996508783244e+000	-7.949344460258286e-001
1	 9.166951704628461e-001	 3.218668685979320e+000	-2.042118222972376e+000
1	 8.833819691285707e-001	 3.227970677299859e+000	-3.405440374143500e+000
1	 8.500658213417820e-001	 3.236903892645859e+000	-4.886043449302201e+000
1	 8.167524156811158e-001	 3.245469851983902e+000	-6.484888161357310e+000
1	 7.834473768312622e-001	 3.253670182979923e+000	-8.202753607517900e+000
1	 7.501562633040948e-001	 3.261506618581142e+000	-1.004023777495971e+001
1	 7.168845652539382e-001	 3.268980994549978e+000	-1.199775832412830e+001
1	 6.836377023877035e-001	 3.276095246953852e+000	-1.407555364233109e+001
1	 6.504210219704072e-001	 3.282851409614640e+000	-1.627368415982936e+001
1	 9.911250497900614e-001	 3.224443807109156e+000	 5.685955062288992e-001
1	 9.575697782882571e-001	 3.234567500939191e+000	-5.267602018968216e-001
1	 9.239998854864346e-001	 3.244316751191363e+000	-1.732918286417472e+000
1	 8.904212268329095e-001	 3.253692865729938e+000	-3.050573461298640e+000
1	 8.568395982479764e-001	 3.262697265690743e+000	-4.480243274757750e+000
1	 8.232607336398921e-001	 3.271331483152246e+000	-6.022268977232524e+000
1	 7.896903025138271e-001	 3.279597158750477e+000	-7.676816652425464e+000
1	 7.561339076748334e-001	 3.287496039241681e+000	-9.443878603910745e+000
1	 7.225970830257071e-001	 3.295029975016600e+000	-1.132327498938079e+001
1	 6.890852914604664e-001	 3.302200917570249e+000	-1.331465569423269e+001
1	 6.556039228539802e-001	 3.309010916931070e+000	-1.541750243585229e+001
1	 9.989604252654352e-001	 3.249934766032135e+000	 7.551749721145016e-001
1	 9.651398813324286e-001	 3.260138493095665e+000	-3.027544131025457e-001
1	 9.313046005101890e-001	 3.269964816403907e+000	-1.467144033878861e+000
1	 8.974604845374918e-001	 3.279415054160485e+000	-2.738060059906762e+000
1	 8.636133751544897e-001	 3.288490638736054e+000	-4.115396841687224e+000
1	 8.297690515990591e-001	 3.297193114320970e+000	-5.598878709576581e+000
1	 7.959332281968499e-001	 3.305524134521356e+000	-7.188062006996836e+000
1	 7.621115520460927e-001	 3.313485459902493e+000	-8.882337349188646e+000
1	 7.283096007980531e-001	 3.321078955483442e+000	-1.068093209857383e+001
1	 6.945328805338571e-001	 3.328306588186819e+000	-1.258291304751633e+001
1	 6.607868237382243e-001	 3.335170424247628e+000	-1.458718929902801e+001
1	 6.089578149058431e-001	 3.073575351083983e+000	-2.401858745011689e+001
1	 5.778964908983216e-001	 3.079566677810540e+000	-2.706485553122560e+001
1	 5.468732083162867e-001	 3.085226917223479e+000	-3.036074639509937e+001
1	 5.158927506883084e-001	 3.090558234994752e+000	-3.391991148676251e+001
1	 4.849598273529440e-001	 3.095562878368370e+000	-3.775574106220636e+001
1	 4.540790720423593e-001	 3.100243173639482e+000	-4.188134538979165e+001
1	 4.232550415549730e-001	 3.104601523616498e+000	-4.630953684314588e+001
1	 3.924922145166819e-001	 3.108640405069572e+000	-5.105281289688890e+001
1	 3.617949902300640e-001	 3.112362366168643e+000	-5.612334003410387e+001
1	 3.311676876108508e-001	 3.115770023914197e+000	-6.153293857211097e+001
1	 3.006145442108607e-001	 3.118866061563839e+000	-6.729306841079240e+001
1	 6.141407157900874e-001	 3.099734858400542e+000	-2.296641452484879e+001
1	 5.828150257461738e-001	 3.105777177908166e+000	-2.594070590986649e+001
1	 5.515277009021272e-001	 3.111485592184849e+000	-2.916060364705664e+001
1	 5.202835654996195e-001	 3.116862285334807e+000	-3.263917244486714e+001
1	 4.890873689588724e-001	 3.121909523728591e+000	-3.638921105087494e+001
1	 4.579437844502214e-001	 3.126629653460698e+000	-4.042323426629311e+001
1	 4.268574075554643e-001	 3.131025097790100e+000	-4.475345584188836e+001
1	 3.958327550185428e-001	 3.135098354567003e+000	-4.939177226542270e+001
1	 3.648742635849503e-001	 3.138851993649093e+000	-5.434974744838174e+001
1	 3.339862889291539e-001	 3.142288654310430e+000	-5.963859831744259e+001
1	 3.031731046692104e-001	 3.145411042646106e+000	-6.526918131390040e+001
1	 6.193236166736610e-001	 3.125894365716972e+000	-2.193757878019645e+001
1	 5.877335605933207e-001	 3.131987678005702e+000	-2.483559031080953e+001
1	 5.561821934872365e-001	 3.137744267146154e+000	-2.797439457346881e+001
1	 5.246743803101857e-001	 3.143166335674824e+000	-3.136631876542002e+001
1	 4.932149105640552e-001	 3.148256169088801e+000	-3.502342107114932e+001
1	 4.618084968573515e-001	 3.153016133281928e+000	-3.895747371154074e+001
1	 4.304597735552533e-001	 3.157448671963742e+000	-4.317994685568750e+001
1	 3.991732955197487e-001	 3.161556304064507e+000	-4.770199340408139e+001
1	 3.679535369392488e-001	 3.165341621129662e+000	-5.253443464963128e+001
1	 3.368048902469567e-001	 3.168807284706830e+000	-5.768774682074559e+001
1	 3.057316651271697e-001	 3.171956023728603e+000	-6.317204850855990e+001
1	 6.245065175567315e-001	 3.152053873033303e+000	-2.093243430720888e+001
1	 5.926520954399379e-001	 3.158198178103163e+000	-2.374993007793907e+001
1	 5.608366860717978e-001	 3.164002942107413e+000	-2.680259929990342e+001
1	 5.290651951201936e-001	 3.169470386014816e+000	-3.010188478404175e+001
1	 4.973424521686786e-001	 3.174602814449002e+000	-3.365895896134948e+001
1	 4.656732092639322e-001	 3.179402613103171e+000	-3.748470818535860e+001
1	 4.340621395545159e-001	 3.183872246137423e+000	-4.158971786995832e+001
1	 4.025138360204639e-001	 3.188014253562083e+000	-4.598425846970978e+001
1	 3.710328102931063e-001	 3.191831248610334e+000	-5.067827230765376e+001
1	 3.396234915643843e-001	 3.195325915103381e+000	-5.568136125350193e+001
1	 3.082902255848362e-001	 3.198501004811306e+000	-6.100277525305736e+001
1	 6.296894184394667e-001	 3.178213380349571e+000	-1.995132353900410e+001
1	 5.975706302862025e-001	 3.184408678200579e+000	-2.268413268300709e+001
1	 5.654911786559937e-001	 3.190261617068638e+000	-2.564568214449422e+001
1	 5.334560099298289e-001	 3.195774436354789e+000	-2.884638724413255e+001
1	 5.014699937729290e-001	 3.200949459809202e+000	-3.229639320607644e+001
1	 4.695379216701472e-001	 3.205789092924431e+000	-3.600556092967238e+001
1	 4.376645055534270e-001	 3.210295820311139e+000	-3.998345356073010e+001
1	 4.058543765208516e-001	 3.214472203059717e+000	-4.423932386778125e+001
1	 3.741120836466699e-001	 3.218320876091100e+000	-4.878210242671964e+001
1	 3.424420928815618e-001	 3.221844545500062e+000	-5.362038661525151e+001
1	 3.108487860423075e-001	 3.225045985894189e+000	-5.876243041666746e+001
1	 6.348723193220341e-001	 3.204372887665806e+000	-1.899457772662791e+001
1	 6.024891651322907e-001	 3.210619178297972e+000	-2.163859229187179e+001
1	 5.701456712400070e-001	 3.216520292029850e+000	-2.450409226317614e+001
1	 5.378468247392780e-001	 3.222078486694757e+000	-2.760032601495886e+001
1	 5.055975353769930e-001	 3.227296105169404e+000	-3.093627372620130e+001
1	 4.734026340761792e-001	 3.232175572745705e+000	-3.452063483458996e+001
1	 4.412668715521625e-001	 3.236719394484886e+000	-3.836181624609894e+001
1	 4.091949170210756e-001	 3.240930152557404e+000	-4.246792130352874e+001
1	 3.771913570000865e-001	 3.244810503571943e+000	-4.684673951565114e+001
1	 3.452606941986142e-001	 3.248363175896857e+000	-5.150573704680001e+001
1	 3.134073464996812e-001	 3.251590966977224e+000	-5.645204796499459e+001
1	 6.400552202046016e-001	 3.230532394982041e+000	-1.806251739179211e+001
1	 6.074076999783787e-001	 3.236829678395365e+000	-2.061369030322521e+001
1	 5.748001638240200e-001	 3.242778966991062e+000	-2.337826426357090e+001
1	 5.422376395487272e-001	 3.248382537034726e+000	-2.636418477485195e+001
1	 5.097250769810570e-001	 3.253642750529616e+000	-2.957913263047151e+001
1	 4.772673464822108e-001	 3.258562052566995e+000	-3.303051326240454e+001
1	 4.448692375508982e-001	 3.263142968658663e+000	-3.672544679145323e+001
1	 4.125354575212996e-001	 3.267388102055136e+000	-4.067075878200492e+001
1	 3.802706303535030e-001	 3.271300131052852e+000	-4.487297170105450e+001
1	 3.480792955156666e-001	 3.274881806293745e+000	-4.933829707962524e+001
1	 3.159659069570548e-001	 3.278135948060387e+000	-5.407262837315099e+001
1	 6.452381210873366e-001	 3.256691902298308e+000	-1.715545275779332e+001
1	 6.123262348246433e-001	 3.263040178492782e+000	-1.960979586135720e+001
1	 5.794546564082159e-001	 3.269037641952292e+000	-2.226861878928602e+001
1	 5.466284543583625e-001	 3.274686587374711e+000	-2.513843166147927e+001
1	 5.138526185853074e-001	 3.279989395889841e+000	-2.822548493089329e+001
1	 4.811320588884258e-001	 3.284948532388303e+000	-3.153576083188337e+001
1	 4.484716035498094e-001	 3.289566542832465e+000	-3.507496547107234e+001
1	 4.158759980216870e-001	 3.293846051552904e+000	-3.884852155994569e+001
1	 3.833499037070666e-001	 3.297789758533815e+000	-4.286156178690148e+001
1	 3.508978968328441e-001	 3.301400436690709e+000	-4.711892282506652e+001
1	 3.185244674145261e-001	 3.304680929143654e+000	-5.162513997082361e+001
1	 6.504210219704072e-001	 3.282851409614640e+000	-1.627368415982936e+001
1	 6.172447696712605e-001	 3.289250678590245e+000	-1.862726634440285e+001
1	 5.841091489927768e-001	 3.295296316913555e+000	-2.117556307627836e+001
1	 5.510192691683702e-001	 3.300990637714720e+000	-2.392351989102516e+001
1	 5.179801601899307e-001	 3.306336041250084e+000	-2.687582922391123e+001
1	 4.849967712950066e-001	 3.311335012209629e+000	-3.003692416505959e+001
1	 4.520739695490715e-001	 3.315990117006285e+000	-3.341097278853049e+001
1	 4.192165385224019e-001	 3.320304001050699e+000	-3.700187305212261e+001
1	 3.864291770609240e-001	 3.324279386014817e+000	-4.081324826344921e+001
1	 3.537164981502716e-001	 3.327919067087727e+000	-4.484844310665870e+001
1	 3.210830278721925e-001	 3.331225910226997e+000	-4.911052022303425e+001
1	 6.556039228539802e-001	 3.309010916931070e+000	-1.541750243585229e+001
1	 6.221633045184069e-001	 3.315461178687778e+000	-1.766644782943114e+001
1	 5.887636415778862e-001	 3.321554991874869e+000	-2.009949148282693e+001
1	 5.554100839789363e-001	 3.327294688054762e+000	-2.271988834800267e+001
1	 5.221077017951132e-001	 3.332682686610352e+000	-2.553064833927690e+001
1	 4.888614837021363e-001	 3.337721492030971e+000	-2.853453259860103e+001
1	 4.556763355488605e-001	 3.342413691180124e+000	-3.173405025818654e+001
1	 4.225570790236078e-001	 3.346761950548516e+000	-3.513145569470515e+001
1	 3.895084504152222e-001	 3.350769013495848e+000	-3.872874626830501e+001
1	 3.565350994680742e-001	 3.354437697484785e+000	-4.252766053875522e+001
1	 3.236415883301516e-001	 3.357770891310391e+000	-4.652967695014696e+001
1	 6.607868237382243e-001	 3.335170424247628e+000	-1.458718929902801e+001
1	 6.270818393662591e-001	 3.341671678785408e+000	-1.672767553564614e+001
1	 5.934181341637264e-001	 3.347813666836248e+000	-1.904078599456508e+001
1	 5.598008987902472e-001	 3.353598738394850e+000	-2.152796214730734e+001
1	 5.262352434010413e-001	 3.359029331970649e+000	-2.419040995838114e+001
1	 4.927261961099982e-001	 3.364107971852334e+000	-2.702909886170119e+001
1	 4.592787015493515e-001	 3.368837265353978e+000	-3.004476114989595e+001
1	 4.258976195254683e-001	 3.373219900046345e+000	-3.323789176799120e+001
1	 3.925877237701084e-001	 3.377258640976893e+000	-3.660874850226178e+001
1	 3.593537007863771e-001	 3.380956327881860e+000	-4.015735255439001e+001
1	 3.262001487885013e-001	 3.384315872393811e+000	-4.388348949046196e+001
1	 3.006145442108607e-001	 3.118866061563839e+000	-6.729306841079240e+001
1	 2.701351603285507e-001	 3.121653621246674e+000	-7.341837662974729e+001
1	 2.397382515072781e-001	 3.124135025063762e+000	-7.992378341555025e+001
1	 2.094278692182750e-001	 3.126313141612288e+000	-8.682326639922361e+001
1	 1.792079785623931e-001	 3.128190895538556e+000	-9.413040927207423e+001
1	 1.490824577193054e-001	 3.129771264960268e+000	-1.018583875270342e+002
1	 1.190550974780862e-001	 3.131057278902433e+000	-1.100199551962074e+002
1	 8.912960084760466e-002	 3.132052014749406e+000	-1.186274325793022e+002
1	 5.930958274510228e-002	 3.132758595715478e+000	-1.276926949556589e+002
1	 2.959856976126172e-002	 3.133180188336288e+000	-1.372271622706856e+002
1	 0.000000000000000e+000	 3.133319999983334e+000	-1.472417897857414e+002
1	 3.031731046692104e-001	 3.145411042646106e+000	-6.526918131390040e+001
1	 2.724343077016805e-001	 3.148222327528214e+000	-7.125648564331935e+001
1	 2.417786877487560e-001	 3.150724850821440e+000	-7.761646326547205e+001
1	 2.112103307641123e-001	 3.152921505537871e+000	-8.436345753651476e+001
1	 1.807332355959375e-001	 3.154815241215753e+000	-9.151141025661208e+001
1	 1.503513134314467e-001	 3.156409061319833e+000	-9.907384676567224e+001
1	 1.200683873234671e-001	 3.157706020655442e+000	-1.070638620715665e+002
1	 8.988819179751452e-002	 3.158709222798845e+000	-1.154941080054785e+002
1	 5.981437253772146e-002	 3.159421817546308e+000	-1.243767813969729e+002
1	 2.985048614990561e-002	 3.159846998384162e+000	-1.337236132594073e+002
1	 0.000000000000000e+000	 3.159987999982150e+000	-1.435458589744545e+002
1	 3.057316651271697e-001	 3.171956023728603e+000	-6.317204850855990e+001
1	 2.747334550745512e-001	 3.174791033810060e+000	-6.900258420582435e+001
1	 2.438191239901174e-001	 3.177314676579507e+000	-7.519618227585953e+001
1	 2.129927923099747e-001	 3.179529869463931e+000	-8.176731238082395e+001
1	 1.822584926296357e-001	 3.181439586893518e+000	-8.873003985385014e+001
1	 1.516201691438457e-001	 3.183046857680052e+000	-9.609801040940057e+001
1	 1.210816771691728e-001	 3.184354762409182e+000	-1.038844359072352e+002
1	 9.064678274776827e-002	 3.185366430849083e+000	-1.121020811646289e+002
1	 6.031916233064413e-002	 3.186085039377992e+000	-1.207632518093616e+002
1	 3.010240253874203e-002	 3.186513808432925e+000	-1.298797831640014e+002
1	 0.000000000000000e+000	 3.186655999981866e+000	-1.394630301500906e+002
1	 3.082902255848362e-001	 3.198501004811306e+000	-6.100277525305736e+001
1	 2.770326024472274e-001	 3.201359740092179e+000	-6.665792489975436e+001
1	 2.458595602313915e-001	 3.203904502337920e+000	-7.266435908906693e+001
1	 2.147752538558560e-001	 3.206138233390415e+000	-7.903644069593334e+001
1	 1.837837496634492e-001	 3.208063932571783e+000	-8.578813024939791e+001
1	 1.528890248564379e-001	 3.209684654040851e+000	-9.293297051423605e+001
1	 1.220949670151220e-001	 3.211003504163571e+000	-1.004840721323738e+002
1	 9.140537369827995e-002	 3.212023638900031e+000	-1.084541003187389e+002
1	 6.082395212379443e-002	 3.212748261210434e+000	-1.168552626040660e+002
1	 3.035431892772286e-002	 3.213180618482476e+000	-1.256992976151475e+002
1	 0.000000000000000e+000	 3.213323999982383e+000	-1.349974648810993e+002
1	 3.108487860423075e-001	 3.225045985894189e+000	-5.876243041666746e+001
1	 2.793317498197742e-001	 3.227928446374532e+000	-6.422371906815528e+001
1	 2.478999964726072e-001	 3.230494328096633e+000	-7.002236564072400e+001
1	 2.165577154017498e-001	 3.232746597317268e+000	-7.617239924650878e+001
1	 1.853090066973396e-001	 3.234688278250491e+000	-8.268745330683386e+001
1	 1.541578805691588e-001	 3.236322450402154e+000	-8.958075025831064e+001
1	 1.231082568612337e-001	 3.237652245918531e+000	-9.686508731013853e+001
1	 9.216396464896356e-002	 3.238680846951602e+000	-1.045528232472830e+002
1	 6.132874191709650e-002	 3.239411483043539e+000	-1.126558662720959e+002
1	 3.060623531679994e-002	 3.239847428532718e+000	-1.211856628749244e+002
1	 0.000000000000000e+000	 3.239991999983599e+000	-1.301531877223559e+002
1	 3.134073464996812e-001	 3.251590966977224e+000	-5.645204796499459e+001
1	 2.816308971922560e-001	 3.254497152657088e+000	-6.170113849795769e+001
1	 2.499404327137938e-001	 3.257084153855606e+000	-6.727152906623444e+001
1	 2.183401769476500e-001	 3.259354961244440e+000	-7.317669396144089e+001
1	 1.868342637312685e-001	 3.261312623929575e+000	-7.942972302995828e+001
1	 1.554267362819441e-001	 3.262960246763894e+000	-8.604330675336027e+001
1	 1.241215467074266e-001	 3.264300987673977e+000	-9.302972235687020e+001
1	 9.292255559973316e-002	 3.265338055003706e+000	-1.004008209405815e+002
1	 6.183353171047444e-002	 3.266074704877214e+000	-1.081680156260920e+002
1	 3.085815170592516e-002	 3.266514238583551e+000	-1.163422707092520e+002
1	 0.000000000000000e+000	 3.266659999985416e+000	-1.249340918078433e+002
1	 3.159659069570548e-001	 3.278135948060387e+000	-5.407262837315099e+001
1	 2.839300445647380e-001	 3.281065858939814e+000	-5.909131702152111e+001
1	 2.519808689549805e-001	 3.283673979614793e+000	-6.441313351464170e+001
1	 2.201226384935501e-001	 3.285963325171877e+000	-7.005078199208015e+001
1	 1.883595207651974e-001	 3.287936969608975e+000	-7.601659790541547e+001
1	 1.566955919947295e-001	 3.289598043125997e+000	-8.232253371961676e+001
1	 1.251348365536195e-001	 3.290949729429829e+000	-8.898014560487844e+001
1	 9.368114655050273e-002	 3.291995263056253e+000	-9.600058111371233e+001
1	 6.233832150385239e-002	 3.292737926711360e+000	-1.033945678360960e+002
1	 3.111006809505041e-002	 3.293181048634879e+000	-1.111724030236022e+002
1	 0.000000000000000e+000	 3.293327999987732e+000	-1.193439441716091e+002
1	 3.185244674145261e-001	 3.304680929143654e+000	-5.162513997082361e+001
1	 2.862291919372847e-001	 3.307634565222676e+000	-5.639535204099199e+001
1	 2.540213051961963e-001	 3.310263805374154e+000	-6.144842187507852e+001
1	 2.219051000394439e-001	 3.312571689099526e+000	-6.679607367127576e+001
1	 1.898847777990878e-001	 3.314561315288624e+000	-7.244968313241292e+001
1	 1.579644477074505e-001	 3.316235839488389e+000	-7.842026403178228e+001
1	 1.261481263997312e-001	 3.317598471186007e+000	-8.471845571761180e+001
1	 9.443973750118642e-002	 3.318652471109158e+000	-9.135451155107151e+001
1	 6.284311129715450e-002	 3.319401148545888e+000	-9.833828827081746e+001
1	 3.136198448412752e-002	 3.319847858686600e+000	-1.056792362752900e+002
1	 0.000000000000000e+000	 3.319995999990449e+000	-1.133863908122770e+002
1	 3.210830278721925e-001	 3.331225910226997e+000	-4.911052022303424e+001
1	 2.885283393099610e-001	 3.334203271505640e+000	-5.361430597978008e+001
1	 2.560617414374702e-001	 3.336853631133645e+000	-5.837859742067091e+001
1	 2.236875615853252e-001	 3.339180053027334e+000	-6.341393437874824e+001
1	 1.914100348329013e-001	 3.341185660968463e+000	-6.873053274583496e+001
1	 1.592333034200427e-001	 3.342873635850998e+000	-7.433827214327771e+001
1	 1.271614162456806e-001	 3.344247212942430e+000	-8.024668446545155e+001
1	 9.519832845169815e-002	 3.345309679162326e+000	-8.646494329102471e+001
1	 6.334790109030486e-002	 3.346064370380699e+000	-9.300185415524109e+001
1	 3.161390087310839e-002	 3.346514668738616e+000	-9.986584567480992e+001
1	 0.000000000000000e+000	 3.346663999993465e+000	-1.070649615154208e+002
1	 3.236415883301516e-001	 3.357770891310391e+000	-4.652967695014696e+001
1	 2.908274866828316e-001	 3.360771977788671e+000	-5.074920766518674e+001
1	 2.581021776788315e-001	 3.363443456893221e+000	-5.520482537446753e+001
1	 2.254700231311878e-001	 3.365788416955247e+000	-5.990568631798315e+001
1	 1.929352918665995e-001	 3.367810006648428e+000	-6.486065163865044e+001
1	 1.605021591324418e-001	 3.369511432213754e+000	-7.007827639550129e+001
1	 1.281747060913863e-001	 3.370895954699014e+000	-7.556679936984020e+001
1	 9.595691940195203e-002	 3.371966887215674e+000	-8.133413365949951e+001
1	 6.385269088322762e-002	 3.372727592215699e+000	-8.738785805474670e+001
1	 3.186581726194487e-002	 3.373181478790831e+000	-9.373520918788717e+001
1	 0.000000000000000e+000	 3.373331999996682e+000	-1.003830744471948e+002
1	 3.262001487885013e-001	 3.384315872393811e+000	-4.388348949046196e+001
1	 2.931266340559612e-001	 3.387340684071736e+000	-4.780105364596470e+001
1	 2.601426139203095e-001	 3.390033282652841e+000	-5.192823440167403e+001
1	 2.272524846770250e-001	 3.392396780883214e+000	-5.627261020950161e+001
1	 1.944605489001440e-001	 3.394434352328458e+000	-6.084149748914323e+001
1	 1.617710148445833e-001	 3.396149228576582e+000	-6.564194121840983e+001
1	 1.291879959367674e-001	 3.397544696455680e+000	-7.068070622297445e+001
1	 9.671551035186207e-002	 3.398624095269112e+000	-7.596426916081617e+001
1	 6.435748067584694e-002	 3.399390814050797e+000	-8.149881119525917e+001
1	 3.211773365058886e-002	 3.399848288843145e+000	-8.729021134918904e+001
1	 0.000000000000000e+000	 3.400000000000000e+000	-9.334404053178480e+001
1	 3.400000000000000e+000	 0.000000000000000e+000	 7.313230619969228e+001
1	 3.399848288843145e+000	 3.211773365058896e-002	 6.843714283907612e+001
1	 3.399390814050797e+000	 6.435748067584715e-002	 6.388485049398787e+001
1	 3.398624095269110e+000	 9.671551035186184e-002	 5.947762368721973e+001
1	 3.397544696455680e+000	 1.291879959367673e-001	 5.521756501373180e+001
1	 3.396149228576581e+000	 1.617710148445832e-001	 5.110668277836633e+001
1	 3.394434352328458e+000	 1.944605489001441e-001	 4.714688871658200e+001
1	 3.392396780883214e+000	 2.272524846770251e-001	 4.333999580406270e+001
1	 3.390033282652842e+000	 2.601426139203092e-001	 3.968771616104016e+001
1	 3.387340684071737e+000	 2.931266340559610e-001	 3.619165905714085e+001
1	 3.384315872393811e+000	 3.262001487885011e-001	 3.285332902252169e+001
1	 3.426668000003317e+000	 0.000000000000000e+000	 6.943553350355596e+001
1	 3.426515098895459e+000	 3.236965003900857e-002	 6.498573662558052e+001
1	 3.426054035885893e+000	 6.486227046811326e-002	 6.066725397036363e+001
1	 3.425281303322550e+000	 9.747410130137259e-002	 5.648273646391009e+001
1	 3.424193438212349e+000	 1.302012857817725e-001	 5.243474686147550e+001
1	 3.422787024939412e+000	 1.630398705564287e-001	 4.852575675854599e+001
1	 3.421058698008491e+000	 1.959858059335152e-001	 4.475814366299100e+001
1	 3.419005144811186e+000	 2.290349462228409e-001	 4.113418813475501e+001
1	 3.416623108412468e+000	 2.621830501619324e-001	 3.765607099950505e+001
1	 3.413909390354809e+000	 2.954257814294041e-001	 3.432587064268795e+001
1	 3.410860853477238e+000	 3.287587092473185e-001	 3.114556039047424e+001
1	 3.453336000006534e+000	 0.000000000000000e+000	 6.578736145705977e+001
1	 3.453181908947675e+000	 3.262156642723706e-002	 6.158023840096410e+001
1	 3.452717257720900e+000	 6.536706026008118e-002	 5.749315263447503e+001
1	 3.451938511375909e+000	 9.823269225055065e-002	 5.352920518626434e+001
1	 3.450842179968952e+000	 1.312145756264717e-001	 4.969141105794635e+001
1	 3.449424821302194e+000	 1.643087262680443e-001	 4.598269556854241e+001
1	 3.447683043688490e+000	 1.975110629667697e-001	 4.240589073953987e+001
1	 3.445613508739141e+000	 2.308174077686786e-001	 3.896373172753409e+001
1	 3.443212934172093e+000	 2.642234864037292e-001	 3.565885331156458e+001
1	 3.440478096637889e+000	 2.977249288031721e-001	 3.249378644235935e+001
1	 3.437405834560681e+000	 3.313172697066004e-001	 2.947095486079303e+001
1	 3.480004000009550e+000	 0.000000000000000e+000	 6.219340370863094e+001
1	 3.479848718999697e+000	 3.287348281532392e-002	 5.822611880627217e+001
1	 3.479380479555727e+000	 6.587185005183192e-002	 5.436784339323310e+001
1	 3.478595719429110e+000	 9.899128319949312e-002	 5.062212235906052e+001
1	 3.477490921725428e+000	 1.322278654709649e-001	 4.699241511851429e+001
1	 3.476062617664880e+000	 1.655775819795217e-001	 4.348209125016160e+001
1	 3.474307389368426e+000	 1.990363199999830e-001	 4.009442615623603e+001
1	 3.472221872667065e+000	 2.325998693145915e-001	 3.683259675149066e+001
1	 3.469802759931711e+000	 2.662639226457270e-001	 3.369967718896154e+001
1	 3.467046802920988e+000	 3.000240761772669e-001	 3.069863463073208e+001
1	 3.463950815644158e+000	 3.338758301663241e-001	 2.783232507194832e+001
1	 3.506672000012267e+000	 0.000000000000000e+000	 5.865910314107037e+001
1	 3.506515529051426e+000	 3.312539920331866e-002	 5.492868206716162e+001
1	 3.506043701390285e+000	 6.637663984344668e-002	 5.129646202309998e+001
1	 3.505252927482078e+000	 9.974987414829721e-002	 4.776642557448009e+001
1	 3.504139663481709e+000	 1.332411553153518e-001	 4.434246879426325e+001
1	 3.502700414027417e+000	 1.668464376909529e-001	 4.102839615655431e+001
1	 3.500931735048262e+000	 2.005615770332309e-001	 3.782791543355263e+001
1	 3.498830236594934e+000	 2.343823308606330e-001	 3.474463260425622e+001
1	 3.496392585691322e+000	 2.683043588879537e-001	 3.178204678375495e+001
1	 3.493615509204113e+000	 3.023232235516896e-001	 2.894354518219403e+001
1	 3.490495796727684e+000	 3.364343906264662e-001	 2.623239810271656e+001
1	 3.533340000014583e+000	 0.000000000000000e+000	 5.518973831584889e+001
1	 3.533182339102767e+000	 3.337731559127077e-002	 5.169307227402956e+001
1	 3.532706923224484e+000	 6.688142963500651e-002	 4.828398925077539e+001
1	 3.531910135534731e+000	 1.005084650970601e-001	 4.496690335814772e+001
1	 3.530788405237732e+000	 1.342544451597326e-001	 4.174613964826994e+001
1	 3.529338210389759e+000	 1.681152934024299e-001	 3.862592822373966e+001
1	 3.527556080727968e+000	 2.020868340665887e-001	 3.561039833434644e+001
1	 3.525438600522740e+000	 2.361647924068565e-001	 3.270357246963552e+001
1	 3.522982411450922e+000	 2.703447951304369e-001	 2.990936045718656e+001
1	 3.520184215487275e+000	 3.046223709264417e-001	 2.723155357678974e+001
1	 3.517040777811276e+000	 3.389929510870034e-001	 2.467381870100350e+001
1	 3.560008000016400e+000	 0.000000000000000e+000	 5.179042962775871e+001
1	 3.559849149153620e+000	 3.362923197922979e-002	 4.852427937987515e+001
1	 3.559370145058234e+000	 6.738621942659254e-002	 4.533525656058176e+001
1	 3.558567343586992e+000	 1.012670560458787e-001	 4.222820075241496e+001
1	 3.557437146993432e+000	 1.352677350042070e-001	 3.920785838125178e+001
1	 3.555976006751857e+000	 1.693841491140445e-001	 3.627887600519511e+001
1	 3.554180426407513e+000	 2.036120911001322e-001	 3.344579357410560e+001
1	 3.552046964450459e+000	 2.379472539533151e-001	 3.071303767039223e+001
1	 3.549572237210508e+000	 2.723852313732046e-001	 2.808491474207289e+001
1	 3.546752921770479e+000	 3.069215183015246e-001	 2.556560433950331e+001
1	 3.543585758894952e+000	 3.415515115479126e-001	 2.315915236754439e+001
1	 3.586676000017616e+000	 0.000000000000000e+000	 4.846614518499422e+001
1	 3.586515959203890e+000	 3.388114836724521e-002	 4.542714493058632e+001
1	 3.586033366891444e+000	 6.789100921828585e-002	 4.245495174277095e+001
1	 3.585224551638781e+000	 1.020256469948502e-001	 3.955482465056400e+001
1	 3.584085888748746e+000	 1.362810248488751e-001	 3.673192391962815e+001
1	 3.582613803113660e+000	 1.706530048258888e-001	 3.399130348184404e+001
1	 3.580804772086859e+000	 2.051373481339368e-001	 3.133790332106524e+001
1	 3.578655328378077e+000	 2.397297155000623e-001	 2.877654182684898e+001
1	 3.576162062970080e+000	 2.744256676162844e-001	 2.631190812842808e+001
1	 3.573321628053737e+000	 3.092206656769395e-001	 2.394855442164764e+001
1	 3.570130739978726e+000	 3.441100720091705e-001	 2.169088830203537e+001
1	 3.613344000018133e+000	 0.000000000000000e+000	 4.522170642884827e+001
1	 3.613182769253481e+000	 3.413306475536653e-002	 4.240636754147449e+001
1	 3.612696588724027e+000	 6.839579901016757e-002	 3.964762419613797e+001
1	 3.611881759690020e+000	 1.027842379440719e-001	 3.695114889479904e+001
1	 3.610734630503605e+000	 1.372943146938367e-001	 3.432250827826939e+001
1	 3.609251599475124e+000	 1.719218605380546e-001	 3.176715465904556e+001
1	 3.607429117765978e+000	 2.066626051680781e-001	 2.929041749704622e+001
1	 3.605263692305578e+000	 2.415121770471514e-001	 2.689749483133405e+001
1	 3.602751888729632e+000	 2.764661038597041e-001	 2.459344468144943e+001
1	 3.599890334337059e+000	 3.115198130526881e-001	 2.238317643251714e+001
1	 3.596675721062617e+000	 3.466686324707543e-001	 2.027144221880217e+001
1	 3.640012000017849e+000	 0.000000000000000e+000	 4.206179350637672e+001
1	 3.639849579302291e+000	 3.438498114364327e-002	 3.946650813307134e+001
1	 3.639359810555890e+000	 6.890058880231878e-002	 3.691768999754193e+001
1	 3.638538967740630e+000	 1.035428288936408e-001	 3.442141915013981e+001
1	 3.637383372257951e+000	 1.383076045391919e-001	 3.198366120948867e+001
1	 3.635889395836193e+000	 1.731907162506339e-001	 2.961025796150895e+001
1	 3.634053463444836e+000	 2.081878622026318e-001	 2.730691788923775e+001
1	 3.631872056232944e+000	 2.432946385946359e-001	 2.507920664791915e+001
1	 3.629341714489164e+000	 2.785065401034914e-001	 2.293253750046375e+001
1	 3.626459040620449e+000	 3.138189604287712e-001	 2.087216172898346e+001
1	 3.623220702146641e+000	 3.492271929326405e-001	 1.890315903869783e+001
1	 3.666680000016666e+000	 0.000000000000000e+000	 3.899095040860851e+001
1	 3.666516389350228e+000	 3.463689753212492e-002	 3.661199493844357e+001
1	 3.666023032386948e+000	 6.940537859482068e-002	 3.426943675020094e+001
1	 3.665196175790535e+000	 1.043014198436540e-001	 3.196975756562632e+001
1	 3.664032114011715e+000	 1.393208943850406e-001	 2.971931464915927e+001
1	 3.662527192196825e+000	 1.744595719637187e-001	 2.752433043642127e+001
1	 3.660677809123401e+000	 2.097131192376734e-001	 2.539088208254788e+001
1	 3.658480420160158e+000	 2.450771001425689e-001	 2.332489094634278e+001
1	 3.655931540248671e+000	 2.805469763476741e-001	 2.133211202693026e+001
1	 3.653027746903921e+000	 3.161181078051908e-001	 1.941812337026591e+001
1	 3.649765683230813e+000	 3.517857533948059e-001	 1.758831546353017e+001
1	 3.384315872393811e+000	 3.262001487885011e-001	 3.285332902252169e+001
1	 3.380956327881860e+000	 3.593537007863772e-001	 2.965454409499640e+001
1	 3.377258640976893e+000	 3.925877237701081e-001	 2.657720881312376e+001
1	 3.373219900046344e+000	 4.258976195254685e-001	 2.362419523145050e+001
1	 3.368837265353978e+000	 4.592787015493513e-001	 2.079817139381101e+001
1	 3.364107971852335e+000	 4.927261961099983e-001	 1.810159489851169e+001
1	 3.359029331970650e+000	 5.262352434010416e-001	 1.553670663700759e+001
1	 3.353598738394850e+000	 5.598008987902470e-001	 1.310552472217342e+001
1	 3.347813666836249e+000	 5.934181341637267e-001	 1.080983862232496e+001
1	 3.341671678785408e+000	 6.270818393662587e-001	 8.651203517159766e+000
1	 3.335170424247629e+000	 6.607868237382245e-001	 6.630934891753168e+000
1	 3.410860853477238e+000	 3.287587092473185e-001	 3.114556039047424e+001
1	 3.407474958278943e+000	 3.621723021052771e-001	 2.809614889942156e+001
1	 3.403748268457944e+000	 3.956669971256944e-001	 2.515876533992563e+001
1	 3.399677849544182e+000	 4.292381600281079e-001	 2.233672926689246e+001
1	 3.395260839527842e+000	 4.628810675506773e-001	 1.963315260884558e+001
1	 3.390494451673717e+000	 4.965909085187303e-001	 1.705093239436635e+001
1	 3.385375977330978e+000	 5.303627850078559e-001	 1.459274363886311e+001
1	 3.379902788734986e+000	 5.641917136024434e-001	 1.226103240908067e+001
1	 3.374072341797700e+000	 5.980726267504357e-001	 1.005800908288674e+001
1	 3.367882178883140e+000	 6.320003742149503e-001	 7.985641821950958e+000
1	 3.361329931564333e+000	 6.659697246232672e-001	 6.045650274966973e+000
1	 3.437405834560681e+000	 3.313172697066004e-001	 2.947095486079303e+001
1	 3.433993588676044e+000	 3.649909034247586e-001	 2.657054756246779e+001
1	 3.430237895939014e+000	 3.987462704819553e-001	 2.377289458555977e+001
1	 3.426135799042037e+000	 4.325787005314929e-001	 2.108172372768879e+001
1	 3.421684413701722e+000	 4.664834335528000e-001	 1.850055231687547e+001
1	 3.416880931495114e+000	 5.004556209282911e-001	 1.603267917147894e+001
1	 3.411722622691324e+000	 5.344903266155145e-001	 1.368117670773833e+001
1	 3.406206839075148e+000	 5.685825284154835e-001	 1.144888321351363e+001
1	 3.400331016759192e+000	 6.027271193379756e-001	 9.338395307010567e+000
1	 3.394092678980937e+000	 6.369189090644474e-001	 7.352060599418149e+000
1	 3.387489438881134e+000	 6.711526255090805e-001	 5.491970580483107e+000
1	 3.463950815644158e+000	 3.338758301663241e-001	 2.783232507194832e+001
1	 3.460512219073185e+000	 3.678095047447778e-001	 2.508013575660069e+001
1	 3.456727523420122e+000	 4.018255438388306e-001	 2.242160231952189e+001
1	 3.452593748539921e+000	 4.359192410355515e-001	 1.986082242305104e+001
1	 3.448107987875623e+000	 4.700857995556378e-001	 1.740168117625011e+001
1	 3.443267411316521e+000	 5.043203333385941e-001	 1.504784239953172e+001
1	 3.438069268051671e+000	 5.386178682239287e-001	 1.280274002459674e+001
1	 3.432510889415307e+000	 5.729733432292812e-001	 1.066956964933661e+001
1	 3.426589691720682e+000	 6.073816119262632e-001	 8.651280267604559e+000
1	 3.420303179078741e+000	 6.418374439146738e-001	 6.750566193962283e+000
1	 3.413648946197965e+000	 6.763355263955971e-001	 4.969859203663098e+000
1	 3.490495796727684e+000	 3.364343906264662e-001	 2.623239810271656e+001
1	 3.487030849470385e+000	 3.706281060652908e-001	 2.362723627858455e+001
1	 3.483217150901286e+000	 4.049048171962604e-001	 2.110683329634852e+001
1	 3.479051698037852e+000	 4.392597815402108e-001	 1.867561915796464e+001
1	 3.474531562049550e+000	 4.736881655591101e-001	 1.633780997545114e+001
1	 3.469653891137935e+000	 5.081850457495538e-001	 1.409739861038158e+001
1	 3.464415913412003e+000	 5.427454098330110e-001	 1.195814543681854e+001
1	 3.458814939755432e+000	 5.773641580437487e-001	 9.923569248277767e+000
1	 3.452848366682128e+000	 6.120361045152155e-001	 7.996938329619159e+000
1	 3.446513679176499e+000	 6.467559787655527e-001	 6.181261715017344e+000
1	 3.439808453514761e+000	 6.815184272827487e-001	 4.479280653372062e+000
1	 3.517040777811276e+000	 3.389929510870034e-001	 2.467381870100350e+001
1	 3.513549479867664e+000	 3.734467073862540e-001	 2.221410179964108e+001
1	 3.509706778382525e+000	 4.079840905541842e-001	 1.983047355817913e+001
1	 3.505509647535838e+000	 4.426003220453980e-001	 1.752765962023194e+001
1	 3.500955136223510e+000	 4.772905315631356e-001	 1.531017113768833e+001
1	 3.496040370959348e+000	 5.120497581610831e-001	 1.318229485426025e+001
1	 3.490762558772303e+000	 5.468729514426730e-001	 1.114808330101824e+001
1	 3.485118990095495e+000	 5.817549728587999e-001	 9.211345125320015e+000
1	 3.479107041643489e+000	 6.166905971047497e-001	 7.375635574891507e+000
1	 3.472724179274159e+000	 6.516745136170080e-001	 5.644247159130606e+000
1	 3.465967960831457e+000	 6.867013281704680e-001	 4.020200509957643e+000
1	 3.543585758894952e+000	 3.415515115479126e-001	 2.315915236754439e+001
1	 3.540068110265041e+000	 3.762653087076237e-001	 2.084291749199975e+001
1	 3.536196405863857e+000	 4.110633639125422e-001	 1.859435263382744e+001
1	 3.531967597033896e+000	 4.459408625510411e-001	 1.641844318269982e+001
1	 3.527378710397506e+000	 4.808928975676332e-001	 1.431996015786998e+001
1	 3.522426850780760e+000	 5.159144705730965e-001	 1.230344980400772e+001
1	 3.517109204132555e+000	 5.510004930528264e-001	 1.037322328798087e+001
1	 3.511423040435468e+000	 5.861457876743472e-001	 8.533346518680110e+000
1	 3.505365716604720e+000	 6.213450896947828e-001	 6.787630112389388e+000
1	 3.498934679371662e+000	 6.565930484689632e-001	 5.139619526555818e+000
1	 3.492127468147986e+000	 6.918842290586874e-001	 3.592585385117907e+000
1	 3.570130739978726e+000	 3.441100720091705e-001	 2.169088830203537e+001
1	 3.566586740662536e+000	 3.790839100293559e-001	 1.951580353827285e+001
1	 3.562686033345299e+000	 4.141426372712738e-001	 1.740024563974806e+001
1	 3.558425546532040e+000	 4.492814030570673e-001	 1.534942462508721e+001
1	 3.553802284571547e+000	 4.844952635725215e-001	 1.336833697546726e+001
1	 3.548813330602161e+000	 5.197791829855072e-001	 1.146175481004436e+001
1	 3.543455849492743e+000	 5.551280346633837e-001	 9.634215151688425e+000
1	 3.537727090775320e+000	 5.905366024903044e-001	 7.890009305698220e+000
1	 3.531624391565783e+000	 6.259995822852323e-001	 6.233172374614493e+000
1	 3.525145179468956e+000	 6.615115833213418e-001	 4.667472932645093e+000
1	 3.518286975464283e+000	 6.970671299473390e-001	 3.196402883559478e+000
1	 3.596675721062617e+000	 3.466686324707543e-001	 2.027144221880218e+001
1	 3.593105371060168e+000	 3.819025113514069e-001	 1.823481752970928e+001
1	 3.589175660826872e+000	 4.172219106303193e-001	 1.624987528796736e+001
1	 3.584883496030281e+000	 4.526219435634038e-001	 1.432201577956523e+001
1	 3.580225858745636e+000	 4.880976295777195e-001	 1.245642728658499e+001
1	 3.575199810423550e+000	 5.236438953982293e-001	 1.065807490862547e+001
1	 3.569802494852850e+000	 5.592555762742565e-001	 8.931689464292079e+000
1	 3.564031141115022e+000	 5.949274173065841e-001	 7.281756495882369e+000
1	 3.557883066526630e+000	 6.306540748760147e-001	 5.712505400880676e+000
1	 3.551355679565987e+000	 6.664301181740676e-001	 4.227898714307860e+000
1	 3.544446482780284e+000	 7.022500308363556e-001	 2.831621566353457e+000
1	 3.623220702146641e+000	 3.492271929326405e-001	 1.890315903869783e+001
1	 3.619624001457956e+000	 3.847211126737331e-001	 1.700195675902574e+001
1	 3.615665288308592e+000	 4.203011839896183e-001	 1.514491380574913e+001
1	 3.611341445528634e+000	 4.559624840699787e-001	 1.333758710400138e+001
1	 3.606649432919778e+000	 4.916999955831460e-001	 1.158532379835603e+001
1	 3.601586290244921e+000	 5.275086078111761e-001	 9.893249785775636e+000
1	 3.596149140212859e+000	 5.633831178853564e-001	 8.266258318776403e+000
1	 3.590335191454546e+000	 5.993182321230999e-001	 6.708998702279985e+000
1	 3.584141741487224e+000	 6.353085674670475e-001	 5.225865108139137e+000
1	 3.577566179662699e+000	 6.713486530270642e-001	 3.820985531790292e+000
1	 3.570605990095922e+000	 7.074329317256695e-001	 2.498210915902228e+000
1	 3.649765683230813e+000	 3.517857533948059e-001	 1.758831546353017e+001
1	 3.646142631855923e+000	 3.875397139962905e-001	 1.581916041318210e+001
1	 3.642154915790480e+000	 4.233804573491110e-001	 1.408698477148959e+001
1	 3.637799395027112e+000	 4.593030245767192e-001	 1.239746918654917e+001
1	 3.633073007093982e+000	 4.953023615887200e-001	 1.075608742859614e+001
1	 3.627972770066271e+000	 5.313733202242620e-001	 9.168094699158020e+000
1	 3.622495785572755e+000	 5.675106594965961e-001	 7.638516000960189e+000
1	 3.616639241793862e+000	 6.037090469397646e-001	 6.172134592279289e+000
1	 3.610400416447522e+000	 6.399630600582474e-001	 4.773480549985798e+000
1	 3.603776679759039e+000	 6.762671878802548e-001	 3.446819466013198e+000
1	 3.596765497411132e+000	 7.126158326152124e-001	 2.196141302435042e+000
1	 3.335170424247629e+000	 6.607868237382245e-001	 6.630934891753170e+000
1	 3.328306588186820e+000	 6.945328805338576e-001	 4.712668219378852e+000
1	 3.321078955483442e+000	 7.283096007980534e-001	 2.861161009372412e+000
1	 3.313485459902493e+000	 7.621115520460923e-001	 1.078233391248176e+000
1	 3.305524134521356e+000	 7.959332281968499e-001	-6.344550587548528e-001
1	 3.297193114320970e+000	 8.297690515990592e-001	-2.275409849685750e+000
1	 3.288490638736053e+000	 8.636133751544897e-001	-3.843305935071476e+000
1	 3.279415054160485e+000	 8.974604845374922e-001	-5.336991886891205e+000
1	 3.269964816403906e+000	 9.313046005101889e-001	-6.755493872053500e+000
1	 3.260138493095666e+000	 9.651398813324287e-001	-8.098019419241126e+000
1	 3.249934766032135e+000	 9.989604252654352e-001	-9.363960964176421e+000
1	 3.361329931564333e+000	 6.659697246232672e-001	 6.045650274966972e+000
1	 3.354412258803586e+000	 6.999804696079965e-001	 4.202632296668949e+000
1	 3.347127935950537e+000	 7.340221185710896e-001	 2.422115326335420e+000
1	 3.339474880563621e+000	 7.680891964179748e-001	 7.060664574628069e-001
1	 3.331451110292614e+000	 8.021761538804227e-001	-9.437028386343399e-001
1	 3.323054745490133e+000	 8.362773695586973e-001	-2.525541405223852e+000
1	 3.314284011781863e+000	 8.703871520613905e-001	-4.037962930475185e+000
1	 3.305137242591581e+000	 9.044997422423740e-001	-5.479650303217605e+000
1	 3.295612881617041e+000	 9.386093155341523e-001	-6.849459781739018e+000
1	 3.285709485252758e+000	 9.727099843767159e-001	-8.146424963349320e+000
1	 3.275425724955747e+000	 1.006795800740831e+000	-9.369760542587084e+000
1	 3.387489438881134e+000	 6.711526255090805e-001	 5.491970580483107e+000
1	 3.380517929420490e+000	 7.054280586828631e-001	 3.723826711049708e+000
1	 3.373176916417826e+000	 7.397346363448024e-001	 2.014073368361411e+000
1	 3.365464301225001e+000	 7.740668407904772e-001	 3.648014731730187e-001
1	 3.357378086064188e+000	 8.084190795645522e-001	-1.222049035840666e+000
1	 3.348916376659676e+000	 8.427856875188232e-001	-2.744694025850459e+000
1	 3.340077384828114e+000	 8.771609289687061e-001	-4.201509841241747e+000
1	 3.330859431023175e+000	 9.115389999475941e-001	-5.591037810053460e+000
1	 3.321260946830720e+000	 9.459140305583734e-001	-6.911988573008562e+000
1	 3.311280477410429e+000	 9.802800874211785e-001	-8.163246222755042e+000
1	 3.300916683879955e+000	 1.014631176216317e+000	-9.343872241068404e+000
1	 3.413648946197965e+000	 6.763355263955971e-001	 4.969859203663098e+000
1	 3.406623600037462e+000	 7.108756477584002e-001	 3.276088306552291e+000
1	 3.399225896885227e+000	 7.454471541191478e-001	 1.636744398206445e+000
1	 3.391453721886553e+000	 7.800444851635687e-001	 5.401957036411288e-002
1	 3.383305061835990e+000	 8.146620052492226e-001	-1.470040713131982e+000
1	 3.374778007829510e+000	 8.492940054794386e-001	-2.933542542809494e+000
1	 3.365870757874714e+000	 8.839347058764533e-001	-4.334748346288864e+000
1	 3.356581619455178e+000	 9.185782576531858e-001	-5.672081514695188e+000
1	 3.346909012044858e+000	 9.532187455829028e-001	-6.944130860238187e+000
1	 3.336851469568601e+000	 9.878501904658823e-001	-8.149654892511979e+000
1	 3.326407642804696e+000	 1.022466551691976e+000	-9.287585901179131e+000
1	 3.439808453514761e+000	 6.815184272827487e-001	 4.479280653372062e+000
1	 3.432729270654426e+000	 7.163232368345508e-001	 2.859258890367967e+000
1	 3.425274877352659e+000	 7.511596718940811e-001	 1.289846522774415e+000
1	 3.417443142548179e+000	 7.860221295372193e-001	-2.266853771283667e-001
1	 3.409232037607928e+000	 8.209049309344189e-001	-1.688208291767329e+000
1	 3.400639638999539e+000	 8.558023234405421e-001	-3.092741259163628e+000
1	 3.391664130921576e+000	 8.907084827846498e-001	-4.438455737681439e+000
1	 3.382303807887502e+000	 9.256175153591826e-001	-5.723680322089441e+000
1	 3.372557077259375e+000	 9.605234606077897e-001	-6.946905298402865e+000
1	 3.362422461727200e+000	 9.954202935108940e-001	-8.106787025031624e+000
1	 3.351898601729900e+000	 1.030301927167889e+000	-9.202152127851530e+000
1	 3.465967960831457e+000	 6.867013281704680e-001	 4.020200509957642e+000
1	 3.458834941271304e+000	 7.217708259112585e-001	 2.473185045550174e+000
1	 3.451323857820038e+000	 7.568721896695587e-001	 9.731063593590325e-001
1	 3.443432563209798e+000	 7.919997739113979e-001	-4.777072344661054e-001
1	 3.435159013379911e+000	 8.271478566201258e-001	-1.877066179517869e+000
1	 3.426501270169675e+000	 8.623106414021357e-001	-3.222924724479665e+000
1	 3.417457503968606e+000	 8.974822596933118e-001	-4.513385840934683e+000
1	 3.408025996320059e+000	 9.326567730656179e-001	-5.746705999124232e+000
1	 3.398205142474186e+000	 9.678281756330857e-001	-6.921299789149778e+000
1	 3.387993453886149e+000	 1.002990396556281e+000	-8.035744375153719e+000
1	 3.377389560655498e+000	 1.038137302644139e+000	-9.088783770090386e+000
1	 3.492127468147986e+000	 6.918842290586874e-001	 3.592585385117905e+000
1	 3.484940611888026e+000	 7.272184149884663e-001	 2.117717952135013e+000
1	 3.477372838287284e+000	 7.625847074455355e-001	 6.862587168878073e-001
1	 3.469421983871323e+000	 7.979774182860747e-001	-6.994280650438679e-001
1	 3.461085989151848e+000	 8.333907823063274e-001	-2.037113370451804e+000
1	 3.452362901339824e+000	 8.688189593642191e-001	-3.324708474695597e+000
1	 3.443250877015715e+000	 9.042560366024566e-001	-4.560269893953043e+000
1	 3.433748184752760e+000	 9.396960307725260e-001	-5.742004191084301e+000
1	 3.423853207689207e+000	 9.751328906588402e-001	-6.868272632663592e+000
1	 3.413564446045371e+000	 1.010560499602108e+000	-7.937595684760934e+000
1	 3.402880519581427e+000	 1.045972678120808e+000	-8.948657335120284e+000
1	 3.518286975464283e+000	 6.970671299473390e-001	 3.196402883559478e+000
1	 3.511046282504512e+000	 7.326660040661169e-001	 1.792713216241334e+000
1	 3.503421818754312e+000	 7.682972252219673e-001	 4.290462913857595e-001
1	 3.495411404532665e+000	 8.039550626612186e-001	-8.922185692373345e-001
1	 3.487012964923652e+000	 8.396337079930085e-001	-2.168834017961555e+000
1	 3.478224532509898e+000	 8.753272773267932e-001	-3.398689738980338e+000
1	 3.469044250062812e+000	 9.110298135121011e-001	-4.579817386758370e+000
1	 3.459470373185520e+000	 9.467352884799398e-001	-5.710395392760664e+000
1	 3.449501272904357e+000	 9.824376056851036e-001	-6.788753628144897e+000
1	 3.439135438204790e+000	 1.018130602648443e+000	-7.813377910084718e+000
1	 3.428371478507617e+000	 1.053808053597977e+000	-8.782914339445636e+000
1	 3.544446482780284e+000	 7.022500308363556e-001	 2.831621566353456e+000
1	 3.537151953120691e+000	 7.381135931441537e-001	 1.498030706739222e+000
1	 3.529470799221043e+000	 7.740097429988094e-001	 2.012193749249283e-001
1	 3.521400825193738e+000	 8.099327070367999e-001	-1.056438503722773e+000
1	 3.512939940695230e+000	 8.458766336801536e-001	-2.272697982416265e+000
1	 3.504086163679800e+000	 8.818355952898579e-001	-3.445448115292158e+000
1	 3.494837623109805e+000	 9.178035904222620e-001	-4.572716864032602e+000
1	 3.485192561618248e+000	 9.537745461878934e-001	-5.652675876556871e+000
1	 3.475149338119550e+000	 9.897423207119256e-001	-6.683645125556713e+000
1	 3.464706430364329e+000	 1.025700705695351e+000	-7.664097394663138e+000
1	 3.453862437434002e+000	 1.061643429075729e+000	-8.592662600081892e+000
1	 3.570605990095922e+000	 7.074329317256695e-001	 2.498210915902229e+000
1	 3.563257623736486e+000	 7.435611822225200e-001	 1.233534399098016e+000
1	 3.555519779687395e+000	 7.797222607760181e-001	 2.535577368030495e-003
1	 3.547390245854455e+000	 8.159103514127873e-001	-1.192437082363709e+000
1	 3.538866916466492e+000	 8.521195593677474e-001	-2.349161354740022e+000
1	 3.529947794849443e+000	 8.883439132534144e-001	-3.465546216241081e+000
1	 3.520630996156604e+000	 9.245773673329562e-001	-4.539636692382437e+000
1	 3.510914750050856e+000	 9.608138038964199e-001	-5.569618579797660e+000
1	 3.500797403334707e+000	 9.970470357393572e-001	-6.553823031138276e+000
1	 3.490277422523912e+000	 1.033270808742900e+000	-7.490730990737274e+000
1	 3.479353396360510e+000	 1.069478804554146e+000	-8.378977469027186e+000
1	 3.596765497411132e+000	 7.126158326152124e-001	 2.196141302435042e+000
1	 3.589363294351825e+000	 7.490087713011588e-001	 9.990922260485142e-001
1	 3.581568760153285e+000	 7.854347785535488e-001	-1.672404397455031e-001
1	 3.573379666514728e+000	 8.218879957891508e-001	-1.300553359603776e+000
1	 3.564793892237348e+000	 8.583624850557747e-001	-2.398666957142328e+000
1	 3.555809426018735e+000	 8.948522312174628e-001	-3.459530286766202e+000
1	 3.546424369203119e+000	 9.313511442442009e-001	-4.481225794121513e+000
1	 3.536636938483259e+000	 9.678530616055532e-001	-5.461973953316482e+000
1	 3.526445468549742e+000	 1.004351750767448e+000	-6.400137769039441e+000
1	 3.515848414683465e+000	 1.040840911791156e+000	-7.294227131712112e+000
1	 3.504844355287081e+000	 1.077314180033311e+000	-8.142903013863155e+000
1	 3.249934766032135e+000	 9.989604252654352e-001	-9.363960964176421e+000
1	 3.239352432650741e+000	 1.032760272672935e+000	-1.054355337169924e+001
1	 3.228390405810319e+000	 1.066533407174408e+000	-1.162782611446331e+001
1	 3.217047718379721e+000	 1.100273759821121e+000	-1.261764922131495e+001
1	 3.205323526137257e+000	 1.133975212443531e+000	-1.351408702458006e+001
1	 3.193217109782673e+000	 1.167631600601917e+000	-1.431839914783839e+001
1	 3.180727876869459e+000	 1.201236716620890e+000	-1.503204119687259e+001
1	 3.167855363653740e+000	 1.234784312705469e+000	-1.565666514665998e+001
1	 3.154599236856098e+000	 1.268268104136253e+000	-1.619411941784635e+001
1	 3.140959295332737e+000	 1.301681772541035e+000	-1.664644863674376e+001
1	 3.126935471652506e+000	 1.335018969240017e+000	-1.701589307353097e+001
1	 3.275425724955747e+000	 1.006795800740831e+000	-9.369760542587084e+000
1	 3.264760388731105e+000	 1.040860758245642e+000	-1.050946361320470e+001
1	 3.253712380910649e+000	 1.074898793320969e+000	-1.155647809115546e+001
1	 3.242280726777507e+000	 1.108903789416095e+000	-1.251173039350837e+001
1	 3.230464575488312e+000	 1.142869580373430e+000	-1.337635269200555e+001
1	 3.218263202100959e+000	 1.176789953402282e+000	-1.415168397806006e+001
1	 3.205676009522064e+000	 1.210658652137173e+000	-1.483927081109169e+001
1	 3.192702530370364e+000	 1.244469379778354e+000	-1.544086774251897e+001
1	 3.179342428752352e+000	 1.278215802312035e+000	-1.595843740833615e+001
1	 3.165595501946556e+000	 1.311891551807666e+000	-1.639415028384776e+001
1	 3.151461681992926e+000	 1.345490229789387e+000	-1.675038409481184e+001
1	 3.300916683879955e+000	 1.014631176216317e+000	-9.343872241068404e+000
1	 3.290168344812070e+000	 1.048961243818355e+000	-1.044374833271311e+001
1	 3.279034356011567e+000	 1.083264179467451e+000	-1.145382927798630e+001
1	 3.267513735175860e+000	 1.117533819010909e+000	-1.237508223540800e+001
1	 3.255605624839903e+000	 1.151763948303092e+000	-1.320868984847466e+001
1	 3.243309294419742e+000	 1.185948306202339e+000	-1.395605138765632e+001
1	 3.230624142175128e+000	 1.220080587653086e+000	-1.461878355883256e+001
1	 3.217549697087408e+000	 1.254154446850814e+000	-1.519872096999357e+001
1	 3.204085620648994e+000	 1.288163500487353e+000	-1.569791624867325e+001
1	 3.190231708560741e+000	 1.322101331073807e+000	-1.611863980326089e+001
1	 3.175987892333698e+000	 1.355961490338257e+000	-1.646337922205369e+001
1	 3.326407642804696e+000	 1.022466551691976e+000	-9.287585901179131e+000
1	 3.315576300893580e+000	 1.057061729391170e+000	-1.034779937802122e+001
1	 3.304356331113032e+000	 1.091629565613964e+000	-1.132134473720978e+001
1	 3.292746743574746e+000	 1.126163848605684e+000	-1.220921457516522e+001
1	 3.280746674192009e+000	 1.160658316232648e+000	-1.301262501056329e+001
1	 3.268355386739016e+000	 1.195106659002230e+000	-1.373301690314951e+001
1	 3.255572274828653e+000	 1.229502523168778e+000	-1.437205672499741e+001
1	 3.242396863804885e+000	 1.263839513923010e+000	-1.493163707559789e+001
1	 3.228828812546041e+000	 1.298111198662370e+000	-1.541387683283518e+001
1	 3.214867915175308e+000	 1.332311110339624e+000	-1.582112093261300e+001
1	 3.200514102674839e+000	 1.366432750886795e+000	-1.615593977063846e+001
1	 3.351898601729900e+000	 1.030301927167889e+000	-9.202152127851530e+000
1	 3.340984256975579e+000	 1.065162214964183e+000	-1.022296625729756e+001
1	 3.329678306214996e+000	 1.099994951760619e+000	-1.116044496428781e+001
1	 3.317979751974136e+000	 1.134793878200544e+000	-1.201559131237335e+001
1	 3.305887723544611e+000	 1.169552684162233e+000	-1.278963825863194e+001
1	 3.293401479058773e+000	 1.204265011802098e+000	-1.348404994916108e+001
1	 3.280520407482643e+000	 1.238924458684402e+000	-1.410052265588729e+001
1	 3.267244030522806e+000	 1.273524580995097e+000	-1.464098534569477e+001
1	 3.253572004443512e+000	 1.308058896837248e+000	-1.510759987356756e+001
1	 3.239504121790274e+000	 1.342520889605283e+000	-1.550276079216565e+001
1	 3.225040313016362e+000	 1.376904011435166e+000	-1.582909477102591e+001
1	 3.377389560655498e+000	 1.038137302644139e+000	-9.088783770090386e+000
1	 3.366392213058008e+000	 1.073262700537491e+000	-1.007055773688126e+001
1	 3.355000281317417e+000	 1.108360337907524e+000	-1.097250756973737e+001
1	 3.343212760373997e+000	 1.143423907795610e+000	-1.179563215130414e+001
1	 3.331028772897689e+000	 1.178447052091981e+000	-1.254116498922015e+001
1	 3.318447571379005e+000	 1.213423364602087e+000	-1.321057558818990e+001
1	 3.305468540137102e+000	 1.248346394200107e+000	-1.380557045507990e+001
1	 3.292091197241183e+000	 1.283209648067234e+000	-1.432809372771172e+001
1	 3.278315196341421e+000	 1.318006595012151e+000	-1.478032741872986e+001
1	 3.264140328405664e+000	 1.352730668870948e+000	-1.516469126666646e+001
1	 3.249566523358288e+000	 1.387375271983537e+000	-1.548384218711090e+001
1	 3.402880519581427e+000	 1.045972678120808e+000	-8.948657335120284e+000
1	 3.391800169140812e+000	 1.081363186111191e+000	-9.891843367266697e+000
1	 3.380322256420250e+000	 1.116725724054792e+000	-1.075886888538506e+001
1	 3.368445768774295e+000	 1.152053937391004e+000	-1.155071425624286e+001
1	 3.356169822251226e+000	 1.187341420022024e+000	-1.226859758867818e+001
1	 3.343493663699706e+000	 1.222581717402338e+000	-1.291397618219423e+001
1	 3.330416672792031e+000	 1.257768329716046e+000	-1.348854760308489e+001
1	 3.316938363960027e+000	 1.292894715139578e+000	-1.399425037848967e+001
1	 3.303058388239788e+000	 1.327954293187240e+000	-1.443326429948775e+001
1	 3.288776535021494e+000	 1.362940448136786e+000	-1.480801032509425e+001
1	 3.274092733700633e+000	 1.397846532532076e+000	-1.512115007982090e+001
1	 3.428371478507617e+000	 1.053808053597977e+000	-8.782914339445636e+000
1	 3.417208125223934e+000	 1.089463671685380e+000	-9.688054941010416e+000
1	 3.405644231523448e+000	 1.125091110202530e+000	-1.052082549896389e+001
1	 3.393678777175000e+000	 1.160683966986851e+000	-1.128217383297518e+001
1	 3.381310871605199e+000	 1.196235787952496e+000	-1.197328703213450e+001
1	 3.368539756020867e+000	 1.231740070202997e+000	-1.259559298004812e+001
1	 3.355364805447436e+000	 1.267190265232369e+000	-1.315076150474318e+001
1	 3.341785530679351e+000	 1.302579782212286e+000	-1.364070514355712e+001
1	 3.327801580138630e+000	 1.337901991362676e+000	-1.406757951389866e+001
1	 3.313412741637784e+000	 1.373150227402962e+000	-1.443378328152785e+001
1	 3.298618944043411e+000	 1.408317793080948e+000	-1.474195771880285e+001
1	 3.453862437434002e+000	 1.061643429075729e+000	-8.592662600081892e+000
1	 3.442616081307318e+000	 1.097564157260154e+000	-9.460387886079310e+000
1	 3.430966206626969e+000	 1.133456496350850e+000	-1.025963572075420e+001
1	 3.418911785576080e+000	 1.169313996583270e+000	-1.099130764024264e+001
1	 3.406451920959592e+000	 1.205130155883531e+000	-1.165654441165751e+001
1	 3.393585848342482e+000	 1.240898423004204e+000	-1.225672763470075e+001
1	 3.380312938103318e+000	 1.276612200749228e+000	-1.279348096810378e+001
1	 3.366632697399166e+000	 1.312264849285518e+000	-1.326867097089832e+001
1	 3.352544772037962e+000	 1.347849689538625e+000	-1.368440754922927e+001
1	 3.338048948254552e+000	 1.383360006669642e+000	-1.404304400018064e+001
1	 3.323145154386643e+000	 1.418789053630321e+000	-1.434717664488222e+001
1	 3.479353396360510e+000	 1.069478804554146e+000	-8.378977469027186e+000
1	 3.468024037390906e+000	 1.105664642835609e+000	-9.210002597948920e+000
1	 3.456288181730765e+000	 1.141821882499862e+000	-9.976520985753872e+000
1	 3.444144793977504e+000	 1.177944026180386e+000	-1.067937443475689e+001
1	 3.431592970314385e+000	 1.214024523815262e+000	-1.131964239724182e+001
1	 3.418631940664544e+000	 1.250056775806104e+000	-1.189864365364458e+001
1	 3.405261070759681e+000	 1.286034136266774e+000	-1.241793761829159e+001
1	 3.391479864119481e+000	 1.321949916359429e+000	-1.287932526257475e+001
1	 3.377287963937803e+000	 1.357797387715248e+000	-1.328484964614608e+001
1	 3.362685154871818e+000	 1.393569785936990e+000	-1.363679604746435e+001
1	 3.347671364730342e+000	 1.429260314180360e+000	-1.393769168581788e+001
1	 3.504844355287081e+000	 1.077314180033311e+000	-8.142903013863155e+000
1	 3.493431993474643e+000	 1.113765128411843e+000	-8.938025713571637e+000
1	 3.481610156834797e+000	 1.150187268649676e+000	-9.672667194660182e+000
1	 3.469377802379237e+000	 1.186574055778320e+000	-1.034759635315583e+001
1	 3.456734019669560e+000	 1.222918891747823e+000	-1.096381663403944e+001
1	 3.443678032987045e+000	 1.259215128608840e+000	-1.152256778608737e+001
1	 3.430209203416529e+000	 1.295456071785157e+000	-1.202532724967679e+001
1	 3.416327030840312e+000	 1.331634983434178e+000	-1.247381116736441e+001
1	 3.402031155838170e+000	 1.367745085892707e+000	-1.286997500773848e+001
1	 3.387321361489601e+000	 1.403779565205173e+000	-1.321601379377811e+001
1	 3.372197575074528e+000	 1.439731574731234e+000	-1.351436192773148e+001
1	 3.126935471652506e+000	 1.335018969240017e+000	-1.701589307353097e+001
1	 3.112530023792000e+000	 1.368268337568320e+000	-1.732446327966540e+001
1	 3.097741083326226e+000	 1.401428489062056e+000	-1.759283355131483e+001
1	 3.082568994673866e+000	 1.434493009528169e+000	-1.782130267198183e+001
1	 3.067014241170958e+000	 1.467455468599930e+000	-1.801025603557684e+001
1	 3.051077446124150e+000	 1.500309423398188e+000	-1.816016610771193e+001
1	 3.034759373751101e+000	 1.533048422245595e+000	-1.827159275211535e+001
1	 3.018060930005414e+000	 1.565666008429837e+000	-1.834518341942576e+001
1	 3.000983163283562e+000	 1.598155724011803e+000	-1.838167319591175e+001
1	 2.983527265011496e+000	 1.630511113674446e+000	-1.838188470996085e+001
1	 2.965694570108715e+000	 1.662725728608005e+000	-1.834672789449429e+001
1	 3.151461681992926e+000	 1.345490229789387e+000	-1.675038409481184e+001
1	 3.136943244578563e+000	 1.379000390515981e+000	-1.704852673464808e+001
1	 3.122038306623422e+000	 1.412420634633105e+000	-1.730842904882502e+001
1	 3.106747215247636e+000	 1.445744497637801e+000	-1.753022841483007e+001
1	 3.091070457578299e+000	 1.478965498726574e+000	-1.771413355598499e+001
1	 3.075008661810973e+000	 1.512077144485368e+000	-1.786042512321943e+001
1	 3.058562598157479e+000	 1.545072932632920e+000	-1.796945617044805e+001
1	 3.041733179677284e+000	 1.577946355813512e+000	-1.804165252095613e+001
1	 3.024521462989988e+000	 1.610690905435004e+000	-1.807751302241456e+001
1	 3.006928648866512e+000	 1.643300075547886e+000	-1.807760968837481e+001
1	 2.988956082696837e+000	 1.675767366760974e+000	-1.804258772433387e+001
1	 3.175987892333698e+000	 1.355961490338257e+000	-1.646337922205370e+001
1	 3.161356465365481e+000	 1.389732443463149e+000	-1.675267998375273e+001
1	 3.146335529920983e+000	 1.423412780203684e+000	-1.700538204453640e+001
1	 3.130925435821790e+000	 1.456995985746995e+000	-1.722148126431870e+001
1	 3.115126673986046e+000	 1.490475528852819e+000	-1.740103095790903e+001
1	 3.098939877498229e+000	 1.523844865572194e+000	-1.754414257939599e+001
1	 3.082365822564309e+000	 1.557097443019938e+000	-1.765098632602970e+001
1	 3.065405429349620e+000	 1.590226703196920e+000	-1.772179165915293e+001
1	 3.048059762696877e+000	 1.623226086857971e+000	-1.775684773988619e+001
1	 3.030330032721980e+000	 1.656089037421116e+000	-1.775650377743681e+001
1	 3.012217595285378e+000	 1.688809004913743e+000	-1.772116928807484e+001
1	 3.200514102674839e+000	 1.366432750886795e+000	-1.615593977063846e+001
1	 3.185769686152757e+000	 1.400464496409990e+000	-1.643784099555438e+001
1	 3.170632753218907e+000	 1.434404925773955e+000	-1.668448985183872e+001
1	 3.155103656396314e+000	 1.468247473855910e+000	-1.689576009324624e+001
1	 3.139182890394172e+000	 1.501985558978823e+000	-1.707157038800241e+001
1	 3.122871093185870e+000	 1.535612586658817e+000	-1.721188508816196e+001
1	 3.106169046971531e+000	 1.569121953406790e+000	-1.731671494180602e+001
1	 3.089077679022347e+000	 1.602507050580201e+000	-1.738611774577521e+001
1	 3.071598062404153e+000	 1.635761268280842e+000	-1.742019893673396e+001
1	 3.053731416577815e+000	 1.668877999294270e+000	-1.741911211846972e+001
1	 3.035479107874254e+000	 1.701850643066445e+000	-1.738305952344436e+001
1	 3.225040313016362e+000	 1.376904011435166e+000	-1.582909477102591e+001
1	 3.210182906940405e+000	 1.411196549356671e+000	-1.610489981427630e+001
1	 3.194929976517193e+000	 1.445397071344083e+000	-1.634652553006753e+001
1	 3.179281876971192e+000	 1.479498961964707e+000	-1.655374251489278e+001
1	 3.163239106802647e+000	 1.513495589104740e+000	-1.672635506738856e+001
1	 3.146802308873855e+000	 1.547380307745388e+000	-1.686420202525877e+001
1	 3.129972271379087e+000	 1.581146463793625e+000	-1.696715756585688e+001
1	 3.112749928695398e+000	 1.614787397963496e+000	-1.703513196826828e+001
1	 3.095136362111731e+000	 1.648296449703754e+000	-1.706807233478872e+001
1	 3.077132800433933e+000	 1.681666961167483e+000	-1.706596326974701e+001
1	 3.058740620463381e+000	 1.714892281219213e+000	-1.702882751368498e+001
1	 3.249566523358288e+000	 1.387375271983537e+000	-1.548384218711090e+001
1	 3.234596127728435e+000	 1.421928602303357e+000	-1.575471961358976e+001
1	 3.219227199815839e+000	 1.456389216914231e+000	-1.599223879979548e+001
1	 3.203460097546411e+000	 1.490750450073546e+000	-1.619608568530451e+001
1	 3.187295323211441e+000	 1.525005619230725e+000	-1.636597000586560e+001
1	 3.170733524562135e+000	 1.559148028832056e+000	-1.650162618070187e+001
1	 3.153775495786916e+000	 1.593170974180589e+000	-1.660281418179756e+001
1	 3.136422178368696e+000	 1.627067745346946e+000	-1.666932038316248e+001
1	 3.118674661819536e+000	 1.660831631126843e+000	-1.670095838807274e+001
1	 3.100534184290246e+000	 1.694455923040890e+000	-1.669756983229799e+001
1	 3.082002133052676e+000	 1.727933919372181e+000	-1.665902516134101e+001
1	 3.274092733700633e+000	 1.397846532532076e+000	-1.512115007982090e+001
1	 3.259009348516858e+000	 1.432660655250213e+000	-1.538813770304969e+001
1	 3.243524423114846e+000	 1.467381362484561e+000	-1.562235691698493e+001
1	 3.227638318121956e+000	 1.502001938182587e+000	-1.582342706951846e+001
1	 3.211351539620524e+000	 1.536515649356934e+000	-1.599098268401132e+001
1	 3.194664740250668e+000	 1.570915749918973e+000	-1.612467437999843e+001
1	 3.177578720194960e+000	 1.605195484567825e+000	-1.622416979174537e+001
1	 3.160094428042173e+000	 1.639348092730692e+000	-1.628915448280071e+001
1	 3.142212961527484e+000	 1.673366812550247e+000	-1.631933285465457e+001
1	 3.123935568146673e+000	 1.707244884914625e+000	-1.631442904758614e+001
1	 3.105263645642055e+000	 1.740975557525482e+000	-1.627418783176124e+001
1	 3.298618944043411e+000	 1.408317793080948e+000	-1.474195771880285e+001
1	 3.283422569305680e+000	 1.443392708197407e+000	-1.500596648963143e+001
1	 3.267821646414211e+000	 1.478373508055239e+000	-1.523758550814303e+001
1	 3.251816538697812e+000	 1.513253426291988e+000	-1.543638517360507e+001
1	 3.235407756029868e+000	 1.548025679483521e+000	-1.560194370485752e+001
1	 3.218595955939409e+000	 1.582683471006288e+000	-1.573384807765165e+001
1	 3.201381944603160e+000	 1.617219994955479e+000	-1.583169497327885e+001
1	 3.183766677715757e+000	 1.651628440114874e+000	-1.589509173678412e+001
1	 3.165751261235494e+000	 1.685901993974103e+000	-1.592365734299316e+001
1	 3.147336952003127e+000	 1.720033846788822e+000	-1.591702336852366e+001
1	 3.128525158231437e+000	 1.754017195679249e+000	-1.587483496789368e+001
1	 3.323145154386643e+000	 1.418789053630321e+000	-1.434717664488222e+001
1	 3.307835790094914e+000	 1.454124761145104e+000	-1.460899439668826e+001
1	 3.292118869713935e+000	 1.489365653626425e+000	-1.483860936849382e+001
1	 3.275994759273966e+000	 1.524504914401911e+000	-1.503556024429362e+001
1	 3.259463972439443e+000	 1.559535709610643e+000	-1.519938741670683e+001
1	 3.242527171628312e+000	 1.594451192094152e+000	-1.532963392438277e+001
1	 3.225185169011457e+000	 1.629244505343696e+000	-1.542584641173354e+001
1	 3.207438927389378e+000	 1.663908787499634e+000	-1.548757610944023e+001
1	 3.189289560943490e+000	 1.698437175398548e+000	-1.551437983408798e+001
1	 3.170738335859523e+000	 1.732822808663616e+000	-1.550582100519995e+001
1	 3.151786670820736e+000	 1.767058833833616e+000	-1.546147067785573e+001
1	 3.347671364730342e+000	 1.429260314180360e+000	-1.393769168581788e+001
1	 3.332249010884568e+000	 1.464856814093469e+000	-1.419798674251329e+001
1	 3.316416093014018e+000	 1.500357799198286e+000	-1.442609322506468e+001
1	 3.300172979850403e+000	 1.535756402512514e+000	-1.462153493784378e+001
1	 3.283520188849219e+000	 1.571045739738455e+000	-1.478383250857181e+001
1	 3.266458387317334e+000	 1.606218913182716e+000	-1.491250430941956e+001
1	 3.248988393419791e+000	 1.641269015732624e+000	-1.500706740909892e+001
1	 3.231111177062963e+000	 1.676189134885112e+000	-1.506703855454482e+001
1	 3.212827860651388e+000	 1.710972356823719e+000	-1.509193518067663e+001
1	 3.194139719715778e+000	 1.745611770539141e+000	-1.508127644662131e+001
1	 3.175048183409871e+000	 1.780100471988717e+000	-1.503458429667574e+001
1	 3.372197575074528e+000	 1.439731574731234e+000	-1.351436192773148e+001
1	 3.356662231674654e+000	 1.475588867042669e+000	-1.377368658056222e+001
1	 3.340713316314456e+000	 1.511349944770984e+000	-1.400068246647237e+001
1	 3.324351200427108e+000	 1.547007890623957e+000	-1.419487495972843e+001
1	 3.307576405259167e+000	 1.582555769867112e+000	-1.435578257962977e+001
1	 3.290389603006430e+000	 1.617986634272130e+000	-1.448291787911977e+001
1	 3.272791617828106e+000	 1.653293526122406e+000	-1.457578837070795e+001
1	 3.254783426736442e+000	 1.688469482271450e+000	-1.463389748845461e+001
1	 3.236366160359109e+000	 1.723507538249754e+000	-1.465674558464823e+001
1	 3.217541103571808e+000	 1.758400732415532e+000	-1.464383095968227e+001
1	 3.198309695998757e+000	 1.793142110144684e+000	-1.459465092352123e+001
1	 2.965694570108715e+000	 1.662725728608005e+000	-1.834672789449429e+001
1	 2.947483798177338e+000	 1.694797929960343e+000	-1.826877535228003e+001
1	 2.928899221696398e+000	 1.726716448985847e+000	-1.813993318106503e+001
1	 2.909942610804364e+000	 1.758474879052459e+000	-1.796018623318184e+001
1	 2.890615879789327e+000	 1.790066835929240e+000	-1.772956415015148e+001
1	 2.870921086910895e+000	 1.821485961785593e+000	-1.744814222791305e+001
1	 2.850860434090400e+000	 1.852725929198409e+000	-1.711604223111478e+001
1	 2.830436266468553e+000	 1.883780445162080e+000	-1.673343315410544e+001
1	 2.809651071830005e+000	 1.914643255096348e+000	-1.630053192635222e+001
1	 2.788507479894426e+000	 1.945308146846862e+000	-1.581760406010564e+001
1	 2.767008261473969e+000	 1.975768954673289e+000	-1.528496423823565e+001
1	 2.988956082696837e+000	 1.675767366760974e+000	-1.804258772433386e+001
1	 2.970602474040236e+000	 1.708091127367755e+000	-1.796454729344017e+001
1	 2.951872128887056e+000	 1.740260000235878e+000	-1.783524092007490e+001
1	 2.932766831259906e+000	 1.772267528482681e+000	-1.765486560506506e+001
1	 2.913288510461653e+000	 1.804107277802321e+000	-1.742367481168694e+001
1	 2.893439240895929e+000	 1.835772840496374e+000	-1.714197904763840e+001
1	 2.873221241754907e+000	 1.867257839512400e+000	-1.681014637238974e+001
1	 2.852636876573476e+000	 1.898555932485417e+000	-1.642860282792898e+001
1	 2.831688652649308e+000	 1.929660815777189e+000	-1.599783279106813e+001
1	 2.810379220328354e+000	 1.960566228508146e+000	-1.551837924563549e+001
1	 2.788711372155723e+000	 1.991265956576792e+000	-1.499084397304436e+001
1	 3.012217595285378e+000	 1.688809004913743e+000	-1.772116928807483e+001
1	 2.993721149903497e+000	 1.721384324774959e+000	-1.764267623268538e+001
1	 2.974845036078005e+000	 1.753803551485679e+000	-1.751279798435983e+001
1	 2.955591051715656e+000	 1.786060177912640e+000	-1.733192804442155e+001
1	 2.935961141134095e+000	 1.818147719675097e+000	-1.710052721002215e+001
1	 2.915957394880990e+000	 1.850059719206805e+000	-1.681912389123543e+001
1	 2.895582049419351e+000	 1.881789749825994e+000	-1.648831433142822e+001
1	 2.874837486678263e+000	 1.913331419808317e+000	-1.610876272927714e+001
1	 2.853726233468411e+000	 1.944678376457553e+000	-1.568120126101076e+001
1	 2.832250960762047e+000	 1.975824310168927e+000	-1.520643000167486e+001
1	 2.810414482837230e+000	 2.006762958479779e+000	-1.468531674444077e+001
1	 3.035479107874254e+000	 1.701850643066445e+000	-1.738305952344436e+001
1	 3.016839825767045e+000	 1.734677522182089e+000	-1.730379284932558e+001
1	 2.997817943269185e+000	 1.767347102735386e+000	-1.717326509263249e+001
1	 2.978415272171568e+000	 1.799852827342473e+000	-1.699205096869308e+001
1	 2.958633771806631e+000	 1.832188161547714e+000	-1.676080249621617e+001
1	 2.938475548866074e+000	 1.864346597917032e+000	-1.648024906762019e+001
1	 2.917942857083756e+000	 1.896321660139343e+000	-1.615119740209692e+001
1	 2.897038096782951e+000	 1.928106907130930e+000	-1.577453138010898e+001
1	 2.875763814287376e+000	 1.959695937137597e+000	-1.535121175828690e+001
1	 2.854122701195575e+000	 1.991082391829359e+000	-1.488227576396340e+001
1	 2.832117593518570e+000	 2.022259960382399e+000	-1.436883656886157e+001
1	 3.058740620463381e+000	 1.714892281219213e+000	-1.702882751368498e+001
1	 3.039958501630808e+000	 1.747970719589279e+000	-1.694850863757903e+001
1	 3.020790850460532e+000	 1.780890653985136e+000	-1.681728286472367e+001
1	 3.001239492627601e+000	 1.813645476772324e+000	-1.663589118846874e+001
1	 2.981306402479240e+000	 1.846228603420313e+000	-1.640516110089978e+001
1	 2.960993702851183e+000	 1.878633476627206e+000	-1.612600643425618e+001
1	 2.940303664748140e+000	 1.910853570452599e+000	-1.579942706608209e+001
1	 2.919238706887588e+000	 1.942882394453412e+000	-1.542650848711557e+001
1	 2.897801395106262e+000	 1.974713497817474e+000	-1.500842123124045e+001
1	 2.875994441629014e+000	 2.006340473489594e+000	-1.454642016714846e+001
1	 2.853820704199826e+000	 2.037756962284804e+000	-1.404184365168828e+001
1	 3.082002133052676e+000	 1.727933919372181e+000	-1.665902516134101e+001
1	 3.063077177494705e+000	 1.761263916996664e+000	-1.657741663057302e+001
1	 3.043763757651986e+000	 1.794434205235065e+000	-1.644547258006707e+001
1	 3.024063713083709e+000	 1.827438126202331e+000	-1.626408568513963e+001
1	 3.003979033151893e+000	 1.860269045293039e+000	-1.603424351621634e+001
1	 2.983511856836313e+000	 1.892920355337473e+000	-1.575702816894451e+001
1	 2.962664472412528e+000	 1.925385480765913e+000	-1.543361574055508e+001
1	 2.941439316992212e+000	 1.957657881775916e+000	-1.506527565176440e+001
1	 2.919838975925133e+000	 1.989731058497339e+000	-1.465336981387213e+001
1	 2.897866182062439e+000	 2.021598555149789e+000	-1.419935164108135e+001
1	 2.875523814881082e+000	 2.053253964187143e+000	-1.370476490844430e+001
1	 3.105263645642055e+000	 1.740975557525482e+000	-1.627418783176124e+001
1	 3.086195853358668e+000	 1.774557114404378e+000	-1.619109209180351e+001
1	 3.066736664843483e+000	 1.807977756485311e+000	-1.605843690209355e+001
1	 3.046887933539847e+000	 1.841230775632634e+000	-1.587725235360088e+001
1	 3.026651663824572e+000	 1.874309487166035e+000	-1.564867104261730e+001
1	 3.006030010821464e+000	 1.907207234047981e+000	-1.537392750692529e+001
1	 2.985025280076941e+000	 1.939917391079437e+000	-1.505435749223331e+001
1	 2.963639927096867e+000	 1.972433369098596e+000	-1.469139704843019e+001
1	 2.941876556744047e+000	 2.004748619177347e+000	-1.428658145561995e+001
1	 2.919737922495926e+000	 2.036856636810096e+000	-1.384154398031275e+001
1	 2.897226925562421e+000	 2.068750966089566e+000	-1.335801446256607e+001
1	 3.128525158231437e+000	 1.754017195679249e+000	-1.587483496789368e+001
1	 3.109314529222616e+000	 1.787850311812554e+000	-1.579009317574760e+001
1	 3.089709572034964e+000	 1.821521307736009e+000	-1.565676057030860e+001
1	 3.069712153995974e+000	 1.855023425063373e+000	-1.547599071182072e+001
1	 3.049324294497249e+000	 1.888349929039446e+000	-1.524904650234192e+001
1	 3.028548164806635e+000	 1.921494112758879e+000	-1.497729944509539e+001
1	 3.007386087741395e+000	 1.954449301393320e+000	-1.466222871958571e+001
1	 2.985840537201595e+000	 1.987208856421605e+000	-1.430542007227280e+001
1	 2.963914137563063e+000	 2.019766179857653e+000	-1.390856452304452e+001
1	 2.941609662929547e+000	 2.052114718470668e+000	-1.347345688818168e+001
1	 2.918930036243927e+000	 2.084247967992224e+000	-1.300199412096810e+001
1	 3.151786670820736e+000	 1.767058833833616e+000	-1.546147067785573e+001
1	 3.132433205086475e+000	 1.801143509221328e+000	-1.537496155922239e+001
1	 3.112682479226364e+000	 1.835064858987296e+000	-1.524101106172317e+001
1	 3.092536374452043e+000	 1.868816074494688e+000	-1.506088257898765e+001
1	 3.071996925169904e+000	 1.902390370913415e+000	-1.483595492130234e+001
1	 3.051066318791824e+000	 1.935780991470312e+000	-1.456772141504211e+001
1	 3.029746895405916e+000	 1.968981211707714e+000	-1.425778880482848e+001
1	 3.008041147306436e+000	 2.001984343745096e+000	-1.390787595842593e+001
1	 2.985951718382243e+000	 2.034783740538410e+000	-1.351981237486999e+001
1	 2.963481403363379e+000	 2.067372800131659e+000	-1.309553649681085e+001
1	 2.940633146925679e+000	 2.099744969895266e+000	-1.263709382854831e+001
1	 3.175048183409871e+000	 1.780100471988717e+000	-1.503458429667574e+001
1	 3.155551880950169e+000	 1.814436706630833e+000	-1.494622304499051e+001
1	 3.135655386417623e+000	 1.848608410239309e+000	-1.481173922320896e+001
1	 3.115360594908013e+000	 1.882608723926719e+000	-1.463249272384810e+001
1	 3.094669555842513e+000	 1.916430812788086e+000	-1.440996418099435e+001
1	 3.073584472777031e+000	 1.950067870182429e+000	-1.414575392649095e+001
1	 3.052107703070523e+000	 1.983513122022769e+000	-1.384158073726010e+001
1	 3.030241757411437e+000	 2.016759831069224e+000	-1.349928037396702e+001
1	 3.007989299201648e+000	 2.049801301219773e+000	-1.312080391174764e+001
1	 2.985353143797493e+000	 2.082630881793222e+000	-1.270821586424418e+001
1	 2.962336257607764e+000	 2.115241971798842e+000	-1.226369210271462e+001
1	 3.198309695998757e+000	 1.793142110144684e+000	-1.459465092352124e+001
1	 3.178670556813624e+000	 1.827729904041205e+000	-1.450438813902531e+001
1	 3.158628293608679e+000	 1.862151961492185e+000	-1.436947987625894e+001
1	 3.138184815363838e+000	 1.896401373359606e+000	-1.419136948475108e+001
1	 3.117342186515054e+000	 1.930471254663603e+000	-1.397162564195956e+001
1	 3.096102626762256e+000	 1.964354748895379e+000	-1.371194118267490e+001
1	 3.074468510735240e+000	 1.998045032338640e+000	-1.341413170939539e+001
1	 3.052442367516636e+000	 2.031535318394142e+000	-1.308013398405478e+001
1	 3.030026880021336e+000	 2.064818861901898e+000	-1.271200410202818e+001
1	 3.007224884231966e+000	 2.097888963455511e+000	-1.231191544988995e+001
1	 2.984039368290266e+000	 2.130738973703105e+000	-1.188215644894932e+001
1	 2.767008261473969e+000	 1.975768954673289e+000	-1.528496423823565e+001
1	 2.745156326716522e+000	 2.006019562551172e+000	-1.471895744450243e+001
1	 2.722954721676198e+000	 2.036053906072851e+000	-1.413695603905847e+001
1	 2.700406629454409e+000	 2.065865978303493e+000	-1.354089522022787e+001
1	 2.677515369617984e+000	 2.095449834330041e+000	-1.293276403254723e+001
1	 2.654284396700450e+000	 2.124799595113841e+000	-1.231460216333505e+001
1	 2.630717298573514e+000	 2.153909451300075e+000	-1.168849663296893e+001
1	 2.606817794690175e+000	 2.182773666978905e+000	-1.105657838522568e+001
1	 2.582589734201157e+000	 2.211386583393304e+000	-1.042101878433437e+001
1	 2.558037093946534e+000	 2.239742622588618e+000	-9.784026025665639e+000
1	 2.533163976324692e+000	 2.267836290998960e+000	-9.147841467235761e+000
1	 2.788711372155723e+000	 1.991265956576792e+000	-1.499084397304437e+001
1	 2.766688041105134e+000	 2.021753835987452e+000	-1.443185592184778e+001
1	 2.744312297122522e+000	 2.052023754766099e+000	-1.385869316992223e+001
1	 2.721587348276045e+000	 2.082069658862324e+000	-1.327300986878267e+001
1	 2.698516540169660e+000	 2.111885556733959e+000	-1.267650404606232e+001
1	 2.675103354432631e+000	 2.141465523229930e+000	-1.207091486638019e+001
1	 2.651351407078246e+000	 2.170803703429568e+000	-1.145801980551617e+001
1	 2.627264446733149e+000	 2.199894316433246e+000	-1.083963174334327e+001
1	 2.602846352738986e+000	 2.228731659099303e+000	-1.021759598120684e+001
1	 2.578101133128303e+000	 2.257310109722225e+000	-9.593787189663731e+000
1	 2.553032922476773e+000	 2.285624131647170e+000	-8.970106292701926e+000
1	 2.810414482837230e+000	 2.006762958479779e+000	-1.468531674444077e+001
1	 2.788219755493519e+000	 2.037488109423218e+000	-1.413462009952171e+001
1	 2.765669872568660e+000	 2.067993603458853e+000	-1.357139168872345e+001
1	 2.742768067097567e+000	 2.098273339420692e+000	-1.299701653225361e+001
1	 2.719517710721304e+000	 2.128321279137459e+000	-1.241291397294255e+001
1	 2.695922312164874e+000	 2.158131451345657e+000	-1.182053538520920e+001
1	 2.671985515583138e+000	 2.187697955558761e+000	-1.122136181618143e+001
1	 2.647711098776373e+000	 2.217014965887358e+000	-1.061690156354408e+001
1	 2.623102971277156e+000	 2.246076734805151e+000	-1.000868769487661e+001
1	 2.598165172310488e+000	 2.274877596855761e+000	-9.398275513416568e+000
1	 2.572901868629318e+000	 2.303411972295396e+000	-8.787239975347443e+000
1	 2.832117593518570e+000	 2.022259960382399e+000	-1.436883656886157e+001
1	 2.809751469881757e+000	 2.053222382858615e+000	-1.382763736332553e+001
1	 2.787027448014699e+000	 2.083963452151246e+000	-1.327537985829986e+001
1	 2.763948785919044e+000	 2.114477019978720e+000	-1.271319156093048e+001
1	 2.740518881272978e+000	 2.144757001540650e+000	-1.214222515654624e+001
1	 2.716741269897224e+000	 2.174797379461116e+000	-1.156365664979942e+001
1	 2.692619624088216e+000	 2.204592207687736e+000	-1.097868345606521e+001
1	 2.668157750819863e+000	 2.234135615341308e+000	-1.038852244682663e+001
1	 2.643359589815660e+000	 2.263421810510898e+000	-9.794407952910719e+000
1	 2.618229211493063e+000	 2.292445083989264e+000	-9.197589729569561e+000
1	 2.592770814782297e+000	 2.321199812943656e+000	-8.599330887515649e+000
1	 2.853820704199826e+000	 2.037756962284804e+000	-1.404184365168828e+001
1	 2.831283184269936e+000	 2.068956656293786e+000	-1.351128331489099e+001
1	 2.808385023460716e+000	 2.099933300843413e+000	-1.297097595582407e+001
1	 2.785129504740552e+000	 2.130680700536533e+000	-1.242180289860314e+001
1	 2.761520051824738e+000	 2.161192723943644e+000	-1.186466190283013e+001
1	 2.737560227629725e+000	 2.191463307576405e+000	-1.130046572125115e+001
1	 2.713253732593508e+000	 2.221486459816572e+000	-1.073014062504667e+001
1	 2.688604402863628e+000	 2.251256264795160e+000	-1.015462489966352e+001
1	 2.663616208354491e+000	 2.280766886216589e+000	-9.574867314188651e+000
1	 2.638293250676009e+000	 2.310012571122761e+000	-8.991825567347908e+000
1	 2.612639760935674e+000	 2.338987653591965e+000	-8.406464713287155e+000
1	 2.875523814881082e+000	 2.053253964187143e+000	-1.370476490844430e+001
1	 2.852814898658140e+000	 2.084690929728875e+000	-1.318592221638724e+001
1	 2.829742598906793e+000	 2.115903149535490e+000	-1.265848864963878e+001
1	 2.806310223562162e+000	 2.146884381094253e+000	-1.212311039980303e+001
1	 2.782521222376647e+000	 2.177628446346550e+000	-1.158044174592456e+001
1	 2.758379185362421e+000	 2.208129235691617e+000	-1.103114401326524e+001
1	 2.733887841099043e+000	 2.238380711945352e+000	-1.047588451636682e+001
1	 2.709051054907677e+000	 2.268376914248977e+000	-9.915335488519618e+000
1	 2.683872826893645e+000	 2.298111961922277e+000	-9.350172999802274e+000
1	 2.658357289859304e+000	 2.327580058256287e+000	-8.781075865898499e+000
1	 2.632508707089417e+000	 2.356775494240340e+000	-8.208724549928494e+000
1	 2.897226925562421e+000	 2.068750966089566e+000	-1.335801446256607e+001
1	 2.874346613046457e+000	 2.100425203164026e+000	-1.285190741524020e+001
1	 2.851100174353010e+000	 2.131872998227611e+000	-1.233821735915558e+001
1	 2.827490942383945e+000	 2.163088061652005e+000	-1.181736613278635e+001
1	 2.803522392928762e+000	 2.194064168749482e+000	-1.128977570177188e+001
1	 2.779198143095355e+000	 2.224795163806850e+000	-1.075586750366613e+001
1	 2.754521949604845e+000	 2.255274964074154e+000	-1.021606179291537e+001
1	 2.729497706952019e+000	 2.285497563702824e+000	-9.670776987424516e+000
1	 2.704129445433113e+000	 2.315457037628008e+000	-9.120429018072695e+000
1	 2.678421329042928e+000	 2.345147545389874e+000	-8.565430682537585e+000
1	 2.652377653243494e+000	 2.374563334888798e+000	-8.006191004781124e+000
1	 2.918930036243927e+000	 2.084247967992224e+000	-1.300199412096810e+001
1	 2.895878327434964e+000	 2.116159476599381e+000	-1.250958174990416e+001
1	 2.872457749799449e+000	 2.147842846919910e+000	-1.201045259869739e+001
1	 2.848671661205972e+000	 2.179291742209911e+000	-1.150481466899977e+001
1	 2.824523563481143e+000	 2.210499891152546e+000	-1.099286851044947e+001
1	 2.800017100828571e+000	 2.241461091922200e+000	-1.047480693648860e+001
1	 2.775156058110943e+000	 2.272169216203060e+000	-9.950814755653223e+000
1	 2.749944358996667e+000	 2.302618213156769e+000	-9.421068518962045e+000
1	 2.724386063972889e+000	 2.332802113333830e+000	-8.885736283989573e+000
1	 2.698485368226857e+000	 2.362715032523553e+000	-8.344977396169462e+000
1	 2.672246599397870e+000	 2.392351175537356e+000	-7.798942287827956e+000
1	 2.940633146925679e+000	 2.099744969895266e+000	-1.263709382854832e+001
1	 2.917410041823754e+000	 2.131893750035086e+000	-1.215927793766510e+001
1	 2.893815325246190e+000	 2.163812695612522e+000	-1.167547630611506e+001
1	 2.869852380028318e+000	 2.195495422768095e+000	-1.118569335972910e+001
1	 2.845524734033850e+000	 2.226935613555857e+000	-1.068991886776260e+001
1	 2.820836058562116e+000	 2.258127020037764e+000	-1.018812801511537e+001
1	 2.795790166617365e+000	 2.289063468332152e+000	-9.680281504576625e+000
1	 2.770391011041629e+000	 2.319738862610873e+000	-9.166325689015988e+000
1	 2.744642682512967e+000	 2.350147189039793e+000	-8.646192733361360e+000
1	 2.718549407411074e+000	 2.380282519657359e+000	-8.119800806125337e+000
1	 2.692115545552514e+000	 2.410139016186032e+000	-7.587054300161008e+000
1	 2.962336257607764e+000	 2.115241971798842e+000	-1.226369210271462e+001
1	 2.938941756212907e+000	 2.147628023471283e+000	-1.180131894539647e+001
1	 2.915172900693314e+000	 2.179782544305583e+000	-1.133356215695837e+001
1	 2.891033098851052e+000	 2.211699103326682e+000	-1.086023260058574e+001
1	 2.866525904586939e+000	 2.243371335959520e+000	-1.038111964665639e+001
1	 2.841655016296031e+000	 2.274792948153638e+000	-9.895991586925145e+000
1	 2.816424275124137e+000	 2.305957720461509e+000	-9.404596092605825e+000
1	 2.790837663086917e+000	 2.336859512065201e+000	-8.906660715593000e+000
1	 2.764899301053341e+000	 2.367492264745944e+000	-8.401893431947981e+000
1	 2.738613446595554e+000	 2.397850006791322e+000	-7.889983226657551e+000
1	 2.711984491707391e+000	 2.427926856834841e+000	-7.370600718559800e+000
1	 2.984039368290266e+000	 2.130738973703105e+000	-1.188215644894932e+001
1	 2.960473470602511e+000	 2.163362296908118e+000	-1.143601834413636e+001
1	 2.936530476140903e+000	 2.195752392999228e+000	-1.098497586493726e+001
1	 2.912213817674248e+000	 2.227902783885794e+000	-1.052865608445226e+001
1	 2.887527075140474e+000	 2.259807058363652e+000	-1.006665810896594e+001
1	 2.862473974030363e+000	 2.291458876269918e+000	-9.598553819882401e+000
1	 2.837058383631288e+000	 2.322851972591213e+000	-9.123888672758154e+000
1	 2.811284315132539e+000	 2.353980161519819e+000	-8.642182552023764e+000
1	 2.785155919594004e+000	 2.384837340452332e+000	-8.152930679830895e+000
1	 2.758677485780279e+000	 2.415417493925475e+000	-7.655604577310147e+000
1	 2.731853437862469e+000	 2.445714697483801e+000	-7.149653076379317e+000
1	 2.533163976324692e+000	 2.267836290998960e+000	-9.147841467235761e+000
1	 2.507978409130006e+000	 2.295658029994647e+000	-8.518947924544435e+000
1	 2.482481032043097e+000	 2.323206763111350e+000	-7.900789680173069e+000
1	 2.456676310313640e+000	 2.350477275304074e+000	-7.291324306815571e+000
1	 2.430568824931228e+000	 2.377464449525057e+000	-6.688466696688654e+000
1	 2.404163269919529e+000	 2.404163269919529e+000	-6.090093056691625e+000
1	 2.377464449525057e+000	 2.430568824931227e+000	-5.494044975697769e+000
1	 2.350477275304074e+000	 2.456676310313640e+000	-4.898133555263477e+000
1	 2.323206763111350e+000	 2.482481032043097e+000	-4.300143594876026e+000
1	 2.295658029994646e+000	 2.507978409130006e+000	-3.697837822721543e+000
1	 2.267836290998959e+000	 2.533163976324692e+000	-3.088961162844954e+000
1	 2.553032922476773e+000	 2.285624131647170e+000	-8.970106292701928e+000
1	 2.527649811545008e+000	 2.313664091271059e+000	-8.352310216636942e+000
1	 2.501952445030983e+000	 2.341428903686288e+000	-7.743566391465921e+000
1	 2.475945323207677e+000	 2.368913312943507e+000	-7.142159031014248e+000
1	 2.449633062995806e+000	 2.396112161859249e+000	-6.546334274017309e+000
1	 2.423020395236747e+000	 2.423020395236746e+000	-5.954303621075006e+000
1	 2.396112161859249e+000	 2.449633062995806e+000	-5.364247436202697e+000
1	 2.368913312943507e+000	 2.475945323207676e+000	-4.774318505447322e+000
1	 2.341428903686289e+000	 2.501952445030982e+000	-4.182645644888130e+000
1	 2.313664091271059e+000	 2.527649811545009e+000	-3.587337350216925e+000
1	 2.285624131647170e+000	 2.553032922476773e+000	-2.986485479989983e+000
1	 2.572901868629318e+000	 2.303411972295396e+000	-8.787239975347443e+000
1	 2.547321213960504e+000	 2.331670152547573e+000	-8.180706107624799e+000
1	 2.521423858019364e+000	 2.359651044261410e+000	-7.581641096818258e+000
1	 2.495214336102196e+000	 2.387349350583203e+000	-6.988644271042774e+000
1	 2.468697301060834e+000	 2.414759874193777e+000	-6.400281378331727e+000
1	 2.441877520554362e+000	 2.441877520554361e+000	-5.815087480108255e+000
1	 2.414759874193777e+000	 2.468697301060833e+000	-5.231569901873229e+000
1	 2.387349350583203e+000	 2.495214336102196e+000	-4.648211234731538e+000
1	 2.359651044261410e+000	 2.521423858019364e+000	-4.063472381247709e+000
1	 2.331670152547573e+000	 2.547321213960505e+000	-3.475795639006650e+000
1	 2.303411972295396e+000	 2.572901868629318e+000	-2.883607815165346e+000
1	 2.592770814782297e+000	 2.321199812943656e+000	-8.599330887515647e+000
1	 2.566992616376451e+000	 2.349676213824190e+000	-8.004214683022434e+000
1	 2.540895271008198e+000	 2.377873184836706e+000	-7.415081204801672e+000
1	 2.514483348997150e+000	 2.405785388223142e+000	-6.830833622099305e+000
1	 2.487761539126262e+000	 2.433407586528607e+000	-6.250345910808644e+000
1	 2.460734645872333e+000	 2.460734645872333e+000	-5.672465217922260e+000
1	 2.433407586528608e+000	 2.487761539126262e+000	-5.096014275973060e+000
1	 2.405785388223142e+000	 2.514483348997150e+000	-4.519793862212207e+000
1	 2.377873184836706e+000	 2.540895271008198e+000	-3.942585297154762e+000
1	 2.349676213824190e+000	 2.566992616376451e+000	-3.363152977024185e+000
1	 2.321199812943656e+000	 2.592770814782297e+000	-2.780246934543820e+000
1	 2.612639760935674e+000	 2.338987653591965e+000	-8.406464713287157e+000
1	 2.586664018792810e+000	 2.367682275100913e+000	-7.822912622584332e+000
1	 2.560366683997438e+000	 2.396095325412165e+000	-7.243952073437189e+000
1	 2.533752361892490e+000	 2.424221425863299e+000	-6.668779049030643e+000
1	 2.506825777192050e+000	 2.452055298863711e+000	-6.096564619681391e+000
1	 2.479591771190625e+000	 2.479591771190625e+000	-5.526456792484100e+000
1	 2.452055298863711e+000	 2.506825777192050e+000	-4.957582403869276e+000
1	 2.424221425863298e+000	 2.533752361892491e+000	-4.389049050917636e+000
1	 2.396095325412165e+000	 2.560366683997438e+000	-3.819947057175584e+000
1	 2.367682275100913e+000	 2.586664018792810e+000	-3.249351468627685e+000
1	 2.338987653591965e+000	 2.612639760935674e+000	-2.676324075408918e+000
1	 2.632508707089417e+000	 2.356775494240340e+000	-8.208724549928494e+000
1	 2.606335421209538e+000	 2.385688336377744e+000	-7.636874291092728e+000
1	 2.579838096987040e+000	 2.414317465987774e+000	-7.068317087578358e+000
1	 2.553021374788173e+000	 2.442657463503651e+000	-6.502530947857724e+000
1	 2.525890015258152e+000	 2.470703011199052e+000	-5.938973143748987e+000
1	 2.498448896509196e+000	 2.498448896509196e+000	-5.377081559227151e+000
1	 2.470703011199053e+000	 2.525890015258151e+000	-4.816276075216879e+000
1	 2.442657463503652e+000	 2.553021374788173e+000	-4.255959987281564e+000
1	 2.414317465987774e+000	 2.579838096987041e+000	-3.695521453038335e+000
1	 2.385688336377744e+000	 2.606335421209539e+000	-3.134334966052643e+000
1	 2.356775494240340e+000	 2.632508707089417e+000	-2.571762852901405e+000
1	 2.652377653243494e+000	 2.374563334888798e+000	-8.006191004781124e+000
1	 2.626006823626593e+000	 2.403694397654686e+000	-7.446171825064818e+000
1	 2.599309509976958e+000	 2.432539606563527e+000	-6.888237732816010e+000
1	 2.572290387684151e+000	 2.461093501144180e+000	-6.332138204536041e+000
1	 2.544954253324521e+000	 2.489350723534602e+000	-5.777606053930174e+000
1	 2.517306021828006e+000	 2.517306021828006e+000	-5.224358293618921e+000
1	 2.489350723534602e+000	 2.544954253324522e+000	-4.672097026045830e+000
1	 2.461093501144179e+000	 2.572290387684152e+000	-4.120510361539219e+000
1	 2.432539606563527e+000	 2.599309509976957e+000	-3.569273361415132e+000
1	 2.403694397654687e+000	 2.626006823626595e+000	-3.018049003945167e+000
1	 2.374563334888798e+000	 2.652377653243494e+000	-2.466489170956510e+000
1	 2.672246599397870e+000	 2.392351175537356e+000	-7.798942287827956e+000
1	 2.645678226043938e+000	 2.421700458931741e+000	-7.250875215591716e+000
1	 2.618780922967142e+000	 2.450761747139410e+000	-6.703773666086174e+000
1	 2.591559400580378e+000	 2.479529538784858e+000	-6.157648251094420e+000
1	 2.564018491391117e+000	 2.507998435870327e+000	-5.612496892963314e+000
1	 2.536163147147017e+000	 2.536163147147017e+000	-5.068305212722108e+000
1	 2.507998435870326e+000	 2.564018491391118e+000	-4.525046940754439e+000
1	 2.479529538784858e+000	 2.591559400580378e+000	-3.982684348997692e+000
1	 2.450761747139409e+000	 2.618780922967142e+000	-3.441168703587814e+000
1	 2.421700458931741e+000	 2.645678226043937e+000	-2.900440736815904e+000
1	 2.392351175537357e+000	 2.672246599397870e+000	-2.360431137214836e+000
1	 2.692115545552514e+000	 2.410139016186032e+000	-7.587054300161009e+000
1	 2.665349628461526e+000	 2.439706520208910e+000	-7.051052387509145e+000
1	 2.638252335957553e+000	 2.468983887715412e+000	-6.514982783151279e+000
1	 2.610828413476806e+000	 2.497965576425667e+000	-5.979107119288000e+000
1	 2.583082729457892e+000	 2.526646148206194e+000	-5.443678213348461e+000
1	 2.555020272466187e+000	 2.555020272466187e+000	-4.908939995800972e+000
1	 2.526646148206194e+000	 2.583082729457892e+000	-4.375127454014733e+000
1	 2.497965576425666e+000	 2.610828413476806e+000	-3.842466592135729e+000
1	 2.468983887715411e+000	 2.638252335957553e+000	-3.311174406899597e+000
1	 2.439706520208911e+000	 2.665349628461527e+000	-2.781458879263764e+000
1	 2.410139016186032e+000	 2.692115545552514e+000	-2.253518981700943e+000
1	 2.711984491707391e+000	 2.427926856834841e+000	-7.370600718559800e+000
1	 2.685021030879321e+000	 2.457712581486198e+000	-6.846769275087933e+000
1	 2.657723748948141e+000	 2.487206028291523e+000	-6.321921283114866e+000
1	 2.630097426373389e+000	 2.516401614066581e+000	-5.796559491892722e+000
1	 2.602146967524803e+000	 2.545293860542173e+000	-5.271181613621467e+000
1	 2.573877397785479e+000	 2.573877397785478e+000	-4.746279804021807e+000
1	 2.545293860542173e+000	 2.602146967524804e+000	-4.222340152594104e+000
1	 2.516401614066580e+000	 2.630097426373389e+000	-3.699842183490565e+000
1	 2.487206028291522e+000	 2.657723748948141e+000	-3.179258367901421e+000
1	 2.457712581486198e+000	 2.685021030879322e+000	-2.661053648827177e+000
1	 2.427926856834841e+000	 2.711984491707391e+000	-2.145684979076930e+000
1	 2.731853437862469e+000	 2.445714697483801e+000	-7.149653076379317e+000
1	 2.704692433297279e+000	 2.475718642763606e+000	-6.638089894421448e+000
1	 2.677195161938863e+000	 2.505428168867732e+000	-6.124643730121225e+000
1	 2.649366439270082e+000	 2.534837651707582e+000	-5.610048751761235e+000
1	 2.621211205591807e+000	 2.563941572878231e+000	-5.095037773045137e+000
1	 2.592734523104852e+000	 2.592734523104852e+000	-4.580341299293651e+000
1	 2.563941572878231e+000	 2.621211205591807e+000	-4.066686577097325e+000
1	 2.534837651707581e+000	 2.649366439270081e+000	-3.554796649291358e+000
1	 2.505428168867732e+000	 2.677195161938863e+000	-3.045389417106301e+000
1	 2.475718642763605e+000	 2.704692433297279e+000	-2.539176711329276e+000
1	 2.445714697483802e+000	 2.731853437862469e+000	-2.036863374288529e+000
1	 2.267836290998959e+000	 2.533163976324692e+000	-3.088961162844954e+000
1	 2.239742622588619e+000	 2.558037093946534e+000	-2.475718874878650e+000
1	 2.211386583393305e+000	 2.582589734201157e+000	-1.863730732546055e+000
1	 2.182773666978905e+000	 2.606817794690176e+000	-1.255589774511908e+000
1	 2.153909451300075e+000	 2.630717298573514e+000	-6.539025602039114e-001
1	 2.124799595113840e+000	 2.654284396700450e+000	-6.128445848428389e-002
1	 2.095449834330041e+000	 2.677515369617983e+000	 5.196450649166886e-001
1	 2.065865978303493e+000	 2.700406629454409e+000	 1.086267151212475e+000
1	 2.036053906072851e+000	 2.722954721676199e+000	 1.635968233695192e+000
1	 2.006019562551172e+000	 2.745156326716522e+000	 2.166144694372616e+000
1	 1.975768954673289e+000	 2.767008261473968e+000	 2.674207482416807e+000
1	 2.285624131647170e+000	 2.553032922476773e+000	-2.986485479989983e+000
1	 2.257310109722224e+000	 2.578101133128303e+000	-2.382840916224968e+000
1	 2.228731659099303e+000	 2.602846352738986e+000	-1.782078346835530e+000
1	 2.199894316433245e+000	 2.627264446733148e+000	-1.186404166858356e+000
1	 2.170803703429568e+000	 2.651351407078246e+000	-5.980362518644230e-001
1	 2.141465523229931e+000	 2.675103354432631e+000	-1.919992158186559e-002
1	 2.111885556733959e+000	 2.698516540169659e+000	 5.478760981157933e-001
1	 2.082069658862324e+000	 2.721587348276045e+000	 1.100963706276077e+000
1	 2.052023754766099e+000	 2.744312297122521e+000	 1.637839442467979e+000
1	 2.021753835987452e+000	 2.766688041105134e+000	 2.156288478480790e+000
1	 1.991265956576792e+000	 2.788711372155724e+000	 2.654108577794865e+000
1	 2.303411972295396e+000	 2.572901868629318e+000	-2.883607815165346e+000
1	 2.274877596855761e+000	 2.598165172310488e+000	-2.290164185579914e+000
1	 2.246076734805151e+000	 2.623102971277155e+000	-1.701169028517337e+000
1	 2.217014965887358e+000	 2.647711098776373e+000	-1.118454332085513e+000
1	 2.187697955558761e+000	 2.671985515583138e+000	-5.438616244345591e-001
1	 2.158131451345657e+000	 2.695922312164874e+000	 2.076140405259474e-002
1	 2.128321279137459e+000	 2.719517710721304e+000	 5.735642806832498e-001
1	 2.098273339420692e+000	 2.742768067097567e+000	 1.112697125292687e+000
1	 2.067993603458852e+000	 2.765669872568660e+000	 1.636314012845009e+000
1	 2.037488109423218e+000	 2.788219755493518e+000	 2.142576316713399e+000
1	 2.006762958479779e+000	 2.810414482837230e+000	 2.629656025646608e+000
1	 2.321199812943656e+000	 2.592770814782297e+000	-2.780246934543820e+000
1	 2.292445083989264e+000	 2.618229211493063e+000	-2.197587198153112e+000
1	 2.263421810510898e+000	 2.643359589815661e+000	-1.620883536573799e+000
1	 2.234135615341307e+000	 2.668157750819863e+000	-1.051605474644745e+000
1	 2.204592207687736e+000	 2.692619624088216e+000	-4.912302348704203e-001
1	 2.174797379461117e+000	 2.716741269897225e+000	 5.875999790073815e-002
1	 2.144757001540649e+000	 2.740518881272977e+000	 5.968808144730663e-001
1	 2.114477019978720e+000	 2.763948785919044e+000	 1.121648316125736e+000
1	 2.083963452151246e+000	 2.787027448014699e+000	 1.631581840444746e+000
1	 2.053222382858615e+000	 2.809751469881758e+000	 2.125206672402142e+000
1	 2.022259960382399e+000	 2.832117593518569e+000	 2.601056734989892e+000
1	 2.338987653591965e+000	 2.612639760935674e+000	-2.676324075408918e+000
1	 2.310012571122760e+000	 2.638293250676008e+000	-2.105011556293859e+000
1	 2.280766886216590e+000	 2.663616208354491e+000	-1.541106257266706e+000
1	 2.251256264795159e+000	 2.688604402863627e+000	-9.857268994313475e-001
1	 2.221486459816572e+000	 2.713253732593509e+000	-4.399981557250351e-001
1	 2.191463307576405e+000	 2.737560227629726e+000	 9.495145770209844e-002
1	 2.161192723943644e+000	 2.761520051824738e+000	 6.179916934255967e-001
1	 2.130680700536533e+000	 2.785129504740552e+000	 1.127992683470864e+000
1	 2.099933300843413e+000	 2.808385023460716e+000	 1.623827044313000e+000
1	 2.068956656293786e+000	 2.831283184269936e+000	 2.104371971678621e+000
1	 2.037756962284804e+000	 2.853820704199826e+000	 2.568511320726969e+000
1	 2.356775494240340e+000	 2.632508707089417e+000	-2.571762852901404e+000
1	 2.327580058256288e+000	 2.658357289859304e+000	-2.012341832989844e+000
1	 2.298111961922277e+000	 2.683872826893644e+000	-1.461725067252067e+000
1	 2.268376914248976e+000	 2.709051054907677e+000	-9.206918570433899e-001
1	 2.238380711945352e+000	 2.733887841099044e+000	-3.900258047404367e-001
1	 2.208129235691617e+000	 2.758379185362420e+000	 1.294866836796269e-001
1	 2.177628446346551e+000	 2.782521222376647e+000	 6.370579001019379e-001
1	 2.146884381094253e+000	 2.806310223562161e+000	 1.131900336532556e+000
1	 2.115903149535490e+000	 2.829742598906794e+000	 1.613228184917066e+000
1	 2.084690929728875e+000	 2.852814898658141e+000	 2.080258831304106e+000
1	 2.053253964187143e+000	 2.875523814881082e+000	 2.532214341169810e+000
1	 2.374563334888798e+000	 2.652377653243494e+000	-2.466489170956510e+000
1	 2.345147545389875e+000	 2.678421329042928e+000	-1.919485460602100e+000
1	 2.315457037628008e+000	 2.704129445433113e+000	-1.382631202847855e+000
1	 2.285497563702824e+000	 2.729497706952019e+000	-8.563773959957093e-001
1	 2.255274964074154e+000	 2.754521949604845e+000	-3.411777820987782e-001
1	 2.224795163806849e+000	 2.779198143095354e+000	 1.625120544849043e-001
1	 2.194064168749482e+000	 2.803522392928762e+000	 6.542355933849597e-001
1	 2.163088061652005e+000	 2.827490942383944e+000	 1.133536287366640e+000
1	 2.131872998227610e+000	 2.851100174353011e+000	 1.599958472342246e+000
1	 2.100425203164026e+000	 2.874346613046457e+000	 2.053048276259224e+000
1	 2.068750966089566e+000	 2.897226925562421e+000	 2.492354524889443e+000
1	 2.392351175537357e+000	 2.672246599397870e+000	-2.360431137214837e+000
1	 2.362715032523554e+000	 2.698485368226857e+000	-1.826352624563549e+000
1	 2.332802113333830e+000	 2.724386063972889e+000	-1.303719135133541e+000
1	 2.302618213156768e+000	 2.749944358996667e+000	-7.926642215268221e-001
1	 2.272169216203061e+000	 2.775156058110944e+000	-2.933227149340738e-001
1	 2.241461091922200e+000	 2.800017100828571e+000	 1.941695952941835e-001
1	 2.210499891152547e+000	 2.824523563481142e+000	 6.696762878065827e-001
1	 2.179291742209911e+000	 2.848671661205972e+000	 1.133060640374139e+000
1	 2.147842846919909e+000	 2.872457749799449e+000	 1.584185965200021e+000
1	 2.116159476599381e+000	 2.895878327434966e+000	 2.022915947626814e+000
1	 2.084247967992224e+000	 2.918930036243927e+000	 2.449114987445281e+000
1	 2.410139016186032e+000	 2.692115545552514e+000	-2.253518981700943e+000
1	 2.380282519657360e+000	 2.718549407411073e+000	-1.732856161784996e+000
1	 2.350147189039793e+000	 2.744642682512968e+000	-1.224886450580723e+000
1	 2.319738862610872e+000	 2.770391011041629e+000	-7.294365606581534e-001
1	 2.289063468332153e+000	 2.795790166617366e+000	-2.463331087292647e-001
1	 2.258127020037764e+000	 2.820836058562116e+000	 2.245971384606778e-001
1	 2.226935613555856e+000	 2.845524734033849e+000	 6.835270249339797e-001
1	 2.195495422768095e+000	 2.869852380028318e+000	 1.130628773404152e+000
1	 2.163812695612522e+000	 2.893815325246190e+000	 1.566073760728352e+000
1	 2.131893750035085e+000	 2.917410041823753e+000	 1.990032301268888e+000
1	 2.099744969895266e+000	 2.940633146925679e+000	 2.402673438517019e+000
1	 2.427926856834841e+000	 2.711984491707391e+000	-2.145684979076932e+000
1	 2.397850006791323e+000	 2.738613446595554e+000	-1.638911463526981e+000
1	 2.367492264745944e+000	 2.764899301053342e+000	-1.146033736930964e+000
1	 2.336859512065201e+000	 2.790837663086917e+000	-6.665820331851663e-001
1	 2.305957720461509e+000	 2.816424275124138e+000	-2.000852052456204e-001
1	 2.274792948153638e+000	 2.841655016296031e+000	 2.539284771049019e-001
1	 2.243371335959520e+000	 2.866525904586940e+000	 6.959305372220696e-001
1	 2.211699103326681e+000	 2.891033098851052e+000	 1.126391510895463e+000
1	 2.179782544305583e+000	 2.915172900693315e+000	 1.545780176535369e+000
1	 2.147628023471283e+000	 2.938941756212908e+000	 1.954562797770451e+000
1	 2.115241971798842e+000	 2.962336257607765e+000	 2.353202379931492e+000
1	 2.445714697483802e+000	 2.731853437862469e+000	-2.036863374288531e+000
1	 2.415417493925476e+000	 2.758677485780278e+000	-1.544436382510048e+000
1	 2.384837340452332e+000	 2.785155919594005e+000	-1.067064474053714e+000
1	 2.353980161519820e+000	 2.811284315132540e+000	-6.039915282980779e-001
1	 2.322851972591212e+000	 2.837058383631288e+000	-1.544588466518490e-001
1	 2.291458876269918e+000	 2.862473974030362e+000	 2.822935120026232e-001
1	 2.259807058363652e+000	 2.887527075140474e+000	 7.070254047156169e-001
1	 2.227902783885794e+000	 2.912213817674249e+000	 1.120495289462861e+000
1	 2.195752392999227e+000	 2.936530476140903e+000	 1.523458924412017e+000
1	 2.163362296908118e+000	 2.960473470602511e+000	 1.916668084094245e+000
1	 2.130738973703105e+000	 2.984039368290266e+000	 2.300869295047881e+000
1	 1.975768954673289e+000	 2.767008261473968e+000	 2.674207482416807e+000
1	 1.945308146846862e+000	 2.788507479894426e+000	 3.152446989022491e+000
1	 1.914643255096348e+000	 2.809651071830004e+000	 3.594912246627703e+000
1	 1.883780445162079e+000	 2.830436266468553e+000	 4.001712624176006e+000
1	 1.852725929198409e+000	 2.850860434090399e+000	 4.373018620812147e+000
1	 1.821485961785593e+000	 2.870921086910894e+000	 4.709060237443930e+000
1	 1.790066835929240e+000	 2.890615879789326e+000	 5.010125271993697e+000
1	 1.758474879052460e+000	 2.909942610804365e+000	 5.276557542899194e+000
1	 1.726716448985847e+000	 2.928899221696398e+000	 5.508755045538301e+000
1	 1.694797929960344e+000	 2.947483798177338e+000	 5.707168046352123e+000
1	 1.662725728608005e+000	 2.965694570108715e+000	 5.872297119523879e+000
1	 1.991265956576792e+000	 2.788711372155724e+000	 2.654108577794865e+000
1	 1.960566228508145e+000	 2.810379220328354e+000	 3.124216065406180e+000
1	 1.929660815777188e+000	 2.831688652649307e+000	 3.560788813273280e+000
1	 1.898555932485416e+000	 2.852636876573476e+000	 3.963575070727139e+000
1	 1.867257839512399e+000	 2.873221241754905e+000	 4.332384164392748e+000
1	 1.835772840496374e+000	 2.893439240895928e+000	 4.667085497185800e+000
1	 1.804107277802321e+000	 2.913288510461652e+000	 4.967607464080629e+000
1	 1.772267528482681e+000	 2.932766831259905e+000	 5.233936287984944e+000
1	 1.740260000235878e+000	 2.951872128887057e+000	 5.466114779205569e+000
1	 1.708091127367755e+000	 2.970602474040235e+000	 5.664241022126465e+000
1	 1.675767366760974e+000	 2.988956082696838e+000	 5.828466992844021e+000
1	 2.006762958479779e+000	 2.810414482837230e+000	 2.629656025646608e+000
1	 1.975824310168927e+000	 2.832250960762047e+000	 3.091083709343668e+000
1	 1.944678376457553e+000	 2.853726233468411e+000	 3.521178311334300e+000
1	 1.913331419808316e+000	 2.874837486678262e+000	 3.919350280379654e+000
1	 1.881789749825994e+000	 2.895582049419351e+000	 4.285071084034928e+000
1	 1.850059719206805e+000	 2.915957394880990e+000	 4.617872799761027e+000
1	 1.818147719675098e+000	 2.935961141134096e+000	 4.917347616241266e+000
1	 1.786060177912640e+000	 2.955591051715656e+000	 5.183147247081121e+000
1	 1.753803551485679e+000	 2.974845036078005e+000	 5.414982259251399e+000
1	 1.721384324774959e+000	 2.993721149903496e+000	 5.612621318806319e+000
1	 1.688809004913743e+000	 3.012217595285378e+000	 5.775890356570868e+000
1	 2.022259960382399e+000	 2.832117593518569e+000	 2.601056734989892e+000
1	 1.991082391829358e+000	 2.854122701195576e+000	 3.053266579713797e+000
1	 1.959695937137597e+000	 2.875763814287376e+000	 3.476309328870785e+000
1	 1.928106907130930e+000	 2.897038096782952e+000	 3.869280420726568e+000
1	 1.896321660139343e+000	 2.917942857083756e+000	 4.231336248581385e+000
1	 1.864346597917032e+000	 2.938475548866074e+000	 4.561694309205487e+000
1	 1.832188161547714e+000	 2.958633771806631e+000	 4.859633255259655e+000
1	 1.799852827342474e+000	 2.978415272171569e+000	 5.124492852788988e+000
1	 1.767347102735386e+000	 2.997817943269185e+000	 5.355673845090022e+000
1	 1.734677522182089e+000	 3.016839825767045e+000	 5.552637724457010e+000
1	 1.701850643066445e+000	 3.035479107874254e+000	 5.714906413511003e+000
1	 2.037756962284804e+000	 2.853820704199826e+000	 2.568511320726969e+000
1	 2.006340473489595e+000	 2.875994441629014e+000	 3.010974744691867e+000
1	 1.974713497817474e+000	 2.897801395106263e+000	 3.426403500356796e+000
1	 1.942882394453412e+000	 2.919238706887588e+000	 3.813600292689217e+000
1	 1.910853570452600e+000	 2.940303664748141e+000	 4.171428712995205e+000
1	 1.878633476627206e+000	 2.960993702851183e+000	 4.498813910399770e+000
1	 1.846228603420313e+000	 2.981306402479240e+000	 4.794743161434009e+000
1	 1.813645476772324e+000	 3.001239492627601e+000	 5.058266337793045e+000
1	 1.780890653985136e+000	 3.020790850460533e+000	 5.288496272569054e+000
1	 1.747970719589279e+000	 3.039958501630808e+000	 5.484609025500932e+000
1	 1.714892281219213e+000	 3.058740620463381e+000	 5.645844048014650e+000
1	 2.053253964187143e+000	 2.875523814881082e+000	 2.532214341169810e+000
1	 2.021598555149789e+000	 2.897866182062439e+000	 2.964411930467340e+000
1	 1.989731058497339e+000	 2.919838975925133e+000	 3.371675769092550e+000
1	 1.957657881775916e+000	 2.941439316992211e+000	 3.752537608518363e+000
1	 1.925385480765913e+000	 2.962664472412528e+000	 4.105590013237520e+000
1	 1.892920355337473e+000	 2.983511856836313e+000	 4.429487521505381e+000
1	 1.860269045293039e+000	 3.003979033151893e+000	 4.722947698648785e+000
1	 1.827438126202331e+000	 3.024063713083709e+000	 4.984752082044627e+000
1	 1.794434205235066e+000	 3.043763757651987e+000	 5.213747017140556e+000
1	 1.761263916996664e+000	 3.063077177494705e+000	 5.408844384156517e+000
1	 1.727933919372180e+000	 3.082002133052676e+000	 5.569022215370109e+000
1	 2.068750966089566e+000	 2.897226925562421e+000	 2.492354524889443e+000
1	 2.036856636810096e+000	 2.919737922495927e+000	 2.913775758782823e+000
1	 2.004748619177347e+000	 2.941876556744046e+000	 3.312334637822216e+000
1	 1.972433369098596e+000	 2.963639927096867e+000	 3.686313257300260e+000
1	 1.939917391079437e+000	 2.985025280076940e+000	 4.034054447891585e+000
1	 1.907207234047982e+000	 3.006030010821463e+000	 4.353963392358043e+000
1	 1.874309487166035e+000	 3.026651663824572e+000	 4.644509129611302e+000
1	 1.841230775632635e+000	 3.046887933539848e+000	 4.904225944340658e+000
1	 1.807977756485311e+000	 3.066736664843483e+000	 5.131714640708920e+000
1	 1.774557114404378e+000	 3.086195853358668e+000	 5.325643698912375e+000
1	 1.740975557525482e+000	 3.105263645642056e+000	 5.484750313696524e+000
1	 2.084247967992224e+000	 2.918930036243927e+000	 2.449114987445281e+000
1	 2.052114718470668e+000	 2.941609662929547e+000	 2.859257973875919e+000
1	 2.019766179857653e+000	 2.963914137563062e+000	 3.248582408171202e+000
1	 1.987208856421604e+000	 2.985840537201594e+000	 3.615141558617921e+000
1	 1.954449301393320e+000	 3.007386087741394e+000	 3.957049347223099e+000
1	 1.921494112758879e+000	 3.028548164806635e+000	 4.272482389549086e+000
1	 1.888349929039446e+000	 3.049324294497249e+000	 4.559681917025025e+000
1	 1.855023425063373e+000	 3.069712153995974e+000	 4.816955579110460e+000
1	 1.821521307736009e+000	 3.089709572034964e+000	 5.042679123005277e+000
1	 1.787850311812554e+000	 3.109314529222617e+000	 5.235297948920382e+000
1	 1.754017195679249e+000	 3.128525158231438e+000	 5.393328539245911e+000
1	 2.099744969895266e+000	 2.940633146925679e+000	 2.402673438517019e+000
1	 2.067372800131659e+000	 2.963481403363379e+000	 2.801044659371623e+000
1	 2.034783740538409e+000	 2.985951718382242e+000	 3.180615409480507e+000
1	 2.001984343745095e+000	 3.008041147306437e+000	 3.539230504979706e+000
1	 1.968981211707714e+000	 3.029746895405916e+000	 3.874795330325916e+000
1	 1.935780991470312e+000	 3.051066318791825e+000	 4.185278268882890e+000
1	 1.902390370913415e+000	 3.071996925169904e+000	 4.468713011426356e+000
1	 1.868816074494688e+000	 3.092536374452044e+000	 4.723200739174126e+000
1	 1.835064858987296e+000	 3.112682479226365e+000	 4.946912178287839e+000
1	 1.801143509221328e+000	 3.132433205086475e+000	 5.138089523137874e+000
1	 1.767058833833616e+000	 3.151786670820736e+000	 5.295048225971273e+000
1	 2.115241971798842e+000	 2.962336257607765e+000	 2.353202379931492e+000
1	 2.082630881793222e+000	 2.985353143797493e+000	 2.739316445640432e+000
1	 2.049801301219773e+000	 3.007989299201646e+000	 3.108624217582044e+000
1	 2.016759831069223e+000	 3.030241757411437e+000	 3.458781993591191e+000
1	 1.983513122022770e+000	 3.052107703070523e+000	 3.787506550964083e+000
1	 1.950067870182429e+000	 3.073584472777031e+000	 4.092577935857486e+000
1	 1.916430812788086e+000	 3.094669555842513e+000	 4.371842126368419e+000
1	 1.882608723926719e+000	 3.115360594908013e+000	 4.623213565192460e+000
1	 1.848608410239309e+000	 3.135655386417623e+000	 4.844677558120694e+000
1	 1.814436706630833e+000	 3.155551880950169e+000	 5.034292535001660e+000
1	 1.780100471988717e+000	 3.175048183409870e+000	 5.190192170168253e+000
1	 2.130738973703105e+000	 2.984039368290266e+000	 2.300869295047881e+000
1	 2.097888963455511e+000	 3.007224884231965e+000	 2.674248708107710e+000
1	 2.064818861901898e+000	 3.030026880021336e+000	 3.032793864026816e+000
1	 2.031535318394141e+000	 3.052442367516636e+000	 3.373992048012942e+000
1	 1.998045032338640e+000	 3.074468510735241e+000	 3.695390932685662e+000
1	 1.964354748895379e+000	 3.096102626762256e+000	 3.994601694778254e+000
1	 1.930471254663603e+000	 3.117342186515054e+000	 4.269302001596381e+000
1	 1.896401373359606e+000	 3.138184815363838e+000	 4.517238862485619e+000
1	 1.862151961492184e+000	 3.158628293608679e+000	 4.736231340939767e+000
1	 1.827729904041205e+000	 3.178670556813624e+000	 4.924173123369949e+000
1	 1.793142110144684e+000	 3.198309695998757e+000	 5.079034940949724e+000
1	 1.662725728608005e+000	 2.965694570108715e+000	 5.872297119523879e+000
1	 1.630511113674446e+000	 2.983527265011494e+000	 6.009997313147950e+000
1	 1.598155724011803e+000	 3.000983163283563e+000	 6.124769378133643e+000
1	 1.565666008429836e+000	 3.018060930005414e+000	 6.215089931993728e+000
1	 1.533048422245595e+000	 3.034759373751101e+000	 6.279487412567735e+000
1	 1.500309423398188e+000	 3.051077446124149e+000	 6.316543668743505e+000
1	 1.467455468599930e+000	 3.067014241170959e+000	 6.324895446724280e+000
1	 1.434493009528169e+000	 3.082568994673866e+000	 6.303235770351946e+000
1	 1.401428489062056e+000	 3.097741083326226e+000	 6.250315214274756e+000
1	 1.368268337568320e+000	 3.112530023792000e+000	 6.164943069022561e+000
1	 1.335018969240017e+000	 3.126935471652506e+000	 6.045988397326061e+000
1	 1.675767366760974e+000	 2.988956082696838e+000	 5.828466992844023e+000
1	 1.643300075547886e+000	 3.006928648866512e+000	 5.964358238696231e+000
1	 1.610690905435004e+000	 3.024521462989988e+000	 6.076611125547050e+000
1	 1.577946355813512e+000	 3.041733179677284e+000	 6.164081172742261e+000
1	 1.545072932632920e+000	 3.058562598157479e+000	 6.225670175011935e+000
1	 1.512077144485368e+000	 3.075008661810973e+000	 6.260327211422240e+000
1	 1.478965498726573e+000	 3.091070457578299e+000	 6.267049568335632e+000
1	 1.445744497637801e+000	 3.106747215247636e+000	 6.244883575780581e+000
1	 1.412420634633105e+000	 3.122038306623423e+000	 6.192925356845114e+000
1	 1.379000390515981e+000	 3.136943244578564e+000	 6.110321489921804e+000
1	 1.345490229789387e+000	 3.151461681992926e+000	 5.996269583838295e+000
1	 1.688809004913743e+000	 3.012217595285378e+000	 5.775890356570870e+000
1	 1.656089037421116e+000	 3.030330032721981e+000	 5.910037912061655e+000
1	 1.623226086857971e+000	 3.048059762696877e+000	 6.019882120152907e+000
1	 1.590226703196920e+000	 3.065405429349620e+000	 6.104610583686058e+000
1	 1.557097443019938e+000	 3.082365822564309e+000	 6.163452129322081e+000
1	 1.523844865572194e+000	 3.098939877498229e+000	 6.195677305163374e+000
1	 1.490475528852819e+000	 3.115126673986047e+000	 6.200598808965581e+000
1	 1.456995985746994e+000	 3.130925435821791e+000	 6.177571847116719e+000
1	 1.423412780203684e+000	 3.146335529920983e+000	 6.125994424720411e+000
1	 1.389732443463149e+000	 3.161356465365480e+000	 6.045307567274832e+000
1	 1.355961490338257e+000	 3.175987892333698e+000	 5.934995474589360e+000
1	 1.701850643066445e+000	 3.035479107874254e+000	 5.714906413511004e+000
1	 1.668877999294270e+000	 3.053731416577814e+000	 5.847385785540219e+000
1	 1.635761268280842e+000	 3.071598062404152e+000	 5.954944812452074e+000
1	 1.602507050580201e+000	 3.089077679022346e+000	 6.037057436594676e+000
1	 1.569121953406790e+000	 3.106169046971532e+000	 6.093234256415546e+000
1	 1.535612586658818e+000	 3.122871093185871e+000	 6.123022582233710e+000
1	 1.501985558978823e+000	 3.139182890394173e+000	 6.126006437325389e+000
1	 1.468247473855910e+000	 3.155103656396314e+000	 6.101806505166828e+000
1	 1.434404925773956e+000	 3.170632753218907e+000	 6.050080023788664e+000
1	 1.400464496409991e+000	 3.185769686152757e+000	 5.970520628300477e+000
1	 1.366432750886794e+000	 3.200514102674838e+000	 5.862858142744329e+000
1	 1.714892281219213e+000	 3.058740620463381e+000	 5.645844048014650e+000
1	 1.681666961167484e+000	 3.077132800433932e+000	 5.776740681184978e+000
1	 1.648296449703754e+000	 3.095136362111732e+000	 5.882150627300709e+000
1	 1.614787397963496e+000	 3.112749928695398e+000	 5.961789465894504e+000
1	 1.581146463793626e+000	 3.129972271379086e+000	 6.015405339480306e+000
1	 1.547380307745388e+000	 3.146802308873854e+000	 6.042778636024190e+000
1	 1.513495589104740e+000	 3.163239106802647e+000	 6.043721629619360e+000
1	 1.479498961964707e+000	 3.179281876971192e+000	 6.018078080765362e+000
1	 1.445397071344083e+000	 3.194929976517194e+000	 5.965722797719996e+000
1	 1.411196549356671e+000	 3.210182906940406e+000	 5.886561160453738e+000
1	 1.376904011435165e+000	 3.225040313016363e+000	 5.780528608792674e+000
1	 1.727933919372180e+000	 3.082002133052676e+000	 5.569022215370109e+000
1	 1.694455923040891e+000	 3.100534184290246e+000	 5.698431191966460e+000
1	 1.660831631126843e+000	 3.118674661819535e+000	 5.801840379992147e+000
1	 1.627067745346946e+000	 3.136422178368697e+000	 5.879163304061112e+000
1	 1.593170974180589e+000	 3.153775495786915e+000	 5.930342424288618e+000
1	 1.559148028832057e+000	 3.170733524562135e+000	 5.955348513106525e+000
1	 1.525005619230725e+000	 3.187295323211441e+000	 5.954180001363087e+000
1	 1.490750450073546e+000	 3.203460097546412e+000	 5.926862295556372e+000
1	 1.456389216914231e+000	 3.219227199815839e+000	 5.873447068081011e+000
1	 1.421928602303357e+000	 3.234596127728437e+000	 5.794011522394421e+000
1	 1.387375271983537e+000	 3.249566523358289e+000	 5.688657635027135e+000
1	 1.740975557525482e+000	 3.105263645642056e+000	 5.484750313696524e+000
1	 1.707244884914625e+000	 3.123935568146672e+000	 5.612776064902663e+000
1	 1.673366812550247e+000	 3.142212961527484e+000	 5.714344673637721e+000
1	 1.639348092730692e+000	 3.160094428042173e+000	 5.789524897442329e+000
1	 1.605195484567825e+000	 3.177578720194960e+000	 5.838411258821492e+000
1	 1.570915749918973e+000	 3.194664740250668e+000	 5.861123183173769e+000
1	 1.536515649356933e+000	 3.211351539620524e+000	 5.857804115298446e+000
1	 1.502001938182587e+000	 3.227638318121956e+000	 5.828620616671149e+000
1	 1.467381362484561e+000	 3.243524423114845e+000	 5.773761445678609e+000
1	 1.432660655250214e+000	 3.259009348516858e+000	 5.693436623000484e+000
1	 1.397846532532076e+000	 3.274092733700632e+000	 5.587876484313719e+000
1	 1.754017195679249e+000	 3.128525158231438e+000	 5.393328539245912e+000
1	 1.720033846788822e+000	 3.147336952003127e+000	 5.520084567096971e+000
1	 1.685901993974103e+000	 3.165751261235494e+000	 5.619984278819840e+000
1	 1.651628440114874e+000	 3.183766677715757e+000	 5.693209903530921e+000
1	 1.617219994955478e+000	 3.201381944603160e+000	 5.739966713280752e+000
1	 1.582683471006289e+000	 3.218595955939409e+000	 5.760481988016197e+000
1	 1.548025679483521e+000	 3.235407756029868e+000	 5.755003966649804e+000
1	 1.513253426291988e+000	 3.251816538697813e+000	 5.723800786660727e+000
1	 1.478373508055239e+000	 3.267821646414212e+000	 5.667159414630717e+000
1	 1.443392708197408e+000	 3.283422569305681e+000	 5.585384570089583e+000
1	 1.408317793080948e+000	 3.298618944043411e+000	 5.478797645011896e+000
1	 1.767058833833616e+000	 3.151786670820736e+000	 5.295048225971271e+000
1	 1.732822808663616e+000	 3.170738335859523e+000	 5.420656835566883e+000
1	 1.698437175398548e+000	 3.189289560943490e+000	 5.519070496432792e+000
1	 1.663908787499634e+000	 3.207438927389378e+000	 5.590544070644873e+000
1	 1.629244505343696e+000	 3.225185169011458e+000	 5.635353181501882e+000
1	 1.594451192094152e+000	 3.242527171628312e+000	 5.653793070615285e+000
1	 1.559535709610643e+000	 3.259463972439442e+000	 5.646177446891628e+000
1	 1.524504914401911e+000	 3.275994759273966e+000	 5.612837329961780e+000
1	 1.489365653626425e+000	 3.292118869713935e+000	 5.554119890572794e+000
1	 1.454124761145104e+000	 3.307835790094913e+000	 5.470387290413394e+000
1	 1.418789053630321e+000	 3.323145154386643e+000	 5.362015523793218e+000
1	 1.780100471988717e+000	 3.175048183409870e+000	 5.190192170168253e+000
1	 1.745611770539141e+000	 3.194139719715779e+000	 5.314784211695029e+000
1	 1.710972356823719e+000	 3.212827860651388e+000	 5.411905504574084e+000
1	 1.676189134885112e+000	 3.231111177062963e+000	 5.481843600917754e+000
1	 1.641269015732624e+000	 3.248988393419792e+000	 5.524904964721584e+000
1	 1.606218913182716e+000	 3.266458387317334e+000	 5.541413785375420e+000
1	 1.571045739738455e+000	 3.283520188849218e+000	 5.531710787130045e+000
1	 1.535756402512514e+000	 3.300172979850403e+000	 5.496152037099022e+000
1	 1.500357799198286e+000	 3.316416093014017e+000	 5.435107754326700e+000
1	 1.464856814093469e+000	 3.332249010884568e+000	 5.348961122398227e+000
1	 1.429260314180360e+000	 3.347671364730342e+000	 5.238107108005205e+000
1	 1.793142110144684e+000	 3.198309695998757e+000	 5.079034940949724e+000
1	 1.758400732415532e+000	 3.217541103571808e+000	 5.202749561085195e+000
1	 1.723507538249754e+000	 3.236366160359109e+000	 5.298782690297669e+000
1	 1.688469482271451e+000	 3.254783426736442e+000	 5.367415497448631e+000
1	 1.653293526122406e+000	 3.272791617828106e+000	 5.408946638598198e+000
1	 1.617986634272130e+000	 3.290389603006430e+000	 5.423691090453985e+000
1	 1.582555769867112e+000	 3.307576405259167e+000	 5.411978982135680e+000
1	 1.547007890623957e+000	 3.324351200427108e+000	 5.374154427757945e+000
1	 1.511349944770983e+000	 3.340713316314455e+000	 5.310574362281179e+000
1	 1.475588867042669e+000	 3.356662231674654e+000	 5.221607383019527e+000
1	 1.439731574731233e+000	 3.372197575074528e+000	 5.107632599130469e+000
1	 1.335018969240017e+000	 3.126935471652506e+000	 6.045988397326061e+000
1	 1.301681772541034e+000	 3.140959295332738e+000	 5.878498200036347e+000
1	 1.268268104136253e+000	 3.154599236856098e+000	 5.644579348457645e+000
1	 1.234784312705468e+000	 3.167855363653740e+000	 5.338768147820432e+000
1	 1.201236716620890e+000	 3.180727876869459e+000	 4.955731074507660e+000
1	 1.167631600601917e+000	 3.193217109782673e+000	 4.490271745727918e+000
1	 1.133975212443531e+000	 3.205323526137257e+000	 3.937337555302884e+000
1	 1.100273759821121e+000	 3.217047718379722e+000	 3.292025968369475e+000
1	 1.066533407174408e+000	 3.228390405810319e+000	 2.549590468761154e+000
1	 1.032760272672935e+000	 3.239352432650741e+000	 1.705446153791377e+000
1	 9.989604252654352e-001	 3.249934766032135e+000	 7.551749721145016e-001
1	 1.345490229789387e+000	 3.151461681992926e+000	 5.996269583838295e+000
1	 1.311891551807665e+000	 3.165595501946556e+000	 5.836197075435853e+000
1	 1.278215802312036e+000	 3.179342428752352e+000	 5.612396884286090e+000
1	 1.244469379778353e+000	 3.192702530370364e+000	 5.319444450131877e+000
1	 1.210658652137173e+000	 3.205676009522064e+000	 4.952053629627641e+000
1	 1.176789953402282e+000	 3.218263202100959e+000	 4.505083514027154e+000
1	 1.142869580373430e+000	 3.230464575488313e+000	 3.973544900250766e+000
1	 1.108903789416096e+000	 3.242280726777507e+000	 3.352606408703270e+000
1	 1.074898793320969e+000	 3.253712380910649e+000	 2.637600242195117e+000
1	 1.040860758245642e+000	 3.264760388731104e+000	 1.824027581295173e+000
1	 1.006795800740831e+000	 3.275425724955747e+000	 9.075636124093360e-001
1	 1.355961490338257e+000	 3.175987892333698e+000	 5.934995474589363e+000
1	 1.322101331073807e+000	 3.190231708560741e+000	 5.780966944266211e+000
1	 1.288163500487353e+000	 3.204085620648993e+000	 5.565857432543118e+000
1	 1.254154446850814e+000	 3.217549697087409e+000	 5.284322195761994e+000
1	 1.220080587653086e+000	 3.230624142175128e+000	 4.931162034039605e+000
1	 1.185948306202339e+000	 3.243309294419742e+000	 4.501329906674600e+000
1	 1.151763948303092e+000	 3.255605624839903e+000	 3.989937191091871e+000
1	 1.117533819010909e+000	 3.267513735175860e+000	 3.392259579305011e+000
1	 1.083264179467451e+000	 3.279034356011568e+000	 2.703742606870733e+000
1	 1.048961243818355e+000	 3.290168344812070e+000	 1.920006810292424e+000
1	 1.014631176216317e+000	 3.300916683879955e+000	 1.036852509802623e+000
1	 1.366432750886794e+000	 3.200514102674838e+000	 5.862858142744329e+000
1	 1.332311110339624e+000	 3.214867915175308e+000	 5.713572067233725e+000
1	 1.298111198662370e+000	 3.228828812546042e+000	 5.505784034556655e+000
1	 1.263839513923010e+000	 3.242396863804885e+000	 5.234268928184022e+000
1	 1.229502523168778e+000	 3.255572274828654e+000	 4.893953203279053e+000
1	 1.195106659002230e+000	 3.268355386739017e+000	 4.479921250097441e+000
1	 1.160658316232648e+000	 3.280746674192009e+000	 3.987421393938979e+000
1	 1.126163848605685e+000	 3.292746743574747e+000	 3.411871526281758e+000
1	 1.091629565613964e+000	 3.304356331113032e+000	 2.748864362724820e+000
1	 1.057061729391169e+000	 3.315576300893580e+000	 1.994172324349930e+000
1	 1.022466551691976e+000	 3.326407642804696e+000	 1.143752040083905e+000
1	 1.376904011435165e+000	 3.225040313016363e+000	 5.780528608792675e+000
1	 1.342520889605282e+000	 3.239504121790274e+000	 5.634753456444006e+000
1	 1.308058896837248e+000	 3.253572004443512e+000	 5.432974694963535e+000
1	 1.273524580995097e+000	 3.267244030522805e+000	 5.170125800437035e+000
1	 1.238924458684401e+000	 3.280520407482642e+000	 4.841296768957306e+000
1	 1.204265011802098e+000	 3.293401479058773e+000	 4.441740178842899e+000
1	 1.169552684162233e+000	 3.305887723544611e+000	 3.966876885244704e+000
1	 1.134793878200544e+000	 3.317979751974136e+000	 3.412301342461277e+000
1	 1.099994951760619e+000	 3.329678306214997e+000	 2.773786550272697e+000
1	 1.065162214964182e+000	 3.340984256975578e+000	 2.047288621580993e+000
1	 1.030301927167889e+000	 3.351898601729900e+000	 1.228950969606419e+000
1	 1.387375271983537e+000	 3.249566523358289e+000	 5.688657635027137e+000
1	 1.352730668870948e+000	 3.264140328405665e+000	 5.545229752749722e+000
1	 1.318006595012151e+000	 3.278315196341421e+000	 5.348203326535715e+000
1	 1.283209648067233e+000	 3.292091197241182e+000	 5.092708571039250e+000
1	 1.248346394200107e+000	 3.305468540137102e+000	 4.774036108392959e+000
1	 1.213423364602087e+000	 3.318447571379005e+000	 4.387642680605239e+000
1	 1.178447052091981e+000	 3.331028772897690e+000	 3.929156492971073e+000
1	 1.143423907795610e+000	 3.343212760373997e+000	 3.394382184546011e+000
1	 1.108360337907524e+000	 3.355000281317418e+000	 2.779305422708694e+000
1	 1.073262700537491e+000	 3.366392213058008e+000	 2.080097119800473e+000
1	 1.038137302644139e+000	 3.377389560655498e+000	 1.293117270776797e+000
1	 1.397846532532076e+000	 3.274092733700632e+000	 5.587876484313719e+000
1	 1.362940448136786e+000	 3.288776535021494e+000	 5.445698063665342e+000
1	 1.327954293187240e+000	 3.303058388239788e+000	 5.252220652540423e+000
1	 1.292894715139578e+000	 3.316938363960028e+000	 5.002808555139204e+000
1	 1.257768329716046e+000	 3.330416672792032e+000	 4.692989327965904e+000
1	 1.222581717402338e+000	 3.343493663699706e+000	 4.318459094282996e+000
1	 1.187341420022024e+000	 3.356169822251225e+000	 3.875087490962516e+000
1	 1.152053937391005e+000	 3.368445768774295e+000	 3.358922244550064e+000
1	 1.116725724054791e+000	 3.380322256420249e+000	 2.766193374314609e+000
1	 1.081363186111191e+000	 3.391800169140812e+000	 2.093317020996915e+000
1	 1.045972678120807e+000	 3.402880519581427e+000	 1.336898900891971e+000
1	 1.408317793080948e+000	 3.298618944043411e+000	 5.478797645011896e+000
1	 1.373150227402962e+000	 3.313412741637784e+000	 5.336834763900786e+000
1	 1.337901991362677e+000	 3.327801580138630e+000	 5.145755068844323e+000
1	 1.302579782212286e+000	 3.341785530679351e+000	 4.901193533234322e+000
1	 1.267190265232369e+000	 3.355364805447437e+000	 4.598950202601849e+000
1	 1.231740070202997e+000	 3.368539756020867e+000	 4.234995063510970e+000
1	 1.196235787952496e+000	 3.381310871605198e+000	 3.805472548958128e+000
1	 1.160683966986851e+000	 3.393678777175001e+000	 3.306705677898521e+000
1	 1.125091110202530e+000	 3.405644231523448e+000	 2.735199827450458e+000
1	 1.089463671685380e+000	 3.417208125223935e+000	 2.087646137238921e+000
1	 1.053808053597977e+000	 3.428371478507618e+000	 1.360924546230579e+000
1	 1.418789053630321e+000	 3.323145154386643e+000	 5.362015523793218e+000
1	 1.383360006669641e+000	 3.338048948254552e+000	 5.219296260445662e+000
1	 1.347849689538625e+000	 3.352544772037962e+000	 5.029513467841649e+000
1	 1.312264849285517e+000	 3.366632697399167e+000	 4.788608619649027e+000
1	 1.276612200749228e+000	 3.380312938103318e+000	 4.492689073654411e+000
1	 1.240898423004204e+000	 3.393585848342482e+000	 4.138032447967690e+000
1	 1.205130155883532e+000	 3.406451920959592e+000	 3.721090640535229e+000
1	 1.169313996583270e+000	 3.418911785576081e+000	 3.238493490428425e+000
1	 1.133456496350850e+000	 3.430966206626969e+000	 2.687052080266716e+000
1	 1.097564157260153e+000	 3.442616081307317e+000	 2.063761680008351e+000
1	 1.061643429075730e+000	 3.453862437434002e+000	 1.365804333194311e+000
1	 1.429260314180360e+000	 3.347671364730342e+000	 5.238107108005205e+000
1	 1.393569785936990e+000	 3.362685154871817e+000	 5.093719724021583e+000
1	 1.357797387715248e+000	 3.377287963937803e+000	 4.904182026164022e+000
1	 1.321949916359428e+000	 3.391479864119481e+000	 4.665777092836314e+000
1	 1.286034136266774e+000	 3.405261070759681e+000	 4.374953707317768e+000
1	 1.250056775806104e+000	 3.418631940664543e+000	 4.028330194623202e+000
1	 1.214024523815262e+000	 3.431592970314385e+000	 3.622697911141065e+000
1	 1.177944026180386e+000	 3.444144793977504e+000	 3.155024386398643e+000
1	 1.141821882499862e+000	 3.456288181730766e+000	 2.622456117152940e+000
1	 1.105664642835609e+000	 3.468024037390906e+000	 2.022321014835898e+000
1	 1.069478804554146e+000	 3.479353396360511e+000	 1.352130508188642e+000
1	 1.439731574731233e+000	 3.372197575074528e+000	 5.107632599130469e+000
1	 1.403779565205173e+000	 3.387321361489601e+000	 4.960723788615265e+000
1	 1.367745085892707e+000	 3.402031155838170e+000	 4.770426958015717e+000
1	 1.331634983434178e+000	 3.416327030840312e+000	 4.533401189446345e+000
1	 1.295456071785157e+000	 3.430209203416529e+000	 4.246470115579665e+000
1	 1.259215128608840e+000	 3.443678032987045e+000	 3.906625170967257e+000
1	 1.222918891747823e+000	 3.456734019669561e+000	 3.511028508245349e+000
1	 1.186574055778320e+000	 3.469377802379238e+000	 3.057015579494095e+000
1	 1.150187268649676e+000	 3.481610156834798e+000	 2.542097383819667e+000
1	 1.113765128411843e+000	 3.493431993474643e+000	 1.963962383005671e+000
1	 1.077314180033310e+000	 3.504844355287081e+000	 1.320478087834855e+000
1	 9.989604252654352e-001	 3.249934766032135e+000	 7.551749721145016e-001
1	 9.651398813324286e-001	 3.260138493095665e+000	-3.027544131025457e-001
1	 9.313046005101890e-001	 3.269964816403907e+000	-1.467144033878861e+000
1	 8.974604845374918e-001	 3.279415054160485e+000	-2.738060059906762e+000
1	 8.636133751544897e-001	 3.288490638736054e+000	-4.115396841687224e+000
1	 8.297690515990591e-001	 3.297193114320970e+000	-5.598878709576581e+000
1	 7.959332281968499e-001	 3.305524134521356e+000	-7.188062006996836e+000
1	 7.621115520460927e-001	 3.313485459902493e+000	-8.882337349188646e+000
1	 7.283096007980531e-001	 3.321078955483442e+000	-1.068093209857383e+001
1	 6.945328805338571e-001	 3.328306588186819e+000	-1.258291304751633e+001
1	 6.607868237382243e-001	 3.335170424247628e+000	-1.458718929902801e+001
1	 1.006795800740831e+000	 3.275425724955747e+000	 9.075636124093360e-001
1	 9.727099843767157e-001	 3.285709485252757e+000	-1.128276403969471e-001
1	 9.386093155341527e-001	 3.295612881617041e+000	-1.235124880832035e+000
1	 9.044997422423738e-001	 3.305137242591581e+000	-2.458807541605212e+000
1	 8.703871520613904e-001	 3.314284011781864e+000	-3.783188862852733e+000
1	 8.362773695586973e-001	 3.323054745490132e+000	-5.207418556990946e+000
1	 8.021761538804225e-001	 3.331451110292612e+000	-6.730485679808061e+000
1	 7.680891964179751e-001	 3.339474880563621e+000	-8.351221698162711e+000
1	 7.340221185710891e-001	 3.347127935950536e+000	-1.006830374444120e+001
1	 6.999804696079962e-001	 3.354412258803585e+000	-1.188025804774125e+001
1	 6.659697246232671e-001	 3.361329931564333e+000	-1.378546353159882e+001
1	 1.014631176216317e+000	 3.300916683879955e+000	 1.036852509802623e+000
1	 9.802800874211786e-001	 3.311280477410428e+000	 5.370427746838813e-002
1	 9.459140305583736e-001	 3.321260946830719e+000	-1.026702893397277e+000
1	 9.115389999475941e-001	 3.330859431023176e+000	-2.203343026677280e+000
1	 8.771609289687057e-001	 3.340077384828113e+000	-3.475029405857282e+000
1	 8.427856875188232e-001	 3.348916376659676e+000	-4.840417981737208e+000
1	 8.084190795645522e-001	 3.357378086064188e+000	-6.298010961501443e+000
1	 7.740668407904775e-001	 3.365464301225003e+000	-7.846160568668095e+000
1	 7.397346363448019e-001	 3.373176916417826e+000	-9.483072963303007e+000
1	 7.054280586828629e-001	 3.380517929420490e+000	-1.120681231178179e+001
1	 6.711526255090805e-001	 3.387489438881134e+000	-1.301530499531365e+001
1	 1.022466551691976e+000	 3.326407642804696e+000	 1.143752040083905e+000
1	 9.878501904658823e-001	 3.336851469568601e+000	 1.974559159752240e-001
1	 9.532187455829029e-001	 3.346909012044858e+000	-8.413731810995780e-001
1	 9.185782576531852e-001	 3.356581619455178e+000	-1.971283338285833e+000
1	 8.839347058764531e-001	 3.365870757874714e+000	-3.190667186065775e+000
1	 8.492940054794380e-001	 3.374778007829509e+000	-4.497765927523157e+000
1	 8.146620052492227e-001	 3.383305061835990e+000	-5.890673527093171e+000
1	 7.800444851635688e-001	 3.391453721886552e+000	-7.367341047629057e+000
1	 7.454471541191473e-001	 3.399225896885227e+000	-8.925581124552357e+000
1	 7.108756477583998e-001	 3.406623600037462e+000	-1.056307256582140e+001
1	 6.763355263955969e-001	 3.413648946197964e+000	-1.227736506645390e+001
1	 1.030301927167889e+000	 3.351898601729900e+000	 1.228950969606419e+000
1	 9.954202935108945e-001	 3.362422461727201e+000	 3.190231553880760e-001
1	 9.605234606077903e-001	 3.372557077259375e+000	-6.786462120932675e-001
1	 9.256175153591821e-001	 3.382303807887502e+000	-1.762256955727823e+000
1	 8.907084827846497e-001	 3.391664130921577e+000	-2.929858562852614e+000
1	 8.558023234405420e-001	 3.400639638999539e+000	-4.179354716358364e+000
1	 8.209049309344191e-001	 3.409232037607926e+000	-5.508507966375177e+000
1	 7.860221295372192e-001	 3.417443142548177e+000	-6.914944530837135e+000
1	 7.511596718940810e-001	 3.425274877352658e+000	-8.396159213219473e+000
1	 7.163232368345507e-001	 3.432729270654426e+000	-9.949520425769968e+000
1	 6.815184272827486e-001	 3.439808453514760e+000	-1.157227530661423e+001
1	 1.038137302644139e+000	 3.377389560655498e+000	 1.293117270776797e+000
1	 1.002990396556281e+000	 3.387993453886149e+000	 4.189838862681544e-001
1	 9.678281756330861e-001	 3.398205142474185e+000	-5.380472335632187e-001
1	 9.326567730656176e-001	 3.408025996320059e+000	-1.575903574558678e+000
1	 8.974822596933115e-001	 3.417457503968606e+000	-2.692367251134390e+000
1	 8.623106414021357e-001	 3.426501270169676e+000	-3.885079921064974e+000
1	 8.271478566201258e-001	 3.435159013379910e+000	-5.151547824869165e+000
1	 7.919997739113981e-001	 3.443432563209798e+000	-6.489146937721225e+000
1	 7.568721896695579e-001	 3.451323857820037e+000	-7.895128221853433e+000
1	 7.217708259112582e-001	 3.458834941271304e+000	-9.366622967490530e+000
1	 6.867013281704680e-001	 3.465967960831457e+000	-1.090064821046262e+001
1	 1.045972678120807e+000	 3.402880519581427e+000	 1.336898900891971e+000
1	 1.010560499602108e+000	 3.413564446045371e+000	 4.978986832773849e-001
1	 9.751328906588406e-001	 3.423853207689207e+000	-4.191157181764746e-001
1	 9.396960307725256e-001	 3.433748184752760e+000	-1.411873686487832e+000
1	 9.042560366024565e-001	 3.443250877015715e+000	-2.477964045868416e+000
1	 8.688189593642189e-001	 3.452362901339825e+000	-3.614840243518557e+000
1	 8.333907823063274e-001	 3.461085989151849e+000	-4.819825642939528e+000
1	 7.979774182860748e-001	 3.469421983871322e+000	-6.090118916464725e+000
1	 7.625847074455351e-001	 3.477372838287284e+000	-7.422799524790265e+000
1	 7.272184149884663e-001	 3.484940611888026e+000	-8.814833271396145e+000
1	 6.918842290586873e-001	 3.492127468147986e+000	-1.026307791989172e+001
1	 1.053808053597977e+000	 3.428371478507618e+000	 1.360924546230579e+000
1	 1.018130602648443e+000	 3.439135438204790e+000	 5.563114489226309e-001
1	 9.824376056851037e-001	 3.449501272904357e+000	-3.214048352289331e-001
1	 9.467352884799394e-001	 3.459470373185520e+000	-1.269828178015457e+000
1	 9.110298135121008e-001	 3.469044250062812e+000	-2.286426558841545e+000
1	 8.753272773267932e-001	 3.478224532509899e+000	-3.368537398320942e+000
1	 8.396337079930086e-001	 3.487012964923652e+000	-4.513372993161608e+000
1	 8.039550626612187e-001	 3.495411404532665e+000	-5.718026039971798e+000
1	 7.682972252219670e-001	 3.503421818754314e+000	-6.979475235724381e+000
1	 7.326660040661166e-001	 3.511046282504512e+000	-8.294590942751714e+000
1	 6.970671299473389e-001	 3.518286975464283e+000	-9.660140906310483e+000
1	 1.061643429075730e+000	 3.453862437434002e+000	 1.365804333194311e+000
1	 1.025700705695351e+000	 3.464706430364328e+000	 5.947500287935145e-001
1	 9.897423207119259e-001	 3.475149338119550e+000	-2.444809452106829e-001
1	 9.537745461878929e-001	 3.485192561618248e+000	-1.149437946842763e+000
1	 9.178035904222616e-001	 3.494837623109806e+000	-2.117538967114768e+000
1	 8.818355952898580e-001	 3.504086163679801e+000	-3.146076001624247e+000
1	 8.458766336801538e-001	 3.512939940695230e+000	-4.232220516035247e+000
1	 8.099327070367999e-001	 3.521400825193738e+000	-5.373028993155971e+000
1	 7.740097429988093e-001	 3.529470799221044e+000	-6.565448549445810e+000
1	 7.381135931441535e-001	 3.537151953120691e+000	-7.806322608935336e+000
1	 7.022500308363554e-001	 3.544446482780284e+000	-9.092396622722333e+000
1	 1.069478804554146e+000	 3.479353396360511e+000	 1.352130508188642e+000
1	 1.033270808742900e+000	 3.490277422523913e+000	 6.137267997554545e-001
1	 9.970470357393574e-001	 3.500797403334707e+000	-1.879231165894703e-001
1	 9.608138038964192e-001	 3.510914750050856e+000	-1.050383535144260e+000
1	 9.245773673329560e-001	 3.520630996156605e+000	-1.971091772525847e+000
1	 8.883439132534143e-001	 3.529947794849443e+000	-2.947363464841932e+000
1	 8.521195593677479e-001	 3.538866916466493e+000	-3.976397954128297e+000
1	 8.159103514127873e-001	 3.547390245854455e+000	-5.055283751995793e+000
1	 7.797222607760179e-001	 3.555519779687395e+000	-6.181004068555142e+000
1	 7.435611822225196e-001	 3.563257623736487e+000	-7.350442394840935e+000
1	 7.074329317256694e-001	 3.570605990095922e+000	-8.560388127139104e+000
1	 1.077314180033310e+000	 3.504844355287081e+000	 1.320478087834855e+000
1	 1.040840911791156e+000	 3.515848414683465e+000	 6.137392324747540e-001
1	 1.004351750767449e+000	 3.526445468549742e+000	-1.513226636809676e-001
1	 9.678530616055532e-001	 3.536636938483259e+000	-9.723547788431511e-001
1	 9.313511442442004e-001	 3.546424369203119e+000	-1.846881571686540e+000
1	 8.948522312174626e-001	 3.555809426018735e+000	-2.772309892998300e+000
1	 8.583624850557751e-001	 3.564793892237349e+000	-3.745934184730112e+000
1	 8.218879957891512e-001	 3.573379666514729e+000	-4.764941754776724e+000
1	 7.854347785535484e-001	 3.581568760153285e+000	-5.826418115921459e+000
1	 7.490087713011586e-001	 3.589363294351826e+000	-6.927352377535345e+000
1	 7.126158326152123e-001	 3.596765497411133e+000	-8.064642678790255e+000
1	 6.607868237382243e-001	 3.335170424247628e+000	-1.458718929902801e+001
1	 6.270818393662591e-001	 3.341671678785408e+000	-1.672767553564614e+001
1	 5.934181341637264e-001	 3.347813666836248e+000	-1.904078599456508e+001
1	 5.598008987902472e-001	 3.353598738394850e+000	-2.152796214730734e+001
1	 5.262352434010413e-001	 3.359029331970649e+000	-2.419040995838114e+001
1	 4.927261961099982e-001	 3.364107971852334e+000	-2.702909886170119e+001
1	 4.592787015493515e-001	 3.368837265353978e+000	-3.004476114989595e+001
1	 4.258976195254683e-001	 3.373219900046345e+000	-3.323789176799120e+001
1	 3.925877237701084e-001	 3.377258640976893e+000	-3.660874850226178e+001
1	 3.593537007863771e-001	 3.380956327881860e+000	-4.015735255439001e+001
1	 3.262001487885013e-001	 3.384315872393811e+000	-4.388348949046196e+001
1	 6.659697246232671e-001	 3.361329931564333e+000	-1.378546353159882e+001
1	 6.320003742149505e-001	 3.367882178883140e+000	-1.581692761611853e+001
1	 5.980726267504355e-001	 3.374072341797701e+000	-1.800926471480614e+001
1	 5.641917136024434e-001	 3.379902788734986e+000	-2.036210806445866e+001
1	 5.303627850078557e-001	 3.385375977330978e+000	-2.287486548341460e+001
1	 4.965909085187302e-001	 3.390494451673717e+000	-2.554672106950284e+001
1	 4.628810675506775e-001	 3.395260839527842e+000	-2.837663722497686e+001
1	 4.292381600281079e-001	 3.399677849544182e+000	-3.136335699720597e+001
1	 3.956669971256946e-001	 3.403748268457943e+000	-3.450540672348038e+001
1	 3.621723021052770e-001	 3.407474958278943e+000	-3.780109896791733e+001
1	 3.287587092473185e-001	 3.410860853477239e+000	-4.124853573812298e+001
1	 6.711526255090805e-001	 3.387489438881134e+000	-1.301530499531365e+001
1	 6.369189090644476e-001	 3.394092678980937e+000	-1.494052406044386e+001
1	 6.027271193379755e-001	 3.400331016759193e+000	-1.701519278052629e+001
1	 5.685825284154836e-001	 3.406206839075148e+000	-1.923726544395292e+001
1	 5.344903266155143e-001	 3.411722622691323e+000	-2.160448068057902e+001
1	 5.004556209282910e-001	 3.416880931495114e+000	-2.411436570422877e+001
1	 4.664834335528003e-001	 3.421684413701723e+000	-2.676424080119298e+001
1	 4.325787005314929e-001	 3.426135799042036e+000	-2.955122405096110e+001
1	 3.987462704819556e-001	 3.430237895939014e+000	-3.247223626528248e+001
1	 3.649909034247584e-001	 3.433993588676045e+000	-3.552400613154491e+001
1	 3.313172697066006e-001	 3.437405834560681e+000	-3.870307554638961e+001
1	 6.763355263955969e-001	 3.413648946197964e+000	-1.227736506645390e+001
1	 6.418374439146737e-001	 3.420303179078740e+000	-1.409928564144031e+001
1	 6.073816119262631e-001	 3.426589691720682e+000	-1.605958974872970e+001
1	 5.729733432292812e-001	 3.432510889415307e+000	-1.815467896296050e+001
1	 5.386178682239284e-001	 3.438069268051671e+000	-2.038074863919264e+001
1	 5.043203333385939e-001	 3.443267411316521e+000	-2.273379452562880e+001
1	 4.700857995556381e-001	 3.448107987875623e+000	-2.520961954617235e+001
1	 4.359192410355516e-001	 3.452593748539921e+000	-2.780384073672166e+001
1	 4.018255438388309e-001	 3.456727523420122e+000	-3.051189631920312e+001
1	 3.678095047447776e-001	 3.460512219073185e+000	-3.332905289748451e+001
1	 3.338758301663242e-001	 3.463950815644158e+000	-3.625041275948932e+001
1	 6.815184272827486e-001	 3.439808453514760e+000	-1.157227530661423e+001
1	 6.467559787655529e-001	 3.446513679176500e+000	-1.329400816424343e+001
1	 6.120361045152155e-001	 3.452848366682128e+000	-1.514344416177781e+001
1	 5.773641580437486e-001	 3.458814939755431e+000	-1.711555543591569e+001
1	 5.427454098330107e-001	 3.464415913412002e+000	-1.920511702920848e+001
1	 5.081850457495537e-001	 3.469653891137935e+000	-2.140671570120671e+001
1	 4.736881655591105e-001	 3.474531562049550e+000	-2.371475883805751e+001
1	 4.392597815402107e-001	 3.479051698037851e+000	-2.612348344229541e+001
1	 4.049048171962606e-001	 3.483217150901287e+000	-2.862696518490156e+001
1	 3.706281060652907e-001	 3.487030849470385e+000	-3.121912750208158e+001
1	 3.364343906264664e-001	 3.490495796727684e+000	-3.389375071961371e+001
1	 6.867013281704680e-001	 3.465967960831457e+000	-1.090064821046262e+001
1	 6.516745136170079e-001	 3.472724179274157e+000	-1.252546340852832e+001
1	 6.166905971047496e-001	 3.479107041643489e+000	-1.426771471780958e+001
1	 5.817549728588000e-001	 3.485118990095495e+000	-1.612106524336774e+001
1	 5.468729514426727e-001	 3.490762558772302e+000	-1.807898981523476e+001
1	 5.120497581610830e-001	 3.496040370959349e+000	-2.013478582866608e+001
1	 4.772905315631359e-001	 3.500955136223510e+000	-2.228158411616540e+001
1	 4.426003220453980e-001	 3.505509647535838e+000	-2.451235983104399e+001
1	 4.079840905541844e-001	 3.509706778382526e+000	-2.681994332283210e+001
1	 3.734467073862539e-001	 3.513549479867663e+000	-2.919703098544605e+001
1	 3.389929510870035e-001	 3.517040777811276e+000	-3.163619605963119e+001
1	 6.918842290586873e-001	 3.492127468147986e+000	-1.026307791989172e+001
1	 6.565930484689633e-001	 3.498934679371662e+000	-1.179440002838261e+001
1	 6.213450896947828e-001	 3.505365716604721e+000	-1.343333138855608e+001
1	 5.861457876743472e-001	 3.511423040435469e+000	-1.517234369661135e+001
1	 5.510004930528263e-001	 3.517109204132556e+000	-1.700372889351762e+001
1	 5.159144705730965e-001	 3.522426850780760e+000	-1.891961186745617e+001
1	 4.808928975676334e-001	 3.527378710397507e+000	-2.091196312599399e+001
1	 4.459408625510410e-001	 3.531967597033896e+000	-2.297261141595482e+001
1	 4.110633639125423e-001	 3.536196405863857e+000	-2.509325626970845e+001
1	 3.762653087076235e-001	 3.540068110265040e+000	-2.726548045738477e+001
1	 3.415515115479128e-001	 3.543585758894952e+000	-2.948076232533100e+001
1	 6.970671299473389e-001	 3.518286975464283e+000	-9.660140906310483e+000
1	 6.615115833213421e-001	 3.525145179468955e+000	-1.110154441203450e+001
1	 6.259995822852320e-001	 3.531624391565782e+000	-1.264119648728734e+001
1	 5.905366024903045e-001	 3.537727090775320e+000	-1.427049234143801e+001
1	 5.551280346633835e-001	 3.543455849492744e+000	-1.598065565589490e+001
1	 5.197791829855072e-001	 3.548813330602162e+000	-1.776275298414722e+001
1	 4.844952635725218e-001	 3.553802284571547e+000	-1.960770806407563e+001
1	 4.492814030570671e-001	 3.558425546532040e+000	-2.150631601887937e+001
1	 4.141426372712742e-001	 3.562686033345300e+000	-2.344925742390531e+001
1	 3.790839100293557e-001	 3.566586740662535e+000	-2.542711221763463e+001
1	 3.441100720091707e-001	 3.570130739978726e+000	-2.743037343607374e+001
1	 7.022500308363554e-001	 3.544446482780284e+000	-9.092396622722333e+000
1	 6.664301181740677e-001	 3.551355679565987e+000	-1.044760150350991e+001
1	 6.306540748760146e-001	 3.557883066526630e+000	-1.189218568946788e+001
1	 5.949274173065843e-001	 3.564031141115022e+000	-1.341658020415426e+001
1	 5.592555762742563e-001	 3.569802494852851e+000	-1.501105248449389e+001
1	 5.236438953982293e-001	 3.575199810423551e+000	-1.666572231608836e+001
1	 4.880976295777198e-001	 3.580225858745636e+000	-1.837057762785080e+001
1	 4.526219435634039e-001	 3.584883496030281e+000	-2.011549012087001e+001
1	 4.172219106303195e-001	 3.589175660826871e+000	-2.189023070751444e+001
1	 3.819025113514069e-001	 3.593105371060167e+000	-2.368448473792429e+001
1	 3.466686324707544e-001	 3.596675721062616e+000	-2.548786699219488e+001
1	 7.074329317256694e-001	 3.570605990095922e+000	-8.560388127139104e+000
1	 6.713486530270640e-001	 3.577566179662699e+000	-9.833255588171298e+000
1	 6.353085674670472e-001	 3.584141741487224e+000	-1.118714900854609e+001
1	 5.993182321231001e-001	 3.590335191454545e+000	-1.261164498282721e+001
1	 5.633831178853562e-001	 3.596149140212859e+000	-1.409616418072533e+001
1	 5.275086078111761e-001	 3.601586290244922e+000	-1.562998865753843e+001
1	 4.916999955831463e-001	 3.606649432919779e+000	-1.720227897543304e+001
1	 4.559624840699785e-001	 3.611341445528634e+000	-1.880209110920035e+001
1	 4.203011839896186e-001	 3.615665288308593e+000	-2.041839311138234e+001
1	 3.847211126737328e-001	 3.619624001457956e+000	-2.204008151294975e+001
1	 3.492271929326406e-001	 3.623220702146639e+000	-2.365599743702140e+001
1	 7.126158326152123e-001	 3.596765497411133e+000	-8.064642678790255e+000
1	 6.762671878802550e-001	 3.603776679759038e+000	-9.259171043976416e+000
1	 6.399630600582476e-001	 3.610400416447522e+000	-1.052691172916176e+001
1	 6.037090469397647e-001	 3.616639241793862e+000	-1.185669418654619e+001
1	 5.675106594965956e-001	 3.622495785572754e+000	-1.323719933191813e+001
1	 5.313733202242620e-001	 3.627972770066271e+000	-1.465697807221661e+001
1	 4.953023615887203e-001	 3.633073007093981e+000	-1.610446959985327e+001
1	 4.593030245767192e-001	 3.637799395027112e+000	-1.756801942632977e+001
1	 4.233804573491112e-001	 3.642154915790479e+000	-1.903589712908618e+001
1	 3.875397139962902e-001	 3.646142631855923e+000	-2.049631378693846e+001
1	 3.517857533948060e-001	 3.649765683230813e+000	-2.193743908090313e+001
1	 3.262001487885013e-001	 3.384315872393811e+000	-4.388348949046196e+001
1	 2.931266340559612e-001	 3.387340684071736e+000	-4.780105364596470e+001
1	 2.601426139203095e-001	 3.390033282652841e+000	-5.192823440167403e+001
1	 2.272524846770250e-001	 3.392396780883214e+000	-5.627261020950161e+001
1	 1.944605489001440e-001	 3.394434352328458e+000	-6.084149748914323e+001
1	 1.617710148445833e-001	 3.396149228576582e+000	-6.564194121840983e+001
1	 1.291879959367674e-001	 3.397544696455680e+000	-7.068070622297445e+001
1	 9.671551035186207e-002	 3.398624095269112e+000	-7.596426916081617e+001
1	 6.435748067584694e-002	 3.399390814050797e+000	-8.149881119525917e+001
1	 3.211773365058886e-002	 3.399848288843145e+000	-8.729021134918904e+001
1	 0.000000000000000e+000	 3.400000000000000e+000	-9.334404053178480e+001
1	 3.287587092473185e-001	 3.410860853477239e+000	-4.124853573812298e+001
1	 2.954257814294042e-001	 3.413909390354809e+000	-4.486109993267005e+001
1	 2.621830501619328e-001	 3.416623108412469e+000	-4.865654249268604e+001
1	 2.290349462228407e-001	 3.419005144811186e+000	-5.264078073892909e+001
1	 1.959858059335152e-001	 3.421058698008491e+000	-5.681950378838866e+001
1	 1.630398705564288e-001	 3.422787024939412e+000	-6.119816486433594e+001
1	 1.302012857817726e-001	 3.424193438212349e+000	-6.578197420643284e+001
1	 9.747410130137282e-002	 3.425281303322549e+000	-7.057589257625999e+001
1	 6.486227046811306e-002	 3.426054035885894e+000	-7.558462535245417e+001
1	 3.236965003900847e-002	 3.426515098895460e+000	-8.081261720853038e+001
1	 0.000000000000000e+000	 3.426668000003317e+000	-8.626404736541564e+001
1	 3.313172697066006e-001	 3.437405834560681e+000	-3.870307554638961e+001
1	 2.977249288031724e-001	 3.440478096637889e+000	-4.202241531077386e+001
1	 2.642234864037295e-001	 3.443212934172093e+000	-4.549936961300123e+001
1	 2.308174077686785e-001	 3.445613508739142e+000	-4.913821851197226e+001
1	 1.975110629667696e-001	 3.447683043688490e+000	-5.294304506776312e+001
1	 1.643087262680443e-001	 3.449424821302194e+000	-5.691772942348189e+001
1	 1.312145756264719e-001	 3.450842179968952e+000	-6.106594338984601e+001
1	 9.823269225055085e-002	 3.451938511375909e+000	-6.539114552776263e+001
1	 6.536706026008096e-002	 3.452717257720900e+000	-6.989657672323867e+001
1	 3.262156642723695e-002	 3.453181908947675e+000	-7.458525624803224e+001
1	 0.000000000000000e+000	 3.453336000006534e+000	-7.945997829861159e+001
1	 3.338758301663242e-001	 3.463950815644158e+000	-3.625041275948932e+001
1	 3.000240761772671e-001	 3.467046802920987e+000	-3.928860715829543e+001
1	 2.662639226457273e-001	 3.469802759931710e+000	-4.246057990673605e+001
1	 2.325998693145914e-001	 3.472221872667065e+000	-4.576899713872425e+001
1	 1.990363199999830e-001	 3.474307389368425e+000	-4.921635660734256e+001
1	 1.655775819795217e-001	 3.476062617664879e+000	-5.280498359025520e+001
1	 1.322278654709650e-001	 3.477490921725426e+000	-5.653702720249000e+001
1	 9.899128319949337e-002	 3.478595719429112e+000	-6.041445711163790e+001
1	 6.587185005183170e-002	 3.479380479555727e+000	-6.443906064977355e+001
1	 3.287348281532380e-002	 3.479848718999696e+000	-6.861244031570082e+001
1	 0.000000000000000e+000	 3.480004000009550e+000	-7.293601166046862e+001
1	 3.364343906264664e-001	 3.490495796727684e+000	-3.389375071961371e+001
1	 3.023232235516898e-001	 3.493615509204113e+000	-3.666317311780221e+001
1	 2.683043588879538e-001	 3.496392585691321e+000	-3.954391997179992e+001
1	 2.343823308606329e-001	 3.498830236594936e+000	-4.253706631117255e+001
1	 2.005615770332309e-001	 3.500931735048263e+000	-4.564354485113968e+001
1	 1.668464376909529e-001	 3.502700414027417e+000	-4.886414377296681e+001
1	 1.332411553153519e-001	 3.504139663481708e+000	-5.219950481832843e+001
1	 9.974987414829747e-002	 3.505252927482079e+000	-5.565012169230166e+001
1	 6.637663984344647e-002	 3.506043701390285e+000	-5.921633876911824e+001
1	 3.312539920331854e-002	 3.506515529051426e+000	-6.289835009431680e+001
1	 0.000000000000000e+000	 3.506672000012267e+000	-6.669619867647536e+001
1	 3.389929510870035e-001	 3.517040777811276e+000	-3.163619605963119e+001
1	 3.046223709264421e-001	 3.520184215487275e+000	-3.414950523756991e+001
1	 2.703447951304372e-001	 3.522982411450922e+000	-3.675302329581438e+001
1	 2.361647924068563e-001	 3.525438600522739e+000	-3.944625647957855e+001
1	 2.020868340665886e-001	 3.527556080727968e+000	-4.222859226907636e+001
1	 1.681152934024299e-001	 3.529338210389759e+000	-4.509929908600035e+001
1	 1.342544451597327e-001	 3.530788405237732e+000	-4.805752622249521e+001
1	 1.005084650970603e-001	 3.531910135534731e+000	-5.110230398674096e+001
1	 6.688142963500628e-002	 3.532706923224483e+000	-5.423254405895020e+001
1	 3.337731559127066e-002	 3.533182339102766e+000	-5.744704005130532e+001
1	 0.000000000000000e+000	 3.533340000014583e+000	-6.074446826510597e+001
1	 3.415515115479128e-001	 3.543585758894952e+000	-2.948076232533100e+001
1	 3.069215183015248e-001	 3.546752921770478e+000	-3.175089392661306e+001
1	 2.723852313732049e-001	 3.549572237210507e+000	-3.409141449265556e+001
1	 2.379472539533150e-001	 3.552046964450459e+000	-3.650028331867330e+001
1	 2.036120911001321e-001	 3.554180426407512e+000	-3.897536200042976e+001
1	 1.693841491140445e-001	 3.555976006751856e+000	-4.151441611760283e+001
1	 1.352677350042071e-001	 3.557437146993431e+000	-4.411511705005874e+001
1	 1.012670560458789e-001	 3.558567343586992e+000	-4.677504392045481e+001
1	 6.738621942659229e-002	 3.559370145058233e+000	-4.949168565649903e+001
1	 3.362923197922968e-002	 3.559849149153620e+000	-5.226244316612929e+001
1	 0.000000000000000e+000	 3.560008000016400e+000	-5.508463161882744e+001
1	 3.441100720091707e-001	 3.570130739978726e+000	-2.743037343607374e+001
1	 3.092206656769397e-001	 3.573321628053737e+000	-2.947053173327537e+001
1	 2.744256676162848e-001	 3.576162062970079e+000	-3.156251334999731e+001
1	 2.397297155000622e-001	 3.578655328378078e+000	-3.370275199460801e+001
1	 2.051373481339368e-001	 3.580804772086859e+000	-3.588760229012645e+001
1	 1.706530048258889e-001	 3.582613803113661e+000	-3.811334348497564e+001
1	 1.362810248488753e-001	 3.584085888748745e+000	-4.037618320892085e+001
1	 1.020256469948505e-001	 3.585224551638780e+000	-4.267226126676401e+001
1	 6.789100921828561e-002	 3.586033366891444e+000	-4.499765346249972e+001
1	 3.388114836724510e-002	 3.586515959203891e+000	-4.734837544678535e+001
1	 0.000000000000000e+000	 3.586676000017616e+000	-4.972038658073841e+001
1	 3.466686324707544e-001	 3.596675721062616e+000	-2.548786699219488e+001
1	 3.115198130526881e-001	 3.599890334337058e+000	-2.731151695649431e+001
1	 2.764661038597044e-001	 3.602751888729631e+000	-2.916963869761836e+001
1	 2.415121770471513e-001	 3.605263692305578e+000	-3.105716124295357e+001
1	 2.066626051680781e-001	 3.607429117765978e+000	-3.296895072858607e+001
1	 1.719218605380546e-001	 3.609251599475123e+000	-3.489981618765557e+001
1	 1.372943146938369e-001	 3.610734630503605e+000	-3.684451529800208e+001
1	 1.027842379440721e-001	 3.611881759690019e+000	-3.879776008067978e+001
1	 6.839579901016735e-002	 3.612696588724027e+000	-4.075422254127113e+001
1	 3.413306475536642e-002	 3.613182769253480e+000	-4.270854024629794e+001
1	 0.000000000000000e+000	 3.613344000018133e+000	-4.465532182739998e+001
1	 3.492271929326406e-001	 3.623220702146639e+000	-2.365599743702140e+001
1	 3.138189604287714e-001	 3.626459040620449e+000	-2.527685709832161e+001
1	 2.785065401034917e-001	 3.629341714489162e+000	-2.691601210566691e+001
1	 2.432946385946357e-001	 3.631872056232944e+000	-2.856690726743901e+001
1	 2.081878622026318e-001	 3.634053463444835e+000	-3.022293830518979e+001
1	 1.731907162506340e-001	 3.635889395836193e+000	-3.187745976952830e+001
1	 1.383076045391921e-001	 3.637383372257951e+000	-3.352379283121150e+001
1	 1.035428288936410e-001	 3.638538967740631e+000	-3.515523293786879e+001
1	 6.890058880231857e-002	 3.639359810555891e+000	-3.676505732737491e+001
1	 3.438498114364316e-002	 3.639849579302291e+000	-3.834653238946790e+001
1	 0.000000000000000e+000	 3.640012000017849e+000	-3.989292086779677e+001
1	 3.517857533948060e-001	 3.649765683230813e+000	-2.193743908090313e+001
1	 3.161181078051911e-001	 3.653027746903922e+000	-2.336947216578113e+001
1	 2.805469763476744e-001	 3.655931540248671e+000	-2.480476142153835e+001
1	 2.450771001425687e-001	 3.658480420160160e+000	-2.623528746855481e+001
1	 2.097131192376733e-001	 3.660677809123401e+000	-2.765299328486154e+001
1	 1.744595719637188e-001	 3.662527192196826e+000	-2.904979429921932e+001
1	 1.393208943850408e-001	 3.664032114011716e+000	-3.041758827708965e+001
1	 1.043014198436543e-001	 3.665196175790536e+000	-3.174826498863566e+001
1	 6.940537859482046e-002	 3.666023032386947e+000	-3.303371564870308e+001
1	 3.463689753212482e-002	 3.666516389350228e+000	-3.426584211953693e+001
1	 0.000000000000000e+000	 3.666680000016666e+000	-3.543656586778965e+001
1	 3.666680000016666e+000	 0.000000000000000e+000	 3.899095040860851e+001
1	 3.666516389350228e+000	 3.463689753212492e-002	 3.661199493844357e+001
1	 3.666023032386948e+000	 6.940537859482068e-002	 3.426943675020094e+001
1	 3.665196175790535e+000	 1.043014198436540e-001	 3.196975756562632e+001
1	 3.664032114011715e+000	 1.393208943850406e-001	 2.971931464915927e+001
1	 3.662527192196825e+000	 1.744595719637187e-001	 2.752433043642127e+001
1	 3.660677809123401e+000	 2.097131192376734e-001	 2.539088208254788e+001
1	 3.658480420160158e+000	 2.450771001425689e-001	 2.332489094634278e+001
1	 3.655931540248671e+000	 2.805469763476741e-001	 2.133211202693026e+001
1	 3.653027746903921e+000	 3.161181078051908e-001	 1.941812337026591e+001
1	 3.649765683230813e+000	 3.517857533948059e-001	 1.758831546353017e+001
1	 3.693344000014533e+000	 0.000000000000000e+000	 3.600697797468835e+001
1	 3.693179199575722e+000	 3.488877613527524e-002	 3.383978915146668e+001
1	 3.692682254933839e+000	 6.991009267304311e-002	 3.169924273199277e+001
1	 3.691849385458404e+000	 1.050598970112210e-001	 2.959217878731453e+001
1	 3.690676858653458e+000	 1.403340322455685e-001	 2.752530310987520e+001
1	 3.689160993087310e+000	 1.757282373585245e-001	 2.550517593356715e+001
1	 3.687298161349475e+000	 2.112381474961306e-001	 2.353820056398670e+001
1	 3.685084793032175e+000	 2.468592943351136e-001	 2.163061193629587e+001
1	 3.682517377733704e+000	 2.825871065421269e-001	 1.978846511886848e+001
1	 3.679592468080790e+000	 3.184169103270726e-001	 1.801762378165167e+001
1	 3.676306682767058e+000	 3.543439300923416e-001	 1.632374864890646e+001
1	 3.720008000011599e+000	 0.000000000000000e+000	 3.311088065358021e+001
1	 3.719842009800440e+000	 3.514065473862902e-002	 3.114938316748481e+001
1	 3.719341477480015e+000	 7.041480675161087e-002	 2.920540194378469e+001
1	 3.718502595125647e+000	 1.058183741792211e-001	 2.728605582123948e+001
1	 3.717321603294685e+000	 1.413471701065709e-001	 2.539832136807853e+001
1	 3.715794793977405e+000	 1.769969027538079e-001	 2.354902085267089e+001
1	 3.713918513575290e+000	 2.127631757550383e-001	 2.174481011620045e+001
1	 3.711689165904060e+000	 2.486414885280598e-001	 1.999216636593357e+001
1	 3.709103215218715e+000	 2.846272367369182e-001	 1.829737590849655e+001
1	 3.706157189257729e+000	 3.207157128492246e-001	 1.666652184339390e+001
1	 3.702847682303435e+000	 3.569021067900821e-001	 1.510547173778777e+001
1	 3.746672000008066e+000	 0.000000000000000e+000	 3.031304325454847e+001
1	 3.746504820024573e+000	 3.539253334213540e-002	 2.854996947378635e+001
1	 3.746000700025651e+000	 7.091952083043755e-002	 2.679597873796947e+001
1	 3.745155804792418e+000	 1.065768513475459e-001	 2.505839068233354e+001
1	 3.743966347935525e+000	 1.423603079679293e-001	 2.334437648060657e+001
1	 3.742428594867207e+000	 1.782655681494496e-001	 2.166094622334285e+001
1	 3.740538865800909e+000	 2.142882040142841e-001	 2.001493619149744e+001
1	 3.738293538775842e+000	 2.504236827213071e-001	 1.841299604476264e+001
1	 3.735689052703710e+000	 2.866673669319632e-001	 1.686157594506747e+001
1	 3.732721910434723e+000	 3.230145153715789e-001	 1.536691363650192e+001
1	 3.729388681839912e+000	 3.594602834879762e-001	 1.393502150376392e+001
1	 3.773336000004134e+000	 0.000000000000000e+000	 2.762355705288886e+001
1	 3.773167630248318e+000	 3.564441194574353e-002	 2.605048072551809e+001
1	 3.772659922570928e+000	 7.142423490943686e-002	 2.447880952233089e+001
1	 3.771809014458874e+000	 1.073353285160872e-001	 2.291598746864072e+001
1	 3.770611092576107e+000	 1.433734458295249e-001	 2.136930571060239e+001
1	 3.769062395756812e+000	 1.795342335453302e-001	 1.984588945631313e+001
1	 3.767159218026396e+000	 2.158132322737551e-001	 1.835268480680218e+001
1	 3.764897911647557e+000	 2.522058769147550e-001	 1.689644549712243e+001
1	 3.762274890188694e+000	 2.887074971271775e-001	 1.548371956867330e+001
1	 3.759286631611750e+000	 3.253133178940683e-001	 1.412083599478147e+001
1	 3.755929681376454e+000	 3.620184601859726e-001	 1.281389128243884e+001
1	 3.800000000000001e+000	 0.000000000000000e+000	 2.505223008833644e+001
1	 3.799830440471870e+000	 3.589629054940256e-002	 2.365959886169105e+001
1	 3.799319145116026e+000	 7.192894898852251e-002	 2.226151075730056e+001
1	 3.798462224125175e+000	 1.080938056847368e-001	 2.086545930507447e+001
1	 3.797255837216560e+000	 1.443865836912391e-001	 1.947878248459288e+001
1	 3.795696196646321e+000	 1.808028989413303e-001	 1.810864938218680e+001
1	 3.793779570251820e+000	 2.173382605333389e-001	 1.676204673395169e+001
1	 3.791502284519238e+000	 2.539880711083034e-001	 1.544576537535852e+001
1	 3.788860727673674e+000	 2.907476273224763e-001	 1.416638661906804e+001
1	 3.785851352788797e+000	 3.276121204166252e-001	 1.293026858347640e+001
1	 3.782470680913030e+000	 3.645766368840203e-001	 1.174353249541819e+001
1	 3.826663999995868e+000	 0.000000000000000e+000	 2.260859703292108e+001
1	 3.826493250695418e+000	 3.614816915306155e-002	 2.138576384006717e+001
1	 3.825978367661124e+000	 7.243366306760815e-002	 2.015148661886798e+001
1	 3.825115433791474e+000	 1.088522828533864e-001	 1.891323499687329e+001
1	 3.823900581857011e+000	 1.453997215529534e-001	 1.767832210051500e+001
1	 3.822329997535829e+000	 1.820715643373304e-001	 1.645389107954059e+001
1	 3.820399922477241e+000	 2.188632887929226e-001	 1.524690151480535e+001
1	 3.818106657390919e+000	 2.557702653018517e-001	 1.406411573029920e+001
1	 3.815446565158653e+000	 2.927877575177752e-001	 1.291208503124056e+001
1	 3.812416073965843e+000	 3.299109229391820e-001	 1.179713589100682e+001
1	 3.809011680449607e+000	 3.671348135820680e-001	 1.072535611058232e+001
1	 3.853327999991935e+000	 0.000000000000000e+000	 2.030192864912567e+001
1	 3.853156060919162e+000	 3.640004775666967e-002	 1.923718200938782e+001
1	 3.852637590206400e+000	 7.293837714660749e-002	 1.815593634333893e+001
1	 3.851768643457932e+000	 1.096107600219277e-001	 1.706556540681553e+001
1	 3.850545326497594e+000	 1.464128594145490e-001	 1.597328719875396e+001
1	 3.848963798425434e+000	 1.833402297332110e-001	 1.488615050256452e+001
1	 3.847020274702730e+000	 2.203883170523936e-001	 1.381102130965389e+001
1	 3.844711030262634e+000	 2.575524594952997e-001	 1.275456914594743e+001
1	 3.842032402643639e+000	 2.948278877129895e-001	 1.172325332322381e+001
1	 3.838980795142871e+000	 3.322097254616714e-001	 1.072330913801383e+001
1	 3.835552679986150e+000	 3.696929902800644e-001	 9.760734041731368e+000
1	 3.879991999988402e+000	 0.000000000000000e+000	 1.814124085805588e+001
1	 3.879818871143298e+000	 3.665192636017606e-002	 1.722183413638967e+001
1	 3.879296812752037e+000	 7.344309122543419e-002	 1.628186126924709e+001
1	 3.878421853124702e+000	 1.103692371902526e-001	 1.532852956948186e+001
1	 3.877190071138434e+000	 1.474259972759073e-001	 1.436889300759359e+001
1	 3.875597599315237e+000	 1.846088951288528e-001	 1.340983891789171e+001
1	 3.873640626928349e+000	 2.219133453116393e-001	 1.245807458694624e+001
1	 3.871315403134415e+000	 2.593346536885469e-001	 1.152011374491923e+001
1	 3.868618240128634e+000	 2.968680179080345e-001	 1.060226298132354e+001
1	 3.865545516319864e+000	 3.345085279840258e-001	 9.710608107688072e+000
1	 3.862093679522626e+000	 3.722511669779585e-001	 8.851000490518230e+000
1	 3.906655999985469e+000	 0.000000000000000e+000	 1.613530343625347e+001
1	 3.906481681368015e+000	 3.690380496352986e-002	 1.534748310410138e+001
1	 3.905956035298213e+000	 7.394780530400193e-002	 1.453607159088778e+001
1	 3.905075062791944e+000	 1.111277143582526e-001	 1.370804055512894e+001
1	 3.903834815779661e+000	 1.484391351369098e-001	 1.287021237385706e+001
1	 3.902231400205331e+000	 1.858775605241362e-001	 1.202924715973267e+001
1	 3.900260979154164e+000	 2.234383735705472e-001	 1.119162966191643e+001
1	 3.897919776006298e+000	 2.611168478814930e-001	 1.036365607080495e+001
1	 3.895204077613645e+000	 2.989081481028258e-001	 9.551420747668333e+000
1	 3.892110237496803e+000	 3.368073305061777e-001	 8.760802901143515e+000
1	 3.888634679059003e+000	 3.748093436756990e-001	 7.997453233427517e+000
1	 3.933319999983334e+000	 0.000000000000000e+000	 1.429264835877569e+001
1	 3.933144491593509e+000	 3.715568356668014e-002	 1.362168129701962e+001
1	 3.932615257845103e+000	 7.445251938222434e-002	 1.292519283715846e+001
1	 3.931728272459812e+000	 1.118861915258195e-001	 1.220985109505562e+001
1	 3.930479560421403e+000	 1.494522729974376e-001	 1.148218058893107e+001
1	 3.928865201095816e+000	 1.871462259189419e-001	 1.074854971193616e+001
1	 3.926881331380236e+000	 2.249634018290042e-001	 1.001515809127996e+001
1	 3.924524148878316e+000	 2.628990420740378e-001	 9.288023853292748e+000
1	 3.921789915098675e+000	 3.009482782972785e-001	 8.572970814715697e+000
1	 3.918674958673671e+000	 3.391061330280594e-001	 7.875615621393137e+000
1	 3.915175678595246e+000	 3.773675203732345e-001	 7.201354856407698e+000
1	 3.649765683230813e+000	 3.517857533948059e-001	 1.758831546353017e+001
1	 3.646142631855923e+000	 3.875397139962905e-001	 1.581916041318210e+001
1	 3.642154915790480e+000	 4.233804573491110e-001	 1.408698477148959e+001
1	 3.637799395027112e+000	 4.593030245767192e-001	 1.239746918654917e+001
1	 3.633073007093982e+000	 4.953023615887200e-001	 1.075608742859614e+001
1	 3.627972770066271e+000	 5.313733202242620e-001	 9.168094699158020e+000
1	 3.622495785572755e+000	 5.675106594965961e-001	 7.638516000960189e+000
1	 3.616639241793862e+000	 6.037090469397646e-001	 6.172134592279288e+000
1	 3.610400416447522e+000	 6.399630600582474e-001	 4.773480549985797e+000
1	 3.603776679759039e+000	 6.762671878802548e-001	 3.446819466013199e+000
1	 3.596765497411132e+000	 7.126158326152124e-001	 2.196141302435043e+000
1	 3.676306682767058e+000	 3.543439300923416e-001	 1.632374864890646e+001
1	 3.672657284658395e+000	 3.903578925499764e-001	 1.468354437955154e+001
1	 3.668640570027081e+000	 4.264592688408317e-001	 1.307349031226129e+001
1	 3.664253376031720e+000	 4.626430640275384e-001	 1.149934898850997e+001
1	 3.659492617930285e+000	 4.989041872664869e-001	 9.966679959013208e+000
1	 3.654355292113509e+000	 5.352374529595347e-001	 8.480827954512250e+000
1	 3.648838479133311e+000	 5.716375820076131e-001	 7.046911108239414e+000
1	 3.642939346722671e+000	 6.080992031672104e-001	 5.669809253830259e+000
1	 3.636655152803182e+000	 6.446168545105612e-001	 4.354152323017318e+000
1	 3.629983248476528e+000	 6.811849849902316e-001	 3.104308867960738e+000
1	 3.622921080995963e+000	 7.177979561086598e-001	 1.924374733540397e+000
1	 3.702847682303435e+000	 3.569021067900821e-001	 1.510547173778777e+001
1	 3.699171937461023e+000	 3.931760711038122e-001	 1.359131698533147e+001
1	 3.695126224263829e+000	 4.295380803326591e-001	 1.210084950711613e+001
1	 3.690707357036439e+000	 4.659831034784319e-001	 1.063986325931707e+001
1	 3.685912228766642e+000	 5.025060129443072e-001	 9.213954379517613e+000
1	 3.680737814160723e+000	 5.391015856948495e-001	 7.828509324924881e+000
1	 3.675181172693759e+000	 5.757645045186707e-001	 6.488693053592939e+000
1	 3.669239451651285e+000	 6.124893593947065e-001	 5.199437272294708e+000
1	 3.662909889158565e+000	 6.492706489629425e-001	 3.965428775269576e+000
1	 3.656189817193663e+000	 6.861027821003025e-001	 2.791097898612670e+000
1	 3.649076664580380e+000	 7.229800796022365e-001	 1.680607115559332e+000
1	 3.729388681839912e+000	 3.594602834879762e-001	 1.393502150376392e+001
1	 3.725686590263769e+000	 3.959942496577605e-001	 1.254351189859708e+001
1	 3.721611878500688e+000	 4.326168918245666e-001	 1.116962880394726e+001
1	 3.717161338041240e+000	 4.693231429293812e-001	 9.819148134310597e+000
1	 3.712331839603034e+000	 5.061078386221668e-001	 8.497654424940651e+000
1	 3.707120336207917e+000	 5.429657184301957e-001	 7.210529042022094e+000
1	 3.701523866254123e+000	 5.798914270297597e-001	 5.962938427569256e+000
1	 3.695539556579746e+000	 6.168795156222395e-001	 4.759822402374702e+000
1	 3.689164625513729e+000	 6.539244434153747e-001	 3.605882550926736e+000
1	 3.682396385910517e+000	 6.910205792104438e-001	 2.505570712767363e+000
1	 3.675232248164469e+000	 7.281622030959103e-001	 1.463077605261090e+000
1	 3.755929681376454e+000	 3.620184601859726e-001	 1.281389128243884e+001
1	 3.752201243066594e+000	 3.988124282117838e-001	 1.154113357006890e+001
1	 3.748097532737623e+000	 4.356957033165273e-001	 1.028037863960008e+001
1	 3.743615319046093e+000	 4.726631823803677e-001	 9.037335900870087e+000
1	 3.738751450439450e+000	 5.097096643000530e-001	 7.817531073629748e+000
1	 3.733502858255094e+000	 5.468298511655627e-001	 6.626294572962883e+000
1	 3.727866559814423e+000	 5.840183495408690e-001	 5.468749921535363e+000
1	 3.721839661508096e+000	 6.212696718497973e-001	 4.349802211488037e+000
1	 3.715419361868731e+000	 6.585782378678403e-001	 3.274126639390278e+000
1	 3.708602954627166e+000	 6.959383763206328e-001	 2.246157138225672e+000
1	 3.701387831748314e+000	 7.333443265896485e-001	 1.270075130889059e+000
1	 3.782470680913030e+000	 3.645766368840203e-001	 1.174353249541819e+001
1	 3.778715895869458e+000	 4.016306067658447e-001	 1.058515825818059e+001
1	 3.774583186974591e+000	 4.387745148085147e-001	 9.433634001607292e+000
1	 3.770069300050975e+000	 4.760032218313729e-001	 8.294555133416971e+000
1	 3.765171061275874e+000	 5.133114899779525e-001	 7.173342293314545e+000
1	 3.759885380302258e+000	 5.506939839009404e-001	 6.075230015743495e+000
1	 3.754209253374684e+000	 5.881452720519883e-001	 5.005255411949854e+000
1	 3.748139766436377e+000	 6.256598280773674e-001	 3.968246893475604e+000
1	 3.741674098223633e+000	 6.632320323203232e-001	 2.968812959798546e+000
1	 3.734809523343683e+000	 7.008561734308451e-001	 2.011331073389566e+000
1	 3.727543415331994e+000	 7.385264500834197e-001	 1.099936645967716e+000
1	 3.809011680449607e+000	 3.671348135820680e-001	 1.072535611058232e+001
1	 3.805230548672322e+000	 4.044487853199054e-001	 9.676535011290840e+000
1	 3.801068841211559e+000	 4.418533263005018e-001	 8.629914966438719e+000
1	 3.796523281055853e+000	 4.793432612823781e-001	 7.590930822772690e+000
1	 3.791590672112294e+000	 5.169133156558521e-001	 6.564852797598742e+000
1	 3.786267902349411e+000	 5.545581166363182e-001	 5.556775519782916e+000
1	 3.780551946934928e+000	 5.922721945631080e-001	 4.571607082920163e+000
1	 3.774439871364629e+000	 6.300499843049378e-001	 3.614058131904530e+000
1	 3.767928834578493e+000	 6.678858267728057e-001	 2.688631004724396e+000
1	 3.761016092060141e+000	 7.057739705410574e-001	 1.799608951853559e+000
1	 3.753698998915594e+000	 7.437085735771906e-001	 9.510454561139812e-001
1	 3.835552679986150e+000	 3.696929902800644e-001	 9.760734041731366e+000
1	 3.831745201475147e+000	 4.072669638739287e-001	 8.816186609115835e+000
1	 3.827554495448490e+000	 4.449321377924626e-001	 7.869727215403937e+000
1	 3.822977262060702e+000	 4.826833007333646e-001	 6.926584500146114e+000
1	 3.818010282948695e+000	 5.205151413337383e-001	 5.991833812561151e+000
1	 3.812650424396558e+000	 5.584222493716853e-001	 5.070386730564694e+000
1	 3.806894640495177e+000	 5.963991170742170e-001	 4.166980585190185e+000
1	 3.800739976292897e+000	 6.344401405324956e-001	 3.286168010565542e+000
1	 3.794183570933372e+000	 6.725396212252713e-001	 2.432306540184217e+000
1	 3.787222660776614e+000	 7.106917676512461e-001	 1.609548270743492e+000
1	 3.779854582499194e+000	 7.488906970709290e-001	 8.218296153169358e-001
1	 3.862093679522626e+000	 3.722511669779585e-001	 8.851000490518230e+000
1	 3.858259854277893e+000	 4.100851424278770e-001	 8.005010465342821e+000
1	 3.854040149685346e+000	 4.480109492843699e-001	 7.153562529282672e+000
1	 3.849431243065491e+000	 4.860233401843139e-001	 6.301634356008731e+000
1	 3.844429893785062e+000	 5.241169670115981e-001	 5.454062852980992e+000
1	 3.839032946443703e+000	 5.622863821070315e-001	 4.615534257177880e+000
1	 3.833237334055452e+000	 6.005260395853056e-001	 3.790574229805095e+000
1	 3.827040081221221e+000	 6.388302967600287e-001	 2.983537968893566e+000
1	 3.820438307288329e+000	 6.771934156777035e-001	 2.198600359249729e+000
1	 3.813429229493175e+000	 7.156095647613878e-001	 1.439746179736630e+000
1	 3.806010166082880e+000	 7.540728205646027e-001	 7.107603883431575e-001
1	 3.888634679059003e+000	 3.748093436756990e-001	 7.997453233427518e+000
1	 3.884774507080521e+000	 4.129033209817129e-001	 7.243879493280824e+000
1	 3.880525803922092e+000	 4.510897607761975e-001	 6.481899262699262e+000
1	 3.875885224070195e+000	 4.893633796352074e-001	 5.716195354101573e+000
1	 3.870849504621382e+000	 5.277187926894180e-001	 4.951323507726981e+000
1	 3.865415468490847e+000	 5.661505148423461e-001	 4.191703161663044e+000
1	 3.859580027615782e+000	 6.046529620963637e-001	 3.441608214797095e+000
1	 3.853340186149642e+000	 6.432204529875243e-001	 2.705157800165804e+000
1	 3.846693043643426e+000	 6.818472101300851e-001	 1.986307086701195e+000
1	 3.839635798209899e+000	 7.205273618714588e-001	 1.288838127863819e+000
1	 3.832165749666732e+000	 7.592549440581793e-001	 6.163507761099398e-001
1	 3.915175678595246e+000	 3.773675203732345e-001	 7.201354856407696e+000
1	 3.911289159882991e+000	 4.157214995353987e-001	 6.533642936301599e+000
1	 3.907011458158685e+000	 4.541685722679180e-001	 5.855202799202383e+000
1	 3.902339205074782e+000	 4.927034190860264e-001	 5.170379340804958e+000
1	 3.897269115457639e+000	 5.313206183671849e-001	 4.483405233875528e+000
1	 3.891797990537994e+000	 5.700146475776188e-001	 3.798392469128620e+000
1	 3.885922721176181e+000	 6.087798846073804e-001	 3.119323883324917e+000
1	 3.879640291078204e+000	 6.476106092149703e-001	 2.450044690446851e+000
1	 3.872947779998714e+000	 6.865010045823983e-001	 1.794254032300378e+000
1	 3.865842366926857e+000	 7.254451589814351e-001	 1.155496565351464e+000
1	 3.858321333250832e+000	 7.644370675516264e-001	 5.371541010369025e-001
1	 3.596765497411132e+000	 7.126158326152124e-001	 2.196141302435042e+000
1	 3.589363294351825e+000	 7.490087713011588e-001	 9.990922260485134e-001
1	 3.581568760153285e+000	 7.854347785535488e-001	-1.672404397455028e-001
1	 3.573379666514728e+000	 8.218879957891508e-001	-1.300553359603778e+000
1	 3.564793892237348e+000	 8.583624850557747e-001	-2.398666957142329e+000
1	 3.555809426018735e+000	 8.948522312174628e-001	-3.459530286766203e+000
1	 3.546424369203119e+000	 9.313511442442009e-001	-4.481225794121513e+000
1	 3.536636938483259e+000	 9.678530616055532e-001	-5.461973953316481e+000
1	 3.526445468549742e+000	 1.004351750767448e+000	-6.400137769039441e+000
1	 3.515848414683465e+000	 1.040840911791156e+000	-7.294227131712111e+000
1	 3.504844355287081e+000	 1.077314180033311e+000	-8.142903013863153e+000
1	 3.622921080995963e+000	 7.177979561086598e-001	 1.924374733540398e+000
1	 3.615465049311848e+000	 7.544555432825085e-001	 7.936481831228599e-001
1	 3.607613833466946e+000	 7.911464394965301e-001	-3.092612249505842e-001
1	 3.599365188956308e+000	 8.278647435640266e-001	-1.382104349993963e+000
1	 3.590716979155808e+000	 8.646044743521743e-001	-2.422752853726499e+000
1	 3.581667178136880e+000	 9.013595729831021e-001	-3.429203960384263e+000
1	 3.572213873436759e+000	 9.381239051402547e-001	-4.399585107484685e+000
1	 3.562355268780022e+000	 9.748912634794354e-001	-5.332158475638878e+000
1	 3.552089686747149e+000	 1.011655370143745e+000	-6.225325385786194e+000
1	 3.541415571385863e+000	 1.048409879381463e+000	-7.077630552239461e+000
1	 3.530331490760975e+000	 1.085148380265702e+000	-7.887766179974471e+000
1	 3.649076664580380e+000	 7.229800796022365e-001	 1.680607115559331e+000
1	 3.641566804271423e+000	 7.599023152640309e-001	 6.148898939524015e-001
1	 3.633658906780143e+000	 7.968581004397330e-001	-4.259130539943689e-001
1	 3.625350711397430e+000	 8.338414913391794e-001	-1.439605526776134e+000
1	 3.616640066073833e+000	 8.708464636489086e-001	-2.424107979654980e+000
1	 3.607524930254624e+000	 9.078669147491354e-001	-3.377462152799800e+000
1	 3.598003377670048e+000	 9.448966660367626e-001	-4.297835593727177e+000
1	 3.588073599076493e+000	 9.819294653538295e-001	-5.183526062762812e+000
1	 3.577733904944330e+000	 1.018958989520610e+000	-6.032965810222855e+000
1	 3.566982728088108e+000	 1.055978846972389e+000	-6.844725714026816e+000
1	 3.555818626234796e+000	 1.092982580498757e+000	-7.617519266496376e+000
1	 3.675232248164469e+000	 7.281622030959103e-001	 1.463077605261089e+000
1	 3.667668559230636e+000	 7.653490872456820e-001	 4.609432516239885e-001
1	 3.659703980092961e+000	 8.025697613831027e-001	-5.191638629313704e-001
1	 3.651336233838164e+000	 8.398182391145390e-001	-1.475099252091119e+000
1	 3.642563152991476e+000	 8.770884529458933e-001	-2.404829768083901e+000
1	 3.633382682372007e+000	 9.143742565154637e-001	-3.306438077837511e+000
1	 3.623792881903003e+000	 9.516694269336102e-001	-4.178127038683461e+000
1	 3.613791929372667e+000	 9.889676672286075e-001	-5.018223962732730e+000
1	 3.603378123141265e+000	 1.026262608897900e+000	-5.825184759022902e+000
1	 3.592549884790161e+000	 1.063547814563778e+000	-6.597597942544753e+000
1	 3.581305761708479e+000	 1.100816780732308e+000	-7.334188499295355e+000
1	 3.701387831748314e+000	 7.333443265896485e-001	 1.270075130889059e+000
1	 3.693770314189572e+000	 7.707958592274198e-001	 3.299871221765242e-001
1	 3.685749053405477e+000	 8.082814223265831e-001	-5.909259627174098e-001
1	 3.677321756278585e+000	 8.457949868900372e-001	-1.490570159274892e+000
1	 3.668486239908798e+000	 8.833304422430448e-001	-2.366956366743358e+000
1	 3.659240434489070e+000	 9.208815982819893e-001	-3.218204652530086e+000
1	 3.649582386135648e+000	 9.584421878306851e-001	-4.042548462976233e+000
1	 3.639510259668550e+000	 9.960058691036422e-001	-4.838338730113543e+000
1	 3.629022341337930e+000	 1.033566228275474e+000	-5.604047863979567e+000
1	 3.618117041491971e+000	 1.071116782155477e+000	-6.338273620069474e+000
1	 3.606792897181959e+000	 1.108650980966191e+000	-7.039742831535540e+000
1	 3.727543415331994e+000	 7.385264500834197e-001	 1.099936645967715e+000
1	 3.719872069148313e+000	 7.762426312092003e-001	 2.202514860867006e-001
1	 3.711794126717774e+000	 8.139930832701192e-001	-6.430579907717708e-001
1	 3.703307278718762e+000	 8.517717346656040e-001	-1.487947178227877e+000
1	 3.694409326825858e+000	 8.895724315402802e-001	-2.312468717919443e+000
1	 3.685098186605857e+000	 9.273889400486128e-001	-3.114776612583144e+000
1	 3.675371890368006e+000	 9.652149487278732e-001	-3.893130253915746e+000
1	 3.665228589964140e+000	 1.003044070978804e+000	-4.645898355373381e+000
1	 3.654666559534302e+000	 1.040869847653190e+000	-5.371562780036197e+000
1	 3.643684198193497e+000	 1.078685749747331e+000	-6.068722253658108e+000
1	 3.632280032655169e+000	 1.116485181200240e+000	-6.736095953046028e+000
1	 3.753698998915594e+000	 7.437085735771906e-001	 9.510454561139818e-001
1	 3.745973824106948e+000	 7.816894031909812e-001	 1.300156574550687e-001
1	 3.737839200029932e+000	 8.197047442136549e-001	-6.773667809495719e-001
1	 3.729292801158767e+000	 8.577484824411708e-001	-1.469105476108321e+000
1	 3.720332413742714e+000	 8.958144208375151e-001	-2.243292551477064e+000
1	 3.710955938722406e+000	 9.338962818152368e-001	-2.998112539397611e+000
1	 3.701161394600098e+000	 9.719877096250615e-001	-3.731846208268872e+000
1	 3.690946920259437e+000	 1.010082272853967e+000	-4.442874305241188e+000
1	 3.680310777730361e+000	 1.048173467030906e+000	-5.129681205184738e+000
1	 3.669251354894696e+000	 1.086254717339184e+000	-5.790858456666364e+000
1	 3.657767168128049e+000	 1.124319381434289e+000	-6.425108215681177e+000
1	 3.779854582499194e+000	 7.488906970709290e-001	 8.218296153169362e-001
1	 3.772075579065561e+000	 7.871361751727187e-001	 5.760657712873401e-002
1	 3.763884273342034e+000	 8.254164051571353e-001	-6.956091558755867e-001
1	 3.755278323598675e+000	 8.637252302166685e-001	-1.435868317450839e+000
1	 3.746255500659427e+000	 9.020564101346671e-001	-2.161300295135578e+000
1	 3.736813690838762e+000	 9.404036235817622e-001	-2.870116802933198e+000
1	 3.726950898831944e+000	 9.787604705221360e-001	-3.560615490216185e+000
1	 3.716665250554443e+000	 1.017120474729001e+000	-4.231183478352500e+000
1	 3.705954995926085e+000	 1.055477086408480e+000	-4.880300816501047e+000
1	 3.694818511595526e+000	 1.093823684930882e+000	-5.506543847997039e+000
1	 3.683254303600529e+000	 1.132153581668172e+000	-6.108588478742873e+000
1	 3.806010166082880e+000	 7.540728205646027e-001	 7.107603883431575e-001
1	 3.798177334024235e+000	 7.925829471543703e-001	 1.397176203637928e-003
1	 3.789929346654160e+000	 8.311280661005048e-001	-6.994936453749797e-001
1	 3.781263846038558e+000	 8.697019779920285e-001	-1.390008847587080e+000
1	 3.772178587576050e+000	 9.082983994316514e-001	-2.068312905978207e+000
1	 3.762671442954964e+000	 9.469109653480906e-001	-2.732641424461946e+000
1	 3.752740403063570e+000	 9.855332314189841e-001	-3.381304508576148e+000
1	 3.742383580849156e+000	 1.024158676603780e+000	-4.012690080257404e+000
1	 3.731599214121452e+000	 1.062780705785770e+000	-4.625267126351798e+000
1	 3.720385668295939e+000	 1.101392652522272e+000	-5.217588873036736e+000
1	 3.708741439072548e+000	 1.139987781901724e+000	-5.788295878310668e+000
1	 3.832165749666732e+000	 7.592549440581793e-001	 6.163507761099388e-001
1	 3.824279088983057e+000	 7.980297191358923e-001	-4.019519345568086e-002
1	 3.815974419966391e+000	 8.368397270437079e-001	-6.906821345309072e-001
1	 3.807249368478485e+000	 8.756787257671810e-001	-1.333251803032016e+000
1	 3.798101674492648e+000	 9.145403887283856e-001	-1.966101626957573e+000
1	 3.788529195071056e+000	 9.534183071141238e-001	-2.587487863038607e+000
1	 3.778529907294995e+000	 9.923059923154921e-001	-3.195728717153927e+000
1	 3.768101911143579e+000	 1.031196878478174e+000	-3.789207421644542e+000
1	 3.757243432316443e+000	 1.070084325162635e+000	-4.366375262586295e+000
1	 3.745952824995893e+000	 1.108961620113198e+000	-4.925754550022004e+000
1	 3.734228574544038e+000	 1.147821982134779e+000	-5.465941524114803e+000
1	 3.858321333250832e+000	 7.644370675516264e-001	 5.371541010369023e-001
1	 3.850380843942109e+000	 8.034764911172418e-001	-6.871026485953889e-002
1	 3.842019493278809e+000	 8.425513879866889e-001	-6.707914447097019e-001
1	 3.833234890918528e+000	 8.816554735420564e-001	-1.267275152302086e+000
1	 3.824024761409275e+000	 9.207823780247851e-001	-1.856389671957702e+000
1	 3.814386947187075e+000	 9.599256488797630e-001	-2.436408729308317e+000
1	 3.804319411526238e+000	 9.990787532115453e-001	-3.005654341862873e+000
1	 3.793820241437710e+000	 1.038235080352055e+000	-3.562499643423180e+000
1	 3.782887650511028e+000	 1.077387944538931e+000	-4.105371676321200e+000
1	 3.771519981695345e+000	 1.116530587703505e+000	-4.632754145373845e+000
1	 3.759715710014934e+000	 1.155656182367169e+000	-5.143190127390432e+000
1	 3.504844355287081e+000	 1.077314180033311e+000	-8.142903013863153e+000
1	 3.493431993474643e+000	 1.113765128411843e+000	-8.938025713571635e+000
1	 3.481610156834797e+000	 1.150187268649676e+000	-9.672667194660182e+000
1	 3.469377802379237e+000	 1.186574055778320e+000	-1.034759635315583e+001
1	 3.456734019669560e+000	 1.222918891747823e+000	-1.096381663403944e+001
1	 3.443678032987045e+000	 1.259215128608840e+000	-1.152256778608737e+001
1	 3.430209203416529e+000	 1.295456071785157e+000	-1.202532724967679e+001
1	 3.416327030840312e+000	 1.331634983434178e+000	-1.247381116736441e+001
1	 3.402031155838170e+000	 1.367745085892707e+000	-1.286997500773848e+001
1	 3.387321361489601e+000	 1.403779565205173e+000	-1.321601379377811e+001
1	 3.372197575074528e+000	 1.439731574731234e+000	-1.351436192773148e+001
1	 3.530331490760975e+000	 1.085148380265702e+000	-7.887766179974471e+000
1	 3.518836138555602e+000	 1.121864398976820e+000	-8.648019048417375e+000
1	 3.506928333832647e+000	 1.158551400055168e+000	-9.351815133938811e+000
1	 3.494607026019215e+000	 1.195202790937426e+000	-9.999839908289003e+000
1	 3.481871298056221e+000	 1.231811925592805e+000	-1.059300917958590e+001
1	 3.468720368583944e+000	 1.268372107728260e+000	-1.113247092444051e+001
1	 3.455153594041044e+000	 1.304876594084805e+000	-1.161960676042799e+001
1	 3.441170470672978e+000	 1.341318597822436e+000	-1.205603304868104e+001
1	 3.426770636445833e+000	 1.377691291990981e+000	-1.244360161705401e+001
1	 3.411953872861663e+000	 1.413987813083974e+000	-1.278440009502129e+001
1	 3.396720106671580e+000	 1.450201264672493e+000	-1.308075185223433e+001
1	 3.555818626234796e+000	 1.092982580498757e+000	-7.617519266496376e+000
1	 3.544240283636571e+000	 1.129963669542497e+000	-8.344055397336721e+000
1	 3.532246510830581e+000	 1.166915531461389e+000	-9.018112068034334e+000
1	 3.519836249659356e+000	 1.203831526097284e+000	-9.640283332505659e+000
1	 3.507008576443118e+000	 1.240704959438558e+000	-1.021138865596120e+001
1	 3.493762704181139e+000	 1.277529086848464e+000	-1.073247482549015e+001
1	 3.480097984665906e+000	 1.314297116385243e+000	-1.120481750965572e+001
1	 3.466013910506030e+000	 1.351002212211490e+000	-1.162992245686552e+001
1	 3.451510117053901e+000	 1.387637498090054e+000	-1.200952632293490e+001
1	 3.436586384234134e+000	 1.424196060963575e+000	-1.234559711895395e+001
1	 3.421242638269016e+000	 1.460670954614553e+000	-1.264033427130835e+001
1	 3.581305761708479e+000	 1.100816780732308e+000	-7.334188499295355e+000
1	 3.569644428717461e+000	 1.138062940108699e+000	-8.028087753739833e+000
1	 3.557564687828503e+000	 1.175279662868157e+000	-8.673428159330548e+000
1	 3.545065473299544e+000	 1.212460261257707e+000	-9.270704468614904e+000
1	 3.532145854830122e+000	 1.249597993284889e+000	-9.820631217430174e+000
1	 3.518805039778498e+000	 1.286686065969255e+000	-1.032414471514689e+001
1	 3.505042375290976e+000	 1.323717638686274e+000	-1.078240469385590e+001
1	 3.490857350339327e+000	 1.360685826601141e+000	-1.119679560627628e+001
1	 3.476249597662238e+000	 1.397583704189727e+000	-1.156892756279022e+001
1	 3.461218895606880e+000	 1.434404308843775e+000	-1.190063689867962e+001
1	 3.445765169866719e+000	 1.471140644557212e+000	-1.219398636335612e+001
1	 3.606792897181959e+000	 1.108650980966191e+000	-7.039742831535540e+000
1	 3.595048573798192e+000	 1.146162210675251e+000	-7.702013908301526e+000
1	 3.582882864826309e+000	 1.183643794275289e+000	-8.319580708753387e+000
1	 3.570294696939667e+000	 1.221088996418505e+000	-8.892830907445644e+000
1	 3.557283133217109e+000	 1.258491027131605e+000	-9.422365640575967e+000
1	 3.543847375375882e+000	 1.295843045090436e+000	-9.909001577107780e+000
1	 3.529986765916116e+000	 1.333138160987702e+000	-1.035377266002684e+001
1	 3.515700790172728e+000	 1.370369440991190e+000	-1.075793150754532e+001
1	 3.500989078270704e+000	 1.407529910289798e+000	-1.112295046466502e+001
1	 3.485851406979773e+000	 1.444612556724376e+000	-1.145052229615885e+001
1	 3.470287701464573e+000	 1.481610334500272e+000	-1.174256051271458e+001
1	 3.632280032655169e+000	 1.116485181200240e+000	-6.736095953046028e+000
1	 3.620452718878675e+000	 1.154261481241977e+000	-7.367678385705406e+000
1	 3.608201041823901e+000	 1.192007925682604e+000	-7.958336010373125e+000
1	 3.595523920579608e+000	 1.229717731579492e+000	-8.508341750897641e+000
1	 3.582420411603949e+000	 1.267384060978512e+000	-9.018174986508612e+000
1	 3.568889710973160e+000	 1.305000024211814e+000	-9.488523705059412e+000
1	 3.554931156541185e+000	 1.342558683289327e+000	-9.920286338841970e+000
1	 3.540544230006091e+000	 1.380053055381439e+000	-1.031457327284167e+001
1	 3.525728558879165e+000	 1.417476116390069e+000	-1.067270801587353e+001
1	 3.510483918352681e+000	 1.454820804605176e+000	-1.099622802565609e+001
1	 3.494810233062459e+000	 1.492080024443532e+000	-1.128688517953541e+001
1	 3.657767168128049e+000	 1.124319381434289e+000	-6.425108215681177e+000
1	 3.645856863958831e+000	 1.162360751808704e+000	-7.026874300417331e+000
1	 3.633519218821176e+000	 1.200372057089920e+000	-7.591411128470122e+000
1	 3.620753144219252e+000	 1.238346466740478e+000	-8.118869301283461e+000
1	 3.607557689990518e+000	 1.276277094825420e+000	-8.609598193580215e+000
1	 3.593932046570194e+000	 1.314157003333191e+000	-9.064148189987144e+000
1	 3.579875547166042e+000	 1.351979205590951e+000	-9.483272617904165e+000
1	 3.565387669839278e+000	 1.389736669771687e+000	-9.867929366564569e+000
1	 3.550468039487480e+000	 1.427422322490340e+000	-1.021928218277373e+001
1	 3.535116429725481e+000	 1.465029052485976e+000	-1.053870163439795e+001
1	 3.519332764660260e+000	 1.502549714386791e+000	-1.082776573329764e+001
1	 3.683254303600529e+000	 1.132153581668172e+000	-6.108588478742873e+000
1	 3.671261009038573e+000	 1.170460022375256e+000	-6.681345135410056e+000
1	 3.658837395818034e+000	 1.208736188497053e+000	-7.220475600819677e+000
1	 3.645982367858484e+000	 1.246975201901277e+000	-7.726000680531315e+000
1	 3.632694968376690e+000	 1.285170128672135e+000	-8.198131603973563e+000
1	 3.618974382166853e+000	 1.323313982454373e+000	-8.637272345733210e+000
1	 3.604819937790552e+000	 1.361399727892379e+000	-9.044021657985352e+000
1	 3.590231109672148e+000	 1.399420284161736e+000	-9.419174804110259e+000
1	 3.575207520095516e+000	 1.437368528590412e+000	-9.763724984051377e+000
1	 3.559748941098035e+000	 1.475237300366577e+000	-1.007886444251677e+001
1	 3.543855296257858e+000	 1.513019404329850e+000	-1.036598525171416e+001
1	 3.708741439072548e+000	 1.139987781901724e+000	-5.788295878310668e+000
1	 3.696665154117818e+000	 1.178559292941458e+000	-6.332786447545542e+000
1	 3.684155572814372e+000	 1.217100319903820e+000	-6.847153071745161e+000
1	 3.671211591497188e+000	 1.255603937061700e+000	-7.331279382623600e+000
1	 3.657832246762335e+000	 1.294063162518466e+000	-7.785230427344420e+000
1	 3.644016717762999e+000	 1.332470961575163e+000	-8.209255075775193e+000
1	 3.629764328414572e+000	 1.370820250193410e+000	-8.603788154993321e+000
1	 3.615074549504560e+000	 1.409103898551387e+000	-8.969452301209525e+000
1	 3.599947000703133e+000	 1.447314734690084e+000	-9.307059519748570e+000
1	 3.584381452470216e+000	 1.485445548246777e+000	-9.617612444236938e+000
1	 3.568377827855136e+000	 1.523489094272510e+000	-9.902305286696784e+000
1	 3.734228574544038e+000	 1.147821982134779e+000	-5.465941524114803e+000
1	 3.722069299196483e+000	 1.186658563507135e+000	-5.982847503119112e+000
1	 3.709473749810091e+000	 1.225464451310042e+000	-6.473022858294822e+000
1	 3.696440815135249e+000	 1.264232672221558e+000	-6.936206762460313e+000
1	 3.682969525147330e+000	 1.302956196364219e+000	-7.372310144525490e+000
1	 3.669059053358499e+000	 1.341627940695366e+000	-7.781418184032197e+000
1	 3.654708719037963e+000	 1.380240772493848e+000	-8.163792550258744e+000
1	 3.639917989336374e+000	 1.418787512940442e+000	-8.519873376198145e+000
1	 3.624686481310193e+000	 1.457260940789157e+000	-8.850280958152339e+000
1	 3.609013963841896e+000	 1.495653796126379e+000	-9.155817172156521e+000
1	 3.592900359451976e+000	 1.533958784214570e+000	-9.437466598953934e+000
1	 3.759715710014934e+000	 1.155656182367169e+000	-5.143190127390432e+000
1	 3.747473444274480e+000	 1.194757834072111e+000	-5.633132846879517e+000
1	 3.734791926805089e+000	 1.233828582715533e+000	-6.099621452716082e+000
1	 3.721670038772552e+000	 1.272861407380663e+000	-6.542243464164329e+000
1	 3.708106803531545e+000	 1.311849230209201e+000	-6.960747854136019e+000
1	 3.694101388953216e+000	 1.350784919814787e+000	-7.355047632355609e+000
1	 3.679653109660587e+000	 1.389661294793495e+000	-7.725222191595306e+000
1	 3.664761429167448e+000	 1.428471127328699e+000	-8.071519407453646e+000
1	 3.649425961916560e+000	 1.467207146887431e+000	-8.394357482542528e+000
1	 3.633646475212943e+000	 1.505862044005179e+000	-8.694326526374789e+000
1	 3.617422891048259e+000	 1.544428474155829e+000	-8.972189862709247e+000
1	 3.372197575074528e+000	 1.439731574731234e+000	-1.351436192773148e+001
1	 3.356662231674654e+000	 1.475588867042669e+000	-1.377368658056222e+001
1	 3.340713316314456e+000	 1.511349944770984e+000	-1.400068246647237e+001
1	 3.324351200427108e+000	 1.547007890623957e+000	-1.419487495972843e+001
1	 3.307576405259167e+000	 1.582555769867112e+000	-1.435578257962977e+001
1	 3.290389603006430e+000	 1.617986634272130e+000	-1.448291787911977e+001
1	 3.272791617828106e+000	 1.653293526122406e+000	-1.457578837070795e+001
1	 3.254783426736442e+000	 1.688469482271450e+000	-1.463389748845461e+001
1	 3.236366160359109e+000	 1.723507538249754e+000	-1.465674558464823e+001
1	 3.217541103571808e+000	 1.758400732415532e+000	-1.464383095968227e+001
1	 3.198309695998757e+000	 1.793142110144684e+000	-1.459465092352123e+001
1	 3.396720106671580e+000	 1.450201264672493e+000	-1.308075185223433e+001
1	 3.381071790665133e+000	 1.486319310265351e+000	-1.333952075849349e+001
1	 3.365006895213961e+000	 1.522340441605221e+000	-1.356568759009110e+001
1	 3.348525794452300e+000	 1.558257691097506e+000	-1.375879666063452e+001
1	 3.331629013417209e+000	 1.594064073578511e+000	-1.391838325438006e+001
1	 3.314317229192684e+000	 1.629752590292575e+000	-1.404397446777488e+001
1	 3.296591271931205e+000	 1.665316232926751e+000	-1.413509009176169e+001
1	 3.278452125749841e+000	 1.700747987698722e+000	-1.419124353374217e+001
1	 3.259900929498166e+000	 1.736040839493528e+000	-1.421194277796604e+001
1	 3.240938977395473e+000	 1.771187776044500e+000	-1.419669138298389e+001
1	 3.221567719534899e+000	 1.806181792153683e+000	-1.414498951467449e+001
1	 3.421242638269016e+000	 1.460670954614553e+000	-1.264033427130835e+001
1	 3.405481349655952e+000	 1.497049753488834e+000	-1.289880060696563e+001
1	 3.389300474113741e+000	 1.533330938440259e+000	-1.312428554016777e+001
1	 3.372700388477688e+000	 1.569507491571855e+000	-1.331637059211875e+001
1	 3.355681621575360e+000	 1.605572377290711e+000	-1.347462787471026e+001
1	 3.338244855378957e+000	 1.641518546313822e+000	-1.359862087197097e+001
1	 3.320390926034240e+000	 1.677338939731900e+000	-1.368790526234965e+001
1	 3.302120824763098e+000	 1.713026493126799e+000	-1.374202978085392e+001
1	 3.283435698637017e+000	 1.748574140738111e+000	-1.376053711993483e+001
1	 3.264336851218891e+000	 1.783974819674280e+000	-1.374296486788353e+001
1	 3.244825743070775e+000	 1.819221474163497e+000	-1.368884648337671e+001
1	 3.445765169866719e+000	 1.471140644557212e+000	-1.219398636335612e+001
1	 3.429890908647009e+000	 1.507780196712916e+000	-1.245225754176914e+001
1	 3.413594053013717e+000	 1.544321435275896e+000	-1.267708817719127e+001
1	 3.396874982503221e+000	 1.580757292046805e+000	-1.286811486177658e+001
1	 3.379734229733591e+000	 1.617080681003512e+000	-1.302496616675071e+001
1	 3.362172481565244e+000	 1.653284502335673e+000	-1.314726335087498e+001
1	 3.344190580137224e+000	 1.689361646537656e+000	-1.323462110647410e+001
1	 3.325789523776246e+000	 1.725304998555488e+000	-1.328664834215070e+001
1	 3.306970467775714e+000	 1.761107441983310e+000	-1.330294900119272e+001
1	 3.287734725042120e+000	 1.796761863304683e+000	-1.328312291456032e+001
1	 3.268083766606454e+000	 1.832261156173944e+000	-1.322676668722310e+001
1	 3.470287701464573e+000	 1.481610334500272e+000	-1.174256051271458e+001
1	 3.454300467638207e+000	 1.518510639937398e+000	-1.200060230471191e+001
1	 3.437887631913810e+000	 1.555311932111934e+000	-1.222469006698265e+001
1	 3.421049576528834e+000	 1.592007092522155e+000	-1.241453293252750e+001
1	 3.403786837891866e+000	 1.628588984716717e+000	-1.256983514480596e+001
1	 3.386100107751537e+000	 1.665050458357931e+000	-1.269029668045269e+001
1	 3.367990234240172e+000	 1.701384353343822e+000	-1.277561390297829e+001
1	 3.349458222789323e+000	 1.737583503984593e+000	-1.282548024666150e+001
1	 3.330505236914307e+000	 1.773640743228935e+000	-1.283958692974046e+001
1	 3.311132598865224e+000	 1.809548906935523e+000	-1.281762369590897e+001
1	 3.291341790142000e+000	 1.845300838184841e+000	-1.275927958302529e+001
1	 3.494810233062459e+000	 1.492080024443532e+000	-1.128688517953541e+001
1	 3.478710026629442e+000	 1.529241083162080e+000	-1.154452568894978e+001
1	 3.462181210813938e+000	 1.566302428948173e+000	-1.176766908746529e+001
1	 3.445224170554475e+000	 1.603256892997708e+000	-1.195611413641199e+001
1	 3.427839446050156e+000	 1.640097288430126e+000	-1.210965955733949e+001
1	 3.410027733937825e+000	 1.676816414380396e+000	-1.222810455634772e+001
1	 3.391789888343101e+000	 1.713407060150203e+000	-1.231124936954904e+001
1	 3.373126921802362e+000	 1.749862009413920e+000	-1.235889582893355e+001
1	 3.354040006052849e+000	 1.786174044474793e+000	-1.237084794783469e+001
1	 3.334530472688268e+000	 1.822335950566610e+000	-1.234691252511703e+001
1	 3.314599813677478e+000	 1.858340520196004e+000	-1.228689976713580e+001
1	 3.519332764660260e+000	 1.502549714386791e+000	-1.082776573329764e+001
1	 3.503119585620614e+000	 1.539971526386763e+000	-1.108469923399239e+001
1	 3.486474789714023e+000	 1.577292925784412e+000	-1.130658701006691e+001
1	 3.469398764580086e+000	 1.614506693473263e+000	-1.149333416690778e+001
1	 3.451892054208428e+000	 1.651605592143541e+000	-1.164485231431235e+001
1	 3.433955360124103e+000	 1.688582370402872e+000	-1.176105997991714e+001
1	 3.415589542446022e+000	 1.725429766956601e+000	-1.184188303066456e+001
1	 3.396795620815398e+000	 1.762140514843276e+000	-1.188725510162540e+001
1	 3.377574775191389e+000	 1.798707345720694e+000	-1.189711803145138e+001
1	 3.357928346511310e+000	 1.835122994197757e+000	-1.187142230369379e+001
1	 3.337857837212957e+000	 1.871380202207249e+000	-1.181012749318246e+001
1	 3.543855296257858e+000	 1.513019404329850e+000	-1.036598525171416e+001
1	 3.527529144611625e+000	 1.550701969611245e+000	-1.062177589185406e+001
1	 3.510768368613983e+000	 1.588283422620452e+000	-1.084199005698307e+001
1	 3.493573358605612e+000	 1.625756493948621e+000	-1.102665555080617e+001
1	 3.475944662366648e+000	 1.663113895856762e+000	-1.117581489677986e+001
1	 3.457882986310363e+000	 1.700348326425160e+000	-1.128952562823979e+001
1	 3.439389196548955e+000	 1.737452473762821e+000	-1.136786057026619e+001
1	 3.420464319828467e+000	 1.774419020272466e+000	-1.141090811263044e+001
1	 3.401109544329980e+000	 1.811240646966444e+000	-1.141877247316452e+001
1	 3.381326220334416e+000	 1.847910037828777e+000	-1.139157395089791e+001
1	 3.361115860748503e+000	 1.884419884218392e+000	-1.132944916830775e+001
1	 3.568377827855136e+000	 1.523489094272510e+000	-9.902305286696784e+000
1	 3.551938703602373e+000	 1.561432412835328e+000	-1.015639066573647e+001
1	 3.535061947513740e+000	 1.599273919456093e+000	-1.037440943546262e+001
1	 3.517747952630995e+000	 1.637006294423582e+000	-1.055652810063105e+001
1	 3.499997270524786e+000	 1.674622199569589e+000	-1.070293774959895e+001
1	 3.481810612496596e+000	 1.712114282447062e+000	-1.081385420886773e+001
1	 3.463188850651912e+000	 1.749475180568665e+000	-1.088951816988792e+001
1	 3.444133018841604e+000	 1.786697525701294e+000	-1.093019528747545e+001
1	 3.424644313468674e+000	 1.823773948211853e+000	-1.093617624923752e+001
1	 3.404724094157645e+000	 1.860697081459479e+000	-1.090777681545827e+001
1	 3.384373884284180e+000	 1.897459566229251e+000	-1.084533782894634e+001
1	 3.592900359451976e+000	 1.533958784214570e+000	-9.437466598953934e+000
1	 3.576348262592755e+000	 1.572162856058811e+000	-9.689161222556967e+000
1	 3.559355526413214e+000	 1.610264416291135e+000	-9.904361850213659e+000
1	 3.541922546656179e+000	 1.648256094897945e+000	-1.008338934853116e+001
1	 3.524049878682808e+000	 1.686130503281826e+000	-1.022660065805384e+001
1	 3.505738238682794e+000	 1.723880238468381e+000	-1.033438880005011e+001
1	 3.486988504754907e+000	 1.761497887373937e+000	-1.040718283293932e+001
1	 3.467801717854844e+000	 1.798976031129568e+000	-1.044544775769695e+001
1	 3.448179082607521e+000	 1.836307249456730e+000	-1.044968437168136e+001
1	 3.428121967981061e+000	 1.873484125089678e+000	-1.042042907043422e+001
1	 3.407631907820056e+000	 1.910499248239640e+000	-1.035825359711885e+001
1	 3.617422891048259e+000	 1.544428474155829e+000	-8.972189862709247e+000
1	 3.600757821582671e+000	 1.582893299281493e+000	-9.220688480562433e+000
1	 3.583649105312324e+000	 1.621254913125378e+000	-9.432349994967703e+000
1	 3.566097140681105e+000	 1.659505895371513e+000	-9.607664962523538e+000
1	 3.548102486840681e+000	 1.697638806993271e+000	-9.747173109162619e+000
1	 3.529665864868949e+000	 1.735646194488917e+000	-9.851463177118877e+000
1	 3.510788158857956e+000	 1.773520594178442e+000	-9.921172695798436e+000
1	 3.491470416868223e+000	 1.811254536557092e+000	-9.956987675861543e+000
1	 3.471713851746570e+000	 1.848840550700881e+000	-9.959642225993349e+000
1	 3.451519841804725e+000	 1.886271168719184e+000	-9.929918092015297e+000
1	 3.430889931356198e+000	 1.923538930249378e+000	-9.868644118166477e+000
1	 3.198309695998757e+000	 1.793142110144684e+000	-1.459465092352124e+001
1	 3.178670556813624e+000	 1.827729904041205e+000	-1.450438813902531e+001
1	 3.158628293608679e+000	 1.862151961492185e+000	-1.436947987625894e+001
1	 3.138184815363838e+000	 1.896401373359606e+000	-1.419136948475108e+001
1	 3.117342186515054e+000	 1.930471254663603e+000	-1.397162564195956e+001
1	 3.096102626762256e+000	 1.964354748895379e+000	-1.371194118267491e+001
1	 3.074468510735240e+000	 1.998045032338640e+000	-1.341413170939539e+001
1	 3.052442367516636e+000	 2.031535318394142e+000	-1.308013398405478e+001
1	 3.030026880021336e+000	 2.064818861901898e+000	-1.271200410202818e+001
1	 3.007224884231966e+000	 2.097888963455511e+000	-1.231191544988995e+001
1	 2.984039368290266e+000	 2.130738973703105e+000	-1.188215644894932e+001
1	 3.221567719534899e+000	 1.806181792153683e+000	-1.414498951467449e+001
1	 3.201785765048789e+000	 1.841021107572606e+000	-1.405291222129597e+001
1	 3.181597755035698e+000	 1.875693481314890e+000	-1.391783020711312e+001
1	 3.161005612357593e+000	 1.910191953999462e+000	-1.374125085008404e+001
1	 3.140011416462942e+000	 1.944509590579075e+000	-1.352481023619960e+001
1	 3.118617403193275e+000	 1.978639484684598e+000	-1.327027188668713e+001
1	 3.096825964446625e+000	 2.012574762977862e+000	-1.297952525837552e+001
1	 3.074639647697041e+000	 2.046308589507667e+000	-1.265458401774626e+001
1	 3.052061155369497e+000	 2.079834170063415e+000	-1.229758408976359e+001
1	 3.029093344069806e+000	 2.113144756520817e+000	-1.191078148314553e+001
1	 3.005739223669391e+000	 2.146233651174094e+000	-1.149654989431097e+001
1	 3.244825743070775e+000	 1.819221474163497e+000	-1.368884648337671e+001
1	 3.224900973283702e+000	 1.854312311104829e+000	-1.359520378676342e+001
1	 3.204567216462507e+000	 1.889235001138423e+000	-1.346035791351470e+001
1	 3.183826409351194e+000	 1.923982534640148e+000	-1.328585465815506e+001
1	 3.162680646410756e+000	 1.958547926495382e+000	-1.307337023955502e+001
1	 3.141132179624304e+000	 1.992924220474648e+000	-1.282470995848656e+001
1	 3.119183418158108e+000	 2.027104493617908e+000	-1.254180662379075e+001
1	 3.096836927877633e+000	 2.061081860622007e+000	-1.222671874778919e+001
1	 3.074095430717927e+000	 2.094849478225728e+000	-1.188162851215051e+001
1	 3.050961803907982e+000	 2.128400549586891e+000	-1.150883950600662e+001
1	 3.027439079048901e+000	 2.161728328645818e+000	-1.111077423869901e+001
1	 3.268083766606454e+000	 1.832261156173944e+000	-1.322676668722310e+001
1	 3.248016181518426e+000	 1.867603514637696e+000	-1.313188009635170e+001
1	 3.227536677889154e+000	 1.902776520962612e+000	-1.299772923063488e+001
1	 3.206647206344684e+000	 1.937773115281502e+000	-1.282587323413204e+001
1	 3.185349876358512e+000	 1.972586262412363e+000	-1.261800175172945e+001
1	 3.163646956055338e+000	 2.007208956265380e+000	-1.237593354921697e+001
1	 3.141540871869665e+000	 2.041634224258642e+000	-1.210161490065429e+001
1	 3.119034208058361e+000	 2.075855131737030e+000	-1.179711774372635e+001
1	 3.096129706066546e+000	 2.109864786388716e+000	-1.146463760437135e+001
1	 3.072830263746392e+000	 2.143656342653623e+000	-1.110649129255306e+001
1	 3.049138934428674e+000	 2.177223006118176e+000	-1.072511437163866e+001
1	 3.291341790142000e+000	 1.845300838184841e+000	-1.275927958302529e+001
1	 3.271131389753024e+000	 1.880894718171027e+000	-1.266354096367007e+001
1	 3.250506139315697e+000	 1.916318040787283e+000	-1.253059156203862e+001
1	 3.229468003338097e+000	 1.951563695923357e+000	-1.236197933412439e+001
1	 3.208019106306228e+000	 1.986624598329864e+000	-1.215938119667784e+001
1	 3.186161732486373e+000	 2.021493692056648e+000	-1.192460164160212e+001
1	 3.163898325581261e+000	 2.056163954899922e+000	-1.165957111950833e+001
1	 3.141231488239165e+000	 2.090628402852606e+000	-1.136634419315881e+001
1	 3.118163981415277e+000	 2.124880094552258e+000	-1.104709746210852e+001
1	 3.094698723584940e+000	 2.158912135720905e+000	-1.070412726043707e+001
1	 3.070838789808597e+000	 2.192717683591068e+000	-1.033984713005191e+001
1	 3.314599813677478e+000	 1.858340520196004e+000	-1.228689976713580e+001
1	 3.294246597987558e+000	 1.894185921704647e+000	-1.219076936713842e+001
1	 3.273475600742184e+000	 1.929859560612265e+000	-1.205957414037640e+001
1	 3.252288800331470e+000	 1.965354276565549e+000	-1.189482683174790e+001
1	 3.230688336253921e+000	 2.000662934247727e+000	-1.169816601291477e+001
1	 3.208676508917402e+000	 2.035778427848301e+000	-1.147135472245487e+001
1	 3.186255779292868e+000	 2.070693685541607e+000	-1.121627888020189e+001
1	 3.163428768419997e+000	 2.105401673968605e+000	-1.093494547649372e+001
1	 3.140198256764044e+000	 2.139895402716236e+000	-1.062948053761768e+001
1	 3.116567183423525e+000	 2.174167928788625e+000	-1.030212686931475e+001
1	 3.092538645188554e+000	 2.208212361064393e+000	-9.955241580776812e+000
1	 3.337857837212957e+000	 1.871380202207249e+000	-1.181012749318246e+001
1	 3.317361806222093e+000	 1.907477125238375e+000	-1.171413203652079e+001
1	 3.296445062168671e+000	 1.943401080437388e+000	-1.158528866045435e+001
1	 3.275109597324840e+000	 1.979144857207913e+000	-1.142505137598591e+001
1	 3.253357566201609e+000	 2.014701270165795e+000	-1.123499531496217e+001
1	 3.231191285348421e+000	 2.050063163640193e+000	-1.101681542706961e+001
1	 3.208613233004459e+000	 2.085223416183562e+000	-1.077232495917170e+001
1	 3.185626048600800e+000	 2.120174945084899e+000	-1.050345371766261e+001
1	 3.162232532112769e+000	 2.154910710880527e+000	-1.021224611506116e+001
1	 3.138435643262050e+000	 2.189423721856673e+000	-9.900859002619644e+000
1	 3.114238500568428e+000	 2.223707038538050e+000	-9.571559291275174e+000
1	 3.361115860748503e+000	 1.884419884218392e+000	-1.132944916830775e+001
1	 3.340477014456691e+000	 1.920768328772035e+000	-1.123418001510734e+001
1	 3.319414523595212e+000	 1.956942600262478e+000	-1.110832988602039e+001
1	 3.297930394318245e+000	 1.992935437850285e+000	-1.095327102173738e+001
1	 3.276026796149310e+000	 2.028739606083914e+000	-1.077049052733504e+001
1	 3.253706061779425e+000	 2.064347899432174e+000	-1.056158915686134e+001
1	 3.230970686716002e+000	 2.099753146825645e+000	-1.032827989150962e+001
1	 3.207823328781521e+000	 2.134948216201357e+000	-1.007238631197517e+001
1	 3.184266807461373e+000	 2.169926019045013e+000	-9.795840766106423e+000
1	 3.160304103100417e+000	 2.204679514924937e+000	-9.500682333485978e+000
1	 3.135938355948102e+000	 2.239201716011940e+000	-9.189054589100858e+000
1	 3.384373884284180e+000	 1.897459566229251e+000	-1.084533782894634e+001
1	 3.363592222691413e+000	 1.934059532305448e+000	-1.075144919871560e+001
1	 3.342383985021857e+000	 1.970484120087366e+000	-1.062927623153021e+001
1	 3.320751191311725e+000	 2.006726018492501e+000	-1.048008683436517e+001
1	 3.298696026097039e+000	 2.042777942001923e+000	-1.030525599238591e+001
1	 3.276220838210407e+000	 2.078632635224096e+000	-1.010626467153686e+001
1	 3.253328140427467e+000	 2.114282877467717e+000	-9.884698529029912e+000
1	 3.230020608962105e+000	 2.149721487317850e+000	-9.642246432207816e+000
1	 3.206301082809781e+000	 2.184941327209573e+000	-9.380698786738620e+000
1	 3.182172562938526e+000	 2.219935307993310e+000	-9.101945675583686e+000
1	 3.157638211327462e+000	 2.254696393485963e+000	-8.807974810669595e+000
1	 3.407631907820056e+000	 1.910499248239640e+000	-1.035825359711885e+001
1	 3.386707430926326e+000	 1.947350735838436e+000	-1.026646085261859e+001
1	 3.365353446448659e+000	 1.984025639911878e+000	-1.014869032008963e+001
1	 3.343571988305312e+000	 2.020516599134396e+000	-1.000608346948740e+001
1	 3.321365256044816e+000	 2.056816277919669e+000	-9.839879553256981e+000
1	 3.298735614641365e+000	 2.092917371015812e+000	-9.651414657015927e+000
1	 3.275685594138827e+000	 2.128812608109640e+000	-9.442120575482432e+000
1	 3.252217889142500e+000	 2.164494758434246e+000	-9.213523513967120e+000
1	 3.228335358157913e+000	 2.199956635374086e+000	-8.967242616185184e+000
1	 3.204041022776280e+000	 2.235191101061679e+000	-8.704988319586052e+000
1	 3.179338066706392e+000	 2.270191070960018e+000	-8.428560539841035e+000
1	 3.430889931356198e+000	 1.923538930249378e+000	-9.868644118166477e+000
1	 3.409822639161488e+000	 1.960641939370820e+000	-9.779722107447919e+000
1	 3.388322907875672e+000	 1.997567159735842e+000	-9.667119518702579e+000
1	 3.366392785299044e+000	 2.034307179775804e+000	-9.531829729186228e+000
1	 3.344034485992657e+000	 2.070854613836993e+000	-9.374933113121371e+000
1	 3.321250391072290e+000	 2.107202106807173e+000	-9.197596270252831e+000
1	 3.298043047850050e+000	 2.143342338751271e+000	-9.001071099996855e+000
1	 3.274415169322649e+000	 2.179268029550415e+000	-8.786693721311600e+000
1	 3.250369633505694e+000	 2.214971943538432e+000	-8.555883238800966e+000
1	 3.225909482613576e+000	 2.250446894129934e+000	-8.310140355952012e+000
1	 3.201037922084772e+000	 2.285685748434004e+000	-8.051045836796922e+000
1	 2.984039368290266e+000	 2.130738973703105e+000	-1.188215644894931e+001
1	 2.960473470602511e+000	 2.163362296908118e+000	-1.143601834413636e+001
1	 2.936530476140903e+000	 2.195752392999228e+000	-1.098497586493726e+001
1	 2.912213817674248e+000	 2.227902783885794e+000	-1.052865608445226e+001
1	 2.887527075140474e+000	 2.259807058363652e+000	-1.006665810896594e+001
1	 2.862473974030363e+000	 2.291458876269918e+000	-9.598553819882401e+000
1	 2.837058383631288e+000	 2.322851972591213e+000	-9.123888672758156e+000
1	 2.811284315132539e+000	 2.353980161519819e+000	-8.642182552023762e+000
1	 2.785155919594004e+000	 2.384837340452332e+000	-8.152930679830895e+000
1	 2.758677485780279e+000	 2.415417493925475e+000	-7.655604577310147e+000
1	 2.731853437862469e+000	 2.445714697483801e+000	-7.149653076379318e+000
1	 3.005739223669391e+000	 2.146233651174094e+000	-1.149654989431097e+001
1	 2.982001955396933e+000	 2.179094210322679e+000	-1.106730027624218e+001
1	 2.957884848112856e+000	 2.211719846336016e+000	-1.063346236659742e+001
1	 2.933391359548965e+000	 2.244104034014960e+000	-1.019449897953660e+001
1	 2.908525095676397e+000	 2.276240315533232e+000	-9.749839342751802e+000
1	 2.883289809077596e+000	 2.308122304622443e+000	-9.298880136125144e+000
1	 2.857689397177288e+000	 2.339743690710203e+000	-8.840986599049705e+000
1	 2.831727900334018e+000	 2.371098243005754e+000	-8.375493704412589e+000
1	 2.805409499794067e+000	 2.402179814527716e+000	-7.901707397051432e+000
1	 2.778738515509805e+000	 2.432982346068520e+000	-7.418905894315393e+000
1	 2.751719403824789e+000	 2.463499870090225e+000	-6.926341046186310e+000
1	 3.027439079048901e+000	 2.161728328645818e+000	-1.111077423869901e+001
1	 3.003530440191761e+000	 2.194826123737928e+000	-1.069888881261057e+001
1	 2.979239220085216e+000	 2.227687299673442e+000	-1.028253702301945e+001
1	 2.954568901424073e+000	 2.260305284144704e+000	-9.861046368981022e+000
1	 2.929523116212681e+000	 2.292673572703324e+000	-9.433706478798753e+000
1	 2.904105644125149e+000	 2.324785732975416e+000	-8.999770397923390e+000
1	 2.878320410723559e+000	 2.356635408829572e+000	-8.558455954500955e+000
1	 2.852171485535715e+000	 2.388216324492002e+000	-8.108947200065142e+000
1	 2.825663079994292e+000	 2.419522288603349e+000	-7.650395922659460e+000
1	 2.798799545239443e+000	 2.450547198211752e+000	-7.181923229468844e+000
1	 2.771585369787176e+000	 2.481285042696783e+000	-6.702621195843697e+000
1	 3.049138934428674e+000	 2.177223006118176e+000	-1.072511437163866e+001
1	 3.025058924986865e+000	 2.210558037153778e+000	-1.033095287290755e+001
1	 3.000593592057848e+000	 2.243654753011425e+000	-9.932272128060070e+000
1	 2.975746443299435e+000	 2.276506534274954e+000	-9.528292605598393e+000
1	 2.950521136749184e+000	 2.309106829873869e+000	-9.118193934960058e+000
1	 2.924921479172883e+000	 2.341449161328783e+000	-8.701116396780092e+000
1	 2.898951424269965e+000	 2.373527126949274e+000	-8.276162497233988e+000
1	 2.872615070737500e+000	 2.405334405978519e+000	-7.842398623546470e+000
1	 2.845916660194561e+000	 2.436864762679191e+000	-7.398856777519864e+000
1	 2.818860574969084e+000	 2.468112050355137e+000	-6.944536383714659e+000
1	 2.791451335749533e+000	 2.499070215303443e+000	-6.478406168701573e+000
1	 3.070838789808597e+000	 2.192717683591068e+000	-1.033984713005191e+001
1	 3.046587409782116e+000	 2.226289950570137e+000	-9.963656602165795e+000
1	 3.021947964030613e+000	 2.259622206349883e+000	-9.582737932139306e+000
1	 2.996923985174902e+000	 2.292707784405640e+000	-9.196232201823149e+000
1	 2.971519157285764e+000	 2.325540087044802e+000	-8.803237982814689e+000
1	 2.945737314220657e+000	 2.358112589682488e+000	-8.402812982787722e+000
1	 2.919582437816374e+000	 2.390418845069261e+000	-7.993975779812337e+000
1	 2.893058655939246e+000	 2.422452487465266e+000	-7.575707641425818e+000
1	 2.866170240394755e+000	 2.454207236755210e+000	-7.146954424973721e+000
1	 2.838921604698616e+000	 2.485676902498641e+000	-6.706628555508066e+000
1	 2.811317301711755e+000	 2.516855387910169e+000	-6.253611077307292e+000
1	 3.092538645188554e+000	 2.208212361064393e+000	-9.955241580776812e+000
1	 3.068115894577388e+000	 2.242021863986914e+000	-9.597159538298836e+000
1	 3.043302336003374e+000	 2.275589659688736e+000	-9.234002713932721e+000
1	 3.018101527050339e+000	 2.308909034536690e+000	-8.864859824111493e+000
1	 2.992517177822280e+000	 2.341973344216064e+000	-8.488776682630769e+000
1	 2.966553149268331e+000	 2.374776018036477e+000	-8.104757957320054e+000
1	 2.940213451362647e+000	 2.407310563189484e+000	-7.711769016115905e+000
1	 2.913502241140828e+000	 2.439570568952202e+000	-7.308737859062604e+000
1	 2.886423820594753e+000	 2.471549710831363e+000	-6.894557132519442e+000
1	 2.858982634427930e+000	 2.503241754642231e+000	-6.468086221616407e+000
1	 2.831183267673744e+000	 2.534640560516928e+000	-6.028153416775668e+000
1	 3.114238500568428e+000	 2.223707038538050e+000	-9.571559291275174e+000
1	 3.089644379372549e+000	 2.257753777404020e+000	-9.231616772611876e+000
1	 3.064656707975995e+000	 2.291557113027905e+000	-8.886132849066591e+000
1	 3.039279068925602e+000	 2.325110284668035e+000	-8.534170287574961e+000
1	 3.013515198358589e+000	 2.358406601387590e+000	-8.174749821048035e+000
1	 2.987368984315768e+000	 2.391439446390696e+000	-7.806851970210273e+000
1	 2.960844464908652e+000	 2.424202281309898e+000	-7.429418953781582e+000
1	 2.933945826342113e+000	 2.456688650439283e+000	-7.041356683380041e+000
1	 2.906677400794436e+000	 2.488892184907616e+000	-6.641536839277124e+000
1	 2.879043664156916e+000	 2.520806606785870e+000	-6.228799022903514e+000
1	 2.851049233635401e+000	 2.552425733123689e+000	-5.801952981780997e+000
1	 3.135938355948102e+000	 2.239201716011940e+000	-9.189054589100858e+000
1	 3.111172864167472e+000	 2.273485690821364e+000	-8.867179103648537e+000
1	 3.086011079948337e+000	 2.307524566367307e+000	-8.539192875960731e+000
1	 3.060456610800552e+000	 2.341311534799600e+000	-8.204158550837477e+000
1	 3.034513218894551e+000	 2.374839858559317e+000	-7.861098851347882e+000
1	 3.008184819362824e+000	 2.408102874745090e+000	-7.508998421198059e+000
1	 2.981475478454253e+000	 2.441093999430454e+000	-7.146805751940118e+000
1	 2.954389411542977e+000	 2.473806731926469e+000	-6.773435191336109e+000
1	 2.926930980993685e+000	 2.506234658983931e+000	-6.387769028955191e+000
1	 2.899104693885465e+000	 2.538371458929527e+000	-5.988659654856298e+000
1	 2.870915199596624e+000	 2.570210905730416e+000	-5.574931786995315e+000
1	 3.157638211327462e+000	 2.254696393485963e+000	-8.807974810669595e+000
1	 3.132701348962026e+000	 2.289217604238856e+000	-8.503993184693886e+000
1	 3.107365451920266e+000	 2.323492019706863e+000	-8.193245558956622e+000
1	 3.081634152675045e+000	 2.357512784931316e+000	-7.874819711103766e+000
1	 3.055511239430021e+000	 2.391273115731184e+000	-7.547766836185776e+000
1	 3.029000654409364e+000	 2.424766303099606e+000	-7.211103365440398e+000
1	 3.002106491999318e+000	 2.457985717551106e+000	-6.863812863993975e+000
1	 2.974832996743292e+000	 2.490924813413718e+000	-6.504848003817800e+000
1	 2.947184561192381e+000	 2.523577133060271e+000	-6.133132608055218e+000
1	 2.919165723613464e+000	 2.555936311073164e+000	-5.747563762625023e+000
1	 2.890781165557315e+000	 2.587996078337078e+000	-5.347013990807271e+000
1	 3.179338066706392e+000	 2.270191070960018e+000	-8.428560539841037e+000
1	 3.154229833756086e+000	 2.304949517656405e+000	-8.142201665237169e+000
1	 3.128719823891644e+000	 2.339459473046494e+000	-7.848351948860316e+000
1	 3.102811694548940e+000	 2.373714035063113e+000	-7.546148999430439e+000
1	 3.076509259964860e+000	 2.407706372903129e+000	-7.234698392669394e+000
1	 3.049816489455246e+000	 2.441429731454187e+000	-6.913075422891732e+000
1	 3.022737505543708e+000	 2.474877435671805e+000	-6.580326925195935e+000
1	 2.995276581942927e+000	 2.508042894900989e+000	-6.235473164699788e+000
1	 2.967438141390402e+000	 2.540919607136599e+000	-5.877509789064435e+000
1	 2.939226753340806e+000	 2.573501163216749e+000	-5.505409840362106e+000
1	 2.910647131517372e+000	 2.605781250943639e+000	-5.118125822164898e+000
1	 3.201037922084772e+000	 2.285685748434004e+000	-8.051045836796922e+000
1	 3.175758318549517e+000	 2.320681431073920e+000	-7.781943326680469e+000
1	 3.150074195862331e+000	 2.355426926386116e+000	-7.504571441022586e+000
1	 3.123989236422097e+000	 2.389915285194917e+000	-7.218141776188767e+000
1	 3.097507280498922e+000	 2.424139630075088e+000	-6.921839639670264e+000
1	 3.070632324500330e+000	 2.458093159808781e+000	-6.614825691370155e+000
1	 3.043368519087291e+000	 2.491769153792504e+000	-6.296237644800049e+000
1	 3.015720167141756e+000	 2.525160976388238e+000	-5.965192024822082e+000
1	 2.987691721587631e+000	 2.558262081212876e+000	-5.620785978399202e+000
1	 2.959287783067377e+000	 2.591066015360246e+000	-5.262099134655125e+000
1	 2.930513097476696e+000	 2.623566423550066e+000	-4.888195510393913e+000
1	 2.731853437862469e+000	 2.445714697483801e+000	-7.149653076379318e+000
1	 2.704692433297279e+000	 2.475718642763606e+000	-6.638089894421448e+000
1	 2.677195161938863e+000	 2.505428168867732e+000	-6.124643730121225e+000
1	 2.649366439270082e+000	 2.534837651707582e+000	-5.610048751761235e+000
1	 2.621211205591807e+000	 2.563941572878231e+000	-5.095037773045136e+000
1	 2.592734523104852e+000	 2.592734523104852e+000	-4.580341299293652e+000
1	 2.563941572878231e+000	 2.621211205591807e+000	-4.066686577097325e+000
1	 2.534837651707581e+000	 2.649366439270081e+000	-3.554796649291358e+000
1	 2.505428168867732e+000	 2.677195161938863e+000	-3.045389417106301e+000
1	 2.475718642763605e+000	 2.704692433297279e+000	-2.539176711329276e+000
1	 2.445714697483802e+000	 2.731853437862469e+000	-2.036863374288529e+000
1	 2.751719403824789e+000	 2.463499870090225e+000	-6.926341046186310e+000
1	 2.724360885152517e+000	 2.493722003266977e+000	-6.427087684964492e+000
1	 2.696663654363745e+000	 2.523647576259597e+000	-5.925209877016537e+000
1	 2.668632561959409e+000	 2.553270924081258e+000	-5.421650683338342e+000
1	 2.640272584166119e+000	 2.582586488197333e+000	-4.917355201837677e+000
1	 2.611588819996889e+000	 2.611588819996888e+000	-4.413269216373786e+000
1	 2.582586488197333e+000	 2.640272584166119e+000	-3.910337843492218e+000
1	 2.553270924081256e+000	 2.668632561959408e+000	-3.409504179580496e+000
1	 2.523647576259597e+000	 2.696663654363745e+000	-2.911707951171342e+000
1	 2.493722003266977e+000	 2.724360885152517e+000	-2.417884171112001e+000
1	 2.463499870090225e+000	 2.751719403824789e+000	-1.928961803303194e+000
1	 2.771585369787176e+000	 2.481285042696783e+000	-6.702621195843698e+000
1	 2.744029337007786e+000	 2.511725363770436e+000	-6.215695623997122e+000
1	 2.716132146788635e+000	 2.541866983651511e+000	-5.725567487329720e+000
1	 2.687898684648724e+000	 2.571704196454953e+000	-5.233353833060493e+000
1	 2.659333962740416e+000	 2.601231403516437e+000	-4.740176654717681e+000
1	 2.630443116888912e+000	 2.630443116888912e+000	-4.247161205086827e+000
1	 2.601231403516437e+000	 2.659333962740415e+000	-3.755434301885944e+000
1	 2.571704196454952e+000	 2.687898684648725e+000	-3.266122629624255e+000
1	 2.541866983651512e+000	 2.716132146788636e+000	-2.780351041111933e+000
1	 2.511725363770435e+000	 2.744029337007786e+000	-2.299240862090551e+000
1	 2.481285042696783e+000	 2.771585369787176e+000	-1.823908202444198e+000
1	 2.791451335749533e+000	 2.499070215303443e+000	-6.478406168701573e+000
1	 2.763697788862998e+000	 2.529728724273948e+000	-6.003861653998077e+000
1	 2.735600639213451e+000	 2.560086391043440e+000	-5.525692193307313e+000
1	 2.707164807337962e+000	 2.590137468828627e+000	-5.045154668186207e+000
1	 2.678395341314634e+000	 2.619876318835490e+000	-4.563513340620584e+000
1	 2.649297413780869e+000	 2.649297413780869e+000	-4.082037890178209e+000
1	 2.619876318835491e+000	 2.678395341314634e+000	-3.602001439706107e+000
1	 2.590137468828628e+000	 2.707164807337962e+000	-3.124678573629650e+000
1	 2.560086391043440e+000	 2.735600639213451e+000	-2.651343352932632e+000
1	 2.529728724273947e+000	 2.763697788862998e+000	-2.183267330906022e+000
1	 2.499070215303442e+000	 2.791451335749532e+000	-1.721717573750939e+000
1	 2.811317301711755e+000	 2.516855387910169e+000	-6.253611077307292e+000
1	 2.783366240718062e+000	 2.547732084777479e+000	-5.791535188888673e+000
1	 2.755069131638113e+000	 2.578305798435343e+000	-5.325560315967556e+000
1	 2.726430930027048e+000	 2.608570741202241e+000	-4.857049755829408e+000
1	 2.697456719888714e+000	 2.638521234154451e+000	-4.387376151653262e+000
1	 2.668151710672706e+000	 2.668151710672706e+000	-3.917919313420379e+000
1	 2.638521234154452e+000	 2.697456719888714e+000	-3.450064023960139e+000
1	 2.608570741202240e+000	 2.726430930027047e+000	-2.985197834664975e+000
1	 2.578305798435343e+000	 2.755069131638112e+000	-2.524708855435798e+000
1	 2.547732084777478e+000	 2.783366240718062e+000	-2.069983543434093e+000
1	 2.516855387910169e+000	 2.811317301711755e+000	-1.622404495219439e+000
1	 2.831183267673744e+000	 2.534640560516928e+000	-6.028153416775668e+000
1	 2.803034692572887e+000	 2.565735445280995e+000	-5.578667062408345e+000
1	 2.774537624062540e+000	 2.596525205827184e+000	-5.125148840935418e+000
1	 2.745697052715913e+000	 2.627004013575751e+000	-4.669035759456110e+000
1	 2.716518098462591e+000	 2.657166149473270e+000	-4.211775674209844e+000
1	 2.687006007564368e+000	 2.687006007564368e+000	-3.754824954065907e+000
1	 2.657166149473270e+000	 2.716518098462591e+000	-3.299646126510676e+000
1	 2.627004013575750e+000	 2.745697052715913e+000	-2.847705511012816e+000
1	 2.596525205827185e+000	 2.774537624062540e+000	-2.400470844682539e+000
1	 2.565735445280996e+000	 2.803034692572888e+000	-1.959408905160711e+000
1	 2.534640560516928e+000	 2.831183267673744e+000	-1.525983135679563e+000
1	 2.851049233635401e+000	 2.552425733123689e+000	-5.801952981780996e+000
1	 2.822703144427385e+000	 2.583738805784463e+000	-5.365209478648556e+000
1	 2.794006116486655e+000	 2.614744613218929e+000	-4.924435395287893e+000
1	 2.764963175404485e+000	 2.645437285949114e+000	-4.481109435527483e+000
1	 2.735579477036205e+000	 2.675811064791898e+000	-4.036722199622554e+000
1	 2.705860304455802e+000	 2.705860304455801e+000	-3.592773748445566e+000
1	 2.675811064791898e+000	 2.735579477036205e+000	-3.150771148294240e+000
1	 2.645437285949114e+000	 2.764963175404485e+000	-2.712226001421453e+000
1	 2.614744613218929e+000	 2.794006116486654e+000	-2.278651967430798e+000
1	 2.583738805784463e+000	 2.822703144427385e+000	-1.851562280705946e+000
1	 2.552425733123689e+000	 2.851049233635401e+000	-1.432467269050309e+000
1	 2.870915199596624e+000	 2.570210905730416e+000	-5.574931786995315e+000
1	 2.842371596281464e+000	 2.601742166287846e+000	-5.151115964640547e+000
1	 2.813474608910373e+000	 2.632964020610537e+000	-4.723398225360509e+000
1	 2.784229298092693e+000	 2.663870558322291e+000	-4.293267630282397e+000
1	 2.754640855609494e+000	 2.694455980110292e+000	-3.862225734370583e+000
1	 2.724714601346952e+000	 2.724714601346950e+000	-3.431784108752677e+000
1	 2.694455980110293e+000	 2.754640855609494e+000	-3.003461842534383e+000
1	 2.663870558322291e+000	 2.784229298092693e+000	-2.578783029307825e+000
1	 2.632964020610537e+000	 2.813474608910373e+000	-2.159274243600313e+000
1	 2.601742166287846e+000	 2.842371596281464e+000	-1.746462012537255e+000
1	 2.570210905730416e+000	 2.870915199596625e+000	-1.341870288003153e+000
1	 2.890781165557315e+000	 2.587996078337078e+000	-5.347013990807271e+000
1	 2.862040048135035e+000	 2.619745526791112e+000	-4.936341324897753e+000
1	 2.832943101333616e+000	 2.651183428001972e+000	-4.522016175469187e+000
1	 2.803495420780467e+000	 2.682303830695239e+000	-4.105507276652542e+000
1	 2.773702234182394e+000	 2.713100895428402e+000	-3.688296009867767e+000
1	 2.743568898237764e+000	 2.743568898237764e+000	-3.271873941052953e+000
1	 2.713100895428401e+000	 2.773702234182393e+000	-2.857740336997682e+000
1	 2.682303830695240e+000	 2.803495420780468e+000	-2.447399665962507e+000
1	 2.651183428001973e+000	 2.832943101333616e+000	-2.042359087811426e+000
1	 2.619745526791112e+000	 2.862040048135035e+000	-1.644125938911037e+000
1	 2.587996078337078e+000	 2.890781165557315e+000	-1.254205217062127e+000
1	 2.910647131517372e+000	 2.605781250943639e+000	-5.118125822164898e+000
1	 2.881708499988006e+000	 2.637748887294224e+000	-4.720841597820137e+000
1	 2.852411593756304e+000	 2.669402835393198e+000	-4.320268667503223e+000
1	 2.822761543467736e+000	 2.700737103067920e+000	-3.917825391303979e+000
1	 2.792763612754842e+000	 2.731745810746180e+000	-3.514942491849637e+000
1	 2.762423195128184e+000	 2.762423195128184e+000	-3.113060662556829e+000
1	 2.731745810746180e+000	 2.792763612754843e+000	-2.713628155338316e+000
1	 2.700737103067920e+000	 2.822761543467736e+000	-2.318098352804421e+000
1	 2.669402835393198e+000	 2.852411593756304e+000	-1.927927330041738e+000
1	 2.637748887294224e+000	 2.881708499988007e+000	-1.544571411079649e+000
1	 2.605781250943640e+000	 2.910647131517372e+000	-1.169484725167263e+000
1	 2.930513097476696e+000	 2.623566423550066e+000	-4.888195510393913e+000
1	 2.901376951840289e+000	 2.655752247797149e+000	-4.504574013871496e+000
1	 2.871880086178356e+000	 2.687622242784177e+000	-4.118135681348516e+000
1	 2.842027666154427e+000	 2.719170375440287e+000	-3.730219071798863e+000
1	 2.811824991326779e+000	 2.750390726063579e+000	-3.342174389378620e+000
1	 2.781277492018158e+000	 2.781277492018158e+000	-2.955361218189157e+000
1	 2.750390726063578e+000	 2.811824991326778e+000	-2.571146237574495e+000
1	 2.719170375440287e+000	 2.842027666154426e+000	-2.190900922730416e+000
1	 2.687622242784177e+000	 2.871880086178356e+000	-1.815999235442587e+000
1	 2.655752247797149e+000	 2.901376951840288e+000	-1.447815309798324e+000
1	 2.623566423550066e+000	 2.930513097476694e+000	-1.087721137727175e+000
1	 2.445714697483802e+000	 2.731853437862469e+000	-2.036863374288529e+000
1	 2.415417493925476e+000	 2.758677485780278e+000	-1.544436382510048e+000
1	 2.384837340452332e+000	 2.785155919594005e+000	-1.067064474053714e+000
1	 2.353980161519820e+000	 2.811284315132540e+000	-6.039915282980769e-001
1	 2.322851972591212e+000	 2.837058383631288e+000	-1.544588466518480e-001
1	 2.291458876269918e+000	 2.862473974030362e+000	 2.822935120026232e-001
1	 2.259807058363652e+000	 2.887527075140474e+000	 7.070254047156179e-001
1	 2.227902783885794e+000	 2.912213817674249e+000	 1.120495289462861e+000
1	 2.195752392999227e+000	 2.936530476140903e+000	 1.523458924412018e+000
1	 2.163362296908118e+000	 2.960473470602511e+000	 1.916668084094245e+000
1	 2.130738973703105e+000	 2.984039368290266e+000	 2.300869295047882e+000
1	 2.463499870090225e+000	 2.751719403824789e+000	-1.928961803303195e+000
1	 2.432982346068520e+000	 2.778738515509805e+000	-1.451118278316764e+000
1	 2.402179814527717e+000	 2.805409499794068e+000	-9.893867920388652e-001
1	 2.371098243005754e+000	 2.831727900334018e+000	-5.427518542145509e-001
1	 2.339743690710204e+000	 2.857689397177288e+000	-1.101941430246829e-001
1	 2.308122304622443e+000	 2.883289809077596e+000	 3.093076661153027e-001
1	 2.276240315533231e+000	 2.908525095676397e+000	 7.167750813570523e-001
1	 2.244104034014959e+000	 2.933391359548965e+000	 1.113227988605983e+000
1	 2.211719846336016e+000	 2.957884848112856e+000	 1.499682862819103e+000
1	 2.179094210322679e+000	 2.982001955396933e+000	 1.877151000069889e+000
1	 2.146233651174095e+000	 3.005739223669392e+000	 2.246636773956007e+000
1	 2.481285042696783e+000	 2.771585369787176e+000	-1.823908202444198e+000
1	 2.450547198211751e+000	 2.798799545239443e+000	-1.360675697500039e+000
1	 2.419522288603349e+000	 2.825663079994292e+000	-9.144493184559868e-001
1	 2.388216324492002e+000	 2.852171485535715e+000	-4.839974899206688e-001
1	 2.356635408829572e+000	 2.878320410723559e+000	-6.808335302265282e-002
1	 2.324785732975417e+000	 2.904105644125149e+000	 3.345329862490721e-001
1	 2.292673572703324e+000	 2.929523116212680e+000	 7.250922182499072e-001
1	 2.260305284144704e+000	 2.954568901424074e+000	 1.104833605113161e+000
1	 2.227687299673442e+000	 2.979239220085217e+000	 1.474992775029899e+000
1	 2.194826123737930e+000	 3.003530440191762e+000	 1.836799539913592e+000
1	 2.161728328645818e+000	 3.027439079048901e+000	 2.191475740894559e+000
1	 2.499070215303442e+000	 2.791451335749532e+000	-1.721717573750939e+000
1	 2.468112050355138e+000	 2.818860574969083e+000	-1.273117515051388e+000
1	 2.436864762679192e+000	 2.845916660194561e+000	-8.422539194495144e-001
1	 2.405334405978519e+000	 2.872615070737500e+000	-4.277214840458833e-001
1	 2.373527126949274e+000	 2.898951424269965e+000	-2.810797567421190e-002
1	 2.341449161328784e+000	 2.924921479172883e+000	 3.580031741032398e-001
1	 2.309106829873869e+000	 2.950521136749184e+000	 7.320302826942799e-001
1	 2.276506534274954e+000	 2.975746443299434e+000	 1.095390844302957e+000
1	 2.243654753011425e+000	 3.000593592057848e+000	 1.449498977248266e+000
1	 2.210558037153777e+000	 3.025058924986865e+000	 1.795762896053951e+000
1	 2.177223006118176e+000	 3.049138934428674e+000	 2.135582413487527e+000
1	 2.516855387910169e+000	 2.811317301711755e+000	-1.622404495219439e+000
1	 2.485676902498641e+000	 2.838921604698616e+000	-1.188452355104252e+000
1	 2.454207236755210e+000	 2.866170240394754e+000	-7.728024084158589e-001
1	 2.422452487465267e+000	 2.893058655939247e+000	-3.739170817048494e-001
1	 2.390418845069261e+000	 2.919582437816373e+000	 9.749967049368723e-003
1	 2.358112589682489e+000	 2.945737314220657e+000	 3.797509787750570e-001
1	 2.325540087044803e+000	 2.971519157285764e+000	 7.376412306994491e-001
1	 2.292707784405640e+000	 2.996923985174902e+000	 1.084976186832788e+000
1	 2.259622206349883e+000	 3.021947964030614e+000	 1.423308667512937e+000
1	 2.226289950570137e+000	 3.046587409782117e+000	 1.754186043890654e+000
1	 2.192717683591068e+000	 3.070838789808597e+000	 2.079147463129567e+000
1	 2.534640560516928e+000	 2.831183267673744e+000	-1.525983135679563e+000
1	 2.503241754642232e+000	 2.858982634427929e+000	-1.106688599735191e+000
1	 2.471549710831364e+000	 2.886423820594752e+000	-7.060965478539418e-001
1	 2.439570568952202e+000	 2.913502241140828e+000	-3.225777176038767e-001
1	 2.407310563189484e+000	 2.940213451362647e+000	 4.550794858104900e-002
1	 2.374776018036477e+000	 2.966553149268331e+000	 3.998082301809419e-001
1	 2.341973344216064e+000	 2.992517177822279e+000	 7.419755600065072e-001
1	 2.308909034536690e+000	 3.018101527050339e+000	 1.073663966749458e+000
1	 2.275589659688735e+000	 3.043302336003374e+000	 1.396526035095937e+000
1	 2.242021863986915e+000	 3.068115894577389e+000	 1.712209889745356e+000
1	 2.208212361064393e+000	 3.092538645188554e+000	 2.022356209571020e+000
1	 2.552425733123689e+000	 2.851049233635401e+000	-1.432467269050309e+000
1	 2.520806606785871e+000	 2.879043664156916e+000	-1.027834397397048e+000
1	 2.488892184907616e+000	 2.906677400794436e+000	-6.421380511384851e-001
1	 2.456688650439283e+000	 2.933945826342114e+000	-2.736970094356292e-001
1	 2.424202281309897e+000	 2.960844464908653e+000	 7.918295533801781e-002
1	 2.391439446390696e+000	 2.987368984315767e+000	 4.182058710805561e-001
1	 2.358406601387589e+000	 3.013515198358590e+000	 7.450823608938649e-001
1	 2.325110284668035e+000	 3.039279068925603e+000	 1.061526446276436e+000
1	 2.291557113027904e+000	 3.064656707975995e+000	 1.369252365327171e+000
1	 2.257753777404020e+000	 3.089644379372550e+000	 1.669971412627547e+000
1	 2.223707038538050e+000	 3.114238500568427e+000	 1.965388807367887e+000
1	 2.570210905730416e+000	 2.870915199596625e+000	-1.341870288003153e+000
1	 2.538371458929527e+000	 2.899104693885464e+000	-9.518976710020132e-001
1	 2.506234658983932e+000	 2.926930980993684e+000	-5.809285842196604e-001
1	 2.473806731926469e+000	 2.954389411542978e+000	-2.272687515480208e-001
1	 2.441093999430454e+000	 2.981475478454254e+000	 1.107915035717846e-001
1	 2.408102874745091e+000	 3.008184819362825e+000	 4.349739877712556e-001
1	 2.374839858559317e+000	 3.034513218894551e+000	 7.470093648736959e-001
1	 2.341311534799600e+000	 3.060456610800551e+000	 1.048633887496269e+000
1	 2.307524566367308e+000	 3.086011079948339e+000	 1.341586140066998e+000
1	 2.273485690821364e+000	 3.111172864167472e+000	 1.627603800114154e+000
1	 2.239201716011941e+000	 3.135938355948102e+000	 1.908420424590601e+000
1	 2.587996078337078e+000	 2.890781165557315e+000	-1.254205217062127e+000
1	 2.555936311073165e+000	 2.919165723613464e+000	-8.788861256714430e-001
1	 2.523577133060271e+000	 2.947184561192380e+000	-5.224697672526296e-001
1	 2.490924813413718e+000	 2.974832996743292e+000	-1.832869088741677e-001
1	 2.457985717551105e+000	 3.002106491999317e+000	 1.403496555234773e-001
1	 2.424766303099606e+000	 3.029000654409364e+000	 4.501418395168406e-001
1	 2.391273115731185e+000	 3.055511239430021e+000	 7.478029913803259e-001
1	 2.357512784931316e+000	 3.081634152675044e+000	 1.035054621077121e+000
1	 2.323492019706865e+000	 3.107365451920267e+000	 1.313623134035925e+000
1	 2.289217604238855e+000	 3.132701348962026e+000	 1.585236578626610e+000
1	 2.254696393485963e+000	 3.157638211327462e+000	 1.851621414164100e+000
1	 2.605781250943640e+000	 2.910647131517372e+000	-1.169484725167262e+000
1	 2.573501163216749e+000	 2.939226753340805e+000	-8.088072561682751e-001
1	 2.540919607136599e+000	 2.967438141390401e+000	-4.667631761603643e-001
1	 2.508042894900989e+000	 2.995276581942927e+000	-1.417456111109635e-001
1	 2.474877435671805e+000	 3.022737505543709e+000	 1.678730349176263e-001
1	 2.441429731454189e+000	 3.049816489455247e+000	 4.637378867712659e-001
1	 2.407706372903129e+000	 3.076509259964860e+000	 7.475083925466948e-001
1	 2.373714035063113e+000	 3.102811694548940e+000	 1.020855112185024e+000
1	 2.339459473046493e+000	 3.128719823891644e+000	 1.285456507199463e+000
1	 2.304949517656405e+000	 3.154229833756085e+000	 1.542995738372776e+000
1	 2.270191070960018e+000	 3.179338066706392e+000	 1.795157478191325e+000
1	 2.623566423550066e+000	 2.930513097476694e+000	-1.087721137727176e+000
1	 2.591066015360247e+000	 2.959287783067377e+000	-7.416683540270568e-001
1	 2.558262081212877e+000	 2.987691721587632e+000	-4.138103441328410e-001
1	 2.525160976388239e+000	 3.015720167141756e+000	-1.026391471343974e-001
1	 2.491769153792504e+000	 3.043368519087291e+000	 1.933768418256118e-001
1	 2.458093159808781e+000	 3.070632324500330e+000	 4.757898182543092e-001
1	 2.424139630075088e+000	 3.097507280498923e+000	 7.461694961595777e-001
1	 2.389915285194917e+000	 3.123989236422097e+000	 1.006100023715070e+000
1	 2.355426926386115e+000	 3.150074195862330e+000	 1.257176893395306e+000
1	 2.320681431073919e+000	 3.175758318549517e+000	 1.501003853206993e+000
1	 2.285685748434003e+000	 3.201037922084772e+000	 1.739189825592910e+000
1	 2.130738973703105e+000	 2.984039368290266e+000	 2.300869295047882e+000
1	 2.097888963455511e+000	 3.007224884231965e+000	 2.674248708107711e+000
1	 2.064818861901898e+000	 3.030026880021336e+000	 3.032793864026816e+000
1	 2.031535318394141e+000	 3.052442367516636e+000	 3.373992048012944e+000
1	 1.998045032338640e+000	 3.074468510735241e+000	 3.695390932685662e+000
1	 1.964354748895379e+000	 3.096102626762256e+000	 3.994601694778255e+000
1	 1.930471254663603e+000	 3.117342186515054e+000	 4.269302001596381e+000
1	 1.896401373359606e+000	 3.138184815363838e+000	 4.517238862485618e+000
1	 1.862151961492184e+000	 3.158628293608679e+000	 4.736231340939767e+000
1	 1.827729904041205e+000	 3.178670556813624e+000	 4.924173123369949e+000
1	 1.793142110144684e+000	 3.198309695998757e+000	 5.079034940949724e+000
1	 2.146233651174095e+000	 3.005739223669392e+000	 2.246636773956007e+000
1	 2.113144756520816e+000	 3.029093344069806e+000	 2.606882766988444e+000
1	 2.079834170063416e+000	 3.052061155369498e+000	 2.954170119942633e+000
1	 2.046308589507667e+000	 3.074639647697041e+000	 3.285847762160473e+000
1	 2.012574762977862e+000	 3.096825964446623e+000	 3.599324681414315e+000
1	 1.978639484684598e+000	 3.118617403193275e+000	 3.892073318800457e+000
1	 1.944509590579076e+000	 3.140011416462942e+000	 4.161632830402195e+000
1	 1.910191953999462e+000	 3.161005612357592e+000	 4.405612210418788e+000
1	 1.875693481314890e+000	 3.181597755035698e+000	 4.621693270851405e+000
1	 1.841021107572606e+000	 3.201785765048789e+000	 4.807633473242729e+000
1	 1.806181792153683e+000	 3.221567719534899e+000	 4.961268608380405e+000
1	 2.161728328645818e+000	 3.027439079048901e+000	 2.191475740894559e+000
1	 2.128400549586891e+000	 3.050961803907982e+000	 2.538293218032357e+000
1	 2.094849478225728e+000	 3.074095430717927e+000	 2.873853964873031e+000
1	 2.061081860622007e+000	 3.096836927877634e+000	 3.195410016853856e+000
1	 2.027104493617908e+000	 3.119183418158109e+000	 3.500272673214094e+000
1	 1.992924220474648e+000	 3.141132179624304e+000	 3.785816103725239e+000
1	 1.958547926495382e+000	 3.162680646410757e+000	 4.049480820751160e+000
1	 1.923982534640148e+000	 3.183826409351195e+000	 4.288777010897346e+000
1	 1.889235001138423e+000	 3.204567216462507e+000	 4.501287720914575e+000
1	 1.854312311104829e+000	 3.224900973283702e+000	 4.684671892938314e+000
1	 1.819221474163497e+000	 3.244825743070775e+000	 4.836667244571055e+000
1	 2.177223006118176e+000	 3.049138934428674e+000	 2.135582413487527e+000
1	 2.143656342653623e+000	 3.072830263746392e+000	 2.468726159205241e+000
1	 2.109864786388717e+000	 3.096129706066546e+000	 2.792137785639490e+000
1	 2.075855131737029e+000	 3.119034208058360e+000	 3.103013048833768e+000
1	 2.041634224258642e+000	 3.141540871869665e+000	 3.398605716036676e+000
1	 2.007208956265380e+000	 3.163646956055338e+000	 3.676231318709937e+000
1	 1.972586262412363e+000	 3.185349876358512e+000	 3.933270770955882e+000
1	 1.937773115281502e+000	 3.206647206344685e+000	 4.167173847306009e+000
1	 1.902776520962611e+000	 3.227536677889154e+000	 4.375462514222003e+000
1	 1.867603514637696e+000	 3.248016181518426e+000	 4.555734110082899e+000
1	 1.832261156173944e+000	 3.268083766606454e+000	 4.705664368864221e+000
1	 2.192717683591068e+000	 3.070838789808597e+000	 2.079147463129567e+000
1	 2.158912135720905e+000	 3.094698723584940e+000	 2.398420732340521e+000
1	 2.124880094552259e+000	 3.118163981415277e+000	 2.709305704543936e+000
1	 2.090628402852605e+000	 3.141231488239166e+000	 3.008981647403812e+000
1	 2.056163954899921e+000	 3.163898325581260e+000	 3.294684136685695e+000
1	 2.021493692056648e+000	 3.186161732486373e+000	 3.563708890756342e+000
1	 1.986624598329863e+000	 3.208019106306228e+000	 3.813415472105366e+000
1	 1.951563695923357e+000	 3.229468003338097e+000	 4.041230849629800e+000
1	 1.916318040787283e+000	 3.250506139315697e+000	 4.244652815831233e+000
1	 1.880894718171027e+000	 3.271131389753024e+000	 4.421253253497423e+000
1	 1.845300838184841e+000	 3.291341790142000e+000	 4.568681246872985e+000
1	 2.208212361064393e+000	 3.092538645188554e+000	 2.022356209571020e+000
1	 2.174167928788625e+000	 3.116567183423526e+000	 2.327609367189622e+000
1	 2.139895402716236e+000	 3.140198256764045e+000	 2.625633869322872e+000
1	 2.105401673968605e+000	 3.163428768419996e+000	 2.913631485886421e+000
1	 2.070693685541607e+000	 3.186255779292868e+000	 3.188858148539487e+000
1	 2.035778427848301e+000	 3.208676508917402e+000	 3.448627802641329e+000
1	 2.000662934247727e+000	 3.230688336253921e+000	 3.690316129328916e+000
1	 1.965354276565549e+000	 3.252288800331470e+000	 3.911364131371622e+000
1	 1.929859560612265e+000	 3.273475600742184e+000	 4.109281576861831e+000
1	 1.894185921704647e+000	 3.294246597987558e+000	 4.281650295216664e+000
1	 1.858340520196004e+000	 3.314599813677478e+000	 4.426127320393368e+000
1	 2.223707038538050e+000	 3.114238500568427e+000	 1.965388807367887e+000
1	 2.189423721856672e+000	 3.138435643262051e+000	 2.256518015269135e+000
1	 2.154910710880527e+000	 3.162232532112768e+000	 2.541390730979152e+000
1	 2.120174945084899e+000	 3.185626048600800e+000	 2.817269439221327e+000
1	 2.085223416183562e+000	 3.208613233004459e+000	 3.081468203900264e+000
1	 2.050063163640193e+000	 3.231191285348421e+000	 3.331356474210832e+000
1	 2.014701270165795e+000	 3.253357566201609e+000	 3.564362765448049e+000
1	 1.979144857207913e+000	 3.275109597324839e+000	 3.777978208203458e+000
1	 1.943401080437388e+000	 3.296445062168671e+000	 3.969759960025836e+000
1	 1.907477125238376e+000	 3.317361806222094e+000	 4.137334474028627e+000
1	 1.871380202207249e+000	 3.337857837212958e+000	 4.278400619343175e+000
1	 2.239201716011941e+000	 3.135938355948102e+000	 1.908420424590601e+000
1	 2.204679514924937e+000	 3.160304103100417e+000	 2.185366373999135e+000
1	 2.169926019045013e+000	 3.184266807461372e+000	 2.456837310078734e+000
1	 2.134948216201357e+000	 3.207823328781521e+000	 2.720193888377804e+000
1	 2.099753146825645e+000	 3.230970686716001e+000	 2.972845331714258e+000
1	 2.064347899432174e+000	 3.253706061779425e+000	 3.212253127843121e+000
1	 2.028739606083914e+000	 3.276026796149310e+000	 3.435934607869389e+000
1	 1.992935437850286e+000	 3.297930394318246e+000	 3.641466399235874e+000
1	 1.956942600262478e+000	 3.319414523595212e+000	 3.826487747490949e+000
1	 1.920768328772035e+000	 3.340477014456691e+000	 3.988703701429216e+000
1	 1.884419884218392e+000	 3.361115860748503e+000	 4.125888156597749e+000
1	 2.254696393485963e+000	 3.157638211327462e+000	 1.851621414164100e+000
1	 2.219935307993310e+000	 3.182172562938527e+000	 2.114368101599512e+000
1	 2.184941327209573e+000	 3.206301082809782e+000	 2.372227452067062e+000
1	 2.149721487317849e+000	 3.230020608962104e+000	 2.622695012215060e+000
1	 2.114282877467717e+000	 3.253328140427467e+000	 2.863311461366694e+000
1	 2.078632635224096e+000	 3.276220838210407e+000	 3.091666138842919e+000
1	 2.042777942001923e+000	 3.298696026097038e+000	 3.305400459524776e+000
1	 2.006726018492501e+000	 3.320751191311723e+000	 3.502211211741849e+000
1	 1.970484120087366e+000	 3.342383985021857e+000	 3.679853731926233e+000
1	 1.934059532305448e+000	 3.363592222691413e+000	 3.836144950838135e+000
1	 1.897459566229250e+000	 3.384373884284181e+000	 3.968966306545382e+000
1	 2.270191070960018e+000	 3.179338066706392e+000	 1.795157478191325e+000
1	 2.235191101061679e+000	 3.204041022776280e+000	 2.043731023185894e+000
1	 2.199956635374086e+000	 3.228335358157914e+000	 2.287808072129919e+000
1	 2.164494758434245e+000	 3.252217889142498e+000	 2.525055067390507e+000
1	 2.128812608109640e+000	 3.275685594138827e+000	 2.753179733216737e+000
1	 2.092917371015812e+000	 3.298735614641365e+000	 2.969934371486237e+000
1	 2.056816277919669e+000	 3.321365256044816e+000	 3.173119054620762e+000
1	 2.020516599134396e+000	 3.343571988305311e+000	 3.360584710125545e+000
1	 1.984025639911877e+000	 3.365353446448660e+000	 3.530236091533806e+000
1	 1.947350735838436e+000	 3.386707430926326e+000	 3.680034630875756e+000
1	 1.910499248239641e+000	 3.407631907820056e+000	 3.808001168140411e+000
1	 2.285685748434003e+000	 3.201037922084772e+000	 1.739189825592910e+000
1	 2.250446894129934e+000	 3.225909482613576e+000	 1.973657328482958e+000
1	 2.214971943538431e+000	 3.250369633505693e+000	 2.203819390094771e+000
1	 2.179268029550415e+000	 3.274415169322649e+000	 2.427548656883013e+000
1	 2.143342338751272e+000	 3.298043047850051e+000	 2.642754796501806e+000
1	 2.107202106807173e+000	 3.321250391072290e+000	 2.847387501397082e+000
1	 2.070854613836993e+000	 3.344034485992657e+000	 3.039439399918349e+000
1	 2.034307179775804e+000	 3.366392785299043e+000	 3.216948869883717e+000
1	 1.997567159735842e+000	 3.388322907875671e+000	 3.378002749826554e+000
1	 1.960641939370820e+000	 3.409822639161488e+000	 3.520738943457352e+000
1	 1.923538930249378e+000	 3.430889931356199e+000	 3.643348913189294e+000
1	 1.793142110144684e+000	 3.198309695998757e+000	 5.079034940949724e+000
1	 1.758400732415532e+000	 3.217541103571808e+000	 5.202749561085195e+000
1	 1.723507538249754e+000	 3.236366160359109e+000	 5.298782690297669e+000
1	 1.688469482271451e+000	 3.254783426736442e+000	 5.367415497448630e+000
1	 1.653293526122406e+000	 3.272791617828106e+000	 5.408946638598198e+000
1	 1.617986634272130e+000	 3.290389603006430e+000	 5.423691090453985e+000
1	 1.582555769867112e+000	 3.307576405259167e+000	 5.411978982135680e+000
1	 1.547007890623957e+000	 3.324351200427108e+000	 5.374154427757945e+000
1	 1.511349944770983e+000	 3.340713316314455e+000	 5.310574362281179e+000
1	 1.475588867042669e+000	 3.356662231674654e+000	 5.221607383019527e+000
1	 1.439731574731233e+000	 3.372197575074528e+000	 5.107632599130469e+000
1	 1.806181792153683e+000	 3.221567719534899e+000	 4.961268608380407e+000
1	 1.771187776044501e+000	 3.240938977395473e+000	 5.084053919388301e+000
1	 1.736040839493528e+000	 3.259900929498167e+000	 5.179041510495956e+000
1	 1.700747987698722e+000	 3.278452125749841e+000	 5.246474322277732e+000
1	 1.665316232926751e+000	 3.296591271931205e+000	 5.286611925296715e+000
1	 1.629752590292575e+000	 3.314317229192684e+000	 5.299729422499565e+000
1	 1.594064073578511e+000	 3.331629013417208e+000	 5.286116350533442e+000
1	 1.558257691097505e+000	 3.348525794452300e+000	 5.246075582338425e+000
1	 1.522340441605221e+000	 3.365006895213961e+000	 5.179922233316908e+000
1	 1.486319310265352e+000	 3.381071790665133e+000	 5.087982573322865e+000
1	 1.450201264672494e+000	 3.396720106671581e+000	 4.970592946650921e+000
1	 1.819221474163497e+000	 3.244825743070775e+000	 4.836667244571055e+000
1	 1.783974819674280e+000	 3.264336851218890e+000	 4.958265414629369e+000
1	 1.748574140738111e+000	 3.283435698637018e+000	 5.052077686634201e+000
1	 1.713026493126799e+000	 3.302120824763097e+000	 5.118283927739725e+000
1	 1.677338939731900e+000	 3.320390926034239e+000	 5.157080485192157e+000
1	 1.641518546313823e+000	 3.338244855378957e+000	 5.168679192431585e+000
1	 1.605572377290710e+000	 3.355681621575360e+000	 5.153306372917708e+000
1	 1.569507491571854e+000	 3.372700388477689e+000	 5.111201843841826e+000
1	 1.533330938440259e+000	 3.389300474113742e+000	 5.042617921842376e+000
1	 1.497049753488834e+000	 3.405481349655952e+000	 4.947818432789040e+000
1	 1.460670954614553e+000	 3.421242638269016e+000	 4.827077727645393e+000
1	 1.832261156173944e+000	 3.268083766606454e+000	 4.705664368864221e+000
1	 1.796761863304684e+000	 3.287734725042119e+000	 4.825803975891313e+000
1	 1.761107441983310e+000	 3.306970467775714e+000	 4.918305757725097e+000
1	 1.725304998555488e+000	 3.325789523776247e+000	 4.983262171546206e+000
1	 1.689361646537656e+000	 3.344190580137224e+000	 5.020782700816201e+000
1	 1.653284502335674e+000	 3.362172481565244e+000	 5.030992999463261e+000
1	 1.617080681003512e+000	 3.379734229733591e+000	 5.014034030808746e+000
1	 1.580757292046804e+000	 3.396874982503220e+000	 4.970061203164933e+000
1	 1.544321435275896e+000	 3.413594053013718e+000	 4.899243504000369e+000
1	 1.507780196712916e+000	 3.429890908647009e+000	 4.801762634529874e+000
1	 1.471140644557212e+000	 3.445765169866720e+000	 4.677812146542958e+000
1	 1.845300838184841e+000	 3.291341790142000e+000	 4.568681246872982e+000
1	 1.809548906935523e+000	 3.311132598865224e+000	 4.687077662665896e+000
1	 1.773640743228935e+000	 3.330505236914307e+000	 4.778128545544320e+000
1	 1.737583503984593e+000	 3.349458222789323e+000	 4.841815100366393e+000
1	 1.701384353343822e+000	 3.367990234240172e+000	 4.878136789635287e+000
1	 1.665050458357931e+000	 3.386100107751535e+000	 4.887110649772344e+000
1	 1.628588984716718e+000	 3.403786837891867e+000	 4.868770597382646e+000
1	 1.592007092522155e+000	 3.421049576528834e+000	 4.823166727169978e+000
1	 1.555311932111934e+000	 3.437887631913810e+000	 4.750364603141498e+000
1	 1.518510639937398e+000	 3.454300467638206e+000	 4.650444544720428e+000
1	 1.481610334500272e+000	 3.470287701464573e+000	 4.523500909358618e+000
1	 1.858340520196004e+000	 3.314599813677478e+000	 4.426127320393368e+000
1	 1.822335950566611e+000	 3.334530472688268e+000	 4.542483081288952e+000
1	 1.786174044474793e+000	 3.354040006052849e+000	 4.631937565720573e+000
1	 1.749862009413921e+000	 3.373126921802362e+000	 4.694337364208273e+000
1	 1.713407060150203e+000	 3.391789888343100e+000	 4.729549230852351e+000
1	 1.676816414380397e+000	 3.410027733937825e+000	 4.737459605334833e+000
1	 1.640097288430126e+000	 3.427839446050156e+000	 4.717974118417872e+000
1	 1.603256892997709e+000	 3.445224170554476e+000	 4.671017082282694e+000
1	 1.566302428948173e+000	 3.462181210813938e+000	 4.596530967057544e+000
1	 1.529241083162080e+000	 3.478710026629442e+000	 4.494475864883527e+000
1	 1.492080024443531e+000	 3.494810233062459e+000	 4.364828942864019e+000
1	 1.871380202207249e+000	 3.337857837212958e+000	 4.278400619343176e+000
1	 1.835122994197758e+000	 3.357928346511310e+000	 4.392405783965510e+000
1	 1.798707345720694e+000	 3.377574775191389e+000	 4.480113421638980e+000
1	 1.762140514843276e+000	 3.396795620815399e+000	 4.541212613475455e+000
1	 1.725429766956601e+000	 3.415589542446022e+000	 4.575415174365065e+000
1	 1.688582370402873e+000	 3.433955360124103e+000	 4.582455413993825e+000
1	 1.651605592143540e+000	 3.451892054208428e+000	 4.562089873134448e+000
1	 1.614506693473263e+000	 3.469398764580086e+000	 4.514097036200006e+000
1	 1.577292925784412e+000	 3.486474789714023e+000	 4.438277021081939e+000
1	 1.539971526386763e+000	 3.503119585620613e+000	 4.334451247321840e+000
1	 1.502549714386791e+000	 3.519332764660260e+000	 4.202462083691375e+000
1	 1.884419884218392e+000	 3.361115860748503e+000	 4.125888156597749e+000
1	 1.847910037828777e+000	 3.381326220334415e+000	 4.237220651227916e+000
1	 1.811240646966444e+000	 3.401109544329981e+000	 4.323026181990032e+000
1	 1.774419020272465e+000	 3.420464319828468e+000	 4.382813879538829e+000
1	 1.737452473762821e+000	 3.439389196548954e+000	 4.416118832744703e+000
1	 1.700348326425160e+000	 3.457882986310363e+000	 4.422502121672681e+000
1	 1.663113895856761e+000	 3.475944662366649e+000	 4.401550815899879e+000
1	 1.625756493948620e+000	 3.493573358605611e+000	 4.352877938767457e+000
1	 1.588283422620452e+000	 3.510768368613983e+000	 4.276122398226434e+000
1	 1.550701969611245e+000	 3.527529144611625e+000	 4.170948884998150e+000
1	 1.513019404329850e+000	 3.543855296257858e+000	 4.037047738826760e+000
1	 1.897459566229250e+000	 3.384373884284181e+000	 3.968966306545382e+000
1	 1.860697081459480e+000	 3.404724094157645e+000	 4.077292258624178e+000
1	 1.823773948211853e+000	 3.424644313468674e+000	 4.161035742751365e+000
1	 1.786697525701294e+000	 3.444133018841604e+000	 4.219503939616093e+000
1	 1.749475180568665e+000	 3.463188850651911e+000	 4.252033857052511e+000
1	 1.712114282447062e+000	 3.481810612496596e+000	 4.257992667591371e+000
1	 1.674622199569589e+000	 3.499997270524787e+000	 4.236777999722323e+000
1	 1.637006294423581e+000	 3.517747952630995e+000	 4.187818183028718e+000
1	 1.599273919456093e+000	 3.535061947513741e+000	 4.110572447458601e+000
1	 1.561432412835328e+000	 3.551938703602373e+000	 4.004531077093098e+000
1	 1.523489094272510e+000	 3.568377827855136e+000	 3.869215518869428e+000
1	 1.910499248239641e+000	 3.407631907820056e+000	 3.808001168140411e+000
1	 1.873484125089679e+000	 3.428121967981062e+000	 3.912975228389703e+000
1	 1.836307249456730e+000	 3.448179082607521e+000	 3.994492174345441e+000
1	 1.798976031129568e+000	 3.467801717854845e+000	 4.051635666708915e+000
1	 1.761497887373937e+000	 3.486988504754906e+000	 4.083523697265847e+000
1	 1.723880238468380e+000	 3.505738238682794e+000	 4.089309263298102e+000
1	 1.686130503281826e+000	 3.524049878682808e+000	 4.068180982400769e+000
1	 1.648256094897945e+000	 3.541922546656179e+000	 4.019363647394377e+000
1	 1.610264416291135e+000	 3.559355526413215e+000	 3.942118721164546e+000
1	 1.572162856058811e+000	 3.576348262592755e+000	 3.835744771402454e+000
1	 1.533958784214570e+000	 3.592900359451976e+000	 3.699577845357906e+000
1	 1.923538930249378e+000	 3.430889931356199e+000	 3.643348913189293e+000
1	 1.886271168719185e+000	 3.451519841804724e+000	 3.744614566815132e+000
1	 1.848840550700881e+000	 3.471713851746570e+000	 3.823736054677191e+000
1	 1.811254536557092e+000	 3.491470416868223e+000	 3.879552365306600e+000
1	 1.773520594178441e+000	 3.510788158857956e+000	 3.910941948044286e+000
1	 1.735646194488917e+000	 3.529665864868950e+000	 3.916823756284049e+000
1	 1.697638806993271e+000	 3.548102486840682e+000	 3.896158216155665e+000
1	 1.659505895371513e+000	 3.566097140681105e+000	 3.847948119825843e+000
1	 1.621254913125377e+000	 3.583649105312324e+000	 3.771239442784545e+000
1	 1.582893299281493e+000	 3.600757821582674e+000	 3.665122084672781e+000
1	 1.544428474155829e+000	 3.617422891048259e+000	 3.528730533393865e+000
1	 1.439731574731233e+000	 3.372197575074528e+000	 5.107632599130469e+000
1	 1.403779565205173e+000	 3.387321361489601e+000	 4.960723788615265e+000
1	 1.367745085892707e+000	 3.402031155838170e+000	 4.770426958015714e+000
1	 1.331634983434178e+000	 3.416327030840312e+000	 4.533401189446345e+000
1	 1.295456071785157e+000	 3.430209203416529e+000	 4.246470115579665e+000
1	 1.259215128608840e+000	 3.443678032987045e+000	 3.906625170967257e+000
1	 1.222918891747823e+000	 3.456734019669561e+000	 3.511028508245349e+000
1	 1.186574055778320e+000	 3.469377802379238e+000	 3.057015579494094e+000
1	 1.150187268649676e+000	 3.481610156834798e+000	 2.542097383819666e+000
1	 1.113765128411843e+000	 3.493431993474643e+000	 1.963962383005671e+000
1	 1.077314180033310e+000	 3.504844355287081e+000	 1.320478087834855e+000
1	 1.450201264672494e+000	 3.396720106671581e+000	 4.970592946650921e+000
1	 1.413987813083974e+000	 3.411953872861664e+000	 4.820737521166075e+000
1	 1.377691291990982e+000	 3.426770636445832e+000	 4.629162408956572e+000
1	 1.341318597822436e+000	 3.441170470672980e+000	 4.392915583320123e+000
1	 1.304876594084804e+000	 3.455153594041044e+000	 4.109207760850898e+000
1	 1.268372107728261e+000	 3.468720368583945e+000	 3.775415052447437e+000
1	 1.231811925592805e+000	 3.481871298056221e+000	 3.389081292777578e+000
1	 1.195202790937426e+000	 3.494607026019214e+000	 2.947920049389547e+000
1	 1.158551400055167e+000	 3.506928333832645e+000	 2.449816313404472e+000
1	 1.121864398976819e+000	 3.518836138555602e+000	 1.892827874447858e+000
1	 1.085148380265702e+000	 3.530331490760976e+000	 1.275186383175534e+000
1	 1.460670954614553e+000	 3.421242638269016e+000	 4.827077727645393e+000
1	 1.424196060963574e+000	 3.436586384234133e+000	 4.674294309512268e+000
1	 1.387637498090055e+000	 3.451510117053901e+000	 4.481425609883943e+000
1	 1.351002212211490e+000	 3.466013910506030e+000	 4.245900599176515e+000
1	 1.314297116385243e+000	 3.480097984665906e+000	 3.965308845075242e+000
1	 1.277529086848464e+000	 3.493762704181139e+000	 3.637402579203676e+000
1	 1.240704959438558e+000	 3.507008576443118e+000	 3.260098456139360e+000
1	 1.203831526097284e+000	 3.519836249659356e+000	 2.831479006847236e+000
1	 1.166915531461388e+000	 3.532246510830582e+000	 2.349793789294514e+000
1	 1.129963669542497e+000	 3.544240283636570e+000	 1.813460239677233e+000
1	 1.092982580498757e+000	 3.555818626234796e+000	 1.221064228332085e+000
1	 1.471140644557212e+000	 3.445765169866720e+000	 4.677812146542958e+000
1	 1.434404308843775e+000	 3.461218895606880e+000	 4.522199622542942e+000
1	 1.397583704189727e+000	 3.476249597662238e+000	 4.328095672369228e+000
1	 1.360685826601140e+000	 3.490857350339327e+000	 4.093302592649417e+000
1	 1.323717638686275e+000	 3.505042375290976e+000	 3.815780796993739e+000
1	 1.286686065969255e+000	 3.518805039778497e+000	 3.493650314022585e+000
1	 1.249597993284889e+000	 3.532145854830123e+000	 3.125191991945830e+000
1	 1.212460261257706e+000	 3.545065473299544e+000	 2.708848412609990e+000
1	 1.175279662868157e+000	 3.557564687828503e+000	 2.243224518567260e+000
1	 1.138062940108698e+000	 3.569644428717461e+000	 1.727087957333410e+000
1	 1.100816780732308e+000	 3.581305761708479e+000	 1.159369147587895e+000
1	 1.481610334500272e+000	 3.470287701464573e+000	 4.523500909358619e+000
1	 1.444612556724376e+000	 3.485851406979773e+000	 4.365236162001669e+000
1	 1.407529910289798e+000	 3.500989078270704e+000	 4.170026859275944e+000
1	 1.370369440991190e+000	 3.515700790172728e+000	 3.936041169963946e+000
1	 1.333138160987701e+000	 3.529986765916116e+000	 3.661602569664195e+000
1	 1.295843045090437e+000	 3.543847375375882e+000	 3.345190785604846e+000
1	 1.258491027131605e+000	 3.557283133217108e+000	 2.985442462529047e+000
1	 1.221088996418505e+000	 3.570294696939667e+000	 2.581151553375527e+000
1	 1.183643794275289e+000	 3.582882864826309e+000	 2.131269439062540e+000
1	 1.146162210675251e+000	 3.595048573798191e+000	 1.634904782241217e+000
1	 1.108650980966191e+000	 3.606792897181959e+000	 1.091323120415899e+000
1	 1.492080024443531e+000	 3.494810233062459e+000	 4.364828942864018e+000
1	 1.454820804605176e+000	 3.510483918352682e+000	 4.204164661253728e+000
1	 1.417476116390070e+000	 3.525728558879165e+000	 4.008049456556971e+000
1	 1.380053055381439e+000	 3.540544230006091e+000	 3.775010126418376e+000
1	 1.342558683289326e+000	 3.554931156541184e+000	 3.503725639508077e+000
1	 1.305000024211814e+000	 3.568889710973160e+000	 3.193027542287400e+000
1	 1.267384060978512e+000	 3.582420411603950e+000	 2.841900101679474e+000
1	 1.229717731579492e+000	 3.595523920579608e+000	 2.449480188139376e+000
1	 1.192007925682604e+000	 3.608201041823901e+000	 2.015056904149425e+000
1	 1.154261481241978e+000	 3.620452718878676e+000	 1.538070963668274e+000
1	 1.116485181200240e+000	 3.632280032655170e+000	 1.018113828540005e+000
1	 1.502549714386791e+000	 3.519332764660260e+000	 4.202462083691375e+000
1	 1.465029052485976e+000	 3.535116429725480e+000	 4.039724650658967e+000
1	 1.427422322490341e+000	 3.550468039487480e+000	 3.842970608604098e+000
1	 1.389736669771686e+000	 3.565387669839278e+000	 3.611078345630209e+000
1	 1.351979205590951e+000	 3.579875547166044e+000	 3.343074963589452e+000
1	 1.314157003333191e+000	 3.593932046570194e+000	 3.038136161711848e+000
1	 1.276277094825420e+000	 3.607557689990518e+000	 2.695585871284718e+000
1	 1.238346466740479e+000	 3.620753144219251e+000	 2.314895646612096e+000
1	 1.200372057089920e+000	 3.633519218821177e+000	 1.895683817960885e+000
1	 1.162360751808704e+000	 3.645856863958831e+000	 1.437714412649884e+000
1	 1.124319381434289e+000	 3.657767168128049e+000	 9.408958508599090e-001
1	 1.513019404329850e+000	 3.543855296257858e+000	 4.037047738826760e+000
1	 1.475237300366577e+000	 3.559748941098035e+000	 3.872635191167440e+000
1	 1.437368528590413e+000	 3.575207520095515e+000	 3.675575118915060e+000
1	 1.399420284161735e+000	 3.590231109672148e+000	 3.445090661447033e+000
1	 1.361399727892379e+000	 3.604819937790553e+000	 3.180549897149327e+000
1	 1.323313982454373e+000	 3.618974382166853e+000	 2.881465218573156e+000
1	 1.285170128672135e+000	 3.632694968376689e+000	 2.547492474098190e+000
1	 1.246975201901278e+000	 3.645982367858483e+000	 2.178429882031593e+000
1	 1.208736188497052e+000	 3.658837395818033e+000	 1.774216723495102e+000
1	 1.170460022375256e+000	 3.671261009038573e+000	 1.334931820848488e+000
1	 1.132153581668172e+000	 3.683254303600529e+000	 8.607918087641542e-001
1	 1.523489094272510e+000	 3.568377827855136e+000	 3.869215518869428e+000
1	 1.485445548246778e+000	 3.584381452470216e+000	 3.703595577666700e+000
1	 1.447314734690085e+000	 3.599947000703133e+000	 3.506626217746804e+000
1	 1.409103898551387e+000	 3.615074549504561e+000	 3.277868684318254e+000
1	 1.370820250193409e+000	 3.629764328414571e+000	 3.017025073307249e+000
1	 1.332470961575163e+000	 3.644016717763000e+000	 2.723937212465023e+000
1	 1.294063162518466e+000	 3.657832246762336e+000	 2.398585324748162e+000
1	 1.255603937061700e+000	 3.671211591497186e+000	 2.041086480565027e+000
1	 1.217100319903820e+000	 3.684155572814372e+000	 1.651692845851262e+000
1	 1.178559292941457e+000	 3.696665154117818e+000	 1.230789733279184e+000
1	 1.139987781901724e+000	 3.708741439072548e+000	 7.788934642189411e-001
1	 1.533958784214570e+000	 3.592900359451976e+000	 3.699577845357907e+000
1	 1.495653796126378e+000	 3.609013963841895e+000	 3.533286013525897e+000
1	 1.457260940789158e+000	 3.624686481310193e+000	 3.336866298331866e+000
1	 1.418787512940441e+000	 3.639917989336375e+000	 3.110211593825367e+000
1	 1.380240772493848e+000	 3.654708719037964e+000	 2.853351246737539e+000
1	 1.341627940695366e+000	 3.669059053358499e+000	 2.566449457728412e+000
1	 1.302956196364219e+000	 3.682969525147330e+000	 2.249803480982410e+000
1	 1.264232672221558e+000	 3.696440815135250e+000	 1.903841629373994e+000
1	 1.225464451310041e+000	 3.709473749810092e+000	 1.529121092742843e+000
1	 1.186658563507135e+000	 3.722069299196483e+000	 1.126325577105303e+000
1	 1.147821982134778e+000	 3.734228574544038e+000	 6.962627728879213e-001
1	 1.544428474155829e+000	 3.617422891048259e+000	 3.528730533393866e+000
1	 1.505862044005179e+000	 3.633646475212943e+000	 3.362368257703429e+000
1	 1.467207146887432e+000	 3.649425961916560e+000	 3.167017623150102e+000
1	 1.428471127328698e+000	 3.664761429167448e+000	 2.942896898976982e+000
1	 1.389661294793495e+000	 3.679653109660585e+000	 2.690356103029967e+000
1	 1.350784919814787e+000	 3.694101388953216e+000	 2.409874937106574e+000
1	 1.311849230209201e+000	 3.708106803531543e+000	 2.102060537035538e+000
1	 1.272861407380663e+000	 3.721670038772552e+000	 1.767645045304489e+000
1	 1.233828582715532e+000	 3.734791926805090e+000	 1.407483014316287e+000
1	 1.194757834072111e+000	 3.747473444274481e+000	 1.022548648588769e+000
1	 1.155656182367169e+000	 3.759715710014934e+000	 6.139328944176896e-001
1	 1.077314180033310e+000	 3.504844355287081e+000	 1.320478087834855e+000
1	 1.040840911791156e+000	 3.515848414683465e+000	 6.137392324747538e-001
1	 1.004351750767449e+000	 3.526445468549742e+000	-1.513226636809676e-001
1	 9.678530616055532e-001	 3.536636938483259e+000	-9.723547788431511e-001
1	 9.313511442442004e-001	 3.546424369203119e+000	-1.846881571686540e+000
1	 8.948522312174626e-001	 3.555809426018735e+000	-2.772309892998301e+000
1	 8.583624850557751e-001	 3.564793892237349e+000	-3.745934184730111e+000
1	 8.218879957891512e-001	 3.573379666514729e+000	-4.764941754776725e+000
1	 7.854347785535484e-001	 3.581568760153285e+000	-5.826418115921459e+000
1	 7.490087713011586e-001	 3.589363294351826e+000	-6.927352377535345e+000
1	 7.126158326152123e-001	 3.596765497411133e+000	-8.064642678790257e+000
1	 1.085148380265702e+000	 3.530331490760976e+000	 1.275186383175534e+000
1	 1.048409879381463e+000	 3.541415571385863e+000	 5.992126293153147e-001
1	 1.011655370143746e+000	 3.552089686747149e+000	-1.302452465741699e-001
1	 9.748912634794350e-001	 3.562355268780023e+000	-9.109422387693186e-001
1	 9.381239051402545e-001	 3.572213873436759e+000	-1.740515244439570e+000
1	 9.013595729831019e-001	 3.581667178136880e+000	-2.616487938795324e+000
1	 8.646044743521743e-001	 3.590716979155808e+000	-3.536275736313311e+000
1	 8.278647435640271e-001	 3.599365188956308e+000	-4.497190826828706e+000
1	 7.911464394965296e-001	 3.607613833466946e+000	-5.496447275390636e+000
1	 7.544555432825080e-001	 3.615465049311848e+000	-6.531166174911841e+000
1	 7.177979561086598e-001	 3.622921080995963e+000	-7.598380840805924e+000
1	 1.092982580498757e+000	 3.555818626234796e+000	 1.221064228332085e+000
1	 1.055978846972389e+000	 3.566982728088109e+000	 5.751166027057100e-001
1	 1.018958989520610e+000	 3.577733904944332e+000	-1.196354915146317e-001
1	 9.819294653538292e-001	 3.588073599076493e+000	-8.610380123974437e-001
1	 9.448966660367625e-001	 3.598003377670048e+000	-1.646824292861087e+000
1	 9.078669147491352e-001	 3.607524930254624e+000	-2.474619687458246e+000
1	 8.708464636489087e-001	 3.616640066073833e+000	-3.341946302261169e+000
1	 8.338414913391797e-001	 3.625350711397429e+000	-4.246227797130891e+000
1	 7.968581004397326e-001	 3.633658906780143e+000	-5.184794249753880e+000
1	 7.599023152640303e-001	 3.641566804271423e+000	-6.154887070954594e+000
1	 7.229800796022363e-001	 3.649076664580380e+000	-7.153663960946454e+000
1	 1.100816780732308e+000	 3.581305761708479e+000	 1.159369147587895e+000
1	 1.063547814563778e+000	 3.592549884790160e+000	 5.427305117829728e-001
1	 1.026262608897900e+000	 3.603378123141265e+000	-1.182022852270224e-001
1	 9.889676672286073e-001	 3.613791929372667e+000	-8.213496307056829e-001
1	 9.516694269336100e-001	 3.623792881903001e+000	-1.564525596040723e+000
1	 9.143742565154635e-001	 3.633382682372006e+000	-2.345442363205955e+000
1	 8.770884529458931e-001	 3.642563152991476e+000	-3.161714729714707e+000
1	 8.398182391145391e-001	 3.651336233838164e+000	-4.010864681868395e+000
1	 8.025697613831022e-001	 3.659703980092960e+000	-4.890326026200591e+000
1	 7.653490872456817e-001	 3.667668559230635e+000	-5.797449069136967e+000
1	 7.281622030959101e-001	 3.675232248164469e+000	-6.729505335037899e+000
1	 1.108650980966191e+000	 3.606792897181959e+000	 1.091323120415899e+000
1	 1.071116782155477e+000	 3.618117041491970e+000	 5.032975536961645e-001
1	 1.033566228275475e+000	 3.629022341337930e+000	-1.246910086630687e-001
1	 9.960058691036420e-001	 3.639510259668551e+000	-7.906211572205267e-001
1	 9.584421878306849e-001	 3.649582386135648e+000	-1.492372301385336e+000
1	 9.208815982819892e-001	 3.659240434489071e+000	-2.227728883505024e+000
1	 8.833304422430449e-001	 3.668486239908799e+000	-2.994384665218427e+000
1	 8.457949868900372e-001	 3.677321756278584e+000	-3.789947076426215e+000
1	 8.082814223265827e-001	 3.685749053405477e+000	-4.611941617325684e+000
1	 7.707958592274194e-001	 3.693770314189572e+000	-5.457816304075186e+000
1	 7.333443265896487e-001	 3.701387831748314e+000	-6.324946148794875e+000
1	 1.116485181200240e+000	 3.632280032655170e+000	 1.018113828540005e+000
1	 1.078685749747331e+000	 3.643684198193497e+000	 4.580260323208166e-001
1	 1.040869847653191e+000	 3.654666559534302e+000	-1.378822566307342e-001
1	 1.003044070978804e+000	 3.665228589964141e+000	-7.676319063011703e-001
1	 9.652149487278728e-001	 3.675371890368006e+000	-1.429152552173955e+000
1	 9.273889400486129e-001	 3.685098186605857e+000	-2.120286606800625e+000
1	 8.895724315402804e-001	 3.694409326825858e+000	-2.838793333810925e+000
1	 8.517717346656041e-001	 3.703307278718762e+000	-3.582352977289718e+000
1	 8.139930832701185e-001	 3.711794126717773e+000	-4.348570937543683e+000
1	 7.762426312092002e-001	 3.719872069148314e+000	-5.134981984401121e+000
1	 7.385264500834193e-001	 3.727543415331994e+000	-5.939054499325835e+000
1	 1.124319381434289e+000	 3.657767168128049e+000	 9.408958508599090e-001
1	 1.086254717339184e+000	 3.669251354894696e+000	 4.080905739316140e-001
1	 1.048173467030906e+000	 3.680310777730361e+000	-1.565906109525212e-001
1	 1.010082272853967e+000	 3.690946920259438e+000	-7.511952150099358e-001
1	 9.719877096250612e-001	 3.701161394600097e+000	-1.373688268310761e+000
1	 9.338962818152367e-001	 3.710955938722407e+000	-2.021956132601708e+000
1	 8.958144208375152e-001	 3.720332413742715e+000	-2.693810369158766e+000
1	 8.577484824411712e-001	 3.729292801158767e+000	-3.386991653198507e+000
1	 8.197047442136543e-001	 3.737839200029931e+000	-4.099173726477322e+000
1	 7.816894031909809e-001	 3.745973824106949e+000	-4.827967379830991e+000
1	 7.437085735771903e-001	 3.753698998915595e+000	-5.570924457546826e+000
1	 1.132153581668172e+000	 3.683254303600529e+000	 8.607918087641542e-001
1	 1.093823684930883e+000	 3.694818511595525e+000	 3.546332924021826e-001
1	 1.055477086408480e+000	 3.705954995926085e+000	-1.796634645604659e-001
1	 1.017120474729001e+000	 3.716665250554442e+000	-7.401572659722531e-001
1	 9.787604705221360e-001	 3.726950898831945e+000	-1.324833977699183e+000
1	 9.404036235817623e-001	 3.736813690838763e+000	-1.931610151384915e+000
1	 9.020564101346672e-001	 3.746255500659427e+000	-2.558336692261623e+000
1	 8.637252302166689e-001	 3.755278323598676e+000	-3.202802563168694e+000
1	 8.254164051571349e-001	 3.763884273342034e+000	-3.862738517045210e+000
1	 7.871361751727186e-001	 3.772075579065561e+000	-4.535820850289276e+000
1	 7.488906970709289e-001	 3.779854582499195e+000	-5.219675169522444e+000
1	 1.139987781901724e+000	 3.708741439072548e+000	 7.788934642189411e-001
1	 1.101392652522272e+000	 3.720385668295939e+000	 2.987649063601083e-001
1	 1.062780705785770e+000	 3.731599214121452e+000	-2.059798940771903e-001
1	 1.024158676603779e+000	 3.742383580849157e+000	-7.333959587740269e-001
1	 9.855332314189840e-001	 3.752740403063570e+000	-1.281475695802041e+000
1	 9.469109653480903e-001	 3.762671442954964e+000	-1.848152341920349e+000
1	 9.082983994316516e-001	 3.772178587576050e+000	-2.431303436391498e+000
1	 8.697019779920288e-001	 3.781263846038558e+000	-3.028754319127775e+000
1	 8.311280661005044e-001	 3.789929346654160e+000	-3.638281646098504e+000
1	 7.925829471543699e-001	 3.798177334024236e+000	-4.257616915065014e+000
1	 7.540728205646027e-001	 3.806010166082880e+000	-4.884449994861163e+000
1	 1.147821982134778e+000	 3.734228574544038e+000	 6.962627728879213e-001
1	 1.108961620113198e+000	 3.745952824995893e+000	 2.415658105925683e-001
1	 1.070084325162635e+000	 3.757243432316442e+000	-2.344495785667222e-001
1	 1.031196878478173e+000	 3.768101911143579e+000	-7.298198275769260e-001
1	 9.923059923154914e-001	 3.778529907294995e+000	-1.242529851085548e+000
1	 9.534183071141239e-001	 3.788529195071056e+000	-1.770516313753637e+000
1	 9.145403887283859e-001	 3.798101674492648e+000	-2.311670916057727e+000
1	 8.756787257671812e-001	 3.807249368478485e+000	-2.863843691031762e+000
1	 8.368397270437075e-001	 3.815974419966393e+000	-3.424846305573586e+000
1	 7.980297191358921e-001	 3.824279088983057e+000	-3.992455360087504e+000
1	 7.592549440581791e-001	 3.832165749666732e+000	-4.564415680394780e+000
1	 1.155656182367169e+000	 3.759715710014934e+000	 6.139328944176896e-001
1	 1.116530587703505e+000	 3.771519981695344e+000	 1.840871038737167e-001
1	 1.077387944538932e+000	 3.782887650511029e+000	-2.640117622639718e-001
1	 1.038235080352055e+000	 3.793820241437709e+000	-7.283670027588181e-001
1	 9.990787532115453e-001	 3.804319411526238e+000	-1.206942254169916e+000
1	 9.599256488797626e-001	 3.814386947187074e+000	-1.697664592701722e+000
1	 9.207823780247851e-001	 3.824024761409275e+000	-2.198427637908187e+000
1	 8.816554735420569e-001	 3.833234890918529e+000	-2.707094652448078e+000
1	 8.425513879866883e-001	 3.842019493278808e+000	-3.221501632238248e+000
1	 8.034764911172414e-001	 3.850380843942109e+000	-3.739460381512772e+000
1	 7.644370675516263e-001	 3.858321333250832e+000	-4.258761567467674e+000
1	 7.126158326152123e-001	 3.596765497411133e+000	-8.064642678790257e+000
1	 6.762671878802550e-001	 3.603776679759038e+000	-9.259171043976416e+000
1	 6.399630600582476e-001	 3.610400416447522e+000	-1.052691172916176e+001
1	 6.037090469397647e-001	 3.616639241793862e+000	-1.185669418654619e+001
1	 5.675106594965956e-001	 3.622495785572754e+000	-1.323719933191813e+001
1	 5.313733202242620e-001	 3.627972770066271e+000	-1.465697807221661e+001
1	 4.953023615887203e-001	 3.633073007093981e+000	-1.610446959985327e+001
1	 4.593030245767192e-001	 3.637799395027112e+000	-1.756801942632977e+001
1	 4.233804573491112e-001	 3.642154915790479e+000	-1.903589712908618e+001
1	 3.875397139962902e-001	 3.646142631855923e+000	-2.049631378693846e+001
1	 3.517857533948060e-001	 3.649765683230813e+000	-2.193743908090313e+001
1	 7.177979561086598e-001	 3.622921080995963e+000	-7.598380840805923e+000
1	 6.811849849902317e-001	 3.629983248476528e+000	-8.717414156396700e+000
1	 6.446168545105612e-001	 3.636655152803184e+000	-9.902158453648598e+000
1	 6.080992031672106e-001	 3.642939346722671e+000	-1.114083376522941e+001
1	 5.716375820076127e-001	 3.648838479133310e+000	-1.242151900959756e+001
1	 5.352374529595347e-001	 3.654355292113508e+000	-1.373217152021292e+001
1	 4.989041872664873e-001	 3.659492617930285e+000	-1.506064630290679e+001
1	 4.626430640275384e-001	 3.664253376031720e+000	-1.639471499309883e+001
1	 4.264592688408320e-001	 3.668640570027081e+000	-1.772208448606403e+001
1	 3.903578925499762e-001	 3.672657284658395e+000	-1.903041521499202e+001
1	 3.543439300923417e-001	 3.676306682767058e+000	-2.030733905313485e+001
1	 7.229800796022363e-001	 3.649076664580380e+000	-7.153663960946454e+000
1	 6.861027821003028e-001	 3.656189817193663e+000	-8.198854789307692e+000
1	 6.492706489629426e-001	 3.662909889158566e+000	-9.302354448987305e+000
1	 6.124893593947066e-001	 3.669239451651285e+000	-1.045194062848584e+001
1	 5.757645045186705e-001	 3.675181172693760e+000	-1.163525766461638e+001
1	 5.391015856948495e-001	 3.680737814160723e+000	-1.283983680161611e+001
1	 5.025060129443074e-001	 3.685912228766642e+000	-1.405311614634809e+001
1	 4.659831034784319e-001	 3.690707357036439e+000	-1.526246029075573e+001
1	 4.295380803326594e-001	 3.695126224263829e+000	-1.645517957434140e+001
1	 3.931760711038120e-001	 3.699171937461023e+000	-1.761854896106925e+001
1	 3.569021067900821e-001	 3.702847682303435e+000	-1.873982650673474e+001
1	 7.281622030959101e-001	 3.675232248164469e+000	-6.729505335037899e+000
1	 6.910205792104442e-001	 3.682396385910518e+000	-7.702616482173080e+000
1	 6.539244434153744e-001	 3.689164625513728e+000	-8.726780570032240e+000
1	 6.168795156222396e-001	 3.695539556579746e+000	-9.789496368567388e+000
1	 5.798914270297595e-001	 3.701523866254122e+000	-1.087813740084000e+001
1	 5.429657184301957e-001	 3.707120336207917e+000	-1.197997266357138e+001
1	 5.061078386221670e-001	 3.712331839603033e+000	-1.308218701816580e+001
1	 4.693231429293811e-001	 3.717161338041240e+000	-1.417190122316652e+001
1	 4.326168918245668e-001	 3.721611878500689e+000	-1.523619158078021e+001
1	 3.959942496577603e-001	 3.725686590263770e+000	-1.626210917179949e+001
1	 3.594602834879763e-001	 3.729388681839912e+000	-1.723669865495722e+001
1	 7.333443265896487e-001	 3.701387831748314e+000	-6.324946148794875e+000
1	 6.959383763206329e-001	 3.708602954627166e+000	-7.227847548230900e+000
1	 6.585782378678403e-001	 3.715419361868731e+000	-8.174737998781856e+000
1	 6.212696718497973e-001	 3.721839661508097e+000	-9.152997230885996e+000
1	 5.840183495408687e-001	 3.727866559814423e+000	-1.014988817706391e+001
1	 5.468298511655628e-001	 3.733502858255094e+000	-1.115257788863694e+001
1	 5.097096643000534e-001	 3.738751450439450e+000	-1.214815810367802e+001
1	 4.726631823803677e-001	 3.743615319046093e+000	-1.312366543727010e+001
1	 4.356957033165275e-001	 3.748097532737622e+000	-1.406610116686605e+001
1	 3.988124282117837e-001	 3.752201243066594e+000	-1.496245058727709e+001
1	 3.620184601859728e-001	 3.755929681376454e+000	-1.579970191156053e+001
1	 7.385264500834193e-001	 3.727543415331994e+000	-5.939054499325834e+000
1	 7.008561734308454e-001	 3.734809523343683e+000	-6.773720205325152e+000
1	 6.632320323203229e-001	 3.741674098223633e+000	-7.645547531216541e+000
1	 6.256598280773676e-001	 3.748139766436377e+000	-8.541953599918918e+000
1	 5.881452720519882e-001	 3.754209253374685e+000	-9.450247531429220e+000
1	 5.506939839009403e-001	 3.759885380302257e+000	-1.035765129354120e+001
1	 5.133114899779528e-001	 3.765171061275875e+000	-1.125132019085837e+001
1	 4.760032218313728e-001	 3.770069300050974e+000	-1.211836296360796e+001
1	 4.387745148085148e-001	 3.774583186974590e+000	-1.294586146949802e+001
1	 4.016306067658446e-001	 3.778715895869458e+000	-1.372088992360868e+001
1	 3.645766368840204e-001	 3.782470680913030e+000	-1.443053367306671e+001
1	 7.437085735771903e-001	 3.753698998915595e+000	-5.570924457546826e+000
1	 7.057739705410575e-001	 3.761016092060141e+000	-6.339429743075261e+000
1	 6.678858267728055e-001	 3.767928834578494e+000	-7.138548893952369e+000
1	 6.300499843049376e-001	 3.774439871364630e+000	-7.955889506606931e+000
1	 5.922721945631075e-001	 3.780551946934928e+000	-8.778960317359939e+000
1	 5.545581166363180e-001	 3.786267902349411e+000	-9.595191727991891e+000
1	 5.169133156558523e-001	 3.791590672112294e+000	-1.039195596289697e+001
1	 4.793432612823781e-001	 3.796523281055854e+000	-1.115658683007474e+001
1	 4.418533263005021e-001	 3.801068841211559e+000	-1.187639905993846e+001
1	 4.044487853199053e-001	 3.805230548672323e+000	-1.253870719765901e+001
1	 3.671348135820682e-001	 3.809011680449607e+000	-1.313084402650993e+001
1	 7.488906970709289e-001	 3.779854582499195e+000	-5.219675169522444e+000
1	 7.106917676512464e-001	 3.787222660776613e+000	-5.924193724623197e+000
1	 6.725396212252711e-001	 3.794183570933372e+000	-6.653100089266066e+000
1	 6.344401405324956e-001	 3.800739976292896e+000	-7.394342156204634e+000
1	 5.963991170742168e-001	 3.806894640495176e+000	-8.135778450463597e+000
1	 5.584222493716851e-001	 3.812650424396559e+000	-8.865198073534939e+000
1	 5.205151413337386e-001	 3.818010282948694e+000	-9.570340278615021e+000
1	 4.826833007333645e-001	 3.822977262060701e+000	-1.023891365018679e+001
1	 4.449321377924628e-001	 3.827554495448490e+000	-1.085861486294826e+001
1	 4.072669638739285e-001	 3.831745201475147e+000	-1.141714699679567e+001
1	 3.696929902800646e-001	 3.835552679986150e+000	-1.190223738628124e+001
1	 7.540728205646027e-001	 3.806010166082880e+000	-4.884449994861163e+000
1	 7.156095647613880e-001	 3.813429229493175e+000	-5.527251221295321e+000
1	 6.771934156777034e-001	 3.820438307288330e+000	-6.188576767126764e+000
1	 6.388302967600286e-001	 3.827040081221221e+000	-6.856861475599069e+000
1	 6.005260395853054e-001	 3.833237334055454e+000	-7.520460665868108e+000
1	 5.622863821070316e-001	 3.839032946443703e+000	-8.167669242459995e+000
1	 5.241169670115983e-001	 3.844429893785061e+000	-8.786740441316720e+000
1	 4.860233401843138e-001	 3.849431243065490e+000	-9.365904187094779e+000
1	 4.480109492843702e-001	 3.854040149685346e+000	-9.893385038023375e+000
1	 4.100851424278769e-001	 3.858259854277893e+000	-1.035741969627827e+001
1	 3.722511669779586e-001	 3.862093679522626e+000	-1.074627406348154e+001
1	 7.592549440581791e-001	 3.832165749666732e+000	-4.564415680394780e+000
1	 7.205273618714591e-001	 3.839635798209898e+000	-5.147862078605661e+000
1	 6.818472101300850e-001	 3.846693043643424e+000	-5.744371622943997e+000
1	 6.432204529875243e-001	 3.853340186149642e+000	-6.343009679166040e+000
1	 6.046529620963635e-001	 3.859580027615782e+000	-6.932772285495815e+000
1	 5.661505148423461e-001	 3.865415468490847e+000	-7.502604176751084e+000
1	 5.277187926894182e-001	 3.870849504621382e+000	-8.041416456631454e+000
1	 4.893633796352074e-001	 3.875885224070195e+000	-8.538103894498974e+000
1	 4.510897607761977e-001	 3.880525803922092e+000	-8.981561824543430e+000
1	 4.129033209817128e-001	 3.884774507080522e+000	-9.360702626793401e+000
1	 3.748093436756991e-001	 3.888634679059003e+000	-9.664471771006879e+000
1	 7.644370675516263e-001	 3.858321333250832e+000	-4.258761567467674e+000
1	 7.254451589814354e-001	 3.865842366926856e+000	-4.785306212114192e+000
1	 6.865010045823983e-001	 3.872947779998714e+000	-5.319893819811794e+000
1	 6.476106092149704e-001	 3.879640291078204e+000	-5.852360852285321e+000
1	 6.087798846073803e-001	 3.885922721176180e+000	-6.372484994803788e+000
1	 5.700146475776188e-001	 3.891797990537994e+000	-6.870001847079792e+000
1	 5.313206183671851e-001	 3.897269115457639e+000	-7.334621279868469e+000
1	 4.927034190860264e-001	 3.902339205074782e+000	-7.756043435563287e+000
1	 4.541685722679184e-001	 3.907011458158686e+000	-8.123974352544487e+000
1	 4.157214995353986e-001	 3.911289159882991e+000	-8.428141194501432e+000
1	 3.773675203732346e-001	 3.915175678595245e+000	-8.658307067415823e+000
1	 3.517857533948060e-001	 3.649765683230813e+000	-2.193743908090313e+001
1	 3.161181078051911e-001	 3.653027746903922e+000	-2.336947216578113e+001
1	 2.805469763476744e-001	 3.655931540248671e+000	-2.480476142153835e+001
1	 2.450771001425687e-001	 3.658480420160160e+000	-2.623528746855481e+001
1	 2.097131192376733e-001	 3.660677809123401e+000	-2.765299328486154e+001
1	 1.744595719637188e-001	 3.662527192196826e+000	-2.904979429921932e+001
1	 1.393208943850408e-001	 3.664032114011716e+000	-3.041758827708965e+001
1	 1.043014198436543e-001	 3.665196175790536e+000	-3.174826498863566e+001
1	 6.940537859482046e-002	 3.666023032386947e+000	-3.303371564870308e+001
1	 3.463689753212482e-002	 3.666516389350228e+000	-3.426584211953693e+001
1	 0.000000000000000e+000	 3.666680000016666e+000	-3.543656586778965e+001
1	 3.543439300923417e-001	 3.676306682767058e+000	-2.030733905313485e+001
1	 3.184169103270729e-001	 3.679592468080790e+000	-2.156247184644916e+001
1	 2.825871065421273e-001	 3.682517377733703e+000	-2.280707400857568e+001
1	 2.468592943351135e-001	 3.685084793032176e+000	-2.403177085568169e+001
1	 2.112381474961305e-001	 3.687298161349476e+000	-2.522715990427177e+001
1	 1.757282373585245e-001	 3.689160993087311e+000	-2.638382302979814e+001
1	 1.403340322455686e-001	 3.690676858653458e+000	-2.749233834128475e+001
1	 1.050598970112213e-001	 3.691849385458404e+000	-2.854329175983587e+001
1	 6.991009267304291e-002	 3.692682254933840e+000	-2.952728828992674e+001
1	 3.488877613527512e-002	 3.693179199575722e+000	-3.043496297338874e+001
1	 0.000000000000000e+000	 3.693344000014533e+000	-3.125699151700604e+001
1	 3.569021067900821e-001	 3.702847682303435e+000	-1.873982650673474e+001
1	 3.207157128492248e-001	 3.706157189257729e+000	-1.982802968132043e+001
1	 2.846272367369185e-001	 3.709103215218714e+000	-2.089333449359636e+001
1	 2.486414885280597e-001	 3.711689165904061e+000	-2.192520558724472e+001
1	 2.127631757550383e-001	 3.713918513575290e+000	-2.291308879959064e+001
1	 1.769969027538079e-001	 3.715794793977405e+000	-2.384642511592069e+001
1	 1.413471701065711e-001	 3.717321603294685e+000	-2.471466427194910e+001
1	 1.058183741792213e-001	 3.718502595125647e+000	-2.550727799122791e+001
1	 7.041480675161065e-002	 3.719341477480015e+000	-2.621377284551139e+001
1	 3.514065473862889e-002	 3.719842009800439e+000	-2.682370272728536e+001
1	 0.000000000000000e+000	 3.720008000011599e+000	-2.732668092485412e+001
1	 3.594602834879763e-001	 3.729388681839912e+000	-1.723669865495722e+001
1	 3.230145153715792e-001	 3.732721910434722e+000	-1.816837825589735e+001
1	 2.866673669319635e-001	 3.735689052703709e+000	-1.906625669115010e+001
1	 2.504236827213069e-001	 3.738293538775842e+000	-1.991882823367070e+001
1	 2.142882040142840e-001	 3.740538865800908e+000	-2.071457650929384e+001
1	 1.782655681494497e-001	 3.742428594867207e+000	-2.144198998034170e+001
1	 1.423603079679294e-001	 3.743966347935524e+000	-2.208957701841960e+001
1	 1.065768513475461e-001	 3.745155804792419e+000	-2.264588055231049e+001
1	 7.091952083043732e-002	 3.746000700025650e+000	-2.309949227825665e+001
1	 3.539253334213530e-002	 3.746504820024575e+000	-2.343906642127570e+001
1	 0.000000000000000e+000	 3.746672000008066e+000	-2.365333303749339e+001
1	 3.620184601859728e-001	 3.755929681376454e+000	-1.579970191156053e+001
1	 3.253133178940685e-001	 3.759286631611750e+000	-1.658568705008338e+001
1	 2.887074971271778e-001	 3.762274890188694e+000	-1.732847770791004e+001
1	 2.522058769147549e-001	 3.764897911647556e+000	-1.801578388144705e+001
1	 2.158132322737550e-001	 3.767159218026397e+000	-1.863531226002598e+001
1	 1.795342335453303e-001	 3.769062395756812e+000	-1.917478297569197e+001
1	 1.433734458295250e-001	 3.770611092576106e+000	-1.962194589202047e+001
1	 1.073353285160875e-001	 3.771809014458875e+000	-1.996459641717818e+001
1	 7.142423490943663e-002	 3.772659922570928e+000	-2.019059082795731e+001
1	 3.564441194574342e-002	 3.773167630248318e+000	-2.028786109300405e+001
1	 0.000000000000000e+000	 3.773336000004134e+000	-2.024442918492629e+001
1	 3.645766368840204e-001	 3.782470680913030e+000	-1.443053367306671e+001
1	 3.276121204166254e-001	 3.785851352788797e+000	-1.508206465219335e+001
1	 2.907476273224767e-001	 3.788860727673674e+000	-1.568256063390833e+001
1	 2.539880711083032e-001	 3.791502284519237e+000	-1.621912934276335e+001
1	 2.173382605333388e-001	 3.793779570251820e+000	-1.667888173155102e+001
1	 1.808028989413304e-001	 3.795696196646321e+000	-1.704894973738007e+001
1	 1.443865836912393e-001	 3.797255837216559e+000	-1.731650353532046e+001
1	 1.080938056847371e-001	 3.798462224125175e+000	-1.746876827432476e+001
1	 7.192894898852230e-002	 3.799319145116026e+000	-1.749304028175820e+001
1	 3.589629054940242e-002	 3.799830440471868e+000	-1.737670272446768e+001
1	 0.000000000000000e+000	 3.800000000000001e+000	-1.710724071588918e+001
1	 3.671348135820682e-001	 3.809011680449607e+000	-1.313084402650993e+001
1	 3.299109229391823e-001	 3.812416073965843e+000	-1.365956088040075e+001
1	 2.927877575177755e-001	 3.815446565158654e+000	-1.413099712125686e+001
1	 2.557702653018515e-001	 3.818106657390918e+000	-1.453183623096552e+001
1	 2.188632887929225e-001	 3.820399922477242e+000	-1.484877066429910e+001
1	 1.820715643373305e-001	 3.822329997535829e+000	-1.506852035450967e+001
1	 1.453997215529536e-001	 3.823900581857012e+000	-1.517785068363709e+001
1	 1.088522828533867e-001	 3.825115433791474e+000	-1.516358990191373e+001
1	 7.243366306760793e-002	 3.825978367661123e+000	-1.501264598236009e+001
1	 3.614816915306143e-002	 3.826493250695419e+000	-1.471202289834663e+001
1	 0.000000000000000e+000	 3.826663999995868e+000	-1.424883631354632e+001
1	 3.696929902800646e-001	 3.835552679986150e+000	-1.190223738628124e+001
1	 3.322097254616717e-001	 3.838980795142871e+000	-1.232016881610612e+001
1	 2.948278877129898e-001	 3.842032402643637e+000	-1.267620985580372e+001
1	 2.575524594952994e-001	 3.844711030262633e+000	-1.295679390832158e+001
1	 2.203883170523936e-001	 3.847020274702731e+000	-1.314836831713371e+001
1	 1.833402297332110e-001	 3.848963798425434e+000	-1.323741336762685e+001
1	 1.464128594145492e-001	 3.850545326497594e+000	-1.321046072885075e+001
1	 1.096107600219280e-001	 3.851768643457931e+000	-1.305411131987620e+001
1	 7.293837714660725e-002	 3.852637590206400e+000	-1.275505258677450e+001
1	 3.640004775666957e-002	 3.853156060919164e+000	-1.230007517797339e+001
1	 0.000000000000000e+000	 3.853327999991935e+000	-1.167608900744818e+001
1	 3.722511669779586e-001	 3.862093679522626e+000	-1.074627406348154e+001
1	 3.345085279840260e-001	 3.865545516319864e+000	-1.106582675346340e+001
1	 2.968680179080347e-001	 3.868618240128633e+000	-1.132055492687593e+001
1	 2.593346536885468e-001	 3.871315403134416e+000	-1.149681231224241e+001
1	 2.219133453116393e-001	 3.873640626928348e+000	-1.158097078254445e+001
1	 1.846088951288528e-001	 3.875597599315237e+000	-1.155943960162797e+001
1	 1.474259972759075e-001	 3.877190071138433e+000	-1.141868409503877e+001
1	 1.103692371902528e-001	 3.878421853124702e+000	-1.114524372957198e+001
1	 7.344309122543394e-002	 3.879296812752036e+000	-1.072574958762758e+001
1	 3.665192636017595e-002	 3.879818871143298e+000	-1.014694122423725e+001
1	 0.000000000000000e+000	 3.879991999988402e+000	-9.395682896365440e+000
1	 3.748093436756991e-001	 3.888634679059003e+000	-9.664471771006880e+000
1	 3.368073305061778e-001	 3.892110237496803e+000	-9.898420069069868e+000
1	 2.989081481028261e-001	 3.895204077613644e+000	-1.006632409997676e+001
1	 2.611168478814930e-001	 3.897919776006299e+000	-1.015462466576363e+001
1	 2.234383735705471e-001	 3.900260979154164e+000	-1.014978416607695e+001
1	 1.858775605241363e-001	 3.902231400205331e+000	-1.003830584170377e+001
1	 1.484391351369099e-001	 3.903834815779660e+000	-9.806752434919945e+000
1	 1.111277143582529e-001	 3.905075062791944e+000	-9.441764251163441e+000
1	 7.394780530400166e-002	 3.905956035298211e+000	-8.930076608357421e+000
1	 3.690380496352973e-002	 3.906481681368015e+000	-8.258536661991011e+000
1	 0.000000000000000e+000	 3.906655999985469e+000	-7.414119595812019e+000
1	 3.773675203732346e-001	 3.915175678595245e+000	-8.658307067415823e+000
1	 3.391061330280596e-001	 3.918674958673670e+000	-8.819783015608188e+000
1	 3.009482782972789e-001	 3.921789915098675e+000	-8.915746997043852e+000
1	 2.628990420740376e-001	 3.924524148878315e+000	-8.932890077781632e+000
1	 2.249634018290041e-001	 3.926881331380236e+000	-8.857927636443044e+000
1	 1.871462259189420e-001	 3.928865201095816e+000	-8.677618359767957e+000
1	 1.494522729974377e-001	 3.930479560421402e+000	-8.378782655613037e+000
1	 1.118861915258198e-001	 3.931728272459813e+000	-7.948320468301440e+000
1	 7.445251938222409e-002	 3.932615257845103e+000	-7.373228483034661e+000
1	 3.715568356668002e-002	 3.933144491593509e+000	-6.640616707848015e+000
1	 0.000000000000000e+000	 3.933319999983334e+000	-5.737724423321634e+000
1	 3.933319999983334e+000	 0.000000000000000e+000	 1.429264835877568e+001
1	 3.933144491593509e+000	 3.715568356668014e-002	 1.362168129701962e+001
1	 3.932615257845103e+000	 7.445251938222434e-002	 1.292519283715846e+001
1	 3.931728272459812e+000	 1.118861915258195e-001	 1.220985109505562e+001
1	 3.930479560421403e+000	 1.494522729974376e-001	 1.148218058893107e+001
1	 3.928865201095816e+000	 1.871462259189419e-001	 1.074854971193616e+001
1	 3.926881331380236e+000	 2.249634018290042e-001	 1.001515809127996e+001
1	 3.924524148878316e+000	 2.628990420740378e-001	 9.288023853292748e+000
1	 3.921789915098675e+000	 3.009482782972785e-001	 8.572970814715697e+000
1	 3.918674958673671e+000	 3.391061330280594e-001	 7.875615621393138e+000
1	 3.915175678595246e+000	 3.773675203732345e-001	 7.201354856407698e+000
1	 3.959987999982150e+000	 0.000000000000000e+000	 1.259855594619758e+001
1	 3.959811301641444e+000	 3.740759995516202e-002	 1.203174549588721e+001
1	 3.959278479676159e+000	 7.495730917472705e-002	 1.143826419475571e+001
1	 3.958385480509717e+000	 1.126447824758346e-001	 1.082443677707292e+001
1	 3.957128302175166e+000	 1.504655628432892e-001	 1.019645054822911e+001
1	 3.955502997456446e+000	 1.884150816320309e-001	 9.560343390448114e+000
1	 3.953505677058800e+000	 2.264886588640513e-001	 8.921991659188837e+000
1	 3.951132512805530e+000	 2.646815036219777e-001	 8.287097988795422e+000
1	 3.948379740858182e+000	 3.029887145414693e-001	 7.661179026826463e+000
1	 3.945243664957141e+000	 3.414052804044880e-001	 7.049553117343863e+000
1	 3.941720659679418e+000	 3.799260808354097e-001	 6.457327954273286e+000
1	 3.986655999981866e+000	 0.000000000000000e+000	 1.103091330066163e+001
1	 3.986478111690256e+000	 3.765951634344035e-002	 1.055845054736110e+001
1	 3.985941701508023e+000	 7.546209896688422e-002	 1.005859358107965e+001
1	 3.985042688560327e+000	 1.134033734254160e-001	 9.537311428793887e+000
1	 3.983777043929509e+000	 1.514788526886650e-001	 9.000441224554272e+000
1	 3.982140793817519e+000	 1.896839373446401e-001	 8.453676760046291e+000
1	 3.980130022737659e+000	 2.280139158986443e-001	 7.902556931342597e+000
1	 3.977740876732896e+000	 2.664639651695105e-001	 7.352454099602966e+000
1	 3.974969566617713e+000	 3.050291507853134e-001	 6.808562384307817e+000
1	 3.971812371240533e+000	 3.437044277806347e-001	 6.275885908426301e+000
1	 3.968265640763441e+000	 3.824846412973638e-001	 5.759227015712667e+000
1	 4.013323999982382e+000	 0.000000000000000e+000	 9.586267995624578e+000
1	 4.013144921739844e+000	 3.791143273156598e-002	 9.198703108994652e+000
1	 4.012604923340605e+000	 7.596688875878213e-002	 8.783437053340894e+000
1	 4.011699896611567e+000	 1.141619643746716e-001	 8.346071156106355e+000
1	 4.010425785684371e+000	 1.524921425336828e-001	 7.892079765254207e+000
1	 4.008778590178979e+000	 1.909527930568868e-001	 7.426799356318896e+000
1	 4.006754368416777e+000	 2.295391729328923e-001	 6.955417542504716e+000
1	 4.004349240660397e+000	 2.682464267167314e-001	 6.482962004802545e+000
1	 4.001559392377266e+000	 3.070695870288871e-001	 6.014289359884200e+000
1	 3.998381077523853e+000	 3.460035751565556e-001	 5.554073984307936e+000
1	 3.994810621847332e+000	 3.850432017591319e-001	 5.106796814322223e+000
1	 4.039991999983599e+000	 0.000000000000000e+000	 8.261258762469824e+000
1	 4.039811731790116e+000	 3.816334911958979e-002	 7.949491515002745e+000
1	 4.039268145173817e+000	 7.647167855050699e-002	 7.610123119855167e+000
1	 4.038357104663356e+000	 1.149205553237095e-001	 7.248375537350986e+000
1	 4.037074527439683e+000	 1.535054323784602e-001	 6.869348049304276e+000
1	 4.035416386540783e+000	 1.922216487688887e-001	 6.478006934137224e+000
1	 4.033378714096124e+000	 2.310644299669047e-001	 6.079175053242007e+000
1	 4.030957604588014e+000	 2.700288882637349e-001	 5.677521364789484e+000
1	 4.028149218136838e+000	 3.091100232722672e-001	 5.277550381933798e+000
1	 4.024949783807112e+000	 3.483027225323063e-001	 4.883591593093057e+000
1	 4.021355602931107e+000	 3.876017622207494e-001	 4.499788862697473e+000
1	 4.066659999985416e+000	 0.000000000000000e+000	 7.052612501566838e+000
1	 4.066478541840970e+000	 3.841526550756264e-002	 6.807883098199048e+000
1	 4.065931367007566e+000	 7.697646834214497e-002	 6.536050364473964e+000
1	 4.065014312715617e+000	 1.156791462726372e-001	 6.241945542149455e+000
1	 4.063723269195385e+000	 1.545187222231149e-001	 5.930280892735222e+000
1	 4.062054182902881e+000	 1.934905044807632e-001	 5.605639952191002e+000
1	 4.060003059775669e+000	 2.325896870007906e-001	 5.272467706391733e+000
1	 4.057565968515734e+000	 2.718113498106163e-001	 4.935060702813395e+000
1	 4.054739043896424e+000	 3.111504595155297e-001	 4.597557114593982e+000
1	 4.051518490090317e+000	 3.506018699079425e-001	 4.263926773809438e+000
1	 4.047900584014782e+000	 3.901603226822512e-001	 3.937961191471192e+000
1	 4.093327999987731e+000	 0.000000000000000e+000	 5.957141410168214e+000
1	 4.093145351892312e+000	 3.866718189553542e-002	 5.771021616618672e+000
1	 4.092594588841764e+000	 7.748125813378227e-002	 5.558685163876008e+000
1	 4.091671520768268e+000	 1.164377372215629e-001	 5.324561531585486e+000
1	 4.090372010951406e+000	 1.555320120677646e-001	 5.072964324210656e+000
1	 4.088691979265223e+000	 1.947593601926277e-001	 4.808082116763490e+000
1	 4.086627405455375e+000	 2.341149440346594e-001	 4.533969232138285e+000
1	 4.084174332443538e+000	 2.735938113574702e-001	 4.254536464772197e+000
1	 4.081328869656023e+000	 3.131908957587514e-001	 3.973541766007724e+000
1	 4.078087196373478e+000	 3.529010172835201e-001	 3.694580907169633e+000
1	 4.074445565098373e+000	 3.927188831436725e-001	 3.421078136988756e+000
1	 4.119995999990449e+000	 0.000000000000000e+000	 4.971740221850553e+000
1	 4.119812161944040e+000	 3.891909828355897e-002	 4.836124780082939e+000
1	 4.119257810676322e+000	 7.798604792550518e-002	 4.675559493512279e+000
1	 4.118328728821235e+000	 1.171963281705942e-001	 4.494061336052931e+000
1	 4.117020752707688e+000	 1.565453019125268e-001	 4.295533927575836e+000
1	 4.115329775627761e+000	 1.960282159045999e-001	 4.083758982061790e+000
1	 4.113251751135212e+000	 2.356402010686202e-001	 3.862387699497046e+000
1	 4.110782696371409e+000	 2.753762729043918e-001	 3.634932115520706e+000
1	 4.107918695415634e+000	 3.152313320020084e-001	 3.404756423435357e+000
1	 4.104655902656603e+000	 3.552001646590953e-001	 3.175068283779553e+000
1	 4.100990546181900e+000	 3.952774436050482e-001	 2.948910137229580e+000
1	 4.146663999993465e+000	 0.000000000000000e+000	 4.093383552477478e+000
1	 4.146478971996062e+000	 3.917101467168417e-002	 4.000481872207131e+000
1	 4.145921032511151e+000	 7.849083771739990e-002	 3.884268818213325e+000
1	 4.144985936874439e+000	 1.179549191198392e-001	 3.748338407274105e+000
1	 4.143669494464162e+000	 1.575585917575192e-001	 3.596173248362649e+000
1	 4.141967571990445e+000	 1.972970716167970e-001	 3.431136604556376e+000
1	 4.139876096815146e+000	 2.371654581027823e-001	 3.256464412116267e+000
1	 4.137391060299331e+000	 2.771587344514758e-001	 3.075257270050159e+000
1	 4.134508521175254e+000	 3.172717682453773e-001	 2.890472414022621e+000
1	 4.131224608939702e+000	 3.574993120347234e-001	 2.704915689008520e+000
1	 4.127535527265377e+000	 3.978360040664135e-001	 2.521233535603365e+000
1	 4.173331999996682e+000	 0.000000000000000e+000	 3.319123347920185e+000
1	 4.173145782048277e+000	 3.942293105996187e-002	 3.261451463581797e+000
1	 4.172584254346157e+000	 7.899562750955259e-002	 3.182470063672032e+000
1	 4.171643144927797e+000	 1.187135100694056e-001	 3.085340041170936e+000
1	 4.170318236220768e+000	 1.585718816028597e-001	 2.973112261390336e+000
1	 4.168605368353229e+000	 1.985659273293367e-001	 2.848720248914124e+000
1	 4.166500442495146e+000	 2.386907151372550e-001	 2.714972846414488e+000
1	 4.163999424227287e+000	 2.789411959988172e-001	 2.574546857978890e+000
1	 4.161098346934876e+000	 3.193122044889346e-001	 2.429979690077133e+000
1	 4.157793315222783e+000	 3.597984594104604e-001	 2.283662003775793e+000
1	 4.154080508348820e+000	 4.003945645278036e-001	 2.137830392268922e+000
1	 4.200000000000001e+000	 0.000000000000000e+000	 2.646086429012529e+000
1	 4.199812592100591e+000	 3.967484744844298e-002	 2.616459212075488e+000
1	 4.199247476181254e+000	 7.950041730204951e-002	 2.567879665207072e+000
1	 4.198300352981237e+000	 1.194721010194014e-001	 2.503065668439570e+000
1	 4.196966977977437e+000	 1.595851714486656e-001	 2.424625896746062e+000
1	 4.195243164716060e+000	 1.998347830423366e-001	 2.335053143231540e+000
1	 4.193124788175180e+000	 2.402159721721477e-001	 2.236717630171803e+000
1	 4.190607788155260e+000	 2.807236575465109e-001	 2.131860319873338e+000
1	 4.187688172694504e+000	 3.213526407327567e-001	 2.022586237764119e+000
1	 4.184362021505856e+000	 3.620976067863622e-001	 1.910857820545859e+000
1	 4.180625489432249e+000	 4.029531249892535e-001	 1.798488302641197e+000
1	 3.915175678595246e+000	 3.773675203732345e-001	 7.201354856407696e+000
1	 3.911289159882991e+000	 4.157214995353987e-001	 6.533642936301599e+000
1	 3.907011458158685e+000	 4.541685722679180e-001	 5.855202799202383e+000
1	 3.902339205074782e+000	 4.927034190860264e-001	 5.170379340804958e+000
1	 3.897269115457639e+000	 5.313206183671849e-001	 4.483405233875528e+000
1	 3.891797990537994e+000	 5.700146475776188e-001	 3.798392469128620e+000
1	 3.885922721176181e+000	 6.087798846073804e-001	 3.119323883324917e+000
1	 3.879640291078204e+000	 6.476106092149703e-001	 2.450044690446851e+000
1	 3.872947779998714e+000	 6.865010045823983e-001	 1.794254032300378e+000
1	 3.865842366926857e+000	 7.254451589814351e-001	 1.155496565351463e+000
1	 3.858321333250832e+000	 7.644370675516264e-001	 5.371541010369021e-001
1	 3.941720659679418e+000	 3.799260808354097e-001	 6.457327954273286e+000
1	 3.937807790280955e+000	 4.185401008579659e-001	 5.868917601506245e+000
1	 3.933501085640565e+000	 4.572478456274203e-001	 5.267973979344285e+000
1	 3.928797154573237e+000	 4.960439595927763e-001	 4.658489081707831e+000
1	 3.923692689631787e+000	 5.349229843727675e-001	 4.044357506683887e+000
1	 3.918184470359235e+000	 5.738793599907123e-001	 3.429368795605244e+000
1	 3.912269366535888e+000	 6.129074262186267e-001	 2.817199754264804e+000
1	 3.905944341417220e+000	 6.520014240316406e-001	 2.211406770466871e+000
1	 3.899206454958562e+000	 6.911554971736033e-001	 1.615418142570320e+000
1	 3.892052867022555e+000	 7.303636938346295e-001	 1.032526434107199e+000
1	 3.884480840565159e+000	 7.696199684411721e-001	 4.658808699601328e-001
1	 3.968265640763441e+000	 3.824846412973638e-001	 5.759227015712668e+000
1	 3.964326420678744e+000	 4.213587021803618e-001	 5.243980498954989e+000
1	 3.959990713122277e+000	 4.603271189867886e-001	 4.714766576741454e+000
1	 3.955255104071564e+000	 4.993845000994172e-001	 4.175236819133262e+000
1	 3.950116263805866e+000	 5.385253503782557e-001	 3.628959044354956e+000
1	 3.944570950180483e+000	 5.777440724037150e-001	 3.079410415038585e+000
1	 3.938616011895684e+000	 6.170349678297757e-001	 2.529970512400773e+000
1	 3.932248391756403e+000	 6.563922388481975e-001	 1.983914400998626e+000
1	 3.925465129918650e+000	 6.958099897646696e-001	 1.444405697129031e+000
1	 3.918263367118544e+000	 7.352822286876528e-001	 9.144896543312214e-001
1	 3.910640347879802e+000	 7.748028693305062e-001	 3.970862798242325e-001
1	 3.994810621847332e+000	 3.850432017591319e-001	 5.106796814322222e+000
1	 3.990845051076375e+000	 4.241773035026022e-001	 4.658845560781558e+000
1	 3.986480340603841e+000	 4.634063923460213e-001	 4.195838803300851e+000
1	 3.981713053569776e+000	 5.027250406059335e-001	 3.721099920975442e+000
1	 3.976539837979888e+000	 5.421277163836207e-001	 3.237881018814776e+000
1	 3.970957430001741e+000	 5.816087848165876e-001	 2.749356740660262e+000
1	 3.964962657255564e+000	 6.211625094407804e-001	 2.258618056707070e+000
1	 3.958552442095746e+000	 6.607830536645895e-001	 1.768666036820890e+000
1	 3.951723804878960e+000	 7.004644823555440e-001	 1.282405621223519e+000
1	 3.944473867214805e+000	 7.402007635404504e-001	 8.026394004854401e-001
1	 3.936799855194743e+000	 7.799857702195772e-001	 3.320614171060797e-001
1	 4.021355602931107e+000	 3.876017622207494e-001	 4.499788862697474e+000
1	 4.017363681473869e+000	 4.269959048247033e-001	 4.113526351254327e+000
1	 4.012969968085275e+000	 4.664856657051180e-001	 3.711442053098487e+000
1	 4.008171003067891e+000	 5.060655811123093e-001	 3.296543150700503e+000
1	 4.002963412153861e+000	 5.457300823888341e-001	 2.871776880357685e+000
1	 3.997343909823011e+000	 5.854734972292921e-001	 2.440025021824827e+000
1	 3.991309302615524e+000	 6.252900510515952e-001	 2.004098360085660e+000
1	 3.984856492435233e+000	 6.651738684807650e-001	 1.566731129099173e+000
1	 3.977982479839473e+000	 7.051189749461716e-001	 1.130575447703983e+000
1	 3.970684367311317e+000	 7.451192983929695e-001	 6.981957581972270e-001
1	 3.962959362509964e+000	 7.851686711083349e-001	 2.720632784184870e-001
1	 4.047900584014782e+000	 3.901603226822512e-001	 3.937961191471193e+000
1	 4.043882311871244e+000	 4.298145061466807e-001	 3.608036078838152e+000
1	 4.039459595566599e+000	 4.695649390640772e-001	 3.261821125926427e+000
1	 4.034628952565923e+000	 5.094061216185286e-001	 2.902019080628085e+000
1	 4.029386986327793e+000	 5.493324483938677e-001	 2.531282938713571e+000
1	 4.023730389644293e+000	 5.893382096417900e-001	 2.152211070731938e+000
1	 4.017655947975552e+000	 6.294175926621729e-001	 1.767342319445281e+000
1	 4.011160542774849e+000	 6.695646832966722e-001	 1.379151076372834e+000
1	 4.004241154800173e+000	 7.097734675364990e-001	 9.900423463357115e-001
1	 3.996894867408061e+000	 7.500378332451562e-001	 6.023468091956449e-001
1	 3.989118869825450e+000	 7.903515719967292e-001	 2.183158882683538e-001
1	 4.074445565098373e+000	 3.927188831436725e-001	 3.421078136988756e+000
1	 4.070400942268521e+000	 4.326331074685511e-001	 3.142387607784805e+000
1	 4.065949223047831e+000	 4.726442124228984e-001	 2.847214442101570e+000
1	 4.061086902063884e+000	 5.127466621245758e-001	 2.537968489057412e+000
1	 4.055810560501691e+000	 5.529348143986932e-001	 2.217018921401079e+000
1	 4.050116869465589e+000	 5.932029220540418e-001	 1.886689960740813e+000
1	 4.044002593335647e+000	 6.335451342724678e-001	 1.549256572550979e+000
1	 4.037464593114587e+000	 6.739554981122600e-001	 1.206940138368490e+000
1	 4.030499829761044e+000	 7.144279601264721e-001	 8.619041128754572e-001
1	 4.023105367505020e+000	 7.549563680969565e-001	 5.162496738369029e-001
1	 4.015278377141184e+000	 7.955344728847097e-001	 1.720113731216210e-001
1	 4.100990546181900e+000	 3.952774436050482e-001	 2.948910137229580e+000
1	 4.096919572665721e+000	 4.354517087903299e-001	 2.716593469273343e+000
1	 4.092438850528989e+000	 4.757234857815803e-001	 2.467854248931598e+000
1	 4.087544851561791e+000	 5.160872026304351e-001	 2.204820741970393e+000
1	 4.082234134675567e+000	 5.565371804032819e-001	 1.929588510396160e+000
1	 4.076503349286900e+000	 5.970676344660097e-001	 1.644216697564353e+000
1	 4.070349238695803e+000	 6.376726758824337e-001	 1.350724283149707e+000
1	 4.063768643454428e+000	 6.783463129274764e-001	 1.051086314323395e+000
1	 4.056758504722066e+000	 7.190824527160370e-001	 7.472301197351596e-001
1	 4.049315867602173e+000	 7.598749029483172e-001	 4.410315131417137e-001
1	 4.041437884457146e+000	 8.007173737722259e-001	 1.343109937551019e-001
1	 4.127535527265377e+000	 3.978360040664135e-001	 2.521233535603365e+000
1	 4.123438203062861e+000	 4.382703101120334e-001	 2.330665872120460e+000
1	 4.118928478010090e+000	 4.788027591401218e-001	 2.123966819214390e+000
1	 4.114002801059660e+000	 5.194277431360904e-001	 1.902994160005821e+000
1	 4.108657708849427e+000	 5.601395464076056e-001	 1.669579858092156e+000
1	 4.102889829108228e+000	 6.009323468776551e-001	 1.425526864563872e+000
1	 4.096695884056011e+000	 6.418002174920235e-001	 1.172605895800223e+000
1	 4.090072693794363e+000	 6.827371277422706e-001	 9.125521874170609e-001
1	 4.083017179683222e+000	 7.237369453051398e-001	 6.470622299620256e-001
1	 4.075526367699502e+000	 7.647934377991846e-001	 3.777904921668368e-001
1	 4.067597391773322e+000	 8.059002746592269e-001	 1.063461377724723e-001
1	 4.154080508348820e+000	 4.003945645278036e-001	 2.137830392268922e+000
1	 4.149956833459963e+000	 4.410889114336775e-001	 1.984616713080332e+000
1	 4.145418105491158e+000	 4.818820324985224e-001	 1.815772642126529e+000
1	 4.140460750557502e+000	 5.227682836415259e-001	 1.632896371363564e+000
1	 4.135081283023280e+000	 5.637419124116356e-001	 1.437566083477578e+000
1	 4.129276308929573e+000	 6.047970592889388e-001	 1.231337243302710e+000
1	 4.123042529416265e+000	 6.459277591011916e-001	 1.015739861762230e+000
1	 4.116376744134380e+000	 6.871279425565907e-001	 7.922757368267216e-001
1	 4.109275854644496e+000	 7.283914378937263e-001	 5.624156761762958e-001
1	 4.101736867796986e+000	 7.697119726495050e-001	 3.275967064402489e-001
1	 4.093756899089693e+000	 8.110831755456631e-001	 8.921927406690779e-002
1	 4.180625489432249e+000	 4.029531249892535e-001	 1.798488302641197e+000
1	 4.176475463857044e+000	 4.439075127552786e-001	 1.678457586751987e+000
1	 4.171907732972210e+000	 4.849613058567809e-001	 1.543486606839634e+000
1	 4.166918700055335e+000	 5.261088241467261e-001	 1.394924651264131e+000
1	 4.161504857197135e+000	 5.673442784153436e-001	 1.234105749411020e+000
1	 4.155662788750936e+000	 6.086617716998225e-001	 1.062346410458668e+000
1	 4.149389174776560e+000	 6.500553007098914e-001	 8.809433372313213e-001
1	 4.142680794474464e+000	 6.915187573703855e-001	 6.911711188458003e-001
1	 4.135534529605870e+000	 7.330459304817428e-001	 4.942799060239019e-001
1	 4.127947367894608e+000	 7.746305074992249e-001	 2.914930731018230e-001
1	 4.119916406406245e+000	 8.162660764314833e-001	 8.400487092116481e-002
1	 3.858321333250832e+000	 7.644370675516264e-001	 5.371541010369020e-001
1	 3.850380843942109e+000	 8.034764911172418e-001	-6.871026485953932e-002
1	 3.842019493278809e+000	 8.425513879866889e-001	-6.707914447097030e-001
1	 3.833234890918528e+000	 8.816554735420564e-001	-1.267275152302087e+000
1	 3.824024761409275e+000	 9.207823780247851e-001	-1.856389671957702e+000
1	 3.814386947187075e+000	 9.599256488797630e-001	-2.436408729308317e+000
1	 3.804319411526238e+000	 9.990787532115453e-001	-3.005654341862873e+000
1	 3.793820241437710e+000	 1.038235080352055e+000	-3.562499643423179e+000
1	 3.782887650511028e+000	 1.077387944538931e+000	-4.105371676321199e+000
1	 3.771519981695345e+000	 1.116530587703505e+000	-4.632754145373846e+000
1	 3.759715710014934e+000	 1.155656182367169e+000	-5.143190127390432e+000
1	 3.884480840565159e+000	 7.696199684411721e-001	 4.658808699601332e-001
1	 3.876486514556274e+000	 8.089240801958826e-001	-9.144850664327639e-002
1	 3.868068473743194e+000	 8.482639057642207e-001	-6.470567615066760e-001
1	 3.859224311576942e+000	 8.876331179184213e-001	-1.199176001065774e+000
1	 3.849951737177909e+000	 9.270253037128126e-001	-1.746068033775920e+000
1	 3.840248578353792e+000	 9.664339668438116e-001	-2.286026956744935e+000
1	 3.830112784569850e+000	 1.005852530122790e+000	-2.817381737904207e+000
1	 3.819542429866924e+000	 1.045274338061189e+000	-3.338498788699953e+000
1	 3.808535715722648e+000	 1.084692659567023e+000	-3.847784522179847e+000
1	 3.797090973851327e+000	 1.124100690751761e+000	-4.343687891257669e+000
1	 3.785206668937873e+000	 1.163491557846334e+000	-4.824702901857446e+000
1	 3.910640347879802e+000	 7.748028693305062e-001	 3.970862798242324e-001
1	 3.902592185170744e+000	 8.143716692742634e-001	-1.138112401746709e-001
1	 3.894117454207847e+000	 8.539764235414398e-001	-6.247859287195982e-001
1	 3.885213732235560e+000	 8.936107622944155e-001	-1.134122126075202e+000
1	 3.875878712946665e+000	 9.332682294004112e-001	-1.640122522536674e+000
1	 3.866110209520530e+000	 9.729422848073702e-001	-2.141110482625512e+000
1	 3.855906157613377e+000	 1.012626307033486e+000	-2.635432378553342e+000
1	 3.845264618295935e+000	 1.052313595769716e+000	-3.121459928763321e+000
1	 3.834183780933947e+000	 1.091997374594454e+000	-3.597592537241734e+000
1	 3.822661966006884e+000	 1.131670793799310e+000	-4.062259629183234e+000
1	 3.810697627860288e+000	 1.171326933324751e+000	-4.513922978494926e+000
1	 3.936799855194743e+000	 7.799857702195772e-001	 3.320614171060795e-001
1	 3.928697855785512e+000	 8.198192583523399e-001	-1.344947973489025e-001
1	 3.920166434672769e+000	 8.596889413183102e-001	-6.026869459154935e-001
1	 3.911203152894398e+000	 8.995884066700153e-001	-1.070857406696730e+000
1	 3.901805688715572e+000	 9.395111550875679e-001	-1.537357051677715e+000
1	 3.891971840687339e+000	 9.794506027704418e-001	-2.000547329889502e+000
1	 3.881699530656881e+000	 1.019400083943650e+000	-2.458802371569322e+000
1	 3.870986806724833e+000	 1.059352853477671e+000	-2.910511109865988e+000
1	 3.859831846145038e+000	 1.099302089621277e+000	-3.354079416512152e+000
1	 3.848232958162134e+000	 1.139240896846218e+000	-3.787932247764965e+000
1	 3.836188586782309e+000	 1.179162308802503e+000	-4.210515796802446e+000
1	 3.962959362509964e+000	 7.851686711083349e-001	 2.720632784184868e-001
1	 3.954803526400566e+000	 8.252668474300684e-001	-1.522299321312147e-001
1	 3.946215415137962e+000	 8.654014590947966e-001	-5.795019266584264e-001
1	 3.937192573553473e+000	 9.055660510451958e-001	-1.008158888923286e+000
1	 3.927732664484666e+000	 9.457540807742725e-001	-1.436607116123272e+000
1	 3.917833471854273e+000	 9.859589207330297e-001	-1.863254882134466e+000
1	 3.907492903700438e+000	 1.026173860853301e+000	-2.286514331496490e+000
1	 3.896708995153702e+000	 1.066392111185088e+000	-2.704803401340222e+000
1	 3.885479911356018e+000	 1.106606804647541e+000	-3.116547768324148e+000
1	 3.873803950317198e+000	 1.146810999892552e+000	-3.520182817514682e+000
1	 3.861679545704069e+000	 1.186997684279673e+000	-3.914155630020481e+000
1	 3.989118869825450e+000	 7.903515719967292e-001	 2.183158882683541e-001
1	 3.980909197015897e+000	 8.307144365074038e-001	-1.657806919061068e-001
1	 3.972264395603426e+000	 8.711139768708636e-001	-5.540059799601259e-001
1	 3.963181994212799e+000	 9.115436954199335e-001	-9.448356978880055e-001
1	 3.953659640253977e+000	 9.519970064605123e-001	-1.336738756771980e+000
1	 3.943695103021376e+000	 9.924672386951351e-001	-1.728178920922004e+000
1	 3.933286276744112e+000	 1.032947637762458e+000	-2.117616510544660e+000
1	 3.922431183582630e+000	 1.073431368892000e+000	-2.503510140703899e+000
1	 3.911127976566998e+000	 1.113911519673297e+000	-2.884318494197582e+000
1	 3.899374942472197e+000	 1.154381102938380e+000	-3.258502125837249e+000
1	 3.887170504625702e+000	 1.194833059756341e+000	-3.624525295484812e+000
1	 4.015278377141184e+000	 7.955344728847097e-001	 1.720113731216218e-001
1	 4.007014867631494e+000	 8.361620255843024e-001	-1.739433329455889e-001
1	 3.998313376069162e+000	 8.768264946464753e-001	-5.250061354544512e-001
1	 3.989171414872387e+000	 9.175213397942025e-001	-8.797279928874050e-001
1	 3.979586616023536e+000	 9.582399321462761e-001	-1.236647565463122e+000
1	 3.969556734188702e+000	 9.989755566567616e-001	-1.594292700715286e+000
1	 3.959079649787975e+000	 1.039721414671136e+000	-1.951181963443435e+000
1	 3.948153372011706e+000	 1.080470626598443e+000	-2.305826208275324e+000
1	 3.936776041778080e+000	 1.121216234698595e+000	-2.656730192939219e+000
1	 3.924945934627249e+000	 1.161951205983767e+000	-3.002394230203536e+000
1	 3.912661463547339e+000	 1.202668435232591e+000	-3.341315876302720e+000
1	 4.041437884457146e+000	 8.007173737722259e-001	 1.343109937551019e-001
1	 4.033120538247349e+000	 8.416096146607200e-001	-1.755452779972035e-001
1	 4.024362356535170e+000	 8.825390124215965e-001	-4.913403103151068e-001
1	 4.015160835532259e+000	 9.234989841679794e-001	-8.117059629885310e-001
1	 4.005513591793375e+000	 9.644828578315521e-001	-1.135257728586742e+000
1	 3.995418365356301e+000	 1.005483874617912e+000	-1.460596059743050e+000
1	 3.984873022832094e+000	 1.046495191579357e+000	-1.786307744730577e+000
1	 3.973875560441019e+000	 1.087509884304450e+000	-2.110967329959737e+000
1	 3.962424106989368e+000	 1.128520949723485e+000	-2.433138587886096e+000
1	 3.950516926782475e+000	 1.169521309028779e+000	-2.751376028676500e+000
1	 3.938152422469113e+000	 1.210503810708505e+000	-3.064226453839044e+000
1	 4.067597391773322e+000	 8.059002746592269e-001	 1.063461377724723e-001
1	 4.059226208863447e+000	 8.470572037366113e-001	-1.694441140959027e-001
1	 4.050411337001455e+000	 8.882515301961920e-001	-4.518763160367368e-001
1	 4.041150256192424e+000	 9.294766285412385e-001	-7.396688613925372e-001
1	 4.031440567563525e+000	 9.707257835163288e-001	-1.031521107598295e+000
1	 4.021279996524220e+000	 1.011992192578588e+000	-1.326114565173040e+000
1	 4.010666395876541e+000	 1.053268968487136e+000	-1.622114137015282e+000
1	 3.999597748870652e+000	 1.094549142010055e+000	-1.918169406939349e+000
1	 3.988072172200968e+000	 1.135825664748018e+000	-2.212915976249575e+000
1	 3.976087918937997e+000	 1.177091412073484e+000	-2.504976847009676e+000
1	 3.963643381391156e+000	 1.218339186184163e+000	-2.792963850524152e+000
1	 4.093756899089693e+000	 8.110831755456631e-001	 8.921927406690779e-002
1	 4.085331879479782e+000	 8.525047928119331e-001	-1.545266288002561e-001
1	 4.076460317468012e+000	 8.939640479702253e-001	-4.055109032969603e-001
1	 4.067139676852903e+000	 9.354542729139562e-001	-6.625440768214848e-001
1	 4.057367543334021e+000	 9.769687092005943e-001	-9.244163547867921e-001
1	 4.047141627692514e+000	 1.018500510538794e+000	-1.189898691059862e+000
1	 4.036459768921380e+000	 1.060042745394492e+000	-1.457743908829835e+000
1	 4.025319937300696e+000	 1.101588399715292e+000	-1.726687871063511e+000
1	 4.013720237412985e+000	 1.143130379772244e+000	-1.995450699571986e+000
1	 4.001658911093933e+000	 1.184661515117947e+000	-2.262738041576381e+000
1	 3.989134340313600e+000	 1.226174561659649e+000	-2.527242382523472e+000
1	 4.119916406406245e+000	 8.162660764314833e-001	 8.400487092116467e-002
1	 4.111437550096344e+000	 8.579523818866409e-001	-1.297078831454173e-001
1	 4.102509297934843e+000	 8.996765657436617e-001	-3.511688432061216e-001
1	 4.093129097513706e+000	 9.414319172861080e-001	-5.792862402826270e-001
1	 4.083294519104891e+000	 9.832116348843372e-001	-8.129480627297224e-001
1	 4.073003258861229e+000	 1.025008828498531e+000	-1.051023027610713e+000
1	 4.062253141966685e+000	 1.066816522301443e+000	-1.292361600755234e+000
1	 4.051042125731239e+000	 1.108627657420195e+000	-1.535797064796577e+000
1	 4.039368302625527e+000	 1.150435094796214e+000	-1.780146634357655e+000
1	 4.027229903250404e+000	 1.192231618162235e+000	-2.024212617426270e+000
1	 4.014625299236578e+000	 1.234009937135045e+000	-2.266783621829118e+000
1	 3.759715710014934e+000	 1.155656182367169e+000	-5.143190127390432e+000
1	 3.747473444274480e+000	 1.194757834072111e+000	-5.633132846879517e+000
1	 3.734791926805089e+000	 1.233828582715533e+000	-6.099621452716082e+000
1	 3.721670038772552e+000	 1.272861407380663e+000	-6.542243464164329e+000
1	 3.708106803531545e+000	 1.311849230209201e+000	-6.960747854136019e+000
1	 3.694101388953216e+000	 1.350784919814787e+000	-7.355047632355609e+000
1	 3.679653109660587e+000	 1.389661294793495e+000	-7.725222191595306e+000
1	 3.664761429167448e+000	 1.428471127328699e+000	-8.071519407453646e+000
1	 3.649425961916560e+000	 1.467207146887431e+000	-8.394357482542528e+000
1	 3.633646475212943e+000	 1.505862044005179e+000	-8.694326526374789e+000
1	 3.617422891048259e+000	 1.544428474155829e+000	-8.972189862709247e+000
1	 3.785206668937873e+000	 1.163491557846334e+000	-4.824702901857446e+000
1	 3.772881400354629e+000	 1.202858319648345e+000	-5.287866765465306e+000
1	 3.760113901905669e+000	 1.242193968865346e+000	-5.730749736805420e+000
1	 3.746903047171049e+000	 1.281491436978598e+000	-6.152791659176573e+000
1	 3.733247852883756e+000	 1.320743598141761e+000	-6.553582623665077e+000
1	 3.719147481273076e+000	 1.359943272617522e+000	-6.932865621905160e+000
1	 3.704601242315142e+000	 1.399083230311878e+000	-7.290538981725139e+000
1	 3.689608595886351e+000	 1.438156194403447e+000	-7.626658576380466e+000
1	 3.674169153815358e+000	 1.477154845064890e+000	-7.941439798421906e+000
1	 3.658282681829496e+000	 1.516071823273362e+000	-8.235259289630710e+000
1	 3.641949101391516e+000	 1.554899734706702e+000	-8.508656418869519e+000
1	 3.810697627860288e+000	 1.171326933324751e+000	-4.513922978494926e+000
1	 3.798289356434169e+000	 1.210958805223801e+000	-4.950242231677114e+000
1	 3.785435877005572e+000	 1.250559355014358e+000	-5.369355699557660e+000
1	 3.772136055568818e+000	 1.290121466575712e+000	-5.770570514967403e+000
1	 3.758388902235206e+000	 1.329637966073492e+000	-6.153331696562923e+000
1	 3.744193573592157e+000	 1.369101625419422e+000	-6.517224832042527e+000
1	 3.729549374968920e+000	 1.408505165829424e+000	-6.861978565482050e+000
1	 3.714455762604491e+000	 1.447841261477359e+000	-7.187466879825412e+000
1	 3.698912345713430e+000	 1.487102543241513e+000	-7.493711165866757e+000
1	 3.682918888445374e+000	 1.526281602540710e+000	-7.780882069398007e+000
1	 3.666475311734168e+000	 1.565370995256741e+000	-8.049301108563894e+000
1	 3.836188586782309e+000	 1.179162308802503e+000	-4.210515796802446e+000
1	 3.823697312513242e+000	 1.219059290798574e+000	-4.620129721327397e+000
1	 3.810757852104945e+000	 1.258924741162679e+000	-5.015496427571219e+000
1	 3.797369063966007e+000	 1.298751496172132e+000	-5.395805050721622e+000
1	 3.783529951586039e+000	 1.338532334004527e+000	-5.760369107822866e+000
1	 3.769239665910597e+000	 1.378259978220629e+000	-6.108629172741423e+000
1	 3.754497507622050e+000	 1.417927101346283e+000	-6.440155377892617e+000
1	 3.739302929321989e+000	 1.457526328550590e+000	-6.754649734201626e+000
1	 3.723655537610877e+000	 1.497050241417461e+000	-7.051948261028375e+000
1	 3.707555095060664e+000	 1.536491381807390e+000	-7.332022918074081e+000
1	 3.691001522076283e+000	 1.575842255806114e+000	-7.594983331604620e+000
1	 3.861679545704069e+000	 1.186997684279673e+000	-3.914155630020481e+000
1	 3.849105268591986e+000	 1.227159776372762e+000	-4.297403130187911e+000
1	 3.836079827203931e+000	 1.267290127310417e+000	-4.669227500130064e+000
1	 3.822602072362763e+000	 1.307381525767979e+000	-5.028714344215310e+000
1	 3.808671000936400e+000	 1.347426701935000e+000	-5.375059016413919e+000
1	 3.794285758228536e+000	 1.387418331021288e+000	-5.707569248730404e+000
1	 3.779445640274659e+000	 1.427349036862606e+000	-6.025667630433277e+000
1	 3.764150096038960e+000	 1.467211395623299e+000	-6.328893930098318e+000
1	 3.748398729507805e+000	 1.506997939592899e+000	-6.616907252690995e+000
1	 3.732191301675452e+000	 1.546701161073566e+000	-6.889488024149935e+000
1	 3.715527732417928e+000	 1.586313516354986e+000	-7.146539796199955e+000
1	 3.887170504625702e+000	 1.194833059756341e+000	-3.624525295484812e+000
1	 3.874513224670546e+000	 1.235260261946463e+000	-3.981939661854248e+000
1	 3.861401802302679e+000	 1.275655513457684e+000	-4.330603038626389e+000
1	 3.847835080759229e+000	 1.316011555363373e+000	-4.669511726625908e+000
1	 3.833812050286429e+000	 1.356321069865043e+000	-4.997756029101494e+000
1	 3.819331850546111e+000	 1.396576683821539e+000	-5.314522795753001e+000
1	 3.804393772926877e+000	 1.436770972378545e+000	-5.619097842977325e+000
1	 3.788997262755523e+000	 1.476896462695642e+000	-5.910868242994866e+000
1	 3.773141921404314e+000	 1.516945637767987e+000	-6.189324474678863e+000
1	 3.756827508289828e+000	 1.556910940339404e+000	-6.454062429096456e+000
1	 3.740053942759174e+000	 1.596784776903525e+000	-6.704785262979289e+000
1	 3.912661463547339e+000	 1.202668435232591e+000	-3.341315876302720e+000
1	 3.899921180749059e+000	 1.243360747519771e+000	-3.673619719993376e+000
1	 3.886723777401333e+000	 1.284020899604590e+000	-3.999675754051349e+000
1	 3.873068089155554e+000	 1.324641584958439e+000	-4.318404969727776e+000
1	 3.858953099636274e+000	 1.365215437794790e+000	-4.628805511610141e+000
1	 3.844377942863459e+000	 1.405735036621528e+000	-4.929955099774207e+000
1	 3.829341905578835e+000	 1.446192907894251e+000	-5.221013354948390e+000
1	 3.813844429471796e+000	 1.486581529767779e+000	-5.501224020102258e+000
1	 3.797885113300513e+000	 1.526893335942890e+000	-5.769917071979338e+000
1	 3.781463714903873e+000	 1.567120719605069e+000	-6.026510716227736e+000
1	 3.764580153100085e+000	 1.607256037451897e+000	-6.270513259934781e+000
1	 3.938152422469113e+000	 1.210503810708505e+000	-3.064226453839044e+000
1	 3.925329136827668e+000	 1.251461233092785e+000	-3.372326804776451e+000
1	 3.912045752500035e+000	 1.292386285751245e+000	-3.676496992641452e+000
1	 3.898301097551885e+000	 1.333271614553299e+000	-3.975596465816867e+000
1	 3.884094148986077e+000	 1.374109805724376e+000	-4.268543887701497e+000
1	 3.869424035180721e+000	 1.414893389421397e+000	-4.554319399906557e+000
1	 3.854290038230659e+000	 1.455614843409874e+000	-4.831966816621825e+000
1	 3.838691596187895e+000	 1.496266596839866e+000	-5.100595744413398e+000
1	 3.822628305196501e+000	 1.536841034117768e+000	-5.359383621772432e+000
1	 3.806099921517679e+000	 1.577330498870728e+000	-5.607577672810969e+000
1	 3.789106363440732e+000	 1.617727298000268e+000	-5.844496769596509e+000
1	 3.963643381391156e+000	 1.218339186184163e+000	-2.792963850524152e+000
1	 3.950737092906511e+000	 1.259561718665599e+000	-3.077947413307497e+000
1	 3.937367727598935e+000	 1.300751671897758e+000	-3.361116779763642e+000
1	 3.923534105948365e+000	 1.341901644148074e+000	-3.641283400693449e+000
1	 3.909235198335982e+000	 1.383004173653933e+000	-3.917298926711718e+000
1	 3.894470127498032e+000	 1.424051742221287e+000	-4.188057275788210e+000
1	 3.879238170882482e+000	 1.465036778925566e+000	-4.452496661468619e+000
1	 3.863538762903939e+000	 1.505951663912062e+000	-4.709601576988404e+000
1	 3.847371497092383e+000	 1.546788732292785e+000	-4.958404730496537e+000
1	 3.830736128131332e+000	 1.587540278136545e+000	-5.197988926627474e+000
1	 3.813632573781182e+000	 1.628198558548805e+000	-5.427488889691763e+000
1	 3.989134340313600e+000	 1.226174561659649e+000	-2.527242382523472e+000
1	 3.976145048985732e+000	 1.267662204238311e+000	-2.790370943870210e+000
1	 3.962689702698176e+000	 1.309117058044240e+000	-3.053583862117622e+000
1	 3.948767114345144e+000	 1.350531673742888e+000	-3.315657920011947e+000
1	 3.934376247686132e+000	 1.391898541583594e+000	-3.575390020064634e+000
1	 3.919516219815531e+000	 1.433210095021344e+000	-3.831599020108834e+000
1	 3.904186303534432e+000	 1.474458714441479e+000	-4.083127560389200e+000
1	 3.888385929620047e+000	 1.515636730984523e+000	-4.328843878447986e+000
1	 3.872114688988263e+000	 1.556736430468103e+000	-4.567643608022271e+000
1	 3.855372334744916e+000	 1.597750057402686e+000	-4.798451558127487e+000
1	 3.838158784121502e+000	 1.638669819097676e+000	-5.020223468474034e+000
1	 4.014625299236578e+000	 1.234009937135045e+000	-2.266783621829118e+000
1	 4.001553005065471e+000	 1.275762689811019e+000	-2.509489603822327e+000
1	 3.988011677797905e+000	 1.317482444190801e+000	-2.753945748330534e+000
1	 3.974000122742365e+000	 1.359161703337862e+000	-2.998907289293572e+000
1	 3.959517297036671e+000	 1.400792909513493e+000	-3.243128447250315e+000
1	 3.944562312133359e+000	 1.442368447821711e+000	-3.485363996943237e+000
1	 3.929134436186638e+000	 1.483880649957763e+000	-3.724370858642049e+000
1	 3.913233096336334e+000	 1.525321798057408e+000	-3.958909710600076e+000
1	 3.896857880884244e+000	 1.566684128643885e+000	-4.187746619952120e+000
1	 3.880008541358523e+000	 1.607959836669317e+000	-4.409654689263786e+000
1	 3.862684994461763e+000	 1.649141079647046e+000	-4.623415715847991e+000
1	 3.617422891048259e+000	 1.544428474155829e+000	-8.972189862709247e+000
1	 3.600757821582671e+000	 1.582893299281493e+000	-9.220688480562433e+000
1	 3.583649105312324e+000	 1.621254913125378e+000	-9.432349994967701e+000
1	 3.566097140681105e+000	 1.659505895371513e+000	-9.607664962523538e+000
1	 3.548102486840681e+000	 1.697638806993271e+000	-9.747173109162620e+000
1	 3.529665864868949e+000	 1.735646194488917e+000	-9.851463177118877e+000
1	 3.510788158857956e+000	 1.773520594178442e+000	-9.921172695798436e+000
1	 3.491470416868223e+000	 1.811254536557092e+000	-9.956987675861543e+000
1	 3.471713851746570e+000	 1.848840550700881e+000	-9.959642225993349e+000
1	 3.451519841804725e+000	 1.886271168719184e+000	-9.929918092015297e+000
1	 3.430889931356198e+000	 1.923538930249378e+000	-9.868644118166477e+000
1	 3.641949101391516e+000	 1.554899734706702e+000	-8.508656418869519e+000
1	 3.625171042372079e+000	 1.593625352230693e+000	-8.753326261669994e+000
1	 3.607946328612285e+000	 1.632247058698082e+000	-8.961005216904718e+000
1	 3.590275361257489e+000	 1.670757383482981e+000	-9.132345873274881e+000
1	 3.572158703250427e+000	 1.709148837121984e+000	-9.268063258380213e+000
1	 3.553597080557928e+000	 1.747413915578442e+000	-9.368934537533539e+000
1	 3.534591383266208e+000	 1.785545104568416e+000	-9.435798610488773e+000
1	 3.515142666541674e+000	 1.823534883943736e+000	-9.469555605333031e+000
1	 3.495252151454281e+000	 1.861375732127374e+000	-9.471166269026959e+000
1	 3.474921225660750e+000	 1.899060130596229e+000	-9.441651254318554e+000
1	 3.454151443945081e+000	 1.936580568406245e+000	-9.382090302999856e+000
1	 3.666475311734168e+000	 1.565370995256741e+000	-8.049301108563894e+000
1	 3.649584263160967e+000	 1.604357405179059e+000	-8.289770096051322e+000
1	 3.632243551911827e+000	 1.643239204269950e+000	-8.493363904994393e+000
1	 3.614453581833563e+000	 1.682008871593611e+000	-8.660867063326407e+000
1	 3.596214919659974e+000	 1.720658867249862e+000	-8.793138572636837e+000
1	 3.577528296246815e+000	 1.759181636667133e+000	-8.891111493950405e+000
1	 3.558394607674471e+000	 1.797569614957564e+000	-8.955792408008225e+000
1	 3.538814916215225e+000	 1.835815231329566e+000	-8.988260749207063e+000
1	 3.518790451162161e+000	 1.873910913553071e+000	-8.989668012646733e+000
1	 3.498322609516990e+000	 1.911849092472505e+000	-8.961236834032880e+000
1	 3.477412956534195e+000	 1.949622206562376e+000	-8.904259942489196e+000
1	 3.691001522076283e+000	 1.575842255806114e+000	-7.594983331604620e+000
1	 3.673997483949385e+000	 1.615089458126757e+000	-7.830892471709351e+000
1	 3.656540775210977e+000	 1.654231349841147e+000	-8.030295610915289e+000
1	 3.638631802409331e+000	 1.693260359703563e+000	-8.194079692390275e+000
1	 3.620271136069302e+000	 1.732168897377055e+000	-8.323216950687440e+000
1	 3.601459511935572e+000	 1.770949357755138e+000	-8.418764419227305e+000
1	 3.582197832082684e+000	 1.809594125346024e+000	-8.481863291419197e+000
1	 3.562487165888796e+000	 1.848095578714712e+000	-8.513738134450088e+000
1	 3.542328750870121e+000	 1.886446094978093e+000	-8.515695955112346e+000
1	 3.521723993373348e+000	 1.924638054348121e+000	-8.489125117392044e+000
1	 3.500674469123442e+000	 1.962663844717872e+000	-8.435494111899113e+000
1	 3.715527732417928e+000	 1.586313516354986e+000	-7.146539796199955e+000
1	 3.698410704737381e+000	 1.625821511073953e+000	-7.377542839461965e+000
1	 3.680837998509759e+000	 1.665223495411833e+000	-7.572646926691622e+000
1	 3.662810022984793e+000	 1.704511847812997e+000	-7.732812446145863e+000
1	 3.644327352478393e+000	 1.743678927503718e+000	-7.859094695477011e+000
1	 3.625390727624157e+000	 1.782717078842601e+000	-7.952643345286337e+000
1	 3.606001056490789e+000	 1.821618635733935e+000	-8.014701737976465e+000
1	 3.586159415562316e+000	 1.860375926099302e+000	-8.046606020767543e+000
1	 3.565867050578072e+000	 1.898981276402559e+000	-8.049784112127652e+000
1	 3.545125377229727e+000	 1.937427016223188e+000	-8.025754501265640e+000
1	 3.523935981712723e+000	 1.975705482872835e+000	-7.976124880738065e+000
1	 3.740053942759174e+000	 1.596784776903525e+000	-6.704785262979289e+000
1	 3.722823925524999e+000	 1.636553564020810e+000	-6.930548368298549e+000
1	 3.705135221808200e+000	 1.676215640982174e+000	-7.121242237507615e+000
1	 3.686988243559954e+000	 1.715763335922070e+000	-7.277872273131380e+000
1	 3.668383568887227e+000	 1.755188957630004e+000	-7.401547222236327e+000
1	 3.649321943312529e+000	 1.794484799929669e+000	-7.493478630064231e+000
1	 3.629804280898727e+000	 1.833643146121435e+000	-7.554980113119806e+000
1	 3.609831665235705e+000	 1.872656273483467e+000	-7.587466450378529e+000
1	 3.589405350285926e+000	 1.911516457826590e+000	-7.592452491703136e+000
1	 3.568526761086031e+000	 1.950215978097816e+000	-7.571551882994442e+000
1	 3.547197494301936e+000	 1.988747121027364e+000	-7.526475608044149e+000
1	 3.764580153100085e+000	 1.607256037451897e+000	-6.270513259934781e+000
1	 3.747237146312289e+000	 1.647285616967498e+000	-6.490714671209567e+000
1	 3.729432445106323e+000	 1.687207786552331e+000	-6.676884445094308e+000
1	 3.711166464134817e+000	 1.727014824030942e+000	-6.830045092830202e+000
1	 3.692439785295785e+000	 1.766698987756068e+000	-6.951329738898313e+000
1	 3.673253159000652e+000	 1.806252521016491e+000	-7.041981598391603e+000
1	 3.653607505306437e+000	 1.845667656508661e+000	-7.103353260465616e+000
1	 3.633503914908891e+000	 1.884936620867336e+000	-7.136905776299773e+000
1	 3.612943649993593e+000	 1.924051639250306e+000	-7.144207550455844e+000
1	 3.591928144942162e+000	 1.963004939972116e+000	-7.126933034987173e+000
1	 3.570459006890980e+000	 2.001788759181559e+000	-7.086861226128666e+000
1	 3.789106363440732e+000	 1.617727298000268e+000	-5.844496769596508e+000
1	 3.771650367099297e+000	 1.658017669914180e+000	-6.058826502827138e+000
1	 3.753729668404155e+000	 1.698199932122468e+000	-6.240355663022403e+000
1	 3.735344684709383e+000	 1.738266312139772e+000	-6.390096476257588e+000
1	 3.716496001704046e+000	 1.778209017882060e+000	-6.509177900089317e+000
1	 3.697184374688481e+000	 1.818020242103210e+000	-6.598845157982527e+000
1	 3.677410729713860e+000	 1.857692166895753e+000	-6.660459068885015e+000
1	 3.657176164581798e+000	 1.897216968251039e+000	-6.695495170112635e+000
1	 3.636481949700988e+000	 1.936586820673828e+000	-6.705542632188285e+000
1	 3.615329528798024e+000	 1.975793901846200e+000	-6.692302964768974e+000
1	 3.593720519479760e+000	 2.014830397335523e+000	-6.657588513299266e+000
1	 3.813632573781182e+000	 1.628198558548805e+000	-5.427488889691763e+000
1	 3.796063587886068e+000	 1.668749722861022e+000	-5.635648430145826e+000
1	 3.778026891701722e+000	 1.709192077692748e+000	-5.812417885165479e+000
1	 3.759522905283656e+000	 1.749517800248717e+000	-5.958772300285184e+000
1	 3.740552218111992e+000	 1.789719048008136e+000	-6.075808435884456e+000
1	 3.721115590375978e+000	 1.829787963189973e+000	-6.164744391654555e+000
1	 3.701213954120939e+000	 1.869716677282848e+000	-6.226919017700158e+000
1	 3.680848414254348e+000	 1.909497315634706e+000	-6.263791110136937e+000
1	 3.660020249408020e+000	 1.949122002097276e+000	-6.276938389543623e+000
1	 3.638730912653521e+000	 1.988582863720177e+000	-6.268056261136733e+000
1	 3.616982032068172e+000	 2.027872035489355e+000	-6.238956356060115e+000
1	 3.838158784121502e+000	 1.638669819097676e+000	-5.020223468474034e+000
1	 3.820476808672654e+000	 1.679481775808191e+000	-5.221925477527267e+000
1	 3.802324114999044e+000	 1.720184223263334e+000	-5.393813628534297e+000
1	 3.783701125857638e+000	 1.760769288357938e+000	-5.536799376878607e+000
1	 3.764608434519604e+000	 1.801229078134447e+000	-5.651919756456379e+000
1	 3.745046806063103e+000	 1.841555684276927e+000	-5.740337126843053e+000
1	 3.725017178527611e+000	 1.881741187670086e+000	-5.803338700977327e+000
1	 3.704520663926468e+000	 1.921777663018466e+000	-5.842335850887693e+000
1	 3.683558549114604e+000	 1.961657183520769e+000	-5.858863189494347e+000
1	 3.662132296508556e+000	 2.001371825594157e+000	-5.854577427042420e+000
1	 3.640243544656117e+000	 2.040913673643154e+000	-5.831256001258788e+000
1	 3.862684994461763e+000	 1.649141079647046e+000	-4.623415715847991e+000
1	 3.844890029459100e+000	 1.690213828755853e+000	-4.818383747132291e+000
1	 3.826621338296152e+000	 1.731176368834391e+000	-4.985266551620581e+000
1	 3.807879346431334e+000	 1.772020776467594e+000	-5.124886058362719e+000
1	 3.788664650926863e+000	 1.812739108261148e+000	-5.238192533688385e+000
1	 3.768978021749815e+000	 1.853323405364218e+000	-5.326264483418237e+000
1	 3.748820402933820e+000	 1.893765698057605e+000	-5.390308331845939e+000
1	 3.728192913598082e+000	 1.934058010402449e+000	-5.431657874647209e+000
1	 3.707096848820650e+000	 1.974192364944430e+000	-5.451773503383252e+000
1	 3.685533680363033e+000	 2.014160787468251e+000	-5.452241199794816e+000
1	 3.663505057243499e+000	 2.053955311797023e+000	-5.434771298627161e+000
1	 3.430889931356198e+000	 1.923538930249378e+000	-9.868644118166477e+000
1	 3.409822639161488e+000	 1.960641939370820e+000	-9.779722107447915e+000
1	 3.388322907875672e+000	 1.997567159735842e+000	-9.667119518702579e+000
1	 3.366392785299044e+000	 2.034307179775804e+000	-9.531829729186228e+000
1	 3.344034485992657e+000	 2.070854613836993e+000	-9.374933113121369e+000
1	 3.321250391072290e+000	 2.107202106807173e+000	-9.197596270252831e+000
1	 3.298043047850050e+000	 2.143342338751271e+000	-9.001071099996855e+000
1	 3.274415169322649e+000	 2.179268029550415e+000	-8.786693721311600e+000
1	 3.250369633505694e+000	 2.214971943538432e+000	-8.555883238800966e+000
1	 3.225909482613576e+000	 2.250446894129934e+000	-8.310140355952012e+000
1	 3.201037922084772e+000	 2.285685748434004e+000	-8.051045836796922e+000
1	 3.454151443945081e+000	 1.936580568406245e+000	-9.382090302999856e+000
1	 3.432941315024939e+000	 1.973935136782385e+000	-9.296833120935252e+000
1	 3.411295815066716e+000	 2.011110710990247e+000	-9.190029719622231e+000
1	 3.389217005754840e+000	 2.048099829210576e+000	-9.062528058439426e+000
1	 3.366707116665132e+000	 2.084895055714759e+000	-8.915252216544687e+000
1	 3.343768545057394e+000	 2.121488985522725e+000	-8.749201795086812e+000
1	 3.320403855514564e+000	 2.157874249070071e+000	-8.565451185558713e+000
1	 3.296615779427529e+000	 2.194043516878546e+000	-8.365148704238827e+000
1	 3.272407214324911e+000	 2.229989504223994e+000	-8.149515592999043e+000
1	 3.247781223047381e+000	 2.265704975795809e+000	-7.919844887091596e+000
1	 3.222741032766358e+000	 2.301182750341904e+000	-7.677500150865523e+000
1	 3.477412956534195e+000	 1.949622206562376e+000	-8.904259942489196e+000
1	 3.456059990888607e+000	 1.987228334193261e+000	-8.823369227863266e+000
1	 3.434268722257934e+000	 2.024654262244012e+000	-8.722773956255146e+000
1	 3.412041226210740e+000	 2.061892478644770e+000	-8.603203050613040e+000
1	 3.389379747337627e+000	 2.098935497592009e+000	-8.465451961359788e+000
1	 3.366286699042418e+000	 2.135775864237826e+000	-8.310382204494548e+000
1	 3.342764663178889e+000	 2.172406159388485e+000	-8.138920783808798e+000
1	 3.318816389532113e+000	 2.208819004206358e+000	-7.952059497039705e+000
1	 3.294444795143723e+000	 2.245007064909298e+000	-7.750854126068612e+000
1	 3.269652963480678e+000	 2.280963057461482e+000	-7.536423511560993e+000
1	 3.244444143447349e+000	 2.316679752249656e+000	-7.309948512734277e+000
1	 3.500674469123442e+000	 1.962663844717872e+000	-8.435494111899113e+000
1	 3.479178666752395e+000	 2.000521531603535e+000	-8.359565848755016e+000
1	 3.457241629449238e+000	 2.038197813497221e+000	-8.265499314081000e+000
1	 3.434865446666673e+000	 2.075685128078454e+000	-8.153930218425510e+000
1	 3.412052378010083e+000	 2.112975939468804e+000	-8.025552474438994e+000
1	 3.388804853027324e+000	 2.150062742952529e+000	-7.881117833534801e+000
1	 3.365125470843007e+000	 2.186938069706559e+000	-7.721435422090895e+000
1	 3.341016999636398e+000	 2.223594491533885e+000	-7.547371176947044e+000
1	 3.316482375962149e+000	 2.260024625594372e+000	-7.359847180198229e+000
1	 3.291524703913511e+000	 2.296221139126977e+000	-7.159840893534281e+000
1	 3.266147254127807e+000	 2.332176754157270e+000	-6.948384292625280e+000
1	 3.523935981712723e+000	 1.975705482872835e+000	-7.976124880738065e+000
1	 3.502297342616207e+000	 2.013814729013301e+000	-7.905652188086745e+000
1	 3.480214536640536e+000	 2.051741364749952e+000	-7.818348994932284e+000
1	 3.457689667122557e+000	 2.089477777511701e+000	-7.714783080756420e+000
1	 3.434725008682438e+000	 2.127016381345206e+000	-7.595573351224371e+000
1	 3.411323007012064e+000	 2.164349621666887e+000	-7.461389536499696e+000
1	 3.387486278506896e+000	 2.201469980024336e+000	-7.312951802005454e+000
1	 3.363217609740386e+000	 2.238369978861166e+000	-7.151030271375282e+000
1	 3.338519956780215e+000	 2.275042186279247e+000	-6.976444461550176e+000
1	 3.313396444345926e+000	 2.311479220792314e+000	-6.790062630193443e+000
1	 3.287850364807801e+000	 2.347673756064768e+000	-6.592801035813729e+000
1	 3.547197494301936e+000	 1.988747121027364e+000	-7.526475608044150e+000
1	 3.525416018479945e+000	 2.027107926422647e+000	-7.461851438103011e+000
1	 3.503187443831741e+000	 2.065284916002287e+000	-7.381462444333617e+000
1	 3.480513887578316e+000	 2.103270426944581e+000	-7.285833228021462e+000
1	 3.457397639354630e+000	 2.141056823221275e+000	-7.175533673152580e+000
1	 3.433841160996598e+000	 2.178636500380949e+000	-7.051178669889799e+000
1	 3.409847086170532e+000	 2.216001890341861e+000	-6.913427760907342e+000
1	 3.385418219844079e+000	 2.253145466188234e+000	-6.762984710371089e+000
1	 3.360557537597944e+000	 2.290059746963950e+000	-6.600596995537676e+000
1	 3.335268184777967e+000	 2.326737302457518e+000	-6.427055221136258e+000
1	 3.309553475487395e+000	 2.363170757972164e+000	-6.243192456888052e+000
1	 3.570459006890980e+000	 2.001788759181559e+000	-7.086861226128665e+000
1	 3.548534694343512e+000	 2.040401123831664e+000	-7.028380974665150e+000
1	 3.526160351022761e+000	 2.078828467254305e+000	-6.954975473863398e+000
1	 3.503338108033874e+000	 2.117063076377164e+000	-6.867150384992184e+000
1	 3.480070270026597e+000	 2.155097265097074e+000	-6.765452024398548e+000
1	 3.456359314980884e+000	 2.192923379094772e+000	-6.650467076054758e+000
1	 3.432207893833895e+000	 2.230533800659177e+000	-6.522822234908833e+000
1	 3.407618829947475e+000	 2.267920953515127e+000	-6.383183780922666e+000
1	 3.382595118415355e+000	 2.305077307648510e+000	-6.232257083850413e+000
1	 3.357139925209682e+000	 2.341995384122610e+000	-6.070786038980296e+000
1	 3.331256586166656e+000	 2.378667759879475e+000	-5.899552434234599e+000
1	 3.593720519479760e+000	 2.014830397335523e+000	-6.657588513299268e+000
1	 3.571653370206811e+000	 2.053694321240442e+000	-6.605452545493235e+000
1	 3.549133258213510e+000	 2.092372018506088e+000	-6.539020378763043e+000
1	 3.526162328489153e+000	 2.130855725809522e+000	-6.458802471175989e+000
1	 3.502742900698278e+000	 2.169137706972663e+000	-6.365346507969000e+000
1	 3.478877468964877e+000	 2.207210257808406e+000	-6.259237067469207e+000
1	 3.454568701496962e+000	 2.245065710976327e+000	-6.141095223319178e+000
1	 3.429819440050576e+000	 2.282696440841880e+000	-6.011578083043523e+000
1	 3.404632699232478e+000	 2.320094868332957e+000	-5.871378263148938e+000
1	 3.379011665641112e+000	 2.357253465787613e+000	-5.721223301108263e+000
1	 3.352959696845650e+000	 2.394164761786719e+000	-5.561875004736524e+000
1	 3.616982032068172e+000	 2.027872035489355e+000	-6.238956356060116e+000
1	 3.594772046069744e+000	 2.066987518649074e+000	-6.193272451144413e+000
1	 3.572106165403897e+000	 2.105915569757717e+000	-6.133726051008504e+000
1	 3.548986548944076e+000	 2.144648375241726e+000	-6.060855658866039e+000
1	 3.525415531369613e+000	 2.183178148848105e+000	-5.975234761174864e+000
1	 3.501395622948538e+000	 2.221497136521904e+000	-5.877471411615465e+000
1	 3.476929509159713e+000	 2.259597621293357e+000	-5.768207754456605e+000
1	 3.452020050153380e+000	 2.297471928168530e+000	-5.648119487550935e+000
1	 3.426670280049329e+000	 2.335112429017319e+000	-5.517915265353032e+000
1	 3.400883406072305e+000	 2.372511547452548e+000	-5.378336042503828e+000
1	 3.374662807524445e+000	 2.409661763693914e+000	-5.230154358677043e+000
1	 3.640243544656117e+000	 2.040913673643154e+000	-5.831256001258788e+000
1	 3.617890721932214e+000	 2.080280716057648e+000	-5.792041719052518e+000
1	 3.595079072593832e+000	 2.119459121009271e+000	-5.739218088046163e+000
1	 3.571810769398565e+000	 2.158441024673847e+000	-5.673374428965723e+000
1	 3.548088162040541e+000	 2.197218590723461e+000	-5.595133970510515e+000
1	 3.523913776931821e+000	 2.235784015235318e+000	-5.505153316445839e+000
1	 3.499290316822126e+000	 2.274129531610310e+000	-5.404121852770866e+000
1	 3.474220660255889e+000	 2.312247415495113e+000	-5.292761095463149e+000
1	 3.448707860865933e+000	 2.350129989701623e+000	-5.171823979452562e+000
1	 3.422755146503306e+000	 2.387769629117440e+000	-5.042094089628858e+000
1	 3.396365918203102e+000	 2.425158765601074e+000	-4.904384834838309e+000
1	 3.663505057243499e+000	 2.053955311797023e+000	-5.434771298627161e+000
1	 3.641009397794123e+000	 2.093573913466255e+000	-5.401956270937101e+000
1	 3.618051979783225e+000	 2.133002672260832e+000	-5.355618897386258e+000
1	 3.594634989852544e+000	 2.172233674105955e+000	-5.296421624686263e+000
1	 3.570760792710999e+000	 2.211259032598792e+000	-5.225060885966141e+000
1	 3.546431930914687e+000	 2.250070893948702e+000	-5.142266416398797e+000
1	 3.521651124484179e+000	 2.288661441927230e+000	-5.048800507218608e+000
1	 3.496421270358106e+000	 2.327022902821665e+000	-4.945457198943430e+000
1	 3.470745441682316e+000	 2.365147550385902e+000	-4.833061414773241e+000
1	 3.444626886934158e+000	 2.403027710782309e+000	-4.712468035295911e+000
1	 3.418069028881693e+000	 2.440655767508218e+000	-4.584560915786870e+000
1	 3.201037922084772e+000	 2.285685748434004e+000	-8.051045836796922e+000
1	 3.175758318549517e+000	 2.320681431073920e+000	-7.781943326680469e+000
1	 3.150074195862331e+000	 2.355426926386116e+000	-7.504571441022585e+000
1	 3.123989236422097e+000	 2.389915285194917e+000	-7.218141776188768e+000
1	 3.097507280498922e+000	 2.424139630075088e+000	-6.921839639670262e+000
1	 3.070632324500330e+000	 2.458093159808781e+000	-6.614825691370155e+000
1	 3.043368519087291e+000	 2.491769153792504e+000	-6.296237644800049e+000
1	 3.015720167141756e+000	 2.525160976388238e+000	-5.965192024822083e+000
1	 2.987691721587631e+000	 2.558262081212876e+000	-5.620785978399202e+000
1	 2.959287783067377e+000	 2.591066015360246e+000	-5.262099134655125e+000
1	 2.930513097476696e+000	 2.623566423550066e+000	-4.888195510393913e+000
1	 3.222741032766358e+000	 2.301182750341904e+000	-7.677500150865521e+000
1	 3.197290032937910e+000	 2.336415704514344e+000	-7.425028651917092e+000
1	 3.171431771308376e+000	 2.371396775083201e+000	-7.163571702279048e+000
1	 3.145169955243394e+000	 2.406118965757234e+000	-6.892419988962161e+000
1	 3.118508451050198e+000	 2.440575352482112e+000	-6.610844025783228e+000
1	 3.091451282232049e+000	 2.474759087927573e+000	-6.318095673990787e+000
1	 3.064002627591507e+000	 2.508663405924287e+000	-6.013409711351903e+000
1	 3.036166819184162e+000	 2.542281625844456e+000	-5.696005446545859e+000
1	 3.007948340124858e+000	 2.575607156920352e+000	-5.365088375568148e+000
1	 2.979351822248521e+000	 2.608633502494952e+000	-5.019851876716205e+000
1	 2.950382043628141e+000	 2.641354264199035e+000	-4.659478940605783e+000
1	 3.244444143447349e+000	 2.316679752249656e+000	-7.309948512734276e+000
1	 3.218821747325636e+000	 2.352149977954659e+000	-7.073302251672669e+000
1	 3.192789346753698e+000	 2.387366623780209e+000	-6.827118752961503e+000
1	 3.166350674063928e+000	 2.422322646319497e+000	-6.570754357148458e+000
1	 3.139509621600685e+000	 2.457011074889095e+000	-6.303550908545229e+000
1	 3.112270239962972e+000	 2.491425016046331e+000	-6.024837177136836e+000
1	 3.084636736094925e+000	 2.525557658056029e+000	-5.733930318337392e+000
1	 3.056613471225788e+000	 2.559402275300625e+000	-5.430137367605314e+000
1	 3.028204958661326e+000	 2.592952232627757e+000	-5.112756766817003e+000
1	 2.999415861428939e+000	 2.626200989629562e+000	-4.781079919192799e+000
1	 2.970250989778902e+000	 2.659142104847870e+000	-4.434392769473215e+000
1	 3.266147254127807e+000	 2.332176754157270e+000	-6.948384292625278e+000
1	 3.240353461712776e+000	 2.367884251394873e+000	-6.726789003615065e+000
1	 3.214146922198397e+000	 2.403336472477147e+000	-6.495262831391711e+000
1	 3.187531392883817e+000	 2.438526326881711e+000	-6.253214605594536e+000
1	 3.160510792150514e+000	 2.473446797296040e+000	-6.000043904013878e+000
1	 3.133089197693234e+000	 2.508090944165058e+000	-5.735142397472901e+000
1	 3.105270844597697e+000	 2.542451910187743e+000	-5.457895222766423e+000
1	 3.077060123266782e+000	 2.576522924756755e+000	-5.167682380794306e+000
1	 3.048461577197192e+000	 2.610297308335112e+000	-4.863880156938620e+000
1	 3.019479900608787e+000	 2.643768476764097e+000	-4.545862560653960e+000
1	 2.990119935929130e+000	 2.676929945496605e+000	-4.213002781169257e+000
1	 3.287850364807801e+000	 2.347673756064768e+000	-6.592801035813729e+000
1	 3.261885176099419e+000	 2.383618524835003e+000	-6.385513128542136e+000
1	 3.235504497642578e+000	 2.419306321174022e+000	-6.168052849398463e+000
1	 3.208712111703173e+000	 2.454730007443882e+000	-5.939868618131921e+000
1	 3.181511962699815e+000	 2.489882519702957e+000	-5.700404420447701e+000
1	 3.153908155422980e+000	 2.524756872283762e+000	-5.449101097301919e+000
1	 3.125904953099966e+000	 2.559346162319434e+000	-5.185397653279873e+000
1	 3.097506775307298e+000	 2.593643574212859e+000	-4.908732581277689e+000
1	 3.068718195732605e+000	 2.627642384042430e+000	-4.618545200642411e+000
1	 3.039543939788214e+000	 2.661335963898584e+000	-4.314277005868556e+000
1	 3.009988882078974e+000	 2.694717786145272e+000	-3.995373022901103e+000
1	 3.309553475487395e+000	 2.363170757972164e+000	-6.243192456888052e+000
1	 3.283416890485646e+000	 2.399352798275059e+000	-6.049498211919720e+000
1	 3.256862073086340e+000	 2.435276169870848e+000	-5.845536435811454e+000
1	 3.229892830522119e+000	 2.470933688006018e+000	-5.630782497940944e+000
1	 3.202513133248716e+000	 2.506318242109850e+000	-5.404711730696690e+000
1	 3.174727113152346e+000	 2.541422800402450e+000	-5.166800684384577e+000
1	 3.146539061601881e+000	 2.576240414451112e+000	-4.916528393051278e+000
1	 3.117953427347487e+000	 2.610764223668948e+000	-4.653377648484987e+000
1	 3.088974814267724e+000	 2.644987459749731e+000	-4.376836279610370e+000
1	 3.059607978967379e+000	 2.678903451033047e+000	-4.086398434458055e+000
1	 3.029857828228584e+000	 2.712505626793908e+000	-3.781565861862651e+000
1	 3.331256586166656e+000	 2.378667759879475e+000	-5.899552434234599e+000
1	 3.304948604871547e+000	 2.415087071715054e+000	-5.718767224577372e+000
1	 3.278219648529785e+000	 2.451246018567628e+000	-5.527759978254852e+000
1	 3.251073549340771e+000	 2.487137368568124e+000	-5.326020625555500e+000
1	 3.223514303797350e+000	 2.522753964516725e+000	-5.113043041763168e+000
1	 3.195546070881469e+000	 2.558088728521126e+000	-4.888326288638352e+000
1	 3.167173170103585e+000	 2.593134666582783e+000	-4.651375859447779e+000
1	 3.138400079387502e+000	 2.627884873125036e+000	-4.401704924802884e+000
1	 3.109231432802700e+000	 2.662332535457032e+000	-4.138835576540694e+000
1	 3.079672018146432e+000	 2.696470938167512e+000	-3.862300066865586e+000
1	 3.049726774378111e+000	 2.730293467442543e+000	-3.571642039960894e+000
1	 3.352959696845650e+000	 2.394164761786719e+000	-5.561875004736524e+000
1	 3.326480319257204e+000	 2.430821345154998e+000	-5.393342542600637e+000
1	 3.299577223973019e+000	 2.467215867264375e+000	-5.214768663317820e+000
1	 3.272254268159244e+000	 2.503341049130208e+000	-5.025645714614808e+000
1	 3.244515474345840e+000	 2.539189686923587e+000	-4.825473561661081e+000
1	 3.216365028610494e+000	 2.574754656639799e+000	-4.613760835857787e+000
1	 3.187807278605230e+000	 2.610028918714459e+000	-4.390026180597376e+000
1	 3.158846731427493e+000	 2.645005522581133e+000	-4.153799491211487e+000
1	 3.129488051337689e+000	 2.679677611164347e+000	-3.904623146316021e+000
1	 3.099736057325528e+000	 2.714038425301999e+000	-3.642053227762967e+000
1	 3.069595720527704e+000	 2.748081308091211e+000	-3.365660726416885e+000
1	 3.374662807524445e+000	 2.409661763693914e+000	-5.230154358677043e+000
1	 3.348012033642701e+000	 2.446555618594907e+000	-5.073245966455553e+000
1	 3.320934799416141e+000	 2.483185715961096e+000	-4.906606515174933e+000
1	 3.293434986977655e+000	 2.519544729692277e+000	-4.729718865464184e+000
1	 3.265516644894319e+000	 2.555625409330442e+000	-4.542076563695385e+000
1	 3.237183986339556e+000	 2.591420584758473e+000	-4.343185118590386e+000
1	 3.208441387106961e+000	 2.626923170846145e+000	-4.132563269001613e+000
1	 3.179293383467613e+000	 2.662126172037250e+000	-3.909744240002103e+000
1	 3.149744669872843e+000	 2.697022686871697e+000	-3.674276984425327e+000
1	 3.119800096504819e+000	 2.731605912436534e+000	-3.425727407011079e+000
1	 3.089464666677513e+000	 2.765869148739946e+000	-3.163679568336952e+000
1	 3.396365918203102e+000	 2.425158765601074e+000	-4.904384834838309e+000
1	 3.369543748028126e+000	 2.462289892034790e+000	-4.758498739380010e+000
1	 3.342292374859253e+000	 2.499155564657801e+000	-4.603316432725995e+000
1	 3.314615705796120e+000	 2.535748410254336e+000	-4.438299616700422e+000
1	 3.286517815442918e+000	 2.572061131737296e+000	-4.262923448276966e+000
1	 3.258002944068795e+000	 2.608086512877155e+000	-4.076677864294718e+000
1	 3.229075495608925e+000	 2.643817422977850e+000	-3.879068892325886e+000
1	 3.199740035508015e+000	 2.679246821493403e+000	-3.669619944706841e+000
1	 3.170001288408318e+000	 2.714367762579098e+000	-3.447873092762650e+000
1	 3.139864135684460e+000	 2.749173399571143e+000	-3.213390318282982e+000
1	 3.109333612827688e+000	 2.783656989388781e+000	-2.965754739344990e+000
1	 3.418069028881693e+000	 2.440655767508218e+000	-4.584560915786870e+000
1	 3.391075462413564e+000	 2.478024165474663e+000	-4.449121565074382e+000
1	 3.363649950302459e+000	 2.515125413354499e+000	-4.304940225320662e+000
1	 3.335796424614757e+000	 2.551952090816394e+000	-4.151445994753668e+000
1	 3.307518985991763e+000	 2.588496854144156e+000	-3.988083802382545e+000
1	 3.278821901798352e+000	 2.624752440995851e+000	-3.814315800902155e+000
1	 3.249709604111268e+000	 2.660711675109584e+000	-3.629622741492887e+000
1	 3.220186687548849e+000	 2.696367470949601e+000	-3.433505327364221e+000
1	 3.190257906944267e+000	 2.731712838286569e+000	-3.225485542918837e+000
1	 3.159928174864604e+000	 2.766740886705849e+000	-3.005107955453602e+000
1	 3.129202558978380e+000	 2.801444830037749e+000	-2.771940986362000e+000
1	 2.930513097476696e+000	 2.623566423550066e+000	-4.888195510393913e+000
1	 2.901376951840289e+000	 2.655752247797149e+000	-4.504574013871497e+000
1	 2.871880086178356e+000	 2.687622242784177e+000	-4.118135681348517e+000
1	 2.842027666154427e+000	 2.719170375440287e+000	-3.730219071798864e+000
1	 2.811824991326779e+000	 2.750390726063579e+000	-3.342174389378620e+000
1	 2.781277492018158e+000	 2.781277492018158e+000	-2.955361218189156e+000
1	 2.750390726063578e+000	 2.811824991326778e+000	-2.571146237574495e+000
1	 2.719170375440287e+000	 2.842027666154426e+000	-2.190900922730416e+000
1	 2.687622242784177e+000	 2.871880086178356e+000	-1.815999235442587e+000
1	 2.655752247797149e+000	 2.901376951840288e+000	-1.447815309798324e+000
1	 2.623566423550066e+000	 2.930513097476694e+000	-1.087721137727175e+000
1	 2.950382043628141e+000	 2.641354264199035e+000	-4.659478940605784e+000
1	 2.921048354254667e+000	 2.673758309074019e+000	-4.289748572380708e+000
1	 2.891351499165647e+000	 2.705844383359315e+000	-3.917704048561938e+000
1	 2.861296679047927e+000	 2.737606413079703e+000	-3.544593013625559e+000
1	 2.830889229390904e+000	 2.769038438397574e+000	-3.171673826036707e+000
1	 2.800134617335034e+000	 2.800134617335034e+000	-2.800213441233976e+000
1	 2.769038438397575e+000	 2.830889229390904e+000	-2.431485276599198e+000
1	 2.737606413079704e+000	 2.861296679047927e+000	-2.066767062879349e+000
1	 2.705844383359315e+000	 2.891351499165647e+000	-1.707338686565318e+000
1	 2.673758309074018e+000	 2.921048354254666e+000	-1.354480027756425e+000
1	 2.641354264199035e+000	 2.950382043628141e+000	-1.009468798049773e+000
1	 2.970250989778902e+000	 2.659142104847870e+000	-4.434392769473215e+000
1	 2.940719756668409e+000	 2.691764370350712e+000	-4.078702629496052e+000
1	 2.910822912152358e+000	 2.724066523934227e+000	-3.721158572986605e+000
1	 2.880565691940904e+000	 2.756042450718837e+000	-3.362924055530013e+000
1	 2.849953467454567e+000	 2.787686150731229e+000	-3.005172317058805e+000
1	 2.818991742651509e+000	 2.818991742651508e+000	-2.649084401456866e+000
1	 2.787686150731230e+000	 2.849953467454566e+000	-2.295847159617295e+000
1	 2.756042450718838e+000	 2.880565691940904e+000	-1.946651240135494e+000
1	 2.724066523934227e+000	 2.910822912152358e+000	-1.602689071853198e+000
1	 2.691764370350712e+000	 2.940719756668409e+000	-1.265152842491419e+000
1	 2.659142104847869e+000	 2.970250989778902e+000	-9.352324776188856e-001
1	 2.990119935929130e+000	 2.676929945496605e+000	-4.213002781169257e+000
1	 2.960391159081659e+000	 2.709770431627274e+000	-3.871486782349827e+000
1	 2.930294325138621e+000	 2.742288664508966e+000	-3.528534818099604e+000
1	 2.899834704833481e+000	 2.774478488357760e+000	-3.185232736513535e+000
1	 2.869017705517879e+000	 2.806333863064627e+000	-2.842675241946015e+000
1	 2.837848867967678e+000	 2.837848867967678e+000	-2.501964039778944e+000
1	 2.806333863064627e+000	 2.869017705517878e+000	-2.164205966130185e+000
1	 2.774478488357759e+000	 2.899834704833481e+000	-1.830511106422077e+000
1	 2.742288664508966e+000	 2.930294325138621e+000	-1.501990906761168e+000
1	 2.709770431627273e+000	 2.960391159081659e+000	-1.179756282099854e+000
1	 2.676929945496605e+000	 2.990119935929130e+000	-8.649157251576866e-001
1	 3.009988882078974e+000	 2.694717786145272e+000	-3.995373022901103e+000
1	 2.980062561494562e+000	 2.727776492903745e+000	-3.668150292107175e+000
1	 2.949765738124572e+000	 2.760510805083593e+000	-3.339867408359647e+000
1	 2.919103717725782e+000	 2.792914525996539e+000	-3.011539053265527e+000
1	 2.888081943580947e+000	 2.824981575397850e+000	-2.684187838159089e+000
1	 2.856705993283643e+000	 2.856705993283643e+000	-2.358842562721411e+000
1	 2.824981575397851e+000	 2.888081943580947e+000	-2.036536460044380e+000
1	 2.792914525996538e+000	 2.919103717725782e+000	-1.718305431821364e+000
1	 2.760510805083593e+000	 2.949765738124572e+000	-1.405186277374699e+000
1	 2.727776492903746e+000	 2.980062561494562e+000	-1.098214920247137e+000
1	 2.694717786145272e+000	 3.009988882078973e+000	-7.984246360898174e-001
1	 3.029857828228584e+000	 2.712505626793908e+000	-3.781565861862651e+000
1	 2.999733963907260e+000	 2.745782554180174e+000	-3.468741127770619e+000
1	 2.969237151110346e+000	 2.778732945658162e+000	-3.155190059996200e+000
1	 2.938372730617930e+000	 2.811350563635247e+000	-2.841862477945078e+000
1	 2.907146181643887e+000	 2.843629287730986e+000	-2.529715205775736e+000
1	 2.875563118599497e+000	 2.875563118599497e+000	-2.219710433696849e+000
1	 2.843629287730986e+000	 2.907146181643888e+000	-1.912814067230815e+000
1	 2.811350563635246e+000	 2.938372730617930e+000	-1.609994067911801e+000
1	 2.778732945658162e+000	 2.969237151110347e+000	-1.312218788910998e+000
1	 2.745782554180173e+000	 2.999733963907259e+000	-1.020455309096328e+000
1	 2.712505626793908e+000	 3.029857828228585e+000	-7.356677690367229e-001
1	 3.049726774378111e+000	 2.730293467442543e+000	-3.571642039960894e+000
1	 3.019405366319895e+000	 2.763788615456600e+000	-3.273306008272147e+000
1	 2.988708564096076e+000	 2.796955086232729e+000	-2.974535610595015e+000
1	 2.957641743510049e+000	 2.829786601273951e+000	-2.676221975267507e+000
1	 2.926210419706810e+000	 2.862277000064116e+000	-2.379262311965797e+000
1	 2.894420243915343e+000	 2.894420243915343e+000	-2.084558364640975e+000
1	 2.862277000064116e+000	 2.926210419706810e+000	-1.793014853961408e+000
1	 2.829786601273951e+000	 2.957641743510049e+000	-1.505537912538313e+000
1	 2.796955086232729e+000	 2.988708564096076e+000	-1.223033516233396e+000
1	 2.763788615456600e+000	 3.019405366319896e+000	-9.464059148585720e-001
1	 2.730293467442543e+000	 3.049726774378111e+000	-6.765560655790393e-001
1	 3.069595720527704e+000	 2.748081308091211e+000	-3.365660726416885e+000
1	 3.039076768732614e+000	 2.781794676733072e+000	-3.081890442930617e+000
1	 3.008179977081899e+000	 2.815177226807353e+000	-2.797936047534526e+000
1	 2.976910756402264e+000	 2.848222638912723e+000	-2.514636018927329e+000
1	 2.945274657769825e+000	 2.880924712397324e+000	-2.232833995292759e+000
1	 2.913277369231275e+000	 2.913277369231274e+000	-1.953377307969447e+000
1	 2.880924712397324e+000	 2.945274657769825e+000	-1.677115506183014e+000
1	 2.848222638912722e+000	 2.976910756402263e+000	-1.404898875950857e+000
1	 2.815177226807354e+000	 3.008179977081899e+000	-1.137576956287524e+000
1	 2.781794676733072e+000	 3.039076768732615e+000	-8.759970558466734e-001
1	 2.748081308091210e+000	 3.069595720527704e+000	-6.210027731342789e-001
1	 3.089464666677513e+000	 2.765869148739946e+000	-3.163679568336953e+000
1	 3.058748171145560e+000	 2.799800738009633e+000	-2.894538770348069e+000
1	 3.027651390067949e+000	 2.833399367382091e+000	-2.625422535325268e+000
1	 2.996179769294696e+000	 2.866658676551633e+000	-2.357122607387502e+000
1	 2.964338895833045e+000	 2.899572424730694e+000	-2.090434969849165e+000
1	 2.932134494547392e+000	 2.932134494547392e+000	-1.826158448844963e+000
1	 2.899572424730695e+000	 2.964338895833045e+000	-1.565093309591203e+000
1	 2.866658676551633e+000	 2.996179769294697e+000	-1.308039848249498e+000
1	 2.833399367382091e+000	 3.027651390067948e+000	-1.055796982372900e+000
1	 2.799800738009632e+000	 3.058748171145560e+000	-8.091608429189875e-001
1	 2.765869148739947e+000	 3.089464666677513e+000	-5.689233708104078e-001
1	 3.109333612827688e+000	 2.783656989388781e+000	-2.965754739344990e+000
1	 3.078419573558874e+000	 2.817806799286326e+000	-2.711294195814651e+000
1	 3.047122803054358e+000	 2.851621507956997e+000	-2.457025441900728e+000
1	 3.015448782187471e+000	 2.885094714190751e+000	-2.203699279063280e+000
1	 2.983403133896581e+000	 2.918220137064311e+000	-1.952069829233528e+000
1	 2.950991619863794e+000	 2.950991619863793e+000	-1.702893197740885e+000
1	 2.918220137064311e+000	 2.983403133896581e+000	-1.456926130467949e+000
1	 2.885094714190750e+000	 3.015448782187472e+000	-1.214924668077735e+000
1	 2.851621507956998e+000	 3.047122803054358e+000	-9.776428001677515e-001
1	 2.817806799286325e+000	 3.078419573558874e+000	-7.458311222066829e-001
1	 2.783656989388781e+000	 3.109333612827688e+000	-5.202354981022305e-001
1	 3.129202558978380e+000	 2.801444830037749e+000	-2.771940986362000e+000
1	 3.098090975972703e+000	 2.835812860563197e+000	-2.532198827288584e+000
1	 3.066594216041264e+000	 2.869843648532129e+000	-2.292774363906835e+000
1	 3.034717795080713e+000	 2.903530751830148e+000	-2.054383126927628e+000
1	 3.002467371960544e+000	 2.936867849398260e+000	-1.817743050375698e+000
1	 2.969848745180577e+000	 2.969848745180577e+000	-1.583573183288140e+000
1	 2.936867849398259e+000	 3.002467371960544e+000	-1.352592397249446e+000
1	 2.903530751830149e+000	 3.034717795080715e+000	-1.125518092508519e+000
1	 2.869843648532129e+000	 3.066594216041264e+000	-9.030649054291131e-001
1	 2.835812860563195e+000	 3.098090975972702e+000	-6.859434200229747e-001
1	 2.801444830037748e+000	 3.129202558978380e+000	-4.748588863042639e-001
1	 2.623566423550066e+000	 2.930513097476694e+000	-1.087721137727176e+000
1	 2.591066015360247e+000	 2.959287783067377e+000	-7.416683540270563e-001
1	 2.558262081212877e+000	 2.987691721587632e+000	-4.138103441328410e-001
1	 2.525160976388239e+000	 3.015720167141756e+000	-1.026391471343980e-001
1	 2.491769153792504e+000	 3.043368519087291e+000	 1.933768418256128e-001
1	 2.458093159808781e+000	 3.070632324500330e+000	 4.757898182543092e-001
1	 2.424139630075088e+000	 3.097507280498923e+000	 7.461694961595771e-001
1	 2.389915285194917e+000	 3.123989236422097e+000	 1.006100023715070e+000
1	 2.355426926386115e+000	 3.150074195862330e+000	 1.257176893395307e+000
1	 2.320681431073919e+000	 3.175758318549517e+000	 1.501003853206993e+000
1	 2.285685748434003e+000	 3.201037922084772e+000	 1.739189825592910e+000
1	 2.641354264199035e+000	 2.950382043628141e+000	-1.009468798049771e+000
1	 2.608633502494953e+000	 2.979351822248522e+000	-6.780417729653590e-001
1	 2.575607156920352e+000	 3.007948340124857e+000	-3.642719731169381e-001
1	 2.542281625844456e+000	 3.036166819184163e+000	-6.676364199197757e-002
1	 2.508663405924287e+000	 3.064002627591506e+000	 2.159054883546896e-001
1	 2.474759087927574e+000	 3.091451282232050e+000	 4.851813101735410e-001
1	 2.440575352482112e+000	 3.118508451050198e+000	 7.425304277657283e-001
1	 2.406118965757234e+000	 3.145169955243393e+000	 9.894372264653034e-001
1	 2.371396775083201e+000	 3.171431771308376e+000	 1.227400929230853e+000
1	 2.336415704514343e+000	 3.197290032937910e+000	 1.457932647208711e+000
1	 2.301182750341905e+000	 3.222741032766358e+000	 1.682552430599586e+000
1	 2.659142104847869e+000	 2.970250989778902e+000	-9.352324776188867e-001
1	 2.626200989629562e+000	 2.999415861428939e+000	-6.184371127153964e-001
1	 2.592952232627758e+000	 3.028204958661326e+000	-3.187359330505026e-001
1	 2.559402275300624e+000	 3.056613471225787e+000	-3.483599656550196e-002
1	 2.525557658056029e+000	 3.084636736094926e+000	 2.345847389982656e-001
1	 2.491425016046331e+000	 3.112270239962971e+000	 4.908746815537303e-001
1	 2.457011074889095e+000	 3.139509621600685e+000	 7.354058392832170e-001
1	 2.422322646319498e+000	 3.166350674063928e+000	 9.695710305011044e-001
1	 2.387366623780208e+000	 3.192789346753697e+000	 1.194781074876265e+000
1	 2.352149977954658e+000	 3.218821747325635e+000	 1.412461972133255e+000
1	 2.316679752249655e+000	 3.244444143447348e+000	 1.624052074339030e+000
1	 2.676929945496605e+000	 2.990119935929130e+000	-8.649157251576871e-001
1	 2.643768476764097e+000	 3.019479900608787e+000	-5.627401558388003e-001
1	 2.610297308335112e+000	 3.048461577197192e+000	-2.770738772353730e-001
1	 2.576522924756755e+000	 3.077060123266782e+000	-6.717547436947451e-003
1	 2.542451910187743e+000	 3.105270844597697e+000	 2.495595897012605e-001
1	 2.508090944165058e+000	 3.133089197693234e+000	 4.930171091691840e-001
1	 2.473446797296041e+000	 3.160510792150513e+000	 7.249407734190395e-001
1	 2.438526326881711e+000	 3.187531392883816e+000	 9.466398708223744e-001
1	 2.403336472477147e+000	 3.214146922198397e+000	 1.159444529841352e+000
1	 2.367884251394874e+000	 3.240353461712777e+000	 1.364703014810873e+000
1	 2.332176754157270e+000	 3.266147254127807e+000	 1.563779009232666e+000
1	 2.694717786145272e+000	 3.009988882078973e+000	-7.984246360898178e-001
1	 2.661335963898585e+000	 3.039543939788214e+000	-5.108397006955822e-001
1	 2.627642384042430e+000	 3.068718195732604e+000	-2.391608478409151e-001
1	 2.593643574212858e+000	 3.097506775307298e+000	 1.772670754137137e-002
1	 2.559346162319434e+000	 3.125904953099965e+000	 2.609712079341759e-001
1	 2.524756872283762e+000	 3.153908155422980e+000	 4.917518837371460e-001
1	 2.489882519702958e+000	 3.181511962699814e+000	 7.112764431710625e-001
1	 2.454730007443883e+000	 3.208712111703173e+000	 9.207785271898740e-001
1	 2.419306321174022e+000	 3.235504497642577e+000	 1.121515135058777e+000
1	 2.383618524835003e+000	 3.261885176099418e+000	 1.314764026293658e+000
1	 2.347673756064768e+000	 3.287850364807801e+000	 1.501821104676130e+000
1	 2.712505626793908e+000	 3.029857828228585e+000	-7.356677690367229e-001
1	 2.678903451033047e+000	 3.059607978967379e+000	-4.626274625603957e-001
1	 2.644987459749730e+000	 3.088974814267723e+000	-2.048751647878869e-001
1	 2.610764223668948e+000	 3.117953427347487e+000	 3.862822929470877e-002
1	 2.576240414451112e+000	 3.146539061601881e+000	 2.689570582233383e-001
1	 2.541422800402450e+000	 3.174727113152346e+000	 4.872185373360640e-001
1	 2.506318242109850e+000	 3.202513133248717e+000	 6.945503573987668e-001
1	 2.470933688006018e+000	 3.229892830522120e+000	 8.921182439753108e-001
1	 2.435276169870846e+000	 3.256862073086340e+000	 1.081113483007032e+000
1	 2.399352798275060e+000	 3.283416890485647e+000	 1.262750418115572e+000
1	 2.363170757972164e+000	 3.309553475487395e+000	 1.438263925175327e+000
1	 2.730293467442543e+000	 3.049726774378111e+000	-6.765560655790393e-001
1	 2.696470938167511e+000	 3.079672018146433e+000	-4.179979786042160e-001
1	 2.662332535457031e+000	 3.109231432802700e+000	-1.740983189757825e-001
1	 2.627884873125035e+000	 3.138400079387501e+000	 5.611505288098764e-002
1	 2.593134666582783e+000	 3.167173170103586e+000	 2.736510227741142e-001
1	 2.558088728521126e+000	 3.195546070881469e+000	 4.795529658431330e-001
1	 2.522753964516725e+000	 3.223514303797348e+000	 6.748964414853517e-001
1	 2.487137368568124e+000	 3.251073549340771e+000	 8.607868453264901e-001
1	 2.451246018567628e+000	 3.278219648529786e+000	 1.038357023528730e+000
1	 2.415087071715054e+000	 3.304948604871548e+000	 1.208764854789562e+000
1	 2.378667759879475e+000	 3.331256586166656e+000	 1.373190805428073e+000
1	 2.748081308091210e+000	 3.069595720527704e+000	-6.210027731342789e-001
1	 2.714038425301999e+000	 3.099736057325528e+000	-3.768485165661020e-001
1	 2.679677611164348e+000	 3.129488051337687e+000	-1.467148696569996e-001
1	 2.645005522581133e+000	 3.158846731427493e+000	 7.031189836600307e-002
1	 2.610028918714459e+000	 3.187807278605231e+000	 2.751835174095629e-001
1	 2.574754656639798e+000	 3.216365028610493e+000	 4.688875466166571e-001
1	 2.539189686923587e+000	 3.244515474345840e+000	 6.524451533138068e-001
1	 2.503341049130209e+000	 3.272254268159244e+000	 8.269088458598078e-001
1	 2.467215867264374e+000	 3.299577223973019e+000	 9.933601655391494e-001
1	 2.430821345154999e+000	 3.326480319257203e+000	 1.152907342712497e+000
1	 2.394164761786720e+000	 3.352959696845651e+000	 1.306682922489876e+000
1	 2.765869148739947e+000	 3.089464666677513e+000	-5.689233708104078e-001
1	 2.731605912436535e+000	 3.119800096504819e+000	-3.390789869491938e-001
1	 2.697022686871698e+000	 3.149744669872843e+000	-1.226123457709208e-001
1	 2.662126172037251e+000	 3.179293383467614e+000	 8.134027742018464e-002
1	 2.626923170846145e+000	 3.208441387106961e+000	 2.736816030352959e-001
1	 2.591420584758473e+000	 3.237183986339555e+000	 4.553512516374663e-001
1	 2.555625409330443e+000	 3.265516644894320e+000	 6.273235947676724e-001
1	 2.519544729692277e+000	 3.293434986977655e+000	 7.906055570814385e-001
1	 2.483185715961096e+000	 3.320934799416142e+000	 9.462343748102612e-001
1	 2.446555618594906e+000	 3.348012033642701e+000	 1.095275315639436e+000
1	 2.409661763693914e+000	 3.374662807524445e+000	 1.238819365155003e+000
1	 2.783656989388781e+000	 3.109333612827688e+000	-5.202354981022305e-001
1	 2.749173399571143e+000	 3.139864135684460e+000	-3.045918585830897e-001
1	 2.714367762579100e+000	 3.170001288408317e+000	-1.016811510609856e-001
1	 2.679246821493404e+000	 3.199740035508015e+000	 8.931859582837119e-002
1	 2.643817422977850e+000	 3.229075495608925e+000	 2.692690928307548e-001
1	 2.608086512877154e+000	 3.258002944068795e+000	 4.390697563123702e-001
1	 2.572061131737296e+000	 3.286517815442916e+000	 5.996556189569137e-001
1	 2.535748410254337e+000	 3.314615705796119e+000	 7.519951897282556e-001
1	 2.499155564657801e+000	 3.342292374859254e+000	 8.970882680055270e-001
1	 2.462289892034790e+000	 3.369543748028127e+000	 1.035963716880788e+000
1	 2.425158765601074e+000	 3.396365918203103e+000	 1.169677200677427e+000
1	 2.801444830037748e+000	 3.129202558978380e+000	-4.748588863042633e-001
1	 2.766740886705849e+000	 3.159928174864604e+000	-2.732920774030710e-001
1	 2.731712838286569e+000	 3.190257906944266e+000	-8.381447280651896e-002
1	 2.696367470949601e+000	 3.220186687548849e+000	 9.436225209429933e-002
1	 2.660711675109584e+000	 3.249709604111268e+000	 2.620666553567345e-001
1	 2.624752440995853e+000	 3.278821901798352e+000	 4.201655441325261e-001
1	 2.588496854144156e+000	 3.307518985991762e+000	 5.695619333586957e-001
1	 2.551952090816394e+000	 3.335796424614757e+000	 7.111929522098827e-001
1	 2.515125413354498e+000	 3.363649950302459e+000	 8.460277031323426e-001
1	 2.478024165474663e+000	 3.391075462413564e+000	 9.750650783680046e-001
1	 2.440655767508217e+000	 3.418069028881693e+000	 1.099331538949943e+000
1	 2.285685748434003e+000	 3.201037922084772e+000	 1.739189825592910e+000
1	 2.250446894129934e+000	 3.225909482613576e+000	 1.973657328482959e+000
1	 2.214971943538431e+000	 3.250369633505693e+000	 2.203819390094771e+000
1	 2.179268029550415e+000	 3.274415169322649e+000	 2.427548656883013e+000
1	 2.143342338751272e+000	 3.298043047850051e+000	 2.642754796501805e+000
1	 2.107202106807173e+000	 3.321250391072290e+000	 2.847387501397082e+000
1	 2.070854613836993e+000	 3.344034485992657e+000	 3.039439399918349e+000
1	 2.034307179775804e+000	 3.366392785299043e+000	 3.216948869883718e+000
1	 1.997567159735842e+000	 3.388322907875671e+000	 3.378002749826554e+000
1	 1.960641939370820e+000	 3.409822639161488e+000	 3.520738943457352e+000
1	 1.923538930249378e+000	 3.430889931356199e+000	 3.643348913189294e+000
1	 2.301182750341905e+000	 3.222741032766358e+000	 1.682552430599586e+000
1	 2.265704975795809e+000	 3.247781223047380e+000	 1.903259246873214e+000
1	 2.229989504223994e+000	 3.272407214324913e+000	 2.119742566005165e+000
1	 2.194043516878546e+000	 3.296615779427530e+000	 2.330086094143454e+000
1	 2.157874249070071e+000	 3.320403855514564e+000	 2.532406368760343e+000
1	 2.121488985522725e+000	 3.343768545057394e+000	 2.724855458596168e+000
1	 2.084895055714760e+000	 3.366707116665132e+000	 2.905623581509403e+000
1	 2.048099829210577e+000	 3.389217005754840e+000	 3.072941635670218e+000
1	 2.011110710990247e+000	 3.411295815066718e+000	 3.225083639796912e+000
1	 1.973935136782386e+000	 3.432941315024939e+000	 3.360369078406164e+000
1	 1.936580568406245e+000	 3.454151443945082e+000	 3.477165148328624e+000
1	 2.316679752249655e+000	 3.244444143447348e+000	 1.624052074339030e+000
1	 2.280963057461482e+000	 3.269652963480678e+000	 1.831585241511867e+000
1	 2.245007064909297e+000	 3.294444795143722e+000	 2.034964383310080e+000
1	 2.208819004206357e+000	 3.318816389532113e+000	 2.232459387271776e+000
1	 2.172406159388486e+000	 3.342764663178889e+000	 2.422369325745878e+000
1	 2.135775864237826e+000	 3.366286699042419e+000	 2.603024889152164e+000
1	 2.098935497592009e+000	 3.389379747337628e+000	 2.772790746202359e+000
1	 2.061892478644770e+000	 3.412041226210741e+000	 2.930067826961820e+000
1	 2.024654262244012e+000	 3.434268722257935e+000	 3.073295524865011e+000
1	 1.987228334193261e+000	 3.456059990888608e+000	 3.200953814040268e+000
1	 1.949622206562376e+000	 3.477412956534195e+000	 3.311565278550074e+000
1	 2.332176754157270e+000	 3.266147254127807e+000	 1.563779009232666e+000
1	 2.296221139126976e+000	 3.291524703913511e+000	 1.758704944693355e+000
1	 2.260024625594372e+000	 3.316482375962150e+000	 1.949539826730694e+000
1	 2.223594491533885e+000	 3.341016999636398e+000	 2.134715332899968e+000
1	 2.186938069706560e+000	 3.365125470843009e+000	 2.312689214533508e+000
1	 2.150062742952529e+000	 3.388804853027323e+000	 2.481947499849376e+000
1	 2.112975939468804e+000	 3.412052378010083e+000	 2.641006631758403e+000
1	 2.075685128078455e+000	 3.434865446666672e+000	 2.788415536630677e+000
1	 2.038197813497221e+000	 3.457241629449239e+000	 2.922757620492096e+000
1	 2.000521531603536e+000	 3.479178666752396e+000	 3.042652689338922e+000
1	 1.962663844717872e+000	 3.500674469123442e+000	 3.146758790483057e+000
1	 2.347673756064768e+000	 3.287850364807801e+000	 1.501821104676130e+000
1	 2.311479220792314e+000	 3.313396444345925e+000	 1.684686150140387e+000
1	 2.275042186279247e+000	 3.338519956780215e+000	 1.863522429171125e+000
1	 2.238369978861165e+000	 3.363217609740386e+000	 2.036899492041280e+000
1	 2.201469980024336e+000	 3.387486278506896e+000	 2.203410379572812e+000
1	 2.164349621666887e+000	 3.411323007012064e+000	 2.361673632205520e+000
1	 2.127016381345206e+000	 3.434725008682438e+000	 2.510335240197980e+000
1	 2.089477777511701e+000	 3.457689667122556e+000	 2.648070531543437e+000
1	 2.051741364749952e+000	 3.480214536640536e+000	 2.773585994372571e+000
1	 2.013814729013301e+000	 3.502297342616207e+000	 2.885621030811817e+000
1	 1.975705482872835e+000	 3.523935981712723e+000	 2.982949639468923e+000
1	 2.363170757972164e+000	 3.309553475487395e+000	 1.438263925175327e+000
1	 2.326737302457517e+000	 3.335268184777968e+000	 1.609594873288093e+000
1	 2.290059746963950e+000	 3.360557537597944e+000	 1.776964319321458e+000
1	 2.253145466188234e+000	 3.385418219844079e+000	 1.939056230604462e+000
1	 2.216001890341861e+000	 3.409847086170533e+000	 2.094576002120319e+000
1	 2.178636500380949e+000	 3.433841160996598e+000	 2.242252307236871e+000
1	 2.141056823221275e+000	 3.457397639354630e+000	 2.380838894713222e+000
1	 2.103270426944581e+000	 3.480513887578316e+000	 2.509116328827690e+000
1	 2.065284916002286e+000	 3.503187443831742e+000	 2.625893669644851e+000
1	 2.027107926422647e+000	 3.525416018479945e+000	 2.730010090619907e+000
1	 1.988747121027364e+000	 3.547197494301935e+000	 2.820336430923955e+000
1	 2.378667759879475e+000	 3.331256586166656e+000	 1.373190805428073e+000
1	 2.341995384122610e+000	 3.357139925209682e+000	 1.533495409211703e+000
1	 2.305077307648510e+000	 3.382595118415356e+000	 1.689916267399944e+000
1	 2.267920953515127e+000	 3.407618829947475e+000	 1.841228758324198e+000
1	 2.230533800659176e+000	 3.432207893833895e+000	 1.986228138130436e+000
1	 2.192923379094772e+000	 3.456359314980883e+000	 2.123731268473571e+000
1	 2.155097265097074e+000	 3.480070270026597e+000	 2.252578294355778e+000
1	 2.117063076377164e+000	 3.503338108033873e+000	 2.371634269157132e+000
1	 2.078828467254304e+000	 3.526160351022762e+000	 2.479790724067634e+000
1	 2.040401123831664e+000	 3.548534694343511e+000	 2.575967179297209e+000
1	 2.001788759181560e+000	 3.570459006890981e+000	 2.659112594613069e+000
1	 2.394164761786720e+000	 3.352959696845651e+000	 1.306682922489876e+000
1	 2.357253465787613e+000	 3.379011665641112e+000	 1.456450388304432e+000
1	 2.320094868332957e+000	 3.404632699232478e+000	 1.602427729118741e+000
1	 2.282696440841880e+000	 3.429819440050575e+000	 1.743459166179695e+000
1	 2.245065710976327e+000	 3.454568701496963e+000	 1.878407754674870e+000
1	 2.207210257808406e+000	 3.478877468964878e+000	 2.006157023304324e+000
1	 2.169137706972663e+000	 3.502742900698278e+000	 2.125612566600623e+000
1	 2.130855725809523e+000	 3.526162328489153e+000	 2.235703587190561e+000
1	 2.092372018506088e+000	 3.549133258213510e+000	 2.335384385344481e+000
1	 2.053694321240442e+000	 3.571653370206810e+000	 2.423635793318013e+000
1	 2.014830397335523e+000	 3.593720519479760e+000	 2.499466552155069e+000
1	 2.409661763693914e+000	 3.374662807524445e+000	 1.238819365155003e+000
1	 2.372511547452549e+000	 3.400883406072305e+000	 1.378520829806945e+000
1	 2.335112429017319e+000	 3.426670280049329e+000	 1.514546887953144e+000
1	 2.297471928168530e+000	 3.452020050153380e+000	 1.645788462369329e+000
1	 2.259597621293357e+000	 3.476929509159713e+000	 1.771154764956720e+000
1	 2.221497136521904e+000	 3.501395622948537e+000	 1.889574882725748e+000
1	 2.183178148848105e+000	 3.525415531369613e+000	 1.999999317881695e+000
1	 2.144648375241727e+000	 3.548986548944076e+000	 2.101401479292839e+000
1	 2.105915569757716e+000	 3.572106165403896e+000	 2.192779122770159e+000
1	 2.066987518649074e+000	 3.594772046069743e+000	 2.273155737741738e+000
1	 2.027872035489354e+000	 3.616982032068171e+000	 2.341581878064499e+000
1	 2.425158765601074e+000	 3.396365918203103e+000	 1.169677200677427e+000
1	 2.387769629117440e+000	 3.422755146503306e+000	 1.299766193284462e+000
1	 2.350129989701624e+000	 3.448707860865934e+000	 1.426320695790154e+000
1	 2.312247415495113e+000	 3.474220660255889e+000	 1.548256606906041e+000
1	 2.274129531610309e+000	 3.499290316822126e+000	 1.664508061982077e+000
1	 2.235784015235318e+000	 3.523913776931821e+000	 1.774028999567686e+000
1	 2.197218590723461e+000	 3.548088162040541e+000	 1.875794682189894e+000
1	 2.158441024673848e+000	 3.571810769398565e+000	 1.968803168659401e+000
1	 2.119459121009271e+000	 3.595079072593830e+000	 2.052076735363117e+000
1	 2.080280716057648e+000	 3.617890721932214e+000	 2.124663244155385e+000
1	 2.040913673643154e+000	 3.640243544656117e+000	 2.185637454618977e+000
1	 2.440655767508217e+000	 3.418069028881693e+000	 1.099331538949943e+000
1	 2.403027710782309e+000	 3.444626886934158e+000	 1.220244428142751e+000
1	 2.365147550385903e+000	 3.470745441682317e+000	 1.337794912028491e+000
1	 2.327022902821665e+000	 3.496421270358104e+000	 1.450902544894704e+000
1	 2.288661441927230e+000	 3.521651124484178e+000	 1.558505550948887e+000
1	 2.250070893948702e+000	 3.546431930914687e+000	 1.659562405262249e+000
1	 2.211259032598793e+000	 3.570760792711000e+000	 1.753053367819636e+000
1	 2.172233674105955e+000	 3.594634989852545e+000	 1.837981967959686e+000
1	 2.133002672260832e+000	 3.618051979783225e+000	 1.913376436640450e+000
1	 2.093573913466255e+000	 3.641009397794124e+000	 1.978291084122837e+000
1	 2.053955311797024e+000	 3.663505057243499e+000	 2.031807620826539e+000
1	 1.923538930249378e+000	 3.430889931356199e+000	 3.643348913189293e+000
1	 1.886271168719185e+000	 3.451519841804724e+000	 3.744614566815132e+000
1	 1.848840550700881e+000	 3.471713851746570e+000	 3.823736054677190e+000
1	 1.811254536557092e+000	 3.491470416868223e+000	 3.879552365306600e+000
1	 1.773520594178441e+000	 3.510788158857956e+000	 3.910941948044285e+000
1	 1.735646194488917e+000	 3.529665864868950e+000	 3.916823756284048e+000
1	 1.697638806993271e+000	 3.548102486840682e+000	 3.896158216155665e+000
1	 1.659505895371513e+000	 3.566097140681105e+000	 3.847948119825843e+000
1	 1.621254913125377e+000	 3.583649105312324e+000	 3.771239442784545e+000
1	 1.582893299281493e+000	 3.600757821582674e+000	 3.665122084672781e+000
1	 1.544428474155829e+000	 3.617422891048259e+000	 3.528730533393865e+000
1	 1.936580568406245e+000	 3.454151443945082e+000	 3.477165148328624e+000
1	 1.899060130596229e+000	 3.474921225660750e+000	 3.574262825503198e+000
1	 1.861375732127374e+000	 3.495252151454281e+000	 3.650596535472984e+000
1	 1.823534883943736e+000	 3.515142666541675e+000	 3.704770236745417e+000
1	 1.785545104568417e+000	 3.534591383266208e+000	 3.735432614498464e+000
1	 1.747413915578442e+000	 3.553597080557927e+000	 3.741278478076707e+000
1	 1.709148837121985e+000	 3.572158703250428e+000	 3.721050068880528e+000
1	 1.670757383482980e+000	 3.590275361257489e+000	 3.673538277344432e+000
1	 1.632247058698082e+000	 3.607946328612285e+000	 3.597583767937165e+000
1	 1.593625352230694e+000	 3.625171042372080e+000	 3.492078011351721e+000
1	 1.554899734706702e+000	 3.641949101391516e+000	 3.355964223286997e+000
1	 1.949622206562376e+000	 3.477412956534195e+000	 3.311565278550075e+000
1	 1.911849092472506e+000	 3.498322609516991e+000	 3.403977992136536e+000
1	 1.873910913553071e+000	 3.518790451162160e+000	 3.476948356238149e+000
1	 1.835815231329566e+000	 3.538814916215224e+000	 3.528885025518035e+000
1	 1.797569614957565e+000	 3.558394607674471e+000	 3.558246302135677e+000
1	 1.759181636667133e+000	 3.577528296246814e+000	 3.563541826923267e+000
1	 1.720658867249861e+000	 3.596214919659974e+000	 3.543334167387878e+000
1	 1.682008871593610e+000	 3.614453581833564e+000	 3.496240300852743e+000
1	 1.643239204269950e+000	 3.632243551911827e+000	 3.420932991328651e+000
1	 1.604357405179059e+000	 3.649584263160969e+000	 3.316142058983219e+000
1	 1.565370995256741e+000	 3.666475311734168e+000	 3.180655541351176e+000
1	 1.962663844717872e+000	 3.500674469123442e+000	 3.146758790483057e+000
1	 1.924638054348121e+000	 3.521723993373348e+000	 3.234024208975387e+000
1	 1.886446094978093e+000	 3.542328750870120e+000	 3.303109339862751e+000
1	 1.848095578714712e+000	 3.562487165888798e+000	 3.352266504597921e+000
1	 1.809594125346025e+000	 3.582197832082684e+000	 3.379802253930726e+000
1	 1.770949357755138e+000	 3.601459511935572e+000	 3.384079292874348e+000
1	 1.732168897377055e+000	 3.620271136069303e+000	 3.363518290393533e+000
1	 1.693260359703563e+000	 3.638631802409330e+000	 3.316599571842869e+000
1	 1.654231349841147e+000	 3.656540775210977e+000	 3.241864692496724e+000
1	 1.615089458126757e+000	 3.673997483949385e+000	 3.137917890825301e+000
1	 1.575842255806114e+000	 3.691001522076283e+000	 3.003427420482125e+000
1	 1.975705482872835e+000	 3.523935981712723e+000	 2.982949639468924e+000
1	 1.937427016223188e+000	 3.545125377229726e+000	 3.064658643863857e+000
1	 1.898981276402560e+000	 3.565867050578072e+000	 3.129388917436571e+000
1	 1.860375926099302e+000	 3.586159415562315e+000	 3.175274683467622e+000
1	 1.821618635733935e+000	 3.606001056490789e+000	 3.200508643160909e+000
1	 1.782717078842601e+000	 3.625390727624157e+000	 3.203344075174663e+000
1	 1.743678927503718e+000	 3.644327352478393e+000	 3.182096809217008e+000
1	 1.704511847812996e+000	 3.662810022984794e+000	 3.135147071546497e+000
1	 1.665223495411833e+000	 3.680837998509759e+000	 3.060941200561190e+000
1	 1.625821511073953e+000	 3.698410704737381e+000	 2.957993231003243e+000
1	 1.586313516354986e+000	 3.715527732417929e+000	 2.824886345647165e+000
1	 1.988747121027364e+000	 3.547197494301935e+000	 2.820336430923957e+000
1	 1.950215978097817e+000	 3.568526761086030e+000	 2.896131718911076e+000
1	 1.911516457826590e+000	 3.589405350285925e+000	 2.956088403404357e+000
1	 1.872656273483467e+000	 3.609831665235706e+000	 2.998260128249639e+000
1	 1.833643146121435e+000	 3.629804280898727e+000	 3.020762936365621e+000
1	 1.794484799929670e+000	 3.649321943312530e+000	 3.021777485261073e+000
1	 1.755188957630005e+000	 3.668383568887227e+000	 2.999551127390933e+000
1	 1.715763335922069e+000	 3.686988243559954e+000	 2.952399853098917e+000
1	 1.676215640982173e+000	 3.705135221808200e+000	 2.878710094263338e+000
1	 1.636553564020811e+000	 3.722823925524999e+000	 2.776940387131024e+000
1	 1.596784776903525e+000	 3.740053942759174e+000	 2.645622893189399e+000
1	 2.001788759181560e+000	 3.570459006890981e+000	 2.659112594613069e+000
1	 1.963004939972117e+000	 3.591928144942161e+000	 2.728687330233232e+000
1	 1.924051639250307e+000	 3.612943649993593e+000	 2.783501259965134e+000
1	 1.884936620867336e+000	 3.633503914908892e+000	 2.821564269323621e+000
1	 1.845667656508661e+000	 3.653607505306437e+000	 2.840952242117885e+000
1	 1.806252521016491e+000	 3.673253159000651e+000	 2.839809334007413e+000
1	 1.766698987756068e+000	 3.692439785295785e+000	 2.816350103086190e+000
1	 1.727014824030942e+000	 3.711166464134818e+000	 2.768861495246128e+000
1	 1.687207786552331e+000	 3.729432445106324e+000	 2.695704682458938e+000
1	 1.647285616967498e+000	 3.747237146312289e+000	 2.595316752503572e+000
1	 1.607256037451896e+000	 3.764580153100085e+000	 2.466212249050400e+000
1	 2.014830397335523e+000	 3.593720519479760e+000	 2.499466552155069e+000
1	 1.975793901846201e+000	 3.615329528798024e+000	 2.562563059161565e+000
1	 1.936586820673828e+000	 3.636481949700988e+000	 2.611913351203212e+000
1	 1.897216968251039e+000	 3.657176164581797e+000	 2.645519696996396e+000
1	 1.857692166895753e+000	 3.677410729713860e+000	 2.661453646250733e+000
1	 1.818020242103209e+000	 3.697184374688481e+000	 2.657858303929947e+000
1	 1.778209017882060e+000	 3.716496001704045e+000	 2.632950455131300e+000
1	 1.738266312139771e+000	 3.735344684709383e+000	 2.585022538431476e+000
1	 1.698199932122467e+000	 3.753729668404155e+000	 2.512444465950335e+000
1	 1.658017669914180e+000	 3.771650367099296e+000	 2.413665288785289e+000
1	 1.617727298000268e+000	 3.789106363440732e+000	 2.287214706866896e+000
1	 2.027872035489354e+000	 3.616982032068171e+000	 2.341581878064499e+000
1	 1.988582863720177e+000	 3.638730912653521e+000	 2.397990375300328e+000
1	 1.949122002097276e+000	 3.660020249408020e+000	 2.441603187412864e+000
1	 1.909497315634706e+000	 3.680848414254348e+000	 2.470450445763151e+000
1	 1.869716677282848e+000	 3.701213954120939e+000	 2.482634534148007e+000
1	 1.829787963189973e+000	 3.721115590375979e+000	 2.476332307030436e+000
1	 1.789719048008136e+000	 3.740552218111991e+000	 2.449797153364706e+000
1	 1.749517800248717e+000	 3.759522905283656e+000	 2.401360904054816e+000
1	 1.709192077692748e+000	 3.778026891701722e+000	 2.329435581497727e+000
1	 1.668749722861022e+000	 3.796063587886068e+000	 2.232514990073164e+000
1	 1.628198558548805e+000	 3.813632573781181e+000	 2.109176146847118e+000
1	 2.040913673643154e+000	 3.640243544656117e+000	 2.185637454618976e+000
1	 2.001371825594157e+000	 3.662132296508555e+000	 2.235194831799530e+000
1	 1.961657183520769e+000	 3.683558549114604e+000	 2.272842160055495e+000
1	 1.921777663018466e+000	 3.704520663926468e+000	 2.296672267669722e+000
1	 1.881741187670086e+000	 3.725017178527611e+000	 2.304852900678533e+000
1	 1.841555684276927e+000	 3.745046806063103e+000	 2.295628828919344e+000
1	 1.801229078134447e+000	 3.764608434519604e+000	 2.267323794020741e+000
1	 1.760769288357938e+000	 3.783701125857639e+000	 2.218342297657086e+000
1	 1.720184223263335e+000	 3.802324114999045e+000	 2.147171228806811e+000
1	 1.679481775808191e+000	 3.820476808672654e+000	 2.052381329167244e+000
1	 1.638669819097675e+000	 3.838158784121502e+000	 1.932628496286919e+000
1	 2.053955311797024e+000	 3.663505057243499e+000	 2.031807620826539e+000
1	 2.014160787468252e+000	 3.685533680363033e+000	 2.074396253188157e+000
1	 1.974192364944430e+000	 3.707096848820648e+000	 2.105894767765663e+000
1	 1.934058010402449e+000	 3.728192913598081e+000	 2.124492895260664e+000
1	 1.893765698057606e+000	 3.748820402933820e+000	 2.128457648322498e+000
1	 1.853323405364218e+000	 3.768978021749815e+000	 2.116135259828865e+000
1	 1.812739108261148e+000	 3.788664650926862e+000	 2.085952960814411e+000
1	 1.772020776467593e+000	 3.807879346431334e+000	 2.036420596744720e+000
1	 1.731176368834391e+000	 3.826621338296152e+000	 1.966132081249371e+000
1	 1.690213828755852e+000	 3.844890029459100e+000	 1.873766686839613e+000
1	 1.649141079647045e+000	 3.862684994461763e+000	 1.758090172541397e+000
1	 1.544428474155829e+000	 3.617422891048259e+000	 3.528730533393865e+000
1	 1.505862044005179e+000	 3.633646475212943e+000	 3.362368257703430e+000
1	 1.467207146887432e+000	 3.649425961916560e+000	 3.167017623150102e+000
1	 1.428471127328698e+000	 3.664761429167448e+000	 2.942896898976982e+000
1	 1.389661294793495e+000	 3.679653109660585e+000	 2.690356103029967e+000
1	 1.350784919814787e+000	 3.694101388953216e+000	 2.409874937106574e+000
1	 1.311849230209201e+000	 3.708106803531543e+000	 2.102060537035538e+000
1	 1.272861407380663e+000	 3.721670038772552e+000	 1.767645045304489e+000
1	 1.233828582715532e+000	 3.734791926805090e+000	 1.407483014316287e+000
1	 1.194757834072111e+000	 3.747473444274481e+000	 1.022548648588769e+000
1	 1.155656182367169e+000	 3.759715710014934e+000	 6.139328944176907e-001
1	 1.554899734706702e+000	 3.641949101391516e+000	 3.355964223286995e+000
1	 1.516071823273362e+000	 3.658282681829495e+000	 3.190130206542788e+000
1	 1.477154845064890e+000	 3.674169153815358e+000	 2.996473546806624e+000
1	 1.438156194403447e+000	 3.689608595886352e+000	 2.775519236088305e+000
1	 1.399083230311878e+000	 3.704601242315142e+000	 2.527918492285706e+000
1	 1.359943272617522e+000	 3.719147481273074e+000	 2.254446271721175e+000
1	 1.320743598141761e+000	 3.733247852883756e+000	 1.955998613417711e+000
1	 1.281491436978598e+000	 3.746903047171049e+000	 1.633589823427148e+000
1	 1.242193968865346e+000	 3.760113901905669e+000	 1.288349507734513e+000
1	 1.202858319648345e+000	 3.772881400354630e+000	 9.215194624434981e-001
1	 1.163491557846333e+000	 3.785206668937872e+000	 5.344504301010704e-001
1	 1.565370995256741e+000	 3.666475311734168e+000	 3.180655541351175e+000
1	 1.526281602540710e+000	 3.682918888445374e+000	 3.015905112401936e+000
1	 1.487102543241513e+000	 3.698912345713429e+000	 2.824619421523484e+000
1	 1.447841261477359e+000	 3.714455762604492e+000	 2.607599377681476e+000
1	 1.408505165829424e+000	 3.729549374968920e+000	 2.365765271340378e+000
1	 1.369101625419422e+000	 3.744193573592156e+000	 2.100153936114561e+000
1	 1.329637966073492e+000	 3.758388902235207e+000	 1.811915760103106e+000
1	 1.290121466575712e+000	 3.772136055568817e+000	 1.502311555553052e+000
1	 1.250559355014358e+000	 3.785435877005572e+000	 1.172709295655650e+000
1	 1.210958805223801e+000	 3.798289356434168e+000	 8.245807274116683e-001
1	 1.171326933324751e+000	 3.810697627860288e+000	 4.594978696036690e-001
1	 1.575842255806114e+000	 3.691001522076283e+000	 3.003427420482125e+000
1	 1.536491381807390e+000	 3.707555095060664e+000	 2.840319604099429e+000
1	 1.497050241417462e+000	 3.723655537610877e+000	 2.652062120328254e+000
1	 1.457526328550590e+000	 3.739302929321990e+000	 2.439701638823140e+000
1	 1.417927101346283e+000	 3.754497507622050e+000	 2.204396060133341e+000
1	 1.378259978220630e+000	 3.769239665910598e+000	 1.947411397556528e+000
1	 1.338532334004527e+000	 3.783529951586039e+000	 1.670118527549546e+000
1	 1.298751496172133e+000	 3.797369063966007e+000	 1.373989817510771e+000
1	 1.258924741162678e+000	 3.810757852104945e+000	 1.060595639859472e+000
1	 1.219059290798574e+000	 3.823697312513241e+000	 7.316007814198519e-001
1	 1.179162308802503e+000	 3.836188586782309e+000	 3.887607571723279e-001
1	 1.586313516354986e+000	 3.715527732417929e+000	 2.824886345647165e+000
1	 1.546701161073566e+000	 3.732191301675452e+000	 2.663983764938372e+000
1	 1.506997939592899e+000	 3.748398729507804e+000	 2.479392492365318e+000
1	 1.467211395623298e+000	 3.764150096038961e+000	 2.272375434397810e+000
1	 1.427349036862606e+000	 3.779445640274658e+000	 2.044297286632860e+000
1	 1.387418331021288e+000	 3.794285758228537e+000	 1.796621206122161e+000
1	 1.347426701935000e+000	 3.808671000936399e+000	 1.530905372053046e+000
1	 1.307381525767979e+000	 3.822602072362762e+000	 1.248799443606928e+000
1	 1.267290127310417e+000	 3.836079827203932e+000	 9.520409238819061e-001
1	 1.227159776372762e+000	 3.849105268591987e+000	 6.424514388024615e-001
1	 1.186997684279672e+000	 3.861679545704069e+000	 3.219329399485151e-001
1	 1.596784776903525e+000	 3.740053942759174e+000	 2.645622893189399e+000
1	 1.556910940339404e+000	 3.756827508289827e+000	 2.487491675210293e+000
1	 1.516945637767987e+000	 3.773141921404314e+000	 2.307185888296162e+000
1	 1.476896462695642e+000	 3.788997262755524e+000	 2.106155767663589e+000
1	 1.436770972378545e+000	 3.804393772926877e+000	 1.885942619382051e+000
1	 1.396576683821540e+000	 3.819331850546112e+000	 1.648175352650952e+000
1	 1.356321069865043e+000	 3.833812050286429e+000	 1.394566921143852e+000
1	 1.316011555363373e+000	 3.847835080759229e+000	 1.126910682093930e+000
1	 1.275655513457684e+000	 3.861401802302679e+000	 8.470766818114048e-001
1	 1.235260261946462e+000	 3.874513224670545e+000	 5.570078763153155e-001
1	 1.194833059756341e+000	 3.887170504625702e+000	 2.587162957282307e-001
1	 1.607256037451896e+000	 3.764580153100085e+000	 2.466212249050400e+000
1	 1.567120719605069e+000	 3.781463714903873e+000	 2.311421933492558e+000
1	 1.526893335942890e+000	 3.797885113300513e+000	 2.136002665161825e+000
1	 1.486581529767779e+000	 3.813844429471796e+000	 1.941563699710359e+000
1	 1.446192907894250e+000	 3.829341905578835e+000	 1.729793383136672e+000
1	 1.405735036621528e+000	 3.844377942863460e+000	 1.502455612713569e+000
1	 1.365215437794790e+000	 3.858953099636274e+000	 1.261386228608141e+000
1	 1.324641584958439e+000	 3.873068089155554e+000	 1.008489344560458e+000
1	 1.284020899604590e+000	 3.886723777401333e+000	 7.457336259596669e-001
1	 1.243360747519771e+000	 3.899921180749059e+000	 4.751485236048217e-001
1	 1.202668435232591e+000	 3.912661463547339e+000	 1.988204713638131e-001
1	 1.617727298000268e+000	 3.789106363440732e+000	 2.287214706866896e+000
1	 1.577330498870728e+000	 3.806099921517680e+000	 2.136338157700219e+000
1	 1.536841034117768e+000	 3.822628305196501e+000	 1.966388671637988e+000
1	 1.496266596839867e+000	 3.838691596187896e+000	 1.779106800685469e+000
1	 1.455614843409874e+000	 3.854290038230659e+000	 1.576298958360694e+000
1	 1.414893389421396e+000	 3.869424035180721e+000	 1.359833877219865e+000
1	 1.374109805724376e+000	 3.884094148986077e+000	 1.131639019605496e+000
1	 1.333271614553298e+000	 3.898301097551884e+000	 8.936969495201957e-001
1	 1.292386285751244e+000	 3.912045752500035e+000	 6.480416734577383e-001
1	 1.251461233092784e+000	 3.925329136827668e+000	 3.967549579311815e-001
1	 1.210503810708504e+000	 3.938152422469113e+000	 1.419626313253834e-001
1	 1.628198558548805e+000	 3.813632573781181e+000	 2.109176146847118e+000
1	 1.587540278136545e+000	 3.830736128131332e+000	 1.962789466803691e+000
1	 1.546788732292785e+000	 3.847371497092383e+000	 1.798875714565513e+000
1	 1.505951663912061e+000	 3.863538762903940e+000	 1.619279583608155e+000
1	 1.465036778925567e+000	 3.879238170882482e+000	 1.425897165306607e+000
1	 1.424051742221288e+000	 3.894470127498032e+000	 1.220672470269673e+000
1	 1.383004173653933e+000	 3.909235198335982e+000	 1.005593926327985e+000
1	 1.341901644148074e+000	 3.923534105948366e+000	 7.826908604597735e-001
1	 1.300751671897757e+000	 3.937367727598935e+000	 5.540299718258145e-001
1	 1.259561718665599e+000	 3.950737092906512e+000	 3.217118029537945e-001
1	 1.218339186184163e+000	 3.963643381391156e+000	 8.786721596462677e-002
1	 1.638669819097675e+000	 3.838158784121502e+000	 1.932628496286919e+000
1	 1.597750057402686e+000	 3.855372334744917e+000	 1.791310944077050e+000
1	 1.556736430468104e+000	 3.872114688988262e+000	 1.633982007593858e+000
1	 1.515636730984523e+000	 3.888385929620046e+000	 1.462563921551053e+000
1	 1.474458714441479e+000	 3.904186303534432e+000	 1.279014633369755e+000
1	 1.433210095021344e+000	 3.919516219815531e+000	 1.085324454817075e+000
1	 1.391898541583594e+000	 3.934376247686132e+000	 8.835127146239045e-001
1	 1.350531673742887e+000	 3.948767114345144e+000	 6.756244185939346e-001
1	 1.309117058044239e+000	 3.962689702698176e+000	 4.637269235626851e-001
1	 1.267662204238311e+000	 3.976145048985732e+000	 2.499066313973654e-001
1	 1.226174561659649e+000	 3.989134340313600e+000	 3.626570904679823e-002
1	 1.649141079647045e+000	 3.862684994461763e+000	 1.758090172541397e+000
1	 1.607959836669317e+000	 3.880008541358522e+000	 1.622424082697936e+000
1	 1.566684128643885e+000	 3.896857880884244e+000	 1.472212602732476e+000
1	 1.525321798057408e+000	 3.913233096336334e+000	 1.309429448928339e+000
1	 1.483880649957763e+000	 3.929134436186638e+000	 1.136067156371361e+000
1	 1.442368447821710e+000	 3.944562312133359e+000	 9.541339266896698e-001
1	 1.400792909513493e+000	 3.959517297036671e+000	 7.656505019878392e-001
1	 1.359161703337863e+000	 3.974000122742366e+000	 5.726470705630418e-001
1	 1.317482444190801e+000	 3.988011677797904e+000	 3.771602097984112e-001
1	 1.275762689811018e+000	 4.001553005065471e+000	 1.812298714261231e-001
1	 1.234009937135045e+000	 4.014625299236578e+000	-1.310358586077668e-002
1	 1.155656182367169e+000	 3.759715710014934e+000	 6.139328944176907e-001
1	 1.116530587703505e+000	 3.771519981695344e+000	 1.840871038737171e-001
1	 1.077387944538932e+000	 3.782887650511029e+000	-2.640117622639718e-001
1	 1.038235080352055e+000	 3.793820241437709e+000	-7.283670027588185e-001
1	 9.990787532115453e-001	 3.804319411526238e+000	-1.206942254169916e+000
1	 9.599256488797626e-001	 3.814386947187074e+000	-1.697664592701721e+000
1	 9.207823780247851e-001	 3.824024761409275e+000	-2.198427637908186e+000
1	 8.816554735420569e-001	 3.833234890918529e+000	-2.707094652448078e+000
1	 8.425513879866883e-001	 3.842019493278808e+000	-3.221501632238247e+000
1	 8.034764911172414e-001	 3.850380843942109e+000	-3.739460381512772e+000
1	 7.644370675516263e-001	 3.858321333250832e+000	-4.258761567467674e+000
1	 1.163491557846333e+000	 3.785206668937872e+000	 5.344504301010704e-001
1	 1.124100690751761e+000	 3.797090973851327e+000	 1.293439540398327e-001
1	 1.084692659567023e+000	 3.808535715722647e+000	-2.912128712755311e-001
1	 1.045274338061189e+000	 3.819542429866925e+000	-7.251884140447292e-001
1	 1.005852530122790e+000	 3.830112784569851e+000	-1.170522922844274e+000
1	 9.664339668438114e-001	 3.840248578353792e+000	-1.625131472913883e+000
1	 9.270253037128128e-001	 3.849951737177909e+000	-2.086906898881581e+000
1	 8.876331179184214e-001	 3.859224311576942e+000	-2.553722708805109e+000
1	 8.482639057642203e-001	 3.868068473743193e+000	-3.023435974574082e+000
1	 8.089240801958820e-001	 3.876486514556273e+000	-3.493890193892545e+000
1	 7.696199684411721e-001	 3.884480840565159e+000	-3.962918119245952e+000
1	 1.171326933324751e+000	 3.810697627860288e+000	 4.594978696036690e-001
1	 1.131670793799310e+000	 3.822661966006884e+000	 7.934492931885293e-002
1	 1.091997374594454e+000	 3.834183780933947e+000	-3.137301467846048e-001
1	 1.052313595769715e+000	 3.845264618295934e+000	-7.176715245067447e-001
1	 1.012626307033486e+000	 3.855906157613378e+000	-1.130405419835672e+000
1	 9.729422848073700e-001	 3.866110209520529e+000	-1.549842904067641e+000
1	 9.332682294004113e-001	 3.875878712946665e+000	-1.973882681815704e+000
1	 8.936107622944156e-001	 3.885213732235561e+000	-2.400413837389535e+000
1	 8.539764235414393e-001	 3.894117454207846e+000	-2.827318545210861e+000
1	 8.143716692742630e-001	 3.902592185170743e+000	-3.252474740116397e+000
1	 7.748028693305061e-001	 3.910640347879802e+000	-3.673758743595517e+000
1	 1.179162308802503e+000	 3.836188586782309e+000	 3.887607571723279e-001
1	 1.139240896846218e+000	 3.848232958162135e+000	 3.359416238270534e-002
1	 1.099302089621277e+000	 3.859831846145037e+000	-3.322206576812871e-001
1	 1.059352853477670e+000	 3.870986806724833e+000	-7.066142970829613e-001
1	 1.019400083943650e+000	 3.881699530656881e+000	-1.087508215228494e+000
1	 9.794506027704419e-001	 3.891971840687340e+000	-1.472817415009080e+000
1	 9.395111550875679e-001	 3.901805688715573e+000	-1.860453082127908e+000
1	 8.995884066700155e-001	 3.911203152894399e+000	-2.248325181625316e+000
1	 8.596889413183100e-001	 3.920166434672770e+000	-2.634345007808925e+000
1	 8.198192583523397e-001	 3.928697855785512e+000	-3.016427683995075e+000
1	 7.799857702195771e-001	 3.936799855194743e+000	-3.392494608670562e+000
1	 1.186997684279672e+000	 3.861679545704069e+000	 3.219329399485151e-001
1	 1.146810999892553e+000	 3.873803950317198e+000	-8.391121208351600e-003
1	 1.106606804647542e+000	 3.885479911356019e+000	-3.473241235991207e-001
1	 1.066392111185087e+000	 3.896708995153701e+000	-6.927936252866401e-001
1	 1.026173860853301e+000	 3.907492903700438e+000	-1.042725527810083e+000
1	 9.859589207330294e-001	 3.917833471854272e+000	-1.395046641334388e+000
1	 9.457540807742724e-001	 3.927732664484666e+000	-1.747687201108970e+000
1	 9.055660510451961e-001	 3.937192573553473e+000	-2.098583331705586e+000
1	 8.654014590947963e-001	 3.946215415137962e+000	-2.445679455709307e+000
1	 8.252668474300681e-001	 3.954803526400567e+000	-2.786930643744136e+000
1	 7.851686711083348e-001	 3.962959362509964e+000	-3.120304902925757e+000
1	 1.194833059756341e+000	 3.887170504625702e+000	 2.587162957282307e-001
1	 1.154381102938380e+000	 3.899374942472197e+000	-4.708103230291236e-002
1	 1.113911519673297e+000	 3.911127976566997e+000	-3.596634837725589e-001
1	 1.073431368892000e+000	 3.922431183582631e+000	-6.769660240426014e-001
1	 1.032947637762457e+000	 3.933286276744112e+000	-9.969281202361356e-001
1	 9.924672386951353e-001	 3.943695103021376e+000	-1.317496207181262e+000
1	 9.519970064605124e-001	 3.953659640253977e+000	-1.636626096599194e+000
1	 9.115436954199336e-001	 3.963181994212798e+000	-1.952285326389755e+000
1	 8.711139768708629e-001	 3.972264395603426e+000	-2.262455447079539e+000
1	 8.307144365074037e-001	 3.980909197015899e+000	-2.565134242713335e+000
1	 7.903515719967293e-001	 3.989118869825450e+000	-2.858337883685082e+000
1	 1.202668435232591e+000	 3.912661463547339e+000	 1.988204713638131e-001
1	 1.161951205983767e+000	 3.924945934627250e+000	-8.293343067431440e-002
1	 1.121216234698595e+000	 3.936776041778079e+000	-3.698454436576863e-001
1	 1.080470626598442e+000	 3.948153372011706e+000	-6.598682935189193e-001
1	 1.039721414671136e+000	 3.959079649787976e+000	-9.509640631132488e-001
1	 9.989755566567614e-001	 3.969556734188701e+000	-1.241106572551030e+000
1	 9.582399321462762e-001	 3.979586616023536e+000	-1.528283696502764e+000
1	 9.175213397942027e-001	 3.989171414872387e+000	-1.810499615640171e+000
1	 8.768264946464748e-001	 3.998313376069162e+000	-2.085776999595733e+000
1	 8.361620255843021e-001	 4.007014867631495e+000	-2.352159119043243e+000
1	 7.955344728847096e-001	 4.015278377141183e+000	-2.607711884722214e+000
1	 1.210503810708504e+000	 3.938152422469113e+000	 1.419626313253834e-001
1	 1.169521309028779e+000	 3.950516926782475e+000	-1.163943215157313e-001
1	 1.128520949723485e+000	 3.962424106989368e+000	-3.784610003239365e-001
1	 1.087509884304450e+000	 3.973875560441019e+000	-6.422181571773702e-001
1	 1.046495191579356e+000	 3.984873022832095e+000	-9.056594694068089e-001
1	 1.005483874617912e+000	 3.995418365356301e+000	-1.166793847723488e+000
1	 9.644828578315521e-001	 4.005513591793374e+000	-1.423647676823798e+000
1	 9.234989841679795e-001	 4.015160835532258e+000	-1.674266985873103e+000
1	 8.825390124215962e-001	 4.024362356535170e+000	-1.916719546494234e+000
1	 8.416096146607194e-001	 4.033120538247348e+000	-2.149096896109725e+000
1	 8.007173737722254e-001	 4.041437884457145e+000	-2.369516284709555e+000
1	 1.218339186184163e+000	 3.963643381391156e+000	 8.786721596462677e-002
1	 1.177091412073484e+000	 3.976087918937997e+000	-1.478982366356849e-001
1	 1.135825664748019e+000	 3.988072172200968e+000	-3.860859475724620e-001
1	 1.094549142010054e+000	 3.999597748870652e+000	-6.247148752033537e-001
1	 1.053268968487136e+000	 4.010666395876541e+000	-8.618192005101497e-001
1	 1.011992192578588e+000	 4.021279996524220e+000	-1.095450576245715e+000
1	 9.707257835163287e-001	 4.031440567563524e+000	-1.323680305821641e+000
1	 9.294766285412390e-001	 4.041150256192425e+000	-1.544601449506743e+000
1	 8.882515301961914e-001	 4.050411337001454e+000	-1.756330855731951e+000
1	 8.470572037366110e-001	 4.059226208863447e+000	-1.957011115521820e+000
1	 8.059002746592268e-001	 4.067597391773322e+000	-2.144812438297567e+000
1	 1.226174561659649e+000	 3.989134340313600e+000	 3.626570904679823e-002
1	 1.184661515117946e+000	 4.001658911093932e+000	-1.778686010381468e-001
1	 1.143130379772245e+000	 4.013720237412986e+000	-3.932813616878976e-001
1	 1.101588399715292e+000	 4.025319937300696e+000	-6.080398344165029e-001
1	 1.060042745394492e+000	 4.036459768921380e+000	-8.202275452426040e-001
1	 1.018500510538793e+000	 4.047141627692513e+000	-1.027946487900663e+000
1	 9.769687092005943e-001	 4.057367543334020e+000	-1.229319255800666e+000
1	 9.354542729139564e-001	 4.067139676852902e+000	-1.422491100403608e+000
1	 8.939640479702249e-001	 4.076460317468011e+000	-1.605631913905530e+000
1	 8.525047928119328e-001	 4.085331879479782e+000	-1.776938134347943e+000
1	 8.110831755456627e-001	 4.093756899089693e+000	-1.934634571496008e+000
1	 1.234009937135045e+000	 4.014625299236578e+000	-1.310358586077668e-002
1	 1.192231618162235e+000	 4.027229903250403e+000	-2.067180855371595e-001
1	 1.150435094796215e+000	 4.039368302625527e+000	-4.005940686843896e-001
1	 1.108627657420195e+000	 4.051042125731239e+000	-5.928571157074700e-001
1	 1.066816522301443e+000	 4.062253141966685e+000	-7.816488729796840e-001
1	 1.025008828498531e+000	 4.073003258861230e+000	-9.651292229897388e-001
1	 9.832116348843374e-001	 4.083294519104892e+000	-1.141478383973220e+000
1	 9.414319172861082e-001	 4.093129097513706e+000	-1.308898936722784e+000
1	 8.996765657436613e-001	 4.102509297934844e+000	-1.465617776495731e+000
1	 8.579523818866406e-001	 4.111437550096344e+000	-1.609887988160256e+000
1	 8.162660764314832e-001	 4.119916406406245e+000	-1.739990642943576e+000
1	 7.644370675516263e-001	 3.858321333250832e+000	-4.258761567467674e+000
1	 7.254451589814354e-001	 3.865842366926856e+000	-4.785306212114192e+000
1	 6.865010045823983e-001	 3.872947779998714e+000	-5.319893819811793e+000
1	 6.476106092149704e-001	 3.879640291078204e+000	-5.852360852285321e+000
1	 6.087798846073803e-001	 3.885922721176180e+000	-6.372484994803788e+000
1	 5.700146475776188e-001	 3.891797990537994e+000	-6.870001847079792e+000
1	 5.313206183671851e-001	 3.897269115457639e+000	-7.334621279868469e+000
1	 4.927034190860264e-001	 3.902339205074782e+000	-7.756043435563287e+000
1	 4.541685722679184e-001	 3.907011458158686e+000	-8.123974352544487e+000
1	 4.157214995353986e-001	 3.911289159882991e+000	-8.428141194501432e+000
1	 3.773675203732346e-001	 3.915175678595245e+000	-8.658307067415823e+000
1	 7.696199684411721e-001	 3.884480840565159e+000	-3.962918119245952e+000
1	 7.303636938346297e-001	 3.892052867022554e+000	-4.435290498102606e+000
1	 6.911554971736030e-001	 3.899206454958563e+000	-4.911172451691545e+000
1	 6.520014240316410e-001	 3.905944341417220e+000	-5.381225823511858e+000
1	 6.129074262186264e-001	 3.912269366535887e+000	-5.836063952765656e+000
1	 5.738793599907122e-001	 3.918184470359234e+000	-6.266266938318808e+000
1	 5.349229843727678e-001	 3.923692689631786e+000	-6.662396588821268e+000
1	 4.960439595927762e-001	 3.928797154573237e+000	-7.015011039348972e+000
1	 4.572478456274206e-001	 3.933501085640565e+000	-7.314679016274806e+000
1	 4.185401008579657e-001	 3.937807790280956e+000	-7.551993733427076e+000
1	 3.799260808354098e-001	 3.941720659679418e+000	-7.717586403944999e+000
1	 7.748028693305061e-001	 3.910640347879802e+000	-3.673758743595517e+000
1	 7.352822286876530e-001	 3.918263367118544e+000	-4.094905592760712e+000
1	 6.958099897646695e-001	 3.925465129918650e+000	-4.515521592293299e+000
1	 6.563922388481979e-001	 3.932248391756403e+000	-4.927064096715681e+000
1	 6.170349678297755e-001	 3.938616011895684e+000	-5.320951319628252e+000
1	 5.777440724037148e-001	 3.944570950180484e+000	-5.688576229337955e+000
1	 5.385253503782560e-001	 3.950116263805866e+000	-6.021320151027935e+000
1	 4.993845000994172e-001	 3.955255104071564e+000	-6.310566057789786e+000
1	 4.603271189867887e-001	 3.959990713122276e+000	-6.547711534076654e+000
1	 4.213587021803617e-001	 3.964326420678744e+000	-6.724181396375853e+000
1	 3.824846412973639e-001	 3.968265640763441e+000	-6.831439957138664e+000
1	 7.799857702195771e-001	 3.936799855194743e+000	-3.392494608670562e+000
1	 7.402007635404505e-001	 3.944473867214804e+000	-3.765338105740545e+000
1	 7.004644823555437e-001	 3.951723804878959e+000	-4.134080045003346e+000
1	 6.607830536645897e-001	 3.958552442095747e+000	-4.490944045824598e+000
1	 6.211625094407802e-001	 3.964962657255565e+000	-4.828123052765299e+000
1	 5.816087848165875e-001	 3.970957430001741e+000	-5.137791920694371e+000
1	 5.421277163836210e-001	 3.976539837979888e+000	-5.412119726748465e+000
1	 5.027250406059334e-001	 3.981713053569776e+000	-5.643281793317583e+000
1	 4.634063923460216e-001	 3.986480340603840e+000	-5.823471407364861e+000
1	 4.241773035026020e-001	 3.990845051076375e+000	-5.944911222523546e+000
1	 3.850432017591321e-001	 3.994810621847332e+000	-5.999864331544352e+000
1	 7.851686711083348e-001	 3.962959362509964e+000	-3.120304902925757e+000
1	 7.451192983929696e-001	 3.970684367311316e+000	-3.447743315438026e+000
1	 7.051189749461714e-001	 3.977982479839472e+000	-3.767956544229290e+000
1	 6.651738684807651e-001	 3.984856492435232e+000	-4.073905835408120e+000
1	 6.252900510515949e-001	 3.991309302615523e+000	-4.358529340360287e+000
1	 5.854734972292921e-001	 3.997343909823010e+000	-4.614753447391350e+000
1	 5.457300823888345e-001	 4.002963412153861e+000	-4.835503860452147e+000
1	 5.060655811123092e-001	 4.008171003067890e+000	-5.013716410879559e+000
1	 4.664856657051182e-001	 4.012969968085276e+000	-5.142347589113339e+000
1	 4.269959048247031e-001	 4.017363681473869e+000	-5.214384784379970e+000
1	 3.876017622207496e-001	 4.021355602931107e+000	-5.222856221361584e+000
1	 7.903515719967293e-001	 3.989118869825450e+000	-2.858337883685082e+000
1	 7.500378332451563e-001	 3.996894867408061e+000	-3.143246196300162e+000
1	 7.097734675364987e-001	 4.004241154800174e+000	-3.418230741319150e+000
1	 6.695646832966722e-001	 4.011160542774849e+000	-3.676962345622378e+000
1	 6.294175926621726e-001	 4.017655947975553e+000	-3.913095446341486e+000
1	 5.893382096417900e-001	 4.023730389644293e+000	-4.120278225328375e+000
1	 5.493324483938681e-001	 4.029386986327793e+000	-4.292162510875860e+000
1	 5.094061216185285e-001	 4.034628952565923e+000	-4.422413434274878e+000
1	 4.695649390640774e-001	 4.039459595566599e+000	-4.504718829723625e+000
1	 4.298145061466805e-001	 4.043882311871244e+000	-4.532798367033229e+000
1	 3.901603226822515e-001	 4.047900584014783e+000	-4.500412407502488e+000
1	 7.955344728847096e-001	 4.015278377141183e+000	-2.607711884722214e+000
1	 7.549563680969569e-001	 4.023105367505020e+000	-2.852942405975123e+000
1	 7.144279601264719e-001	 4.030499829761045e+000	-3.085954151940810e+000
1	 6.739554981122601e-001	 4.037464593114587e+000	-3.301100060998751e+000
1	 6.335451342724675e-001	 4.044002593335647e+000	-3.492722522288683e+000
1	 5.932029220540419e-001	 4.050116869465589e+000	-3.655162368572635e+000
1	 5.529348143986934e-001	 4.055810560501691e+000	-3.782767656453688e+000
1	 5.127466621245758e-001	 4.061086902063884e+000	-3.869902223089517e+000
1	 4.726442124228987e-001	 4.065949223047830e+000	-3.910954009373276e+000
1	 4.326331074685508e-001	 4.070400942268520e+000	-3.900343140387454e+000
1	 3.927188831436725e-001	 4.074445565098373e+000	-3.832529754767327e+000
1	 8.007173737722254e-001	 4.041437884457145e+000	-2.369516284709555e+000
1	 7.598749029483174e-001	 4.049315867602173e+000	-2.577899234124226e+000
1	 7.190824527160368e-001	 4.056758504722065e+000	-2.772151066668340e+000
1	 6.783463129274767e-001	 4.063768643454428e+000	-2.947279924714765e+000
1	 6.376726758824334e-001	 4.070349238695802e+000	-3.098288387807862e+000
1	 5.970676344660097e-001	 4.076503349286900e+000	-3.220181378773877e+000
1	 5.565371804032823e-001	 4.082234134675567e+000	-3.307973877233457e+000
1	 5.160872026304350e-001	 4.087544851561791e+000	-3.356698431108476e+000
1	 4.757234857815805e-001	 4.092438850528989e+000	-3.361412457457027e+000
1	 4.354517087903297e-001	 4.096919572665722e+000	-3.317205324711204e+000
1	 3.952774436050484e-001	 4.100990546181900e+000	-3.219205209129612e+000
1	 8.059002746592268e-001	 4.067597391773322e+000	-2.144812438297567e+000
1	 7.647934377991849e-001	 4.075526367699502e+000	-2.319156514622054e+000
1	 7.237369453051394e-001	 4.083017179683221e+000	-2.477819426431218e+000
1	 6.827371277422707e-001	 4.090072693794364e+000	-2.616438159901070e+000
1	 6.418002174920232e-001	 4.096695884056009e+000	-2.730648280793376e+000
1	 6.009323468776550e-001	 4.102889829108227e+000	-2.816090807976609e+000
1	 5.601395464076058e-001	 4.108657708849426e+000	-2.868418914338705e+000
1	 5.194277431360902e-001	 4.114002801059661e+000	-2.883304447039145e+000
1	 4.788027591401222e-001	 4.118928478010091e+000	-2.856444259701476e+000
1	 4.382703101120333e-001	 4.123438203062862e+000	-2.783566349798006e+000
1	 3.978360040664137e-001	 4.127535527265377e+000	-2.660435795126117e+000
1	 8.110831755456627e-001	 4.093756899089693e+000	-1.934634571496007e+000
1	 7.697119726495051e-001	 4.101736867796985e+000	-2.077727502782313e+000
1	 7.283914378937261e-001	 4.109275854644495e+000	-2.203931664398369e+000
1	 6.871279425565910e-001	 4.116376744134380e+000	-2.309487059459086e+000
1	 6.459277591011915e-001	 4.123042529416265e+000	-2.390635578924733e+000
1	 6.047970592889386e-001	 4.129276308929572e+000	-2.443626896019850e+000
1	 5.637419124116360e-001	 4.135081283023280e+000	-2.464724207980553e+000
1	 5.227682836415258e-001	 4.140460750557502e+000	-2.450209818337031e+000
1	 4.818820324985227e-001	 4.145418105491159e+000	-2.396390553504924e+000
1	 4.410889114336774e-001	 4.149956833459963e+000	-2.299603008024370e+000
1	 4.003945645278038e-001	 4.154080508348820e+000	-2.156218613346873e+000
1	 8.162660764314832e-001	 4.119916406406245e+000	-1.739990642943576e+000
1	 7.746305074992251e-001	 4.127947367894609e+000	-1.854599719163828e+000
1	 7.330459304817425e-001	 4.135534529605869e+000	-1.951435515788847e+000
1	 6.915187573703857e-001	 4.142680794474465e+000	-2.027315745788729e+000
1	 6.500553007098910e-001	 4.149389174776561e+000	-2.079062493676413e+000
1	 6.086617716998224e-001	 4.155662788750935e+000	-2.103507183653639e+000
1	 5.673442784153442e-001	 4.161504857197135e+000	-2.097495414972945e+000
1	 5.261088241467260e-001	 4.166918700055335e+000	-2.057891658885036e+000
1	 4.849613058567812e-001	 4.171907732972209e+000	-1.981583812025521e+000
1	 4.439075127552784e-001	 4.176475463857045e+000	-1.865487601576908e+000
1	 4.029531249892538e-001	 4.180625489432248e+000	-1.706550838020807e+000
1	 3.773675203732346e-001	 3.915175678595245e+000	-8.658307067415823e+000
1	 3.391061330280596e-001	 3.918674958673670e+000	-8.819783015608188e+000
1	 3.009482782972789e-001	 3.921789915098675e+000	-8.915746997043852e+000
1	 2.628990420740376e-001	 3.924524148878315e+000	-8.932890077781632e+000
1	 2.249634018290041e-001	 3.926881331380236e+000	-8.857927636443044e+000
1	 1.871462259189420e-001	 3.928865201095816e+000	-8.677618359767957e+000
1	 1.494522729974377e-001	 3.930479560421402e+000	-8.378782655613037e+000
1	 1.118861915258198e-001	 3.931728272459813e+000	-7.948320468301440e+000
1	 7.445251938222409e-002	 3.932615257845103e+000	-7.373228483034661e+000
1	 3.715568356668002e-002	 3.933144491593509e+000	-6.640616707848015e+000
1	 0.000000000000000e+000	 3.933319999983334e+000	-5.737724423321633e+000
1	 3.799260808354098e-001	 3.941720659679418e+000	-7.717586403944998e+000
1	 3.414052804044881e-001	 3.945243664957141e+000	-7.816551646180328e+000
1	 3.029887145414698e-001	 3.948379740858184e+000	-7.851545431314364e+000
1	 2.646815036219775e-001	 3.951132512805529e+000	-7.809642375917068e+000
1	 2.264886588640513e-001	 3.953505677058801e+000	-7.677942959864517e+000
1	 1.884150816320309e-001	 3.955502997456446e+000	-7.443592086799571e+000
1	 1.504655628432893e-001	 3.957128302175167e+000	-7.093797070001007e+000
1	 1.126447824758348e-001	 3.958385480509716e+000	-6.615845029069170e+000
1	 7.495730917472680e-002	 3.959278479676159e+000	-5.997119684607398e+000
1	 3.740759995516190e-002	 3.959811301641445e+000	-5.225117539814434e+000
1	 0.000000000000000e+000	 3.959987999982150e+000	-4.287463439600584e+000
1	 3.824846412973639e-001	 3.968265640763441e+000	-6.831439957138664e+000
1	 3.437044277806350e-001	 3.971812371240532e+000	-6.874323338837781e+000
1	 3.050291507853137e-001	 3.974969566617713e+000	-6.855015309369146e+000
1	 2.664639651695104e-001	 3.977740876732895e+000	-6.761078172001495e+000
1	 2.280139158986443e-001	 3.980130022737658e+000	-6.580100063012790e+000
1	 1.896839373446401e-001	 3.982140793817518e+000	-6.299712947075850e+000
1	 1.514788526886652e-001	 3.983777043929510e+000	-5.907610052473204e+000
1	 1.134033734254162e-001	 3.985042688560327e+000	-5.391562732072925e+000
1	 7.546209896688400e-002	 3.985941701508024e+000	-4.739436737719140e+000
1	 3.765951634344023e-002	 3.986478111690256e+000	-3.939207897379322e+000
1	 0.000000000000000e+000	 3.986655999981866e+000	-2.978977186042170e+000
1	 3.850432017591321e-001	 3.994810621847332e+000	-5.999864331544352e+000
1	 3.460035751565559e-001	 3.998381077523853e+000	-5.992876350248658e+000
1	 3.070695870288875e-001	 4.001559392377267e+000	-5.925716835394044e+000
1	 2.682464267167312e-001	 4.004349240660396e+000	-5.786537751435803e+000
1	 2.295391729328923e-001	 4.006754368416778e+000	-5.563515311108052e+000
1	 1.909527930568868e-001	 4.008778590178979e+000	-5.244867277043919e+000
1	 1.524921425336830e-001	 4.010425785684370e+000	-4.818869724037447e+000
1	 1.141619643746719e-001	 4.011699896611567e+000	-4.273873248424001e+000
1	 7.596688875878188e-002	 4.012604923340605e+000	-3.598318612715534e+000
1	 3.791143273156587e-002	 4.013144921739845e+000	-2.780751815253336e+000
1	 0.000000000000000e+000	 4.013323999982382e+000	-1.809838576231681e+000
1	 3.876017622207496e-001	 4.021355602931107e+000	-5.222856221361585e+000
1	 3.483027225323065e-001	 4.024949783807112e+000	-5.171994791992715e+000
1	 3.091100232722676e-001	 4.028149218136837e+000	-5.063221825946914e+000
1	 2.700288882637348e-001	 4.030957604588014e+000	-4.885378818731502e+000
1	 2.310644299669047e-001	 4.033378714096125e+000	-4.627328400872799e+000
1	 1.922216487688887e-001	 4.035416386540782e+000	-4.277970818336833e+000
1	 1.535054323784604e-001	 4.037074527439684e+000	-3.826259900732271e+000
1	 1.149205553237097e-001	 4.038357104663355e+000	-3.261218504340242e+000
1	 7.647167855050675e-002	 4.039268145173817e+000	-2.571953418597337e+000
1	 3.816334911958967e-002	 4.039811731790116e+000	-1.747669726208776e+000
1	 0.000000000000000e+000	 4.039991999983599e+000	-7.776846085846686e-001
1	 3.901603226822515e-001	 4.047900584014783e+000	-4.500412407502488e+000
1	 3.506018699079427e-001	 4.051518490090317e+000	-4.411468438587377e+000
1	 3.111504595155301e-001	 4.054739043896424e+000	-4.267113329204715e+000
1	 2.718113498106161e-001	 4.057565968515733e+000	-4.056975926362998e+000
1	 2.325896870007905e-001	 4.060003059775668e+000	-3.770701595525311e+000
1	 1.934905044807632e-001	 4.062054182902880e+000	-3.397967753619454e+000
1	 1.545187222231151e-001	 4.063723269195385e+000	-2.928498923237714e+000
1	 1.156791462726375e-001	 4.065014312715616e+000	-2.352081295661270e+000
1	 7.697646834214469e-002	 4.065931367007567e+000	-1.658576791833453e+000
1	 3.841526550756252e-002	 4.066478541840969e+000	-8.379366118664928e-001
1	 0.000000000000000e+000	 4.066659999985416e+000	 1.197857349047466e-001
1	 3.927188831436725e-001	 4.074445565098373e+000	-3.832529754767327e+000
1	 3.529010172835206e-001	 4.078087196373478e+000	-3.711092543017998e+000
1	 3.131908957587517e-001	 4.081328869656023e+000	-3.536985259094149e+000
1	 2.735938113574701e-001	 4.084174332443537e+000	-3.300719925946121e+000
1	 2.341149440346593e-001	 4.086627405455375e+000	-2.992818989677203e+000
1	 1.947593601926277e-001	 4.088691979265223e+000	-2.603829780123204e+000
1	 1.555320120677647e-001	 4.090372010951406e+000	-2.124338532236475e+000
1	 1.164377372215631e-001	 4.091671520768268e+000	-1.544983956521941e+000
1	 7.748125813378200e-002	 4.092594588841764e+000	-8.564703481551313e-001
1	 3.866718189553529e-002	 4.093145351892309e+000	-4.958022576876907e-002
1	 0.000000000000000e+000	 4.093327999987731e+000	 8.848135077776859e-001
1	 3.952774436050484e-001	 4.100990546181900e+000	-3.219205209129612e+000
1	 3.552001646590955e-001	 4.104655902656603e+000	-3.070667659432294e+000
1	 3.152313320020088e-001	 4.107918695415634e+000	-2.872442043631621e+000
1	 2.753762729043917e-001	 4.110782696371410e+000	-2.616017440731229e+000
1	 2.356402010686201e-001	 4.113251751135212e+000	-2.292885802780038e+000
1	 1.960282159045999e-001	 4.115329775627761e+000	-1.894555219161768e+000
1	 1.565453019125270e-001	 4.117020752707689e+000	-1.412562787452767e+000
1	 1.171963281705945e-001	 4.118328728821235e+000	-8.384870797306947e-001
1	 7.798604792550493e-002	 4.119257810676323e+000	-1.639601944778799e-001
1	 3.891909828355884e-002	 4.119812161944039e+000	 6.193206145377180e-001
1	 0.000000000000000e+000	 4.119995999990449e+000	 1.519581739807948e+000
1	 3.978360040664137e-001	 4.127535527265377e+000	-2.660435795126117e+000
1	 3.574993120347237e-001	 4.131224608939702e+000	-2.489999472676553e+000
1	 3.172717682453777e-001	 4.134508521175254e+000	-2.273098286832741e+000
1	 2.771587344514757e-001	 4.137391060299332e+000	-2.002290358451251e+000
1	 2.371654581027822e-001	 4.139876096815146e+000	-1.670127699835898e+000
1	 1.972970716167970e-001	 4.141967571990445e+000	-1.269168160008173e+000
1	 1.575585917575194e-001	 4.143669494464162e+000	-7.919870284022685e-001
1	 1.179549191198395e-001	 4.144985936874437e+000	-2.311882865246639e-001
1	 7.849083771739961e-002	 4.145921032511149e+000	 4.205845017559900e-001
1	 3.917101467168404e-002	 4.146478971996061e+000	 1.170637669514795e+000
1	 0.000000000000000e+000	 4.146663999993465e+000	 2.026217302813581e+000
1	 4.003945645278038e-001	 4.154080508348820e+000	-2.156218613346873e+000
1	 3.597984594104606e-001	 4.157793315222784e+000	-1.968898634367497e+000
1	 3.193122044889351e-001	 4.161098346934876e+000	-1.738578443584367e+000
1	 2.789411959988171e-001	 4.163999424227288e+000	-1.458975343614210e+000
1	 2.386907151372550e-001	 4.166500442495146e+000	-1.123790138152218e+000
1	 1.985659273293368e-001	 4.168605368353228e+000	-7.267176365959980e-001
1	 1.585718816028598e-001	 4.170318236220767e+000	-2.614568749876072e-001
1	 1.187135100694059e-001	 4.171643144927797e+000	 2.782789565066821e-001
1	 7.899562750955232e-002	 4.172584254346155e+000	 8.987528883824523e-001
1	 3.942293105996174e-002	 4.173145782048278e+000	 1.606194856690281e+000
1	 0.000000000000000e+000	 4.173331999996682e+000	 2.406792704931823e+000
1	 4.029531249892538e-001	 4.180625489432248e+000	-1.706550838020807e+000
1	 3.620976067863624e-001	 4.184362021505855e+000	-1.507180605209310e+000
1	 3.213526407327571e-001	 4.187688172694503e+000	-1.268516506903127e+000
1	 2.807236575465107e-001	 4.190607788155261e+000	-9.855233683760342e-001
1	 2.402159721721477e-001	 4.193124788175180e+000	-6.531377389834547e-001
1	 1.998347830423366e-001	 4.195243164716059e+000	-2.662768355860192e-001
1	 1.595851714486658e-001	 4.196966977977436e+000	 1.801527338317968e-001
1	 1.194721010194017e-001	 4.198300352981236e+000	 6.912464754262256e-001
1	 7.950041730204928e-002	 4.199247476181253e+000	 1.272093751906762e+000
1	 3.967484744844285e-002	 4.199812592100591e+000	 1.927769769557648e+000
1	 0.000000000000000e+000	 4.200000000000001e+000	 2.663327816537489e+000
1	 4.200000000000001e+000	 0.000000000000000e+000	 2.646086429012529e+000
1	 4.199812592100591e+000	 3.967484744844298e-002	 2.616459212075488e+000
1	 4.199247476181254e+000	 7.950041730204951e-002	 2.567879665207072e+000
1	 4.198300352981237e+000	 1.194721010194014e-001	 2.503065668439570e+000
1	 4.196966977977437e+000	 1.595851714486656e-001	 2.424625896746062e+000
1	 4.195243164716060e+000	 1.998347830423366e-001	 2.335053143231540e+000
1	 4.193124788175180e+000	 2.402159721721477e-001	 2.236717630171803e+000
1	 4.190607788155260e+000	 2.807236575465109e-001	 2.131860319873338e+000
1	 4.187688172694504e+000	 3.213526407327567e-001	 2.022586237764119e+000
1	 4.184362021505856e+000	 3.620976067863622e-001	 1.910857820545859e+000
1	 4.180625489432249e+000	 4.029531249892535e-001	 1.798488302641197e+000
1	 4.226668000003317e+000	 0.000000000000000e+000	 2.060943006186338e+000
1	 4.226479402152905e+000	 3.992676383716136e-002	 2.054114438148268e+000
1	 4.225910698016349e+000	 8.000520709494818e-002	 2.030762648519862e+000
1	 4.224957561034674e+000	 1.202306919698985e-001	 1.993173383713468e+000
1	 4.223615719734106e+000	 1.605984612950158e-001	 1.943524321759317e+000
1	 4.221880961078891e+000	 2.011036387558750e-001	 1.883879031211747e+000
1	 4.219749133855213e+000	 2.417412292075336e-001	 1.816180933437174e+000
1	 4.217216152083234e+000	 2.825061190946210e-001	 1.742247279580832e+000
1	 4.214277998454134e+000	 3.233930769768958e-001	 1.663763153888790e+000
1	 4.210930727788929e+000	 3.643967541624678e-001	 1.582275515424909e+000
1	 4.207170470515677e+000	 4.055116854507894e-001	 1.499187290568123e+000
1	 4.253336000006533e+000	 0.000000000000000e+000	 1.548648911874310e+000
1	 4.253146212205121e+000	 4.017868022608315e-002	 1.561268425196299e+000
1	 4.252573919851357e+000	 8.050999688819119e-002	 1.559594775648048e+000
1	 4.251614769088036e+000	 1.209892829208253e-001	 1.545512688460485e+000
1	 4.250264461490711e+000	 1.616117511418325e-001	 1.520801127986491e+000
1	 4.248518757441675e+000	 2.023724944698755e-001	 1.487127880174468e+000
1	 4.246373479535218e+000	 2.432664862433427e-001	 1.446044151836769e+000
1	 4.243824516011197e+000	 2.842885806430889e-001	 1.398979197288045e+000
1	 4.240867824213766e+000	 3.254335132213078e-001	 1.347234983254204e+000
1	 4.237499434072025e+000	 3.666959015387498e-001	 1.291980903261350e+000
1	 4.233715451599139e+000	 4.080702459124010e-001	 1.234248553005984e+000
1	 4.280004000009551e+000	 0.000000000000000e+000	 1.103914882777029e+000
1	 4.279813022257142e+000	 4.043059661515750e-002	 1.132855310478609e+000
1	 4.279237141686183e+000	 8.101478668169247e-002	 1.149544126238341e+000
1	 4.278271977141237e+000	 1.217478738720743e-001	 1.155495625642079e+000
1	 4.276913203247188e+000	 1.626250409889992e-001	 1.152121808143392e+000
1	 4.275156553804367e+000	 2.036413501842226e-001	 1.140727571113776e+000
1	 4.272997825215164e+000	 2.447917432794693e-001	 1.122505932000168e+000
1	 4.270432879939135e+000	 2.860710421918251e-001	 1.098533288397337e+000
1	 4.267457649973411e+000	 3.274739494659243e-001	 1.069764726117594e+000
1	 4.264068140355160e+000	 3.689950489151640e-001	 1.037029385598120e+000
1	 4.260260432682666e+000	 4.106288063740697e-001	 1.001025897227201e+000
1	 4.306672000012267e+000	 0.000000000000000e+000	 7.215826654033279e-001
1	 4.306479832308872e+000	 4.068251300433352e-002	 7.639347076533831e-001
1	 4.305900363520743e+000	 8.151957647536590e-002	 7.958984618165020e-001
1	 4.304929185194208e+000	 1.225064648235383e-001	 8.186478773700394e-001
1	 4.303561945003476e+000	 1.636383308363991e-001	 8.332592163974397e-001
1	 4.301794350166916e+000	 2.049102058988005e-001	 8.407068473780153e-001
1	 4.299622170895022e+000	 2.463170003158075e-001	 8.418590763148935e-001
1	 4.297041243867040e+000	 2.878535037407402e-001	 8.374740241965359e-001
1	 4.294047475733072e+000	 3.295143857106775e-001	 8.281955600139155e-001
1	 4.290636846638357e+000	 3.712941962916665e-001	 8.145492987656525e-001
1	 4.286805413766293e+000	 4.131873668357764e-001	 7.969386740773564e-001
1	 4.333340000014584e+000	 0.000000000000000e+000	 3.966209848051257e-001
1	 4.333146642360213e+000	 4.093442939356041e-002	 4.496878457794298e-001
1	 4.332563585354944e+000	 8.202436626912543e-002	 4.940615430901535e-001
1	 4.331586393246865e+000	 1.232650557751097e-001	 5.306052681480932e-001
1	 4.330210686759509e+000	 1.646516206839158e-001	 5.600902647784188e-001
1	 4.328432146529278e+000	 2.061790616134940e-001	 5.831922110623745e-001
1	 4.326246516574763e+000	 2.478422573522515e-001	 6.004876456857011e-001
1	 4.323649607794899e+000	 2.896359652897447e-001	 6.124504469323038e-001
1	 4.320637301492754e+000	 3.315548219554990e-001	 6.194483726430755e-001
1	 4.317205552921638e+000	 3.735933436682132e-001	 6.217396696257963e-001
1	 4.313350394850049e+000	 4.157459272975019e-001	 6.194697611521199e-001
1	 4.360008000016401e+000	 0.000000000000000e+000	 1.241216612555485e-001
1	 4.359813452411068e+000	 4.118634578278727e-002	 1.854138500123416e-001
1	 4.359226807188694e+000	 8.252915606288491e-002	 2.395495824027410e-001
1	 4.358243601299131e+000	 1.240236467266810e-001	 2.871103964411053e-001
1	 4.356859428515223e+000	 1.656649105314324e-001	 3.285927408277459e-001
1	 4.355069942891405e+000	 2.074479173281874e-001	 3.644049333008347e-001
1	 4.352870862254358e+000	 2.493675143886955e-001	 3.948641686198525e-001
1	 4.350257971722702e+000	 2.914184268387492e-001	 4.201935834176820e-001
1	 4.347227127252464e+000	 3.335952582003203e-001	 4.405193852977794e-001
1	 4.343774259205020e+000	 3.758924910447598e-001	 4.558680536776458e-001
1	 4.339895375933968e+000	 4.183044877592276e-001	 4.661636199895125e-001
1	 4.386676000017618e+000	 0.000000000000000e+000	-1.007041314253790e-001
1	 4.386480262461337e+000	 4.143826217196327e-002	-3.347384203439423e-002
1	 4.385890029021907e+000	 8.303394585655828e-002	 2.798782558750510e-002
1	 4.384900809350929e+000	 1.247822376781449e-001	 8.400938911083095e-002
1	 4.383508170270558e+000	 1.666782003788322e-001	 1.348422413268537e-001
1	 4.381707739253251e+000	 2.087167730427653e-001	 1.806581736104562e-001
1	 4.379495207933779e+000	 2.508927714250337e-001	 2.215469521135260e-001
1	 4.376866335650435e+000	 2.932008883876641e-001	 2.575139529806939e-001
1	 4.373816953012211e+000	 3.356356944450734e-001	 2.884778629790722e-001
1	 4.370342965488526e+000	 3.781916384212622e-001	 3.142684520205571e-001
1	 4.366440357018084e+000	 4.208630482209341e-001	 3.346244241279228e-001
1	 4.413344000018133e+000	 0.000000000000000e+000	-2.825294718889020e-001
1	 4.413147072510928e+000	 4.169017856103756e-002	-2.114509340018003e-001
1	 4.412553250854495e+000	 8.353873565005951e-002	-1.448927422520716e-001
1	 4.411558017402181e+000	 1.255408286293939e-001	-8.275122647884933e-002
1	 4.410156912025450e+000	 1.676914902259988e-001	-2.499078280520071e-002
1	 4.408345535614768e+000	 2.099856287571122e-001	 2.835420367527903e-002
1	 4.406119553612993e+000	 2.524180284611601e-001	 7.717749003342107e-002
1	 4.403474699578092e+000	 2.949833499364003e-001	 1.212991657635407e-001
1	 4.400406778771991e+000	 3.376761306896900e-001	 1.604639075327644e-001
1	 4.396911671772176e+000	 3.804907857976765e-001	 1.943393038386589e-001
1	 4.392985338102428e+000	 4.234216086826028e-001	 2.225142550323776e-001
1	 4.440012000017850e+000	 0.000000000000000e+000	-4.259151673230948e-001
1	 4.439813882559738e+000	 4.194209494995928e-002	-3.528856000338767e-001
1	 4.439216472686361e+000	 8.404352544330236e-002	-2.832585722455939e-001
1	 4.438215225452806e+000	 1.262994195803206e-001	-2.171275376344075e-001
1	 4.436805653779830e+000	 1.687047800728155e-001	-1.546438751189590e-001
1	 4.434983331975912e+000	 2.112544844711125e-001	-9.601826882121449e-002
1	 4.432743899291975e+000	 2.539432854969692e-001	-4.152203510555082e-002
1	 4.430083063505655e+000	 2.967658114848681e-001	 8.511607573710864e-003
1	 4.426996604531820e+000	 3.397165669341018e-001	 5.368633031632319e-002
1	 4.423480378055991e+000	 3.827899331739585e-001	 9.354155123178179e-002
1	 4.419530319187035e+000	 4.259801691442145e-001	 1.275513630355295e-001
1	 4.466680000016666e+000	 0.000000000000000e+000	-5.353131049969017e-001
1	 4.466480692607678e+000	 4.219401133867761e-002	-4.620416947639291e-001
1	 4.465879694517425e+000	 8.454831523620093e-002	-3.911766135044791e-001
1	 4.464872433502731e+000	 1.270580105308174e-001	-3.229811534939502e-001
1	 4.463454395533637e+000	 1.697180699191653e-001	-2.577653201972782e-001
1	 4.461621128336632e+000	 2.125233401846509e-001	-1.958866804963901e-001
1	 4.459368244970698e+000	 2.554685425323549e-001	-1.377511608697790e-001
1	 4.456691427433116e+000	 2.985482730329781e-001	-8.381379233031047e-002
1	 4.453586430291698e+000	 3.417570031782408e-001	-3.457939892768582e-002
1	 4.450049084339993e+000	 3.850890805500641e-001	 9.396773369122317e-003
1	 4.446075300271936e+000	 4.285387296057503e-001	 4.750849057626500e-002
1	 4.180625489432249e+000	 4.029531249892535e-001	 1.798488302641197e+000
1	 4.176475463857044e+000	 4.439075127552786e-001	 1.678457586751987e+000
1	 4.171907732972210e+000	 4.849613058567809e-001	 1.543486606839634e+000
1	 4.166918700055335e+000	 5.261088241467261e-001	 1.394924651264131e+000
1	 4.161504857197135e+000	 5.673442784153436e-001	 1.234105749411020e+000
1	 4.155662788750936e+000	 6.086617716998225e-001	 1.062346410458668e+000
1	 4.149389174776560e+000	 6.500553007098914e-001	 8.809433372313213e-001
1	 4.142680794474464e+000	 6.915187573703855e-001	 6.911711188458003e-001
1	 4.135534529605870e+000	 7.330459304817428e-001	 4.942799060239019e-001
1	 4.127947367894608e+000	 7.746305074992249e-001	 2.914930731018230e-001
1	 4.119916406406245e+000	 8.162660764314833e-001	 8.400487092116481e-002
1	 4.207170470515677e+000	 4.055116854507894e-001	 1.499187290568123e+000
1	 4.202994094254132e+000	 4.467261140768506e-001	 1.408298216729466e+000
1	 4.198397360453264e+000	 4.880405792149010e-001	 1.303270491169578e+000
1	 4.193376649553178e+000	 5.294493646516859e-001	 1.185219423384116e+000
1	 4.187928431371006e+000	 5.709466444187180e-001	 1.055249096271661e+000
1	 4.182049268572324e+000	 6.125264841102887e-001	 9.144505169960537e-001
1	 4.175735820136896e+000	 6.541828423181010e-001	 7.638997458221705e-001
1	 4.168984844814609e+000	 6.959095721836307e-001	 6.046560059228895e-001
1	 4.161793204567331e+000	 7.377004230691650e-001	 4.377597772913288e-001
1	 4.154157867992349e+000	 7.795490423483209e-001	 2.642308780263091e-001
1	 4.146075913722957e+000	 8.214489773166679e-001	 8.506653638664699e-002
1	 4.233715451599139e+000	 4.080702459124010e-001	 1.234248553005984e+000
1	 4.229512724651258e+000	 4.495447153984008e-001	 1.168643870249458e+000
1	 4.224886987934366e+000	 4.911198525729065e-001	 1.089741918812629e+000
1	 4.219834599051070e+000	 5.327899051564446e-001	 9.984431229952953e-001
1	 4.214352005544933e+000	 5.745490104218120e-001	 8.956403315700707e-001
1	 4.208435748393774e+000	 6.163911965204039e-001	 7.822173472418835e-001
1	 4.202082465497299e+000	 6.583103839258993e-001	 6.590474368062866e-001
1	 4.195288895154834e+000	 7.003003869964145e-001	 5.269918243520677e-001
1	 4.188051879528886e+000	 7.423549156560877e-001	 3.868981699663806e-001
1	 4.180368368090208e+000	 7.844675771968940e-001	 2.395990365090141e-001
1	 4.172235421039816e+000	 8.266318782013202e-001	 8.591034712791668e-002
1	 4.260260432682666e+000	 4.106288063740697e-001	 1.001025897227201e+000
1	 4.256031355048466e+000	 4.523633167199346e-001	 9.571440108757842e-001
1	 4.251376615415561e+000	 4.941991259308262e-001	 9.008348102923488e-001
1	 4.246292548549062e+000	 5.361304456610526e-001	 8.328026315334970e-001
1	 4.240775579718958e+000	 5.781513764246955e-001	 7.537475104004008e-001
1	 4.234822228215323e+000	 6.202559089302560e-001	 6.643640573737316e-001
1	 4.228429110857804e+000	 6.624379255333882e-001	 5.653403158111149e-001
1	 4.221592945495160e+000	 7.046912018088519e-001	 4.573566051597531e-001
1	 4.214310554490549e+000	 7.470094082426364e-001	 3.410843510257784e-001
1	 4.206578868188181e+000	 7.893861120450735e-001	 2.171849040289150e-001
1	 4.198394928356806e+000	 8.318147790855721e-001	 8.630834945473039e-002
1	 4.286805413766293e+000	 4.131873668357764e-001	 7.969386740773564e-001
1	 4.282549985445800e+000	 4.551819180414574e-001	 7.715063226320158e-001
1	 4.277866242896896e+000	 4.972783992886886e-001	 7.345342608749604e-001
1	 4.272750498047201e+000	 5.394709861655601e-001	 6.865492442058314e-001
1	 4.267199153893132e+000	 5.817537424274391e-001	 6.280766326154320e-001
1	 4.261208708037016e+000	 6.241206213399325e-001	 5.596395783407284e-001
1	 4.254775756218444e+000	 6.665654671406718e-001	 4.817581991864646e-001
1	 4.247896995835610e+000	 7.090820166210586e-001	 3.949487387306897e-001
1	 4.240569229452331e+000	 7.516639008289350e-001	 2.997227146994613e-001
1	 4.232789368286272e+000	 7.943046468929923e-001	 1.965860568623562e-001
1	 4.224554435673913e+000	 8.369976799695581e-001	 8.603823586545990e-002
1	 4.313350394850049e+000	 4.157459272975019e-001	 6.194697611521201e-001
1	 4.309068615843296e+000	 4.580005193629748e-001	 6.094949185158031e-001
1	 4.304355870378412e+000	 5.003576726465224e-001	 5.888749658854715e-001
1	 4.299208447545528e+000	 5.428115266700171e-001	 5.579773033468010e-001
1	 4.293622728067492e+000	 5.853561084301129e-001	 5.171704752387648e-001
1	 4.287595187858888e+000	 6.279853337495214e-001	 4.668236381308369e-001
1	 4.281122401579249e+000	 6.706930087478523e-001	 4.073060167126820e-001
1	 4.274201046176213e+000	 7.134728314331501e-001	 3.389863483356576e-001
1	 4.266827904414244e+000	 7.563183934151092e-001	 2.622323169938983e-001
1	 4.258999868384476e+000	 7.992231817407798e-001	 1.774099775815693e-001
1	 4.250713942991122e+000	 8.421805808534110e-001	 8.488317130955253e-002
1	 4.339895375933968e+000	 4.183044877592276e-001	 4.661636199895125e-001
1	 4.335587246240998e+000	 4.608191206844922e-001	 4.689286147590054e-001
1	 4.330845497860159e+000	 5.034369460043562e-001	 4.619397038132169e-001
1	 4.325666397044096e+000	 5.461520671744742e-001	 4.454228819289434e-001
1	 4.320046302242091e+000	 5.889584744327863e-001	 4.196074677264762e-001
1	 4.313981667680984e+000	 6.318500461591105e-001	 3.847258199198380e-001
1	 4.307469046940256e+000	 6.748205503550326e-001	 3.410130435687725e-001
1	 4.300505096516986e+000	 7.178636462452411e-001	 2.887066866500614e-001
1	 4.293086579376300e+000	 7.609728860012833e-001	 2.280464272980121e-001
1	 4.285210368482795e+000	 8.041417165885675e-001	 1.592737520950688e-001
1	 4.276873450308417e+000	 8.473634817372634e-001	 8.263162582603439e-002
1	 4.366440357018084e+000	 4.208630482209341e-001	 3.346244241279227e-001
1	 4.362105876638948e+000	 4.636377220060151e-001	 3.476792680357730e-001
1	 4.357335125342182e+000	 5.065162193622186e-001	 3.518578747474284e-001
1	 4.352124346542950e+000	 5.494926076789815e-001	 3.472625150935331e-001
1	 4.346469876416969e+000	 5.925608404355300e-001	 3.340006082545641e-001
1	 4.340368147503342e+000	 6.357147585687870e-001	 3.121846545753594e-001
1	 4.333815692301494e+000	 6.789480919623160e-001	 2.819321603150647e-001
1	 4.326809146857958e+000	 7.222544610574481e-001	 2.433655542851417e-001
1	 4.319345254338513e+000	 7.656273785875819e-001	 1.966120963445548e-001
1	 4.311420868581225e+000	 8.090602514364861e-001	 1.418037777387483e-001
1	 4.303032957625782e+000	 8.525463826212496e-001	 7.907721328668607e-002
1	 4.392985338102428e+000	 4.234216086826028e-001	 2.225142550323776e-001
1	 4.388624507037182e+000	 4.664563233275488e-001	 2.436701729560014e-001
1	 4.383824752824527e+000	 5.095954927201384e-001	 2.568040918026744e-001
1	 4.378582296042137e+000	 5.528331481835895e-001	 2.619119776703753e-001
1	 4.372893450592175e+000	 5.961632064384138e-001	 2.589964192970143e-001
1	 4.366754627326002e+000	 6.395794709786391e-001	 2.480667460624478e-001
1	 4.360162337663001e+000	 6.830756335698054e-001	 2.291391397057031e-001
1	 4.353113197199151e+000	 7.266452758698855e-001	 2.022367394004820e-001
1	 4.345603929300892e+000	 7.702818711741306e-001	 1.673897398354067e-001
1	 4.337631368679769e+000	 8.139787862846662e-001	 1.246354819503543e-001
1	 4.329192464943203e+000	 8.577292835055018e-001	 7.401853598565182e-002
1	 4.419530319187035e+000	 4.259801691442145e-001	 1.275513630355296e-001
1	 4.415143137435748e+000	 4.692749246490990e-001	 1.548745173095357e-001
1	 4.410314380307235e+000	 5.126747660781439e-001	 1.749968233061184e-001
1	 4.405040245541704e+000	 5.561736886883483e-001	 1.878251057530085e-001
1	 4.399317024767751e+000	 5.997655724415077e-001	 1.932739408424036e-001
1	 4.393141107149004e+000	 6.434441833887548e-001	 1.912659283677104e-001
1	 4.386508983024807e+000	 6.872031751776035e-001	 1.817319592027236e-001
1	 4.379417247540587e+000	 7.310360906826693e-001	 1.646114775117817e-001
1	 4.371862604263452e+000	 7.749363637610534e-001	 1.398527370719706e-001
1	 4.363841868778422e+000	 8.188973211332392e-001	 1.074130510822280e-001
1	 4.355351972260665e+000	 8.629121843901541e-001	 6.725903482964299e-002
1	 4.446075300271936e+000	 4.285387296057503e-001	 4.750849057626493e-002
1	 4.441661767834682e+000	 4.720935259706711e-001	 7.931389264752425e-002
1	 4.436804007790361e+000	 5.157540394362641e-001	 1.046970836251330e-001
1	 4.431498195041699e+000	 5.595142291933083e-001	 1.234926604881421e-001
1	 4.425740598943744e+000	 6.033679384448822e-001	 1.355437596761696e-001
1	 4.419527586972393e+000	 6.473088957992210e-001	 1.407024526245411e-001
1	 4.412855628386947e+000	 6.913307167858135e-001	 1.388301381176876e-001
1	 4.405721297882294e+000	 7.354269054959151e-001	 1.297979306496319e-001
1	 4.398121279226208e+000	 7.795908563484759e-001	 1.134870439637202e-001
1	 4.390052368877188e+000	 8.238158559823358e-001	 8.978916892869364e-002
1	 4.381511479578153e+000	 8.680950852753392e-001	 5.860684489480968e-002
1	 4.119916406406245e+000	 8.162660764314833e-001	 8.400487092116467e-002
1	 4.111437550096344e+000	 8.579523818866409e-001	-1.297078831454173e-001
1	 4.102509297934843e+000	 8.996765657436617e-001	-3.511688432061216e-001
1	 4.093129097513706e+000	 9.414319172861080e-001	-5.792862402826270e-001
1	 4.083294519104891e+000	 9.832116348843372e-001	-8.129480627297224e-001
1	 4.073003258861229e+000	 1.025008828498531e+000	-1.051023027610713e+000
1	 4.062253141966685e+000	 1.066816522301443e+000	-1.292361600755234e+000
1	 4.051042125731239e+000	 1.108627657420195e+000	-1.535797064796577e+000
1	 4.039368302625527e+000	 1.150435094796214e+000	-1.780146634357655e+000
1	 4.027229903250404e+000	 1.192231618162235e+000	-2.024212617426270e+000
1	 4.014625299236578e+000	 1.234009937135045e+000	-2.266783621829118e+000
1	 4.146075913722957e+000	 8.214489773166679e-001	 8.506653638664732e-002
1	 4.137543220713117e+000	 8.633999709607193e-001	-1.010371330738888e-001
1	 4.128558278401947e+000	 9.053890835164926e-001	-2.953288139569169e-001
1	 4.119118518174838e+000	 9.474095616576926e-001	-4.968130802695685e-001
1	 4.109221494876151e+000	 9.894545605675654e-001	-7.044748472287553e-001
1	 4.098864890030392e+000	 1.031517146457817e+000	-9.172802541515608e-001
1	 4.088046515012491e+000	 1.073590299208018e+000	-1.134177593647883e+000
1	 4.076764314162331e+000	 1.115666915124804e+000	-1.354098286515759e+000
1	 4.065016367838656e+000	 1.157739809819977e+000	-1.575957901619759e+000
1	 4.052800895407486e+000	 1.199801721206408e+000	-1.798657219910827e+000
1	 4.040116258160177e+000	 1.241845312610418e+000	-2.021083341622946e+000
1	 4.172235421039816e+000	 8.266318782013202e-001	 8.591034712791645e-002
1	 4.163648891330076e+000	 8.688475600342713e-001	-7.530591928344377e-002
1	 4.154607258869276e+000	 9.111016012888170e-001	-2.450809437488348e-001
1	 4.145107938836247e+000	 9.533872060288049e-001	-4.225074177118813e-001
1	 4.135148470647740e+000	 9.956974862503657e-001	-6.066586153984541e-001
1	 4.124726521199935e+000	 1.038025464416730e+000	-7.965891900584053e-001
1	 4.113839888058725e+000	 1.080364076114282e+000	-9.913360147193190e-001
1	 4.102486502593892e+000	 1.122706172829172e+000	-1.189919066968089e+000
1	 4.090664433052283e+000	 1.165044524843574e+000	-1.391342357161908e+000
1	 4.078371887565092e+000	 1.207371824250492e+000	-1.594594899355312e+000
1	 4.065607217084311e+000	 1.249680688085785e+000	-1.798651724113020e+000
1	 4.198394928356806e+000	 8.318147790855721e-001	 8.630834945473027e-002
1	 4.189754561947186e+000	 8.742951491074279e-001	-5.256247765435234e-002
1	 4.180656239336789e+000	 9.168141190607618e-001	-2.002902318474780e-001
1	 4.171097359497876e+000	 9.593648503995625e-001	-3.560475627882019e-001
1	 4.161075446419581e+000	 1.001940411932846e+000	-5.189876061920677e-001
1	 4.150588152369765e+000	 1.044533782375364e+000	-6.882446952592424e-001
1	 4.139633261105279e+000	 1.087137853020315e+000	-8.629351154140474e-001
1	 4.128208691025804e+000	 1.129745430533360e+000	-1.042157901993472e+000
1	 4.116312498266289e+000	 1.172349239867047e+000	-1.224995680419132e+000
1	 4.103942879723094e+000	 1.214941927294513e+000	-1.410515548276382e+000
1	 4.091098176008842e+000	 1.257516063561146e+000	-1.597769998613445e+000
1	 4.224554435673913e+000	 8.369976799695581e-001	 8.603823586546007e-002
1	 4.215860232564423e+000	 8.797427381803210e-001	-3.285384931026490e-002
1	 4.206705219804441e+000	 9.225266368324538e-001	-1.608250213512018e-001
1	 4.197086780159656e+000	 9.653424947700836e-001	-2.971197936137067e-001
1	 4.187002422191599e+000	 1.008183337615112e+000	-4.409627343754057e-001
1	 4.176449783539792e+000	 1.051042100333811e+000	-5.915590953016987e-001
1	 4.165426634152051e+000	 1.093911629926192e+000	-7.480954825936536e-001
1	 4.153930879457953e+000	 1.136784688237429e+000	-9.097405705976051e-001
1	 4.141960563480546e+000	 1.179653954890438e+000	-1.075645857554026e+000
1	 4.129513871881355e+000	 1.222512030338490e+000	-1.244946463056677e+000
1	 4.116589134933640e+000	 1.265351439036504e+000	-1.416761966685573e+000
1	 4.250713942991122e+000	 8.421805808534110e-001	 8.488317130955232e-002
1	 4.241965903181751e+000	 8.851903272530826e-001	-1.622591738199964e-002
1	 4.232754200272183e+000	 9.282391546040192e-001	-1.265568962992711e-001
1	 4.223076200821531e+000	 9.713201391404873e-001	-2.454181110611631e-001
1	 4.212929397963710e+000	 1.014426263297271e+000	-3.720972004831334e-001
1	 4.202311414709921e+000	 1.057550418292166e+000	-5.058616439234565e-001
1	 4.191220007198933e+000	 1.100685406831993e+000	-6.459593512602069e-001
1	 4.179653067890218e+000	 1.143823945941438e+000	-7.916192954294687e-001
1	 4.167608628694930e+000	 1.186958669913788e+000	-9.420521873555782e-001
1	 4.155084864039748e+000	 1.230082133382446e+000	-1.096451193001083e+000
1	 4.142080093858573e+000	 1.273186814511861e+000	-1.253992692159338e+000
1	 4.276873450308417e+000	 8.473634817372634e-001	 8.263162582603403e-002
1	 4.268071573799144e+000	 8.906379163258444e-001	-2.723442422057723e-003
1	 4.258803180739969e+000	 9.339516723755845e-001	-9.736058255587306e-002
1	 4.249065621483434e+000	 9.772977835108906e-001	-2.006440025798297e-001
1	 4.238856373735842e+000	 1.020669188979430e+000	-3.119161150893744e-001
1	 4.228173045880061e+000	 1.064058736250520e+000	-4.304980053459020e-001
1	 4.217013380245823e+000	 1.107459183737793e+000	-5.556899425018687e-001
1	 4.205375256322487e+000	 1.150863203645447e+000	-6.867719340685299e-001
1	 4.193256693909314e+000	 1.194263384937138e+000	-8.230043236205568e-001
1	 4.180655856198142e+000	 1.237652236426401e+000	-9.636284316313578e-001
1	 4.167571052783504e+000	 1.281022189987216e+000	-1.107867239229511e+000
1	 4.303032957625782e+000	 8.525463826212496e-001	 7.907721328668609e-002
1	 4.294177244416570e+000	 8.960855053987377e-001	 7.609903472554874e-003
1	 4.284852161207753e+000	 9.396641901472765e-001	-7.311385230966140e-002
1	 4.275055042145304e+000	 9.832754278814120e-001	-1.625062146292876e-001
1	 4.264783349507913e+000	 1.026912114661696e+000	-2.599561367833111e-001
1	 4.254034677050120e+000	 1.070567054208968e+000	-3.648297554515769e-001
1	 4.242806753292610e+000	 1.114232960643671e+000	-4.764708255876312e-001
1	 4.231097444754642e+000	 1.157902461349516e+000	-5.942011998103541e-001
1	 4.218904759123573e+000	 1.201568099960529e+000	-7.173213524648985e-001
1	 4.206226848356404e+000	 1.245222339470378e+000	-8.451109484219376e-001
1	 4.193062011708302e+000	 1.288857565462575e+000	-9.768294565810340e-001
1	 4.329192464943203e+000	 8.577292835055018e-001	 7.401853598565170e-002
1	 4.320282915033995e+000	 9.015330944718943e-001	 1.473150377478020e-002
1	 4.310901141675489e+000	 9.453767079192216e-001	-5.369743203557530e-002
1	 4.301044462807080e+000	 9.892530722521699e-001	-1.307205333638220e-001
1	 4.290710325279849e+000	 1.033155040344177e+000	-2.157651232701893e-001
1	 4.279896308220005e+000	 1.077075372167601e+000	-3.082339010467319e-001
1	 4.268600126339194e+000	 1.121006737549704e+000	-4.075053031896588e-001
1	 4.256819633186567e+000	 1.164941719053704e+000	-5.129339107031437e-001
1	 4.244552824337582e+000	 1.208872814984002e+000	-6.238509030876497e-001
1	 4.231797840514404e+000	 1.252792442514398e+000	-7.395645592659808e-001
1	 4.218552970632834e+000	 1.296692940937936e+000	-8.593608055964890e-001
1	 4.355351972260665e+000	 8.629121843901541e-001	 6.725903482964313e-002
1	 4.346388585651393e+000	 9.069806835454463e-001	 1.859976582691047e-002
1	 4.336950122143130e+000	 9.510892256915464e-001	-3.899491377358411e-002
1	 4.327033883468699e+000	 9.952307166232823e-001	-1.050095732203502e-001
1	 4.316637301051570e+000	 1.039397966026977e+000	-1.789017950458308e-001
1	 4.305757939389625e+000	 1.083583690126515e+000	-2.601024164484679e-001
1	 4.294393499385466e+000	 1.127780514455969e+000	-3.480158187607029e-001
1	 4.282541821618144e+000	 1.171980976758072e+000	-4.420202656471837e-001
1	 4.270200889551217e+000	 1.216177530007600e+000	-5.414682905809082e-001
1	 4.257368832672011e+000	 1.260362545558484e+000	-6.456871340437210e-001
1	 4.244043929556965e+000	 1.304528316413302e+000	-7.539792307923514e-001
1	 4.381511479578153e+000	 8.680950852753392e-001	 5.860684489480960e-002
1	 4.372494256268734e+000	 9.124282726195251e-001	 1.917409027572609e-002
1	 4.362999102610631e+000	 9.568017434643775e-001	-2.889266958562919e-002
1	 4.353023304130100e+000	 1.001208360994867e+000	-8.510257307976633e-002
1	 4.342564276822998e+000	 1.045640891710206e+000	-1.489354111192135e-001
1	 4.331619570558887e+000	 1.090092008085801e+000	-2.198417966726006e-001
1	 4.320186872431323e+000	 1.134554291362543e+000	-2.972433851408838e-001
1	 4.308264010049258e+000	 1.179020234462681e+000	-3.805331464263336e-001
1	 4.295848954764352e+000	 1.223482245031362e+000	-4.690756894465066e-001
1	 4.282939824829096e+000	 1.267932648602656e+000	-5.622076397420861e-001
1	 4.269534888480566e+000	 1.312363691888676e+000	-6.592380707190299e-001
1	 4.014625299236578e+000	 1.234009937135045e+000	-2.266783621829118e+000
1	 4.001553005065471e+000	 1.275762689811019e+000	-2.509489603822327e+000
1	 3.988011677797905e+000	 1.317482444190801e+000	-2.753945748330534e+000
1	 3.974000122742365e+000	 1.359161703337862e+000	-2.998907289293572e+000
1	 3.959517297036671e+000	 1.400792909513493e+000	-3.243128447250315e+000
1	 3.944562312133359e+000	 1.442368447821711e+000	-3.485363996943237e+000
1	 3.929134436186638e+000	 1.483880649957763e+000	-3.724370858642049e+000
1	 3.913233096336334e+000	 1.525321798057408e+000	-3.958909710600076e+000
1	 3.896857880884244e+000	 1.566684128643885e+000	-4.187746619952120e+000
1	 3.880008541358523e+000	 1.607959836669317e+000	-4.409654689263786e+000
1	 3.862684994461763e+000	 1.649141079647046e+000	-4.623415715847991e+000
1	 4.040116258160177e+000	 1.241845312610418e+000	-2.021083341622946e+000
1	 4.026960961145822e+000	 1.283863175383798e+000	-2.244953201320918e+000
1	 4.013333652898217e+000	 1.325847830337527e+000	-2.471907165704175e+000
1	 3.999233131140133e+000	 1.367791732933090e+000	-2.700691451499163e+000
1	 3.984658346387703e+000	 1.409687277443729e+000	-2.930031335594086e+000
1	 3.969608404451609e+000	 1.451526800622489e+000	-3.158632453808547e+000
1	 3.954082568839193e+000	 1.493302585474527e+000	-3.385182153562712e+000
1	 3.938080263052889e+000	 1.535006865130829e+000	-3.608350898973913e+000
1	 3.921601072780403e+000	 1.576631826820246e+000	-3.826793726752499e+000
1	 3.904644747972214e+000	 1.618169615936556e+000	-4.039151751113519e+000
1	 3.887211204802014e+000	 1.659612340197034e+000	-4.244053715767013e+000
1	 4.065607217084311e+000	 1.249680688085785e+000	-1.798651724113020e+000
1	 4.052368917226699e+000	 1.291963660956650e+000	-2.005188177371602e+000
1	 4.038655627999037e+000	 1.334213216484404e+000	-2.215754715055974e+000
1	 4.024466139538371e+000	 1.376421762528545e+000	-2.429100496771701e+000
1	 4.009799395739160e+000	 1.418581645374264e+000	-2.643937244889531e+000
1	 3.994654496770230e+000	 1.460685153423632e+000	-2.858940308161069e+000
1	 3.979030701492055e+000	 1.502724520991713e+000	-3.072749804111052e+000
1	 3.962927429769677e+000	 1.544691932204722e+000	-3.283971839679220e+000
1	 3.946344264676717e+000	 1.586579524997117e+000	-3.491179809387785e+000
1	 3.929280954585979e+000	 1.628379395204330e+000	-3.692915770107922e+000
1	 3.911737415142254e+000	 1.670083600747572e+000	-3.887691891296859e+000
1	 4.091098176008842e+000	 1.257516063561146e+000	-1.597769998613445e+000
1	 4.077776873307970e+000	 1.300064146529557e+000	-1.788290020131441e+000
1	 4.063977603100237e+000	 1.342578602631396e+000	-1.983446701683230e+000
1	 4.049699147936962e+000	 1.385051792124171e+000	-2.182003927207070e+000
1	 4.034940445090934e+000	 1.427476013305023e+000	-2.382675031092612e+000
1	 4.019700589089125e+000	 1.469843506225049e+000	-2.584123659904074e+000
1	 4.003978834145141e+000	 1.512146456509219e+000	-2.784964732504750e+000
1	 3.987774596486632e+000	 1.554376999278973e+000	-2.983765498834309e+000
1	 3.971087456573137e+000	 1.596527223174379e+000	-3.179046697359672e+000
1	 3.953917161199784e+000	 1.638589174472521e+000	-3.369283810983478e+000
1	 3.936263625482468e+000	 1.680554861298542e+000	-3.552908420951953e+000
1	 4.116589134933640e+000	 1.265351439036504e+000	-1.416761966685573e+000
1	 4.103184829389506e+000	 1.308164632102501e+000	-1.592401390629586e+000
1	 4.089299578201687e+000	 1.350943988778463e+000	-1.772992001639159e+000
1	 4.074932156335789e+000	 1.393681821719911e+000	-1.957324015224727e+000
1	 4.060081494442918e+000	 1.436370381235934e+000	-2.144127327247672e+000
1	 4.044746681408201e+000	 1.479001859026653e+000	-2.332072206603777e+000
1	 4.028926966798368e+000	 1.521568392026945e+000	-2.519770100730169e+000
1	 4.012621763203688e+000	 1.564062066353473e+000	-2.705774554799931e+000
1	 3.995830648469615e+000	 1.606474921351917e+000	-2.888582245213907e+000
1	 3.978553367813597e+000	 1.648798953741010e+000	-3.066634127737225e+000
1	 3.960789835822633e+000	 1.691026121849827e+000	-3.238316700357863e+000
1	 4.142080093858573e+000	 1.273186814511861e+000	-1.253992692159338e+000
1	 4.128592785471174e+000	 1.316265117675463e+000	-1.415710671223992e+000
1	 4.114621553303264e+000	 1.359309374925568e+000	-1.582448505634297e+000
1	 4.100165164734732e+000	 1.402311851315711e+000	-1.753034179786633e+000
1	 4.085222543795005e+000	 1.445264749166923e+000	-1.926228888727505e+000
1	 4.069792773727361e+000	 1.488160211828356e+000	-2.100727594250739e+000
1	 4.053875099451659e+000	 1.530990327544788e+000	-2.275159703087037e+000
1	 4.037468929920784e+000	 1.573747133428113e+000	-2.448089868497710e+000
1	 4.020573840366099e+000	 1.616422619529614e+000	-2.618018916316201e+000
1	 4.003189574427382e+000	 1.659008733009677e+000	-2.783384896203494e+000
1	 3.985316046162736e+000	 1.701497382401312e+000	-2.942564258595377e+000
1	 4.167571052783504e+000	 1.281022189987216e+000	-1.107867239229511e+000
1	 4.154000741552841e+000	 1.324365603248425e+000	-1.256450567328387e+000
1	 4.139943528404841e+000	 1.367674761072674e+000	-1.409921620045189e+000
1	 4.125398173133672e+000	 1.410941880911511e+000	-1.567157422207716e+000
1	 4.110363593147087e+000	 1.454159117097919e+000	-1.726964999201676e+000
1	 4.094838866046510e+000	 1.497318564630069e+000	-1.888081828546413e+000
1	 4.078823232104933e+000	 1.540412263062650e+000	-2.049176417725015e+000
1	 4.062316096637851e+000	 1.583432200502780e+000	-2.208849009866306e+000
1	 4.045317032262542e+000	 1.626370317707352e+000	-2.365632418602604e+000
1	 4.027825781041109e+000	 1.669218512278404e+000	-2.517992993143734e+000
1	 4.009842256502755e+000	 1.711968642952877e+000	-2.664331714313560e+000
1	 4.193062011708302e+000	 1.288857565462575e+000	-9.768294565810340e-001
1	 4.179408697634375e+000	 1.332466088821368e+000	-1.112896760142632e+000
1	 4.165265503506290e+000	 1.376040147219743e+000	-1.253562822600098e+000
1	 4.150631181532491e+000	 1.419571910507259e+000	-1.397764819021069e+000
1	 4.135504642499055e+000	 1.463053485028845e+000	-1.544369934748496e+000
1	 4.119884958365555e+000	 1.506476917431703e+000	-1.692175744139641e+000
1	 4.103771364758109e+000	 1.549834198580428e+000	-1.839910714661909e+000
1	 4.087163263354824e+000	 1.593117267577364e+000	-1.986234838066442e+000
1	 4.070060224158895e+000	 1.636318015885015e+000	-2.129740390091758e+000
1	 4.052461987654741e+000	 1.679428291547071e+000	-2.268952819870176e+000
1	 4.034368466842676e+000	 1.722439903504408e+000	-2.402331769919557e+000
1	 4.218552970632834e+000	 1.296692940937936e+000	-8.593608055964890e-001
1	 4.204816653715645e+000	 1.340566574394276e+000	-9.833666082286900e-001
1	 4.190587478607484e+000	 1.384405533366737e+000	-1.111568270429109e+000
1	 4.175864189931072e+000	 1.428201940102895e+000	-1.242974069485629e+000
1	 4.160645691850804e+000	 1.471947852959630e+000	-1.376525483651344e+000
1	 4.144931050684400e+000	 1.515635270233172e+000	-1.511097529361528e+000
1	 4.128719497411106e+000	 1.559256134098022e+000	-1.645499217894467e+000
1	 4.112010430071639e+000	 1.602802334651755e+000	-1.778474133161362e+000
1	 4.094803416055106e+000	 1.646265714062486e+000	-1.908701132054747e+000
1	 4.077098194268249e+000	 1.689638070815560e+000	-2.034795168519622e+000
1	 4.058894677182479e+000	 1.732911164055787e+000	-2.155308242234669e+000
1	 4.244043929556965e+000	 1.304528316413302e+000	-7.539792307923514e-001
1	 4.230224609796522e+000	 1.348667059967129e+000	-8.662178958791676e-001
1	 4.215909453708299e+000	 1.392770919513618e+000	-9.821774582768599e-001
1	 4.201097198329294e+000	 1.436831969698365e+000	-1.100948095437853e+000
1	 4.185786741202223e+000	 1.480842220890200e+000	-1.221559519538271e+000
1	 4.169977143002949e+000	 1.524793623034385e+000	-1.342981304125754e+000
1	 4.153667630063845e+000	 1.568678069615330e+000	-1.464123319327375e+000
1	 4.136857596788231e+000	 1.612487401725842e+000	-1.583836277108266e+000
1	 4.119546607951128e+000	 1.656213412239648e+000	-1.700912387838609e+000
1	 4.101734400881598e+000	 1.699847850083750e+000	-1.814086129184063e+000
1	 4.083420887522148e+000	 1.743382424606897e+000	-1.922035128083209e+000
1	 4.269534888480566e+000	 1.312363691888676e+000	-6.592380707190299e-001
1	 4.255632565876872e+000	 1.356767545539909e+000	-7.598476263223248e-001
1	 4.241231428808608e+000	 1.401136305660351e+000	-8.636719247815787e-001
1	 4.226330206727042e+000	 1.445461999293613e+000	-9.698936913006238e-001
1	 4.210927790553208e+000	 1.489736588820483e+000	-1.077644625635268e+000
1	 4.195023235321111e+000	 1.533951975835254e+000	-1.186005748771969e+000
1	 4.178615762716243e+000	 1.578100005132252e+000	-1.294007842354877e+000
1	 4.161704763504535e+000	 1.622172468799514e+000	-1.400631982000223e+000
1	 4.144289799846913e+000	 1.666161110416385e+000	-1.504810165435462e+000
1	 4.126370607494755e+000	 1.710057629351524e+000	-1.605426036190851e+000
1	 4.107947097861664e+000	 1.753853685157622e+000	-1.701315703354541e+000
1	 3.862684994461763e+000	 1.649141079647046e+000	-4.623415715847991e+000
1	 3.844890029459100e+000	 1.690213828755853e+000	-4.818383747132291e+000
1	 3.826621338296152e+000	 1.731176368834391e+000	-4.985266551620581e+000
1	 3.807879346431334e+000	 1.772020776467594e+000	-5.124886058362719e+000
1	 3.788664650926863e+000	 1.812739108261148e+000	-5.238192533688385e+000
1	 3.768978021749815e+000	 1.853323405364218e+000	-5.326264483418237e+000
1	 3.748820402933820e+000	 1.893765698057605e+000	-5.390308331845939e+000
1	 3.728192913598082e+000	 1.934058010402449e+000	-5.431657874647209e+000
1	 3.707096848820650e+000	 1.974192364944430e+000	-5.451773503383252e+000
1	 3.685533680363033e+000	 2.014160787468251e+000	-5.452241199794816e+000
1	 3.663505057243499e+000	 2.053955311797023e+000	-5.434771298627161e+000
1	 3.887211204802014e+000	 1.659612340197034e+000	-4.244053715767012e+000
1	 3.869303250245444e+000	 1.700945881704125e+000	-4.431419773569614e+000
1	 3.850918561593066e+000	 1.742168514406036e+000	-4.592566538204362e+000
1	 3.832057567004748e+000	 1.783272264577802e+000	-4.728215819780791e+000
1	 3.812720867333758e+000	 1.824249138388355e+000	-4.839218978837762e+000
1	 3.792909237436087e+000	 1.865091126451960e+000	-4.926556986791283e+000
1	 3.772623627339523e+000	 1.905790208445514e+000	-4.991340262198747e+000
1	 3.751865163269136e+000	 1.946338357786760e+000	-5.034808279657135e+000
1	 3.730635148526093e+000	 1.986727546368357e+000	-5.058328948663287e+000
1	 3.708935064216884e+000	 2.026949749342556e+000	-5.063397760291664e+000
1	 3.686766569830242e+000	 2.066996949951050e+000	-5.051636700088924e+000
1	 3.911737415142254e+000	 1.670083600747572e+000	-3.887691891296859e+000
1	 3.893716471031692e+000	 1.711677934652946e+000	-4.066159230477779e+000
1	 3.875215784889801e+000	 1.753160659978216e+000	-4.220385476133397e+000
1	 3.856235787577899e+000	 1.794523752688520e+000	-4.350996746385217e+000
1	 3.836777083740312e+000	 1.835759168516035e+000	-4.458747943694156e+000
1	 3.816840453121951e+000	 1.876858847540135e+000	-4.544522947978637e+000
1	 3.796426851744760e+000	 1.917814718833813e+000	-4.609334587800316e+000
1	 3.775537412939671e+000	 1.958618705171413e+000	-4.654324386194247e+000
1	 3.754173448230980e+000	 1.999262727792576e+000	-4.680762078221543e+000
1	 3.732336448070155e+000	 2.039738711217104e+000	-4.690044897842595e+000
1	 3.710028082416403e+000	 2.080038588105279e+000	-4.683696632245064e+000
1	 3.936263625482468e+000	 1.680554861298542e+000	-3.552908420951954e+000
1	 3.918129691817839e+000	 1.722409987602205e+000	-3.721430416589004e+000
1	 3.899513008186363e+000	 1.764152805550830e+000	-3.867774323238190e+000
1	 3.880414008150813e+000	 1.805775240799661e+000	-3.992474972773465e+000
1	 3.860833300146564e+000	 1.847269198644123e+000	-4.096193260765905e+000
1	 3.840771668807452e+000	 1.888626568628696e+000	-4.179716446979929e+000
1	 3.820230076149580e+000	 1.929839229222470e+000	-4.243958239364936e+000
1	 3.799209662609751e+000	 1.970899052556393e+000	-4.289958657973745e+000
1	 3.777711747935383e+000	 2.011797909217094e+000	-4.318883675725910e+000
1	 3.755737831922926e+000	 2.052527673091919e+000	-4.332024633438348e+000
1	 3.733289595002064e+000	 2.093080226259743e+000	-4.330797427068053e+000
1	 3.960789835822633e+000	 1.691026121849827e+000	-3.238316700357863e+000
1	 3.942542912603886e+000	 1.733142040551793e+000	-3.396090652516596e+000
1	 3.923810231482769e+000	 1.775144951123781e+000	-3.533807544185056e+000
1	 3.904592228723509e+000	 1.817026728911143e+000	-3.651915306043613e+000
1	 3.884889516552546e+000	 1.858779228772551e+000	-3.750983281350702e+000
1	 3.864702884492635e+000	 1.900394289717593e+000	-3.831702608792719e+000
1	 3.844033300554041e+000	 1.941863739611454e+000	-3.894886397404291e+000
1	 3.822881912279439e+000	 1.983179399941691e+000	-3.941469689940385e+000
1	 3.801250047639373e+000	 2.024333090641914e+000	-3.972509211546190e+000
1	 3.779139215775277e+000	 2.065316634967020e+000	-3.989182901053925e+000
1	 3.756551107587308e+000	 2.106121864414475e+000	-3.992789222735684e+000
1	 3.985316046162736e+000	 1.701497382401312e+000	-2.942564258595377e+000
1	 3.966956133389826e+000	 1.743874093501599e+000	-3.089025387730702e+000
1	 3.948107454779023e+000	 1.786137096696969e+000	-3.217582387153759e+000
1	 3.928770449296013e+000	 1.828278217022881e+000	-3.328600651227961e+000
1	 3.908945732958295e+000	 1.870289258901252e+000	-3.422560428781997e+000
1	 3.888634100177546e+000	 1.912162010806776e+000	-3.500057263549814e+000
1	 3.867836524958197e+000	 1.953888250000736e+000	-3.561802238375175e+000
1	 3.846554161948798e+000	 1.995459747327294e+000	-3.608622019606061e+000
1	 3.824788347343020e+000	 2.036868272067042e+000	-3.641458698540904e+000
1	 3.802540599627279e+000	 2.078105596842430e+000	-3.661369427243161e+000
1	 3.779812620172218e+000	 2.119163502569507e+000	-3.669525846511324e+000
1	 4.009842256502755e+000	 1.711968642952877e+000	-2.664331714313560e+000
1	 3.991369354175657e+000	 1.754606146451514e+000	-2.799147340307119e+000
1	 3.972404678075141e+000	 1.797129242270298e+000	-2.918218187060285e+000
1	 3.952948669868348e+000	 1.839529705134791e+000	-3.021831457812582e+000
1	 3.933001949363844e+000	 1.881799289030159e+000	-3.110380768070589e+000
1	 3.912565315862232e+000	 1.923929731896198e+000	-3.184366619129258e+000
1	 3.891639749362105e+000	 1.965912760390285e+000	-3.244396690143264e+000
1	 3.870226411617892e+000	 2.007740094713190e+000	-3.291185945311055e+000
1	 3.848326647046395e+000	 2.049403453492485e+000	-3.325556553136484e+000
1	 3.825941983479015e+000	 2.090894558718166e+000	-3.348437615152084e+000
1	 3.803074132756878e+000	 2.132205140724873e+000	-3.360864701922368e+000
1	 4.034368466842676e+000	 1.722439903504408e+000	-2.402331769919557e+000
1	 4.015782574961378e+000	 1.765338199401428e+000	-2.525395668054545e+000
1	 3.996701901371128e+000	 1.808121387843667e+000	-2.634855694195347e+000
1	 3.977126890440536e+000	 1.850781193246789e+000	-2.730925186445698e+000
1	 3.957058165769226e+000	 1.893309319159202e+000	-2.813913591244128e+000
1	 3.936496531546734e+000	 1.935697452985806e+000	-2.884226945706171e+000
1	 3.915442973765818e+000	 1.977937270780072e+000	-2.942368196366681e+000
1	 3.893898661286784e+000	 2.020020442099369e+000	-2.988937351114482e+000
1	 3.871864946749569e+000	 2.061938634918248e+000	-3.024631461473738e+000
1	 3.849343367330560e+000	 2.103683520594251e+000	-3.050244432762991e+000
1	 3.826335645341370e+000	 2.145246778880603e+000	-3.066666660053982e+000
1	 4.058894677182479e+000	 1.732911164055787e+000	-2.155308242234669e+000
1	 4.040195795746983e+000	 1.776070252351231e+000	-2.266735169692953e+000
1	 4.020999124666998e+000	 1.819113533416977e+000	-2.366656427203247e+000
1	 4.001305111012599e+000	 1.862032681358789e+000	-2.455215794980735e+000
1	 3.981114382174480e+000	 1.904819349288316e+000	-2.532641017720214e+000
1	 3.960427747231099e+000	 1.947465174075554e+000	-2.599244271741338e+000
1	 3.939246198169390e+000	 1.989961781170066e+000	-2.655422489421876e+000
1	 3.917570910955537e+000	 2.032300789485816e+000	-2.701657538033297e+000
1	 3.895403246452611e+000	 2.074473816344336e+000	-2.738516250407258e+000
1	 3.872744751181992e+000	 2.116472482470704e+000	-2.766650305190270e+000
1	 3.849597157925777e+000	 2.158288417036733e+000	-2.786795954784016e+000
1	 4.083420887522148e+000	 1.743382424606897e+000	-1.922035128083209e+000
1	 4.064609016532470e+000	 1.786802305300813e+000	-2.022155514819932e+000
1	 4.045296347962761e+000	 1.830105678990131e+000	-2.112802049378113e+000
1	 4.025483331584564e+000	 1.873284169470709e+000	-2.194053243041246e+000
1	 4.005170598579635e+000	 1.916329379417432e+000	-2.266057609081254e+000
1	 3.984358962915372e+000	 1.959232895165391e+000	-2.329034090925611e+000
1	 3.963049422572877e+000	 2.001986291560236e+000	-2.383272371512777e+000
1	 3.941243160624216e+000	 2.044581136872523e+000	-2.429133061363151e+000
1	 3.918941546155594e+000	 2.087008997770753e+000	-2.467047763153734e+000
1	 3.896146135033390e+000	 2.129261444347548e+000	-2.497519010857725e+000
1	 3.872858670510183e+000	 2.171330055193294e+000	-2.521120081793387e+000
1	 4.107947097861664e+000	 1.753853685157622e+000	-1.701315703354541e+000
1	 4.089022237317836e+000	 1.797534358250065e+000	-1.790670501461262e+000
1	 4.069593571258428e+000	 1.841097824563030e+000	-1.872493767302690e+000
1	 4.049661552156451e+000	 1.884535657582464e+000	-1.946803014333599e+000
1	 4.029226814984733e+000	 1.927839409546484e+000	-2.013669997648949e+000
1	 4.008290178599602e+000	 1.971000616255271e+000	-2.073221079622417e+000
1	 3.986852646976334e+000	 2.014010801950552e+000	-2.125637503621174e+000
1	 3.964915410292882e+000	 2.056861484259474e+000	-2.171155573826836e+000
1	 3.942479845858591e+000	 2.099544179197508e+000	-2.210066739394852e+000
1	 3.919547518884828e+000	 2.142050406224803e+000	-2.242717581394930e+000
1	 3.896120183094670e+000	 2.184371693350319e+000	-2.269509701194256e+000
1	 3.663505057243499e+000	 2.053955311797023e+000	-5.434771298627161e+000
1	 3.641009397794123e+000	 2.093573913466255e+000	-5.401956270937101e+000
1	 3.618051979783225e+000	 2.133002672260832e+000	-5.355618897386258e+000
1	 3.594634989852544e+000	 2.172233674105955e+000	-5.296421624686263e+000
1	 3.570760792710999e+000	 2.211259032598792e+000	-5.225060885966141e+000
1	 3.546431930914687e+000	 2.250070893948702e+000	-5.142266416398797e+000
1	 3.521651124484179e+000	 2.288661441927230e+000	-5.048800507218608e+000
1	 3.496421270358106e+000	 2.327022902821665e+000	-4.945457198943430e+000
1	 3.470745441682316e+000	 2.365147550385902e+000	-4.833061414773241e+000
1	 3.444626886934158e+000	 2.403027710782309e+000	-4.712468035295911e+000
1	 3.418069028881693e+000	 2.440655767508218e+000	-4.584560915786870e+000
1	 3.686766569830242e+000	 2.066996949951050e+000	-5.051636700088925e+000
1	 3.664128073655406e+000	 2.106867110874977e+000	-5.025046420135668e+000
1	 3.641024886972017e+000	 2.146546223512473e+000	-4.984962890081874e+000
1	 3.617459210305964e+000	 2.186026323538118e+000	-4.932122834720998e+000
1	 3.593433423380952e+000	 2.225299474474158e+000	-4.867297666248263e+000
1	 3.568950084897113e+000	 2.264357772662105e+000	-4.791292648579765e+000
1	 3.544011932145869e+000	 2.303193352244160e+000	-4.704945997256533e+000
1	 3.518621880460040e+000	 2.341798390148221e+000	-4.609127916049502e+000
1	 3.492783022498507e+000	 2.380165111070182e+000	-4.504739571550293e+000
1	 3.466498627364912e+000	 2.418285792447179e+000	-4.392712007200190e+000
1	 3.439772139560280e+000	 2.456152769415361e+000	-4.274004998375119e+000
1	 3.710028082416403e+000	 2.080038588105279e+000	-4.683696632245064e+000
1	 3.687246749516120e+000	 2.120160308283865e+000	-4.663104492147221e+000
1	 3.663997794160270e+000	 2.160089774764248e+000	-4.629090692239023e+000
1	 3.640283430758890e+000	 2.199818972970387e+000	-4.582446778818149e+000
1	 3.616106054050469e+000	 2.239339916349607e+000	-4.523999787039103e+000
1	 3.591468238879172e+000	 2.278644651375573e+000	-4.454611288335488e+000
1	 3.566372739807267e+000	 2.317725262561141e+000	-4.375176370733544e+000
1	 3.540822490561769e+000	 2.356573877474814e+000	-4.286622553403644e+000
1	 3.514820603314580e+000	 2.395182671754490e+000	-4.189908636975406e+000
1	 3.488370367795640e+000	 2.433543874112070e+000	-4.086023491318293e+000
1	 3.461475250238931e+000	 2.471649771322522e+000	-3.975984782662530e+000
1	 3.733289595002064e+000	 2.093080226259743e+000	-4.330797427068053e+000
1	 3.710365425376351e+000	 2.133453505692957e+000	-4.315968775281571e+000
1	 3.686970701348076e+000	 2.173633326016202e+000	-4.287834891230665e+000
1	 3.663107651211413e+000	 2.213611622402809e+000	-4.247223045787642e+000
1	 3.638778684719642e+000	 2.253380358225186e+000	-4.194996899628467e+000
1	 3.613986392860958e+000	 2.292931530089150e+000	-4.132055467801293e+000
1	 3.588733547468467e+000	 2.332257172878211e+000	-4.059332014602602e+000
1	 3.563023100663378e+000	 2.371349364801481e+000	-3.977792880268661e+000
1	 3.536858184130617e+000	 2.410200232438856e+000	-3.888436241176959e+000
1	 3.510242108226416e+000	 2.448801955777007e+000	-3.792290805436359e+000
1	 3.483178360917712e+000	 2.487146773229715e+000	-3.690414445925820e+000
1	 3.756551107587308e+000	 2.106121864414475e+000	-3.992789222735684e+000
1	 3.733484101236188e+000	 2.146746703102298e+000	-3.983481563287256e+000
1	 3.709943608535523e+000	 2.187176877268379e+000	-3.961032221074861e+000
1	 3.685931871663629e+000	 2.227404271835431e+000	-3.926285445355751e+000
1	 3.661451315388570e+000	 2.267420800100942e+000	-3.880122874674933e+000
1	 3.636504546842562e+000	 2.307218408802882e+000	-3.823462452264063e+000
1	 3.611094355129560e+000	 2.346789083195411e+000	-3.757257269273414e+000
1	 3.585223710764961e+000	 2.386124852128256e+000	-3.682494337435555e+000
1	 3.558895764946704e+000	 2.425217793123311e+000	-3.600193292953528e+000
1	 3.532113848657316e+000	 2.464060037442009e+000	-3.511405033597938e+000
1	 3.504881471596689e+000	 2.502643775136960e+000	-3.417210291185133e+000
1	 3.779812620172218e+000	 2.119163502569507e+000	-3.669525846511323e+000
1	 3.756602777095718e+000	 2.160039900511925e+000	-3.665489032101201e+000
1	 3.732916515722703e+000	 2.200720428520828e+000	-3.648523434839437e+000
1	 3.708756092115631e+000	 2.241196921268303e+000	-3.619471878284495e+000
1	 3.684123946057342e+000	 2.281461241976923e+000	-3.579215672372753e+000
1	 3.659022700824080e+000	 2.321505287516809e+000	-3.528673512982147e+000
1	 3.633455162790639e+000	 2.361320993512781e+000	-3.468800306961830e+000
1	 3.607424320866600e+000	 2.400900339455173e+000	-3.400585924247999e+000
1	 3.580933345762922e+000	 2.440235353807876e+000	-3.325053878886962e+000
1	 3.553985589088418e+000	 2.479318119107103e+000	-3.243259940984310e+000
1	 3.526584582275933e+000	 2.518140777044271e+000	-3.156290681793446e+000
1	 3.803074132756878e+000	 2.132205140724873e+000	-3.360864701922368e+000
1	 3.779721452955027e+000	 2.173333097921881e+000	-3.361841121121653e+000
1	 3.755889422909708e+000	 2.214263979773591e+000	-3.350153181729411e+000
1	 3.731580312567512e+000	 2.254989570701472e+000	-3.326624211257472e+000
1	 3.706796576726056e+000	 2.295501683853173e+000	-3.292117217383571e+000
1	 3.681540854805605e+000	 2.335792166230978e+000	-3.247533804672711e+000
1	 3.655815970451795e+000	 2.375852903830360e+000	-3.193813014503537e+000
1	 3.629624930968386e+000	 2.415675826782265e+000	-3.131930089772827e+000
1	 3.602970926579353e+000	 2.455252914492587e+000	-3.062895166157701e+000
1	 3.575857329519796e+000	 2.494576200772307e+000	-2.987751891918567e+000
1	 3.548287692955508e+000	 2.533637778951668e+000	-2.907575978426468e+000
1	 3.826335645341370e+000	 2.145246778880603e+000	-3.066666660053982e+000
1	 3.802840128814207e+000	 2.186626295332207e+000	-3.072391418811709e+000
1	 3.778862330096631e+000	 2.227807531026718e+000	-3.065769888657610e+000
1	 3.754404533019363e+000	 2.268782220134982e+000	-3.047588156329355e+000
1	 3.729469207394803e+000	 2.309542125729742e+000	-3.018673278330149e+000
1	 3.704059008787232e+000	 2.350079044945431e+000	-2.979892247467783e+000
1	 3.678176778113120e+000	 2.390384814148187e+000	-2.932150880442277e+000
1	 3.651825541070408e+000	 2.430451314109565e+000	-2.876392627940267e+000
1	 3.625008507396081e+000	 2.470270475177468e+000	-2.813597308905156e+000
1	 3.597729069951527e+000	 2.509834282437646e+000	-2.744779770860604e+000
1	 3.569990803635482e+000	 2.549134780859165e+000	-2.670988478370791e+000
1	 3.849597157925777e+000	 2.158288417036733e+000	-2.786795954784016e+000
1	 3.825958804673342e+000	 2.199919492742945e+000	-2.796997052450474e+000
1	 3.801835237283558e+000	 2.241351082280251e+000	-2.795225646109119e+000
1	 3.777228753471282e+000	 2.282574869568885e+000	-2.782213154745954e+000
1	 3.752141838063679e+000	 2.323582567606674e+000	-2.758733351659064e+000
1	 3.726577162769054e+000	 2.364365923660214e+000	-2.725601413150151e+000
1	 3.700537585774705e+000	 2.404916724466300e+000	-2.683672886211783e+000
1	 3.674026151172752e+000	 2.445226801437110e+000	-2.633842576485838e+000
1	 3.647046088213190e+000	 2.485288035862547e+000	-2.577043357982986e+000
1	 3.619600810383686e+000	 2.525092364103141e+000	-2.514244906266375e+000
1	 3.591693914315921e+000	 2.564631782766781e+000	-2.446452357013274e+000
1	 3.872858670510183e+000	 2.171330055193294e+000	-2.521120081793387e+000
1	 3.849077480532519e+000	 2.213212690154133e+000	-2.535518581857171e+000
1	 3.824808144470582e+000	 2.254894633534237e+000	-2.538376098118850e+000
1	 3.800052973923359e+000	 2.296367519003227e+000	-2.530352264951279e+000
1	 3.774814468732779e+000	 2.337623009484017e+000	-2.512150549688793e+000
1	 3.749095316751165e+000	 2.378652802375369e+000	-2.484517415488952e+000
1	 3.722898393436643e+000	 2.419448634784743e+000	-2.448241401239215e+000
1	 3.696226761275508e+000	 2.460002288764933e+000	-2.404152119534207e+000
1	 3.669083669030763e+000	 2.500305596547855e+000	-2.353119173966526e+000
1	 3.641472550816348e+000	 2.540350445768814e+000	-2.296050997191270e+000
1	 3.613397024996892e+000	 2.580128784674530e+000	-2.233893611439000e+000
1	 3.896120183094670e+000	 2.184371693350319e+000	-2.269509701194256e+000
1	 3.872196156391829e+000	 2.226505887565815e+000	-2.287819896922466e+000
1	 3.847781051657800e+000	 2.268438184788724e+000	-2.295080336190422e+000
1	 3.822877194375688e+000	 2.310160168438054e+000	-2.291862054606291e+000
1	 3.797487099402197e+000	 2.351663451361818e+000	-2.278781492668089e+000
1	 3.771613470733660e+000	 2.392939681090943e+000	-2.256499804503774e+000
1	 3.745259201099025e+000	 2.433980545103553e+000	-2.225722081806294e+000
1	 3.718427371378763e+000	 2.474777776093069e+000	-2.187196493672707e+000
1	 3.691121249848879e+000	 2.515323157233418e+000	-2.141713343276631e+000
1	 3.663344291249592e+000	 2.555608527434690e+000	-2.090104042522565e+000
1	 3.635100135678463e+000	 2.595625786582434e+000	-2.033240006049659e+000
1	 3.418069028881693e+000	 2.440655767508218e+000	-4.584560915786870e+000
1	 3.391075462413564e+000	 2.478024165474663e+000	-4.449121565074382e+000
1	 3.363649950302459e+000	 2.515125413354499e+000	-4.304940225320662e+000
1	 3.335796424614757e+000	 2.551952090816394e+000	-4.151445994753668e+000
1	 3.307518985991763e+000	 2.588496854144156e+000	-3.988083802382545e+000
1	 3.278821901798352e+000	 2.624752440995851e+000	-3.814315800902155e+000
1	 3.249709604111268e+000	 2.660711675109584e+000	-3.629622741492887e+000
1	 3.220186687548849e+000	 2.696367470949601e+000	-3.433505327364221e+000
1	 3.190257906944267e+000	 2.731712838286569e+000	-3.225485542918837e+000
1	 3.159928174864604e+000	 2.766740886705849e+000	-3.005107955453602e+000
1	 3.129202558978380e+000	 2.801444830037749e+000	-2.771940986362000e+000
1	 3.439772139560280e+000	 2.456152769415361e+000	-4.274004998375119e+000
1	 3.412607176799093e+000	 2.493758438914534e+000	-4.148407126408107e+000
1	 3.385007525745849e+000	 2.531095262051197e+000	-4.014646717252818e+000
1	 3.356977143433667e+000	 2.568155771378457e+000	-3.872126584787917e+000
1	 3.328520156540966e+000	 2.604932576551026e+000	-3.720267499570618e+000
1	 3.299640859528343e+000	 2.641418369114569e+000	-3.558509638268573e+000
1	 3.270343712614111e+000	 2.677605927241352e+000	-3.386314011125601e+000
1	 3.240633339590238e+000	 2.713488120405851e+000	-3.203163864172172e+000
1	 3.210514525480813e+000	 2.749057913994119e+000	-3.008566052930044e+000
1	 3.179992214045370e+000	 2.784308373840670e+000	-2.802052384409218e+000
1	 3.149071505129704e+000	 2.819232670686875e+000	-2.583180924254778e+000
1	 3.461475250238931e+000	 2.471649771322522e+000	-3.975984782662530e+000
1	 3.434138891184774e+000	 2.509492712354418e+000	-3.859595012281177e+000
1	 3.406365101189477e+000	 2.547065110747905e+000	-3.735555085778542e+000
1	 3.378157862252897e+000	 2.584359451940527e+000	-3.603265171690396e+000
1	 3.349521327090561e+000	 2.621368298957909e+000	-3.462145413197444e+000
1	 3.320459817258791e+000	 2.658084297233306e+000	-3.311637391125391e+000
1	 3.290977821117469e+000	 2.694500179373152e+000	-3.151205561145852e+000
1	 3.261079991632188e+000	 2.730608769862155e+000	-2.980338661843053e+000
1	 3.230771144017953e+000	 2.766402989701747e+000	-2.798551090359614e+000
1	 3.200056253226749e+000	 2.801875860975600e+000	-2.605384242393859e+000
1	 3.168940451281643e+000	 2.837020511336151e+000	-2.400407813390042e+000
1	 3.483178360917712e+000	 2.487146773229715e+000	-3.690414445925820e+000
1	 3.455670605570664e+000	 2.525226985794328e+000	-3.582627000120690e+000
1	 3.427722676633387e+000	 2.563034959444631e+000	-3.467632498688987e+000
1	 3.399338581072477e+000	 2.600563132502615e+000	-3.344851668301383e+000
1	 3.370522497640568e+000	 2.637804021364807e+000	-3.213727121943710e+000
1	 3.341278774989704e+000	 2.674750225352066e+000	-3.073724792973299e+000
1	 3.311611929621332e+000	 2.711394431504984e+000	-2.924335339570868e+000
1	 3.281526643674674e+000	 2.747729419318505e+000	-2.765075516297661e+000
1	 3.251027762555652e+000	 2.783748065409441e+000	-2.595489509526234e+000
1	 3.220120292408699e+000	 2.819443348110628e+000	-2.415150233582212e+000
1	 3.188809397434150e+000	 2.854808351985561e+000	-2.223660584513057e+000
1	 3.504881471596689e+000	 2.502643775136960e+000	-3.417210291185134e+000
1	 3.477202319956819e+000	 2.540961259234274e+000	-3.317446309468821e+000
1	 3.449080252077624e+000	 2.579004808141385e+000	-3.210846936996255e+000
1	 3.420519299892435e+000	 2.616766813064722e+000	-3.096876237309754e+000
1	 3.391523668190996e+000	 2.654239743771722e+000	-2.975021967235304e+000
1	 3.362097732721078e+000	 2.691416153470843e+000	-2.844796939919338e+000
1	 3.332246038125687e+000	 2.728288683636842e+000	-2.705740354482726e+000
1	 3.301973295717675e+000	 2.764850068774896e+000	-2.557419089136886e+000
1	 3.271284381093876e+000	 2.801093141117198e+000	-2.399428954675250e+000
1	 3.240184331591173e+000	 2.837010835245739e+000	-2.231395905332561e+000
1	 3.208678343587173e+000	 2.872596192635086e+000	-2.052977204092890e+000
1	 3.526584582275933e+000	 2.518140777044271e+000	-3.156290681793446e+000
1	 3.498734034343295e+000	 2.556695532674269e+000	-3.063997557607938e+000
1	 3.470437827522229e+000	 2.594974656838175e+000	-2.965167169910025e+000
1	 3.441700018712804e+000	 2.632970493626855e+000	-2.859329283564999e+000
1	 3.412524838741869e+000	 2.670675466178660e+000	-2.746039060543912e+000
1	 3.382916690452920e+000	 2.708082081589644e+000	-2.624878310289990e+000
1	 3.352880146630525e+000	 2.745182935768729e+000	-2.495456702950916e+000
1	 3.322419947761166e+000	 2.781970718231322e+000	-2.357412942545641e+000
1	 3.291540999632590e+000	 2.818438216825004e+000	-2.210415897213517e+000
1	 3.260248370774131e+000	 2.854578322380924e+000	-2.054165683782907e+000
1	 3.228547289740663e+000	 2.890384033284712e+000	-1.888394703993884e+000
1	 3.548287692955508e+000	 2.533637778951668e+000	-2.907575978426468e+000
1	 3.520265748730149e+000	 2.572429806114325e+000	-2.822226716814204e+000
1	 3.491795402967247e+000	 2.610944505535007e+000	-2.730562730732470e+000
1	 3.462880737533611e+000	 2.649174174189020e+000	-2.632201446671367e+000
1	 3.433526009293199e+000	 2.687111188585622e+000	-2.526787290419546e+000
1	 3.403735648185229e+000	 2.724748009708466e+000	-2.413992783524489e+000
1	 3.373514255135836e+000	 2.762077187900637e+000	-2.293519598893432e+000
1	 3.342866599805126e+000	 2.799091367687780e+000	-2.165099572915716e+000
1	 3.311797618171760e+000	 2.835783292532855e+000	-2.028495671577746e+000
1	 3.280312409957527e+000	 2.872145809516171e+000	-1.883502908140744e+000
1	 3.248416235894569e+000	 2.908171873934421e+000	-1.729949210058243e+000
1	 3.569990803635482e+000	 2.549134780859165e+000	-2.670988478370791e+000
1	 3.541797463117435e+000	 2.588164079554456e+000	-2.592081073170422e+000
1	 3.513152978412721e+000	 2.626914354231893e+000	-2.507003893632493e+000
1	 3.484061456354890e+000	 2.665377854751221e+000	-2.415483593852122e+000
1	 3.454527179845004e+000	 2.703546910992610e+000	-2.317275329266669e+000
1	 3.424554605918008e+000	 2.741413937827308e+000	-2.212163658378981e+000
1	 3.394148363641605e+000	 2.778971440032568e+000	-2.099963399921560e+000
1	 3.363313251849526e+000	 2.816212017144263e+000	-1.980520443242333e+000
1	 3.332054236711354e+000	 2.853128368240739e+000	-1.853712509794581e+000
1	 3.300376449141319e+000	 2.889713296651466e+000	-1.719449863721992e+000
1	 3.268285182048842e+000	 2.925959714584197e+000	-1.577675969646050e+000
1	 3.591693914315921e+000	 2.564631782766781e+000	-2.446452357013274e+000
1	 3.563329177505210e+000	 2.603898352994673e+000	-2.373509186872111e+000
1	 3.534510553858697e+000	 2.642884202928837e+000	-2.294461651262033e+000
1	 3.505242175176668e+000	 2.681581535313464e+000	-2.209166813072546e+000
1	 3.475528350397301e+000	 2.719982633399626e+000	-2.117511639874588e+000
1	 3.445373563651263e+000	 2.758079865946172e+000	-2.019413670470662e+000
1	 3.414782472147824e+000	 2.795865692164516e+000	-1.914821633211417e+000
1	 3.383759903894348e+000	 2.833332666600768e+000	-1.803716014346073e+000
1	 3.352310855251333e+000	 2.870473443948652e+000	-1.686109574787625e+000
1	 3.320440488325464e+000	 2.907280783786796e+000	-1.562047813792229e+000
1	 3.288154128203432e+000	 2.943747555234022e+000	-1.431609378176787e+000
1	 3.613397024996892e+000	 2.580128784674530e+000	-2.233893611439000e+000
1	 3.584860891893530e+000	 2.619632626434988e+000	-2.166460853964078e+000
1	 3.555868129305216e+000	 2.658854051625854e+000	-2.092907693178922e+000
1	 3.526422893998978e+000	 2.697785215875753e+000	-2.013242406410758e+000
1	 3.496529520950103e+000	 2.736418355806673e+000	-1.927504481712548e+000
1	 3.466192521384992e+000	 2.774745794065057e+000	-1.835765009189710e+000
1	 3.435416580654481e+000	 2.812759944296481e+000	-1.738127020443200e+000
1	 3.404206555939567e+000	 2.850453316057287e+000	-1.634725774969658e+000
1	 3.372567473791665e+000	 2.887818519656581e+000	-1.525728992484195e+000
1	 3.340504527509917e+000	 2.924848270922151e+000	-1.411337030260356e+000
1	 3.308023074358290e+000	 2.961535395883882e+000	-1.291783004714376e+000
1	 3.635100135678463e+000	 2.595625786582434e+000	-2.033240006049659e+000
1	 3.606392606282453e+000	 2.635366899875415e+000	-1.970887069447661e+000
1	 3.577225704752324e+000	 2.674823900322948e+000	-1.902314385042859e+000
1	 3.547603612821848e+000	 2.713988896438097e+000	-1.827701883666011e+000
1	 3.517530691503431e+000	 2.752854078213755e+000	-1.747261916999262e+000
1	 3.487011479119200e+000	 2.791411722183962e+000	-1.661239334005300e+000
1	 3.456050689161567e+000	 2.829654196428459e+000	-1.569911501846948e+000
1	 3.424653207985159e+000	 2.867573965513815e+000	-1.473588270796602e+000
1	 3.392824092332316e+000	 2.905163595364521e+000	-1.372611882771893e+000
1	 3.360568566694637e+000	 2.942415758057519e+000	-1.267356823272708e+000
1	 3.327892020513366e+000	 2.979323236533758e+000	-1.158229616635669e+000
1	 3.129202558978380e+000	 2.801444830037749e+000	-2.771940986362000e+000
1	 3.098090975972703e+000	 2.835812860563197e+000	-2.532198827288584e+000
1	 3.066594216041264e+000	 2.869843648532129e+000	-2.292774363906835e+000
1	 3.034717795080713e+000	 2.903530751830148e+000	-2.054383126927628e+000
1	 3.002467371960544e+000	 2.936867849398260e+000	-1.817743050375698e+000
1	 2.969848745180577e+000	 2.969848745180577e+000	-1.583573183288140e+000
1	 2.936867849398259e+000	 3.002467371960544e+000	-1.352592397249446e+000
1	 2.903530751830149e+000	 3.034717795080715e+000	-1.125518092508519e+000
1	 2.869843648532129e+000	 3.066594216041264e+000	-9.030649054291131e-001
1	 2.835812860563195e+000	 3.098090975972702e+000	-6.859434200229747e-001
1	 2.801444830037748e+000	 3.129202558978380e+000	-4.748588863042639e-001
1	 3.149071505129704e+000	 2.819232670686875e+000	-2.583180924254778e+000
1	 3.117762378387155e+000	 2.853818921840275e+000	-2.358030513528638e+000
1	 3.086065629028769e+000	 2.888065789107530e+000	-2.133340608062379e+000
1	 3.053986807974516e+000	 2.921966789469875e+000	-1.909783791552318e+000
1	 3.021531610025019e+000	 2.955515561732601e+000	-1.688034077735194e+000
1	 2.988705870497814e+000	 2.988705870497813e+000	-1.468765684749604e+000
1	 2.955515561732601e+000	 3.021531610025019e+000	-1.252651807034224e+000
1	 2.921966789469875e+000	 3.053986807974516e+000	-1.040363387379350e+000
1	 2.888065789107531e+000	 3.086065629028768e+000	-8.325678917504058e-001
1	 2.853818921840275e+000	 3.117762378387155e+000	-6.299280894961322e-001
1	 2.819232670686875e+000	 3.149071505129704e+000	-4.331008415402804e-001
1	 3.168940451281643e+000	 2.837020511336151e+000	-2.400407813390042e+000
1	 3.137433780802209e+000	 2.871824983117554e+000	-2.189558156601602e+000
1	 3.105537042016849e+000	 2.906287929683184e+000	-1.979385880261171e+000
1	 3.073255820868855e+000	 2.940402827109916e+000	-1.770499931570559e+000
1	 3.040595848089982e+000	 2.974163274067317e+000	-1.563509601427109e+000
1	 3.007562995815484e+000	 3.007562995815484e+000	-1.359023399421625e+000
1	 2.974163274067317e+000	 3.040595848089982e+000	-1.157647928237976e+000
1	 2.940402827109914e+000	 3.073255820868856e+000	-9.599867598608886e-001
1	 2.906287929683185e+000	 3.105537042016849e+000	-7.666393159962913e-001
1	 2.871824983117554e+000	 3.137433780802210e+000	-5.781997550987396e-001
1	 2.837020511336150e+000	 3.168940451281644e+000	-3.952558683836936e-001
1	 3.188809397434150e+000	 2.854808351985561e+000	-2.223660584513056e+000
1	 3.157105183217814e+000	 2.889831044395010e+000	-2.026809121075354e+000
1	 3.125008455005451e+000	 2.924510070259066e+000	-1.830924538635995e+000
1	 3.092524833763677e+000	 2.958838864750235e+000	-1.636531835946378e+000
1	 3.059660086155382e+000	 2.992810986402366e+000	-1.444155157110580e+000
1	 3.026420121133540e+000	 3.026420121133540e+000	-1.254316804809323e+000
1	 2.992810986402366e+000	 3.059660086155382e+000	-1.067536254954021e+000
1	 2.958838864750234e+000	 3.092524833763677e+000	-8.843291748868926e-001
1	 2.924510070259066e+000	 3.125008455005450e+000	-7.052064472361460e-001
1	 2.889831044395010e+000	 3.157105183217814e+000	-5.306732015220271e-001
1	 2.854808351985561e+000	 3.188809397434150e+000	-3.612278555896318e-001
1	 3.208678343587173e+000	 2.872596192635086e+000	-2.052977204092890e+000
1	 3.176776585633916e+000	 2.907837105672620e+000	-1.869810093724327e+000
1	 3.144479867994520e+000	 2.942732210835146e+000	-1.687970585682751e+000
1	 3.111793846658930e+000	 2.977274902390801e+000	-1.507879786486368e+000
1	 3.078724324221172e+000	 3.011458698737709e+000	-1.329956638712112e+000
1	 3.045277246451941e+000	 3.045277246451941e+000	-1.154617109660783e+000
1	 3.011458698737709e+000	 3.078724324221171e+000	-9.822733836430034e-001
1	 2.977274902390800e+000	 3.111793846658930e+000	-8.133330596313865e-001
1	 2.942732210835144e+000	 3.144479867994519e+000	-6.481983560126364e-001
1	 2.907837105672620e+000	 3.176776585633916e+000	-4.872653241562078e-001
1	 2.872596192635086e+000	 3.208678343587173e+000	-3.309230724937754e-001
1	 3.228547289740663e+000	 2.890384033284712e+000	-1.888394703993884e+000
1	 3.196447988050458e+000	 2.925843166950362e+000	-1.718587104385772e+000
1	 3.163951280984001e+000	 2.960954351411395e+000	-1.550537679203731e+000
1	 3.131062859554559e+000	 2.995710940031576e+000	-1.384544058059965e+000
1	 3.097788562287297e+000	 3.030106411073305e+000	-1.220900287401446e+000
1	 3.064134371770637e+000	 3.064134371770636e+000	-1.059896231466207e+000
1	 3.030106411073305e+000	 3.097788562287298e+000	-9.018169792122007e-001
1	 2.995710940031576e+000	 3.131062859554560e+000	-7.469422585144250e-001
1	 2.960954351411395e+000	 3.163951280984001e+000	-5.955458589090742e-001
1	 2.925843166950362e+000	 3.196447988050459e+000	-4.478950641427734e-001
1	 2.890384033284712e+000	 3.228547289740663e+000	-3.042500957602013e-001
1	 3.248416235894569e+000	 2.908171873934421e+000	-1.729949210058243e+000
1	 3.216119390467393e+000	 2.943849228228216e+000	-1.573165546050533e+000
1	 3.183422693973840e+000	 2.979176491987786e+000	-1.418639142849176e+000
1	 3.150331872450513e+000	 3.014146977672529e+000	-1.266524918811564e+000
1	 3.116852800353711e+000	 3.048754123409113e+000	-1.116972680971992e+000
1	 3.082991497089581e+000	 3.082991497089581e+000	-9.701267747828053e-001
1	 3.048754123409115e+000	 3.116852800353711e+000	-8.261257423398026e-001
1	 3.014146977672528e+000	 3.150331872450513e+000	-6.851019898591808e-001
1	 2.979176491987786e+000	 3.183422693973840e+000	-5.471814651510900e-001
1	 2.943849228228216e+000	 3.216119390467392e+000	-4.124833458102408e-001
1	 2.908171873934421e+000	 3.248416235894569e+000	-2.811197388174419e-001
1	 3.268285182048842e+000	 2.925959714584197e+000	-1.577675969646050e+000
1	 3.235790792884662e+000	 2.961855289506158e+000	-1.433570194221057e+000
1	 3.202894106963983e+000	 2.997398632564291e+000	-1.292287976274421e+000
1	 3.169600885346736e+000	 3.032583015313622e+000	-1.153822630364996e+000
1	 3.135917038420363e+000	 3.067401835745095e+000	-1.018160723608627e+000
1	 3.101848622408732e+000	 3.101848622408731e+000	-8.852820103502929e-001
1	 3.067401835745095e+000	 3.135917038420363e+000	-7.551593779909545e-001
1	 3.032583015313622e+000	 3.169600885346737e+000	-6.277588041299433e-001
1	 2.997398632564291e+000	 3.202894106963983e+000	-5.030393251560638e-001
1	 2.961855289506158e+000	 3.235790792884662e+000	-3.809530163920197e-001
1	 2.925959714584196e+000	 3.268285182048841e+000	-2.614449838684683e-001
1	 3.288154128203432e+000	 2.943747555234022e+000	-1.431609378176786e+000
1	 3.255462195302213e+000	 2.979861350784167e+000	-1.299825225567493e+000
1	 3.222365519954375e+000	 3.015620773140882e+000	-1.171496864928703e+000
1	 3.188869898243178e+000	 3.051019052954823e+000	-1.046437448020513e+000
1	 3.154981276487200e+000	 3.086049548081208e+000	-9.244516360264546e-001
1	 3.120705747728039e+000	 3.120705747728038e+000	-8.053358549635826e-001
1	 3.086049548081208e+000	 3.154981276487199e+000	-6.888785650753444e-001
1	 3.051019052954824e+000	 3.188869898243179e+000	-5.748605436842620e-001
1	 3.015620773140882e+000	 3.222365519954374e+000	-4.630551809479503e-001
1	 2.979861350784166e+000	 3.255462195302214e+000	-3.532287879298292e-001
1	 2.943747555234023e+000	 3.288154128203432e+000	-2.451409163656551e-001
1	 3.308023074358290e+000	 2.961535395883882e+000	-1.291783004714376e+000
1	 3.275133597719994e+000	 2.997867412062219e+000	-1.171954235911564e+000
1	 3.241836932944962e+000	 3.033842913717531e+000	-1.056278189491269e+000
1	 3.208138911139784e+000	 3.069455090596099e+000	-9.443696209447240e-001
1	 3.174045514554174e+000	 3.104697260417412e+000	-8.358329459649526e-001
1	 3.139562873047459e+000	 3.139562873047459e+000	-7.302628520708049e-001
1	 3.104697260417412e+000	 3.174045514554175e+000	-6.272449271982282e-001
1	 3.069455090596098e+000	 3.208138911139783e+000	-5.263563039754881e-001
1	 3.033842913717530e+000	 3.241836932944962e+000	-4.271663183589856e-001
1	 2.997867412062220e+000	 3.275133597719995e+000	-3.292371812708024e-001
1	 2.961535395883882e+000	 3.308023074358290e+000	-2.321246618471589e-001
1	 3.327892020513366e+000	 2.979323236533758e+000	-1.158229616635669e+000
1	 3.294805000137952e+000	 3.015873473340294e+000	-1.049980257566096e+000
1	 3.261308345935689e+000	 3.052065054294208e+000	-9.466440349694040e-001
1	 3.227407924036499e+000	 3.087891128237413e+000	-8.476193923536798e-001
1	 3.193109752621236e+000	 3.123344972753669e+000	-7.522924790226478e-001
1	 3.158419998366947e+000	 3.158419998366946e+000	-6.600381530663663e-001
1	 3.123344972753669e+000	 3.193109752621236e+000	-5.702210044592396e-001
1	 3.087891128237412e+000	 3.227407924036499e+000	-4.821963961451959e-001
1	 3.052065054294209e+000	 3.261308345935690e+000	-3.953115209436979e-001
1	 3.015873473340295e+000	 3.294805000137951e+000	-3.089064720707252e-001
1	 2.979323236533757e+000	 3.327892020513365e+000	-2.223153250359261e-001
1	 2.801444830037748e+000	 3.129202558978380e+000	-4.748588863042633e-001
1	 2.766740886705849e+000	 3.159928174864604e+000	-2.732920774030710e-001
1	 2.731712838286569e+000	 3.190257906944266e+000	-8.381447280651896e-002
1	 2.696367470949601e+000	 3.220186687548849e+000	 9.436225209429933e-002
1	 2.660711675109584e+000	 3.249709604111268e+000	 2.620666553567345e-001
1	 2.624752440995853e+000	 3.278821901798352e+000	 4.201655441325261e-001
1	 2.588496854144156e+000	 3.307518985991762e+000	 5.695619333586957e-001
1	 2.551952090816394e+000	 3.335796424614757e+000	 7.111929522098827e-001
1	 2.515125413354498e+000	 3.363649950302459e+000	 8.460277031323426e-001
1	 2.478024165474663e+000	 3.391075462413564e+000	 9.750650783680046e-001
1	 2.440655767508217e+000	 3.418069028881693e+000	 1.099331538949943e+000
1	 2.819232670686875e+000	 3.149071505129704e+000	-4.331008415402804e-001
1	 2.784308373840670e+000	 3.179992214045370e+000	-2.453082247515366e-001
1	 2.749057913994120e+000	 3.210514525480813e+000	-6.891761873726304e-002
1	 2.713488120405852e+000	 3.240633339590237e+000	 9.681994600108536e-002
1	 2.677605927241350e+000	 3.270343712614112e+000	 2.526938834340112e-001
1	 2.641418369114568e+000	 3.299640859528343e+000	 3.995321297291016e-001
1	 2.604932576551026e+000	 3.328520156540966e+000	 5.381991630386955e-001
1	 2.568155771378458e+000	 3.356977143433668e+000	 6.695939699454134e-001
1	 2.531095262051196e+000	 3.385007525745849e+000	 7.946479632684407e-001
1	 2.493758438914534e+000	 3.412607176799092e+000	 9.143228560255480e-001
1	 2.456152769415361e+000	 3.439772139560280e+000	 1.029608496422960e+000
1	 2.837020511336150e+000	 3.168940451281644e+000	-3.952558683836939e-001
1	 2.801875860975600e+000	 3.200056253226749e+000	-2.207606540079864e-001
1	 2.766402989701746e+000	 3.230771144017952e+000	-5.689346593180610e-002
1	 2.730608769862155e+000	 3.261079991632188e+000	 9.703612920108309e-002
1	 2.694500179373152e+000	 3.290977821117469e+000	 2.417589039864157e-001
1	 2.658084297233307e+000	 3.320459817258793e+000	 3.780441474558862e-001
1	 2.621368298957908e+000	 3.349521327090561e+000	 5.066977836981647e-001
1	 2.584359451940528e+000	 3.378157862252897e+000	 6.285604362968643e-001
1	 2.547065110747905e+000	 3.406365101189477e+000	 7.445054430887185e-001
1	 2.509492712354418e+000	 3.434138891184774e+000	 8.554368258413657e-001
1	 2.471649771322522e+000	 3.461475250238931e+000	 9.622872195317375e-001
1	 2.854808351985561e+000	 3.188809397434150e+000	-3.612278555896321e-001
1	 2.819443348110627e+000	 3.220120292408698e+000	-1.995457534625722e-001
1	 2.783748065409441e+000	 3.251027762555651e+000	-4.763561703999906e-002
1	 2.747729419318505e+000	 3.281526643674674e+000	 9.511563293978805e-002
1	 2.711394431504983e+000	 3.311611929621332e+000	 2.293609970233179e-001
1	 2.674750225352066e+000	 3.341278774989703e+000	 3.557917107207527e-001
1	 2.637804021364806e+000	 3.370522497640566e+000	 4.751354993129065e-001
1	 2.600563132502615e+000	 3.399338581072477e+000	 5.881547778945291e-001
1	 2.563034959444631e+000	 3.427722676633387e+000	 6.956448008760413e-001
1	 2.525226985794328e+000	 3.455670605570664e+000	 7.984317652660002e-001
1	 2.487146773229715e+000	 3.483178360917711e+000	 8.973708721430339e-001
1	 2.872596192635086e+000	 3.208678343587173e+000	-3.309230724937752e-001
1	 2.837010835245739e+000	 3.240184331591172e+000	-1.815624777651179e-001
1	 2.801093141117197e+000	 3.271284381093875e+000	-4.104031006897475e-002
1	 2.764850068774895e+000	 3.301973295717676e+000	 9.116069189629437e-002
1	 2.728288683636842e+000	 3.332246038125688e+000	 2.155969834863133e-001
1	 2.691416153470845e+000	 3.362097732721078e+000	 3.328627009114488e-001
1	 2.654239743771723e+000	 3.391523668190996e+000	 4.435880892079432e-001
1	 2.616766813064722e+000	 3.420519299892435e+000	 5.484378751226470e-001
1	 2.579004808141385e+000	 3.449080252077623e+000	 6.481095887715836e-001
1	 2.540961259234273e+000	 3.477202319956819e+000	 7.433318380368403e-001
1	 2.502643775136960e+000	 3.504881471596689e+000	 8.348625397575274e-001
1	 2.890384033284712e+000	 3.228547289740663e+000	-3.042500957602013e-001
1	 2.854578322380925e+000	 3.260248370774131e+000	-1.667122689563932e-001
1	 2.818438216825004e+000	 3.291540999632588e+000	-3.700633729122496e-002
1	 2.781970718231322e+000	 3.322419947761167e+000	 8.527102408154853e-002
1	 2.745182935768730e+000	 3.352880146630527e+000	 2.005613009165250e-001
1	 2.708082081589644e+000	 3.382916690452919e+000	 3.093428360764766e-001
1	 2.670675466178660e+000	 3.412524838741869e+000	 4.121294672804316e-001
1	 2.632970493626855e+000	 3.441700018712804e+000	 5.094691096985110e-001
1	 2.594974656838174e+000	 3.470437827522229e+000	 6.019422868116404e-001
1	 2.556695532674268e+000	 3.498734034343295e+000	 6.901606130625317e-001
1	 2.518140777044271e+000	 3.526584582275933e+000	 7.747652319212250e-001
1	 2.908171873934421e+000	 3.248416235894569e+000	-2.811197388174419e-001
1	 2.872145809516170e+000	 3.280312409957526e+000	-1.548989803974027e-001
1	 2.835783292532855e+000	 3.311797618171761e+000	-3.543496712876941e-002
1	 2.799091367687780e+000	 3.342866599805125e+000	 7.754390780440067e-002
1	 2.762077187900638e+000	 3.373514255135836e+000	 1.843460763450262e-001
1	 2.724748009708466e+000	 3.403735648185227e+000	 2.853157370854753e-001
1	 2.687111188585623e+000	 3.433526009293199e+000	 3.808317390491409e-001
1	 2.649174174189020e+000	 3.462880737533612e+000	 4.713064105055178e-001
1	 2.610944505535007e+000	 3.491795402967248e+000	 5.571843357152850e-001
1	 2.572429806114326e+000	 3.520265748730149e+000	 6.389410826143753e-001
1	 2.533637778951669e+000	 3.548287692955509e+000	 7.170818845483515e-001
1	 2.925959714584196e+000	 3.268285182048841e+000	-2.614449838684683e-001
1	 2.889713296651465e+000	 3.300376449141319e+000	-1.460288034734661e-001
1	 2.853128368240741e+000	 3.332054236711353e+000	-3.622986888660031e-002
1	 2.816212017144263e+000	 3.363313251849527e+000	 6.807425583026408e-002
1	 2.778971440032567e+000	 3.394148363641605e+000	 1.670411965244731e-001
1	 2.741413937827308e+000	 3.424554605918009e+000	 2.608629913763318e-001
1	 2.703546910992609e+000	 3.454527179845005e+000	 3.497652566230404e-001
1	 2.665377854751221e+000	 3.484061456354890e+000	 4.340062977543635e-001
1	 2.626914354231892e+000	 3.513152978412723e+000	 5.138761684761198e-001
1	 2.588164079554456e+000	 3.541797463117435e+000	 5.896956798541362e-001
1	 2.549134780859165e+000	 3.569990803635482e+000	 6.618153621595310e-001
1	 2.943747555234023e+000	 3.288154128203432e+000	-2.451409163656553e-001
1	 2.907280783786796e+000	 3.320440488325464e+000	-1.400101969556510e-001
1	 2.870473443948652e+000	 3.352310855251332e+000	-3.929704021500113e-002
1	 2.833332666600767e+000	 3.383759903894349e+000	 5.695468685110953e-002
1	 2.795865692164516e+000	 3.414782472147824e+000	 1.487343756144870e-001
1	 2.758079865946173e+000	 3.445373563651262e+000	 2.360642143911096e-001
1	 2.719982633399626e+000	 3.475528350397300e+000	 3.189986716769331e-001
1	 2.681581535313463e+000	 3.505242175176668e+000	 3.976239255431952e-001
1	 2.642884202928838e+000	 3.534510553858697e+000	 4.720572408086024e-001
1	 2.603898352994673e+000	 3.563329177505211e+000	 5.424462957263911e-001
1	 2.564631782766780e+000	 3.591693914315921e+000	 6.089684600388119e-001
1	 2.961535395883882e+000	 3.308023074358290e+000	-2.321246618471589e-001
1	 2.924848270922151e+000	 3.340504527509917e+000	-1.367538189078830e-001
1	 2.887818519656582e+000	 3.372567473791665e+000	-4.454473718591203e-002
1	 2.850453316057286e+000	 3.404206555939566e+000	 4.427559437982061e-002
1	 2.812759944296481e+000	 3.435416580654481e+000	 1.295112204277919e-001
1	 2.774745794065056e+000	 3.466192521384992e+000	 2.109971087979687e-001
1	 2.736418355806673e+000	 3.496529520950103e+000	 2.885989865179737e-001
1	 2.697785215875753e+000	 3.526422893998977e+000	 3.622131228839613e-001
1	 2.658854051625854e+000	 3.555868129305217e+000	 4.317660604971882e-001
1	 2.619632626434987e+000	 3.584860891893531e+000	 4.972142952421405e-001
1	 2.580128784674530e+000	 3.613397024996892e+000	 5.585439063129674e-001
1	 2.979323236533757e+000	 3.327892020513365e+000	-2.223153250359262e-001
1	 2.942415758057520e+000	 3.360568566694637e+000	-1.361724610332949e-001
1	 2.905163595364522e+000	 3.392824092332316e+000	-5.188340687420325e-002
1	 2.867573965513814e+000	 3.424653207985159e+000	 3.012521317661905e-002
1	 2.829654196428458e+000	 3.456050689161565e+000	 1.094552933390747e-001
1	 2.791411722183963e+000	 3.487011479119200e+000	 1.857375215915911e-001
1	 2.752854078213755e+000	 3.517530691503430e+000	 2.586316033228787e-001
1	 2.713988896438097e+000	 3.547603612821848e+000	 3.278264332591104e-001
1	 2.674823900322948e+000	 3.577225704752323e+000	 3.930402156940862e-001
1	 2.635366899875414e+000	 3.606392606282453e+000	 4.540205331790506e-001
1	 2.595625786582433e+000	 3.635100135678463e+000	 5.105443639562919e-001
1	 2.440655767508217e+000	 3.418069028881693e+000	 1.099331538949943e+000
1	 2.403027710782309e+000	 3.444626886934158e+000	 1.220244428142751e+000
1	 2.365147550385903e+000	 3.470745441682317e+000	 1.337794912028491e+000
1	 2.327022902821665e+000	 3.496421270358104e+000	 1.450902544894704e+000
1	 2.288661441927230e+000	 3.521651124484178e+000	 1.558505550948887e+000
1	 2.250070893948702e+000	 3.546431930914687e+000	 1.659562405262249e+000
1	 2.211259032598793e+000	 3.570760792711000e+000	 1.753053367819636e+000
1	 2.172233674105955e+000	 3.594634989852545e+000	 1.837981967959686e+000
1	 2.133002672260832e+000	 3.618051979783225e+000	 1.913376436640450e+000
1	 2.093573913466255e+000	 3.641009397794124e+000	 1.978291084122837e+000
1	 2.053955311797024e+000	 3.663505057243499e+000	 2.031807620826539e+000
1	 2.456152769415361e+000	 3.439772139560280e+000	 1.029608496422960e+000
1	 2.418285792447178e+000	 3.466498627364912e+000	 1.141794678175721e+000
1	 2.380165111070181e+000	 3.492783022498506e+000	 1.250769227139779e+000
1	 2.341798390148221e+000	 3.518621880460040e+000	 1.355452408982139e+000
1	 2.303193352244160e+000	 3.544011932145869e+000	 1.454783910628720e+000
1	 2.264357772662105e+000	 3.568950084897113e+000	 1.547724437995005e+000
1	 2.225299474474157e+000	 3.593433423380952e+000	 1.633257265120139e+000
1	 2.186026323538119e+000	 3.617459210305963e+000	 1.710389731963780e+000
1	 2.146546223512473e+000	 3.641024886972018e+000	 1.778154688280743e+000
1	 2.106867110874978e+000	 3.664128073655407e+000	 1.835611881150593e+000
1	 2.066996949951050e+000	 3.686766569830242e+000	 1.881849283906420e+000
1	 2.471649771322522e+000	 3.461475250238931e+000	 9.622872195317375e-001
1	 2.433543874112069e+000	 3.488370367795640e+000	 1.066206199910035e+000
1	 2.395182671754490e+000	 3.514820603314579e+000	 1.166989239836532e+000
1	 2.356573877474814e+000	 3.540822490561769e+000	 1.263572288526307e+000
1	 2.317725262561141e+000	 3.566372739807267e+000	 1.354911621535692e+000
1	 2.278644651375573e+000	 3.591468238879172e+000	 1.439985426719496e+000
1	 2.239339916349607e+000	 3.616106054050469e+000	 1.517795339923729e+000
1	 2.199818972970387e+000	 3.640283430758890e+000	 1.587367927707698e+000
1	 2.160089774764248e+000	 3.663997794160270e+000	 1.647756114549057e+000
1	 2.120160308283865e+000	 3.687246749516119e+000	 1.698040552151386e+000
1	 2.080038588105280e+000	 3.710028082416403e+000	 1.737330928644444e+000
1	 2.487146773229715e+000	 3.483178360917711e+000	 8.973708721430339e-001
1	 2.448801955777006e+000	 3.510242108226416e+000	 9.934613441884670e-001
1	 2.410200232438857e+000	 3.536858184130617e+000	 1.086419377828904e+000
1	 2.371349364801481e+000	 3.563023100663378e+000	 1.175211291274929e+000
1	 2.332257172878211e+000	 3.588733547468468e+000	 1.258824786589788e+000
1	 2.292931530089150e+000	 3.613986392860957e+000	 1.336270495610010e+000
1	 2.253380358225186e+000	 3.638778684719643e+000	 1.406583473967404e+000
1	 2.213611622402809e+000	 3.663107651211413e+000	 1.468824640599841e+000
1	 2.173633326016202e+000	 3.686970701348076e+000	 1.522082160301138e+000
1	 2.133453505692958e+000	 3.710365425376351e+000	 1.565472767029124e+000
1	 2.093080226259744e+000	 3.733289595002065e+000	 1.598143025863825e+000
1	 2.502643775136960e+000	 3.504881471596689e+000	 8.348625397575274e-001
1	 2.464060037442010e+000	 3.532113848657317e+000	 9.235428990057167e-001
1	 2.425217793123311e+000	 3.558895764946705e+000	 1.009024949917232e+000
1	 2.386124852128256e+000	 3.585223710764960e+000	 1.090319785526240e+000
1	 2.346789083195411e+000	 3.611094355129560e+000	 1.166461091378256e+000
1	 2.307218408802882e+000	 3.636504546842562e+000	 1.236506623440818e+000
1	 2.267420800100942e+000	 3.661451315388569e+000	 1.299539632514238e+000
1	 2.227404271835432e+000	 3.685931871663630e+000	 1.354670232682101e+000
1	 2.187176877268379e+000	 3.709943608535522e+000	 1.401036711506233e+000
1	 2.146746703102297e+000	 3.733484101236188e+000	 1.437806779841164e+000
1	 2.106121864414475e+000	 3.756551107587308e+000	 1.464178759317452e+000
1	 2.518140777044271e+000	 3.526584582275933e+000	 7.747652319212250e-001
1	 2.479318119107102e+000	 3.553985589088418e+000	 8.564340760569434e-001
1	 2.440235353807877e+000	 3.580933345762920e+000	 9.347721188803058e-001
1	 2.400900339455172e+000	 3.607424320866600e+000	 1.008849361340966e+000
1	 2.361320993512781e+000	 3.633455162790639e+000	 1.077759755455821e+000
1	 2.321505287516809e+000	 3.659022700824079e+000	 1.140622586518804e+000
1	 2.281461241976922e+000	 3.684123946057341e+000	 1.196583800241762e+000
1	 2.241196921268304e+000	 3.708756092115631e+000	 1.244817272576197e+000
1	 2.200720428520828e+000	 3.732916515722704e+000	 1.284526020132247e+000
1	 2.160039900511925e+000	 3.756602777095718e+000	 1.314943349282033e+000
1	 2.119163502569507e+000	 3.779812620172219e+000	 1.335333942209027e+000
1	 2.533637778951669e+000	 3.548287692955509e+000	 7.170818845483515e-001
1	 2.494576200772307e+000	 3.575857329519796e+000	 7.921184977799660e-001
1	 2.455252914492587e+000	 3.602970926579353e+000	 8.636278753585294e-001
1	 2.415675826782263e+000	 3.629624930968387e+000	 9.307527931777612e-001
1	 2.375852903830360e+000	 3.655815970451795e+000	 9.926614854320988e-001
1	 2.335792166230977e+000	 3.681540854805605e+000	 1.048548903710415e+000
1	 2.295501683853174e+000	 3.706796576726056e+000	 1.097637919483226e+000
1	 2.254989570701472e+000	 3.731580312567512e+000	 1.139180468000927e+000
1	 2.214263979773591e+000	 3.755889422909708e+000	 1.172458631787564e+000
1	 2.173333097921881e+000	 3.779721452955029e+000	 1.196785662085295e+000
1	 2.132205140724873e+000	 3.803074132756878e+000	 1.211506936777840e+000
1	 2.549134780859165e+000	 3.569990803635482e+000	 6.618153621595310e-001
1	 2.509834282437646e+000	 3.597729069951527e+000	 7.305801848700940e-001
1	 2.470270475177469e+000	 3.625008507396082e+000	 7.955600126897963e-001
1	 2.430451314109564e+000	 3.651825541070408e+000	 8.559840038915814e-001
1	 2.390384814148186e+000	 3.678176778113120e+000	 9.111084297702191e-001
1	 2.350079044945431e+000	 3.704059008787232e+000	 9.602177834737697e-001
1	 2.309542125729742e+000	 3.729469207394803e+000	 1.002625830721532e+000
1	 2.268782220134983e+000	 3.754404533019364e+000	 1.037676600750909e+000
1	 2.227807531026718e+000	 3.778862330096631e+000	 1.064745316002190e+000
1	 2.186626295332208e+000	 3.802840128814207e+000	 1.083239259219456e+000
1	 2.145246778880603e+000	 3.826335645341369e+000	 1.092598576816763e+000
1	 2.564631782766780e+000	 3.591693914315921e+000	 6.089684600388119e-001
1	 2.525092364103141e+000	 3.619600810383686e+000	 6.718035442476400e-001
1	 2.485288035862548e+000	 3.647046088213191e+000	 7.305371026576737e-001
1	 2.445226801437110e+000	 3.674026151172752e+000	 7.844980300372726e-001
1	 2.404916724466301e+000	 3.700537585774706e+000	 8.330441352242327e-001
1	 2.364365923660214e+000	 3.726577162769055e+000	 8.755630728112117e-001
1	 2.323582567606674e+000	 3.752141838063679e+000	 9.114732152405887e-001
1	 2.282574869568885e+000	 3.777228753471282e+000	 9.402244640326773e-001
1	 2.241351082280251e+000	 3.801835237283559e+000	 9.612989990365560e-001
1	 2.199919492742944e+000	 3.825958804673341e+000	 9.742119647596044e-001
1	 2.158288417036733e+000	 3.849597157925777e+000	 9.785120929993427e-001
1	 2.580128784674530e+000	 3.613397024996892e+000	 5.585439063129674e-001
1	 2.540350445768814e+000	 3.641472550816348e+000	 6.157733574590277e-001
1	 2.500305596547855e+000	 3.669083669030762e+000	 6.685284721135488e-001
1	 2.460002288764932e+000	 3.696226761275509e+000	 7.162509884235779e-001
1	 2.419448634784743e+000	 3.722898393436643e+000	 7.584135048464196e-001
1	 2.378652802375369e+000	 3.749095316751165e+000	 7.945202080614346e-001
1	 2.337623009484017e+000	 3.774814468732779e+000	 8.241075398434050e-001
1	 2.296367519003227e+000	 3.800052973923358e+000	 8.467448020590885e-001
1	 2.254894633534237e+000	 3.824808144470584e+000	 8.620346991118039e-001
1	 2.213212690154133e+000	 3.849077480532520e+000	 8.696138173224238e-001
1	 2.171330055193294e+000	 3.872858670510183e+000	 8.691530408980013e-001
1	 2.595625786582433e+000	 3.635100135678463e+000	 5.105443639562919e-001
1	 2.555608527434690e+000	 3.663344291249593e+000	 5.624747694934259e-001
1	 2.515323157233419e+000	 3.691121249848880e+000	 6.095041804362639e-001
1	 2.474777776093069e+000	 3.718427371378763e+000	 6.512000438652447e-001
1	 2.433980545103553e+000	 3.745259201099026e+000	 6.871627574988751e-001
1	 2.392939681090943e+000	 3.771613470733660e+000	 7.170261674543774e-001
1	 2.351663451361818e+000	 3.797487099402197e+000	 7.404580035504956e-001
1	 2.310160168438054e+000	 3.822877194375687e+000	 7.571602518075605e-001
1	 2.268438184788723e+000	 3.847781051657798e+000	 7.668694639602174e-001
1	 2.226505887565815e+000	 3.872196156391829e+000	 7.693570039573311e-001
1	 2.184371693350319e+000	 3.896120183094671e+000	 7.644292315807729e-001
1	 2.053955311797024e+000	 3.663505057243499e+000	 2.031807620826539e+000
1	 2.014160787468252e+000	 3.685533680363033e+000	 2.074396253188157e+000
1	 1.974192364944430e+000	 3.707096848820648e+000	 2.105894767765663e+000
1	 1.934058010402449e+000	 3.728192913598081e+000	 2.124492895260664e+000
1	 1.893765698057606e+000	 3.748820402933820e+000	 2.128457648322498e+000
1	 1.853323405364218e+000	 3.768978021749815e+000	 2.116135259828865e+000
1	 1.812739108261148e+000	 3.788664650926862e+000	 2.085952960814411e+000
1	 1.772020776467593e+000	 3.807879346431334e+000	 2.036420596744720e+000
1	 1.731176368834391e+000	 3.826621338296152e+000	 1.966132081249371e+000
1	 1.690213828755852e+000	 3.844890029459100e+000	 1.873766686839613e+000
1	 1.649141079647045e+000	 3.862684994461763e+000	 1.758090172541397e+000
1	 2.066996949951050e+000	 3.686766569830242e+000	 1.881849283906420e+000
1	 2.026949749342556e+000	 3.708935064216883e+000	 1.917629461775600e+000
1	 1.986727546368358e+000	 3.730635148526094e+000	 1.943150769187554e+000
1	 1.946338357786760e+000	 3.751865163269136e+000	 1.956716587054491e+000
1	 1.905790208445515e+000	 3.772623627339524e+000	 1.956709050849602e+000
1	 1.865091126451960e+000	 3.792909237436087e+000	 1.941590802579813e+000
1	 1.824249138388354e+000	 3.812720867333757e+000	 1.909906581963600e+000
1	 1.783272264577802e+000	 3.832057567004748e+000	 1.860284655894512e+000
1	 1.742168514406036e+000	 3.850918561593067e+000	 1.791438085681953e+000
1	 1.700945881704125e+000	 3.869303250245444e+000	 1.702165831966138e+000
1	 1.659612340197034e+000	 3.887211204802014e+000	 1.591353697601752e+000
1	 2.080038588105280e+000	 3.710028082416403e+000	 1.737330928644444e+000
1	 2.039738711217104e+000	 3.732336448070155e+000	 1.766700980439729e+000
1	 1.999262727792577e+000	 3.754173448230980e+000	 1.786718820942619e+000
1	 1.958618705171412e+000	 3.775537412939670e+000	 1.795801196037870e+000
1	 1.917814718833813e+000	 3.796426851744760e+000	 1.792443605838427e+000
1	 1.876858847540136e+000	 3.816840453121951e+000	 1.775221888338126e+000
1	 1.835759168516035e+000	 3.836777083740311e+000	 1.742793644166241e+000
1	 1.794523752688518e+000	 3.856235787577900e+000	 1.693899501832872e+000
1	 1.753160659978216e+000	 3.875215784889800e+000	 1.627364223255506e+000
1	 1.711677934652947e+000	 3.893716471031692e+000	 1.542097649751240e+000
1	 1.670083600747572e+000	 3.911737415142255e+000	 1.437095489066171e+000
1	 2.093080226259744e+000	 3.733289595002065e+000	 1.598143025863825e+000
1	 2.052527673091920e+000	 3.755737831922926e+000	 1.621486367652403e+000
1	 2.011797909217094e+000	 3.777711747935385e+000	 1.636439762098592e+000
1	 1.970899052556393e+000	 3.799209662609751e+000	 1.641533054653992e+000
1	 1.929839229222469e+000	 3.820230076149579e+000	 1.635373389917723e+000
1	 1.888626568628697e+000	 3.840771668807451e+000	 1.616646644746192e+000
1	 1.847269198644123e+000	 3.860833300146565e+000	 1.584118706679749e+000
1	 1.805775240799660e+000	 3.880414008150812e+000	 1.536636597309363e+000
1	 1.764152805550830e+000	 3.899513008186364e+000	 1.473129440593587e+000
1	 1.722409987602206e+000	 3.918129691817841e+000	 1.392609276515811e+000
1	 1.680554861298542e+000	 3.936263625482468e+000	 1.294171720843400e+000
1	 2.106121864414475e+000	 3.756551107587308e+000	 1.464178759317452e+000
1	 2.065316634967021e+000	 3.779139215775277e+000	 1.481864264179423e+000
1	 2.024333090641914e+000	 3.801250047639374e+000	 1.492158373982511e+000
1	 1.983179399941691e+000	 3.822881912279439e+000	 1.493703787680542e+000
1	 1.941863739611455e+000	 3.844033300554042e+000	 1.485217611293755e+000
1	 1.900394289717594e+000	 3.864702884492636e+000	 1.465492658047308e+000
1	 1.858779228772551e+000	 3.884889516552547e+000	 1.433398600338945e+000
1	 1.817026728911142e+000	 3.904592228723509e+000	 1.387882973319580e+000
1	 1.775144951123781e+000	 3.923810231482768e+000	 1.327972030239158e+000
1	 1.733142040551793e+000	 3.942542912603885e+000	 1.252771450071206e+000
1	 1.691026121849827e+000	 3.960789835822633e+000	 1.161466898282397e+000
1	 2.119163502569507e+000	 3.779812620172219e+000	 1.335333942209027e+000
1	 2.078105596842430e+000	 3.802540599627279e+000	 1.347716298236127e+000
1	 2.036868272067042e+000	 3.824788347343020e+000	 1.353723258874512e+000
1	 1.995459747327293e+000	 3.846554161948798e+000	 1.352110149380718e+000
1	 1.953888250000736e+000	 3.867836524958197e+000	 1.341702390306520e+000
1	 1.912162010806777e+000	 3.888634100177547e+000	 1.321396682037695e+000
1	 1.870289258901252e+000	 3.908945732958296e+000	 1.290162049950645e+000
1	 1.828278217022880e+000	 3.928770449296013e+000	 1.247040750058943e+000
1	 1.786137096696969e+000	 3.948107454779024e+000	 1.191149035366639e+000
1	 1.743874093501599e+000	 3.966956133389826e+000	 1.121677783484209e+000
1	 1.701497382401312e+000	 3.985316046162736e+000	 1.037892986393388e+000
1	 2.132205140724873e+000	 3.803074132756878e+000	 1.211506936777840e+000
1	 2.090894558718166e+000	 3.825941983479015e+000	 1.218926994123598e+000
1	 2.049403453492485e+000	 3.848326647046395e+000	 1.220986723153477e+000
1	 2.007740094713190e+000	 3.870226411617892e+000	 1.216553866630594e+000
1	 1.965912760390286e+000	 3.891639749362105e+000	 1.204560548039244e+000
1	 1.923929731896198e+000	 3.912565315862232e+000	 1.184004357699575e+000
1	 1.881799289030159e+000	 3.933001949363844e+000	 1.153949310546082e+000
1	 1.839529705134790e+000	 3.952948669868349e+000	 1.113526675457026e+000
1	 1.797129242270298e+000	 3.972404678075140e+000	 1.061935676340456e+000
1	 1.754606146451515e+000	 3.991369354175658e+000	 9.984440654942616e-001
1	 1.711968642952877e+000	 4.009842256502755e+000	 9.223885700623968e-001
1	 2.145246778880603e+000	 3.826335645341369e+000	 1.092598576816763e+000
1	 2.103683520594251e+000	 3.849343367330560e+000	 1.095383684197517e+000
1	 2.061938634918248e+000	 3.871864946749569e+000	 1.093804664704944e+000
1	 2.020020442099368e+000	 3.893898661286785e+000	 1.086841487768633e+000
1	 1.977937270780072e+000	 3.915442973765817e+000	 1.073531402638561e+000
1	 1.935697452985807e+000	 3.936496531546734e+000	 1.052969943061028e+000
1	 1.893309319159202e+000	 3.957058165769227e+000	 1.024311816901321e+000
1	 1.850781193246788e+000	 3.977126890440536e+000	 9.867716805441725e-001
1	 1.808121387843667e+000	 3.996701901371128e+000	 9.396247981903062e-001
1	 1.765338199401428e+000	 4.015782574961377e+000	 8.822075864485111e-001
1	 1.722439903504408e+000	 4.034368466842676e+000	 8.139180448977077e-001
1	 2.158288417036733e+000	 3.849597157925777e+000	 9.785120929993426e-001
1	 2.116472482470704e+000	 3.872744751181992e+000	 9.769764240285742e-001
1	 2.074473816344336e+000	 3.895403246452611e+000	 9.720364644112404e-001
1	 2.032300789485816e+000	 3.917570910955538e+000	 9.627842369251499e-001
1	 1.989961781170066e+000	 3.939246198169390e+000	 9.483605730192355e-001
1	 1.947465174075554e+000	 3.960427747231099e+000	 9.279560528497697e-001
1	 1.904819349288316e+000	 3.981114382174480e+000	 9.008118457644797e-001
1	 1.862032681358789e+000	 4.001305111012600e+000	 8.662204509386189e-001
1	 1.819113533416977e+000	 4.020999124666999e+000	 8.235263381185914e-001
1	 1.776070252351231e+000	 4.040195795746982e+000	 7.721264886754514e-001
1	 1.732911164055787e+000	 4.058894677182480e+000	 7.114708374125737e-001
1	 2.171330055193294e+000	 3.872858670510183e+000	 8.691530408980013e-001
1	 2.129261444347548e+000	 3.896146135033388e+000	 8.635979106203922e-001
1	 2.087008997770753e+000	 3.918941546155594e+000	 8.555448815519452e-001
1	 2.044581136872522e+000	 3.941243160624216e+000	 8.441978736014786e-001
1	 2.001986291560236e+000	 3.963049422572876e+000	 8.287997896429260e-001
1	 1.959232895165393e+000	 3.984358962915372e+000	 8.086334075293296e-001
1	 1.916329379417432e+000	 4.005170598579635e+000	 7.830221902555383e-001
1	 1.873284169470709e+000	 4.025483331584564e+000	 7.513310137762265e-001
1	 1.830105678990131e+000	 4.045296347962762e+000	 7.129668121976035e-001
1	 1.786802305300814e+000	 4.064609016532470e+000	 6.673791402696476e-001
1	 1.743382424606897e+000	 4.083420887522147e+000	 6.140606533108066e-001
1	 2.184371693350319e+000	 3.896120183094671e+000	 7.644292315807729e-001
1	 2.142050406224803e+000	 3.919547518884829e+000	 7.551434035569856e-001
1	 2.099544179197507e+000	 3.942479845858591e+000	 7.441959529514556e-001
1	 2.056861484259474e+000	 3.964915410292883e+000	 7.309025572793401e-001
1	 2.014010801950552e+000	 3.986852646976335e+000	 7.146067120752753e-001
1	 1.971000616255271e+000	 4.008290178599602e+000	 6.946805913253406e-001
1	 1.927839409546484e+000	 4.029226814984732e+000	 6.705258459299822e-001
1	 1.884535657582464e+000	 4.049661552156452e+000	 6.415743394374228e-001
1	 1.841097824563030e+000	 4.069593571258429e+000	 6.072888204545773e-001
1	 1.797534358250065e+000	 4.089022237317836e+000	 5.671635313090808e-001
1	 1.753853685157622e+000	 4.107947097861665e+000	 5.207247527006770e-001
1	 1.649141079647045e+000	 3.862684994461763e+000	 1.758090172541397e+000
1	 1.607959836669317e+000	 3.880008541358522e+000	 1.622424082697936e+000
1	 1.566684128643885e+000	 3.896857880884244e+000	 1.472212602732476e+000
1	 1.525321798057408e+000	 3.913233096336334e+000	 1.309429448928339e+000
1	 1.483880649957763e+000	 3.929134436186638e+000	 1.136067156371361e+000
1	 1.442368447821710e+000	 3.944562312133359e+000	 9.541339266896698e-001
1	 1.400792909513493e+000	 3.959517297036671e+000	 7.656505019878392e-001
1	 1.359161703337863e+000	 3.974000122742366e+000	 5.726470705630418e-001
1	 1.317482444190801e+000	 3.988011677797904e+000	 3.771602097984112e-001
1	 1.275762689811018e+000	 4.001553005065471e+000	 1.812298714261231e-001
1	 1.234009937135045e+000	 4.014625299236578e+000	-1.310358586077668e-002
1	 1.659612340197034e+000	 3.887211204802014e+000	 1.591353697601752e+000
1	 1.618169615936555e+000	 3.904644747972214e+000	 1.462123706945615e+000
1	 1.576631826820247e+000	 3.921601072780403e+000	 1.319665908178106e+000
1	 1.535006865130829e+000	 3.938080263052890e+000	 1.165982664283457e+000
1	 1.493302585474527e+000	 3.954082568839195e+000	 1.003079005900752e+000
1	 1.451526800622489e+000	 3.969608404451610e+000	 8.329596997897769e-001
1	 1.409687277443730e+000	 3.984658346387703e+000	 6.576263670310631e-001
1	 1.367791732933090e+000	 3.999233131140132e+000	 4.790746556087580e-001
1	 1.325847830337527e+000	 4.013333652898218e+000	 2.992914717982465e-001
1	 1.283863175383798e+000	 4.026960961145822e+000	 1.202522745465275e-001
1	 1.241845312610418e+000	 4.040116258160178e+000	-5.608156320688466e-002
1	 1.670083600747572e+000	 3.911737415142255e+000	 1.437095489066171e+000
1	 1.628379395204329e+000	 3.929280954585979e+000	 1.315162293199151e+000
1	 1.586579524997117e+000	 3.946344264676716e+000	 1.181108605263866e+000
1	 1.544691932204722e+000	 3.962927429769678e+000	 1.036945628314527e+000
1	 1.502724520991713e+000	 3.979030701492055e+000	 8.846737446615380e-001
1	 1.460685153423631e+000	 3.994654496770230e+000	 7.262797891368830e-001
1	 1.418581645374264e+000	 4.009799395739160e+000	 5.637343914238493e-001
1	 1.376421762528546e+000	 4.024466139538372e+000	 3.989893912825081e-001
1	 1.334213216484404e+000	 4.038655627999038e+000	 2.339753302487027e-001
1	 1.291963660956650e+000	 4.052368917226700e+000	 7.059902312609852e-002
1	 1.249680688085785e+000	 4.065607217084311e+000	-8.925878767039064e-002
1	 1.680554861298542e+000	 3.936263625482468e+000	 1.294171720843400e+000
1	 1.638589174472520e+000	 3.953917161199783e+000	 1.180213150650719e+000
1	 1.596527223174380e+000	 3.971087456573137e+000	 1.055066614297166e+000
1	 1.554376999278973e+000	 3.987774596486632e+000	 9.207325792988730e-001
1	 1.512146456509218e+000	 4.003978834145139e+000	 7.791898328284240e-001
1	 1.469843506225049e+000	 4.019700589089125e+000	 6.323929440949613e-001
1	 1.427476013305023e+000	 4.034940445090934e+000	 4.822698109488614e-001
1	 1.385051792124171e+000	 4.049699147936963e+000	 3.307192938463858e-001
1	 1.342578602631395e+000	 4.063977603100238e+000	 1.796089400358358e-001
1	 1.300064146529557e+000	 4.077776873307971e+000	 3.077280055057554e-002
1	 1.257516063561146e+000	 4.091098176008841e+000	-1.139906576815679e-001
1	 1.691026121849827e+000	 3.960789835822633e+000	 1.161466898282397e+000
1	 1.648798953741009e+000	 3.978553367813596e+000	 1.055982449310506e+000
1	 1.606474921351918e+000	 3.995830648469615e+000	 9.401023670800903e-001
1	 1.564062066353473e+000	 4.012621763203689e+000	 8.157970332616753e-001
1	 1.521568392026944e+000	 4.028926966798368e+000	 6.850068852725003e-001
1	 1.479001859026653e+000	 4.044746681408201e+000	 5.496400523217656e-001
1	 1.436370381235935e+000	 4.060081494442918e+000	 4.115700867103017e-001
1	 1.393681821719912e+000	 4.074932156335789e+000	 2.726337929438906e-001
1	 1.350943988778462e+000	 4.089299578201687e+000	 1.346291569316984e-001
1	 1.308164632102501e+000	 4.103184829389508e+000	-6.866227449487274e-004
1	 1.265351439036504e+000	 4.116589134933640e+000	-1.315989997944220e-001
1	 1.701497382401312e+000	 3.985316046162736e+000	 1.037892986393388e+000
1	 1.659008733009677e+000	 4.003189574427382e+000	 9.412082088556424e-001
1	 1.616422619529614e+000	 4.020573840366099e+000	 8.348136834243589e-001
1	 1.573747133428113e+000	 4.037468929920784e+000	 7.206305753713814e-001
1	 1.530990327544788e+000	 4.053875099451660e+000	 6.005444052015361e-001
1	 1.488160211828356e+000	 4.069792773727361e+000	 4.764028431430458e-001
1	 1.445264749166924e+000	 4.085222543795005e+000	 3.500136058303397e-001
1	 1.402311851315711e+000	 4.100165164734731e+000	 2.231424572802928e-001
1	 1.359309374925568e+000	 4.114621553303265e+000	 9.751131596948433e-002
1	 1.316265117675463e+000	 4.128592785471173e+000	-2.520353047123692e-002
1	 1.273186814511861e+000	 4.142080093858573e+000	-1.433731017174779e-001
1	 1.711968642952877e+000	 4.009842256502755e+000	 9.223885700623968e-001
1	 1.669218512278404e+000	 4.027825781041109e+000	 8.346593245872873e-001
1	 1.626370317707353e+000	 4.045317032262544e+000	 7.378326888970221e-001
1	 1.583432200502779e+000	 4.062316096637850e+000	 6.337616956895933e-001
1	 1.540412263062650e+000	 4.078823232104933e+000	 5.242605642743651e-001
1	 1.497318564630068e+000	 4.094838866046509e+000	 4.111026385117743e-001
1	 1.454159117097919e+000	 4.110363593147087e+000	 2.960184298286365e-001
1	 1.410941880911512e+000	 4.125398173133672e+000	 1.806937670693605e-001
1	 1.367674761072674e+000	 4.139943528404842e+000	 6.676805465104355e-002
1	 1.324365603248425e+000	 4.154000741552840e+000	-4.416735979936444e-002
1	 1.281022189987216e+000	 4.167571052783504e+000	-1.505707074333522e-001
1	 1.722439903504408e+000	 4.034368466842676e+000	 8.139180448977080e-001
1	 1.679428291547071e+000	 4.052461987654741e+000	 7.351346289169030e-001
1	 1.636318015885016e+000	 4.070060224158895e+000	 6.478247720424116e-001
1	 1.593117267577364e+000	 4.087163263354825e+000	 5.537546673880777e-001
1	 1.549834198580428e+000	 4.103771364758110e+000	 4.546510272117784e-001
1	 1.506476917431703e+000	 4.119884958365555e+000	 3.521991495271694e-001
1	 1.463053485028845e+000	 4.135504642499055e+000	 2.480410886558735e-001
1	 1.419571910507259e+000	 4.150631181532491e+000	 1.437739312560735e-001
1	 1.376040147219742e+000	 4.165265503506291e+000	 4.094817907900505e-002
1	 1.332466088821368e+000	 4.179408697634375e+000	-5.893376057674299e-002
1	 1.288857565462575e+000	 4.193062011708301e+000	-1.544189760204320e-001
1	 1.732911164055787e+000	 4.058894677182480e+000	 7.114708374125734e-001
1	 1.689638070815559e+000	 4.077098194268250e+000	 6.414619868787057e-001
1	 1.646265714062487e+000	 4.094803416055106e+000	 5.634875794104860e-001
1	 1.602802334651755e+000	 4.112010430071640e+000	 4.792084656365528e-001
1	 1.559256134098022e+000	 4.128719497411107e+000	 3.902478190216734e-001
1	 1.515635270233171e+000	 4.144931050684400e+000	 2.981893165865751e-001
1	 1.471947852959630e+000	 4.160645691850804e+000	 2.045754184502184e-001
1	 1.428201940102896e+000	 4.175864189931072e+000	 1.109057476215676e-001
1	 1.384405533366737e+000	 4.190587478607486e+000	 1.863557119784142e-002
1	 1.340566574394276e+000	 4.204816653715645e+000	-7.082561614069018e-002
1	 1.296692940937935e+000	 4.218552970632833e+000	-1.561154057120348e-001
1	 1.743382424606897e+000	 4.083420887522147e+000	 6.140606533108066e-001
1	 1.699847850083750e+000	 4.101734400881598e+000	 5.524974242378727e-001
1	 1.656213412239648e+000	 4.119546607951128e+000	 4.835500468020904e-001
1	 1.612487401725841e+000	 4.136857596788231e+000	 4.087557254513240e-001
1	 1.568678069615330e+000	 4.153667630063846e+000	 3.296182330468769e-001
1	 1.524793623034385e+000	 4.169977143002951e+000	 2.476061913355852e-001
1	 1.480842220890201e+000	 4.185786741202223e+000	 1.641514411783442e-001
1	 1.436831969698366e+000	 4.201097198329295e+000	 8.064750396732934e-002
1	 1.392770919513618e+000	 4.215909453708301e+000	-1.551864584550643e-003
1	 1.348667059967129e+000	 4.230224609796522e+000	-8.113402734427656e-002
1	 1.304528316413302e+000	 4.244043929556965e+000	-1.568287246545477e-001
1	 1.753853685157622e+000	 4.107947097861665e+000	 5.207247527006766e-001
1	 1.710057629351524e+000	 4.126370607494756e+000	 4.671242868321333e-001
1	 1.666161110416385e+000	 4.144289799846914e+000	 4.067714652175175e-001
1	 1.622172468799514e+000	 4.161704763504537e+000	 3.410617368764595e-001
1	 1.578100005132252e+000	 4.178615762716244e+000	 2.713637781294618e-001
1	 1.533951975835255e+000	 4.195023235321111e+000	 1.990178586696253e-001
1	 1.489736588820484e+000	 4.210927790553209e+000	 1.253342844106587e-001
1	 1.445461999293614e+000	 4.226330206727043e+000	 5.159191866173957e-002
1	 1.401136305660350e+000	 4.241231428808610e+000	-2.096321704053190e-002
1	 1.356767545539909e+000	 4.255632565876874e+000	-9.111926133175285e-002
1	 1.312363691888676e+000	 4.269534888480566e+000	-1.576997497563417e-001
1	 1.234009937135045e+000	 4.014625299236578e+000	-1.310358586077668e-002
1	 1.192231618162235e+000	 4.027229903250403e+000	-2.067180855371595e-001
1	 1.150435094796215e+000	 4.039368302625527e+000	-4.005940686843896e-001
1	 1.108627657420195e+000	 4.051042125731239e+000	-5.928571157074700e-001
1	 1.066816522301443e+000	 4.062253141966685e+000	-7.816488729796840e-001
1	 1.025008828498531e+000	 4.073003258861230e+000	-9.651292229897388e-001
1	 9.832116348843374e-001	 4.083294519104892e+000	-1.141478383973220e+000
1	 9.414319172861082e-001	 4.093129097513706e+000	-1.308898936722784e+000
1	 8.996765657436613e-001	 4.102509297934844e+000	-1.465617776495731e+000
1	 8.579523818866406e-001	 4.111437550096344e+000	-1.609887988160256e+000
1	 8.162660764314832e-001	 4.119916406406245e+000	-1.739990642943576e+000
1	 1.241845312610418e+000	 4.040116258160178e+000	-5.608156320688466e-002
1	 1.199801721206407e+000	 4.052800895407485e+000	-2.306948552821739e-001
1	 1.157739809819977e+000	 4.065016367838656e+000	-4.046557907483075e-001
1	 1.115666915124803e+000	 4.076764314162330e+000	-5.761503978252652e-001
1	 1.073590299208018e+000	 4.088046515012492e+000	-7.433800980659372e-001
1	 1.031517146457816e+000	 4.098864890030392e+000	-9.045638494516289e-001
1	 9.894545605675654e-001	 4.109221494876151e+000	-1.057940220348170e+000
1	 9.474095616576930e-001	 4.119118518174838e+000	-1.201769392016947e+000
1	 9.053890835164922e-001	 4.128558278401947e+000	-1.334335087596595e+000
1	 8.633999709607189e-001	 4.137543220713116e+000	-1.453946425691273e+000
1	 8.214489773166679e-001	 4.146075913722957e+000	-1.558939696921020e+000
1	 1.249680688085785e+000	 4.065607217084311e+000	-8.925878767039064e-002
1	 1.207371824250493e+000	 4.078371887565093e+000	-2.465903146622948e-001
1	 1.165044524843574e+000	 4.090664433052284e+000	-4.024482127234025e-001
1	 1.122706172829171e+000	 4.102486502593892e+000	-5.550732703503951e-001
1	 1.080364076114282e+000	 4.113839888058725e+000	-7.027212767980642e-001
1	 1.038025464416730e+000	 4.124726521199935e+000	-8.436651374117179e-001
1	 9.956974862503660e-001	 4.135148470647740e+000	-9.761969207625617e-001
1	 9.533872060288052e-001	 4.145107938836248e+000	-1.098629835294342e+000
1	 9.111016012888167e-001	 4.154607258869276e+000	-1.209300133408155e+000
1	 8.688475600342709e-001	 4.163648891330075e+000	-1.306568941131374e+000
1	 8.266318782013200e-001	 4.172235421039815e+000	-1.388824011733587e+000
1	 1.257516063561146e+000	 4.091098176008841e+000	-1.139906576815679e-001
1	 1.214941927294513e+000	 4.103942879723094e+000	-2.556013338932773e-001
1	 1.172349239867047e+000	 4.116312498266290e+000	-3.950128489938910e-001
1	 1.129745430533360e+000	 4.128208691025804e+000	-5.305150896596019e-001
1	 1.087137853020315e+000	 4.139633261105280e+000	-6.604128274249231e-001
1	 1.044533782375364e+000	 4.150588152369766e+000	-7.830278055727253e-001
1	 1.001940411932846e+000	 4.161075446419583e+000	-8.967007583396429e-001
1	 9.593648503995628e-001	 4.171097359497876e+000	-9.997933601721696e-001
1	 9.168141190607614e-001	 4.180656239336790e+000	-1.090690102986657e+000
1	 8.742951491074273e-001	 4.189754561947185e+000	-1.167800099603270e+000
1	 8.318147790855720e-001	 4.198394928356807e+000	-1.229558811740145e+000
1	 1.265351439036504e+000	 4.116589134933640e+000	-1.315989997944220e-001
1	 1.222512030338491e+000	 4.129513871881357e+000	-2.588951379017265e-001
1	 1.179653954890438e+000	 4.141960563480546e+000	-3.833654166651472e-001
1	 1.136784688237429e+000	 4.153930879457952e+000	-5.033431836540929e-001
1	 1.093911629926192e+000	 4.165426634152051e+000	-6.171768287698192e-001
1	 1.051042100333811e+000	 4.176449783539791e+000	-7.232318420454004e-001
1	 1.008183337615112e+000	 4.187002422191599e+000	-8.198928038466139e-001
1	 9.653424947700844e-001	 4.197086780159657e+000	-9.055653052501026e-001
1	 9.225266368324533e-001	 4.206705219804441e+000	-9.786777965920805e-001
1	 8.797427381803207e-001	 4.215860232564423e+000	-1.037683362396798e+000
1	 8.369976799695581e-001	 4.224554435673913e+000	-1.081061421109160e+000
1	 1.273186814511861e+000	 4.142080093858573e+000	-1.433731017174779e-001
1	 1.230082133382446e+000	 4.155084864039749e+000	-2.576102185319292e-001
1	 1.186958669913788e+000	 4.167608628694931e+000	-3.684966293644059e-001
1	 1.143823945941437e+000	 4.179653067890219e+000	-4.744035295914443e-001
1	 1.100685406831993e+000	 4.191220007198934e+000	-5.737175845477857e-001
1	 1.057550418292166e+000	 4.202311414709921e+000	-6.648429576192970e-001
1	 1.014426263297271e+000	 4.212929397963709e+000	-7.462032703990744e-001
1	 9.713201391404875e-001	 4.223076200821530e+000	-8.162434927376052e-001
1	 9.282391546040187e-001	 4.232754200272183e+000	-8.734317607344850e-001
1	 8.851903272530822e-001	 4.241965903181751e+000	-9.162611209345406e-001
1	 8.421805808534109e-001	 4.250713942991122e+000	-9.432511992059494e-001
1	 1.281022189987216e+000	 4.167571052783504e+000	-1.505707074333522e-001
1	 1.237652236426401e+000	 4.180655856198142e+000	-2.528572132755994e-001
1	 1.194263384937138e+000	 4.193256693909315e+000	-3.513729619099127e-001
1	 1.150863203645446e+000	 4.205375256322486e+000	-4.445214070418486e-001
1	 1.107459183737793e+000	 4.217013380245822e+000	-5.307221669728712e-001
1	 1.064058736250520e+000	 4.228173045880061e+000	-6.084130223989848e-001
1	 1.020669188979431e+000	 4.238856373735842e+000	-6.760518455151143e-001
1	 9.772977835108908e-001	 4.249065621483434e+000	-7.321184583238730e-001
1	 9.339516723755841e-001	 4.258803180739971e+000	-7.751164182641690e-001
1	 8.906379163258440e-001	 4.268071573799145e+000	-8.035747294908932e-001
1	 8.473634817372634e-001	 4.276873450308417e+000	-8.160494783510709e-001
1	 1.288857565462575e+000	 4.193062011708301e+000	-1.544189760204320e-001
1	 1.245222339470378e+000	 4.206226848356404e+000	-2.457197519491861e-001
1	 1.201568099960529e+000	 4.218904759123572e+000	-3.329373870879143e-001
1	 1.157902461349515e+000	 4.231097444754642e+000	-4.145020270271012e-001
1	 1.114232960643671e+000	 4.242806753292610e+000	-4.888609405368980e-001
1	 1.070567054208968e+000	 4.254034677050119e+000	-5.544804865135190e-001
1	 1.026912114661696e+000	 4.264783349507912e+000	-6.098480110574609e-001
1	 9.832754278814122e-001	 4.275055042145304e+000	-6.534736726630502e-001
1	 9.396641901472760e-001	 4.284852161207754e+000	-6.838921937167355e-001
1	 8.960855053987374e-001	 4.294177244416569e+000	-6.996645367176954e-001
1	 8.525463826212494e-001	 4.303032957625782e+000	-6.993795038491096e-001
1	 1.296692940937935e+000	 4.218552970632833e+000	-1.561154057120348e-001
1	 1.252792442514398e+000	 4.231797840514404e+000	-2.372552726744648e-001
1	 1.208872814984002e+000	 4.244552824337582e+000	-3.141100857175581e-001
1	 1.164941719053704e+000	 4.256819633186568e+000	-3.851311383499052e-001
1	 1.121006737549704e+000	 4.268600126339194e+000	-4.487880667983680e-001
1	 1.077075372167601e+000	 4.279896308220005e+000	-5.035707855729363e-001
1	 1.033155040344177e+000	 4.290710325279848e+000	-5.479913515759247e-001
1	 9.892530722521703e-001	 4.301044462807081e+000	-5.805857548294164e-001
1	 9.453767079192210e-001	 4.310901141675489e+000	-5.999156341136818e-001
1	 9.015330944718941e-001	 4.320282915033996e+000	-6.045699160268692e-001
1	 8.577292835055019e-001	 4.329192464943204e+000	-5.931663761916833e-001
1	 1.304528316413302e+000	 4.244043929556965e+000	-1.568287246545477e-001
1	 1.260362545558484e+000	 4.257368832672012e+000	-2.284958084530269e-001
1	 1.216177530007600e+000	 4.270200889551218e+000	-2.957891311266246e-001
1	 1.171980976758072e+000	 4.282541821618144e+000	-3.571756120723853e-001
1	 1.127780514455968e+000	 4.294393499385465e+000	-4.111419909799183e-001
1	 1.083583690126515e+000	 4.305757939389624e+000	-4.561967315129709e-001
1	 1.039397966026977e+000	 4.316637301051570e+000	-4.908718515379291e-001
1	 9.952307166232824e-001	 4.327033883468700e+000	-5.137246780800948e-001
1	 9.510892256915459e-001	 4.336950122143130e+000	-5.233395254096355e-001
1	 9.069806835454459e-001	 4.346388585651395e+000	-5.183292948781501e-001
1	 8.629121843901538e-001	 4.355351972260665e+000	-4.973369953433687e-001
1	 1.312363691888676e+000	 4.269534888480566e+000	-1.576997497563417e-001
1	 1.267932648602657e+000	 4.282939824829096e+000	-2.204487455636693e-001
1	 1.223482245031363e+000	 4.295848954764352e+000	-2.788511491075446e-001
1	 1.179020234462681e+000	 4.308264010049258e+000	-3.313840050571494e-001
1	 1.134554291362543e+000	 4.320186872431324e+000	-3.765459111345831e-001
1	 1.090092008085801e+000	 4.331619570558885e+000	-4.128588894387438e-001
1	 1.045640891710206e+000	 4.342564276822999e+000	-4.388701819114509e-001
1	 1.001208360994867e+000	 4.353023304130099e+000	-4.531539682468249e-001
1	 9.568017434643769e-001	 4.362999102610631e+000	-4.543130047681236e-001
1	 9.124282726195250e-001	 4.372494256268735e+000	-4.409801830176377e-001
1	 8.680950852753391e-001	 4.381511479578151e+000	-4.118200070234260e-001
1	 8.162660764314832e-001	 4.119916406406245e+000	-1.739990642943576e+000
1	 7.746305074992251e-001	 4.127947367894609e+000	-1.854599719163828e+000
1	 7.330459304817425e-001	 4.135534529605869e+000	-1.951435515788847e+000
1	 6.915187573703857e-001	 4.142680794474465e+000	-2.027315745788729e+000
1	 6.500553007098910e-001	 4.149389174776561e+000	-2.079062493676413e+000
1	 6.086617716998224e-001	 4.155662788750935e+000	-2.103507183653639e+000
1	 5.673442784153442e-001	 4.161504857197135e+000	-2.097495414972945e+000
1	 5.261088241467260e-001	 4.166918700055335e+000	-2.057891658885036e+000
1	 4.849613058567812e-001	 4.171907732972209e+000	-1.981583812025521e+000
1	 4.439075127552784e-001	 4.176475463857045e+000	-1.865487601576908e+000
1	 4.029531249892538e-001	 4.180625489432248e+000	-1.706550838020807e+000
1	 8.214489773166679e-001	 4.146075913722957e+000	-1.558939696921020e+000
1	 7.795490423483210e-001	 4.154157867992348e+000	-1.647733940482176e+000
1	 7.377004230691648e-001	 4.161793204567332e+000	-1.718111992880945e+000
1	 6.959095721836308e-001	 4.168984844814609e+000	-1.767435784844747e+000
1	 6.541828423181006e-001	 4.175735820136897e+000	-1.793073596898320e+000
1	 6.125264841102887e-001	 4.182049268572325e+000	-1.792404159271140e+000
1	 5.709466444187183e-001	 4.187928431371006e+000	-1.762820638225066e+000
1	 5.294493646516858e-001	 4.193376649553176e+000	-1.701734504247019e+000
1	 4.880405792149012e-001	 4.198397360453264e+000	-1.606579277957116e+000
1	 4.467261140768504e-001	 4.202994094254131e+000	-1.474814149986774e+000
1	 4.055116854507895e-001	 4.207170470515678e+000	-1.303927471481839e+000
1	 8.266318782013200e-001	 4.172235421039815e+000	-1.388824011733587e+000
1	 7.844675771968939e-001	 4.180368368090208e+000	-1.454296359185842e+000
1	 7.423549156560875e-001	 4.188051879528887e+000	-1.500873811108818e+000
1	 7.003003869964146e-001	 4.195288895154834e+000	-1.526421008202596e+000
1	 6.583103839258989e-001	 4.202082465497299e+000	-1.528810727749678e+000
1	 6.163911965204039e-001	 4.208435748393775e+000	-1.505927178468113e+000
1	 5.745490104218124e-001	 4.214352005544932e+000	-1.455669199679866e+000
1	 5.327899051564446e-001	 4.219834599051070e+000	-1.375953361234670e+000
1	 4.911198525729068e-001	 4.224886987934367e+000	-1.264716960962949e+000
1	 4.495447153984006e-001	 4.229512724651258e+000	-1.119920916762182e+000
1	 4.080702459124012e-001	 4.233715451599140e+000	-9.395525507491305e-001
1	 8.318147790855720e-001	 4.198394928356807e+000	-1.229558811740145e+000
1	 7.893861120450737e-001	 4.206578868188181e+000	-1.274067980122655e+000
1	 7.470094082426360e-001	 4.214310554490548e+000	-1.299355175299666e+000
1	 7.046912018088520e-001	 4.221592945495159e+000	-1.303746989751007e+000
1	 6.624379255333880e-001	 4.228429110857804e+000	-1.285579749514341e+000
1	 6.202559089302560e-001	 4.234822228215323e+000	-1.243202066454043e+000
1	 5.781513764246962e-001	 4.240775579718960e+000	-1.174977311445126e+000
1	 5.361304456610525e-001	 4.246292548549063e+000	-1.079286005829601e+000
1	 4.941991259308264e-001	 4.251376615415562e+000	-9.545281287685166e-001
1	 4.523633167199344e-001	 4.256031355048466e+000	-7.991253383764493e-001
1	 4.106288063740699e-001	 4.260260432682666e+000	-6.115231047859193e-001
1	 8.369976799695581e-001	 4.224554435673913e+000	-1.081061421109160e+000
1	 7.943046468929925e-001	 4.232789368286273e+000	-1.106835232434270e+000
1	 7.516639008289349e-001	 4.240569229452331e+000	-1.113199350665483e+000
1	 7.090820166210586e-001	 4.247896995835609e+000	-1.098902292894586e+000
1	 6.665654671406717e-001	 4.254775756218443e+000	-1.062703718555564e+000
1	 6.241206213399322e-001	 4.261208708037015e+000	-1.003376300882505e+000
1	 5.817537424274395e-001	 4.267199153893132e+000	-9.197075346013945e-001
1	 5.394709861655601e-001	 4.272750498047199e+000	-8.105014780524210e-001
1	 4.972783992886888e-001	 4.277866242896895e+000	-6.745804281432081e-001
1	 4.551819180414574e-001	 4.282549985445801e+000	-5.107865267350995e-001
1	 4.131873668357766e-001	 4.286805413766293e+000	-3.179832972633236e-001
1	 8.421805808534109e-001	 4.250713942991122e+000	-9.432511992059491e-001
1	 7.992231817407802e-001	 4.258999868384477e+000	-9.523898026466017e-001
1	 7.563183934151089e-001	 4.266827904414242e+000	-9.420583840083786e-001
1	 7.134728314331503e-001	 4.274201046176213e+000	-9.113880708569966e-001
1	 6.706930087478520e-001	 4.281122401579249e+000	-8.595223552724532e-001
1	 6.279853337495213e-001	 4.287595187858888e+000	-7.856183455897368e-001
1	 5.853561084301131e-001	 4.293622728067493e+000	-6.888479684249625e-001
1	 5.428115266700170e-001	 4.299208447545529e+000	-5.683991199456037e-001
1	 5.003576726465228e-001	 4.304355870378412e+000	-4.234767654908175e-001
1	 4.580005193629747e-001	 4.309068615843296e+000	-2.533039867926332e-001
1	 4.157459272975020e-001	 4.313350394850049e+000	-5.712297619127128e-002
1	 8.473634817372634e-001	 4.276873450308417e+000	-8.160494783510710e-001
1	 8.041417165885678e-001	 4.285210368482794e+000	-8.105284738856798e-001
1	 7.609728860012828e-001	 4.293086579376300e+000	-7.855928351573613e-001
1	 7.178636462452411e-001	 4.300505096516986e+000	-7.407176816524916e-001
1	 6.748205503550323e-001	 4.307469046940256e+000	-6.753915344717444e-001
1	 6.318500461591106e-001	 4.313981667680984e+000	-5.891170087843733e-001
1	 5.889584744327866e-001	 4.320046302242091e+000	-4.814114693655963e-001
1	 5.461520671744742e-001	 4.325666397044096e+000	-3.518076488614494e-001
1	 5.034369460043564e-001	 4.330845497860159e+000	-1.998542285212508e-001
1	 4.608191206844920e-001	 4.335587246240998e+000	-2.511638123156957e-002
1	 4.183044877592277e-001	 4.339895375933969e+000	 1.728237232233943e-001
1	 8.525463826212494e-001	 4.303032957625782e+000	-6.993795038491097e-001
1	 8.090602514364863e-001	 4.311420868581226e+000	-6.810529709582619e-001
1	 7.656273785875816e-001	 4.319345254338512e+000	-6.434715182012279e-001
1	 7.222544610574481e-001	 4.326809146857958e+000	-5.864163171018311e-001
1	 6.789480919623159e-001	 4.333815692301495e+000	-5.096827943288370e-001
1	 6.357147585687870e-001	 4.340368147503342e+000	-4.130808246477709e-001
1	 5.925608404355304e-001	 4.346469876416972e+000	-2.964348985127973e-001
1	 5.494926076789813e-001	 4.352124346542950e+000	-1.595842645527399e-001
1	 5.065162193622189e-001	 4.357335125342182e+000	-2.383047255292282e-003
1	 4.636377220060149e-001	 4.362105876638947e+000	 1.752996597990693e-001
1	 4.208630482209342e-001	 4.366440357018083e+000	 3.735797247567492e-001
1	 8.577292835055019e-001	 4.329192464943204e+000	-5.931663761916833e-001
1	 8.139787862846666e-001	 4.337631368679769e+000	-5.637698110491046e-001
1	 7.702818711741304e-001	 4.345603929300893e+000	-5.153712521031738e-001
1	 7.266452758698856e-001	 4.353113197199152e+000	-4.480206452983363e-001
1	 6.830756335698049e-001	 4.360162337663001e+000	-3.617828631515916e-001
1	 6.395794709786391e-001	 4.366754627326000e+000	-2.567374573547531e-001
1	 5.961632064384143e-001	 4.372893450592176e+000	-1.329783963455085e-001
1	 5.528331481835894e-001	 4.378582296042136e+000	 9.386211363745477e-003
1	 5.095954927201386e-001	 4.383824752824525e+000	 1.702344073013541e-001
1	 4.664563233275486e-001	 4.388624507037183e+000	 3.494306857917077e-001
1	 4.234216086826029e-001	 4.392985338102428e+000	 5.468263085412558e-001
1	 8.629121843901538e-001	 4.355351972260665e+000	-4.973369953433688e-001
1	 8.188973211332394e-001	 4.363841868778422e+000	-4.584901597987888e-001
1	 7.749363637610531e-001	 4.371862604263454e+000	-4.009766203027202e-001
1	 7.310360906826695e-001	 4.379417247540587e+000	-3.250784659586862e-001
1	 6.872031751776031e-001	 4.386508983024806e+000	-2.310932031985829e-001
1	 6.434441833887548e-001	 4.393141107149004e+000	-1.193331265721070e-001
1	 5.997655724415082e-001	 4.399317024767751e+000	 9.875316381741864e-003
1	 5.561736886883482e-001	 4.405040245541704e+000	 1.561921649318748e-001
1	 5.126747660781442e-001	 4.410314380307236e+000	 3.192645883984549e-001
1	 4.692749246490988e-001	 4.415143137435748e+000	 4.987275316489777e-001
1	 4.259801691442147e-001	 4.419530319187034e+000	 6.942043616847214e-001
1	 8.680950852753391e-001	 4.381511479578151e+000	-4.118200070234260e-001
1	 8.238158559823361e-001	 4.390052368877189e+000	-3.650296925372119e-001
1	 7.795908563484760e-001	 4.398121279226209e+000	-2.999797389292764e-001
1	 7.354269054959154e-001	 4.405721297882294e+000	-2.171483781199547e-001
1	 6.913307167858134e-001	 4.412855628386947e+000	-1.170295708388894e-001
1	 6.473088957992209e-001	 4.419527586972392e+000	-1.320535371823268e-004
1	 6.033679384448826e-001	 4.425740598943745e+000	 1.330216127086504e-001
1	 5.595142291933083e-001	 4.431498195041700e+000	 2.818959896651415e-001
1	 5.157540394362644e-001	 4.436804007790360e+000	 4.459437042042538e-001
1	 4.720935259706708e-001	 4.441661767834681e+000	 6.246063838410021e-001
1	 4.285387296057504e-001	 4.446075300271935e+000	 8.173155840888902e-001
1	 4.029531249892538e-001	 4.180625489432248e+000	-1.706550838020807e+000
1	 3.620976067863624e-001	 4.184362021505855e+000	-1.507180605209310e+000
1	 3.213526407327571e-001	 4.187688172694503e+000	-1.268516506903127e+000
1	 2.807236575465107e-001	 4.190607788155261e+000	-9.855233683760342e-001
1	 2.402159721721477e-001	 4.193124788175180e+000	-6.531377389834547e-001
1	 1.998347830423366e-001	 4.195243164716059e+000	-2.662768355860192e-001
1	 1.595851714486658e-001	 4.196966977977436e+000	 1.801527338317968e-001
1	 1.194721010194017e-001	 4.198300352981236e+000	 6.912464754262256e-001
1	 7.950041730204928e-002	 4.199247476181253e+000	 1.272093751906762e+000
1	 3.967484744844285e-002	 4.199812592100591e+000	 1.927769769557648e+000
1	 0.000000000000000e+000	 4.200000000000001e+000	 2.663327816537489e+000
1	 4.055116854507895e-001	 4.207170470515678e+000	-1.303927471481839e+000
1	 3.643967541624681e-001	 4.210930727788929e+000	-1.096088099549085e+000
1	 3.233930769768961e-001	 4.214277998454132e+000	-8.526669748083307e-001
1	 2.825061190946209e-001	 4.217216152083235e+000	-5.698591367465352e-001
1	 2.417412292075336e-001	 4.219749133855214e+000	-2.438199587617810e-001
1	 2.011036387558750e-001	 4.221880961078892e+000	 1.293274707854826e-001
1	 1.605984612950160e-001	 4.223615719734105e+000	 5.534851238183060e-001
1	 1.202306919698988e-001	 4.224957561034674e+000	 1.032572972445190e+000
1	 8.000520709494793e-002	 4.225910698016350e+000	 1.570522101227407e+000
1	 3.992676383716123e-002	 4.226479402152904e+000	 2.171267998875378e+000
1	 0.000000000000000e+000	 4.226668000003317e+000	 2.838744035800105e+000
1	 4.080702459124012e-001	 4.233715451599140e+000	-9.395525507491306e-001
1	 3.666959015387499e-001	 4.237499434072024e+000	-7.255405592290556e-001
1	 3.254335132213082e-001	 4.240867824213765e+000	-4.794309778965862e-001
1	 2.842885806430887e-001	 4.243824516011196e+000	-1.985287741709309e-001
1	 2.432664862433427e-001	 4.246373479535219e+000	 1.199100150108140e-001
1	 2.023724944698756e-001	 4.248518757441675e+000	 4.786723478636619e-001
1	 1.616117511418327e-001	 4.250264461490711e+000	 8.805823418540302e-001
1	 1.209892829208255e-001	 4.251614769088035e+000	 1.328495544857455e+000
1	 8.050999688819097e-002	 4.252573919851358e+000	 1.825293320502778e+000
1	 4.017868022608303e-002	 4.253146212205121e+000	 2.373877354331576e+000
1	 0.000000000000000e+000	 4.253336000006533e+000	 2.977164286903830e+000
1	 4.106288063740699e-001	 4.260260432682666e+000	-6.115231047859192e-001
1	 3.689950489151643e-001	 4.264068140355160e+000	-3.934125381183039e-001
1	 3.274739494659248e-001	 4.267457649973411e+000	-1.464640879682364e-001
1	 2.860710421918249e-001	 4.270432879939134e+000	 1.310254359976862e-001
1	 2.447917432794692e-001	 4.272997825215163e+000	 4.408153226845579e-001
1	 2.036413501842226e-001	 4.275156553804367e+000	 7.847163545691021e-001
1	 1.626250409889994e-001	 4.276913203247188e+000	 1.164586251834851e+000
1	 1.217478738720746e-001	 4.278271977141238e+000	 1.582325172529565e+000
1	 8.101478668169221e-002	 4.279237141686184e+000	 2.039871275267791e+000
1	 4.043059661515737e-002	 4.279813022257143e+000	 2.539196350633753e+000
1	 0.000000000000000e+000	 4.280004000009551e+000	 3.082301527070842e+000
1	 4.131873668357766e-001	 4.286805413766293e+000	-3.179832972633236e-001
1	 3.712941962916668e-001	 4.290636846638357e+000	-9.763123528142624e-002
1	 3.295143857106780e-001	 4.294047475733071e+000	 1.485200540119405e-001
1	 2.878535037407400e-001	 4.297041243867040e+000	 4.212978582983976e-001
1	 2.463170003158075e-001	 4.299622170895022e+000	 7.215906643603541e-001
1	 2.049102058988005e-001	 4.301794350166915e+000	 1.050344769249049e+000
1	 1.636383308363993e-001	 4.303561945003477e+000	 1.408560896801089e+000
1	 1.225064648235386e-001	 4.304929185194208e+000	 1.797290825638010e+000
1	 8.151957647536566e-002	 4.305900363520745e+000	 2.217634034541316e+000
1	 4.068251300433339e-002	 4.306479832308872e+000	 2.670734370847464e+000
1	 0.000000000000000e+000	 4.306672000012267e+000	 3.157776747254191e+000
1	 4.157459272975020e-001	 4.313350394850049e+000	-5.712297619127128e-002
1	 3.735933436682135e-001	 4.317205552921639e+000	 1.638251249521169e-001
1	 3.315548219554992e-001	 4.320637301492754e+000	 4.077515247448610e-001
1	 2.896359652897446e-001	 4.323649607794899e+000	 6.747214545524634e-001
1	 2.478422573522515e-001	 4.326246516574762e+000	 9.648644058456549e-001
1	 2.061790616134940e-001	 4.328432146529279e+000	 1.278371844573358e+000
1	 1.646516206839160e-001	 4.330210686759509e+000	 1.615494893541182e+000
1	 1.232650557751100e-001	 4.331586393246865e+000	 1.976541988166261e+000
1	 8.202436626912517e-002	 4.332563585354943e+000	 2.361876510846542e+000
1	 4.093442939356026e-002	 4.333146642360212e+000	 2.771914409040631e+000
1	 0.000000000000000e+000	 4.333340000014584e+000	 3.207121802005421e+000
1	 4.183044877592277e-001	 4.339895375933969e+000	 1.728237232233942e-001
1	 3.758924910447601e-001	 4.343774259205020e+000	 3.929288534688744e-001
1	 3.335952582003206e-001	 4.347227127252465e+000	 6.334058398523912e-001
1	 2.914184268387489e-001	 4.350257971722702e+000	 8.936696617127888e-001
1	 2.493675143886955e-001	 4.352870862254359e+000	 1.173200607323764e+000
1	 2.074479173281874e-001	 4.355069942891405e+000	 1.471542979678133e+000
1	 1.656649105314326e-001	 4.356859428515224e+000	 1.788303739315779e+000
1	 1.240236467266813e-001	 4.358243601299131e+000	 2.123151088791940e+000
1	 8.252915606288463e-002	 4.359226807188695e+000	 2.475813003345059e+000
1	 4.118634578278713e-002	 4.359813452411068e+000	 2.846075712275552e+000
1	 0.000000000000000e+000	 4.360008000016401e+000	 3.233782135489017e+000
1	 4.208630482209342e-001	 4.366440357018083e+000	 3.735797247567492e-001
1	 3.781916384212626e-001	 4.370342965488527e+000	 5.916042999322437e-001
1	 3.356356944450737e-001	 4.373816953012210e+000	 8.276056123481571e-001
1	 2.932008883876640e-001	 4.376866335650436e+000	 1.080458201216940e+000
1	 2.508927714250336e-001	 4.379495207933778e+000	 1.349100978025566e+000
1	 2.087167730427654e-001	 4.381707739253252e+000	 1.632536813078329e+000
1	 1.666782003788324e-001	 4.383508170270559e+000	 1.929832034442045e+000
1	 1.247822376781452e-001	 4.384900809350929e+000	 2.240115843105218e+000
1	 8.303394585655800e-002	 4.385890029021907e+000	 2.562579648207950e+000
1	 4.143826217196314e-002	 4.386480262461337e+000	 2.896476326231952e+000
1	 0.000000000000000e+000	 4.386676000017618e+000	 3.241119408063043e+000
1	 4.234216086826029e-001	 4.392985338102428e+000	 5.468263085412559e-001
1	 3.804907857976769e-001	 4.396911671772176e+000	 7.617293018309466e-001
1	 3.376761306896904e-001	 4.400406778771993e+000	 9.924221509796645e-001
1	 2.949833499364001e-001	 4.403474699578090e+000	 1.237346822741307e+000
1	 2.524180284611601e-001	 4.406119553612994e+000	 1.495006760033708e+000
1	 2.099856287571123e-001	 4.408345535614769e+000	 1.763967239700826e+000
1	 1.676914902259990e-001	 4.410156912025449e+000	 2.042855624296931e+000
1	 1.255408286293942e-001	 4.411558017402181e+000	 2.330361510909015e+000
1	 8.353873565005922e-002	 4.412553250854495e+000	 2.625236780147428e+000
1	 4.169017856103743e-002	 4.413147072510928e+000	 2.926295548537319e+000
1	 0.000000000000000e+000	 4.413344000018133e+000	 3.232414027631879e+000
1	 4.259801691442147e-001	 4.419530319187034e+000	 6.942043616847214e-001
1	 3.827899331739587e-001	 4.423480378055990e+000	 9.051365813070637e-001
1	 3.397165669341023e-001	 4.426996604531820e+000	 1.129877000969770e+000
1	 2.967658114848678e-001	 4.430083063505653e+000	 1.366540985114102e+000
1	 2.539432854969691e-001	 4.432743899291976e+000	 1.613300544198603e+000
1	 2.112544844711126e-001	 4.434983331975912e+000	 1.868385355228143e+000
1	 1.687047800728156e-001	 4.436805653779828e+000	 2.130083664127719e+000
1	 1.262994195803208e-001	 4.438215225452806e+000	 2.396743072171015e+000
1	 8.404352544330211e-002	 4.439216472686363e+000	 2.666771208844366e+000
1	 4.194209494995915e-002	 4.439813882559738e+000	 2.938636293684676e+000
1	 0.000000000000000e+000	 4.440012000017850e+000	 3.210867589774858e+000
1	 4.285387296057504e-001	 4.446075300271935e+000	 8.173155840888903e-001
1	 3.850890805500643e-001	 4.450049084339991e+000	 1.023615091946048e+000
1	 3.417570031782413e-001	 4.453586430291698e+000	 1.241943429564844e+000
1	 2.985482730329779e-001	 4.456691427433116e+000	 1.470193477013897e+000
1	 2.554685425323549e-001	 4.459368244970696e+000	 1.706308021003697e+000
1	 2.125233401846509e-001	 4.461621128336633e+000	 1.948281330790725e+000
1	 1.697180699191656e-001	 4.463454395533640e+000	 2.194160609895401e+000
1	 1.270580105308178e-001	 4.464872433502731e+000	 2.442047325027748e+000
1	 8.454831523620064e-002	 4.465879694517425e+000	 2.690098413828211e+000
1	 4.219401133867746e-002	 4.466480692607675e+000	 2.936527373233114e+000
1	 0.000000000000000e+000	 4.466680000016666e+000	 3.179605230463221e+000
1	 4.466680000016666e+000	 0.000000000000000e+000	-5.353131049969017e-001
1	 4.466480692607678e+000	 4.219401133867761e-002	-4.620416947639291e-001
1	 4.465879694517425e+000	 8.454831523620093e-002	-3.911766135044791e-001
1	 4.464872433502731e+000	 1.270580105308174e-001	-3.229811534939503e-001
1	 4.463454395533637e+000	 1.697180699191653e-001	-2.577653201972784e-001
1	 4.461621128336632e+000	 2.125233401846509e-001	-1.958866804963900e-001
1	 4.459368244970698e+000	 2.554685425323549e-001	-1.377511608697789e-001
1	 4.456691427433116e+000	 2.985482730329781e-001	-8.381379233031042e-002
1	 4.453586430291698e+000	 3.417570031782408e-001	-3.457939892768569e-002
1	 4.450049084339993e+000	 3.850890805500641e-001	 9.396773369122379e-003
1	 4.446075300271936e+000	 4.285387296057503e-001	 4.750849057626506e-002
1	 4.493344001125478e+000	 0.000000000000000e+000	-6.117589832824146e-001
1	 4.493143503944068e+000	 4.244588995207979e-002	-5.402274082932860e-001
1	 4.492538918175068e+000	 8.505302933503604e-002	-4.701650500813904e-001
1	 4.491525644281115e+000	 1.278164877294522e-001	-4.019774312547969e-001
1	 4.490099141285576e+000	 1.707312078212957e-001	-3.361057417938512e-001
1	 4.488254930336908e+000	 2.137920056316579e-001	-2.730271981438982e-001
1	 4.485988598306077e+000	 2.569935708536612e-001	-2.132553560548510e-001
1	 4.483295801413886e+000	 3.003304672990532e-001	-1.573403750009511e-001
1	 4.480172268884857e+000	 3.437971334569228e-001	-1.058692320413764e-001
1	 4.476613806624296e+000	 3.873878831668750e-001	-5.946588301630258e-002
1	 4.472616300914868e+000	 4.310969064089002e-001	-1.879136901422737e-002
1	 4.520008008899155e+000	 0.000000000000000e+000	-6.564333627610366e-001
1	 4.519806321945047e+000	 4.269776862821971e-002	-5.886973596812893e-001
1	 4.519198148496463e+000	 8.555774355965612e-002	-5.215167409611270e-001
1	 4.518178861721835e+000	 1.285749651172135e-001	-4.554114000978270e-001
1	 4.516743893697841e+000	 1.717443459761730e-001	-3.909272329875126e-001
1	 4.514888738994899e+000	 2.150606713952958e-001	-3.286360814973273e-001
1	 4.512608958295947e+000	 2.585185995557294e-001	-2.691356344592852e-001
1	 4.509900182045277e+000	 3.021126620102522e-001	-2.130492848074191e-001
1	 4.506758114124131e+000	 3.458372642453049e-001	-1.610259416294384e-001
1	 4.503178535549549e+000	 3.896866863581595e-001	-1.137397959590499e-001
1	 4.499157308192905e+000	 4.336550838514770e-001	-7.189003919532265e-002
1	 4.546672030003566e+000	 0.000000000000000e+000	-6.738034495716567e-001
1	 4.546469153276179e+000	 4.294964743008928e-002	-6.114446830927369e-001
1	 4.545857392146254e+000	 8.606245803627632e-002	-5.487819169980058e-001
1	 4.544832092488003e+000	 1.293334428837648e-001	-4.864220160343478e-001
1	 4.543388659431392e+000	 1.727574846371274e-001	-4.249895460792231e-001
1	 4.541522560968784e+000	 2.163293377927727e-001	-3.651263750407034e-001
1	 4.539229331595075e+000	 2.600436290198506e-001	-3.074912347348181e-001
1	 4.536504575978026e+000	 3.038948576121461e-001	-2.527592432121320e-001
1	 4.533343972655578e+000	 3.478773960534280e-001	-2.016213870730948e-001
1	 4.529743277756488e+000	 3.919854906986114e-001	-1.547839633831794e-001
1	 4.525698328740825e+000	 4.362132625730023e-001	-1.129679808742012e-001
1	 4.573336071104578e+000	 0.000000000000000e+000	-6.682322712415789e-001
1	 4.573132004603027e+000	 4.320152642068042e-002	-6.123693909439256e-001
1	 4.572516655789086e+000	 8.656717289111188e-002	-5.554280169395521e-001
1	 4.571485343242733e+000	 1.300919212187695e-001	-4.980750347030791e-001
1	 4.570033445147191e+000	 1.737706240574890e-001	-4.409880765358311e-001
1	 4.568156402916756e+000	 2.175980051412970e-001	-3.848548518942236e-001
1	 4.565849724858240e+000	 2.615686596273152e-001	-3.303724421323864e-001
1	 4.563108989862871e+000	 3.056770545503059e-001	-2.782465597446059e-001
1	 4.559929851125256e+000	 3.499175293913336e-001	-2.291907722743063e-001
1	 4.556308039885856e+000	 3.942842967629248e-001	-1.839256911400358e-001
1	 4.552239369193409e+000	 4.387714432129977e-001	-1.431781257157141e-001
1	 4.600000138868055e+000	 0.000000000000000e+000	-6.439816962945725e-001
1	 4.599794882591152e+000	 4.345340566298505e-002	-5.952810730704432e-001
1	 4.599175946089608e+000	 8.707188825037808e-002	-5.448420872220553e-001
1	 4.598138620649134e+000	 1.308504003118912e-001	-4.933651331722990e-001
1	 4.596678257506200e+000	 1.747837644905879e-001	-4.415557284769338e-001
1	 4.594790271496990e+000	 2.188666737580766e-001	-3.901236449510360e-001
1	 4.592470144740218e+000	 2.630936917594146e-001	-3.397820075285596e-001
1	 4.589713430350549e+000	 3.074592532703026e-001	-2.912463614186251e-001
1	 4.586515756179225e+000	 3.519576647690627e-001	-2.452337082124297e-001
1	 4.582872828578392e+000	 3.965831051257931e-001	-2.024615116867765e-001
1	 4.578780436185433e+000	 4.413296264109848e-001	-1.636466741439930e-001
1	 4.626664239959867e+000	 0.000000000000000e+000	-6.052153493269045e-001
1	 4.626457793906115e+000	 4.370528521999508e-002	-5.639015024558338e-001
1	 4.625835269712468e+000	 8.757660424029021e-002	-5.203330986905775e-001
1	 4.624791931370330e+000	 1.316088803527934e-001	-4.752179582900043e-001
1	 4.623323103169381e+000	 1.757969061897542e-001	-4.292647155828099e-001
1	 4.621424173367672e+000	 2.201353439603201e-001	-3.831818215477835e-001
1	 4.619090597895790e+000	 2.646187257974394e-001	-3.376765173285219e-001
1	 4.616317904091795e+000	 3.092414542177068e-001	-2.934537795897499e-001
1	 4.613101694463548e+000	 3.539978026966565e-001	-2.512152387176023e-001
1	 4.609437650474842e+000	 3.988819163619110e-001	-2.116580709623426e-001
1	 4.605321536351673e+000	 4.438878128064857e-001	-1.754738657190546e-001
1	 4.653328381045878e+000	 0.000000000000000e+000	-5.560014257488779e-001
1	 4.653120745213482e+000	 4.395716515470247e-002	-5.218671512732728e-001
1	 4.652494633322307e+000	 8.808132098706338e-002	-4.851341835794439e-001
1	 4.651445282069430e+000	 1.323673615311397e-001	-4.464921045315996e-001
1	 4.649967988797696e+000	 1.768100494083182e-001	-4.066283000166365e-001
1	 4.648058115186988e+000	 2.214040160652356e-001	-3.662269039363186e-001
1	 4.645711090979728e+000	 2.661437621226807e-001	-3.259677162181147e-001
1	 4.642922417737346e+000	 3.110236578380899e-001	-2.865250959622402e-001
1	 4.639687672624278e+000	 3.560379436841560e-001	-2.485668309378804e-001
1	 4.636002512215940e+000	 4.011807310459719e-001	-2.127529847379153e-001
1	 4.631862676326912e+000	 4.464460030390216e-001	-1.797347229977168e-001
1	 4.679992568791956e+000	 0.000000000000000e+000	-5.003154101979161e-001
1	 4.679783743178811e+000	 4.420904553009910e-002	-4.727316208211476e-001
1	 4.679154043583775e+000	 8.858603861691294e-002	-4.424047959369135e-001
1	 4.678098679409549e+000	 1.331258440365935e-001	-4.099810241600185e-001
1	 4.676612921052107e+000	 1.778231943996098e-001	-3.761024718358569e-001
1	 4.674692103613120e+000	 2.226726903900312e-001	-3.414063377205593e-001
1	 4.672331630646809e+000	 2.676688011164292e-001	-3.065237846476063e-001
1	 4.669526977937935e+000	 3.128058645770228e-001	-2.720788493763621e-001
1	 4.666273697307479e+000	 3.580780882416026e-001	-2.386873319097906e-001
1	 4.662567420442431e+000	 4.034795497526699e-001	-2.069556656606667e-001
1	 4.658403862745927e+000	 4.490041977481146e-001	-1.774797699374990e-001
1	 4.706656809863968e+000	 0.000000000000000e+000	-4.420427024474287e-001
1	 4.706446794467666e+000	 4.446092640917691e-002	-4.199679887709783e-001
1	 4.705813507161521e+000	 8.909075725605414e-002	-3.952327985332712e-001
1	 4.704752130053802e+000	 1.338843280588184e-001	-3.684148723855026e-001
1	 4.703257906593572e+000	 1.788363414169591e-001	-3.400875712552905e-001
1	 4.701326145304251e+000	 2.239413672519153e-001	-3.108189103243272e-001
1	 4.698952223551813e+000	 2.691938431599761e-001	-2.811705728442758e-001
1	 4.696131591344302e+000	 3.145880748800765e-001	-2.516969049331290e-001
1	 4.692859775159207e+000	 3.601182368790375e-001	-2.229438925780134e-001
1	 4.689132381795057e+000	 4.057783730566991e-001	-1.954481221542424e-001
1	 4.684945102243493e+000	 4.515623975732859e-001	-1.697357258541456e-001
1	 4.733321110927780e+000	 0.000000000000000e+000	-3.849811544631948e-001
1	 4.733109905745614e+000	 4.471280785492782e-002	-3.669710769918443e-001
1	 4.732473030720188e+000	 8.959547703070217e-002	-3.466364791545799e-001
1	 4.731405640665302e+000	 1.346428137874779e-001	-3.244622900910001e-001
1	 4.729902952083056e+000	 1.798494907136964e-001	-3.009298560179929e-001
1	 4.727960246918567e+000	 2.252100469680961e-001	-2.765161214626722e-001
1	 4.725572876349514e+000	 2.707188886346120e-001	-2.516927930699227e-001
1	 4.722736264607185e+000	 3.163702891928218e-001	-2.269254869432447e-001
1	 4.719445912825525e+000	 3.621583901065016e-001	-2.026728605491456e-001
1	 4.715697402914556e+000	 4.080772015327532e-001	-1.793857302869900e-001
1	 4.711486401454396e+000	 4.541206031540578e-001	-1.575061758978512e-001
1	 4.446075300271936e+000	 4.285387296057503e-001	 4.750849057626499e-002
1	 4.441661767834682e+000	 4.720935259706711e-001	 7.931389264752423e-002
1	 4.436804007790361e+000	 5.157540394362641e-001	 1.046970836251330e-001
1	 4.431498195041699e+000	 5.595142291933083e-001	 1.234926604881420e-001
1	 4.425740598943744e+000	 6.033679384448822e-001	 1.355437596761695e-001
1	 4.419527586972393e+000	 6.473088957992210e-001	 1.407024526245410e-001
1	 4.412855628386947e+000	 6.913307167858135e-001	 1.388301381176876e-001
1	 4.405721297882294e+000	 7.354269054959151e-001	 1.297979306496318e-001
1	 4.398121279226208e+000	 7.795908563484759e-001	 1.134870439637203e-001
1	 4.390052368877188e+000	 8.238158559823358e-001	 8.978916892869363e-002
1	 4.381511479578153e+000	 8.680950852753392e-001	 5.860684489480971e-002
1	 4.472616300914868e+000	 4.310969064089002e-001	-1.879136901422733e-002
1	 4.468176421743035e+000	 4.749117046406274e-001	 1.602162719657062e-002
1	 4.463289663131958e+000	 5.188328510548873e-001	 4.515795482200415e-002
1	 4.457952177150323e+000	 5.628542687816454e-001	 6.839454623050516e-002
1	 4.452160210882960e+000	 6.069697642707739e-001	 8.551730769436747e-002
1	 4.445910110121298e+000	 6.511730286932238e-001	 9.632161021105312e-002
1	 4.439198323047760e+000	 6.954576394661729e-001	 1.006127785423684e-001
1	 4.432021403909766e+000	 7.398170619033307e-001	 9.820657751248640e-002
1	 4.424376016678721e+000	 7.842446509914089e-001	 8.892969458161998e-002
1	 4.416258938689485e+000	 8.287336532936123e-001	 7.262021768960694e-002
1	 4.407667064255488e+000	 8.732772089808063e-001	 4.912810734339923e-002
1	 4.499157308192905e+000	 4.336550838514770e-001	-7.189003919532258e-002
1	 4.494691082279964e+000	 4.777298840151175e-001	-3.538890758517641e-002
1	 4.489775325094918e+000	 5.219116634433038e-001	-3.841768779745525e-003
1	 4.484406165872398e+000	 5.661943092051770e-001	 2.248287642038247e-002
1	 4.478579829427026e+000	 6.105715909973927e-001	 4.332556945129049e-002
1	 4.472292639865749e+000	 6.550371625536072e-001	 5.843645460263155e-002
1	 4.465541024294119e+000	 6.995845631786763e-001	 6.757583925053647e-002
1	 4.458321516512072e+000	 7.442072194087523e-001	 7.051475264873935e-002
1	 4.450630760694662e+000	 7.888984467982982e-001	 6.703550218961121e-002
1	 4.442465515053096e+000	 8.336514518348713e-001	 5.693222601851580e-002
1	 4.433822655471317e+000	 8.784593339823469e-001	 4.001144085844487e-002
1	 4.525698328740825e+000	 4.362132625730023e-001	-1.129679808742012e-001
1	 4.521205756073643e+000	 4.805480647986484e-001	-7.594097953421143e-002
1	 4.516261000300145e+000	 5.249904773711638e-001	-4.317639777978614e-002
1	 4.510860167820908e+000	 5.695343512988462e-001	-1.497612319235510e-002
1	 4.504999461180328e+000	 6.141734195251155e-001	 8.366705552221897e-003
1	 4.498675182800866e+000	 6.589012983463134e-001	 2.656830385912554e-002
1	 4.491883738711193e+000	 7.037114889549527e-001	 3.935484740305091e-002
1	 4.484621642263761e+000	 7.485973791096093e-001	 4.646307822150129e-002
1	 4.476885517837253e+000	 7.935522449324756e-001	 4.764090956959958e-002
1	 4.468672104519222e+000	 8.385692528354408e-001	 4.264802836006532e-002
1	 4.459978259764122e+000	 8.836414615753685e-001	 3.125649398107352e-002
1	 4.552239369193409e+000	 4.387714432129977e-001	-1.431781257157141e-001
1	 4.547720449752237e+000	 4.833662476957265e-001	-1.066339922405365e-001
1	 4.542746695368543e+000	 5.280692936081171e-001	-7.369985140760452e-002
1	 4.537314189608826e+000	 5.728743958975963e-001	-4.469911194533911e-002
1	 4.531419112747249e+000	 6.177752507543191e-001	-1.994708432831381e-002
1	 4.525057745521771e+000	 6.627654370372837e-001	 2.496439676473571e-004
1	 4.518226472884162e+000	 7.078384178266318e-001	 1.559383561924965e-002
1	 4.510921787739378e+000	 7.529875421033310e-001	 2.579823190796679e-002
1	 4.503140294669723e+000	 7.982060465572731e-001	 3.058618132197565e-002
1	 4.494878713639076e+000	 8.434870575246495e-001	 2.969226712262317e-002
1	 4.486133883672388e+000	 8.888235930552790e-001	 2.286293265591849e-002
1	 4.578780436185433e+000	 4.413296264109848e-001	-1.636466741439930e-001
1	 4.574235169943915e+000	 4.861844334108586e-001	-1.284441767991834e-001
1	 4.569232416921015e+000	 5.311481129238141e-001	-9.624624859007717e-002
1	 4.563768237849136e+000	 5.762144438363704e-001	-6.738613033868363e-002
1	 4.557838790732178e+000	 6.213770855853804e-001	-4.218996834229636e-002
1	 4.551440334623584e+000	 6.666295795924608e-001	-2.097619480621761e-002
1	 4.544569233398201e+000	 7.119653508253427e-001	-4.054904472718540e-003
1	 4.537221959513468e+000	 7.573777094873466e-001	 8.272771488892723e-003
1	 4.529395097755288e+000	 8.028598528360238e-001	 1.571529322602165e-002
1	 4.521085348963855e+000	 8.484048671318256e-001	 1.799134043684914e-002
1	 4.512289533734597e+000	 8.940057297174857e-001	 1.483043991461647e-002
1	 4.605321536351673e+000	 4.438878128064857e-001	-1.754738657190546e-001
1	 4.600749923276847e+000	 4.890026226485517e-001	-1.423252596148530e-001
1	 4.595718171578466e+000	 5.342269360879051e-001	-1.116304785576741e-001
1	 4.590222319154813e+000	 5.795544959501117e-001	-8.372107893699296e-002
1	 4.584258501739503e+000	 6.249789249186765e-001	-5.892287527814871e-002
1	 4.577822956701428e+000	 6.704937269777870e-001	-3.755535036322490e-002
1	 4.570912026838485e+000	 7.160922889827146e-001	-1.993106015409754e-002
1	 4.563522164160577e+000	 7.617678823590853e-001	-6.355034489628780e-003
1	 4.555649933657178e+000	 8.075136649320591e-001	 2.875825430381963e-003
1	 4.547292017044766e+000	 8.533226828862969e-001	 7.473351722704849e-003
1	 4.538445216489230e+000	 8.991878728573967e-001	 7.158715570219028e-003
1	 4.631862676326912e+000	 4.464460030390216e-001	-1.797347229977168e-001
1	 4.627264716379196e+000	 4.918208161133120e-001	-1.492091072213213e-001
1	 4.622203965961801e+000	 5.373057638700399e-001	-1.206487518108879e-001
1	 4.616676440138840e+000	 5.828945530737638e-001	-9.437218078797598e-002
1	 4.610678252373610e+000	 6.285807696545841e-001	-7.069387385051991e-002
1	 4.604205618350422e+000	 6.743578801592035e-001	-4.992373046123100e-002
1	 4.597254859790193e+000	 7.202192333303771e-001	-3.236652734479488e-002
1	 4.589822408255249e+000	 7.661580618159762e-001	-1.832137022594425e-002
1	 4.581904808938610e+000	 8.121674840087109e-001	-8.081140680205230e-003
1	 4.573498724433014e+000	 8.582405060173919e-001	-1.931939007706845e-003
1	 4.564600938474771e+000	 9.043700237704185e-001	-1.525240778988030e-004
1	 4.658403862745927e+000	 4.490041977481146e-001	-1.774797699374990e-001
1	 4.653779555879138e+000	 4.946390145096463e-001	-1.500063490333008e-001
1	 4.648689806691922e+000	 5.403845970398687e-001	-1.240791322310526e-001
1	 4.643130607414196e+000	 5.862346160422692e-001	-9.999242801582155e-002
1	 4.637098049238887e+000	 6.321826206934798e-001	-7.803853900972475e-002
1	 4.630588326165689e+000	 6.782220401026525e-001	-5.850730408127054e-002
1	 4.623597738838499e+000	 7.243461848999591e-001	-4.168563247069800e-002
1	 4.616122698372031e+000	 7.705482489554486e-001	-2.785703057687909e-002
1	 4.608159730162813e+000	 8.168213112293123e-001	-1.730112208871636e-002
1	 4.599705477679802e+000	 8.631583377544388e-001	-1.029316218079847e-002
1	 4.590756706229706e+000	 9.095521837519599e-001	-7.103546529095671e-003
1	 4.684945102243493e+000	 4.515623975732859e-001	-1.697357258541456e-001
1	 4.680294448404837e+000	 4.974572185420616e-001	-1.456069789068659e-001
1	 4.675175700389737e+000	 5.434634363670420e-001	-1.226820510841160e-001
1	 4.669584827593855e+000	 5.895746856905717e-001	-1.012200132175771e-001
1	 4.663517898939720e+000	 6.357844789357413e-001	-8.148030578615319e-002
1	 4.656971086742348e+000	 6.820862077740765e-001	-6.372238287882784e-002
1	 4.649940670568578e+000	 7.284731447230901e-001	-4.820534678116308e-002
1	 4.642423041085466e+000	 7.749384448749320e-001	-3.518757359820732e-002
1	 4.634414703893005e+000	 8.214751477571947e-001	-2.492633036027512e-002
1	 4.625912283336335e+000	 8.680761793267663e-001	-1.767738409178699e-002
1	 4.616912526292515e+000	 9.147343540974277e-001	-1.369460335684259e-002
1	 4.711486401454396e+000	 4.541206031540578e-001	-1.575061758978512e-001
1	 4.706809400584461e+000	 5.002754289150643e-001	-1.368809363449826e-001
1	 4.701661653676148e+000	 5.465422826212096e-001	-1.172008036321697e-001
1	 4.696039107290806e+000	 5.929147628536142e-001	-9.867874626245678e-002
1	 4.689937808080498e+000	 6.393863452817449e-001	-8.153081116172972e-002
1	 4.683353906675524e+000	 6.859503841394172e-001	-6.597589311173235e-002
1	 4.676283661565610e+000	 7.326001138313998e-001	-5.223549341470178e-002
1	 4.668723442970103e+000	 7.793286506718558e-001	-4.053346792365755e-002
1	 4.660669736692414e+000	 8.261289947556906e-001	-3.109576460104220e-002
1	 4.652119147953820e+000	 8.729940319637025e-001	-2.415015079781695e-002
1	 4.643068405201682e+000	 9.199165361022299e-001	-1.992593047485132e-002
1	 4.381511479578153e+000	 8.680950852753392e-001	 5.860684489480963e-002
1	 4.372494256268734e+000	 9.124282726195251e-001	 1.917409027572602e-002
1	 4.362999102610631e+000	 9.568017434643775e-001	-2.889266958562923e-002
1	 4.353023304130100e+000	 1.001208360994867e+000	-8.510257307976631e-002
1	 4.342564276822998e+000	 1.045640891710206e+000	-1.489354111192134e-001
1	 4.331619570558887e+000	 1.090092008085801e+000	-2.198417966726008e-001
1	 4.320186872431323e+000	 1.134554291362543e+000	-2.972433851408839e-001
1	 4.308264010049258e+000	 1.179020234462681e+000	-3.805331464263335e-001
1	 4.295848954764352e+000	 1.223482245031362e+000	-4.690756894465064e-001
1	 4.282939824829096e+000	 1.267932648602656e+000	-5.622076397420861e-001
1	 4.269534888480566e+000	 1.312363691888676e+000	-6.592380707190299e-001
1	 4.407667064255488e+000	 8.732772089808063e-001	 4.912810734339919e-002
1	 4.398596012318690e+000	 9.178750448236624e-001	 1.772371516082292e-002
1	 4.389044177011387e+000	 9.625134046409613e-001	-2.192369995631161e-002
1	 4.379008827655715e+000	 1.007185109014209e+000	-6.934526880943900e-002
1	 4.368487364822227e+000	 1.051882881261982e+000	-1.240407407879702e-001
1	 4.357477323754350e+000	 1.096599350117776e+000	-1.854785894867478e-001
1	 4.345976377738679e+000	 1.141327052535939e+000	-2.530961715304731e-001
1	 4.333982341416010e+000	 1.186058436624959e+000	-3.262999396379116e-001
1	 4.321493174027922e+000	 1.230785864707158e+000	-4.044657108591425e-001
1	 4.308506982593759e+000	 1.275501616503612e+000	-4.869389908138153e-001
1	 4.295022025012785e+000	 1.320197892442914e+000	-5.730353546475843e-001
1	 4.433822655471317e+000	 8.784593339823469e-001	 4.001144085844485e-002
1	 4.424697774893605e+000	 9.233218183900277e-001	 1.558826289393191e-002
1	 4.415089257922868e+000	 9.682250672459721e-001	-1.661349582428471e-002
1	 4.404994357677095e+000	 1.013161858528212e+000	-5.614949053119701e-002
1	 4.394410459301542e+000	 1.058124872374679e+000	-1.025429170653426e-001
1	 4.383335083413516e+000	 1.103106693776948e+000	-1.552845674450699e-001
1	 4.371765889492628e+000	 1.148099815402816e+000	-2.138329396925268e-001
1	 4.359700679211524e+000	 1.193096640547001e+000	-2.776144030619006e-001
1	 4.347137399701697e+000	 1.238089486208987e+000	-3.460234197291182e-001
1	 4.334074146749346e+000	 1.283070586296851e+000	-4.184228238951973e-001
1	 4.320509167915921e+000	 1.328032094955653e+000	-4.941441591443191e-001
1	 4.459978259764122e+000	 8.836414615753685e-001	 3.125649398107352e-002
1	 4.450799550518535e+000	 9.287685946801909e-001	 1.283276933592800e-002
1	 4.441134351855977e+000	 9.739367327072045e-001	-1.284481919733656e-002
1	 4.430979900690285e+000	 1.019138611030946e+000	-4.535895034985551e-002
1	 4.420333566741421e+000	 1.064366866608685e+000	-8.425971014693724e-002
1	 4.409192856000539e+000	 1.109614040690050e+000	-1.290646111648784e-001
1	 4.397555414140287e+000	 1.154872581656271e+000	-1.792586657636878e-001
1	 4.385419029865138e+000	 1.200134847988272e+000	-2.342945145177136e-001
1	 4.372781638196507e+000	 1.245393111362680e+000	-2.935926109692277e-001
1	 4.359641323687431e+000	 1.290639559874549e+000	-3.565414637266797e-001
1	 4.345996323561553e+000	 1.335866301385387e+000	-4.224979368201590e-001
1	 4.486133883672388e+000	 8.888235930552790e-001	 2.286293265591845e-002
1	 4.476901345718530e+000	 9.342153750557224e-001	 9.520763602074553e-003
1	 4.467179465321620e+000	 9.796484024524531e-001	-1.050315555809954e-002
1	 4.456965463191335e+000	 1.025115368016482e+000	-3.682099391844251e-002
1	 4.446256693622319e+000	 1.070608865524384e+000	-6.901312821968891e-002
1	 4.435050647979574e+000	 1.116121392483815e+000	-1.066281393584107e-001
1	 4.423344958128768e+000	 1.161645352989399e+000	-1.491828612985836e-001
1	 4.411137399806195e+000	 1.207173060708235e+000	-1.961624836158350e-001
1	 4.398425895923182e+000	 1.252696741994063e+000	-2.470207088111383e-001
1	 4.385208519799599e+000	 1.298208539128881e+000	-3.011799654313088e-001
1	 4.371483498321260e+000	 1.343700513690607e+000	-3.580316779282702e-001
1	 4.512289533734597e+000	 8.940057297174857e-001	 1.483043991461650e-002
1	 4.503003167018644e+000	 9.396621608781911e-001	 5.714311947394785e-003
1	 4.493224604830710e+000	 9.853600779095113e-001	-9.476634688287475e-003
1	 4.482951051676290e+000	 1.031092130978891e+000	-3.038649486133810e-002
1	 4.472179846424698e+000	 1.076850870682165e+000	-5.662929434328385e-002
1	 4.460908465814776e+000	 1.122628750784973e+000	-8.778897699421831e-002
1	 4.449134527905187e+000	 1.168418131095294e+000	-1.234194414876233e-001
1	 4.436855795464037e+000	 1.214211280466358e+000	-1.630446287550356e-001
1	 4.424070179292549e+000	 1.260000379928967e+000	-2.061586612436749e-001
1	 4.410775741477422e+000	 1.305777525952022e+000	-2.522260349863932e-001
1	 4.396970698566631e+000	 1.351534733829807e+000	-3.006818653838964e-001
1	 4.538445216489230e+000	 8.991878728573967e-001	 7.158715570219074e-003
1	 4.529105020943929e+000	 9.451089535091676e-001	 1.474060132790852e-003
1	 4.519269776894151e+000	 9.910717605061750e-001	-9.655954233904649e-003
1	 4.508936672641196e+000	 1.037068901412242e+000	-2.590975285230076e-002
1	 4.498103031629028e+000	 1.083092883642414e+000	-4.693832759367656e-002
1	 4.486766315970298e+000	 1.129136117220259e+000	-7.236522802262677e-002
1	 4.474924129916655e+000	 1.175190917667052e+000	-1.017865979368753e-001
1	 4.462574223268007e+000	 1.221249509022102e+000	-1.347712583776963e-001
1	 4.449714494715444e+000	 1.267304026993219e+000	-1.708608381054343e-001
1	 4.436342995112481e+000	 1.313346522236146e+000	-2.095699524482941e-001
1	 4.422457930669241e+000	 1.359368963761479e+000	-2.503864313413539e-001
1	 4.564600938474771e+000	 9.043700237704185e-001	-1.525240778987786e-004
1	 4.555206914019435e+000	 9.505557543102214e-001	-3.140725667067873e-003
1	 4.545314988022852e+000	 9.967834516702375e-001	-1.093430590127115e-002
1	 4.534922332582100e+000	 1.043045680810607e+000	-2.324839520060372e-002
1	 4.524026255715766e+000	 1.089334905965518e+000	-3.977422829764139e-002
1	 4.512624204910296e+000	 1.135643493416402e+000	-6.017915248190628e-002
1	 4.500713770610291e+000	 1.181963714397768e+000	-8.410667582677146e-002
1	 4.488292689647441e+000	 1.228287748134932e+000	-1.111765563122690e-001
1	 4.475358848602695e+000	 1.274607685012647e+000	-1.409849326850371e-001
1	 4.461910287096350e+000	 1.320915529873429e+000	-1.731044978198256e-001
1	 4.447945201000673e+000	 1.367203205444115e+000	-2.070847152656952e-001
1	 4.590756706229706e+000	 9.095521837519599e-001	-7.103546529095664e-003
1	 4.581308852770215e+000	 9.560025646429226e-001	-8.072119355903190e-003
1	 4.571360244727722e+000	 1.002495152829494e+000	-1.320730417892436e-002
1	 4.560908037995049e+000	 1.049022470668055e+000	-2.226328180522329e-002
1	 4.549949525165379e+000	 1.095576939211864e+000	-3.497476719493570e-002
1	 4.538482139098918e+000	 1.142150881000136e+000	-5.105704781026098e-002
1	 4.526503456433209e+000	 1.188736522980538e+000	-7.020605527487883e-002
1	 4.514011201031685e+000	 1.235325999564314e+000	-9.209847103971676e-002
1	 4.501003247365126e+000	 1.281911355813081e+000	-1.163918666889657e-001
1	 4.487477623820609e+000	 1.328484550756046e+000	-1.427248794547123e-001
1	 4.473432515932508e+000	 1.375037460836209e+000	-1.707174234393106e-001
1	 4.616912526292515e+000	 9.147343540974277e-001	-1.369460335684259e-002
1	 4.607410843721322e+000	 9.614493858688408e-001	-1.326349675242812e-002
1	 4.597405553519670e+000	 1.008206865411738e+000	-1.637291748503003e-002
1	 4.586893795376091e+000	 1.054999272478657e+000	-2.281841334336083e-002
1	 4.575872846458330e+000	 1.101818984941837e+000	-3.238137837221142e-002
1	 4.564340125000325e+000	 1.148658281598193e+000	-4.482913419669646e-002
1	 4.552293193832522e+000	 1.195509345108456e+000	-5.991503673577831e-002
1	 4.539729763850074e+000	 1.242364265069712e+000	-7.737860872812304e-002
1	 4.526647697413574e+000	 1.289215041220347e+000	-9.694569844325940e-002
1	 4.513045011676836e+000	 1.336053586776172e+000	-1.183286648984569e-001
1	 4.498919881836328e+000	 1.382871731896253e+000	-1.412265898465703e-001
1	 4.643068405201682e+000	 9.199165361022299e-001	-1.992593047485133e-002
1	 4.633512893397807e+000	 9.668962193495462e-001	-1.865949871831834e-002
1	 4.623450920909602e+000	 1.013918590844765e+000	-2.033140164463391e-002
1	 4.612879611221273e+000	 1.060976087736484e+000	-2.478084256564490e-002
1	 4.601796226075082e+000	 1.108061044715826e+000	-3.183905581975039e-002
1	 4.590198169078671e+000	 1.155165696837305e+000	-4.132944381130037e-002
1	 4.578082989255348e+000	 1.202282182474619e+000	-5.306773027872360e-002
1	 4.565448384531957e+000	 1.249402546410591e+000	-6.686212988674548e-002
1	 4.552292205158868e+000	 1.296518743060276e+000	-8.251353420147285e-002
1	 4.538612457056609e+000	 1.343622639825983e+000	-9.981571406935767e-002
1	 4.524407305083716e+000	 1.390706020582740e+000	-1.185555383820300e-001
1	 4.269534888480566e+000	 1.312363691888676e+000	-6.592380707190299e-001
1	 4.255632565876872e+000	 1.356767545539909e+000	-7.598476263223246e-001
1	 4.241231428808608e+000	 1.401136305660351e+000	-8.636719247815788e-001
1	 4.226330206727042e+000	 1.445461999293613e+000	-9.698936913006235e-001
1	 4.210927790553208e+000	 1.489736588820483e+000	-1.077644625635268e+000
1	 4.195023235321111e+000	 1.533951975835254e+000	-1.186005748771969e+000
1	 4.178615762716243e+000	 1.578100005132252e+000	-1.294007842354877e+000
1	 4.161704763504535e+000	 1.622172468799514e+000	-1.400631982000222e+000
1	 4.144289799846913e+000	 1.666161110416385e+000	-1.504810165435462e+000
1	 4.126370607494755e+000	 1.710057629351524e+000	-1.605426036190851e+000
1	 4.107947097861664e+000	 1.753853685157622e+000	-1.701315703354541e+000
1	 4.295022025012785e+000	 1.320197892442914e+000	-5.730353546475843e-001
1	 4.281036712012197e+000	 1.364866816437977e+000	-6.623259830638480e-001
1	 4.266549606856836e+000	 1.409500437410215e+000	-7.543913030482349e-001
1	 4.251559431413378e+000	 1.454090734808399e+000	-8.485077175999797e-001
1	 4.236065069982165e+000	 1.498629623032470e+000	-9.439107450337954e-001
1	 4.220065571956186e+000	 1.543108955333008e+000	-1.039795393846445e+000
1	 4.203560154374750e+000	 1.587520527821554e+000	-1.135316613391099e+000
1	 4.186548204366940e+000	 1.631856083588732e+000	-1.229589821108484e+000
1	 4.169029281479970e+000	 1.676107316926896e+000	-1.321691506895464e+000
1	 4.151003119887775e+000	 1.720265877653798e+000	-1.410659915017251e+000
1	 4.132469630475130e+000	 1.764323375533540e+000	-1.495495803789795e+000
1	 4.320509167915921e+000	 1.328032094955653e+000	-4.941441591443191e-001
1	 4.306440864497702e+000	 1.372966089360724e+000	-5.727285589969304e-001
1	 4.291867791233776e+000	 1.417864571250883e+000	-6.537692206641070e-001
1	 4.276788662406223e+000	 1.462719472480056e+000	-7.366280390271655e-001
1	 4.261202355694691e+000	 1.507522659467327e+000	-8.206345020786152e-001
1	 4.245107914851145e+000	 1.552265937119550e+000	-9.050860800455891e-001
1	 4.228504552268713e+000	 1.596941052865475e+000	-9.892486760011189e-001
1	 4.211391651439615e+000	 1.641539700798301e+000	-1.072357138400743e+000
1	 4.193768769297368e+000	 1.686053525923383e+000	-1.153615835842597e+000
1	 4.175635638438451e+000	 1.730474128507555e+000	-1.232199294204306e+000
1	 4.156992169218810e+000	 1.774793068526321e+000	-1.307252896162357e+000
1	 4.345996323561553e+000	 1.335866301385387e+000	-4.224979368201590e-001
1	 4.331845029684224e+000	 1.381065366332917e+000	-4.910352082561863e-001
1	 4.317185988268775e+000	 1.426228709273348e+000	-5.618100275249097e-001
1	 4.302017906012684e+000	 1.471348214465735e+000	-6.342617042319941e-001
1	 4.286339653974895e+000	 1.516415700348281e+000	-7.078039761320240e-001
1	 4.270150270266356e+000	 1.561422923484098e+000	-7.818253987449354e-001
1	 4.253448962634001e+000	 1.606361582619120e+000	-8.556897847367408e-001
1	 4.236235110933194e+000	 1.651223322849098e+000	-9.287366932690901e-001
1	 4.218508269483743e+000	 1.695999739892365e+000	-1.000281969406062e+000
1	 4.200268169304669e+000	 1.740682384464818e+000	-1.069618333547410e+000
1	 4.181514720223089e+000	 1.785262766753336e+000	-1.136016020735361e+000
1	 4.371483498321260e+000	 1.343700513690607e+000	-3.580316779282702e-001
1	 4.357249213922601e+000	 1.389164649379327e+000	-4.172262400879826e-001
1	 4.342504204291177e+000	 1.434592853568603e+000	-4.785179569663139e-001
1	 4.327247168539863e+000	 1.479976962922586e+000	-5.414155819642917e-001
1	 4.311476971106893e+000	 1.525308747898565e+000	-6.054075086523403e-001
1	 4.295192644462189e+000	 1.570579916715873e+000	-6.699621472789435e-001
1	 4.278393391706491e+000	 1.615782119437594e+000	-7.345283418934121e-001
1	 4.261078589058305e+000	 1.660906952161998e+000	-7.985358281314531e-001
1	 4.243247788223721e+000	 1.705945961320360e+000	-8.613957316152392e-001
1	 4.224900718644309e+000	 1.750890648077604e+000	-9.225011068203058e-001
1	 4.206037289618354e+000	 1.795732472831950e+000	-9.812275161603606e-001
1	 4.396970698566631e+000	 1.351534733829807e+000	-3.006818653838964e-001
1	 4.382653423563671e+000	 1.397263940524723e+000	-3.512824052234721e-001
1	 4.367822445630329e+000	 1.442957006227640e+000	-4.038971286834484e-001
1	 4.352476456294863e+000	 1.488605720007758e+000	-4.580963658066468e-001
1	 4.336614313374794e+000	 1.534201804341407e+000	-5.134336950938151e-001
1	 4.320235043699010e+000	 1.579736919104094e+000	-5.694462934632252e-001
1	 4.303337845722058e+000	 1.625202665676005e+000	-6.256553202245605e-001
1	 4.285922092025571e+000	 1.670590591157880e+000	-6.815663350368355e-001
1	 4.267987331701934e+000	 1.715892192693890e+000	-7.366697497372278e-001
1	 4.249533292615256e+000	 1.761098921897935e+000	-7.904413138433506e-001
1	 4.230559883534988e+000	 1.806202189379531e+000	-8.423426334457073e-001
1	 4.422457930669241e+000	 1.359368963761479e+000	-2.503864313413539e-001
1	 4.408057664958273e+000	 1.405363241793874e+000	-2.931848827234449e-001
1	 4.393140718615578e+000	 1.451321169341453e+000	-3.379515515493973e-001
1	 4.377705775584789e+000	 1.497234487878403e+000	-3.843105787433642e-001
1	 4.361751687062711e+000	 1.543094871900039e+000	-4.318713770871260e-001
1	 4.345277474237193e+000	 1.588893932937980e+000	-4.802289413450021e-001
1	 4.328282330916576e+000	 1.634623223689457e+000	-5.289641883314700e-001
1	 4.310765626045626e+000	 1.680274242257618e+000	-5.776443268883076e-001
1	 4.292726906103013e+000	 1.725838436499470e+000	-6.258232576646609e-001
1	 4.274165897375392e+000	 1.771307208477830e+000	-6.730420025193231e-001
1	 4.255082508103374e+000	 1.816671919013446e+000	-7.188291632885822e-001
1	 4.447945201000673e+000	 1.367203205444115e+000	-2.070847152656952e-001
1	 4.433461944457242e+000	 1.413462555211549e+000	-2.429152672760138e-001
1	 4.418459029576267e+000	 1.459685345001031e+000	-2.806851263367273e-001
1	 4.402935132716746e+000	 1.505863268691669e+000	-3.200645775722290e-001
1	 4.386889098454756e+000	 1.551987952797688e+000	-3.607096348890275e-001
1	 4.370319942337102e+000	 1.598050960506750e+000	-4.022622981324631e-001
1	 4.353226853525914e+000	 1.644043795833055e+000	-4.443508386212346e-001
1	 4.335609197329095e+000	 1.689957907882090e+000	-4.865901130985395e-001
1	 4.317466517611591e+000	 1.735784695223622e+000	-5.285819060709538e-001
1	 4.298798539082598e+000	 1.781515510369310e+000	-5.699153004366946e-001
1	 4.279605169453902e+000	 1.827141664351063e+000	-6.101670762339931e-001
1	 4.473432515932508e+000	 1.375037460836209e+000	-1.707174234393106e-001
1	 4.458866268411421e+000	 1.421561882802518e+000	-2.004555569291004e-001
1	 4.443777384841743e+000	 1.468049535297369e+000	-2.321016483459622e-001
1	 4.428164533997837e+000	 1.514492064604708e+000	-2.653645571653740e-001
1	 4.412026553835039e+000	 1.560881049257587e+000	-2.999377800904535e-001
1	 4.395362454259105e+000	 1.607208004099624e+000	-3.354996422559879e-001
1	 4.378171419785953e+000	 1.653464384461907e+000	-3.717135177302703e-001
1	 4.360452812086606e+000	 1.699641590452172e+000	-4.082280795008024e-001
1	 4.342206172412295e+000	 1.745730971352862e+000	-4.446775790625426e-001
1	 4.323431223894759e+000	 1.791723830124395e+000	-4.806821556581837e-001
1	 4.304127873716955e+000	 1.837611428009748e+000	-5.158481751486137e-001
1	 4.498919881836328e+000	 1.382871731896253e+000	-1.412265898465703e-001
1	 4.484270643171641e+000	 1.429661226591549e+000	-1.657881412403827e-001
1	 4.469095790741352e+000	 1.476413742321459e+000	-1.922048099446884e-001
1	 4.453393985735166e+000	 1.523120877774670e+000	-2.202165545851691e-001
1	 4.437164059487675e+000	 1.569774163502965e+000	-2.495453485728654e-001
1	 4.420405016263574e+000	 1.616365066005822e+000	-2.798952925162306e-001
1	 4.403116035932563e+000	 1.662884991931116e+000	-3.109527593154863e-001
1	 4.385296476528788e+000	 1.709325292388740e+000	-3.423865723465185e-001
1	 4.366945876689758e+000	 1.755677267373712e+000	-3.738482170703367e-001
1	 4.348063957969758e+000	 1.801932170295104e+000	-4.049720863300330e-001
1	 4.328650627022915e+000	 1.848081212606869e+000	-4.353757595205699e-001
1	 4.524407305083716e+000	 1.390706020582740e+000	-1.185555383820300e-001
1	 4.509675075088746e+000	 1.437760588603412e+000	-1.388957898283330e-001
1	 4.494414253604441e+000	 1.484777968164294e+000	-1.609982030207880e-001
1	 4.478623494235841e+000	 1.531749710358706e+000	-1.846264530609874e-001
1	 4.462301621696776e+000	 1.578667297757051e+000	-2.095220937029697e-001
1	 4.445447634610877e+000	 1.625522148514563e+000	-2.354045782762577e-001
1	 4.428060708201621e+000	 1.672305620595791e+000	-2.619713191196835e-001
1	 4.410140196866269e+000	 1.719009016112672e+000	-2.888977862280563e-001
1	 4.391685636628613e+000	 1.765623585772688e+000	-3.158376457340261e-001
1	 4.372696747465477e+000	 1.812140533433459e+000	-3.424229387638197e-001
1	 4.353173435502172e+000	 1.858551020759794e+000	-3.682643011183233e-001
1	 4.107947097861664e+000	 1.753853685157622e+000	-1.701315703354542e+000
1	 4.089022237317836e+000	 1.797534358250065e+000	-1.790670501461262e+000
1	 4.069593571258428e+000	 1.841097824563030e+000	-1.872493767302690e+000
1	 4.049661552156451e+000	 1.884535657582464e+000	-1.946803014333599e+000
1	 4.029226814984733e+000	 1.927839409546484e+000	-2.013669997648948e+000
1	 4.008290178599602e+000	 1.971000616255271e+000	-2.073221079622417e+000
1	 3.986852646976334e+000	 2.014010801950552e+000	-2.125637503621174e+000
1	 3.964915410292882e+000	 2.056861484259474e+000	-2.171155573826836e+000
1	 3.942479845858591e+000	 2.099544179197508e+000	-2.210066739394851e+000
1	 3.919547518884828e+000	 2.142050406224803e+000	-2.242717581394930e+000
1	 3.896120183094670e+000	 2.184371693350319e+000	-2.269509701194256e+000
1	 4.132469630475130e+000	 1.764323375533540e+000	-1.495495803789795e+000
1	 4.113431797320074e+000	 1.808264801918528e+000	-1.575034691909749e+000
1	 4.093887151164926e+000	 1.852088321854113e+000	-1.648777967344672e+000
1	 4.073836147183756e+000	 1.895785458523871e+000	-1.716689285187207e+000
1	 4.053279424139898e+000	 1.939347713736705e+000	-1.778770983468662e+000
1	 4.032217805777887e+000	 1.982766572765458e+000	-1.835064378352162e+000
1	 4.010652302066275e+000	 2.026033509255521e+000	-1.885649993917334e+000
1	 3.988584110287832e+000	 2.069139990198221e+000	-1.930647725081487e+000
1	 3.966014615973810e+000	 2.112077480963578e+000	-1.970216932344688e+000
1	 3.942945393679174e+000	 2.154837450386865e+000	-2.004556467196403e+000
1	 3.919378207595922e+000	 2.197411375903190e+000	-2.033904627176965e+000
1	 4.156992169218810e+000	 1.774793068526321e+000	-1.307252896162357e+000
1	 4.137841363424330e+000	 1.818995248269089e+000	-1.378097460168172e+000
1	 4.118180737144486e+000	 1.863078821892374e+000	-1.444593631628465e+000
1	 4.098010748254415e+000	 1.907035262277361e+000	-1.506661086774947e+000
1	 4.077332039307959e+000	 1.950856020803727e+000	-1.564244790761355e+000
1	 4.056145438937857e+000	 1.994532532216958e+000	-1.617315229891045e+000
1	 4.034451963105935e+000	 2.038056219566090e+000	-1.665868601268705e+000
1	 4.012252816199793e+000	 2.081418499206607e+000	-1.709926958867790e+000
1	 3.989549391972591e+000	 2.124610785863070e+000	-1.749538315098482e+000
1	 3.966343274322895e+000	 2.167624497745854e+000	-1.784776697057642e+000
1	 3.942636237911626e+000	 2.210451061716201e+000	-1.815742156744301e+000
1	 4.181514720223089e+000	 1.785262766753336e+000	-1.136016020735361e+000
1	 4.162250941732745e+000	 1.829725699984286e+000	-1.199146590332870e+000
1	 4.142474335270258e+000	 1.874069327425340e+000	-1.259115144332492e+000
1	 4.122185361411839e+000	 1.918285071655267e+000	-1.315807079288208e+000
1	 4.101384666501830e+000	 1.962364333624481e+000	-1.369121825014124e+000
1	 4.080073084061181e+000	 2.006298497551087e+000	-1.418973021234602e+000
1	 4.058251636045005e+000	 2.050078935887735e+000	-1.465288670841560e+000
1	 4.035921533945723e+000	 2.093697014354039e+000	-1.508011269131320e+000
1	 4.013084179738415e+000	 2.137144097029069e+000	-1.547097908444212e+000
1	 3.989741166665249e+000	 2.180411551498271e+000	-1.582520357682927e+000
1	 3.965894279856078e+000	 2.223490754048992e+000	-1.614265116241564e+000
1	 4.206037289618354e+000	 1.795732472831950e+000	-9.812275161603606e-001
1	 4.186660538347462e+000	 1.840456159746657e+000	-1.037486459348568e+000
1	 4.166767951615396e+000	 1.885059841200544e+000	-1.091536127445052e+000
1	 4.146359992699433e+000	 1.929534889469920e+000	-1.143237160383624e+000
1	 4.125437311734429e+000	 1.973872655075903e+000	-1.192455088332509e+000
1	 4.104000747129545e+000	 2.018064471709167e+000	-1.239060460064807e+000
1	 4.082051326833178e+000	 2.062101661225940e+000	-1.282928963503398e+000
1	 4.059590269442583e+000	 2.105975538709923e+000	-1.323941538127411e+000
1	 4.036618985154762e+000	 2.149677417594655e+000	-1.361984478944150e+000
1	 4.013139076555490e+000	 2.193198614840611e+000	-1.396949531747313e+000
1	 3.989152339243564e+000	 2.236530456161203e+000	-1.428733979401163e+000
1	 4.230559883534988e+000	 1.806202189379531e+000	-8.423426334457073e-001
1	 4.211070159370624e+000	 1.851186630238740e+000	-8.924375554890613e-001
1	 4.191061592253049e+000	 1.896050365965515e+000	-9.410688825870501e-001
1	 4.170534648160610e+000	 1.940784718533653e+000	-9.880818490559820e-001
1	 4.149489981018677e+000	 1.985380988034921e+000	-1.033319523931710e+000
1	 4.127928434124628e+000	 2.029830457632516e+000	-1.076622898270384e+000
1	 4.105851041420148e+000	 2.074124398586184e+000	-1.117830976607453e+000
1	 4.083259028607333e+000	 2.118254075343664e+000	-1.156780872511826e+000
1	 4.060153814105110e+000	 2.162210750692910e+000	-1.193307908162117e+000
1	 4.036537009842877e+000	 2.205985690969373e+000	-1.227245717861794e+000
1	 4.012410421888376e+000	 2.249570171312477e+000	-1.258426355400102e+000
1	 4.255082508103374e+000	 1.816671919013446e+000	-7.188291632885820e-001
1	 4.235479810904371e+000	 1.861917114143071e+000	-7.633360135070759e-001
1	 4.215355263256366e+000	 1.907040904467783e+000	-8.069438521577590e-001
1	 4.194709333838777e+000	 1.952034561658800e+000	-8.494916908401148e-001
1	 4.173542680367494e+000	 1.996889335378473e+000	-8.908113833201484e-001
1	 4.151856151028107e+000	 2.041596458262454e+000	-9.307276788853303e-001
1	 4.129650785755607e+000	 2.086147150973949e+000	-9.690582882902175e-001
1	 4.106927817356930e+000	 2.130532627324669e+000	-1.005613962414480e+000
1	 4.083688672472943e+000	 2.174744099456915e+000	-1.040198583726713e+000
1	 4.059934972376665e+000	 2.218772783081055e+000	-1.072609270618073e+000
1	 4.035668533604805e+000	 2.262609902762454e+000	-1.102636494639797e+000
1	 4.279605169453902e+000	 1.827141664351063e+000	-6.101670762339929e-001
1	 4.259889499050845e+000	 1.872647614142192e+000	-6.495331657839010e-001
1	 4.239648970698495e+000	 1.918031459454879e+000	-6.884090990274487e-001
1	 4.218884055777344e+000	 1.963284421657692e+000	-7.266366834852842e-001
1	 4.197595415793796e+000	 2.008397699983488e+000	-7.640476152640278e-001
1	 4.175783903821666e+000	 2.053362476540301e+000	-8.004635055053342e-001
1	 4.153450565789250e+000	 2.098169921394717e+000	-8.356959243376864e-001
1	 4.130596641608336e+000	 2.142811197722343e+000	-8.695464625732907e-001
1	 4.107223566141736e+000	 2.187277467019753e+000	-9.018068113536103e-001
1	 4.083332970006111e+000	 2.231559894372153e+000	-9.322588599064765e-001
1	 4.058926680207141e+000	 2.275649653770777e+000	-9.606748115365484e-001
1	 4.304127873716955e+000	 1.837611428009748e+000	-5.158481751486137e-001
1	 4.284299229912194e+000	 1.883378132918639e+000	-5.503951088400750e-001
1	 4.263942720652592e+000	 1.929022033674333e+000	-5.847298040365104e-001
1	 4.243058820019718e+000	 1.974534301342661e+000	-6.187057222846387e-001
1	 4.221648193310499e+000	 2.019906084726900e+000	-6.521652756633223e-001
1	 4.199711698486983e+000	 2.065128515407376e+000	-6.849398332845456e-001
1	 4.177250387470769e+000	 2.110192712853969e+000	-7.168497467192782e-001
1	 4.154265507278509e+000	 2.155089789606091e+000	-7.477043946475125e-001
1	 4.130758500994972e+000	 2.199810856514507e+000	-7.773022469902117e-001
1	 4.106731008580471e+000	 2.244347028039165e+000	-8.054309487376341e-001
1	 4.082184867509671e+000	 2.288689427597086e+000	-8.318674236435557e-001
1	 4.328650627022915e+000	 1.848081212606869e+000	-4.353757595205699e-001
1	 4.308709009590553e+000	 1.894108673154950e+000	-4.653022845971707e-001
1	 4.288236519191803e+000	 1.940012629873676e+000	-4.951877805940969e-001
1	 4.267233632609309e+000	 1.985784203526040e+000	-5.249060642795330e-001
1	 4.245701018930528e+000	 2.031414492485641e+000	-5.543209575090280e-001
1	 4.223639541005738e+000	 2.076894577804998e+000	-5.832862806560580e-001
1	 4.201050256749856e+000	 2.122215528357184e+000	-6.116458629292620e-001
1	 4.177934420284409e+000	 2.167368406045322e+000	-6.392335698695353e-001
1	 4.154293482916130e+000	 2.212344271074256e+000	-6.658733482837362e-001
1	 4.130129093949002e+000	 2.257134187278590e+000	-6.913792888332278e-001
1	 4.105443101326692e+000	 2.301729227501026e+000	-7.155557064560181e-001
1	 4.353173435502172e+000	 1.858551020759794e+000	-3.682643011183232e-001
1	 4.333118844188068e+000	 1.904839237533664e+000	-3.936490758084686e-001
1	 4.312530372389279e+000	 1.951003250800439e+000	-4.190810057012891e-001
1	 4.291408499589530e+000	 1.997034131020163e+000	-4.444628105934501e-001
1	 4.269753898666800e+000	 2.042922926136646e+000	-4.696902401288576e-001
1	 4.247567437359612e+000	 2.088660666674489e+000	-4.946520609579494e-001
1	 4.224850179576209e+000	 2.134238370909848e+000	-5.192300553141893e-001
1	 4.201603386542995e+000	 2.179647050109439e+000	-5.432990312324649e-001
1	 4.177828517788692e+000	 2.224877713832085e+000	-5.667268446098952e-001
1	 4.153527231960959e+000	 2.269921375286926e+000	-5.893744332844257e-001
1	 4.128701387472490e+000	 2.314769056742235e+000	-6.110958632803006e-001
1	 3.896120183094670e+000	 2.184371693350319e+000	-2.269509701194256e+000
1	 3.872196156391829e+000	 2.226505887565815e+000	-2.287819896922466e+000
1	 3.847781051657800e+000	 2.268438184788724e+000	-2.295080336190422e+000
1	 3.822877194375688e+000	 2.310160168438054e+000	-2.291862054606291e+000
1	 3.797487099402197e+000	 2.351663451361818e+000	-2.278781492668089e+000
1	 3.771613470733660e+000	 2.392939681090943e+000	-2.256499804503773e+000
1	 3.745259201099025e+000	 2.433980545103553e+000	-2.225722081806293e+000
1	 3.718427371378763e+000	 2.474777776093069e+000	-2.187196493672707e+000
1	 3.691121249848879e+000	 2.515323157233418e+000	-2.141713343276631e+000
1	 3.663344291249592e+000	 2.555608527434690e+000	-2.090104042522565e+000
1	 3.635100135678463e+000	 2.595625786582434e+000	-2.033240006049659e+000
1	 3.919378207595922e+000	 2.197411375903190e+000	-2.033904627176964e+000
1	 3.895311365586440e+000	 2.239797091651857e+000	-2.055457195007668e+000
1	 3.870750514038508e+000	 2.281979705176810e+000	-2.066517714770934e+000
1	 3.845697992317274e+000	 2.323950749653989e+000	-2.067563004363864e+000
1	 3.820156330291953e+000	 2.365701787864013e+000	-2.059116485413447e+000
1	 3.794128248100461e+000	 2.407224417477454e+000	-2.041747647408210e+000
1	 3.767616655739987e+000	 2.448510276350555e+000	-2.016071425925655e+000
1	 3.740624652482406e+000	 2.489551047824762e+000	-1.982747495334379e+000
1	 3.713155526113802e+000	 2.530338466023375e+000	-1.942479476569704e+000
1	 3.685212751997570e+000	 2.570864321138577e+000	-1.896014060801798e+000
1	 3.656799991960951e+000	 2.611120464702003e+000	-1.844140050036320e+000
1	 3.942636237911626e+000	 2.210451061716201e+000	-1.815742156744301e+000
1	 3.918426580559851e+000	 2.253088299060945e+000	-1.839563102364773e+000
1	 3.893719982161631e+000	 2.295521228950526e+000	-1.853514571229341e+000
1	 3.868518795964158e+000	 2.337741334317804e+000	-1.857984473772919e+000
1	 3.842825566849163e+000	 2.379740127875997e+000	-1.853407691157303e+000
1	 3.816643031096151e+000	 2.421509157435315e+000	-1.840265682447788e+000
1	 3.789974115970546e+000	 2.463040011230107e+000	-1.819086006179848e+000
1	 3.762821939135638e+000	 2.504324323249834e+000	-1.790441756402011e+000
1	 3.735189807887587e+000	 2.545353778567168e+000	-1.754950913497245e+000
1	 3.707081218212969e+000	 2.586120118656368e+000	-1.713275610303275e+000
1	 3.678499853668706e+000	 2.626615146695153e+000	-1.666121314271428e+000
1	 3.965894279856078e+000	 2.223490754048992e+000	-1.614265116241564e+000
1	 3.941541807090636e+000	 2.266379513115587e+000	-1.639488584520379e+000
1	 3.916689461769292e+000	 2.309062759494951e+000	-1.655519315423589e+000
1	 3.891339611021287e+000	 2.351531925876843e+000	-1.662661565071045e+000
1	 3.865494814740869e+000	 2.393778474907056e+000	-1.661266105171861e+000
1	 3.839157825349139e+000	 2.435793904535413e+000	-1.651729961023548e+000
1	 3.812331587379767e+000	 2.477569753374350e+000	-1.634496065576817e+000
1	 3.785019236887463e+000	 2.519097606061324e+000	-1.610052829396314e+000
1	 3.757224100678466e+000	 2.560369098618346e+000	-1.578933626556925e+000
1	 3.728949695362553e+000	 2.601375923801743e+000	-1.541716196728124e+000
1	 3.700199726226330e+000	 2.642109836435286e+000	-1.499021963912620e+000
1	 3.989152339243564e+000	 2.236530456161203e+000	-1.428733979401163e+000
1	 3.964657050957377e+000	 2.279670737138295e+000	-1.454599733170052e+000
1	 3.939658958603628e+000	 2.322604300195173e+000	-1.471993211499611e+000
1	 3.914160443193614e+000	 2.365322527778455e+000	-1.481140213567104e+000
1	 3.888164079634114e+000	 2.407816832466474e+000	-1.482311786350065e+000
1	 3.861672636487839e+000	 2.450078662348639e+000	-1.475824081346779e+000
1	 3.834689075556711e+000	 2.492099506415425e+000	-1.462038130407516e+000
1	 3.807216551286875e+000	 2.533870899952260e+000	-1.441359540287199e+000
1	 3.779258409994675e+000	 2.575384429930460e+000	-1.414238105730568e+000
1	 3.750818188913088e+000	 2.616631740388381e+000	-1.381167341104002e+000
1	 3.721899615058423e+000	 2.657604537795814e+000	-1.342683930794200e+000
1	 4.012410421888376e+000	 2.249570171312477e+000	-1.258426355400102e+000
1	 3.987772317938652e+000	 2.292961974451581e+000	-1.284277327330373e+000
1	 3.962628478406766e+000	 2.336145854436272e+000	-1.302410004909776e+000
1	 3.936981298186090e+000	 2.379113143469984e+000	-1.312976873259226e+000
1	 3.910833367195940e+000	 2.421855204063538e+000	-1.316173594124148e+000
1	 3.884187470140660e+000	 2.464363434445877e+000	-1.312238969333740e+000
1	 3.857046586090441e+000	 2.506629273985478e+000	-1.301454827773595e+000
1	 3.829413887882881e+000	 2.548644208615681e+000	-1.284145835299498e+000
1	 3.801292741344446e+000	 2.590399776257064e+000	-1.260679227207714e+000
1	 3.772686704331336e+000	 2.631887572229962e+000	-1.231464463068033e+000
1	 3.743599525589591e+000	 2.673099254650146e+000	-1.196952803920046e+000
1	 4.035668533604805e+000	 2.262609902762454e+000	-1.102636494639797e+000
1	 4.010887613813039e+000	 2.306253228377955e+000	-1.127916409682964e+000
1	 3.985598026920840e+000	 2.349687425603333e+000	-1.146255562343138e+000
1	 3.959802181703660e+000	 2.392903776398775e+000	-1.157738213335949e+000
1	 3.933502683093391e+000	 2.435893593207532e+000	-1.162488934491442e+000
1	 3.906702331936014e+000	 2.478648224398017e+000	-1.160672667085216e+000
1	 3.879404124570022e+000	 2.521159059716648e+000	-1.152494709431894e+000
1	 3.851611252224484e+000	 2.563417535744618e+000	-1.138200633021832e+000
1	 3.823327100236012e+000	 2.605415141351707e+000	-1.118076126653566e+000
1	 3.794555247084062e+000	 2.647143423140168e+000	-1.092446768190327e+000
1	 3.765299463244429e+000	 2.688593990871691e+000	-1.061677723747437e+000
1	 4.058926680207141e+000	 2.275649653770777e+000	-9.606748115365484e-001
1	 4.034002944359119e+000	 2.319544502239928e+000	-9.849258775004531e-001
1	 4.008567609887977e+000	 2.363229017081439e+000	-1.003027524049016e+000
1	 3.982623099451280e+000	 2.406694430012176e+000	-1.015000825123618e+000
1	 3.956172032993508e+000	 2.449932003407742e+000	-1.020903514781793e+000
1	 3.929217227502315e+000	 2.492933035775949e+000	-1.020830128646546e+000
1	 3.901761696584512e+000	 2.535688867241081e+000	-1.014912081702121e+000
1	 3.873808649860681e+000	 2.578190885032107e+000	-1.003317681605892e+000
1	 3.845361492177609e+000	 2.620430528967939e+000	-9.862520768390940e-001
1	 3.816423822638035e+000	 2.662399296932676e+000	-9.639571391757322e-001
1	 3.786999433447542e+000	 2.704088750333855e+000	-9.367112801095511e-001
1	 4.082184867509671e+000	 2.288689427597086e+000	-8.318674236435557e-001
1	 4.057118315355471e+000	 2.332835799360011e+000	-8.547280875721155e-001
1	 4.031537233050311e+000	 2.376770632255675e+000	-8.722349680590968e-001
1	 4.005444057133899e+000	 2.420485107757529e+000	-8.843509390628955e-001
1	 3.978841422563335e+000	 2.463970438173453e+000	-8.910711068175891e-001
1	 3.951732162467971e+000	 2.507217872150561e+000	-8.924230227573409e-001
1	 3.924119307722977e+000	 2.550218700190915e+000	-8.884668411955231e-001
1	 3.896006086340478e+000	 2.592964260171184e+000	-8.792954208527773e-001
1	 3.867395922677467e+000	 2.635445942859313e+000	-8.650343694589519e-001
1	 3.838292436460014e+000	 2.677655197421170e+000	-8.458420307890157e-001
1	 3.808699441623531e+000	 2.719583536910049e+000	-8.219094136313803e-001
1	 4.105443101326692e+000	 2.301729227501026e+000	-7.155557064560181e-001
1	 4.080233732580672e+000	 2.346127123060713e+000	-7.367584745734386e-001
1	 4.054506902149972e+000	 2.390312274511121e+000	-7.533980858356577e-001
1	 4.028265060456468e+000	 2.434275813082186e+000	-7.653841513162359e-001
1	 4.001510857469911e+000	 2.478008901013949e+000	-7.726533181331892e-001
1	 3.974247142461394e+000	 2.521502737092740e+000	-7.751695423133793e-001
1	 3.946476963574480e+000	 2.564748562198295e+000	-7.729243161336507e-001
1	 3.918203567212872e+000	 2.607737664854879e+000	-7.659368489923633e-001
1	 3.889430397243821e+000	 2.650461386779379e+000	-7.542542009710425e-001
1	 3.860161094016767e+000	 2.692911128419327e+000	-7.379513683556350e-001
1	 3.830399493196997e+000	 2.735078354473679e+000	-7.171313205003914e-001
1	 4.128701387472490e+000	 2.314769056742235e+000	-6.110958632803005e-001
1	 4.103349201813303e+000	 2.359418476664549e+000	-6.304651823489164e-001
1	 4.077476622929091e+000	 2.403853947232864e+000	-6.460478688948733e-001
1	 4.051086115123939e+000	 2.448066549433488e+000	-6.577051596261444e-001
1	 4.024180343380284e+000	 2.492047395438518e+000	-6.653193709355602e-001
1	 3.996762173110999e+000	 2.535787634173376e+000	-6.687942202757901e-001
1	 3.968834669728083e+000	 2.579278456895365e+000	-6.680551130363205e-001
1	 3.940401098026868e+000	 2.622511102776230e+000	-6.630493939704991e-001
1	 3.911464921384907e+000	 2.665476864481691e+000	-6.537465622989100e-001
1	 3.882029800775059e+000	 2.708167093740830e+000	-6.401384496969350e-001
1	 3.852099593592544e+000	 2.750573206898158e+000	-6.222393604594357e-001
1	 3.635100135678463e+000	 2.595625786582434e+000	-2.033240006049659e+000
1	 3.606392606282453e+000	 2.635366899875415e+000	-1.970887069447661e+000
1	 3.577225704752324e+000	 2.674823900322948e+000	-1.902314385042859e+000
1	 3.547603612821848e+000	 2.713988896438097e+000	-1.827701883666012e+000
1	 3.517530691503431e+000	 2.752854078213755e+000	-1.747261916999261e+000
1	 3.487011479119200e+000	 2.791411722183962e+000	-1.661239334005300e+000
1	 3.456050689161567e+000	 2.829654196428459e+000	-1.569911501846948e+000
1	 3.424653207985159e+000	 2.867573965513815e+000	-1.473588270796602e+000
1	 3.392824092332316e+000	 2.905163595364521e+000	-1.372611882771893e+000
1	 3.360568566694637e+000	 2.942415758057519e+000	-1.267356823272708e+000
1	 3.327892020513366e+000	 2.979323236533758e+000	-1.158229616635669e+000
1	 3.656799991960951e+000	 2.611120464702003e+000	-1.844140050036320e+000
1	 3.627921091973301e+000	 2.651098813948400e+000	-1.786557514343415e+000
1	 3.598580077613613e+000	 2.690791354327859e+000	-1.722637111952925e+000
1	 3.568781155578661e+000	 2.730190147244944e+000	-1.652729744316075e+000
1	 3.538528712914067e+000	 2.769287336070452e+000	-1.577219827737451e+000
1	 3.507827315033624e+000	 2.808075151232928e+000	-1.496525053268793e+000
1	 3.476681703567104e+000	 2.846545915253110e+000	-1.411096087673685e+000
1	 3.445096794038395e+000	 2.884692047714543e+000	-1.321416215626826e+000
1	 3.413077673376231e+000	 2.922506070163753e+000	-1.228000923459633e+000
1	 3.380629597259997e+000	 2.959980610933397e+000	-1.131397424912711e+000
1	 3.347757987303395e+000	 2.997108409881948e+000	-1.032184129503619e+000
1	 3.678499853668706e+000	 2.626615146695153e+000	-1.666121314271429e+000
1	 3.649449583046558e+000	 2.666830731954233e+000	-1.613110222775510e+000
1	 3.619934455813749e+000	 2.706758812324470e+000	-1.553689228247674e+000
1	 3.589958703630073e+000	 2.746391402101920e+000	-1.488358945534822e+000
1	 3.559526739574368e+000	 2.785720598035260e+000	-1.417654462648178e+000
1	 3.528643156152110e+000	 2.824738584447534e+000	-1.342144819920931e+000
1	 3.497312723130439e+000	 2.863437638300464e+000	-1.262432427202905e+000
1	 3.465540385202507e+000	 2.901810134194557e+000	-1.179152419846160e+000
1	 3.433331259483469e+000	 2.939848549298364e+000	-1.092971954393991e+000
1	 3.400690632840491e+000	 2.977545468200245e+000	-1.004589445042938e+000
1	 3.367623959059742e+000	 3.014893587676185e+000	-9.147337421019763e-001
1	 3.700199726226330e+000	 2.642109836435286e+000	-1.499021963912620e+000
1	 3.670978084883970e+000	 2.682562657825637e+000	-1.450387838882413e+000
1	 3.641288844690951e+000	 2.722726278304399e+000	-1.395316603618452e+000
1	 3.611136262270088e+000	 2.762592665059089e+000	-1.334437702092859e+000
1	 3.580524776733460e+000	 2.802153868216250e+000	-1.268415875815334e+000
1	 3.549459007678244e+000	 2.841402025993399e+000	-1.197950397682059e+000
1	 3.517943753008951e+000	 2.880329369793212e+000	-1.123774241209391e+000
1	 3.485983986588032e+000	 2.918928229233141e+000	-1.046653186423550e+000
1	 3.453584855717059e+000	 2.957191037103733e+000	-9.673848638451098e-001
1	 3.420751678451020e+000	 2.995110334249034e+000	-8.867977381715888e-001
1	 3.387489940748560e+000	 3.032678774362513e+000	-8.057500334219758e-001
1	 3.721899615058423e+000	 2.657604537795814e+000	-1.342683930794200e+000
1	 3.692506602867291e+000	 2.698294595495337e+000	-1.298236668893153e+000
1	 3.662643249583429e+000	 2.738693756259258e+000	-1.247368694441830e+000
1	 3.632313836792711e+000	 2.778793940166521e+000	-1.190817760548915e+000
1	 3.601522829640472e+000	 2.818587150721498e+000	-1.129357610008903e+000
1	 3.570274874815602e+000	 2.858065480036140e+000	-1.063796998906311e+000
1	 3.538574798360021e+000	 2.897221113954047e+000	-9.949786533304724e-001
1	 3.506427603305496e+000	 2.936046337109576e+000	-9.237781609170072e-001
1	 3.473838467140046e+000	 2.974533537915240e+000	-8.511027991074373e-001
1	 3.440812739106494e+000	 3.012675213470732e+000	-7.778903021892357e-001
1	 3.407355937335999e+000	 3.050463974386978e+000	-7.051075693442889e-001
1	 3.743599525589591e+000	 2.673099254650146e+000	-1.196952803920046e+000
1	 3.714035142378266e+000	 2.714026548896057e+000	-1.156506574652580e+000
1	 3.683997675829406e+000	 2.754661250180662e+000	-1.109698439489801e+000
1	 3.653491432491949e+000	 2.794995231474284e+000	-1.057354296549810e+000
1	 3.622520903544523e+000	 2.835020449659075e+000	-1.000336595232808e+000
1	 3.591090762767767e+000	 2.874728950741376e+000	-9.395431842897463e-001
1	 3.559205864341032e+000	 2.914112875005660e+000	-8.759060911017953e-001
1	 3.526871240465430e+000	 2.953164462103145e+000	-8.103902342597752e-001
1	 3.494092098815462e+000	 2.991876056068264e+000	-7.439920717146320e-001
1	 3.460873819821821e+000	 3.030240110256312e+000	-6.777381869462854e-001
1	 3.427221953788212e+000	 3.068249192195625e+000	-6.126838157679683e-001
1	 3.765299463244429e+000	 2.688593990871691e+000	-1.061677723747437e+000
1	 3.735563708798650e+000	 2.729758521960522e+000	-1.025050870832553e+000
1	 3.705352128767096e+000	 2.770628764060227e+000	-9.821621592503194e-001
1	 3.674669054661810e+000	 2.811196543032450e+000	-9.339058156856893e-001
1	 3.643519003694747e+000	 2.851453769137058e+000	-8.812130507847746e-001
1	 3.611906676738323e+000	 2.891392442274725e+000	-8.250507660503158e-001
1	 3.579836956109366e+000	 2.931004657170744e+000	-7.664201904190023e-001
1	 3.547314903178364e+000	 2.970282608493129e+000	-7.063554489118468e-001
1	 3.514345755806345e+000	 3.009218595898184e+000	-6.459220659357706e-001
1	 3.480934925611909e+000	 3.047805028996744e+000	-5.862154059953277e-001
1	 3.447087995071351e+000	 3.086034432234503e+000	-5.283590547466882e-001
1	 3.786999433447542e+000	 2.704088750333855e+000	-9.367112801095511e-001
1	 3.757092307510190e+000	 2.745490518621454e+000	-9.037262256810954e-001
1	 3.726706613734713e+000	 2.786596301889565e+000	-8.646194587131633e-001
1	 3.695846708596300e+000	 2.827397878891083e+000	-8.203340577577408e-001
1	 3.664517135340263e+000	 2.867887113263518e+000	-7.718503906872790e-001
1	 3.632722621930851e+000	 2.908055958801806e+000	-7.201847144403492e-001
1	 3.600468078822399e+000	 2.947896464671987e+000	-6.663877032877817e-001
1	 3.567758596554828e+000	 2.987400780558812e+000	-6.115429082416974e-001
1	 3.534599443175730e+000	 3.026561161740376e+000	-5.567651504210444e-001
1	 3.500996061491667e+000	 3.065369974082997e+000	-5.031988513712551e-001
1	 3.466954066151565e+000	 3.103819698949656e+000	-4.520163035115236e-001
1	 3.808699441623531e+000	 2.719583536910049e+000	-8.219094136313803e-001
1	 3.778620943894639e+000	 2.761222542811580e+000	-7.923925651681993e-001
1	 3.748061136070473e+000	 2.802563867660294e+000	-7.569331334827547e-001
1	 3.717024399589421e+000	 2.843599243100253e+000	-7.165039043222219e-001
1	 3.685515303730202e+000	 2.884320486146530e+000	-6.721151323549400e-001
1	 3.653538603548932e+000	 2.924719504488238e+000	-6.248130674585122e-001
1	 3.621099237637516e+000	 2.964788301732086e+000	-5.756784087310514e-001
1	 3.588202325705353e+000	 3.004518982579476e+000	-5.258246890092745e-001
1	 3.554853165986656e+000	 3.043903757930221e+000	-4.763965928712592e-001
1	 3.521057232475999e+000	 3.082934949906039e+000	-4.285682112879045e-001
1	 3.486820171995006e+000	 3.121604996787129e+000	-3.835412362650625e-001
1	 3.830399493196997e+000	 2.735078354473679e+000	-7.171313205003916e-001
1	 3.800149623333742e+000	 2.776954598463621e+000	-6.909129803934733e-001
1	 3.769415701112595e+000	 2.818531465364028e+000	-6.589690790859193e-001
1	 3.738202132935184e+000	 2.859800639710028e+000	-6.222832893806456e-001
1	 3.706513514113687e+000	 2.900753891894165e+000	-5.818768083698848e-001
1	 3.674354626796148e+000	 2.941383083499638e+000	-5.388068436341507e-001
1	 3.641730437712097e+000	 2.981680172573729e+000	-4.941650267278554e-001
1	 3.608646095740468e+000	 3.021637218834404e+000	-4.490757568271160e-001
1	 3.575106929302158e+000	 3.061246388803097e+000	-4.046944776110285e-001
1	 3.541118443579816e+000	 3.100499960856845e+000	-3.622058906353977e-001
1	 3.506686317567826e+000	 3.139390330192968e+000	-3.228221086367752e-001
1	 3.852099593592544e+000	 2.750573206898158e+000	-6.222393604594356e-001
1	 3.821678351209255e+000	 2.792686689510306e+000	-5.991536381268509e-001
1	 3.790770314199296e+000	 2.834499098992382e+000	-5.705962033483623e-001
1	 3.759379913927593e+000	 2.876002072770478e+000	-5.375431130919701e-001
1	 3.727511771739844e+000	 2.917187334614500e+000	-5.010078812423793e-001
1	 3.695170696876085e+000	 2.958046700001626e+000	-4.620399577627791e-001
1	 3.662361684203526e+000	 2.998572081419612e+000	-4.217231350643557e-001
1	 3.629089911770705e+000	 3.038755493602876e+000	-3.811738844820231e-001
1	 3.595360738185273e+000	 3.078589058694386e+000	-3.415396259510888e-001
1	 3.561179699818027e+000	 3.118065011326384e+000	-3.039969341676381e-001
1	 3.526552507836178e+000	 3.157175703613221e+000	-2.697496846946120e-001
1	 3.327892020513366e+000	 2.979323236533758e+000	-1.158229616635669e+000
1	 3.294805000137952e+000	 3.015873473340294e+000	-1.049980257566096e+000
1	 3.261308345935689e+000	 3.052065054294208e+000	-9.466440349694040e-001
1	 3.227407924036499e+000	 3.087891128237413e+000	-8.476193923536799e-001
1	 3.193109752621236e+000	 3.123344972753669e+000	-7.522924790226480e-001
1	 3.158419998366947e+000	 3.158419998366946e+000	-6.600381530663664e-001
1	 3.123344972753669e+000	 3.193109752621236e+000	-5.702210044592394e-001
1	 3.087891128237412e+000	 3.227407924036499e+000	-4.821963961451959e-001
1	 3.052065054294209e+000	 3.261308345935690e+000	-3.953115209436978e-001
1	 3.015873473340295e+000	 3.294805000137951e+000	-3.089064720707252e-001
1	 2.979323236533757e+000	 3.327892020513365e+000	-2.223153250359261e-001
1	 3.347757987303395e+000	 2.997108409881948e+000	-1.032184129503619e+000
1	 3.314473452812669e+000	 3.033876834594318e+000	-9.349687825038682e-001
1	 3.280776839171726e+000	 3.070284462445565e+000	-8.433946015240852e-001
1	 3.246674047528561e+000	 3.106324401379362e+000	-7.566499459895744e-001
1	 3.212171131989779e+000	 3.141989888849766e+000	-6.739090019304261e-001
1	 3.177274296044633e+000	 3.177274296044633e+000	-5.943331678872574e-001
1	 3.141989888849765e+000	 3.212171131989779e+000	-5.170724639430653e-001
1	 3.106324401379361e+000	 3.246674047528561e+000	-4.412669609411836e-001
1	 3.070284462445565e+000	 3.280776839171725e+000	-3.660482268971746e-001
1	 3.033876834594319e+000	 3.314473452812669e+000	-2.905407875692143e-001
1	 2.997108409881948e+000	 3.347757987303394e+000	-2.138635981177527e-001
1	 3.367623959059742e+000	 3.014893587676185e+000	-9.147337421019764e-001
1	 3.334141910404290e+000	 3.051880200348930e+000	-8.278538572782128e-001
1	 3.300245337274650e+000	 3.088503875151511e+000	-7.472181877949018e-001
1	 3.265940175836902e+000	 3.124757679129364e+000	-6.718347537013816e-001
1	 3.231232516123408e+000	 3.160634809606826e+000	-6.006957749877120e-001
1	 3.196128598435629e+000	 3.196128598435629e+000	-5.327793890407226e-001
1	 3.160634809606826e+000	 3.231232516123408e+000	-4.670513938511751e-001
1	 3.124757679129364e+000	 3.265940175836902e+000	-4.024670133209015e-001
1	 3.088503875151512e+000	 3.300245337274650e+000	-3.379726809613887e-001
1	 3.051880200348930e+000	 3.334141910404290e+000	-2.725078382288345e-001
1	 3.014893587676185e+000	 3.367623959059741e+000	-2.050067437060206e-001
1	 3.387489940748560e+000	 3.032678774362513e+000	-8.057500334219758e-001
1	 3.353810377829602e+000	 3.069883575104714e+000	-7.285166120957836e-001
1	 3.319713845111269e+000	 3.106723296966643e+000	-6.580087781660552e-001
1	 3.285206313777744e+000	 3.143190966095471e+000	-5.930834394263742e-001
1	 3.250293909787164e+000	 3.179279739685799e+000	-5.325803266811623e-001
1	 3.214982910253217e+000	 3.214982910253217e+000	-4.753239919137447e-001
1	 3.179279739685799e+000	 3.250293909787164e+000	-4.201258344402154e-001
1	 3.143190966095470e+000	 3.285206313777744e+000	-3.657861507947589e-001
1	 3.106723296966643e+000	 3.319713845111268e+000	-3.110962040299704e-001
1	 3.069883575104714e+000	 3.353810377829601e+000	-2.548403080667482e-001
1	 3.032678774362512e+000	 3.387489940748560e+000	-1.957979226927701e-001
1	 3.407355937335999e+000	 3.050463974386978e+000	-7.051075693442886e-001
1	 3.373478860005382e+000	 3.087886963362258e+000	-6.368409418067716e-001
1	 3.339182367548385e+000	 3.124942732445551e+000	-5.756628225353425e-001
1	 3.304472466167311e+000	 3.161624266885730e+000	-5.203077286352722e-001
1	 3.269355317746096e+000	 3.197924683747635e+000	-4.694918702991765e-001
1	 3.233837236210685e+000	 3.233837236210685e+000	-4.219153793629683e-001
1	 3.197924683747635e+000	 3.269355317746097e+000	-3.762645676955774e-001
1	 3.161624266885730e+000	 3.304472466167311e+000	-3.312142106716167e-001
1	 3.124942732445551e+000	 3.339182367548385e+000	-2.854298509103455e-001
1	 3.087886963362259e+000	 3.373478860005382e+000	-2.375701174130666e-001
1	 3.050463974386978e+000	 3.407355937335999e+000	-1.862890551948546e-001
1	 3.427221953788212e+000	 3.068249192195625e+000	-6.126838157679684e-001
1	 3.393147361848419e+000	 3.105890369622151e+000	-5.527134254964207e-001
1	 3.358650909452801e+000	 3.143162186142826e+000	-5.000791646011668e-001
1	 3.323738637821821e+000	 3.180057586108190e+000	-4.534213871977424e-001
1	 3.288416744765252e+000	 3.216569646453285e+000	-4.113612549070002e-001
1	 3.252691581021320e+000	 3.252691581021320e+000	-3.725031459772443e-001
1	 3.216569646453285e+000	 3.288416744765251e+000	-3.354370957046338e-001
1	 3.180057586108189e+000	 3.323738637821821e+000	-2.987412630106300e-001
1	 3.143162186142825e+000	 3.358650909452801e+000	-2.609844179662959e-001
1	 3.105890369622150e+000	 3.393147361848419e+000	-2.207284450003514e-001
1	 3.068249192195627e+000	 3.427221953788212e+000	-1.765308564910008e-001
1	 3.447087995071351e+000	 3.086034432234503e+000	-5.283590547466883e-001
1	 3.412815888275492e+000	 3.123893798384978e+000	-4.760232488601180e-001
1	 3.378119475691321e+000	 3.161381662613056e+000	-4.311589726321259e-001
1	 3.343004833557501e+000	 3.198490928370902e+000	-3.923401623642514e-001
1	 3.307478195609674e+000	 3.235214632463700e+000	-3.581209180190247e-001
1	 3.271545949398408e+000	 3.271545949398408e+000	-3.270380435773551e-001
1	 3.235214632463700e+000	 3.307478195609674e+000	-2.976136197786629e-001
1	 3.198490928370902e+000	 3.343004833557501e+000	-2.683576038170816e-001
1	 3.161381662613058e+000	 3.378119475691321e+000	-2.377704504959548e-001
1	 3.123893798384977e+000	 3.412815888275493e+000	-2.043457492884347e-001
1	 3.086034432234504e+000	 3.447087995071351e+000	-1.665728717148145e-001
1	 3.466954066151565e+000	 3.103819698949656e+000	-4.520163035115236e-001
1	 3.432484444203388e+000	 3.141897254151326e+000	-4.066621292503369e-001
1	 3.397588071130751e+000	 3.179601166410839e+000	-3.688056726194829e-001
1	 3.362271058190569e+000	 3.216924298281913e+000	-3.369817257793151e-001
1	 3.326539675044415e+000	 3.253859646439833e+000	-3.097048399000583e-001
1	 3.290400346055237e+000	 3.290400346055237e+000	-2.854719479032262e-001
1	 3.253859646439832e+000	 3.326539675044415e+000	-2.627650202933873e-001
1	 3.216924298281913e+000	 3.362271058190569e+000	-2.400537484724405e-001
1	 3.179601166410840e+000	 3.397588071130752e+000	-2.157982498558696e-001
1	 3.141897254151326e+000	 3.432484444203388e+000	-1.884517890552643e-001
1	 3.103819698949656e+000	 3.466954066151564e+000	-1.564635093536796e-001
1	 3.486820171995006e+000	 3.121604996787129e+000	-3.835412362650625e-001
1	 3.452153034548887e+000	 3.159900741421783e+000	-3.445242432886767e-001
1	 3.417056700637892e+000	 3.197820702090761e+000	-3.129248837173656e-001
1	 3.381537316537248e+000	 3.235357700449275e+000	-2.872656184450019e-001
1	 3.345601187834515e+000	 3.272504693042630e+000	-2.660484994305685e-001
1	 3.309254775705090e+000	 3.309254775705090e+000	-2.477578264411945e-001
1	 3.272504693042630e+000	 3.345601187834515e+000	-2.308628372194507e-001
1	 3.235357700449274e+000	 3.381537316537249e+000	-2.138204253892478e-001
1	 3.197820702090761e+000	 3.417056700637892e+000	-1.950778803412686e-001
1	 3.159900741421783e+000	 3.452153034548888e+000	-1.730756432830838e-001
1	 3.121604996787129e+000	 3.486820171995005e+000	-1.462500736012498e-001
1	 3.506686317567826e+000	 3.139390330192968e+000	-3.228221086367752e-001
1	 3.471821664228771e+000	 3.177904264696934e+000	-2.895061569412299e-001
1	 3.436525369079552e+000	 3.216040274207416e+000	-2.634243558798994e-001
1	 3.400803613413762e+000	 3.253791139481034e+000	-2.431131975572975e-001
1	 3.364662738745025e+000	 3.291149776933046e+000	-2.270888314738019e-001
1	 3.328109243061256e+000	 3.328109243061256e+000	-2.138497073461302e-001
1	 3.291149776933045e+000	 3.364662738745025e+000	-2.018792513154215e-001
1	 3.253791139481035e+000	 3.400803613413763e+000	-1.896485698819619e-001
1	 3.216040274207415e+000	 3.436525369079551e+000	-1.756191758322086e-001
1	 3.177904264696934e+000	 3.471821664228771e+000	-1.582457303679020e-001
1	 3.139390330192968e+000	 3.506686317567826e+000	-1.359787956090125e-001
1	 3.526552507836178e+000	 3.157175703613221e+000	-2.697496846946121e-001
1	 3.491490338159828e+000	 3.195907828477368e+000	-2.415067579600002e-001
1	 3.455994081322530e+000	 3.234259887315395e+000	-2.202139096085164e-001
1	 3.420069953636332e+000	 3.272224619985245e+000	-2.044475851413837e-001
1	 3.383724332540992e+000	 3.309794902772032e+000	-1.927641856854801e-001
1	 3.346963752837024e+000	 3.346963752837023e+000	-1.837026494151196e-001
1	 3.309794902772032e+000	 3.383724332540992e+000	-1.757870659571936e-001
1	 3.272224619985245e+000	 3.420069953636333e+000	-1.675293182451801e-001
1	 3.234259887315396e+000	 3.455994081322531e+000	-1.574317462148514e-001
1	 3.195907828477369e+000	 3.491490338159829e+000	-1.439898266790069e-001
1	 3.157175703613221e+000	 3.526552507836178e+000	-1.256948636804141e-001
1	 2.979323236533757e+000	 3.327892020513365e+000	-2.223153250359262e-001
1	 2.942415758057520e+000	 3.360568566694637e+000	-1.361724610332949e-001
1	 2.905163595364522e+000	 3.392824092332316e+000	-5.188340687420311e-002
1	 2.867573965513814e+000	 3.424653207985159e+000	 3.012521317661905e-002
1	 2.829654196428458e+000	 3.456050689161565e+000	 1.094552933390748e-001
1	 2.791411722183963e+000	 3.487011479119200e+000	 1.857375215915911e-001
1	 2.752854078213755e+000	 3.517530691503430e+000	 2.586316033228785e-001
1	 2.713988896438097e+000	 3.547603612821848e+000	 3.278264332591104e-001
1	 2.674823900322948e+000	 3.577225704752323e+000	 3.930402156940862e-001
1	 2.635366899875414e+000	 3.606392606282453e+000	 4.540205331790507e-001
1	 2.595625786582433e+000	 3.635100135678463e+000	 5.105443639562918e-001
1	 2.997108409881948e+000	 3.347757987303394e+000	-2.138635981177527e-001
1	 2.959980610933398e+000	 3.380629597259997e+000	-1.363808886144210e-001
1	 2.922506070163753e+000	 3.413077673376230e+000	-5.949656397231871e-002
1	 2.884692047714542e+000	 3.445096794038394e+000	 1.616816662465092e-002
1	 2.846545915253110e+000	 3.476681703567104e+000	 9.001806823522005e-002
1	 2.808075151232929e+000	 3.507827315033624e+000	 1.614845350581867e-001
1	 2.769287336070453e+000	 3.538528712914067e+000	 2.300261958232828e-001
1	 2.730190147244945e+000	 3.568781155578661e+000	 2.951294687487994e-001
1	 2.690791354327859e+000	 3.598580077613613e+000	 3.563090652705739e-001
1	 2.651098813948400e+000	 3.627921091973301e+000	 4.131084418799157e-001
1	 2.611120464702003e+000	 3.656799991960951e+000	 4.651001995417467e-001
1	 3.014893587676185e+000	 3.367623959059741e+000	-2.050067437060203e-001
1	 2.977545468200246e+000	 3.400690632840491e+000	-1.355993425535020e-001
1	 2.939848549298365e+000	 3.433331259483467e+000	-6.568652659486109e-002
1	 2.901810134194557e+000	 3.465540385202508e+000	 3.941947631743261e-003
1	 2.863437638300464e+000	 3.497312723130438e+000	 7.251998128180538e-002
1	 2.824738584447536e+000	 3.528643156152111e+000	 1.393061217348927e-001
1	 2.785720598035260e+000	 3.559526739574368e+000	 2.035845036142349e-001
1	 2.746391402101920e+000	 3.589958703630074e+000	 2.646657406417715e-001
1	 2.706758812324470e+000	 3.619934455813751e+000	 3.218877668071918e-001
1	 2.666830731954233e+000	 3.649449583046558e+000	 3.746166254653567e-001
1	 2.626615146695152e+000	 3.678499853668705e+000	 4.222472051156485e-001
1	 3.032678774362512e+000	 3.387489940748560e+000	-1.957979226927701e-001
1	 2.995110334249033e+000	 3.420751678451020e+000	-1.338987911018985e-001
1	 2.957191037103733e+000	 3.453584855717059e+000	-7.053826922997816e-002
1	 2.918928229233141e+000	 3.485983986588032e+000	-6.649086469396211e-003
1	 2.880329369793212e+000	 3.517943753008950e+000	 5.685759433097357e-002
1	 2.841402025993399e+000	 3.549459007678244e+000	 1.190934535163054e-001
1	 2.802153868216250e+000	 3.580524776733461e+000	 1.791942456422182e-001
1	 2.762592665059089e+000	 3.611136262270088e+000	 2.363209825727799e-001
1	 2.722726278304399e+000	 3.641288844690951e+000	 2.896610665084422e-001
1	 2.682562657825637e+000	 3.670978084883970e+000	 3.384293709303992e-001
1	 2.642109836435286e+000	 3.700199726226330e+000	 3.818692675911986e-001
1	 3.050463974386978e+000	 3.407355937335999e+000	-1.862890551948546e-001
1	 3.012675213470734e+000	 3.440812739106494e+000	-1.313485467226102e-001
1	 2.974533537915240e+000	 3.473838467140046e+000	-7.413478404981648e-002
1	 2.936046337109576e+000	 3.506427603305496e+000	-1.569834722024163e-002
1	 2.897221113954047e+000	 3.538574798360020e+000	 4.292988227365954e-002
1	 2.858065480036139e+000	 3.570274874815601e+000	 1.007402412150373e-001
1	 2.818587150721498e+000	 3.601522829640471e+000	 1.567457605113801e-001
1	 2.778793940166522e+000	 3.632313836792711e+000	 2.099835943483984e-001
1	 2.738693756259257e+000	 3.662643249583430e+000	 2.595163999623124e-001
1	 2.698294595495338e+000	 3.692506602867291e+000	 3.044336654834949e-001
1	 2.657604537795815e+000	 3.721899615058424e+000	 3.438529834509152e-001
1	 3.068249192195627e+000	 3.427221953788212e+000	-1.765308564910008e-001
1	 3.030240110256312e+000	 3.460873819821820e+000	-1.280163140699513e-001
1	 2.991876056068266e+000	 3.494092098815463e+000	-7.655713836293328e-002
1	 2.953164462103144e+000	 3.526871240465430e+000	-2.329707970477516e-002
1	 2.914112875005661e+000	 3.559205864341033e+000	 3.063816309749585e-002
1	 2.874728950741376e+000	 3.591090762767767e+000	 8.414266097217742e-002
1	 2.835020449659075e+000	 3.622520903544523e+000	 1.361319305560702e-001
1	 2.794995231474285e+000	 3.653491432491950e+000	 1.855445646738381e-001
1	 2.754661250180662e+000	 3.683997675829406e+000	 2.313438141959281e-001
1	 2.714026548896058e+000	 3.714035142378267e+000	 2.725191182880687e-001
1	 2.673099254650146e+000	 3.743599525589590e+000	 3.080875802139169e-001
1	 3.086034432234504e+000	 3.447087995071351e+000	-1.665728717148145e-001
1	 3.047805028996744e+000	 3.480934925611909e+000	-1.239682363082920e-001
1	 3.009218595898184e+000	 3.514345755806345e+000	-7.788453007784343e-002
1	 2.970282608493129e+000	 3.547314903178364e+000	-2.953442497917035e-002
1	 2.931004657170742e+000	 3.579836956109365e+000	 1.988603036595712e-002
1	 2.891392442274725e+000	 3.611906676738323e+000	 6.919928321524249e-002
1	 2.851453769137057e+000	 3.643519003694747e+000	 1.172481085418153e-001
1	 2.811196543032450e+000	 3.674669054661810e+000	 1.628973965547770e-001
1	 2.770628764060226e+000	 3.705352128767094e+000	 2.050358924294688e-001
1	 2.729758521960522e+000	 3.735563708798650e+000	 2.425778849131722e-001
1	 2.688593990871690e+000	 3.765299463244428e+000	 2.744648406218154e-001
1	 3.103819698949656e+000	 3.466954066151564e+000	-1.564635093536795e-001
1	 3.065369974082997e+000	 3.500996061491667e+000	-1.192689398365364e-001
1	 3.026561161740377e+000	 3.534599443175730e+000	-7.819434125755677e-002
1	 2.987400780558812e+000	 3.567758596554827e+000	-3.449748035268335e-002
1	 2.947896464671988e+000	 3.600468078822398e+000	 1.057928802149528e-002
1	 2.908055958801806e+000	 3.632722621930851e+000	 5.581100406133652e-002
1	 2.867887113263519e+000	 3.664517135340264e+000	 9.999204688916744e-002
1	 2.827397878891083e+000	 3.695846708596299e+000	 1.419380352667865e-001
1	 2.786596301889565e+000	 3.726706613734713e+000	 1.804876814199665e-001
1	 2.745490518621454e+000	 3.757092307510191e+000	 2.145045943844801e-001
1	 2.704088750333855e+000	 3.786999433447542e+000	 2.428790294340685e-001
1	 3.121604996787129e+000	 3.486820171995005e+000	-1.462500736012498e-001
1	 3.082934949906041e+000	 3.521057232476000e+000	-1.139815774820239e-001
1	 3.043903757930221e+000	 3.554853165986655e+000	-7.756218984132518e-002
1	 3.004518982579476e+000	 3.588202325705353e+000	-3.827135760557112e-002
1	 2.964788301732086e+000	 3.621099237637516e+000	 2.625887419904588e-003
1	 2.924719504488238e+000	 3.653538603548932e+000	 4.388097906787096e-002
1	 2.884320486146530e+000	 3.685515303730201e+000	 8.426382931972544e-002
1	 2.843599243100252e+000	 3.717024399589421e+000	 1.225647987898378e-001
1	 2.802563867660294e+000	 3.748061136070473e+000	 1.575966212916150e-001
1	 2.761222542811580e+000	 3.778620943894639e+000	 1.881962787318041e-001
1	 2.719583536910048e+000	 3.808699441623531e+000	 2.132268227285883e-001
1	 3.139390330192968e+000	 3.506686317567826e+000	-1.359787956090125e-001
1	 3.100499960856846e+000	 3.541118443579816e+000	-1.081678702245886e-001
1	 3.061246388803097e+000	 3.575106929302157e+000	-7.606197960638084e-002
1	 3.021637218834404e+000	 3.608646095740469e+000	-4.093923922593405e-002
1	 2.981680172573729e+000	 3.641730437712096e+000	-4.064133492678735e-003
1	 2.941383083499637e+000	 3.674354626796148e+000	 3.331455923767419e-002
1	 2.900753891894165e+000	 3.706513514113686e+000	 6.996580482812834e-002
1	 2.859800639710027e+000	 3.738202132935184e+000	 1.046783106100338e-001
1	 2.818531465364027e+000	 3.769415701112596e+000	 1.362624777538451e-001
1	 2.776954598463622e+000	 3.800149623333742e+000	 1.635523049340014e-001
1	 2.735078354473680e+000	 3.830399493196998e+000	 1.854072396081554e-001
1	 3.157175703613221e+000	 3.526552507836178e+000	-1.256948636804141e-001
1	 3.118065011326384e+000	 3.561179699818027e+000	-1.018881475088170e-001
1	 3.078589058694385e+000	 3.595360738185272e+000	-7.376594843912467e-002
1	 3.038755493602876e+000	 3.629089911770705e+000	-4.258243274368451e-002
1	 2.998572081419611e+000	 3.662361684203525e+000	-9.578708944727902e-003
1	 2.958046700001627e+000	 3.695170696876085e+000	 2.401922918946689e-002
1	 2.917187334614500e+000	 3.727511771739845e+000	 5.700252388823343e-002
1	 2.876002072770478e+000	 3.759379913927594e+000	 8.818143479511063e-002
1	 2.834499098992381e+000	 3.790770314199297e+000	 1.163872766129252e-001
1	 2.792686689510306e+000	 3.821678351209255e+000	 1.404743091666457e-001
1	 2.750573206898158e+000	 3.852099593592544e+000	 1.593215762176612e-001
1	 2.595625786582433e+000	 3.635100135678463e+000	 5.105443639562918e-001
1	 2.555608527434690e+000	 3.663344291249593e+000	 5.624747694934259e-001
1	 2.515323157233419e+000	 3.691121249848880e+000	 6.095041804362639e-001
1	 2.474777776093069e+000	 3.718427371378763e+000	 6.512000438652443e-001
1	 2.433980545103553e+000	 3.745259201099026e+000	 6.871627574988752e-001
1	 2.392939681090943e+000	 3.771613470733660e+000	 7.170261674543773e-001
1	 2.351663451361818e+000	 3.797487099402197e+000	 7.404580035504955e-001
1	 2.310160168438054e+000	 3.822877194375687e+000	 7.571602518075605e-001
1	 2.268438184788723e+000	 3.847781051657798e+000	 7.668694639602176e-001
1	 2.226505887565815e+000	 3.872196156391829e+000	 7.693570039573311e-001
1	 2.184371693350319e+000	 3.896120183094671e+000	 7.644292315807728e-001
1	 2.611120464702003e+000	 3.656799991960951e+000	 4.651001995417467e-001
1	 2.570864321138576e+000	 3.685212751997569e+000	 5.120156872711892e-001
1	 2.530338466023376e+000	 3.713155526113802e+000	 5.536357239128359e-001
1	 2.489551047824762e+000	 3.740624652482407e+000	 5.896550605936050e-001
1	 2.448510276350555e+000	 3.767616655739987e+000	 6.198032012152240e-001
1	 2.407224417477455e+000	 3.794128248100461e+000	 6.438446676387600e-001
1	 2.365701787864013e+000	 3.820156330291954e+000	 6.615792015324161e-001
1	 2.323950749653989e+000	 3.845697992317275e+000	 6.728419030309297e-001
1	 2.281979705176810e+000	 3.870750514038510e+000	 6.775033065109541e-001
1	 2.239797091651857e+000	 3.895311365586440e+000	 6.754693939401893e-001
1	 2.197411375903191e+000	 3.919378207595922e+000	 6.666815464081768e-001
1	 2.626615146695152e+000	 3.678499853668705e+000	 4.222472051156485e-001
1	 2.586120118656368e+000	 3.707081218212970e+000	 4.644157770731487e-001
1	 2.545353778567168e+000	 3.735189807887587e+000	 5.010045696205701e-001
1	 2.504324323249834e+000	 3.762821939135639e+000	 5.318262718248075e-001
1	 2.463040011230107e+000	 3.789974115970545e+000	 5.567294140298031e-001
1	 2.421509157435315e+000	 3.816643031096151e+000	 5.755984216050580e-001
1	 2.379740127875997e+000	 3.842825566849163e+000	 5.883536055249866e-001
1	 2.337741334317804e+000	 3.868518795964159e+000	 5.949510903652256e-001
1	 2.295521228950525e+000	 3.893719982161630e+000	 5.953826804520001e-001
1	 2.253088299060944e+000	 3.918426580559851e+000	 5.896756650465732e-001
1	 2.210451061716201e+000	 3.942636237911626e+000	 5.778925635883963e-001
1	 2.642109836435286e+000	 3.700199726226330e+000	 3.818692675911986e-001
1	 2.601375923801742e+000	 3.728949695362553e+000	 4.195536351599573e-001
1	 2.560369098618346e+000	 3.757224100678466e+000	 4.514746006866622e-001
1	 2.519097606061323e+000	 3.785019236887461e+000	 4.775535895348414e-001
1	 2.477569753374350e+000	 3.812331587379766e+000	 4.977482512622523e-001
1	 2.435793904535414e+000	 3.839157825349139e+000	 5.120523228511010e-001
1	 2.393778474907056e+000	 3.865494814740869e+000	 5.204954299741390e-001
1	 2.351531925876844e+000	 3.891339611021289e+000	 5.231428272657424e-001
1	 2.309062759494951e+000	 3.916689461769292e+000	 5.200950787088529e-001
1	 2.266379513115586e+000	 3.941541807090635e+000	 5.114876793857200e-001
1	 2.223490754048992e+000	 3.965894279856078e+000	 4.974906199716628e-001
1	 2.657604537795815e+000	 3.721899615058424e+000	 3.438529834509152e-001
1	 2.616631740388380e+000	 3.750818188913088e+000	 3.773106906508710e-001
1	 2.575384429930460e+000	 3.779258409994674e+000	 4.049128760106786e-001
1	 2.533870899952260e+000	 3.807216551286875e+000	 4.266806601840429e-001
1	 2.492099506415425e+000	 3.834689075556711e+000	 4.426710732137763e-001
1	 2.450078662348638e+000	 3.861672636487839e+000	 4.529767479442001e-001
1	 2.407816832466474e+000	 3.888164079634114e+000	 4.577255537032867e-001
1	 2.365322527778456e+000	 3.914160443193614e+000	 4.570801715520940e-001
1	 2.322604300195172e+000	 3.939658958603628e+000	 4.512376125309734e-001
1	 2.279670737138295e+000	 3.964657050957376e+000	 4.404286804582488e-001
1	 2.236530456161203e+000	 3.989152339243565e+000	 4.249173809569645e-001
1	 2.673099254650146e+000	 3.743599525589590e+000	 3.080875802139169e-001
1	 2.631887572229961e+000	 3.772686704331335e+000	 3.375711234110375e-001
1	 2.590399776257064e+000	 3.801292741344445e+000	 3.611895382030778e-001
1	 2.548644208615680e+000	 3.829413887882882e+000	 3.790547564492663e-001
1	 2.506629273985478e+000	 3.857046586090442e+000	 3.913136145520339e-001
1	 2.464363434445877e+000	 3.884187470140660e+000	 3.981473975398647e-001
1	 2.421855204063538e+000	 3.910833367195940e+000	 3.997713266740235e-001
1	 2.379113143469984e+000	 3.936981298186089e+000	 3.964339921511583e-001
1	 2.336145854436271e+000	 3.962628478406766e+000	 3.884167325940280e-001
1	 2.292961974451582e+000	 3.987772317938653e+000	 3.760329631363654e-001
1	 2.249570171312477e+000	 4.012410421888376e+000	 3.596274540147866e-001
1	 2.688593990871690e+000	 3.765299463244428e+000	 2.744648406218154e-001
1	 2.647143423140168e+000	 3.794555247084063e+000	 3.002217847813653e-001
1	 2.605415141351708e+000	 3.823327100236014e+000	 3.201777247106895e-001
1	 2.563417535744618e+000	 3.851611252224485e+000	 3.345266727040313e-001
1	 2.521159059716648e+000	 3.879404124570021e+000	 3.434958582176509e-001
1	 2.478648224398018e+000	 3.906702331936015e+000	 3.473451429040917e-001
1	 2.435893593207532e+000	 3.933502683093391e+000	 3.463663834363315e-001
1	 2.392903776398776e+000	 3.959802181703660e+000	 3.408827439148126e-001
1	 2.349687425603333e+000	 3.985598026920839e+000	 3.312479597569755e-001
1	 2.306253228377954e+000	 4.010887613813039e+000	 3.178455550686059e-001
1	 2.262609902762454e+000	 4.035668533604806e+000	 3.010880155888295e-001
1	 2.704088750333855e+000	 3.786999433447542e+000	 2.428790294340685e-001
1	 2.662399296932676e+000	 3.816423822638034e+000	 2.651521210367632e-001
1	 2.620430528967939e+000	 3.845361492177609e+000	 2.817534820011636e-001
1	 2.578190885032107e+000	 3.873808649860682e+000	 2.929506240961327e-001
1	 2.535688867241081e+000	 3.901761696584513e+000	 2.990419136707382e-001
1	 2.492933035775950e+000	 3.929217227502316e+000	 3.003558777182238e-001
1	 2.449932003407742e+000	 3.956172032993508e+000	 2.972504629996768e-001
1	 2.406694430012176e+000	 3.982623099451280e+000	 2.901122501882785e-001
1	 2.363229017081439e+000	 4.008567609887977e+000	 2.793556250862184e-001
1	 2.319544502239928e+000	 4.034002944359120e+000	 2.654219090503762e-001
1	 2.275649653770777e+000	 4.058926680207140e+000	 2.487784508394479e-001
1	 2.719583536910048e+000	 3.808699441623531e+000	 2.132268227285883e-001
1	 2.677655197421170e+000	 3.838292436460014e+000	 2.322540994638831e-001
1	 2.635445942859313e+000	 3.867395922677467e+000	 2.457956826842670e-001
1	 2.592964260171184e+000	 3.896006086340477e+000	 2.541841490791221e-001
1	 2.550218700190915e+000	 3.924119307722978e+000	 2.577798993041774e-001
1	 2.507217872150561e+000	 3.951732162467970e+000	 2.569703749554669e-001
1	 2.463970438173452e+000	 3.978841422563334e+000	 2.521692348686166e-001
1	 2.420485107757531e+000	 4.005444057133899e+000	 2.438154928195840e-001
1	 2.376770632255675e+000	 4.031537233050311e+000	 2.323726187769285e-001
1	 2.332835799360011e+000	 4.057118315355471e+000	 2.183276059224421e-001
1	 2.288689427597086e+000	 4.082184867509672e+000	 2.021900057161247e-001
1	 2.735078354473680e+000	 3.830399493196998e+000	 1.854072396081554e-001
1	 2.692911128419328e+000	 3.860161094016767e+000	 2.014221369543027e-001
1	 2.650461386779380e+000	 3.889430397243821e+000	 2.121859454534323e-001
1	 2.607737664854879e+000	 3.918203567212871e+000	 2.180880152604949e-001
1	 2.564748562198296e+000	 3.946476963574480e+000	 2.195418288582119e-001
1	 2.521502737092740e+000	 3.974247142461395e+000	 2.169841486277161e-001
1	 2.478008901013948e+000	 4.001510857469911e+000	 2.108741309982129e-001
1	 2.434275813082186e+000	 4.028265060456468e+000	 2.016924093147530e-001
1	 2.390312274511121e+000	 4.054506902149972e+000	 1.899401476182269e-001
1	 2.346127123060713e+000	 4.080233732580672e+000	 1.761380675794230e-001
1	 2.301729227501026e+000	 4.105443101326692e+000	 1.608254508694601e-001
1	 2.750573206898158e+000	 3.852099593592544e+000	 1.593215762176612e-001
1	 2.708167093740830e+000	 3.882029800775059e+000	 1.725530310139094e-001
1	 2.665476864481691e+000	 3.911464921384907e+000	 1.808085577362244e-001
1	 2.622511102776230e+000	 3.940401098026868e+000	 1.845261284356791e-001
1	 2.579278456895366e+000	 3.968834669728083e+000	 1.841635016784125e-001
1	 2.535787634173377e+000	 3.996762173110999e+000	 1.801973202104297e-001
1	 2.492047395438517e+000	 4.024180343380285e+000	 1.731221834355234e-001
1	 2.448066549433489e+000	 4.051086115123940e+000	 1.634496968566138e-001
1	 2.403853947232864e+000	 4.077476622929091e+000	 1.517075006649913e-001
1	 2.359418476664550e+000	 4.103349201813303e+000	 1.384382796891733e-001
1	 2.314769056742236e+000	 4.128701387472491e+000	 1.241987569353494e-001
1	 2.184371693350319e+000	 3.896120183094671e+000	 7.644292315807728e-001
1	 2.142050406224803e+000	 3.919547518884829e+000	 7.551434035569856e-001
1	 2.099544179197507e+000	 3.942479845858591e+000	 7.441959529514556e-001
1	 2.056861484259474e+000	 3.964915410292883e+000	 7.309025572793403e-001
1	 2.014010801950552e+000	 3.986852646976335e+000	 7.146067120752750e-001
1	 1.971000616255271e+000	 4.008290178599602e+000	 6.946805913253406e-001
1	 1.927839409546484e+000	 4.029226814984732e+000	 6.705258459299820e-001
1	 1.884535657582464e+000	 4.049661552156452e+000	 6.415743394374230e-001
1	 1.841097824563030e+000	 4.069593571258429e+000	 6.072888204545776e-001
1	 1.797534358250065e+000	 4.089022237317836e+000	 5.671635313090810e-001
1	 1.753853685157622e+000	 4.107947097861665e+000	 5.207247527006770e-001
1	 2.197411375903191e+000	 3.919378207595922e+000	 6.666815464081766e-001
1	 2.154837450386865e+000	 3.942945393679175e+000	 6.542342917969932e-001
1	 2.112077480963578e+000	 3.966014615973811e+000	 6.408455351953639e-001
1	 2.069139990198221e+000	 3.988584110287832e+000	 6.259357885260656e-001
1	 2.026033509255522e+000	 4.010652302066275e+000	 6.089423894284920e-001
1	 1.982766572765459e+000	 4.032217805777887e+000	 5.893203377806722e-001
1	 1.939347713736705e+000	 4.053279424139899e+000	 5.665430897799332e-001
1	 1.895785458523871e+000	 4.073836147183757e+000	 5.401033085446091e-001
1	 1.852088321854113e+000	 4.093887151164926e+000	 5.095135703241271e-001
1	 1.808264801918528e+000	 4.113431797320074e+000	 4.743070255300216e-001
1	 1.764323375533540e+000	 4.132469630475131e+000	 4.340380139258824e-001
1	 2.210451061716201e+000	 3.942636237911626e+000	 5.778925635883966e-001
1	 2.167624497745855e+000	 3.966343274322894e+000	 5.630883183029959e-001
1	 2.124610785863071e+000	 3.989549391972592e+000	 5.479253716544497e-001
1	 2.081418499206607e+000	 4.012252816199792e+000	 5.319155084031965e-001
1	 2.038056219566090e+000	 4.034451963105934e+000	 5.145780041017439e-001
1	 1.994532532216958e+000	 4.056145438937855e+000	 4.954404367414258e-001
1	 1.950856020803727e+000	 4.077332039307960e+000	 4.740394726301949e-001
1	 1.907035262277360e+000	 4.098010748254415e+000	 4.499216252367533e-001
1	 1.863078821892374e+000	 4.118180737144485e+000	 4.226439858242549e-001
1	 1.818995248269089e+000	 4.137841363424329e+000	 3.917749247869644e-001
1	 1.774793068526321e+000	 4.156992169218810e+000	 3.568947626945934e-001
1	 2.223490754048992e+000	 3.965894279856078e+000	 4.974906199716628e-001
1	 2.180411551498271e+000	 3.989741166665249e+000	 4.810564790994363e-001
1	 2.137144097029070e+000	 4.013084179738415e+000	 4.647293381111382e-001
1	 2.093697014354038e+000	 4.035921533945723e+000	 4.480988738969416e-001
1	 2.050078935887736e+000	 4.058251636045005e+000	 4.307545565950792e-001
1	 2.006298497551088e+000	 4.080073084061181e+000	 4.122864354293704e-001
1	 1.962364333624481e+000	 4.101384666501830e+000	 3.922859126212808e-001
1	 1.918285071655266e+000	 4.122185361411838e+000	 3.703465039339324e-001
1	 1.874069327425340e+000	 4.142474335270259e+000	 3.460645844626764e-001
1	 1.829725699984286e+000	 4.162250941732745e+000	 3.190401183473447e-001
1	 1.785262766753336e+000	 4.181514720223090e+000	 2.888773711443359e-001
1	 2.236530456161203e+000	 3.989152339243565e+000	 4.249173809569645e-001
1	 2.193198614840611e+000	 4.013139076555489e+000	 4.075049016885617e-001
1	 2.149677417594655e+000	 4.036618985154762e+000	 3.905677732057407e-001
1	 2.105975538709923e+000	 4.059590269442583e+000	 3.737603604816659e-001
1	 2.062101661225939e+000	 4.082051326833177e+000	 3.567307420404544e-001
1	 2.018064471709168e+000	 4.104000747129544e+000	 3.391214690822246e-001
1	 1.973872655075903e+000	 4.125437311734431e+000	 3.205703237228783e-001
1	 1.929534889469919e+000	 4.146359992699434e+000	 3.007110747769372e-001
1	 1.885059841200544e+000	 4.166767951615396e+000	 2.791742295443654e-001
1	 1.840456159746657e+000	 4.186660538347462e+000	 2.555877800987038e-001
1	 1.795732472831950e+000	 4.206037289618354e+000	 2.295779426141490e-001
1	 2.249570171312477e+000	 4.012410421888376e+000	 3.596274540147866e-001
1	 2.205985690969373e+000	 4.036537009842877e+000	 3.418144062964965e-001
1	 2.162210750692910e+000	 4.060153814105111e+000	 3.247670010739516e-001
1	 2.118254075343664e+000	 4.083259028607333e+000	 3.081912599391780e-001
1	 2.074124398586184e+000	 4.105851041420147e+000	 2.917824371019917e-001
1	 2.029830457632516e+000	 4.127928434124628e+000	 2.752257509293360e-001
1	 1.985380988034921e+000	 4.149489981018679e+000	 2.581971228611950e-001
1	 1.940784718533653e+000	 4.170534648160611e+000	 2.403639220508851e-001
1	 1.896050365965514e+000	 4.191061592253049e+000	 2.213857140911539e-001
1	 1.851186630238740e+000	 4.211070159370624e+000	 2.009150122058557e-001
1	 1.806202189379531e+000	 4.230559883534988e+000	 1.785980293095607e-001
1	 2.262609902762454e+000	 4.035668533604806e+000	 3.010880155888295e-001
1	 2.218772783081055e+000	 4.059934972376666e+000	 2.833800823079881e-001
1	 2.174744099456915e+000	 4.083688672472943e+000	 2.666688705095557e-001
1	 2.130532627324668e+000	 4.106927817356930e+000	 2.506991955624109e-001
1	 2.086147150973949e+000	 4.129650785755607e+000	 2.352022046386462e-001
1	 2.041596458262454e+000	 4.151856151028106e+000	 2.198960798232656e-001
1	 1.996889335378473e+000	 4.173542680367493e+000	 2.044867541084371e-001
1	 1.952034561658799e+000	 4.194709333838777e+000	 1.886686385875692e-001
1	 1.907040904467783e+000	 4.215355263256366e+000	 1.721253591651415e-001
1	 1.861917114143072e+000	 4.235479810904370e+000	 1.545305011038898e-001
1	 1.816671919013446e+000	 4.255082508103376e+000	 1.355483597414036e-001
1	 2.275649653770777e+000	 4.058926680207140e+000	 2.487784508394479e-001
1	 2.231559894372153e+000	 4.083332970006111e+000	 2.316108792799027e-001
1	 2.187277467019754e+000	 4.107223566141736e+000	 2.156303099887725e-001
1	 2.142811197722343e+000	 4.130596641608336e+000	 2.006076540453850e-001
1	 2.098169921394717e+000	 4.153450565789250e+000	 1.862988154159444e-001
1	 2.053362476540301e+000	 4.175783903821666e+000	 1.724453648183071e-001
1	 2.008397699983487e+000	 4.197595415793795e+000	 1.587752292493005e-001
1	 1.963284421657691e+000	 4.218884055777343e+000	 1.450033955049509e-001
1	 1.918031459454879e+000	 4.239648970698496e+000	 1.308326260174875e-001
1	 1.872647614142193e+000	 4.259889499050847e+000	 1.159541853315942e-001
1	 1.827141664351063e+000	 4.279605169453904e+000	 1.000485755459836e-001
1	 2.288689427597086e+000	 4.082184867509672e+000	 2.021900057161247e-001
1	 2.244347028039166e+000	 4.106731008580471e+000	 1.859292119514212e-001
1	 2.199810856514507e+000	 4.130758500994972e+000	 1.710228979229486e-001
1	 2.155089789606092e+000	 4.154265507278510e+000	 1.572555333932375e-001
1	 2.110192712853969e+000	 4.177250387470769e+000	 1.443967861861218e-001
1	 2.065128515407376e+000	 4.199711698486983e+000	 1.322021660192632e-001
1	 2.019906084726899e+000	 4.221648193310500e+000	 1.204136840705993e-001
1	 1.974534301342661e+000	 4.243058820019718e+000	 1.087605266713846e-001
1	 1.929022033674333e+000	 4.263942720652591e+000	 9.695974151059408e-002
1	 1.883378132918639e+000	 4.284299229912193e+000	 8.471693473261541e-002
1	 1.837611428009748e+000	 4.304127873716954e+000	 7.172697731204203e-002
1	 2.301729227501026e+000	 4.105443101326692e+000	 1.608254508694601e-001
1	 2.257134187278591e+000	 4.130129093949001e+000	 1.457705786952521e-001
1	 2.212344271074256e+000	 4.154293482916130e+000	 1.322324475350052e-001
1	 2.167368406045321e+000	 4.177934420284410e+000	 1.199967062163191e-001
1	 2.122215528357185e+000	 4.201050256749856e+000	 1.088359334868450e-001
1	 2.076894577804999e+000	 4.223639541005737e+000	 9.851025105460230e-002
1	 2.031414492485641e+000	 4.245701018930528e+000	 8.876794974982033e-002
1	 1.985784203526040e+000	 4.267233632609310e+000	 7.934612731003327e-002
1	 1.940012629873676e+000	 4.288236519191803e+000	 6.997133628673775e-002
1	 1.894108673154950e+000	 4.308709009590554e+000	 6.036024057301027e-002
1	 1.848081212606869e+000	 4.328650627022916e+000	 5.022027905692957e-002
1	 2.314769056742236e+000	 4.128701387472491e+000	 1.241987569353494e-001
1	 2.269921375286927e+000	 4.153527231960959e+000	 1.105831928792526e-001
1	 2.224877713832085e+000	 4.177828517788692e+000	 9.865860578238461e-002
1	 2.179647050109438e+000	 4.201603386542996e+000	 8.819959780105048e-002
1	 2.134238370909848e+000	 4.224850179576209e+000	 7.897094253796513e-002
1	 2.088660666674489e+000	 4.247567437359611e+000	 7.072816655717303e-002
1	 2.042922926136646e+000	 4.269753898666801e+000	 6.321813874656306e-002
1	 1.997034131020162e+000	 4.291408499589529e+000	 5.617966618527163e-002
1	 1.951003250800438e+000	 4.312530372389278e+000	 4.934409517994332e-002
1	 1.904839237533663e+000	 4.333118844188068e+000	 4.243591614428053e-002
1	 1.858551020759794e+000	 4.353173435502171e+000	 3.517337101057588e-002
1	 1.753853685157622e+000	 4.107947097861665e+000	 5.207247527006766e-001
1	 1.710057629351524e+000	 4.126370607494756e+000	 4.671242868321333e-001
1	 1.666161110416385e+000	 4.144289799846914e+000	 4.067714652175176e-001
1	 1.622172468799514e+000	 4.161704763504537e+000	 3.410617368764595e-001
1	 1.578100005132252e+000	 4.178615762716244e+000	 2.713637781294617e-001
1	 1.533951975835255e+000	 4.195023235321111e+000	 1.990178586696255e-001
1	 1.489736588820484e+000	 4.210927790553209e+000	 1.253342844106585e-001
1	 1.445461999293614e+000	 4.226330206727043e+000	 5.159191866173944e-002
1	 1.401136305660350e+000	 4.241231428808610e+000	-2.096321704053215e-002
1	 1.356767545539909e+000	 4.255632565876874e+000	-9.111926133175273e-002
1	 1.312363691888676e+000	 4.269534888480566e+000	-1.576997497563415e-001
1	 1.764323375533540e+000	 4.132469630475131e+000	 4.340380139258824e-001
1	 1.720265877653797e+000	 4.151003119887775e+000	 3.876284694915981e-001
1	 1.676107316926896e+000	 4.169029281479971e+000	 3.351420567096841e-001
1	 1.631856083588732e+000	 4.186548204366939e+000	 2.778288973419602e-001
1	 1.587520527821553e+000	 4.203560154374750e+000	 2.169195311216193e-001
1	 1.543108955333008e+000	 4.220065571956186e+000	 1.536233647547612e-001
1	 1.498629623032470e+000	 4.236065069982164e+000	 8.912718382107274e-002
1	 1.454090734808400e+000	 4.251559431413378e+000	 2.459372926718956e-002
1	 1.409500437410214e+000	 4.266549606856837e+000	-3.883966000409859e-002
1	 1.364866816437977e+000	 4.281036712012199e+000	-1.000623371361133e-001
1	 1.320197892442914e+000	 4.295022025012785e+000	-1.579915687887065e-001
1	 1.774793068526321e+000	 4.156992169218810e+000	 3.568947626945935e-001
1	 1.730474128507555e+000	 4.175635638438452e+000	 3.167943375103495e-001
1	 1.686053525923382e+000	 4.193768769297368e+000	 2.712990775984209e-001
1	 1.641539700798301e+000	 4.211391651439615e+000	 2.215244955292980e-001
1	 1.596941052865475e+000	 4.228504552268712e+000	 1.685723946348817e-001
1	 1.552265937119550e+000	 4.245107914851144e+000	 1.135294095679474e-001
1	 1.507522659467327e+000	 4.261202355694691e+000	 5.746559796435487e-002
1	 1.462719472480057e+000	 4.276788662406223e+000	 1.433084981776793e-003
1	 1.417864571250882e+000	 4.291867791233776e+000	-5.353523767553877e-002
1	 1.372966089360723e+000	 4.306440864497702e+000	-1.064269568013972e-001
1	 1.328032094955653e+000	 4.320509167915921e+000	-1.562513255222059e-001
1	 1.785262766753336e+000	 4.181514720223090e+000	 2.888773711443359e-001
1	 1.740682384464818e+000	 4.200268169304669e+000	 2.543161840636604e-001
1	 1.695999739892365e+000	 4.218508269483743e+000	 2.150323709826899e-001
1	 1.651223322849097e+000	 4.236235110933195e+000	 1.720174428327510e-001
1	 1.606361582619119e+000	 4.253448962634002e+000	 1.262537721293660e-001
1	 1.561422923484098e+000	 4.270150270266356e+000	 7.871323360666982e-002
1	 1.516415700348281e+000	 4.286339653974895e+000	 3.035588622013283e-002
1	 1.471348214465735e+000	 4.302017906012684e+000	-1.787130169080379e-002
1	 1.426228709273348e+000	 4.317185988268775e+000	-6.503568243007525e-002
1	 1.381065366332916e+000	 4.331845029684224e+000	-1.102201126549180e-001
1	 1.335866301385387e+000	 4.345996323561552e+000	-1.525240894045734e-001
1	 1.795732472831950e+000	 4.206037289618354e+000	 2.295779426141490e-001
1	 1.750890648077604e+000	 4.224900718644310e+000	 1.998954233422075e-001
1	 1.705945961320361e+000	 4.243247788223719e+000	 1.661366726680492e-001
1	 1.660906952161998e+000	 4.261078589058305e+000	 1.291796994875362e-001
1	 1.615782119437594e+000	 4.278393391706492e+000	 8.989665868013180e-002
1	 1.570579916715873e+000	 4.295192644462189e+000	 4.915260022680396e-002
1	 1.525308747898565e+000	 4.311476971106893e+000	 7.804252005345863e-003
1	 1.479976962922586e+000	 4.327247168539862e+000	-3.330116198940145e-002
1	 1.434592853568603e+000	 4.342504204291177e+000	-7.332706637486092e-002
1	 1.389164649379327e+000	 4.357249213922600e+000	-1.114486405577593e-001
1	 1.343700513690607e+000	 4.371483498321261e+000	-1.468538849821032e-001
1	 1.806202189379531e+000	 4.230559883534988e+000	 1.785980293095607e-001
1	 1.761098921897934e+000	 4.249533292615256e+000	 1.532403838735207e-001
1	 1.715892192693890e+000	 4.267987331701934e+000	 1.244114690794109e-001
1	 1.670590591157879e+000	 4.285922092025571e+000	 9.288618593395304e-002
1	 1.625202665676004e+000	 4.303337845722058e+000	 5.943559458876363e-002
1	 1.579736919104094e+000	 4.320235043699012e+000	 2.482578024436808e-002
1	 1.534201804341407e+000	 4.336614313374795e+000	-1.018325293386032e-002
1	 1.488605720007758e+000	 4.352476456294862e+000	-4.483865824565206e-002
1	 1.442957006227640e+000	 4.367822445630329e+000	-7.839579169544379e-002
1	 1.397263940524723e+000	 4.382653423563673e+000	-1.101192246131735e-001
1	 1.351534733829807e+000	 4.396970698566631e+000	-1.392837223371927e-001
1	 1.816671919013446e+000	 4.255082508103376e+000	 1.355483597414037e-001
1	 1.771307208477830e+000	 4.274165897375390e+000	 1.140661089982215e-001
1	 1.725838436499470e+000	 4.292726906103013e+000	 8.966086009259801e-002
1	 1.680274242257617e+000	 4.310765626045626e+000	 6.301469724993423e-002
1	 1.634623223689456e+000	 4.328282330916574e+000	 3.480662060084801e-002
1	 1.588893932937980e+000	 4.345277474237194e+000	 5.711537070327464e-003
1	 1.543094871900039e+000	 4.361751687062710e+000	-2.360072437880385e-002
1	 1.497234487878402e+000	 4.377705775584788e+000	-5.246637167207858e-002
1	 1.451321169341452e+000	 4.393140718615578e+000	-8.022858133637645e-002
1	 1.405363241793874e+000	 4.408057664958274e+000	-1.062384017119552e-001
1	 1.359368963761479e+000	 4.422457930669241e+000	-1.298556264721429e-001
1	 1.827141664351063e+000	 4.279605169453904e+000	 1.000485755459836e-001
1	 1.781515510369310e+000	 4.298798539082597e+000	 8.209416421371310e-002
1	 1.735784695223622e+000	 4.317466517611590e+000	 6.169342658710729e-002
1	 1.689957907882089e+000	 4.335609197329096e+000	 3.944582052878717e-002
1	 1.644043795833055e+000	 4.353226853525915e+000	 1.594723466485255e-002
1	 1.598050960506749e+000	 4.370319942337101e+000	-8.210887642896621e-003
1	 1.551987952797689e+000	 4.386889098454755e+000	-3.244240163751654e-002
1	 1.505863268691669e+000	 4.402935132716745e+000	-5.616729057049615e-002
1	 1.459685345001030e+000	 4.418459029576267e+000	-7.881247000257520e-002
1	 1.413462555211549e+000	 4.433461944457243e+000	-9.981256592135027e-002
1	 1.367203205444115e+000	 4.447945201000673e+000	-1.186106656816026e-001
1	 1.837611428009748e+000	 4.304127873716954e+000	 7.172697731204203e-002
1	 1.791723830124394e+000	 4.323431223894759e+000	 5.705245111115558e-002
1	 1.745730971352862e+000	 4.342206172412294e+000	 4.032210253167631e-002
1	 1.699641590452171e+000	 4.360452812086607e+000	 2.206285508453424e-002
1	 1.653464384461906e+000	 4.378171419785954e+000	 2.796350170880847e-003
1	 1.607208004099624e+000	 4.395362454259105e+000	-1.696178786367332e-002
1	 1.560881049257587e+000	 4.412026553835040e+000	-3.670266368085572e-002
1	 1.514492064604708e+000	 4.428164533997836e+000	-5.592479894392374e-002
1	 1.468049535297369e+000	 4.443777384841744e+000	-7.413479546858749e-002
1	 1.421561882802517e+000	 4.458866268411420e+000	-9.084797272371922e-002
1	 1.375037460836209e+000	 4.473432515932509e+000	-1.055889789539827e-001
1	 1.848081212606869e+000	 4.328650627022916e+000	 5.022027905692953e-002
1	 1.801932170295104e+000	 4.348063957969758e+000	 3.867502764397202e-002
1	 1.755677267373712e+000	 4.366945876689758e+000	 2.536405142261412e-002
1	 1.709325292388740e+000	 4.385296476528788e+000	 1.075173537261323e-002
1	 1.662884991931116e+000	 4.403116035932563e+000	-4.705744389461674e-003
1	 1.616365066005822e+000	 4.420405016263575e+000	-2.056100657166778e-002
1	 1.569774163502965e+000	 4.437164059487676e+000	-3.637602541009644e-002
1	 1.523120877774671e+000	 4.453393985735167e+000	-5.172266549598577e-002
1	 1.476413742321459e+000	 4.469095790741354e+000	-6.618319018358564e-002
1	 1.429661226591549e+000	 4.484270643171642e+000	-7.935074311095024e-002
1	 1.382871731896253e+000	 4.498919881836328e+000	-9.082980244040710e-002
1	 1.858551020759794e+000	 4.353173435502171e+000	 3.517337101057588e-002
1	 1.812140533433458e+000	 4.372696747465477e+000	 2.670193447793082e-002
1	 1.765623585772689e+000	 4.391685636628613e+000	 1.664054690312418e-002
1	 1.719009016112671e+000	 4.410140196866270e+000	 5.400956518716313e-003
1	 1.672305620595791e+000	 4.428060708201621e+000	-6.617424398175632e-003
1	 1.625522148514562e+000	 4.445447634610877e+000	-1.902794869520262e-002
1	 1.578667297757052e+000	 4.462301621696777e+000	-3.145713405075599e-002
1	 1.531749710358706e+000	 4.478623494235841e+000	-4.354503300250707e-002
1	 1.484777968164294e+000	 4.494414253604442e+000	-5.494557316037271e-002
1	 1.437760588603412e+000	 4.509675075088746e+000	-6.532686754028928e-002
1	 1.390706020582741e+000	 4.524407305083716e+000	-7.437149502801643e-002
1	 1.312363691888676e+000	 4.269534888480566e+000	-1.576997497563415e-001
1	 1.267932648602657e+000	 4.282939824829096e+000	-2.204487455636693e-001
1	 1.223482245031363e+000	 4.295848954764352e+000	-2.788511491075445e-001
1	 1.179020234462681e+000	 4.308264010049258e+000	-3.313840050571495e-001
1	 1.134554291362543e+000	 4.320186872431324e+000	-3.765459111345830e-001
1	 1.090092008085801e+000	 4.331619570558885e+000	-4.128588894387438e-001
1	 1.045640891710206e+000	 4.342564276822999e+000	-4.388701819114509e-001
1	 1.001208360994867e+000	 4.353023304130099e+000	-4.531539682468250e-001
1	 9.568017434643769e-001	 4.362999102610631e+000	-4.543130047681236e-001
1	 9.124282726195250e-001	 4.372494256268735e+000	-4.409801830176378e-001
1	 8.680950852753391e-001	 4.381511479578151e+000	-4.118200070234260e-001
1	 1.320197892442914e+000	 4.295022025012785e+000	-1.579915687887065e-001
1	 1.275501616503612e+000	 4.308506982593760e+000	-2.123143462385479e-001
1	 1.230785864707158e+000	 4.321493174027922e+000	-2.624079917000563e-001
1	 1.186058436624959e+000	 4.333982341416011e+000	-3.067630512842938e-001
1	 1.141327052535938e+000	 4.345976377738679e+000	-3.438931239615624e-001
1	 1.096599350117776e+000	 4.357477323754349e+000	-3.723366978939026e-001
1	 1.051882881261982e+000	 4.368487364822227e+000	-3.906589089529098e-001
1	 1.007185109014209e+000	 4.379008827655715e+000	-3.974532198382292e-001
1	 9.625134046409606e-001	 4.389044177011387e+000	-3.913430184372550e-001
1	 9.178750448236620e-001	 4.398596012318689e+000	-3.709831342888718e-001
1	 8.732772089808063e-001	 4.407667064255488e+000	-3.350612722333228e-001
1	 1.328032094955653e+000	 4.320509167915921e+000	-1.562513255222059e-001
1	 1.283070586296851e+000	 4.334074146749346e+000	-2.026906190292129e-001
1	 1.238089486208987e+000	 4.347137399701696e+000	-2.450759239395705e-001
1	 1.193096640547000e+000	 4.359700679211523e+000	-2.819234072125859e-001
1	 1.148099815402816e+000	 4.371765889492630e+000	-3.117730755074571e-001
1	 1.103106693776948e+000	 4.383335083413516e+000	-3.331905717238902e-001
1	 1.058124872374679e+000	 4.394410459301542e+000	-3.447688930628402e-001
1	 1.013161858528212e+000	 4.404994357677095e+000	-3.451300291138381e-001
1	 9.682250672459715e-001	 4.415089257922869e+000	-3.329265186997396e-001
1	 9.233218183900274e-001	 4.424697774893605e+000	-3.068429244310691e-001
1	 8.784593339823467e-001	 4.433822655471317e+000	-2.655972241401683e-001
1	 1.335866301385387e+000	 4.345996323561552e+000	-1.525240894045734e-001
1	 1.290639559874550e+000	 4.359641323687433e+000	-1.916652719939747e-001
1	 1.245393111362680e+000	 4.372781638196507e+000	-2.269774805125859e-001
1	 1.200134847988272e+000	 4.385419029865138e+000	-2.570144427571271e-001
1	 1.154872581656271e+000	 4.397555414140287e+000	-2.803538085069715e-001
1	 1.109614040690050e+000	 4.409192856000539e+000	-2.955989015014672e-001
1	 1.064366866608685e+000	 4.420333566741420e+000	-3.013803935527835e-001
1	 1.019138611030946e+000	 4.430979900690285e+000	-2.963578993686159e-001
1	 9.739367327072042e-001	 4.441134351855978e+000	-2.792214908802512e-001
1	 9.287685946801907e-001	 4.450799550518534e+000	-2.486931300898180e-001
1	 8.836414615753684e-001	 4.459978259764122e+000	-2.035280196651067e-001
1	 1.343700513690607e+000	 4.371483498321261e+000	-1.468538849821032e-001
1	 1.298208539128881e+000	 4.385208519799600e+000	-1.793239734302672e-001
1	 1.252696741994064e+000	 4.398425895923181e+000	-2.082323436090737e-001
1	 1.207173060708235e+000	 4.411137399806195e+000	-2.321820488898888e-001
1	 1.161645352989398e+000	 4.423344958128768e+000	-2.497994505643617e-001
1	 1.116121392483815e+000	 4.435050647979575e+000	-2.597359205154811e-001
1	 1.070608865524384e+000	 4.446256693622319e+000	-2.606694679091963e-001
1	 1.025115368016482e+000	 4.456965463191335e+000	-2.513062885257111e-001
1	 9.796484024524523e-001	 4.467179465321619e+000	-2.303822355653727e-001
1	 9.342153750557217e-001	 4.476901345718529e+000	-1.966642109769394e-001
1	 8.888235930552790e-001	 4.486133883672388e+000	-1.489514765653365e-001
1	 1.351534733829807e+000	 4.396970698566631e+000	-1.392837223371927e-001
1	 1.305777525952022e+000	 4.410775741477424e+000	-1.657504111247548e-001
1	 1.260000379928967e+000	 4.424070179292549e+000	-1.889574257051911e-001
1	 1.214211280466357e+000	 4.436855795464039e+000	-2.075687385538466e-001
1	 1.168418131095294e+000	 4.449134527905186e+000	-2.202703276822576e-001
1	 1.122628750784974e+000	 4.460908465814775e+000	-2.257718252877747e-001
1	 1.076850870682165e+000	 4.472179846424699e+000	-2.228080935676725e-001
1	 1.031092130978891e+000	 4.482951051676290e+000	-2.101407263388421e-001
1	 9.853600779095110e-001	 4.493224604830711e+000	-1.865594753122343e-001
1	 9.396621608781907e-001	 4.503003167018645e+000	-1.508836000764990e-001
1	 8.940057297174856e-001	 4.512289533734595e+000	-1.019631410473208e-001
1	 1.359368963761479e+000	 4.422457930669241e+000	-1.298556264721429e-001
1	 1.313346522236146e+000	 4.436342995112480e+000	-1.510263495522928e-001
1	 1.267304026993219e+000	 4.449714494715444e+000	-1.692669494802189e-001
1	 1.221249509022101e+000	 4.462574223268007e+000	-1.833137440836836e-001
1	 1.175190917667051e+000	 4.474924129916656e+000	-1.919230738603710e-001
1	 1.129136117220259e+000	 4.486766315970297e+000	-1.938728919180496e-001
1	 1.083092883642415e+000	 4.498103031629028e+000	-1.879642854716105e-001
1	 1.037068901412243e+000	 4.508936672641196e+000	-1.730229275373733e-001
1	 9.910717605061742e-001	 4.519269776894150e+000	-1.479004576631463e-001
1	 9.451089535091670e-001	 4.529105020943928e+000	-1.114757907281255e-001
1	 8.991878728573962e-001	 4.538445216489230e+000	-6.265635303938388e-002
1	 1.367203205444115e+000	 4.447945201000673e+000	-1.186106656816026e-001
1	 1.320915529873429e+000	 4.461910287096349e+000	-1.352316851061271e-001
1	 1.274607685012648e+000	 4.475358848602692e+000	-1.492725249828128e-001
1	 1.228287748134932e+000	 4.488292689647440e+000	-1.595531112733510e-001
1	 1.181963714397768e+000	 4.500713770610291e+000	-1.649107369218779e-001
1	 1.135643493416402e+000	 4.512624204910294e+000	-1.642015884242266e-001
1	 1.089334905965519e+000	 4.524026255715766e+000	-1.563022095846149e-001
1	 1.043045680810607e+000	 4.534922332582100e+000	-1.401109010770523e-001
1	 9.967834516702370e-001	 4.545314988022852e+000	-1.145490546145458e-001
1	 9.505557543102210e-001	 4.555206914019435e+000	-7.856242071295948e-002
1	 9.043700237704184e-001	 4.564600938474771e+000	-3.112230921769323e-002
1	 1.375037460836209e+000	 4.473432515932509e+000	-1.055889789539827e-001
1	 1.328484550756046e+000	 4.487477623820608e+000	-1.184444994379416e-001
1	 1.281911355813081e+000	 4.501003247365126e+000	-1.290832241563763e-001
1	 1.235325999564314e+000	 4.514011201031684e+000	-1.364197902243259e-001
1	 1.188736522980537e+000	 4.526503456433209e+000	-1.393828807181140e-001
1	 1.142150881000136e+000	 4.538482139098919e+000	-1.369166832381870e-001
1	 1.095576939211864e+000	 4.549949525165379e+000	-1.279822925181438e-001
1	 1.049022470668055e+000	 4.560908037995049e+000	-1.115590556518528e-001
1	 1.002495152829493e+000	 4.571360244727723e+000	-8.664585868184754e-002
1	 9.560025646429224e-001	 4.581308852770217e+000	-5.226235346198221e-002
1	 9.095521837519596e-001	 4.590756706229706e+000	-7.450123875326618e-003
1	 1.382871731896253e+000	 4.498919881836328e+000	-9.082980244040710e-002
1	 1.336053586776172e+000	 4.513045011676836e+000	-1.007411109827726e-001
1	 1.289215041220348e+000	 4.526647697413575e+000	-1.088056528284110e-001
1	 1.242364265069711e+000	 4.539729763850075e+000	-1.140437231024180e-001
1	 1.195509345108456e+000	 4.552293193832522e+000	-1.154856838553508e-001
1	 1.148658281598193e+000	 4.564340125000327e+000	-1.121733500095322e-001
1	 1.101818984941837e+000	 4.575872846458329e+000	-1.031613274286853e-001
1	 1.054999272478657e+000	 4.586893795376091e+000	-8.751830161539292e-002
1	 1.008206865411738e+000	 4.597405553519671e+000	-6.432827569531550e-002
1	 9.614493858688403e-001	 4.607410843721321e+000	-3.269175650091645e-002
1	 9.147343540974272e-001	 4.616912526292514e+000	 8.273112279939836e-003
1	 1.390706020582741e+000	 4.524407305083716e+000	-7.437149502801643e-002
1	 1.343622639825983e+000	 4.538612457056611e+000	-8.219612474046860e-002
1	 1.296518743060277e+000	 4.552292205158869e+000	-8.854402026394445e-002
1	 1.249402546410590e+000	 4.565448384531957e+000	-9.255192892512652e-002
1	 1.202282182474618e+000	 4.578082989255348e+000	-9.336203508095695e-002
1	 1.155165696837305e+000	 4.590198169078671e+000	-9.012326886309170e-002
1	 1.108061044715827e+000	 4.601796226075082e+000	-8.199257633168131e-002
1	 1.060976087736485e+000	 4.612879611221273e+000	-6.813614945363956e-002
1	 1.013918590844765e+000	 4.623450920909603e+000	-4.773061445602756e-002
1	 9.668962193495460e-001	 4.633512893397808e+000	-1.996417724081419e-002
1	 9.199165361022298e-001	 4.643068405201682e+000	 1.596227531737076e-002
1	 8.680950852753391e-001	 4.381511479578151e+000	-4.118200070234260e-001
1	 8.238158559823361e-001	 4.390052368877189e+000	-3.650296925372119e-001
1	 7.795908563484760e-001	 4.398121279226209e+000	-2.999797389292765e-001
1	 7.354269054959154e-001	 4.405721297882294e+000	-2.171483781199547e-001
1	 6.913307167858134e-001	 4.412855628386947e+000	-1.170295708388894e-001
1	 6.473088957992209e-001	 4.419527586972392e+000	-1.320535371822772e-004
1	 6.033679384448826e-001	 4.425740598943745e+000	 1.330216127086504e-001
1	 5.595142291933083e-001	 4.431498195041700e+000	 2.818959896651415e-001
1	 5.157540394362644e-001	 4.436804007790360e+000	 4.459437042042538e-001
1	 4.720935259706708e-001	 4.441661767834681e+000	 6.246063838410020e-001
1	 4.285387296057504e-001	 4.446075300271935e+000	 8.173155840888902e-001
1	 8.732772089808063e-001	 4.407667064255488e+000	-3.350612722333228e-001
1	 8.287336532936124e-001	 4.416258938689484e+000	-2.818498085725780e-001
1	 7.842446509914092e-001	 4.424376016678724e+000	-2.108840841091010e-001
1	 7.398170619033307e-001	 4.432021403909765e+000	-1.228041597751518e-001
1	 6.954576394661727e-001	 4.439198323047760e+000	-1.826588463843958e-002
1	 6.511730286932236e-001	 4.445910110121298e+000	 1.020603231705113e-001
1	 6.069697642707742e-001	 4.452160210882961e+000	 2.374906867297117e-001
1	 5.628542687816454e-001	 4.457952177150323e+000	 3.873292698502363e-001
1	 5.188328510548876e-001	 4.463289663131957e+000	 5.508691639914215e-001
1	 4.749117046406270e-001	 4.468176421743034e+000	 7.273936607894066e-001
1	 4.310969064089004e-001	 4.472616300914868e+000	 9.161774085085792e-001
1	 8.784593339823467e-001	 4.433822655471317e+000	-2.655972241401683e-001
1	 8.336514518348716e-001	 4.442465515053096e+000	-2.075445442175426e-001
1	 7.888984467982979e-001	 4.450630760694662e+000	-1.323672079297582e-001
1	 7.442072194087525e-001	 4.458321516512071e+000	-4.083450742464583e-002
1	 6.995845631786759e-001	 4.465541024294118e+000	 6.626874182656589e-002
1	 6.550371625536070e-001	 4.472292639865747e+000	 1.881436283197194e-001
1	 6.105715909973929e-001	 4.478579829427027e+000	 3.239785571935085e-001
1	 5.661943092051769e-001	 4.484406165872398e+000	 4.729506461148995e-001
1	 5.219116634433041e-001	 4.489775325094919e+000	 6.342271023025137e-001
1	 4.777298840151175e-001	 4.494691082279965e+000	 8.069665787220256e-001
1	 4.336550838514772e-001	 4.499157308192906e+000	 9.903205075950885e-001
1	 8.836414615753684e-001	 4.459978259764122e+000	-2.035280196651067e-001
1	 8.385692528354413e-001	 4.468672104519223e+000	-1.421702420268599e-001
1	 7.935522449324753e-001	 4.476885517837254e+000	-6.443030568846836e-002
1	 7.485973791096096e-001	 4.484621642263762e+000	 2.882529044597083e-002
1	 7.037114889549524e-001	 4.491883738711194e+000	 1.367151105280439e-001
1	 6.589012983463134e-001	 4.498675182800865e+000	 2.583443600778889e-001
1	 6.141734195251157e-001	 4.504999461180328e+000	 3.928064448548624e-001
1	 5.695343512988461e-001	 4.510860167820907e+000	 5.391845079595029e-001
1	 5.249904773711640e-001	 4.516261000300146e+000	 6.965529429599473e-001
1	 4.805480647986481e-001	 4.521205756073643e+000	 8.639788809577608e-001
1	 4.362132625730023e-001	 4.525698328740825e+000	 1.040523649631101e+000
1	 8.888235930552790e-001	 4.486133883672388e+000	-1.489514765653365e-001
1	 8.434870575246498e-001	 4.494878713639076e+000	-8.578192539216632e-002
1	 7.982060465572729e-001	 4.503140294669722e+000	-7.074537665870565e-003
1	 7.529875421033313e-001	 4.510921787739378e+000	 8.623844540294406e-002
1	 7.078384178266317e-001	 4.518226472884164e+000	 1.932107510938151e-001
1	 6.627654370372837e-001	 4.525057745521771e+000	 3.128837478743812e-001
1	 6.177752507543193e-001	 4.531419112747249e+000	 4.442880948049150e-001
1	 5.728743958975961e-001	 4.537314189608826e+000	 5.864453652503393e-001
1	 5.280692936081175e-001	 4.542746695368543e+000	 7.383696426315866e-001
1	 4.833662476957264e-001	 4.547720449752236e+000	 8.990690860808989e-001
1	 4.387714432129979e-001	 4.552239369193409e+000	 1.067547463999250e+000
1	 8.940057297174856e-001	 4.512289533734595e+000	-1.019631410473208e-001
1	 8.484048671318258e-001	 4.521085348963855e+000	-3.843333653699084e-002
1	 8.028598528360235e-001	 4.529395097755289e+000	 3.969897015670253e-002
1	 7.573777094873467e-001	 4.537221959513468e+000	 1.314667128967965e-001
1	 7.119653508253424e-001	 4.544569233398201e+000	 2.358900160723677e-001
1	 6.666295795924608e-001	 4.551440334623584e+000	 3.519779055896044e-001
1	 6.213770855853806e-001	 4.557838790732177e+000	 4.787299936849166e-001
1	 5.762144438363704e-001	 4.563768237849135e+000	 6.151381351661884e-001
1	 5.311481129238144e-001	 4.569232416921015e+000	 7.601880528258133e-001
1	 4.861844334108584e-001	 4.574235169943914e+000	 9.128609299079283e-001
1	 4.413296264109850e-001	 4.578780436185433e+000	 1.072134967652047e+000
1	 8.991878728573962e-001	 4.538445216489230e+000	-6.265635303938388e-002
1	 8.533226828862972e-001	 4.547292017044767e+000	-1.769731964655160e-004
1	 8.075136649320586e-001	 4.555649933657177e+000	 7.588912540477452e-002
1	 7.617678823590857e-001	 4.563522164160577e+000	 1.645704345773574e-001
1	 7.160922889827143e-001	 4.570912026838485e+000	 2.648841728997622e-001
1	 6.704937269777868e-001	 4.577822956701428e+000	 3.758379794410091e-001
1	 6.249789249186767e-001	 4.584258501739503e+000	 4.964315793805343e-001
1	 5.795544959501117e-001	 4.590222319154812e+000	 6.256584192114566e-001
1	 5.342269360879054e-001	 4.595718171578467e+000	 7.625072693550019e-001
1	 4.890026226485514e-001	 4.600749923276846e+000	 9.059637921543174e-001
1	 4.438878128064858e-001	 4.605321536351674e+000	 1.055012073356570e+000
1	 9.043700237704184e-001	 4.564600938474771e+000	-3.112230921769322e-002
1	 8.582405060173920e-001	 4.573498724433014e+000	 2.893587596542073e-002
1	 8.121674840087108e-001	 4.581904808938609e+000	 1.014948686420713e-001
1	 7.661580618159765e-001	 4.589822408255249e+000	 1.856085791522975e-001
1	 7.202192333303767e-001	 4.597254859790194e+000	 2.803214927010622e-001
1	 6.743578801592034e-001	 4.604205618350421e+000	 3.846702907789443e-001
1	 6.285807696545844e-001	 4.610678252373612e+000	 4.976854434985976e-001
1	 5.828945530737637e-001	 4.616676440138839e+000	 6.183927706946133e-001
1	 5.373057638700403e-001	 4.622203965961802e+000	 7.458149697707802e-001
1	 4.918208161133116e-001	 4.627264716379196e+000	 8.789731084157623e-001
1	 4.464460030390218e-001	 4.631862676326913e+000	 1.016888080445681e+000
1	 9.095521837519596e-001	 4.590756706229706e+000	-7.450123875326618e-003
1	 8.631583377544390e-001	 4.599705477679803e+000	 4.885509715062054e-002
1	 8.168213112293120e-001	 4.608159730162813e+000	 1.165151727247205e-001
1	 7.705482489554487e-001	 4.616122698372030e+000	 1.946387818473428e-001
1	 7.243461848999587e-001	 4.623597738838499e+000	 2.823273360526802e-001
1	 6.782220401026525e-001	 4.630588326165689e+000	 3.786764739955864e-001
1	 6.321826206934803e-001	 4.637098049238887e+000	 4.827775269144407e-001
1	 5.862346160422692e-001	 4.643130607414196e+000	 5.937189530527683e-001
1	 5.403845970398691e-001	 4.648689806691922e+000	 7.105877392511645e-001
1	 4.946390145096462e-001	 4.653779555879138e+000	 8.324707680501901e-001
1	 4.490041977481147e-001	 4.658403862745925e+000	 9.584561487742641e-001
1	 9.147343540974272e-001	 4.616912526292514e+000	 8.273112279939836e-003
1	 8.680761793267666e-001	 4.625912283336335e+000	 5.953171838578050e-002
1	 8.214751477571944e-001	 4.634414703893005e+000	 1.209490421774088e-001
1	 7.749384448749321e-001	 4.642423041085466e+000	 1.917173825236696e-001
1	 7.284731447230899e-001	 4.649940670568578e+000	 2.710242358262917e-001
1	 6.820862077740764e-001	 4.656971086742350e+000	 3.580536097409185e-001
1	 6.357844789357414e-001	 4.663517898939720e+000	 4.519873086649675e-001
1	 5.895746856905716e-001	 4.669584827593856e+000	 5.520061893856502e-001
1	 5.434634363670423e-001	 4.675175700389738e+000	 6.572913853980915e-001
1	 4.974572185420614e-001	 4.680294448404837e+000	 7.670254985202140e-001
1	 4.515623975732861e-001	 4.684945102243493e+000	 8.803937565472777e-001
1	 9.199165361022298e-001	 4.643068405201682e+000	 1.596227531737077e-002
1	 8.729940319637027e-001	 4.652119147953820e+000	 6.091787759896863e-002
1	 8.261289947556902e-001	 4.660669736692415e+000	 1.147955125906043e-001
1	 7.793286506718555e-001	 4.668723442970103e+000	 1.768994625054829e-001
1	 7.326001138313993e-001	 4.676283661565610e+000	 2.465319772295398e-001
1	 6.859503841394172e-001	 4.683353906675524e+000	 3.229943536310815e-001
1	 6.393863452817451e-001	 4.689937808080498e+000	 4.055879884501032e-001
1	 5.929147628536142e-001	 4.696039107290805e+000	 4.936154035461024e-001
1	 5.465422826212100e-001	 4.701661653676148e+000	 5.863812423831651e-001
1	 5.002754289150642e-001	 4.706809400584463e+000	 6.831932367305953e-001
1	 4.541206031540580e-001	 4.711486401454395e+000	 7.833631426562101e-001
1	 4.285387296057504e-001	 4.446075300271935e+000	 8.173155840888903e-001
1	 3.850890805500643e-001	 4.450049084339991e+000	 1.023615091946048e+000
1	 3.417570031782413e-001	 4.453586430291698e+000	 1.241943429564844e+000
1	 2.985482730329779e-001	 4.456691427433116e+000	 1.470193477013898e+000
1	 2.554685425323549e-001	 4.459368244970696e+000	 1.706308021003698e+000
1	 2.125233401846509e-001	 4.461621128336633e+000	 1.948281330790724e+000
1	 1.697180699191656e-001	 4.463454395533640e+000	 2.194160609895401e+000
1	 1.270580105308178e-001	 4.464872433502731e+000	 2.442047325027747e+000
1	 8.454831523620064e-002	 4.465879694517425e+000	 2.690098413828211e+000
1	 4.219401133867746e-002	 4.466480692607675e+000	 2.936527373233114e+000
1	 0.000000000000000e+000	 4.466680000016666e+000	 3.179605230463221e+000
1	 4.310969064089004e-001	 4.472616300914868e+000	 9.161774085085792e-001
1	 3.873878831668753e-001	 4.476613806624297e+000	 1.116828274913272e+000
1	 3.437971334569232e-001	 4.480172268884856e+000	 1.327859474029086e+000
1	 3.003304672990531e-001	 4.483295801413886e+000	 1.547016144734633e+000
1	 2.569935708536610e-001	 4.485988598306078e+000	 1.772086014735472e+000
1	 2.137920056316580e-001	 4.488254930336909e+000	 2.000901433466738e+000
1	 1.707312078212959e-001	 4.490099141285577e+000	 2.231341278590907e+000
1	 1.278164877294525e-001	 4.491525644281117e+000	 2.461332736719095e+000
1	 8.505302933503577e-002	 4.492538918175070e+000	 2.688852959231693e+000
1	 4.244588995207965e-002	 4.493143503944065e+000	 2.911930594309555e+000
1	 0.000000000000000e+000	 4.493344001125478e+000	 3.128647196510674e+000
1	 4.336550838514772e-001	 4.499157308192906e+000	 9.903205075950885e-001
1	 3.896866863581598e-001	 4.503178535549549e+000	 1.183924101427910e+000
1	 3.458372642453053e-001	 4.506758114124130e+000	 1.386336757251936e+000
1	 3.021126620102520e-001	 4.509900182045276e+000	 1.595201830313255e+000
1	 2.585185995557294e-001	 4.512608958295947e+000	 1.808198675293425e+000
1	 2.150606713952958e-001	 4.514888738994899e+000	 2.023045046916115e+000
1	 1.717443459761731e-001	 4.516743893697840e+000	 2.237499373434253e+000
1	 1.285749651172138e-001	 4.518178861721836e+000	 2.449362902972553e+000
1	 8.555774355965584e-002	 4.519198148496463e+000	 2.656481722973099e+000
1	 4.269776862821956e-002	 4.519806321945047e+000	 2.856748653254505e+000
1	 0.000000000000000e+000	 4.520008008899155e+000	 3.048105013445373e+000
1	 4.362132625730023e-001	 4.525698328740825e+000	 1.040523649631101e+000
1	 3.919854906986117e-001	 4.529743277756488e+000	 1.225821865078052e+000
1	 3.478773960534283e-001	 4.533343972655577e+000	 1.418459182922544e+000
1	 3.038948576121460e-001	 4.536504575978025e+000	 1.616022289018845e+000
1	 2.600436290198505e-001	 4.539229331595073e+000	 1.816127999761802e+000
1	 2.163293377927728e-001	 4.541522560968785e+000	 2.016425942003005e+000
1	 1.727574846371275e-001	 4.543388659431392e+000	 2.214601106622782e+000
1	 1.293334428837651e-001	 4.544832092488000e+000	 2.408376275189559e+000
1	 8.606245803627605e-002	 4.545857392146253e+000	 2.595514319430414e+000
1	 4.294964743008914e-002	 4.546469153276179e+000	 2.773820373517600e+000
1	 0.000000000000000e+000	 4.546672030003566e+000	 2.941143879447057e+000
1	 4.387714432129979e-001	 4.552239369193409e+000	 1.067547463999250e+000
1	 3.942842967629250e-001	 4.556308039885857e+000	 1.243419444645657e+000
1	 3.499175293913340e-001	 4.559929851125254e+000	 1.425285402016917e+000
1	 3.056770545503056e-001	 4.563108989862871e+000	 1.610719643102993e+000
1	 2.615686596273151e-001	 4.565849724858241e+000	 1.797321449293202e+000
1	 2.175980051412969e-001	 4.568156402916755e+000	 1.982717948086607e+000
1	 1.737706240574891e-001	 4.570033445147191e+000	 2.164566860709376e+000
1	 1.300919212187698e-001	 4.571485343242732e+000	 2.340559124637293e+000
1	 8.656717289111159e-002	 4.572516655789086e+000	 2.508421390325284e+000
1	 4.320152642068027e-002	 4.573132004603027e+000	 2.665918391739100e+000
1	 0.000000000000000e+000	 4.573336071104578e+000	 2.810855190567782e+000
1	 4.413296264109850e-001	 4.578780436185433e+000	 1.072134967652047e+000
1	 3.965831051257935e-001	 4.582872828578392e+000	 1.237593925556036e+000
1	 3.519576647690631e-001	 4.586515756179225e+000	 1.407849545506288e+000
1	 3.074592532703023e-001	 4.589713430350549e+000	 1.580507241476230e+000
1	 2.630936917594145e-001	 4.592470144740219e+000	 1.753192950886815e+000
1	 2.188666737580767e-001	 4.594790271496990e+000	 1.923556111454799e+000
1	 1.747837644905881e-001	 4.596678257506201e+000	 2.089272517661154e+000
1	 1.308504003118915e-001	 4.598138620649134e+000	 2.248047055513711e+000
1	 8.707188825037780e-002	 4.599175946089609e+000	 2.397616314585161e+000
1	 4.345340566298491e-002	 4.599794882591152e+000	 2.535751076606647e+000
1	 0.000000000000000e+000	 4.600000138868055e+000	 2.660258680185508e+000
1	 4.438878128064858e-001	 4.605321536351674e+000	 1.055012073356570e+000
1	 3.988819163619112e-001	 4.609437650474841e+000	 1.209202199814137e+000
1	 3.539978026966568e-001	 4.613101694463545e+000	 1.367161931700629e+000
1	 3.092414542177066e-001	 4.616317904091794e+000	 1.526570489624195e+000
1	 2.646187257974394e-001	 4.619090597895789e+000	 1.685123864487273e+000
1	 2.201353439603201e-001	 4.621424173367672e+000	 1.840537813655477e+000
1	 1.757969061897544e-001	 4.623323103169382e+000	 1.990550741909001e+000
1	 1.316088803527938e-001	 4.624791931370332e+000	 2.132926465633683e+000
1	 8.757660424028992e-002	 4.625835269712468e+000	 2.265456859013913e+000
1	 4.370528521999494e-002	 4.626457793906114e+000	 2.385964381285522e+000
1	 0.000000000000000e+000	 4.626664239959867e+000	 2.492304484394647e+000
1	 4.464460030390218e-001	 4.631862676326913e+000	 1.016888080445681e+000
1	 4.011807310459722e-001	 4.636002512215940e+000	 1.159081545291441e+000
1	 3.560379436841565e-001	 4.639687672624278e+000	 1.304209749246011e+000
1	 3.110236578380897e-001	 4.642922417737343e+000	 1.450067650958855e+000
1	 2.661437621226806e-001	 4.645711090979727e+000	 1.594463916796644e+000
1	 2.214040160652356e-001	 4.648058115186988e+000	 1.735223851335782e+000
1	 1.768100494083184e-001	 4.649967988797697e+000	 1.870192219235568e+000
1	 1.323673615311400e-001	 4.651445282069431e+000	 1.997235956839514e+000
1	 8.808132098706309e-002	 4.652494633322308e+000	 2.114246772147635e+000
1	 4.395716515470233e-002	 4.653120745213482e+000	 2.219143632089672e+000
1	 0.000000000000000e+000	 4.653328381045878e+000	 2.309875136307459e+000
1	 4.490041977481147e-001	 4.658403862745925e+000	 9.584561487742641e-001
1	 4.034795497526701e-001	 4.662567420442431e+000	 1.088050185187898e+000
1	 3.580780882416032e-001	 4.666273697307478e+000	 1.219957716747643e+000
1	 3.128058645770226e-001	 4.669526977937935e+000	 1.352130620744943e+000
1	 2.676688011164292e-001	 4.672331630646809e+000	 1.482532103128649e+000
1	 2.226726903900313e-001	 4.674692103613121e+000	 1.609139479126007e+000
1	 1.778231943996100e-001	 4.676612921052107e+000	 1.729946853264986e+000
1	 1.331258440365939e-001	 4.678098679409549e+000	 1.842967697142958e+000
1	 8.858603861691267e-002	 4.679154043583776e+000	 1.946237323564152e+000
1	 4.420904553009895e-002	 4.679783743178811e+000	 2.037815255939350e+000
1	 0.000000000000000e+000	 4.679992568791956e+000	 2.115787492104802e+000
1	 4.515623975732861e-001	 4.684945102243493e+000	 8.803937565472777e-001
1	 4.057783730566993e-001	 4.689132381795057e+000	 9.969078284560201e-001
1	 3.601182368790378e-001	 4.692859775159207e+000	 1.115348719946831e+000
1	 3.145880748800762e-001	 4.696131591344303e+000	 1.233865673690712e+000
1	 2.691938431599759e-001	 4.698952223551812e+000	 1.350617558573946e+000
1	 2.239413672519154e-001	 4.701326145304251e+000	 1.463775417035436e+000
1	 1.788363414169593e-001	 4.703257906593571e+000	 1.571524921237276e+000
1	 1.338843280588187e-001	 4.704752130053802e+000	 1.672068736515401e+000
1	 8.909075725605382e-002	 4.705813507161520e+000	 1.763628790811567e+000
1	 4.446092640917675e-002	 4.706446794467667e+000	 1.844448449035344e+000
1	 0.000000000000000e+000	 4.706656809863968e+000	 1.912794591545656e+000
1	 4.541206031540580e-001	 4.711486401454395e+000	 7.833631426562101e-001
1	 4.080772015327535e-001	 4.715697402914556e+000	 8.864361919386122e-001
1	 3.621583901065020e-001	 4.719445912825524e+000	 9.913044273375943e-001
1	 3.163702891928216e-001	 4.722736264607185e+000	 1.096354186242396e+000
1	 2.707188886346119e-001	 4.725572876349515e+000	 1.199980399687558e+000
1	 2.252100469680961e-001	 4.727960246918567e+000	 1.300588823760967e+000
1	 1.798494907136967e-001	 4.729902952083056e+000	 1.396598190675090e+000
1	 1.346428137874782e-001	 4.731405640665301e+000	 1.486442278155517e+000
1	 8.959547703070191e-002	 4.732473030720189e+000	 1.568571896023909e+000
1	 4.471280785492766e-002	 4.733109905745613e+000	 1.641456789070566e+000
1	 0.000000000000000e+000	 4.733321110927780e+000	 1.703587455522866e+000
1	 4.733321110927780e+000	 0.000000000000000e+000	-3.849811544631948e-001
1	 4.733109905745614e+000	 4.471280785492782e-002	-3.669710769918443e-001
1	 4.732473030720188e+000	 8.959547703070217e-002	-3.466364791545799e-001
1	 4.731405640665302e+000	 1.346428137874779e-001	-3.244622900910001e-001
1	 4.729902952083056e+000	 1.798494907136964e-001	-3.009298560179929e-001
1	 4.727960246918567e+000	 2.252100469680961e-001	-2.765161214626722e-001
1	 4.725572876349514e+000	 2.707188886346120e-001	-2.516927930699227e-001
1	 4.722736264607185e+000	 3.163702891928218e-001	-2.269254869432447e-001
1	 4.719445912825525e+000	 3.621583901065016e-001	-2.026728605491456e-001
1	 4.715697402914556e+000	 4.080772015327532e-001	-1.793857302869901e-001
1	 4.711486401454396e+000	 4.541206031540578e-001	-1.575061758978512e-001
1	 4.759989469820151e+000	 0.000000000000000e+000	-3.343677570645199e-001
1	 4.759777074671016e+000	 4.496472763253102e-002	-3.190206588135378e-001
1	 4.759136611380217e+000	 9.010027361466881e-002	-3.018206718061947e-001
1	 4.758063207462941e+000	 1.354014149440845e-001	-2.831522587366901e-001
1	 4.756552052470238e+000	 1.808627941936055e-001	-2.633975376278400e-001
1	 4.754598401764884e+000	 2.264789197545885e-001	-2.429356346202514e-001
1	 4.752197580332300e+000	 2.722441661938199e-001	-2.221420220555917e-001
1	 4.749344986623096e+000	 3.181527747266116e-001	-2.013878425829309e-001
1	 4.746036096423839e+000	 3.641988538086731e-001	-1.810392200748816e-001
1	 4.742266466752271e+000	 4.103763798492339e-001	-1.614565581982916e-001
1	 4.738031739773277e+000	 4.566791980477859e-001	-1.429938275422500e-001
1	 4.786657848721421e+000	 0.000000000000000e+000	-2.920978265094660e-001
1	 4.786444263604396e+000	 4.521664759929026e-002	-2.784648366529915e-001
1	 4.785800212045456e+000	 9.060507057761931e-002	-2.634455466700267e-001
1	 4.784720794261157e+000	 1.361600166701585e-001	-2.473328130455776e-001
1	 4.783201172851483e+000	 1.818760984341038e-001	-2.304180266909934e-001
1	 4.781236576596880e+000	 2.277477934934140e-001	-2.129906184315226e-001
1	 4.778822304290480e+000	 2.737694448977088e-001	-1.953375525877205e-001
1	 4.775953728602227e+000	 3.199352615980164e-001	-1.777428091869406e-001
1	 4.772626299971281e+000	 3.662393190419610e-001	-1.604868553861423e-001
1	 4.768835550523108e+000	 4.126755598908812e-001	-1.438461067325894e-001
1	 4.764577098007343e+000	 4.592377948612594e-001	-1.280923789344338e-001
1	 4.813326200962828e+000	 0.000000000000000e+000	-2.568893675659655e-001
1	 4.813111425879085e+000	 4.546856731450769e-002	-2.442381868853655e-001
1	 4.812463786055540e+000	 9.110986703643684e-002	-2.306541535276599e-001
1	 4.811378354410160e+000	 1.369186176384996e-001	-2.163472769685685e-001
1	 4.809850266591902e+000	 1.828894016623030e-001	-2.015266255764650e-001
1	 4.807874724798891e+000	 2.290166659644496e-001	-1.863999661251540e-001
1	 4.805447001632020e+000	 2.752947220774363e-001	-1.711733942798985e-001
1	 4.802562443980586e+000	 3.217177466880521e-001	-1.560509564368801e-001
1	 4.799216476936393e+000	 3.682797822358816e-001	-1.412342633295301e-001
1	 4.795404607732644e+000	 4.149747376344186e-001	-1.269220958488636e-001
1	 4.791122429703764e+000	 4.617963891171834e-001	-1.133100035585942e-001
1	 4.839994479875599e+000	 0.000000000000000e+000	-2.274886736874290e-001
1	 4.839778514828407e+000	 4.572048633748538e-002	-2.152988013008074e-001
1	 4.839127286750117e+000	 9.161466210800462e-002	-2.026084623772033e-001
1	 4.838035841260179e+000	 1.376772165219083e-001	-1.895534798415417e-001
1	 4.836499287056592e+000	 1.839027021053143e-001	-1.762689097653119e-001
1	 4.834512799755251e+000	 2.302855349475718e-001	-1.628887964117888e-001
1	 4.832071625764876e+000	 2.768199950641596e-001	-1.495459212130355e-001
1	 4.829171086194195e+000	 3.235002268777344e-001	-1.363715459390979e-001
1	 4.825806580787717e+000	 3.703202398199507e-001	-1.234951503425488e-001
1	 4.821973591886459e+000	 4.172739090565691e-001	-1.110441645843250e-001
1	 4.817667688409711e+000	 4.643549763382627e-001	-9.914369676984382e-002
1	 4.866662638790971e+000	 0.000000000000000e+000	-2.026695531185958e-001
1	 4.866445483785694e+000	 4.597240422752544e-002	-1.906276439529762e-001
1	 4.865790667468827e+000	 9.211945490920574e-002	-1.784888461343717e-001
1	 4.864693208161425e+000	 1.384358119931847e-001	-1.663233599883078e-001
1	 4.863148187610657e+000	 1.849159979902493e-001	-1.542004473468308e-001
1	 4.861150754850293e+000	 2.315543982226573e-001	-1.421882838097766e-001
1	 4.858696130097010e+000	 2.783452611890360e-001	-1.303538079747964e-001
1	 4.855779608679063e+000	 3.252826990480789e-001	-1.187625678129820e-001
1	 4.852396564993790e+000	 3.723606882236841e-001	-1.074785643799727e-001
1	 4.848542456490132e+000	 4.195730701340565e-001	-9.656409306550000e-002
1	 4.844212827672349e+000	 4.669135520472020e-001	-8.607958259741733e-002
1	 4.893330631040176e+000	 0.000000000000000e+000	-1.812325800780437e-001
1	 4.893112286084271e+000	 4.622432054392998e-002	-1.692279288478575e-001
1	 4.892453881551311e+000	 9.262424455692345e-002	-1.574935800960128e-001
1	 4.891350408464123e+000	 1.391944027251289e-001	-1.460425811684968e-001
1	 4.889796921619200e+000	 1.859292875442192e-001	-1.348865276044832e-001
1	 4.887788543468358e+000	 2.328232535695832e-001	-1.240354944694987e-001
1	 4.885320468036373e+000	 2.798705177832224e-001	-1.134979677722920e-001
1	 4.882387964871203e+000	 3.270651600801012e-001	-1.032807760944574e-001
1	 4.878986383023156e+000	 3.744011238765979e-001	-9.338902256625983e-002
1	 4.875111155049246e+000	 4.218722168436039e-001	-8.382601732639726e-002
1	 4.870757801038845e+000	 4.694721117667059e-001	-7.459321060750490e-002
1	 4.919998409954449e+000	 0.000000000000000e+000	-1.620043700746082e-001
1	 4.919778875057467e+000	 4.647623484600112e-002	-1.501245176894198e-001
1	 4.919116882337212e+000	 9.312903016804093e-002	-1.388383575358499e-001
1	 4.918007395518489e+000	 1.399529873905411e-001	-1.281101613874877e-001
1	 4.916445442447325e+000	 1.869425689943357e-001	-1.179018983498373e-001
1	 4.914426118993778e+000	 2.340920987682258e-001	-1.081732272896090e-001
1	 4.911944592990930e+000	 2.813957621778768e-001	-9.888149254007649e-002
1	 4.908996108206632e+000	 3.288476068548174e-001	-8.998172299929699e-002
1	 4.905575988344355e+000	 3.764415432082078e-001	-8.142663473472293e-002
1	 4.901679641069378e+000	 4.241713451619347e-001	-7.316663720422029e-002
1	 4.897302562056371e+000	 4.720306510194794e-001	-6.514984319943959e-002
1	 4.946665928865022e+000	 0.000000000000000e+000	-1.438368784552386e-001
1	 4.946445204038611e+000	 4.672814669304094e-002	-1.323633369321113e-001
1	 4.945779623166172e+000	 9.363381085944132e-002	-1.217558208292477e-001
1	 4.944664122674740e+000	 1.407115646622214e-001	-1.119381136061219e-001
1	 4.943093703460129e+000	 1.879558405677100e-001	-1.028305116774290e-001
1	 4.941063434810887e+000	 2.353609315984621e-001	-9.434986012731002e-002
1	 4.938568458368636e+000	 2.829209917041559e-001	-8.640959496888312e-002
1	 4.935603992121361e+000	 3.306300362532426e-001	-7.891979208888109e-002
1	 4.932165334425927e+000	 3.784819426480299e-001	-7.178722300729620e-002
1	 4.928247868056106e+000	 4.264704510657721e-001	-6.491541757150011e-002
1	 4.923847064272091e+000	 4.745891653282273e-001	-5.820473369301580e-002
1	 4.973333141103128e+000	 0.000000000000000e+000	-1.256067213202107e-001
1	 4.973111226361028e+000	 4.698005564435157e-002	-1.150108134220632e-001
1	 4.972442057377832e+000	 9.413858574800782e-002	-1.054951075293953e-001
1	 4.971320543283099e+000	 1.414701332129701e-001	-9.695109790761679e-002
1	 4.969741658022721e+000	 1.889691004914536e-001	-8.926527782735068e-002
1	 4.967700444304020e+000	 2.366297498401687e-001	-8.231920091323687e-002
1	 4.965192017577452e+000	 2.844462036932173e-001	-7.598955238368096e-002
1	 4.962211570051403e+000	 3.324124451563927e-001	-7.014823037927451e-002
1	 4.958754374736414e+000	 3.805223186255800e-001	-6.466243756221440e-002
1	 4.954815789515014e+000	 4.287695305318400e-001	-5.939478315255583e-002
1	 4.950391261233177e+000	 4.771476502156544e-001	-5.420339554950114e-002
1	 5.000000000000000e+000	 0.000000000000000e+000	-1.062145179781085e-001
1	 4.999776895358052e+000	 4.723196125923512e-002	-9.715332793925284e-002
1	 4.999104138311836e+000	 9.464335395062359e-002	-8.932141084173140e-002
1	 4.997976610693785e+000	 1.422286917155873e-001	-8.258608469779054e-002
1	 4.996389259500201e+000	 1.899823469926779e-001	-7.680782685559623e-002
1	 4.994337100857515e+000	 2.378985512732224e-001	-7.184034348948716e-002
1	 4.991815224025335e+000	 2.859713954762181e-001	-6.753065240266006e-002
1	 4.988818795432773e+000	 3.341948304452838e-001	-6.371917943273858e-002
1	 4.985343062744358e+000	 3.825626675703741e-001	-6.023986873065232e-002
1	 4.981383358951679e+000	 4.310685795368612e-001	-5.692030716167730e-002
1	 4.976935106486797e+000	 4.797061012044654e-001	-5.358186305442757e-002
1	 4.711486401454396e+000	 4.541206031540578e-001	-1.575061758978512e-001
1	 4.706809400584461e+000	 5.002754289150643e-001	-1.368809363449826e-001
1	 4.701661653676148e+000	 5.465422826212096e-001	-1.172008036321697e-001
1	 4.696039107290806e+000	 5.929147628536142e-001	-9.867874626245679e-002
1	 4.689937808080498e+000	 6.393863452817449e-001	-8.153081116172972e-002
1	 4.683353906675524e+000	 6.859503841394172e-001	-6.597589311173237e-002
1	 4.676283661565610e+000	 7.326001138313998e-001	-5.223549341470177e-002
1	 4.668723442970103e+000	 7.793286506718558e-001	-4.053346792365756e-002
1	 4.660669736692414e+000	 8.261289947556906e-001	-3.109576460104220e-002
1	 4.652119147953820e+000	 8.729940319637025e-001	-2.415015079781695e-002
1	 4.643068405201682e+000	 9.199165361022299e-001	-1.992593047485133e-002
1	 4.738031739773277e+000	 4.566791980477859e-001	-1.429938275422500e-001
1	 4.733328387862385e+000	 5.030940681690770e-001	-1.255370711681972e-001
1	 4.728151637647651e+000	 5.496215974204831e-001	-1.088423774119022e-001
1	 4.722497412852645e+000	 5.962553483164128e-001	-9.307573628172050e-002
1	 4.716361737855573e+000	 6.429887597671158e-001	-7.840866584603050e-002
1	 4.709740741598712e+000	 6.898151485630015e-001	-6.501810284124417e-002
1	 4.702630661491456e+000	 7.367277109902937e-001	-5.308628142204713e-002
1	 4.695027847302340e+000	 7.837195245792673e-001	-4.280059992545252e-002
1	 4.686928765035166e+000	 8.307835499861415e-001	-3.435347554377032e-002
1	 4.678330000784434e+000	 8.779126330095242e-001	-2.794218682627458e-002
1	 4.669228264565003e+000	 9.250995067421184e-001	-2.376870395513775e-002
1	 4.764577098007343e+000	 4.592377948612594e-001	-1.280923789344337e-001
1	 4.759847395035628e+000	 5.059127095378930e-001	-1.131493120501549e-001
1	 4.754641641492657e+000	 5.527009145300991e-001	-9.883901310778201e-002
1	 4.748955738264196e+000	 5.995959362855475e-001	-8.528942068173895e-002
1	 4.742785687454573e+000	 6.465911769552420e-001	-7.263560745574428e-002
1	 4.736127596318020e+000	 6.936799158861571e-001	-6.101976010925295e-002
1	 4.728977681183593e+000	 7.408553112459421e-001	-5.059114685901811e-002
1	 4.721332271368975e+000	 7.881104017809547e-001	-4.150607234289844e-002
1	 4.713187813078357e+000	 8.354381087086968e-001	-3.392781955227789e-002
1	 4.704540873279440e+000	 8.828312377455565e-001	-2.802657854023491e-002
1	 4.695388143554560e+000	 9.302824812705676e-001	-2.397936165488170e-002
1	 4.791122429703764e+000	 4.617963891171834e-001	-1.133100035585942e-001
1	 4.786366375697530e+000	 5.087313480891076e-001	-1.003549855299880e-001
1	 4.781131618855300e+000	 5.557802285614466e-001	-8.794334016957205e-002
1	 4.775414037225055e+000	 6.029365209151659e-001	-7.617373787369933e-002
1	 4.769209610637268e+000	 6.501935905420583e-001	-6.515275494966939e-002
1	 4.762514424658146e+000	 6.975446793456980e-001	-5.499491119369925e-002
1	 4.755324674536412e+000	 7.449829073751971e-001	-4.582269523449829e-002
1	 4.747636669138935e+000	 7.925012745930328e-001	-3.776657722248021e-002
1	 4.739446834870297e+000	 8.400926627780260e-001	-3.096500846050191e-002
1	 4.730751719571419e+000	 8.877498375643830e-001	-2.556440758963251e-002
1	 4.721547996392131e+000	 9.354654506175090e-001	-2.171913296270136e-002
1	 4.817667688409711e+000	 4.643549763382627e-001	-9.914369676984382e-002
1	 4.812885283441428e+000	 5.115499788903157e-001	-8.777739194581240e-002
1	 4.807621523379715e+000	 5.588595341259147e-001	-7.689141918850671e-002
1	 4.801872263434824e+000	 6.062770963594154e-001	-6.656382341980603e-002
1	 4.795633461163435e+000	 6.537959942234990e-001	-5.688050215256445e-002
1	 4.788901180443781e+000	 7.014094321784387e-001	-4.793526947572911e-002
1	 4.781671595444322e+000	 7.491104921549108e-001	-3.982990850855606e-002
1	 4.773940994581147e+000	 7.968921353316147e-001	-3.267421187363154e-002
1	 4.765705784459295e+000	 8.447472040487973e-001	-2.658600975179241e-002
1	 4.756962493792951e+000	 8.926684238585888e-001	-2.169118509712242e-002
1	 4.747707777299494e+000	 9.406484057128738e-001	-1.812367560704018e-002
1	 4.844212827672349e+000	 4.669135520472020e-001	-8.607958259741733e-002
1	 4.839404071860662e+000	 5.143685970091132e-001	-7.602619020800122e-002
1	 4.834111308710036e+000	 5.619388258348922e-001	-6.640319627757355e-002
1	 4.828330370593108e+000	 6.096176567724444e-001	-5.727652557082235e-002
1	 4.822057192792849e+000	 6.573983816954989e-001	-4.871908591914625e-002
1	 4.815287817499625e+000	 7.052741676211931e-001	-4.081082762408928e-002
1	 4.808018397801715e+000	 7.532380583619343e-001	-3.363879262192990e-002
1	 4.800245201664535e+000	 8.012829763128148e-001	-2.729715300496963e-002
1	 4.791964615893655e+000	 8.494017243756789e-001	-2.188723850684736e-002
1	 4.783173150076617e+000	 8.975869880207577e-001	-1.751755257252568e-002
1	 4.773867440498422e+000	 9.458313374865937e-001	-1.430377664847385e-002
1	 4.870757801038845e+000	 4.694721117667059e-001	-7.459321060750490e-002
1	 4.865922694548569e+000	 5.171871975130948e-001	-6.569777010563922e-002
1	 4.860600928490404e+000	 5.650180982997678e-001	-5.718294272954669e-002
1	 4.854788312399505e+000	 6.129581963083999e-001	-4.911090409973406e-002
1	 4.848480759285287e+000	 6.610007466539924e-001	-4.154913588898314e-002
1	 4.841674289650374e+000	 7.091388789107757e-001	-3.457044994405546e-002
1	 4.834365035503001e+000	 7.573655987731198e-001	-2.825300404481431e-002
1	 4.826549244358028e+000	 8.056737898527467e-001	-2.268030901772369e-002
1	 4.818223283221691e+000	 8.540562156133400e-001	-1.794122693173840e-002
1	 4.809383642555000e+000	 9.025055214434747e-001	-1.412996011687439e-002
1	 4.800026940210696e+000	 9.510142368686005e-001	-1.134603075915903e-002
1	 4.897302562056371e+000	 4.720306510194794e-001	-6.514984319943959e-002
1	 4.892441105098484e+000	 5.200057754698558e-001	-5.737561261491255e-002
1	 4.887090336364951e+000	 5.680973461319306e-001	-4.991968050630156e-002
1	 4.881246042553618e+000	 6.162987091214294e-001	-4.284871305954072e-002
1	 4.874904114400523e+000	 6.646030827949143e-001	-3.623220652440959e-002
1	 4.868060550720721e+000	 7.130035592839998e-001	-3.014244563665222e-002
1	 4.860711462442573e+000	 7.614931061653185e-001	-2.465445613373265e-002
1	 4.852853076630552e+000	 8.100645682675247e-001	-1.984595127757834e-002
1	 4.844481740491708e+000	 8.587106696164488e-001	-1.579727230894784e-002
1	 4.835593925360677e+000	 9.074240155193241e-001	-1.259132276990467e-002
1	 4.826186230658091e+000	 9.561970947888256e-001	-1.031349664336065e-002
1	 4.923847064272091e+000	 4.745891653282273e-001	-5.820473369301580e-002
1	 4.918959257103752e+000	 5.228243259469916e-001	-5.163063865810855e-002
1	 4.913579485977811e+000	 5.711765639427692e-001	-4.528759408927291e-002
1	 4.907703514755047e+000	 6.196391893656807e-001	-3.925486806636662e-002
1	 4.901327211898328e+000	 6.682053838141988e-001	-3.361129209401243e-002
1	 4.894446554535365e+000	 7.168682019776804e-001	-2.843512368205152e-002
1	 4.887057632514837e+000	 7.656205733153826e-001	-2.380390605161374e-002
1	 4.879156652451032e+000	 8.144553038732628e-001	-1.979432515105730e-002
1	 4.870739941752015e+000	 8.633650782396735e-001	-1.648206417831091e-002
1	 4.861803952626233e+000	 9.123424616408908e-001	-1.394165581834320e-002
1	 4.852345266062381e+000	 9.613799021772007e-001	-1.224633241649653e-002
1	 4.950391261233177e+000	 4.771476502156544e-001	-5.420339554950114e-002
1	 4.945477104157705e+000	 5.256428440120975e-001	-4.902154674284824e-002
1	 4.940068330973120e+000	 5.742557463436725e-001	-4.394642919839070e-002
1	 4.934160682703396e+000	 6.229796311953015e-001	-3.907789868350941e-002
1	 4.927750005538484e+000	 6.718076434077811e-001	-3.451132523608052e-002
1	 4.920832254918999e+000	 7.207328002286313e-001	-3.033733003067102e-002
1	 4.913403499614191e+000	 7.697479930001636e-001	-2.664152297406600e-002
1	 4.905459925788396e+000	 8.188459889860744e-001	-2.350424155915903e-002
1	 4.896997841050921e+000	 8.680194333376835e-001	-2.100029152045555e-002
1	 4.888013678484247e+000	 9.172608512007584e-001	-1.919868984760214e-002
1	 4.878504000645348e+000	 9.665626499636572e-001	-1.816241072540221e-002
1	 4.976935106486797e+000	 4.797061012044654e-001	-5.358186305442757e-002
1	 4.971994599853684e+000	 5.284613247327683e-001	-5.009513989301687e-002
1	 4.966556824995020e+000	 5.773348879460297e-001	-4.654187886539343e-002
1	 4.960617500098262e+000	 6.263200287644395e-001	-4.305038645772200e-002
1	 4.954172449080763e+000	 6.754098552715953e-001	-3.973965970956735e-002
1	 4.947217605696318e+000	 7.245973472736667e-001	-3.671896775663262e-002
1	 4.939749017635035e+000	 7.738753579965135e-001	-3.408743827429254e-002
1	 4.931762850611571e+000	 8.232366159220740e-001	-3.193364976913174e-002
1	 4.923255392436735e+000	 8.726737267651470e-001	-3.033523068268655e-002
1	 4.914223057067300e+000	 9.221791755915121e-001	-2.935846628639946e-002
1	 4.904662388628768e+000	 9.717453290781268e-001	-2.905791435941053e-002
1	 4.643068405201682e+000	 9.199165361022299e-001	-1.992593047485133e-002
1	 4.633512893397807e+000	 9.668962193495462e-001	-1.865949871831835e-002
1	 4.623450920909602e+000	 1.013918590844765e+000	-2.033140164463392e-002
1	 4.612879611221273e+000	 1.060976087736484e+000	-2.478084256564491e-002
1	 4.601796226075082e+000	 1.108061044715826e+000	-3.183905581975038e-002
1	 4.590198169078671e+000	 1.155165696837305e+000	-4.132944381130038e-002
1	 4.578082989255348e+000	 1.202282182474619e+000	-5.306773027872360e-002
1	 4.565448384531957e+000	 1.249402546410591e+000	-6.686212988674548e-002
1	 4.552292205158868e+000	 1.296518743060276e+000	-8.251353420147282e-002
1	 4.538612457056609e+000	 1.343622639825983e+000	-9.981571406935769e-002
1	 4.524407305083716e+000	 1.390706020582740e+000	-1.185555383820300e-001
1	 4.669228264565003e+000	 9.250995067421184e-001	-2.376870395513774e-002
1	 4.659618915336746e+000	 9.723438817405616e-001	-2.202947049989002e-002
1	 4.649500251936108e+000	 1.019631185499926e+000	-2.270581233211636e-002
1	 4.638869381640498e+000	 1.066953812558382e+000	-2.567737812814860e-002
1	 4.627723550764356e+000	 1.114304054419368e+000	-3.082168061449182e-002
1	 4.616060148286781e+000	 1.161674102388337e+000	-3.801428612372763e-002
1	 4.603876709421853e+000	 1.209056050545213e+000	-4.712901170667766e-002
1	 4.591170919126121e+000	 1.256441898851737e+000	-5.803812958641078e-002
1	 4.577940615537888e+000	 1.303823556392735e+000	-7.061257871595388e-002
1	 4.564183793342687e+000	 1.351192844750042e+000	-8.472218317781215e-002
1	 4.549898607059532e+000	 1.398541501507601e+000	-1.002358771397215e-001
1	 4.695388143554560e+000	 9.302824812705676e-001	-2.397936165488169e-002
1	 4.685724956861634e+000	 9.777915482187314e-001	-2.195306173732305e-002
1	 4.675549602506141e+000	 1.025343784441016e+000	-2.193408986575181e-002
1	 4.664859171558672e+000	 1.072931541865137e+000	-2.383388737095069e-002
1	 4.653650894905826e+000	 1.120547068806811e+000	-2.756603249840709e-002
1	 4.641922146898159e+000	 1.168182512822401e+000	-3.304646355420472e-002
1	 4.629670448940495e+000	 1.215829923698024e+000	-4.019370313455009e-002
1	 4.616893473019093e+000	 1.263481256574304e+000	-4.892908300480631e-002
1	 4.603589045160168e+000	 1.311128375205806e+000	-5.917696918005404e-002
1	 4.589755148814240e+000	 1.358763055353852e+000	-7.086498674623776e-002
1	 4.575389928160807e+000	 1.406376988311272e+000	-8.392424394893058e-002
1	 4.721547996392131e+000	 9.354654506175090e-001	-2.171913296270136e-002
1	 4.711830972288418e+000	 9.832392092507670e-001	-1.957444277424286e-002
1	 4.701598927034792e+000	 1.031056377671105e+000	-1.912374040329146e-002
1	 4.690848935495056e+000	 1.078909265195828e+000	-2.030168258557726e-002
1	 4.679578213127978e+000	 1.126790076952974e+000	-2.304779292152147e-002
1	 4.667784119655580e+000	 1.174690916749863e+000	-2.730669989715297e-002
1	 4.655464162673451e+000	 1.222603790078849e+000	-3.302837169788836e-002
1	 4.642616001197560e+000	 1.270520607259488e+000	-4.016834725064770e-002
1	 4.629237449142049e+000	 1.318433186716127e+000	-4.868796292287889e-002
1	 4.615326478722450e+000	 1.366333258389628e+000	-5.855457430160839e-002
1	 4.600881223778736e+000	 1.414212467281752e+000	-6.974177247170292e-002
1	 4.747707777299494e+000	 9.406484057128738e-001	-1.812367560704018e-002
1	 4.737936915933036e+000	 9.886868553033804e-001	-1.601259096490344e-002
1	 4.727648179937163e+000	 1.036768955193263e+000	-1.535788838953605e-002
1	 4.716838627968923e+000	 1.084886972089533e+000	-1.610893648682915e-002
1	 4.705505460059300e+000	 1.133033067932675e+000	-1.822117461197165e-002
1	 4.693646021301823e+000	 1.181199302781087e+000	-2.165634725711263e-002
1	 4.681257805482885e+000	 1.229377637833485e+000	-2.638273310541712e-002
1	 4.668338458648202e+000	 1.277559938588484e+000	-3.237536814515502e-002
1	 4.654885782599884e+000	 1.325737978140340e+000	-3.961626223461844e-002
1	 4.640897738318490e+000	 1.373903440609585e+000	-4.809460850749933e-002
1	 4.626372449304512e+000	 1.422047924707039e+000	-5.780698500893955e-002
1	 4.773867440498422e+000	 9.458313374865937e-001	-1.430377664847385e-002
1	 4.764042742111434e+000	 9.941344768432839e-001	-1.236198135571855e-002
1	 4.753697315628352e+000	 1.042481507010558e+000	-1.169594509046129e-002
1	 4.742828203499542e+000	 1.090864652085331e+000	-1.226131680832959e-002
1	 4.731432590328278e+000	 1.139276030820732e+000	-1.401951049763835e-002
1	 4.719507806579668e+000	 1.187707659526438e+000	-1.693791762750123e-002
1	 4.707051332230972e+000	 1.236151455107730e+000	-2.099011428299017e-002
1	 4.694060800357711e+000	 1.284599238242489e+000	-2.615606242701901e-002
1	 4.680534000650018e+000	 1.333042736695088e+000	-3.242230472696259e-002
1	 4.666468882853537e+000	 1.381473588765937e+000	-3.978215238393082e-002
1	 4.651863560129326e+000	 1.429883346875132e+000	-4.823586540416960e-002
1	 4.800026940210696e+000	 9.510142368686005e-001	-1.134603075915903e-002
1	 4.790148405139556e+000	 9.995820643371889e-001	-9.693254988098504e-003
1	 4.779746288523451e+000	 1.048194023126059e+000	-9.174255466364351e-003
1	 4.768817616606178e+000	 1.096842294722300e+000	-9.742600336863737e-003
1	 4.757359558563400e+000	 1.145518954691962e+000	-1.135582354660885e-002
1	 4.745369430231897e+000	 1.194215975596279e+000	-1.397559724634569e-002
1	 4.732844697779878e+000	 1.242925230047382e+000	-1.756790102824812e-002
1	 4.719782981312769e+000	 1.291638493902698e+000	-2.210318757456681e-002
1	 4.706182058408797e+000	 1.340347449597011e+000	-2.755654428677121e-002
1	 4.692039867578769e+000	 1.389043689610899e+000	-3.390785046251773e-002
1	 4.677354511644375e+000	 1.437718720074028e+000	-4.114192958677648e-002
1	 4.826186230658091e+000	 9.561970947888256e-001	-1.031349664336065e-002
1	 4.816253859333342e+000	 1.005029608251808e+000	-9.053865663970897e-003
1	 4.805795053037557e+000	 1.053906493542835e+000	-8.806724198417090e-003
1	 4.794806821808104e+000	 1.102819889539520e+000	-9.515267158564229e-003
1	 4.783286319393154e+000	 1.151761828621185e+000	-1.112337824387782e-002
1	 4.771230847001283e+000	 1.200724239600977e+000	-1.357574437652683e-002
1	 4.758637856991777e+000	 1.249698950798238e+000	-1.681797123955535e-002
1	 4.745504956500062e+000	 1.298677693250309e+000	-2.079669971071826e-002
1	 4.731829910992569e+000	 1.347652104062751e+000	-2.545972297670413e-002
1	 4.717610647745362e+000	 1.396613729896686e+000	-3.075610410498579e-002
1	 4.702845259240852e+000	 1.445554030591728e+000	-3.663629384347710e-002
1	 4.852345266062381e+000	 9.613799021772007e-001	-1.224633241649654e-002
1	 4.842359059008737e+000	 1.010477099053851e+000	-1.146870597940125e-002
1	 4.831843563585774e+000	 1.059618908263955e+000	-1.158542164822608e-002
1	 4.820795773624588e+000	 1.108797426076069e+000	-1.252107585695774e-002
1	 4.809212827446027e+000	 1.158004641683217e+000	-1.419621439103982e-002
1	 4.797092011630610e+000	 1.207232440150896e+000	-1.652737113043329e-002
1	 4.784430764728838e+000	 1.256472605506095e+000	-1.942711425872409e-002
1	 4.771226680906277e+000	 1.305716823966516e+000	-2.280410003642650e-002
1	 4.757477513517682e+000	 1.354956687308949e+000	-2.656313422139885e-002
1	 4.743181178604490e+000	 1.404183696375512e+000	-3.060524120338005e-002
1	 4.728335758309949e+000	 1.453389264716227e+000	-3.482774090307798e-002
1	 4.878504000645348e+000	 9.665626499636572e-001	-1.816241072540221e-002
1	 4.868463958481681e+000	 1.015924527210032e+000	-1.794071339749964e-002
1	 4.857891774583191e+000	 1.065331257292488e+000	-1.848117049684876e-002
1	 4.846784426574896e+000	 1.114774893871026e+000	-1.968162037142891e-002
1	 4.835139037350504e+000	 1.164247382952877e+000	-2.142966388653686e-002
1	 4.822952878862654e+000	 1.213740565856399e+000	-2.360260993255127e-002
1	 4.810223375853233e+000	 1.263246182316751e+000	-2.606743684407967e-002
1	 4.796948109518097e+000	 1.312755873732517e+000	-2.868077021935534e-002
1	 4.783124821100483e+000	 1.362261186552246e+000	-3.128887760339957e-002
1	 4.768751415407335e+000	 1.411753575799593e+000	-3.372768047098980e-002
1	 4.753825964242860e+000	 1.461224408735526e+000	-3.582278391589060e-002
1	 4.904662388628768e+000	 9.717453290781268e-001	-2.905791435941052e-002
1	 4.894568512068120e+000	 1.021371883187062e+000	-2.945145709918596e-002
1	 4.883939640444909e+000	 1.071043530631502e+000	-3.044411377816196e-002
1	 4.872772735178299e+000	 1.120752282463470e+000	-3.189886919470866e-002
1	 4.861064903735073e+000	 1.170490041504983e+000	-3.366085111621625e-002
1	 4.848813403440197e+000	 1.220248605327853e+000	-3.555716518843587e-002
1	 4.836015645227128e+000	 1.270019669376003e+000	-3.739675626860037e-002
1	 4.822669197322209e+000	 1.319794830229507e+000	-3.897029714649359e-002
1	 4.808771788857317e+000	 1.369565589009283e+000	-4.005010557933418e-002
1	 4.794321313405072e+000	 1.419323354921142e+000	-4.039009052420261e-002
1	 4.779315832430783e+000	 1.469059448937622e+000	-3.972572840576993e-002
1	 4.524407305083716e+000	 1.390706020582740e+000	-1.185555383820300e-001
1	 4.509675075088746e+000	 1.437760588603412e+000	-1.388957898283330e-001
1	 4.494414253604441e+000	 1.484777968164294e+000	-1.609982030207880e-001
1	 4.478623494235841e+000	 1.531749710358706e+000	-1.846264530609874e-001
1	 4.462301621696776e+000	 1.578667297757051e+000	-2.095220937029697e-001
1	 4.445447634610877e+000	 1.625522148514563e+000	-2.354045782762577e-001
1	 4.428060708201621e+000	 1.672305620595791e+000	-2.619713191196835e-001
1	 4.410140196866269e+000	 1.719009016112672e+000	-2.888977862280563e-001
1	 4.391685636628613e+000	 1.765623585772688e+000	-3.158376457340261e-001
1	 4.372696747465477e+000	 1.812140533433459e+000	-3.424229387638196e-001
1	 4.353173435502172e+000	 1.858551020759794e+000	-3.682643011183234e-001
1	 4.549898607059532e+000	 1.398541501507601e+000	-1.002358771397215e-001
1	 4.535083373104526e+000	 1.445861183193071e+000	-1.172621001951269e-001
1	 4.519736569483269e+000	 1.493143466892460e+000	-1.358672053067848e-001
1	 4.503856842214986e+000	 1.540379856096477e+000	-1.558372402644297e-001
1	 4.487443009391756e+000	 1.587561785386847e+000	-1.769325392152590e-001
1	 4.470494063995282e+000	 1.634680624567193e+000	-1.988876613674667e-001
1	 4.453009176602114e+000	 1.681727682911336e+000	-2.214113732575871e-001
1	 4.434987697972090e+000	 1.728694213525793e+000	-2.441866755456498e-001
1	 4.416429161514877e+000	 1.775571417823013e+000	-2.668708752150615e-001
1	 4.397333285629620e+000	 1.822350450101617e+000	-2.890957039623402e-001
1	 4.377699975912726e+000	 1.869022422229697e+000	-3.104674834654536e-001
1	 4.575389928160807e+000	 1.406376988311272e+000	-8.392424394893058e-002
1	 4.560491690183496e+000	 1.453961783860481e+000	-9.834730357510743e-002
1	 4.545058904360769e+000	 1.501508971897163e+000	-1.140594656430180e-001
1	 4.529090209126037e+000	 1.549010008309379e+000	-1.308737294601552e-001
1	 4.512584415949610e+000	 1.596456279690133e+000	-1.485763604666137e-001
1	 4.495540512171280e+000	 1.643839107491402e+000	-1.669267776767327e-001
1	 4.477957663720667e+000	 1.691149752296235e+000	-1.856574857761298e-001
1	 4.459835217720181e+000	 1.738379418205699e+000	-2.044740529616089e-001
1	 4.441172704965378e+000	 1.785519257337162e+000	-2.230551355240683e-001
1	 4.421969842277712e+000	 1.832560374430207e+000	-2.410525500820000e-001
1	 4.402226534724702e+000	 1.879493831556170e+000	-2.580913942756344e-001
1	 4.600881223778736e+000	 1.414212467281752e+000	-6.974177247170292e-002
1	 4.585899981862074e+000	 1.462062376429718e+000	-8.209012414369009e-002
1	 4.570381213923802e+000	 1.509874468538930e+000	-9.536344255234130e-002
1	 4.554323550811519e+000	 1.557640151894844e+000	-1.094061842224569e-001
1	 4.537725797373788e+000	 1.605350765101788e+000	-1.240375949266773e-001
1	 4.520586935308484e+000	 1.652997581260137e+000	-1.390515765065890e-001
1	 4.502906125898312e+000	 1.700571812262213e+000	-1.542165955120032e-001
1	 4.484682712628256e+000	 1.748064613203672e+000	-1.692756347321983e-001
1	 4.465916223679772e+000	 1.795467086906851e+000	-1.839461886120515e-001
1	 4.446606374296626e+000	 1.842770288552342e+000	-1.979203034601452e-001
1	 4.426753069017446e+000	 1.889965230414766e+000	-2.108646632653523e-001
1	 4.626372449304512e+000	 1.422047924707039e+000	-5.780698500893955e-002
1	 4.611308203676677e+000	 1.470162946724857e+000	-6.843069723380689e-002
1	 4.595703453859223e+000	 1.518239942178288e+000	-7.957231900008581e-002
1	 4.579556823113963e+000	 1.566270271750308e+000	-9.111219828489071e-002
1	 4.562867109667729e+000	 1.614245226056694e+000	-1.029095106983352e-001
1	 4.545633289576500e+000	 1.662156029846346e+000	-1.148021360164251e-001
1	 4.527854519476074e+000	 1.709993846320988e+000	-1.266065697981034e-001
1	 4.509530139214028e+000	 1.757749781570994e+000	-1.381178710104074e-001
1	 4.490659674357717e+000	 1.805414889123798e+000	-1.491096465181209e-001
1	 4.471242838573231e+000	 1.852980174601130e+000	-1.593340732225892e-001
1	 4.451279535870309e+000	 1.900436600481029e+000	-1.685219585585244e-001
1	 4.651863560129326e+000	 1.429883346875132e+000	-4.823586540416960e-002
1	 4.636716311163720e+000	 1.478263480569973e+000	-5.731053209711935e-002
1	 4.621025579853891e+000	 1.526605378175764e+000	-6.648387442843584e-002
1	 4.604789981875902e+000	 1.574900352773203e+000	-7.567649621927038e-002
1	 4.588008308834882e+000	 1.623139646989730e+000	-8.479435515113888e-002
1	 4.570679531144937e+000	 1.671314437222977e+000	-9.372867904099108e-002
1	 4.552802800794987e+000	 1.719415837984281e+000	-1.023559066008647e-001
1	 4.534377453995210e+000	 1.767434906358946e+000	-1.105376533211162e-001
1	 4.515403013698872e+000	 1.815362646579719e+000	-1.181207030688068e-001
1	 4.495879191994396e+000	 1.863190014709682e+000	-1.249370259424761e-001
1	 4.475805892362633e+000	 1.910907923430507e+000	-1.308038228713593e-001
1	 4.677354511644375e+000	 1.437718720074028e+000	-4.114192958677648e-002
1	 4.662124259859619e+000	 1.486363963789141e+000	-4.867247587358269e-002
1	 4.646347547594663e+000	 1.534970761891882e+000	-5.590036093893345e-002
1	 4.630022982939863e+000	 1.583530379860966e+000	-6.279074057486209e-002
1	 4.613149350878688e+000	 1.632034012335777e+000	-6.930311170129998e-002
1	 4.595725616183406e+000	 1.680472787362977e+000	-7.539129811871560e-002
1	 4.577750926196078e+000	 1.728837770763812e+000	-8.100344631068124e-002
1	 4.559224613489509e+000	 1.777119970618810e+000	-8.608203151638212e-002
1	 4.540146198402895e+000	 1.825310341866332e+000	-9.056387427250408e-002
1	 4.520515391446991e+000	 1.873399791011110e+000	-9.438016760227892e-002
1	 4.500332095573771e+000	 1.921379180938751e+000	-9.745651500672488e-002
1	 4.702845259240852e+000	 1.445554030591728e+000	-3.663629384347710e-002
1	 4.687532005300790e+000	 1.494464382206437e+000	-4.246067872399276e-002
1	 4.671669312768399e+000	 1.543336078687172e+000	-4.762838346720344e-002
1	 4.655255782148381e+000	 1.592160337911028e+000	-5.215334523494210e-002
1	 4.638290191802595e+000	 1.640928306529714e+000	-5.605526443204562e-002
1	 4.620771500861515e+000	 1.689631064239296e+000	-5.935968938366330e-002
1	 4.602698852020377e+000	 1.738259628171301e+000	-6.209809282256551e-002
1	 4.584071574214639e+000	 1.786804957401869e+000	-6.430793985444962e-002
1	 4.564889185169442e+000	 1.835257957575353e+000	-6.603274708221756e-002
1	 4.545151393817889e+000	 1.883609485638523e+000	-6.732213258441450e-002
1	 4.524858102583068e+000	 1.931850354681308e+000	-6.823185645850843e-002
1	 4.728335758309949e+000	 1.453389264716227e+000	-3.482774090307798e-002
1	 4.712939503023649e+000	 1.502564721645936e+000	-3.862056008208512e-002
1	 4.696990831061950e+000	 1.551701313922157e+000	-4.147878380067974e-002
1	 4.680488335343984e+000	 1.600790211820825e+000	-4.346929475830206e-002
1	 4.663430787610049e+000	 1.649822514006423e+000	-4.467857026118600e-002
1	 4.645817141348873e+000	 1.698789251824879e+000	-4.521289498971647e-002
1	 4.627646534608913e+000	 1.747681393718468e+000	-4.519854355968030e-002
1	 4.608918292688312e+000	 1.796489849759405e+000	-4.478193186138402e-002
1	 4.589631930698174e+000	 1.845205476298499e+000	-4.412973621373544e-002
1	 4.569787155993959e+000	 1.893819080725033e+000	-4.342897942770092e-002
1	 4.549383870469874e+000	 1.942321426333725e+000	-4.288708293492458e-002
1	 4.753825964242860e+000	 1.461224408735526e+000	-3.582278391589060e-002
1	 4.738346708564612e+000	 1.510664967931713e+000	-3.709877598459667e-002
1	 4.722312058162186e+000	 1.560066452957368e+000	-3.726652829643835e-002
1	 4.705720598369203e+000	 1.609419986487791e+000	-3.644996948312749e-002
1	 4.688571094304491e+000	 1.658716619200784e+000	-3.480883837524435e-002
1	 4.670862493815088e+000	 1.707947334092675e+000	-3.253905374968572e-002
1	 4.652593930302718e+000	 1.757103050917035e+000	-2.987302810717353e-002
1	 4.633764725428239e+000	 1.806174630742699e+000	-2.707992364869146e-002
1	 4.614374391688747e+000	 1.855152880627489e+000	-2.446584871965253e-002
1	 4.594422634862072e+000	 1.904028558403749e+000	-2.237399309805156e-002
1	 4.573909356313535e+000	 1.952792377571551e+000	-2.118470061786917e-002
1	 4.779315832430783e+000	 1.469059448937622e+000	-3.972572840576993e-002
1	 4.763753577460099e+000	 1.518765106887844e+000	-3.784318743947259e-002
1	 4.747632949755955e+000	 1.568431481153328e+000	-3.481059916230257e-002
1	 4.730952527066571e+000	 1.618049646809360e+000	-3.081297618010882e-002
1	 4.713711067889371e+000	 1.667610606547676e+000	-2.608971666132666e-002
1	 4.695907514429774e+000	 1.717105295015633e+000	-2.093515968545351e-002
1	 4.677540995442822e+000	 1.766524583278722e+000	-1.569905513778504e-002
1	 4.658610828952133e+000	 1.815859283403033e+000	-1.078694537412175e-002
1	 4.639116524840821e+000	 1.865100153154037e+000	-6.660456032327141e-003
1	 4.619057787309097e+000	 1.914237900807783e+000	-3.837493532436423e-003
1	 4.598434517193399e+000	 1.963263190070334e+000	-2.892346983134370e-003
1	 4.353173435502172e+000	 1.858551020759794e+000	-3.682643011183233e-001
1	 4.333118844188068e+000	 1.904839237533664e+000	-3.936490758084685e-001
1	 4.312530372389279e+000	 1.951003250800439e+000	-4.190810057012893e-001
1	 4.291408499589530e+000	 1.997034131020163e+000	-4.444628105934501e-001
1	 4.269753898666800e+000	 2.042922926136646e+000	-4.696902401288577e-001
1	 4.247567437359612e+000	 2.088660666674489e+000	-4.946520609579494e-001
1	 4.224850179576209e+000	 2.134238370909848e+000	-5.192300553141893e-001
1	 4.201603386542995e+000	 2.179647050109439e+000	-5.432990312324650e-001
1	 4.177828517788692e+000	 2.224877713832085e+000	-5.667268446098952e-001
1	 4.153527231960959e+000	 2.269921375286926e+000	-5.893744332844257e-001
1	 4.128701387472490e+000	 2.314769056742235e+000	-6.110958632803006e-001
1	 4.377699975912726e+000	 1.869022422229697e+000	-3.104674834654537e-001
1	 4.357532393524315e+000	 1.915571434911691e+000	-3.313686118461219e-001
1	 4.336827922675254e+000	 1.961995544302362e+000	-3.524185831587579e-001
1	 4.315587045550744e+000	 2.008285770551152e+000	-3.735481881067502e-001
1	 4.293810438819873e+000	 2.054433111164409e+000	-3.946843639243250e-001
1	 4.271498975110129e+000	 2.100428546131130e+000	-4.157501776199941e-001
1	 4.248653724323997e+000	 2.146263043122858e+000	-4.366648150256670e-001
1	 4.225275954793839e+000	 2.191927562762203e+000	-4.573435758005805e-001
1	 4.201367134271600e+000	 2.237413063954258e+000	-4.776978745278187e-001
1	 4.176928930750042e+000	 2.282710509275001e+000	-4.976352480294132e-001
1	 4.151963213112460e+000	 2.327810870410583e+000	-5.170593690134497e-001
1	 4.402226534724702e+000	 1.879493831556170e+000	-2.580913942756344e-001
1	 4.381945961177230e+000	 1.926303640341893e+000	-2.746988234257191e-001
1	 4.361125491190895e+000	 1.972987846051518e+000	-2.916372945666637e-001
1	 4.339765609652384e+000	 2.019537418523855e+000	-3.088556664794720e-001
1	 4.317866997021875e+000	 2.065943304827759e+000	-3.263003017337830e-001
1	 4.295430530815842e+000	 2.112196434416587e+000	-3.439150440002005e-001
1	 4.272457286930998e+000	 2.158287724357238e+000	-3.616411986692611e-001
1	 4.248948540805664e+000	 2.204208084628180e+000	-3.794175168985355e-001
1	 4.224905768415010e+000	 2.249948423480746e+000	-3.971801832041501e-001
1	 4.200330647096902e+000	 2.295499652857716e+000	-4.148628067068618e-001
1	 4.175225056205250e+000	 2.340852693863086e+000	-4.323964161367083e-001
1	 4.426753069017446e+000	 1.889965230414766e+000	-2.108646632653523e-001
1	 4.406359504423866e+000	 1.937035835043452e+000	-2.234750292650693e-001
1	 4.385423035416232e+000	 1.983980136811944e+000	-2.366585232947306e-001
1	 4.363944149582699e+000	 2.030789055248471e+000	-2.503722442857089e-001
1	 4.341923531174544e+000	 2.077453486984452e+000	-2.645704126114179e-001
1	 4.319362062597205e+000	 2.123964310937663e+000	-2.792043394840798e-001
1	 4.296260825741616e+000	 2.170312393570410e+000	-2.942224002451928e-001
1	 4.272621103152047e+000	 2.216488594217080e+000	-3.095700116915556e-001
1	 4.248444379026887e+000	 2.262483770475299e+000	-3.251896135720371e-001
1	 4.223732340049086e+000	 2.308288783654709e+000	-3.410206543831139e-001
1	 4.198486876043155e+000	 2.353894504277207e+000	-3.569995815833745e-001
1	 4.451279535870309e+000	 1.900436600481029e+000	-1.685219585585244e-001
1	 4.430772980541286e+000	 1.947768000235553e+000	-1.775362350508131e-001
1	 4.409720512831290e+000	 1.994972397347677e+000	-1.874054434052031e-001
1	 4.388122623029949e+000	 2.042040661035201e+000	-1.980852657226989e-001
1	 4.365979999179608e+000	 2.088963637492247e+000	-2.095264029619507e-001
1	 4.343293528574663e+000	 2.135732155101159e+000	-2.216745344659068e-001
1	 4.320064299100253e+000	 2.182337029719798e+000	-2.344702850299836e-001
1	 4.296293600406571e+000	 2.228769070038614e+000	-2.478491997211575e-001
1	 4.271982924915197e+000	 2.275019083001672e+000	-2.617417266426197e-001
1	 4.247133968654143e+000	 2.321077879285622e+000	-2.760732078227912e-001
1	 4.221748631918484e+000	 2.366936278830407e+000	-2.907638783910409e-001
1	 4.475805892362633e+000	 1.910907923430507e+000	-1.308038228713593e-001
1	 4.455186346806543e+000	 1.958500117137379e+000	-1.367250340998956e-001
1	 4.434017880916100e+000	 2.005964608422758e+000	-1.438029723332481e-001
1	 4.412300987682382e+000	 2.053292216194244e+000	-1.519824129581260e-001
1	 4.390036358938797e+000	 2.100473736208904e+000	-1.611993463202445e-001
1	 4.367224886868669e+000	 2.147499946313880e+000	-1.713809254556651e-001
1	 4.343867665351314e+000	 2.194361611762826e+000	-1.824454280471897e-001
1	 4.319965991142815e+000	 2.241049490602491e+000	-1.943022329297676e-001
1	 4.295521364887908e+000	 2.287554339123615e+000	-2.068518114389294e-001
1	 4.270535491959617e+000	 2.333866917370093e+000	-2.199857338648504e-001
1	 4.245010283123539e+000	 2.379977994700152e+000	-2.335866912417815e-001
1	 4.500332095573771e+000	 1.921379180938751e+000	-9.745651500672488e-002
1	 4.479599560496697e+000	 1.969232166968115e+000	-1.008875112413806e-001
1	 4.458315097150689e+000	 2.016956750801223e+000	-1.057777251022237e-001
1	 4.436479201228257e+000	 2.064543701035800e+000	-1.120516987269730e-001
1	 4.414092568353847e+000	 2.111983762992179e+000	-1.196197024916528e-001
1	 4.391156095599677e+000	 2.159267663982629e+000	-1.283776690500973e-001
1	 4.367670882839205e+000	 2.206386118656919e+000	-1.382071512933709e-001
1	 4.343638233934361e+000	 2.253329834418422e+000	-1.489753047142291e-001
1	 4.319059657752982e+000	 2.300089516904883e+000	-1.605348946097612e-001
1	 4.293936869013054e+000	 2.346655875527764e+000	-1.727243285011163e-001
1	 4.268271788950622e+000	 2.393019629063903e+000	-1.853677140927827e-001
1	 4.524858102583068e+000	 1.931850354681308e+000	-6.823185645850843e-002
1	 4.504012578888808e+000	 1.979964130946945e+000	-6.987314979762234e-002
1	 4.482612119015089e+000	 2.027948805247112e+000	-7.325797001615324e-002
1	 4.460657221355826e+000	 2.075795095870069e+000	-7.828145916864687e-002
1	 4.438148585326482e+000	 2.123493697699832e+000	-8.481733607723008e-002
1	 4.415087112888133e+000	 2.171035287514209e+000	-9.271781481072215e-002
1	 4.391473909908328e+000	 2.218410529359499e+000	-1.018135597661085e-001
1	 4.367310287354787e+000	 2.265610079996117e+000	-1.119136780448243e-001
1	 4.342597762318389e+000	 2.312624594409228e+000	-1.228057497355385e-001
1	 4.317338058861998e+000	 2.359444731378275e+000	-1.342558966309648e-001
1	 4.291533108692034e+000	 2.406061159099123e+000	-1.460088898189045e-001
1	 4.549383870469874e+000	 1.942321426333725e+000	-4.288708293492458e-002
1	 4.528425359259934e+000	 1.990695990293054e+000	-4.353474154893069e-002
1	 4.506908903989322e+000	 2.038940752524462e+000	-4.617358577420485e-002
1	 4.484835005753348e+000	 2.087046381007252e+000	-5.066034689544788e-002
1	 4.462204367758439e+000	 2.135003520189621e+000	-5.682153440685226e-002
1	 4.439017896854491e+000	 2.182802796315421e+000	-6.445333708969246e-002
1	 4.415276704903087e+000	 2.230434822827990e+000	-7.332157633897260e-002
1	 4.390982109977674e+000	 2.277890205845287e+000	-8.316171268479818e-002
1	 4.366135637392091e+000	 2.325159549700400e+000	-9.367890633782071e-002
1	 4.340739020553997e+000	 2.372233462541265e+000	-1.045481324669360e-001
1	 4.314794201640082e+000	 2.419102561983274e+000	-1.154143517920246e-001
1	 4.573909356313535e+000	 1.952792377571551e+000	-2.118470061786917e-002
1	 4.552837858887132e+000	 2.001427726225625e+000	-2.172829957083274e-002
1	 4.531205409553421e+000	 2.049932573397313e+000	-2.445601995438807e-002
1	 4.509012512109073e+000	 2.098297536757549e+000	-2.917732428382777e-002
1	 4.486259873551445e+000	 2.146513210319305e+000	-3.566102490235171e-002
1	 4.462948405619200e+000	 2.194570169793071e+000	-4.363516584274839e-002
1	 4.439079226167888e+000	 2.242458978019816e+000	-5.278697552638584e-002
1	 4.414653660376605e+000	 2.290170190475642e+000	-6.276289154392963e-002
1	 4.389673241782057e+000	 2.337694360842154e+000	-7.316865860352349e-002
1	 4.364139713136595e+000	 2.385022046636375e+000	-8.356950056716754e-002
1	 4.338055027087065e+000	 2.432143814893820e+000	-9.349036732518858e-002
1	 4.598434517193399e+000	 1.963263190070334e+000	-2.892346983134370e-003
1	 4.577250035047463e+000	 2.012159319963842e+000	-4.312973837691863e-003
1	 4.555501593187413e+000	 2.060924248629703e+000	-8.038248815821438e-003
1	 4.533189698111257e+000	 2.109548543431159e+000	-1.382165698027938e-002
1	 4.510315060607234e+000	 2.158022747946641e+000	-2.136399189181711e-002
1	 4.486878597302711e+000	 2.206337387353961e+000	-3.031321646677207e-002
1	 4.462881432047135e+000	 2.254482973892403e+000	-4.026441617953482e-002
1	 4.438324897125158e+000	 2.302450012396893e+000	-5.075984619826693e-002
1	 4.413210534296251e+000	 2.350229005898243e+000	-6.128907383451141e-002
1	 4.387540095657340e+000	 2.397810461283245e+000	-7.128921747150621e-002
1	 4.361315544325288e+000	 2.445184895008222e+000	-8.014528291265501e-002
1	 4.128701387472490e+000	 2.314769056742235e+000	-6.110958632803006e-001
1	 4.103349201813303e+000	 2.359418476664549e+000	-6.304651823489164e-001
1	 4.077476622929091e+000	 2.403853947232864e+000	-6.460478688948733e-001
1	 4.051086115123939e+000	 2.448066549433488e+000	-6.577051596261444e-001
1	 4.024180343380284e+000	 2.492047395438518e+000	-6.653193709355600e-001
1	 3.996762173110999e+000	 2.535787634173376e+000	-6.687942202757901e-001
1	 3.968834669728083e+000	 2.579278456895365e+000	-6.680551130363205e-001
1	 3.940401098026868e+000	 2.622511102776230e+000	-6.630493939704991e-001
1	 3.911464921384907e+000	 2.665476864481691e+000	-6.537465622989100e-001
1	 3.882029800775059e+000	 2.708167093740830e+000	-6.401384496969348e-001
1	 3.852099593592544e+000	 2.750573206898158e+000	-6.222393604594357e-001
1	 4.151963213112460e+000	 2.327810870410583e+000	-5.170593690134497e-001
1	 4.126468188805896e+000	 2.372711852972974e+000	-5.347119164955260e-001
1	 4.100449839287810e+000	 2.417397680753247e+000	-5.492688143416229e-001
1	 4.073910642746603e+000	 2.461859384486436e+000	-5.605520943169017e-001
1	 4.046853279179697e+000	 2.506088026269067e+000	-5.683991113310289e-001
1	 4.019280630144203e+000	 2.550074705158072e+000	-5.726628996020841e-001
1	 3.991195778323188e+000	 2.593810562780759e+000	-5.732125048991781e-001
1	 3.962602006906415e+000	 2.637286788948846e+000	-5.699332919310600e-001
1	 3.933502798784717e+000	 2.680494627269417e+000	-5.627272259992325e-001
1	 3.903901835557514e+000	 2.723425380745691e+000	-5.515131280890823e-001
1	 3.873802996353269e+000	 2.766070417360369e+000	-5.362269026302708e-001
1	 4.175225056205250e+000	 2.340852693863086e+000	-4.323964161367083e-001
1	 4.149587193144094e+000	 2.386005239254254e+000	-4.486315099896255e-001
1	 4.123423072882692e+000	 2.430941424434304e+000	-4.623195331759407e-001
1	 4.096735187493784e+000	 2.475652229886951e+000	-4.732566475748923e-001
1	 4.069526231989785e+000	 2.520128667633114e+000	-4.812497290586821e-001
1	 4.041799104072064e+000	 2.564361786861186e+000	-4.861167424497894e-001
1	 4.013556903694774e+000	 2.608342679568453e+000	-4.876871009498355e-001
1	 3.984802932442126e+000	 2.652062486206557e+000	-4.858020091405715e-001
1	 3.955540692718248e+000	 2.695512401323906e+000	-4.803147886880281e-001
1	 3.925773886749148e+000	 2.738683679197817e+000	-4.710911859143708e-001
1	 3.895506415396551e+000	 2.781567639449147e+000	-4.580096604384933e-001
1	 4.198486876043155e+000	 2.353894504277207e+000	-3.569995815833745e-001
1	 4.172706174370148e+000	 2.399298612245635e+000	-3.720429343812187e-001
1	 4.146396283511082e+000	 2.444485154575171e+000	-3.849584411537714e-001
1	 4.119559709423028e+000	 2.489445061498262e+000	-3.955294917146859e-001
1	 4.092199162133382e+000	 2.534169294960265e+000	-4.035467150431319e-001
1	 4.064317555487758e+000	 2.578648854281084e+000	-4.088083571873055e-001
1	 4.035918006711386e+000	 2.622874781828017e+000	-4.111206498672929e-001
1	 4.007003835782910e+000	 2.666838168692685e+000	-4.102981689254039e-001
1	 3.977578564619736e+000	 2.710530160364864e+000	-4.061641817871944e-001
1	 3.947645916074441e+000	 2.753941962396012e+000	-3.985509831144297e-001
1	 3.917209812741994e+000	 2.797064846045182e+000	-3.873002178517195e-001
1	 4.221748631918484e+000	 2.366936278830407e+000	-2.907638783910409e-001
1	 4.195825092026315e+000	 2.412591948684358e+000	-3.047692189693765e-001
1	 4.169369430970327e+000	 2.458028847474985e+000	-3.169493449873745e-001
1	 4.142384168591881e+000	 2.503237855183603e+000	-3.270877401358930e-001
1	 4.114872029933324e+000	 2.548209883680131e+000	-3.349727740020623e-001
1	 4.086835944984467e+000	 2.592935882416122e+000	-3.403980672167096e-001
1	 4.058279048241575e+000	 2.637406844129022e+000	-3.431628513823343e-001
1	 4.029204678077674e+000	 2.681613810550553e+000	-3.430723229913985e-001
1	 3.999616375923409e+000	 2.725547878111994e+000	-3.399379905500910e-001
1	 3.969517885257865e+000	 2.769200203639073e+000	-3.335780141306782e-001
1	 3.938913150409198e+000	 2.812562010029166e+000	-3.238175365858216e-001
1	 4.245010283123539e+000	 2.379977994700152e+000	-2.335866912417815e-001
1	 4.218943905654852e+000	 2.425885225307669e+000	-2.466373419102589e-001
1	 4.192342475057771e+000	 2.471572479432886e+000	-2.580612968976805e-001
1	 4.165208525057892e+000	 2.517030586806201e+000	-2.676547730531250e-001
1	 4.137544795712442e+000	 2.562250409222323e+000	-2.752176289360614e-001
1	 4.109354233155368e+000	 2.607222846264664e+000	-2.805537016469192e-001
1	 4.080639989153886e+000	 2.651938841041037e+000	-2.834711403908815e-001
1	 4.051405420475334e+000	 2.696389385923487e+000	-2.837827360602847e-001
1	 4.021654088063499e+000	 2.740565528285002e+000	-2.813062461222901e-001
1	 3.991389756023894e+000	 2.784458376225799e+000	-2.758647141018539e-001
1	 3.960616390417768e+000	 2.828059104281789e+000	-2.672867829556931e-001
1	 4.268271788950622e+000	 2.393019629063903e+000	-1.853677140927827e-001
1	 4.242062574798013e+000	 2.439178418852811e+000	-1.974781248552629e-001
1	 4.215315375570760e+000	 2.485116026748010e+000	-2.080684538811913e-001
1	 4.188032738878609e+000	 2.530823232229287e+000	-2.169600688743762e-001
1	 4.160217419793572e+000	 2.576290847016447e+000	-2.239778319550208e-001
1	 4.131872380593638e+000	 2.621509720825070e+000	-2.289503927509771e-001
1	 4.103000790316869e+000	 2.666470747133635e+000	-2.317104780639558e-001
1	 4.073606024124797e+000	 2.711164868954810e+000	-2.320951774856414e-001
1	 4.043691662474240e+000	 2.755583084603597e+000	-2.299462243412240e-001
1	 4.013261490097003e+000	 2.799716453454992e+000	-2.251102713423054e-001
1	 3.982319494787302e+000	 2.843556101683741e+000	-2.174391603375069e-001
1	 4.291533108692034e+000	 2.406061159099123e+000	-1.460088898189045e-001
1	 4.265181058998054e+000	 2.452471506057028e+000	-1.571261309866486e-001
1	 4.238288092306640e+000	 2.498659465719494e+000	-1.667499415142631e-001
1	 4.210856770111574e+000	 2.544615767316092e+000	-1.747390410154854e-001
1	 4.182889862499549e+000	 2.590331172492116e+000	-1.809565812028996e-001
1	 4.154390347892455e+000	 2.635796481095701e+000	-1.852703799525051e-001
1	 4.125361412599069e+000	 2.681002536976384e+000	-1.875531496912839e-001
1	 4.095806450174976e+000	 2.725940233787844e+000	-1.876827195860808e-001
1	 4.065729060589863e+000	 2.770600520787480e+000	-1.855422510214440e-001
1	 4.035133049201670e+000	 2.814974408625452e+000	-1.810204458649979e-001
1	 4.004022425537404e+000	 2.859052975115712e+000	-1.740117470315714e-001
1	 4.314794201640082e+000	 2.419102561983274e+000	-1.154143517920246e-001
1	 4.288299317797230e+000	 2.465764463657564e+000	-1.254195663236693e-001
1	 4.261260585062755e+000	 2.512202772646476e+000	-1.338897221251620e-001
1	 4.233680578814340e+000	 2.558408167929847e+000	-1.407328799475190e-001
1	 4.205562084153207e+000	 2.604371361078937e+000	-1.458635436529071e-001
1	 4.176908095644997e+000	 2.650083102074917e+000	-1.492028200972094e-001
1	 4.147721816869038e+000	 2.695534185138858e+000	-1.506785690067429e-001
1	 4.118006659774780e+000	 2.740715454565915e+000	-1.502255424445212e-001
1	 4.087766243844597e+000	 2.785617810556358e+000	-1.477855134830197e-001
1	 4.057004395062369e+000	 2.830232215035975e+000	-1.433073937231963e-001
1	 4.025725144687676e+000	 2.874549697458392e+000	-1.367473393238444e-001
1	 4.338055027087065e+000	 2.432143814893820e+000	-9.349036732518856e-002
1	 4.311417310737799e+000	 2.479057268391663e+000	-1.022001841776213e-001
1	 4.284232813636448e+000	 2.525745923828093e+000	-1.092764671715170e-001
1	 4.256504125044452e+000	 2.572200409933782e+000	-1.146884002824660e-001
1	 4.228234045077379e+000	 2.618411388206522e+000	-1.184146835547823e-001
1	 4.199425584444444e+000	 2.664369558761082e+000	-1.204436037757450e-001
1	 4.170081963995317e+000	 2.710065666190624e+000	-1.207730887546863e-001
1	 4.140206614073119e+000	 2.755490505432348e+000	-1.194107449330908e-001
1	 4.109803173672678e+000	 2.800634927629938e+000	-1.163738780909132e-001
1	 4.078875489403575e+000	 2.845489845985365e+000	-1.116894969545005e-001
1	 4.047427614257718e+000	 2.890046241592473e+000	-1.053942995528102e-001
1	 4.361315544325288e+000	 2.445184895008222e+000	-8.014528291265501e-002
1	 4.334534997362014e+000	 2.492349896996569e+000	-8.731319263941238e-002
1	 4.307204737825070e+000	 2.539288895563483e+000	-9.270343366763316e-002
1	 4.279327368859456e+000	 2.585992469191127e+000	-9.635789271092768e-002
1	 4.250905705594900e+000	 2.632451229304479e+000	-9.833209632515555e-002
1	 4.221942774883971e+000	 2.678655826152554e+000	-9.869517747408388e-002
1	 4.192441814846461e+000	 2.724596954701255e+000	-9.752981726623435e-002
1	 4.162406274218904e+000	 2.770265360530463e+000	-9.493216173336930e-002
1	 4.131839811508336e+000	 2.815651845727923e+000	-9.101171358295933e-002
1	 4.100746293949762e+000	 2.860747274772420e+000	-8.589119891993148e-002
1	 4.069129796267132e+000	 2.905542580398644e+000	-7.970640899656184e-002
1	 3.852099593592544e+000	 2.750573206898158e+000	-6.222393604594356e-001
1	 3.821678351209255e+000	 2.792686689510306e+000	-5.991536381268510e-001
1	 3.790770314199296e+000	 2.834499098992382e+000	-5.705962033483621e-001
1	 3.759379913927593e+000	 2.876002072770478e+000	-5.375431130919702e-001
1	 3.727511771739844e+000	 2.917187334614500e+000	-5.010078812423793e-001
1	 3.695170696876085e+000	 2.958046700001626e+000	-4.620399577627791e-001
1	 3.662361684203526e+000	 2.998572081419612e+000	-4.217231350643557e-001
1	 3.629089911770705e+000	 3.038755493602876e+000	-3.811738844820231e-001
1	 3.595360738185273e+000	 3.078589058694386e+000	-3.415396259510888e-001
1	 3.561179699818027e+000	 3.118065011326384e+000	-3.039969341676381e-001
1	 3.526552507836178e+000	 3.157175703613221e+000	-2.697496846946120e-001
1	 3.873802996353269e+000	 2.766070417360369e+000	-5.362269026302708e-001
1	 3.843210355370016e+000	 2.808421174698224e+000	-5.159930684437020e-001
1	 3.812128177074004e+000	 2.850469162607365e+000	-4.905865705970803e-001
1	 3.780560917797259e+000	 2.892205971397670e+000	-4.609605890851168e-001
1	 3.748513224922961e+000	 2.933623278209317e+000	-4.281054211147407e-001
1	 3.715989934787253e+000	 2.974712852406442e+000	-3.930469805988023e-001
1	 3.682996070399315e+000	 3.015466560910336e+000	-3.568452253838444e-001
1	 3.649536838981732e+000	 3.055876373465035e+000	-3.205925150773255e-001
1	 3.615617629333495e+000	 3.095934367828269e+000	-2.854119025345107e-001
1	 3.581244009018294e+000	 3.135632734880840e+000	-2.524553622521547e-001
1	 3.546421721381069e+000	 3.174963783647567e+000	-2.229019590941598e-001
1	 3.895506415396551e+000	 2.781567639449147e+000	-4.580096604384934e-001
1	 3.864742375684650e+000	 2.824155671690768e+000	-4.402539416438930e-001
1	 3.833486055971865e+000	 2.866439238203753e+000	-4.176757332311497e-001
1	 3.801741937557329e+000	 2.908409882181733e+000	-3.911932614607013e-001
1	 3.769514693861728e+000	 2.950059234135116e+000	-3.617611103476537e-001
1	 3.736809188317338e+000	 2.991379017314970e+000	-3.303687632414928e-001
1	 3.703630472075320e+000	 3.032361053076081e+000	-2.980390735164903e-001
1	 3.669983781532329e+000	 3.072997266172066e+000	-2.658266671615862e-001
1	 3.635874535678719e+000	 3.113279689975391e+000	-2.348162802497077e-001
1	 3.601308333271101e+000	 3.153200471615381e+000	-2.061210344499070e-001
1	 3.566290949832161e+000	 3.192751877027289e+000	-1.808806539206393e-001
1	 3.917209812741994e+000	 2.797064846045182e+000	-3.873002178517194e-001
1	 3.886274374472733e+000	 2.839890152953399e+000	-3.716860214711728e-001
1	 3.854843913517218e+000	 2.882409297834738e+000	-3.516461139020144e-001
1	 3.822922936141673e+000	 2.924613776766639e+000	-3.280519054857006e-001
1	 3.790516141804253e+000	 2.966495173629784e+000	-3.018099896908384e-001
1	 3.757628421033338e+000	 3.008045165562214e+000	-2.738607483312902e-001
1	 3.724264853122052e+000	 3.049255528352266e+000	-2.451768881149003e-001
1	 3.690430703641079e+000	 3.090118141763178e+000	-2.167619111918038e-001
1	 3.656131421772110e+000	 3.130624994782196e+000	-1.896485225566248e-001
1	 3.621372637464639e+000	 3.170768190787212e+000	-1.648969773365611e-001
1	 3.586160158419070e+000	 3.210539952623959e+000	-1.435933711670067e-001
1	 3.938913150409198e+000	 2.812562010029166e+000	-3.238175365858216e-001
1	 3.907806314053837e+000	 2.855624590951576e+000	-3.100446281938480e-001
1	 3.876201712334408e+000	 2.898379313553518e+000	-2.922849708078866e-001
1	 3.844103876484156e+000	 2.940817626796362e+000	-2.713515063797987e-001
1	 3.811517531998638e+000	 2.982931067931204e+000	-2.480907746686416e-001
1	 3.778447596502258e+000	 3.024711267983181e+000	-2.233816034525941e-001
1	 3.744899177430023e+000	 3.066149957174311e+000	-1.981337331277554e-001
1	 3.710877569526564e+000	 3.107238970277573e+000	-1.732863782003066e-001
1	 3.676388252164828e+000	 3.147970251895124e+000	-1.498067283554447e-001
1	 3.641436886487100e+000	 3.188335861653542e+000	-1.286883919564724e-001
1	 3.606029312371414e+000	 3.228327979309159e+000	-1.109497849896694e-001
1	 3.960616390417768e+000	 2.828059104281789e+000	-2.672867829556931e-001
1	 3.929338156747529e+000	 2.871358958150761e+000	-2.550904878914134e-001
1	 3.897559415047773e+000	 2.914349257413284e+000	-2.393842666842931e-001
1	 3.865284721518648e+000	 2.957021403914880e+000	-2.209111454076327e-001
1	 3.832518827692987e+000	 2.999366888277262e+000	-2.004457563043134e-001
1	 3.799266678291103e+000	 3.041377295412881e+000	-1.787931341554925e-001
1	 3.765533408889745e+000	 3.083044309977635e+000	-1.567874509221356e-001
1	 3.731324343407371e+000	 3.124359721754460e+000	-1.352906909608820e-001
1	 3.696644991408034e+000	 3.165315430960619e+000	-1.151912692820325e-001
1	 3.661501045226677e+000	 3.205903453471577e+000	-9.740259547743894e-002
1	 3.625898376918811e+000	 3.246115925954463e+000	-8.286158609892218e-002
1	 3.982319494787302e+000	 2.843556101683741e+000	-2.174391603375069e-001
1	 3.950869864873384e+000	 2.887093227016413e+000	-2.065895866256488e-001
1	 3.918916984281657e+000	 2.930319101467231e+000	-1.927405420406278e-001
1	 3.886465434179013e+000	 2.973225079766164e+000	-1.765538896629273e-001
1	 3.853519992135404e+000	 3.015802605905841e+000	-1.587207050620278e-001
1	 3.820085629966870e+000	 3.058043218686316e+000	-1.399601997967983e-001
1	 3.786167511391733e+000	 3.099938557197659e+000	-1.210185878978665e-001
1	 3.751770989502083e+000	 3.141480366233044e+000	-1.026678973862761e-001
1	 3.716901604052891e+000	 3.182660501625122e+000	-8.570472903614879e-002
1	 3.681565078571562e+000	 3.223470935498525e+000	-7.094896473693052e-002
1	 3.645767317290876e+000	 3.263903761431448e+000	-5.924242795220572e-002
1	 4.004022425537404e+000	 2.859052975115712e+000	-1.740117470315714e-001
1	 3.972401400750971e+000	 2.902827370013992e+000	-1.643130293126472e-001
1	 3.940274382660400e+000	 2.946288817768555e+000	-1.521547924831330e-001
1	 3.907645977399121e+000	 2.989428625994191e+000	-1.381066854057287e-001
1	 3.874520988573994e+000	 3.032238192054827e+000	-1.227647778857315e-001
1	 3.840904415096563e+000	 3.074709008638496e+000	-1.067506320944101e-001
1	 3.806801448826499e+000	 3.116832669269804e+000	-9.071032250022877e-002
1	 3.772217472029282e+000	 3.158600873752531e+000	-7.531340607322405e-002
1	 3.737158054650565e+000	 3.200005433535078e+000	-6.125184466604504e-002
1	 3.701628951409946e+000	 3.241038276991590e+000	-4.923888160874945e-002
1	 3.665636098717228e+000	 3.281691454611689e+000	-4.000787468243636e-002
1	 4.025725144687676e+000	 2.874549697458392e+000	-1.367473393238444e-001
1	 3.993932726699862e+000	 2.918561359608961e+000	-1.280369031199707e-001
1	 3.961631572808341e+000	 2.962258378370446e+000	-1.174323499715516e-001
1	 3.928826314112840e+000	 3.005632014242935e+000	-1.054002548199325e-001
1	 3.895521780256860e+000	 3.048673617962106e+000	-9.243042821906110e-002
1	 3.861722997247186e+000	 3.091374636104424e+000	-7.903515629360663e-002
1	 3.827435185084556e+000	 3.133726616629490e+000	-6.574839554139433e-002
1	 3.792663755207555e+000	 3.175721214352128e+000	-5.312492391474420e-002
1	 3.757414307752212e+000	 3.217350196336925e+000	-4.173944973632015e-002
1	 3.721692628630024e+000	 3.258605447207982e+000	-3.218568012207895e-002
1	 3.685504686427484e+000	 3.299478974366764e+000	-2.507535069657178e-002
1	 4.047427614257718e+000	 2.890046241592473e+000	-1.053942995528102e-001
1	 4.015463805039629e+000	 2.934295168266779e+000	-9.754214522071374e-002
1	 3.982988517349825e+000	 2.978227755326101e+000	-8.838276786315277e-002
1	 3.950006407254037e+000	 3.021835216156370e+000	-7.826899606393374e-002
1	 3.916522330432105e+000	 3.065108854865561e+000	-6.757331889547770e-002
1	 3.882541339985741e+000	 3.108040071919109e+000	-5.668731484815075e-002
1	 3.848068684056416e+000	 3.150620369712136e+000	-4.602104274475028e-002
1	 3.813109803255483e+000	 3.192841358071038e+000	-3.600239570284259e-002
1	 3.777670327908999e+000	 3.234694759677108e+000	-2.707641930904044e-002
1	 3.741756075119985e+000	 3.276172415404907e+000	-1.970459526777621e-002
1	 3.705373045651260e+000	 3.317266289568248e+000	-1.436409188232027e-002
1	 4.069129796267132e+000	 2.905542580398644e+000	-7.970640899656184e-002
1	 4.036994598089843e+000	 2.950028768452905e+000	-7.261441474327940e-002
1	 4.004345178909193e+000	 2.994196920688713e+000	-6.481970960407696e-002
1	 3.971186219756580e+000	 3.038038203378471e+000	-5.655088649258004e-002
1	 3.937522602347835e+000	 3.081543874003077e+000	-4.805223779248003e-002
1	 3.903359406879230e+000	 3.124705286917557e+000	-3.958339352318973e-002
1	 3.868701909632592e+000	 3.167513898953164e+000	-3.141892942991641e-002
1	 3.833555580391654e+000	 3.209961274948470e+000	-2.384794564803107e-002
1	 3.797926079672085e+000	 3.252039093202069e+000	-1.717361667106477e-002
1	 3.761819255768023e+000	 3.293739150839572e+000	-1.171271342952627e-002
1	 3.725241141618175e+000	 3.335053369087720e+000	-7.795098363533196e-003
1	 3.526552507836178e+000	 3.157175703613221e+000	-2.697496846946121e-001
1	 3.491490338159828e+000	 3.195907828477368e+000	-2.415067579600001e-001
1	 3.455994081322530e+000	 3.234259887315395e+000	-2.202139096085164e-001
1	 3.420069953636332e+000	 3.272224619985245e+000	-2.044475851413837e-001
1	 3.383724332540992e+000	 3.309794902772032e+000	-1.927641856854800e-001
1	 3.346963752837024e+000	 3.346963752837023e+000	-1.837026494151196e-001
1	 3.309794902772032e+000	 3.383724332540992e+000	-1.757870659571936e-001
1	 3.272224619985245e+000	 3.420069953636333e+000	-1.675293182451801e-001
1	 3.234259887315396e+000	 3.455994081322531e+000	-1.574317462148514e-001
1	 3.195907828477369e+000	 3.491490338159829e+000	-1.439898266790069e-001
1	 3.157175703613221e+000	 3.526552507836178e+000	-1.256948636804140e-001
1	 3.546421721381069e+000	 3.174963783647567e+000	-2.229019590941598e-001
1	 3.511162005309020e+000	 3.213914132076515e+000	-1.991993076102779e-001
1	 3.475465756353109e+000	 3.252482273120869e+000	-1.820890590984407e-001
1	 3.439339225849170e+000	 3.290660905733674e+000	-1.702067728552156e-001
1	 3.402788827168555e+000	 3.328442866063796e+000	-1.621684988447750e-001
1	 3.365821131929980e+000	 3.365821131929980e+000	-1.565732622236992e-001
1	 3.328442866063796e+000	 3.402788827168555e+000	-1.520055800532852e-001
1	 3.290660905733673e+000	 3.439339225849170e+000	-1.470380048677061e-001
1	 3.252482273120868e+000	 3.475465756353109e+000	-1.402336896952218e-001
1	 3.213914132076515e+000	 3.511162005309020e+000	-1.301489690751347e-001
1	 3.174963783647567e+000	 3.546421721381069e+000	-1.153359505753447e-001
1	 3.566290949832161e+000	 3.192751877027289e+000	-1.808806539206394e-001
1	 3.530833687216242e+000	 3.231920449184716e+000	-1.612772606325285e-001
1	 3.494937445991728e+000	 3.270704672597463e+000	-1.478620906429926e-001
1	 3.458608512518249e+000	 3.309097205313643e+000	-1.393423495747599e-001
1	 3.421853336098788e+000	 3.347090843345853e+000	-1.344065102274975e-001
1	 3.384678525170281e+000	 3.384678525170280e+000	-1.317266765583065e-001
1	 3.347090843345852e+000	 3.421853336098788e+000	-1.299609786386403e-001
1	 3.309097205313644e+000	 3.458608512518250e+000	-1.277559935100383e-001
1	 3.270704672597464e+000	 3.494937445991728e+000	-1.237491867924443e-001
1	 3.231920449184716e+000	 3.530833687216242e+000	-1.165713698461341e-001
1	 3.192751877027288e+000	 3.566290949832161e+000	-1.048491672513806e-001
1	 3.586160158419070e+000	 3.210539952623959e+000	-1.435933711670067e-001
1	 3.550505349456825e+000	 3.249926748291658e+000	-1.276529660833253e-001
1	 3.514409116163698e+000	 3.288927053856720e+000	-1.174528342196403e-001
1	 3.477877779923087e+000	 3.327533486462375e+000	-1.117841553733747e-001
1	 3.440917825969560e+000	 3.365738801984989e+000	-1.094203920023977e-001
1	 3.403535899558242e+000	 3.403535899558242e+000	-1.091195092220264e-001
1	 3.365738801984989e+000	 3.440917825969561e+000	-1.096262241554408e-001
1	 3.327533486462375e+000	 3.477877779923087e+000	-1.096742798647856e-001
1	 3.288927053856719e+000	 3.514409116163698e+000	-1.079887390251266e-001
1	 3.249926748291657e+000	 3.550505349456825e+000	-1.032882924531706e-001
1	 3.210539952623960e+000	 3.586160158419070e+000	-9.428757756740577e-002
1	 3.606029312371414e+000	 3.228327979309159e+000	-1.109497849896694e-001
1	 3.570176957606095e+000	 3.267932997887018e+000	-9.824073840478390e-002
1	 3.533880732794333e+000	 3.307149385010174e+000	-9.078291755603313e-002
1	 3.497146994343197e+000	 3.345969716917085e+000	-8.746360424244591e-002
1	 3.459982263418742e+000	 3.384386709347995e+000	-8.715361494563556e-002
1	 3.422393222094180e+000	 3.422393222094181e+000	-8.870935360737008e-002
1	 3.384386709347995e+000	 3.459982263418742e+000	-9.097489172887066e-002
1	 3.345969716917085e+000	 3.497146994343197e+000	-9.278407137446194e-002
1	 3.307149385010175e+000	 3.533880732794334e+000	-9.296262660154026e-002
1	 3.267932997887018e+000	 3.570176957606095e+000	-9.033031879188849e-002
1	 3.228327979309159e+000	 3.606029312371414e+000	-8.370308132633736e-002
1	 3.625898376918811e+000	 3.246115925954463e+000	-8.286158609892218e-002
1	 3.589848477239379e+000	 3.285939166460482e+000	-7.295680465535041e-002
1	 3.553352261808945e+000	 3.325371634169370e+000	-6.777571785425464e-002
1	 3.516416122058093e+000	 3.364405864414994e+000	-6.631364183832453e-002
1	 3.479046615084206e+000	 3.403034532801657e+000	-6.755091361416019e-002
1	 3.441250459778411e+000	 3.441250459778410e+000	-7.045475357302754e-002
1	 3.403034532801657e+000	 3.479046615084205e+000	-7.398115289611502e-002
1	 3.364405864414993e+000	 3.516416122058093e+000	-7.707678183240174e-002
1	 3.325371634169370e+000	 3.553352261808945e+000	-7.868091478194039e-002
1	 3.285939166460482e+000	 3.589848477239380e+000	-7.772736807454954e-002
1	 3.246115925954463e+000	 3.625898376918810e+000	-7.314644630372612e-002
1	 3.645767317290876e+000	 3.263903761431448e+000	-5.924242795220571e-002
1	 3.609519873932002e+000	 3.303945222501730e+000	-5.171925345131898e-002
1	 3.572823669132848e+000	 3.343593769445843e+000	-4.835631508014741e-002
1	 3.535685129347288e+000	 3.382841896693317e+000	-4.826870459908491e-002
1	 3.498110847603819e+000	 3.421682239712764e+000	-5.055825264818170e-002
1	 3.460107579611251e+000	 3.460107579611250e+000	-5.431517816762246e-002
1	 3.421682239712764e+000	 3.498110847603818e+000	-5.861975986303831e-002
1	 3.382841896693318e+000	 3.535685129347289e+000	-6.254402615899318e-002
1	 3.343593769445843e+000	 3.572823669132847e+000	-6.515346003501479e-002
1	 3.303945222501731e+000	 3.609519873932002e+000	-6.550871510057404e-002
1	 3.263903761431447e+000	 3.645767317290875e+000	-6.266733923875105e-002
1	 3.665636098717228e+000	 3.281691454611689e+000	-4.000787468243636e-002
1	 3.629191113259290e+000	 3.321951134500448e+000	-3.444798555479340e-002
1	 3.592294920691352e+000	 3.361815758951137e+000	-3.245144675889025e-002
1	 3.554953982490301e+000	 3.401277781489275e+000	-3.326468017965786e-002
1	 3.517174927615451e+000	 3.440329797448102e+000	-3.612279416033690e-002
1	 3.478964548593018e+000	 3.478964548593018e+000	-4.025099716865168e-002
1	 3.440329797448102e+000	 3.517174927615451e+000	-4.486603026871028e-002
1	 3.401277781489275e+000	 3.554953982490301e+000	-4.917761534664186e-002
1	 3.361815758951137e+000	 3.592294920691351e+000	-5.238991599622284e-002
1	 3.321951134500448e+000	 3.629191113259292e+000	-5.370300793847519e-002
1	 3.281691454611689e+000	 3.665636098717227e+000	-5.231435582659015e-002
1	 3.685504686427484e+000	 3.299478974366764e+000	-2.507535069657178e-002
1	 3.648862160796576e+000	 3.339956870946316e+000	-2.106466604657025e-002
1	 3.611765982409771e+000	 3.380037570796788e+000	-1.998946422053288e-002
1	 3.574222647766643e+000	 3.419713486540085e+000	-2.123886915604313e-002
1	 3.536238821756975e+000	 3.458977173374460e+000	-2.419286617092501e-002
1	 3.497821333724026e+000	 3.497821333724026e+000	-2.822345740614243e-002
1	 3.458977173374461e+000	 3.536238821756975e+000	-3.269583243882369e-002
1	 3.419713486540085e+000	 3.574222647766643e+000	-3.696955156717634e-002
1	 3.380037570796788e+000	 3.611765982409771e+000	-4.039973923544287e-002
1	 3.339956870946316e+000	 3.648862160796576e+000	-4.233828504122369e-002
1	 3.299478974366763e+000	 3.685504686427483e+000	-4.213504974954568e-002
1	 3.705373045651260e+000	 3.317266289568248e+000	-1.436409188232027e-002
1	 3.668532982119181e+000	 3.357962400329018e+000	-1.149267802501834e-002
1	 3.631236820213418e+000	 3.398259173094338e+000	-1.090029024159429e-002
1	 3.593491091455829e+000	 3.438148979582966e+000	-1.212994795143948e-002
1	 3.555302496666260e+000	 3.477624334858628e+000	-1.471793205032957e-002
1	 3.516677902004593e+000	 3.516677902004593e+000	-1.819465984186549e-002
1	 3.477624334858627e+000	 3.555302496666260e+000	-2.208557110982128e-002
1	 3.438148979582966e+000	 3.593491091455829e+000	-2.591202343567006e-002
1	 3.398259173094338e+000	 3.631236820213418e+000	-2.919219484102879e-002
1	 3.357962400329018e+000	 3.668532982119181e+000	-3.144199181611517e-002
1	 3.317266289568248e+000	 3.705373045651260e+000	-3.217596078267161e-002
1	 3.725241141618175e+000	 3.335053369087720e+000	-7.795098363533198e-003
1	 3.688203542802433e+000	 3.375967691138236e+000	-5.657077774534427e-003
1	 3.650707400027606e+000	 3.416480533955327e+000	-5.115378031100105e-003
1	 3.612759279837374e+000	 3.456584228355136e+000	-5.877932939108597e-003
1	 3.574365918981176e+000	 3.496271249267390e+000	-7.648560931392984e-003
1	 3.535534220435035e+000	 3.535534220435034e+000	-1.012753737617072e-002
1	 3.496271249267390e+000	 3.574365918981176e+000	-1.301217360634490e-002
1	 3.456584228355136e+000	 3.612759279837374e+000	-1.599740142490382e-002
1	 3.416480533955327e+000	 3.650707400027606e+000	-1.877636182709100e-002
1	 3.375967691138236e+000	 3.688203542802433e+000	-2.104099666933278e-002
1	 3.335053369087720e+000	 3.725241141618175e+000	-2.248264200815059e-002
1	 3.157175703613221e+000	 3.526552507836178e+000	-1.256948636804141e-001
1	 3.118065011326384e+000	 3.561179699818027e+000	-1.018881475088170e-001
1	 3.078589058694385e+000	 3.595360738185272e+000	-7.376594843912467e-002
1	 3.038755493602876e+000	 3.629089911770705e+000	-4.258243274368443e-002
1	 2.998572081419611e+000	 3.662361684203525e+000	-9.578708944727803e-003
1	 2.958046700001627e+000	 3.695170696876085e+000	 2.401922918946682e-002
1	 2.917187334614500e+000	 3.727511771739845e+000	 5.700252388823347e-002
1	 2.876002072770478e+000	 3.759379913927594e+000	 8.818143479511058e-002
1	 2.834499098992381e+000	 3.790770314199297e+000	 1.163872766129252e-001
1	 2.792686689510306e+000	 3.821678351209255e+000	 1.404743091666457e-001
1	 2.750573206898158e+000	 3.852099593592544e+000	 1.593215762176612e-001
1	 3.174963783647567e+000	 3.546421721381069e+000	-1.153359505753447e-001
1	 3.135632734880840e+000	 3.581244009018294e+000	-9.514451367441755e-002
1	 3.095934367828270e+000	 3.615617629333495e+000	-7.070928568865811e-002
1	 3.055876373465033e+000	 3.649536838981733e+000	-4.324168763783188e-002
1	 3.015466560910336e+000	 3.682996070399315e+000	-1.394051978861107e-002
1	 2.974712852406443e+000	 3.715989934787254e+000	 1.601004171262570e-002
1	 2.933623278209317e+000	 3.748513224922959e+000	 4.544241348937082e-002
1	 2.892205971397670e+000	 3.780560917797260e+000	 7.320753489799101e-002
1	 2.850469162607365e+000	 3.812128177074004e+000	 9.817675545438583e-002
1	 2.808421174698224e+000	 3.843210355370014e+000	 1.192436760046261e-001
1	 2.766070417360369e+000	 3.873802996353269e+000	 1.353259400604885e-001
1	 3.192751877027288e+000	 3.566290949832161e+000	-1.048491672513806e-001
1	 3.153200471615381e+000	 3.601308333271101e+000	-8.795206724210324e-002
1	 3.113279689975391e+000	 3.635874535678719e+000	-6.694501388858681e-002
1	 3.072997266172066e+000	 3.669983781532329e+000	-4.298163701907186e-002
1	 3.032361053076081e+000	 3.703630472075320e+000	-1.720331971800762e-002
1	 2.991379017314971e+000	 3.736809188317337e+000	 9.262722494027384e-003
1	 2.950059234135116e+000	 3.769514693861728e+000	 3.530532886975150e-002
1	 2.908409882181733e+000	 3.801741937557330e+000	 5.983124322441493e-002
1	 2.866439238203751e+000	 3.833486055971865e+000	 8.176692261051372e-002
1	 2.824155671690768e+000	 3.864742375684651e+000	 1.000603013093395e-001
1	 2.781567639449146e+000	 3.895506415396550e+000	 1.136825067064659e-001
1	 3.210539952623960e+000	 3.586160158419070e+000	-9.428757756740575e-002
1	 3.170768190787212e+000	 3.621372637464638e+000	-8.038542857793392e-002
1	 3.130624994782196e+000	 3.656131421772108e+000	-6.256809533750328e-002
1	 3.090118141763177e+000	 3.690430703641078e+000	-4.191663012607422e-002
1	 3.049255528352266e+000	 3.724264853122051e+000	-1.950014996638551e-002
1	 3.008045165562214e+000	 3.757628421033338e+000	 3.625973003139099e-003
1	 2.966495173629784e+000	 3.790516141804253e+000	 2.642188871561450e-002
1	 2.924613776766639e+000	 3.822922936141672e+000	 4.786501033390329e-002
1	 2.882409297834738e+000	 3.854843913517219e+000	 6.695171590124832e-002
1	 2.839890152953399e+000	 3.886274374472734e+000	 8.269900712621868e-002
1	 2.797064846045182e+000	 3.917209812741993e+000	 9.414612207374463e-002
1	 3.228327979309159e+000	 3.606029312371414e+000	-8.370308132633736e-002
1	 3.188335861653542e+000	 3.641436886487099e+000	-7.251757763550648e-002
1	 3.147970251895125e+000	 3.676388252164827e+000	-5.767140297802960e-002
1	 3.107238970277573e+000	 3.710877569526563e+000	-4.015849941966487e-002
1	 3.066149957174312e+000	 3.744899177430023e+000	-2.096112318697663e-002
1	 3.024711267983182e+000	 3.778447596502260e+000	-1.048174620590964e-003
1	 2.982931067931204e+000	 3.811517531998638e+000	 1.862644066564691e-002
1	 2.940817626796362e+000	 3.844103876484156e+000	 3.712541611141092e-002
1	 2.898379313553517e+000	 3.876201712334408e+000	 5.352961081960974e-002
1	 2.855624590951576e+000	 3.907806314053837e+000	 6.693957536055119e-002
1	 2.812562010029165e+000	 3.938913150409198e+000	 7.647703380505692e-002
1	 3.246115925954463e+000	 3.625898376918810e+000	-7.314644630372612e-002
1	 3.205903453471578e+000	 3.661501045226677e+000	-6.441989898302938e-002
1	 3.165315430960621e+000	 3.696644991408035e+000	-5.234577768828310e-002
1	 3.124359721754459e+000	 3.731324343407371e+000	-3.781662956165445e-002
1	 3.083044309977635e+000	 3.765533408889745e+000	-2.171350369921948e-002
1	 3.041377295412882e+000	 3.799266678291102e+000	-4.904448819463812e-003
1	 2.999366888277262e+000	 3.832518827692987e+000	 1.175695915891087e-002
1	 2.957021403914880e+000	 3.865284721518647e+000	 2.743305666267717e-002
1	 2.914349257413283e+000	 3.897559415047773e+000	 4.130349626542301e-002
1	 2.871358958150760e+000	 3.929338156747529e+000	 5.256661198422153e-002
1	 2.828059104281789e+000	 3.960616390417767e+000	 6.044074342647927e-002
1	 3.263903761431447e+000	 3.645767317290875e+000	-6.266733923875105e-002
1	 3.223470935498525e+000	 3.681565078571562e+000	-5.616222537155913e-002
1	 3.182660501625123e+000	 3.716901604052892e+000	-4.668008371711328e-002
1	 3.141480366233044e+000	 3.751770989502083e+000	-3.499802415873134e-002
1	 3.099938557197659e+000	 3.786167511391734e+000	-2.188178513518234e-002
1	 3.058043218686317e+000	 3.820085629966870e+000	-8.084426912666797e-003
1	 3.015802605905841e+000	 3.853519992135404e+000	 5.654946592546190e-003
1	 2.973225079766165e+000	 3.886465434179013e+000	 1.861243487423582e-002
1	 2.930319101467231e+000	 3.918916984281657e+000	 3.008055430536748e-002
1	 2.887093227016413e+000	 3.950869864873384e+000	 3.936941564229648e-002
1	 2.843556101683741e+000	 3.982319494787302e+000	 4.580786329646350e-002
1	 3.281691454611689e+000	 3.665636098717227e+000	-5.231435582659016e-002
1	 3.241038276991591e+000	 3.701628951409947e+000	-4.781287989925662e-002
1	 3.200005433535079e+000	 3.737158054650565e+000	-4.076126233288586e-002
1	 3.158600873752532e+000	 3.772217472029283e+000	-3.180737035545662e-002
1	 3.116832669269804e+000	 3.806801448826499e+000	-2.158776558373228e-002
1	 3.074709008638497e+000	 3.840904415096564e+000	-1.072662054596798e-002
1	 3.032238192054828e+000	 3.874520988573996e+000	 1.653376648198886e-004
1	 2.989428625994191e+000	 3.907645977399120e+000	 1.049185450031235e-002
1	 2.946288817768555e+000	 3.940274382660400e+000	 1.967214380798095e-002
1	 2.902827370013992e+000	 3.972401400750971e+000	 2.714185049404146e-002
1	 2.859052975115711e+000	 4.004022425537404e+000	 3.235397816503722e-002
1	 3.299478974366763e+000	 3.685504686427483e+000	-4.213504974954568e-002
1	 3.258605447207982e+000	 3.721692628630023e+000	-3.943871682417602e-002
1	 3.217350196336926e+000	 3.757414307752213e+000	-3.467438375263721e-002
1	 3.175721214352127e+000	 3.792663755207555e+000	-2.834710135679729e-002
1	 3.133726616629490e+000	 3.827435185084556e+000	-2.095062032600767e-002
1	 3.091374636104424e+000	 3.861722997247187e+000	-1.296655840238509e-002
1	 3.048673617962106e+000	 3.895521780256860e+000	-4.863593215602678e-003
1	 3.005632014242934e+000	 3.928826314112840e+000	 2.903317644706184e-003
1	 2.962258378370446e+000	 3.961631572808341e+000	 9.893687808706640e-003
1	 2.918561359608961e+000	 3.993932726699862e+000	 1.568222313001530e-002
1	 2.874549697458392e+000	 4.025725144687677e+000	 1.985951117078056e-002
1	 3.317266289568248e+000	 3.705373045651260e+000	-3.217596078267161e-002
1	 3.276172415404907e+000	 3.741756075119985e+000	-3.110516107584994e-002
1	 3.234694759677108e+000	 3.777670327908998e+000	-2.850269741556023e-002
1	 3.192841358071037e+000	 3.813109803255483e+000	-2.471745695720415e-002
1	 3.150620369712136e+000	 3.848068684056416e+000	-2.008697225181486e-002
1	 3.108040071919110e+000	 3.882541339985742e+000	-1.493686627570650e-002
1	 3.065108854865560e+000	 3.916522330432104e+000	-9.580321568218990e-003
1	 3.021835216156370e+000	 3.950006407254037e+000	-4.317574488614763e-003
1	 2.978227755326099e+000	 3.982988517349826e+000	 5.645644662376919e-004
1	 2.934295168266778e+000	 4.015463805039629e+000	 4.793163413629504e-003
1	 2.890046241592473e+000	 4.047427614257718e+000	 8.109594110507726e-003
1	 3.335053369087720e+000	 3.725241141618175e+000	-2.248264200815059e-002
1	 3.293739150839573e+000	 3.761819255768024e+000	-2.287624651383111e-002
1	 3.252039093202069e+000	 3.797926079672084e+000	-2.232768066208498e-002
1	 3.209961274948469e+000	 3.833555580391654e+000	-2.101654215001274e-002
1	 3.167513898953163e+000	 3.868701909632593e+000	-1.911096004273418e-002
1	 3.124705286917558e+000	 3.903359406879230e+000	-1.676734460445079e-002
1	 3.081543874003077e+000	 3.937522602347834e+000	-1.413015963631750e-002
1	 3.038038203378471e+000	 3.971186219756580e+000	-1.133171769716366e-002
1	 2.994196920688713e+000	 4.004345178909193e+000	-8.491998522720687e-003
1	 2.950028768452905e+000	 4.036994598089843e+000	-5.718490898038007e-003
1	 2.905542580398644e+000	 4.069129796267133e+000	-3.106058176438085e-003
1	 2.750573206898158e+000	 3.852099593592544e+000	 1.593215762176612e-001
1	 2.708167093740830e+000	 3.882029800775059e+000	 1.725530310139093e-001
1	 2.665476864481691e+000	 3.911464921384907e+000	 1.808085577362243e-001
1	 2.622511102776230e+000	 3.940401098026868e+000	 1.845261284356791e-001
1	 2.579278456895366e+000	 3.968834669728083e+000	 1.841635016784126e-001
1	 2.535787634173377e+000	 3.996762173110999e+000	 1.801973202104297e-001
1	 2.492047395438517e+000	 4.024180343380285e+000	 1.731221834355235e-001
1	 2.448066549433489e+000	 4.051086115123940e+000	 1.634496968566137e-001
1	 2.403853947232864e+000	 4.077476622929091e+000	 1.517075006649912e-001
1	 2.359418476664550e+000	 4.103349201813303e+000	 1.384382796891733e-001
1	 2.314769056742236e+000	 4.128701387472491e+000	 1.241987569353494e-001
1	 2.766070417360369e+000	 3.873802996353269e+000	 1.353259400604885e-001
1	 2.723425380745691e+000	 3.903901835557514e+000	 1.460696428444752e-001
1	 2.680494627269417e+000	 3.933502798784716e+000	 1.521369530968586e-001
1	 2.637286788948846e+000	 3.962602006906416e+000	 1.540008641814828e-001
1	 2.593810562780759e+000	 3.991195778323189e+000	 1.521498511121021e-001
1	 2.550074705158071e+000	 4.019280630144203e+000	 1.470869414500829e-001
1	 2.506088026269068e+000	 4.046853279179696e+000	 1.393287689440217e-001
1	 2.461859384486437e+000	 4.073910642746603e+000	 1.294046120280990e-001
1	 2.417397680753247e+000	 4.100449839287810e+000	 1.178554193107001e-001
1	 2.372711852972975e+000	 4.126468188805896e+000	 1.052328241929903e-001
1	 2.327810870410583e+000	 4.151963213112461e+000	 9.209815075878414e-002
1	 2.781567639449146e+000	 3.895506415396550e+000	 1.136825067064659e-001
1	 2.738683679197817e+000	 3.925773886749149e+000	 1.222932363670632e-001
1	 2.695512401323906e+000	 3.955540692718250e+000	 1.265455605849517e-001
1	 2.652062486206556e+000	 3.984802932442126e+000	 1.269285437699263e-001
1	 2.608342679568453e+000	 4.013556903694774e+000	 1.239431542145374e-001
1	 2.564361786861187e+000	 4.041799104072063e+000	 1.181013349775663e-001
1	 2.520128667633114e+000	 4.069526231989785e+000	 1.099250638589669e-001
1	 2.475652229886951e+000	 4.096735187493784e+000	 9.994540451197502e-002
1	 2.430941424434304e+000	 4.123423072882693e+000	 8.870155073774087e-002
1	 2.386005239254254e+000	 4.149587193144094e+000	 7.673986600150348e-002
1	 2.340852693863086e+000	 4.175225056205249e+000	 6.461292019687216e-002
1	 2.797064846045182e+000	 3.917209812741993e+000	 9.414612207374463e-002
1	 2.753941962396011e+000	 3.947645916074441e+000	 1.009618213154376e-001
1	 2.710530160364864e+000	 3.977578564619736e+000	 1.037630700185382e-001
1	 2.666838168692685e+000	 4.007003835782910e+000	 1.030363547276767e-001
1	 2.622874781828017e+000	 4.035918006711387e+000	 9.927720652962116e-002
1	 2.578648854281084e+000	 4.064317555487758e+000	 9.298929843480024e-002
1	 2.534169294960265e+000	 4.092199162133383e+000	 8.468353663450592e-002
1	 2.489445061498263e+000	 4.119559709423028e+000	 7.487714757089135e-002
1	 2.444485154575171e+000	 4.146396283511083e+000	 6.409276274607380e-002
1	 2.399298612245635e+000	 4.172706174370148e+000	 5.285750318016963e-002
1	 2.353894504277207e+000	 4.198486876043154e+000	 4.170206540613242e-002
1	 2.812562010029165e+000	 3.938913150409198e+000	 7.647703380505692e-002
1	 2.769200203639073e+000	 3.969517885257865e+000	 8.181918262723750e-002
1	 2.725547878111994e+000	 3.999616375923409e+000	 8.352415491972173e-002
1	 2.681613810550553e+000	 4.029204678077674e+000	 8.205750497210380e-002
1	 2.637406844129022e+000	 4.058279048241575e+000	 7.789168222844754e-002
1	 2.592935882416122e+000	 4.086835944984467e+000	 7.150518144416221e-002
1	 2.548209883680132e+000	 4.114872029933324e+000	 6.338168995091445e-002
1	 2.503237855183603e+000	 4.142384168591883e+000	 5.400923382103912e-002
1	 2.458028847474985e+000	 4.169369430970327e+000	 4.387932470594211e-002
1	 2.412591948684358e+000	 4.195825092026315e+000	 3.348610910092931e-002
1	 2.366936278830408e+000	 4.221748631918484e+000	 2.332552176182324e-002
1	 2.828059104281789e+000	 3.960616390417767e+000	 6.044074342647927e-002
1	 2.784458376225800e+000	 3.991389756023894e+000	 6.461472244860954e-002
1	 2.740565528285003e+000	 4.021654088063499e+000	 6.556930890108048e-002
1	 2.696389385923487e+000	 4.051405420475334e+000	 6.373105829730383e-002
1	 2.651938841041037e+000	 4.080639989153886e+000	 5.953197358953540e-002
1	 2.607222846264664e+000	 4.109354233155368e+000	 5.340873414885212e-002
1	 2.562250409222322e+000	 4.137544795712441e+000	 4.580192354690346e-002
1	 2.517030586806201e+000	 4.165208525057891e+000	 3.715525774839297e-002
1	 2.471572479432886e+000	 4.192342475057773e+000	 2.791481530452300e-002
1	 2.425885225307669e+000	 4.218943905654851e+000	 1.852827111434461e-002
1	 2.379977994700152e+000	 4.245010283123538e+000	 9.444135293270012e-003
1	 2.843556101683741e+000	 3.982319494787302e+000	 4.580786329646350e-002
1	 2.799716453454992e+000	 4.013261490097004e+000	 4.910330725818749e-002
1	 2.755583084603597e+000	 4.043691662474240e+000	 4.964468735354522e-002
1	 2.711164868954809e+000	 4.073606024124798e+000	 4.780177519087173e-002
1	 2.666470747133636e+000	 4.103000790316870e+000	 4.394903568048362e-002
1	 2.621509720825070e+000	 4.131872380593638e+000	 3.846496066123736e-002
1	 2.576290847016447e+000	 4.160217419793572e+000	 3.173140149690572e-002
1	 2.530823232229287e+000	 4.188032738878607e+000	 2.413290203224457e-002
1	 2.485116026748009e+000	 4.215315375570761e+000	 1.605603328245514e-002
1	 2.439178418852812e+000	 4.242062574798013e+000	 7.888731209642471e-003
1	 2.393019629063903e+000	 4.268271788950621e+000	 1.963891596034497e-005
1	 2.859052975115711e+000	 4.004022425537404e+000	 3.235397816503722e-002
1	 2.814974408625451e+000	 4.035133049201670e+000	 3.504511991795140e-002
1	 2.770600520787481e+000	 4.065729060589862e+000	 3.550195423643263e-002
1	 2.725940233787844e+000	 4.095806450174977e+000	 3.401995878100561e-002
1	 2.681002536976385e+000	 4.125361412599069e+000	 3.089923604551685e-002
1	 2.635796481095702e+000	 4.154390347892455e+000	 2.644397723465650e-002
1	 2.590331172492116e+000	 4.182889862499548e+000	 2.096192376626939e-002
1	 2.544615767316093e+000	 4.210856770111573e+000	 1.476382753292122e-002
1	 2.498659465719494e+000	 4.238288092306640e+000	 8.162911047862237e-003
1	 2.452471506057028e+000	 4.265181058998053e+000	 1.474328587965184e-003
1	 2.406061159099123e+000	 4.291533108692034e+000	-4.985370569507763e-003
1	 2.874549697458392e+000	 4.025725144687677e+000	 1.985951117078056e-002
1	 2.830232215035976e+000	 4.057004395062370e+000	 2.220551646672906e-002
1	 2.785617810556359e+000	 4.087766243844597e+000	 2.289813377885520e-002
1	 2.740715454565916e+000	 4.118006659774781e+000	 2.214130572210623e-002
1	 2.695534185138857e+000	 4.147721816869036e+000	 2.014420921173291e-002
1	 2.650083102074918e+000	 4.176908095644997e+000	 1.712087498207611e-002
1	 2.604371361078937e+000	 4.205562084153207e+000	 1.328980188439716e-002
1	 2.558408167929847e+000	 4.233680578814339e+000	 8.873566806694612e-003
1	 2.512202772646476e+000	 4.261260585062754e+000	 4.098431060298156e-003
1	 2.465764463657564e+000	 4.288299317797230e+000	-8.060559226917671e-004
1	 2.419102561983274e+000	 4.314794201640082e+000	-5.607454740270012e-003
1	 2.890046241592473e+000	 4.047427614257718e+000	 8.109594110507726e-003
1	 2.845489845985365e+000	 4.078875489403575e+000	 1.035488747993197e-002
1	 2.800634927629938e+000	 4.109803173672678e+000	 1.159546690982110e-002
1	 2.755490505432347e+000	 4.140206614073120e+000	 1.192676183519222e-002
1	 2.710065666190624e+000	 4.170081963995318e+000	 1.145071583483310e-002
1	 2.664369558761082e+000	 4.199425584444443e+000	 1.027558697249332e-002
1	 2.618411388206522e+000	 4.228234045077379e+000	 8.515738582685891e-003
1	 2.572200409933783e+000	 4.256504125044452e+000	 6.291421016694082e-003
1	 2.525745923828092e+000	 4.284232813636448e+000	 3.728544881613405e-003
1	 2.479057268391664e+000	 4.311417310737799e+000	 9.584463206795152e-004
1	 2.432143814893819e+000	 4.338055027087065e+000	-1.882355103255457e-003
1	 2.905542580398644e+000	 4.069129796267133e+000	-3.106058176438085e-003
1	 2.860747274772420e+000	 4.100746293949762e+000	-7.314761734208936e-004
1	 2.815651845727925e+000	 4.131839811508338e+000	 1.361272242070907e-003
1	 2.770265360530463e+000	 4.162406274218905e+000	 3.142382327201764e-003
1	 2.724596954701255e+000	 4.192441814846461e+000	 4.590506312685524e-003
1	 2.678655826152554e+000	 4.221942774883971e+000	 5.692759543116764e-003
1	 2.632451229304479e+000	 4.250905705594900e+000	 6.444711250586005e-003
1	 2.585992469191127e+000	 4.279327368859455e+000	 6.850360114216625e-003
1	 2.539288895563483e+000	 4.307204737825071e+000	 6.922094795093921e-003
1	 2.492349896996570e+000	 4.334534997362014e+000	 6.680639671900129e-003
1	 2.445184895008223e+000	 4.361315544325288e+000	 6.154986037275320e-003
1	 2.314769056742236e+000	 4.128701387472491e+000	 1.241987569353494e-001
1	 2.269921375286927e+000	 4.153527231960959e+000	 1.105831928792526e-001
1	 2.224877713832085e+000	 4.177828517788692e+000	 9.865860578238454e-002
1	 2.179647050109438e+000	 4.201603386542996e+000	 8.819959780105051e-002
1	 2.134238370909848e+000	 4.224850179576209e+000	 7.897094253796513e-002
1	 2.088660666674489e+000	 4.247567437359611e+000	 7.072816655717309e-002
1	 2.042922926136646e+000	 4.269753898666801e+000	 6.321813874656301e-002
1	 1.997034131020162e+000	 4.291408499589529e+000	 5.617966618527170e-002
1	 1.951003250800438e+000	 4.312530372389278e+000	 4.934409517994336e-002
1	 1.904839237533663e+000	 4.333118844188068e+000	 4.243591614428051e-002
1	 1.858551020759794e+000	 4.353173435502171e+000	 3.517337101057588e-002
1	 2.327810870410583e+000	 4.151963213112461e+000	 9.209815075878414e-002
1	 2.282710509275002e+000	 4.176928930750042e+000	 7.990834166724674e-002
1	 2.237413063954258e+000	 4.201367134271600e+000	 6.958294952031471e-002
1	 2.191927562762202e+000	 4.225275954793839e+000	 6.088456738335939e-002
1	 2.146263043122858e+000	 4.248653724323997e+000	 5.356922110415011e-002
1	 2.100428546131131e+000	 4.271498975110129e+000	 4.738692050580125e-002
1	 2.054433111164409e+000	 4.293810438819873e+000	 4.208221309797131e-002
1	 2.008285770551152e+000	 4.315587045550745e+000	 3.739473911773711e-002
1	 1.961995544302362e+000	 4.336827922675253e+000	 3.305978672843333e-002
1	 1.915571434911692e+000	 4.357532393524315e+000	 2.880884622489222e-002
1	 1.869022422229697e+000	 4.377699975912726e+000	 2.437016211659228e-002
1	 2.340852693863086e+000	 4.175225056205249e+000	 6.461292019687216e-002
1	 2.295499652857716e+000	 4.200330647096901e+000	 5.367003515403804e-002
1	 2.249948423480745e+000	 4.224905768415010e+000	 4.472888621954661e-002
1	 2.204208084628181e+000	 4.248948540805665e+000	 3.755018030119079e-002
1	 2.158287724357238e+000	 4.272457286930998e+000	 3.188986948599071e-002
1	 2.112196434416588e+000	 4.295430530815842e+000	 2.749967500733150e-002
1	 2.065943304827759e+000	 4.317866997021875e+000	 2.412761092464761e-002
1	 2.019537418523855e+000	 4.339765609652385e+000	 2.151850643229012e-002
1	 1.972987846051518e+000	 4.361125491190895e+000	 1.941452573609249e-002
1	 1.926303640341893e+000	 4.381945961177230e+000	 1.755568446074392e-002
1	 1.879493831556171e+000	 4.402226534724702e+000	 1.568036157831471e-002
1	 2.353894504277207e+000	 4.198486876043154e+000	 4.170206540613242e-002
1	 2.308288783654709e+000	 4.223732340049086e+000	 3.188483843206800e-002
1	 2.262483770475299e+000	 4.248444379026887e+000	 2.415397808349573e-002
1	 2.216488594217080e+000	 4.272621103152047e+000	 1.827830682339222e-002
1	 2.170312393570410e+000	 4.296260825741617e+000	 1.402227219150942e-002
1	 2.123964310937664e+000	 4.319362062597204e+000	 1.114644658889738e-002
1	 2.077453486984452e+000	 4.341923531174544e+000	 9.408026471646694e-003
1	 2.030789055248471e+000	 4.363944149582699e+000	 8.561329927306549e-003
1	 1.983980136811944e+000	 4.385423035416231e+000	 8.358291628944832e-003
1	 1.937035835043453e+000	 4.406359504423866e+000	 8.548954185918009e-003
1	 1.889965230414765e+000	 4.426753069017446e+000	 8.881954936987690e-003
1	 2.366936278830408e+000	 4.221748631918484e+000	 2.332552176182324e-002
1	 2.321077879285621e+000	 4.247133968654143e+000	 1.456898452610558e-002
1	 2.275019083001671e+000	 4.271982924915197e+000	 7.914552441961122e-003
1	 2.228769070038613e+000	 4.296293600406571e+000	 3.149046797757610e-003
1	 2.182337029719799e+000	 4.320064299100254e+000	 5.387741974216148e-005
1	 2.135732155101160e+000	 4.343293528574663e+000	-1.594478734662305e-003
1	 2.088963637492247e+000	 4.365979999179607e+000	-2.023997395982301e-003
1	 2.042040661035200e+000	 4.388122623029947e+000	-1.466626232013062e-003
1	 1.994972397347677e+000	 4.409720512831290e+000	-1.578045291860959e-004
1	 1.947768000235553e+000	 4.430772980541284e+000	 1.664015710761270e-003
1	 1.900436600481028e+000	 4.451279535870308e+000	 3.757846296722537e-003
1	 2.379977994700152e+000	 4.245010283123538e+000	 9.444135293270012e-003
1	 2.333866917370094e+000	 4.270535491959619e+000	 1.738384574279568e-003
1	 2.287554339123615e+000	 4.295521364887908e+000	-3.934263328738117e-003
1	 2.241049490602490e+000	 4.319965991142815e+000	-7.759220769551252e-003
1	 2.194361611762827e+000	 4.343867665351315e+000	-9.929748843678829e-003
1	 2.147499946313881e+000	 4.367224886868669e+000	-1.064649704557195e-002
1	 2.100473736208903e+000	 4.390036358938797e+000	-1.011703669840949e-002
1	 2.053292216194243e+000	 4.412300987682381e+000	-8.555389213150265e-003
1	 2.005964608422758e+000	 4.434017880916100e+000	-6.181550228379401e-003
1	 1.958500117137380e+000	 4.455186346806542e+000	-3.221010674326774e-003
1	 1.910907923430507e+000	 4.475805892362633e+000	 9.572420660671472e-005
1	 2.393019629063903e+000	 4.268271788950621e+000	 1.963891596034497e-005
1	 2.346655875527765e+000	 4.293936869013054e+000	-6.591362319903457e-003
1	 2.300089516904883e+000	 4.319059657752982e+000	-1.133850801621331e-002
1	 2.253329834418422e+000	 4.343638233934360e+000	-1.436978974014912e-002
1	 2.206386118656919e+000	 4.367670882839204e+000	-1.584487048283468e-002
1	 2.159267663982630e+000	 4.391156095599676e+000	-1.593463967575017e-002
1	 2.111983762992179e+000	 4.414092568353846e+000	-1.482075489826553e-002
1	 2.064543701035800e+000	 4.436479201228258e+000	-1.269517141908728e-002
1	 2.016956750801223e+000	 4.458315097150689e+000	-9.759660725245286e-003
1	 1.969232166968115e+000	 4.479599560496697e+000	-6.225319199508445e-003
1	 1.921379180938751e+000	 4.500332095573771e+000	-2.312068110789697e-003
1	 2.406061159099123e+000	 4.291533108692034e+000	-4.985370569507763e-003
1	 2.359444731378276e+000	 4.317338058861998e+000	-1.040495955215347e-002
1	 2.312624594409227e+000	 4.342597762318389e+000	-1.424535387049594e-002
1	 2.265610079996117e+000	 4.367310287354787e+000	-1.660758041473644e-002
1	 2.218410529359499e+000	 4.391473909908328e+000	-1.760953059383895e-002
1	 2.171035287514209e+000	 4.415087112888133e+000	-1.738552786832185e-002
1	 2.123493697699832e+000	 4.438148585326483e+000	-1.608587247032581e-002
1	 2.075795095870068e+000	 4.460657221355827e+000	-1.387636458675506e-002
1	 2.027948805247112e+000	 4.482612119015087e+000	-1.093780731325842e-002
1	 1.979964130946946e+000	 4.504012578888808e+000	-7.465490714330914e-003
1	 1.931850354681307e+000	 4.524858102583068e+000	-3.668658347887986e-003
1	 2.419102561983274e+000	 4.314794201640082e+000	-5.607454740270012e-003
1	 2.372233462541266e+000	 4.340739020553997e+000	-9.687403786722478e-003
1	 2.325159549700400e+000	 4.366135637392092e+000	-1.260307494985022e-002
1	 2.277890205845287e+000	 4.390982109977675e+000	-1.439909459175992e-002
1	 2.230434822827990e+000	 4.415276704903087e+000	-1.514350245006575e-002
1	 2.182802796315422e+000	 4.439017896854491e+000	-1.492732889154742e-002
1	 2.135003520189621e+000	 4.462204367758440e+000	-1.386413744573881e-002
1	 2.087046381007252e+000	 4.484835005753348e+000	-1.208953407377417e-002
1	 2.038940752524462e+000	 4.506908903989322e+000	-9.760644686003572e-003
1	 1.990695990293054e+000	 4.528425359259935e+000	-7.055562474543280e-003
1	 1.942321426333725e+000	 4.549383870469874e+000	-4.172766673960390e-003
1	 2.432143814893819e+000	 4.338055027087065e+000	-1.882355103255457e-003
1	 2.385022046636375e+000	 4.364139713136595e+000	-4.423976019093199e-003
1	 2.337694360842154e+000	 4.389673241782057e+000	-6.361016474910472e-003
1	 2.290170190475642e+000	 4.414653660376604e+000	-7.672372058054822e-003
1	 2.242458978019817e+000	 4.439079226167888e+000	-8.368242029892862e-003
1	 2.194570169793072e+000	 4.462948405619200e+000	-8.489713551108001e-003
1	 2.146513210319304e+000	 4.486259873551445e+000	-8.108296894519619e-003
1	 2.098297536757549e+000	 4.509012512109074e+000	-7.325413326438287e-003
1	 2.049932573397312e+000	 4.531205409553420e+000	-6.271837427043187e-003
1	 2.001427726225625e+000	 4.552837858887132e+000	-5.107095702875834e-003
1	 1.952792377571551e+000	 4.573909356313535e+000	-4.018823420120656e-003
1	 2.445184895008223e+000	 4.361315544325288e+000	 6.154986037275328e-003
1	 2.397810461283245e+000	 4.387540095657339e+000	 5.399767078861118e-003
1	 2.350229005898243e+000	 4.413210534296250e+000	 4.530434846202689e-003
1	 2.302450012396893e+000	 4.438324897125159e+000	 3.643051541546084e-003
1	 2.254482973892404e+000	 4.462881432047135e+000	 2.793157950894302e-003
1	 2.206337387353962e+000	 4.486878597302711e+000	 1.996184951024680e-003
1	 2.158022747946641e+000	 4.510315060607234e+000	 1.227930688446214e-003
1	 2.109548543431158e+000	 4.533189698111257e+000	 4.251014777866995e-004
1	 2.060924248629702e+000	 4.555501593187414e+000	-5.140856586939821e-004
1	 2.012159319963842e+000	 4.577250035047464e+000	-1.729241006122133e-003
1	 1.963263190070333e+000	 4.598434517193399e+000	-3.397083030872287e-003
1	 1.858551020759794e+000	 4.353173435502171e+000	 3.517337101057595e-002
1	 1.812140533433458e+000	 4.372696747465477e+000	 2.670193447793075e-002
1	 1.765623585772689e+000	 4.391685636628613e+000	 1.664054690312421e-002
1	 1.719009016112671e+000	 4.410140196866270e+000	 5.400956518716282e-003
1	 1.672305620595791e+000	 4.428060708201621e+000	-6.617424398175664e-003
1	 1.625522148514562e+000	 4.445447634610877e+000	-1.902794869520268e-002
1	 1.578667297757052e+000	 4.462301621696777e+000	-3.145713405075597e-002
1	 1.531749710358706e+000	 4.478623494235841e+000	-4.354503300250703e-002
1	 1.484777968164294e+000	 4.494414253604442e+000	-5.494557316037267e-002
1	 1.437760588603412e+000	 4.509675075088746e+000	-6.532686754028930e-002
1	 1.390706020582741e+000	 4.524407305083716e+000	-7.437149502801647e-002
1	 1.869022422229697e+000	 4.377699975912726e+000	 2.437016211659218e-002
1	 1.822350450101617e+000	 4.397333285629620e+000	 1.886156437817090e-002
1	 1.775571417823013e+000	 4.416429161514879e+000	 1.183620548883294e-002
1	 1.728694213525793e+000	 4.434987697972089e+000	 3.659319396767075e-003
1	 1.681727682911335e+000	 4.453009176602113e+000	-5.319859056716709e-003
1	 1.634680624567193e+000	 4.470494063995282e+000	-1.476838402053101e-002
1	 1.587561785386847e+000	 4.487443009391756e+000	-2.436985529646141e-002
1	 1.540379856096477e+000	 4.503856842214985e+000	-3.382464192710732e-002
1	 1.493143466892459e+000	 4.519736569483269e+000	-4.285007293159668e-002
1	 1.445861183193071e+000	 4.535083373104527e+000	-5.118059548560112e-002
1	 1.398541501507601e+000	 4.549898607059533e+000	-5.856790091353004e-002
1	 1.879493831556171e+000	 4.402226534724702e+000	 1.568036157831468e-002
1	 1.832560374430207e+000	 4.421969842277712e+000	 1.284394671400065e-002
1	 1.785519257337162e+000	 4.441172704965379e+000	 8.500176162424392e-003
1	 1.738379418205698e+000	 4.459835217720181e+000	 2.970104122329903e-003
1	 1.691149752296235e+000	 4.477957663720667e+000	-3.442772252438381e-003
1	 1.643839107491402e+000	 4.495540512171281e+000	-1.045270596199384e-002
1	 1.596456279690133e+000	 4.512584415949611e+000	-1.779185910428653e-002
1	 1.549010008309379e+000	 4.529090209126037e+000	-2.521042801372769e-002
1	 1.501508971897163e+000	 4.545058904360770e+000	-3.247673502826642e-002
1	 1.453961783860480e+000	 4.560491690183496e+000	-3.937728738939466e-002
1	 1.406376988311272e+000	 4.575389928160809e+000	-4.571680384712781e-002
1	 1.889965230414765e+000	 4.426753069017446e+000	 8.881954936987721e-003
1	 1.842770288552342e+000	 4.446606374296625e+000	 8.337265016168242e-003
1	 1.795467086906851e+000	 4.465916223679772e+000	 6.257350593389141e-003
1	 1.748064613203671e+000	 4.484682712628255e+000	 2.921295927347616e-003
1	 1.700571812262212e+000	 4.502906125898311e+000	-1.408847411229219e-003
1	 1.652997581260137e+000	 4.520586935308484e+000	-6.488198951797738e-003
1	 1.605350765101788e+000	 4.537725797373788e+000	-1.208915541672323e-002
1	 1.557640151894845e+000	 4.554323550811518e+000	-1.800146492343127e-002
1	 1.509874468538930e+000	 4.570381213923803e+000	-2.403226979271383e-002
1	 1.462062376429717e+000	 4.585899981862074e+000	-3.000611852463981e-002
1	 1.414212467281752e+000	 4.600881223778737e+000	-3.576494756504083e-002
1	 1.900436600481028e+000	 4.451279535870308e+000	 3.757846296722537e-003
1	 1.852980174601130e+000	 4.471242838573231e+000	 5.036598344056179e-003
1	 1.805414889123797e+000	 4.490659674357718e+000	 4.740908407467898e-003
1	 1.757749781570993e+000	 4.509530139214029e+000	 3.109978650202536e-003
1	 1.709993846320988e+000	 4.527854519476076e+000	 3.685628077122503e-004
1	 1.662156029846346e+000	 4.545633289576499e+000	-3.273159180902876e-003
1	 1.614245226056694e+000	 4.562867109667729e+000	-7.619678835663383e-003
1	 1.566270271750308e+000	 4.579556823113962e+000	-1.249022944682806e-002
1	 1.518239942178288e+000	 4.595703453859223e+000	-1.771882944705063e-002
1	 1.470162946724856e+000	 4.611308203676677e+000	-2.315429931321955e-002
1	 1.422047924707039e+000	 4.626372449304512e+000	-2.866025251985259e-002
1	 1.910907923430507e+000	 4.475805892362633e+000	 9.572420660671472e-005
1	 1.863190014709682e+000	 4.495879191994394e+000	 2.643732906048927e-003
1	 1.815362646579719e+000	 4.515403013698873e+000	 3.592090556460309e-003
1	 1.767434906358945e+000	 4.534377453995209e+000	 3.142085790999782e-003
1	 1.719415837984281e+000	 4.552802800794987e+000	 1.485181099677852e-003
1	 1.671314437222977e+000	 4.570679531144937e+000	-1.197140734215117e-003
1	 1.623139646989730e+000	 4.588008308834882e+000	-4.733509851965352e-003
1	 1.574900352773204e+000	 4.604789981875901e+000	-8.962782328269905e-003
1	 1.526605378175763e+000	 4.621025579853892e+000	-1.373413315382250e-002
1	 1.478263480569972e+000	 4.636716311163720e+000	-1.890712941886187e-002
1	 1.429883346875132e+000	 4.651863560129327e+000	-2.435178396758470e-002
1	 1.921379180938751e+000	 4.500332095573771e+000	-2.312068110789697e-003
1	 1.873399791011110e+000	 4.520515391446992e+000	 8.669797844352724e-004
1	 1.825310341866332e+000	 4.540146198402895e+000	 2.459980031901212e-003
1	 1.777119970618810e+000	 4.559224613489509e+000	 2.632159633684004e-003
1	 1.728837770763811e+000	 4.577750926196077e+000	 1.545558378571739e-003
1	 1.680472787362977e+000	 4.595725616183406e+000	-6.411937501406601e-004
1	 1.632034012335777e+000	 4.613149350878687e+000	-3.773088906458336e-003
1	 1.583530379860965e+000	 4.630022982939862e+000	-7.698943230775641e-003
1	 1.534970761891882e+000	 4.646347547594663e+000	-1.227158802432944e-002
1	 1.486363963789141e+000	 4.662124259859619e+000	-1.734805008730725e-002
1	 1.437718720074029e+000	 4.677354511644375e+000	-2.278972108883919e-002
1	 1.931850354681307e+000	 4.524858102583068e+000	-3.668658347887986e-003
1	 1.883609485638523e+000	 4.545151393817890e+000	-5.790014646412437e-004
1	 1.835257957575353e+000	 4.564889185169442e+000	 1.001289646520510e-003
1	 1.786804957401869e+000	 4.584071574214638e+000	 1.203118131720170e-003
1	 1.738259628171301e+000	 4.602698852020377e+000	 1.628346061990813e-004
1	 1.689631064239296e+000	 4.620771500861515e+000	-1.978094904336858e-003
1	 1.640928306529714e+000	 4.638290191802595e+000	-5.073423551879955e-003
1	 1.592160337911028e+000	 4.655255782148380e+000	-8.972460061973105e-003
1	 1.543336078687171e+000	 4.671669312768398e+000	-1.352040622695772e-002
1	 1.494464382206437e+000	 4.687532005300789e+000	-1.855869479960767e-002
1	 1.445554030591727e+000	 4.702845259240850e+000	-2.392532710512825e-002
1	 1.942321426333725e+000	 4.549383870469874e+000	-4.172766673960390e-003
1	 1.893819080725033e+000	 4.569787155993959e+000	-1.973373555857704e-003
1	 1.845205476298500e+000	 4.589631930698174e+000	-1.119843380792731e-003
1	 1.796489849759405e+000	 4.608918292688313e+000	-1.513970732959663e-003
1	 1.747681393718468e+000	 4.627646534608914e+000	-3.041492711118386e-003
1	 1.698789251824879e+000	 4.645817141348874e+000	-5.572570504697940e-003
1	 1.649822514006423e+000	 4.663430787610048e+000	-8.962288973741699e-003
1	 1.600790211820825e+000	 4.680488335343983e+000	-1.305117287192699e-002
1	 1.551701313922157e+000	 4.696990831061952e+000	-1.766571834137427e-002
1	 1.502564721645936e+000	 4.712939503023649e+000	-2.261893830164755e-002
1	 1.453389264716227e+000	 4.728335758309949e+000	-2.771092035318272e-002
1	 1.952792377571551e+000	 4.573909356313535e+000	-4.018823420120656e-003
1	 1.904028558403749e+000	 4.594422634862072e+000	-3.589286774354904e-003
1	 1.855152880627489e+000	 4.614374391688747e+000	-4.232056289574452e-003
1	 1.806174630742698e+000	 4.633764725428240e+000	-5.880107395715750e-003
1	 1.757103050917035e+000	 4.652593930302718e+000	-8.437792643791065e-003
1	 1.707947334092676e+000	 4.670862493815091e+000	-1.178151247240141e-002
1	 1.658716619200784e+000	 4.688571094304492e+000	-1.576042211714079e-002
1	 1.609419986487791e+000	 4.705720598369203e+000	-2.019717252475706e-002
1	 1.560066452957367e+000	 4.722312058162185e+000	-2.488868309822004e-002
1	 1.510664967931713e+000	 4.738346708564613e+000	-2.960694407028338e-002
1	 1.461224408735526e+000	 4.753825964242861e+000	-3.409984628160877e-002
1	 1.963263190070333e+000	 4.598434517193399e+000	-3.397083030872287e-003
1	 1.914237900807783e+000	 4.619057787309098e+000	-5.694039031793489e-003
1	 1.865100153154037e+000	 4.639116524840821e+000	-8.656953334267581e-003
1	 1.815859283403032e+000	 4.658610828952133e+000	-1.224857222587551e-002
1	 1.766524583278722e+000	 4.677540995442822e+000	-1.638851785120324e-002
1	 1.717105295015633e+000	 4.695907514429774e+000	-2.095418747222579e-002
1	 1.667610606547676e+000	 4.713711067889371e+000	-2.578170965609497e-002
1	 1.618049646809361e+000	 4.730952527066571e+000	-3.066695433741612e-002
1	 1.568431481153328e+000	 4.747632949755955e+000	-3.536659363804500e-002
1	 1.518765106887843e+000	 4.763753577460099e+000	-3.959921027396189e-002
1	 1.469059448937622e+000	 4.779315832430783e+000	-4.304645033577528e-002
1	 1.390706020582741e+000	 4.524407305083716e+000	-7.437149502801647e-002
1	 1.343622639825983e+000	 4.538612457056611e+000	-8.219612474046861e-002
1	 1.296518743060277e+000	 4.552292205158869e+000	-8.854402026394445e-002
1	 1.249402546410590e+000	 4.565448384531957e+000	-9.255192892512651e-002
1	 1.202282182474618e+000	 4.578082989255348e+000	-9.336203508095695e-002
1	 1.155165696837305e+000	 4.590198169078671e+000	-9.012326886309169e-002
1	 1.108061044715827e+000	 4.601796226075082e+000	-8.199257633168129e-002
1	 1.060976087736485e+000	 4.612879611221273e+000	-6.813614945363954e-002
1	 1.013918590844765e+000	 4.623450920909603e+000	-4.773061445602755e-002
1	 9.668962193495460e-001	 4.633512893397808e+000	-1.996417724081418e-002
1	 9.199165361022298e-001	 4.643068405201682e+000	 1.596227531737075e-002
1	 1.398541501507601e+000	 4.549898607059533e+000	-5.856790091353004e-002
1	 1.351192844750042e+000	 4.564183793342687e+000	-6.507214493980189e-002
1	 1.303823556392736e+000	 4.577940615537889e+000	-7.041245764849347e-002
1	 1.256441898851737e+000	 4.591170919126120e+000	-7.384204310057296e-002
1	 1.209056050545213e+000	 4.603876709421853e+000	-7.461518067387116e-002
1	 1.161674102388337e+000	 4.616060148286783e+000	-7.198844851955187e-002
1	 1.114304054419368e+000	 4.627723550764355e+000	-6.522191748980719e-002
1	 1.066953812558383e+000	 4.638869381640499e+000	-5.358031388457317e-002
1	 1.019631185499925e+000	 4.649500251936108e+000	-3.633414948135225e-002
1	 9.723438817405614e-001	 4.659618915336745e+000	-1.276081742954527e-002
1	 9.250995067421181e-001	 4.669228264565003e+000	 1.785434729148082e-002
1	 1.406376988311272e+000	 4.575389928160809e+000	-4.571680384712781e-002
1	 1.358763055353852e+000	 4.589755148814241e+000	-5.145212089298845e-002
1	 1.311128375205806e+000	 4.603589045160168e+000	-5.623533449800748e-002
1	 1.263481256574304e+000	 4.616893473019093e+000	-5.942544185676169e-002
1	 1.215829923698024e+000	 4.629670448940495e+000	-6.037932926348873e-002
1	 1.168182512822401e+000	 4.641922146898160e+000	-5.845289878787828e-002
1	 1.120547068806810e+000	 4.653650894905825e+000	-5.300217283935822e-002
1	 1.072931541865138e+000	 4.664859171558672e+000	-4.338437496560511e-002
1	 1.025343784441015e+000	 4.675549602506140e+000	-2.895898533009932e-002
1	 9.777915482187310e-001	 4.685724956861635e+000	-9.088769414202787e-003
1	 9.302824812705675e-001	 4.695388143554560e+000	 1.685922140899953e-002
1	 1.414212467281752e+000	 4.600881223778737e+000	-3.576494756504083e-002
1	 1.366333258389628e+000	 4.615326478722449e+000	-4.113479978628730e-002
1	 1.318433186716127e+000	 4.629237449142049e+000	-4.567703791303393e-002
1	 1.270520607259488e+000	 4.642616001197559e+000	-4.884587416671175e-002
1	 1.222603790078848e+000	 4.655464162673450e+000	-5.009138658443026e-002
1	 1.174690916749863e+000	 4.667784119655579e+000	-4.886053754915509e-002
1	 1.126790076952974e+000	 4.679578213127977e+000	-4.459817599439519e-002
1	 1.078909265195828e+000	 4.690848935495056e+000	-3.674802169185682e-002
1	 1.031056377671105e+000	 4.701598927034792e+000	-2.475363011434362e-002
1	 9.832392092507666e-001	 4.711830972288416e+000	-8.059336451848606e-003
1	 9.354654506175086e-001	 4.721547996392132e+000	 1.388882255406458e-002
1	 1.422047924707039e+000	 4.626372449304512e+000	-2.866025251985259e-002
1	 1.373903440609585e+000	 4.640897738318490e+000	-3.392336915909774e-002
1	 1.325737978140341e+000	 4.654885782599885e+000	-3.840935773848688e-002
1	 1.277559938588484e+000	 4.668338458648202e+000	-4.165715092495936e-002
1	 1.229377637833484e+000	 4.681257805482884e+000	-4.320067457583054e-002
1	 1.181199302781087e+000	 4.693646021301823e+000	-4.256974688322110e-002
1	 1.133033067932675e+000	 4.705505460059300e+000	-3.929096536083004e-002
1	 1.084886972089533e+000	 4.716838627968924e+000	-3.288858020851683e-002
1	 1.036768955193263e+000	 4.727648179937164e+000	-2.288535266062224e-002
1	 9.886868553033802e-001	 4.737936915933037e+000	-8.803396996315323e-003
1	 9.406484057128736e-001	 4.747707777299493e+000	 9.834995035799772e-003
1	 1.429883346875132e+000	 4.651863560129327e+000	-2.435178396758470e-002
1	 1.381473588765937e+000	 4.666468882853536e+000	-2.962533562253126e-002
1	 1.333042736695088e+000	 4.680534000650019e+000	-3.411128414783975e-002
1	 1.284599238242489e+000	 4.694060800357713e+000	-3.742286968270395e-002
1	 1.236151455107730e+000	 4.707051332230971e+000	-3.916859159638532e-002
1	 1.187707659526437e+000	 4.719507806579669e+000	-3.895297712869145e-002
1	 1.139276030820732e+000	 4.731432590328278e+000	-3.637734043520707e-002
1	 1.090864652085331e+000	 4.742828203499541e+000	-3.104053076355018e-002
1	 1.042481507010558e+000	 4.753697315628349e+000	-2.253966854591396e-002
1	 9.941344768432837e-001	 4.764042742111435e+000	-1.047086825385371e-002
1	 9.458313374865938e-001	 4.773867440498423e+000	 5.570053076532510e-003
1	 1.437718720074029e+000	 4.677354511644375e+000	-2.278972108883919e-002
1	 1.389043689610899e+000	 4.692039867578768e+000	-2.805240750780550e-002
1	 1.340347449597012e+000	 4.706182058408798e+000	-3.246881178608598e-002
1	 1.291638493902698e+000	 4.719782981312770e+000	-3.571614830218008e-002
1	 1.242925230047382e+000	 4.732844697779878e+000	-3.746828364919105e-002
1	 1.194215975596279e+000	 4.745369430231895e+000	-3.739636377226616e-002
1	 1.145518954691962e+000	 4.757359558563401e+000	-3.516943248025707e-002
1	 1.096842294722300e+000	 4.768817616606178e+000	-3.045504031197750e-002
1	 1.048194023126059e+000	 4.779746288523452e+000	-2.291984278682635e-002
1	 9.995820643371887e-001	 4.790148405139557e+000	-1.223018712024930e-002
1	 9.510142368686004e-001	 4.800026940210696e+000	 1.947313463672354e-003
1	 1.445554030591727e+000	 4.702845259240850e+000	-2.392532710512825e-002
1	 1.396613729896686e+000	 4.717610647745360e+000	-2.902038129672627e-002
1	 1.347652104062751e+000	 4.731829910992570e+000	-3.317475022488884e-002
1	 1.298677693250309e+000	 4.745504956500064e+000	-3.611936719493693e-002
1	 1.249698950798238e+000	 4.758637856991777e+000	-3.758432620245292e-002
1	 1.200724239600977e+000	 4.771230847001283e+000	-3.729935668499178e-002
1	 1.151761828621185e+000	 4.783286319393155e+000	-3.499428903672024e-002
1	 1.102819889539521e+000	 4.794806821808105e+000	-3.039951018328621e-002
1	 1.053906493542834e+000	 4.805795053037559e+000	-2.324640855589775e-002
1	 1.005029608251807e+000	 4.816253859333343e+000	-1.326780784592095e-002
1	 9.561970947888254e-001	 4.826186230658090e+000	-1.983889641564257e-004
1	 1.453389264716227e+000	 4.728335758309949e+000	-2.771092035318272e-002
1	 1.404183696375512e+000	 4.743181178604490e+000	-3.234903169282489e-002
1	 1.354956687308949e+000	 4.757477513517681e+000	-3.592854049388608e-002
1	 1.305716823966516e+000	 4.771226680906276e+000	-3.822391982303686e-002
1	 1.256472605506095e+000	 4.784430764728838e+000	-3.901241620984036e-002
1	 1.207232440150895e+000	 4.797092011630609e+000	-3.807436124377268e-002
1	 1.158004641683217e+000	 4.809212827446026e+000	-3.519347175402646e-002
1	 1.108797426076070e+000	 4.820795773624587e+000	-3.015713824868368e-002
1	 1.059618908263954e+000	 4.831843563585775e+000	-2.275670132566524e-002
1	 1.010477099053851e+000	 4.842359059008735e+000	-1.278771580344535e-002
1	 9.613799021772006e-001	 4.852345266062382e+000	-5.020235479251628e-005
1	 1.461224408735526e+000	 4.753825964242861e+000	-3.409984628160877e-002
1	 1.411753575799593e+000	 4.768751415407335e+000	-3.786200519774731e-002
1	 1.362261186552246e+000	 4.783124821100481e+000	-4.043607746214107e-002
1	 1.312755873732517e+000	 4.796948109518096e+000	-4.162997115582669e-002
1	 1.263246182316751e+000	 4.810223375853232e+000	-4.125907395110089e-002
1	 1.213740565856399e+000	 4.822952878862654e+000	-3.914639089604077e-002
1	 1.164247382952877e+000	 4.835139037350503e+000	-3.512266704442230e-002
1	 1.114774893871027e+000	 4.846784426574896e+000	-2.902649504884598e-002
1	 1.065331257292487e+000	 4.857891774583192e+000	-2.070440786663290e-002
1	 1.015924527210032e+000	 4.868463958481681e+000	-1.001095675853554e-002
1	 9.665626499636570e-001	 4.878504000645348e+000	 3.191225210627216e-003
1	 1.469059448937622e+000	 4.779315832430783e+000	-4.304645033577528e-002
1	 1.419323354921142e+000	 4.794321313405072e+000	-4.538671706319549e-002
1	 1.369565589009284e+000	 4.808771788857317e+000	-4.640953785329480e-002
1	 1.319794830229506e+000	 4.822669197322210e+000	-4.594622378792956e-002
1	 1.270019669376002e+000	 4.836015645227129e+000	-4.384135432958697e-002
1	 1.220248605327853e+000	 4.848813403440197e+000	-3.995273074418703e-002
1	 1.170490041504983e+000	 4.861064903735073e+000	-3.415130908607100e-002
1	 1.120752282463471e+000	 4.872772735178299e+000	-2.632111336561594e-002
1	 1.071043530631502e+000	 4.883939640444909e+000	-1.635912954953391e-002
1	 1.021371883187062e+000	 4.894568512068119e+000	-4.175181070831119e-003
1	 9.717453290781267e-001	 4.904662388628768e+000	 1.030821345033305e-002
1	 9.199165361022298e-001	 4.643068405201682e+000	 1.596227531737076e-002
1	 8.729940319637027e-001	 4.652119147953820e+000	 6.091787759896862e-002
1	 8.261289947556902e-001	 4.660669736692415e+000	 1.147955125906043e-001
1	 7.793286506718555e-001	 4.668723442970103e+000	 1.768994625054829e-001
1	 7.326001138313993e-001	 4.676283661565610e+000	 2.465319772295398e-001
1	 6.859503841394172e-001	 4.683353906675524e+000	 3.229943536310815e-001
1	 6.393863452817451e-001	 4.689937808080498e+000	 4.055879884501032e-001
1	 5.929147628536142e-001	 4.696039107290805e+000	 4.936154035461023e-001
1	 5.465422826212100e-001	 4.701661653676148e+000	 5.863812423831651e-001
1	 5.002754289150642e-001	 4.706809400584463e+000	 6.831932367305953e-001
1	 4.541206031540580e-001	 4.711486401454395e+000	 7.833631426562100e-001
1	 9.250995067421181e-001	 4.669228264565003e+000	 1.785434729148082e-002
1	 8.779126330095246e-001	 4.678330000784435e+000	 5.628674901745687e-002
1	 8.307835499861411e-001	 4.686928765035168e+000	 1.024634833511205e-001
1	 7.837195245792673e-001	 4.695027847302340e+000	 1.558045865082128e-001
1	 7.367277109902933e-001	 4.702630661491456e+000	 2.157306185638942e-001
1	 6.898151485630014e-001	 4.709740741598712e+000	 2.816635064402623e-001
1	 6.429887597671163e-001	 4.716361737855575e+000	 3.530273626794656e-001
1	 5.962553483164127e-001	 4.722497412852645e+000	 4.292492791593099e-001
1	 5.496215974204833e-001	 4.728151637647651e+000	 5.097600949908189e-001
1	 5.030940681690768e-001	 4.733328387862385e+000	 5.939951379190196e-001
1	 4.566791980477861e-001	 4.738031739773277e+000	 6.813949386290150e-001
1	 9.302824812705675e-001	 4.695388143554560e+000	 1.685922140899952e-002
1	 8.828312377455568e-001	 4.704540873279440e+000	 4.956824387246481e-002
1	 8.354381087086966e-001	 4.713187813078358e+000	 8.898697315639259e-002
1	 7.881104017809549e-001	 4.721332271368976e+000	 1.346309075916227e-001
1	 7.408553112459415e-001	 4.728977681183592e+000	 1.860178979150169e-001
1	 6.936799158861571e-001	 4.736127596318021e+000	 2.426688030986393e-001
1	 6.465911769552424e-001	 4.742785687454572e+000	 3.041081240408474e-001
1	 5.995959362855475e-001	 4.748955738264196e+000	 3.698646145651918e-001
1	 5.527009145300994e-001	 4.754641641492657e+000	 4.394718692414937e-001
1	 5.059127095378927e-001	 4.759847395035628e+000	 5.124688876108192e-001
1	 4.592377948612595e-001	 4.764577098007342e+000	 5.884006144622993e-001
1	 9.354654506175086e-001	 4.721547996392132e+000	 1.388882255406458e-002
1	 8.877498375643833e-001	 4.730751719571418e+000	 4.168339737786962e-002
1	 8.400926627780257e-001	 4.739446834870297e+000	 7.528210865756377e-002
1	 7.925012745930328e-001	 4.747636669138935e+000	 1.142759912114595e-001
1	 7.449829073751970e-001	 4.755324674536412e+000	 1.582595403169468e-001
1	 6.975446793456980e-001	 4.762514424658146e+000	 2.068312290736734e-001
1	 6.501935905420585e-001	 4.769209610637268e+000	 2.595940055773895e-001
1	 6.029365209151658e-001	 4.775414037225054e+000	 3.161557695510823e-001
1	 5.557802285614469e-001	 4.781131618855300e+000	 3.761298281374477e-001
1	 5.087313480891073e-001	 4.786366375697530e+000	 4.391353306130598e-001
1	 4.617963891171836e-001	 4.791122429703765e+000	 5.047976818396217e-001
1	 9.406484057128736e-001	 4.747707777299493e+000	 9.834995035799765e-003
1	 8.926684238585888e-001	 4.756962493792949e+000	 3.353297097469775e-002
1	 8.447472040487972e-001	 4.765705784459295e+000	 6.224485938533680e-002
1	 7.968921353316149e-001	 4.773940994581146e+000	 9.561766394871805e-002
1	 7.491104921549106e-001	 4.781671595444320e+000	 1.333022433462464e-001
1	 7.014094321784385e-001	 4.788901180443780e+000	 1.749537383886163e-001
1	 6.537959942234994e-001	 4.795633461163435e+000	 2.202319807786579e-001
1	 6.062770963594154e-001	 4.801872263434825e+000	 2.688018832677731e-001
1	 5.588595341259153e-001	 4.807621523379716e+000	 3.203338110152436e-001
1	 5.115499788903155e-001	 4.812885283441428e+000	 3.745039340081734e-001
1	 4.643549763382629e-001	 4.817667688409712e+000	 4.309945604469838e-001
1	 9.458313374865938e-001	 4.773867440498423e+000	 5.570053076532505e-003
1	 8.975869880207580e-001	 4.783173150076617e+000	 2.599800834208040e-002
1	 8.494017243756786e-001	 4.791964615893654e+000	 5.075159082234790e-002
1	 8.012829763128150e-001	 4.800245201664534e+000	 7.951455540295961e-002
1	 7.532380583619339e-001	 4.808018397801716e+000	 1.119741998208944e-001
1	 7.052741676211933e-001	 4.815287817499627e+000	 1.478217493407894e-001
1	 6.573983816954993e-001	 4.822057192792849e+000	 1.867527247649821e-001
1	 6.096176567724443e-001	 4.828330370593107e+000	 2.284672935629724e-001
1	 5.619388258348925e-001	 4.834111308710037e+000	 2.726706039509454e-001
1	 5.143685970091130e-001	 4.839404071860662e+000	 3.190731017959104e-001
1	 4.669135520472021e-001	 4.844212827672349e+000	 3.673908302616584e-001
1	 9.510142368686004e-001	 4.800026940210696e+000	 1.947313463672351e-003
1	 9.025055214434751e-001	 4.809383642555000e+000	 1.994037339312473e-002
1	 8.540562156133398e-001	 4.818223283221690e+000	 4.165959955591609e-002
1	 8.056737898527467e-001	 4.826549244358027e+000	 6.680662252846324e-002
1	 7.573655987731195e-001	 4.834365035503001e+000	 9.508560356422016e-002
1	 7.091388789107757e-001	 4.841674289650374e+000	 1.262036241593809e-001
1	 6.610007466539928e-001	 4.848480759285287e+000	 1.598710605305659e-001
1	 6.129581963083997e-001	 4.854788312399506e+000	 1.958019427298642e-001
1	 5.650180982997681e-001	 4.860600928490404e+000	 2.337142981660262e-001
1	 5.171871975130945e-001	 4.865922694548567e+000	 2.733304793430991e-001
1	 4.694721117667061e-001	 4.870757801038844e+000	 3.143774756694316e-001
1	 9.561970947888254e-001	 4.826186230658090e+000	-1.983889641564257e-004
1	 9.074240155193247e-001	 4.835593925360678e+000	 1.620327093302515e-002
1	 8.587106696164484e-001	 4.844481740491709e+000	 3.580763118488810e-002
1	 8.100645682675248e-001	 4.852853076630551e+000	 5.831565707334286e-002
1	 7.614931061653182e-001	 4.860711462442573e+000	 8.342913887061398e-002
1	 7.130035592839998e-001	 4.868060550720722e+000	 1.108511332066599e-001
1	 6.646030827949145e-001	 4.874904114400521e+000	 1.402863908071797e-001
1	 6.162987091214293e-001	 4.881246042553617e+000	 1.714417701815870e-001
1	 5.680973461319310e-001	 4.887090336364951e+000	 2.040266368852195e-001
1	 5.200057754698557e-001	 4.892441105098486e+000	 2.377532480245112e-001
1	 4.720306510194796e-001	 4.897302562056369e+000	 2.723371217175485e-001
1	 9.613799021772006e-001	 4.852345266062382e+000	-5.020235479251856e-005
1	 9.123424616408911e-001	 4.861803952626235e+000	 1.561175062779585e-002
1	 8.633650782396735e-001	 4.870739941752015e+000	 3.401638162554907e-002
1	 8.144553038732627e-001	 4.879156652451032e+000	 5.484577675353455e-002
1	 7.656205733153824e-001	 4.887057632514837e+000	 7.778045428254128e-002
1	 7.168682019776804e-001	 4.894446554535365e+000	 1.024999043006531e-001
1	 6.682053838141991e-001	 4.901327211898328e+000	 1.286831160862317e-001
1	 6.196391893656806e-001	 4.907703514755047e+000	 1.560090925406093e-001
1	 5.711765639427697e-001	 4.913579485977811e+000	 1.841573510782590e-001
1	 5.228243259469914e-001	 4.918959257103752e+000	 2.128084104217143e-001
1	 4.745891653282275e-001	 4.923847064272092e+000	 2.416442627976232e-001
1	 9.665626499636570e-001	 4.878504000645348e+000	 3.191225210627216e-003
1	 9.172608512007585e-001	 4.888013678484246e+000	 1.897319490443286e-002
1	 8.680194333376832e-001	 4.896997841050921e+000	 3.708898243412113e-002
1	 8.188459889860744e-001	 4.905459925788397e+000	 5.718390076671550e-002
1	 7.697479930001633e-001	 4.913403499614190e+000	 7.889862126249660e-002
1	 7.207328002286312e-001	 4.920832254918998e+000	 1.018698577128084e-001
1	 6.718076434077814e-001	 4.927750005538484e+000	 1.257310393141448e-001
1	 6.229796311953014e-001	 4.934160682703395e+000	 1.501129716112511e-001
1	 5.742557463436729e-001	 4.940068330973121e+000	 1.746444844991077e-001
1	 5.256428440120972e-001	 4.945477104157705e+000	 1.989530664312888e-001
1	 4.771476502156546e-001	 4.950391261233177e+000	 2.226654840401461e-001
1	 9.717453290781267e-001	 4.904662388628768e+000	 1.030821345033305e-002
1	 9.221791755915123e-001	 4.914223057067299e+000	 2.707779137708239e-002
1	 8.726737267651468e-001	 4.923255392436735e+000	 4.581147073728108e-002
1	 8.232366159220739e-001	 4.931762850611570e+000	 6.610021022562776e-002
1	 7.738753579965130e-001	 4.939749017635035e+000	 8.752657831884084e-002
1	 7.245973472736665e-001	 4.947217605696317e+000	 1.096656273707327e-001
1	 6.754098552715956e-001	 4.954172449080763e+000	 1.320857577542376e-001
1	 6.263200287644393e-001	 4.960617500098262e+000	 1.543495706837282e-001
1	 5.773348879460301e-001	 4.966556824995019e+000	 1.760147084187026e-001
1	 5.284613247327682e-001	 4.971994599853685e+000	 1.966346806188512e-001
1	 4.797061012044656e-001	 4.976935106486796e+000	 2.157596756904371e-001
1	 4.541206031540580e-001	 4.711486401454395e+000	 7.833631426562100e-001
1	 4.080772015327535e-001	 4.715697402914556e+000	 8.864361919386122e-001
1	 3.621583901065020e-001	 4.719445912825524e+000	 9.913044273375943e-001
1	 3.163702891928216e-001	 4.722736264607185e+000	 1.096354186242396e+000
1	 2.707188886346119e-001	 4.725572876349515e+000	 1.199980399687558e+000
1	 2.252100469680961e-001	 4.727960246918567e+000	 1.300588823760967e+000
1	 1.798494907136967e-001	 4.729902952083056e+000	 1.396598190675090e+000
1	 1.346428137874782e-001	 4.731405640665301e+000	 1.486442278155517e+000
1	 8.959547703070191e-002	 4.732473030720189e+000	 1.568571896023909e+000
1	 4.471280785492766e-002	 4.733109905745613e+000	 1.641456789070566e+000
1	 0.000000000000000e+000	 4.733321110927780e+000	 1.703587455522866e+000
1	 4.566791980477861e-001	 4.738031739773277e+000	 6.813949386290150e-001
1	 4.103763798492342e-001	 4.742266466752270e+000	 7.715474333484158e-001
1	 3.641988538086733e-001	 4.746036096423838e+000	 8.634755889147965e-001
1	 3.181527747266113e-001	 4.749344986623094e+000	 9.558214226746997e-001
1	 2.722441661938198e-001	 4.752197580332298e+000	 1.047234713585303e+000
1	 2.264789197545885e-001	 4.754598401764885e+000	 1.136374879538403e+000
1	 1.808627941936057e-001	 4.756552052470236e+000	 1.221912786026476e+000
1	 1.354014149440849e-001	 4.758063207462941e+000	 1.302532485053771e+000
1	 9.010027361466855e-002	 4.759136611380218e+000	 1.376932883384532e+000
1	 4.496472763253088e-002	 4.759777074671015e+000	 1.443829339404215e+000
1	 0.000000000000000e+000	 4.759989469820151e+000	 1.501955188048926e+000
1	 4.592377948612595e-001	 4.764577098007342e+000	 5.884006144622993e-001
1	 4.126755598908816e-001	 4.768835550523108e+000	 6.668850157425117e-001
1	 3.662393190419615e-001	 4.772626299971283e+000	 7.470780591426168e-001
1	 3.199352615980161e-001	 4.775953728602224e+000	 8.278752840600219e-001
1	 2.737694448977087e-001	 4.778822304290480e+000	 9.081788976909493e-001
1	 2.277477934934141e-001	 4.781236576596879e+000	 9.868993041523873e-001
1	 1.818760984341040e-001	 4.783201172851484e+000	 1.062956576927804e+000
1	 1.361600166701588e-001	 4.784720794261157e+000	 1.135281873768123e+000
1	 9.060507057761903e-002	 4.785800212045456e+000	 1.202818793334018e+000
1	 4.521664759929012e-002	 4.786444263604397e+000	 1.264524673016645e+000
1	 0.000000000000000e+000	 4.786657848721421e+000	 1.319371827519901e+000
1	 4.617963891171836e-001	 4.791122429703765e+000	 5.047976818396217e-001
1	 4.149747376344188e-001	 4.795404607732642e+000	 5.727553811066342e-001
1	 3.682797822358820e-001	 4.799216476936393e+000	 6.423024175550826e-001
1	 3.217177466880519e-001	 4.802562443980586e+000	 7.125857062079409e-001
1	 2.752947220774362e-001	 4.805447001632021e+000	 7.827574778253583e-001
1	 2.290166659644496e-001	 4.807874724798890e+000	 8.519764656196173e-001
1	 1.828894016623032e-001	 4.809850266591902e+000	 9.194090475765508e-001
1	 1.369186176384999e-001	 4.811378354410161e+000	 9.842303437229750e-001
1	 9.110986703643656e-002	 4.812463786055542e+000	 1.045625267800383e+000
1	 4.546856731450755e-002	 4.813111425879084e+000	 1.102789532922401e+000
1	 0.000000000000000e+000	 4.813326200962828e+000	 1.154930610907688e+000
1	 4.643549763382629e-001	 4.817667688409712e+000	 4.309945604469838e-001
1	 4.172739090565695e-001	 4.821973591886457e+000	 4.894583347069557e-001
1	 3.703202398199511e-001	 4.825806580787716e+000	 5.493351669130485e-001
1	 3.235002268777343e-001	 4.829171086194195e+000	 6.100212125644612e-001
1	 2.768199950641594e-001	 4.832071625764876e+000	 6.709163360326798e-001
1	 2.302855349475718e-001	 4.834512799755250e+000	 7.314249605793755e-001
1	 1.839027021053145e-001	 4.836499287056593e+000	 7.909568865626003e-001
1	 1.376772165219087e-001	 4.838035841260179e+000	 8.489280773589492e-001
1	 9.161466210800430e-002	 4.839127286750117e+000	 9.047614126157791e-001
1	 4.572048633748523e-002	 4.839778514828407e+000	 9.578874085317775e-001
1	 0.000000000000000e+000	 4.839994479875599e+000	 1.007744904945990e+000
1	 4.669135520472021e-001	 4.844212827672349e+000	 3.673908302616584e-001
1	 4.195730701340568e-001	 4.848542456490133e+000	 4.172872303563279e-001
1	 3.723606882236846e-001	 4.852396564993791e+000	 4.683588485565249e-001
1	 3.252826990480787e-001	 4.855779608679061e+000	 5.202489567649464e-001
1	 2.783452611890358e-001	 4.858696130097008e+000	 5.726026774563803e-001
1	 2.315543982226574e-001	 4.861150754850294e+000	 6.250675026251180e-001
1	 1.849159979902495e-001	 4.863148187610658e+000	 6.772937938000868e-001
1	 1.384358119931851e-001	 4.864693208161425e+000	 7.289352628234089e-001
1	 9.211945490920545e-002	 4.865790667468827e+000	 7.796494331404164e-001
1	 4.597240422752529e-002	 4.866445483785694e+000	 8.290980814005572e-001
1	 0.000000000000000e+000	 4.866662638790971e+000	 8.769476592178687e-001
1	 4.694721117667061e-001	 4.870757801038844e+000	 3.143774756694316e-001
1	 4.218722168436042e-001	 4.875111155049245e+000	 3.565291496807396e-001
1	 3.744011238765984e-001	 4.878986383023154e+000	 3.995521540227542e-001
1	 3.270651600801012e-001	 4.882387964871204e+000	 4.433347638118526e-001
1	 2.798705177832224e-001	 4.885320468036373e+000	 4.877649982922532e-001
1	 2.328232535695833e-001	 4.887788543468358e+000	 5.327308142581722e-001
1	 1.859292875442194e-001	 4.889796921619200e+000	 5.781202937188328e-001
1	 1.391944027251293e-001	 4.891350408464122e+000	 6.238218256503387e-001
1	 9.262424455692317e-002	 4.892453881551312e+000	 6.697242816969738e-001
1	 4.622432054392983e-002	 4.893112286084270e+000	 7.157171857022833e-001
1	 0.000000000000000e+000	 4.893330631040176e+000	 7.616908769683420e-001
1	 4.720306510194796e-001	 4.897302562056369e+000	 2.723371217175485e-001
1	 4.241713451619350e-001	 4.901679641069377e+000	 3.074650756117319e-001
1	 3.764415432082083e-001	 4.905575988344355e+000	 3.430900330705933e-001
1	 3.288476068548171e-001	 4.908996108206632e+000	 3.793431699289750e-001
1	 2.813957621778767e-001	 4.911944592990930e+000	 4.163530547780134e-001
1	 2.340920987682259e-001	 4.914426118993778e+000	 4.542455223274546e-001
1	 1.869425689943359e-001	 4.916445442447325e+000	 4.931435544801896e-001
1	 1.399529873905414e-001	 4.918007395518488e+000	 5.331671690916614e-001
1	 9.312903016804063e-002	 4.919116882337212e+000	 5.744333163715119e-001
1	 4.647623484600098e-002	 4.919778875057467e+000	 6.170557828697725e-001
1	 0.000000000000000e+000	 4.919998409954449e+000	 6.611451029757746e-001
1	 4.745891653282275e-001	 4.923847064272092e+000	 2.416442627976232e-001
1	 4.264704510657725e-001	 4.928247868056106e+000	 2.703700603208090e-001
1	 3.784819426480304e-001	 4.932165334425926e+000	 2.991437982456943e-001
1	 3.306300362532424e-001	 4.935603992121360e+000	 3.283374611419944e-001
1	 2.829209917041558e-001	 4.938568458368636e+000	 3.583178331808670e-001
1	 2.353609315984621e-001	 4.941063434810887e+000	 3.894460568249309e-001
1	 1.879558405677102e-001	 4.943093703460130e+000	 4.220772129922900e-001
1	 1.407115646622218e-001	 4.944664122674740e+000	 4.565599227766200e-001
1	 9.363381085944102e-002	 4.945779623166171e+000	 4.932359707561211e-001
1	 4.672814669304079e-002	 4.946445204038611e+000	 5.324399498761221e-001
1	 0.000000000000000e+000	 4.946665928865022e+000	 5.744989278442826e-001
1	 4.771476502156546e-001	 4.950391261233177e+000	 2.226654840401461e-001
1	 4.287695305318403e-001	 4.954815789515013e+000	 2.455133878026850e-001
1	 3.805223186255805e-001	 4.958754374736414e+000	 2.678812261153145e-001
1	 3.324124451563926e-001	 4.962211570051403e+000	 2.903797106326961e-001
1	 2.844462036932172e-001	 4.965192017577452e+000	 3.136115207461011e-001
1	 2.366297498401687e-001	 4.967700444304020e+000	 3.381705529122500e-001
1	 1.889691004914538e-001	 4.969741658022721e+000	 3.646412055089264e-001
1	 1.414701332129704e-001	 4.971320543283099e+000	 3.935976993896694e-001
1	 9.413858574800750e-002	 4.972442057377831e+000	 4.256034342263725e-001
1	 4.698005564435141e-002	 4.973111226361029e+000	 4.612103806480802e-001
1	 0.000000000000000e+000	 4.973333141103128e+000	 5.009585081065644e-001
1	 4.797061012044656e-001	 4.976935106486796e+000	 2.157596756904371e-001
1	 4.310685795368616e-001	 4.981383358951680e+000	 2.331587313055367e-001
1	 3.825626675703746e-001	 4.985343062744358e+000	 2.494666552960751e-001
1	 3.341948304452835e-001	 4.988818795432772e+000	 2.655308149124826e-001
1	 2.859713954762180e-001	 4.991815224025334e+000	 2.821874775712595e-001
1	 2.378985512732225e-001	 4.994337100857515e+000	 3.002607560590666e-001
1	 1.899823469926781e-001	 4.996389259500201e+000	 3.205616036058216e-001
1	 1.422286917155876e-001	 4.997976610693785e+000	 3.438868590703013e-001
1	 9.464335395062330e-002	 4.999104138311836e+000	 3.710183423639956e-001
1	 4.723196125923496e-002	 4.999776895358052e+000	 4.027220001259670e-001
1	 0.000000000000000e+000	 5.000000000000000e+000	 4.397471015522525e-001
