label=Stress xy
num_items=405

0:-2.1610652841385888e-01
1:5.3472073685287509e-02
2:1.5077738594768231e-01
3:-9.5065286544855632e-01
4:1.0156681316497396e-01
5:5.1225354125282441e-01
6:-1.5634169985665369e+00
7:1.4698616994546046e-01
8:8.3170007966777826e-01
9:1.4866026618457023e-01
10:1.0640148801696402e-01
11:7.9627302744509715e-02
12:5.1456476045203048e-01
13:3.4620037416777094e-01
14:2.3948428875424974e-01
15:8.3638333551215971e-01
16:5.4956622593024562e-01
17:3.6734487388433112e-01
18:6.9202060329727741e-02
19:5.6099295971283783e-02
20:4.5785188691753971e-02
21:1.9896121555454740e-01
22:1.5466960412542255e-01
23:1.2639853069842771e-01
24:2.9894761789913071e-01
25:2.2692583909973293e-01
26:1.8298625126797732e-01
27:-1.9143727364131737e+00
28:5.3996041737094644e-02
29:8.8069419924982750e-01
30:-2.4620608858270256e+00
31:-2.9183405824347874e-01
32:7.3260780193805075e-01
33:-2.7410507207542771e+00
34:-5.8355005476490385e-01
35:5.5194113377452769e-01
36:8.9839569756438609e-01
37:5.6960363566633099e-01
38:3.6672227682025338e-01
39:7.8895221792664705e-01
40:4.3380428473658844e-01
41:2.3459428751007855e-01
42:6.3541024683896408e-01
43:2.6235076133223034e-01
44:7.0602131309296920e-02
45:2.9473632108866071e-01
46:2.2323567139418712e-01
47:1.8123197069043975e-01
48:1.7991904545489351e-01
49:1.4394537555365650e-01
50:1.2913883802311965e-01
51:3.8058205471414634e-02
52:4.9690521593865819e-02
53:7.1484609850459180e-02
54:-2.8438606729154841e+00
55:-7.7828571368686317e-01
56:4.0129821312723235e-01
57:-2.9437079864128122e+00
58:-1.1486020712929490e+00
59:7.5515630798123401e-02
60:-2.8640812176350043e+00
61:-1.4513626106498883e+00
62:-2.5781419400053285e-01
63:5.0894870864188424e-01
64:1.4708712165838214e-01
65:-2.7221728361975242e-02
66:2.4193181765456820e-01
67:-5.5228409544664986e-02
68:-1.7030541792483192e-01
69:-4.1355354970571641e-02
70:-2.5453897587609436e-01
71:-2.9660417498367825e-01
72:-4.0863719481936393e-02
73:3.4480127885220900e-04
74:3.4630285357012104e-02
75:-1.4129731212824234e-01
76:-5.1279480389903001e-02
77:-1.4708561943366123e-02
78:-2.2103769637399928e-01
79:-8.0059576096172508e-02
80:-3.9544395291137027e-02
81:3.7611102684001349e-02
82:2.5079189075258041e-02
83:1.8023163184230011e-02
84:1.0854628623965389e-01
85:8.5899169147550219e-02
86:6.9455839509821732e-02
87:1.5946317700350096e-01
88:1.3463945359834756e-01
89:1.1573640782301492e-01
90:1.6205127552351619e-02
91:1.3892235115555698e-02
92:1.1725845679589276e-02
93:6.2227848921897706e-02
94:5.1498404918782041e-02
95:4.2990952037880718e-02
96:1.0522192197429761e-01
97:8.6977877534705997e-02
98:7.3031312338723869e-02
99:9.8987062400458185e-03
100:5.7059823914739974e-03
101:1.5355722956362590e-03
102:3.6487970925630483e-02
103:2.1363608153263474e-02
104:6.4714909826622249e-03
105:6.2839057701668102e-02
106:3.9271438100896096e-02
107:1.6145995950903130e-02
108:1.5838491682898598e-01
109:1.3901882350945935e-01
110:1.2501800073706962e-01
111:1.1923747623460305e-01
112:1.1380100968611497e-01
113:1.1236186796143964e-01
114:8.6441543151986502e-02
115:9.0632111219926523e-02
116:9.7416374329457878e-02
117:1.1541763693415047e-01
118:9.5953294430966771e-02
119:8.1010632305781899e-02
120:1.0745863691352149e-01
121:9.1803999831602992e-02
122:7.9366020337741788e-02
123:9.6467244904951580e-02
124:8.6281276334220031e-02
125:7.8006942561601678e-02
126:6.9725400420935862e-02
127:4.3219130170227910e-02
128:1.7102335116947389e-02
129:6.8262729144339063e-02
130:4.0466985542174962e-02
131:1.2669674433643594e-02
132:6.8457404896728261e-02
133:4.2427448244910744e-02
134:1.6004881382920715e-02
135:5.8768151517420923e-02
136:6.8515627298890713e-02
137:7.9471048351923576e-02
138:-7.8051937123315021e-03
139:1.6140777666685219e-02
140:3.7462231549104635e-02
141:-7.4319233124082645e-02
142:-3.2907331967288407e-02
143:6.1305187528345290e-04
144:8.0951619480630205e-02
145:7.5205085274394262e-02
146:7.0463620848780315e-02
147:4.3978588898646719e-02
148:4.6282973258372204e-02
149:4.7782047054933420e-02
150:1.2268933964859364e-02
151:2.1593037909767163e-02
152:2.8301450947731947e-02
153:6.2598743874646090e-02
154:3.9277548507787967e-02
155:1.5357890757821612e-02
156:4.3265302625128219e-02
157:2.6173780386468355e-02
158:8.1674291903331645e-03
159:2.7129841397675727e-02
160:1.7288889818618012e-02
161:6.2167427077379472e-03
162:-7.9628816686256071e-02
163:-4.4464993848533904e-02
164:-1.3310021050884102e-02
165:-9.3302918986427993e-02
166:-6.0157908419663085e-02
167:-3.0820814578133640e-02
168:-1.0391325069916141e-01
169:-7.2427349809677063e-02
170:-4.4548432330582248e-02
171:-1.5369132706535245e-03
172:8.9151141061976219e-03
173:1.7138025387311916e-02
174:-1.8735572951393015e-02
175:-5.7513194356421859e-03
176:4.6496781430129617e-03
177:-3.2204723241082270e-02
178:-1.7232370261001165e-02
179:-5.1974130593689018e-03
180:1.7627336058515755e-02
181:1.1708728110503464e-02
182:4.5258281782180497e-03
183:6.8664014107796502e-03
184:4.9527495090963989e-03
185:1.8030118716690041e-03
186:-1.6515124184992244e-03
187:-3.8461362861460927e-04
188:-3.2559432594086811e-04
189:-1.0384818185601125e-01
190:-7.4173899812350327e-02
191:-4.7924728599001765e-02
192:-9.4099935411843291e-02
193:-6.8841346905116174e-02
194:-4.6583798936553650e-02
195:-8.2969867992459423e-02
196:-6.1533636791843642e-02
197:-4.2674375837229127e-02
198:-3.5968233899663270e-02
199:-2.0793899223026872e-02
200:-8.5255230030784786e-03
201:-3.6115990818636638e-02
202:-2.2041296141913393e-02
203:-1.0410385986089319e-02
204:-3.3593319846794562e-02
205:-2.0861304498672510e-02
206:-1.0110899735651572e-02
207:-4.5641242586291859e-03
208:-2.0829882970138372e-03
209:-7.4761982687958416e-04
210:-6.3006179251164675e-03
211:-2.8509053505315803e-03
212:-3.6171915980049465e-04
213:-6.1740167447906528e-03
214:-2.6166762531670061e-03
215:1.6537896221893603e-04
216:-7.1439400213485840e-02
217:-5.2948371613527022e-02
218:-3.6788279526323034e-02
219:-4.2997437244519453e-02
220:-3.1263602312342056e-02
221:-2.1439281309439367e-02
222:-1.3254716578577332e-02
223:-8.3948688000913367e-03
224:-5.0231123673793801e-03
225:-2.9028928721355401e-02
226:-1.7998112793810504e-02
227:-8.4834140971911873e-03
228:-1.6960802470991063e-02
229:-1.0406685058429449e-02
230:-4.2311947771159911e-03
231:-3.9181423349465205e-03
232:-2.0422756790763976e-03
233:5.9245394523463433e-04
234:-5.0515829375879038e-03
235:-2.1188328866948978e-03
236:3.1095617833917203e-04
237:-2.1915974204868528e-03
238:-9.5377592481543725e-04
239:5.3168363359872202e-04
240:1.1826812727880557e-03
241:7.3077828970146308e-04
242:1.2771124179626427e-03
243:-7.0275983781313306e-02
244:-2.0531356792516686e-01
245:-3.1441090840375918e-01
246:-4.4566482437121246e-02
247:-1.5883037881612014e-01
248:-2.5591478307261778e-01
249:-3.0127099858816082e-02
250:-1.2396010226902490e-01
251:-2.0937436409949001e-01
252:-3.3606935860765152e-01
253:-3.1729285291180936e-01
254:-2.9719549834408221e-01
255:-2.8010655199099410e-01
256:-2.7457812115899127e-01
257:-2.6491620469520372e-01
258:-2.3546666343143663e-01
259:-2.4066894194027288e-01
260:-2.3892509805742351e-01
261:-2.6672932488954365e-01
262:-1.8167779150980168e-01
263:-9.4604962311917340e-02
264:-2.4228822396506347e-01
265:-1.7725222167646526e-01
266:-1.1282783333244342e-01
267:-2.2188482559074932e-01
268:-1.7164794880586748e-01
269:-1.2465559572828570e-01
270:-2.6891193631797192e-02
271:-1.0939838898053277e-01
272:-1.8656012673412098e-01
273:-2.2814579215332125e-02
274:-8.8628726895977561e-02
275:-1.5089797682437925e-01
276:-1.8550509602394308e-02
277:-7.0798458792233787e-02
278:-1.2130207007273051e-01
279:-2.1173074685070795e-01
280:-2.2007243830759091e-01
281:-2.2152691925472170e-01
282:-1.7174595533161580e-01
283:-1.8090938659494799e-01
284:-1.8620069430015865e-01
285:-1.3834912673719138e-01
286:-1.4700033426319670e-01
287:-1.5479450518270910e-01
288:-2.0724649248060720e-01
289:-1.6365377891876476e-01
290:-1.2391957895109401e-01
291:-1.7656586538302810e-01
292:-1.4281709772310133e-01
293:-1.1240390502823164e-01
294:-1.4871532041318686e-01
295:-1.2239884535262885e-01
296:-9.8895006628016147e-02
297:-1.5322921158345895e-02
298:-5.8924733714545312e-02
299:-1.0220205507502458e-01
300:-8.6783875193543365e-03
301:-3.4271601954020653e-02
302:-6.2619056758495384e-02
303:-2.1298663013286038e-03
304:-9.9560830315288569e-03
305:-2.3615271697050529e-02
306:-1.1644150325061234e-01
307:-1.2318960126446277e-01
308:-1.3130442261942163e-01
309:-7.0646631679400690e-02
310:-7.1976848841810381e-02
311:-7.9300634936640219e-02
312:-2.5388055683925187e-02
313:-2.0911305330143650e-02
314:-2.7054969500084354e-02
315:-1.2673277982015949e-01
316:-1.0416888000697232e-01
317:-8.4925753693776862e-02
318:-7.6910877043542783e-02
319:-6.1114154397608582e-02
320:-5.0907353013854718e-02
321:-2.6619847715737378e-02
322:-1.7198450301771459e-02
323:-1.5636121912181260e-02
324:-2.9954539890304517e+00
325:-1.3098854279536967e+00
326:-7.5109784193420459e-01
327:-2.9442103765459664e+00
328:-1.6814111073102003e+00
329:-1.2271864344078380e+00
330:-2.8417189884098435e+00
331:-2.0133568750436281e+00
332:-1.6415536863918609e+00
333:-5.3201123533560035e-01
334:-2.0089522201394763e-01
335:-1.0633308526171975e-01
336:-9.5337383813144205e-01
337:-4.7471667326594619e-01
338:-2.5823326711523709e-01
339:-1.3207988921463141e+00
340:-7.3206325321980148e-01
341:-4.2044883765920377e-01
342:-1.4644898276731347e-01
343:-1.8529368274704885e-01
344:-1.2248216309303578e-01
345:-2.3873855336100150e-01
346:-2.3452219283420156e-01
347:-1.8510219121700816e-01
348:-3.4655249001513833e-01
349:-2.9681388154792665e-01
350:-2.6030173771633108e-01
351:-2.6848082660028858e+00
352:-2.1048597558231563e+00
353:-1.7953782940547711e+00
354:-2.2806035500967430e+00
355:-2.0809696428559250e+00
356:-1.8917945679278743e+00
357:-1.8997701434820644e+00
358:-2.0012784222951803e+00
359:-1.8865928646153511e+00
360:-1.4716451009013460e+00
361:-8.6266947206607281e-01
362:-5.2443958429830617e-01
363:-1.5995207694406459e+00
364:-1.0202900267224944e+00
365:-6.7669032689861142e-01
366:-1.6275756252252003e+00
367:-1.1039440466112629e+00
368:-7.6974935100144237e-01
369:-4.2746680912203144e-01
370:-3.4756307929665059e-01
371:-3.0238729886203480e-01
372:-5.5724258921908720e-01
373:-4.3168823936800577e-01
374:-3.5222572164332661e-01
375:-6.3767631635424071e-01
376:-4.8459478107417803e-01
377:-3.8426381197023463e-01
378:-1.5845520315504655e+00
379:-1.7649410577001474e+00
380:-1.6834290676795789e+00
381:-8.8098652774807851e-01
382:-1.0381472835659125e+00
383:-1.0083706661794944e+00
384:-2.1233584510868869e-01
385:-2.6535551342731800e-01
386:-2.6287418963184361e-01
387:-1.4613722404680292e+00
388:-1.0099938461925049e+00
389:-7.1504451078086118e-01
390:-8.8111099449581698e-01
391:-6.1723883419435521e-01
392:-4.4494121696497602e-01
393:-2.3353460299548037e-01
394:-1.7170604287753682e-01
395:-1.3096517500061750e-01
396:-5.9507775417413389e-01
397:-4.5353492375500193e-01
398:-3.6004864481070331e-01
399:-3.7533886962485280e-01
400:-2.9277528414177767e-01
401:-2.3778687256113756e-01
402:-1.1457691147440263e-01
403:-9.5582464037449563e-02
404:-8.3907503546431964e-02
