label=Stress xy
num_items=882

0:-7.8900850250208876e-01
1:-5.0497788447434355e-01
2:-1.8107759263276443e-01
3:-1.2858644033960528e-01
4:1.1142137061373207e+00
5:1.2495025008739440e+00
6:1.1237692478192522e+00
7:9.1293634248208988e-01
8:5.5839306690815649e-01
9:-1.5573728157312564e-01
10:-6.4057195996381724e-02
11:7.9421676889222151e-02
12:8.5843641405865800e-01
13:3.1964842924013920e-01
14:1.1434133472500073e-01
15:3.0777879996242608e-01
16:1.7022222019196970e-02
17:-2.3328378567388772e-02
18:1.4180213189550203e-01
19:1.1202265488606886e-01
20:1.1219465964023699e-02
21:1.4239409464225244e-01
22:1.5807002176975579e-01
23:1.1346946278778271e-01
24:7.1212878206546218e-02
25:1.7220824611437380e-01
26:1.5837903932288408e-01
27:-2.5235506229667949e-02
28:-2.1089495270747077e-02
29:1.4202042557011173e-02
30:7.4542795359246530e-02
31:4.1571929907764545e-02
32:3.6558133039977306e-02
33:1.0608255398833837e-01
34:4.9010591629827849e-02
35:3.7920394180855528e-02
36:2.4356698088872083e-02
37:1.7721222153862314e-02
38:2.6218627264688469e-03
39:3.5664810171145721e-02
40:2.7950133909527095e-02
41:2.0052045953363080e-02
42:4.5359204410433625e-02
43:4.8598254960682076e-02
44:3.9624233021439151e-02
45:-6.4979463722241164e-04
46:1.4043221143678615e-03
47:4.1256951625130702e-03
48:1.8842279873508186e-02
49:1.8344962816222405e-02
50:1.4534713651527573e-02
51:3.1442015739880827e-02
52:2.3091494726916649e-02
53:1.9871657927055551e-02
54:2.7377800033948582e-03
55:6.2024340892207896e-04
56:2.2156732288106822e-03
57:9.3290202281079964e-03
58:4.0345464900782869e-03
59:7.0984830823253471e-03
60:1.8422285036624578e-02
61:1.2046115406511744e-02
62:2.8604393272228489e-03
63:1.3064299357215168e+00
64:2.8692902768787309e-01
65:-1.8979025869028043e-01
66:6.5172340303303311e-01
67:-5.1501209610401488e-01
68:-8.3450080618486000e-01
69:-2.5737218747864188e-01
70:-7.4557421317057637e-01
71:-7.8291491179524886e-01
72:-2.6749283685356656e-01
73:-2.7535220718946773e-01
74:-1.3634112814201690e-01
75:-7.3112912591781176e-01
76:-4.8506665302413332e-01
77:-2.2589369861151737e-01
78:-6.5408532963749688e-01
79:-4.1998503281852068e-01
80:-2.2759025936607055e-01
81:5.1712593039450151e-03
82:1.4540279793512062e-01
83:1.4395605040743656e-01
84:-8.4885452678729947e-02
85:5.1539145319817098e-02
86:7.5285553161677926e-02
87:-1.4743328931330926e-01
88:-5.8382338228058932e-02
89:-7.3347864841288857e-03
90:9.4490660786592962e-02
91:4.3626022925365084e-02
92:3.9607734366701230e-02
93:5.7278131880011310e-02
94:4.3003070326648254e-02
95:4.7512728552057827e-02
96:1.4815271503920827e-02
97:4.0653801613853999e-02
98:4.7463231825514242e-02
99:5.0726456401003414e-02
100:5.6395225127984464e-02
101:4.5708710550905342e-02
102:5.2770080910782530e-02
103:5.2434625967683543e-02
104:4.3937056613382548e-02
105:4.2535338591842761e-02
106:3.5721896831312314e-02
107:3.4750673732705732e-02
108:3.5422940724307787e-02
109:2.5426833015305572e-02
110:2.3082412022862230e-02
111:3.8048045081444021e-02
112:3.2064743061359924e-02
113:2.8541229874028635e-02
114:3.6907406448387851e-02
115:3.7073128994873854e-02
116:3.0877377736215357e-02
117:2.2817424781123318e-02
118:1.5552926852170615e-02
119:1.4460896594975308e-03
120:2.5819848206825573e-02
121:1.6624959566793232e-02
122:3.4559311077252777e-03
123:2.4444608724362233e-02
124:1.4573669710908014e-02
125:6.7688804384969867e-03
126:-4.8180034864711330e-01
127:-5.9874776235328331e-01
128:-5.6625954938272716e-01
129:-3.1339340237734048e-01
130:-2.7284311522401800e-01
131:-2.9248767855415525e-01
132:5.5228759048421200e-02
133:-8.2465259843051350e-02
134:-2.0095101617329808e-01
135:-4.8195068505341054e-01
136:-3.3466930848610743e-01
137:-2.2004247294065202e-01
138:-2.8775395140354687e-01
139:-2.6077476772565261e-01
140:-2.2445863490793200e-01
141:-2.3460308246709063e-01
142:-2.5317361400421706e-01
143:-2.3067966758800557e-01
144:-1.7563530240809228e-01
145:-1.0874103640792240e-01
146:-4.3925395013095572e-02
147:-2.0167790448578668e-01
148:-1.4489863813664566e-01
149:-7.5543517965592555e-02
150:-2.0100345664406935e-01
151:-1.4273343447277520e-01
152:-8.8661220922067449e-02
153:-6.7234842743333287e-03
154:3.1388002037100814e-02
155:3.7683285515657722e-02
156:-3.6926499169851870e-02
157:1.1300102902804387e-03
158:1.0926264836953590e-02
159:-6.4197401206805685e-02
160:-3.5533646235196857e-02
161:-1.6780887866619680e-02
162:3.0547554202606894e-02
163:2.5273996517998873e-02
164:2.9810881424837152e-02
165:9.7687637339791550e-03
166:1.4197754172879700e-02
167:2.3676892296832053e-02
168:-7.2761933670088211e-03
169:7.0616630105630176e-03
170:1.6112712574040563e-02
171:3.5043114067114488e-02
172:3.6816924670556840e-02
173:2.9577494807153919e-02
174:2.8651658287321174e-02
175:2.9791175456317886e-02
176:2.4256050537063062e-02
177:1.7960848359546897e-02
178:1.8363453308477766e-02
179:1.7534816830737147e-02
180:2.2547071575611127e-02
181:1.3558870353603711e-02
182:7.2811015389422813e-03
183:1.9800476851026736e-02
184:1.3275404439271299e-02
185:5.0369861779115165e-03
186:1.7068622722919872e-02
187:1.2658258721030723e-02
188:1.5580613297948825e-03
189:1.4446964742574447e-01
190:-9.9804256957390799e-02
191:-2.2540727916649198e-01
192:6.9726993877774396e-02
193:-1.6212309608857284e-01
194:-2.3814883984326757e-01
195:-7.3374437129223272e-02
196:-1.5645058165533873e-01
197:-1.8182877474537146e-01
198:-2.5080422911005928e-01
199:-2.5762326020514326e-01
200:-2.2525906674197563e-01
201:-2.4635217794573491e-01
202:-2.3780267027311686e-01
203:-2.0391138828703295e-01
204:-1.9067820451984446e-01
205:-1.9188967418655506e-01
206:-1.7583164309641194e-01
207:-1.9104575920167557e-01
208:-1.3756776347497343e-01
209:-9.7335157550793167e-02
210:-1.7503850828151593e-01
211:-1.3711975668597412e-01
212:-1.1119584327457817e-01
213:-1.6096407909156288e-01
214:-1.3853837984145251e-01
215:-1.1627026848897733e-01
216:-8.0423108001254962e-02
217:-5.3899227355109838e-02
218:-2.8602831953105437e-02
219:-9.7932884651253924e-02
220:-7.0287754985971576e-02
221:-4.1006308918471096e-02
222:-1.0096367339584092e-01
223:-7.3269535166768707e-02
224:-4.8633142476163078e-02
225:-1.4585888555808087e-02
226:1.9995458122827776e-03
227:9.2532211909378704e-03
228:-2.6153038576213913e-02
229:-1.0444729450669090e-02
230:-3.4320950881172110e-03
231:-3.7660367819251292e-02
232:-2.4102558162660995e-02
233:-1.4010214678806218e-02
234:1.0084419850460186e-02
235:1.1753988391709897e-02
236:1.4008783811765534e-02
237:-1.0454041122810117e-03
238:4.2156242129710855e-03
239:8.8093862176376967e-03
240:-8.4149871691001302e-03
241:-4.6497698881102658e-04
242:3.5517905310772872e-03
243:1.4999780329978760e-02
244:1.1137632917209655e-02
245:3.1475850678020379e-04
246:9.8425787219777461e-03
247:6.9830070055478108e-03
248:8.7854729237752012e-04
249:3.5384861590283191e-03
250:2.4656782055486200e-03
251:2.2846057078105080e-03
252:-9.5690895377800053e-02
253:-9.5427050860433585e-02
254:-1.1972889953028419e-01
255:-4.6709752628729354e-02
256:-1.5789356017194282e-02
257:-5.6274814880759805e-02
258:1.5747085009559923e-02
259:-8.0522260698593657e-03
260:-5.3026488707432783e-02
261:-1.4100855475432020e-01
262:-1.6054202935328807e-01
263:-1.5965539030184875e-01
264:-8.7056135319272032e-02
265:-1.2080651794868867e-01
266:-1.3367518816169655e-01
267:-7.3759995541254522e-02
268:-9.8097656627040605e-02
269:-1.1075329718700977e-01
270:-1.5252595036944844e-01
271:-1.3565096583299299e-01
272:-1.1284804546116807e-01
273:-1.3398811802685981e-01
274:-1.2363363478835020e-01
275:-1.0372682155392390e-01
276:-1.1315636419572385e-01
277:-1.0777109375166452e-01
278:-9.4459200650997110e-02
279:-9.6942870852161481e-02
280:-7.2340976738921758e-02
281:-5.2977840225646236e-02
282:-9.0302670795014819e-02
283:-7.2114675058670585e-02
284:-5.8200895055639669e-02
285:-8.5377746473398256e-02
286:-7.1763292244296367e-02
287:-5.8743150306887752e-02
288:-4.4263447554604908e-02
289:-3.0687319250281720e-02
290:-1.8039452266391667e-02
291:-5.0579535779212738e-02
292:-3.6163971130801581e-02
293:-2.2097522898851408e-02
294:-5.0422948295044449e-02
295:-3.6213780244490151e-02
296:-2.4097750492254575e-02
297:-1.1132666902818729e-02
298:-3.0264748646033255e-03
299:8.4826594490800098e-05
300:-1.5259127060367165e-02
301:-7.9739647119680453e-03
302:-4.7118621168842174e-03
303:-1.8778307019312931e-02
304:-1.2133633698521770e-02
305:-7.2167771103299394e-03
306:-4.5884004579773568e-05
307:4.0584596053231607e-04
308:2.2286866263850425e-03
309:-3.6564094338671226e-03
310:-1.2457305857049305e-03
311:4.9532450644960730e-04
312:-4.6093150162712423e-03
313:-1.5737084646878674e-03
314:-1.4532040342079328e-03
315:2.0112433182612525e-02
316:-3.9435686460902772e-02
317:-7.1029722438401152e-02
318:-2.7158123499286669e-03
319:-6.5874810096010969e-02
320:-7.7289696209065853e-02
321:-1.9049120447987476e-02
322:-4.1632025321166825e-02
323:-5.2111931240743703e-02
324:-7.9000140524278797e-02
325:-9.0700961330690860e-02
326:-9.9395280584940127e-02
327:-7.6659451131695783e-02
328:-7.9804695534612460e-02
329:-8.4270851514878758e-02
330:-5.8958355810936482e-02
331:-6.7489896062425919e-02
332:-7.0328104902014674e-02
333:-1.0169212820554643e-01
334:-9.8951955039569592e-02
335:-8.9896021531940581e-02
336:-8.5282603272045412e-02
337:-8.4133395253454160e-02
338:-7.9161315850145450e-02
339:-6.9511405520984407e-02
340:-6.7492364074548852e-02
341:-6.3792043097588416e-02
342:-8.2924850366191141e-02
343:-7.0235179720888843e-02
344:-5.6427339057171483e-02
345:-7.4327172744817108e-02
346:-6.3173743325731932e-02
347:-5.0080597230887945e-02
348:-6.0185477276034488e-02
349:-5.1669534969340333e-02
350:-4.1704476086083520e-02
351:-4.7856909137106982e-02
352:-3.4927804319389764e-02
353:-2.4851483554704609e-02
354:-4.2493381620229427e-02
355:-3.2144680645810587e-02
356:-2.4179346877769920e-02
357:-3.5986556514468748e-02
358:-2.7651043095173605e-02
359:-2.0357998803917910e-02
360:-2.0297860024575110e-02
361:-1.3427783917232027e-02
362:-7.4497817028209247e-03
363:-1.9975277626698495e-02
364:-1.2878507914509013e-02
365:-6.8459744628017087e-03
366:-1.6191682808823191e-02
367:-9.9651662274078956e-03
368:-5.5286833346173021e-03
369:-4.4419703404009392e-03
370:-1.7032532944302615e-03
371:-1.8313949447028143e-03
372:-4.3119243297915005e-03
373:-2.0351893616119532e-03
374:-8.9373533412832884e-04
375:-3.9204368922879113e-03
376:-1.7313567049716979e-03
377:5.4921432164181726e-04
378:-1.0101868572216094e-02
379:-8.1164018074562170e-03
380:-2.9113846246680754e-02
381:4.8651195807256943e-03
382:8.9573873035781147e-03
383:-1.0703250200822851e-02
384:-7.5168331461470490e-03
385:-2.9414592432962215e-02
386:-1.3015650124415152e-02
387:-4.4034377974450270e-02
388:-5.8050879430511862e-02
389:-6.0365413994639933e-02
390:-2.2525718974714670e-02
391:-3.3692239632327162e-02
392:-3.6712684764406617e-02
393:-3.8696432239186929e-03
394:-2.7063196668487407e-03
395:-9.6351355517768095e-03
396:-5.8798464481314892e-02
397:-5.6155333762174020e-02
398:-5.2775112181937665e-02
399:-3.6577279242474954e-02
400:-3.5075934773314790e-02
401:-3.2318679894904279e-02
402:-1.2314932715770006e-02
403:-1.1880642307814005e-02
404:-8.6555753958756521e-03
405:-4.9880210383765278e-02
406:-4.3560458917508635e-02
407:-3.6037471259986846e-02
408:-3.0324116235550584e-02
409:-2.7008572935917349e-02
410:-2.2979545209996885e-02
411:-7.1756791006327330e-03
412:-6.1855651714959985e-03
413:-5.5076251048964157e-03
414:-3.1351209360011276e-02
415:-2.3700794420121872e-02
416:-1.6613720726300241e-02
417:-1.9922439955449577e-02
418:-1.4484812915758132e-02
419:-9.5806918873778141e-03
420:-4.6036335971852502e-03
421:-3.3850472086678933e-03
422:-2.5645357680189459e-03
423:-1.2799429615996928e-02
424:-7.8219121679010545e-03
425:-4.5905142935738115e-03
426:-7.2733836221398418e-03
427:-4.5324616310110201e-03
428:-2.5016969753180116e-03
429:-2.1160918980731840e-03
430:-1.0747497144045065e-03
431:8.4216272104910742e-05
432:-3.2563148172892503e-03
433:-9.6716840496014606e-04
434:8.7205863927787455e-04
435:-1.2760042031059037e-03
436:2.8286828525343229e-04
437:1.0666802645269120e-04
438:6.0796981463665575e-04
439:3.7802142976937583e-04
440:-8.8857351463483960e-05
441:0.0000000000000000e+00
442:0.0000000000000000e+00
443:0.0000000000000000e+00
444:0.0000000000000000e+00
445:0.0000000000000000e+00
446:0.0000000000000000e+00
447:0.0000000000000000e+00
448:0.0000000000000000e+00
449:0.0000000000000000e+00
450:0.0000000000000000e+00
451:0.0000000000000000e+00
452:0.0000000000000000e+00
453:0.0000000000000000e+00
454:0.0000000000000000e+00
455:0.0000000000000000e+00
456:0.0000000000000000e+00
457:0.0000000000000000e+00
458:0.0000000000000000e+00
459:0.0000000000000000e+00
460:0.0000000000000000e+00
461:0.0000000000000000e+00
462:0.0000000000000000e+00
463:0.0000000000000000e+00
464:0.0000000000000000e+00
465:0.0000000000000000e+00
466:0.0000000000000000e+00
467:0.0000000000000000e+00
468:0.0000000000000000e+00
469:0.0000000000000000e+00
470:0.0000000000000000e+00
471:0.0000000000000000e+00
472:0.0000000000000000e+00
473:0.0000000000000000e+00
474:0.0000000000000000e+00
475:0.0000000000000000e+00
476:0.0000000000000000e+00
477:0.0000000000000000e+00
478:0.0000000000000000e+00
479:0.0000000000000000e+00
480:0.0000000000000000e+00
481:0.0000000000000000e+00
482:0.0000000000000000e+00
483:0.0000000000000000e+00
484:0.0000000000000000e+00
485:0.0000000000000000e+00
486:0.0000000000000000e+00
487:0.0000000000000000e+00
488:0.0000000000000000e+00
489:0.0000000000000000e+00
490:0.0000000000000000e+00
491:0.0000000000000000e+00
492:0.0000000000000000e+00
493:0.0000000000000000e+00
494:0.0000000000000000e+00
495:0.0000000000000000e+00
496:0.0000000000000000e+00
497:0.0000000000000000e+00
498:0.0000000000000000e+00
499:0.0000000000000000e+00
500:0.0000000000000000e+00
501:0.0000000000000000e+00
502:0.0000000000000000e+00
503:0.0000000000000000e+00
504:0.0000000000000000e+00
505:0.0000000000000000e+00
506:0.0000000000000000e+00
507:0.0000000000000000e+00
508:0.0000000000000000e+00
509:0.0000000000000000e+00
510:0.0000000000000000e+00
511:0.0000000000000000e+00
512:0.0000000000000000e+00
513:0.0000000000000000e+00
514:0.0000000000000000e+00
515:0.0000000000000000e+00
516:0.0000000000000000e+00
517:0.0000000000000000e+00
518:0.0000000000000000e+00
519:0.0000000000000000e+00
520:0.0000000000000000e+00
521:0.0000000000000000e+00
522:0.0000000000000000e+00
523:0.0000000000000000e+00
524:0.0000000000000000e+00
525:0.0000000000000000e+00
526:0.0000000000000000e+00
527:0.0000000000000000e+00
528:0.0000000000000000e+00
529:0.0000000000000000e+00
530:0.0000000000000000e+00
531:0.0000000000000000e+00
532:0.0000000000000000e+00
533:0.0000000000000000e+00
534:0.0000000000000000e+00
535:0.0000000000000000e+00
536:0.0000000000000000e+00
537:0.0000000000000000e+00
538:0.0000000000000000e+00
539:0.0000000000000000e+00
540:0.0000000000000000e+00
541:0.0000000000000000e+00
542:0.0000000000000000e+00
543:0.0000000000000000e+00
544:0.0000000000000000e+00
545:0.0000000000000000e+00
546:0.0000000000000000e+00
547:0.0000000000000000e+00
548:0.0000000000000000e+00
549:0.0000000000000000e+00
550:0.0000000000000000e+00
551:0.0000000000000000e+00
552:0.0000000000000000e+00
553:0.0000000000000000e+00
554:0.0000000000000000e+00
555:0.0000000000000000e+00
556:0.0000000000000000e+00
557:0.0000000000000000e+00
558:0.0000000000000000e+00
559:0.0000000000000000e+00
560:0.0000000000000000e+00
561:0.0000000000000000e+00
562:0.0000000000000000e+00
563:0.0000000000000000e+00
564:0.0000000000000000e+00
565:0.0000000000000000e+00
566:0.0000000000000000e+00
567:0.0000000000000000e+00
568:0.0000000000000000e+00
569:0.0000000000000000e+00
570:0.0000000000000000e+00
571:0.0000000000000000e+00
572:0.0000000000000000e+00
573:0.0000000000000000e+00
574:0.0000000000000000e+00
575:0.0000000000000000e+00
576:0.0000000000000000e+00
577:0.0000000000000000e+00
578:0.0000000000000000e+00
579:0.0000000000000000e+00
580:0.0000000000000000e+00
581:0.0000000000000000e+00
582:0.0000000000000000e+00
583:0.0000000000000000e+00
584:0.0000000000000000e+00
585:0.0000000000000000e+00
586:0.0000000000000000e+00
587:0.0000000000000000e+00
588:0.0000000000000000e+00
589:0.0000000000000000e+00
590:0.0000000000000000e+00
591:0.0000000000000000e+00
592:0.0000000000000000e+00
593:0.0000000000000000e+00
594:0.0000000000000000e+00
595:0.0000000000000000e+00
596:0.0000000000000000e+00
597:0.0000000000000000e+00
598:0.0000000000000000e+00
599:0.0000000000000000e+00
600:0.0000000000000000e+00
601:0.0000000000000000e+00
602:0.0000000000000000e+00
603:0.0000000000000000e+00
604:0.0000000000000000e+00
605:0.0000000000000000e+00
606:0.0000000000000000e+00
607:0.0000000000000000e+00
608:0.0000000000000000e+00
609:0.0000000000000000e+00
610:0.0000000000000000e+00
611:0.0000000000000000e+00
612:0.0000000000000000e+00
613:0.0000000000000000e+00
614:0.0000000000000000e+00
615:0.0000000000000000e+00
616:0.0000000000000000e+00
617:0.0000000000000000e+00
618:0.0000000000000000e+00
619:0.0000000000000000e+00
620:0.0000000000000000e+00
621:0.0000000000000000e+00
622:0.0000000000000000e+00
623:0.0000000000000000e+00
624:0.0000000000000000e+00
625:0.0000000000000000e+00
626:0.0000000000000000e+00
627:0.0000000000000000e+00
628:0.0000000000000000e+00
629:0.0000000000000000e+00
630:0.0000000000000000e+00
631:0.0000000000000000e+00
632:0.0000000000000000e+00
633:0.0000000000000000e+00
634:0.0000000000000000e+00
635:0.0000000000000000e+00
636:0.0000000000000000e+00
637:0.0000000000000000e+00
638:0.0000000000000000e+00
639:0.0000000000000000e+00
640:0.0000000000000000e+00
641:0.0000000000000000e+00
642:0.0000000000000000e+00
643:0.0000000000000000e+00
644:0.0000000000000000e+00
645:0.0000000000000000e+00
646:0.0000000000000000e+00
647:0.0000000000000000e+00
648:0.0000000000000000e+00
649:0.0000000000000000e+00
650:0.0000000000000000e+00
651:0.0000000000000000e+00
652:0.0000000000000000e+00
653:0.0000000000000000e+00
654:0.0000000000000000e+00
655:0.0000000000000000e+00
656:0.0000000000000000e+00
657:0.0000000000000000e+00
658:0.0000000000000000e+00
659:0.0000000000000000e+00
660:0.0000000000000000e+00
661:0.0000000000000000e+00
662:0.0000000000000000e+00
663:0.0000000000000000e+00
664:0.0000000000000000e+00
665:0.0000000000000000e+00
666:0.0000000000000000e+00
667:0.0000000000000000e+00
668:0.0000000000000000e+00
669:0.0000000000000000e+00
670:0.0000000000000000e+00
671:0.0000000000000000e+00
672:0.0000000000000000e+00
673:0.0000000000000000e+00
674:0.0000000000000000e+00
675:0.0000000000000000e+00
676:0.0000000000000000e+00
677:0.0000000000000000e+00
678:0.0000000000000000e+00
679:0.0000000000000000e+00
680:0.0000000000000000e+00
681:0.0000000000000000e+00
682:0.0000000000000000e+00
683:0.0000000000000000e+00
684:0.0000000000000000e+00
685:0.0000000000000000e+00
686:0.0000000000000000e+00
687:0.0000000000000000e+00
688:0.0000000000000000e+00
689:0.0000000000000000e+00
690:0.0000000000000000e+00
691:0.0000000000000000e+00
692:0.0000000000000000e+00
693:0.0000000000000000e+00
694:0.0000000000000000e+00
695:0.0000000000000000e+00
696:0.0000000000000000e+00
697:0.0000000000000000e+00
698:0.0000000000000000e+00
699:0.0000000000000000e+00
700:0.0000000000000000e+00
701:0.0000000000000000e+00
702:0.0000000000000000e+00
703:0.0000000000000000e+00
704:0.0000000000000000e+00
705:0.0000000000000000e+00
706:0.0000000000000000e+00
707:0.0000000000000000e+00
708:0.0000000000000000e+00
709:0.0000000000000000e+00
710:0.0000000000000000e+00
711:0.0000000000000000e+00
712:0.0000000000000000e+00
713:0.0000000000000000e+00
714:0.0000000000000000e+00
715:0.0000000000000000e+00
716:0.0000000000000000e+00
717:0.0000000000000000e+00
718:0.0000000000000000e+00
719:0.0000000000000000e+00
720:0.0000000000000000e+00
721:0.0000000000000000e+00
722:0.0000000000000000e+00
723:0.0000000000000000e+00
724:0.0000000000000000e+00
725:0.0000000000000000e+00
726:0.0000000000000000e+00
727:0.0000000000000000e+00
728:0.0000000000000000e+00
729:0.0000000000000000e+00
730:0.0000000000000000e+00
731:0.0000000000000000e+00
732:0.0000000000000000e+00
733:0.0000000000000000e+00
734:0.0000000000000000e+00
735:0.0000000000000000e+00
736:0.0000000000000000e+00
737:0.0000000000000000e+00
738:0.0000000000000000e+00
739:0.0000000000000000e+00
740:0.0000000000000000e+00
741:0.0000000000000000e+00
742:0.0000000000000000e+00
743:0.0000000000000000e+00
744:0.0000000000000000e+00
745:0.0000000000000000e+00
746:0.0000000000000000e+00
747:0.0000000000000000e+00
748:0.0000000000000000e+00
749:0.0000000000000000e+00
750:0.0000000000000000e+00
751:0.0000000000000000e+00
752:0.0000000000000000e+00
753:0.0000000000000000e+00
754:0.0000000000000000e+00
755:0.0000000000000000e+00
756:0.0000000000000000e+00
757:0.0000000000000000e+00
758:0.0000000000000000e+00
759:0.0000000000000000e+00
760:0.0000000000000000e+00
761:0.0000000000000000e+00
762:0.0000000000000000e+00
763:0.0000000000000000e+00
764:0.0000000000000000e+00
765:0.0000000000000000e+00
766:0.0000000000000000e+00
767:0.0000000000000000e+00
768:0.0000000000000000e+00
769:0.0000000000000000e+00
770:0.0000000000000000e+00
771:0.0000000000000000e+00
772:0.0000000000000000e+00
773:0.0000000000000000e+00
774:0.0000000000000000e+00
775:0.0000000000000000e+00
776:0.0000000000000000e+00
777:0.0000000000000000e+00
778:0.0000000000000000e+00
779:0.0000000000000000e+00
780:0.0000000000000000e+00
781:0.0000000000000000e+00
782:0.0000000000000000e+00
783:0.0000000000000000e+00
784:0.0000000000000000e+00
785:0.0000000000000000e+00
786:0.0000000000000000e+00
787:0.0000000000000000e+00
788:0.0000000000000000e+00
789:0.0000000000000000e+00
790:0.0000000000000000e+00
791:0.0000000000000000e+00
792:0.0000000000000000e+00
793:0.0000000000000000e+00
794:0.0000000000000000e+00
795:0.0000000000000000e+00
796:0.0000000000000000e+00
797:0.0000000000000000e+00
798:0.0000000000000000e+00
799:0.0000000000000000e+00
800:0.0000000000000000e+00
801:0.0000000000000000e+00
802:0.0000000000000000e+00
803:0.0000000000000000e+00
804:0.0000000000000000e+00
805:0.0000000000000000e+00
806:0.0000000000000000e+00
807:0.0000000000000000e+00
808:0.0000000000000000e+00
809:0.0000000000000000e+00
810:0.0000000000000000e+00
811:0.0000000000000000e+00
812:0.0000000000000000e+00
813:0.0000000000000000e+00
814:0.0000000000000000e+00
815:0.0000000000000000e+00
816:0.0000000000000000e+00
817:0.0000000000000000e+00
818:0.0000000000000000e+00
819:0.0000000000000000e+00
820:0.0000000000000000e+00
821:0.0000000000000000e+00
822:0.0000000000000000e+00
823:0.0000000000000000e+00
824:0.0000000000000000e+00
825:0.0000000000000000e+00
826:0.0000000000000000e+00
827:0.0000000000000000e+00
828:0.0000000000000000e+00
829:0.0000000000000000e+00
830:0.0000000000000000e+00
831:0.0000000000000000e+00
832:0.0000000000000000e+00
833:0.0000000000000000e+00
834:0.0000000000000000e+00
835:0.0000000000000000e+00
836:0.0000000000000000e+00
837:0.0000000000000000e+00
838:0.0000000000000000e+00
839:0.0000000000000000e+00
840:0.0000000000000000e+00
841:0.0000000000000000e+00
842:0.0000000000000000e+00
843:0.0000000000000000e+00
844:0.0000000000000000e+00
845:0.0000000000000000e+00
846:0.0000000000000000e+00
847:0.0000000000000000e+00
848:0.0000000000000000e+00
849:0.0000000000000000e+00
850:0.0000000000000000e+00
851:0.0000000000000000e+00
852:0.0000000000000000e+00
853:0.0000000000000000e+00
854:0.0000000000000000e+00
855:0.0000000000000000e+00
856:0.0000000000000000e+00
857:0.0000000000000000e+00
858:0.0000000000000000e+00
859:0.0000000000000000e+00
860:0.0000000000000000e+00
861:0.0000000000000000e+00
862:0.0000000000000000e+00
863:0.0000000000000000e+00
864:0.0000000000000000e+00
865:0.0000000000000000e+00
866:0.0000000000000000e+00
867:0.0000000000000000e+00
868:0.0000000000000000e+00
869:0.0000000000000000e+00
870:0.0000000000000000e+00
871:0.0000000000000000e+00
872:0.0000000000000000e+00
873:0.0000000000000000e+00
874:0.0000000000000000e+00
875:0.0000000000000000e+00
876:0.0000000000000000e+00
877:0.0000000000000000e+00
878:0.0000000000000000e+00
879:0.0000000000000000e+00
880:0.0000000000000000e+00
881:0.0000000000000000e+00
