label=Stress xy
num_items=72

0:-6.3651647678197110e-03
1:-2.0338450201057810e-03
2:1.2333349032080537e-03
3:-1.9023851433293305e-02
4:-8.6331244380054347e-03
5:5.4634513567038373e-04
6:-1.4813078803352489e-02
7:-6.6323401301703827e-03
8:1.9002352418806212e-04
9:1.6170668622657221e-03
10:6.5697264046524315e-04
11:1.6395202508201300e-04
12:2.3807360647065171e-03
13:5.7938503621349636e-04
14:-7.6900341142232685e-04
15:1.4925430943168664e-03
16:3.0638186191645541e-04
17:-4.4092781518732446e-04
18:-6.0128977331336429e-03
19:-2.8481518682852321e-03
20:-5.1062167749249478e-04
21:2.4575202123486889e-03
22:-4.4408128361277192e-04
23:-2.2004561910279282e-03
24:5.9269736892693348e-04
25:-2.7621987727214753e-03
26:-2.9994260632192904e-03
27:8.2190773665668277e-06
28:3.9804062291004542e-05
29:1.5219159516155446e-04
30:-1.8028218403342516e-03
31:-1.5219465357671461e-04
32:3.6291367436708759e-04
33:-1.5451307196376193e-03
34:1.5921745581320054e-04
35:-4.8827463430622811e-04
36:0.0000000000000000e+00
37:0.0000000000000000e+00
38:0.0000000000000000e+00
39:0.0000000000000000e+00
40:0.0000000000000000e+00
41:0.0000000000000000e+00
42:0.0000000000000000e+00
43:0.0000000000000000e+00
44:0.0000000000000000e+00
45:0.0000000000000000e+00
46:0.0000000000000000e+00
47:0.0000000000000000e+00
48:0.0000000000000000e+00
49:0.0000000000000000e+00
50:0.0000000000000000e+00
51:0.0000000000000000e+00
52:0.0000000000000000e+00
53:0.0000000000000000e+00
54:0.0000000000000000e+00
55:0.0000000000000000e+00
56:0.0000000000000000e+00
57:0.0000000000000000e+00
58:0.0000000000000000e+00
59:0.0000000000000000e+00
60:0.0000000000000000e+00
61:0.0000000000000000e+00
62:0.0000000000000000e+00
63:0.0000000000000000e+00
64:0.0000000000000000e+00
65:0.0000000000000000e+00
66:0.0000000000000000e+00
67:0.0000000000000000e+00
68:0.0000000000000000e+00
69:0.0000000000000000e+00
70:0.0000000000000000e+00
71:0.0000000000000000e+00
