label=Stress xy
num_items=4608

0:2.8368064508063947e-003
1:-1.3095854464101137e-002
2:-7.9433041496260928e-003
3:1.5887675776708556e-002
4:2.4484416262618915e-002
5:5.0201620827632952e-003
6:-5.2092945344087739e-003
7:-1.4257240441429139e-003
8:1.7493109174317324e-002
9:4.8705317643048633e-003
10:-1.0489852913097460e-002
11:-2.1413133557014848e-002
12:-1.4871440855454738e-002
13:-1.3474852361105271e-002
14:-2.1318404471200588e-002
15:-3.4738335381876755e-002
16:3.3678289596676132e-002
17:4.9769419939560307e-002
18:3.2961898125292176e-002
19:-8.8933996644722096e-003
20:4.1556817955961120e-003
21:-3.1269935416460420e-003
22:-5.5506772894570879e-002
23:-1.2851680346557079e-001
24:-1.8632577000151470e-002
25:-1.8588748507305439e-002
26:-6.8032207717578383e-002
27:-1.4386767142728660e-001
28:-2.4041978922126967e-002
29:1.0606416904140279e-002
30:1.2362859239038880e-003
31:-4.7775537553492183e-002
32:-4.1988232505187718e-002
33:-2.0995609508795965e-001
34:-6.7019785944763410e-001
35:-1.2077323317149666e+000
36:-1.6892370693993011e-001
37:-2.9437446760776576e-001
38:-6.1208324893317700e-001
39:-9.7364671510176826e-001
40:-1.9162383707240421e-001
41:-2.9120182037444131e-001
42:-4.6156481476807815e-001
43:-6.2313542688737600e-001
44:-9.9485280366636356e-002
45:-2.0192011252938485e-001
46:-2.8895045854219364e-001
47:-3.1992401533839504e-001
48:-1.5419066913800190e+000
49:-1.9531805412783159e+000
50:-2.0058633081101456e+000
51:-1.6753466121349112e+000
52:-1.1925180478086563e+000
53:-1.4447611662273683e+000
54:-1.4349403569914074e+000
55:-1.1676429684420249e+000
56:-7.0525318467829601e-001
57:-7.7176401505955250e-001
58:-7.0878213696336956e-001
59:-5.4572669570369470e-001
60:-3.0771591832672618e-001
61:-2.4854937020154316e-001
62:-1.6658072742540095e-001
63:-1.0009794656472029e-001
64:-1.3946901757980592e+000
65:-1.0692782859219212e+000
66:-1.1043025685460828e+000
67:-1.4834030088347832e+000
68:-9.6635469521309425e-001
69:-7.5522202742366951e-001
70:-7.9853393132030059e-001
71:-1.0760592033715017e+000
72:-4.4898870647300548e-001
73:-3.6894182709880452e-001
74:-3.9956002257716899e-001
75:-5.2654138306899234e-001
76:-8.4256409873550486e-002
77:-9.0871068148489401e-002
78:-9.3743519210227402e-002
79:-9.1532027026965654e-002
80:-1.7830762129870594e+000
81:-2.1192232183794366e+000
82:-2.0452729031231520e+000
83:-1.5957678235264547e+000
84:-1.2810585933554619e+000
85:-1.4773769531958263e+000
86:-1.3506304738503336e+000
87:-9.6002305978499702e-001
88:-6.1573694873593998e-001
89:-6.7660429833480440e-001
90:-5.4227759976106038e-001
91:-2.7550151519910121e-001
92:-9.7886294660501263e-002
93:-9.0950103027686149e-002
94:2.2001121949816998e-003
95:1.3805342690523484e-001
96:-1.2453732971683051e+000
97:-7.0244586310973545e-001
98:-2.4751215335450971e-001
99:-9.3073943334950157e-002
100:-7.0033890776865837e-001
101:-3.5696094801907219e-001
102:-9.7353818513072635e-002
103:-4.2781287469995891e-002
104:-1.3556813628967018e-001
105:-1.0810885071840783e-002
106:4.8402945244725867e-002
107:1.4414283013760893e-002
108:1.8513180958527470e-001
109:1.7431592725764566e-001
110:1.2167443601763690e-001
111:5.1796435573711656e-002
112:-6.7300642134459535e-002
113:-2.7115504639821927e-002
114:4.3206871841404773e-003
115:1.2323933378360675e-002
116:-3.3516598319859044e-002
117:1.4299047032657509e-002
118:4.8828926080021443e-002
119:5.3943962331119991e-002
120:1.2740023640876286e-002
121:6.8558185306833080e-002
122:1.0457612663780050e-001
123:1.0396968992436696e-001
124:4.9862527911888874e-002
125:1.1031719958103484e-001
126:1.4552249703751075e-001
127:1.3903385252626793e-001
128:1.1491857091419609e-002
129:9.5323312026819595e-003
130:7.7460831559343522e-003
131:6.9674782073843276e-003
132:5.0598384123700990e-002
133:4.4964692040426288e-002
134:3.8338986920339768e-002
135:3.3816168242903538e-002
136:9.7210870033084457e-002
137:8.8234342850172315e-002
138:7.7187550617520251e-002
139:6.9230504369561754e-002
140:1.2955639318141665e-001
141:1.1912981672533630e-001
142:1.0614541889586158e-001
143:9.6668275840387258e-002
144:6.9226086164863839e-003
145:7.0452703780969628e-003
146:6.8180819914869456e-003
147:6.3471642704749790e-003
148:3.2274395414758197e-002
149:3.0741219908711020e-002
150:2.8825125508857897e-002
151:2.7421129342167699e-002
152:6.6016638312297787e-002
153:6.1926527387908763e-002
154:5.7289521117638451e-002
155:5.4271587957980288e-002
156:9.2388169541051515e-002
157:8.6034382169147078e-002
158:7.8915409500809025e-002
159:7.4356558715604787e-002
160:5.9381108281812501e-003
161:5.1730162488573747e-003
162:4.4978787702036269e-003
163:4.2280584321505114e-003
164:2.6437173465730615e-002
165:2.4289693917163738e-002
166:2.1907624163710743e-002
167:2.0403640713982416e-002
168:5.2479582994458603e-002
169:4.8707476135543937e-002
170:4.4331880188017113e-002
171:4.1396657559697937e-002
172:7.1900801718590923e-002
173:6.7020696622826587e-002
174:6.1296166461164897e-002
175:5.7401167453571628e-002
176:4.1804730448934107e-003
177:4.0964798164913260e-003
178:3.8939405654570092e-003
179:3.6674623730132156e-003
180:1.9771970380193810e-002
181:1.8752003042951569e-002
182:1.7477049709565075e-002
183:1.6542647358564592e-002
184:4.0045141299639875e-002
185:3.7783448534377706e-002
186:3.5082494564201282e-002
187:3.3203908285181820e-002
188:5.5530287863408280e-002
189:5.2301134411305100e-002
190:4.8486685167437059e-002
191:4.5868688151863790e-002
192:3.5140627911957691e-003
193:3.2344802363068643e-003
194:2.9421202892128649e-003
195:2.7735457204690712e-003
196:1.6012593557826773e-002
197:1.4990756234536898e-002
198:1.3791839612690674e-002
199:1.2975863548536977e-002
200:3.2183057179747676e-002
201:3.0215694404345180e-002
202:2.7863865298099623e-002
203:2.6226120814429724e-002
204:4.4472150493138261e-002
205:4.1797651175356991e-002
206:3.8585084872233499e-002
207:3.6335057119188552e-002
208:2.6933281182730069e-003
209:2.5282486567875383e-003
210:2.3078851632406670e-003
211:2.1351705102798770e-003
212:1.2535284349846659e-002
213:1.1661121028494471e-002
214:1.0567866596706133e-002
215:9.7661855815769742e-003
216:2.5325068196737882e-002
217:2.3539234663004487e-002
218:2.1324697053028932e-002
219:1.9715876786437211e-002
220:3.5088508660884879e-002
221:3.2614264206551329e-002
222:2.9553808070964718e-002
223:2.7336694381466294e-002
224:2.0270613582493305e-003
225:1.8016260037313164e-003
226:1.5205209320137850e-003
227:1.3150517059492088e-003
228:9.2799823764846533e-003
229:8.2500479336741882e-003
230:6.9371835958828600e-003
231:5.9546347584247513e-003
232:1.8744790697740155e-002
233:1.6683339675582325e-002
234:1.4047972298412960e-002
235:1.2069681641828353e-002
236:2.6000427760588019e-002
237:2.3162269140333626e-002
238:1.9531402630770453e-002
239:1.6803823853001169e-002
240:1.1827365614084618e-003
241:8.7230216311529778e-004
242:4.3441248437393789e-004
243:7.3607949842292711e-005
244:5.3188697128506730e-003
245:3.8867264065894662e-003
246:1.9810269052236702e-003
247:4.9193282745799876e-004
248:1.0789517993188030e-002
249:7.9225010852738038e-003
250:4.1390911406499666e-003
251:1.2065375699020964e-003
252:1.5039314659079242e-002
253:1.1094495978925428e-002
254:5.9005627622897260e-003
255:1.8836267840258299e-003
256:-3.8634922303541507e-002
257:-2.2026962063191713e-002
258:-1.4742342751002150e-002
259:-2.0183745909349311e-002
260:-5.7689197629197796e-002
261:1.4038723254547313e-002
262:8.6305534427678771e-002
263:1.2535505262695462e-001
264:-2.8116213321680135e-002
265:1.5559037786403729e-001
266:3.6491119601975847e-001
267:5.0207145651373353e-001
268:3.6270344063312185e-002
269:3.3650852704865175e-001
270:6.9093656594010222e-001
271:9.3399937894792684e-001
272:1.0973031750014185e-003
273:6.9984404896355518e-002
274:1.0648683109632531e-001
275:9.3554118798107128e-002
276:1.6971100156003105e-001
277:2.8766315497091333e-001
278:3.9776361873398952e-001
279:4.4858392420892551e-001
280:5.6892565672656259e-001
281:6.8227848632942512e-001
282:7.9887975143072454e-001
283:8.6426442708206841e-001
284:1.0122661379415026e+000
285:1.0695036350316618e+000
286:1.1224719089382438e+000
287:1.1464292181605100e+000
288:4.7703481246956017e-002
289:-6.2367091509431247e-002
290:-1.4283485043297667e-001
291:-1.5611290919354834e-001
292:4.2215617879643696e-001
293:3.0664455551369074e-001
294:1.9403637445972613e-001
295:1.3693147136676323e-001
296:8.4988848769766634e-001
297:7.4601730748996697e-001
298:6.1592465827611664e-001
299:5.2037745694058646e-001
300:1.1311045407677327e+000
301:1.0505179889710732e+000
302:9.2576390672012243e-001
303:8.1511553998960129e-001
304:-1.2726541326698820e-001
305:-4.4137124332194223e-002
306:3.6256081028119162e-002
307:7.6362140820232766e-002
308:1.4160053636103051e-001
309:1.9751806607132430e-001
310:2.6415190117024856e-001
311:3.1037704924955661e-001
312:4.9809779270303439e-001
313:5.1702731447812555e-001
314:5.6377076503496215e-001
315:6.1649404850382628e-001
316:7.7570473231152481e-001
317:7.6514627803652679e-001
318:7.9515922630910829e-001
319:8.5172438123957805e-001
320:7.5059843384726238e-002
321:5.9645362418403361e-002
322:8.1699208299218867e-002
323:1.3091992104676989e-001
324:3.2322688305798730e-001
325:3.4388953347879209e-001
326:4.0883682369725050e-001
327:4.8773155472151208e-001
328:6.4110461795454576e-001
329:6.8516389872068906e-001
330:7.7518726021561601e-001
331:8.6912434710656283e-001
332:8.8021079321517681e-001
333:9.2405752207063818e-001
334:1.0096264254399447e+000
335:1.0969478473097936e+000
336:1.4420769907912731e-001
337:1.4681135955936636e-001
338:1.9701657023081348e-001
339:2.7137223003222899e-001
340:4.9450772389495951e-001
341:4.4041355268692828e-001
342:4.0632728115015382e-001
343:4.0817077452370126e-001
344:8.6589009353797708e-001
345:7.5581077599238766e-001
346:6.3521918182150672e-001
347:5.6044423832622337e-001
348:1.0848802748594437e+000
349:9.4567943379209984e-001
350:7.7677573862305371e-001
351:6.5706493686641487e-001
352:2.8661287406486718e-001
353:2.4097416356701692e-001
354:1.6061199459675152e-001
355:8.3063931897217613e-002
356:3.9937948167846965e-001
357:3.4101621476418764e-001
358:2.4550062253568145e-001
359:1.5744850833922214e-001
360:5.2507240250374532e-001
361:4.5003585839804039e-001
362:3.3465627416152327e-001
363:2.3282802159639898e-001
364:6.0497985444607605e-001
365:5.1710948223140063e-001
366:3.8643390569303554e-001
367:2.7399232993844369e-001
368:8.0109707289488810e-002
369:1.3663776036408698e-001
370:1.6599062316184501e-001
371:1.5445742896791587e-001
372:1.4705281573540202e-001
373:1.8728430219083861e-001
374:1.9949965182178639e-001
375:1.7799301468035000e-001
376:2.1413026237411184e-001
377:2.3845092553997932e-001
378:2.3528900875992240e-001
379:2.0612145892779410e-001
380:2.5000984166326917e-001
381:2.6623744875554994e-001
382:2.5664130916204181e-001
383:2.2570382692797802e-001
384:1.4343413566852334e-001
385:1.3261052529131201e-001
386:1.1923341741857173e-001
387:1.0955132499218878e-001
388:1.6453843724023523e-001
389:1.5304368440322819e-001
390:1.3930690137053814e-001
391:1.2974460712192135e-001
392:1.9090801924450679e-001
393:1.7849002327869340e-001
394:1.6422187341241665e-001
395:1.5476829268928385e-001
396:2.1022552011160422e-001
397:1.9706343175849400e-001
398:1.8234042744884310e-001
399:1.7293369497597208e-001
400:1.0493951252669635e-001
401:9.7558033361647839e-002
402:8.9252608212539053e-002
403:8.3902742053526283e-002
404:1.2484828630977646e-001
405:1.1610740491968589e-001
406:1.0613629699037855e-001
407:9.9592516122676972e-002
408:1.4953037581009390e-001
409:1.3917456210100290e-001
410:1.2723727286665013e-001
411:1.1929447467481563e-001
412:1.6745665551391334e-001
413:1.5598472222825793e-001
414:1.4269916613097144e-001
415:1.3380573587892200e-001
416:8.1122749179638742e-002
417:7.5773755004569607e-002
418:6.9489643421300665e-002
419:6.5205753886606183e-002
420:9.6308534627977227e-002
421:9.0258284173010697e-002
422:8.3158395985929071e-002
423:7.8325262791150110e-002
424:1.1541158643814867e-001
425:1.0850782656158901e-001
426:1.0042373218331595e-001
427:9.4935423584824027e-002
428:1.2950877506667768e-001
429:1.2199793107942522e-001
430:1.1322092847965978e-001
431:1.0727754839028854e-001
432:6.3109908452622474e-002
433:5.9429061535088930e-002
434:5.5086281319439850e-002
435:5.2110101823598161e-002
436:7.5899398687059569e-002
437:7.1521236061421578e-002
438:6.6348826497821603e-002
439:6.2798227966816084e-002
440:9.2109124431462963e-002
441:8.6872867584402283e-002
442:8.0685487963169558e-002
443:7.6437141048857932e-002
444:1.0416744299132191e-001
445:9.8313133444684148e-002
446:9.1399540566675180e-002
447:8.6656037625723284e-002
448:5.0530650256270168e-002
449:4.7514908864411828e-002
450:4.3887374555579187e-002
451:4.1342486463518895e-002
452:6.0917742025879205e-002
453:5.7334637009481430e-002
454:5.3018529857116962e-002
455:4.9985495467539547e-002
456:7.4187681917585652e-002
457:6.9901911370483849e-002
458:6.4736447604413244e-002
459:6.1104104173715632e-002
460:8.4142015681024959e-002
461:7.9346496225622842e-002
462:7.3567630731254233e-002
463:6.9504755719282538e-002
464:3.9927158921486919e-002
465:3.7111169128663017e-002
466:3.3627542736280276e-002
467:3.1103498781865829e-002
468:4.8286718751184281e-002
469:4.4887212608901848e-002
470:4.0675232866755569e-002
471:3.7618215997563965e-002
472:5.9055846811325266e-002
473:5.4933770369028613e-002
474:4.9822058118672068e-002
475:4.6108416016985600e-002
476:6.7204230369378587e-002
477:6.2558045820805250e-002
478:5.6795491387705010e-002
479:5.2608284614423809e-002
480:2.9580882902169595e-002
481:2.6344336729161796e-002
482:2.2202272012749550e-002
483:1.9089467573045422e-002
484:3.5767716321558764e-002
485:3.1825746876992321e-002
486:2.6777638766456974e-002
487:2.2981388139858616e-002
488:4.3853512339110758e-002
489:3.9040200043794139e-002
490:3.2873938597807288e-002
491:2.8235019078629187e-002
492:5.0061355829242350e-002
493:4.4617789639128005e-002
494:3.7643559843931466e-002
495:3.2396363514605654e-002
496:1.7074906051405256e-002
497:1.2570832803508231e-002
498:6.6414876699705267e-003
499:2.0564969523963464e-003
500:2.0521682572809289e-002
501:1.5017125952632302e-002
502:7.7651768302409363e-003
503:2.1532563415266439e-003
504:2.5228253764696749e-002
505:1.8495892821201433e-002
506:9.6194921306815701e-003
507:2.7452621535554870e-003
508:2.8996157053229853e-002
509:2.1382184279192782e-002
510:1.1338273765790797e-002
511:3.5559855592690553e-003
512:9.6247722078336650e-002
513:4.6976283681081388e-001
514:9.0722425084326785e-001
515:1.2042915840903121e+000
516:4.0274918872580823e-001
517:8.2560041829078568e-001
518:1.2871808542758392e+000
519:1.5718840027053298e+000
520:1.2032465736754407e+000
521:1.4713912262364974e+000
522:1.6786066893766454e+000
523:1.7281016001564204e+000
524:2.1238236076266586e+000
525:2.1054831950751787e+000
526:1.8986648216090931e+000
527:1.5999743676262708e+000
528:1.2798425727132960e+000
529:1.2804107860526717e+000
530:1.2647419555100674e+000
531:1.2401550689684508e+000
532:1.6133780835842035e+000
533:1.5197898182151286e+000
534:1.3915839458942256e+000
535:1.2886460607308032e+000
536:1.6879871889078644e+000
537:1.5511144439727291e+000
538:1.3798872178510491e+000
539:1.2542865908034808e+000
540:1.4688196082923786e+000
541:1.3597527764252360e+000
542:1.2351153706316493e+000
543:1.1531261367387153e+000
544:1.2157888023364893e+000
545:1.1462276519929158e+000
546:1.0326453344220921e+000
547:9.2809670931886579e-001
548:1.2459648061726387e+000
549:1.1871434474582860e+000
550:1.1005553983408387e+000
551:1.0266463628297475e+000
552:1.2092500641260859e+000
553:1.1657198231193435e+000
554:1.1160200877515354e+000
555:1.0833658490811602e+000
556:1.1227942129507889e+000
557:1.0919638593717573e+000
558:1.0718157700988995e+000
559:1.0717612168191515e+000
560:8.8812515700474459e-001
561:8.7280596797016685e-001
562:9.0157024541891095e-001
563:9.6098205375021395e-001
564:1.0002204115355371e+000
565:9.9831761748476466e-001
566:1.0414686994079430e+000
567:1.1095175745091088e+000
568:1.0756939055699033e+000
569:1.0940732421000876e+000
570:1.1596189242990360e+000
571:1.2417142413349767e+000
572:1.0792915984938500e+000
573:1.1153449181603206e+000
574:1.2008323684005673e+000
575:1.2958223403588482e+000
576:9.8886080244539010e-001
577:1.0250912300572907e+000
578:1.0997757538247597e+000
579:1.1780288650295121e+000
580:1.1343377620550883e+000
581:1.1520275140914729e+000
582:1.2031438052227521e+000
583:1.2638099642197018e+000
584:1.2631954074778360e+000
585:1.2563625280460819e+000
586:1.2762953931277068e+000
587:1.3136832633150315e+000
588:1.3152436981798232e+000
589:1.2893608732692061e+000
590:1.2850610507092510e+000
591:1.3043526987854295e+000
592:1.1614573407054445e+000
593:1.0130194020851506e+000
594:8.2778759344715969e-001
595:6.9228460448904805e-001
596:1.2407552962983521e+000
597:1.0828968201737388e+000
598:8.7964160938886815e-001
599:7.2593117351201430e-001
600:1.2844230982913538e+000
601:1.1230619166241025e+000
602:9.0775769197061373e-001
603:7.3908008759361665e-001
604:1.2720633014000979e+000
605:1.1147533771544178e+000
606:8.9900268060502919e-001
607:7.2558942423518613e-001
608:6.3468376276871707e-001
609:5.4312096722632208e-001
610:4.0623881709629422e-001
611:2.8797563856526853e-001
612:6.6407330031803946e-001
613:5.7434995947502065e-001
614:4.3320632809991499e-001
615:3.0657129124789656e-001
616:6.7580217921427133e-001
617:5.9520600371386312e-001
618:4.5727943453303288e-001
619:3.2644865113864474e-001
620:6.6439178238456664e-001
621:5.9594713900609331e-001
622:4.6721346987058032e-001
623:3.3832290557774725e-001
624:2.6089139134589007e-001
625:2.7314435444424900e-001
626:2.6135328819849130e-001
627:2.3102585769857706e-001
628:2.7336487499994927e-001
629:2.7680897338464916e-001
630:2.6062458939928607e-001
631:2.3237152847796966e-001
632:2.8721708476470309e-001
633:2.7980640997317158e-001
634:2.5872282253909962e-001
635:2.3381456994591374e-001
636:2.9597758526561019e-001
637:2.8073654682315324e-001
638:2.5653631228058899e-001
639:2.3468093032874637e-001
640:2.1606460248178053e-001
641:2.0303659832564214e-001
642:1.8863882511283847e-001
643:1.7959655359026797e-001
644:2.1905023734538259e-001
645:2.0713269493455583e-001
646:1.9423181905427317e-001
647:1.8637367233828797e-001
648:2.2270380214834823e-001
649:2.1186258497609128e-001
650:2.0042871113307176e-001
651:1.9374299937949582e-001
652:2.2531869878498342e-001
653:2.1501691352693800e-001
654:2.0433490255237646e-001
655:1.9826228577428223e-001
656:1.7415833042602596e-001
657:1.6240803681107777e-001
658:1.4876812986072679e-001
659:1.3960987725975582e-001
660:1.8129140063125390e-001
661:1.6964112012648649e-001
662:1.5605689000003856e-001
663:1.4688397101815495e-001
664:1.8908625571369680e-001
665:1.7779303046737302e-001
666:1.6457704851054242e-001
667:1.5561156007656482e-001
668:1.9390188049083937e-001
669:1.8305597038224028e-001
670:1.7034879740785810e-001
671:1.6171594462050998e-001
672:1.3520071903952885e-001
673:1.2754071137247622e-001
674:1.1859475938756962e-001
675:1.1254156129722544e-001
676:1.4247204310165251e-001
677:1.3484662086297763e-001
678:1.2594295652501908e-001
679:1.1991999553212444e-001
680:1.5126473031423843e-001
681:1.4371574175985238e-001
682:1.3490810096142253e-001
683:1.2895590029526297e-001
684:1.5747167319452451e-001
685:1.5000526403013065e-001
686:1.4130252959577322e-001
687:1.3542855998867781e-001
688:1.0934332710360727e-001
689:1.0326834748172301e-001
690:9.6093124756587905e-002
691:9.1169240786203948e-002
692:1.1667224635220094e-001
693:1.1039017235840207e-001
694:1.0296321637476651e-001
695:9.7860546103615276e-002
696:1.2566758352325122e-001
697:1.1917420556945671e-001
698:1.1149565128780065e-001
699:1.0621861118420479e-001
700:1.3212757234077707e-001
701:1.2551738195885637e-001
702:1.1770488714324881e-001
703:1.1233934268267637e-001
704:8.8553403321103605e-002
705:8.3552260599599540e-002
706:7.7522159074599667e-002
707:7.3279788854181127e-002
708:9.5129258954979937e-002
709:8.9871018970186914e-002
710:8.3517768594534553e-002
711:7.9037142355087672e-002
712:1.0336547565990802e-001
713:9.7820915071206008e-002
714:9.1110132954572987e-002
715:8.6367768673388287e-002
716:1.0941487606671396e-001
717:1.0368851329711251e-001
718:9.6752821385482302e-002
719:9.1847496167656681e-002
720:7.0868797940521921e-002
721:6.5985469036384137e-002
722:5.9925655410884140e-002
723:5.5519925840509340e-002
724:7.6466503686183865e-002
725:7.1222410881437756e-002
726:6.4704519884452749e-002
727:5.9957369667013878e-002
728:8.3615494748089145e-002
729:7.7951643027670978e-002
730:7.0902547841009189e-002
731:6.5760876251975298e-002
732:8.8976442207256645e-002
733:8.3029908012046461e-002
734:7.5624609909604096e-002
735:7.0219599099322155e-002
736:5.2834792745419371e-002
737:4.7087771439586389e-002
738:3.9721936470152722e-002
739:3.4177905612794109e-002
740:5.7049422854254753e-002
741:5.0803076493329227e-002
742:4.2787634025254574e-002
743:3.6747148086316628e-002
744:6.2594734356222578e-002
745:5.5767998253334145e-002
746:4.6997752023897159e-002
747:4.0380620856968405e-002
748:6.6880484949592159e-002
749:5.9663397323563155e-002
750:5.0385723622802851e-002
751:4.3381110906247813e-002
752:3.0583942465038223e-002
753:2.2534799776718597e-002
754:1.1915951095284254e-002
755:3.6875129156549061e-003
756:3.2825545350865334e-002
757:2.4038382383775508e-002
758:1.2446993357250731e-002
759:3.4657731491502548e-003
760:3.6079723728714611e-002
761:2.6439394028574491e-002
762:1.3722296235087549e-002
763:3.8686493329349579e-003
764:3.8826434858215485e-002
765:2.8616310351828773e-002
766:1.5146159476326086e-002
767:4.7079560182307981e-003
768:2.6559322124258506e+000
769:2.3955307861458097e+000
770:1.8871925385065624e+000
771:1.3683647674927366e+000
772:2.8219029255380406e+000
773:2.2266397343158051e+000
774:1.3753271834794876e+000
775:6.6561755647471099e-001
776:1.2772982242270461e+000
777:7.0775504199887362e-001
778:1.2548147045326048e-002
779:-4.8358789754764808e-001
780:-1.2563894315478283e+000
781:-1.4516447736645073e+000
782:-1.5645837740151214e+000
783:-1.5424520695453685e+000
784:1.1958297723850724e+000
785:1.1442507018270105e+000
786:1.0914703786720505e+000
787:1.0621427516995809e+000
788:4.9773239748877612e-001
789:6.0560818536172545e-001
790:7.3874514316736573e-001
791:8.3495434249109368e-001
792:-5.1896416339923190e-001
793:-1.9112814459959690e-001
794:2.0012621978501402e-001
795:4.7204209003367276e-001
796:-1.3793559415647041e+000
797:-8.7379882605682835e-001
798:-2.7279484078119848e-001
799:1.4292409404088538e-001
800:1.0479321404530753e+000
801:1.0283589274352887e+000
802:1.0278594494751190e+000
803:1.0466670151866575e+000
804:8.5962626473704906e-001
805:8.7213569864008900e-001
806:9.1913260353745319e-001
807:9.7866449378923293e-001
808:5.5256414512444707e-001
809:6.1422897464878756e-001
810:7.3271529125089008e-001
811:8.5267755314636207e-001
812:2.7017600933086405e-001
813:3.7510825589382835e-001
814:5.5568395690339445e-001
815:7.2755531345690849e-001
816:1.0626296399671091e+000
817:1.1088914985394116e+000
818:1.2065441655648141e+000
819:1.3099735995387487e+000
820:1.0106733900503153e+000
821:1.0735472012079839e+000
822:1.1916604269853983e+000
823:1.3098417981590842e+000
824:9.0575908268468874e-001
825:9.8352349994349830e-001
826:1.1194816597677701e+000
827:1.2501268363914164e+000
828:7.9689270732623629e-001
829:8.8087090878675312e-001
830:1.0237229214101196e+000
831:1.1587218668498547e+000
832:1.3290660248577597e+000
833:1.2932006764880788e+000
834:1.2739896972518547e+000
835:1.2804066301245864e+000
836:1.3291274030012392e+000
837:1.2765018588072810e+000
838:1.2277203576929179e+000
839:1.2055689789764572e+000
840:1.2688150922636281e+000
841:1.1979177500761240e+000
842:1.1152461997938192e+000
843:1.0594167295396220e+000
844:1.1763012699036004e+000
845:1.0941553743468007e+000
846:9.8910445641134703e-001
847:9.1021831702294775e-001
848:1.2449007691226086e+000
849:1.0881061636615068e+000
850:8.7045721860895620e-001
851:6.9361882766898719e-001
852:1.1618728576109145e+000
853:1.0045038758316316e+000
854:7.8219031910232306e-001
855:5.9877594420476909e-001
856:1.0093104980220238e+000
857:8.6364395790517656e-001
858:6.5149056255587268e-001
859:4.7194820735754939e-001
860:8.5847631957334170e-001
861:7.3132277098875464e-001
862:5.3940844867787763e-001
863:3.7237747737241561e-001
864:6.3303838900974374e-001
865:5.7126859844515165e-001
866:4.5088927438693316e-001
867:3.2813019172136854e-001
868:5.3823134046068088e-001
869:4.8706626169085243e-001
870:3.8585424111666122e-001
871:2.8187191180775195e-001
872:4.1510906743881998e-001
873:3.7905946554787279e-001
874:3.0452453885119107e-001
875:2.2631991853883052e-001
876:3.2118258979469499e-001
877:2.9769871620422778e-001
878:2.4488967189895031e-001
879:1.8742282144895556e-001
880:2.8717396697477349e-001
881:2.7200478501417052e-001
882:2.4989459781300050e-001
883:2.3117118265978617e-001
884:2.4841650205628299e-001
885:2.4054105563370903e-001
886:2.2833945749609916e-001
887:2.1751113420111612e-001
888:2.0265182109171448e-001
889:2.0301653856365917e-001
890:2.0207789645653967e-001
891:2.0027433911945558e-001
892:1.7125683185582158e-001
893:1.7695912045791817e-001
894:1.8337681913966317e-001
895:1.8751218925294474e-001
896:2.2303627881785604e-001
897:2.1333753805022823e-001
898:2.0337020681303622e-001
899:1.9779007459562284e-001
900:2.1202295791932788e-001
901:2.0406282467766640e-001
902:1.9604515114514542e-001
903:1.9171503209923127e-001
904:1.9780948904532167e-001
905:1.9178040997182730e-001
906:1.8586635670439647e-001
907:1.8282981263870057e-001
908:1.8703505347876659e-001
909:1.8222747030724629e-001
910:1.7758838848352823e-001
911:1.7528474596533794e-001
912:1.9369376865428248e-001
913:1.8334632755884903e-001
914:1.7121689162538581e-001
915:1.6297118009075001e-001
916:1.8831242600366435e-001
917:1.7936938224741328e-001
918:1.6887454038752769e-001
919:1.6173009272210939e-001
920:1.8029072764923162e-001
921:1.7336138570184398e-001
922:1.6523585087846610e-001
923:1.5970960049652094e-001
924:1.7337564838257863e-001
925:1.6812870268550273e-001
926:1.6200047288088598e-001
927:1.5785348527928725e-001
928:1.5887077692041399e-001
929:1.5158300925980711e-001
930:1.4310209245882641e-001
931:1.3738950450614107e-001
932:1.5805440049265224e-001
933:1.5132599251837242e-001
934:1.4353546315744295e-001
935:1.3832180702656105e-001
936:1.5662667058057783e-001
937:1.5059170545019765e-001
938:1.4365449228763344e-001
939:1.3905543751250568e-001
940:1.5525448685472953e-001
941:1.4972313715967192e-001
942:1.4340358075670562e-001
943:1.3924771355238003e-001
944:1.3414509972660751e-001
945:1.2758639637523736e-001
946:1.1983103673820192e-001
947:1.1450158748103778e-001
948:1.3529510974108525e-001
949:1.2904748433701832e-001
950:1.2164184355638746e-001
951:1.1653739866526261e-001
952:1.3631944582355263e-001
953:1.3053904350269352e-001
954:1.2366973700354343e-001
955:1.1892021320894661e-001
956:1.3673963554716376e-001
957:1.3136435924314774e-001
958:1.2496747806732603e-001
959:1.2053700670831123e-001
960:1.1157756178217822e-001
961:1.0582079897315529e-001
962:9.8844995852585535e-002
963:9.3908584399461051e-002
964:1.1368492657218013e-001
965:1.0798946465673019e-001
966:1.0107967078363021e-001
967:9.6183143687423908e-002
968:1.1618647913943685e-001
969:1.1060489771387884e-001
970:1.0382545743329219e-001
971:9.9014868227435993e-002
972:1.1791373196481182e-001
973:1.1244541648802746e-001
974:1.0579978534021070e-001
975:1.0108104554647476e-001
976:9.1002306447097878e-002
977:8.4954746085908417e-002
978:7.7417386952341585e-002
979:7.1910966603561638e-002
980:9.3262361227559001e-002
981:8.7120655435405217e-002
982:7.9446905419506206e-002
983:7.3825557589595220e-002
984:9.6099236381128314e-002
985:8.9891150392953520e-002
986:8.2113104155921976e-002
987:7.6398261358103889e-002
988:9.8187813557838136e-002
989:9.1972119124929308e-002
990:8.4170588606302554e-002
991:7.8427355313589381e-002
992:6.8500078229430800e-002
993:6.1114487553469009e-002
994:5.1615422669766868e-002
995:4.4439943548705091e-002
996:7.0319356963077062e-002
997:6.2693471411857382e-002
998:5.2873230344291491e-002
999:4.5445716707380873e-002
1000:7.2802793446175823e-002
1001:6.4938624315352175e-002
1002:5.4797497546523209e-002
1003:4.7116383377441166e-002
1004:7.4790362271701077e-002
1005:6.6801224290007816e-002
1006:5.6489389593264307e-002
1007:4.8671566932725015e-002
1008:3.9771234152100661e-002
1009:2.9302684199140307e-002
1010:1.5490672922932757e-002
1011:4.7868587861258039e-003
1012:4.0604529682711665e-002
1013:2.9740578200756380e-002
1014:1.5404716669872160e-002
1015:4.2932965855453330e-003
1016:4.2102406288101281e-002
1017:3.0843407806832909e-002
1018:1.5981732494787140e-002
1019:4.4593420531684417e-003
1020:4.3565198431961133e-002
1021:3.2096035879223508e-002
1022:1.6952193465247765e-002
1023:5.2074345336400006e-003
1024:-2.9830196984250530e+000
1025:-2.8173794755671531e+000
1026:-2.4580824881881833e+000
1027:-2.0729581278859097e+000
1028:-5.4728108980269710e+000
1029:-4.6874635079411817e+000
1030:-3.6084141893935922e+000
1031:-2.7396921911593393e+000
1032:-7.0240389846810416e+000
1033:-5.8233534894591443e+000
1034:-4.3182532988105189e+000
1035:-3.2117781212862608e+000
1036:-6.9121176825277750e+000
1037:-5.6944696178499710e+000
1038:-4.2560304739438450e+000
1039:-3.2687022562595760e+000
1040:-1.7972221818019949e+000
1041:-1.2296128630016374e+000
1042:-5.4080059915508627e-001
1043:-5.2532989677907753e-002
1044:-2.3448108884048553e+000
1045:-1.7561080166703706e+000
1046:-9.9194918470566262e-001
1047:-4.0927674481998233e-001
1048:-2.7845944705273538e+000
1049:-2.2373420363566265e+000
1050:-1.4648656950637384e+000
1051:-8.2799294851163396e-001
1052:-2.9111478519373892e+000
1053:-2.4485281423847596e+000
1054:-1.7386485001073599e+000
1055:-1.1130972006989783e+000
1056:1.0204707720583477e-001
1057:2.3505282256288004e-001
1058:4.5449699411282379e-001
1059:6.5787613901693454e-001
1060:-2.1110756354471047e-001
1061:-2.7892246976974563e-002
1062:2.5983210320367234e-001
1063:5.1766802658173072e-001
1064:-5.9690345326073835e-001
1065:-3.6909626506850868e-001
1066:-1.9576972708725399e-002
1067:2.8839224169921412e-001
1068:-8.7513343261069831e-001
1069:-6.2918115513851891e-001
1070:-2.5321687875506521e-001
1071:7.7144632196081891e-002
1072:7.3683125649749104e-001
1073:8.2295911068141703e-001
1074:9.6506784479521868e-001
1075:1.0967777695433434e+000
1076:6.1339376899883857e-001
1077:7.0174103892711703e-001
1078:8.3464334488470004e-001
1079:9.5002136549038008e-001
1080:3.9884922012005231e-001
1081:4.8417681564524190e-001
1082:5.9734936900744207e-001
1083:6.8550342339088555e-001
1084:1.9341242482967072e-001
1085:2.7189176058365683e-001
1086:3.6402710147675282e-001
1087:4.2678157620219198e-001
1088:1.1109606002121759e+000
1089:1.0198438404832335e+000
1090:9.0069785096925570e-001
1091:8.0917630991928613e-001
1092:9.5474828796660960e-001
1093:8.4903807060365033e-001
1094:7.0958292550078894e-001
1095:6.0152303746313451e-001
1096:6.8222584256515506e-001
1097:5.7965168502203268e-001
1098:4.4263283332105452e-001
1099:3.3517146762561612e-001
1100:4.2068983986307168e-001
1101:3.3751639061319855e-001
1102:2.2454127666315465e-001
1103:1.3453572990730236e-001
1104:7.5730094489029720e-001
1105:6.4290268783314708e-001
1106:4.6671295626319664e-001
1107:3.1103084116604202e-001
1108:5.5192133312923641e-001
1109:4.6332754797230452e-001
1110:3.2127727058644789e-001
1111:1.9212288484181392e-001
1112:2.9551517453776671e-001
1113:2.4460444756039915e-001
1114:1.5233563695541502e-001
1115:6.1807958389061113e-002
1116:1.0785104806288889e-001
1117:8.8900023557801161e-002
1118:3.8801524126569079e-002
1119:-1.9043194515198838e-002
1120:2.6481840948965019e-001
1121:2.4996272824588026e-001
1122:2.1052775077347397e-001
1123:1.6493374918532366e-001
1124:1.5735175164343240e-001
1125:1.5980922846603521e-001
1126:1.4557588901710908e-001
1127:1.2130019622294338e-001
1128:4.1791964800838313e-002
1129:6.2175232758795350e-002
1130:7.4739021246458773e-002
1131:7.3614722810616109e-002
1132:-2.7882405711504469e-002
1133:2.6660611640970042e-003
1134:3.1105397121958214e-002
1135:4.4151448331370240e-002
1136:1.5286779651292715e-001
1137:1.6126897569967999e-001
1138:1.7138790556710581e-001
1139:1.7849798415936899e-001
1140:1.1631445314194469e-001
1141:1.2898810293276003e-001
1142:1.4496439986503185e-001
1143:1.5678073699154318e-001
1144:7.5955882757633625e-002
1145:9.1695753809920011e-002
1146:1.1204183099174191e-001
1147:1.2749036148920442e-001
1148:5.0643772268816882e-002
1149:6.6811368193972195e-002
1150:8.7998492943373002e-002
1151:1.0430853624389180e-001
1152:1.7905265472384951e-001
1153:1.7497795781554554e-001
1154:1.7108378940632721e-001
1155:1.6918913473085254e-001
1156:1.5919579005581855e-001
1157:1.5707792026214434e-001
1158:1.5526260135790912e-001
1159:1.5459777773996355e-001
1160:1.3184515138457065e-001
1161:1.3295880666988202e-001
1162:1.3474094424295049e-001
1163:1.3635911887006122e-001
1164:1.0977635667865515e-001
1165:1.1388677373435062e-001
1166:1.1910458512647695e-001
1167:1.2299252546687008e-001
1168:1.6764351354795062e-001
1169:1.6340433163366039e-001
1170:1.5850460458955160e-001
1171:1.5523301903892325e-001
1172:1.5383980498629152e-001
1173:1.5147338187811729e-001
1174:1.4889077209999765e-001
1175:1.4729832539329571e-001
1176:1.3671429426706205e-001
1177:1.3643371853187938e-001
1178:1.3640775781876099e-001
1179:1.3664853850461009e-001
1180:1.2426639175485871e-001
1181:1.2531044238314393e-001
1182:1.2688643916957534e-001
1183:1.2825822625670094e-001
1184:1.5295930255421172e-001
1185:1.4779147210169827e-001
1186:1.4190292666166945e-001
1187:1.3804423479804537e-001
1188:1.4571442195788264e-001
1189:1.4145771030343282e-001
1190:1.3663491091174607e-001
1191:1.3349877712096889e-001
1192:1.3589159593165862e-001
1193:1.3290705368948907e-001
1194:1.2958358701138825e-001
1195:1.2747360354387130e-001
1196:1.2807911486943963e-001
1197:1.2613355605850460e-001
1198:1.2404266306760608e-001
1199:1.2278310230610598e-001
1200:1.3569035667391036e-001
1201:1.3060112121720160e-001
1202:1.2454485794237440e-001
1203:1.2035047723965053e-001
1204:1.3150030528970597e-001
1205:1.2704630167536557e-001
1206:1.2175269611417969e-001
1207:1.1809215782381796e-001
1208:1.2595643682666491e-001
1209:1.2231386915221509e-001
1210:1.1799266347012383e-001
1211:1.1501127622746841e-001
1212:1.2164831953593516e-001
1213:1.1861436617674584e-001
1214:1.1502108976861120e-001
1215:1.1254692741121297e-001
1216:1.1781893982172448e-001
1217:1.1246601577586718e-001
1218:1.0595542910993060e-001
1219:1.0132830690671850e-001
1220:1.1578577523266505e-001
1221:1.1075324152424658e-001
1222:1.0461644039882083e-001
1223:1.0024190187310481e-001
1224:1.1300343858086891e-001
1225:1.0842423124349439e-001
1226:1.0282118092643872e-001
1227:9.8811500016213513e-002
1228:1.1077157301362631e-001
1229:1.0656687710130193e-001
1230:1.0140822523026986e-001
1231:9.7705249085158999e-002
1232:9.8469197736592837e-002
1233:9.2291843464612597e-002
1234:8.4529326097955299e-002
1235:7.8807555712893454e-002
1236:9.7487049676322282e-002
1237:9.1455325081154323e-002
1238:8.3855050450330149e-002
1239:7.8236351479497757e-002
1240:9.6213410486317180e-002
1241:9.0414209302224546e-002
1242:8.3081089403904934e-002
1243:7.7639387196275222e-002
1244:9.5243203302253276e-002
1245:8.9654806433490802e-002
1246:8.2568963973620860e-002
1247:7.7295507818735065e-002
1248:7.5168351972967645e-002
1249:6.7151408585132744e-002
1250:5.6796925637603697e-002
1251:4.8941533089536346e-002
1252:7.4628166879324567e-002
1253:6.6629416747026313e-002
1254:5.6282422938227973e-002
1255:4.8420317198523272e-002
1256:7.4101516959773031e-002
1257:6.6195987522485136e-002
1258:5.5949421612588590e-002
1259:4.8148040609697539e-002
1260:7.3834402984398181e-002
1261:6.6053577836034744e-002
1262:5.5953468219228752e-002
1263:4.8251885058090402e-002
1264:4.3807458121499700e-002
1265:3.2273360454484742e-002
1266:1.7041933624395943e-002
1267:5.2278520867832436e-003
1268:4.3272661073569460e-002
1269:3.1699978681821714e-002
1270:1.6415429310108906e-002
1271:4.5585012146852249e-003
1272:4.3030184424629081e-002
1273:3.1516017009615087e-002
1274:1.6304185890534461e-002
1275:4.5002122698397330e-003
1276:4.3193290211097565e-002
1277:3.1807404840584468e-002
1278:1.6760165714594079e-002
1279:5.0802123053365665e-003
1280:-6.4500630519142899e+000
1281:-5.3735395667246006e+000
1282:-4.1127760650137635e+000
1283:-3.2566813850782332e+000
1284:-5.5122168499218311e+000
1285:-4.7998898597318167e+000
1286:-3.9012923016458827e+000
1287:-3.2361635187765985e+000
1288:-4.2161646303873175e+000
1289:-3.9391204055226359e+000
1290:-3.4610004041108611e+000
1291:-3.0051368325615280e+000
1292:-3.1672987654264348e+000
1293:-3.1933008536637946e+000
1294:-2.9975628852724014e+000
1295:-2.6715150288916987e+000
1296:-2.9386321409433305e+000
1297:-2.4944747582249942e+000
1298:-1.8056333317812683e+000
1299:-1.1938690830204208e+000
1300:-2.9455415150703135e+000
1301:-2.4762696444350132e+000
1302:-1.7910396819451406e+000
1303:-1.2099259164171423e+000
1304:-2.7518665049126172e+000
1305:-2.2955993447366776e+000
1306:-1.6748011472423947e+000
1307:-1.1794498066238794e+000
1308:-2.4480736611629359e+000
1309:-2.0368558455458650e+000
1310:-1.5112133194665693e+000
1311:-1.1166762945567359e+000
1312:-9.5867948795757563e-001
1313:-7.1199392489588120e-001
1314:-3.3829671494060187e-001
1315:-1.2143664546123726e-002
1316:-9.8873243506793373e-001
1317:-7.5486482867069560e-001
1318:-4.1276109768352032e-001
1319:-1.2221957900237880e-001
1320:-9.9265789246155978e-001
1321:-7.9031749244002991e-001
1322:-5.0874866971549604e-001
1323:-2.7947360752549316e-001
1324:-9.6862225966515347e-001
1325:-8.0179180242633297e-001
1326:-5.8142316360054080e-001
1327:-4.1045161924213369e-001
1328:9.8796370205073716e-002
1329:1.6208850445058959e-001
1330:2.3260819810987990e-001
1331:2.7741535511135257e-001
1332:-3.3077537307460873e-002
1333:-7.4681974561229096e-003
1334:1.9230504805558050e-002
1335:3.4547474215379619e-002
1336:-2.1640542992411826e-001
1337:-2.1627705355510760e-001
1338:-2.1585077107828313e-001
1339:-2.1532570113713462e-001
1340:-3.6555394649373796e-001
1341:-3.6680241921166606e-001
1342:-3.6282800828822664e-001
1343:-3.5548718063149698e-001
1344:2.7032154815326381e-001
1345:2.0178546894935478e-001
1346:1.0717785921943676e-001
1347:3.0690399214759603e-002
1348:2.7145104681591196e-002
1349:-1.5929537715067426e-002
1350:-7.8788663979472651e-002
1351:-1.3207046678260492e-001
1352:-2.1728287757520284e-001
1353:-2.2887529929616493e-001
1354:-2.5257892182670932e-001
1355:-2.7732166639161282e-001
1356:-3.4878888480373132e-001
1357:-3.3758380224286189e-001
1358:-3.3301462932499631e-001
1359:-3.3721564921377811e-001
1360:1.1905417154337223e-002
1361:9.7697376440386632e-003
1362:-1.7491112594440590e-002
1363:-5.7143456211516543e-002
1364:-1.3859862155342090e-001
1365:-1.1609911891904617e-001
1366:-1.0831836728285243e-001
1367:-1.1889079403818696e-001
1368:-2.7137176210009473e-001
1369:-2.2817921091970289e-001
1370:-1.8961668212930183e-001
1371:-1.7369692276743115e-001
1372:-3.2439501690379136e-001
1373:-2.7411737562225563e-001
1374:-2.2341121404330441e-001
1375:-1.9596162986322729e-001
1376:-5.9996154674048827e-002
1377:-2.4997998601520775e-002
1378:1.0560032605147289e-002
1379:3.0068607519710275e-002
1380:-1.1237681061992935e-001
1381:-7.1551525598718177e-002
1382:-2.6075481694444153e-002
1383:2.8092371099359072e-003
1384:-1.5970265353953192e-001
1385:-1.1761714321697300e-001
1386:-6.7476119881596325e-002
1387:-3.2700702373988685e-002
1388:-1.7986754922341650e-001
1389:-1.4167737468910152e-001
1390:-9.4303440046753256e-002
1391:-5.9874343386264420e-002
1392:3.8358915007347068e-002
1393:5.4262950779033634e-002
1394:7.5116089335363539e-002
1395:9.1177726998185021e-002
1396:1.3910110237189188e-002
1397:2.9907394998559333e-002
1398:5.0636314309336003e-002
1399:6.6414287912485021e-002
1400:-1.9335745096945686e-002
1401:-2.1393996924738349e-003
1402:1.9833150080604735e-002
1403:3.6318418054009309e-002
1404:-4.5849348301548284e-002
1405:-2.6908217729836932e-002
1406:-2.9050936978470801e-003
1407:1.4948046393432829e-002
1408:9.7028436155431025e-002
1409:1.0274152003126495e-001
1410:1.0986384374917497e-001
1411:1.1506853483784783e-001
1412:7.2849898664809926e-002
1413:8.1050262244743432e-002
1414:9.1192044264227556e-002
1415:9.8537968414699778e-002
1416:4.3649211348873854e-002
1417:5.4512964470935975e-002
1418:6.7835189122013473e-002
1419:7.7393008583237458e-002
1420:2.3066159005763743e-002
1421:3.5525329141179007e-002
1422:5.0703380343561325e-002
1423:6.1510570175834757e-002
1424:1.1684135276966678e-001
1425:1.1849862695414731e-001
1426:1.2082449937040221e-001
1427:1.2273254356269390e-001
1428:1.0116770767008501e-001
1429:1.0396868457203373e-001
1430:1.0772464207690056e-001
1431:1.1068115394385622e-001
1432:8.0996077024397803e-002
1433:8.5327971584908055e-002
1434:9.1000289984582122e-002
1435:9.5363464374519258e-002
1436:6.5748728810682278e-002
1437:7.1283656795931391e-002
1438:7.8463470288532372e-002
1439:8.3934443060394368e-002
1440:1.2285846894347535e-001
1441:1.2151359028570356e-001
1442:1.2013753201169093e-001
1443:1.1937305771546562e-001
1444:1.1139950141023927e-001
1445:1.1119860566029761e-001
1446:1.1117960931368963e-001
1447:1.1135138565742762e-001
1448:9.6842133632627170e-002
1449:9.8047734786127855e-002
1450:9.9687013194630830e-002
1451:1.0099425384346244e-001
1452:8.5986183764423699e-002
1453:8.8203814189303995e-002
1454:9.1027991878940104e-002
1455:9.3139529531277326e-002
1456:1.1845747850928807e-001
1457:1.1576597257867409e-001
1458:1.1258589979619116e-001
1459:1.1040268781381399e-001
1460:1.1085923163670400e-001
1461:1.0885242025325431e-001
1462:1.0650574445847305e-001
1463:1.0491534806861889e-001
1464:1.0103211508713437e-001
1465:9.9920516580214128e-002
1466:9.8663640994407498e-002
1467:9.7848581103339410e-002
1468:9.3566423379071284e-002
1469:9.3142397736350607e-002
1470:9.2722674538158356e-002
1471:9.2503308556634731e-002
1472:1.0876606788676535e-001
1473:1.0479391952406085e-001
1474:9.9911796394515029e-002
1475:9.6400162246277676e-002
1476:1.0356579673405601e-001
1477:1.0007958597277083e-001
1478:9.5774826214300765e-002
1479:9.2662291933848839e-002
1480:9.6875699232188570e-002
1481:9.4029599199298791e-002
1482:9.0486093411911842e-002
1483:8.7900370867739192e-002
1484:9.1820752859145552e-002
1485:8.9469937809181721e-002
1486:8.6515991115393376e-002
1487:8.4338715820510737e-002
1488:9.4025258132562586e-002
1489:8.8576991947174458e-002
1490:8.1657618662570791e-002
1491:7.6499211603566278e-002
1492:9.0473831797451013e-002
1493:8.5335878867565038e-002
1494:7.8787733602538546e-002
1495:7.3888066891697926e-002
1496:8.5965089601282643e-002
1497:8.1263146501020039e-002
1498:7.5239976121364724e-002
1499:7.0709030998278230e-002
1500:8.2605087220093784e-002
1501:7.8261188185704295e-002
1502:7.2671521203854811e-002
1503:6.8447047239288281e-002
1504:7.3094044056929819e-002
1505:6.5410956694784153e-002
1506:5.5428782505916589e-002
1507:4.7810244195472681e-002
1508:7.0612741191163231e-002
1509:6.3164072110242830e-002
1510:5.3468023466122512e-002
1511:4.6053667313419311e-002
1512:6.7625060164389475e-002
1513:6.0533472794909997e-002
1514:5.1277580646528327e-002
1515:4.4180856507838172e-002
1516:6.5526561492358332e-002
1517:5.8747924639225291e-002
1518:4.9880620671549740e-002
1519:4.3066610925716411e-002
1520:4.2801739016646939e-002
1521:3.1524699649241907e-002
1522:1.6619159488234617e-002
1523:5.0475697217243530e-003
1524:4.1168852942832561e-002
1525:3.0160823885157156e-002
1526:1.5607866339023330e-002
1527:4.3077384173907090e-003
1528:3.9492990362151696e-002
1529:2.8918193458655397e-002
1530:1.4932569509028198e-002
1531:4.0688723103486013e-003
1532:3.8556954936190026e-002
1533:2.8377247159342985e-002
1534:1.4908703471965329e-002
1535:4.4425469350942550e-003
1536:-2.5775102569518906e+000
1537:-2.6921361483491473e+000
1538:-2.6014300146274190e+000
1539:-2.3477611373878502e+000
1540:-1.6061344310919961e+000
1541:-1.7435913624399404e+000
1542:-1.7559098086373914e+000
1543:-1.6373357628227092e+000
1544:-7.2514235179101516e-001
1545:-8.3652152003450808e-001
1546:-9.1036888125067006e-001
1547:-9.1218996947022157e-001
1548:-3.4604975635057594e-001
1549:-3.9462340995951811e-001
1550:-4.5976356218628195e-001
1551:-5.1104292724549927e-001
1552:-2.1595766833252581e+000
1553:-1.8156671773730846e+000
1554:-1.3847403164711483e+000
1555:-1.0680841587684340e+000
1556:-1.5380698447569467e+000
1557:-1.3575122553232248e+000
1558:-1.1292200451680465e+000
1559:-9.5982962952090034e-001
1560:-8.9828068279708029e-001
1561:-8.7166108348846560e-001
1562:-8.3052324487825835e-001
1563:-7.9408285389989319e-001
1564:-5.3905786463277627e-001
1565:-5.8505713604291121e-001
1566:-6.2817266147983586e-001
1567:-6.4826496675735001e-001
1568:-9.4855708896945068e-001
1569:-8.0948164983758419e-001
1570:-6.2883735414875863e-001
1571:-4.9100404171799111e-001
1572:-8.9316989373081290e-001
1573:-8.0894775579499822e-001
1574:-6.9818183888236574e-001
1575:-6.1261144807538537e-001
1576:-7.7584158152076943e-001
1577:-7.4522175953005099e-001
1578:-7.0218709930257206e-001
1579:-6.6683930248710910e-001
1580:-6.5137678457140480e-001
1581:-6.4807038761655000e-001
1582:-6.3898225854949064e-001
1583:-6.2835750719763839e-001
1584:-4.5348124637418152e-001
1585:-4.4733304803373031e-001
1586:-4.3262225992903236e-001
1587:-4.1622036360393161e-001
1588:-5.8488592737082323e-001
1589:-5.6449038208006785e-001
1590:-5.3246035936321279e-001
1591:-5.0375724051277948e-001
1592:-6.5021832209465624e-001
1593:-6.2290173225475831e-001
1594:-5.8349811928598005e-001
1595:-5.5041310478718108e-001
1596:-6.1896134734353692e-001
1597:-5.9528286933635111e-001
1598:-5.6189555078221576e-001
1599:-5.3439477254111056e-001
1600:-4.0411238635851437e-001
1601:-3.8213694573999846e-001
1602:-3.6354824114852785e-001
1603:-3.5702914800961932e-001
1604:-4.8501754483259157e-001
1605:-4.4935182288221165e-001
1606:-4.1155255837152455e-001
1607:-3.8927597383651480e-001
1608:-5.2908130538538023e-001
1609:-4.8663063773372089e-001
1610:-4.3821941191428676e-001
1611:-4.0646074983229663e-001
1612:-5.1572126853998124e-001
1613:-4.7656027235647858e-001
1614:-4.3109258320800592e-001
1615:-4.0055638252994313e-001
1616:-3.4109103644785671e-001
1617:-2.8911615279085723e-001
1618:-2.3452483509900124e-001
1619:-2.0281695661525484e-001
1620:-3.6899176654209009e-001
1621:-3.1561183827193168e-001
1622:-2.5581665525083719e-001
1623:-2.1753684183531377e-001
1624:-3.8516676690336632e-001
1625:-3.3636807232843907e-001
1626:-2.7815233102145076e-001
1627:-2.3771240233877644e-001
1628:-3.8206061523458978e-001
1629:-3.4168951585113910e-001
1630:-2.9109875830147419e-001
1631:-2.5391953449166688e-001
1632:-1.8620339833707159e-001
1633:-1.5072638540253727e-001
1634:-1.0618198884984090e-001
1635:-7.3377115597583475e-002
1636:-1.9963776894705529e-001
1637:-1.6718001673579241e-001
1638:-1.2622409316421559e-001
1639:-9.5900711755653553e-002
1640:-2.1946777711908869e-001
1641:-1.8953270568372413e-001
1642:-1.5141045507906967e-001
1643:-1.2290811623564372e-001
1644:-2.3643072841433152e-001
1645:-2.0734340119807984e-001
1646:-1.6997640095334129e-001
1647:-1.4178403744946197e-001
1648:-5.9419370662832649e-002
1649:-3.9473071759811657e-002
1650:-1.4318699215050031e-002
1651:4.2940157226414996e-003
1652:-8.2154800037121112e-002
1653:-6.0819456886771123e-002
1654:-3.4208174797453035e-002
1655:-1.4751214638502094e-002
1656:-1.0917804356573425e-001
1657:-8.6469175011829061e-002
1658:-5.8529530499742043e-002
1659:-3.8409855525917351e-002
1660:-1.2786641116299682e-001
1661:-1.0444111652706226e-001
1662:-7.5922141341104254e-002
1663:-5.5630839311329103e-002
1664:1.2736046346893695e-002
1665:2.5709151260828768e-002
1666:4.1534874866205877e-002
1667:5.2820943758071885e-002
1668:-5.9879786640921117e-003
1669:7.5549785389901602e-003
1670:2.4264120172627683e-002
1671:3.6334523921852747e-002
1672:-2.9349874186081822e-002
1673:-1.5083763512820205e-002
1674:2.7514478834480206e-003
1675:1.5824844958071561e-002
1676:-4.6437183811842975e-002
1677:-3.1632407033313881e-002
1678:-1.2954466869733413e-002
1679:8.7207887835770458e-004
1680:5.7361782138544551e-002
1681:6.3538258686933413e-002
1682:7.1495373196536344e-002
1683:7.7516318307619639e-002
1684:4.1420006718232177e-002
1685:4.8729006498650994e-002
1686:5.8001668347822125e-002
1687:6.4906686267356711e-002
1688:2.1580167192192405e-002
1689:3.0234130535596600e-002
1690:4.1050126133262595e-002
1691:4.8975949195162377e-002
1692:7.1095502731226669e-003
1693:1.6692678409046730e-002
1694:2.8558895372488492e-002
1695:3.7165432803315343e-002
1696:7.9838355165521416e-002
1697:8.2526308014536198e-002
1698:8.5918330465280524e-002
1699:8.8429992132332561e-002
1700:6.7657242811605928e-002
1701:7.1122309212948542e-002
1702:7.5491896822946658e-002
1703:7.8724949757798743e-002
1704:5.2242517553610847e-002
1705:5.6692458743067782e-002
1706:6.2299604998985056e-002
1707:6.6444830701637328e-002
1708:4.0794473445108989e-002
1709:4.5977010796489554e-002
1710:5.2503639449064977e-002
1711:5.7325739029103630e-002
1712:8.9061264893142089e-002
1713:8.9008469046956903e-002
1714:8.9037559587607965e-002
1715:8.9134948180359774e-002
1716:7.9736459965717377e-002
1717:8.0373685503322009e-002
1718:8.1229627335163493e-002
1719:8.1904470817853264e-002
1720:6.7935317823384120e-002
1721:6.9437593205449649e-002
1722:7.1326372752939501e-002
1723:7.2719398240886482e-002
1724:5.9170210056990101e-002
1725:6.1308494703278510e-002
1726:6.3953654809295823e-002
1727:6.5870123067600109e-002
1728:8.8606437357537760e-002
1729:8.6520703338282212e-002
1730:8.3885873750496345e-002
1731:8.1932690465708599e-002
1732:8.1659062759730450e-002
1733:8.0070879344124185e-002
1734:7.8041510107857592e-002
1735:7.6518883411631836e-002
1736:7.2834322757484665e-002
1737:7.1896621670115304e-002
1738:7.0658928389804629e-002
1739:6.9699375540862710e-002
1740:6.6254296849394961e-002
1741:6.5816166317067368e-002
1742:6.5186568860756217e-002
1743:6.4659592551767009e-002
1744:8.0312514535683541e-002
1745:7.6173842564667638e-002
1746:7.0833584620314846e-002
1747:6.6786201478141946e-002
1748:7.5120113432491711e-002
1749:7.1385385145408375e-002
1750:6.6536918847746332e-002
1751:6.2839457015781364e-002
1752:6.8592920109089142e-002
1753:6.5396824151151417e-002
1754:6.1205141583762175e-002
1755:5.7975827969496137e-002
1756:6.3779818699722421e-002
1757:6.1005445903557103e-002
1758:5.7328752236326760e-002
1759:5.4467139410092416e-002
1760:6.3961531241704978e-002
1761:5.7368923795832444e-002
1762:4.8734350253209137e-002
1763:4.2091062422973953e-002
1764:6.0206398378736106e-002
1765:5.3990353706922754e-002
1766:4.5829336824043894e-002
1767:3.9535398892194235e-002
1768:5.5604034663319646e-002
1769:4.9909980797121355e-002
1770:4.2406853957094537e-002
1771:3.6599401627567293e-002
1772:5.2304226844031805e-002
1773:4.7033767339983636e-002
1774:4.0065560248144290e-002
1775:3.4654489405086135e-002
1776:3.7689367762412176e-002
1777:2.7749076588687402e-002
1778:1.4594694991520536e-002
1779:4.3706993730198351e-003
1780:3.5354335180965292e-002
1781:2.5902354830392407e-002
1782:1.3390202135842535e-002
1783:3.6623652173570936e-003
1784:3.2726718109262712e-002
1785:2.3958171070710042e-002
1786:1.2344387698603906e-002
1787:3.3102233798841746e-003
1788:3.1033889417061613e-002
1789:2.2824663114866670e-002
1790:1.1945756751920158e-002
1791:3.4787610464257542e-003
1792:-2.5168788494696603e-001
1793:-2.8308935180898975e-001
1794:-3.4357900750715370e-001
1795:-4.0490183607865932e-001
1796:-1.3771703703488572e-001
1797:-1.8704997993476599e-001
1798:-2.6433104302524946e-001
1799:-3.3346186128770799e-001
1800:-4.5544720179910826e-002
1801:-1.0888106690643480e-001
1802:-1.9581607518344094e-001
1803:-2.6574197467001626e-001
1804:-1.8225077342643826e-002
1805:-8.5095696819411912e-002
1806:-1.7003778275486006e-001
1807:-2.3337446864479963e-001
1808:-4.4119798201886551e-001
1809:-5.0010633755412337e-001
1810:-5.5852302945528309e-001
1811:-5.8916133335416621e-001
1812:-3.7032443227323819e-001
1813:-4.2831506728112434e-001
1814:-4.9024281236757555e-001
1815:-5.2718091293691849e-001
1816:-2.9978084043987951e-001
1817:-3.5259534312860408e-001
1818:-4.1391285711072395e-001
1819:-4.5509166974351106e-001
1820:-2.6251846554512964e-001
1821:-3.0831622101091660e-001
1822:-3.6518726155203418e-001
1823:-4.0656684415971400e-001
1824:-5.9696488814935289e-001
1825:-6.0120499496815683e-001
1826:-6.0157154709321015e-001
1827:-5.9789332622238966e-001
1828:-5.3910596218851925e-001
1829:-5.5062426182279367e-001
1830:-5.6070776478593176e-001
1831:-5.6464641720349562e-001
1832:-4.7051338118146740e-001
1833:-4.8844804895822008e-001
1834:-5.0719138775806749e-001
1835:-5.1798829175549754e-001
1836:-4.2322707739290238e-001
1837:-4.4371917149246481e-001
1838:-4.6602017917657101e-001
1839:-4.7971318996972390e-001
1840:-5.9112990269512899e-001
1841:-5.7077700620501381e-001
1842:-5.4226670036661273e-001
1843:-5.1891628939120882e-001
1844:-5.6091420215324694e-001
1845:-5.4454327259006186e-001
1846:-5.2197807647357874e-001
1847:-5.0375892799662769e-001
1848:-5.1742405970608540e-001
1849:-5.0637490026134790e-001
1850:-4.9173134874245278e-001
1851:-4.8033348015301719e-001
1852:-4.8097393498954355e-001
1853:-4.7410052383374235e-001
1854:-4.6565491259888453e-001
1855:-4.5958208786990545e-001
1856:-5.0222108560433465e-001
1857:-4.6574768027470625e-001
1858:-4.2293180360481297e-001
1859:-3.9377296236661385e-001
1860:-4.8952703039521561e-001
1861:-4.5606830931078224e-001
1862:-4.1532646990795302e-001
1863:-3.8633222594091338e-001
1864:-4.6990789690074730e-001
1865:-4.4247931189531192e-001
1866:-4.0717926997466264e-001
1867:-3.8049659449947953e-001
1868:-4.5252787895977337e-001
1869:-4.3132817561871334e-001
1870:-4.0229580100185403e-001
1871:-3.7899192021700878e-001
1872:-3.7680936511395535e-001
1873:-3.4076664090839565e-001
1874:-2.9486280725980890e-001
1875:-2.6053977084669311e-001
1876:-3.7040626157607576e-001
1877:-3.3877781836476828e-001
1878:-2.9839969442050607e-001
1879:-2.6813271021623342e-001
1880:-3.6603967989716174e-001
1881:-3.3850627849047915e-001
1882:-3.0316613476977772e-001
1883:-2.7652680384396000e-001
1884:-3.6574927187580708e-001
1885:-3.4007885889757983e-001
1886:-3.0693570055563124e-001
1887:-2.8180112927285622e-001
1888:-2.4375602760345469e-001
1889:-2.1486478076096494e-001
1890:-1.7775760218443057e-001
1891:-1.4976743766290004e-001
1892:-2.5251799579925538e-001
1893:-2.2421054701146428e-001
1894:-1.8823086120730337e-001
1895:-1.6138522675128453e-001
1896:-2.6205651865075463e-001
1897:-2.3474588240393041e-001
1898:-2.0054402458489126e-001
1899:-1.7542680135417554e-001
1900:-2.6791610517656500e-001
1901:-2.4154967991185061e-001
1902:-2.0894555308670665e-001
1903:-1.8533327284891585e-001
1904:-1.3593310782739612e-001
1905:-1.1261352209495713e-001
1906:-8.4225291000582722e-002
1907:-6.4028697041659532e-002
1908:-1.4818085646113902e-001
1909:-1.2576588775129341e-001
1910:-9.8175590530378831e-002
1911:-7.8297528455320439e-002
1912:-1.6309198695822616e-001
1913:-1.4180094436643828e-001
1914:-1.1517821160712156e-001
1915:-9.5659398213933225e-002
1916:-1.7370143685706338e-001
1917:-1.5322863805603737e-001
1918:-1.2729114622318546e-001
1919:-1.0800449148203123e-001
1920:-5.4789340045050920e-002
1921:-3.9718237125628705e-002
1922:-2.0685400823978954e-002
1923:-6.5811626738645299e-003
1924:-6.8976775029231385e-002
1925:-5.3489896896086568e-002
1926:-3.4026681872191572e-002
1927:-1.9678493511208539e-002
1928:-8.6251372773068713e-002
1929:-7.0349405811539797e-002
1930:-5.0490864309739932e-002
1931:-3.5951770765313681e-002
1932:-9.8544083628827037e-002
1933:-8.2421604259444906e-002
1934:-6.2387447468063205e-002
1935:-4.7799666518637894e-002
1936:-1.7487422872069673e-004
1937:9.7460001500931006e-003
1938:2.2017245692570402e-002
1939:3.0906903195366535e-002
1940:-1.3120410700862275e-002
1941:-2.8146583661836900e-003
1942:9.9870829609265011e-003
1943:1.9305056884532035e-002
1944:-2.9235521721334520e-002
1945:-1.8449910359418398e-002
1946:-4.9851144398463630e-003
1947:4.8693935771447691e-003
1948:-4.0992759598958296e-002
1949:-2.9856452652364047e-002
1950:-1.5905759396805112e-002
1951:-5.6571173301973457e-003
1952:3.4705687413502564e-002
1953:4.0246391032913727e-002
1954:4.7214755339262886e-002
1955:5.2355823060306672e-002
1956:2.3386758059183280e-002
1957:2.9523888363850607e-002
1958:3.7210804868856091e-002
1959:4.2856911032570520e-002
1960:9.2969420709716928e-003
1961:1.6147170919548051e-002
1962:2.4686696955267557e-002
1963:3.0926665527373498e-002
1964:-9.8233813990292662e-004
1965:6.3645692708482800e-003
1966:1.5492504060215790e-002
1967:2.2137762951915163e-002
1968:5.4365300730156524e-002
1969:5.6802682433294907e-002
1970:5.9809649342691583e-002
1971:6.1981632411898302e-002
1972:4.5129735099228727e-002
1973:4.8061514499023988e-002
1974:5.1680263506666754e-002
1975:5.4295646645852902e-002
1976:3.3521351399516217e-002
1977:3.7081694403463747e-002
1978:4.1477136848823655e-002
1979:4.4654545930922447e-002
1980:2.4962482804385407e-002
1981:2.8991950166111127e-002
1982:3.3966200060296180e-002
1983:3.7561735873487392e-002
1984:6.2501899359135207e-002
1985:6.2321648225984121e-002
1986:6.2006340543399305e-002
1987:6.1703258082149964e-002
1988:5.5057493305456277e-002
1989:5.5337864937088713e-002
1990:5.5584038480983221e-002
1991:5.5681025062899070e-002
1992:4.5722718894953843e-002
1993:4.6587281244695085e-002
1994:4.7544120349475215e-002
1995:4.8146291953013405e-002
1996:3.8857895209179115e-002
1997:4.0157337870006707e-002
1998:4.1642071488039459e-002
1999:4.2618569681049968e-002
2000:6.0941879818070983e-002
2001:5.8390368694584555e-002
2002:5.4988015300801468e-002
2003:5.2324075656502322e-002
2004:5.5134145191137296e-002
2005:5.2993084304953572e-002
2006:5.0099826727500518e-002
2007:4.7805827316490856e-002
2008:4.7875214687451963e-002
2009:4.6271240819826219e-002
2010:4.4044251801745322e-002
2011:4.2234485166862373e-002
2012:4.2555770480462704e-002
2013:4.1364644422238576e-002
2014:3.9649879382517461e-002
2015:3.8212450553014178e-002
2016:5.0275293851916605e-002
2017:4.5238811594634609e-002
2018:3.8567325167268574e-002
2019:3.3377118723299119e-002
2020:4.5972698314044332e-002
2021:4.1380706314192599e-002
2022:3.5274803859763337e-002
2023:3.0507088046142456e-002
2024:4.0684968170377034e-002
2025:3.6679774439296486e-002
2026:3.1320754915699453e-002
2027:2.7111134001130299e-002
2028:3.6882028202130844e-002
2029:3.3331844391055437e-002
2030:2.8552134062349906e-002
2031:2.4775523440705490e-002
2032:2.9897292133234658e-002
2033:2.2000562241105606e-002
2034:1.1532785107681706e-002
2035:3.3835109640958407e-003
2036:2.7296929113669332e-002
2037:1.9999047117606923e-002
2038:1.0320272390387268e-002
2039:2.7816082549904976e-003
2040:2.4257732033592900e-002
2041:1.7752766360883725e-002
2042:9.1185373056512850e-003
2043:2.3881357652656130e-003
2044:2.2199324810861652e-002
2045:1.6310968770691086e-002
2046:8.4889162276130994e-003
2047:2.3868864319094257e-003
2048:-1.7058555814280618e-002
2049:-8.2022779995431949e-002
2050:-1.6300173853386224e-001
2051:-2.2216976124273349e-001
2052:-1.6091929506505880e-002
2053:-7.4695060062578589e-002
2054:-1.4844000113634395e-001
2055:-2.0288012771125041e-001
2056:-1.4591612993761155e-002
2057:-6.5779070364873196e-002
2058:-1.3123872177988991e-001
2059:-1.8039404180975044e-001
2060:-1.3258411505106643e-002
2061:-5.9439513582875199e-002
2062:-1.1943270273254812e-001
2063:-1.6521486496019364e-001
2064:-2.4918221585853012e-001
2065:-2.9227839533160394e-001
2066:-3.4683050912367713e-001
2067:-3.8735699632636572e-001
2068:-2.2836646481616443e-001
2069:-2.6993732098485912e-001
2070:-3.2231654097072882e-001
2071:-3.6103753325927546e-001
2072:-2.0407486736269073e-001
2073:-2.4346855277394897e-001
2074:-2.9276870538226185e-001
2075:-3.2894698120321986e-001
2076:-1.8765414825439511e-001
2077:-2.2523578263400715e-001
2078:-2.7198894182350375e-001
2079:-3.0607499500305241e-001
2080:-4.0390944298852915e-001
2081:-4.2445595585160739e-001
2082:-4.4709797731413065e-001
2083:-4.6125930768592394e-001
2084:-3.7677006591468820e-001
2085:-3.9645565333446220e-001
2086:-4.1876682236703017e-001
2087:-4.3328191612100919e-001
2088:-3.4368342661690054e-001
2089:-3.6270928587478551e-001
2090:-3.8519357398379428e-001
2091:-4.0063376927969546e-001
2092:-3.2010445719429753e-001
2093:-3.3897994784390334e-001
2094:-3.6206046176290113e-001
2095:-3.7856497727602306e-001
2096:-4.6315523267582542e-001
2097:-4.5806713086177975e-001
2098:-4.5191171864729307e-001
2099:-4.4756421938040103e-001
2100:-4.3610461877233969e-001
2101:-4.3342958747396348e-001
2102:-4.2952594452784054e-001
2103:-4.2621710077145147e-001
2104:-4.0475234689112499e-001
2105:-4.0508750305597302e-001
2106:-4.0394148339823754e-001
2107:-4.0184959934183012e-001
2108:-3.8374321757287089e-001
2109:-3.8627960476546930e-001
2110:-3.8710896300257042e-001
2111:-3.8584389496875438e-001
2112:-4.4174462441716933e-001
2113:-4.2331579431704514e-001
2114:-3.9753349032744961e-001
2115:-3.7644075356633427e-001
2116:-4.2128308859784913e-001
2117:-4.0572272332873116e-001
2118:-3.8417185931433989e-001
2119:-3.6669701122914328e-001
2120:-3.9776935336763231e-001
2121:-3.8495755453725583e-001
2122:-3.6763067284764961e-001
2123:-3.5388218003502825e-001
2124:-3.8218680020897472e-001
2125:-3.7071980051053027e-001
2126:-3.5563640055703755e-001
2127:-3.4398213072125228e-001
2128:-3.6397900768719776e-001
2129:-3.3916021232738136e-001
2130:-3.0707653199794527e-001
2131:-2.8271441172640321e-001
2132:-3.5579946564022852e-001
2133:-3.3304410971210063e-001
2134:-3.0369251165157402e-001
2135:-2.8145494740851701e-001
2136:-3.4477918868038865e-001
2137:-3.2478569677342178e-001
2138:-2.9908957925916763e-001
2139:-2.7969361912867441e-001
2140:-3.3606580242765477e-001
2141:-3.1824251885056087e-001
2142:-2.9541778720112277e-001
2143:-2.7825315199728901e-001
2144:-2.6926249506123140e-001
2145:-2.4376250902699972e-001
2146:-2.1226910620100689e-001
2147:-1.8949301008301678e-001
2148:-2.6918984226904058e-001
2149:-2.4581735096758997e-001
2150:-2.1665986148074115e-001
2151:-1.9533698068801322e-001
2152:-2.6894427553297179e-001
2153:-2.4815521062675994e-001
2154:-2.2179445949905977e-001
2155:-2.0217525877370404e-001
2156:-2.6864050028435799e-001
2157:-2.4968406224858949e-001
2158:-2.2527450424435569e-001
2159:-2.0681365098191815e-001
2160:-1.7818579806245172e-001
2161:-1.5806807485165356e-001
2162:-1.3250988505974590e-001
2163:-1.1344958495965231e-001
2164:-1.8450807086894136e-001
2165:-1.6494575786796209e-001
2166:-1.4017941351778251e-001
2167:-1.2177751918729568e-001
2168:-1.9193010516784220e-001
2169:-1.7313358194619344e-001
2170:-1.4945404387948188e-001
2171:-1.3195231977133345e-001
2172:-1.9698503220001040e-001
2173:-1.7880697415133195e-001
2174:-1.5600155064456425e-001
2175:-1.3922128726916319e-001
2176:-1.0405598855875621e-001
2177:-8.7994364863503441e-002
2178:-6.8042221100331118e-002
2179:-5.3519301843965299e-002
2180:-1.1267983482985319e-001
2181:-9.6998986199783963e-002
2182:-7.7441363706267974e-002
2183:-6.3142429096791991e-002
2184:-1.2324251772666278e-001
2185:-1.0802409405586536e-001
2186:-8.8936355130146111e-002
2187:-7.4895277769275667e-002
2188:-1.3081015606876858e-001
2189:-1.1591980627636182e-001
2190:-9.7157828288866016e-002
2191:-8.3288034388088322e-002
2192:-4.6692268488666484e-002
2193:-3.5413871947018623e-002
2194:-2.1276384048962579e-002
2195:-1.0883494989512381e-002
2196:-5.6316439588480836e-002
2197:-4.4870764668212534e-002
2198:-3.0538080759467689e-002
2199:-2.0013255074784360e-002
2200:-6.8077103317911364e-002
2201:-5.6471775576010928e-002
2202:-4.1960870386035493e-002
2203:-3.1322502998366746e-002
2204:-7.6480795752053216e-002
2205:-6.4798015364439437e-002
2206:-5.0209111660536911e-002
2207:-3.9528633380546858e-002
2208:-6.1175998936338002e-003
2209:1.4195699427680328e-003
2210:1.0779466106407766e-002
2211:1.7590035021159311e-002
2212:-1.5150934860564107e-002
2213:-7.3747284844328685e-003
2214:2.2955705176076775e-003
2215:9.3429178755152949e-003
2216:-2.6353623754435597e-002
2217:-1.8279183506711209e-002
2218:-8.2216945614951541e-003
2219:-8.7905951740682199e-004
2220:-3.4492835442904844e-002
2221:-2.6200270501311986e-002
2222:-1.5859662836720308e-002
2223:-8.3011611953271325e-003
2224:2.0517323264524667e-002
2225:2.4766421371573293e-002
2226:3.0010954159507594e-002
2227:3.3801174544632745e-002
2228:1.2429356786082608e-002
2229:1.7027877744707532e-002
2230:2.2700502695454358e-002
2231:2.6797520597910691e-002
2232:2.4033754304862483e-003
2233:7.4277109785085759e-003
2234:1.3619624583169163e-002
2235:1.8086842917367854e-002
2236:-4.8774355538868958e-003
2237:4.5020623040777525e-004
2238:7.0100426933985037e-003
2239:1.1737941929618191e-002
2240:3.5204405138656178e-002
2241:3.6711076169983349e-002
2242:3.8450088242414283e-002
2243:3.9609140255880873e-002
2244:2.8373600749976999e-002
2245:3.0225084102583386e-002
2246:3.2393071918475305e-002
2247:3.3864886416005040e-002
2248:1.9877195696181203e-002
2249:2.2166434595047198e-002
2250:2.4878291993194652e-002
2251:2.6746045949664694e-002
2252:1.3683902605069695e-002
2253:1.6299362504500203e-002
2254:1.9415939164381977e-002
2255:2.1577864284208288e-002
2256:3.9650796807524952e-002
2257:3.8670761176958536e-002
2258:3.7219164534888736e-002
2259:3.5974054818928201e-002
2260:3.4089237359207450e-002
2261:3.3482671127360433e-002
2262:3.2498816923248033e-002
2263:3.1597237889040869e-002
2264:2.7202211401271818e-002
2265:2.7070462085735832e-002
2266:2.6680629078037723e-002
2267:2.6214805295177453e-002
2268:2.2206682662986369e-002
2269:2.2429308462263389e-002
2270:2.2482305184272529e-002
2271:2.2340917799257735e-002
2272:3.4757993796778054e-002
2273:3.1447292277899490e-002
2274:2.6973975367982076e-002
2275:2.3427551417467517e-002
2276:3.0587767237263041e-002
2277:2.7713553508289468e-002
2278:2.3801324414641414e-002
2279:2.0678501425580226e-002
2280:2.5468781761005605e-002
2281:2.3153642190809964e-002
2282:1.9959880147962395e-002
2283:1.7379317605329722e-002
2284:2.1792140684362672e-002
2285:1.9897515349971133e-002
2286:1.7244000096061678e-002
2287:1.5071064960786662e-002
2288:2.0999420031755041e-002
2289:1.5440886261737239e-002
2290:8.0533355757985824e-003
2291:2.2875292677274955e-003
2292:1.8523362944373793e-002
2293:1.3572679876038525e-002
2294:6.9862036221654440e-003
2295:1.8405096656714003e-003
2296:1.5572215721130142e-002
2297:1.1394468261345646e-002
2298:5.8268936070757470e-003
2299:1.4701332881031229e-003
2300:1.3524473758293333e-002
2301:9.9237047860606595e-003
2302:5.1169249457813266e-003
2303:1.3494047642790480e-003
2304:-1.2629927346535274e-002
2305:-5.6754653087856675e-002
2306:-1.1429760399430237e-001
2307:-1.5838018441769972e-001
2308:-1.1731111418535415e-002
2309:-5.2925027867881516e-002
2310:-1.0645220060077917e-001
2311:-1.4730982372330639e-001
2312:-1.0620059420573872e-002
2313:-4.8352488398132151e-002
2314:-9.7113023113293021e-002
2315:-1.3412537775605549e-001
2316:-9.8157492105488513e-003
2317:-4.5172890375198414e-002
2318:-9.0642447312348690e-002
2319:-1.2498536613332863e-001
2320:-1.8005939787576777e-001
2321:-2.1640854816806315e-001
2322:-2.6159759827532802e-001
2323:-2.9451852043003424e-001
2324:-1.6737894402731227e-001
2325:-2.0113762002928862e-001
2326:-2.4329449848180576e-001
2327:-2.7415789392443540e-001
2328:-1.5228157252603411e-001
2329:-1.8300280246918182e-001
2330:-2.2165027937216938e-001
2331:-2.5017157651487570e-001
2332:-1.4181933992344500e-001
2333:-1.7047495804645973e-001
2334:-2.0677506224544748e-001
2335:-2.3376369514626852e-001
2336:-3.0821384425993897e-001
2337:-3.2705933477618770e-001
2338:-3.5028447082098574e-001
2339:-3.6704067701214521e-001
2340:-2.8729716383463139e-001
2341:-3.0592360845254268e-001
2342:-3.2876020171351733e-001
2343:-3.4513985848245365e-001
2344:-2.6263761510076911e-001
2345:-2.8083201234055444e-001
2346:-3.0297084560049697e-001
2347:-3.1871295687699480e-001
2348:-2.4575379466911149e-001
2349:-2.6350495450824052e-001
2350:-2.8496273768144176e-001
2351:-3.0010410803338844e-001
2352:-3.7252536736722403e-001
2353:-3.7584379463516093e-001
2354:-3.7760094222228302e-001
2355:-3.7697603784033495e-001
2356:-3.5064061935995444e-001
2357:-3.5467051143556155e-001
2358:-3.5790517864881349e-001
2359:-3.5883369202035831e-001
2360:-3.2414478469881519e-001
2361:-3.2891179646642504e-001
2362:-3.3382482568460498e-001
2363:-3.3658897221904960e-001
2364:-3.0541419819110505e-001
2365:-3.1059967229812080e-001
2366:-3.1660793474506632e-001
2367:-3.2063249656472770e-001
2368:-3.7368565368264212e-001
2369:-3.6302328911556586e-001
2370:-3.4905988386715786e-001
2371:-3.3831781326977639e-001
2372:-3.5658705063056706e-001
2373:-3.4796211379656988e-001
2374:-3.3643143838790668e-001
2375:-3.2738105965264613e-001
2376:-3.3561763871022277e-001
2377:-3.2951754135177519e-001
2378:-3.2098680394169682e-001
2379:-3.1401017592043423e-001
2380:-3.2057233346048825e-001
2381:-3.1630512237144026e-001
2382:-3.0994024531116632e-001
2383:-3.0445076768834195e-001
2384:-3.3094668033677477e-001
2385:-3.1421327147273553e-001
2386:-2.9277611708555523e-001
2387:-2.7664861752304437e-001
2388:-3.2093726361284647e-001
2389:-3.0601627536061549e-001
2390:-2.8677483221268740e-001
2391:-2.7220070698769416e-001
2392:-3.0869118243451904e-001
2393:-2.9594890223003645e-001
2394:-2.7932957791386515e-001
2395:-2.6659617768981453e-001
2396:-2.9992864160675459e-001
2397:-2.8871367163123901e-001
2398:-2.7391806912450889e-001
2399:-2.6245293285513044e-001
2400:-2.6753328614500349e-001
2401:-2.4937754882964461e-001
2402:-2.2591035511869759e-001
2403:-2.0809334672184135e-001
2404:-2.6379695798175518e-001
2405:-2.4685310633496405e-001
2406:-2.2502292675083768e-001
2407:-2.0850340358151659e-001
2408:-2.5904501054910595e-001
2409:-2.4358371951198327e-001
2410:-2.2376072540671349e-001
2411:-2.0883544636702883e-001
2412:-2.5549710188632974e-001
2413:-2.4109653504067183e-001
2414:-2.2271333154788678e-001
2415:-2.0893437625863015e-001
2416:-1.9854784395645014e-001
2417:-1.8082420944837574e-001
2418:-1.5859420134219604e-001
2419:-1.4224156586103148e-001
2420:-1.9959967514822252e-001
2421:-1.8290768669197108e-001
2422:-1.6189089437640281e-001
2423:-1.4636634535627008e-001
2424:-2.0071872809981081e-001
2425:-1.8528248754512863e-001
2426:-1.6573083620151424e-001
2427:-1.5119644666292834e-001
2428:-2.0138228766850644e-001
2429:-1.8683933083836632e-001
2430:-1.6832037108725895e-001
2431:-1.5447570568242189e-001
2432:-1.3399562875112439e-001
2433:-1.1929263168882002e-001
2434:-1.0074576201385574e-001
2435:-8.7018353856290573e-002
2436:-1.3843222833868299e-001
2437:-1.2412404473711543e-001
2438:-1.0608448720609315e-001
2439:-9.2739921875797035e-002
2440:-1.4364845312119962e-001
2441:-1.2986791081148499e-001
2442:-1.1250658903548116e-001
2443:-9.9674046663283930e-002
2444:-1.4720777882365763e-001
2445:-1.3384124179195911e-001
2446:-1.1701227212196744e-001
2447:-1.0458176439431957e-001
2448:-8.0256054256660755e-002
2449:-6.8610654116493280e-002
2450:-5.4067565271101868e-002
2451:-4.3419936114743346e-002
2452:-8.6132685679364787e-002
2453:-7.4675301985900444e-002
2454:-6.0343372953194287e-002
2455:-4.9831413187469108e-002
2456:-9.3269269512335357e-002
2457:-8.2045217506191315e-002
2458:-6.7973166067764629e-002
2459:-5.7626239699626138e-002
2460:-9.8332272314300070e-002
2461:-8.7277876856281536e-002
2462:-7.3393030690080310e-002
2463:-6.3163413814006239e-002
2464:-3.8371439009564842e-002
2465:-3.0000481047132141e-002
2466:-1.9559660755709626e-002
2467:-1.1925936692820124e-002
2468:-4.4795298559168265e-002
2469:-3.6352174018406763e-002
2470:-2.5823486005680546e-002
2471:-1.8127236523709546e-002
2472:-5.2609202861182369e-002
2473:-4.4094865055221047e-002
2474:-3.3481469672819647e-002
2475:-2.5726585946074441e-002
2476:-5.8163238748849974e-002
2477:-4.9611905057574165e-002
2478:-3.8956529886503992e-002
2479:-3.1174291433683086e-002
2480:-8.4493120587761442e-003
2481:-3.0010341871950044e-003
2482:3.7077875568007641e-003
2483:8.5434295095490019e-003
2484:-1.4592270463413569e-002
2485:-8.9864973005440892e-003
2486:-2.0759480441115683e-003
2487:2.9114257280756848e-003
2488:-2.2124534595000085e-002
2489:-1.6324234602351145e-002
2490:-9.1647877246813468e-003
2491:-3.9904068439924421e-003
2492:-2.7527746796869559e-002
2493:-2.1586752875786434e-002
2494:-1.4247499572272653e-002
2495:-8.9381882350061427e-003
2496:1.0558485637972634e-002
2497:1.3325289541745630e-002
2498:1.6630374346712998e-002
2499:1.8929918669778101e-002
2500:5.0316978149059074e-003
2501:8.0378823097612771e-003
2502:1.1642597443634561e-002
2503:1.4162063031747808e-002
2504:-1.7405229005919821e-003
2505:1.5601780216452650e-003
2506:5.5325920782378583e-003
2507:8.3211851074569323e-003
2508:-6.5948388731576473e-003
2509:-3.0820557603599766e-003
2510:1.1543718358133293e-003
2511:4.1355877295616347e-003
2512:1.9641140248986815e-002
2513:2.0036005513478429e-002
2514:2.0306196667023657e-002
2515:2.0325506091671993e-002
2516:1.5008822245051755e-002
2517:1.5694108906457536e-002
2518:1.6334489739565815e-002
2519:1.6630839704668481e-002
2520:9.3356952876546377e-003
2521:1.0383602677689577e-002
2522:1.1485713205715502e-002
2523:1.2127225618481084e-002
2524:5.2717049069904362e-003
2525:6.5850504298554068e-003
2526:8.0247544546145633e-003
2527:8.9183241437428840e-003
2528:1.9876162935098082e-002
2529:1.8195782122790407e-002
2530:1.5818458807069603e-002
2531:1.3854652412103362e-002
2532:1.6355348187812424e-002
2533:1.5052333837387353e-002
2534:1.3163250219274137e-002
2535:1.1570497591315256e-002
2536:1.2067533642325023e-002
2537:1.1231786037544905e-002
2538:9.9469819955021535e-003
2539:8.8132598092440038e-003
2540:9.0155785814489808e-003
2541:8.5187354088411982e-003
2542:7.6719888565373023e-003
2543:6.8708584075771253e-003
2544:1.2442104511210160e-002
2545:9.1384039105534571e-003
2546:4.7233162799993691e-003
2547:1.2591507869378199e-003
2548:1.0396409975820232e-002
2549:7.6214444053429812e-003
2550:3.9036001586622341e-003
2551:9.7950058606759475e-004
2552:7.9324341733251688e-003
2553:5.8053748233523042e-003
2554:2.9425115262420106e-003
2555:6.8110182175460353e-004
2556:6.2011123310445867e-003
2557:4.5384902067115533e-003
2558:2.2889796143311688e-003
2559:5.0333802578595549e-004
2560:-9.3803743150786215e-003
2561:-4.3503783272145130e-002
2562:-8.7347915075115704e-002
2563:-1.2043295991735248e-001
2564:-8.6030148435804876e-003
2565:-4.0407113332225006e-002
2566:-8.1357976682255168e-002
2567:-1.1232725502474590e-001
2568:-7.7745892100020428e-003
2569:-3.6762120267198585e-002
2570:-7.4211395735802488e-002
2571:-1.0262967468437238e-001
2572:-7.2820591060680940e-003
2573:-3.4271398281767049e-002
2574:-6.9246375377949185e-002
2575:-9.5870006413711892e-002
2576:-1.3666789791647616e-001
2577:-1.6438451270780594e-001
2578:-1.9956554327229625e-001
2579:-2.2577775703960151e-001
2580:-1.2759622101758422e-001
2581:-1.5376860562252481e-001
2582:-1.8698522930665867e-001
2583:-2.1173044362409621e-001
2584:-1.1673110968271362e-001
2585:-1.4102747105803351e-001
2586:-1.7186214311994741e-001
2587:-1.9483209875149071e-001
2588:-1.0914771090454310e-001
2589:-1.3211255569307251e-001
2590:-1.6126035271982569e-001
2591:-1.8297602250110975e-001
2592:-2.3748536718534996e-001
2593:-2.5492443868690562e-001
2594:-2.7601384310491439e-001
2595:-2.9090261581411497e-001
2596:-2.2285183924946214e-001
2597:-2.3964124635826892e-001
2598:-2.6013142075469337e-001
2599:-2.7475130110651691e-001
2600:-2.0523623139662364e-001
2601:-2.2121782190787057e-001
2602:-2.4097811463141308e-001
2603:-2.5528697955759921e-001
2604:-1.9286688077526304e-001
2605:-2.0825983759365949e-001
2606:-2.2750052831558767e-001
2607:-2.4160153158430026e-001
2608:-2.9619919298050879e-001
2609:-3.0162046034636963e-001
2610:-3.0805569073539973e-001
2611:-3.1249895635271002e-001
2612:-2.8015178669945684e-001
2613:-2.8608457555639832e-001
2614:-2.9308576319707930e-001
2615:-2.9788506040819035e-001
2616:-2.6081121687356074e-001
2617:-2.6732722488734040e-001
2618:-2.7495700572669890e-001
2619:-2.8013665120072195e-001
2620:-2.4721155888073215e-001
2621:-2.5411005917777574e-001
2622:-2.6213745018522389e-001
2623:-2.6754409804523521e-001
2624:-3.1275233417238968e-001
2625:-3.0918010461100853e-001
2626:-3.0369164392505898e-001
2627:-2.9885063912023485e-001
2628:-2.9841899242221437e-001
2629:-2.9563340647624214e-001
2630:-2.9128297277742538e-001
2631:-2.8739980032335832e-001
2632:-2.8098577245240075e-001
2633:-2.7911984913382459e-001
2634:-2.7611502530691751e-001
2635:-2.7337486897376861e-001
2636:-2.6859581713332303e-001
2637:-2.6735299651343208e-001
2638:-2.6527282444771288e-001
2639:-2.6332695954859231e-001
2640:-2.9469608900869476e-001
2641:-2.8420801082424224e-001
2642:-2.7032061078430258e-001
2643:-2.5952076181419292e-001
2644:-2.8383422617179693e-001
2645:-2.7455935768445539e-001
2646:-2.6227302226798715e-001
2647:-2.5271422768017260e-001
2648:-2.7050766329790504e-001
2649:-2.6265936958288755e-001
2650:-2.5225801581070301e-001
2651:-2.4416212553345942e-001
2652:-2.6094130351111589e-001
2653:-2.5406658954454614e-001
2654:-2.4495365023179139e-001
2655:-2.3785918438817477e-001
2656:-2.5289419232220023e-001
2657:-2.3907779383691316e-001
2658:-2.2144919684727968e-001
2659:-2.0824280579145993e-001
2660:-2.4673160563808133e-001
2661:-2.3404775226415026e-001
2662:-2.1781255813700628e-001
2663:-2.0560956235812852e-001
2664:-2.3895230684586041e-001
2665:-2.2764960072360602e-001
2666:-2.1310649242447657e-001
2667:-2.0211613942967530e-001
2668:-2.3319004470830207e-001
2669:-2.2287194729749082e-001
2670:-2.0952922617162789e-001
2671:-1.9939433205385204e-001
2672:-2.0096354721960336e-001
2673:-1.8685872473638354e-001
2674:-1.6887241993411792e-001
2675:-1.5540612433122220e-001
2676:-1.9879472410219695e-001
2677:-1.8545926200922591e-001
2678:-1.6846322987676915e-001
2679:-1.5574555798414130e-001
2680:-1.9586906879176633e-001
2681:-1.8349065852860305e-001
2682:-1.6772566178229703e-001
2683:-1.5593798614299401e-001
2684:-1.9355316928660171e-001
2685:-1.8187245867159232e-001
2686:-1.6700423733861636e-001
2687:-1.5589352466748094e-001
2688:-1.4830764871342075e-001
2689:-1.3520896535789093e-001
2690:-1.1871487409444244e-001
2691:-1.0652984615143554e-001
2692:-1.4900138804688184e-001
2693:-1.3646970549916770e-001
2694:-1.2066842294451995e-001
2695:-1.0897839725279489e-001
2696:-1.4963162487571910e-001
2697:-1.3779466543877081e-001
2698:-1.2283852110062829e-001
2699:-1.1174928050965900e-001
2700:-1.4990397247456885e-001
2701:-1.3856494986622234e-001
2702:-1.2421150503080723e-001
2703:-1.1354820271190445e-001
2704:-1.0037596203308280e-001
2705:-8.9435991270784942e-002
2706:-7.5688424620369676e-002
2707:-6.5554818142522245e-002
2708:-1.0302273567613204e-001
2709:-9.2346868059006534e-002
2710:-7.8932947537431020e-002
2711:-6.9046682422791647e-002
2712:-1.0603978321585893e-001
2713:-9.5706785764956268e-002
2714:-8.2725948301571636e-002
2715:-7.3160683908578356e-002
2716:-1.0801782689374692e-001
2717:-9.7946310287541860e-002
2718:-8.5295697583195190e-002
2719:-7.5975152252942227e-002
2720:-6.0585182804959850e-002
2721:-5.2056609346621652e-002
2722:-4.1428782792342224e-002
2723:-3.3666013245634403e-002
2724:-6.4173033603172641e-002
2725:-5.5755918649854005e-002
2726:-4.5259166627596444e-002
2727:-3.7585862080756136e-002
2728:-6.8410996663859108e-002
2729:-6.0136233200978738e-002
2730:-4.9806490390473863e-002
2731:-4.2246841951721015e-002
2732:-7.1319498578188659e-002
2733:-6.3151486509182675e-002
2734:-5.2946676765182478e-002
2735:-4.5471786215149405e-002
2736:-3.0011812665183695e-002
2737:-2.4023918806297374e-002
2738:-1.6624417793272738e-002
2739:-1.1269652976489771e-002
2740:-3.3944575079791504e-002
2741:-2.7921631612856022e-002
2742:-2.0476182163660685e-002
2743:-1.5086032823333349e-002
2744:-3.8624677839441429e-002
2745:-3.2567610501263750e-002
2746:-2.5077353866807501e-002
2747:-1.9652643684035256e-002
2748:-4.1866021905289721e-002
2749:-3.5791695860909536e-002
2750:-2.8278702948936044e-002
2751:-2.2836399144471713e-002
2752:-8.8907031574245923e-003
2753:-5.2907435632651703e-003
2754:-9.4384196395364169e-004
2755:2.1195425039932389e-003
2756:-1.2666395628199389e-002
2757:-8.9490302836221763e-003
2758:-4.4485133714319411e-003
2759:-1.2670584970293391e-003
2760:-1.7186294004615198e-002
2761:-1.3328059397317635e-002
2762:-8.6431817156198930e-003
2763:-5.3199903879570763e-003
2764:-2.0339131503919809e-002
2765:-1.6382364847692451e-002
2766:-1.1568496762900128e-002
2767:-8.1461087302658712e-003
2768:3.3105096453088403e-003
2769:4.7477378132375478e-003
2770:6.3462805006404338e-003
2771:7.3594505487280257e-003
2772:8.2914784741849511e-006
2773:1.6432160705341287e-003
2774:3.4979421690581138e-003
2775:4.7061180827279846e-003
2776:-3.9433045644333550e-003
2777:-2.0710058604015758e-003
2778:9.1137101451182719e-005
2779:1.5331766995602173e-003
2780:-6.6984685183567984e-003
2781:-4.6599966307848848e-003
2782:-2.2827992836368669e-003
2783:-6.7727706053934827e-004
2784:7.5323401402841352e-003
2785:7.2005670173528932e-003
2786:6.5683246003184637e-003
2787:5.9309364346658540e-003
2788:5.0047365135465023e-003
2789:4.9509222626814859e-003
2790:4.6822059223000497e-003
2791:4.3241062178645089e-003
2792:1.9819980490257895e-003
2793:2.2594726215564333e-003
2794:2.4241273574364692e-003
2795:2.3990512189508823e-003
2796:-1.2393923576378918e-004
2797:3.8340747116905554e-004
2798:8.4884851973708467e-004
2799:1.0549741048057370e-003
2800:5.3655324032846063e-003
2801:3.9325152346195991e-003
2802:1.9858678787540089e-003
2803:4.3487889883515418e-004
2804:3.9370114731579718e-003
2805:2.8956267627957225e-003
2806:1.4649167819199619e-003
2807:3.1317320587300140e-004
2808:2.2214986185905851e-003
2809:1.6357542012678111e-003
2810:8.0600730511274233e-004
2811:1.1983679010879054e-004
2812:1.0203183393121598e-003
2813:7.4139022578256645e-004
2814:3.1691930872883127e-004
2815:-5.4821956882696935e-005
2816:-7.0804455472359730e-003
2817:-3.3104620643194464e-002
2818:-6.6856441602814690e-002
2819:-9.2570266698088780e-002
2820:-6.7255143409901868e-003
2821:-3.1113219824045701e-002
2822:-6.2732654680807465e-002
2823:-8.6814225229502787e-002
2824:-6.2326338364744440e-003
2825:-2.8665242228081061e-002
2826:-5.7737409005745990e-002
2827:-7.9869381947453869e-002
2828:-5.8320309437816849e-003
2829:-2.6904150241613151e-002
2830:-5.4204008423693550e-002
2831:-7.4979707337968896e-002
2832:-1.0542036732675203e-001
2833:-1.2769184140613871e-001
2834:-1.5597494360910533e-001
2835:-1.7705849766097134e-001
2836:-9.8875795143340744e-002
2837:-1.1986095418911509e-001
2838:-1.4656536325828368e-001
2839:-1.6651526141076578e-001
2840:-9.0977209017393465e-002
2841:-1.1038578328470298e-001
2842:-1.3516312502716724e-001
2843:-1.5373561593983295e-001
2844:-8.5414077412498388e-002
2845:-1.0369222766792281e-001
2846:-1.2709427052590405e-001
2847:-1.4468899656091019e-001
2848:-1.8669015050391238e-001
2849:-2.0175797798535774e-001
2850:-2.2065135358088767e-001
2851:-2.3454508853910655e-001
2852:-1.7568258447740054e-001
2853:-1.9011640912209199e-001
2854:-2.0822274754476722e-001
2855:-2.2154403993200197e-001
2856:-1.6233328933047270e-001
2857:-1.7597396997348627e-001
2858:-1.9309787387057217e-001
2859:-2.0570634121166567e-001
2860:-1.5287778654386439e-001
2861:-1.6593666348804731e-001
2862:-1.8234163551017732e-001
2863:-1.9442985941821966e-001
2864:-2.4012858043043694e-001
2865:-2.4710685751923117e-001
2866:-2.5524896826741117e-001
2867:-2.6075169266147818e-001
2868:-2.2694767246339853e-001
2869:-2.3386599489102602e-001
2870:-2.4207122378158696e-001
2871:-2.4773065632654864e-001
2872:-2.1087658938915907e-001
2873:-2.1768744598477474e-001
2874:-2.2593687411738203e-001
2875:-2.3177152529491044e-001
2876:-1.9942221322847256e-001
2877:-2.0612829064040034e-001
2878:-2.1438235343118225e-001
2879:-2.2032888823709146e-001
2880:-2.6191161490372150e-001
2881:-2.6098844355625023e-001
2882:-2.5935884545160126e-001
2883:-2.5778401388684374e-001
2884:-2.4910106173227647e-001
2885:-2.4875754667498540e-001
2886:-2.4789836540443611e-001
2887:-2.4692484572179574e-001
2888:-2.3338230470732507e-001
2889:-2.3369578923784207e-001
2890:-2.3371224107200672e-001
2891:-2.3342397547710242e-001
2892:-2.2209765261752204e-001
2893:-2.2283859229164418e-001
2894:-2.2342688096725602e-001
2895:-2.2358772610788166e-001
2896:-2.5561752963502904e-001
2897:-2.4918299808202421e-001
2898:-2.4065097973805646e-001
2899:-2.3400682237410039e-001
2900:-2.4511008892100272e-001
2901:-2.3939111934891164e-001
2902:-2.3179933651943718e-001
2903:-2.2588089956603030e-001
2904:-2.3202351059091675e-001
2905:-2.2717000258334966e-001
2906:-2.2071605173529485e-001
2907:-2.1567633026022254e-001
2908:-2.2247059980703149e-001
2909:-2.1822819159019541e-001
2910:-2.1257818227050951e-001
2911:-2.0815971901579117e-001
2912:-2.2958506162128470e-001
2913:-2.1973341739574095e-001
2914:-2.0697822917828176e-001
2915:-1.9727750817814957e-001
2916:-2.2185843936722380e-001
2917:-2.1277905699571908e-001
2918:-2.0103667553058274e-001
2919:-1.9211621916107613e-001
2920:-2.1213494110519068e-001
2921:-2.0398152959997515e-001
2922:-1.9345409307725545e-001
2923:-1.8547004896261721e-001
2924:-2.0495646074145704e-001
2925:-1.9745020356464210e-001
2926:-1.8777234341075652e-001
2927:-1.8044345640109452e-001
2928:-1.9165033342799426e-001
2929:-1.8034293261934217e-001
2930:-1.6595113235845735e-001
2931:-1.5519741339699486e-001
2932:-1.8688619037101814e-001
2933:-1.7627568769561430e-001
2934:-1.6276672584554672e-001
2935:-1.5266940740462973e-001
2936:-1.8071991154259812e-001
2937:-1.7095664222629547e-001
2938:-1.5851861384551547e-001
2939:-1.4921569068844487e-001
2940:-1.7603179613963540e-001
2941:-1.6687034853537261e-001
2942:-1.5519111038672606e-001
2943:-1.4644951132898346e-001
2944:-1.4937436250403471e-001
2945:-1.3830105501711432e-001
2946:-1.2427849701496632e-001
2947:-1.1385669437242427e-001
2948:-1.4715437200213025e-001
2949:-1.3658658472680657e-001
2950:-1.2321127157277732e-001
2951:-1.1327610715999779e-001
2952:-1.4407793847691691e-001
2953:-1.3413944797074331e-001
2954:-1.2156912000025447e-001
2955:-1.1223861664329045e-001
2956:-1.4158207917308152e-001
2957:-1.3210271437475732e-001
2958:-1.2011909938112077e-001
2959:-1.1122883975016516e-001
2960:-1.0843465407349007e-001
2961:-9.8531294087077656e-002
2962:-8.6091578530243351e-002
2963:-7.6926159779407532e-002
2964:-1.0808094293225819e-001
2965:-9.8538767705919461e-002
2966:-8.6549330570221364e-002
2967:-7.7712956634379785e-002
2968:-1.0732561127872749e-001
2969:-9.8232964251271163e-002
2970:-8.6802680026712820e-002
2971:-7.8373900636810503e-002
2972:-1.0652147824670673e-001
2973:-9.7756726022245277e-002
2974:-8.6733286121376582e-002
2975:-7.8600261589391096e-002
2976:-7.2333182949652255e-002
2977:-6.4246104500110632e-002
2978:-5.4140370627058343e-002
2979:-4.6736419372393444e-002
2980:-7.3259006785767244e-002
2981:-6.5369219314715316e-002
2982:-5.5510773583304168e-002
2983:-4.8288598125103069e-002
2984:-7.4094926284898041e-002
2985:-6.6460186669566587e-002
2986:-5.6921301447520688e-002
2987:-4.9933930865234386e-002
2988:-7.4450479333833072e-002
2989:-6.7009410342457124e-002
2990:-5.7713089710407485e-002
2991:-5.0903874570036034e-002
2992:-4.3154341319613550e-002
2993:-3.7099447179315771e-002
2994:-2.9608793799418984e-002
2995:-2.4181302249609897e-002
2996:-4.4778098384602040e-002
2997:-3.8809653096527924e-002
2998:-3.1420699489258644e-002
2999:-2.6062654168030983e-002
3000:-4.6516919286658721e-002
3001:-4.0663996880066458e-002
3002:-3.3411296621349208e-002
3003:-2.8146590505889791e-002
3004:-4.7558592222338596e-002
3005:-4.1796305419827727e-002
3006:-3.4650767475732050e-002
3007:-2.9459694340712939e-002
3008:-2.1679793060956309e-002
3009:-1.7692733216102086e-002
3010:-1.2837366303003863e-002
3011:-9.3816581094030519e-003
3012:-2.3575108490217454e-002
3013:-1.9572740334055202e-002
3014:-1.4690422985137891e-002
3015:-1.1208710912439508e-002
3016:-2.5681176830348158e-002
3017:-2.1670791768412686e-002
3018:-1.6768911083986166e-002
3019:-1.3265227376370379e-002
3020:-2.7014243191654498e-002
3021:-2.3006877365629407e-002
3022:-1.8101958576338315e-002
3023:-1.4590598536830840e-002
3024:-7.9067223783226264e-003
3025:-5.7994001962049270e-003
3026:-3.3310378865172054e-003
3027:-1.6546196356815705e-003
3028:-9.7020495294011088e-003
3029:-7.5017548368306207e-003
3030:-4.9053255662854589e-003
3031:-3.1255666120858965e-003
3032:-1.1725363246722159e-002
3033:-9.4225476735909138e-003
3034:-6.6835324160972901e-003
3035:-4.7877249850046310e-003
3036:-1.3031563732303320e-002
3037:-1.0664566916521364e-002
3038:-7.8350492624246568e-003
3039:-5.8646923957670219e-003
3040:-1.0544420376923452e-003
3041:-4.4212539179613419e-004
3042:1.6178795085602569e-004
3043:4.7520709489569911e-004
3044:-2.4540217979864311e-003
3045:-1.6780227753672098e-003
3046:-8.5572807539739952e-004
3047:-3.7123560052778167e-004
3048:-4.0366806222501776e-003
3049:-3.0794356237554589e-003
3050:-2.0143747433420752e-003
3051:-1.3389931614700699e-003
3052:-5.0631507823421674e-003
3053:-3.9917570964236784e-003
3054:-2.7729424904508249e-003
3055:-1.9760212670371542e-003
3056:5.0672909814172720e-004
3057:3.6905999213673180e-004
3058:1.3085360056947707e-004
3059:-9.6622698377784975e-005
3060:-2.3449710364414770e-004
3061:-1.4938493212061173e-004
3062:-9.4530841311955152e-005
3063:-9.5557447071255674e-005
3064:-1.0886759814437168e-003
3065:-7.6952668145415404e-004
3066:-4.0619713002882892e-004
3067:-1.6840034929742749e-004
3068:-1.6568163763894983e-003
3069:-1.2016939918290525e-003
3070:-6.5856440780740551e-004
3071:-2.8112612682028808e-004
3072:-5.6068256937269866e-003
3073:-2.5981634461842151e-002
3074:-5.2380314207028884e-002
3075:-7.2471911661529026e-002
3076:-5.2023069443632389e-003
3077:-2.4281806566427439e-002
3078:-4.9020059729474076e-002
3079:-6.7861706596421517e-002
3080:-4.7398772542678273e-003
3081:-2.2217291322006023e-002
3082:-4.4903877085471527e-002
3083:-6.2202618650136911e-002
3084:-4.4355398081754212e-003
3085:-2.0752433962703310e-002
3086:-4.1954455451705772e-002
3087:-5.8138035661659176e-002
3088:-8.2564213635664199e-002
3089:-1.0025560628180122e-001
3090:-1.2293139318421097e-001
3091:-1.3999960264951353e-001
3092:-7.7330828085827322e-002
3093:-9.3941087082400315e-002
3094:-1.1525419632337999e-001
3095:-1.3131469755941486e-001
3096:-7.0903207730771120e-002
3097:-8.6182132015536317e-002
3098:-1.0582071715288154e-001
3099:-1.2064568334583314e-001
3100:-6.6283725681056699e-002
3101:-8.0602987189705128e-002
3102:-9.9037380233589253e-002
3103:-1.1297610907072556e-001
3104:-1.4795969095722236e-001
3105:-1.6068516835144575e-001
3106:-1.7669064936156453e-001
3107:-1.8849989501393169e-001
3108:-1.3882181269853019e-001
3109:-1.5087401913046747e-001
3110:-1.6609415015058937e-001
3111:-1.7737280763179569e-001
3112:-1.2758956209648203e-001
3113:-1.3878830504934708e-001
3114:-1.5301634875441841e-001
3115:-1.6362770395343260e-001
3116:-1.1950957870284763e-001
3117:-1.3007332265246044e-001
3118:-1.4356595058627136e-001
3119:-1.5368498957315452e-001
3120:-1.9339498386422851e-001
3121:-2.0002162028125173e-001
3122:-2.0822324590603855e-001
3123:-2.1416884103324432e-001
3124:-1.8208076538038948e-001
3125:-1.8851790238183760e-001
3126:-1.9652313733686716e-001
3127:-2.0235718558878921e-001
3128:-1.6809281306604840e-001
3129:-1.7426263753047674e-001
3130:-1.8198545343122902e-001
3131:-1.8765389544220978e-001
3132:-1.5796496830891463e-001
3133:-1.6391453011686635e-001
3134:-1.7140081790941183e-001
3135:-1.7692694980419887e-001
3136:-2.1597914834958093e-001
3137:-2.1686454403504249e-001
3138:-2.1766309017614702e-001
3139:-2.1800178193919345e-001
3140:-2.0417356010126320e-001
3141:-2.0520033583719108e-001
3142:-2.0625096670411977e-001
3143:-2.0683469785193315e-001
3144:-1.8946326923332887e-001
3145:-1.9063859274660522e-001
3146:-1.9197126642555992e-001
3147:-1.9283879183410627e-001
3148:-1.7871952502788879e-001
3149:-1.7998117664729663e-001
3150:-1.8149410763851440e-001
3151:-1.8255162048748702e-001
3152:-2.1700844331114919e-001
3153:-2.1304832838785620e-001
3154:-2.0777788521186547e-001
3155:-2.0365896373669093e-001
3156:-2.0602949484198504e-001
3157:-2.0251692730957715e-001
3158:-1.9786601114174987e-001
3159:-1.9424921217662586e-001
3160:-1.9225082027948659e-001
3161:-1.8925213244594044e-001
3162:-1.8531813728857516e-001
3163:-1.8228642331217648e-001
3164:-1.8210850634322007e-001
3165:-1.7944999477936724e-001
3166:-1.7599543730143088e-001
3167:-1.7335847471388688e-001
3168:-2.0062026728587601e-001
3169:-1.9342951176870954e-001
3170:-1.8416847439798079e-001
3171:-1.7716303132097011e-001
3172:-1.9149269464766924e-001
3173:-1.8484983002259936e-001
3174:-1.7631786169651442e-001
3175:-1.6988211407679424e-001
3176:-1.7986459904327254e-001
3177:-1.7388100544660165e-001
3178:-1.6622776061918745e-001
3179:-1.6047973289629619e-001
3180:-1.7116752117377435e-001
3181:-1.6564662999888455e-001
3182:-1.5861130705205706e-001
3183:-1.5334778631613527e-001
3184:-1.7292020051267562e-001
3185:-1.6406428654006355e-001
3186:-1.5277785058452259e-001
3187:-1.4433284244320055e-001
3188:-1.6593914697976236e-001
3189:-1.5763484044891707e-001
3190:-1.4707262268192772e-001
3191:-1.3918615759479525e-001
3192:-1.5690094776413527e-001
3193:-1.4927036570149863e-001
3194:-1.3959307345489116e-001
3195:-1.3238938187331908e-001
3196:-1.5002739021382067e-001
3197:-1.4287794963002121e-001
3198:-1.3383293716863964e-001
3199:-1.2711732267832412e-001
3200:-1.3961234659718699e-001
3201:-1.3038783564669770e-001
3202:-1.1873088315809061e-001
3203:-1.1008650902511700e-001
3204:-1.3474816638392126e-001
3205:-1.2601938658818612e-001
3206:-1.1499958539514454e-001
3207:-1.0683616619176012e-001
3208:-1.2829864903093419e-001
3209:-1.2018257285502457e-001
3210:-1.0994960202646271e-001
3211:-1.0237960759545142e-001
3212:-1.2327639584431359e-001
3213:-1.1560379887618268e-001
3214:-1.0593980514426292e-001
3215:-9.8798513695861997e-002
3216:-1.0549566701992638e-001
3217:-9.6921336630521659e-002
3218:-8.6138142326057002e-002
3219:-7.8182967251035781e-002
3220:-1.0247710300269787e-001
3221:-9.4291609702646662e-002
3222:-8.4005924989150285e-002
3223:-7.6424542827561198e-002
3224:-9.8309397086233319e-002
3225:-9.0614446746120042e-002
3226:-8.0955978784703439e-002
3227:-7.3845511134701683e-002
3228:-9.4939305221433054e-002
3229:-8.7607468680334422e-002
3230:-7.8412948599484236e-002
3231:-7.1650550572584390e-002
3232:-7.4114856219366643e-002
3233:-6.6803021512256130e-002
3234:-5.7668471300397754e-002
3235:-5.0977998956465695e-002
3236:-7.2533683868353502e-002
3237:-6.5510861088360281e-002
3238:-5.6737825831058096e-002
3239:-5.0312506054161724e-002
3240:-7.0179339656736117e-002
3241:-6.3525694211428729e-002
3242:-5.5214024430452271e-002
3243:-4.9126752186264541e-002
3244:-6.8151549356034305e-002
3245:-6.1774802102502323e-002
3246:-5.3808842234364961e-002
3247:-4.7974608821867847e-002
3248:-4.7683648466158281e-002
3249:-4.1993779099822041e-002
3250:-3.4935912390305454e-002
3251:-2.9806812622984256e-002
3252:-4.7136949710521785e-002
3253:-4.1628219651266653e-002
3254:-3.4792210696749863e-002
3255:-2.9822056282802410e-002
3256:-4.6104806294172240e-002
3257:-4.0835125561927615e-002
3258:-3.4292118880693563e-002
3259:-2.9532056882038516e-002
3260:-4.5069337488052703e-002
3261:-3.9984954985268516e-002
3262:-3.3669232291337718e-002
3263:-2.9072274568442500e-002
3264:-2.7384483591705321e-002
3265:-2.3402243107598315e-002
3266:-1.8524055761029130e-002
3267:-1.5028546876547672e-002
3268:-2.7466182391140986e-002
3269:-2.3573876058639805e-002
3270:-1.8797298965917683e-002
3271:-1.5367613787727103e-002
3272:-2.7265948051180131e-002
3273:-2.3499750462863105e-002
3274:-1.8867188504370840e-002
3275:-1.5532154672284030e-002
3276:-2.6877311017768017e-002
3277:-2.3214490750970321e-002
3278:-1.8701078628925349e-002
3279:-1.5445311673041294e-002
3280:-1.3469794945233730e-002
3281:-1.1088199079135434e-002
3282:-8.2340359018183550e-003
3283:-6.2404990842473583e-003
3284:-1.3828436690662641e-002
3285:-1.1455106380680506e-002
3286:-8.5974825586528515e-003
3287:-6.5903753797383596e-003
3288:-1.4025146581855618e-002
3289:-1.1678710532561370e-002
3290:-8.8375906104840689e-003
3291:-6.8288879178640873e-003
3292:-1.3968040460256308e-002
3293:-1.1654564934654509e-002
3294:-8.8422044042701584e-003
3295:-6.8446263178915077e-003
3296:-5.4212923297025884e-003
3297:-4.3074426393420193e-003
3298:-3.0292071279292513e-003
3299:-2.1836558954951195e-003
3300:-5.7543419695677504e-003
3301:-4.5925760751164167e-003
3302:-3.2415290007876251e-003
3303:-2.3322814861053698e-003
3304:-5.9820775195934574e-003
3305:-4.7836319797976137e-003
3306:-3.3712970277978713e-003
3307:-2.4047812724966888e-003
3308:-5.9981225832308272e-003
3309:-4.7913671997492106e-003
3310:-3.3578959247050747e-003
3311:-2.3672902475585737e-003
3312:-1.8377288300746499e-003
3313:-1.3322961241227379e-003
3314:-7.2269849125373802e-004
3315:-2.9368198679001413e-004
3316:-1.9531218932447979e-003
3317:-1.3906999551379327e-003
3318:-7.0603620366346495e-004
3319:-2.1894044768603043e-004
3320:-2.0016122709669059e-003
3321:-1.4116173041873452e-003
3322:-6.9005068238018545e-004
3323:-1.7395972684553627e-004
3324:-1.9605498690907683e-003
3325:-1.3852775745435305e-003
3326:-6.8220884311106296e-004
3327:-1.7975054041883545e-004
3328:-4.2813554511462104e-003
3329:-1.9970898546303822e-002
3330:-4.0366879574189482e-002
3331:-5.5942235388754813e-002
3332:-3.9801053433292464e-003
3333:-1.8467535461715603e-002
3334:-3.7312332589996333e-002
3335:-5.1711999217980996e-002
3336:-3.5884617697391442e-003
3337:-1.6575967022429562e-002
3338:-3.3486271628270468e-002
3339:-4.6420489057675131e-002
3340:-3.2893633716122640e-003
3341:-1.5179754158479674e-002
3342:-3.0675868599658096e-002
3343:-4.2539395353435136e-002
3344:-6.3783295281868505e-002
3345:-7.7574157478751557e-002
3346:-9.5347410644315303e-002
3347:-1.0880108072848464e-001
3348:-5.8958401055180271e-002
3349:-7.1710458005845495e-002
3350:-8.8186571612748038e-002
3351:-1.0069066809938713e-001
3352:-5.2920659902316557e-002
3353:-6.4360076996819379e-002
3354:-7.9199511507327180e-002
3355:-9.0507390520540326e-002
3356:-4.8490330439134741e-002
3357:-5.8956413606362987e-002
3358:-7.2584130345956413e-002
3359:-8.3007907080573845e-002
3360:-1.1510584329138931e-001
3361:-1.2530270459921425e-001
3362:-1.3836011316763416e-001
3363:-1.4817888917367070e-001
3364:-1.0654294017448179e-001
3365:-1.1599615428824170e-001
3366:-1.2815333577228474e-001
3367:-1.3733580530647749e-001
3368:-9.5786223593328168e-002
3369:-1.0429003088827676e-001
3370:-1.1529986445700827e-001
3371:-1.2367297683896365e-001
3372:-8.7860208817512192e-002
3373:-9.5652322267820958e-002
3374:-1.0580361894989422e-001
3375:-1.1357237820942585e-001
3376:-1.5233557315233731e-001
3377:-1.5812002010027656e-001
3378:-1.6542804054181021e-001
3379:-1.7084602215184908e-001
3380:-1.4121589940713683e-001
3381:-1.4660644030726530e-001
3382:-1.5348913702111269e-001
3383:-1.5864904803060570e-001
3384:-1.2719588941404389e-001
3385:-1.3206550023716410e-001
3386:-1.3838414475875657e-001
3387:-1.4320035301657003e-001
3388:-1.1682435886032427e-001
3389:-1.2128934458069328e-001
3390:-1.2716868000128653e-001
3391:-1.3171609860360395e-001
3392:-1.7261371821250443e-001
3393:-1.7388992226867192e-001
3394:-1.7545846405722765e-001
3395:-1.7658666998691941e-001
3396:-1.6034185098544881e-001
3397:-1.6158713931256660e-001
3398:-1.6318517103983976e-001
3399:-1.6438949768045555e-001
3400:-1.4478451311020676e-001
3401:-1.4595544393570645e-001
3402:-1.4754756375146058e-001
3403:-1.4881718555366186e-001
3404:-1.3320861369595577e-001
3405:-1.3429647800230865e-001
3406:-1.3585004553931929e-001
3407:-1.3714363726233567e-001
3408:-1.7620249062788351e-001
3409:-1.7368956352682208e-001
3410:-1.7044993166663402e-001
3411:-1.6799684303768755e-001
3412:-1.6408570882194087e-001
3413:-1.6179344535055390e-001
3414:-1.5889985972880452e-001
3415:-1.5675656004551661e-001
3416:-1.4859970436230441e-001
3417:-1.4655963762289498e-001
3418:-1.4407095715183407e-001
3419:-1.4229613784876835e-001
3420:-1.3697806616855529e-001
3421:-1.3510392692834816e-001
3422:-1.3288987733105265e-001
3423:-1.3137011084316183e-001
3424:-1.6591735661121457e-001
3425:-1.6062613928590141e-001
3426:-1.5390408634241096e-001
3427:-1.4889110180282797e-001
3428:-1.5486997269561054e-001
3429:-1.4998395031797201e-001
3430:-1.4382741663755244e-001
3431:-1.3927611884463420e-001
3432:-1.4064066041468321e-001
3433:-1.3624181462267840e-001
3434:-1.3076899322544577e-001
3435:-1.2677857803995907e-001
3436:-1.2987600158473211e-001
3437:-1.2581875143481427e-001
3438:-1.2082846996757771e-001
3439:-1.1723614222315651e-001
3440:-1.4570658644442375e-001
3441:-1.3881335936075662e-001
3442:-1.3010862065202933e-001
3443:-1.2365839662189788e-001
3444:-1.3634617055080328e-001
3445:-1.2993868258715352e-001
3446:-1.2188564128644330e-001
3447:-1.1594866188476685e-001
3448:-1.2416082537750303e-001
3449:-1.1835373381100732e-001
3450:-1.1110745340351735e-001
3451:-1.0580675740630767e-001
3452:-1.1484238564255393e-001
3453:-1.0946989963750135e-001
3454:-1.0280860162362244e-001
3455:-9.7970016696279832e-002
3456:-1.1995523347667338e-001
3457:-1.1253109410521377e-001
3458:-1.0318970695147942e-001
3459:-9.6294479941948258e-002
3460:-1.1251536108716381e-001
3461:-1.0558480508977353e-001
3462:-9.6891186638259089e-002
3463:-9.0495337709373583e-002
3464:-1.0271049192259014e-001
3465:-9.6400762904889095e-002
3466:-8.8522082443513561e-002
3467:-8.2754620968161788e-002
3468:-9.5120528638390364e-002
3469:-8.9268878867483983e-002
3470:-8.1991644137120193e-002
3471:-7.6688056615136932e-002
3472:-9.2559188379268451e-002
3473:-8.5444821391286133e-002
3474:-7.6528853777156208e-002
3475:-6.9975977902110922e-002
3476:-8.7015655956289822e-002
3477:-8.0355560612611218e-002
3478:-7.2022647174719151e-002
3479:-6.5909260531764491e-002
3480:-7.9598569248222034e-002
3481:-7.3517293228189881e-002
3482:-6.5926995344670794e-002
3483:-6.0373141105558754e-002
3484:-7.3772485970191939e-002
3485:-6.8124207597562048e-002
3486:-6.1089207265303445e-002
3487:-5.5953568261386907e-002
3488:-6.6579527484278714e-002
3489:-6.0376758648137699e-002
3490:-5.2629348735532683e-002
3491:-4.6956151056578778e-002
3492:-6.2731281700690242e-002
3493:-5.6906218387732896e-002
3494:-4.9635485932902332e-002
3495:-4.4315279259137058e-002
3496:-5.7475455153953740e-002
3497:-5.2139237892936750e-002
3498:-4.5485277305769192e-002
3499:-4.0621671139707445e-002
3500:-5.3267070298109100e-002
3501:-4.8302497220354290e-002
3502:-4.2117305735058341e-002
3503:-3.7600629234253079e-002
3504:-4.4127670565757088e-002
3505:-3.9169917365370427e-002
3506:-3.3009706677526895e-002
3507:-2.8524503240788396e-002
3508:-4.1658723677582929e-002
3509:-3.6990763377952506e-002
3510:-3.1186711336563609e-002
3511:-2.6957668834858683e-002
3512:-3.8189004917738772e-002
3513:-3.3901503948096247e-002
3514:-2.8565219301514348e-002
3515:-2.4672755806580973e-002
3516:-3.5339237000121641e-002
3517:-3.1345147363665733e-002
3518:-2.6369742407388114e-002
3519:-2.2737058279923811e-002
3520:-2.6380580404586601e-002
3521:-2.2797225407328755e-002
3522:-1.8376991165938782e-002
3523:-1.5184590855075966e-002
3524:-2.4934024454925319e-002
3525:-2.1545178278540279e-002
3526:-1.7355038041894831e-002
3527:-1.4320838877266191e-002
3528:-2.2808787450081369e-002
3529:-1.9681667031149840e-002
3530:-1.5802102610068421e-002
3531:-1.2982257826748176e-002
3532:-2.0997578057418149e-002
3533:-1.8077146942735579e-002
3534:-1.4443568655677867e-002
3535:-1.1794105501967555e-002
3536:-1.3734355893257274e-002
3537:-1.1459246974529165e-002
3538:-8.6870741780170450e-003
3539:-6.7127330641798977e-003
3540:-1.2941794381197065e-002
3541:-1.0776036292346081e-002
3542:-8.1237386778756238e-003
3543:-6.2238028105750963e-003
3544:-1.1701444936032758e-002
3545:-9.6904838467043331e-003
3546:-7.2104092210098529e-003
3547:-5.4196761258650519e-003
3548:-1.0592680889762712e-002
3549:-8.7096565290549714e-003
3550:-6.3737064929949901e-003
3551:-4.6759645431363591e-003
3552:-5.8756525249557094e-003
3553:-4.6818375636037699e-003
3554:-3.2573082949000028e-003
3555:-2.2674693531035909e-003
3556:-5.4200836313303240e-003
3557:-4.2784527241479867e-003
3558:-2.9024984392825135e-003
3559:-1.9349357969028506e-003
3560:-4.6666314956760341e-003
3561:-3.6077852767464860e-003
3562:-2.3143859628251629e-003
3563:-1.3905867407649154e-003
3564:-3.9672373197432668e-003
3565:-2.9831072877178131e-003
3566:-1.7676810985326366e-003
3567:-8.8869030861657840e-004
3568:-1.8668851277055731e-003
3569:-1.3171492700083220e-003
3570:-6.4705272918966824e-004
3571:-1.6960089829285596e-004
3572:-1.5567746085700315e-003
3573:-1.0768863168134754e-003
3574:-4.9733491184589869e-004
3575:-8.8831708008576819e-005
3576:-1.0509344421836798e-003
3577:-6.8220547770281585e-004
3578:-2.4692082238241648e-004
3579:5.1595918393618793e-005
3580:-5.8564506048520396e-004
3581:-3.1746411561011853e-004
3582:-1.2780114777387721e-005
3583:1.8608754528506982e-004
3584:-3.1124317353774661e-003
3585:-1.4368174961400146e-002
3586:-2.9047703473144039e-002
3587:-4.0294137236521053e-002
3588:-2.7533158968115054e-003
3589:-1.2705276696056185e-002
3590:-2.5709474391713370e-002
3591:-3.5691584221415558e-002
3592:-2.2999687300466810e-003
3593:-1.0574086526743375e-002
3594:-2.1422752679405310e-002
3595:-2.9778501820923911e-002
3596:-1.9641509284596477e-003
3597:-8.9700938732433875e-003
3598:-1.8189887151265915e-002
3599:-2.5316919933996835e-002
3600:-4.5926469597967576e-002
3601:-5.5822837670916794e-002
3602:-6.8739837031409845e-002
3603:-7.8643873688704138e-002
3604:-4.0669843942722307e-002
3605:-4.9391975625624418e-002
3606:-6.0841067443450941e-002
3607:-6.9669192245039646e-002
3608:-3.3914983234458719e-002
3609:-4.1125384541298694e-002
3610:-5.0685779124604265e-002
3611:-5.8130459609387362e-002
3612:-2.8817116163685135e-002
3613:-3.4884429809247372e-002
3614:-4.3017557242357903e-002
3615:-4.9417474600209420e-002
3616:-8.3241999120837781e-002
3617:-9.0605027491949042e-002
3618:-1.0024119473242733e-001
3619:-1.0764939968609367e-001
3620:-7.3735586795599814e-002
3621:-8.0193099771087906e-002
3622:-8.8745581883840213e-002
3623:-9.5398126635716271e-002
3624:-6.1509726630945817e-002
3625:-6.6790367510655341e-002
3626:-7.3934909155475195e-002
3627:-7.9606100991038486e-002
3628:-5.2275178096811675e-002
3629:-5.6657312930169644e-002
3630:-6.2727314690625771e-002
3631:-6.7649855673675791e-002
3632:-1.1073650038567012e-001
3633:-1.1494611290811674e-001
3634:-1.2054377112594410e-001
3635:-1.2491478132874155e-001
3636:-9.8135388629896833e-002
3637:-1.0179064708199935e-001
3638:-1.0676974451144289e-001
3639:-1.1074691999717044e-001
3640:-8.1885919614765462e-002
3641:-8.4809569354704559e-002
3642:-8.8970747466878178e-002
3643:-9.2425747169906342e-002
3644:-6.9578300312212737e-002
3645:-7.1934824729258051e-002
3646:-7.5460779134944284e-002
3647:-7.8509172868353322e-002
3648:-1.2634022164985964e-001
3649:-1.2735047326966925e-001
3650:-1.2884885522708114e-001
3651:-1.3013546593336200e-001
3652:-1.1201415032195124e-001
3653:-1.1282379464816565e-001
3654:-1.1416354184146993e-001
3655:-1.1540758939238897e-001
3656:-9.3480084949979961e-002
3657:-9.4012032273561461e-002
3658:-9.5123981396766019e-002
3659:-9.6296535410098236e-002
3660:-7.9395378711047154e-002
3661:-7.9702252959970604e-002
3662:-8.0623646307075081e-002
3663:-8.1729171383966834e-002
3664:-1.2998922717981365e-001
3665:-1.2819103129839815e-001
3666:-1.2611361539210275e-001
3667:-1.2472735065772973e-001
3668:-1.1528541143834796e-001
3669:-1.1361151955255065e-001
3670:-1.1177906448687207e-001
3671:-1.1064399502353120e-001
3672:-9.6195282941406376e-002
3673:-9.4660250402504004e-002
3674:-9.3116971275358187e-002
3675:-9.2286318837707437e-002
3676:-8.1635934689224990e-002
3677:-8.0189454963960821e-002
3678:-7.8844491368795136e-002
3679:-7.8229283020182241e-002
3680:-1.2331935578030087e-001
3681:-1.1944677952882113e-001
3682:-1.1472309557944860e-001
3683:-1.1135475995929210e-001
3684:-1.0940161195044130e-001
3685:-1.0588953922705860e-001
3686:-1.0169562181368307e-001
3687:-9.8778859180450096e-002
3688:-9.1248448892971901e-002
3689:-8.8186655471125572e-002
3690:-8.4657740398785458e-002
3691:-8.2310077278833188e-002
3692:-7.7339298438733925e-002
3693:-7.4607232413426483e-002
3694:-7.1567929619915066e-002
3695:-6.9641063355314448e-002
3696:-1.0908882983298440e-001
3697:-1.0396693410172340e-001
3698:-9.7646007774127408e-002
3699:-9.3078586655296849e-002
3700:-9.6772981359936089e-002
3701:-9.2164124219541496e-002
3702:-8.6544996822833703e-002
3703:-8.2540321239374576e-002
3704:-8.0633799172774620e-002
3705:-7.6678002464669368e-002
3706:-7.1953244530366098e-002
3707:-6.8666483060618649e-002
3708:-6.8209974723144037e-002
3709:-6.4742212545856603e-002
3710:-6.0686630226682553e-002
3711:-5.7937610232245133e-002
3712:-9.0375579635764675e-002
3713:-8.4798229361715424e-002
3714:-7.7882138283188906e-002
3715:-7.2857846590377612e-002
3716:-8.0143689755764691e-002
3717:-7.5143323737316012e-002
3718:-6.8988488306180984e-002
3719:-6.4554137392054206e-002
3720:-6.6662622469354227e-002
3721:-6.2405236961758641e-002
3722:-5.7230811532960023e-002
3723:-5.3556345774065900e-002
3724:-5.6229450672327611e-002
3725:-5.2533992076584650e-002
3726:-4.8101176666494737e-002
3727:-4.5001594342530114e-002
3728:-7.0088494903342569e-002
3729:-6.4706121137508760e-002
3730:-5.8012860765060813e-002
3731:-5.3135168656416779e-002
3732:-6.2095739945924266e-002
3733:-5.7282732440081495e-002
3734:-5.1322496569143061e-002
3735:-4.6999087850224476e-002
3736:-5.1500140534298626e-002
3737:-4.7426623362177289e-002
3738:-4.2418378110565723e-002
3739:-3.8814780791714229e-002
3740:-4.3250953314997342e-002
3741:-3.9741630974990928e-002
3742:-3.5459662955673467e-002
3743:-3.2405177598672570e-002
3744:-5.0580533648115898e-002
3745:-4.5850618717945026e-002
3746:-3.9960994104535706e-002
3747:-3.5662732459004823e-002
3748:-4.4729942098661581e-002
3749:-4.0511369879449602e-002
3750:-3.5265258900315254e-002
3751:-3.1442093425839944e-002
3752:-3.6917630953840284e-002
3753:-3.3367760943899219e-002
3754:-2.8963268432613740e-002
3755:-2.5761513555004889e-002
3756:-3.0792769208840734e-002
3757:-2.7756606812557191e-002
3758:-2.3998713473141774e-002
3759:-2.1274419669268935e-002
3760:-3.3510373480939097e-002
3761:-2.9705602740985094e-002
3762:-2.4963124184392782e-002
3763:-2.1498172891829630e-002
3764:-2.9528653552482888e-002
3765:-2.6142390697120720e-002
3766:-2.1915038897489116e-002
3767:-1.8821214990128569e-002
3768:-2.4161725707366018e-002
3769:-2.1327196715415171e-002
3770:-1.7779375708293677e-002
3771:-1.5175467344097575e-002
3772:-1.9916508363033842e-002
3773:-1.7509221609562340e-002
3774:-1.4487923252060603e-002
3775:-1.2263876626954726e-002
3776:-1.9840366638884242e-002
3777:-1.7058123082683160e-002
3778:-1.3589329894930863e-002
3779:-1.1054277450259772e-002
3780:-1.7345813302777697e-002
3781:-1.4875482631337440e-002
3782:-1.1779121297038560e-002
3783:-9.5030549222832432e-003
3784:-1.3941678325505615e-002
3785:-1.1886215973887160e-002
3786:-9.2860933828431969e-003
3787:-7.3558406148516355e-003
3788:-1.1218049913261913e-002
3789:-9.4866242819766789e-003
3790:-7.2747517640786331e-003
3791:-5.6156089015650043e-003
3792:-9.9072256900173249e-003
3793:-8.1140289625431430e-003
3794:-5.8801883020923804e-003
3795:-4.2491416781972454e-003
3796:-8.4800654690306339e-003
3797:-6.8937787502187471e-003
3798:-4.8960599761870664e-003
3799:-3.4200534209188733e-003
3800:-6.4986158103175753e-003
3801:-5.1890088896988928e-003
3802:-3.5081309856643482e-003
3803:-2.2411284420294601e-003
3804:-4.8884216039961131e-003
3805:-3.7960257753050590e-003
3806:-2.3647097946801949e-003
3807:-1.2630484029381016e-003
3808:-3.5725491741829727e-003
3809:-2.6434646334048710e-003
3810:-1.4874718303027031e-003
3811:-6.4454069407345884e-004
3812:-2.8180705818946611e-003
3813:-2.0168474165576677e-003
3814:-1.0007054628112420e-003
3815:-2.4428962963291440e-004
3816:-1.7396618185820136e-003
3817:-1.1104444272547022e-003
3818:-2.8353034315683058e-004
3819:3.5482479420514680e-004
3820:-8.4105292649586680e-004
3821:-3.4764096395477340e-004
3822:3.2905749966395122e-004
3823:8.7295328064746121e-004
3824:-3.6710629474728817e-004
3825:-1.6267630651184507e-004
3826:6.2447302193200050e-005
3827:2.0310818547348704e-004
3828:-2.0606413784488013e-005
3829:6.2720690395254484e-005
3830:1.4282628088262077e-004
3831:1.8229264200019202e-004
3832:5.1279917918604998e-004
3833:4.5989693279995837e-004
3834:3.7920622865661983e-004
3835:3.0841809187760733e-004
3836:9.8395410576968727e-004
3837:8.4332944260304555e-004
3838:6.6117290822481232e-004
3839:5.2257071656839683e-004
3840:-1.7566753353752613e-003
3841:-7.9763729874416500e-003
3842:-1.6186376044680290e-002
3843:-2.2551751661795738e-002
3844:-1.2880198571708389e-003
3845:-5.8138693557415657e-003
3846:-1.1848331740748440e-002
3847:-1.6572679924925619e-002
3848:-6.3045374582729121e-004
3849:-2.9428330125717112e-003
3850:-6.1342931339659389e-003
3851:-8.7140873759628361e-003
3852:-9.1129369068200007e-005
3853:-7.0433916773574338e-004
3854:-1.7133157873606283e-003
3855:-2.6467612818039071e-003
3856:-2.5656402702496337e-002
3857:-3.1012507424917062e-002
3858:-3.8261323306073486e-002
3859:-4.4016892762467619e-002
3860:-1.8821300602421025e-002
3861:-2.2633167641395339e-002
3862:-2.7966737916243392e-002
3863:-3.2330674494801682e-002
3864:-9.8388284576429921e-003
3865:-1.1613100638976595e-002
3866:-1.4418067933562225e-002
3867:-1.6943516309461389e-002
3868:-2.9047432270342044e-003
3869:-3.0998339654761411e-003
3870:-3.9439638060649604e-003
3871:-5.0428355446794576e-003
3872:-4.6551611601169919e-002
3873:-5.0374333106568220e-002
3874:-5.5778018403351136e-002
3875:-6.0238579487425996e-002
3876:-3.4168050242921862e-002
3877:-3.6782643188898512e-002
3878:-4.0750845525938460e-002
3879:-4.4219090407228892e-002
3880:-1.7861670469912841e-002
3881:-1.8887572332575660e-002
3882:-2.0966664741488041e-002
3883:-2.3127793397231471e-002
3884:-5.2492625492190160e-003
3885:-5.0479962307072041e-003
3886:-5.6667642904993012e-003
3887:-6.8165371217087725e-003
3888:-6.1948541873504723e-002
3889:-6.3949993809698888e-002
3890:-6.7083151897601057e-002
3891:-6.9884502570032758e-002
3892:-4.5458330621422155e-002
3893:-4.6693474968094777e-002
3894:-4.8986588450813308e-002
3895:-5.1266546472957628e-002
3896:-2.3746807735822887e-002
3897:-2.3971793827544895e-002
3898:-2.5155391770364997e-002
3899:-2.6744737138440215e-002
3900:-6.9555324407966253e-003
3901:-6.3983595059758135e-003
3902:-6.7212311449583954e-003
3903:-7.7733324257175549e-003
3904:-7.0668389122256120e-002
3905:-7.0836957131334657e-002
3906:-7.1645179777488521e-002
3907:-7.2715532283876214e-002
3908:-5.1835544372765448e-002
3909:-5.1714660004468366e-002
3910:-5.2294629359197847e-002
3911:-5.3304545896204869e-002
3912:-2.7029228080521953e-002
3913:-2.6525502849109338e-002
3914:-2.6800898671164905e-002
3915:-2.7726776802461117e-002
3916:-7.8365927053354097e-003
3917:-7.0354649769113218e-003
3918:-7.0722348215590631e-003
3919:-7.9297268638518596e-003
3920:-7.2629725649914420e-002
3921:-7.1241036969447891e-002
3922:-7.0026250215443675e-002
3923:-6.9552798261000456e-002
3924:-5.3242589047826930e-002
3925:-5.1992638566880557e-002
3926:-5.1081660594922196e-002
3927:-5.0935177427324438e-002
3928:-2.7694921383812569e-002
3929:-2.6627359255092926e-002
3930:-2.6114559256847390e-002
3931:-2.6396052792742233e-002
3932:-7.9201639930613164e-003
3933:-6.9934458720503816e-003
3934:-6.7872021474716868e-003
3935:-7.3977702784075988e-003
3936:-6.8759013518981227e-002
3937:-6.6239130913723659e-002
3938:-6.3514590506332874e-002
3939:-6.1858038533816634e-002
3940:-5.0360160653894669e-002
3941:-4.8317548250922708e-002
3942:-4.6298624333512693e-002
3943:-4.5246438202495937e-002
3944:-2.6108236178456260e-002
3945:-2.4693593615979066e-002
3946:-2.3602172186337863e-002
3947:-2.3343780212306351e-002
3948:-7.3314334056031058e-003
3949:-6.4021325178747453e-003
3950:-6.0268585957367607e-003
3951:-6.3809039356796608e-003
3952:-6.0584059265258824e-002
3953:-5.7428124707970152e-002
3954:-5.3799530203739052e-002
3955:-5.1393210108799534e-002
3956:-4.4322631407921510e-002
3957:-4.1859784810748528e-002
3958:-3.9178634543312982e-002
3959:-3.7531559094632426e-002
3960:-2.2880761485732218e-002
3961:-2.1331612763533247e-002
3962:-1.9898892202120329e-002
3963:-1.9251830628914481e-002
3964:-6.2740524961292813e-003
3965:-5.4324187882677597e-003
3966:-4.9659657405037453e-003
3967:-5.0925758677757109e-003
3968:-4.9873685322433116e-002
3969:-4.6536723004239007e-002
3970:-4.2575758237768643e-002
3971:-3.9840977164975006e-002
3972:-3.6429514675833677e-002
3973:-3.3884875885306455e-002
3974:-3.0964656252108855e-002
3975:-2.9032904742928675e-002
3976:-1.8699948377422445e-002
3977:-1.7200176056440513e-002
3978:-1.5652327799263992e-002
3979:-1.4779411146763378e-002
3980:-4.9665541265517055e-003
3981:-4.2761289452671802e-003
3982:-3.7912368810363401e-003
3983:-3.7383734041630421e-003
3984:-3.8284579778680709e-002
3985:-3.5134267046673766e-002
3986:-3.1312507629876758e-002
3987:-2.8604464166128617e-002
3988:-2.7903962883012497e-002
3989:-2.5543104120079797e-002
3990:-2.2730431503870684e-002
3991:-2.0779758259990743e-002
3992:-1.4214216539265304e-002
3993:-1.2894926674106914e-002
3994:-1.1413902579066567e-002
3995:-1.0462937899935246e-002
3996:-3.6098886582429626e-003
3997:-3.0977606598137290e-003
3998:-2.6489272267157401e-003
3999:-2.4730406651280266e-003
4000:-2.7171968768800455e-002
4001:-2.4461043210193521e-002
4002:-2.1110902192806511e-002
4003:-1.8686413078361150e-002
4004:-1.9740452448497460e-002
4005:-1.7740346423889459e-002
4006:-1.5279006475950785e-002
4007:-1.3506136611357569e-002
4008:-9.9425998278008555e-003
4009:-8.8807499942114600e-003
4010:-7.5931841488621884e-003
4011:-6.6813306367356287e-003
4012:-2.3550360999740408e-003
4013:-2.0206150286220673e-003
4014:-1.6435206572988461e-003
4015:-1.3998956232743119e-003
4016:-1.7480741922885523e-002
4017:-1.5343148749902434e-002
4018:-1.2652720703857791e-002
4019:-1.0666169969830322e-002
4020:-1.2631398196655215e-002
4021:-1.1080258811365184e-002
4022:-9.1070684932614450e-003
4023:-7.6335141538063332e-003
4024:-6.2437443117972537e-003
4025:-5.4671090671480245e-003
4026:-4.4419072439247980e-003
4027:-3.6470156607600005e-003
4028:-1.3014848438945054e-003
4029:-1.1256293958920522e-003
4030:-8.3635674166255972e-004
4031:-5.6878756204505358e-004
4032:-9.7381159572097909e-003
4033:-8.2106982598188771e-003
4034:-6.2428145921285564e-003
4035:-4.7536731030717577e-003
4036:-6.9598465346978090e-003
4037:-5.8738029491581575e-003
4038:-4.4330580707971669e-003
4039:-3.3105909249710147e-003
4040:-3.3097028923008546e-003
4041:-2.8068905703084739e-003
4042:-2.0635190514247952e-003
4043:-1.4268208317002146e-003
4044:-4.9268509476777000e-004
4045:-4.4253099359819001e-004
4046:-2.4102087503646797e-004
4047:1.7718892509283749e-005
4048:-4.1082672340649632e-003
4049:-3.1529254618978698e-003
4050:-1.8785504574565497e-003
4051:-8.8040905897968937e-004
4052:-2.8418913135068325e-003
4053:-2.1832504201211222e-003
4054:-1.2477233924704382e-003
4055:-4.7229951070479131e-004
4056:-1.1921397554031004e-003
4057:-9.2625805156515558e-004
4058:-4.4020128606513104e-004
4059:3.8991033104135691e-005
4060:7.0380365831015628e-005
4061:3.0904320338344258e-005
4062:1.6681831048708288e-004
4063:4.1463624237659939e-004
4064:-5.0770407418357149e-004
4065:-9.6254796095084701e-005
4066:4.9420501030429675e-004
4067:9.8786866266014771e-004
4068:-2.0384554114200653e-004
4069:4.0099087724801520e-005
4070:4.6272573058099689e-004
4071:8.6662340199885159e-004
4072:1.7125866373136748e-004
4073:2.0167385912353238e-004
4074:4.1187134165062957e-004
4075:7.0366683244065551e-004
4076:4.4239551970876305e-004
4077:3.1299714695098466e-004
4078:3.6539617893041555e-004
4079:5.7511676984070949e-004
4080:1.0774661930278715e-003
4081:9.0247160671890522e-004
4082:6.8602007641469290e-004
4083:5.2921717748950965e-004
4084:9.2456125350255983e-004
4085:7.1035797834880161e-004
4086:4.6934984854006962e-004
4087:3.1411294797557496e-004
4088:7.2873960786161115e-004
4089:4.9004526650433600e-004
4090:2.5178843241682150e-004
4091:1.2526004571861897e-004
4092:5.8147051079707006e-004
4093:3.4444262346670814e-004
4094:1.3495983658198579e-004
4095:5.0872591132474273e-005
4096:0.0000000000000000e+000
4097:0.0000000000000000e+000
4098:0.0000000000000000e+000
4099:0.0000000000000000e+000
4100:0.0000000000000000e+000
4101:0.0000000000000000e+000
4102:0.0000000000000000e+000
4103:0.0000000000000000e+000
4104:0.0000000000000000e+000
4105:0.0000000000000000e+000
4106:0.0000000000000000e+000
4107:0.0000000000000000e+000
4108:0.0000000000000000e+000
4109:0.0000000000000000e+000
4110:0.0000000000000000e+000
4111:0.0000000000000000e+000
4112:0.0000000000000000e+000
4113:0.0000000000000000e+000
4114:0.0000000000000000e+000
4115:0.0000000000000000e+000
4116:0.0000000000000000e+000
4117:0.0000000000000000e+000
4118:0.0000000000000000e+000
4119:0.0000000000000000e+000
4120:0.0000000000000000e+000
4121:0.0000000000000000e+000
4122:0.0000000000000000e+000
4123:0.0000000000000000e+000
4124:0.0000000000000000e+000
4125:0.0000000000000000e+000
4126:0.0000000000000000e+000
4127:0.0000000000000000e+000
4128:0.0000000000000000e+000
4129:0.0000000000000000e+000
4130:0.0000000000000000e+000
4131:0.0000000000000000e+000
4132:0.0000000000000000e+000
4133:0.0000000000000000e+000
4134:0.0000000000000000e+000
4135:0.0000000000000000e+000
4136:0.0000000000000000e+000
4137:0.0000000000000000e+000
4138:0.0000000000000000e+000
4139:0.0000000000000000e+000
4140:0.0000000000000000e+000
4141:0.0000000000000000e+000
4142:0.0000000000000000e+000
4143:0.0000000000000000e+000
4144:0.0000000000000000e+000
4145:0.0000000000000000e+000
4146:0.0000000000000000e+000
4147:0.0000000000000000e+000
4148:0.0000000000000000e+000
4149:0.0000000000000000e+000
4150:0.0000000000000000e+000
4151:0.0000000000000000e+000
4152:0.0000000000000000e+000
4153:0.0000000000000000e+000
4154:0.0000000000000000e+000
4155:0.0000000000000000e+000
4156:0.0000000000000000e+000
4157:0.0000000000000000e+000
4158:0.0000000000000000e+000
4159:0.0000000000000000e+000
4160:0.0000000000000000e+000
4161:0.0000000000000000e+000
4162:0.0000000000000000e+000
4163:0.0000000000000000e+000
4164:0.0000000000000000e+000
4165:0.0000000000000000e+000
4166:0.0000000000000000e+000
4167:0.0000000000000000e+000
4168:0.0000000000000000e+000
4169:0.0000000000000000e+000
4170:0.0000000000000000e+000
4171:0.0000000000000000e+000
4172:0.0000000000000000e+000
4173:0.0000000000000000e+000
4174:0.0000000000000000e+000
4175:0.0000000000000000e+000
4176:0.0000000000000000e+000
4177:0.0000000000000000e+000
4178:0.0000000000000000e+000
4179:0.0000000000000000e+000
4180:0.0000000000000000e+000
4181:0.0000000000000000e+000
4182:0.0000000000000000e+000
4183:0.0000000000000000e+000
4184:0.0000000000000000e+000
4185:0.0000000000000000e+000
4186:0.0000000000000000e+000
4187:0.0000000000000000e+000
4188:0.0000000000000000e+000
4189:0.0000000000000000e+000
4190:0.0000000000000000e+000
4191:0.0000000000000000e+000
4192:0.0000000000000000e+000
4193:0.0000000000000000e+000
4194:0.0000000000000000e+000
4195:0.0000000000000000e+000
4196:0.0000000000000000e+000
4197:0.0000000000000000e+000
4198:0.0000000000000000e+000
4199:0.0000000000000000e+000
4200:0.0000000000000000e+000
4201:0.0000000000000000e+000
4202:0.0000000000000000e+000
4203:0.0000000000000000e+000
4204:0.0000000000000000e+000
4205:0.0000000000000000e+000
4206:0.0000000000000000e+000
4207:0.0000000000000000e+000
4208:0.0000000000000000e+000
4209:0.0000000000000000e+000
4210:0.0000000000000000e+000
4211:0.0000000000000000e+000
4212:0.0000000000000000e+000
4213:0.0000000000000000e+000
4214:0.0000000000000000e+000
4215:0.0000000000000000e+000
4216:0.0000000000000000e+000
4217:0.0000000000000000e+000
4218:0.0000000000000000e+000
4219:0.0000000000000000e+000
4220:0.0000000000000000e+000
4221:0.0000000000000000e+000
4222:0.0000000000000000e+000
4223:0.0000000000000000e+000
4224:0.0000000000000000e+000
4225:0.0000000000000000e+000
4226:0.0000000000000000e+000
4227:0.0000000000000000e+000
4228:0.0000000000000000e+000
4229:0.0000000000000000e+000
4230:0.0000000000000000e+000
4231:0.0000000000000000e+000
4232:0.0000000000000000e+000
4233:0.0000000000000000e+000
4234:0.0000000000000000e+000
4235:0.0000000000000000e+000
4236:0.0000000000000000e+000
4237:0.0000000000000000e+000
4238:0.0000000000000000e+000
4239:0.0000000000000000e+000
4240:0.0000000000000000e+000
4241:0.0000000000000000e+000
4242:0.0000000000000000e+000
4243:0.0000000000000000e+000
4244:0.0000000000000000e+000
4245:0.0000000000000000e+000
4246:0.0000000000000000e+000
4247:0.0000000000000000e+000
4248:0.0000000000000000e+000
4249:0.0000000000000000e+000
4250:0.0000000000000000e+000
4251:0.0000000000000000e+000
4252:0.0000000000000000e+000
4253:0.0000000000000000e+000
4254:0.0000000000000000e+000
4255:0.0000000000000000e+000
4256:0.0000000000000000e+000
4257:0.0000000000000000e+000
4258:0.0000000000000000e+000
4259:0.0000000000000000e+000
4260:0.0000000000000000e+000
4261:0.0000000000000000e+000
4262:0.0000000000000000e+000
4263:0.0000000000000000e+000
4264:0.0000000000000000e+000
4265:0.0000000000000000e+000
4266:0.0000000000000000e+000
4267:0.0000000000000000e+000
4268:0.0000000000000000e+000
4269:0.0000000000000000e+000
4270:0.0000000000000000e+000
4271:0.0000000000000000e+000
4272:0.0000000000000000e+000
4273:0.0000000000000000e+000
4274:0.0000000000000000e+000
4275:0.0000000000000000e+000
4276:0.0000000000000000e+000
4277:0.0000000000000000e+000
4278:0.0000000000000000e+000
4279:0.0000000000000000e+000
4280:0.0000000000000000e+000
4281:0.0000000000000000e+000
4282:0.0000000000000000e+000
4283:0.0000000000000000e+000
4284:0.0000000000000000e+000
4285:0.0000000000000000e+000
4286:0.0000000000000000e+000
4287:0.0000000000000000e+000
4288:0.0000000000000000e+000
4289:0.0000000000000000e+000
4290:0.0000000000000000e+000
4291:0.0000000000000000e+000
4292:0.0000000000000000e+000
4293:0.0000000000000000e+000
4294:0.0000000000000000e+000
4295:0.0000000000000000e+000
4296:0.0000000000000000e+000
4297:0.0000000000000000e+000
4298:0.0000000000000000e+000
4299:0.0000000000000000e+000
4300:0.0000000000000000e+000
4301:0.0000000000000000e+000
4302:0.0000000000000000e+000
4303:0.0000000000000000e+000
4304:0.0000000000000000e+000
4305:0.0000000000000000e+000
4306:0.0000000000000000e+000
4307:0.0000000000000000e+000
4308:0.0000000000000000e+000
4309:0.0000000000000000e+000
4310:0.0000000000000000e+000
4311:0.0000000000000000e+000
4312:0.0000000000000000e+000
4313:0.0000000000000000e+000
4314:0.0000000000000000e+000
4315:0.0000000000000000e+000
4316:0.0000000000000000e+000
4317:0.0000000000000000e+000
4318:0.0000000000000000e+000
4319:0.0000000000000000e+000
4320:0.0000000000000000e+000
4321:0.0000000000000000e+000
4322:0.0000000000000000e+000
4323:0.0000000000000000e+000
4324:0.0000000000000000e+000
4325:0.0000000000000000e+000
4326:0.0000000000000000e+000
4327:0.0000000000000000e+000
4328:0.0000000000000000e+000
4329:0.0000000000000000e+000
4330:0.0000000000000000e+000
4331:0.0000000000000000e+000
4332:0.0000000000000000e+000
4333:0.0000000000000000e+000
4334:0.0000000000000000e+000
4335:0.0000000000000000e+000
4336:0.0000000000000000e+000
4337:0.0000000000000000e+000
4338:0.0000000000000000e+000
4339:0.0000000000000000e+000
4340:0.0000000000000000e+000
4341:0.0000000000000000e+000
4342:0.0000000000000000e+000
4343:0.0000000000000000e+000
4344:0.0000000000000000e+000
4345:0.0000000000000000e+000
4346:0.0000000000000000e+000
4347:0.0000000000000000e+000
4348:0.0000000000000000e+000
4349:0.0000000000000000e+000
4350:0.0000000000000000e+000
4351:0.0000000000000000e+000
4352:0.0000000000000000e+000
4353:0.0000000000000000e+000
4354:0.0000000000000000e+000
4355:0.0000000000000000e+000
4356:0.0000000000000000e+000
4357:0.0000000000000000e+000
4358:0.0000000000000000e+000
4359:0.0000000000000000e+000
4360:0.0000000000000000e+000
4361:0.0000000000000000e+000
4362:0.0000000000000000e+000
4363:0.0000000000000000e+000
4364:0.0000000000000000e+000
4365:0.0000000000000000e+000
4366:0.0000000000000000e+000
4367:0.0000000000000000e+000
4368:0.0000000000000000e+000
4369:0.0000000000000000e+000
4370:0.0000000000000000e+000
4371:0.0000000000000000e+000
4372:0.0000000000000000e+000
4373:0.0000000000000000e+000
4374:0.0000000000000000e+000
4375:0.0000000000000000e+000
4376:0.0000000000000000e+000
4377:0.0000000000000000e+000
4378:0.0000000000000000e+000
4379:0.0000000000000000e+000
4380:0.0000000000000000e+000
4381:0.0000000000000000e+000
4382:0.0000000000000000e+000
4383:0.0000000000000000e+000
4384:0.0000000000000000e+000
4385:0.0000000000000000e+000
4386:0.0000000000000000e+000
4387:0.0000000000000000e+000
4388:0.0000000000000000e+000
4389:0.0000000000000000e+000
4390:0.0000000000000000e+000
4391:0.0000000000000000e+000
4392:0.0000000000000000e+000
4393:0.0000000000000000e+000
4394:0.0000000000000000e+000
4395:0.0000000000000000e+000
4396:0.0000000000000000e+000
4397:0.0000000000000000e+000
4398:0.0000000000000000e+000
4399:0.0000000000000000e+000
4400:0.0000000000000000e+000
4401:0.0000000000000000e+000
4402:0.0000000000000000e+000
4403:0.0000000000000000e+000
4404:0.0000000000000000e+000
4405:0.0000000000000000e+000
4406:0.0000000000000000e+000
4407:0.0000000000000000e+000
4408:0.0000000000000000e+000
4409:0.0000000000000000e+000
4410:0.0000000000000000e+000
4411:0.0000000000000000e+000
4412:0.0000000000000000e+000
4413:0.0000000000000000e+000
4414:0.0000000000000000e+000
4415:0.0000000000000000e+000
4416:0.0000000000000000e+000
4417:0.0000000000000000e+000
4418:0.0000000000000000e+000
4419:0.0000000000000000e+000
4420:0.0000000000000000e+000
4421:0.0000000000000000e+000
4422:0.0000000000000000e+000
4423:0.0000000000000000e+000
4424:0.0000000000000000e+000
4425:0.0000000000000000e+000
4426:0.0000000000000000e+000
4427:0.0000000000000000e+000
4428:0.0000000000000000e+000
4429:0.0000000000000000e+000
4430:0.0000000000000000e+000
4431:0.0000000000000000e+000
4432:0.0000000000000000e+000
4433:0.0000000000000000e+000
4434:0.0000000000000000e+000
4435:0.0000000000000000e+000
4436:0.0000000000000000e+000
4437:0.0000000000000000e+000
4438:0.0000000000000000e+000
4439:0.0000000000000000e+000
4440:0.0000000000000000e+000
4441:0.0000000000000000e+000
4442:0.0000000000000000e+000
4443:0.0000000000000000e+000
4444:0.0000000000000000e+000
4445:0.0000000000000000e+000
4446:0.0000000000000000e+000
4447:0.0000000000000000e+000
4448:0.0000000000000000e+000
4449:0.0000000000000000e+000
4450:0.0000000000000000e+000
4451:0.0000000000000000e+000
4452:0.0000000000000000e+000
4453:0.0000000000000000e+000
4454:0.0000000000000000e+000
4455:0.0000000000000000e+000
4456:0.0000000000000000e+000
4457:0.0000000000000000e+000
4458:0.0000000000000000e+000
4459:0.0000000000000000e+000
4460:0.0000000000000000e+000
4461:0.0000000000000000e+000
4462:0.0000000000000000e+000
4463:0.0000000000000000e+000
4464:0.0000000000000000e+000
4465:0.0000000000000000e+000
4466:0.0000000000000000e+000
4467:0.0000000000000000e+000
4468:0.0000000000000000e+000
4469:0.0000000000000000e+000
4470:0.0000000000000000e+000
4471:0.0000000000000000e+000
4472:0.0000000000000000e+000
4473:0.0000000000000000e+000
4474:0.0000000000000000e+000
4475:0.0000000000000000e+000
4476:0.0000000000000000e+000
4477:0.0000000000000000e+000
4478:0.0000000000000000e+000
4479:0.0000000000000000e+000
4480:0.0000000000000000e+000
4481:0.0000000000000000e+000
4482:0.0000000000000000e+000
4483:0.0000000000000000e+000
4484:0.0000000000000000e+000
4485:0.0000000000000000e+000
4486:0.0000000000000000e+000
4487:0.0000000000000000e+000
4488:0.0000000000000000e+000
4489:0.0000000000000000e+000
4490:0.0000000000000000e+000
4491:0.0000000000000000e+000
4492:0.0000000000000000e+000
4493:0.0000000000000000e+000
4494:0.0000000000000000e+000
4495:0.0000000000000000e+000
4496:0.0000000000000000e+000
4497:0.0000000000000000e+000
4498:0.0000000000000000e+000
4499:0.0000000000000000e+000
4500:0.0000000000000000e+000
4501:0.0000000000000000e+000
4502:0.0000000000000000e+000
4503:0.0000000000000000e+000
4504:0.0000000000000000e+000
4505:0.0000000000000000e+000
4506:0.0000000000000000e+000
4507:0.0000000000000000e+000
4508:0.0000000000000000e+000
4509:0.0000000000000000e+000
4510:0.0000000000000000e+000
4511:0.0000000000000000e+000
4512:0.0000000000000000e+000
4513:0.0000000000000000e+000
4514:0.0000000000000000e+000
4515:0.0000000000000000e+000
4516:0.0000000000000000e+000
4517:0.0000000000000000e+000
4518:0.0000000000000000e+000
4519:0.0000000000000000e+000
4520:0.0000000000000000e+000
4521:0.0000000000000000e+000
4522:0.0000000000000000e+000
4523:0.0000000000000000e+000
4524:0.0000000000000000e+000
4525:0.0000000000000000e+000
4526:0.0000000000000000e+000
4527:0.0000000000000000e+000
4528:0.0000000000000000e+000
4529:0.0000000000000000e+000
4530:0.0000000000000000e+000
4531:0.0000000000000000e+000
4532:0.0000000000000000e+000
4533:0.0000000000000000e+000
4534:0.0000000000000000e+000
4535:0.0000000000000000e+000
4536:0.0000000000000000e+000
4537:0.0000000000000000e+000
4538:0.0000000000000000e+000
4539:0.0000000000000000e+000
4540:0.0000000000000000e+000
4541:0.0000000000000000e+000
4542:0.0000000000000000e+000
4543:0.0000000000000000e+000
4544:0.0000000000000000e+000
4545:0.0000000000000000e+000
4546:0.0000000000000000e+000
4547:0.0000000000000000e+000
4548:0.0000000000000000e+000
4549:0.0000000000000000e+000
4550:0.0000000000000000e+000
4551:0.0000000000000000e+000
4552:0.0000000000000000e+000
4553:0.0000000000000000e+000
4554:0.0000000000000000e+000
4555:0.0000000000000000e+000
4556:0.0000000000000000e+000
4557:0.0000000000000000e+000
4558:0.0000000000000000e+000
4559:0.0000000000000000e+000
4560:0.0000000000000000e+000
4561:0.0000000000000000e+000
4562:0.0000000000000000e+000
4563:0.0000000000000000e+000
4564:0.0000000000000000e+000
4565:0.0000000000000000e+000
4566:0.0000000000000000e+000
4567:0.0000000000000000e+000
4568:0.0000000000000000e+000
4569:0.0000000000000000e+000
4570:0.0000000000000000e+000
4571:0.0000000000000000e+000
4572:0.0000000000000000e+000
4573:0.0000000000000000e+000
4574:0.0000000000000000e+000
4575:0.0000000000000000e+000
4576:0.0000000000000000e+000
4577:0.0000000000000000e+000
4578:0.0000000000000000e+000
4579:0.0000000000000000e+000
4580:0.0000000000000000e+000
4581:0.0000000000000000e+000
4582:0.0000000000000000e+000
4583:0.0000000000000000e+000
4584:0.0000000000000000e+000
4585:0.0000000000000000e+000
4586:0.0000000000000000e+000
4587:0.0000000000000000e+000
4588:0.0000000000000000e+000
4589:0.0000000000000000e+000
4590:0.0000000000000000e+000
4591:0.0000000000000000e+000
4592:0.0000000000000000e+000
4593:0.0000000000000000e+000
4594:0.0000000000000000e+000
4595:0.0000000000000000e+000
4596:0.0000000000000000e+000
4597:0.0000000000000000e+000
4598:0.0000000000000000e+000
4599:0.0000000000000000e+000
4600:0.0000000000000000e+000
4601:0.0000000000000000e+000
4602:0.0000000000000000e+000
4603:0.0000000000000000e+000
4604:0.0000000000000000e+000
4605:0.0000000000000000e+000
4606:0.0000000000000000e+000
4607:0.0000000000000000e+000
4608:0.0000000000000000e+000
4609:0.0000000000000000e+000
4610:0.0000000000000000e+000
4611:0.0000000000000000e+000
4612:0.0000000000000000e+000
4613:0.0000000000000000e+000
4614:0.0000000000000000e+000
4615:0.0000000000000000e+000
4616:0.0000000000000000e+000
4617:0.0000000000000000e+000
4618:0.0000000000000000e+000
4619:0.0000000000000000e+000
4620:0.0000000000000000e+000
4621:0.0000000000000000e+000
4622:0.0000000000000000e+000
4623:0.0000000000000000e+000
4624:0.0000000000000000e+000
4625:0.0000000000000000e+000
4626:0.0000000000000000e+000
4627:0.0000000000000000e+000
4628:0.0000000000000000e+000
4629:0.0000000000000000e+000
4630:0.0000000000000000e+000
4631:0.0000000000000000e+000
4632:0.0000000000000000e+000
4633:0.0000000000000000e+000
4634:0.0000000000000000e+000
4635:0.0000000000000000e+000
4636:0.0000000000000000e+000
4637:0.0000000000000000e+000
4638:0.0000000000000000e+000
4639:0.0000000000000000e+000
4640:0.0000000000000000e+000
4641:0.0000000000000000e+000
4642:0.0000000000000000e+000
4643:0.0000000000000000e+000
4644:0.0000000000000000e+000
4645:0.0000000000000000e+000
4646:0.0000000000000000e+000
4647:0.0000000000000000e+000
4648:0.0000000000000000e+000
4649:0.0000000000000000e+000
4650:0.0000000000000000e+000
4651:0.0000000000000000e+000
4652:0.0000000000000000e+000
4653:0.0000000000000000e+000
4654:0.0000000000000000e+000
4655:0.0000000000000000e+000
4656:0.0000000000000000e+000
4657:0.0000000000000000e+000
4658:0.0000000000000000e+000
4659:0.0000000000000000e+000
4660:0.0000000000000000e+000
4661:0.0000000000000000e+000
4662:0.0000000000000000e+000
4663:0.0000000000000000e+000
4664:0.0000000000000000e+000
4665:0.0000000000000000e+000
4666:0.0000000000000000e+000
4667:0.0000000000000000e+000
4668:0.0000000000000000e+000
4669:0.0000000000000000e+000
4670:0.0000000000000000e+000
4671:0.0000000000000000e+000
4672:0.0000000000000000e+000
4673:0.0000000000000000e+000
4674:0.0000000000000000e+000
4675:0.0000000000000000e+000
4676:0.0000000000000000e+000
4677:0.0000000000000000e+000
4678:0.0000000000000000e+000
4679:0.0000000000000000e+000
4680:0.0000000000000000e+000
4681:0.0000000000000000e+000
4682:0.0000000000000000e+000
4683:0.0000000000000000e+000
4684:0.0000000000000000e+000
4685:0.0000000000000000e+000
4686:0.0000000000000000e+000
4687:0.0000000000000000e+000
4688:0.0000000000000000e+000
4689:0.0000000000000000e+000
4690:0.0000000000000000e+000
4691:0.0000000000000000e+000
4692:0.0000000000000000e+000
4693:0.0000000000000000e+000
4694:0.0000000000000000e+000
4695:0.0000000000000000e+000
4696:0.0000000000000000e+000
4697:0.0000000000000000e+000
4698:0.0000000000000000e+000
4699:0.0000000000000000e+000
4700:0.0000000000000000e+000
4701:0.0000000000000000e+000
4702:0.0000000000000000e+000
4703:0.0000000000000000e+000
4704:0.0000000000000000e+000
4705:0.0000000000000000e+000
4706:0.0000000000000000e+000
4707:0.0000000000000000e+000
4708:0.0000000000000000e+000
4709:0.0000000000000000e+000
4710:0.0000000000000000e+000
4711:0.0000000000000000e+000
4712:0.0000000000000000e+000
4713:0.0000000000000000e+000
4714:0.0000000000000000e+000
4715:0.0000000000000000e+000
4716:0.0000000000000000e+000
4717:0.0000000000000000e+000
4718:0.0000000000000000e+000
4719:0.0000000000000000e+000
4720:0.0000000000000000e+000
4721:0.0000000000000000e+000
4722:0.0000000000000000e+000
4723:0.0000000000000000e+000
4724:0.0000000000000000e+000
4725:0.0000000000000000e+000
4726:0.0000000000000000e+000
4727:0.0000000000000000e+000
4728:0.0000000000000000e+000
4729:0.0000000000000000e+000
4730:0.0000000000000000e+000
4731:0.0000000000000000e+000
4732:0.0000000000000000e+000
4733:0.0000000000000000e+000
4734:0.0000000000000000e+000
4735:0.0000000000000000e+000
4736:0.0000000000000000e+000
4737:0.0000000000000000e+000
4738:0.0000000000000000e+000
4739:0.0000000000000000e+000
4740:0.0000000000000000e+000
4741:0.0000000000000000e+000
4742:0.0000000000000000e+000
4743:0.0000000000000000e+000
4744:0.0000000000000000e+000
4745:0.0000000000000000e+000
4746:0.0000000000000000e+000
4747:0.0000000000000000e+000
4748:0.0000000000000000e+000
4749:0.0000000000000000e+000
4750:0.0000000000000000e+000
4751:0.0000000000000000e+000
4752:0.0000000000000000e+000
4753:0.0000000000000000e+000
4754:0.0000000000000000e+000
4755:0.0000000000000000e+000
4756:0.0000000000000000e+000
4757:0.0000000000000000e+000
4758:0.0000000000000000e+000
4759:0.0000000000000000e+000
4760:0.0000000000000000e+000
4761:0.0000000000000000e+000
4762:0.0000000000000000e+000
4763:0.0000000000000000e+000
4764:0.0000000000000000e+000
4765:0.0000000000000000e+000
4766:0.0000000000000000e+000
4767:0.0000000000000000e+000
4768:0.0000000000000000e+000
4769:0.0000000000000000e+000
4770:0.0000000000000000e+000
4771:0.0000000000000000e+000
4772:0.0000000000000000e+000
4773:0.0000000000000000e+000
4774:0.0000000000000000e+000
4775:0.0000000000000000e+000
4776:0.0000000000000000e+000
4777:0.0000000000000000e+000
4778:0.0000000000000000e+000
4779:0.0000000000000000e+000
4780:0.0000000000000000e+000
4781:0.0000000000000000e+000
4782:0.0000000000000000e+000
4783:0.0000000000000000e+000
4784:0.0000000000000000e+000
4785:0.0000000000000000e+000
4786:0.0000000000000000e+000
4787:0.0000000000000000e+000
4788:0.0000000000000000e+000
4789:0.0000000000000000e+000
4790:0.0000000000000000e+000
4791:0.0000000000000000e+000
4792:0.0000000000000000e+000
4793:0.0000000000000000e+000
4794:0.0000000000000000e+000
4795:0.0000000000000000e+000
4796:0.0000000000000000e+000
4797:0.0000000000000000e+000
4798:0.0000000000000000e+000
4799:0.0000000000000000e+000
4800:0.0000000000000000e+000
4801:0.0000000000000000e+000
4802:0.0000000000000000e+000
4803:0.0000000000000000e+000
4804:0.0000000000000000e+000
4805:0.0000000000000000e+000
4806:0.0000000000000000e+000
4807:0.0000000000000000e+000
4808:0.0000000000000000e+000
4809:0.0000000000000000e+000
4810:0.0000000000000000e+000
4811:0.0000000000000000e+000
4812:0.0000000000000000e+000
4813:0.0000000000000000e+000
4814:0.0000000000000000e+000
4815:0.0000000000000000e+000
4816:0.0000000000000000e+000
4817:0.0000000000000000e+000
4818:0.0000000000000000e+000
4819:0.0000000000000000e+000
4820:0.0000000000000000e+000
4821:0.0000000000000000e+000
4822:0.0000000000000000e+000
4823:0.0000000000000000e+000
4824:0.0000000000000000e+000
4825:0.0000000000000000e+000
4826:0.0000000000000000e+000
4827:0.0000000000000000e+000
4828:0.0000000000000000e+000
4829:0.0000000000000000e+000
4830:0.0000000000000000e+000
4831:0.0000000000000000e+000
4832:0.0000000000000000e+000
4833:0.0000000000000000e+000
4834:0.0000000000000000e+000
4835:0.0000000000000000e+000
4836:0.0000000000000000e+000
4837:0.0000000000000000e+000
4838:0.0000000000000000e+000
4839:0.0000000000000000e+000
4840:0.0000000000000000e+000
4841:0.0000000000000000e+000
4842:0.0000000000000000e+000
4843:0.0000000000000000e+000
4844:0.0000000000000000e+000
4845:0.0000000000000000e+000
4846:0.0000000000000000e+000
4847:0.0000000000000000e+000
4848:0.0000000000000000e+000
4849:0.0000000000000000e+000
4850:0.0000000000000000e+000
4851:0.0000000000000000e+000
4852:0.0000000000000000e+000
4853:0.0000000000000000e+000
4854:0.0000000000000000e+000
4855:0.0000000000000000e+000
4856:0.0000000000000000e+000
4857:0.0000000000000000e+000
4858:0.0000000000000000e+000
4859:0.0000000000000000e+000
4860:0.0000000000000000e+000
4861:0.0000000000000000e+000
4862:0.0000000000000000e+000
4863:0.0000000000000000e+000
4864:0.0000000000000000e+000
4865:0.0000000000000000e+000
4866:0.0000000000000000e+000
4867:0.0000000000000000e+000
4868:0.0000000000000000e+000
4869:0.0000000000000000e+000
4870:0.0000000000000000e+000
4871:0.0000000000000000e+000
4872:0.0000000000000000e+000
4873:0.0000000000000000e+000
4874:0.0000000000000000e+000
4875:0.0000000000000000e+000
4876:0.0000000000000000e+000
4877:0.0000000000000000e+000
4878:0.0000000000000000e+000
4879:0.0000000000000000e+000
4880:0.0000000000000000e+000
4881:0.0000000000000000e+000
4882:0.0000000000000000e+000
4883:0.0000000000000000e+000
4884:0.0000000000000000e+000
4885:0.0000000000000000e+000
4886:0.0000000000000000e+000
4887:0.0000000000000000e+000
4888:0.0000000000000000e+000
4889:0.0000000000000000e+000
4890:0.0000000000000000e+000
4891:0.0000000000000000e+000
4892:0.0000000000000000e+000
4893:0.0000000000000000e+000
4894:0.0000000000000000e+000
4895:0.0000000000000000e+000
4896:0.0000000000000000e+000
4897:0.0000000000000000e+000
4898:0.0000000000000000e+000
4899:0.0000000000000000e+000
4900:0.0000000000000000e+000
4901:0.0000000000000000e+000
4902:0.0000000000000000e+000
4903:0.0000000000000000e+000
4904:0.0000000000000000e+000
4905:0.0000000000000000e+000
4906:0.0000000000000000e+000
4907:0.0000000000000000e+000
4908:0.0000000000000000e+000
4909:0.0000000000000000e+000
4910:0.0000000000000000e+000
4911:0.0000000000000000e+000
4912:0.0000000000000000e+000
4913:0.0000000000000000e+000
4914:0.0000000000000000e+000
4915:0.0000000000000000e+000
4916:0.0000000000000000e+000
4917:0.0000000000000000e+000
4918:0.0000000000000000e+000
4919:0.0000000000000000e+000
4920:0.0000000000000000e+000
4921:0.0000000000000000e+000
4922:0.0000000000000000e+000
4923:0.0000000000000000e+000
4924:0.0000000000000000e+000
4925:0.0000000000000000e+000
4926:0.0000000000000000e+000
4927:0.0000000000000000e+000
4928:0.0000000000000000e+000
4929:0.0000000000000000e+000
4930:0.0000000000000000e+000
4931:0.0000000000000000e+000
4932:0.0000000000000000e+000
4933:0.0000000000000000e+000
4934:0.0000000000000000e+000
4935:0.0000000000000000e+000
4936:0.0000000000000000e+000
4937:0.0000000000000000e+000
4938:0.0000000000000000e+000
4939:0.0000000000000000e+000
4940:0.0000000000000000e+000
4941:0.0000000000000000e+000
4942:0.0000000000000000e+000
4943:0.0000000000000000e+000
4944:0.0000000000000000e+000
4945:0.0000000000000000e+000
4946:0.0000000000000000e+000
4947:0.0000000000000000e+000
4948:0.0000000000000000e+000
4949:0.0000000000000000e+000
4950:0.0000000000000000e+000
4951:0.0000000000000000e+000
4952:0.0000000000000000e+000
4953:0.0000000000000000e+000
4954:0.0000000000000000e+000
4955:0.0000000000000000e+000
4956:0.0000000000000000e+000
4957:0.0000000000000000e+000
4958:0.0000000000000000e+000
4959:0.0000000000000000e+000
4960:0.0000000000000000e+000
4961:0.0000000000000000e+000
4962:0.0000000000000000e+000
4963:0.0000000000000000e+000
4964:0.0000000000000000e+000
4965:0.0000000000000000e+000
4966:0.0000000000000000e+000
4967:0.0000000000000000e+000
4968:0.0000000000000000e+000
4969:0.0000000000000000e+000
4970:0.0000000000000000e+000
4971:0.0000000000000000e+000
4972:0.0000000000000000e+000
4973:0.0000000000000000e+000
4974:0.0000000000000000e+000
4975:0.0000000000000000e+000
4976:0.0000000000000000e+000
4977:0.0000000000000000e+000
4978:0.0000000000000000e+000
4979:0.0000000000000000e+000
4980:0.0000000000000000e+000
4981:0.0000000000000000e+000
4982:0.0000000000000000e+000
4983:0.0000000000000000e+000
4984:0.0000000000000000e+000
4985:0.0000000000000000e+000
4986:0.0000000000000000e+000
4987:0.0000000000000000e+000
4988:0.0000000000000000e+000
4989:0.0000000000000000e+000
4990:0.0000000000000000e+000
4991:0.0000000000000000e+000
4992:0.0000000000000000e+000
4993:0.0000000000000000e+000
4994:0.0000000000000000e+000
4995:0.0000000000000000e+000
4996:0.0000000000000000e+000
4997:0.0000000000000000e+000
4998:0.0000000000000000e+000
4999:0.0000000000000000e+000
5000:0.0000000000000000e+000
5001:0.0000000000000000e+000
5002:0.0000000000000000e+000
5003:0.0000000000000000e+000
5004:0.0000000000000000e+000
5005:0.0000000000000000e+000
5006:0.0000000000000000e+000
5007:0.0000000000000000e+000
5008:0.0000000000000000e+000
5009:0.0000000000000000e+000
5010:0.0000000000000000e+000
5011:0.0000000000000000e+000
5012:0.0000000000000000e+000
5013:0.0000000000000000e+000
5014:0.0000000000000000e+000
5015:0.0000000000000000e+000
5016:0.0000000000000000e+000
5017:0.0000000000000000e+000
5018:0.0000000000000000e+000
5019:0.0000000000000000e+000
5020:0.0000000000000000e+000
5021:0.0000000000000000e+000
5022:0.0000000000000000e+000
5023:0.0000000000000000e+000
5024:0.0000000000000000e+000
5025:0.0000000000000000e+000
5026:0.0000000000000000e+000
5027:0.0000000000000000e+000
5028:0.0000000000000000e+000
5029:0.0000000000000000e+000
5030:0.0000000000000000e+000
5031:0.0000000000000000e+000
5032:0.0000000000000000e+000
5033:0.0000000000000000e+000
5034:0.0000000000000000e+000
5035:0.0000000000000000e+000
5036:0.0000000000000000e+000
5037:0.0000000000000000e+000
5038:0.0000000000000000e+000
5039:0.0000000000000000e+000
5040:0.0000000000000000e+000
5041:0.0000000000000000e+000
5042:0.0000000000000000e+000
5043:0.0000000000000000e+000
5044:0.0000000000000000e+000
5045:0.0000000000000000e+000
5046:0.0000000000000000e+000
5047:0.0000000000000000e+000
5048:0.0000000000000000e+000
5049:0.0000000000000000e+000
5050:0.0000000000000000e+000
5051:0.0000000000000000e+000
5052:0.0000000000000000e+000
5053:0.0000000000000000e+000
5054:0.0000000000000000e+000
5055:0.0000000000000000e+000
5056:0.0000000000000000e+000
5057:0.0000000000000000e+000
5058:0.0000000000000000e+000
5059:0.0000000000000000e+000
5060:0.0000000000000000e+000
5061:0.0000000000000000e+000
5062:0.0000000000000000e+000
5063:0.0000000000000000e+000
5064:0.0000000000000000e+000
5065:0.0000000000000000e+000
5066:0.0000000000000000e+000
5067:0.0000000000000000e+000
5068:0.0000000000000000e+000
5069:0.0000000000000000e+000
5070:0.0000000000000000e+000
5071:0.0000000000000000e+000
5072:0.0000000000000000e+000
5073:0.0000000000000000e+000
5074:0.0000000000000000e+000
5075:0.0000000000000000e+000
5076:0.0000000000000000e+000
5077:0.0000000000000000e+000
5078:0.0000000000000000e+000
5079:0.0000000000000000e+000
5080:0.0000000000000000e+000
5081:0.0000000000000000e+000
5082:0.0000000000000000e+000
5083:0.0000000000000000e+000
5084:0.0000000000000000e+000
5085:0.0000000000000000e+000
5086:0.0000000000000000e+000
5087:0.0000000000000000e+000
5088:0.0000000000000000e+000
5089:0.0000000000000000e+000
5090:0.0000000000000000e+000
5091:0.0000000000000000e+000
5092:0.0000000000000000e+000
5093:0.0000000000000000e+000
5094:0.0000000000000000e+000
5095:0.0000000000000000e+000
5096:0.0000000000000000e+000
5097:0.0000000000000000e+000
5098:0.0000000000000000e+000
5099:0.0000000000000000e+000
5100:0.0000000000000000e+000
5101:0.0000000000000000e+000
5102:0.0000000000000000e+000
5103:0.0000000000000000e+000
5104:0.0000000000000000e+000
5105:0.0000000000000000e+000
5106:0.0000000000000000e+000
5107:0.0000000000000000e+000
5108:0.0000000000000000e+000
5109:0.0000000000000000e+000
5110:0.0000000000000000e+000
5111:0.0000000000000000e+000
5112:0.0000000000000000e+000
5113:0.0000000000000000e+000
5114:0.0000000000000000e+000
5115:0.0000000000000000e+000
5116:0.0000000000000000e+000
5117:0.0000000000000000e+000
5118:0.0000000000000000e+000
5119:0.0000000000000000e+000
5120:0.0000000000000000e+000
5121:0.0000000000000000e+000
5122:0.0000000000000000e+000
5123:0.0000000000000000e+000
5124:0.0000000000000000e+000
5125:0.0000000000000000e+000
5126:0.0000000000000000e+000
5127:0.0000000000000000e+000
5128:0.0000000000000000e+000
5129:0.0000000000000000e+000
5130:0.0000000000000000e+000
5131:0.0000000000000000e+000
5132:0.0000000000000000e+000
5133:0.0000000000000000e+000
5134:0.0000000000000000e+000
5135:0.0000000000000000e+000
5136:0.0000000000000000e+000
5137:0.0000000000000000e+000
5138:0.0000000000000000e+000
5139:0.0000000000000000e+000
5140:0.0000000000000000e+000
5141:0.0000000000000000e+000
5142:0.0000000000000000e+000
5143:0.0000000000000000e+000
5144:0.0000000000000000e+000
5145:0.0000000000000000e+000
5146:0.0000000000000000e+000
5147:0.0000000000000000e+000
5148:0.0000000000000000e+000
5149:0.0000000000000000e+000
5150:0.0000000000000000e+000
5151:0.0000000000000000e+000
5152:0.0000000000000000e+000
5153:0.0000000000000000e+000
5154:0.0000000000000000e+000
5155:0.0000000000000000e+000
5156:0.0000000000000000e+000
5157:0.0000000000000000e+000
5158:0.0000000000000000e+000
5159:0.0000000000000000e+000
5160:0.0000000000000000e+000
5161:0.0000000000000000e+000
5162:0.0000000000000000e+000
5163:0.0000000000000000e+000
5164:0.0000000000000000e+000
5165:0.0000000000000000e+000
5166:0.0000000000000000e+000
5167:0.0000000000000000e+000
5168:0.0000000000000000e+000
5169:0.0000000000000000e+000
5170:0.0000000000000000e+000
5171:0.0000000000000000e+000
5172:0.0000000000000000e+000
5173:0.0000000000000000e+000
5174:0.0000000000000000e+000
5175:0.0000000000000000e+000
5176:0.0000000000000000e+000
5177:0.0000000000000000e+000
5178:0.0000000000000000e+000
5179:0.0000000000000000e+000
5180:0.0000000000000000e+000
5181:0.0000000000000000e+000
5182:0.0000000000000000e+000
5183:0.0000000000000000e+000
5184:0.0000000000000000e+000
5185:0.0000000000000000e+000
5186:0.0000000000000000e+000
5187:0.0000000000000000e+000
5188:0.0000000000000000e+000
5189:0.0000000000000000e+000
5190:0.0000000000000000e+000
5191:0.0000000000000000e+000
5192:0.0000000000000000e+000
5193:0.0000000000000000e+000
5194:0.0000000000000000e+000
5195:0.0000000000000000e+000
5196:0.0000000000000000e+000
5197:0.0000000000000000e+000
5198:0.0000000000000000e+000
5199:0.0000000000000000e+000
5200:0.0000000000000000e+000
5201:0.0000000000000000e+000
5202:0.0000000000000000e+000
5203:0.0000000000000000e+000
5204:0.0000000000000000e+000
5205:0.0000000000000000e+000
5206:0.0000000000000000e+000
5207:0.0000000000000000e+000
5208:0.0000000000000000e+000
5209:0.0000000000000000e+000
5210:0.0000000000000000e+000
5211:0.0000000000000000e+000
5212:0.0000000000000000e+000
5213:0.0000000000000000e+000
5214:0.0000000000000000e+000
5215:0.0000000000000000e+000
5216:0.0000000000000000e+000
5217:0.0000000000000000e+000
5218:0.0000000000000000e+000
5219:0.0000000000000000e+000
5220:0.0000000000000000e+000
5221:0.0000000000000000e+000
5222:0.0000000000000000e+000
5223:0.0000000000000000e+000
5224:0.0000000000000000e+000
5225:0.0000000000000000e+000
5226:0.0000000000000000e+000
5227:0.0000000000000000e+000
5228:0.0000000000000000e+000
5229:0.0000000000000000e+000
5230:0.0000000000000000e+000
5231:0.0000000000000000e+000
5232:0.0000000000000000e+000
5233:0.0000000000000000e+000
5234:0.0000000000000000e+000
5235:0.0000000000000000e+000
5236:0.0000000000000000e+000
5237:0.0000000000000000e+000
5238:0.0000000000000000e+000
5239:0.0000000000000000e+000
5240:0.0000000000000000e+000
5241:0.0000000000000000e+000
5242:0.0000000000000000e+000
5243:0.0000000000000000e+000
5244:0.0000000000000000e+000
5245:0.0000000000000000e+000
5246:0.0000000000000000e+000
5247:0.0000000000000000e+000
5248:0.0000000000000000e+000
5249:0.0000000000000000e+000
5250:0.0000000000000000e+000
5251:0.0000000000000000e+000
5252:0.0000000000000000e+000
5253:0.0000000000000000e+000
5254:0.0000000000000000e+000
5255:0.0000000000000000e+000
5256:0.0000000000000000e+000
5257:0.0000000000000000e+000
5258:0.0000000000000000e+000
5259:0.0000000000000000e+000
5260:0.0000000000000000e+000
5261:0.0000000000000000e+000
5262:0.0000000000000000e+000
5263:0.0000000000000000e+000
5264:0.0000000000000000e+000
5265:0.0000000000000000e+000
5266:0.0000000000000000e+000
5267:0.0000000000000000e+000
5268:0.0000000000000000e+000
5269:0.0000000000000000e+000
5270:0.0000000000000000e+000
5271:0.0000000000000000e+000
5272:0.0000000000000000e+000
5273:0.0000000000000000e+000
5274:0.0000000000000000e+000
5275:0.0000000000000000e+000
5276:0.0000000000000000e+000
5277:0.0000000000000000e+000
5278:0.0000000000000000e+000
5279:0.0000000000000000e+000
5280:0.0000000000000000e+000
5281:0.0000000000000000e+000
5282:0.0000000000000000e+000
5283:0.0000000000000000e+000
5284:0.0000000000000000e+000
5285:0.0000000000000000e+000
5286:0.0000000000000000e+000
5287:0.0000000000000000e+000
5288:0.0000000000000000e+000
5289:0.0000000000000000e+000
5290:0.0000000000000000e+000
5291:0.0000000000000000e+000
5292:0.0000000000000000e+000
5293:0.0000000000000000e+000
5294:0.0000000000000000e+000
5295:0.0000000000000000e+000
5296:0.0000000000000000e+000
5297:0.0000000000000000e+000
5298:0.0000000000000000e+000
5299:0.0000000000000000e+000
5300:0.0000000000000000e+000
5301:0.0000000000000000e+000
5302:0.0000000000000000e+000
5303:0.0000000000000000e+000
5304:0.0000000000000000e+000
5305:0.0000000000000000e+000
5306:0.0000000000000000e+000
5307:0.0000000000000000e+000
5308:0.0000000000000000e+000
5309:0.0000000000000000e+000
5310:0.0000000000000000e+000
5311:0.0000000000000000e+000
5312:0.0000000000000000e+000
5313:0.0000000000000000e+000
5314:0.0000000000000000e+000
5315:0.0000000000000000e+000
5316:0.0000000000000000e+000
5317:0.0000000000000000e+000
5318:0.0000000000000000e+000
5319:0.0000000000000000e+000
5320:0.0000000000000000e+000
5321:0.0000000000000000e+000
5322:0.0000000000000000e+000
5323:0.0000000000000000e+000
5324:0.0000000000000000e+000
5325:0.0000000000000000e+000
5326:0.0000000000000000e+000
5327:0.0000000000000000e+000
5328:0.0000000000000000e+000
5329:0.0000000000000000e+000
5330:0.0000000000000000e+000
5331:0.0000000000000000e+000
5332:0.0000000000000000e+000
5333:0.0000000000000000e+000
5334:0.0000000000000000e+000
5335:0.0000000000000000e+000
5336:0.0000000000000000e+000
5337:0.0000000000000000e+000
5338:0.0000000000000000e+000
5339:0.0000000000000000e+000
5340:0.0000000000000000e+000
5341:0.0000000000000000e+000
5342:0.0000000000000000e+000
5343:0.0000000000000000e+000
5344:0.0000000000000000e+000
5345:0.0000000000000000e+000
5346:0.0000000000000000e+000
5347:0.0000000000000000e+000
5348:0.0000000000000000e+000
5349:0.0000000000000000e+000
5350:0.0000000000000000e+000
5351:0.0000000000000000e+000
5352:0.0000000000000000e+000
5353:0.0000000000000000e+000
5354:0.0000000000000000e+000
5355:0.0000000000000000e+000
5356:0.0000000000000000e+000
5357:0.0000000000000000e+000
5358:0.0000000000000000e+000
5359:0.0000000000000000e+000
5360:0.0000000000000000e+000
5361:0.0000000000000000e+000
5362:0.0000000000000000e+000
5363:0.0000000000000000e+000
5364:0.0000000000000000e+000
5365:0.0000000000000000e+000
5366:0.0000000000000000e+000
5367:0.0000000000000000e+000
5368:0.0000000000000000e+000
5369:0.0000000000000000e+000
5370:0.0000000000000000e+000
5371:0.0000000000000000e+000
5372:0.0000000000000000e+000
5373:0.0000000000000000e+000
5374:0.0000000000000000e+000
5375:0.0000000000000000e+000
5376:0.0000000000000000e+000
5377:0.0000000000000000e+000
5378:0.0000000000000000e+000
5379:0.0000000000000000e+000
5380:0.0000000000000000e+000
5381:0.0000000000000000e+000
5382:0.0000000000000000e+000
5383:0.0000000000000000e+000
5384:0.0000000000000000e+000
5385:0.0000000000000000e+000
5386:0.0000000000000000e+000
5387:0.0000000000000000e+000
5388:0.0000000000000000e+000
5389:0.0000000000000000e+000
5390:0.0000000000000000e+000
5391:0.0000000000000000e+000
5392:0.0000000000000000e+000
5393:0.0000000000000000e+000
5394:0.0000000000000000e+000
5395:0.0000000000000000e+000
5396:0.0000000000000000e+000
5397:0.0000000000000000e+000
5398:0.0000000000000000e+000
5399:0.0000000000000000e+000
5400:0.0000000000000000e+000
5401:0.0000000000000000e+000
5402:0.0000000000000000e+000
5403:0.0000000000000000e+000
5404:0.0000000000000000e+000
5405:0.0000000000000000e+000
5406:0.0000000000000000e+000
5407:0.0000000000000000e+000
5408:0.0000000000000000e+000
5409:0.0000000000000000e+000
5410:0.0000000000000000e+000
5411:0.0000000000000000e+000
5412:0.0000000000000000e+000
5413:0.0000000000000000e+000
5414:0.0000000000000000e+000
5415:0.0000000000000000e+000
5416:0.0000000000000000e+000
5417:0.0000000000000000e+000
5418:0.0000000000000000e+000
5419:0.0000000000000000e+000
5420:0.0000000000000000e+000
5421:0.0000000000000000e+000
5422:0.0000000000000000e+000
5423:0.0000000000000000e+000
5424:0.0000000000000000e+000
5425:0.0000000000000000e+000
5426:0.0000000000000000e+000
5427:0.0000000000000000e+000
5428:0.0000000000000000e+000
5429:0.0000000000000000e+000
5430:0.0000000000000000e+000
5431:0.0000000000000000e+000
5432:0.0000000000000000e+000
5433:0.0000000000000000e+000
5434:0.0000000000000000e+000
5435:0.0000000000000000e+000
5436:0.0000000000000000e+000
5437:0.0000000000000000e+000
5438:0.0000000000000000e+000
5439:0.0000000000000000e+000
5440:0.0000000000000000e+000
5441:0.0000000000000000e+000
5442:0.0000000000000000e+000
5443:0.0000000000000000e+000
5444:0.0000000000000000e+000
5445:0.0000000000000000e+000
5446:0.0000000000000000e+000
5447:0.0000000000000000e+000
5448:0.0000000000000000e+000
5449:0.0000000000000000e+000
5450:0.0000000000000000e+000
5451:0.0000000000000000e+000
5452:0.0000000000000000e+000
5453:0.0000000000000000e+000
5454:0.0000000000000000e+000
5455:0.0000000000000000e+000
5456:0.0000000000000000e+000
5457:0.0000000000000000e+000
5458:0.0000000000000000e+000
5459:0.0000000000000000e+000
5460:0.0000000000000000e+000
5461:0.0000000000000000e+000
5462:0.0000000000000000e+000
5463:0.0000000000000000e+000
5464:0.0000000000000000e+000
5465:0.0000000000000000e+000
5466:0.0000000000000000e+000
5467:0.0000000000000000e+000
5468:0.0000000000000000e+000
5469:0.0000000000000000e+000
5470:0.0000000000000000e+000
5471:0.0000000000000000e+000
5472:0.0000000000000000e+000
5473:0.0000000000000000e+000
5474:0.0000000000000000e+000
5475:0.0000000000000000e+000
5476:0.0000000000000000e+000
5477:0.0000000000000000e+000
5478:0.0000000000000000e+000
5479:0.0000000000000000e+000
5480:0.0000000000000000e+000
5481:0.0000000000000000e+000
5482:0.0000000000000000e+000
5483:0.0000000000000000e+000
5484:0.0000000000000000e+000
5485:0.0000000000000000e+000
5486:0.0000000000000000e+000
5487:0.0000000000000000e+000
5488:0.0000000000000000e+000
5489:0.0000000000000000e+000
5490:0.0000000000000000e+000
5491:0.0000000000000000e+000
5492:0.0000000000000000e+000
5493:0.0000000000000000e+000
5494:0.0000000000000000e+000
5495:0.0000000000000000e+000
5496:0.0000000000000000e+000
5497:0.0000000000000000e+000
5498:0.0000000000000000e+000
5499:0.0000000000000000e+000
5500:0.0000000000000000e+000
5501:0.0000000000000000e+000
5502:0.0000000000000000e+000
5503:0.0000000000000000e+000
5504:0.0000000000000000e+000
5505:0.0000000000000000e+000
5506:0.0000000000000000e+000
5507:0.0000000000000000e+000
5508:0.0000000000000000e+000
5509:0.0000000000000000e+000
5510:0.0000000000000000e+000
5511:0.0000000000000000e+000
5512:0.0000000000000000e+000
5513:0.0000000000000000e+000
5514:0.0000000000000000e+000
5515:0.0000000000000000e+000
5516:0.0000000000000000e+000
5517:0.0000000000000000e+000
5518:0.0000000000000000e+000
5519:0.0000000000000000e+000
5520:0.0000000000000000e+000
5521:0.0000000000000000e+000
5522:0.0000000000000000e+000
5523:0.0000000000000000e+000
5524:0.0000000000000000e+000
5525:0.0000000000000000e+000
5526:0.0000000000000000e+000
5527:0.0000000000000000e+000
5528:0.0000000000000000e+000
5529:0.0000000000000000e+000
5530:0.0000000000000000e+000
5531:0.0000000000000000e+000
5532:0.0000000000000000e+000
5533:0.0000000000000000e+000
5534:0.0000000000000000e+000
5535:0.0000000000000000e+000
5536:0.0000000000000000e+000
5537:0.0000000000000000e+000
5538:0.0000000000000000e+000
5539:0.0000000000000000e+000
5540:0.0000000000000000e+000
5541:0.0000000000000000e+000
5542:0.0000000000000000e+000
5543:0.0000000000000000e+000
5544:0.0000000000000000e+000
5545:0.0000000000000000e+000
5546:0.0000000000000000e+000
5547:0.0000000000000000e+000
5548:0.0000000000000000e+000
5549:0.0000000000000000e+000
5550:0.0000000000000000e+000
5551:0.0000000000000000e+000
5552:0.0000000000000000e+000
5553:0.0000000000000000e+000
5554:0.0000000000000000e+000
5555:0.0000000000000000e+000
5556:0.0000000000000000e+000
5557:0.0000000000000000e+000
5558:0.0000000000000000e+000
5559:0.0000000000000000e+000
5560:0.0000000000000000e+000
5561:0.0000000000000000e+000
5562:0.0000000000000000e+000
5563:0.0000000000000000e+000
5564:0.0000000000000000e+000
5565:0.0000000000000000e+000
5566:0.0000000000000000e+000
5567:0.0000000000000000e+000
5568:0.0000000000000000e+000
5569:0.0000000000000000e+000
5570:0.0000000000000000e+000
5571:0.0000000000000000e+000
5572:0.0000000000000000e+000
5573:0.0000000000000000e+000
5574:0.0000000000000000e+000
5575:0.0000000000000000e+000
5576:0.0000000000000000e+000
5577:0.0000000000000000e+000
5578:0.0000000000000000e+000
5579:0.0000000000000000e+000
5580:0.0000000000000000e+000
5581:0.0000000000000000e+000
5582:0.0000000000000000e+000
5583:0.0000000000000000e+000
5584:0.0000000000000000e+000
5585:0.0000000000000000e+000
5586:0.0000000000000000e+000
5587:0.0000000000000000e+000
5588:0.0000000000000000e+000
5589:0.0000000000000000e+000
5590:0.0000000000000000e+000
5591:0.0000000000000000e+000
5592:0.0000000000000000e+000
5593:0.0000000000000000e+000
5594:0.0000000000000000e+000
5595:0.0000000000000000e+000
5596:0.0000000000000000e+000
5597:0.0000000000000000e+000
5598:0.0000000000000000e+000
5599:0.0000000000000000e+000
5600:0.0000000000000000e+000
5601:0.0000000000000000e+000
5602:0.0000000000000000e+000
5603:0.0000000000000000e+000
5604:0.0000000000000000e+000
5605:0.0000000000000000e+000
5606:0.0000000000000000e+000
5607:0.0000000000000000e+000
5608:0.0000000000000000e+000
5609:0.0000000000000000e+000
5610:0.0000000000000000e+000
5611:0.0000000000000000e+000
5612:0.0000000000000000e+000
5613:0.0000000000000000e+000
5614:0.0000000000000000e+000
5615:0.0000000000000000e+000
5616:0.0000000000000000e+000
5617:0.0000000000000000e+000
5618:0.0000000000000000e+000
5619:0.0000000000000000e+000
5620:0.0000000000000000e+000
5621:0.0000000000000000e+000
5622:0.0000000000000000e+000
5623:0.0000000000000000e+000
5624:0.0000000000000000e+000
5625:0.0000000000000000e+000
5626:0.0000000000000000e+000
5627:0.0000000000000000e+000
5628:0.0000000000000000e+000
5629:0.0000000000000000e+000
5630:0.0000000000000000e+000
5631:0.0000000000000000e+000
5632:0.0000000000000000e+000
5633:0.0000000000000000e+000
5634:0.0000000000000000e+000
5635:0.0000000000000000e+000
5636:0.0000000000000000e+000
5637:0.0000000000000000e+000
5638:0.0000000000000000e+000
5639:0.0000000000000000e+000
5640:0.0000000000000000e+000
5641:0.0000000000000000e+000
5642:0.0000000000000000e+000
5643:0.0000000000000000e+000
5644:0.0000000000000000e+000
5645:0.0000000000000000e+000
5646:0.0000000000000000e+000
5647:0.0000000000000000e+000
5648:0.0000000000000000e+000
5649:0.0000000000000000e+000
5650:0.0000000000000000e+000
5651:0.0000000000000000e+000
5652:0.0000000000000000e+000
5653:0.0000000000000000e+000
5654:0.0000000000000000e+000
5655:0.0000000000000000e+000
5656:0.0000000000000000e+000
5657:0.0000000000000000e+000
5658:0.0000000000000000e+000
5659:0.0000000000000000e+000
5660:0.0000000000000000e+000
5661:0.0000000000000000e+000
5662:0.0000000000000000e+000
5663:0.0000000000000000e+000
5664:0.0000000000000000e+000
5665:0.0000000000000000e+000
5666:0.0000000000000000e+000
5667:0.0000000000000000e+000
5668:0.0000000000000000e+000
5669:0.0000000000000000e+000
5670:0.0000000000000000e+000
5671:0.0000000000000000e+000
5672:0.0000000000000000e+000
5673:0.0000000000000000e+000
5674:0.0000000000000000e+000
5675:0.0000000000000000e+000
5676:0.0000000000000000e+000
5677:0.0000000000000000e+000
5678:0.0000000000000000e+000
5679:0.0000000000000000e+000
5680:0.0000000000000000e+000
5681:0.0000000000000000e+000
5682:0.0000000000000000e+000
5683:0.0000000000000000e+000
5684:0.0000000000000000e+000
5685:0.0000000000000000e+000
5686:0.0000000000000000e+000
5687:0.0000000000000000e+000
5688:0.0000000000000000e+000
5689:0.0000000000000000e+000
5690:0.0000000000000000e+000
5691:0.0000000000000000e+000
5692:0.0000000000000000e+000
5693:0.0000000000000000e+000
5694:0.0000000000000000e+000
5695:0.0000000000000000e+000
5696:0.0000000000000000e+000
5697:0.0000000000000000e+000
5698:0.0000000000000000e+000
5699:0.0000000000000000e+000
5700:0.0000000000000000e+000
5701:0.0000000000000000e+000
5702:0.0000000000000000e+000
5703:0.0000000000000000e+000
5704:0.0000000000000000e+000
5705:0.0000000000000000e+000
5706:0.0000000000000000e+000
5707:0.0000000000000000e+000
5708:0.0000000000000000e+000
5709:0.0000000000000000e+000
5710:0.0000000000000000e+000
5711:0.0000000000000000e+000
5712:0.0000000000000000e+000
5713:0.0000000000000000e+000
5714:0.0000000000000000e+000
5715:0.0000000000000000e+000
5716:0.0000000000000000e+000
5717:0.0000000000000000e+000
5718:0.0000000000000000e+000
5719:0.0000000000000000e+000
5720:0.0000000000000000e+000
5721:0.0000000000000000e+000
5722:0.0000000000000000e+000
5723:0.0000000000000000e+000
5724:0.0000000000000000e+000
5725:0.0000000000000000e+000
5726:0.0000000000000000e+000
5727:0.0000000000000000e+000
5728:0.0000000000000000e+000
5729:0.0000000000000000e+000
5730:0.0000000000000000e+000
5731:0.0000000000000000e+000
5732:0.0000000000000000e+000
5733:0.0000000000000000e+000
5734:0.0000000000000000e+000
5735:0.0000000000000000e+000
5736:0.0000000000000000e+000
5737:0.0000000000000000e+000
5738:0.0000000000000000e+000
5739:0.0000000000000000e+000
5740:0.0000000000000000e+000
5741:0.0000000000000000e+000
5742:0.0000000000000000e+000
5743:0.0000000000000000e+000
5744:0.0000000000000000e+000
5745:0.0000000000000000e+000
5746:0.0000000000000000e+000
5747:0.0000000000000000e+000
5748:0.0000000000000000e+000
5749:0.0000000000000000e+000
5750:0.0000000000000000e+000
5751:0.0000000000000000e+000
5752:0.0000000000000000e+000
5753:0.0000000000000000e+000
5754:0.0000000000000000e+000
5755:0.0000000000000000e+000
5756:0.0000000000000000e+000
5757:0.0000000000000000e+000
5758:0.0000000000000000e+000
5759:0.0000000000000000e+000
5760:0.0000000000000000e+000
5761:0.0000000000000000e+000
5762:0.0000000000000000e+000
5763:0.0000000000000000e+000
5764:0.0000000000000000e+000
5765:0.0000000000000000e+000
5766:0.0000000000000000e+000
5767:0.0000000000000000e+000
5768:0.0000000000000000e+000
5769:0.0000000000000000e+000
5770:0.0000000000000000e+000
5771:0.0000000000000000e+000
5772:0.0000000000000000e+000
5773:0.0000000000000000e+000
5774:0.0000000000000000e+000
5775:0.0000000000000000e+000
5776:0.0000000000000000e+000
5777:0.0000000000000000e+000
5778:0.0000000000000000e+000
5779:0.0000000000000000e+000
5780:0.0000000000000000e+000
5781:0.0000000000000000e+000
5782:0.0000000000000000e+000
5783:0.0000000000000000e+000
5784:0.0000000000000000e+000
5785:0.0000000000000000e+000
5786:0.0000000000000000e+000
5787:0.0000000000000000e+000
5788:0.0000000000000000e+000
5789:0.0000000000000000e+000
5790:0.0000000000000000e+000
5791:0.0000000000000000e+000
5792:0.0000000000000000e+000
5793:0.0000000000000000e+000
5794:0.0000000000000000e+000
5795:0.0000000000000000e+000
5796:0.0000000000000000e+000
5797:0.0000000000000000e+000
5798:0.0000000000000000e+000
5799:0.0000000000000000e+000
5800:0.0000000000000000e+000
5801:0.0000000000000000e+000
5802:0.0000000000000000e+000
5803:0.0000000000000000e+000
5804:0.0000000000000000e+000
5805:0.0000000000000000e+000
5806:0.0000000000000000e+000
5807:0.0000000000000000e+000
5808:0.0000000000000000e+000
5809:0.0000000000000000e+000
5810:0.0000000000000000e+000
5811:0.0000000000000000e+000
5812:0.0000000000000000e+000
5813:0.0000000000000000e+000
5814:0.0000000000000000e+000
5815:0.0000000000000000e+000
5816:0.0000000000000000e+000
5817:0.0000000000000000e+000
5818:0.0000000000000000e+000
5819:0.0000000000000000e+000
5820:0.0000000000000000e+000
5821:0.0000000000000000e+000
5822:0.0000000000000000e+000
5823:0.0000000000000000e+000
5824:0.0000000000000000e+000
5825:0.0000000000000000e+000
5826:0.0000000000000000e+000
5827:0.0000000000000000e+000
5828:0.0000000000000000e+000
5829:0.0000000000000000e+000
5830:0.0000000000000000e+000
5831:0.0000000000000000e+000
5832:0.0000000000000000e+000
5833:0.0000000000000000e+000
5834:0.0000000000000000e+000
5835:0.0000000000000000e+000
5836:0.0000000000000000e+000
5837:0.0000000000000000e+000
5838:0.0000000000000000e+000
5839:0.0000000000000000e+000
5840:0.0000000000000000e+000
5841:0.0000000000000000e+000
5842:0.0000000000000000e+000
5843:0.0000000000000000e+000
5844:0.0000000000000000e+000
5845:0.0000000000000000e+000
5846:0.0000000000000000e+000
5847:0.0000000000000000e+000
5848:0.0000000000000000e+000
5849:0.0000000000000000e+000
5850:0.0000000000000000e+000
5851:0.0000000000000000e+000
5852:0.0000000000000000e+000
5853:0.0000000000000000e+000
5854:0.0000000000000000e+000
5855:0.0000000000000000e+000
5856:0.0000000000000000e+000
5857:0.0000000000000000e+000
5858:0.0000000000000000e+000
5859:0.0000000000000000e+000
5860:0.0000000000000000e+000
5861:0.0000000000000000e+000
5862:0.0000000000000000e+000
5863:0.0000000000000000e+000
5864:0.0000000000000000e+000
5865:0.0000000000000000e+000
5866:0.0000000000000000e+000
5867:0.0000000000000000e+000
5868:0.0000000000000000e+000
5869:0.0000000000000000e+000
5870:0.0000000000000000e+000
5871:0.0000000000000000e+000
5872:0.0000000000000000e+000
5873:0.0000000000000000e+000
5874:0.0000000000000000e+000
5875:0.0000000000000000e+000
5876:0.0000000000000000e+000
5877:0.0000000000000000e+000
5878:0.0000000000000000e+000
5879:0.0000000000000000e+000
5880:0.0000000000000000e+000
5881:0.0000000000000000e+000
5882:0.0000000000000000e+000
5883:0.0000000000000000e+000
5884:0.0000000000000000e+000
5885:0.0000000000000000e+000
5886:0.0000000000000000e+000
5887:0.0000000000000000e+000
5888:0.0000000000000000e+000
5889:0.0000000000000000e+000
5890:0.0000000000000000e+000
5891:0.0000000000000000e+000
5892:0.0000000000000000e+000
5893:0.0000000000000000e+000
5894:0.0000000000000000e+000
5895:0.0000000000000000e+000
5896:0.0000000000000000e+000
5897:0.0000000000000000e+000
5898:0.0000000000000000e+000
5899:0.0000000000000000e+000
5900:0.0000000000000000e+000
5901:0.0000000000000000e+000
5902:0.0000000000000000e+000
5903:0.0000000000000000e+000
5904:0.0000000000000000e+000
5905:0.0000000000000000e+000
5906:0.0000000000000000e+000
5907:0.0000000000000000e+000
5908:0.0000000000000000e+000
5909:0.0000000000000000e+000
5910:0.0000000000000000e+000
5911:0.0000000000000000e+000
5912:0.0000000000000000e+000
5913:0.0000000000000000e+000
5914:0.0000000000000000e+000
5915:0.0000000000000000e+000
5916:0.0000000000000000e+000
5917:0.0000000000000000e+000
5918:0.0000000000000000e+000
5919:0.0000000000000000e+000
5920:0.0000000000000000e+000
5921:0.0000000000000000e+000
5922:0.0000000000000000e+000
5923:0.0000000000000000e+000
5924:0.0000000000000000e+000
5925:0.0000000000000000e+000
5926:0.0000000000000000e+000
5927:0.0000000000000000e+000
5928:0.0000000000000000e+000
5929:0.0000000000000000e+000
5930:0.0000000000000000e+000
5931:0.0000000000000000e+000
5932:0.0000000000000000e+000
5933:0.0000000000000000e+000
5934:0.0000000000000000e+000
5935:0.0000000000000000e+000
5936:0.0000000000000000e+000
5937:0.0000000000000000e+000
5938:0.0000000000000000e+000
5939:0.0000000000000000e+000
5940:0.0000000000000000e+000
5941:0.0000000000000000e+000
5942:0.0000000000000000e+000
5943:0.0000000000000000e+000
5944:0.0000000000000000e+000
5945:0.0000000000000000e+000
5946:0.0000000000000000e+000
5947:0.0000000000000000e+000
5948:0.0000000000000000e+000
5949:0.0000000000000000e+000
5950:0.0000000000000000e+000
5951:0.0000000000000000e+000
5952:0.0000000000000000e+000
5953:0.0000000000000000e+000
5954:0.0000000000000000e+000
5955:0.0000000000000000e+000
5956:0.0000000000000000e+000
5957:0.0000000000000000e+000
5958:0.0000000000000000e+000
5959:0.0000000000000000e+000
5960:0.0000000000000000e+000
5961:0.0000000000000000e+000
5962:0.0000000000000000e+000
5963:0.0000000000000000e+000
5964:0.0000000000000000e+000
5965:0.0000000000000000e+000
5966:0.0000000000000000e+000
5967:0.0000000000000000e+000
5968:0.0000000000000000e+000
5969:0.0000000000000000e+000
5970:0.0000000000000000e+000
5971:0.0000000000000000e+000
5972:0.0000000000000000e+000
5973:0.0000000000000000e+000
5974:0.0000000000000000e+000
5975:0.0000000000000000e+000
5976:0.0000000000000000e+000
5977:0.0000000000000000e+000
5978:0.0000000000000000e+000
5979:0.0000000000000000e+000
5980:0.0000000000000000e+000
5981:0.0000000000000000e+000
5982:0.0000000000000000e+000
5983:0.0000000000000000e+000
5984:0.0000000000000000e+000
5985:0.0000000000000000e+000
5986:0.0000000000000000e+000
5987:0.0000000000000000e+000
5988:0.0000000000000000e+000
5989:0.0000000000000000e+000
5990:0.0000000000000000e+000
5991:0.0000000000000000e+000
5992:0.0000000000000000e+000
5993:0.0000000000000000e+000
5994:0.0000000000000000e+000
5995:0.0000000000000000e+000
5996:0.0000000000000000e+000
5997:0.0000000000000000e+000
5998:0.0000000000000000e+000
5999:0.0000000000000000e+000
6000:0.0000000000000000e+000
6001:0.0000000000000000e+000
6002:0.0000000000000000e+000
6003:0.0000000000000000e+000
6004:0.0000000000000000e+000
6005:0.0000000000000000e+000
6006:0.0000000000000000e+000
6007:0.0000000000000000e+000
6008:0.0000000000000000e+000
6009:0.0000000000000000e+000
6010:0.0000000000000000e+000
6011:0.0000000000000000e+000
6012:0.0000000000000000e+000
6013:0.0000000000000000e+000
6014:0.0000000000000000e+000
6015:0.0000000000000000e+000
6016:0.0000000000000000e+000
6017:0.0000000000000000e+000
6018:0.0000000000000000e+000
6019:0.0000000000000000e+000
6020:0.0000000000000000e+000
6021:0.0000000000000000e+000
6022:0.0000000000000000e+000
6023:0.0000000000000000e+000
6024:0.0000000000000000e+000
6025:0.0000000000000000e+000
6026:0.0000000000000000e+000
6027:0.0000000000000000e+000
6028:0.0000000000000000e+000
6029:0.0000000000000000e+000
6030:0.0000000000000000e+000
6031:0.0000000000000000e+000
6032:0.0000000000000000e+000
6033:0.0000000000000000e+000
6034:0.0000000000000000e+000
6035:0.0000000000000000e+000
6036:0.0000000000000000e+000
6037:0.0000000000000000e+000
6038:0.0000000000000000e+000
6039:0.0000000000000000e+000
6040:0.0000000000000000e+000
6041:0.0000000000000000e+000
6042:0.0000000000000000e+000
6043:0.0000000000000000e+000
6044:0.0000000000000000e+000
6045:0.0000000000000000e+000
6046:0.0000000000000000e+000
6047:0.0000000000000000e+000
6048:0.0000000000000000e+000
6049:0.0000000000000000e+000
6050:0.0000000000000000e+000
6051:0.0000000000000000e+000
6052:0.0000000000000000e+000
6053:0.0000000000000000e+000
6054:0.0000000000000000e+000
6055:0.0000000000000000e+000
6056:0.0000000000000000e+000
6057:0.0000000000000000e+000
6058:0.0000000000000000e+000
6059:0.0000000000000000e+000
6060:0.0000000000000000e+000
6061:0.0000000000000000e+000
6062:0.0000000000000000e+000
6063:0.0000000000000000e+000
6064:0.0000000000000000e+000
6065:0.0000000000000000e+000
6066:0.0000000000000000e+000
6067:0.0000000000000000e+000
6068:0.0000000000000000e+000
6069:0.0000000000000000e+000
6070:0.0000000000000000e+000
6071:0.0000000000000000e+000
6072:0.0000000000000000e+000
6073:0.0000000000000000e+000
6074:0.0000000000000000e+000
6075:0.0000000000000000e+000
6076:0.0000000000000000e+000
6077:0.0000000000000000e+000
6078:0.0000000000000000e+000
6079:0.0000000000000000e+000
6080:0.0000000000000000e+000
6081:0.0000000000000000e+000
6082:0.0000000000000000e+000
6083:0.0000000000000000e+000
6084:0.0000000000000000e+000
6085:0.0000000000000000e+000
6086:0.0000000000000000e+000
6087:0.0000000000000000e+000
6088:0.0000000000000000e+000
6089:0.0000000000000000e+000
6090:0.0000000000000000e+000
6091:0.0000000000000000e+000
6092:0.0000000000000000e+000
6093:0.0000000000000000e+000
6094:0.0000000000000000e+000
6095:0.0000000000000000e+000
6096:0.0000000000000000e+000
6097:0.0000000000000000e+000
6098:0.0000000000000000e+000
6099:0.0000000000000000e+000
6100:0.0000000000000000e+000
6101:0.0000000000000000e+000
6102:0.0000000000000000e+000
6103:0.0000000000000000e+000
6104:0.0000000000000000e+000
6105:0.0000000000000000e+000
6106:0.0000000000000000e+000
6107:0.0000000000000000e+000
6108:0.0000000000000000e+000
6109:0.0000000000000000e+000
6110:0.0000000000000000e+000
6111:0.0000000000000000e+000
6112:0.0000000000000000e+000
6113:0.0000000000000000e+000
6114:0.0000000000000000e+000
6115:0.0000000000000000e+000
6116:0.0000000000000000e+000
6117:0.0000000000000000e+000
6118:0.0000000000000000e+000
6119:0.0000000000000000e+000
6120:0.0000000000000000e+000
6121:0.0000000000000000e+000
6122:0.0000000000000000e+000
6123:0.0000000000000000e+000
6124:0.0000000000000000e+000
6125:0.0000000000000000e+000
6126:0.0000000000000000e+000
6127:0.0000000000000000e+000
6128:0.0000000000000000e+000
6129:0.0000000000000000e+000
6130:0.0000000000000000e+000
6131:0.0000000000000000e+000
6132:0.0000000000000000e+000
6133:0.0000000000000000e+000
6134:0.0000000000000000e+000
6135:0.0000000000000000e+000
6136:0.0000000000000000e+000
6137:0.0000000000000000e+000
6138:0.0000000000000000e+000
6139:0.0000000000000000e+000
6140:0.0000000000000000e+000
6141:0.0000000000000000e+000
6142:0.0000000000000000e+000
6143:0.0000000000000000e+000
6144:0.0000000000000000e+000
6145:0.0000000000000000e+000
6146:0.0000000000000000e+000
6147:0.0000000000000000e+000
6148:0.0000000000000000e+000
6149:0.0000000000000000e+000
6150:0.0000000000000000e+000
6151:0.0000000000000000e+000
6152:0.0000000000000000e+000
6153:0.0000000000000000e+000
6154:0.0000000000000000e+000
6155:0.0000000000000000e+000
6156:0.0000000000000000e+000
6157:0.0000000000000000e+000
6158:0.0000000000000000e+000
6159:0.0000000000000000e+000
6160:0.0000000000000000e+000
6161:0.0000000000000000e+000
6162:0.0000000000000000e+000
6163:0.0000000000000000e+000
6164:0.0000000000000000e+000
6165:0.0000000000000000e+000
6166:0.0000000000000000e+000
6167:0.0000000000000000e+000
6168:0.0000000000000000e+000
6169:0.0000000000000000e+000
6170:0.0000000000000000e+000
6171:0.0000000000000000e+000
6172:0.0000000000000000e+000
6173:0.0000000000000000e+000
6174:0.0000000000000000e+000
6175:0.0000000000000000e+000
6176:0.0000000000000000e+000
6177:0.0000000000000000e+000
6178:0.0000000000000000e+000
6179:0.0000000000000000e+000
6180:0.0000000000000000e+000
6181:0.0000000000000000e+000
6182:0.0000000000000000e+000
6183:0.0000000000000000e+000
6184:0.0000000000000000e+000
6185:0.0000000000000000e+000
6186:0.0000000000000000e+000
6187:0.0000000000000000e+000
6188:0.0000000000000000e+000
6189:0.0000000000000000e+000
6190:0.0000000000000000e+000
6191:0.0000000000000000e+000
6192:0.0000000000000000e+000
6193:0.0000000000000000e+000
6194:0.0000000000000000e+000
6195:0.0000000000000000e+000
6196:0.0000000000000000e+000
6197:0.0000000000000000e+000
6198:0.0000000000000000e+000
6199:0.0000000000000000e+000
6200:0.0000000000000000e+000
6201:0.0000000000000000e+000
6202:0.0000000000000000e+000
6203:0.0000000000000000e+000
6204:0.0000000000000000e+000
6205:0.0000000000000000e+000
6206:0.0000000000000000e+000
6207:0.0000000000000000e+000
6208:0.0000000000000000e+000
6209:0.0000000000000000e+000
6210:0.0000000000000000e+000
6211:0.0000000000000000e+000
6212:0.0000000000000000e+000
6213:0.0000000000000000e+000
6214:0.0000000000000000e+000
6215:0.0000000000000000e+000
6216:0.0000000000000000e+000
6217:0.0000000000000000e+000
6218:0.0000000000000000e+000
6219:0.0000000000000000e+000
6220:0.0000000000000000e+000
6221:0.0000000000000000e+000
6222:0.0000000000000000e+000
6223:0.0000000000000000e+000
6224:0.0000000000000000e+000
6225:0.0000000000000000e+000
6226:0.0000000000000000e+000
6227:0.0000000000000000e+000
6228:0.0000000000000000e+000
6229:0.0000000000000000e+000
6230:0.0000000000000000e+000
6231:0.0000000000000000e+000
6232:0.0000000000000000e+000
6233:0.0000000000000000e+000
6234:0.0000000000000000e+000
6235:0.0000000000000000e+000
6236:0.0000000000000000e+000
6237:0.0000000000000000e+000
6238:0.0000000000000000e+000
6239:0.0000000000000000e+000
6240:0.0000000000000000e+000
6241:0.0000000000000000e+000
6242:0.0000000000000000e+000
6243:0.0000000000000000e+000
6244:0.0000000000000000e+000
6245:0.0000000000000000e+000
6246:0.0000000000000000e+000
6247:0.0000000000000000e+000
6248:0.0000000000000000e+000
6249:0.0000000000000000e+000
6250:0.0000000000000000e+000
6251:0.0000000000000000e+000
6252:0.0000000000000000e+000
6253:0.0000000000000000e+000
6254:0.0000000000000000e+000
6255:0.0000000000000000e+000
6256:0.0000000000000000e+000
6257:0.0000000000000000e+000
6258:0.0000000000000000e+000
6259:0.0000000000000000e+000
6260:0.0000000000000000e+000
6261:0.0000000000000000e+000
6262:0.0000000000000000e+000
6263:0.0000000000000000e+000
6264:0.0000000000000000e+000
6265:0.0000000000000000e+000
6266:0.0000000000000000e+000
6267:0.0000000000000000e+000
6268:0.0000000000000000e+000
6269:0.0000000000000000e+000
6270:0.0000000000000000e+000
6271:0.0000000000000000e+000
6272:0.0000000000000000e+000
6273:0.0000000000000000e+000
6274:0.0000000000000000e+000
6275:0.0000000000000000e+000
6276:0.0000000000000000e+000
6277:0.0000000000000000e+000
6278:0.0000000000000000e+000
6279:0.0000000000000000e+000
6280:0.0000000000000000e+000
6281:0.0000000000000000e+000
6282:0.0000000000000000e+000
6283:0.0000000000000000e+000
6284:0.0000000000000000e+000
6285:0.0000000000000000e+000
6286:0.0000000000000000e+000
6287:0.0000000000000000e+000
6288:0.0000000000000000e+000
6289:0.0000000000000000e+000
6290:0.0000000000000000e+000
6291:0.0000000000000000e+000
6292:0.0000000000000000e+000
6293:0.0000000000000000e+000
6294:0.0000000000000000e+000
6295:0.0000000000000000e+000
6296:0.0000000000000000e+000
6297:0.0000000000000000e+000
6298:0.0000000000000000e+000
6299:0.0000000000000000e+000
6300:0.0000000000000000e+000
6301:0.0000000000000000e+000
6302:0.0000000000000000e+000
6303:0.0000000000000000e+000
6304:0.0000000000000000e+000
6305:0.0000000000000000e+000
6306:0.0000000000000000e+000
6307:0.0000000000000000e+000
6308:0.0000000000000000e+000
6309:0.0000000000000000e+000
6310:0.0000000000000000e+000
6311:0.0000000000000000e+000
6312:0.0000000000000000e+000
6313:0.0000000000000000e+000
6314:0.0000000000000000e+000
6315:0.0000000000000000e+000
6316:0.0000000000000000e+000
6317:0.0000000000000000e+000
6318:0.0000000000000000e+000
6319:0.0000000000000000e+000
6320:0.0000000000000000e+000
6321:0.0000000000000000e+000
6322:0.0000000000000000e+000
6323:0.0000000000000000e+000
6324:0.0000000000000000e+000
6325:0.0000000000000000e+000
6326:0.0000000000000000e+000
6327:0.0000000000000000e+000
6328:0.0000000000000000e+000
6329:0.0000000000000000e+000
6330:0.0000000000000000e+000
6331:0.0000000000000000e+000
6332:0.0000000000000000e+000
6333:0.0000000000000000e+000
6334:0.0000000000000000e+000
6335:0.0000000000000000e+000
6336:0.0000000000000000e+000
6337:0.0000000000000000e+000
6338:0.0000000000000000e+000
6339:0.0000000000000000e+000
6340:0.0000000000000000e+000
6341:0.0000000000000000e+000
6342:0.0000000000000000e+000
6343:0.0000000000000000e+000
6344:0.0000000000000000e+000
6345:0.0000000000000000e+000
6346:0.0000000000000000e+000
6347:0.0000000000000000e+000
6348:0.0000000000000000e+000
6349:0.0000000000000000e+000
6350:0.0000000000000000e+000
6351:0.0000000000000000e+000
6352:0.0000000000000000e+000
6353:0.0000000000000000e+000
6354:0.0000000000000000e+000
6355:0.0000000000000000e+000
6356:0.0000000000000000e+000
6357:0.0000000000000000e+000
6358:0.0000000000000000e+000
6359:0.0000000000000000e+000
6360:0.0000000000000000e+000
6361:0.0000000000000000e+000
6362:0.0000000000000000e+000
6363:0.0000000000000000e+000
6364:0.0000000000000000e+000
6365:0.0000000000000000e+000
6366:0.0000000000000000e+000
6367:0.0000000000000000e+000
6368:0.0000000000000000e+000
6369:0.0000000000000000e+000
6370:0.0000000000000000e+000
6371:0.0000000000000000e+000
6372:0.0000000000000000e+000
6373:0.0000000000000000e+000
6374:0.0000000000000000e+000
6375:0.0000000000000000e+000
6376:0.0000000000000000e+000
6377:0.0000000000000000e+000
6378:0.0000000000000000e+000
6379:0.0000000000000000e+000
6380:0.0000000000000000e+000
6381:0.0000000000000000e+000
6382:0.0000000000000000e+000
6383:0.0000000000000000e+000
6384:0.0000000000000000e+000
6385:0.0000000000000000e+000
6386:0.0000000000000000e+000
6387:0.0000000000000000e+000
6388:0.0000000000000000e+000
6389:0.0000000000000000e+000
6390:0.0000000000000000e+000
6391:0.0000000000000000e+000
6392:0.0000000000000000e+000
6393:0.0000000000000000e+000
6394:0.0000000000000000e+000
6395:0.0000000000000000e+000
6396:0.0000000000000000e+000
6397:0.0000000000000000e+000
6398:0.0000000000000000e+000
6399:0.0000000000000000e+000
6400:0.0000000000000000e+000
6401:0.0000000000000000e+000
6402:0.0000000000000000e+000
6403:0.0000000000000000e+000
6404:0.0000000000000000e+000
6405:0.0000000000000000e+000
6406:0.0000000000000000e+000
6407:0.0000000000000000e+000
6408:0.0000000000000000e+000
6409:0.0000000000000000e+000
6410:0.0000000000000000e+000
6411:0.0000000000000000e+000
6412:0.0000000000000000e+000
6413:0.0000000000000000e+000
6414:0.0000000000000000e+000
6415:0.0000000000000000e+000
6416:0.0000000000000000e+000
6417:0.0000000000000000e+000
6418:0.0000000000000000e+000
6419:0.0000000000000000e+000
6420:0.0000000000000000e+000
6421:0.0000000000000000e+000
6422:0.0000000000000000e+000
6423:0.0000000000000000e+000
6424:0.0000000000000000e+000
6425:0.0000000000000000e+000
6426:0.0000000000000000e+000
6427:0.0000000000000000e+000
6428:0.0000000000000000e+000
6429:0.0000000000000000e+000
6430:0.0000000000000000e+000
6431:0.0000000000000000e+000
6432:0.0000000000000000e+000
6433:0.0000000000000000e+000
6434:0.0000000000000000e+000
6435:0.0000000000000000e+000
6436:0.0000000000000000e+000
6437:0.0000000000000000e+000
6438:0.0000000000000000e+000
6439:0.0000000000000000e+000
6440:0.0000000000000000e+000
6441:0.0000000000000000e+000
6442:0.0000000000000000e+000
6443:0.0000000000000000e+000
6444:0.0000000000000000e+000
6445:0.0000000000000000e+000
6446:0.0000000000000000e+000
6447:0.0000000000000000e+000
6448:0.0000000000000000e+000
6449:0.0000000000000000e+000
6450:0.0000000000000000e+000
6451:0.0000000000000000e+000
6452:0.0000000000000000e+000
6453:0.0000000000000000e+000
6454:0.0000000000000000e+000
6455:0.0000000000000000e+000
6456:0.0000000000000000e+000
6457:0.0000000000000000e+000
6458:0.0000000000000000e+000
6459:0.0000000000000000e+000
6460:0.0000000000000000e+000
6461:0.0000000000000000e+000
6462:0.0000000000000000e+000
6463:0.0000000000000000e+000
6464:0.0000000000000000e+000
6465:0.0000000000000000e+000
6466:0.0000000000000000e+000
6467:0.0000000000000000e+000
6468:0.0000000000000000e+000
6469:0.0000000000000000e+000
6470:0.0000000000000000e+000
6471:0.0000000000000000e+000
6472:0.0000000000000000e+000
6473:0.0000000000000000e+000
6474:0.0000000000000000e+000
6475:0.0000000000000000e+000
6476:0.0000000000000000e+000
6477:0.0000000000000000e+000
6478:0.0000000000000000e+000
6479:0.0000000000000000e+000
6480:0.0000000000000000e+000
6481:0.0000000000000000e+000
6482:0.0000000000000000e+000
6483:0.0000000000000000e+000
6484:0.0000000000000000e+000
6485:0.0000000000000000e+000
6486:0.0000000000000000e+000
6487:0.0000000000000000e+000
6488:0.0000000000000000e+000
6489:0.0000000000000000e+000
6490:0.0000000000000000e+000
6491:0.0000000000000000e+000
6492:0.0000000000000000e+000
6493:0.0000000000000000e+000
6494:0.0000000000000000e+000
6495:0.0000000000000000e+000
6496:0.0000000000000000e+000
6497:0.0000000000000000e+000
6498:0.0000000000000000e+000
6499:0.0000000000000000e+000
6500:0.0000000000000000e+000
6501:0.0000000000000000e+000
6502:0.0000000000000000e+000
6503:0.0000000000000000e+000
6504:0.0000000000000000e+000
6505:0.0000000000000000e+000
6506:0.0000000000000000e+000
6507:0.0000000000000000e+000
6508:0.0000000000000000e+000
6509:0.0000000000000000e+000
6510:0.0000000000000000e+000
6511:0.0000000000000000e+000
6512:0.0000000000000000e+000
6513:0.0000000000000000e+000
6514:0.0000000000000000e+000
6515:0.0000000000000000e+000
6516:0.0000000000000000e+000
6517:0.0000000000000000e+000
6518:0.0000000000000000e+000
6519:0.0000000000000000e+000
6520:0.0000000000000000e+000
6521:0.0000000000000000e+000
6522:0.0000000000000000e+000
6523:0.0000000000000000e+000
6524:0.0000000000000000e+000
6525:0.0000000000000000e+000
6526:0.0000000000000000e+000
6527:0.0000000000000000e+000
6528:0.0000000000000000e+000
6529:0.0000000000000000e+000
6530:0.0000000000000000e+000
6531:0.0000000000000000e+000
6532:0.0000000000000000e+000
6533:0.0000000000000000e+000
6534:0.0000000000000000e+000
6535:0.0000000000000000e+000
6536:0.0000000000000000e+000
6537:0.0000000000000000e+000
6538:0.0000000000000000e+000
6539:0.0000000000000000e+000
6540:0.0000000000000000e+000
6541:0.0000000000000000e+000
6542:0.0000000000000000e+000
6543:0.0000000000000000e+000
6544:0.0000000000000000e+000
6545:0.0000000000000000e+000
6546:0.0000000000000000e+000
6547:0.0000000000000000e+000
6548:0.0000000000000000e+000
6549:0.0000000000000000e+000
6550:0.0000000000000000e+000
6551:0.0000000000000000e+000
6552:0.0000000000000000e+000
6553:0.0000000000000000e+000
6554:0.0000000000000000e+000
6555:0.0000000000000000e+000
6556:0.0000000000000000e+000
6557:0.0000000000000000e+000
6558:0.0000000000000000e+000
6559:0.0000000000000000e+000
6560:0.0000000000000000e+000
6561:0.0000000000000000e+000
6562:0.0000000000000000e+000
6563:0.0000000000000000e+000
6564:0.0000000000000000e+000
6565:0.0000000000000000e+000
6566:0.0000000000000000e+000
6567:0.0000000000000000e+000
6568:0.0000000000000000e+000
6569:0.0000000000000000e+000
6570:0.0000000000000000e+000
6571:0.0000000000000000e+000
6572:0.0000000000000000e+000
6573:0.0000000000000000e+000
6574:0.0000000000000000e+000
6575:0.0000000000000000e+000
6576:0.0000000000000000e+000
6577:0.0000000000000000e+000
6578:0.0000000000000000e+000
6579:0.0000000000000000e+000
6580:0.0000000000000000e+000
6581:0.0000000000000000e+000
6582:0.0000000000000000e+000
6583:0.0000000000000000e+000
6584:0.0000000000000000e+000
6585:0.0000000000000000e+000
6586:0.0000000000000000e+000
6587:0.0000000000000000e+000
6588:0.0000000000000000e+000
6589:0.0000000000000000e+000
6590:0.0000000000000000e+000
6591:0.0000000000000000e+000
6592:0.0000000000000000e+000
6593:0.0000000000000000e+000
6594:0.0000000000000000e+000
6595:0.0000000000000000e+000
6596:0.0000000000000000e+000
6597:0.0000000000000000e+000
6598:0.0000000000000000e+000
6599:0.0000000000000000e+000
6600:0.0000000000000000e+000
6601:0.0000000000000000e+000
6602:0.0000000000000000e+000
6603:0.0000000000000000e+000
6604:0.0000000000000000e+000
6605:0.0000000000000000e+000
6606:0.0000000000000000e+000
6607:0.0000000000000000e+000
6608:0.0000000000000000e+000
6609:0.0000000000000000e+000
6610:0.0000000000000000e+000
6611:0.0000000000000000e+000
6612:0.0000000000000000e+000
6613:0.0000000000000000e+000
6614:0.0000000000000000e+000
6615:0.0000000000000000e+000
6616:0.0000000000000000e+000
6617:0.0000000000000000e+000
6618:0.0000000000000000e+000
6619:0.0000000000000000e+000
6620:0.0000000000000000e+000
6621:0.0000000000000000e+000
6622:0.0000000000000000e+000
6623:0.0000000000000000e+000
6624:0.0000000000000000e+000
6625:0.0000000000000000e+000
6626:0.0000000000000000e+000
6627:0.0000000000000000e+000
6628:0.0000000000000000e+000
6629:0.0000000000000000e+000
6630:0.0000000000000000e+000
6631:0.0000000000000000e+000
6632:0.0000000000000000e+000
6633:0.0000000000000000e+000
6634:0.0000000000000000e+000
6635:0.0000000000000000e+000
6636:0.0000000000000000e+000
6637:0.0000000000000000e+000
6638:0.0000000000000000e+000
6639:0.0000000000000000e+000
6640:0.0000000000000000e+000
6641:0.0000000000000000e+000
6642:0.0000000000000000e+000
6643:0.0000000000000000e+000
6644:0.0000000000000000e+000
6645:0.0000000000000000e+000
6646:0.0000000000000000e+000
6647:0.0000000000000000e+000
6648:0.0000000000000000e+000
6649:0.0000000000000000e+000
6650:0.0000000000000000e+000
6651:0.0000000000000000e+000
6652:0.0000000000000000e+000
6653:0.0000000000000000e+000
6654:0.0000000000000000e+000
6655:0.0000000000000000e+000
6656:0.0000000000000000e+000
6657:0.0000000000000000e+000
6658:0.0000000000000000e+000
6659:0.0000000000000000e+000
6660:0.0000000000000000e+000
6661:0.0000000000000000e+000
6662:0.0000000000000000e+000
6663:0.0000000000000000e+000
6664:0.0000000000000000e+000
6665:0.0000000000000000e+000
6666:0.0000000000000000e+000
6667:0.0000000000000000e+000
6668:0.0000000000000000e+000
6669:0.0000000000000000e+000
6670:0.0000000000000000e+000
6671:0.0000000000000000e+000
6672:0.0000000000000000e+000
6673:0.0000000000000000e+000
6674:0.0000000000000000e+000
6675:0.0000000000000000e+000
6676:0.0000000000000000e+000
6677:0.0000000000000000e+000
6678:0.0000000000000000e+000
6679:0.0000000000000000e+000
6680:0.0000000000000000e+000
6681:0.0000000000000000e+000
6682:0.0000000000000000e+000
6683:0.0000000000000000e+000
6684:0.0000000000000000e+000
6685:0.0000000000000000e+000
6686:0.0000000000000000e+000
6687:0.0000000000000000e+000
6688:0.0000000000000000e+000
6689:0.0000000000000000e+000
6690:0.0000000000000000e+000
6691:0.0000000000000000e+000
6692:0.0000000000000000e+000
6693:0.0000000000000000e+000
6694:0.0000000000000000e+000
6695:0.0000000000000000e+000
6696:0.0000000000000000e+000
6697:0.0000000000000000e+000
6698:0.0000000000000000e+000
6699:0.0000000000000000e+000
6700:0.0000000000000000e+000
6701:0.0000000000000000e+000
6702:0.0000000000000000e+000
6703:0.0000000000000000e+000
6704:0.0000000000000000e+000
6705:0.0000000000000000e+000
6706:0.0000000000000000e+000
6707:0.0000000000000000e+000
6708:0.0000000000000000e+000
6709:0.0000000000000000e+000
6710:0.0000000000000000e+000
6711:0.0000000000000000e+000
6712:0.0000000000000000e+000
6713:0.0000000000000000e+000
6714:0.0000000000000000e+000
6715:0.0000000000000000e+000
6716:0.0000000000000000e+000
6717:0.0000000000000000e+000
6718:0.0000000000000000e+000
6719:0.0000000000000000e+000
6720:0.0000000000000000e+000
6721:0.0000000000000000e+000
6722:0.0000000000000000e+000
6723:0.0000000000000000e+000
6724:0.0000000000000000e+000
6725:0.0000000000000000e+000
6726:0.0000000000000000e+000
6727:0.0000000000000000e+000
6728:0.0000000000000000e+000
6729:0.0000000000000000e+000
6730:0.0000000000000000e+000
6731:0.0000000000000000e+000
6732:0.0000000000000000e+000
6733:0.0000000000000000e+000
6734:0.0000000000000000e+000
6735:0.0000000000000000e+000
6736:0.0000000000000000e+000
6737:0.0000000000000000e+000
6738:0.0000000000000000e+000
6739:0.0000000000000000e+000
6740:0.0000000000000000e+000
6741:0.0000000000000000e+000
6742:0.0000000000000000e+000
6743:0.0000000000000000e+000
6744:0.0000000000000000e+000
6745:0.0000000000000000e+000
6746:0.0000000000000000e+000
6747:0.0000000000000000e+000
6748:0.0000000000000000e+000
6749:0.0000000000000000e+000
6750:0.0000000000000000e+000
6751:0.0000000000000000e+000
6752:0.0000000000000000e+000
6753:0.0000000000000000e+000
6754:0.0000000000000000e+000
6755:0.0000000000000000e+000
6756:0.0000000000000000e+000
6757:0.0000000000000000e+000
6758:0.0000000000000000e+000
6759:0.0000000000000000e+000
6760:0.0000000000000000e+000
6761:0.0000000000000000e+000
6762:0.0000000000000000e+000
6763:0.0000000000000000e+000
6764:0.0000000000000000e+000
6765:0.0000000000000000e+000
6766:0.0000000000000000e+000
6767:0.0000000000000000e+000
6768:0.0000000000000000e+000
6769:0.0000000000000000e+000
6770:0.0000000000000000e+000
6771:0.0000000000000000e+000
6772:0.0000000000000000e+000
6773:0.0000000000000000e+000
6774:0.0000000000000000e+000
6775:0.0000000000000000e+000
6776:0.0000000000000000e+000
6777:0.0000000000000000e+000
6778:0.0000000000000000e+000
6779:0.0000000000000000e+000
6780:0.0000000000000000e+000
6781:0.0000000000000000e+000
6782:0.0000000000000000e+000
6783:0.0000000000000000e+000
6784:0.0000000000000000e+000
6785:0.0000000000000000e+000
6786:0.0000000000000000e+000
6787:0.0000000000000000e+000
6788:0.0000000000000000e+000
6789:0.0000000000000000e+000
6790:0.0000000000000000e+000
6791:0.0000000000000000e+000
6792:0.0000000000000000e+000
6793:0.0000000000000000e+000
6794:0.0000000000000000e+000
6795:0.0000000000000000e+000
6796:0.0000000000000000e+000
6797:0.0000000000000000e+000
6798:0.0000000000000000e+000
6799:0.0000000000000000e+000
6800:0.0000000000000000e+000
6801:0.0000000000000000e+000
6802:0.0000000000000000e+000
6803:0.0000000000000000e+000
6804:0.0000000000000000e+000
6805:0.0000000000000000e+000
6806:0.0000000000000000e+000
6807:0.0000000000000000e+000
6808:0.0000000000000000e+000
6809:0.0000000000000000e+000
6810:0.0000000000000000e+000
6811:0.0000000000000000e+000
6812:0.0000000000000000e+000
6813:0.0000000000000000e+000
6814:0.0000000000000000e+000
6815:0.0000000000000000e+000
6816:0.0000000000000000e+000
6817:0.0000000000000000e+000
6818:0.0000000000000000e+000
6819:0.0000000000000000e+000
6820:0.0000000000000000e+000
6821:0.0000000000000000e+000
6822:0.0000000000000000e+000
6823:0.0000000000000000e+000
6824:0.0000000000000000e+000
6825:0.0000000000000000e+000
6826:0.0000000000000000e+000
6827:0.0000000000000000e+000
6828:0.0000000000000000e+000
6829:0.0000000000000000e+000
6830:0.0000000000000000e+000
6831:0.0000000000000000e+000
6832:0.0000000000000000e+000
6833:0.0000000000000000e+000
6834:0.0000000000000000e+000
6835:0.0000000000000000e+000
6836:0.0000000000000000e+000
6837:0.0000000000000000e+000
6838:0.0000000000000000e+000
6839:0.0000000000000000e+000
6840:0.0000000000000000e+000
6841:0.0000000000000000e+000
6842:0.0000000000000000e+000
6843:0.0000000000000000e+000
6844:0.0000000000000000e+000
6845:0.0000000000000000e+000
6846:0.0000000000000000e+000
6847:0.0000000000000000e+000
6848:0.0000000000000000e+000
6849:0.0000000000000000e+000
6850:0.0000000000000000e+000
6851:0.0000000000000000e+000
6852:0.0000000000000000e+000
6853:0.0000000000000000e+000
6854:0.0000000000000000e+000
6855:0.0000000000000000e+000
6856:0.0000000000000000e+000
6857:0.0000000000000000e+000
6858:0.0000000000000000e+000
6859:0.0000000000000000e+000
6860:0.0000000000000000e+000
6861:0.0000000000000000e+000
6862:0.0000000000000000e+000
6863:0.0000000000000000e+000
6864:0.0000000000000000e+000
6865:0.0000000000000000e+000
6866:0.0000000000000000e+000
6867:0.0000000000000000e+000
6868:0.0000000000000000e+000
6869:0.0000000000000000e+000
6870:0.0000000000000000e+000
6871:0.0000000000000000e+000
6872:0.0000000000000000e+000
6873:0.0000000000000000e+000
6874:0.0000000000000000e+000
6875:0.0000000000000000e+000
6876:0.0000000000000000e+000
6877:0.0000000000000000e+000
6878:0.0000000000000000e+000
6879:0.0000000000000000e+000
6880:0.0000000000000000e+000
6881:0.0000000000000000e+000
6882:0.0000000000000000e+000
6883:0.0000000000000000e+000
6884:0.0000000000000000e+000
6885:0.0000000000000000e+000
6886:0.0000000000000000e+000
6887:0.0000000000000000e+000
6888:0.0000000000000000e+000
6889:0.0000000000000000e+000
6890:0.0000000000000000e+000
6891:0.0000000000000000e+000
6892:0.0000000000000000e+000
6893:0.0000000000000000e+000
6894:0.0000000000000000e+000
6895:0.0000000000000000e+000
6896:0.0000000000000000e+000
6897:0.0000000000000000e+000
6898:0.0000000000000000e+000
6899:0.0000000000000000e+000
6900:0.0000000000000000e+000
6901:0.0000000000000000e+000
6902:0.0000000000000000e+000
6903:0.0000000000000000e+000
6904:0.0000000000000000e+000
6905:0.0000000000000000e+000
6906:0.0000000000000000e+000
6907:0.0000000000000000e+000
6908:0.0000000000000000e+000
6909:0.0000000000000000e+000
6910:0.0000000000000000e+000
6911:0.0000000000000000e+000
6912:0.0000000000000000e+000
6913:0.0000000000000000e+000
6914:0.0000000000000000e+000
6915:0.0000000000000000e+000
6916:0.0000000000000000e+000
6917:0.0000000000000000e+000
6918:0.0000000000000000e+000
6919:0.0000000000000000e+000
6920:0.0000000000000000e+000
6921:0.0000000000000000e+000
6922:0.0000000000000000e+000
6923:0.0000000000000000e+000
6924:0.0000000000000000e+000
6925:0.0000000000000000e+000
6926:0.0000000000000000e+000
6927:0.0000000000000000e+000
6928:0.0000000000000000e+000
6929:0.0000000000000000e+000
6930:0.0000000000000000e+000
6931:0.0000000000000000e+000
6932:0.0000000000000000e+000
6933:0.0000000000000000e+000
6934:0.0000000000000000e+000
6935:0.0000000000000000e+000
6936:0.0000000000000000e+000
6937:0.0000000000000000e+000
6938:0.0000000000000000e+000
6939:0.0000000000000000e+000
6940:0.0000000000000000e+000
6941:0.0000000000000000e+000
6942:0.0000000000000000e+000
6943:0.0000000000000000e+000
6944:0.0000000000000000e+000
6945:0.0000000000000000e+000
6946:0.0000000000000000e+000
6947:0.0000000000000000e+000
6948:0.0000000000000000e+000
6949:0.0000000000000000e+000
6950:0.0000000000000000e+000
6951:0.0000000000000000e+000
6952:0.0000000000000000e+000
6953:0.0000000000000000e+000
6954:0.0000000000000000e+000
6955:0.0000000000000000e+000
6956:0.0000000000000000e+000
6957:0.0000000000000000e+000
6958:0.0000000000000000e+000
6959:0.0000000000000000e+000
6960:0.0000000000000000e+000
6961:0.0000000000000000e+000
6962:0.0000000000000000e+000
6963:0.0000000000000000e+000
6964:0.0000000000000000e+000
6965:0.0000000000000000e+000
6966:0.0000000000000000e+000
6967:0.0000000000000000e+000
6968:0.0000000000000000e+000
6969:0.0000000000000000e+000
6970:0.0000000000000000e+000
6971:0.0000000000000000e+000
6972:0.0000000000000000e+000
6973:0.0000000000000000e+000
6974:0.0000000000000000e+000
6975:0.0000000000000000e+000
6976:0.0000000000000000e+000
6977:0.0000000000000000e+000
6978:0.0000000000000000e+000
6979:0.0000000000000000e+000
6980:0.0000000000000000e+000
6981:0.0000000000000000e+000
6982:0.0000000000000000e+000
6983:0.0000000000000000e+000
6984:0.0000000000000000e+000
6985:0.0000000000000000e+000
6986:0.0000000000000000e+000
6987:0.0000000000000000e+000
6988:0.0000000000000000e+000
6989:0.0000000000000000e+000
6990:0.0000000000000000e+000
6991:0.0000000000000000e+000
6992:0.0000000000000000e+000
6993:0.0000000000000000e+000
6994:0.0000000000000000e+000
6995:0.0000000000000000e+000
6996:0.0000000000000000e+000
6997:0.0000000000000000e+000
6998:0.0000000000000000e+000
6999:0.0000000000000000e+000
7000:0.0000000000000000e+000
7001:0.0000000000000000e+000
7002:0.0000000000000000e+000
7003:0.0000000000000000e+000
7004:0.0000000000000000e+000
7005:0.0000000000000000e+000
7006:0.0000000000000000e+000
7007:0.0000000000000000e+000
7008:0.0000000000000000e+000
7009:0.0000000000000000e+000
7010:0.0000000000000000e+000
7011:0.0000000000000000e+000
7012:0.0000000000000000e+000
7013:0.0000000000000000e+000
7014:0.0000000000000000e+000
7015:0.0000000000000000e+000
7016:0.0000000000000000e+000
7017:0.0000000000000000e+000
7018:0.0000000000000000e+000
7019:0.0000000000000000e+000
7020:0.0000000000000000e+000
7021:0.0000000000000000e+000
7022:0.0000000000000000e+000
7023:0.0000000000000000e+000
7024:0.0000000000000000e+000
7025:0.0000000000000000e+000
7026:0.0000000000000000e+000
7027:0.0000000000000000e+000
7028:0.0000000000000000e+000
7029:0.0000000000000000e+000
7030:0.0000000000000000e+000
7031:0.0000000000000000e+000
7032:0.0000000000000000e+000
7033:0.0000000000000000e+000
7034:0.0000000000000000e+000
7035:0.0000000000000000e+000
7036:0.0000000000000000e+000
7037:0.0000000000000000e+000
7038:0.0000000000000000e+000
7039:0.0000000000000000e+000
7040:0.0000000000000000e+000
7041:0.0000000000000000e+000
7042:0.0000000000000000e+000
7043:0.0000000000000000e+000
7044:0.0000000000000000e+000
7045:0.0000000000000000e+000
7046:0.0000000000000000e+000
7047:0.0000000000000000e+000
7048:0.0000000000000000e+000
7049:0.0000000000000000e+000
7050:0.0000000000000000e+000
7051:0.0000000000000000e+000
7052:0.0000000000000000e+000
7053:0.0000000000000000e+000
7054:0.0000000000000000e+000
7055:0.0000000000000000e+000
7056:0.0000000000000000e+000
7057:0.0000000000000000e+000
7058:0.0000000000000000e+000
7059:0.0000000000000000e+000
7060:0.0000000000000000e+000
7061:0.0000000000000000e+000
7062:0.0000000000000000e+000
7063:0.0000000000000000e+000
7064:0.0000000000000000e+000
7065:0.0000000000000000e+000
7066:0.0000000000000000e+000
7067:0.0000000000000000e+000
7068:0.0000000000000000e+000
7069:0.0000000000000000e+000
7070:0.0000000000000000e+000
7071:0.0000000000000000e+000
7072:0.0000000000000000e+000
7073:0.0000000000000000e+000
7074:0.0000000000000000e+000
7075:0.0000000000000000e+000
7076:0.0000000000000000e+000
7077:0.0000000000000000e+000
7078:0.0000000000000000e+000
7079:0.0000000000000000e+000
7080:0.0000000000000000e+000
7081:0.0000000000000000e+000
7082:0.0000000000000000e+000
7083:0.0000000000000000e+000
7084:0.0000000000000000e+000
7085:0.0000000000000000e+000
7086:0.0000000000000000e+000
7087:0.0000000000000000e+000
7088:0.0000000000000000e+000
7089:0.0000000000000000e+000
7090:0.0000000000000000e+000
7091:0.0000000000000000e+000
7092:0.0000000000000000e+000
7093:0.0000000000000000e+000
7094:0.0000000000000000e+000
7095:0.0000000000000000e+000
7096:0.0000000000000000e+000
7097:0.0000000000000000e+000
7098:0.0000000000000000e+000
7099:0.0000000000000000e+000
7100:0.0000000000000000e+000
7101:0.0000000000000000e+000
7102:0.0000000000000000e+000
7103:0.0000000000000000e+000
7104:0.0000000000000000e+000
7105:0.0000000000000000e+000
7106:0.0000000000000000e+000
7107:0.0000000000000000e+000
7108:0.0000000000000000e+000
7109:0.0000000000000000e+000
7110:0.0000000000000000e+000
7111:0.0000000000000000e+000
7112:0.0000000000000000e+000
7113:0.0000000000000000e+000
7114:0.0000000000000000e+000
7115:0.0000000000000000e+000
7116:0.0000000000000000e+000
7117:0.0000000000000000e+000
7118:0.0000000000000000e+000
7119:0.0000000000000000e+000
7120:0.0000000000000000e+000
7121:0.0000000000000000e+000
7122:0.0000000000000000e+000
7123:0.0000000000000000e+000
7124:0.0000000000000000e+000
7125:0.0000000000000000e+000
7126:0.0000000000000000e+000
7127:0.0000000000000000e+000
7128:0.0000000000000000e+000
7129:0.0000000000000000e+000
7130:0.0000000000000000e+000
7131:0.0000000000000000e+000
7132:0.0000000000000000e+000
7133:0.0000000000000000e+000
7134:0.0000000000000000e+000
7135:0.0000000000000000e+000
7136:0.0000000000000000e+000
7137:0.0000000000000000e+000
7138:0.0000000000000000e+000
7139:0.0000000000000000e+000
7140:0.0000000000000000e+000
7141:0.0000000000000000e+000
7142:0.0000000000000000e+000
7143:0.0000000000000000e+000
7144:0.0000000000000000e+000
7145:0.0000000000000000e+000
7146:0.0000000000000000e+000
7147:0.0000000000000000e+000
7148:0.0000000000000000e+000
7149:0.0000000000000000e+000
7150:0.0000000000000000e+000
7151:0.0000000000000000e+000
7152:0.0000000000000000e+000
7153:0.0000000000000000e+000
7154:0.0000000000000000e+000
7155:0.0000000000000000e+000
7156:0.0000000000000000e+000
7157:0.0000000000000000e+000
7158:0.0000000000000000e+000
7159:0.0000000000000000e+000
7160:0.0000000000000000e+000
7161:0.0000000000000000e+000
7162:0.0000000000000000e+000
7163:0.0000000000000000e+000
7164:0.0000000000000000e+000
7165:0.0000000000000000e+000
7166:0.0000000000000000e+000
7167:0.0000000000000000e+000
7168:0.0000000000000000e+000
7169:0.0000000000000000e+000
7170:0.0000000000000000e+000
7171:0.0000000000000000e+000
7172:0.0000000000000000e+000
7173:0.0000000000000000e+000
7174:0.0000000000000000e+000
7175:0.0000000000000000e+000
7176:0.0000000000000000e+000
7177:0.0000000000000000e+000
7178:0.0000000000000000e+000
7179:0.0000000000000000e+000
7180:0.0000000000000000e+000
7181:0.0000000000000000e+000
7182:0.0000000000000000e+000
7183:0.0000000000000000e+000
7184:0.0000000000000000e+000
7185:0.0000000000000000e+000
7186:0.0000000000000000e+000
7187:0.0000000000000000e+000
7188:0.0000000000000000e+000
7189:0.0000000000000000e+000
7190:0.0000000000000000e+000
7191:0.0000000000000000e+000
7192:0.0000000000000000e+000
7193:0.0000000000000000e+000
7194:0.0000000000000000e+000
7195:0.0000000000000000e+000
7196:0.0000000000000000e+000
7197:0.0000000000000000e+000
7198:0.0000000000000000e+000
7199:0.0000000000000000e+000
7200:0.0000000000000000e+000
7201:0.0000000000000000e+000
7202:0.0000000000000000e+000
7203:0.0000000000000000e+000
7204:0.0000000000000000e+000
7205:0.0000000000000000e+000
7206:0.0000000000000000e+000
7207:0.0000000000000000e+000
7208:0.0000000000000000e+000
7209:0.0000000000000000e+000
7210:0.0000000000000000e+000
7211:0.0000000000000000e+000
7212:0.0000000000000000e+000
7213:0.0000000000000000e+000
7214:0.0000000000000000e+000
7215:0.0000000000000000e+000
7216:0.0000000000000000e+000
7217:0.0000000000000000e+000
7218:0.0000000000000000e+000
7219:0.0000000000000000e+000
7220:0.0000000000000000e+000
7221:0.0000000000000000e+000
7222:0.0000000000000000e+000
7223:0.0000000000000000e+000
7224:0.0000000000000000e+000
7225:0.0000000000000000e+000
7226:0.0000000000000000e+000
7227:0.0000000000000000e+000
7228:0.0000000000000000e+000
7229:0.0000000000000000e+000
7230:0.0000000000000000e+000
7231:0.0000000000000000e+000
7232:0.0000000000000000e+000
7233:0.0000000000000000e+000
7234:0.0000000000000000e+000
7235:0.0000000000000000e+000
7236:0.0000000000000000e+000
7237:0.0000000000000000e+000
7238:0.0000000000000000e+000
7239:0.0000000000000000e+000
7240:0.0000000000000000e+000
7241:0.0000000000000000e+000
7242:0.0000000000000000e+000
7243:0.0000000000000000e+000
7244:0.0000000000000000e+000
7245:0.0000000000000000e+000
7246:0.0000000000000000e+000
7247:0.0000000000000000e+000
7248:0.0000000000000000e+000
7249:0.0000000000000000e+000
7250:0.0000000000000000e+000
7251:0.0000000000000000e+000
7252:0.0000000000000000e+000
7253:0.0000000000000000e+000
7254:0.0000000000000000e+000
7255:0.0000000000000000e+000
7256:0.0000000000000000e+000
7257:0.0000000000000000e+000
7258:0.0000000000000000e+000
7259:0.0000000000000000e+000
7260:0.0000000000000000e+000
7261:0.0000000000000000e+000
7262:0.0000000000000000e+000
7263:0.0000000000000000e+000
7264:0.0000000000000000e+000
7265:0.0000000000000000e+000
7266:0.0000000000000000e+000
7267:0.0000000000000000e+000
7268:0.0000000000000000e+000
7269:0.0000000000000000e+000
7270:0.0000000000000000e+000
7271:0.0000000000000000e+000
7272:0.0000000000000000e+000
7273:0.0000000000000000e+000
7274:0.0000000000000000e+000
7275:0.0000000000000000e+000
7276:0.0000000000000000e+000
7277:0.0000000000000000e+000
7278:0.0000000000000000e+000
7279:0.0000000000000000e+000
7280:0.0000000000000000e+000
7281:0.0000000000000000e+000
7282:0.0000000000000000e+000
7283:0.0000000000000000e+000
7284:0.0000000000000000e+000
7285:0.0000000000000000e+000
7286:0.0000000000000000e+000
7287:0.0000000000000000e+000
7288:0.0000000000000000e+000
7289:0.0000000000000000e+000
7290:0.0000000000000000e+000
7291:0.0000000000000000e+000
7292:0.0000000000000000e+000
7293:0.0000000000000000e+000
7294:0.0000000000000000e+000
7295:0.0000000000000000e+000
7296:0.0000000000000000e+000
7297:0.0000000000000000e+000
7298:0.0000000000000000e+000
7299:0.0000000000000000e+000
7300:0.0000000000000000e+000
7301:0.0000000000000000e+000
7302:0.0000000000000000e+000
7303:0.0000000000000000e+000
7304:0.0000000000000000e+000
7305:0.0000000000000000e+000
7306:0.0000000000000000e+000
7307:0.0000000000000000e+000
7308:0.0000000000000000e+000
7309:0.0000000000000000e+000
7310:0.0000000000000000e+000
7311:0.0000000000000000e+000
7312:0.0000000000000000e+000
7313:0.0000000000000000e+000
7314:0.0000000000000000e+000
7315:0.0000000000000000e+000
7316:0.0000000000000000e+000
7317:0.0000000000000000e+000
7318:0.0000000000000000e+000
7319:0.0000000000000000e+000
7320:0.0000000000000000e+000
7321:0.0000000000000000e+000
7322:0.0000000000000000e+000
7323:0.0000000000000000e+000
7324:0.0000000000000000e+000
7325:0.0000000000000000e+000
7326:0.0000000000000000e+000
7327:0.0000000000000000e+000
7328:0.0000000000000000e+000
7329:0.0000000000000000e+000
7330:0.0000000000000000e+000
7331:0.0000000000000000e+000
7332:0.0000000000000000e+000
7333:0.0000000000000000e+000
7334:0.0000000000000000e+000
7335:0.0000000000000000e+000
7336:0.0000000000000000e+000
7337:0.0000000000000000e+000
7338:0.0000000000000000e+000
7339:0.0000000000000000e+000
7340:0.0000000000000000e+000
7341:0.0000000000000000e+000
7342:0.0000000000000000e+000
7343:0.0000000000000000e+000
7344:0.0000000000000000e+000
7345:0.0000000000000000e+000
7346:0.0000000000000000e+000
7347:0.0000000000000000e+000
7348:0.0000000000000000e+000
7349:0.0000000000000000e+000
7350:0.0000000000000000e+000
7351:0.0000000000000000e+000
7352:0.0000000000000000e+000
7353:0.0000000000000000e+000
7354:0.0000000000000000e+000
7355:0.0000000000000000e+000
7356:0.0000000000000000e+000
7357:0.0000000000000000e+000
7358:0.0000000000000000e+000
7359:0.0000000000000000e+000
7360:0.0000000000000000e+000
7361:0.0000000000000000e+000
7362:0.0000000000000000e+000
7363:0.0000000000000000e+000
7364:0.0000000000000000e+000
7365:0.0000000000000000e+000
7366:0.0000000000000000e+000
7367:0.0000000000000000e+000
7368:0.0000000000000000e+000
7369:0.0000000000000000e+000
7370:0.0000000000000000e+000
7371:0.0000000000000000e+000
7372:0.0000000000000000e+000
7373:0.0000000000000000e+000
7374:0.0000000000000000e+000
7375:0.0000000000000000e+000
7376:0.0000000000000000e+000
7377:0.0000000000000000e+000
7378:0.0000000000000000e+000
7379:0.0000000000000000e+000
7380:0.0000000000000000e+000
7381:0.0000000000000000e+000
7382:0.0000000000000000e+000
7383:0.0000000000000000e+000
7384:0.0000000000000000e+000
7385:0.0000000000000000e+000
7386:0.0000000000000000e+000
7387:0.0000000000000000e+000
7388:0.0000000000000000e+000
7389:0.0000000000000000e+000
7390:0.0000000000000000e+000
7391:0.0000000000000000e+000
7392:0.0000000000000000e+000
7393:0.0000000000000000e+000
7394:0.0000000000000000e+000
7395:0.0000000000000000e+000
7396:0.0000000000000000e+000
7397:0.0000000000000000e+000
7398:0.0000000000000000e+000
7399:0.0000000000000000e+000
7400:0.0000000000000000e+000
7401:0.0000000000000000e+000
7402:0.0000000000000000e+000
7403:0.0000000000000000e+000
7404:0.0000000000000000e+000
7405:0.0000000000000000e+000
7406:0.0000000000000000e+000
7407:0.0000000000000000e+000
7408:0.0000000000000000e+000
7409:0.0000000000000000e+000
7410:0.0000000000000000e+000
7411:0.0000000000000000e+000
7412:0.0000000000000000e+000
7413:0.0000000000000000e+000
7414:0.0000000000000000e+000
7415:0.0000000000000000e+000
7416:0.0000000000000000e+000
7417:0.0000000000000000e+000
7418:0.0000000000000000e+000
7419:0.0000000000000000e+000
7420:0.0000000000000000e+000
7421:0.0000000000000000e+000
7422:0.0000000000000000e+000
7423:0.0000000000000000e+000
7424:0.0000000000000000e+000
7425:0.0000000000000000e+000
7426:0.0000000000000000e+000
7427:0.0000000000000000e+000
7428:0.0000000000000000e+000
7429:0.0000000000000000e+000
7430:0.0000000000000000e+000
7431:0.0000000000000000e+000
7432:0.0000000000000000e+000
7433:0.0000000000000000e+000
7434:0.0000000000000000e+000
7435:0.0000000000000000e+000
7436:0.0000000000000000e+000
7437:0.0000000000000000e+000
7438:0.0000000000000000e+000
7439:0.0000000000000000e+000
7440:0.0000000000000000e+000
7441:0.0000000000000000e+000
7442:0.0000000000000000e+000
7443:0.0000000000000000e+000
7444:0.0000000000000000e+000
7445:0.0000000000000000e+000
7446:0.0000000000000000e+000
7447:0.0000000000000000e+000
7448:0.0000000000000000e+000
7449:0.0000000000000000e+000
7450:0.0000000000000000e+000
7451:0.0000000000000000e+000
7452:0.0000000000000000e+000
7453:0.0000000000000000e+000
7454:0.0000000000000000e+000
7455:0.0000000000000000e+000
7456:0.0000000000000000e+000
7457:0.0000000000000000e+000
7458:0.0000000000000000e+000
7459:0.0000000000000000e+000
7460:0.0000000000000000e+000
7461:0.0000000000000000e+000
7462:0.0000000000000000e+000
7463:0.0000000000000000e+000
7464:0.0000000000000000e+000
7465:0.0000000000000000e+000
7466:0.0000000000000000e+000
7467:0.0000000000000000e+000
7468:0.0000000000000000e+000
7469:0.0000000000000000e+000
7470:0.0000000000000000e+000
7471:0.0000000000000000e+000
7472:0.0000000000000000e+000
7473:0.0000000000000000e+000
7474:0.0000000000000000e+000
7475:0.0000000000000000e+000
7476:0.0000000000000000e+000
7477:0.0000000000000000e+000
7478:0.0000000000000000e+000
7479:0.0000000000000000e+000
7480:0.0000000000000000e+000
7481:0.0000000000000000e+000
7482:0.0000000000000000e+000
7483:0.0000000000000000e+000
7484:0.0000000000000000e+000
7485:0.0000000000000000e+000
7486:0.0000000000000000e+000
7487:0.0000000000000000e+000
7488:0.0000000000000000e+000
7489:0.0000000000000000e+000
7490:0.0000000000000000e+000
7491:0.0000000000000000e+000
7492:0.0000000000000000e+000
7493:0.0000000000000000e+000
7494:0.0000000000000000e+000
7495:0.0000000000000000e+000
7496:0.0000000000000000e+000
7497:0.0000000000000000e+000
7498:0.0000000000000000e+000
7499:0.0000000000000000e+000
7500:0.0000000000000000e+000
7501:0.0000000000000000e+000
7502:0.0000000000000000e+000
7503:0.0000000000000000e+000
7504:0.0000000000000000e+000
7505:0.0000000000000000e+000
7506:0.0000000000000000e+000
7507:0.0000000000000000e+000
7508:0.0000000000000000e+000
7509:0.0000000000000000e+000
7510:0.0000000000000000e+000
7511:0.0000000000000000e+000
7512:0.0000000000000000e+000
7513:0.0000000000000000e+000
7514:0.0000000000000000e+000
7515:0.0000000000000000e+000
7516:0.0000000000000000e+000
7517:0.0000000000000000e+000
7518:0.0000000000000000e+000
7519:0.0000000000000000e+000
7520:0.0000000000000000e+000
7521:0.0000000000000000e+000
7522:0.0000000000000000e+000
7523:0.0000000000000000e+000
7524:0.0000000000000000e+000
7525:0.0000000000000000e+000
7526:0.0000000000000000e+000
7527:0.0000000000000000e+000
7528:0.0000000000000000e+000
7529:0.0000000000000000e+000
7530:0.0000000000000000e+000
7531:0.0000000000000000e+000
7532:0.0000000000000000e+000
7533:0.0000000000000000e+000
7534:0.0000000000000000e+000
7535:0.0000000000000000e+000
7536:0.0000000000000000e+000
7537:0.0000000000000000e+000
7538:0.0000000000000000e+000
7539:0.0000000000000000e+000
7540:0.0000000000000000e+000
7541:0.0000000000000000e+000
7542:0.0000000000000000e+000
7543:0.0000000000000000e+000
7544:0.0000000000000000e+000
7545:0.0000000000000000e+000
7546:0.0000000000000000e+000
7547:0.0000000000000000e+000
7548:0.0000000000000000e+000
7549:0.0000000000000000e+000
7550:0.0000000000000000e+000
7551:0.0000000000000000e+000
7552:0.0000000000000000e+000
7553:0.0000000000000000e+000
7554:0.0000000000000000e+000
7555:0.0000000000000000e+000
7556:0.0000000000000000e+000
7557:0.0000000000000000e+000
7558:0.0000000000000000e+000
7559:0.0000000000000000e+000
7560:0.0000000000000000e+000
7561:0.0000000000000000e+000
7562:0.0000000000000000e+000
7563:0.0000000000000000e+000
7564:0.0000000000000000e+000
7565:0.0000000000000000e+000
7566:0.0000000000000000e+000
7567:0.0000000000000000e+000
7568:0.0000000000000000e+000
7569:0.0000000000000000e+000
7570:0.0000000000000000e+000
7571:0.0000000000000000e+000
7572:0.0000000000000000e+000
7573:0.0000000000000000e+000
7574:0.0000000000000000e+000
7575:0.0000000000000000e+000
7576:0.0000000000000000e+000
7577:0.0000000000000000e+000
7578:0.0000000000000000e+000
7579:0.0000000000000000e+000
7580:0.0000000000000000e+000
7581:0.0000000000000000e+000
7582:0.0000000000000000e+000
7583:0.0000000000000000e+000
7584:0.0000000000000000e+000
7585:0.0000000000000000e+000
7586:0.0000000000000000e+000
7587:0.0000000000000000e+000
7588:0.0000000000000000e+000
7589:0.0000000000000000e+000
7590:0.0000000000000000e+000
7591:0.0000000000000000e+000
7592:0.0000000000000000e+000
7593:0.0000000000000000e+000
7594:0.0000000000000000e+000
7595:0.0000000000000000e+000
7596:0.0000000000000000e+000
7597:0.0000000000000000e+000
7598:0.0000000000000000e+000
7599:0.0000000000000000e+000
7600:0.0000000000000000e+000
7601:0.0000000000000000e+000
7602:0.0000000000000000e+000
7603:0.0000000000000000e+000
7604:0.0000000000000000e+000
7605:0.0000000000000000e+000
7606:0.0000000000000000e+000
7607:0.0000000000000000e+000
7608:0.0000000000000000e+000
7609:0.0000000000000000e+000
7610:0.0000000000000000e+000
7611:0.0000000000000000e+000
7612:0.0000000000000000e+000
7613:0.0000000000000000e+000
7614:0.0000000000000000e+000
7615:0.0000000000000000e+000
7616:0.0000000000000000e+000
7617:0.0000000000000000e+000
7618:0.0000000000000000e+000
7619:0.0000000000000000e+000
7620:0.0000000000000000e+000
7621:0.0000000000000000e+000
7622:0.0000000000000000e+000
7623:0.0000000000000000e+000
7624:0.0000000000000000e+000
7625:0.0000000000000000e+000
7626:0.0000000000000000e+000
7627:0.0000000000000000e+000
7628:0.0000000000000000e+000
7629:0.0000000000000000e+000
7630:0.0000000000000000e+000
7631:0.0000000000000000e+000
7632:0.0000000000000000e+000
7633:0.0000000000000000e+000
7634:0.0000000000000000e+000
7635:0.0000000000000000e+000
7636:0.0000000000000000e+000
7637:0.0000000000000000e+000
7638:0.0000000000000000e+000
7639:0.0000000000000000e+000
7640:0.0000000000000000e+000
7641:0.0000000000000000e+000
7642:0.0000000000000000e+000
7643:0.0000000000000000e+000
7644:0.0000000000000000e+000
7645:0.0000000000000000e+000
7646:0.0000000000000000e+000
7647:0.0000000000000000e+000
7648:0.0000000000000000e+000
7649:0.0000000000000000e+000
7650:0.0000000000000000e+000
7651:0.0000000000000000e+000
7652:0.0000000000000000e+000
7653:0.0000000000000000e+000
7654:0.0000000000000000e+000
7655:0.0000000000000000e+000
7656:0.0000000000000000e+000
7657:0.0000000000000000e+000
7658:0.0000000000000000e+000
7659:0.0000000000000000e+000
7660:0.0000000000000000e+000
7661:0.0000000000000000e+000
7662:0.0000000000000000e+000
7663:0.0000000000000000e+000
7664:0.0000000000000000e+000
7665:0.0000000000000000e+000
7666:0.0000000000000000e+000
7667:0.0000000000000000e+000
7668:0.0000000000000000e+000
7669:0.0000000000000000e+000
7670:0.0000000000000000e+000
7671:0.0000000000000000e+000
7672:0.0000000000000000e+000
7673:0.0000000000000000e+000
7674:0.0000000000000000e+000
7675:0.0000000000000000e+000
7676:0.0000000000000000e+000
7677:0.0000000000000000e+000
7678:0.0000000000000000e+000
7679:0.0000000000000000e+000
7680:0.0000000000000000e+000
7681:0.0000000000000000e+000
7682:0.0000000000000000e+000
7683:0.0000000000000000e+000
7684:0.0000000000000000e+000
7685:0.0000000000000000e+000
7686:0.0000000000000000e+000
7687:0.0000000000000000e+000
7688:0.0000000000000000e+000
7689:0.0000000000000000e+000
7690:0.0000000000000000e+000
7691:0.0000000000000000e+000
7692:0.0000000000000000e+000
7693:0.0000000000000000e+000
7694:0.0000000000000000e+000
7695:0.0000000000000000e+000
7696:0.0000000000000000e+000
7697:0.0000000000000000e+000
7698:0.0000000000000000e+000
7699:0.0000000000000000e+000
7700:0.0000000000000000e+000
7701:0.0000000000000000e+000
7702:0.0000000000000000e+000
7703:0.0000000000000000e+000
7704:0.0000000000000000e+000
7705:0.0000000000000000e+000
7706:0.0000000000000000e+000
7707:0.0000000000000000e+000
7708:0.0000000000000000e+000
7709:0.0000000000000000e+000
7710:0.0000000000000000e+000
7711:0.0000000000000000e+000
7712:0.0000000000000000e+000
7713:0.0000000000000000e+000
7714:0.0000000000000000e+000
7715:0.0000000000000000e+000
7716:0.0000000000000000e+000
7717:0.0000000000000000e+000
7718:0.0000000000000000e+000
7719:0.0000000000000000e+000
7720:0.0000000000000000e+000
7721:0.0000000000000000e+000
7722:0.0000000000000000e+000
7723:0.0000000000000000e+000
7724:0.0000000000000000e+000
7725:0.0000000000000000e+000
7726:0.0000000000000000e+000
7727:0.0000000000000000e+000
7728:0.0000000000000000e+000
7729:0.0000000000000000e+000
7730:0.0000000000000000e+000
7731:0.0000000000000000e+000
7732:0.0000000000000000e+000
7733:0.0000000000000000e+000
7734:0.0000000000000000e+000
7735:0.0000000000000000e+000
7736:0.0000000000000000e+000
7737:0.0000000000000000e+000
7738:0.0000000000000000e+000
7739:0.0000000000000000e+000
7740:0.0000000000000000e+000
7741:0.0000000000000000e+000
7742:0.0000000000000000e+000
7743:0.0000000000000000e+000
7744:0.0000000000000000e+000
7745:0.0000000000000000e+000
7746:0.0000000000000000e+000
7747:0.0000000000000000e+000
7748:0.0000000000000000e+000
7749:0.0000000000000000e+000
7750:0.0000000000000000e+000
7751:0.0000000000000000e+000
7752:0.0000000000000000e+000
7753:0.0000000000000000e+000
7754:0.0000000000000000e+000
7755:0.0000000000000000e+000
7756:0.0000000000000000e+000
7757:0.0000000000000000e+000
7758:0.0000000000000000e+000
7759:0.0000000000000000e+000
7760:0.0000000000000000e+000
7761:0.0000000000000000e+000
7762:0.0000000000000000e+000
7763:0.0000000000000000e+000
7764:0.0000000000000000e+000
7765:0.0000000000000000e+000
7766:0.0000000000000000e+000
7767:0.0000000000000000e+000
7768:0.0000000000000000e+000
7769:0.0000000000000000e+000
7770:0.0000000000000000e+000
7771:0.0000000000000000e+000
7772:0.0000000000000000e+000
7773:0.0000000000000000e+000
7774:0.0000000000000000e+000
7775:0.0000000000000000e+000
7776:0.0000000000000000e+000
7777:0.0000000000000000e+000
7778:0.0000000000000000e+000
7779:0.0000000000000000e+000
7780:0.0000000000000000e+000
7781:0.0000000000000000e+000
7782:0.0000000000000000e+000
7783:0.0000000000000000e+000
7784:0.0000000000000000e+000
7785:0.0000000000000000e+000
7786:0.0000000000000000e+000
7787:0.0000000000000000e+000
7788:0.0000000000000000e+000
7789:0.0000000000000000e+000
7790:0.0000000000000000e+000
7791:0.0000000000000000e+000
7792:0.0000000000000000e+000
7793:0.0000000000000000e+000
7794:0.0000000000000000e+000
7795:0.0000000000000000e+000
7796:0.0000000000000000e+000
7797:0.0000000000000000e+000
7798:0.0000000000000000e+000
7799:0.0000000000000000e+000
7800:0.0000000000000000e+000
7801:0.0000000000000000e+000
7802:0.0000000000000000e+000
7803:0.0000000000000000e+000
7804:0.0000000000000000e+000
7805:0.0000000000000000e+000
7806:0.0000000000000000e+000
7807:0.0000000000000000e+000
7808:0.0000000000000000e+000
7809:0.0000000000000000e+000
7810:0.0000000000000000e+000
7811:0.0000000000000000e+000
7812:0.0000000000000000e+000
7813:0.0000000000000000e+000
7814:0.0000000000000000e+000
7815:0.0000000000000000e+000
7816:0.0000000000000000e+000
7817:0.0000000000000000e+000
7818:0.0000000000000000e+000
7819:0.0000000000000000e+000
7820:0.0000000000000000e+000
7821:0.0000000000000000e+000
7822:0.0000000000000000e+000
7823:0.0000000000000000e+000
7824:0.0000000000000000e+000
7825:0.0000000000000000e+000
7826:0.0000000000000000e+000
7827:0.0000000000000000e+000
7828:0.0000000000000000e+000
7829:0.0000000000000000e+000
7830:0.0000000000000000e+000
7831:0.0000000000000000e+000
7832:0.0000000000000000e+000
7833:0.0000000000000000e+000
7834:0.0000000000000000e+000
7835:0.0000000000000000e+000
7836:0.0000000000000000e+000
7837:0.0000000000000000e+000
7838:0.0000000000000000e+000
7839:0.0000000000000000e+000
7840:0.0000000000000000e+000
7841:0.0000000000000000e+000
7842:0.0000000000000000e+000
7843:0.0000000000000000e+000
7844:0.0000000000000000e+000
7845:0.0000000000000000e+000
7846:0.0000000000000000e+000
7847:0.0000000000000000e+000
7848:0.0000000000000000e+000
7849:0.0000000000000000e+000
7850:0.0000000000000000e+000
7851:0.0000000000000000e+000
7852:0.0000000000000000e+000
7853:0.0000000000000000e+000
7854:0.0000000000000000e+000
7855:0.0000000000000000e+000
7856:0.0000000000000000e+000
7857:0.0000000000000000e+000
7858:0.0000000000000000e+000
7859:0.0000000000000000e+000
7860:0.0000000000000000e+000
7861:0.0000000000000000e+000
7862:0.0000000000000000e+000
7863:0.0000000000000000e+000
7864:0.0000000000000000e+000
7865:0.0000000000000000e+000
7866:0.0000000000000000e+000
7867:0.0000000000000000e+000
7868:0.0000000000000000e+000
7869:0.0000000000000000e+000
7870:0.0000000000000000e+000
7871:0.0000000000000000e+000
7872:0.0000000000000000e+000
7873:0.0000000000000000e+000
7874:0.0000000000000000e+000
7875:0.0000000000000000e+000
7876:0.0000000000000000e+000
7877:0.0000000000000000e+000
7878:0.0000000000000000e+000
7879:0.0000000000000000e+000
7880:0.0000000000000000e+000
7881:0.0000000000000000e+000
7882:0.0000000000000000e+000
7883:0.0000000000000000e+000
7884:0.0000000000000000e+000
7885:0.0000000000000000e+000
7886:0.0000000000000000e+000
7887:0.0000000000000000e+000
7888:0.0000000000000000e+000
7889:0.0000000000000000e+000
7890:0.0000000000000000e+000
7891:0.0000000000000000e+000
7892:0.0000000000000000e+000
7893:0.0000000000000000e+000
7894:0.0000000000000000e+000
7895:0.0000000000000000e+000
7896:0.0000000000000000e+000
7897:0.0000000000000000e+000
7898:0.0000000000000000e+000
7899:0.0000000000000000e+000
7900:0.0000000000000000e+000
7901:0.0000000000000000e+000
7902:0.0000000000000000e+000
7903:0.0000000000000000e+000
7904:0.0000000000000000e+000
7905:0.0000000000000000e+000
7906:0.0000000000000000e+000
7907:0.0000000000000000e+000
7908:0.0000000000000000e+000
7909:0.0000000000000000e+000
7910:0.0000000000000000e+000
7911:0.0000000000000000e+000
7912:0.0000000000000000e+000
7913:0.0000000000000000e+000
7914:0.0000000000000000e+000
7915:0.0000000000000000e+000
7916:0.0000000000000000e+000
7917:0.0000000000000000e+000
7918:0.0000000000000000e+000
7919:0.0000000000000000e+000
7920:0.0000000000000000e+000
7921:0.0000000000000000e+000
7922:0.0000000000000000e+000
7923:0.0000000000000000e+000
7924:0.0000000000000000e+000
7925:0.0000000000000000e+000
7926:0.0000000000000000e+000
7927:0.0000000000000000e+000
7928:0.0000000000000000e+000
7929:0.0000000000000000e+000
7930:0.0000000000000000e+000
7931:0.0000000000000000e+000
7932:0.0000000000000000e+000
7933:0.0000000000000000e+000
7934:0.0000000000000000e+000
7935:0.0000000000000000e+000
7936:0.0000000000000000e+000
7937:0.0000000000000000e+000
7938:0.0000000000000000e+000
7939:0.0000000000000000e+000
7940:0.0000000000000000e+000
7941:0.0000000000000000e+000
7942:0.0000000000000000e+000
7943:0.0000000000000000e+000
7944:0.0000000000000000e+000
7945:0.0000000000000000e+000
7946:0.0000000000000000e+000
7947:0.0000000000000000e+000
7948:0.0000000000000000e+000
7949:0.0000000000000000e+000
7950:0.0000000000000000e+000
7951:0.0000000000000000e+000
7952:0.0000000000000000e+000
7953:0.0000000000000000e+000
7954:0.0000000000000000e+000
7955:0.0000000000000000e+000
7956:0.0000000000000000e+000
7957:0.0000000000000000e+000
7958:0.0000000000000000e+000
7959:0.0000000000000000e+000
7960:0.0000000000000000e+000
7961:0.0000000000000000e+000
7962:0.0000000000000000e+000
7963:0.0000000000000000e+000
7964:0.0000000000000000e+000
7965:0.0000000000000000e+000
7966:0.0000000000000000e+000
7967:0.0000000000000000e+000
7968:0.0000000000000000e+000
7969:0.0000000000000000e+000
7970:0.0000000000000000e+000
7971:0.0000000000000000e+000
7972:0.0000000000000000e+000
7973:0.0000000000000000e+000
7974:0.0000000000000000e+000
7975:0.0000000000000000e+000
7976:0.0000000000000000e+000
7977:0.0000000000000000e+000
7978:0.0000000000000000e+000
7979:0.0000000000000000e+000
7980:0.0000000000000000e+000
7981:0.0000000000000000e+000
7982:0.0000000000000000e+000
7983:0.0000000000000000e+000
7984:0.0000000000000000e+000
7985:0.0000000000000000e+000
7986:0.0000000000000000e+000
7987:0.0000000000000000e+000
7988:0.0000000000000000e+000
7989:0.0000000000000000e+000
7990:0.0000000000000000e+000
7991:0.0000000000000000e+000
7992:0.0000000000000000e+000
7993:0.0000000000000000e+000
7994:0.0000000000000000e+000
7995:0.0000000000000000e+000
7996:0.0000000000000000e+000
7997:0.0000000000000000e+000
7998:0.0000000000000000e+000
7999:0.0000000000000000e+000
8000:0.0000000000000000e+000
8001:0.0000000000000000e+000
8002:0.0000000000000000e+000
8003:0.0000000000000000e+000
8004:0.0000000000000000e+000
8005:0.0000000000000000e+000
8006:0.0000000000000000e+000
8007:0.0000000000000000e+000
8008:0.0000000000000000e+000
8009:0.0000000000000000e+000
8010:0.0000000000000000e+000
8011:0.0000000000000000e+000
8012:0.0000000000000000e+000
8013:0.0000000000000000e+000
8014:0.0000000000000000e+000
8015:0.0000000000000000e+000
8016:0.0000000000000000e+000
8017:0.0000000000000000e+000
8018:0.0000000000000000e+000
8019:0.0000000000000000e+000
8020:0.0000000000000000e+000
8021:0.0000000000000000e+000
8022:0.0000000000000000e+000
8023:0.0000000000000000e+000
8024:0.0000000000000000e+000
8025:0.0000000000000000e+000
8026:0.0000000000000000e+000
8027:0.0000000000000000e+000
8028:0.0000000000000000e+000
8029:0.0000000000000000e+000
8030:0.0000000000000000e+000
8031:0.0000000000000000e+000
8032:0.0000000000000000e+000
8033:0.0000000000000000e+000
8034:0.0000000000000000e+000
8035:0.0000000000000000e+000
8036:0.0000000000000000e+000
8037:0.0000000000000000e+000
8038:0.0000000000000000e+000
8039:0.0000000000000000e+000
8040:0.0000000000000000e+000
8041:0.0000000000000000e+000
8042:0.0000000000000000e+000
8043:0.0000000000000000e+000
8044:0.0000000000000000e+000
8045:0.0000000000000000e+000
8046:0.0000000000000000e+000
8047:0.0000000000000000e+000
8048:0.0000000000000000e+000
8049:0.0000000000000000e+000
8050:0.0000000000000000e+000
8051:0.0000000000000000e+000
8052:0.0000000000000000e+000
8053:0.0000000000000000e+000
8054:0.0000000000000000e+000
8055:0.0000000000000000e+000
8056:0.0000000000000000e+000
8057:0.0000000000000000e+000
8058:0.0000000000000000e+000
8059:0.0000000000000000e+000
8060:0.0000000000000000e+000
8061:0.0000000000000000e+000
8062:0.0000000000000000e+000
8063:0.0000000000000000e+000
8064:0.0000000000000000e+000
8065:0.0000000000000000e+000
8066:0.0000000000000000e+000
8067:0.0000000000000000e+000
8068:0.0000000000000000e+000
8069:0.0000000000000000e+000
8070:0.0000000000000000e+000
8071:0.0000000000000000e+000
8072:0.0000000000000000e+000
8073:0.0000000000000000e+000
8074:0.0000000000000000e+000
8075:0.0000000000000000e+000
8076:0.0000000000000000e+000
8077:0.0000000000000000e+000
8078:0.0000000000000000e+000
8079:0.0000000000000000e+000
8080:0.0000000000000000e+000
8081:0.0000000000000000e+000
8082:0.0000000000000000e+000
8083:0.0000000000000000e+000
8084:0.0000000000000000e+000
8085:0.0000000000000000e+000
8086:0.0000000000000000e+000
8087:0.0000000000000000e+000
8088:0.0000000000000000e+000
8089:0.0000000000000000e+000
8090:0.0000000000000000e+000
8091:0.0000000000000000e+000
8092:0.0000000000000000e+000
8093:0.0000000000000000e+000
8094:0.0000000000000000e+000
8095:0.0000000000000000e+000
8096:0.0000000000000000e+000
8097:0.0000000000000000e+000
8098:0.0000000000000000e+000
8099:0.0000000000000000e+000
8100:0.0000000000000000e+000
8101:0.0000000000000000e+000
8102:0.0000000000000000e+000
8103:0.0000000000000000e+000
8104:0.0000000000000000e+000
8105:0.0000000000000000e+000
8106:0.0000000000000000e+000
8107:0.0000000000000000e+000
8108:0.0000000000000000e+000
8109:0.0000000000000000e+000
8110:0.0000000000000000e+000
8111:0.0000000000000000e+000
8112:0.0000000000000000e+000
8113:0.0000000000000000e+000
8114:0.0000000000000000e+000
8115:0.0000000000000000e+000
8116:0.0000000000000000e+000
8117:0.0000000000000000e+000
8118:0.0000000000000000e+000
8119:0.0000000000000000e+000
8120:0.0000000000000000e+000
8121:0.0000000000000000e+000
8122:0.0000000000000000e+000
8123:0.0000000000000000e+000
8124:0.0000000000000000e+000
8125:0.0000000000000000e+000
8126:0.0000000000000000e+000
8127:0.0000000000000000e+000
8128:0.0000000000000000e+000
8129:0.0000000000000000e+000
8130:0.0000000000000000e+000
8131:0.0000000000000000e+000
8132:0.0000000000000000e+000
8133:0.0000000000000000e+000
8134:0.0000000000000000e+000
8135:0.0000000000000000e+000
8136:0.0000000000000000e+000
8137:0.0000000000000000e+000
8138:0.0000000000000000e+000
8139:0.0000000000000000e+000
8140:0.0000000000000000e+000
8141:0.0000000000000000e+000
8142:0.0000000000000000e+000
8143:0.0000000000000000e+000
8144:0.0000000000000000e+000
8145:0.0000000000000000e+000
8146:0.0000000000000000e+000
8147:0.0000000000000000e+000
8148:0.0000000000000000e+000
8149:0.0000000000000000e+000
8150:0.0000000000000000e+000
8151:0.0000000000000000e+000
8152:0.0000000000000000e+000
8153:0.0000000000000000e+000
8154:0.0000000000000000e+000
8155:0.0000000000000000e+000
8156:0.0000000000000000e+000
8157:0.0000000000000000e+000
8158:0.0000000000000000e+000
8159:0.0000000000000000e+000
8160:0.0000000000000000e+000
8161:0.0000000000000000e+000
8162:0.0000000000000000e+000
8163:0.0000000000000000e+000
8164:0.0000000000000000e+000
8165:0.0000000000000000e+000
8166:0.0000000000000000e+000
8167:0.0000000000000000e+000
8168:0.0000000000000000e+000
8169:0.0000000000000000e+000
8170:0.0000000000000000e+000
8171:0.0000000000000000e+000
8172:0.0000000000000000e+000
8173:0.0000000000000000e+000
8174:0.0000000000000000e+000
8175:0.0000000000000000e+000
8176:0.0000000000000000e+000
8177:0.0000000000000000e+000
8178:0.0000000000000000e+000
8179:0.0000000000000000e+000
8180:0.0000000000000000e+000
8181:0.0000000000000000e+000
8182:0.0000000000000000e+000
8183:0.0000000000000000e+000
8184:0.0000000000000000e+000
8185:0.0000000000000000e+000
8186:0.0000000000000000e+000
8187:0.0000000000000000e+000
8188:0.0000000000000000e+000
8189:0.0000000000000000e+000
8190:0.0000000000000000e+000
8191:0.0000000000000000e+000
