label=Stress xy
num_items=1017

0:1.8066636824758010e+01
1:-2.5466150922253870e+00
2:-3.8505988816538710e+00
3:-3.9308913766654108e+00
4:-3.9868954136640342e+00
5:-3.8402038417913058e+00
6:3.5843649521891691e-01
7:-2.4877638111376701e+00
8:2.9306763266167379e-01
9:2.9641702783723032e+00
10:-3.2131169133351709e+00
11:-4.3685282394508365e+00
12:-3.8259228387049951e+00
13:-1.5964044219887414e+00
14:3.3875891128914670e-01
15:-9.3913814582064870e+00
16:-6.8941007981189744e+00
17:-4.4731298413319038e+00
18:-2.7885746719826519e+00
19:-1.6404732226106440e+00
20:-1.0243473535200744e+01
21:-7.0105164741578720e+00
22:-4.2266293210144656e+00
23:-2.7934431935939550e+00
24:-2.0350905270845367e+00
25:-3.2003485469335815e+00
26:-3.3972939213301041e+00
27:-3.5378224345961859e+00
28:-3.4970039693048931e+00
29:-3.3449173413887556e+00
30:-3.4890406275707373e+00
31:3.7109295049440258e+00
32:2.3879547107570289e+00
33:-3.9511878432339670e-01
34:-2.8080971865216955e+00
35:-1.6218483767908627e+00
36:-2.3595076332888789e+00
37:-3.5256275406054325e+00
38:-4.7268955018111711e+00
39:-5.5289491186872857e+00
40:-3.8565877539150808e+00
41:-4.8916855022546333e+00
42:-5.7380482685651790e+00
43:-5.9388447552781276e+00
44:-5.7912076703485411e+00
45:-3.8120344307677079e+00
46:-4.6375017735033959e+00
47:-5.1929421440517505e+00
48:-5.1066528311387378e+00
49:-4.7564143259084508e+00
50:-4.0837513607838716e+00
51:-4.1164219987084474e+00
52:-4.2089437998123662e+00
53:-4.3631136751617232e+00
54:-4.2215747663990388e+00
55:-4.1777335786080796e+00
56:1.3827210881399427e-01
57:9.6716988857355080e-01
58:1.6014930016104509e+00
59:1.5844256417813380e+00
60:-6.0468744088278985e+00
61:-5.2816237626580715e+00
62:-4.1892765630124496e+00
63:-3.0867804603303770e+00
64:-2.3029361212741049e+00
65:-8.3269484109938503e+00
66:-7.3678980261227620e+00
67:-6.2076715434423955e+00
68:-5.0209838574020029e+00
69:-4.0134541948282108e+00
70:-7.6436837700426201e+00
71:-6.7425322933398544e+00
72:-5.6828818853274408e+00
73:-4.6359163026530670e+00
74:-3.7580045540082492e+00
75:-3.7055083063190630e+00
76:-3.7935405697601943e+00
77:-3.8928053122206316e+00
78:-3.9532278050428755e+00
79:-3.7909683305573751e+00
80:-3.8570344113518984e+00
81:2.5871962149089085e+00
82:1.9963950251366755e+00
83:3.3972882236532831e-01
84:-1.4940490269735298e+00
85:-4.0307287768500979e+00
86:-3.8954450413541339e+00
87:-3.8761145836419191e+00
88:-3.9918546211205155e+00
89:-4.1040320443899381e+00
90:-6.5026525486179025e+00
91:-6.3912009205580516e+00
92:-6.0958114427241235e+00
93:-5.4712704564745165e+00
94:-4.7567839941464198e+00
95:-5.8700921298072970e+00
96:-5.8000352870961542e+00
97:-5.5096038836450854e+00
98:-4.8393229945503249e+00
99:-4.0733481148094395e+00
100:-3.9474802320633691e+00
101:-4.0120176894440061e+00
102:-4.1108686710054947e+00
103:-4.2174673890108778e+00
104:-4.0600481172277023e+00
105:-4.0762484437421236e+00
106:1.6136916257480971e+00
107:1.5748498403085165e+00
108:7.6580308090232208e-01
109:-5.1333917928681083e-01
110:-4.9940801647445214e+00
111:-4.6018702193807348e+00
112:-4.0922985702695192e+00
113:-3.6286026349055409e+00
114:-3.3204410767712886e+00
115:-7.6499767131149925e+00
116:-7.0953334497282095e+00
117:-6.3038136306669381e+00
118:-5.2696616781134349e+00
119:-4.2704947693303250e+00
120:-7.1373267476726001e+00
121:-6.5690605590563989e+00
122:-5.7695773734135889e+00
123:-4.7467618205731474e+00
124:-3.7693308747057626e+00
125:-3.8803221947169941e+00
126:-3.9496642417473464e+00
127:-4.0559554323433797e+00
128:-4.1339884139353495e+00
129:-3.9851579366970715e+00
130:-4.0126971333755872e+00
131:2.1287964130071977e+00
132:1.6195597848814893e+00
133:-4.1987638819576883e-01
134:-3.0162510509516993e+00
135:-4.9164993811663358e+00
136:-4.4735515270295405e+00
137:-4.0291628924938587e+00
138:-3.7274625343979659e+00
139:-3.5459322917102054e+00
140:-7.5182194247217797e+00
141:-7.0203149596532466e+00
142:-6.1816645754704220e+00
143:-4.8272949612235108e+00
144:-3.3845470046954289e+00
145:-6.7936761831888282e+00
146:-6.3810311160572422e+00
147:-5.6026349245444509e+00
148:-4.2546610129620932e+00
149:-2.7984989111424508e+00
150:-3.6686864392777827e+00
151:-3.6776500536409227e+00
152:-3.7972102938479604e+00
153:-3.8486153848009277e+00
154:-3.7146694530051736e+00
155:-3.7139244753085405e+00
156:1.6058763300434002e+00
157:-7.4817812628652580e-01
158:-8.5819843114069645e+00
159:-1.8608427702276952e+01
160:-5.2585767595578696e+00
161:-4.6556326756506650e+00
162:-3.7185321499912054e+00
163:-2.5381140769955852e+00
164:-1.4893906085773998e+00
165:-7.8955855884445807e+00
166:-7.0852790098925702e+00
167:-4.7578342926917276e+00
168:4.0236176185786066e-01
169:6.4025207019064574e+00
170:-7.1751129248743579e+00
171:-6.4587086016755917e+00
172:-4.2388001561527870e+00
173:8.5063900166997464e-01
174:6.8242787719994507e+00
175:-7.2509047678178487e+00
176:-7.1477983504078111e+00
177:-7.2676143917179061e+00
178:-7.2908557402902057e+00
179:-7.3009035748342619e+00
180:-7.2639207269849937e+00
181:-6.0614048981922233e+00
182:-4.8627154680593208e+00
183:-4.5578938012646413e+00
184:-4.6364185849345594e+00
185:-1.0216264041362928e+01
186:-8.8330998868057709e+00
187:-7.2645195861551848e+00
188:-6.1364265397916400e+00
189:-5.5602742068263806e+00
190:-1.1141167672570313e+01
191:-9.6359026435314021e+00
192:-7.6832055729084345e+00
193:-6.0795126793288157e+00
194:-5.2136543389460988e+00
195:-1.0535530729625874e+01
196:-8.8719993303880251e+00
197:-6.7521703433150231e+00
198:-5.0819134642750150e+00
199:-4.2420381465913302e+00
200:-7.0142127661903384e+00
201:-6.9818725628234146e+00
202:-6.9990230588503195e+00
203:-7.0319608198095995e+00
204:-7.0231629675577620e+00
205:-6.9975050389419327e+00
206:-6.3597604240541497e+00
207:-5.3086185631936340e+00
208:-4.2190095146717850e+00
209:-3.4342443325383418e+00
210:-9.4817113677552669e+00
211:-8.3864559735023860e+00
212:-6.9967557576742569e+00
213:-5.6705913189734103e+00
214:-4.6917391185399122e+00
215:-9.7630053970665163e+00
216:-8.4942691996923596e+00
217:-6.9817480365325402e+00
218:-5.6567513556842819e+00
219:-4.7315766861193298e+00
220:-8.5831962512615139e+00
221:-7.3627710191477682e+00
222:-5.9286455311711910e+00
223:-4.7421059086501538e+00
224:-3.9752799994159784e+00
225:-6.7331425274844063e+00
226:-6.7295425262260524e+00
227:-6.7407578447268950e+00
228:-6.7550204626104051e+00
229:-6.7478060638018027e+00
230:-6.7392775848002824e+00
231:-5.3441087540002368e+00
232:-5.1567834134918522e+00
233:-4.8125350835993137e+00
234:-4.4522443131501568e+00
235:-7.2268381981585854e+00
236:-7.1031855633270240e+00
237:-6.7394859638844204e+00
238:-6.0241668460835145e+00
239:-5.2563159847291869e+00
240:-7.1871472262097633e+00
241:-7.0111031674760991e+00
242:-6.5776923228944160e+00
243:-5.7831436756496810e+00
244:-4.9454630471030709e+00
245:-6.0693764859940229e+00
246:-5.8639660047157935e+00
247:-5.4454875871632282e+00
248:-4.7545693436923075e+00
249:-4.0500248737486881e+00
250:-7.2140120336543374e+00
251:-7.1980695705736428e+00
252:-7.2098017849823233e+00
253:-7.2371035691631826e+00
254:-7.2289184806140288e+00
255:-7.2081281527267249e+00
256:-6.2972066550221868e+00
257:-5.5126992322569164e+00
258:-4.6763386872502952e+00
259:-4.0360551402234508e+00
260:-9.0089412227401624e+00
261:-8.2568716899646795e+00
262:-7.2078452216947353e+00
263:-6.0291202842894149e+00
264:-5.0394316222067168e+00
265:-9.1321526381752740e+00
266:-8.2684887716223816e+00
267:-7.1186650351735095e+00
268:-5.8899382197590944e+00
269:-4.8817168958326675e+00
270:-7.9357376053800319e+00
271:-7.0841058541442727e+00
272:-5.9859193833411775e+00
273:-4.8904313067651319e+00
274:-4.0437432537166504e+00
275:-7.2503532049306161e+00
276:-7.2359039360810735e+00
277:-7.2473490344801021e+00
278:-7.2729022005552189e+00
279:-7.2649715420857710e+00
280:-7.2457286184104257e+00
281:-6.2336454386969820e+00
282:-5.5537507919358662e+00
283:-4.8629583041827260e+00
284:-4.3195255575457141e+00
285:-8.8872925277847976e+00
286:-8.2046666914784616e+00
287:-7.2454953890988678e+00
288:-6.1118748667380327e+00
289:-5.1096425459711954e+00
290:-8.8759881734265882e+00
291:-8.1444054465453419e+00
292:-7.1126289534242044e+00
293:-5.8967073183934922e+00
294:-4.8277543158381375e+00
295:-7.5562793560838051e+00
296:-6.8799715621497235e+00
297:-5.9365039516064311e+00
298:-4.8692403777729067e+00
299:-3.9661273701391084e+00
300:-7.2017832962852255e+00
301:-7.1773054868361479e+00
302:-7.1891187109644896e+00
303:-7.2218948196587975e+00
304:-7.2150772826333132e+00
305:-7.1863457560896187e+00
306:-6.4727972762475092e+00
307:-5.5179479423269067e+00
308:-4.4215044171977409e+00
309:-3.5106060340811127e+00
310:-9.3323863233656574e+00
311:-8.4824357109995709e+00
312:-7.1856667664946627e+00
313:-5.4908504270788487e+00
314:-3.9116415895982142e+00
315:-9.3609614465419018e+00
316:-8.4483688097362624e+00
317:-7.0827371577307208e+00
318:-5.3142921931876392e+00
319:-3.6637097463509569e+00
320:-8.0276662468032178e+00
321:-7.1803503850660650e+00
322:-5.9432961980063395e+00
323:-4.4147960382591833e+00
324:-3.0335252367933148e+00
325:-5.3613330921582234e+00
326:-5.2712849058999529e+00
327:-5.2986250693022905e+00
328:-5.3883714140859329e+00
329:-5.3181878209508682e+00
330:-5.2725324171661923e+00
331:-6.2806464442373748e+00
332:-4.0572210575785146e+00
333:-4.9135977253637958e-01
334:2.9628952744391759e+00
335:-9.4861581077372179e+00
336:-8.2914427652952618e+00
337:-5.2688817495175755e+00
338:4.8223545468399970e-01
339:6.6759083799053140e+00
340:-9.4202141317214938e+00
341:-8.2625745565063422e+00
342:-5.3067622659429352e+00
343:5.4238043801635993e-01
344:7.0008586292345161e+00
345:-7.9739179537149392e+00
346:-6.9900878613906832e+00
347:-4.5356332724698767e+00
348:2.9394245389084050e-01
349:5.6292056852492856e+00
350:-1.2061494764610666e+01
351:-1.1986160079858573e+01
352:-1.2076310095078574e+01
353:-1.2119461410867842e+01
354:-1.2160830919235847e+01
355:-1.2083787507493367e+01
356:-1.2852085692288941e+01
357:-9.2397175399847669e+00
358:-6.3443872121852056e+00
359:-4.7480687168584561e+00
360:-2.2451275497829332e+01
361:-1.7625069827471414e+01
362:-1.2071506835320788e+01
363:-8.0925672239053483e+00
364:-6.1512116154750709e+00
365:-2.5883829346598777e+01
366:-1.9638863507567962e+01
367:-1.2686418636504966e+01
368:-8.0668439576650979e+00
369:-6.0959037687308886e+00
370:-2.5522577252322304e+01
371:-1.8879266535513551e+01
372:-1.1573776669301733e+01
373:-6.9118335258097758e+00
374:-5.1117354908718378e+00
375:-9.5420385282602336e+00
376:-9.5069618116571597e+00
377:-9.5210101675740884e+00
378:-9.5437168561447052e+00
379:-9.5382795280818957e+00
380:-9.5201441155159898e+00
381:-8.6455772952424770e+00
382:-7.7165780647695472e+00
383:-6.5179107133028049e+00
384:-5.4899990559224330e+00
385:-1.1644759390627486e+01
386:-1.0812379694960876e+01
387:-9.5195065651161350e+00
388:-7.9747920189656387e+00
389:-6.6810164528233882e+00
390:-1.1856993293080629e+01
391:-1.0757640459539246e+01
392:-9.2361987802310495e+00
393:-7.6416635227325376e+00
394:-6.4083967538663114e+00
395:-1.0547320193676168e+01
396:-9.3349089937094654e+00
397:-7.7776120973196372e+00
398:-6.3232680482056960e+00
399:-5.2994756198596642e+00
400:-9.6780653396064693e+00
401:-9.6514800603611057e+00
402:-9.6601755453702456e+00
403:-9.6845492284903152e+00
404:-9.6795422401000071e+00
405:-9.6591537192640882e+00
406:-9.0057600228916606e+00
407:-7.8627134533405760e+00
408:-6.4268337375207949e+00
409:-5.1964579483084101e+00
410:-1.2027074557284898e+01
411:-1.1075948900174739e+01
412:-9.6586250009247632e+00
413:-7.9773555044665585e+00
414:-6.5426580410643993e+00
415:-1.1936146901030211e+01
416:-1.0832067537583983e+01
417:-9.3215237767580081e+00
418:-7.6988025343957780e+00
419:-6.3892040490337783e+00
420:-1.0345472432845076e+01
421:-9.2396013782484232e+00
422:-7.7999184924916323e+00
423:-6.3841667364238655e+00
424:-5.3221396395697642e+00
425:-9.8239500501322130e+00
426:-9.7975450788500194e+00
427:-9.8057857893985378e+00
428:-9.8297860436872178e+00
429:-9.8249821096263030e+00
430:-9.8048060167764230e+00
431:-9.1108545093831985e+00
432:-8.0185539276378304e+00
433:-6.6331498731739265e+00
434:-5.4230194794288860e+00
435:-1.2085970787942706e+01
436:-1.1180428944512178e+01
437:-9.8042695683435621e+00
438:-8.1122444484227874e+00
439:-6.6280084730666387e+00
440:-1.1903069555926146e+01
441:-1.0875501041694083e+01
442:-9.4202903549908630e+00
443:-7.7697855520450583e+00
444:-6.3844208497026020e+00
445:-1.0225944376199305e+01
446:-9.2165745007915358e+00
447:-7.8518035366356029e+00
448:-6.4218962796870569e+00
449:-5.2931909234300107e+00
450:-1.0023857169011414e+01
451:-9.9945625891054970e+00
452:-1.0002964500863815e+01
453:-1.0029107197961988e+01
454:-1.0024090504633740e+01
455:-1.0001941438694493e+01
456:-9.3958960874088611e+00
457:-8.1679660749327034e+00
458:-6.6477033956139682e+00
459:-5.3374022382696413e+00
460:-1.2561529704445970e+01
461:-1.1527973605656852e+01
462:-1.0001331235486935e+01
463:-8.1722396094804086e+00
464:-6.5845695777311235e+00
465:-1.2403655779802301e+01
466:-1.1238639440486290e+01
467:-9.6304896106951929e+00
468:-7.8527680108010660e+00
469:-6.3770811089442718e+00
470:-1.0690987779238753e+01
471:-9.5526412569923558e+00
472:-8.0448355745873172e+00
473:-6.5021661561764921e+00
474:-5.2999461691982646e+00
475:-9.8187795567359366e+00
476:-9.7771111145480560e+00
477:-9.7855093398763469e+00
478:-9.8177871191033468e+00
479:-9.8136001545102935e+00
480:-9.7834352124751227e+00
481:-9.5281576922348794e+00
482:-7.9395951755245378e+00
483:-5.7858919702373051e+00
484:-3.8286695801223121e+00
485:-1.2868598618224452e+01
486:-1.1696983140706370e+01
487:-9.7824663783380128e+00
488:-7.1924852315510579e+00
489:-4.7833589339471523e+00
490:-1.2631101189791732e+01
491:-1.1377743641372650e+01
492:-9.4569927213666034e+00
493:-6.9984746499389132e+00
494:-4.7598798574513186e+00
495:-1.0804586818022369e+01
496:-9.6317803691306292e+00
497:-7.9106685290765988e+00
498:-5.8430296280830705e+00
499:-4.0353547875228442e+00
500:-6.7018123184595320e+00
501:-6.5610679608358140e+00
502:-6.5881908447264630e+00
503:-6.6833694525858691e+00
504:-6.6079047885040572e+00
505:-6.5602226418893368e+00
506:-9.0956078567102310e+00
507:-4.7284811889407248e+00
508:3.0207736326822006e+00
509:1.0804720551967813e+01
510:-1.3137541249206791e+01
511:-1.1346870456026483e+01
512:-6.5564588522357115e+00
513:2.4349805351113130e+00
514:1.1922307817599886e+01
515:-1.2887299620728335e+01
516:-1.1160433456010434e+01
517:-6.8609458408834030e+00
518:1.2346816840778922e+00
519:9.9164137474960974e+00
520:-1.1016626736624946e+01
521:-9.5035387654054464e+00
522:-5.9899934604148664e+00
523:4.5800445602190154e-01
524:7.3472705669955527e+00
525:-1.5212776585896339e+01
526:-1.5122622316398111e+01
527:-1.5230063046433829e+01
528:-1.5279959761727786e+01
529:-1.5327576150342630e+01
530:-1.5238575642581278e+01
531:-1.6088825607717624e+01
532:-1.1800843966579315e+01
533:-8.4484227921943376e+00
534:-6.6153309506434992e+00
535:-2.6944276486606757e+01
536:-2.1550714436399062e+01
537:-1.5224499388732170e+01
538:-1.0567726710236263e+01
539:-8.2327315408524431e+00
540:-3.0575608864660239e+01
541:-2.3688055805051093e+01
542:-1.5827205869688017e+01
543:-1.0413306303039848e+01
544:-8.0087839218048007e+00
545:-2.9977402553589354e+01
546:-2.2601516883214085e+01
547:-1.4318134755472254e+01
548:-8.8639092653018565e+00
549:-6.6712901467608310e+00
550:-1.2428531724851547e+01
551:-1.2363655607377384e+01
552:-1.2379727422765738e+01
553:-1.2417474116856633e+01
554:-1.2410136529437713e+01
555:-1.2378768500416784e+01
556:-1.1871100591947920e+01
557:-1.0071508877863335e+01
558:-8.0191652947131278e+00
559:-6.3875609287481838e+00
560:-1.6428324454140256e+01
561:-1.4731169461289980e+01
562:-1.2377383322340270e+01
563:-9.9323129058507273e+00
564:-8.0679169988010617e+00
565:-1.6771839317184202e+01
566:-1.4706236088831410e+01
567:-1.2061879211009366e+01
568:-9.6154342750021371e+00
569:-7.9124233240065660e+00
570:-1.4986203296793063e+01
571:-1.2847313187935805e+01
572:-1.0227283428892134e+01
573:-8.0105810966299522e+00
574:-6.6106227008178760e+00
575:-1.2137324072202679e+01
576:-1.2103061671670879e+01
577:-1.2112548676270398e+01
578:-1.2142904984121877e+01
579:-1.2137186852698566e+01
580:-1.2111382540735363e+01
581:-1.1359529105562974e+01
582:-9.9757468993470191e+00
583:-8.1379904458239363e+00
584:-6.5323471800609196e+00
585:-1.4932241685944545e+01
586:-1.3840723009321328e+01
587:-1.2110660736401245e+01
588:-9.9647392963338390e+00
589:-8.1113296438900786e+00
590:-1.4806254821562145e+01
591:-1.3497677245626601e+01
592:-1.1637584365991627e+01
593:-9.5757546706378420e+00
594:-7.8975773082138065e+00
595:-1.2871359956075990e+01
596:-1.1523126297964744e+01
597:-9.7318324153399782e+00
598:-7.9373661442585028e+00
599:-6.5833203883797857e+00
600:-1.2381465753460111e+01
601:-1.2344075408974179e+01
602:-1.2353496324702784e+01
603:-1.2386035306380776e+01
604:-1.2380191257308677e+01
605:-1.2352304564974874e+01
606:-1.1714757866909522e+01
607:-1.0175013250331704e+01
608:-8.2009438075871834e+00
609:-6.4984296983956193e+00
610:-1.5479639026120891e+01
611:-1.4243262308094858e+01
612:-1.2351496749706756e+01
613:-1.0067767043304560e+01
614:-8.1132771494510223e+00
615:-1.5310917893519171e+01
616:-1.3875224390909320e+01
617:-1.1873213493920638e+01
618:-9.6910893307258874e+00
619:-7.9254123072781946e+00
620:-1.3277371884303246e+01
621:-1.1834628546739198e+01
622:-9.9322573263376022e+00
623:-8.0402749584586815e+00
624:-6.6165649225780632e+00
625:-1.2580183171785798e+01
626:-1.2540363695134971e+01
627:-1.2549417636917575e+01
628:-1.2583458295450873e+01
629:-1.2577650894257451e+01
630:-1.2548234021928259e+01
631:-1.1982098362953426e+01
632:-1.0356859509839520e+01
633:-8.3211656277379582e+00
634:-6.5703611695592041e+00
635:-1.5884343662270826e+01
636:-1.4549490147483359e+01
637:-1.2547351801314752e+01
638:-1.0156655058263048e+01
639:-8.1099280065874666e+00
640:-1.5651842670834984e+01
641:-1.4142813372275901e+01
642:-1.2044743552167821e+01
643:-9.7518960003759396e+00
644:-7.8860165761393572e+00
645:-1.3509849707755704e+01
646:-1.2029899633310293e+01
647:-1.0064748190887965e+01
648:-8.0841240740895568e+00
649:-6.5758266842300825e+00
650:-1.2260829707799724e+01
651:-1.2205028992570551e+01
652:-1.2214709192080612e+01
653:-1.2257041688369920e+01
654:-1.2252036231304146e+01
655:-1.2212113832235767e+01
656:-1.2117694114816208e+01
657:-9.9759993858752267e+00
658:-7.0176046605688756e+00
659:-4.3461766903459846e+00
660:-1.6235884173357480e+01
661:-1.4727374416417629e+01
662:-1.2210784480975777e+01
663:-8.8260432200722132e+00
664:-5.7270030317529859e+00
665:-1.5978265164253473e+01
666:-1.4328287202927209e+01
667:-1.1811334320827806e+01
668:-8.6699854851090734e+00
669:-5.8760586103447938e+00
670:-1.3775169521484516e+01
671:-1.2191791747808294e+01
672:-9.9124724068287495e+00
673:-7.2796344068318497e+00
674:-5.0485790120582790e+00
675:-8.0077740861217013e+00
676:-7.8236170821008955e+00
677:-7.8611986815174086e+00
678:-7.9859745830963735e+00
679:-7.8862855051396252e+00
680:-7.8239826014771312e+00
681:-1.1415410726984081e+01
682:-5.4041946119768056e+00
683:5.1652564856079461e+00
684:1.5637686910285904e+01
685:-1.6513092422743565e+01
686:-1.4163820263527564e+01
687:-7.8191046639431860e+00
688:3.8430538861648782e+00
689:1.5934354401363171e+01
690:-1.6203622980913572e+01
691:-1.3949716034759007e+01
692:-8.3827365766640884e+00
693:1.8177896302926688e+00
694:1.2560766273327816e+01
695:-1.3913477128131783e+01
696:-1.1926393919340395e+01
697:-7.4079854868200883e+00
698:6.1932451421189216e-01
699:9.0350274368123564e+00
700:-1.9360261492942655e+01
701:-1.9253552264268222e+01
702:-1.9383209424556387e+01
703:-1.9453376141079691e+01
704:-1.9522255804947484e+01
705:-1.9396384475702614e+01
706:-2.1100269623920813e+01
707:-1.5020492388381761e+01
708:-1.0258946743212892e+01
709:-7.6839410721948171e+00
710:-3.6270225348917329e+01
711:-2.8454006932925317e+01
712:-1.9375465350094530e+01
713:-1.2845583033065507e+01
714:-9.6987350396996401e+00
715:-4.1614487904415938e+01
716:-3.1603774873594507e+01
717:-2.0311817848930481e+01
718:-1.2736308605039310e+01
719:-9.5344584056002297e+00
720:-4.1115394886731337e+01
721:-3.0436420958928917e+01
722:-1.8560744583062295e+01
723:-1.0915867236108316e+01
724:-7.9880933666102010e+00
725:-1.5034587195331229e+01
726:-1.4954678450061987e+01
727:-1.4972000580816749e+01
728:-1.5017509157460415e+01
729:-1.5009154256502807e+01
730:-1.4970984074695513e+01
731:-1.4452277521859502e+01
732:-1.2298443622419189e+01
733:-9.7574995663060662e+00
734:-7.7104988932518328e+00
735:-1.9739773870480018e+01
736:-1.7776480281090095e+01
737:-1.4969218568665591e+01
738:-1.1972061609307566e+01
739:-9.6608630404932399e+00
740:-2.0144375568983332e+01
741:-1.7709871111158730e+01
742:-1.4541399233258735e+01
743:-1.1558551478880361e+01
744:-9.4641269225662707e+00
745:-1.8058321219551409e+01
746:-1.5493778655139838e+01
747:-1.2329572975682574e+01
748:-9.6291520441297394e+00
749:-7.9143043814212470e+00
750:-1.4758558565110830e+01
751:-1.4712578173127049e+01
752:-1.4723188508864212e+01
753:-1.4762563139146765e+01
754:-1.4755793654749862e+01
755:-1.4721808266872037e+01
756:-1.4057216147127031e+01
757:-1.2184505328316549e+01
758:-9.7547011699822228e+00
759:-7.6690861524095322e+00
760:-1.8494727981798437e+01
761:-1.7015845659871086e+01
762:-1.4720794289165715e+01
763:-1.1966762377689397e+01
764:-9.6469868887571089e+00
765:-1.8349309599143396e+01
766:-1.6593426679641702e+01
767:-1.4146608353648530e+01
768:-1.1533664624084050e+01
769:-9.4734251920068946e+00
770:-1.6004478819578068e+01
771:-1.4205527666325096e+01
772:-1.1854055932084464e+01
773:-9.5827220494929772e+00
774:-7.9305905669760746e+00
775:-1.4959467506059909e+01
776:-1.4911251870079631e+01
777:-1.4921470340429440e+01
778:-1.4962211354083164e+01
779:-1.4955498169141636e+01
780:-1.4920102107090134e+01
781:-1.4323474501005172e+01
782:-1.2373307939448845e+01
783:-9.8711038825014796e+00
784:-7.7219841228974593e+00
785:-1.8864877505597615e+01
786:-1.7308278790131343e+01
787:-1.4919017623758194e+01
788:-1.2059602840646130e+01
789:-9.6416408894000192e+00
790:-1.8659167140436285e+01
791:-1.6845804790109653e+01
792:-1.4319156552970210e+01
793:-1.1603167719206363e+01
794:-9.4429165581455994e+00
795:-1.6219023906644885e+01
796:-1.4391384292333381e+01
797:-1.1988160571305981e+01
798:-9.6356103223080360e+00
799:-7.9008090150550654e+00
800:-1.5154186478163201e+01
801:-1.5103765583472539e+01
802:-1.5113851243110879e+01
803:-1.5156069902217041e+01
804:-1.5149305829185446e+01
805:-1.5112472713254489e+01
806:-1.4588475639795726e+01
807:-1.2539109119950583e+01
808:-9.9381329176318634e+00
809:-7.7080209622778879e+00
810:-1.9243154629945845e+01
811:-1.7601727857153790e+01
812:-1.5111325720019376e+01
813:-1.2144671871014245e+01
814:-9.6307096098682532e+00
815:-1.8990868453203269e+01
816:-1.7109651001092217e+01
817:-1.4499833795167950e+01
818:-1.1689843045877652e+01
819:-9.4418898612474322e+00
820:-1.6469581703034216e+01
821:-1.4598464628751602e+01
822:-1.2136405214000982e+01
823:-9.7104883148296786e+00
824:-7.9055875431771527e+00
825:-1.4722969455454514e+01
826:-1.4653093726172628e+01
827:-1.4663971483463380e+01
828:-1.4716282747945860e+01
829:-1.4710492173824012e+01
830:-1.4660866304648399e+01
831:-1.4711632472636188e+01
832:-1.2031079600243226e+01
833:-8.3078016502928218e+00
834:-4.9594590521149629e+00
835:-1.9627083050392883e+01
836:-1.7777342087768993e+01
837:-1.4659175731885972e+01
838:-1.0488600903967852e+01
839:-6.7107540317860623e+00
840:-1.9318608058914769e+01
841:-1.7283160700667430e+01
842:-1.4174589357516869e+01
843:-1.0346758470861490e+01
844:-6.9935636664577636e+00
845:-1.6699079041744028e+01
846:-1.4731483190340136e+01
847:-1.1910930495870447e+01
848:-8.7119998194309520e+00
849:-6.0511818565860471e+00
850:-9.3284356987462438e+00
851:-9.1009431408651142e+00
852:-9.1490513985854065e+00
853:-9.3033901800233725e+00
854:-9.1794749610224819e+00
855:-9.1025761656307882e+00
856:-1.3742118299572217e+01
857:-6.0927085577064499e+00
858:7.3017579506057073e+00
859:2.0473556934116370e+01
860:-1.9901757083781405e+01
861:-1.6993010573939532e+01
862:-9.0965874519091781e+00
863:5.2398989829138900e+00
864:1.9947414185021461e+01
865:-1.9567131320052077e+01
866:-1.6769368085729923e+01
867:-9.9237823259520752e+00
868:2.3910802125200226e+00
869:1.5209044878341837e+01
870:-1.6887187376981370e+01
871:-1.4396530563130389e+01
872:-8.8491395480597319e+00
873:7.7288245300154201e-01
874:1.0728625582781037e+01
875:-2.1854566410477677e+01
876:-2.1767190810476787e+01
877:-2.1877873639401532e+01
878:-2.1956747579167622e+01
879:-2.2037734897705011e+01
880:-2.1894916957191569e+01
881:-2.4408857777819165e+01
882:-1.7270126162298318e+01
883:-1.1612251159157498e+01
884:-8.5016772977724884e+00
885:-4.1023168198703949e+01
886:-3.2199760595165714e+01
887:-2.1869313071393037e+01
888:-1.4339715636289217e+01
889:-1.0647714469745328e+01
890:-4.5595505452896056e+01
891:-3.4776529007941335e+01
892:-2.2478380462537203e+01
893:-1.4104356387653560e+01
894:-1.0474724938012754e+01
895:-4.3290363529278139e+01
896:-3.2319266670165327e+01
897:-2.0029355709914480e+01
898:-1.1985774530811762e+01
899:-8.7943314492205751e+00
900:-1.7080944922019011e+01
901:-1.6977682165161134e+01
902:-1.6991724879825330e+01
903:-1.7047071184356781e+01
904:-1.7038586573922220e+01
905:-1.6990962783840168e+01
906:-1.6922643967749714e+01
907:-1.4175081721368450e+01
908:-1.0990101760090214e+01
909:-8.4565631998222539e+00
910:-2.2954765069654329e+01
911:-2.0482684914972769e+01
912:-1.6988493264484429e+01
913:-1.3337976474865066e+01
914:-1.0579494763582373e+01
915:-2.3054908573529232e+01
916:-2.0142157294013572e+01
917:-1.6360212665447687e+01
918:-1.2838323129602708e+01
919:-1.0402015906182719e+01
920:-2.0231482937895205e+01
921:-1.7343486285230661e+01
922:-1.3758783771122015e+01
923:-1.0683259796731056e+01
924:-8.7281235091596567e+00
925:-1.6604144968053696e+01
926:-1.6546686276975567e+01
927:-1.6554952725972562e+01
928:-1.6601020231009130e+01
929:-1.6594702167303897e+01
930:-1.6553665902549778e+01
931:-1.6207138701615463e+01
932:-1.3947650358005259e+01
933:-1.0998193877958441e+01
934:-8.4693834316433705e+00
935:-2.1002239488652769e+01
936:-1.9270263406629823e+01
937:-1.6552285794984176e+01
938:-1.3286226612225382e+01
939:-1.0550116352016317e+01
940:-2.0537962715592720e+01
941:-1.8557349455599290e+01
942:-1.5758355096366435e+01
943:-1.2740899185521723e+01
944:-1.0360044935583074e+01
945:-1.7610132215390681e+01
946:-1.5682029283209571e+01
947:-1.3112649202034264e+01
948:-1.0570371121835180e+01
949:-8.6919214655746249e+00
950:-1.6802579289538450e+01
951:-1.6742779509137456e+01
952:-1.6750791193293775e+01
953:-1.6798373230502683e+01
954:-1.6792049619519865e+01
955:-1.6749503301906714e+01
956:-1.6487055333827104e+01
957:-1.4121646176092852e+01
958:-1.1070025771863062e+01
959:-8.4576908895916514e+00
960:-2.1387146991412752e+01
961:-1.9569842376453391e+01
962:-1.6748053505573331e+01
963:-1.3370126315219396e+01
964:-1.0533926842604910e+01
965:-2.0835600056627325e+01
966:-1.8804607353886645e+01
967:-1.5934112315166523e+01
968:-1.2822870173738266e+01
969:-1.0350807369630147e+01
970:-1.7785909376136374e+01
971:-1.5849486051305821e+01
972:-1.3248384640877939e+01
973:-1.0639633345415984e+01
974:-8.6891947509125416e+00
975:-1.7000553638002405e+01
976:-1.6938276074199770e+01
977:-1.6945909225535051e+01
978:-1.6995014425647053e+01
979:-1.6988731407866780e+01
980:-1.6944630020448134e+01
981:-1.6765819439059154e+01
982:-1.4303737371752431e+01
983:-1.1168769311600792e+01
984:-8.4887067256807676e+00
985:-2.1783961500981384e+01
986:-1.9873532197605886e+01
987:-1.6943104437379922e+01
988:-1.3453594431958042e+01
989:-1.0518876737206677e+01
990:-2.1148429010585886e+01
991:-1.9057705263890565e+01
992:-1.6104251417049003e+01
993:-1.2889177754298235e+01
994:-1.0319143239478240e+01
995:-1.7973839253547478e+01
996:-1.6021656529410318e+01
997:-1.3377963013829882e+01
998:-1.0691513332310002e+01
999:-8.6609975099428897e+00
1000:-1.6437571666005812e+01
1001:-1.6352999729960032e+01
1002:-1.6361880227214758e+01
1003:-1.6422826172775071e+01
1004:-1.6417471022258773e+01
1005:-1.6358622342100308e+01
1006:-1.6852829217908393e+01
1007:-1.3632017757222913e+01
1008:-9.1303262739031794e+00
1009:-5.0947274226947723e+00
1010:-2.2133747412215026e+01
1011:-2.0004653885283663e+01
1012:-1.6356483362799878e+01
1013:-1.1471143821874339e+01
1014:-7.0754466339453872e+00
1015:-2.1430942673251330e+01
1016:-1.9188423796769353e+01
1017:-1.5687288958501288e+01
1018:-1.1329411877642110e+01
1019:-7.5172650241888377e+00
1020:-1.8154167554881401e+01
1021:-1.6115864482086103e+01
1022:-1.3089728967968197e+01
1023:-9.5496047306170269e+00
1024:-6.5696286087671449e+00
1025:-9.9699265554494989e+00
1026:-9.7012446905237049e+00
1027:-9.7560534742608755e+00
1028:-9.9377979601763915e+00
1029:-9.7925621651407475e+00
1030:-9.7018190070069785e+00
1031:-1.5613768046011810e+01
1032:-6.3647678253253765e+00
1033:9.7751933598209089e+00
1034:2.5560508396379074e+01
1035:-2.2394228696258367e+01
1036:-1.9002404035245259e+01
1037:-9.6947197979817279e+00
1038:7.0644448412907739e+00
1039:2.4108044245513391e+01
1040:-2.1631210223907473e+01
1041:-1.8510842193715515e+01
1042:-1.0677939336016054e+01
1043:3.3923324707469202e+00
1044:1.7940115093608021e+01
1045:-1.8256586715917063e+01
1046:-1.5644000825863444e+01
1047:-9.5077105582403636e+00
1048:1.3031562837607245e+00
1049:1.2479982159749028e+01
1050:-3.0652778210967508e+01
1051:-3.1091343259891968e+01
1052:-3.0632564153818837e+01
1053:-3.0714743175552432e+01
1054:-3.0862229244402105e+01
1055:-3.0690121925354500e+01
1056:-3.9628247755126061e+01
1057:-2.8339615303856689e+01
1058:-1.9998469799535609e+01
1059:-1.5812054196097918e+01
1060:-5.7782013842067194e+01
1061:-4.5060317513128567e+01
1062:-3.0626549421876899e+01
1063:-2.0792201068526840e+01
1064:-1.6497050717535956e+01
1065:-4.2129336360507828e+01
1066:-3.2038200737691284e+01
1067:-2.0823875339826316e+01
1068:-1.3582888248729269e+01
1069:-1.0771261745729900e+01
1070:-1.1125819695291732e+01
1071:-8.3457455521260258e+00
1072:-5.2848741910624488e+00
1073:-3.3600806663098117e+00
1074:-2.6614021486215913e+00
1075:-2.3400378720614402e+01
1076:-2.3432786569111542e+01
1077:-2.3356958903291417e+01
1078:-2.3407279655716447e+01
1079:-2.3430634819674392e+01
1080:-2.3365060244611698e+01
1081:-2.6769760989665485e+01
1082:-2.3005949432730453e+01
1083:-1.8922542445535001e+01
1084:-1.5749158055964502e+01
1085:-3.0863833692434600e+01
1086:-2.7611166698946597e+01
1087:-2.3356823133658594e+01
1088:-1.9297394250732832e+01
1089:-1.6401828288744401e+01
1090:-2.0437572906676806e+01
1091:-1.7979796259044022e+01
1092:-1.4959723886993034e+01
1093:-1.2369615966501469e+01
1094:-1.0699572430089558e+01
1095:-4.8799993954526268e+00
1096:-4.3260441473018263e+00
1097:-3.6243515587075659e+00
1098:-3.0193851122530235e+00
1099:-2.6426407581837434e+00
1100:-2.2781640464765978e+01
1101:-2.2806026097289099e+01
1102:-2.2757455006514551e+01
1103:-2.2795334537348452e+01
1104:-2.2822248071778841e+01
1105:-2.2762968709701230e+01
1106:-2.5652295611472073e+01
1107:-2.2630628479683807e+01
1108:-1.8916869952991295e+01
1109:-1.5761155858458354e+01
1110:-2.8202577547359748e+01
1111:-2.5952552105982083e+01
1112:-2.2757945652910998e+01
1113:-1.9243618935485518e+01
1114:-1.6407837537663593e+01
1115:-1.8087335943093159e+01
1116:-1.6517248354408743e+01
1117:-1.4419642405096312e+01
1118:-1.2305563875482424e+01
1119:-1.0705297054809288e+01
1120:-3.9242589900491742e+00
1121:-3.7583606002711050e+00
1122:-3.4271736379677504e+00
1123:-2.9951899514975993e+00
1124:-2.6446229993749042e+00
1125:-2.3013487438719480e+01
1126:-2.3038320386704449e+01
1127:-2.2988694750876711e+01
1128:-2.3027623153176414e+01
1129:-2.3055083857395218e+01
1130:-2.2994319630829715e+01
1131:-2.6034531687256187e+01
1132:-2.2891098060272821e+01
1133:-1.9054742892092211e+01
1134:-1.5788698330537269e+01
1135:-2.8546534190927488e+01
1136:-2.6254329174352499e+01
1137:-2.2989181837300936e+01
1138:-1.9362671005847687e+01
1139:-1.6408415932124434e+01
1140:-1.7993546899310026e+01
1141:-1.6543144351857414e+01
1142:-1.4518292961942942e+01
1143:-1.2372495788565130e+01
1144:-1.0700509810317056e+01
1145:-3.3556791783799724e+00
1146:-3.4775035393921172e+00
1147:-3.3719992919434385e+00
1148:-3.0034082306029894e+00
1149:-2.6432341527289607e+00
1150:-2.3239421548752230e+01
1151:-2.3264626290594723e+01
1152:-2.3214014766795188e+01
1153:-2.3254064904940794e+01
1154:-2.3282013690469572e+01
1155:-2.3219738801140593e+01
1156:-2.6408449017160621e+01
1157:-2.3137584087904806e+01
1158:-1.9175108212002293e+01
1159:-1.5800245563860832e+01
1160:-2.8898829824513587e+01
1161:-2.6556881746774991e+01
1162:-2.3214490093937314e+01
1163:-1.9477055357415395e+01
1164:-1.6411353219897496e+01
1165:-1.7931639931807272e+01
1166:-1.6584329285708318e+01
1167:-1.4619521829159282e+01
1168:-1.2441710603036448e+01
1169:-1.0704158109036902e+01
1170:-2.8373700842047813e+00
1171:-3.2228377736131257e+00
1172:-3.3239196322702700e+00
1173:-3.0133921389945870e+00
1174:-2.6447548919838857e+00
1175:-2.2799189508522378e+01
1176:-2.2820345929543727e+01
1177:-2.2768613441336182e+01
1178:-2.2822783474420017e+01
1179:-2.2849369530748714e+01
1180:-2.2773858130205237e+01
1181:-2.6599109004097798e+01
1182:-2.2487078889209204e+01
1183:-1.6916436292201539e+01
1184:-1.1864002084002212e+01
1185:-2.9229726630909656e+01
1186:-2.6730190055775132e+01
1187:-2.2768127360614809e+01
1188:-1.7681357571548219e+01
1189:-1.3121257582201610e+01
1190:-1.7844222739754468e+01
1191:-1.6563032279380458e+01
1192:-1.4407909911534361e+01
1193:-1.1555641463669117e+01
1194:-8.9972173887551019e+00
1195:-2.2865387073807373e+00
1196:-2.9428228155640954e+00
1197:-3.2128720377592925e+00
1198:-2.8296114801370020e+00
1199:-2.2889739740328765e+00
1200:-1.7161606666774400e+01
1201:-1.7142955593232848e+01
1202:-1.7124660364663434e+01
1203:-1.7311149257213795e+01
1204:-1.7188962185929416e+01
1205:-1.7088836306192022e+01
1206:-2.5454002682436293e+01
1207:-1.4749832256054399e+01
1208:4.5761002007963762e+00
1209:2.4239892203980588e+01
1210:-2.9472566714864751e+01
1211:-2.6013259572502651e+01
1212:-1.7079685569627667e+01
1213:-4.9974671590457032e-01
1214:1.6968380810663792e+01
1215:-1.7736803919522199e+01
1216:-1.6202272660628591e+01
1217:-1.1814314257947771e+01
1218:-3.0129791424950625e+00
1219:6.6072507278377941e+00
1220:-1.7765888543209736e+00
1221:-2.6338189225016864e+00
1222:-2.6670955101879419e+00
1223:-1.1034200075292999e+00
1224:9.6510816787454790e-01
1225:-2.8453699323032026e+01
1226:-2.8452543759760015e+01
1227:-2.8449469347708003e+01
1228:-2.8452358810977479e+01
1229:-2.8452533374648400e+01
1230:-2.8452530709303463e+01
1231:-4.2938095823624231e+01
1232:-4.6765245545312823e+01
1233:-5.3045282234358403e+01
1234:-5.8629527442936265e+01
1235:-1.2304348659031898e+01
1236:-1.8145844749667837e+01
1237:-2.8452530658072014e+01
1238:-4.0670392333734952e+01
1239:-5.0023309707194755e+01
1240:1.9754698796915608e+01
1241:1.0929690209907264e+01
1242:-3.3926406544842886e+00
1243:-1.9240789673224221e+01
1244:-3.0869198362245690e+01
1245:4.2798816739998308e+01
1246:3.3045179228993582e+01
1247:1.7515763284423549e+01
1248:6.2714713744794670e-01
1249:-1.1623761739230751e+01
1250:-3.3080394340347574e+01
1251:-3.3077136154660046e+01
1252:-3.3079822776819519e+01
1253:-3.3077757118722033e+01
1254:-3.3077134382640239e+01
1255:-3.3077113204921019e+01
1256:-5.5845154861573029e+01
1257:-4.9019045463026657e+01
1258:-4.0476815009631395e+01
1259:-3.3728960503172900e+01
1260:-5.0927378466207472e+01
1261:-4.4181833083557414e+01
1262:-3.3077113061071245e+01
1263:-2.0622379406482661e+01
1264:-1.1397850083642853e+01
1265:-3.2285607711981910e+01
1266:-2.5414410438881237e+01
1267:-1.4245261697817904e+01
1268:-1.8576983078991753e+00
1269:7.2508321855341054e+00
1270:-1.3639958731358353e+01
1271:-8.5219348978450746e+00
1272:1.2734195100550000e-01
1273:1.0047251688691881e+01
1274:1.7498495313767993e+01
1275:-1.4021077401551359e+01
1276:-1.4019520896387204e+01
1277:-1.4018564363746595e+01
1278:-1.4019592176908750e+01
1279:-1.4019514623245392e+01
1280:-1.4019507201513100e+01
1281:-3.1413827419012424e+01
1282:-3.1548176926463594e+01
1283:-3.2377532391251258e+01
1284:-3.3316900542531585e+01
1285:-9.3901022631355886e+00
1286:-1.1176576288865142e+01
1287:-1.4019507132675720e+01
1288:-1.7113949610799100e+01
1289:-1.9362074932625344e+01
1290:8.9401972434638548e+00
1291:6.1770175831225238e+00
1292:2.2357096078338508e+00
1293:-1.5891297593211324e+00
1294:-4.1385305062281637e+00
1295:1.8767409275971371e+01
1296:1.6067221686005613e+01
1297:1.2401757257767768e+01
1298:9.0563224058910841e+00
1299:6.9435512554076455e+00
1300:-2.2685988034900895e+01
1301:-2.2684724287259659e+01
1302:-2.2684253936079237e+01
1303:-2.2684812977889088e+01
1304:-2.2684719935956124e+01
1305:-2.2684713541497764e+01
1306:-3.3968092505505872e+01
1307:-3.4091356564067965e+01
1308:-3.3909768344185757e+01
1309:-3.3621181339012601e+01
1310:-2.0247455716407831e+01
1311:-2.1324704177402367e+01
1312:-2.2684713485622893e+01
1313:-2.3802106505929537e+01
1314:-2.4434169294345242e+01
1315:-5.1956421430979107e+00
1316:-6.7676955789207565e+00
1317:-8.9265352420116404e+00
1318:-1.0925579973242987e+01
1319:-1.2204419730684011e+01
1320:5.9763511888132062e+00
1321:4.2446301217605642e+00
1322:1.7906063066466031e+00
1323:-5.7208016180811350e-01
1324:-2.1362029259863085e+00
1325:-6.8245857034330024e+00
1326:-6.8220643518593569e+00
1327:-6.8241974853529275e+00
1328:-6.8225503204351101e+00
1329:-6.8220631116077621e+00
1330:-6.8220466583765456e+00
1331:-2.7723626788273588e+01
1332:-2.1603433421735669e+01
1333:-1.6141770928760998e+01
1334:-1.2769397995992380e+01
1335:-2.2876556261559568e+01
1336:-1.6278316279732667e+01
1337:-6.8220465470627154e+00
1338:2.4031581259032340e+00
1339:8.5775094401861747e+00
1340:-1.0936094849509615e+01
1341:-4.6180882604014615e+00
1342:4.9383822388244116e+00
1343:1.4836244355426174e+01
1344:2.1780533594042392e+01
1345:-1.3676257288528464e+00
1346:3.4484579900744583e+00
1347:1.1229012613803896e+01
1348:1.9825764218631239e+01
1349:2.6139160647728755e+01
1350:-4.3621896176970239e+01
1351:-4.3624666335723369e+01
1352:-4.3618527344151232e+01
1353:-4.3623750578535670e+01
1354:-4.3624658504062573e+01
1355:-4.3624681147304464e+01
1356:-2.7134557642582447e+01
1357:-3.7296073434333479e+01
1358:-3.9780777386615043e+01
1359:-3.7294764362819073e+01
1360:4.4227495289019272e+00
1361:-1.6608322594671961e+01
1362:-4.3624681269402387e+01
1363:-6.6383055218342861e+01
1364:-7.9604323531582821e+01
1365:1.7768958053444202e+01
1366:-4.8734454919504353e+00
1367:-3.7711613962545520e+01
1368:-7.0190560986868149e+01
1369:-9.2174096734343863e+01
1370:2.3022264621976156e+01
1371:3.4520358214306559e+00
1372:-2.7487357994475918e+01
1373:-6.0995449742979424e+01
1374:-8.5277068600912372e+01
1375:4.3555631523809815e+01
1376:4.3560993343510901e+01
1377:4.3547432454372434e+01
1378:4.3559051977061856e+01
1379:4.3560974118948167e+01
1380:4.3561019965795097e+01
1381:1.2527583566078787e+01
1382:4.6488211616382998e+01
1383:5.7157471743203146e+01
1384:5.1706492291909200e+01
1385:-6.8651589144867970e+01
1386:-1.8098419563681656e+01
1387:4.3561020202035102e+01
1388:9.1238696864301929e+01
1389:1.1615099703202361e+02
1390:-8.4778672854541909e+01
1391:-3.5126896001265528e+01
1392:3.4193860492215286e+01
1393:9.9684550760481940e+01
1394:1.4231244749227281e+02
1395:-8.1223554655386280e+01
1396:-3.9236806764335199e+01
1397:2.5386996527664976e+01
1398:9.3558964521350362e+01
1399:1.4205261909507317e+02
1400:-7.7088759802532550e+01
1401:-7.7095304935049967e+01
1402:-7.7073717806591290e+01
1403:-7.7092428734187308e+01
1404:-7.7095269273708269e+01
1405:-7.7095331294002875e+01
1406:-3.5619233964600681e+01
1407:-9.8735795643203929e+01
1408:-1.2571413392774802e+02
1409:-1.2431217423680008e+02
1410:9.9487462692924012e+01
1411:1.9983010449962244e+01
1412:-7.7095331582107804e+01
1413:-1.5223452702828376e+02
1414:-1.9151013669802538e+02
1415:1.3336993517109357e+02
1416:5.8826018892934243e+01
1417:-4.4488094953188501e+01
1418:-1.4117195586473034e+02
1419:-2.0355827063903993e+02
1420:1.3926869585041840e+02
1421:7.7514284830968009e+01
1422:-1.6797740499045496e+01
1423:-1.1550954420065229e+02
1424:-1.8533163418723566e+02
1425:2.1252739393016888e+01
1426:2.1250733324896579e+01
1427:2.1254589297983948e+01
1428:2.1251337168709352e+01
1429:2.1250737568033390e+01
1430:2.1250721879989502e+01
1431:3.8151037050527499e+01
1432:2.2867142780751887e+01
1433:7.1273541288619882e+00
1434:-3.8618748484175871e+00
1435:4.8685470969728861e+01
1436:3.7311521191803031e+01
1437:2.1250721791539615e+01
1438:5.8388268538881780e+00
1439:-4.3428846278165976e+00
1440:4.9567091946563082e+01
1441:3.6206758768951438e+01
1442:1.8325575390930545e+01
1443:2.2802942011334677e+00
1444:-7.7069185511608378e+00
1445:5.0133307230686356e+01
1446:3.5080057485983822e+01
1447:1.5500753741006484e+01
1448:-1.3909760224536813e+00
1449:-1.1506320714394469e+01
1450:-3.4686423118345905e-01
1451:-3.4665590792790291e-01
1452:-3.4778274479764237e-01
1453:-3.4679169991561226e-01
1454:-3.4665810848408479e-01
1455:-3.4665560536634332e-01
1456:-3.1629008793072235e+00
1457:2.1285285484362446e+00
1458:8.5809314083318160e+00
1459:1.3605842108908259e+01
1460:-6.4326208217856120e+00
1461:-4.3006695467949694e+00
1462:-3.4665559622020298e-01
1463:4.5230508947733039e+00
1464:8.3364571179739766e+00
1465:-9.5530526505011704e+00
1466:-7.0730490016045069e+00
1467:-2.9105862403002347e+00
1468:1.8360416675801927e+00
1469:5.3887278304495414e+00
1470:-1.3085880426029599e+01
1471:-9.7412822330949620e+00
1472:-4.5630977607149070e+00
1473:9.2369594449792025e-01
1474:4.8349827350841919e+00
1475:9.2488565202357975e+00
1476:9.2485927374679378e+00
1477:9.2485703127496919e+00
1478:9.2486188696680927e+00
1479:9.2485920127823693e+00
1480:9.2485905870230454e+00
1481:1.3491833474336174e+01
1482:1.1968013328650217e+01
1483:1.0638319018463267e+01
1484:9.8344852141320693e+00
1485:9.3530274360176051e+00
1486:9.2986082153680734e+00
1487:9.2485905753650837e+00
1488:9.2314721383070424e+00
1489:9.2374396258969202e+00
1490:6.4404467201291880e+00
1491:6.8317715218756119e+00
1492:7.3298453370171828e+00
1493:7.7447914889783611e+00
1494:7.9835349059568719e+00
1495:5.9380755060179657e+00
1496:6.2262207327019530e+00
1497:6.5267042272309359e+00
1498:6.6925089189425808e+00
1499:6.7334502973941373e+00
1500:5.1909620425182279e+00
1501:5.1907000487949917e+00
1502:5.1911693771417085e+00
1503:5.1907754634644263e+00
1504:5.1907005199377263e+00
1505:5.1906985123129612e+00
1506:7.5385139771541567e+00
1507:5.2438092446814490e+00
1508:3.1099561704635894e+00
1509:1.7396288443026822e+00
1510:8.8185832831933322e+00
1511:7.2493855133501830e+00
1512:5.1906985007596287e+00
1513:3.3988618093692171e+00
1514:2.3193176433415612e+00
1515:7.6378713765714297e+00
1516:6.1881660427969614e+00
1517:4.4010707300855509e+00
1518:2.9885928898298748e+00
1519:2.2262871237802071e+00
1520:6.3557072896509705e+00
1521:5.0156248440343383e+00
1522:3.4553368954897632e+00
1523:2.3435987812178478e+00
1524:1.8265771505728312e+00
1525:3.8611296860261644e+00
1526:3.8609942885849073e+00
1527:3.8607408133019350e+00
1528:3.8609833587022102e+00
1529:3.8609933303590722e+00
1530:3.8609928895583638e+00
1531:3.9129449224473949e+00
1532:7.3587823924269369e+00
1533:1.1325751661032585e+01
1534:1.4317466103669659e+01
1535:2.2397772174241091e+00
1536:2.9185692168352859e+00
1537:3.8609928835607623e+00
1538:4.7455752208982016e+00
1539:5.3182573477276840e+00
1540:2.2615712124391667e+00
1541:2.8307142119636644e+00
1542:3.0217611613713249e+00
1543:2.4925457752114970e+00
1544:1.7403680951968727e+00
1545:2.1164635931514564e+00
1546:3.2578989024637517e+00
1547:3.8431404213400469e+00
1548:3.2104578177670833e+00
1549:2.1176122968401567e+00
1550:-2.0960938074247110e+01
1551:-2.0962620548867665e+01
1552:-2.0959078107528416e+01
1553:-2.0962083076094057e+01
1554:-2.0962616242630364e+01
1555:-2.0962629770915530e+01
1556:-8.8872115166964771e-01
1557:-2.1491182556218313e+01
1558:-4.4055571177011210e+01
1559:-6.0533337845323928e+01
1560:3.0054331525090618e+00
1561:-6.6654382952195004e+00
1562:-2.0962629845078656e+01
1563:-3.5412210173272342e+01
1564:-4.5362586254843329e+01
1565:-1.0588309134008034e+00
1566:-1.0492973371559376e+01
1567:-2.2665669638536066e+01
1568:-3.2988748403126785e+01
1569:-3.9030405742608565e+01
1570:-1.2540866147519791e+00
1571:-1.1988137226013560e+01
1572:-2.4760337318280207e+01
1573:-3.4214425996660331e+01
1574:-3.8862546095693936e+01
1575:3.4024155994588369e+01
1576:3.4029789920262104e+01
1577:3.4019099416229622e+01
1578:3.4028108024661201e+01
1579:3.4029778339407464e+01
1580:3.4029822230855743e+01
1581:-2.3492785615521093e+01
1582:2.7562914134918557e+01
1583:8.1455528019279186e+01
1584:1.1980913571534484e+02
1585:-4.0144095049123884e+01
1586:-9.8626060595130909e+00
1587:3.4029822479264460e+01
1588:7.7412151370655096e+01
1589:1.0675817904900411e+02
1590:-3.2161849905057373e+01
1591:-1.0036266552764304e+00
1592:4.0991470825074032e+01
1593:7.8880704388766333e+01
1594:1.0250926777107915e+02
1595:-3.0757321448045989e+01
1596:2.6391305696969782e+00
1597:4.5629469491639391e+01
1598:8.1934132093090128e+01
1599:1.0306985903588642e+02
1600:0.0000000000000000e+00
1601:0.0000000000000000e+00
1602:0.0000000000000000e+00
1603:0.0000000000000000e+00
1604:0.0000000000000000e+00
1605:0.0000000000000000e+00
1606:0.0000000000000000e+00
1607:0.0000000000000000e+00
1608:0.0000000000000000e+00
1609:0.0000000000000000e+00
1610:0.0000000000000000e+00
1611:0.0000000000000000e+00
1612:0.0000000000000000e+00
1613:0.0000000000000000e+00
1614:0.0000000000000000e+00
1615:0.0000000000000000e+00
1616:0.0000000000000000e+00
1617:0.0000000000000000e+00
1618:0.0000000000000000e+00
1619:0.0000000000000000e+00
1620:0.0000000000000000e+00
1621:0.0000000000000000e+00
1622:0.0000000000000000e+00
1623:0.0000000000000000e+00
1624:0.0000000000000000e+00
1625:0.0000000000000000e+00
1626:0.0000000000000000e+00
1627:0.0000000000000000e+00
1628:0.0000000000000000e+00
1629:0.0000000000000000e+00
1630:0.0000000000000000e+00
1631:0.0000000000000000e+00
1632:0.0000000000000000e+00
1633:0.0000000000000000e+00
1634:0.0000000000000000e+00
1635:0.0000000000000000e+00
1636:0.0000000000000000e+00
1637:0.0000000000000000e+00
1638:0.0000000000000000e+00
1639:0.0000000000000000e+00
1640:0.0000000000000000e+00
1641:0.0000000000000000e+00
1642:0.0000000000000000e+00
1643:0.0000000000000000e+00
1644:0.0000000000000000e+00
1645:0.0000000000000000e+00
1646:0.0000000000000000e+00
1647:0.0000000000000000e+00
1648:0.0000000000000000e+00
1649:0.0000000000000000e+00
1650:0.0000000000000000e+00
1651:0.0000000000000000e+00
1652:0.0000000000000000e+00
1653:0.0000000000000000e+00
1654:0.0000000000000000e+00
1655:0.0000000000000000e+00
1656:0.0000000000000000e+00
1657:0.0000000000000000e+00
1658:0.0000000000000000e+00
1659:0.0000000000000000e+00
1660:0.0000000000000000e+00
1661:0.0000000000000000e+00
1662:0.0000000000000000e+00
1663:0.0000000000000000e+00
1664:0.0000000000000000e+00
1665:0.0000000000000000e+00
1666:0.0000000000000000e+00
1667:0.0000000000000000e+00
1668:0.0000000000000000e+00
1669:0.0000000000000000e+00
1670:0.0000000000000000e+00
1671:0.0000000000000000e+00
1672:0.0000000000000000e+00
1673:0.0000000000000000e+00
1674:0.0000000000000000e+00
1675:0.0000000000000000e+00
1676:0.0000000000000000e+00
1677:0.0000000000000000e+00
1678:0.0000000000000000e+00
1679:0.0000000000000000e+00
1680:0.0000000000000000e+00
1681:0.0000000000000000e+00
1682:0.0000000000000000e+00
1683:0.0000000000000000e+00
1684:0.0000000000000000e+00
1685:0.0000000000000000e+00
1686:0.0000000000000000e+00
1687:0.0000000000000000e+00
1688:0.0000000000000000e+00
1689:0.0000000000000000e+00
1690:0.0000000000000000e+00
1691:0.0000000000000000e+00
1692:0.0000000000000000e+00
1693:0.0000000000000000e+00
1694:0.0000000000000000e+00
1695:0.0000000000000000e+00
1696:0.0000000000000000e+00
1697:0.0000000000000000e+00
1698:0.0000000000000000e+00
1699:0.0000000000000000e+00
1700:0.0000000000000000e+00
1701:0.0000000000000000e+00
1702:0.0000000000000000e+00
1703:0.0000000000000000e+00
1704:0.0000000000000000e+00
1705:0.0000000000000000e+00
1706:0.0000000000000000e+00
1707:0.0000000000000000e+00
1708:0.0000000000000000e+00
1709:0.0000000000000000e+00
1710:0.0000000000000000e+00
1711:0.0000000000000000e+00
1712:0.0000000000000000e+00
1713:0.0000000000000000e+00
1714:0.0000000000000000e+00
1715:0.0000000000000000e+00
1716:0.0000000000000000e+00
1717:0.0000000000000000e+00
1718:0.0000000000000000e+00
1719:0.0000000000000000e+00
1720:0.0000000000000000e+00
1721:0.0000000000000000e+00
1722:0.0000000000000000e+00
1723:0.0000000000000000e+00
1724:0.0000000000000000e+00
1725:0.0000000000000000e+00
1726:0.0000000000000000e+00
1727:0.0000000000000000e+00
1728:0.0000000000000000e+00
1729:0.0000000000000000e+00
1730:0.0000000000000000e+00
1731:0.0000000000000000e+00
1732:0.0000000000000000e+00
1733:0.0000000000000000e+00
1734:0.0000000000000000e+00
1735:0.0000000000000000e+00
1736:0.0000000000000000e+00
1737:0.0000000000000000e+00
1738:0.0000000000000000e+00
1739:0.0000000000000000e+00
1740:0.0000000000000000e+00
1741:0.0000000000000000e+00
1742:0.0000000000000000e+00
1743:0.0000000000000000e+00
1744:0.0000000000000000e+00
1745:0.0000000000000000e+00
1746:0.0000000000000000e+00
1747:0.0000000000000000e+00
1748:0.0000000000000000e+00
1749:0.0000000000000000e+00
1750:0.0000000000000000e+00
1751:0.0000000000000000e+00
1752:0.0000000000000000e+00
1753:0.0000000000000000e+00
1754:0.0000000000000000e+00
1755:0.0000000000000000e+00
1756:0.0000000000000000e+00
1757:0.0000000000000000e+00
1758:0.0000000000000000e+00
1759:0.0000000000000000e+00
1760:0.0000000000000000e+00
1761:0.0000000000000000e+00
1762:0.0000000000000000e+00
1763:0.0000000000000000e+00
1764:0.0000000000000000e+00
1765:0.0000000000000000e+00
1766:0.0000000000000000e+00
1767:0.0000000000000000e+00
1768:0.0000000000000000e+00
1769:0.0000000000000000e+00
1770:0.0000000000000000e+00
1771:0.0000000000000000e+00
1772:0.0000000000000000e+00
1773:0.0000000000000000e+00
1774:0.0000000000000000e+00
1775:0.0000000000000000e+00
1776:0.0000000000000000e+00
1777:0.0000000000000000e+00
1778:0.0000000000000000e+00
1779:0.0000000000000000e+00
1780:0.0000000000000000e+00
1781:0.0000000000000000e+00
1782:0.0000000000000000e+00
1783:0.0000000000000000e+00
1784:0.0000000000000000e+00
1785:0.0000000000000000e+00
1786:0.0000000000000000e+00
1787:0.0000000000000000e+00
1788:0.0000000000000000e+00
1789:0.0000000000000000e+00
1790:0.0000000000000000e+00
1791:0.0000000000000000e+00
1792:0.0000000000000000e+00
1793:0.0000000000000000e+00
1794:0.0000000000000000e+00
1795:0.0000000000000000e+00
1796:0.0000000000000000e+00
1797:0.0000000000000000e+00
1798:0.0000000000000000e+00
1799:0.0000000000000000e+00
1800:0.0000000000000000e+00
1801:0.0000000000000000e+00
1802:0.0000000000000000e+00
1803:0.0000000000000000e+00
1804:0.0000000000000000e+00
1805:0.0000000000000000e+00
1806:0.0000000000000000e+00
1807:0.0000000000000000e+00
1808:0.0000000000000000e+00
1809:0.0000000000000000e+00
1810:0.0000000000000000e+00
1811:0.0000000000000000e+00
1812:0.0000000000000000e+00
1813:0.0000000000000000e+00
1814:0.0000000000000000e+00
1815:0.0000000000000000e+00
1816:0.0000000000000000e+00
1817:0.0000000000000000e+00
1818:0.0000000000000000e+00
1819:0.0000000000000000e+00
1820:0.0000000000000000e+00
1821:0.0000000000000000e+00
1822:0.0000000000000000e+00
1823:0.0000000000000000e+00
1824:0.0000000000000000e+00
1825:0.0000000000000000e+00
1826:0.0000000000000000e+00
1827:0.0000000000000000e+00
1828:0.0000000000000000e+00
1829:0.0000000000000000e+00
1830:0.0000000000000000e+00
1831:0.0000000000000000e+00
1832:0.0000000000000000e+00
1833:0.0000000000000000e+00
1834:0.0000000000000000e+00
1835:0.0000000000000000e+00
1836:0.0000000000000000e+00
1837:0.0000000000000000e+00
1838:0.0000000000000000e+00
1839:0.0000000000000000e+00
1840:0.0000000000000000e+00
1841:0.0000000000000000e+00
1842:0.0000000000000000e+00
1843:0.0000000000000000e+00
1844:0.0000000000000000e+00
1845:0.0000000000000000e+00
1846:0.0000000000000000e+00
1847:0.0000000000000000e+00
1848:0.0000000000000000e+00
1849:0.0000000000000000e+00
1850:0.0000000000000000e+00
1851:0.0000000000000000e+00
1852:0.0000000000000000e+00
1853:0.0000000000000000e+00
1854:0.0000000000000000e+00
1855:0.0000000000000000e+00
1856:0.0000000000000000e+00
1857:0.0000000000000000e+00
1858:0.0000000000000000e+00
1859:0.0000000000000000e+00
1860:0.0000000000000000e+00
1861:0.0000000000000000e+00
1862:0.0000000000000000e+00
1863:0.0000000000000000e+00
1864:0.0000000000000000e+00
1865:0.0000000000000000e+00
1866:0.0000000000000000e+00
1867:0.0000000000000000e+00
1868:0.0000000000000000e+00
1869:0.0000000000000000e+00
1870:0.0000000000000000e+00
1871:0.0000000000000000e+00
1872:0.0000000000000000e+00
1873:0.0000000000000000e+00
1874:0.0000000000000000e+00
1875:0.0000000000000000e+00
1876:0.0000000000000000e+00
1877:0.0000000000000000e+00
1878:0.0000000000000000e+00
1879:0.0000000000000000e+00
1880:0.0000000000000000e+00
1881:0.0000000000000000e+00
1882:0.0000000000000000e+00
1883:0.0000000000000000e+00
1884:0.0000000000000000e+00
1885:0.0000000000000000e+00
1886:0.0000000000000000e+00
1887:0.0000000000000000e+00
1888:0.0000000000000000e+00
1889:0.0000000000000000e+00
1890:0.0000000000000000e+00
1891:0.0000000000000000e+00
1892:0.0000000000000000e+00
1893:0.0000000000000000e+00
1894:0.0000000000000000e+00
1895:0.0000000000000000e+00
1896:0.0000000000000000e+00
1897:0.0000000000000000e+00
1898:0.0000000000000000e+00
1899:0.0000000000000000e+00
1900:0.0000000000000000e+00
1901:0.0000000000000000e+00
1902:0.0000000000000000e+00
1903:0.0000000000000000e+00
1904:0.0000000000000000e+00
1905:0.0000000000000000e+00
1906:0.0000000000000000e+00
1907:0.0000000000000000e+00
1908:0.0000000000000000e+00
1909:0.0000000000000000e+00
1910:0.0000000000000000e+00
1911:0.0000000000000000e+00
1912:0.0000000000000000e+00
1913:0.0000000000000000e+00
1914:0.0000000000000000e+00
1915:0.0000000000000000e+00
1916:0.0000000000000000e+00
1917:0.0000000000000000e+00
1918:0.0000000000000000e+00
1919:0.0000000000000000e+00
1920:0.0000000000000000e+00
1921:0.0000000000000000e+00
1922:0.0000000000000000e+00
1923:0.0000000000000000e+00
1924:0.0000000000000000e+00
1925:0.0000000000000000e+00
1926:0.0000000000000000e+00
1927:0.0000000000000000e+00
1928:0.0000000000000000e+00
1929:0.0000000000000000e+00
1930:0.0000000000000000e+00
1931:0.0000000000000000e+00
1932:0.0000000000000000e+00
1933:0.0000000000000000e+00
1934:0.0000000000000000e+00
1935:0.0000000000000000e+00
1936:0.0000000000000000e+00
1937:0.0000000000000000e+00
1938:0.0000000000000000e+00
1939:0.0000000000000000e+00
1940:0.0000000000000000e+00
1941:0.0000000000000000e+00
1942:0.0000000000000000e+00
1943:0.0000000000000000e+00
1944:0.0000000000000000e+00
1945:0.0000000000000000e+00
1946:0.0000000000000000e+00
1947:0.0000000000000000e+00
1948:0.0000000000000000e+00
1949:0.0000000000000000e+00
1950:0.0000000000000000e+00
1951:0.0000000000000000e+00
1952:0.0000000000000000e+00
1953:0.0000000000000000e+00
1954:0.0000000000000000e+00
1955:0.0000000000000000e+00
1956:0.0000000000000000e+00
1957:0.0000000000000000e+00
1958:0.0000000000000000e+00
1959:0.0000000000000000e+00
1960:0.0000000000000000e+00
1961:0.0000000000000000e+00
1962:0.0000000000000000e+00
1963:0.0000000000000000e+00
1964:0.0000000000000000e+00
1965:0.0000000000000000e+00
1966:0.0000000000000000e+00
1967:0.0000000000000000e+00
1968:0.0000000000000000e+00
1969:0.0000000000000000e+00
1970:0.0000000000000000e+00
1971:0.0000000000000000e+00
1972:0.0000000000000000e+00
1973:0.0000000000000000e+00
1974:0.0000000000000000e+00
1975:0.0000000000000000e+00
1976:0.0000000000000000e+00
1977:0.0000000000000000e+00
1978:0.0000000000000000e+00
1979:0.0000000000000000e+00
1980:0.0000000000000000e+00
1981:0.0000000000000000e+00
1982:0.0000000000000000e+00
1983:0.0000000000000000e+00
1984:0.0000000000000000e+00
1985:0.0000000000000000e+00
1986:0.0000000000000000e+00
1987:0.0000000000000000e+00
1988:0.0000000000000000e+00
1989:0.0000000000000000e+00
1990:0.0000000000000000e+00
1991:0.0000000000000000e+00
1992:0.0000000000000000e+00
1993:0.0000000000000000e+00
1994:0.0000000000000000e+00
1995:0.0000000000000000e+00
1996:0.0000000000000000e+00
1997:0.0000000000000000e+00
1998:0.0000000000000000e+00
1999:0.0000000000000000e+00
2000:0.0000000000000000e+00
2001:0.0000000000000000e+00
2002:0.0000000000000000e+00
2003:0.0000000000000000e+00
2004:0.0000000000000000e+00
2005:0.0000000000000000e+00
2006:0.0000000000000000e+00
2007:0.0000000000000000e+00
2008:0.0000000000000000e+00
2009:0.0000000000000000e+00
2010:0.0000000000000000e+00
2011:0.0000000000000000e+00
2012:0.0000000000000000e+00
2013:0.0000000000000000e+00
2014:0.0000000000000000e+00
2015:0.0000000000000000e+00
2016:0.0000000000000000e+00
2017:0.0000000000000000e+00
2018:0.0000000000000000e+00
2019:0.0000000000000000e+00
2020:0.0000000000000000e+00
2021:0.0000000000000000e+00
2022:0.0000000000000000e+00
2023:0.0000000000000000e+00
2024:0.0000000000000000e+00
2025:0.0000000000000000e+00
2026:0.0000000000000000e+00
2027:0.0000000000000000e+00
2028:0.0000000000000000e+00
2029:0.0000000000000000e+00
2030:0.0000000000000000e+00
2031:0.0000000000000000e+00
2032:0.0000000000000000e+00
2033:0.0000000000000000e+00
2034:0.0000000000000000e+00
2035:0.0000000000000000e+00
2036:0.0000000000000000e+00
2037:0.0000000000000000e+00
2038:0.0000000000000000e+00
2039:0.0000000000000000e+00
2040:0.0000000000000000e+00
2041:0.0000000000000000e+00
2042:0.0000000000000000e+00
2043:0.0000000000000000e+00
2044:0.0000000000000000e+00
2045:0.0000000000000000e+00
2046:0.0000000000000000e+00
2047:0.0000000000000000e+00
2048:0.0000000000000000e+00
2049:0.0000000000000000e+00
2050:0.0000000000000000e+00
2051:0.0000000000000000e+00
2052:0.0000000000000000e+00
2053:0.0000000000000000e+00
2054:0.0000000000000000e+00
2055:0.0000000000000000e+00
2056:0.0000000000000000e+00
2057:0.0000000000000000e+00
2058:0.0000000000000000e+00
2059:0.0000000000000000e+00
2060:0.0000000000000000e+00
2061:0.0000000000000000e+00
2062:0.0000000000000000e+00
2063:0.0000000000000000e+00
2064:0.0000000000000000e+00
2065:0.0000000000000000e+00
2066:0.0000000000000000e+00
2067:0.0000000000000000e+00
2068:0.0000000000000000e+00
2069:0.0000000000000000e+00
2070:0.0000000000000000e+00
2071:0.0000000000000000e+00
2072:0.0000000000000000e+00
2073:0.0000000000000000e+00
2074:0.0000000000000000e+00
2075:0.0000000000000000e+00
2076:0.0000000000000000e+00
2077:0.0000000000000000e+00
2078:0.0000000000000000e+00
2079:0.0000000000000000e+00
2080:0.0000000000000000e+00
2081:0.0000000000000000e+00
2082:0.0000000000000000e+00
2083:0.0000000000000000e+00
2084:0.0000000000000000e+00
2085:0.0000000000000000e+00
2086:0.0000000000000000e+00
2087:0.0000000000000000e+00
2088:0.0000000000000000e+00
2089:0.0000000000000000e+00
2090:0.0000000000000000e+00
2091:0.0000000000000000e+00
2092:0.0000000000000000e+00
2093:0.0000000000000000e+00
2094:0.0000000000000000e+00
2095:0.0000000000000000e+00
2096:0.0000000000000000e+00
2097:0.0000000000000000e+00
2098:0.0000000000000000e+00
2099:0.0000000000000000e+00
2100:0.0000000000000000e+00
2101:0.0000000000000000e+00
2102:0.0000000000000000e+00
2103:0.0000000000000000e+00
2104:0.0000000000000000e+00
2105:0.0000000000000000e+00
2106:0.0000000000000000e+00
2107:0.0000000000000000e+00
2108:0.0000000000000000e+00
2109:0.0000000000000000e+00
2110:0.0000000000000000e+00
2111:0.0000000000000000e+00
2112:0.0000000000000000e+00
2113:0.0000000000000000e+00
2114:0.0000000000000000e+00
2115:0.0000000000000000e+00
2116:0.0000000000000000e+00
2117:0.0000000000000000e+00
2118:0.0000000000000000e+00
2119:0.0000000000000000e+00
2120:0.0000000000000000e+00
2121:0.0000000000000000e+00
2122:0.0000000000000000e+00
2123:0.0000000000000000e+00
2124:0.0000000000000000e+00
2125:0.0000000000000000e+00
2126:0.0000000000000000e+00
2127:0.0000000000000000e+00
2128:0.0000000000000000e+00
2129:0.0000000000000000e+00
2130:0.0000000000000000e+00
2131:0.0000000000000000e+00
2132:0.0000000000000000e+00
2133:0.0000000000000000e+00
2134:0.0000000000000000e+00
2135:0.0000000000000000e+00
2136:0.0000000000000000e+00
2137:0.0000000000000000e+00
2138:0.0000000000000000e+00
2139:0.0000000000000000e+00
2140:0.0000000000000000e+00
2141:0.0000000000000000e+00
2142:0.0000000000000000e+00
2143:0.0000000000000000e+00
2144:0.0000000000000000e+00
2145:0.0000000000000000e+00
2146:0.0000000000000000e+00
2147:0.0000000000000000e+00
2148:0.0000000000000000e+00
2149:0.0000000000000000e+00
2150:0.0000000000000000e+00
2151:0.0000000000000000e+00
2152:0.0000000000000000e+00
2153:0.0000000000000000e+00
2154:0.0000000000000000e+00
2155:0.0000000000000000e+00
2156:0.0000000000000000e+00
2157:0.0000000000000000e+00
2158:0.0000000000000000e+00
2159:0.0000000000000000e+00
2160:0.0000000000000000e+00
2161:0.0000000000000000e+00
2162:0.0000000000000000e+00
2163:0.0000000000000000e+00
2164:0.0000000000000000e+00
2165:0.0000000000000000e+00
2166:0.0000000000000000e+00
2167:0.0000000000000000e+00
2168:0.0000000000000000e+00
2169:0.0000000000000000e+00
2170:0.0000000000000000e+00
2171:0.0000000000000000e+00
2172:0.0000000000000000e+00
2173:0.0000000000000000e+00
2174:0.0000000000000000e+00
2175:0.0000000000000000e+00
2176:0.0000000000000000e+00
2177:0.0000000000000000e+00
2178:0.0000000000000000e+00
2179:0.0000000000000000e+00
2180:0.0000000000000000e+00
2181:0.0000000000000000e+00
2182:0.0000000000000000e+00
2183:0.0000000000000000e+00
2184:0.0000000000000000e+00
2185:0.0000000000000000e+00
2186:0.0000000000000000e+00
2187:0.0000000000000000e+00
2188:0.0000000000000000e+00
2189:0.0000000000000000e+00
2190:0.0000000000000000e+00
2191:0.0000000000000000e+00
2192:0.0000000000000000e+00
2193:0.0000000000000000e+00
2194:0.0000000000000000e+00
2195:0.0000000000000000e+00
2196:0.0000000000000000e+00
2197:0.0000000000000000e+00
2198:0.0000000000000000e+00
2199:0.0000000000000000e+00
2200:0.0000000000000000e+00
2201:0.0000000000000000e+00
2202:0.0000000000000000e+00
2203:0.0000000000000000e+00
2204:0.0000000000000000e+00
2205:0.0000000000000000e+00
2206:0.0000000000000000e+00
2207:0.0000000000000000e+00
2208:0.0000000000000000e+00
2209:0.0000000000000000e+00
2210:0.0000000000000000e+00
2211:0.0000000000000000e+00
2212:0.0000000000000000e+00
2213:0.0000000000000000e+00
2214:0.0000000000000000e+00
2215:0.0000000000000000e+00
2216:0.0000000000000000e+00
2217:0.0000000000000000e+00
2218:0.0000000000000000e+00
2219:0.0000000000000000e+00
2220:0.0000000000000000e+00
2221:0.0000000000000000e+00
2222:0.0000000000000000e+00
2223:0.0000000000000000e+00
2224:0.0000000000000000e+00
2225:0.0000000000000000e+00
2226:0.0000000000000000e+00
2227:0.0000000000000000e+00
2228:0.0000000000000000e+00
2229:0.0000000000000000e+00
2230:0.0000000000000000e+00
2231:0.0000000000000000e+00
2232:0.0000000000000000e+00
2233:0.0000000000000000e+00
2234:0.0000000000000000e+00
2235:0.0000000000000000e+00
2236:0.0000000000000000e+00
2237:0.0000000000000000e+00
2238:0.0000000000000000e+00
2239:0.0000000000000000e+00
2240:0.0000000000000000e+00
2241:0.0000000000000000e+00
2242:0.0000000000000000e+00
2243:0.0000000000000000e+00
2244:0.0000000000000000e+00
2245:0.0000000000000000e+00
2246:0.0000000000000000e+00
2247:0.0000000000000000e+00
2248:0.0000000000000000e+00
2249:0.0000000000000000e+00
2250:0.0000000000000000e+00
2251:0.0000000000000000e+00
2252:0.0000000000000000e+00
2253:0.0000000000000000e+00
2254:0.0000000000000000e+00
2255:0.0000000000000000e+00
2256:0.0000000000000000e+00
2257:0.0000000000000000e+00
2258:0.0000000000000000e+00
2259:0.0000000000000000e+00
2260:0.0000000000000000e+00
2261:0.0000000000000000e+00
2262:0.0000000000000000e+00
2263:0.0000000000000000e+00
2264:0.0000000000000000e+00
2265:0.0000000000000000e+00
2266:0.0000000000000000e+00
2267:0.0000000000000000e+00
2268:0.0000000000000000e+00
2269:0.0000000000000000e+00
2270:0.0000000000000000e+00
2271:0.0000000000000000e+00
2272:0.0000000000000000e+00
2273:0.0000000000000000e+00
2274:0.0000000000000000e+00
2275:0.0000000000000000e+00
2276:0.0000000000000000e+00
2277:0.0000000000000000e+00
2278:0.0000000000000000e+00
2279:0.0000000000000000e+00
2280:0.0000000000000000e+00
2281:0.0000000000000000e+00
2282:0.0000000000000000e+00
2283:0.0000000000000000e+00
2284:0.0000000000000000e+00
2285:0.0000000000000000e+00
2286:0.0000000000000000e+00
2287:0.0000000000000000e+00
2288:0.0000000000000000e+00
2289:0.0000000000000000e+00
2290:0.0000000000000000e+00
2291:0.0000000000000000e+00
2292:0.0000000000000000e+00
2293:0.0000000000000000e+00
2294:0.0000000000000000e+00
2295:0.0000000000000000e+00
2296:0.0000000000000000e+00
2297:0.0000000000000000e+00
2298:0.0000000000000000e+00
2299:0.0000000000000000e+00
2300:0.0000000000000000e+00
2301:0.0000000000000000e+00
2302:0.0000000000000000e+00
2303:0.0000000000000000e+00
2304:0.0000000000000000e+00
2305:0.0000000000000000e+00
2306:0.0000000000000000e+00
2307:0.0000000000000000e+00
2308:0.0000000000000000e+00
2309:0.0000000000000000e+00
2310:0.0000000000000000e+00
2311:0.0000000000000000e+00
2312:0.0000000000000000e+00
2313:0.0000000000000000e+00
2314:0.0000000000000000e+00
2315:0.0000000000000000e+00
2316:0.0000000000000000e+00
2317:0.0000000000000000e+00
2318:0.0000000000000000e+00
2319:0.0000000000000000e+00
2320:0.0000000000000000e+00
2321:0.0000000000000000e+00
2322:0.0000000000000000e+00
2323:0.0000000000000000e+00
2324:0.0000000000000000e+00
2325:0.0000000000000000e+00
2326:0.0000000000000000e+00
2327:0.0000000000000000e+00
2328:0.0000000000000000e+00
2329:0.0000000000000000e+00
2330:0.0000000000000000e+00
2331:0.0000000000000000e+00
2332:0.0000000000000000e+00
2333:0.0000000000000000e+00
2334:0.0000000000000000e+00
2335:0.0000000000000000e+00
2336:0.0000000000000000e+00
2337:0.0000000000000000e+00
2338:0.0000000000000000e+00
2339:0.0000000000000000e+00
2340:0.0000000000000000e+00
2341:0.0000000000000000e+00
2342:0.0000000000000000e+00
2343:0.0000000000000000e+00
2344:0.0000000000000000e+00
2345:0.0000000000000000e+00
2346:0.0000000000000000e+00
2347:0.0000000000000000e+00
2348:0.0000000000000000e+00
2349:0.0000000000000000e+00
2350:0.0000000000000000e+00
2351:0.0000000000000000e+00
2352:0.0000000000000000e+00
2353:0.0000000000000000e+00
2354:0.0000000000000000e+00
2355:0.0000000000000000e+00
2356:0.0000000000000000e+00
2357:0.0000000000000000e+00
2358:0.0000000000000000e+00
2359:0.0000000000000000e+00
2360:0.0000000000000000e+00
2361:0.0000000000000000e+00
2362:0.0000000000000000e+00
2363:0.0000000000000000e+00
2364:0.0000000000000000e+00
2365:0.0000000000000000e+00
2366:0.0000000000000000e+00
2367:0.0000000000000000e+00
2368:0.0000000000000000e+00
2369:0.0000000000000000e+00
2370:0.0000000000000000e+00
2371:0.0000000000000000e+00
2372:0.0000000000000000e+00
2373:0.0000000000000000e+00
2374:0.0000000000000000e+00
2375:0.0000000000000000e+00
2376:0.0000000000000000e+00
2377:0.0000000000000000e+00
2378:0.0000000000000000e+00
2379:0.0000000000000000e+00
2380:0.0000000000000000e+00
2381:0.0000000000000000e+00
2382:0.0000000000000000e+00
2383:0.0000000000000000e+00
2384:0.0000000000000000e+00
2385:0.0000000000000000e+00
2386:0.0000000000000000e+00
2387:0.0000000000000000e+00
2388:0.0000000000000000e+00
2389:0.0000000000000000e+00
2390:0.0000000000000000e+00
2391:0.0000000000000000e+00
2392:0.0000000000000000e+00
2393:0.0000000000000000e+00
2394:0.0000000000000000e+00
2395:0.0000000000000000e+00
2396:0.0000000000000000e+00
2397:0.0000000000000000e+00
2398:0.0000000000000000e+00
2399:0.0000000000000000e+00
2400:0.0000000000000000e+00
2401:0.0000000000000000e+00
2402:0.0000000000000000e+00
2403:0.0000000000000000e+00
2404:0.0000000000000000e+00
2405:0.0000000000000000e+00
2406:0.0000000000000000e+00
2407:0.0000000000000000e+00
2408:0.0000000000000000e+00
2409:0.0000000000000000e+00
2410:0.0000000000000000e+00
2411:0.0000000000000000e+00
2412:0.0000000000000000e+00
2413:0.0000000000000000e+00
2414:0.0000000000000000e+00
2415:0.0000000000000000e+00
2416:0.0000000000000000e+00
2417:0.0000000000000000e+00
2418:0.0000000000000000e+00
2419:0.0000000000000000e+00
2420:0.0000000000000000e+00
2421:0.0000000000000000e+00
2422:0.0000000000000000e+00
2423:0.0000000000000000e+00
2424:0.0000000000000000e+00
2425:0.0000000000000000e+00
2426:0.0000000000000000e+00
2427:0.0000000000000000e+00
2428:0.0000000000000000e+00
2429:0.0000000000000000e+00
2430:0.0000000000000000e+00
2431:0.0000000000000000e+00
2432:0.0000000000000000e+00
2433:0.0000000000000000e+00
2434:0.0000000000000000e+00
2435:0.0000000000000000e+00
2436:0.0000000000000000e+00
2437:0.0000000000000000e+00
2438:0.0000000000000000e+00
2439:0.0000000000000000e+00
2440:0.0000000000000000e+00
2441:0.0000000000000000e+00
2442:0.0000000000000000e+00
2443:0.0000000000000000e+00
2444:0.0000000000000000e+00
2445:0.0000000000000000e+00
2446:0.0000000000000000e+00
2447:0.0000000000000000e+00
2448:0.0000000000000000e+00
2449:0.0000000000000000e+00
2450:0.0000000000000000e+00
2451:0.0000000000000000e+00
2452:0.0000000000000000e+00
2453:0.0000000000000000e+00
2454:0.0000000000000000e+00
2455:0.0000000000000000e+00
2456:0.0000000000000000e+00
2457:0.0000000000000000e+00
2458:0.0000000000000000e+00
2459:0.0000000000000000e+00
2460:0.0000000000000000e+00
2461:0.0000000000000000e+00
2462:0.0000000000000000e+00
2463:0.0000000000000000e+00
2464:0.0000000000000000e+00
2465:0.0000000000000000e+00
2466:0.0000000000000000e+00
2467:0.0000000000000000e+00
2468:0.0000000000000000e+00
2469:0.0000000000000000e+00
2470:0.0000000000000000e+00
2471:0.0000000000000000e+00
2472:0.0000000000000000e+00
2473:0.0000000000000000e+00
2474:0.0000000000000000e+00
2475:0.0000000000000000e+00
2476:0.0000000000000000e+00
2477:0.0000000000000000e+00
2478:0.0000000000000000e+00
2479:0.0000000000000000e+00
2480:0.0000000000000000e+00
2481:0.0000000000000000e+00
2482:0.0000000000000000e+00
2483:0.0000000000000000e+00
2484:0.0000000000000000e+00
2485:0.0000000000000000e+00
2486:0.0000000000000000e+00
2487:0.0000000000000000e+00
2488:0.0000000000000000e+00
2489:0.0000000000000000e+00
2490:0.0000000000000000e+00
2491:0.0000000000000000e+00
2492:0.0000000000000000e+00
2493:0.0000000000000000e+00
2494:0.0000000000000000e+00
2495:0.0000000000000000e+00
2496:0.0000000000000000e+00
2497:0.0000000000000000e+00
2498:0.0000000000000000e+00
2499:0.0000000000000000e+00
2500:0.0000000000000000e+00
2501:0.0000000000000000e+00
2502:0.0000000000000000e+00
2503:0.0000000000000000e+00
2504:0.0000000000000000e+00
2505:0.0000000000000000e+00
2506:0.0000000000000000e+00
2507:0.0000000000000000e+00
2508:0.0000000000000000e+00
2509:0.0000000000000000e+00
2510:0.0000000000000000e+00
2511:0.0000000000000000e+00
2512:0.0000000000000000e+00
2513:0.0000000000000000e+00
2514:0.0000000000000000e+00
2515:0.0000000000000000e+00
2516:0.0000000000000000e+00
2517:0.0000000000000000e+00
2518:0.0000000000000000e+00
2519:0.0000000000000000e+00
2520:0.0000000000000000e+00
2521:0.0000000000000000e+00
2522:0.0000000000000000e+00
2523:0.0000000000000000e+00
2524:0.0000000000000000e+00
2525:0.0000000000000000e+00
2526:0.0000000000000000e+00
2527:0.0000000000000000e+00
2528:0.0000000000000000e+00
2529:0.0000000000000000e+00
2530:0.0000000000000000e+00
2531:0.0000000000000000e+00
2532:0.0000000000000000e+00
2533:0.0000000000000000e+00
2534:0.0000000000000000e+00
2535:0.0000000000000000e+00
2536:0.0000000000000000e+00
2537:0.0000000000000000e+00
2538:0.0000000000000000e+00
2539:0.0000000000000000e+00
2540:0.0000000000000000e+00
2541:0.0000000000000000e+00
2542:0.0000000000000000e+00
2543:0.0000000000000000e+00
2544:0.0000000000000000e+00
2545:0.0000000000000000e+00
2546:0.0000000000000000e+00
2547:0.0000000000000000e+00
2548:0.0000000000000000e+00
2549:0.0000000000000000e+00
2550:0.0000000000000000e+00
2551:0.0000000000000000e+00
2552:0.0000000000000000e+00
2553:0.0000000000000000e+00
2554:0.0000000000000000e+00
2555:0.0000000000000000e+00
2556:0.0000000000000000e+00
2557:0.0000000000000000e+00
2558:0.0000000000000000e+00
2559:0.0000000000000000e+00
2560:0.0000000000000000e+00
2561:0.0000000000000000e+00
2562:0.0000000000000000e+00
2563:0.0000000000000000e+00
2564:0.0000000000000000e+00
2565:0.0000000000000000e+00
2566:0.0000000000000000e+00
2567:0.0000000000000000e+00
2568:0.0000000000000000e+00
2569:0.0000000000000000e+00
2570:0.0000000000000000e+00
2571:0.0000000000000000e+00
2572:0.0000000000000000e+00
2573:0.0000000000000000e+00
2574:0.0000000000000000e+00
2575:0.0000000000000000e+00
2576:0.0000000000000000e+00
2577:0.0000000000000000e+00
2578:0.0000000000000000e+00
2579:0.0000000000000000e+00
2580:0.0000000000000000e+00
2581:0.0000000000000000e+00
2582:0.0000000000000000e+00
2583:0.0000000000000000e+00
2584:0.0000000000000000e+00
2585:0.0000000000000000e+00
2586:0.0000000000000000e+00
2587:0.0000000000000000e+00
2588:0.0000000000000000e+00
2589:0.0000000000000000e+00
2590:0.0000000000000000e+00
2591:0.0000000000000000e+00
2592:0.0000000000000000e+00
2593:0.0000000000000000e+00
2594:0.0000000000000000e+00
2595:0.0000000000000000e+00
2596:0.0000000000000000e+00
2597:0.0000000000000000e+00
2598:0.0000000000000000e+00
2599:0.0000000000000000e+00
2600:0.0000000000000000e+00
2601:0.0000000000000000e+00
2602:0.0000000000000000e+00
2603:0.0000000000000000e+00
2604:0.0000000000000000e+00
2605:0.0000000000000000e+00
2606:0.0000000000000000e+00
2607:0.0000000000000000e+00
2608:0.0000000000000000e+00
2609:0.0000000000000000e+00
2610:0.0000000000000000e+00
2611:0.0000000000000000e+00
2612:0.0000000000000000e+00
2613:0.0000000000000000e+00
2614:0.0000000000000000e+00
2615:0.0000000000000000e+00
2616:0.0000000000000000e+00
2617:0.0000000000000000e+00
2618:0.0000000000000000e+00
2619:0.0000000000000000e+00
2620:0.0000000000000000e+00
2621:0.0000000000000000e+00
2622:0.0000000000000000e+00
2623:0.0000000000000000e+00
2624:0.0000000000000000e+00
2625:0.0000000000000000e+00
2626:0.0000000000000000e+00
2627:0.0000000000000000e+00
2628:0.0000000000000000e+00
2629:0.0000000000000000e+00
2630:0.0000000000000000e+00
2631:0.0000000000000000e+00
2632:0.0000000000000000e+00
2633:0.0000000000000000e+00
2634:0.0000000000000000e+00
2635:0.0000000000000000e+00
2636:0.0000000000000000e+00
2637:0.0000000000000000e+00
2638:0.0000000000000000e+00
2639:0.0000000000000000e+00
2640:0.0000000000000000e+00
2641:0.0000000000000000e+00
2642:0.0000000000000000e+00
2643:0.0000000000000000e+00
2644:0.0000000000000000e+00
2645:0.0000000000000000e+00
2646:0.0000000000000000e+00
2647:0.0000000000000000e+00
2648:0.0000000000000000e+00
2649:0.0000000000000000e+00
2650:0.0000000000000000e+00
2651:0.0000000000000000e+00
2652:0.0000000000000000e+00
2653:0.0000000000000000e+00
2654:0.0000000000000000e+00
2655:0.0000000000000000e+00
2656:0.0000000000000000e+00
2657:0.0000000000000000e+00
2658:0.0000000000000000e+00
2659:0.0000000000000000e+00
2660:0.0000000000000000e+00
2661:0.0000000000000000e+00
2662:0.0000000000000000e+00
2663:0.0000000000000000e+00
2664:0.0000000000000000e+00
2665:0.0000000000000000e+00
2666:0.0000000000000000e+00
2667:0.0000000000000000e+00
2668:0.0000000000000000e+00
2669:0.0000000000000000e+00
2670:0.0000000000000000e+00
2671:0.0000000000000000e+00
2672:0.0000000000000000e+00
2673:0.0000000000000000e+00
2674:0.0000000000000000e+00
2675:0.0000000000000000e+00
2676:0.0000000000000000e+00
2677:0.0000000000000000e+00
2678:0.0000000000000000e+00
2679:0.0000000000000000e+00
2680:0.0000000000000000e+00
2681:0.0000000000000000e+00
2682:0.0000000000000000e+00
2683:0.0000000000000000e+00
2684:0.0000000000000000e+00
2685:0.0000000000000000e+00
2686:0.0000000000000000e+00
2687:0.0000000000000000e+00
2688:0.0000000000000000e+00
2689:0.0000000000000000e+00
2690:0.0000000000000000e+00
2691:0.0000000000000000e+00
2692:0.0000000000000000e+00
2693:0.0000000000000000e+00
2694:0.0000000000000000e+00
2695:0.0000000000000000e+00
2696:0.0000000000000000e+00
2697:0.0000000000000000e+00
2698:0.0000000000000000e+00
2699:0.0000000000000000e+00
2700:0.0000000000000000e+00
2701:0.0000000000000000e+00
2702:0.0000000000000000e+00
2703:0.0000000000000000e+00
2704:0.0000000000000000e+00
2705:0.0000000000000000e+00
2706:0.0000000000000000e+00
2707:0.0000000000000000e+00
2708:0.0000000000000000e+00
2709:0.0000000000000000e+00
2710:0.0000000000000000e+00
2711:0.0000000000000000e+00
2712:0.0000000000000000e+00
2713:0.0000000000000000e+00
2714:0.0000000000000000e+00
2715:0.0000000000000000e+00
2716:0.0000000000000000e+00
2717:0.0000000000000000e+00
2718:0.0000000000000000e+00
2719:0.0000000000000000e+00
2720:0.0000000000000000e+00
2721:0.0000000000000000e+00
2722:0.0000000000000000e+00
2723:0.0000000000000000e+00
2724:0.0000000000000000e+00
2725:0.0000000000000000e+00
2726:0.0000000000000000e+00
2727:0.0000000000000000e+00
2728:0.0000000000000000e+00
2729:0.0000000000000000e+00
2730:0.0000000000000000e+00
2731:0.0000000000000000e+00
2732:0.0000000000000000e+00
2733:0.0000000000000000e+00
2734:0.0000000000000000e+00
2735:0.0000000000000000e+00
2736:0.0000000000000000e+00
2737:0.0000000000000000e+00
2738:0.0000000000000000e+00
2739:0.0000000000000000e+00
2740:0.0000000000000000e+00
2741:0.0000000000000000e+00
2742:0.0000000000000000e+00
2743:0.0000000000000000e+00
2744:0.0000000000000000e+00
2745:0.0000000000000000e+00
2746:0.0000000000000000e+00
2747:0.0000000000000000e+00
2748:0.0000000000000000e+00
2749:0.0000000000000000e+00
2750:0.0000000000000000e+00
2751:0.0000000000000000e+00
2752:0.0000000000000000e+00
2753:0.0000000000000000e+00
2754:0.0000000000000000e+00
2755:0.0000000000000000e+00
2756:0.0000000000000000e+00
2757:0.0000000000000000e+00
2758:0.0000000000000000e+00
2759:0.0000000000000000e+00
2760:0.0000000000000000e+00
2761:0.0000000000000000e+00
2762:0.0000000000000000e+00
2763:0.0000000000000000e+00
2764:0.0000000000000000e+00
2765:0.0000000000000000e+00
2766:0.0000000000000000e+00
2767:0.0000000000000000e+00
2768:0.0000000000000000e+00
2769:0.0000000000000000e+00
2770:0.0000000000000000e+00
2771:0.0000000000000000e+00
2772:0.0000000000000000e+00
2773:0.0000000000000000e+00
2774:0.0000000000000000e+00
2775:0.0000000000000000e+00
2776:0.0000000000000000e+00
2777:0.0000000000000000e+00
2778:0.0000000000000000e+00
2779:0.0000000000000000e+00
2780:0.0000000000000000e+00
2781:0.0000000000000000e+00
2782:0.0000000000000000e+00
2783:0.0000000000000000e+00
2784:0.0000000000000000e+00
2785:0.0000000000000000e+00
2786:0.0000000000000000e+00
2787:0.0000000000000000e+00
2788:0.0000000000000000e+00
2789:0.0000000000000000e+00
2790:0.0000000000000000e+00
2791:0.0000000000000000e+00
2792:0.0000000000000000e+00
2793:0.0000000000000000e+00
2794:0.0000000000000000e+00
2795:0.0000000000000000e+00
2796:0.0000000000000000e+00
2797:0.0000000000000000e+00
2798:0.0000000000000000e+00
2799:0.0000000000000000e+00
2800:0.0000000000000000e+00
2801:0.0000000000000000e+00
2802:0.0000000000000000e+00
2803:0.0000000000000000e+00
2804:0.0000000000000000e+00
2805:0.0000000000000000e+00
2806:0.0000000000000000e+00
2807:0.0000000000000000e+00
2808:0.0000000000000000e+00
2809:0.0000000000000000e+00
2810:0.0000000000000000e+00
2811:0.0000000000000000e+00
2812:0.0000000000000000e+00
2813:0.0000000000000000e+00
2814:0.0000000000000000e+00
2815:0.0000000000000000e+00
2816:0.0000000000000000e+00
2817:0.0000000000000000e+00
2818:0.0000000000000000e+00
2819:0.0000000000000000e+00
2820:0.0000000000000000e+00
2821:0.0000000000000000e+00
2822:0.0000000000000000e+00
2823:0.0000000000000000e+00
2824:0.0000000000000000e+00
