label=Stress xy
num_items=720

0:-2.7353726784223893e+00
1:-6.4522055316702742e-01
2:5.0588516889263513e-01
3:-1.1771211985980447e+01
4:-3.1136854443660424e+00
5:2.0505725857226471e+00
6:-1.9606489048614158e+01
7:-4.9991603655307744e+00
8:3.8771138771328224e+00
9:8.1646925690929784e-01
10:9.8960056443126543e-01
11:1.0440776193182060e+00
12:3.2765713695808580e+00
13:3.5432875248767592e+00
14:3.6000060615603213e+00
15:5.9159237663362116e+00
16:6.1466797892674814e+00
17:6.1118060529453597e+00
18:1.0106179414159671e+00
19:9.1261006104960551e-01
20:8.3023724930643827e-01
21:3.4648144279513078e+00
22:3.0942699392045183e+00
23:2.7834778786630832e+00
24:5.8445781775605132e+00
25:5.1773855074531996e+00
26:4.6178400406947855e+00
27:7.7738643330874513e-01
28:6.8136193179813154e-01
29:5.9861036243531152e-01
30:2.5813116145194588e+00
31:2.2120890076409547e+00
32:1.9004960556862251e+00
33:4.2576734661326654e+00
34:3.6040956553241359e+00
35:3.0531451754085861e+00
36:-2.3469047872535828e+01
37:-6.1382999258879423e+00
38:4.4823905627015783e+00
39:-2.8478281107495938e+01
40:-8.0174515863870432e+00
41:4.6899593446139738e+00
42:-3.1014497244760413e+01
43:-8.8239400681472446e+00
44:5.1368479710683062e+00
45:6.8516485153114894e+00
46:6.9374863206578956e+00
47:6.8062240732893766e+00
48:7.3352514522913586e+00
49:6.9504447632831985e+00
50:6.5668745990151072e+00
51:7.8378624575411751e+00
52:6.8526553646065747e+00
53:6.1092353927182339e+00
54:6.4703435025528844e+00
55:5.6690446339472302e+00
56:5.0108274149492242e+00
57:6.1284726737589352e+00
58:5.1781644513145002e+00
59:4.4413535482873527e+00
60:5.5436688522825381e+00
61:4.4505521903298879e+00
62:3.6370069284558113e+00
63:4.5891560328792860e+00
64:3.8201820066598127e+00
65:3.1743556382055163e+00
66:3.9752004523642692e+00
67:3.1123367537485862e+00
68:2.3953592866058462e+00
69:3.1335743790443815e+00
70:2.1975157734221655e+00
71:1.4248743436498557e+00
72:-3.1605362428338101e+01
73:-9.4145711372054848e+00
74:4.7848595825592826e+00
75:-3.1282358388758816e+01
76:-1.0760571834735190e+01
77:2.9570299959006507e+00
78:-2.9075219307911119e+01
79:-1.1310741375763829e+01
80:1.0839184804768334e+00
81:7.4419933248540797e+00
82:6.1389962567935781e+00
83:5.2431416298738913e+00
84:5.4216815207594484e+00
85:3.7273003151342770e+00
86:2.7411382006217275e+00
87:3.1766601022427592e+00
88:1.1502933977431840e+00
89:1.0065031644478897e-01
90:4.6565451178814037e+00
91:3.5710098475805427e+00
92:2.7776678225498186e+00
93:2.2364171929500594e+00
94:1.3495555025137276e+00
95:7.2932025721822447e-01
96:-3.0316701734473078e-01
97:-9.4541782537304186e-01
98:-1.3547716919554540e+00
99:2.2836150004013107e+00
100:1.3469311589282920e+00
101:5.6659809674202632e-01
102:3.1005293135456513e-01
103:-5.6089195807354719e-01
104:-1.3153412266719009e+00
105:-1.6869044029637397e+00
106:-2.4837054221665666e+00
107:-3.2052404990396623e+00
108:-2.7295452436241678e+01
109:-1.1703426647942397e+01
110:-3.4324953922386020e-01
111:-2.3704047519825007e+01
112:-1.2642172061876785e+01
113:-3.4539256407028338e+00
114:-1.9339916715948757e+01
115:-1.3208226040620685e+01
116:-6.6912567699327257e+00
117:1.5712029685676716e+00
118:-4.6193122997718039e-01
119:-1.4307193911235907e+00
120:-1.7396223893347500e+00
121:-3.3495757345723693e+00
122:-3.8762525145467328e+00
123:-5.2487239755820010e+00
124:-6.2157435898259861e+00
125:-6.1291149493403037e+00
126:-1.7307141573623512e+00
127:-2.1944951701507716e+00
128:-2.4887784657482306e+00
129:-3.9157761316928013e+00
130:-4.0741751955107270e+00
131:-4.2313719106841283e+00
132:-5.8893999066802367e+00
133:-5.8070647165184370e+00
134:-5.8720862843376311e+00
135:-2.7902219651174631e+00
136:-3.5533031261105363e+00
137:-4.2279950787433940e+00
138:-4.5332962532125851e+00
139:-5.2813087417563240e+00
140:-5.8561941813410208e+00
141:-6.1928605424843006e+00
142:-6.9576763961233645e+00
143:-7.4696990539033630e+00
144:4.3888035635100037e-01
145:1.3908039211880954e-01
146:-7.4709263631538370e-03
147:1.4065352896256038e+00
148:4.8532524701424640e-01
149:-1.4307303423929342e-02
150:2.2728747935248483e+00
151:7.6379805464377448e-01
152:-5.5372345641135995e-02
153:-2.7230361488167362e-02
154:-4.6803862188966518e-02
155:-6.5293097097593344e-02
156:-1.2515153147039956e-01
157:-2.4811293576861010e-01
158:-3.2390386146327926e-01
159:-2.4492507254947576e-01
160:-4.6228673107490048e-01
161:-5.8639169818545389e-01
162:-7.0594774848772412e-02
163:-6.6180034409504360e-02
164:-5.4260122216855729e-02
165:-3.2862773555615971e-01
166:-2.8913593257360337e-01
167:-2.3355909639258918e-01
168:-5.8811239281339245e-01
169:-5.1419639289414354e-01
170:-4.1561549833132955e-01
171:-4.3728784106900148e-02
172:-2.4815881796184335e-02
173:-6.6984494948273115e-03
174:-1.9180539658017290e-01
175:-1.1330229647911651e-01
176:-3.3286348913921730e-02
177:-3.4233054167284316e-01
178:-2.0252286258574004e-01
179:-5.8894018561027675e-02
180:2.3558178321954162e+00
181:7.2559802074779156e-01
182:-1.6140110602895819e-01
183:1.7699408488658372e+00
184:3.0542675512748291e-01
185:-5.0098119402007524e-01
186:1.0756677842367408e+00
187:-1.9866590620118327e-01
188:-9.0000799212842919e-01
189:-3.7426067939149160e-01
190:-6.2394074132058497e-01
191:-7.5811627599795872e-01
192:-7.1526705284315117e-01
193:-9.7589586436867248e-01
194:-1.0906518588556995e+00
195:-1.1034073601409866e+00
196:-1.3571468537259326e+00
197:-1.4346452404856320e+00
198:-7.5102650617432698e-01
199:-6.5019054885005445e-01
200:-5.2324396116141692e-01
201:-1.0542949694383148e+00
202:-8.9423626579562898e-01
203:-7.1167853446742291e-01
204:-1.3635079859462678e+00
205:-1.1431183811724503e+00
206:-9.0384135139203148e-01
207:-4.3088166279359963e-01
208:-2.5419757747842181e-01
209:-7.2737726963483296e-02
210:-5.8514155851364247e-01
211:-3.4366881684300526e-01
212:-9.6448151593885811e-02
213:-7.4259336795392783e-01
214:-4.3559703151103452e-01
215:-1.2188061311089098e-01
216:3.6307161367979635e-01
217:-6.8991842888200550e-01
218:-1.2521505758043898e+00
219:-1.3089374323094438e+00
220:-1.8240304213152274e+00
221:-2.0458464303859625e+00
222:-2.9614586699856922e+00
223:-2.9646342746188830e+00
224:-2.8720138150213663e+00
225:-1.4184203401449917e+00
226:-1.6278921703097582e+00
227:-1.6569394554359422e+00
228:-2.1059966456157215e+00
229:-2.1740550361733826e+00
230:-2.0776808208943605e+00
231:-2.8301369402802026e+00
232:-2.7448659238042512e+00
233:-2.5111542406934624e+00
234:-1.5578406752841714e+00
235:-1.2951733118778155e+00
236:-1.0177398299752609e+00
237:-1.9178642579078555e+00
238:-1.5684502789220292e+00
239:-1.2148214142665130e+00
240:-2.2860228453479379e+00
241:-1.8459804957980492e+00
242:-1.4122744934050249e+00
243:-8.3433777458740288e-01
244:-4.8740468374514972e-01
245:-1.3483496900899944e-01
246:-9.9015405302646142e-01
247:-5.7382857535788656e-01
248:-1.5656192678684841e-01
249:-1.1460471247877995e+00
250:-6.6319827594088643e-01
251:-1.8410370918294919e-01
252:-3.9293792287140792e+00
253:-3.6810644474782683e+00
254:-3.4193748790142338e+00
255:-5.5718665879626856e+00
256:-4.9773257707929535e+00
257:-4.4551692827962919e+00
258:-7.1464657086691092e+00
259:-6.2411304578752711e+00
260:-5.4939386526556788e+00
261:-3.3078229416988401e+00
262:-3.1091163841852838e+00
263:-2.7776715172376543e+00
264:-4.2096389422481026e+00
265:-3.7801353016985169e+00
266:-3.2558624322816518e+00
267:-5.1238396320184050e+00
268:-4.4604437413523108e+00
269:-3.7402477023856635e+00
270:-2.5079021828631363e+00
271:-2.0076897562320291e+00
272:-1.5225363677876256e+00
273:-2.8994579985549698e+00
274:-2.2823821223107950e+00
275:-1.6997895065178457e+00
276:-3.2948543115608064e+00
277:-2.5559211402398767e+00
278:-1.8708954516347427e+00
279:-1.2313782267769788e+00
280:-7.1075623417735512e-01
281:-1.9711756122081123e-01
282:-1.3651792374904534e+00
283:-7.8426721181126480e-01
284:-2.1673961345077056e-01
285:-1.4935643161759509e+00
286:-8.5986907722993400e-01
287:-2.4595937327809178e-01
288:-8.5575239259912621e+00
289:-7.5434925997044928e+00
290:-6.6167629854749554e+00
291:-1.1091145128608785e+01
292:-9.9195524235484314e+00
293:-8.8304476593002725e+00
294:-1.3759186059416127e+01
295:-1.2345646120182440e+01
296:-1.1009780350515895e+01
297:-6.0701967006661208e+00
298:-5.0958044481252909e+00
299:-4.1733127016210450e+00
300:-8.0807341266046429e+00
301:-6.5920025828475488e+00
302:-5.1835095578622319e+00
303:-1.0031475386989772e+01
304:-8.0253516846013078e+00
305:-6.1278045137198029e+00
306:-3.6653040802258432e+00
307:-2.8379377103197689e+00
308:-2.0561345316387567e+00
309:-4.4319435314585096e+00
310:-3.2765758301981411e+00
311:-2.2307103913250472e+00
312:-5.1281803420354590e+00
313:-3.6323974203681604e+00
314:-2.3100558322503728e+00
315:-1.6289536475543929e+00
316:-9.3024014447860637e-01
317:-2.5770457391665924e-01
318:-1.7124609674376405e+00
319:-9.4497858686765945e-01
320:-2.3682321085186744e-01
321:-1.7121505833325843e+00
322:-9.2753291360479528e-01
323:-2.3539132047162903e-01
324:-1.5008245803965538e+01
325:-1.3491210228629003e+01
326:-1.2005488562684560e+01
327:-1.6819986562703757e+01
328:-1.5175694892846165e+01
329:-1.3408214255571149e+01
330:-1.9056463213850758e+01
331:-1.7179551290040585e+01
332:-1.5024947522003545e+01
333:-1.0882141231358325e+01
334:-8.5805594932913092e+00
335:-6.4234917580265121e+00
336:-1.1978455473534394e+01
337:-9.0668095235372324e+00
338:-6.3948383844657011e+00
339:-1.3206685314550986e+01
340:-9.5082309245518299e+00
341:-6.1446121536017175e+00
342:-5.3031110927931007e+00
343:-3.6488190670664933e+00
344:-2.1991792822695988e+00
345:-5.0785782680860194e+00
346:-3.2325864782448774e+00
347:-1.6345638814932415e+00
348:-4.5831088924415173e+00
349:-2.5525236444298200e+00
350:-8.1322454166746327e-01
351:-1.5803291076105401e+00
352:-8.3493102456520840e-01
353:-1.8827551599902814e-01
354:-1.0358282180333023e+00
355:-4.7247832364928133e-01
356:3.7433004965533494e-03
357:-2.6528148380127325e-01
358:1.7701511931499651e-02
359:2.2517054166704267e-01
360:-2.0166738982155895e+01
361:-1.7847612022839911e+01
362:-1.5347995218081220e+01
363:-2.2672388217332976e+01
364:-1.8418282695863745e+01
365:-1.4472224065192140e+01
366:-2.7038368137138256e+01
367:-1.9740150234960968e+01
368:-1.3238515959821688e+01
369:-1.3319594933401458e+01
370:-9.2423571067086190e+00
371:-5.5945872186010712e+00
372:-1.1966654969315707e+01
373:-7.5292149262510133e+00
374:-3.7512851917410286e+00
375:-9.9513234115581994e+00
376:-5.2165591313878386e+00
377:-1.3713475297415882e+00
378:-3.9960083665806017e+00
379:-2.0274001956972594e+00
380:-2.9790260695484710e-01
381:-2.3452879960396622e+00
382:-8.7645402056740140e-01
383:5.7588721308535984e-01
384:-2.2436812975828574e-01
385:5.7926238973154143e-01
386:1.5890180077232690e+00
387:1.9181690678280189e-01
388:2.5470432462314396e-01
389:2.4806821869320458e-01
390:9.2996839837556611e-01
391:6.6598425939877615e-01
392:3.4144839724221321e-01
393:1.7979351315134662e+00
394:1.3397735939754989e+00
395:8.3003213384825725e-01
396:-2.6917814875193855e+01
397:-1.8545781272186890e+01
398:-1.1216044212765299e+01
399:-2.1074325477692817e+01
400:-1.2307151425942932e+01
401:-4.9381275732269678e+00
402:-1.5444019175766631e+01
403:-5.5612725821894058e+00
404:2.5674701569054474e+00
405:-7.9821586884198554e+00
406:-3.8824895406520801e+00
407:-3.3528441811071374e-01
408:-2.8703605952458484e+00
409:-1.6913951553033284e+00
410:3.2355097953746725e-01
411:3.4617113927203151e+00
412:9.7408626505868601e-01
413:7.1088655242009180e-01
414:6.5958222531737265e-01
415:1.0775018911376253e+00
416:1.7892413448144968e+00
417:1.0038972261222225e+00
418:1.0278211233675327e+00
419:1.4243090378908707e+00
420:9.3157108887747320e-01
421:8.0860916280250317e-01
422:1.1369554834270010e+00
423:1.9070224294902440e+00
424:1.4060709861742218e+00
425:8.9844895050218809e-01
426:1.4187434858240604e+00
427:8.5216337249754626e-01
428:4.2427140561606808e-01
429:1.0677317109174038e+00
430:3.9353172792050056e-01
431:3.3786301697034289e-03
432:-1.1279278786790012e+00
433:-4.3878062038871244e+00
434:-7.4966038649240270e+00
435:-8.2736518256000924e-01
436:-3.4508284500144639e+00
437:-5.9755745444290325e+00
438:-7.0008670185660093e-01
439:-3.0888976964317165e+00
440:-5.4313550090983229e+00
441:-8.7782705566448254e+00
442:-1.0072054526948131e+01
443:-1.1211883641863444e+01
444:-7.1892589199054369e+00
445:-8.8121679853728185e+00
446:-1.0300478871121705e+01
447:-6.6588766678221472e+00
448:-8.4903204159300589e+00
449:-1.0206522659988901e+01
450:-1.1434881026088577e+01
451:-1.1123099511608103e+01
452:-1.0752977722393510e+01
453:-1.0837566687206698e+01
454:-1.1253384697297104e+01
455:-1.1625125580172389e+01
456:-1.0980421111339398e+01
457:-1.1978857681028776e+01
458:-1.2947480271022071e+01
459:-1.0427008783182391e+01
460:-9.7452618853933952e+00
461:-9.1110169314059402e+00
462:-1.1669127769924451e+01
463:-1.1478227293021504e+01
464:-1.1289148023044499e+01
465:-1.3302175944400636e+01
466:-1.3543395718755299e+01
467:-1.3740755963160197e+01
468:-6.9680808723360632e-01
469:-3.1014030587317403e+00
470:-5.4780177345359045e+00
471:-7.3125381600740369e-01
472:-3.2367218114012561e+00
473:-5.7249860087030049e+00
474:-8.1262253508349680e-01
475:-3.5294458392698882e+00
476:-6.2398418429660989e+00
477:-6.7282173846259976e+00
478:-8.6039014449592095e+00
479:-1.0383437680051836e+01
480:-7.0473043843738106e+00
481:-9.0820779169556349e+00
482:-1.1066962216861608e+01
483:-7.7285281561578225e+00
484:-1.0135795508120585e+01
485:-1.2539432219972241e+01
486:-1.1250124927647700e+01
487:-1.2483893010826595e+01
488:-1.3675643336880148e+01
489:-1.2082641714185279e+01
490:-1.3556934764386725e+01
491:-1.4933008730427691e+01
492:-1.3730519363548623e+01
493:-1.5322709323839975e+01
494:-1.6760478872935757e+01
495:-1.4142642537783052e+01
496:-1.4548796169612050e+01
497:-1.4902188532020521e+01
498:-1.5484614986664027e+01
499:-1.6043214762592907e+01
500:-1.6564143252409501e+01
501:-1.7351931103158073e+01
502:-1.8031783996789965e+01
503:-1.8689055587617791e+01
504:-8.3885119385103646e-01
505:-3.5951156703402898e+00
506:-6.3571989964782212e+00
507:-7.7527759128732254e-01
508:-3.3375202702135951e+00
509:-5.9368890941663626e+00
510:-6.4655918352203112e-01
511:-2.9421387909122796e+00
512:-5.3061518387072235e+00
513:-7.9125927469067001e+00
514:-1.0511652662868705e+01
515:-1.3141389119185352e+01
516:-7.4626191450266761e+00
517:-1.0148487701473645e+01
518:-1.2936670545708854e+01
519:-6.7531123089163332e+00
520:-9.4296788283788757e+00
521:-1.2280197383063202e+01
522:-1.4400473785406369e+01
523:-1.6012142526089647e+01
524:-1.7522142119220280e+01
525:-1.4358354282035744e+01
526:-1.6477398089701154e+01
527:-1.8732253355103843e+01
528:-1.4052528807760490e+01
529:-1.7421285870682308e+01
530:-2.1163334996631324e+01
531:-1.8193847006049900e+01
532:-1.9027633133136632e+01
533:-1.9814711572619519e+01
534:-1.9802386076032928e+01
535:-2.1043958598532758e+01
536:-2.2140823329654051e+01
537:-2.2838857042890620e+01
538:-2.4457099213797122e+01
539:-2.5832633489550368e+01
540:-5.0797102254731963e-01
541:-2.4595228131951479e+00
542:-4.4677989647389271e+00
543:-2.2438342034706393e-01
544:-1.1704542470501689e+00
545:-2.1017039850398187e+00
546:2.5276444523837212e-02
547:2.9659306794328205e-01
548:6.5427622968549337e-01
549:-5.7249920802111864e+00
550:-8.0905817538559344e+00
551:-1.0595827442265723e+01
552:-2.7677481112882227e+00
553:-4.1027490368778734e+00
554:-5.3879102410789788e+00
555:6.5603881258015873e-01
556:4.0315376504933076e-01
557:3.8960417506083422e-01
558:-1.2400036512709084e+01
559:-1.6247884540233279e+01
560:-2.0472328824933360e+01
561:-6.5869407968197899e+00
562:-9.5515377971106670e+00
563:-1.2666605284965735e+01
564:1.7173086824268047e-01
565:-6.6909444540675067e-01
566:-1.4342644770085986e+00
567:-2.2212333432712107e+01
568:-2.3687895830137538e+01
569:-2.5107047721709051e+01
570:-1.4571296853092804e+01
571:-1.8344657175059961e+01
572:-2.2799816521996391e+01
573:-4.5603099319221254e+00
574:-1.5503215931787729e+01
575:-2.7866130487445741e+01
576:-1.7692350050187478e+01
577:-1.2056504484293702e+01
578:-1.0363116119668083e+01
579:-1.3166170414157405e+01
580:-1.2798858977230758e+01
581:-1.4050678328561370e+01
582:-8.6110413065561691e+00
583:-1.3413116966408991e+01
584:-1.7318051288522462e+01
585:-9.3393386812272592e+00
586:-6.9442427697704368e+00
587:-6.2111366382406912e+00
588:-1.3288794774718713e+01
589:-1.0027628071768520e+01
590:-8.4875731370165077e+00
591:-1.6812166054032208e+01
592:-1.2958026693222147e+01
593:-1.0823296691467945e+01
594:-6.3413395579017404e+00
595:-6.6824381923405713e+00
596:-7.0371350951270424e+00
597:-8.2297163096797359e+00
598:-8.1632503093179380e+00
599:-8.2916245102525803e+00
600:-1.0209469937098197e+01
601:-9.6811179542268722e+00
602:-9.5464911259035397e+00
603:-7.1396793033407189e+00
604:-7.3823176548737628e+00
605:-7.9556643877416873e+00
606:-8.3238827020200290e+00
607:-8.3993891735859574e+00
608:-8.7330610623118883e+00
609:-9.4994922418481966e+00
610:-9.3979774727839747e+00
611:-9.4721928155432273e+00
612:-5.8153741027347685e+00
613:-1.3326734823969792e+01
614:-1.8653544758697631e+01
615:-1.1431753898247059e+00
616:-1.2564000896970990e+01
617:-2.0012750366226925e+01
618:2.4302517164732094e+00
619:-1.2057059049182277e+01
620:-2.0911561612783437e+01
621:-1.8394610531453004e+01
622:-1.4484381911174994e+01
623:-1.2208142641552314e+01
624:-2.0294882806659015e+01
625:-1.6677177715889989e+01
626:-1.4412552786094682e+01
627:-2.1606608910980853e+01
628:-1.8418864768833554e+01
629:-1.6248686218967677e+01
630:-1.1445681002287836e+01
631:-1.0655269158502779e+01
632:-1.0332617112018166e+01
633:-1.3494821071497055e+01
634:-1.2338211431508954e+01
635:-1.1686580070799693e+01
636:-1.5218621074507386e+01
637:-1.3772665219152090e+01
638:-1.2853135945508484e+01
639:-1.0209089536357480e+01
640:-9.9877464201791604e+00
641:-9.9336876283167825e+00
642:-1.1397927709606432e+01
643:-1.0963228406276214e+01
644:-1.0752008266182690e+01
645:-1.2423910468358661e+01
646:-1.1804036971222674e+01
647:-1.1458459722326809e+01
648:4.1654579119929540e+00
649:-1.1175466200146523e+01
650:-2.0368529359373387e+01
651:6.2749201266982046e+00
652:-8.8144414424512103e+00
653:-1.7778277740646374e+01
654:6.4246931689403919e+00
655:-7.1055629845928765e+00
656:-1.5027059598173745e+01
657:-2.1268102238447959e+01
658:-1.8477435335797189e+01
659:-1.6506088315730345e+01
660:-1.8945419497551530e+01
661:-1.6985424955141447e+01
662:-1.5525402286922013e+01
663:-1.6268798482613366e+01
664:-1.5083022068064270e+01
665:-1.4076130338732542e+01
666:-1.5500233930370786e+01
667:-1.4021991418076812e+01
668:-1.3047839966935898e+01
669:-1.4686427075164604e+01
670:-1.3354514157611028e+01
671:-1.2431375283660786e+01
672:-1.3401040515421972e+01
673:-1.2250812751401160e+01
674:-1.1401853942209652e+01
675:-1.2580869097307058e+01
676:-1.1903684677442907e+01
677:-1.1506906169639226e+01
678:-1.1966548500043723e+01
679:-1.1273743824555423e+01
680:-1.0830408911156391e+01
681:-1.0954546339510765e+01
682:-1.0275163545748802e+01
683:-9.8061213841438128e+00
684:5.8099619126112723e+00
685:-5.8338837608774776e+00
686:-1.2589717963767862e+01
687:3.9181145684541199e+00
688:-3.0891960932056013e+00
689:-7.0952796702358798e+00
690:9.4329007630638873e-01
691:-7.9343148562760335e-01
692:-1.7260981226990897e+00
693:-1.3717999950620099e+01
694:-1.2896210019873664e+01
695:-1.2136846837150337e+01
696:-7.8053427620003664e+00
697:-7.4520578241146085e+00
698:-7.0910320659439696e+00
699:-1.9181923754471584e+00
700:-1.9270358075012481e+00
701:-1.8848901263146050e+00
702:-1.1583933644581204e+01
703:-1.0613266189146966e+01
704:-9.8820871309849867e+00
705:-6.7884219121688343e+00
706:-6.2336433626883094e+00
707:-5.8181896946913181e+00
708:-1.8106263233153079e+00
709:-1.6624365502322984e+00
710:-1.5536079966013761e+00
711:-9.4908724183356306e+00
712:-8.8923360928041451e+00
713:-8.4692819360441618e+00
714:-5.5934859163143260e+00
715:-5.2440022631360268e+00
716:-4.9921326451447143e+00
717:-1.4931569164083147e+00
718:-1.3926748190320397e+00
719:-1.3108591351448844e+00
