patch_n	x	y	stress_yy
0	 0.000000000000000e+00	 0.000000000000000e+00	 0.000000000000000e+00
0	 0.000000000000000e+00	 3.333328527767945e-01	 0.000000000000000e+00
0	 0.000000000000000e+00	 6.666648222243555e-01	 0.000000000000000e+00
0	 0.000000000000000e+00	 9.999960250084501e-01	 0.000000000000000e+00
0	 0.000000000000000e+00	 1.333326577794844e+00	 0.000000000000000e+00
0	 0.000000000000000e+00	 1.666656597249306e+00	 0.000000000000000e+00
0	 0.000000000000000e+00	 1.999986200037600e+00	 0.000000000000000e+00
0	 0.000000000000000e+00	 2.333315502825495e+00	 0.000000000000000e+00
0	 0.000000000000000e+00	 2.666644622278756e+00	 0.000000000000000e+00
0	 0.000000000000000e+00	 2.999973675063150e+00	 0.000000000000000e+00
0	 0.000000000000000e+00	 3.333302777844445e+00	 0.000000000000000e+00
0	 6.666714723336501e-01	 0.000000000000000e+00	 8.394299154392204e-02
0	 6.666714723336502e-01	 3.333328527767944e-01	 2.640539777360518e-01
0	 6.666714723336500e-01	 6.666648222243555e-01	 4.149939548661413e-01
0	 6.666714723336502e-01	 9.999960250084502e-01	 5.367625478518880e-01
0	 6.666714723336500e-01	 1.333326577794844e+00	 6.293594428675023e-01
0	 6.666714723336500e-01	 1.666656597249305e+00	 6.927843873455128e-01
0	 6.666714723336501e-01	 1.999986200037601e+00	 7.270371899781584e-01
0	 6.666714723336501e-01	 2.333315502825494e+00	 7.321177207185205e-01
0	 6.666714723336501e-01	 2.666644622278756e+00	 7.080259107812831e-01
0	 6.666714723336499e-01	 2.999973675063150e+00	 6.547617526432107e-01
0	 6.666714723336501e-01	 3.333302777844444e+00	 5.723253000432930e-01
0	 1.333351778203187e+00	 0.000000000000000e+00	 1.279562040177461e-01
0	 1.333351778203188e+00	 3.333328527767945e-01	 4.234541941623260e-01
0	 1.333351778203188e+00	 6.666648222243556e-01	 6.714320039458688e-01
0	 1.333351778203188e+00	 9.999960250084499e-01	 8.718890201533663e-01
0	 1.333351778203188e+00	 1.333326577794845e+00	 1.024824729357972e+00
0	 1.333351778203187e+00	 1.666656597249305e+00	 1.130238717923851e+00
0	 1.333351778203188e+00	 1.999986200037600e+00	 1.188130672008567e+00
0	 1.333351778203188e+00	 2.333315502825495e+00	 1.198500377564824e+00
0	 1.333351778203188e+00	 2.666644622278756e+00	 1.161347720341800e+00
0	 1.333351778203188e+00	 2.999973675063150e+00	 1.076672685885895e+00
0	 1.333351778203188e+00	 3.333302777844445e+00	 9.444753595409713e-01
0	 2.000039750891494e+00	 0.000000000000000e+00	 1.387512941877122e-01
0	 2.000039750891494e+00	 3.333328527767945e-01	 4.943421848114126e-01
0	 2.000039750891494e+00	 6.666648222243554e-01	 7.932894014469311e-01
0	 2.000039750891494e+00	 9.999960250084502e-01	 1.035592209619308e+00
0	 2.000039750891494e+00	 1.333326577794844e+00	 1.221249993800165e+00
0	 2.000039750891494e+00	 1.666656597249305e+00	 1.350262257411266e+00
0	 2.000039750891494e+00	 1.999986200037600e+00	 1.422628622827213e+00
0	 2.000039750891494e+00	 2.333315502825495e+00	 1.438348831377745e+00
0	 2.000039750891494e+00	 2.666644622278756e+00	 1.397422743349124e+00
0	 2.000039750891494e+00	 2.999973675063150e+00	 1.299850337985160e+00
0	 2.000039750891494e+00	 3.333302777844445e+00	 1.145631713487537e+00
0	 2.666734223681450e+00	 0.000000000000000e+00	 1.230399188201343e-01
0	 2.666734223681450e+00	 3.333328527767945e-01	 4.928594852158465e-01
0	 2.666734223681450e+00	 6.666648222243556e-01	 8.045414015771101e-01
0	 2.666734223681449e+00	 9.999960250084499e-01	 1.058084908964557e+00
0	 2.666734223681449e+00	 1.333326577794844e+00	 1.253489370522869e+00
0	 2.666734223681450e+00	 1.666656597249306e+00	 1.390754271483989e+00
0	 2.666734223681450e+00	 1.999986200037600e+00	 1.469879219170150e+00
0	 2.666734223681449e+00	 2.333315502825494e+00	 1.490863942996127e+00
0	 2.666734223681450e+00	 2.666644622278755e+00	 1.453708294470807e+00
0	 2.666734223681450e+00	 2.999973675063150e+00	 1.358412247198123e+00
0	 2.666734223681450e+00	 3.333302777844445e+00	 1.204975896877462e+00
0	 3.333434029855936e+00	 0.000000000000000e+00	 8.753373468120465e-02
0	 3.333434029855936e+00	 3.333328527767944e-01	 4.351476309083171e-01
0	 3.333434029855935e+00	 6.666648222243555e-01	 7.291632585441329e-01
0	 3.333434029855936e+00	 9.999960250084500e-01	 9.695799109040416e-01
0	 3.333434029855936e+00	 1.333326577794845e+00	 1.156396993854867e+00
0	 3.333434029855936e+00	 1.666656597249305e+00	 1.289614025818225e+00
0	 3.333434029855936e+00	 1.999986200037600e+00	 1.369230637773343e+00
0	 3.333434029855936e+00	 2.333315502825494e+00	 1.395246573258791e+00
0	 3.333434029855936e+00	 2.666644622278756e+00	 1.367661688374409e+00
0	 3.333434029855936e+00	 2.999973675063151e+00	 1.286475951781880e+00
0	 3.333434029855936e+00	 3.333302777844445e+00	 1.151689444705267e+00
0	 4.000138002697835e+00	 0.000000000000000e+00	 3.894439853725003e-02
0	 4.000138002697835e+00	 3.333328527767945e-01	 3.373481574212823e-01
0	 4.000138002697835e+00	 6.666648222243555e-01	 5.911302265558314e-01
0	 4.000138002697835e+00	 9.999960250084499e-01	 8.002900081525777e-01
0	 4.000138002697835e+00	 1.333326577794844e+00	 9.648269981248712e-01
0	 4.000138002697835e+00	 1.666656597249305e+00	 1.084740786090324e+00
0	 4.000138002697835e+00	 1.999986200037600e+00	 1.160031055372772e+00
0	 4.000138002697835e+00	 2.333315502825494e+00	 1.190697583004639e+00
0	 4.000138002697834e+00	 2.666644622278755e+00	 1.176740239727492e+00
0	 4.000138002697835e+00	 2.999973675063150e+00	 1.118158989993500e+00
0	 4.000138002697835e+00	 3.333302777844446e+00	 1.014953891965415e+00
0	 4.666844975490027e+00	 0.000000000000000e+00	-1.601643284543333e-02
0	 4.666844975490025e+00	 3.333328527767944e-01	 2.156026002874108e-01
0	 4.666844975490026e+00	 6.666648222243554e-01	 4.144175598198159e-01
0	 4.666844975490027e+00	 9.999960250084501e-01	 5.804279934250379e-01
0	 4.666844975490025e+00	 1.333326577794844e+00	 7.136335176617147e-01
0	 4.666844975490026e+00	 1.666656597249306e+00	 8.140338179763387e-01
0	 4.666844975490027e+00	 1.999986200037600e+00	 8.816286487044805e-01
0	 4.666844975490027e+00	 2.333315502825495e+00	 9.164178330723930e-01
0	 4.666844975490027e+00	 2.666644622278756e+00	 9.184012631975815e-01
0	 4.666844975490027e+00	 2.999973675063150e+00	 8.875789000901685e-01
0	 4.666844975490027e+00	 3.333302777844445e+00	 8.239507736524173e-01
0	 5.333553781515392e+00	 0.000000000000000e+00	-7.063710270071571e-02
0	 5.333553781515392e+00	 3.333328527767945e-01	 8.605249503943586e-02
0	 5.333553781515393e+00	 6.666648222243554e-01	 2.230005125440882e-01
0	 5.333553781515392e+00	 9.999960250084501e-01	 3.402066594361495e-01
0	 5.333553781515393e+00	 1.333326577794844e+00	 4.376706867941285e-01
0	 5.333553781515393e+00	 1.666656597249306e+00	 5.153923871527437e-01
0	 5.333553781515394e+00	 1.999986200037601e+00	 5.733715945045524e-01
0	 5.333553781515392e+00	 2.333315502825494e+00	 6.116081843009136e-01
0	 5.333553781515393e+00	 2.666644622278756e+00	 6.301020734522708e-01
0	 5.333553781515391e+00	 2.999973675063150e+00	 6.288532203289090e-01
0	 5.333553781515392e+00	 3.333302777844444e+00	 6.078616247607183e-01
0	 6.000263254056813e+00	 0.000000000000000e+00	-1.182059542623231e-01
0	 6.000263254056812e+00	 3.333328527767944e-01	-3.516062279042782e-02
0	 6.000263254056812e+00	 6.666648222243555e-01	 4.085433893610988e-02
0	 6.000263254056812e+00	 9.999960250084501e-01	 1.098387989010910e-01
0	 6.000263254056814e+00	 1.333326577794845e+00	 1.717926398508632e-01
0	 6.000263254056812e+00	 1.666656597249305e+00	 2.267157592955406e-01
0	 6.000263254056814e+00	 1.999986200037601e+00	 2.746080695089581e-01
0	 6.000263254056811e+00	 2.333315502825494e+00	 3.154694975291483e-01
0	 6.000263254056814e+00	 2.666644622278755e+00	 3.492999851592115e-01
0	 6.000263254056814e+00	 2.999973675063150e+00	 3.760994889668823e-01
0	 6.000263254056813e+00	 3.333302777844445e+00	 3.958679802848968e-01
0	 6.666972226397171e+00	 0.000000000000000e+00	-1.520113307638703e-01
0	 6.666972226397171e+00	 3.333328527767944e-01	-1.318952176691960e-01
0	 6.666972226397170e+00	 6.666648222243556e-01	-1.080457067961341e-01
0	 6.666972226397169e+00	 9.999960250084499e-01	-8.046279546548693e-02
0	 6.666972226397169e+00	 1.333326577794844e+00	-4.914648883922090e-02
0	 6.666972226397172e+00	 1.666656597249306e+00	-1.409679991887510e-02
0	 6.666972226397172e+00	 1.999986200037600e+00	 2.468625045350588e-02
0	 6.666972226397171e+00	 2.333315502825495e+00	 6.720263359586467e-02
0	 6.666972226397171e+00	 2.666644622278756e+00	 1.134523129858013e-01
0	 6.666972226397170e+00	 2.999973675063150e+00	 1.634352442610863e-01
0	 6.666972226397172e+00	 3.333302777844445e+00	 2.171513752194151e-01
0	 0.000000000000000e+00	 3.333302777844445e+00	 0.000000000000000e+00
0	 0.000000000000000e+00	 3.666642022268356e+00	 0.000000000000000e+00
0	 0.000000000000000e+00	 3.999981400030400e+00	 0.000000000000000e+00
0	 0.000000000000000e+00	 4.333320877796044e+00	 0.000000000000000e+00
0	 0.000000000000000e+00	 4.666660422230756e+00	 0.000000000000000e+00
0	 0.000000000000000e+00	 5.000000000000000e+00	 0.000000000000000e+00
0	 0.000000000000000e+00	 5.333339577769243e+00	 0.000000000000000e+00
0	 0.000000000000000e+00	 5.666679122203954e+00	 0.000000000000000e+00
0	 0.000000000000000e+00	 6.000018599969598e+00	 0.000000000000000e+00
0	 0.000000000000000e+00	 6.333357977731644e+00	 0.000000000000000e+00
0	 0.000000000000000e+00	 6.666697222155555e+00	 0.000000000000000e+00
0	 6.666714723336501e-01	 3.333302777844444e+00	 5.723253000432930e-01
0	 6.666714723336501e-01	 3.666642022268355e+00	 4.756767253843636e-01
0	 6.666714723336499e-01	 3.999981400030400e+00	 3.797819360913119e-01
0	 6.666714723336502e-01	 4.333320877796044e+00	 2.846409026037063e-01
0	 6.666714723336502e-01	 4.666660422230757e+00	 1.902535958134208e-01
0	 6.666714723336500e-01	 4.999999999999997e+00	 9.661998706459175e-02
0	 6.666714723336501e-01	 5.333339577769244e+00	 3.740048153591250e-03
0	 6.666714723336503e-01	 5.666679122203954e+00	-8.838624867099439e-02
0	 6.666714723336501e-01	 6.000018599969598e+00	-1.797589307083993e-01
0	 6.666714723336500e-01	 6.333357977731642e+00	-2.703780248057026e-01
0	 6.666714723336501e-01	 6.666697222155554e+00	-3.602435573578507e-01
0	 1.333351778203188e+00	 3.333302777844445e+00	 9.444753595409714e-01
0	 1.333351778203188e+00	 3.666642022268356e+00	 7.891449934085240e-01
0	 1.333351778203187e+00	 3.999981400030399e+00	 6.350800583152032e-01
0	 1.333351778203188e+00	 4.333320877796045e+00	 4.822805067119889e-01
0	 1.333351778203187e+00	 4.666660422230754e+00	 3.307462918091816e-01
0	 1.333351778203187e+00	 5.000000000000000e+00	 1.804773675763158e-01
0	 1.333351778203187e+00	 5.333339577769243e+00	 3.147368874213211e-02
0	 1.333351778203187e+00	 5.666679122203953e+00	-1.162647892054624e-01
0	 1.333351778203188e+00	 6.000018599969598e+00	-2.627381100194334e-01
0	 1.333351778203188e+00	 6.333357977731641e+00	-4.079463166936987e-01
0	 1.333351778203188e+00	 6.666697222155556e+00	-5.518894514631224e-01
0	 2.000039750891494e+00	 3.333302777844445e+00	 1.145631713487537e+00
0	 2.000039750891494e+00	 3.666642022268356e+00	 9.638681747803022e-01
0	 2.000039750891494e+00	 3.999981400030399e+00	 7.836718168436533e-01
0	 2.000039750891494e+00	 4.333320877796045e+00	 6.050425839721700e-01
0	 2.000039750891494e+00	 4.666660422230756e+00	 4.279804214008083e-01
0	 2.000039750891494e+00	 4.999999999999999e+00	 2.524852753047944e-01
0	 2.000039750891494e+00	 5.333339577769243e+00	 7.855709279961971e-02
0	 2.000039750891494e+00	 5.666679122203953e+00	-9.380417805904179e-02
0	 2.000039750891494e+00	 6.000018599969599e+00	-2.645985882753518e-01
0	 2.000039750891494e+00	 6.333357977731643e+00	-4.338261879133888e-01
0	 2.000039750891494e+00	 6.666697222155556e+00	-6.014870260971972e-01
0	 2.666734223681450e+00	 3.333302777844445e+00	 1.204975896877462e+00
0	 2.666734223681449e+00	 3.666642022268355e+00	 1.023309640207508e+00
0	 2.666734223681450e+00	 3.999981400030401e+00	 8.433346618486378e-01
0	 2.666734223681450e+00	 4.333320877796044e+00	 6.650509060315777e-01
0	 2.666734223681450e+00	 4.666660422230755e+00	 4.884583180018215e-01
0	 2.666734223681449e+00	 4.999999999999998e+00	 3.135568440196514e-01
0	 2.666734223681450e+00	 5.333339577769243e+00	 1.403464313600374e-01
0	 2.666734223681450e+00	 5.666679122203955e+00	-3.117297168738592e-02
0	 2.666734223681450e+00	 6.000018599969599e+00	-2.010014158183865e-01
0	 2.666734223681449e+00	 6.333357977731642e+00	-3.691389507141593e-01
0	 2.666734223681450e+00	 6.666697222155557e+00	-5.355856250414517e-01
0	 3.333434029855936e+00	 3.333302777844445e+00	 1.151689444705267e+00
0	 3.333434029855937e+00	 3.666642022268355e+00	 9.909327603979463e-01
0	 3.333434029855936e+00	 3.999981400030399e+00	 8.318460435021713e-01
0	 3.333434029855937e+00	 4.333320877796044e+00	 6.744292445375473e-01
0	 3.333434029855936e+00	 4.666660422230755e+00	 5.186823150257830e-01
0	 3.333434029855936e+00	 4.999999999999999e+00	 3.646052074905368e-01
0	 3.333434029855936e+00	 5.333339577769244e+00	 2.121978754574058e-01
0	 3.333434029855936e+00	 5.666679122203953e+00	 6.146027345385278e-02
0	 3.333434029855936e+00	 6.000018599969598e+00	-8.760764299079997e-02
0	 3.333434029855936e+00	 6.333357977731640e+00	-2.350059173454588e-01
0	 3.333434029855936e+00	 6.666697222155554e+00	-3.807345920772597e-01
0	 4.000138002697835e+00	 3.333302777844446e+00	 1.014953891965415e+00
0	 4.000138002697835e+00	 3.666642022268356e+00	 8.902009060594573e-01
0	 4.000138002697835e+00	 3.999981400030400e+00	 7.669834119762023e-01
0	 4.000138002697835e+00	 4.333320877796044e+00	 6.453013711373530e-01
0	 4.000138002697835e+00	 4.666660422230756e+00	 5.251547458861934e-01
0	 4.000138002697835e+00	 4.999999999999999e+00	 4.065434994870639e-01
0	 4.000138002697835e+00	 5.333339577769244e+00	 2.894675961257145e-01
0	 4.000138002697835e+00	 5.666679122203955e+00	 1.739270009090429e-01
0	 4.000138002697834e+00	 6.000018599969599e+00	 5.992167986518616e-02
0	 4.000138002697835e+00	 6.333357977731643e+00	-5.254840005661415e-02
0	 4.000138002697835e+00	 6.666697222155556e+00	-1.634832709860298e-01
0	 4.666844975490027e+00	 3.333302777844445e+00	 8.239507736524173e-01
0	 4.666844975490027e+00	 3.666642022268356e+00	 7.445774478998179e-01
0	 4.666844975490028e+00	 3.999981400030400e+00	 6.665242174426784e-01
0	 4.666844975490026e+00	 4.333320877796043e+00	 5.897910574783926e-01
0	 4.666844975490027e+00	 4.666660422230756e+00	 5.143779439965847e-01
0	 4.666844975490025e+00	 4.999999999999997e+00	 4.402848537788731e-01
0	 4.666844975490027e+00	 5.333339577769244e+00	 3.675117643989486e-01
0	 4.666844975490026e+00	 5.666679122203955e+00	 2.960586542225492e-01
0	 4.666844975490027e+00	 6.000018599969599e+00	 2.259255024073338e-01
0	 4.666844975490027e+00	 6.333357977731644e+00	 1.571122889028964e-01
0	 4.666844975490027e+00	 6.666697222155555e+00	 8.961899445093478e-02
0	 5.333553781515392e+00	 3.333302777844444e+00	 6.078616247607184e-01
0	 5.333553781515393e+00	 3.666642022268357e+00	 5.775257566269129e-01
0	 5.333553781515392e+00	 3.999981400030399e+00	 5.482459100735934e-01
0	 5.333553781515392e+00	 4.333320877796044e+00	 5.200220752079252e-01
0	 5.333553781515392e+00	 4.666660422230755e+00	 4.928542427705099e-01
0	 5.333553781515390e+00	 4.999999999999998e+00	 4.667424041355807e-01
0	 5.333553781515394e+00	 5.333339577769244e+00	 4.416865513111494e-01
0	 5.333553781515392e+00	 5.666679122203955e+00	 4.176866769386666e-01
0	 5.333553781515393e+00	 6.000018599969598e+00	 3.947427742933122e-01
0	 5.333553781515392e+00	 6.333357977731640e+00	 3.728548372837485e-01
0	 5.333553781515392e+00	 6.666697222155554e+00	 3.520228604522200e-01
0	 6.000263254056813e+00	 3.333302777844445e+00	 3.958679802848967e-01
0	 6.000263254056813e+00	 3.666642022268356e+00	 4.125092029484833e-01
0	 6.000263254056811e+00	 3.999981400030399e+00	 4.299259400410486e-01
0	 6.000263254056814e+00	 4.333320877796043e+00	 4.481181959732574e-01
0	 6.000263254056813e+00	 4.666660422230756e+00	 4.670859756214767e-01
0	 6.000263254056813e+00	 4.999999999999999e+00	 4.868292843267645e-01
0	 6.000263254056811e+00	 5.333339577769243e+00	 5.073481278961827e-01
0	 6.000263254056813e+00	 5.666679122203955e+00	 5.286425126018546e-01
0	 6.000263254056813e+00	 6.000018599969597e+00	 5.507124451809813e-01
0	 6.000263254056814e+00	 6.333357977731644e+00	 5.735579328364357e-01
0	 6.000263254056813e+00	 6.666697222155556e+00	 5.971789832364580e-01
0	 6.666972226397172e+00	 3.333302777844445e+00	 2.171513752194151e-01
0	 6.666972226397171e+00	 3.666642022268356e+00	 2.729911575724210e-01
0	 6.666972226397171e+00	 3.999981400030400e+00	 3.293417575168283e-01
0	 6.666972226397171e+00	 4.333320877796043e+00	 3.862031914218992e-01
0	 6.666972226397170e+00	 4.666660422230755e+00	 4.435754759628509e-01
0	 6.666972226397171e+00	 4.999999999999999e+00	 5.014586281221480e-01
0	 6.666972226397168e+00	 5.333339577769243e+00	 5.598526651882876e-01
0	 6.666972226397170e+00	 5.666679122203955e+00	 6.187576047563446e-01
0	 6.666972226397171e+00	 6.000018599969599e+00	 6.781734647281000e-01
0	 6.666972226397172e+00	 6.333357977731642e+00	 7.381002633117749e-01
0	 6.666972226397171e+00	 6.666697222155556e+00	 7.985380190221675e-01
0	 0.000000000000000e+00	 6.666697222155555e+00	 0.000000000000000e+00
0	 0.000000000000000e+00	 7.000026324936851e+00	 0.000000000000000e+00
0	 0.000000000000000e+00	 7.333355377721245e+00	 0.000000000000000e+00
0	 0.000000000000000e+00	 7.666684497174507e+00	 0.000000000000000e+00
0	 0.000000000000000e+00	 8.000013799962401e+00	 0.000000000000000e+00
0	 0.000000000000000e+00	 8.333343402750696e+00	 0.000000000000000e+00
0	 0.000000000000000e+00	 8.666673422205157e+00	 0.000000000000000e+00
0	 0.000000000000000e+00	 9.000003974991552e+00	 0.000000000000000e+00
0	 0.000000000000000e+00	 9.333335177775650e+00	 0.000000000000000e+00
0	 0.000000000000000e+00	 9.666667147223208e+00	 0.000000000000000e+00
0	 0.000000000000000e+00	 1.000000000000000e+01	 0.000000000000000e+00
0	 6.666714723336501e-01	 6.666697222155554e+00	-3.602435573578507e-01
0	 6.666714723336499e-01	 7.000026324936851e+00	-4.338021880072019e-01
0	 6.666714723336501e-01	 7.333355377721246e+00	-4.755058671964843e-01
0	 6.666714723336502e-01	 7.666684497174506e+00	-4.853545535265369e-01
0	 6.666714723336501e-01	 8.000013799962401e+00	-4.633482724939827e-01
0	 6.666714723336502e-01	 8.333343402750700e+00	-4.094871164910230e-01
0	 6.666714723336500e-01	 8.666673422205161e+00	-3.237712448048545e-01
0	 6.666714723336502e-01	 9.000003974991552e+00	-2.062008836167636e-01
0	 6.666714723336499e-01	 9.333335177775647e+00	-5.677632600086410e-02
0	 6.666714723336502e-01	 9.666667147223208e+00	 1.245020680775405e-01
0	 6.666714723336501e-01	 1.000000000000000e+01	 3.376338717639270e-01
0	 1.333351778203188e+00	 6.666697222155556e+00	-5.518894514631224e-01
0	 1.333351778203188e+00	 7.000026324936852e+00	-6.692906756498943e-01
0	 1.333351778203188e+00	 7.333355377721245e+00	-7.348816235403296e-01
0	 1.333351778203187e+00	 7.666684497174505e+00	-7.486622301506731e-01
0	 1.333351778203187e+00	 8.000013799962401e+00	-7.106325392993718e-01
0	 1.333351778203187e+00	 8.333343402750696e+00	-6.207927036066813e-01
0	 1.333351778203188e+00	 8.666673422205163e+00	-4.791429844938113e-01
0	 1.333351778203187e+00	 9.000003974991552e+00	-2.856837521813920e-01
0	 1.333351778203188e+00	 9.333335177775648e+00	-4.041548568737467e-02
0	 1.333351778203188e+00	 9.666667147223214e+00	 2.566612271755945e-01
0	 1.333351778203187e+00	 9.999999999999998e+00	 6.055456898033322e-01
0	 2.000039750891494e+00	 6.666697222155556e+00	-6.014870260971971e-01
0	 2.000039750891494e+00	 7.000026324936851e+00	-7.375447275122986e-01
0	 2.000039750891494e+00	 7.333355377721243e+00	-8.119727832842183e-01
0	 2.000039750891494e+00	 7.666684497174505e+00	-8.247711198868504e-01
0	 2.000039750891493e+00	 8.000013799962401e+00	-7.759397932171309e-01
0	 2.000039750891494e+00	 8.333343402750694e+00	-6.654789885945139e-01
0	 2.000039750891494e+00	 8.666673422205157e+00	-4.933890207598621e-01
0	 2.000039750891494e+00	 9.000003974991554e+00	-2.596703338737190e-01
0	 2.000039750891494e+00	 9.333335177775647e+00	 3.567649848628469e-02
0	 2.000039750891494e+00	 9.666667147223212e+00	 3.926507733284290e-01
0	 2.000039750891494e+00	 1.000000000000000e+01	 8.112516582509133e-01
0	 2.666734223681450e+00	 6.666697222155557e+00	-5.355856250414516e-01
0	 2.666734223681450e+00	 7.000026324936848e+00	-6.696436081786591e-01
0	 2.666734223681450e+00	 7.333355377721245e+00	-7.406248606808111e-01
0	 2.666734223681449e+00	 7.666684497174506e+00	-7.485293127495006e-01
0	 2.666734223681450e+00	 8.000013799962401e+00	-6.933570270482640e-01
0	 2.666734223681450e+00	 8.333343402750698e+00	-5.751081987020533e-01
0	 2.666734223681450e+00	 8.666673422205161e+00	-3.937831552959781e-01
0	 2.666734223681450e+00	 9.000003974991552e+00	-1.493823568735452e-01
0	 2.666734223681449e+00	 9.333335177775648e+00	 1.580936040658919e-01
0	 2.666734223681450e+00	 9.666667147223210e+00	 5.286440025703761e-01
0	 2.666734223681450e+00	 1.000000000000000e+01	 9.622679812393564e-01
0	 3.333434029855936e+00	 6.666697222155554e+00	-3.807345920772597e-01
0	 3.333434029855936e+00	 7.000026324936849e+00	-4.966665822332283e-01
0	 3.333434029855936e+00	 7.333355377721244e+00	-5.546833699827702e-01
0	 3.333434029855936e+00	 7.666684497174508e+00	-5.547848987530379e-01
0	 3.333434029855936e+00	 8.000013799962401e+00	-4.969712335937901e-01
0	 3.333434029855936e+00	 8.333343402750694e+00	-3.812425611768309e-01
0	 3.333434029855936e+00	 8.666673422205157e+00	-2.075991897951096e-01
0	 3.333434029855936e+00	 9.000003974991555e+00	 2.395845063926307e-02
0	 3.333434029855936e+00	 9.333335177775645e+00	 3.134298085972336e-01
0	 3.333434029855936e+00	 9.666667147223208e+00	 6.608142109356057e-01
0	 3.333434029855936e+00	 1.000000000000000e+01	 1.066110862901366e+00
0	 4.000138002697835e+00	 6.666697222155556e+00	-1.634832709860298e-01
0	 4.000138002697835e+00	 7.000026324936850e+00	-2.496929142601879e-01
0	 4.000138002697835e+00	 7.333355377721245e+00	-2.879938254427452e-01
0	 4.000138002697835e+00	 7.666684497174506e+00	-2.783859679118352e-01
0	 4.000138002697835e+00	 8.000013799962401e+00	-2.208694056545457e-01
0	 4.000138002697835e+00	 8.333343402750700e+00	-1.154443032663605e-01
0	 4.000138002697835e+00	 8.666673422205159e+00	 3.788907404981002e-02
0	 4.000138002697834e+00	 9.000003974991554e+00	 2.391303604849300e-01
0	 4.000138002697835e+00	 9.333335177775648e+00	 4.882790896260243e-01
0	 4.000138002697835e+00	 9.666667147223210e+00	 7.853346944585896e-01
0	 4.000138002697835e+00	 1.000000000000000e+01	 1.130296507369725e+00
0	 4.666844975490027e+00	 6.666697222155555e+00	 8.961899445093480e-02
0	 4.666844975490025e+00	 7.000026324936849e+00	 4.019813115618712e-02
0	 4.666844975490027e+00	 7.333355377721244e+00	 2.559825868654763e-02
0	 4.666844975490028e+00	 7.666684497174508e+00	 4.581938975958470e-02
0	 4.666844975490027e+00	 8.000013799962401e+00	 1.008614639682898e-01
0	 4.666844975490026e+00	 8.333343402750698e+00	 1.907243477818041e-01
0	 4.666844975490027e+00	 8.666673422205161e+00	 3.154078345457790e-01
0	 4.666844975490025e+00	 9.000003974991552e+00	 4.749116444836105e-01
0	 4.666844975490026e+00	 9.333335177775647e+00	 6.692354246982367e-01
0	 4.666844975490027e+00	 9.666667147223210e+00	 8.983787491735723e-01
0	 4.666844975490027e+00	 1.000000000000000e+01	 1.162341118776929e+00
0	 5.333553781515392e+00	 6.666697222155554e+00	 3.520228604522200e-01
0	 5.333553781515394e+00	 7.000026324936850e+00	 3.419272894316737e-01
0	 5.333553781515393e+00	 7.333355377721244e+00	 3.522473681524891e-01
0	 5.333553781515392e+00	 7.666684497174507e+00	 3.829830842468415e-01
0	 5.333553781515392e+00	 8.000013799962403e+00	 4.341343824738812e-01
0	 5.333553781515392e+00	 8.333343402750696e+00	 5.057011647200735e-01
0	 5.333553781515392e+00	 8.666673422205156e+00	 5.976832899997191e-01
0	 5.333553781515391e+00	 9.000003974991552e+00	 7.100805744554787e-01
0	 5.333553781515393e+00	 9.333335177775650e+00	 8.428927913596069e-01
0	 5.333553781515391e+00	 9.666667147223210e+00	 9.961196711147104e-01
0	 5.333553781515392e+00	 1.000000000000000e+01	 1.169760901255773e+00
0	 6.000263254056813e+00	 6.666697222155556e+00	 5.971789832364581e-01
0	 6.000263254056813e+00	 7.000026324936848e+00	 6.244152959821035e-01
0	 6.000263254056814e+00	 7.333355377721244e+00	 6.581079887022644e-01
0	 6.000263254056815e+00	 7.666684497174507e+00	 6.982570255354450e-01
0	 6.000263254056814e+00	 8.000013799962403e+00	 7.448623570611101e-01
0	 6.000263254056813e+00	 8.333343402750698e+00	 7.979239203009586e-01
0	 6.000263254056814e+00	 8.666673422205157e+00	 8.574416387186429e-01
0	 6.000263254056813e+00	 9.000003974991554e+00	 9.234154222206451e-01
0	 6.000263254056812e+00	 9.333335177775647e+00	 9.958451671558654e-01
0	 6.000263254056814e+00	 9.666667147223210e+00	 1.074730756316541e+00
0	 6.000263254056813e+00	 1.000000000000000e+01	 1.160072058939236e+00
0	 6.666972226397171e+00	 6.666697222155556e+00	 7.985380190221674e-01
0	 6.666972226397172e+00	 7.000026324936852e+00	 8.565828862230671e-01
0	 6.666972226397172e+00	 7.333355377721246e+00	 9.093346060835269e-01
0	 6.666972226397171e+00	 7.666684497174506e+00	 9.567931236110025e-01
0	 6.666972226397171e+00	 8.000013799962401e+00	 9.989583949290490e-01
0	 6.666972226397172e+00	 8.333343402750698e+00	 1.035830387276923e+00
0	 6.666972226397171e+00	 8.666673422205159e+00	 1.067409079009865e+00
0	 6.666972226397171e+00	 9.000003974991554e+00	 1.093694459599297e+00
0	 6.666972226397169e+00	 9.333335177775648e+00	 1.114686529632506e+00
0	 6.666972226397172e+00	 9.666667147223214e+00	 1.130385300813010e+00
0	 6.666972226397171e+00	 1.000000000000000e+01	 1.140790795959473e+00
0	 6.666972226397171e+00	 0.000000000000000e+00	-1.520113307638703e-01
0	 6.666972226397171e+00	 3.333328527767944e-01	-1.318952176691960e-01
0	 6.666972226397170e+00	 6.666648222243556e-01	-1.080457067961341e-01
0	 6.666972226397169e+00	 9.999960250084499e-01	-8.046279546548693e-02
0	 6.666972226397169e+00	 1.333326577794844e+00	-4.914648883922090e-02
0	 6.666972226397172e+00	 1.666656597249306e+00	-1.409679991887510e-02
0	 6.666972226397172e+00	 1.999986200037600e+00	 2.468625045350588e-02
0	 6.666972226397171e+00	 2.333315502825495e+00	 6.720263359586467e-02
0	 6.666972226397171e+00	 2.666644622278756e+00	 1.134523129858013e-01
0	 6.666972226397170e+00	 2.999973675063150e+00	 1.634352442610863e-01
0	 6.666972226397172e+00	 3.333302777844445e+00	 2.171513752194151e-01
0	 7.333579753045921e+00	 0.000000000000000e+00	-1.670073666709245e-01
0	 7.333579753045922e+00	 3.333328527767945e-01	-1.916891791450254e-01
0	 7.333579753045920e+00	 6.666648222243556e-01	-2.050726572265696e-01
0	 7.333579753045920e+00	 9.999960250084501e-01	-2.071577029719617e-01
0	 7.333579753045923e+00	 1.333326577794845e+00	-1.979442421644416e-01
0	 7.333579753045920e+00	 1.666656597249305e+00	-1.774322243130522e-01
0	 7.333579753045920e+00	 1.999986200037600e+00	-1.456216226538426e-01
0	 7.333579753045919e+00	 2.333315502825494e+00	-1.025124341496048e-01
0	 7.333579753045921e+00	 2.666644622278756e+00	-4.810467949037076e-02
0	 7.333579753045920e+00	 2.999973675063150e+00	 1.760159690649851e-02
0	 7.333579753045922e+00	 3.333302777844445e+00	 9.460632689691828e-02
0	 8.000185779918420e+00	 0.000000000000000e+00	-1.648212945013718e-01
0	 8.000185779918418e+00	 3.333328527767944e-01	-2.168449278776073e-01
0	 8.000185779918416e+00	 6.666648222243554e-01	-2.530702146316331e-01
0	 8.000185779918416e+00	 9.999960250084499e-01	-2.734969994229009e-01
0	 8.000185779918418e+00	 1.333326577794844e+00	-2.781251600874937e-01
0	 8.000185779918416e+00	 1.666656597249305e+00	-2.669546076378168e-01
0	 8.000185779918420e+00	 1.999986200037600e+00	-2.399852862627085e-01
0	 8.000185779918418e+00	 2.333315502825494e+00	-1.972171733283918e-01
0	 8.000185779918420e+00	 2.666644622278756e+00	-1.386502793787283e-01
0	 8.000185779918418e+00	 2.999973675063150e+00	-6.428464813504833e-02
0	 8.000185779918418e+00	 3.333302777844445e+00	 2.587964350352459e-02
0	 8.666790473656581e+00	 0.000000000000000e+00	-1.487399962320991e-01
0	 8.666790473656585e+00	 3.333328527767945e-01	-2.133321251132448e-01
0	 8.666790473656581e+00	 6.666648222243555e-01	-2.602132038005217e-01
0	 8.666790473656581e+00	 9.999960250084502e-01	-2.893830515639390e-01
0	 8.666790473656581e+00	 1.333326577794845e+00	-3.008415248648527e-01
0	 8.666790473656583e+00	 1.666656597249306e+00	-2.945885173583777e-01
0	 8.666790473656583e+00	 1.999986200037601e+00	-2.706239598929442e-01
0	 8.666790473656580e+00	 2.333315502825495e+00	-2.289478205109289e-01
0	 8.666790473656578e+00	 2.666644622278756e+00	-1.695601044490430e-01
0	 8.666790473656578e+00	 2.999973675063150e+00	-9.246085413889403e-02
0	 8.666790473656583e+00	 3.333302777844446e+00	 2.349850793862557e-03
0	 9.333394000902322e+00	 0.000000000000000e+00	-1.220503538404192e-01
0	 9.333394000902322e+00	 3.333328527767943e-01	-1.871204320976061e-01
0	 9.333394000902324e+00	 6.666648222243555e-01	-2.346764495228436e-01
0	 9.333394000902327e+00	 9.999960250084503e-01	-2.647182261405149e-01
0	 9.333394000902324e+00	 1.333326577794844e+00	-2.772456187522274e-01
0	 9.333394000902326e+00	 1.666656597249306e+00	-2.722585209396278e-01
0	 9.333394000902327e+00	 1.999986200037600e+00	-2.497568630642873e-01
0	 9.333394000902324e+00	 2.333315502825495e+00	-2.097406122673089e-01
0	 9.333394000902324e+00	 2.666644622278756e+00	-1.522097724718052e-01
0	 9.333394000902326e+00	 2.999973675063150e+00	-7.716438438063120e-02
0	 9.333394000902324e+00	 3.333302777844446e+00	 1.539547452226636e-02
0	 9.999996528297565e+00	 0.000000000000000e+00	-8.803924930423068e-02
0	 9.999996528297567e+00	 3.333328527767945e-01	-1.441795100762976e-01
0	 9.999996528297565e+00	 6.666648222243555e-01	-1.846347765877826e-01
0	 9.999996528297565e+00	 9.999960250084501e-01	-2.094048898983037e-01
0	 9.999996528297567e+00	 1.333326577794844e+00	-2.184897240058294e-01
0	 9.999996528297565e+00	 1.666656597249305e+00	-2.118891858469621e-01
0	 9.999996528297569e+00	 1.999986200037600e+00	-1.896032152967418e-01
0	 9.999996528297567e+00	 2.333315502825495e+00	-1.516317851686322e-01
0	 9.999996528297565e+00	 2.666644622278755e+00	-9.797490121717865e-02
0	 9.999996528297569e+00	 2.999973675063150e+00	-2.863260213535752e-02
0	 9.999996528297565e+00	 3.333302777844444e+00	 5.639504044341511e-02
0	 1.066659822248422e+01	 0.000000000000000e+00	-4.999356460028073e-02
0	 1.066659822248422e+01	 3.333328527767946e-01	-9.047902029615275e-02
0	 1.066659822248422e+01	 6.666648222243554e-01	-1.182630097846562e-01
0	 1.066659822248422e+01	 9.999960250084502e-01	-1.333454095826101e-01
0	 1.066659822248422e+01	 1.333326577794844e+00	-1.357261228821007e-01
0	 1.066659822248422e+01	 1.666656597249305e+00	-1.254050795456502e-01
0	 1.066659822248422e+01	 1.999986200037600e+00	-1.023822361094816e-01
0	 1.066659822248422e+01	 2.333315502825494e+00	-6.665757578501658e-02
0	 1.066659822248422e+01	 2.666644622278756e+00	-1.823110845521152e-02
0	 1.066659822248422e+01	 2.999973675063150e+00	 4.289712932074313e-02
0	 1.066659822248422e+01	 3.333302777844445e+00	 1.167270743117437e-01
0	 1.133319925010421e+01	 0.000000000000000e+00	-1.120018170708695e-02
0	 1.133319925010421e+01	 3.333328527767945e-01	-3.198862400260971e-02
0	 1.133319925010421e+01	 6.666648222243555e-01	-4.373597390148332e-02
0	 1.133319925010421e+01	 9.999960250084500e-01	-4.644215193934878e-02
0	 1.133319925010421e+01	 1.333326577794845e+00	-4.010709763666146e-02
0	 1.133319925010421e+01	 1.666656597249306e+00	-2.473076950003072e-02
0	 1.133319925010421e+01	 1.999986200037600e+00	-3.131450234327822e-04
0	 1.133319925010421e+01	 2.333315502825494e+00	 3.314577931345068e-02
0	 1.133319925010421e+01	 2.666644622278756e+00	 7.564598804360215e-02
0	 1.133319925010421e+01	 2.999973675063150e+00	 1.271874467131702e-01
0	 1.133319925010421e+01	 3.333302777844445e+00	 1.877701018820536e-01
0	 1.199979977779945e+01	 0.000000000000000e+00	 2.505401739876472e-02
0	 1.199979977779945e+01	 3.333328527767945e-01	 2.532201755824004e-02
0	 1.199979977779945e+01	 6.666648222243556e-01	 3.077150627138941e-02
0	 1.199979977779945e+01	 9.999960250084501e-01	 4.140251628654960e-02
0	 1.199979977779945e+01	 1.333326577794844e+00	 5.721506947461929e-02
0	 1.199979977779945e+01	 1.666656597249306e+00	 7.820917682401890e-02
0	 1.199979977779945e+01	 1.999986200037600e+00	 1.043848384423490e-01
0	 1.199979977779945e+01	 2.333315502825495e+00	 1.357420435557903e-01
0	 1.199979977779945e+01	 2.666644622278756e+00	 1.722807705092317e-01
0	 1.199979977779945e+01	 2.999973675063150e+00	 2.140009867657913e-01
0	 1.199979977779945e+01	 3.333302777844444e+00	 2.609026489085859e-01
0	 1.266639997221185e+01	 0.000000000000000e+00	 5.548215073973352e-02
0	 1.266639997221185e+01	 3.333328527767944e-01	 7.548324314106718e-02
0	 1.266639997221185e+01	 6.666648222243555e-01	 9.708460594439124e-02
0	 1.266639997221185e+01	 9.999960250084498e-01	 1.202862283484889e-01
0	 1.266639997221185e+01	 1.333326577794845e+00	 1.450880961946108e-01
0	 1.266639997221185e+01	 1.666656597249305e+00	 1.714901919613563e-01
0	 1.266639997221185e+01	 1.999986200037600e+00	 1.994924947678475e-01
0	 1.266639997221185e+01	 2.333315502825494e+00	 2.290949803718816e-01
0	 1.266639997221185e+01	 2.666644622278756e+00	 2.602976211713233e-01
0	 1.266639997221185e+01	 2.999973675063150e+00	 2.931003862035623e-01
0	 1.266639997221185e+01	 3.333302777844445e+00	 3.275032411460405e-01
0	 1.333299999998333e+01	 0.000000000000000e+00	 7.679733633796786e-02
0	 1.333299999998334e+01	 3.333328527767945e-01	 1.125253915003281e-01
0	 1.333299999998333e+01	 6.666648222243554e-01	 1.470285003284616e-01
0	 1.333299999998333e+01	 9.999960250084501e-01	 1.803066175023304e-01
0	 1.333299999998333e+01	 1.333326577794845e+00	 2.123597002678732e-01
0	 1.333299999998333e+01	 1.666656597249306e+00	 2.431877084471180e-01
0	 1.333299999998333e+01	 1.999986200037600e+00	 2.727906044327262e-01
0	 1.333299999998333e+01	 2.333315502825495e+00	 3.011683531911476e-01
0	 1.333299999998334e+01	 2.666644622278756e+00	 3.283209222600921e-01
0	 1.333299999998333e+01	 2.999973675063151e+00	 3.542482817511225e-01
0	 1.333299999998333e+01	 3.333302777844445e+00	 3.789504043486183e-01
0	 6.666972226397172e+00	 3.333302777844445e+00	 2.171513752194151e-01
0	 6.666972226397171e+00	 3.666642022268356e+00	 2.729911575724210e-01
0	 6.666972226397171e+00	 3.999981400030400e+00	 3.293417575168283e-01
0	 6.666972226397171e+00	 4.333320877796043e+00	 3.862031914218993e-01
0	 6.666972226397170e+00	 4.666660422230755e+00	 4.435754759628509e-01
0	 6.666972226397171e+00	 4.999999999999999e+00	 5.014586281221479e-01
0	 6.666972226397168e+00	 5.333339577769243e+00	 5.598526651882875e-01
0	 6.666972226397170e+00	 5.666679122203955e+00	 6.187576047563446e-01
0	 6.666972226397171e+00	 6.000018599969599e+00	 6.781734647281000e-01
0	 6.666972226397172e+00	 6.333357977731642e+00	 7.381002633117749e-01
0	 6.666972226397171e+00	 6.666697222155556e+00	 7.985380190221675e-01
0	 7.333579753045922e+00	 3.333302777844445e+00	 9.460632689691829e-02
0	 7.333579753045920e+00	 3.666642022268356e+00	 1.774068027785468e-01
0	 7.333579753045920e+00	 3.999981400030400e+00	 2.604954311863484e-01
0	 7.333579753045922e+00	 4.333320877796045e+00	 3.438722367450474e-01
0	 7.333579753045919e+00	 4.666660422230755e+00	 4.275372442518879e-01
0	 7.333579753045918e+00	 4.999999999999998e+00	 5.114904786769580e-01
0	 7.333579753045917e+00	 5.333339577769242e+00	 5.957319651635825e-01
0	 7.333579753045920e+00	 5.666679122203954e+00	 6.802617290279468e-01
0	 7.333579753045921e+00	 6.000018599969600e+00	 7.650797957589324e-01
0	 7.333579753045918e+00	 6.333357977731641e+00	 8.501861910187950e-01
0	 7.333579753045921e+00	 6.666697222155555e+00	 9.355809406427809e-01
0	 8.000185779918418e+00	 3.333302777844445e+00	 2.587964350352459e-02
0	 8.000185779918420e+00	 3.666642022268356e+00	 1.240008930421025e-01
0	 8.000185779918418e+00	 3.999981400030399e+00	 2.222316015031161e-01
0	 8.000185779918420e+00	 4.333320877796044e+00	 3.205717982411495e-01
0	 8.000185779918420e+00	 4.666660422230756e+00	 4.190215126771176e-01
0	 8.000185779918420e+00	 5.000000000000001e+00	 5.175807742968306e-01
0	 8.000185779918420e+00	 5.333339577769244e+00	 6.162496126520925e-01
0	 8.000185779918420e+00	 5.666679122203956e+00	 7.150280573607689e-01
0	 8.000185779918416e+00	 6.000018599969598e+00	 8.139161381060648e-01
0	 8.000185779918418e+00	 6.333357977731644e+00	 9.129138846371952e-01
0	 8.000185779918420e+00	 6.666697222155557e+00	 1.012021326769431e+00
0	 8.666790473656583e+00	 3.333302777844446e+00	 2.349850793862557e-03
0	 8.666790473656580e+00	 3.666642022268356e+00	 1.060046811382938e-01
0	 8.666790473656583e+00	 3.999981400030400e+00	 2.096301800730712e-01
0	 8.666790473656580e+00	 4.333320877796043e+00	 3.132263787174249e-01
0	 8.666790473656581e+00	 4.666660422230756e+00	 4.167933081726012e-01
0	 8.666790473656580e+00	 4.999999999999999e+00	 5.203309995224044e-01
0	 8.666790473656580e+00	 5.333339577769244e+00	 6.238394838331616e-01
0	 8.666790473656581e+00	 5.666679122203953e+00	 7.273187921533406e-01
0	 8.666790473656585e+00	 6.000018599969599e+00	 8.307689555144221e-01
0	 8.666790473656580e+00	 6.333357977731642e+00	 9.341900049299134e-01
0	 8.666790473656583e+00	 6.666697222155556e+00	 1.037581971396443e+00
0	 9.333394000902324e+00	 3.333302777844446e+00	 1.539547452226637e-02
0	 9.333394000902324e+00	 3.666642022268356e+00	 1.166494198420184e-01
0	 9.333394000902326e+00	 3.999981400030400e+00	 2.177710785029079e-01
0	 9.333394000902324e+00	 4.333320877796043e+00	 3.187604809809150e-01
0	 9.333394000902327e+00	 4.666660422230756e+00	 4.196176576724835e-01
0	 9.333394000902324e+00	 5.000000000000000e+00	 5.203426388948109e-01
0	 9.333394000902326e+00	 5.333339577769244e+00	 6.209354548858692e-01
0	 9.333394000902322e+00	 5.666679122203955e+00	 7.213961358041733e-01
0	 9.333394000902324e+00	 6.000018599969599e+00	 8.217247117287764e-01
0	 9.333394000902322e+00	 6.333357977731642e+00	 9.219212126599969e-01
0	 9.333394000902326e+00	 6.666697222155557e+00	 1.021985668518558e+00
0	 9.999996528297565e+00	 3.333302777844444e+00	 5.639504044341510e-02
0	 9.999996528297565e+00	 3.666642022268356e+00	 1.491663619285316e-01
0	 9.999996528297565e+00	 3.999981400030399e+00	 2.417342083988640e-01
0	 9.999996528297567e+00	 4.333320877796044e+00	 3.340986078387200e-01
0	 9.999996528297565e+00	 4.666660422230755e+00	 4.262595881107278e-01
0	 9.999996528297565e+00	 5.000000000000000e+00	 5.182171769550586e-01
0	 9.999996528297563e+00	 5.333339577769244e+00	 6.099714019898909e-01
0	 9.999996528297563e+00	 5.666679122203953e+00	 7.015222907115202e-01
0	 9.999996528297567e+00	 6.000018599969600e+00	 7.928698704942732e-01
0	 9.999996528297569e+00	 6.333357977731642e+00	 8.840141685903889e-01
0	 9.999996528297569e+00	 6.666697222155556e+00	 9.749552121301565e-01
0	 1.066659822248422e+01	 3.333302777844445e+00	 1.167270743117437e-01
0	 1.066659822248423e+01	 3.666642022268355e+00	 1.967867601730522e-01
0	 1.066659822248422e+01	 3.999981400030399e+00	 2.765994813672771e-01
0	 1.066659822248422e+01	 4.333320877796045e+00	 3.561652620981615e-01
0	 1.066659822248422e+01	 4.666660422230754e+00	 4.354841264214726e-01
0	 1.066659822248422e+01	 4.999999999999999e+00	 5.145560982435348e-01
0	 1.066659822248422e+01	 5.333339577769241e+00	 5.933812013242521e-01
0	 1.066659822248422e+01	 5.666679122203956e+00	 6.719594592738539e-01
0	 1.066659822248422e+01	 6.000018599969598e+00	 7.502908955554907e-01
0	 1.066659822248422e+01	 6.333357977731644e+00	 8.283755334837473e-01
0	 1.066659822248422e+01	 6.666697222155556e+00	 9.062133962256861e-01
0	 1.133319925010421e+01	 3.333302777844445e+00	 1.877701018820536e-01
0	 1.133319925010421e+01	 3.666642022268355e+00	 2.527418673501566e-01
0	 1.133319925010421e+01	 3.999981400030400e+00	 3.174468090145267e-01
0	 1.133319925010421e+01	 4.333320877796043e+00	 3.818849465666794e-01
0	 1.133319925010421e+01	 4.666660422230754e+00	 4.460562995384549e-01
0	 1.133319925010420e+01	 4.999999999999998e+00	 5.099608873017273e-01
0	 1.133319925010421e+01	 5.333339577769244e+00	 5.735987290680874e-01
0	 1.133319925010422e+01	 5.666679122203955e+00	 6.369698438895370e-01
0	 1.133319925010421e+01	 6.000018599969598e+00	 7.000742506574249e-01
0	 1.133319925010421e+01	 6.333357977731642e+00	 7.629119681035117e-01
0	 1.133319925010421e+01	 6.666697222155556e+00	 8.254830147992660e-01
0	 1.199979977779945e+01	 3.333302777844444e+00	 2.609026489085859e-01
0	 1.199979977779945e+01	 3.666642022268356e+00	 3.102629362358015e-01
0	 1.199979977779945e+01	 3.999981400030400e+00	 3.593561029466923e-01
0	 1.199979977779945e+01	 4.333320877796044e+00	 4.081821640505894e-01
0	 1.199979977779945e+01	 4.666660422230755e+00	 4.567411343957953e-01
0	 1.199979977779945e+01	 4.999999999999999e+00	 5.050330286699315e-01
0	 1.199979977779945e+01	 5.333339577769243e+00	 5.530578614008664e-01
0	 1.199979977779945e+01	 5.666679122203953e+00	 6.008156469569274e-01
0	 1.199979977779945e+01	 6.000018599969600e+00	 6.483063995450086e-01
0	 1.199979977779945e+01	 6.333357977731643e+00	 6.955301332123153e-01
0	 1.199979977779945e+01	 6.666697222155554e+00	 7.424868618456988e-01
0	 1.266639997221185e+01	 3.333302777844445e+00	 3.275032411460404e-01
0	 1.266639997221185e+01	 3.666642022268356e+00	 3.625812196043188e-01
0	 1.266639997221185e+01	 3.999981400030400e+00	 3.974072747708600e-01
0	 1.266639997221185e+01	 4.333320877796043e+00	 4.319814173581191e-01
0	 1.266639997221185e+01	 4.666660422230756e+00	 4.663036579276597e-01
0	 1.266639997221185e+01	 4.999999999999999e+00	 5.003740068894453e-01
0	 1.266639997221185e+01	 5.333339577769244e+00	 5.341924745022093e-01
0	 1.266639997221185e+01	 5.666679122203956e+00	 5.677590708744797e-01
0	 1.266639997221185e+01	 6.000018599969598e+00	 6.010738059627556e-01
0	 1.266639997221185e+01	 6.333357977731643e+00	 6.341366895732079e-01
0	 1.266639997221185e+01	 6.666697222155554e+00	 6.669477313597036e-01
0	 1.333299999998333e+01	 3.333302777844445e+00	 3.789504043486182e-01
0	 1.333299999998333e+01	 3.666642022268356e+00	 4.029279702309703e-01
0	 1.333299999998333e+01	 3.999981400030399e+00	 4.266802360924788e-01
0	 1.333299999998333e+01	 4.333320877796043e+00	 4.502072092959011e-01
0	 1.333299999998333e+01	 4.666660422230756e+00	 4.735088970677711e-01
0	 1.333299999998333e+01	 5.000000000000001e+00	 4.965853065007118e-01
0	 1.333299999998333e+01	 5.333339577769243e+00	 5.194364445508918e-01
0	 1.333299999998333e+01	 5.666679122203955e+00	 5.420623180406888e-01
0	 1.333299999998333e+01	 6.000018599969598e+00	 5.644629336563973e-01
0	 1.333299999998333e+01	 6.333357977731642e+00	 5.866382979490570e-01
0	 1.333299999998333e+01	 6.666697222155555e+00	 6.085884173353497e-01
0	 6.666972226397171e+00	 6.666697222155556e+00	 7.985380190221674e-01
0	 6.666972226397172e+00	 7.000026324936852e+00	 8.565828862230671e-01
0	 6.666972226397172e+00	 7.333355377721246e+00	 9.093346060835270e-01
0	 6.666972226397171e+00	 7.666684497174506e+00	 9.567931236110025e-01
0	 6.666972226397171e+00	 8.000013799962401e+00	 9.989583949290490e-01
0	 6.666972226397172e+00	 8.333343402750698e+00	 1.035830387276923e+00
0	 6.666972226397171e+00	 8.666673422205159e+00	 1.067409079009865e+00
0	 6.666972226397171e+00	 9.000003974991554e+00	 1.093694459599297e+00
0	 6.666972226397169e+00	 9.333335177775648e+00	 1.114686529632506e+00
0	 6.666972226397172e+00	 9.666667147223214e+00	 1.130385300813010e+00
0	 6.666972226397171e+00	 1.000000000000000e+01	 1.140790795959473e+00
0	 7.333579753045921e+00	 6.666697222155555e+00	 9.355809406427807e-01
0	 7.333579753045921e+00	 7.000026324936851e+00	 1.014391065492127e+00
0	 7.333579753045922e+00	 7.333355377721246e+00	 1.079748642149067e+00
0	 7.333579753045921e+00	 7.666684497174507e+00	 1.131653602997241e+00
0	 7.333579753045922e+00	 8.000013799962405e+00	 1.170105908670569e+00
0	 7.333579753045919e+00	 8.333343402750696e+00	 1.195105548054238e+00
0	 7.333579753045922e+00	 8.666673422205161e+00	 1.206652538283650e+00
0	 7.333579753045921e+00	 9.000003974991552e+00	 1.204746924744696e+00
0	 7.333579753045920e+00	 9.333335177775650e+00	 1.189388781073797e+00
0	 7.333579753045920e+00	 9.666667147223210e+00	 1.160578209156532e+00
0	 7.333579753045921e+00	 1.000000000000000e+01	 1.118315339127878e+00
0	 8.000185779918420e+00	 6.666697222155557e+00	 1.012021326769431e+00
0	 8.000185779918418e+00	 7.000026324936851e+00	 1.102090059124804e+00
0	 8.000185779918418e+00	 7.333355377721245e+00	 1.173977537533037e+00
0	 8.000185779918420e+00	 7.666684497174506e+00	 1.227683687875916e+00
0	 8.000185779918422e+00	 8.000013799962407e+00	 1.263208474216177e+00
0	 8.000185779918418e+00	 8.333343402750696e+00	 1.280551898797798e+00
0	 8.000185779918418e+00	 8.666673422205159e+00	 1.279714002045358e+00
0	 8.000185779918418e+00	 9.000003974991555e+00	 1.260694862564701e+00
0	 8.000185779918422e+00	 9.333335177775650e+00	 1.223494597141226e+00
0	 8.000185779918420e+00	 9.666667147223210e+00	 1.168113360738625e+00
0	 8.000185779918420e+00	 1.000000000000000e+01	 1.094551346500867e+00
0	 8.666790473656583e+00	 6.666697222155556e+00	 1.037581971396443e+00
0	 8.666790473656578e+00	 7.000026324936849e+00	 1.130945945526248e+00
0	 8.666790473656578e+00	 7.333355377721244e+00	 1.204289128437162e+00
0	 8.666790473656581e+00	 7.666684497174508e+00	 1.257611444620597e+00
0	 8.666790473656583e+00	 8.000013799962403e+00	 1.290912860612332e+00
0	 8.666790473656581e+00	 8.333343402750698e+00	 1.304193384991287e+00
0	 8.666790473656583e+00	 8.666673422205159e+00	 1.297453068381280e+00
0	 8.666790473656580e+00	 9.000003974991554e+00	 1.270692003449287e+00
0	 8.666790473656578e+00	 9.333335177775647e+00	 1.223910324904375e+00
0	 8.666790473656581e+00	 9.666667147223212e+00	 1.157108209498555e+00
0	 8.666790473656581e+00	 1.000000000000000e+01	 1.070285876025658e+00
0	 9.333394000902326e+00	 6.666697222155557e+00	 1.021985668518558e+00
0	 9.333394000902326e+00	 7.000026324936851e+00	 1.112224803101547e+00
0	 9.333394000902322e+00	 7.333355377721242e+00	 1.182951251063714e+00
0	 9.333394000902322e+00	 7.666684497174506e+00	 1.234164939606104e+00
0	 9.333394000902324e+00	 8.000013799962399e+00	 1.265865836906207e+00
0	 9.333394000902324e+00	 8.333343402750698e+00	 1.278053952119357e+00
0	 9.333394000902324e+00	 8.666673422205159e+00	 1.270729335376837e+00
0	 9.333394000902326e+00	 9.000003974991554e+00	 1.243892077787246e+00
0	 9.333394000902324e+00	 9.333335177775648e+00	 1.197542311434334e+00
0	 9.333394000902326e+00	 9.666667147223210e+00	 1.131680209377400e+00
0	 9.333394000902322e+00	 1.000000000000000e+01	 1.046305985650017e+00
0	 9.999996528297569e+00	 6.666697222155556e+00	 9.749552121301563e-01
0	 9.999996528297567e+00	 7.000026324936851e+00	 1.057192710255890e+00
0	 9.999996528297565e+00	 7.333355377721245e+00	 1.122231741614888e+00
0	 9.999996528297569e+00	 7.666684497174508e+00	 1.170072239205681e+00
0	 9.999996528297569e+00	 8.000013799962401e+00	 1.200714172144899e+00
0	 9.999996528297567e+00	 8.333343402750696e+00	 1.214157545665408e+00
0	 9.999996528297567e+00	 8.666673422205157e+00	 1.210402401117669e+00
0	 9.999996528297565e+00	 9.000003974991552e+00	 1.189448815969075e+00
0	 9.999996528297569e+00	 9.333335177775648e+00	 1.151296903801382e+00
0	 9.999996528297565e+00	 9.666667147223210e+00	 1.095946814315423e+00
0	 9.999996528297565e+00	 1.000000000000000e+01	 1.023398733322212e+00
0	 1.066659822248422e+01	 6.666697222155556e+00	 9.062133962256860e-01
0	 1.066659822248422e+01	 7.000026324936849e+00	 9.771157453946191e-01
0	 1.066659822248422e+01	 7.333355377721245e+00	 1.034398436292418e+00
0	 1.066659822248422e+01	 7.666684497174507e+00	 1.078061409793638e+00
0	 1.066659822248422e+01	 8.000013799962403e+00	 1.108104635375076e+00
0	 1.066659822248422e+01	 8.333343402750694e+00	 1.124528111113780e+00
0	 1.066659822248422e+01	 8.666673422205159e+00	 1.127331863689555e+00
0	 1.066659822248422e+01	 9.000003974991552e+00	 1.116515948383705e+00
0	 1.066659822248422e+01	 9.333335177775647e+00	 1.092080449076369e+00
0	 1.066659822248422e+01	 9.666667147223210e+00	 1.054025478251614e+00
0	 1.066659822248422e+01	 1.000000000000000e+01	 1.002351176988247e+00
0	 1.133319925010421e+01	 6.666697222155556e+00	 8.254830147992660e-01
0	 1.133319925010421e+01	 7.000026324936848e+00	 8.832599869228720e-01
0	 1.133319925010421e+01	 7.333355377721246e+00	 9.317191712987012e-01
0	 1.133319925010421e+01	 7.666684497174507e+00	 9.708605177440925e-01
0	 1.133319925010421e+01	 8.000013799962403e+00	 1.000683995643587e+00
0	 1.133319925010421e+01	 8.333343402750696e+00	 1.021189593948557e+00
0	 1.133319925010421e+01	 8.666673422205159e+00	 1.032377321178341e+00
0	 1.133319925010421e+01	 9.000003974991555e+00	 1.034247205421014e+00
0	 1.133319925010421e+01	 9.333335177775648e+00	 1.026799294329358e+00
0	 1.133319925010421e+01	 9.666667147223212e+00	 1.010033655125220e+00
0	 1.133319925010421e+01	 9.999999999999998e+00	 9.839503745970158e-01
0	 1.199979977779945e+01	 6.666697222155554e+00	 7.424868618456987e-01
0	 1.199979977779945e+01	 7.000026324936848e+00	 7.868915132453532e-01
0	 1.199979977779945e+01	 7.333355377721245e+00	 8.264617828355838e-01
0	 1.199979977779945e+01	 7.666684497174507e+00	 8.611976294311542e-01
0	 1.199979977779945e+01	 8.000013799962401e+00	 8.910990219974901e-01
0	 1.199979977779945e+01	 8.333343402750698e+00	 9.161659396535409e-01
0	 1.199979977779945e+01	 8.666673422205159e+00	 9.363983716700240e-01
0	 1.199979977779945e+01	 9.000003974991554e+00	 9.517963174704374e-01
0	 1.199979977779945e+01	 9.333335177775650e+00	 9.623597866308881e-01
0	 1.199979977779945e+01	 9.666667147223210e+00	 9.680887988790627e-01
0	 1.199979977779945e+01	 1.000000000000000e+01	 9.689833840960493e-01
0	 1.266639997221185e+01	 6.666697222155554e+00	 6.669477313597035e-01
0	 1.266639997221185e+01	 7.000026324936851e+00	 6.992764027676025e-01
0	 1.266639997221185e+01	 7.333355377721245e+00	 7.308941071057340e-01
0	 1.266639997221185e+01	 7.666684497174505e+00	 7.618008112285415e-01
0	 1.266639997221185e+01	 8.000013799962403e+00	 7.919964834838232e-01
0	 1.266639997221185e+01	 8.333343402750696e+00	 8.214810937127393e-01
0	 1.266639997221185e+01	 8.666673422205159e+00	 8.502546132495519e-01
0	 1.266639997221185e+01	 9.000003974991554e+00	 8.783170149221022e-01
0	 1.266639997221185e+01	 9.333335177775648e+00	 9.056682730505418e-01
0	 1.266639997221185e+01	 9.666667147223208e+00	 9.323083634505271e-01
0	 1.266639997221185e+01	 1.000000000000000e+01	 9.582372634320214e-01
0	 1.333299999998333e+01	 6.666697222155555e+00	 6.085884173353497e-01
0	 1.333299999998333e+01	 7.000026324936850e+00	 6.316807338946711e-01
0	 1.333299999998333e+01	 7.333355377721245e+00	 6.572839803104937e-01
0	 1.333299999998333e+01	 7.666684497174505e+00	 6.853981295106849e-01
0	 1.333299999998333e+01	 8.000013799962403e+00	 7.160231491493507e-01
0	 1.333299999998333e+01	 8.333343402750696e+00	 7.491590016106059e-01
0	 1.333299999998333e+01	 8.666673422205159e+00	 7.848056440028439e-01
0	 1.333299999998333e+01	 9.000003974991554e+00	 8.229630281642265e-01
0	 1.333299999998334e+01	 9.333335177775648e+00	 8.636311006592918e-01
0	 1.333299999998334e+01	 9.666667147223212e+00	 9.068098027831825e-01
0	 1.333299999998333e+01	 1.000000000000000e+01	 9.524990705531997e-01
0	 1.333299999998333e+01	 0.000000000000000e+00	 7.679733633796787e-02
0	 1.333299999998334e+01	 3.333328527767945e-01	 1.125253915003281e-01
0	 1.333299999998333e+01	 6.666648222243554e-01	 1.470285003284616e-01
0	 1.333299999998333e+01	 9.999960250084501e-01	 1.803066175023304e-01
0	 1.333299999998333e+01	 1.333326577794845e+00	 2.123597002678732e-01
0	 1.333299999998333e+01	 1.666656597249306e+00	 2.431877084471181e-01
0	 1.333299999998333e+01	 1.999986200037600e+00	 2.727906044327262e-01
0	 1.333299999998333e+01	 2.333315502825495e+00	 3.011683531911476e-01
0	 1.333299999998334e+01	 2.666644622278756e+00	 3.283209222600921e-01
0	 1.333299999998333e+01	 2.999973675063151e+00	 3.542482817511225e-01
0	 1.333299999998333e+01	 3.333302777844445e+00	 3.789504043486183e-01
0	 1.399969999998216e+01	 0.000000000000000e+00	 8.659297737814697e-02
0	 1.399969999998215e+01	 3.333328527767945e-01	 1.319687313624893e-01
0	 1.399969999998215e+01	 6.666648222243553e-01	 1.744180553548970e-01
0	 1.399969999998215e+01	 9.999960250084500e-01	 2.139408830552192e-01
0	 1.399969999998215e+01	 1.333326577794845e+00	 2.505371543057269e-01
0	 1.399969999998215e+01	 1.666656597249306e+00	 2.842068150978089e-01
0	 1.399969999998215e+01	 1.999986200037600e+00	 3.149498175666844e-01
0	 1.399969999998216e+01	 2.333315502825494e+00	 3.427661199930200e-01
0	 1.399969999998215e+01	 2.666644622278756e+00	 3.676556868047876e-01
0	 1.399969999998215e+01	 2.999973675063150e+00	 3.896184885739046e-01
0	 1.399969999998215e+01	 3.333302777844444e+00	 4.086545020204904e-01
0	 1.466639999998187e+01	 0.000000000000000e+00	 8.597696070575957e-02
0	 1.466639999998187e+01	 3.333328527767945e-01	 1.352790605935905e-01
0	 1.466639999998187e+01	 6.666648222243555e-01	 1.810064943973362e-01
0	 1.466639999998187e+01	 9.999960250084502e-01	 2.231591875596843e-01
0	 1.466639999998187e+01	 1.333326577794845e+00	 2.617370730318078e-01
0	 1.466639999998187e+01	 1.666656597249306e+00	 2.967400912697500e-01
0	 1.466639999998187e+01	 1.999986200037601e+00	 3.281681902380867e-01
0	 1.466639999998187e+01	 2.333315502825495e+00	 3.560213254085837e-01
0	 1.466639999998186e+01	 2.666644622278755e+00	 3.802994597584075e-01
0	 1.466639999998186e+01	 2.999973675063150e+00	 4.010025637748893e-01
0	 1.466639999998187e+01	 3.333302777844445e+00	 4.181306154501904e-01
0	 1.533309999998239e+01	 0.000000000000000e+00	 7.694117892661859e-02
0	 1.533309999998238e+01	 3.333328527767944e-01	 1.254178346567235e-01
0	 1.533309999998238e+01	 6.666648222243556e-01	 1.705440960480648e-01
0	 1.533309999998238e+01	 9.999960250084500e-01	 2.123198908426625e-01
0	 1.533309999998239e+01	 1.333326577794845e+00	 2.507451538163160e-01
0	 1.533309999998239e+01	 1.666656597249305e+00	 2.858198267803955e-01
0	 1.533309999998239e+01	 1.999986200037600e+00	 3.175438585822192e-01
0	 1.533309999998239e+01	 2.333315502825495e+00	 3.459172051070885e-01
0	 1.533309999998239e+01	 2.666644622278755e+00	 3.709398292732459e-01
0	 1.533309999998239e+01	 2.999973675063150e+00	 3.926117010375820e-01
0	 1.533309999998239e+01	 3.333302777844444e+00	 4.109327973931862e-01
0	 1.599979999998360e+01	 0.000000000000000e+00	 6.147752465009101e-02
0	 1.599979999998360e+01	 3.333328527767944e-01	 1.053465090120478e-01
0	 1.599979999998360e+01	 6.666648222243556e-01	 1.467811388976825e-01
0	 1.599979999998360e+01	 9.999960250084502e-01	 1.857813527269504e-01
0	 1.599979999998360e+01	 1.333326577794845e+00	 2.223470940294107e-01
0	 1.599979999998360e+01	 1.666656597249305e+00	 2.564783114467928e-01
0	 1.599979999998361e+01	 1.999986200037600e+00	 2.881749587338890e-01
0	 1.599979999998360e+01	 2.333315502825495e+00	 3.174369947585148e-01
0	 1.599979999998360e+01	 2.666644622278756e+00	 3.442643834980018e-01
0	 1.599979999998360e+01	 2.999973675063150e+00	 3.686570940458347e-01
0	 1.599979999998360e+01	 3.333302777844445e+00	 3.906151006060010e-01
0	 1.666649999998542e+01	 0.000000000000000e+00	 4.157789047987729e-02
0	 1.666649999998542e+01	 3.333328527767944e-01	 7.802653912123973e-02
0	 1.666649999998543e+01	 6.666648222243555e-01	 1.134679015388132e-01
0	 1.666649999998542e+01	 9.999960250084501e-01	 1.479019330371195e-01
0	 1.666649999998542e+01	 1.333326577794844e+00	 1.813285910407524e-01
0	 1.666649999998542e+01	 1.666656597249305e+00	 2.137478350866116e-01
0	 1.666649999998542e+01	 1.999986200037599e+00	 2.451596268277199e-01
0	 1.666649999998542e+01	 2.333315502825494e+00	 2.755639300320203e-01
0	 1.666649999998542e+01	 2.666644622278756e+00	 3.049607105846770e-01
0	 1.666649999998542e+01	 2.999973675063150e+00	 3.333499364844423e-01
0	 1.666649999998542e+01	 3.333302777844445e+00	 3.607315778464800e-01
0	 1.733319999998773e+01	 0.000000000000000e+00	 1.923416902563685e-02
0	 1.733319999998774e+01	 3.333328527767945e-01	 4.641938045107249e-02
0	 1.733319999998774e+01	 6.666648222243553e-01	 7.435466256131951e-02
0	 1.733319999998774e+01	 9.999960250084502e-01	 1.030399915983386e-01
0	 1.733319999998773e+01	 1.333326577794844e+00	 1.324753422213419e-01
0	 1.733319999998773e+01	 1.666656597249305e+00	 1.626606875166839e-01
0	 1.733319999998773e+01	 1.999986200037600e+00	 1.935959989968505e-01
0	 1.733319999998774e+01	 2.333315502825494e+00	 2.252812465986064e-01
0	 1.733319999998774e+01	 2.666644622278756e+00	 2.577163986826146e-01
0	 1.733319999998774e+01	 2.999973675063151e+00	 2.909014220362711e-01
0	 1.733319999998773e+01	 3.333302777844445e+00	 3.248362818697552e-01
0	 1.799989999999045e+01	 0.000000000000000e+00	-3.561747106434623e-03
0	 1.799989999999045e+01	 3.333328527767943e-01	 1.348648845984630e-02
0	 1.799989999999045e+01	 6.666648222243556e-01	 3.319170056016023e-02
0	 1.799989999999045e+01	 9.999960250084499e-01	 5.555388823504845e-02
0	 1.799989999999045e+01	 1.333326577794844e+00	 8.057304494040188e-02
0	 1.799989999999045e+01	 1.666656597249305e+00	 1.082491585552764e-01
0	 1.799989999999045e+01	 1.999986200037600e+00	 1.385822113778725e-01
0	 1.799989999999045e+01	 2.333315502825494e+00	 1.715721801283580e-01
0	 1.799989999999045e+01	 2.666644622278755e+00	 2.072190359432786e-01
0	 1.799989999999045e+01	 2.999973675063150e+00	 2.455227443857813e-01
0	 1.799989999999045e+01	 3.333302777844445e+00	 2.864832654339174e-01
0	 1.866659999999347e+01	 0.000000000000000e+00	-2.481796530936439e-02
0	 1.866659999999347e+01	 3.333328527767945e-01	-1.781068138943342e-02
0	 1.866659999999348e+01	 6.666648222243556e-01	-6.270705874669077e-03
0	 1.866659999999347e+01	 9.999960250084501e-01	 9.801982770409350e-03
0	 1.866659999999347e+01	 1.333326577794844e+00	 3.040739656715381e-02
0	 1.866659999999347e+01	 1.666656597249305e+00	 5.554553801821546e-02
0	 1.866659999999347e+01	 1.999986200037600e+00	 8.521640010456574e-02
0	 1.866659999999347e+01	 2.333315502825495e+00	 1.194199662890400e-01
0	 1.866659999999347e+01	 2.666644622278756e+00	 1.581562105174469e-01
0	 1.866659999999348e+01	 2.999973675063150e+00	 2.014250972167932e-01
0	 1.866659999999348e+01	 3.333302777844445e+00	 2.492265812933566e-01
0	 1.933329999999669e+01	 0.000000000000000e+00	-4.254259297649055e-02
0	 1.933329999999668e+01	 3.333328527767944e-01	-4.451067363220351e-02
0	 1.933329999999668e+01	 6.666648222243554e-01	-4.028227815298632e-02
0	 1.933329999999669e+01	 9.999960250084500e-01	-2.985736496934620e-02
0	 1.933329999999669e+01	 1.333326577794845e+00	-1.323590552539121e-02
0	 1.933329999999669e+01	 1.666656597249306e+00	 9.582115724156022e-03
0	 1.933329999999669e+01	 1.999986200037600e+00	 3.859670131060593e-02
0	 1.933329999999669e+01	 2.333315502825495e+00	 7.380784075231825e-02
0	 1.933329999999669e+01	 2.666644622278755e+00	 1.152155105558390e-01
0	 1.933329999999669e+01	 2.999973675063150e+00	 1.628196742142590e-01
0	 1.933329999999669e+01	 3.333302777844445e+00	 2.166202822065875e-01
0	 2.000000000000000e+01	 0.000000000000000e+00	-5.474373749973011e-02
0	 2.000000000000000e+01	 3.333328527767945e-01	-6.365203280645758e-02
0	 2.000000000000000e+01	 6.666648222243554e-01	-6.509273768014669e-02
0	 2.000000000000000e+01	 9.999960250084501e-01	-5.906579516060535e-02
0	 2.000000000000000e+01	 1.333326577794844e+00	-4.557116396984257e-02
0	 2.000000000000000e+01	 1.666656597249306e+00	-2.460881851039027e-02
0	 2.000000000000000e+01	 1.999986200037600e+00	 3.821251132756738e-03
0	 2.000000000000000e+01	 2.333315502825495e+00	 3.971903918851660e-02
0	 2.000000000000000e+01	 2.666644622278755e+00	 8.308452420903233e-02
0	 2.000000000000000e+01	 2.999973675063150e+00	 1.339176690601267e-01
0	 2.000000000000000e+01	 3.333302777844445e+00	 1.922184209287989e-01
0	 1.333299999998333e+01	 3.333302777844445e+00	 3.789504043486183e-01
0	 1.333299999998333e+01	 3.666642022268356e+00	 4.029279702309704e-01
0	 1.333299999998333e+01	 3.999981400030399e+00	 4.266802360924788e-01
0	 1.333299999998333e+01	 4.333320877796043e+00	 4.502072092959011e-01
0	 1.333299999998333e+01	 4.666660422230756e+00	 4.735088970677712e-01
0	 1.333299999998333e+01	 5.000000000000001e+00	 4.965853065007119e-01
0	 1.333299999998333e+01	 5.333339577769243e+00	 5.194364445508919e-01
0	 1.333299999998333e+01	 5.666679122203955e+00	 5.420623180406888e-01
0	 1.333299999998333e+01	 6.000018599969598e+00	 5.644629336563973e-01
0	 1.333299999998333e+01	 6.333357977731642e+00	 5.866382979490570e-01
0	 1.333299999998333e+01	 6.666697222155555e+00	 6.085884173353499e-01
0	 1.399969999998215e+01	 3.333302777844444e+00	 4.086545020204904e-01
0	 1.399969999998215e+01	 3.666642022268356e+00	 4.261321500218099e-01
0	 1.399969999998215e+01	 3.999981400030400e+00	 4.434188171828132e-01
0	 1.399969999998215e+01	 4.333320877796043e+00	 4.605145088900729e-01
0	 1.399969999998215e+01	 4.666660422230756e+00	 4.774192304153730e-01
0	 1.399969999998215e+01	 5.000000000000000e+00	 4.941329869165819e-01
0	 1.399969999998215e+01	 5.333339577769244e+00	 5.106557834372920e-01
0	 1.399969999998215e+01	 5.666679122203955e+00	 5.269876249042673e-01
0	 1.399969999998215e+01	 6.000018599969598e+00	 5.431285161325053e-01
0	 1.399969999998215e+01	 6.333357977731641e+00	 5.590784618201545e-01
0	 1.399969999998215e+01	 6.666697222155554e+00	 5.748374665525767e-01
0	 1.466639999998187e+01	 3.333302777844445e+00	 4.181306154501903e-01
0	 1.466639999998187e+01	 3.666642022268356e+00	 4.333959063894585e-01
0	 1.466639999998186e+01	 3.999981400030399e+00	 4.485098218484378e-01
0	 1.466639999998187e+01	 4.333320877796043e+00	 4.634723665214657e-01
0	 1.466639999998187e+01	 4.666660422230756e+00	 4.782835450098378e-01
0	 1.466639999998187e+01	 4.999999999999999e+00	 4.929433618252190e-01
0	 1.466639999998187e+01	 5.333339577769243e+00	 5.074518213889316e-01
0	 1.466639999998187e+01	 5.666679122203956e+00	 5.218089280305565e-01
0	 1.466639999998187e+01	 6.000018599969598e+00	 5.360146859886924e-01
0	 1.466639999998187e+01	 6.333357977731641e+00	 5.500690994125852e-01
0	 1.466639999998187e+01	 6.666697222155556e+00	 5.639721723586415e-01
0	 1.533309999998239e+01	 3.333302777844444e+00	 4.109327973931862e-01
0	 1.533309999998238e+01	 3.666642022268356e+00	 4.275247189451232e-01
0	 1.533309999998238e+01	 3.999981400030399e+00	 4.440080827720935e-01
0	 1.533309999998238e+01	 4.333320877796043e+00	 4.603828939331617e-01
0	 1.533309999998238e+01	 4.666660422230754e+00	 4.766491574211915e-01
0	 1.533309999998238e+01	 4.999999999999996e+00	 4.928068781664569e-01
0	 1.533309999998239e+01	 5.333339577769243e+00	 5.088560610319441e-01
0	 1.533309999998238e+01	 5.666679122203955e+00	 5.247967108162634e-01
0	 1.533309999998238e+01	 6.000018599969597e+00	 5.406288322527230e-01
0	 1.533309999998239e+01	 6.333357977731644e+00	 5.563524300096698e-01
0	 1.533309999998238e+01	 6.666697222155555e+00	 5.719675086905813e-01
0	 1.599979999998360e+01	 3.333302777844445e+00	 3.906151006060009e-01
0	 1.599979999998360e+01	 3.666642022268356e+00	 4.113240673011878e-01
0	 1.599979999998360e+01	 3.999981400030399e+00	 4.319684326340950e-01
0	 1.599979999998360e+01	 4.333320877796043e+00	 4.525482028662843e-01
0	 1.599979999998360e+01	 4.666660422230754e+00	 4.730633842207655e-01
0	 1.599979999998360e+01	 4.999999999999999e+00	 4.935139828806154e-01
0	 1.599979999998360e+01	 5.333339577769243e+00	 5.139000049920052e-01
0	 1.599979999998361e+01	 5.666679122203955e+00	 5.342214566594359e-01
0	 1.599979999998360e+01	 6.000018599969597e+00	 5.544783439515993e-01
0	 1.599979999998360e+01	 6.333357977731642e+00	 5.746706728965441e-01
0	 1.599979999998360e+01	 6.666697222155558e+00	 5.947984494852550e-01
0	 1.666649999998542e+01	 3.333302777844445e+00	 3.607315778464799e-01
0	 1.666649999998542e+01	 3.666642022268356e+00	 3.875994310679258e-01
0	 1.666649999998542e+01	 3.999981400030399e+00	 4.144457041151867e-01
0	 1.666649999998542e+01	 4.333320877796043e+00	 4.412704050640825e-01
0	 1.666649999998542e+01	 4.666660422230757e+00	 4.680735419780845e-01
0	 1.666649999998542e+01	 5.000000000000000e+00	 4.948551229088735e-01
0	 1.666649999998542e+01	 5.333339577769244e+00	 5.216151558935801e-01
0	 1.666649999998542e+01	 5.666679122203954e+00	 5.483536489575511e-01
0	 1.666649999998542e+01	 6.000018599969599e+00	 5.750706101121893e-01
0	 1.666649999998542e+01	 6.333357977731642e+00	 6.017660473576614e-01
0	 1.666649999998542e+01	 6.666697222155555e+00	 6.284399686794246e-01
0	 1.733319999998773e+01	 3.333302777844445e+00	 3.248362818697552e-01
0	 1.733319999998774e+01	 3.666642022268357e+00	 3.591562898582636e-01
0	 1.733319999998773e+01	 3.999981400030399e+00	 3.934947298968545e-01
0	 1.733319999998773e+01	 4.333320877796043e+00	 4.278516122674837e-01
0	 1.733319999998774e+01	 4.666660422230756e+00	 4.622269472641911e-01
0	 1.733319999998774e+01	 5.000000000000000e+00	 4.966207451905057e-01
0	 1.733319999998774e+01	 5.333339577769244e+00	 5.310330163626253e-01
0	 1.733319999998773e+01	 5.666679122203954e+00	 5.654637711078545e-01
0	 1.733319999998774e+01	 6.000018599969597e+00	 5.999130197629841e-01
0	 1.733319999998774e+01	 6.333357977731643e+00	 6.343807726766826e-01
0	 1.733319999998773e+01	 6.666697222155554e+00	 6.688670402094002e-01
0	 1.799989999999045e+01	 3.333302777844445e+00	 2.864832654339174e-01
0	 1.799989999999046e+01	 3.666642022268356e+00	 3.288001232828476e-01
0	 1.799989999999045e+01	 3.999981400030399e+00	 3.711703426594128e-01
0	 1.799989999999045e+01	 4.333320877796043e+00	 4.135939362192387e-01
0	 1.799989999999045e+01	 4.666660422230755e+00	 4.560709166480719e-01
0	 1.799989999999046e+01	 5.000000000000001e+00	 4.986012966664909e-01
0	 1.799989999999045e+01	 5.333339577769244e+00	 5.411850890254041e-01
0	 1.799989999999045e+01	 5.666679122203954e+00	 5.838223065073136e-01
0	 1.799989999999046e+01	 6.000018599969598e+00	 6.265129619294233e-01
0	 1.799989999999045e+01	 6.333357977731640e+00	 6.692570681385936e-01
0	 1.799989999999046e+01	 6.666697222155556e+00	 7.120546380126247e-01
0	 1.866659999999348e+01	 3.333302777844445e+00	 2.492265812933566e-01
0	 1.866659999999347e+01	 3.666642022268356e+00	 2.993364109530742e-01
0	 1.866659999999347e+01	 3.999981400030399e+00	 3.495273750847974e-01
0	 1.866659999999347e+01	 4.333320877796044e+00	 3.997994886605444e-01
0	 1.866659999999347e+01	 4.666660422230754e+00	 4.501527667020060e-01
0	 1.866659999999347e+01	 5.000000000000000e+00	 5.005872242767818e-01
0	 1.866659999999347e+01	 5.333339577769244e+00	 5.511028765055075e-01
0	 1.866659999999347e+01	 5.666679122203954e+00	 6.016997385549991e-01
0	 1.866659999999347e+01	 6.000018599969599e+00	 6.523778256407698e-01
0	 1.866659999999347e+01	 6.333357977731643e+00	 7.031371530264308e-01
0	 1.866659999999348e+01	 6.666697222155556e+00	 7.539777360271090e-01
0	 1.933329999999669e+01	 3.333302777844445e+00	 2.166202822065875e-01
0	 1.933329999999669e+01	 3.666642022268356e+00	 2.735706324811021e-01
0	 1.933329999999669e+01	 3.999981400030400e+00	 3.306206598538674e-01
0	 1.933329999999668e+01	 4.333320877796043e+00	 3.877703813345693e-01
0	 1.933329999999669e+01	 4.666660422230756e+00	 4.450198139946116e-01
0	 1.933329999999669e+01	 4.999999999999998e+00	 5.023689749627931e-01
0	 1.933329999999669e+01	 5.333339577769244e+00	 5.598178814302827e-01
0	 1.933329999999669e+01	 5.666679122203954e+00	 6.173665506467950e-01
0	 1.933329999999669e+01	 6.000018599969597e+00	 6.750149999229157e-01
0	 1.933329999999669e+01	 6.333357977731643e+00	 7.327632466264149e-01
0	 1.933329999999669e+01	 6.666697222155557e+00	 7.906113081883615e-01
0	 2.000000000000000e+01	 3.333302777844445e+00	 1.922184209287989e-01
0	 2.000000000000000e+01	 3.666642022268356e+00	 2.543082674782318e-01
0	 2.000000000000000e+01	 3.999981400030399e+00	 3.165050296469748e-01
0	 2.000000000000000e+01	 4.333320877796045e+00	 3.788087259827919e-01
0	 2.000000000000001e+01	 4.666660422230756e+00	 4.412193750967758e-01
0	 2.000000000000000e+01	 4.999999999999999e+00	 5.037369956640251e-01
0	 2.000000000000000e+01	 5.333339577769244e+00	 5.663616064244995e-01
0	 2.000000000000000e+01	 5.666679122203955e+00	 6.290932261808252e-01
0	 2.000000000000000e+01	 6.000018599969599e+00	 6.919318738031111e-01
0	 2.000000000000000e+01	 6.333357977731642e+00	 7.548775682217684e-01
0	 2.000000000000000e+01	 6.666697222155556e+00	 8.179303284340418e-01
0	 1.333299999998333e+01	 6.666697222155555e+00	 6.085884173353497e-01
0	 1.333299999998333e+01	 7.000026324936850e+00	 6.316807338946711e-01
0	 1.333299999998333e+01	 7.333355377721245e+00	 6.572839803104937e-01
0	 1.333299999998333e+01	 7.666684497174505e+00	 6.853981295106851e-01
0	 1.333299999998333e+01	 8.000013799962403e+00	 7.160231491493507e-01
0	 1.333299999998333e+01	 8.333343402750696e+00	 7.491590016106058e-01
0	 1.333299999998333e+01	 8.666673422205159e+00	 7.848056440028439e-01
0	 1.333299999998333e+01	 9.000003974991554e+00	 8.229630281642265e-01
0	 1.333299999998334e+01	 9.333335177775648e+00	 8.636311006592918e-01
0	 1.333299999998334e+01	 9.666667147223212e+00	 9.068098027831826e-01
0	 1.333299999998333e+01	 1.000000000000000e+01	 9.524990705531997e-01
0	 1.399969999998215e+01	 6.666697222155554e+00	 5.748374665525768e-01
0	 1.399969999998216e+01	 7.000026324936850e+00	 5.927084405926737e-01
0	 1.399969999998215e+01	 7.333355377721244e+00	 6.149952198127027e-01
0	 1.399969999998215e+01	 7.666684497174505e+00	 6.416977804806057e-01
0	 1.399969999998215e+01	 8.000013799962403e+00	 6.728160895904859e-01
0	 1.399969999998215e+01	 8.333343402750700e+00	 7.083501048637835e-01
0	 1.399969999998215e+01	 8.666673422205161e+00	 7.482997747483677e-01
0	 1.399969999998215e+01	 9.000003974991554e+00	 7.926650384207186e-01
0	 1.399969999998215e+01	 9.333335177775648e+00	 8.414458257839165e-01
0	 1.399969999998215e+01	 9.666667147223212e+00	 8.946420574693260e-01
0	 1.399969999998216e+01	 1.000000000000000e+01	 9.522536448381390e-01
0	 1.466639999998187e+01	 6.666697222155556e+00	 5.639721723586414e-01
0	 1.466639999998186e+01	 7.000026324936849e+00	 5.803445568461476e-01
0	 1.466639999998186e+01	 7.333355377721245e+00	 6.018077219268179e-01
0	 1.466639999998187e+01	 7.666684497174505e+00	 6.283616446821582e-01
0	 1.466639999998186e+01	 8.000013799962401e+00	 6.600062915038505e-01
0	 1.466639999998187e+01	 8.333343402750696e+00	 6.967416180923242e-01
0	 1.466639999998187e+01	 8.666673422205159e+00	 7.385675694576349e-01
0	 1.466639999998186e+01	 9.000003974991552e+00	 7.854840799195627e-01
0	 1.466639999998186e+01	 9.333335177775645e+00	 8.374910731089654e-01
0	 1.466639999998187e+01	 9.666667147223210e+00	 8.945884619680565e-01
0	 1.466639999998187e+01	 1.000000000000000e+01	 9.567761487482590e-01
0	 1.533309999998238e+01	 6.666697222155555e+00	 5.719675086905812e-01
0	 1.533309999998238e+01	 7.000026324936850e+00	 5.899025849015672e-01
0	 1.533309999998239e+01	 7.333355377721245e+00	 6.125870947130957e-01
0	 1.533309999998238e+01	 7.666684497174505e+00	 6.400210139513600e-01
0	 1.533309999998239e+01	 8.000013799962401e+00	 6.722043084652218e-01
0	 1.533309999998238e+01	 8.333343402750698e+00	 7.091369341340857e-01
0	 1.533309999998238e+01	 8.666673422205157e+00	 7.508188368610492e-01
0	 1.533309999998238e+01	 9.000003974991554e+00	 7.972499525768323e-01
0	 1.533309999998238e+01	 9.333335177775648e+00	 8.484302072400191e-01
0	 1.533309999998239e+01	 9.666667147223210e+00	 9.043595168335687e-01
0	 1.533309999998239e+01	 1.000000000000000e+01	 9.650377873736125e-01
0	 1.599979999998360e+01	 6.666697222155558e+00	 5.947984494852551e-01
0	 1.599979999998360e+01	 7.000026324936849e+00	 6.166960270056777e-01
0	 1.599979999998360e+01	 7.333355377721247e+00	 6.421989462355617e-01
0	 1.599979999998360e+01	 7.666684497174507e+00	 6.713071801240310e-01
0	 1.599979999998360e+01	 8.000013799962401e+00	 7.040206940512387e-01
0	 1.599979999998360e+01	 8.333343402750698e+00	 7.403394458274536e-01
0	 1.599979999998360e+01	 8.666673422205156e+00	 7.802633856907285e-01
0	 1.599979999998360e+01	 9.000003974991554e+00	 8.237924563077744e-01
0	 1.599979999998360e+01	 9.333335177775650e+00	 8.709265927769724e-01
0	 1.599979999998360e+01	 9.666667147223212e+00	 9.216657226231341e-01
0	 1.599979999998360e+01	 1.000000000000000e+01	 9.760097658068992e-01
0	 1.666649999998542e+01	 6.666697222155555e+00	 6.284399686794246e-01
0	 1.666649999998542e+01	 7.000026324936848e+00	 6.560383854071797e-01
0	 1.666649999998543e+01	 7.333355377721245e+00	 6.855088845545321e-01
0	 1.666649999998542e+01	 7.666684497174508e+00	 7.168514350364542e-01
0	 1.666649999998542e+01	 8.000013799962403e+00	 7.500660018371484e-01
0	 1.666649999998542e+01	 8.333343402750698e+00	 7.851525460101841e-01
0	 1.666649999998542e+01	 8.666673422205156e+00	 8.221110246755977e-01
0	 1.666649999998542e+01	 9.000003974991554e+00	 8.609413910265002e-01
0	 1.666649999998542e+01	 9.333335177775650e+00	 9.016435943230681e-01
0	 1.666649999998542e+01	 9.666667147223212e+00	 9.442175798938097e-01
0	 1.666649999998542e+01	 1.000000000000000e+01	 9.886632891405039e-01
0	 1.733319999998773e+01	 6.666697222155554e+00	 6.688670402094004e-01
0	 1.733319999998773e+01	 7.000026324936850e+00	 7.032431623499712e-01
0	 1.733319999998774e+01	 7.333355377721245e+00	 7.373825177311916e-01
0	 1.733319999998773e+01	 7.666684497174507e+00	 7.712850705246570e-01
0	 1.733319999998773e+01	 8.000013799962399e+00	 8.049507853985275e-01
0	 1.733319999998773e+01	 8.333343402750694e+00	 8.383796275189698e-01
0	 1.733319999998773e+01	 8.666673422205157e+00	 8.715715625491847e-01
0	 1.733319999998774e+01	 9.000003974991552e+00	 9.045265566507988e-01
0	 1.733319999998773e+01	 9.333335177775648e+00	 9.372445764832124e-01
0	 1.733319999998774e+01	 9.666667147223212e+00	 9.697255892015704e-01
0	 1.733319999998773e+01	 1.000000000000000e+01	 1.001969562465009e+00
0	 1.799989999999046e+01	 6.666697222155556e+00	 7.120546380126247e-01
0	 1.799989999999045e+01	 7.000026324936848e+00	 7.536238600828908e-01
0	 1.799989999999046e+01	 7.333355377721245e+00	 7.926854538294147e-01
0	 1.799989999999046e+01	 7.666684497174508e+00	 8.292393784258407e-01
0	 1.799989999999045e+01	 8.000013799962399e+00	 8.632855983113934e-01
0	 1.799989999999045e+01	 8.333343402750696e+00	 8.948240831926367e-01
0	 1.799989999999045e+01	 8.666673422205156e+00	 9.238548080403247e-01
0	 1.799989999999046e+01	 9.000003974991552e+00	 9.503777530948804e-01
0	 1.799989999999045e+01	 9.333335177775647e+00	 9.743929038579763e-01
0	 1.799989999999045e+01	 9.666667147223206e+00	 9.959002511069441e-01
0	 1.799989999999045e+01	 1.000000000000000e+01	 1.014899790871800e+00
0	 1.866659999999348e+01	 6.666697222155556e+00	 7.539777360271092e-01
0	 1.866659999999348e+01	 7.000026324936849e+00	 8.024939808511443e-01
0	 1.866659999999347e+01	 7.333355377721245e+00	 8.462833009093109e-01
0	 1.866659999999347e+01	 7.666684497174508e+00	 8.853456505745941e-01
0	 1.866659999999347e+01	 8.000013799962401e+00	 9.196809941518285e-01
0	 1.866659999999347e+01	 8.333343402750696e+00	 9.492893058686104e-01
0	 1.866659999999348e+01	 8.666673422205159e+00	 9.741705698816070e-01
0	 1.866659999999347e+01	 9.000003974991554e+00	 9.943247802732776e-01
0	 1.866659999999347e+01	 9.333335177775645e+00	 1.009751941054269e+00
0	 1.866659999999347e+01	 9.666667147223210e+00	 1.020452066160601e+00
0	 1.866659999999347e+01	 1.000000000000000e+01	 1.026425179454595e+00
0	 1.933329999999669e+01	 6.666697222155557e+00	 7.906113081883616e-01
0	 1.933329999999669e+01	 7.000026324936850e+00	 8.451670269035860e-01
0	 1.933329999999669e+01	 7.333355377721243e+00	 8.930416670331189e-01
0	 1.933329999999669e+01	 7.666684497174508e+00	 9.342351788091946e-01
0	 1.933329999999668e+01	 8.000013799962399e+00	 9.687475264953183e-01
0	 1.933329999999669e+01	 8.333343402750696e+00	 9.965786883854302e-01
0	 1.933329999999668e+01	 8.666673422205157e+00	 1.017728656803025e+00
0	 1.933329999999669e+01	 9.000003974991554e+00	 1.032197438102841e+00
0	 1.933329999999669e+01	 9.333335177775648e+00	 1.039985052671554e+00
0	 1.933329999999669e+01	 9.666667147223210e+00	 1.041091534923930e+00
0	 1.933329999999669e+01	 1.000000000000000e+01	 1.035516933302888e+00
0	 2.000000000000000e+01	 6.666697222155556e+00	 8.179303284340419e-01
0	 2.000000000000000e+01	 7.000026324936852e+00	 8.769565004843949e-01
0	 2.000000000000000e+01	 7.333355377721243e+00	 9.278261602624045e-01
0	 2.000000000000000e+01	 7.666684497174508e+00	 9.705392549639997e-01
0	 2.000000000000000e+01	 8.000013799962403e+00	 1.005095748918034e+00
0	 2.000000000000000e+01	 8.333343402750696e+00	 1.031495623579280e+00
0	 2.000000000000000e+01	 8.666673422205157e+00	 1.049738877535105e+00
0	 2.000000000000000e+01	 9.000003974991552e+00	 1.059825526498101e+00
0	 2.000000000000000e+01	 9.333335177775650e+00	 1.061755603312563e+00
0	 2.000000000000000e+01	 9.666667147223212e+00	 1.055529157950728e+00
0	 2.000000000000000e+01	 1.000000000000000e+01	 1.041146257510089e+00
0	 2.000000000000000e+01	 0.000000000000000e+00	-5.474373749973011e-02
0	 2.000000000000000e+01	 3.333328527767945e-01	-6.365203280645758e-02
0	 2.000000000000000e+01	 6.666648222243554e-01	-6.509273768014669e-02
0	 2.000000000000000e+01	 9.999960250084501e-01	-5.906579516060535e-02
0	 2.000000000000000e+01	 1.333326577794844e+00	-4.557116396984257e-02
0	 2.000000000000000e+01	 1.666656597249306e+00	-2.460881851039027e-02
0	 2.000000000000000e+01	 1.999986200037600e+00	 3.821251132756738e-03
0	 2.000000000000000e+01	 2.333315502825495e+00	 3.971903918851660e-02
0	 2.000000000000000e+01	 2.666644622278755e+00	 8.308452420903233e-02
0	 2.000000000000000e+01	 2.999973675063150e+00	 1.339176690601267e-01
0	 2.000000000000000e+01	 3.333302777844445e+00	 1.922184209287989e-01
0	 2.066670000000332e+01	 0.000000000000000e+00	-5.996325419982947e-02
0	 2.066670000000332e+01	 3.333328527767944e-01	-7.304136380162879e-02
0	 2.066670000000331e+01	 6.666648222243554e-01	-7.790997313838115e-02
0	 2.066670000000332e+01	 9.999960250084503e-01	-7.456901613616321e-02
0	 2.066670000000332e+01	 1.333326577794844e+00	-6.301844397321867e-02
0	 2.066670000000332e+01	 1.666656597249305e+00	-4.325822505819792e-02
0	 2.066670000000332e+01	 1.999986200037601e+00	-1.528834504281699e-02
0	 2.066670000000332e+01	 2.333315502825495e+00	 2.089119318000056e-02
0	 2.066670000000332e+01	 2.666644622278755e+00	 6.528036947780259e-02
0	 2.066670000000332e+01	 2.999973675063151e+00	 1.178791464790996e-01
0	 2.066670000000332e+01	 3.333302777844446e+00	 1.786874695698277e-01
0	 2.133340000000654e+01	 0.000000000000000e+00	-5.887799010379327e-02
0	 2.133340000000653e+01	 3.333328527767944e-01	-7.355751290194841e-02
0	 2.133340000000653e+01	 6.666648222243554e-01	-7.977454227517572e-02
0	 2.133340000000653e+01	 9.999960250084500e-01	-7.752900885644359e-02
0	 2.133340000000654e+01	 1.333326577794844e+00	-6.682086105848845e-02
0	 2.133340000000654e+01	 1.666656597249306e+00	-4.765006505986882e-02
0	 2.133340000000654e+01	 1.999986200037600e+00	-2.001660481146526e-02
0	 2.133340000000654e+01	 2.333315502825495e+00	 1.607951796461059e-02
0	 2.133340000000653e+01	 2.666644622278755e+00	 6.063828377236363e-02
0	 2.133340000000653e+01	 2.999973675063150e+00	 1.136596553459640e-01
0	 2.133340000000654e+01	 3.333302777844445e+00	 1.751435776471487e-01
0	 2.200010000000955e+01	 0.000000000000000e+00	-5.269854016087407e-02
0	 2.200010000000955e+01	 3.333328527767945e-01	-6.684738674351794e-02
0	 2.200010000000955e+01	 6.666648222243555e-01	-7.268517011602064e-02
0	 2.200010000000955e+01	 9.999960250084501e-01	-7.021182243971331e-02
0	 2.200010000000955e+01	 1.333326577794845e+00	-5.942729332718395e-02
0	 2.200010000000956e+01	 1.666656597249306e+00	-4.033154984439447e-02
0	 2.200010000000955e+01	 1.999986200037600e+00	-1.292457651401087e-02
0	 2.200010000000955e+01	 2.333315502825495e+00	 2.279362469261707e-02
0	 2.200010000000955e+01	 2.666644622278755e+00	 6.682303434890063e-02
0	 2.200010000000955e+01	 2.999973675063150e+00	 1.191636155731382e-01
0	 2.200010000000955e+01	 3.333302777844445e+00	 1.798153140313930e-01
0	 2.266680000001227e+01	 0.000000000000000e+00	-4.263549932568941e-02
0	 2.266680000001227e+01	 3.333328527767944e-01	-5.455789195889118e-02
0	 2.266680000001227e+01	 6.666648222243554e-01	-5.864058168257372e-02
0	 2.266680000001227e+01	 9.999960250084502e-01	-5.488350600068415e-02
0	 2.266680000001227e+01	 1.333326577794844e+00	-4.328661887867025e-02
0	 2.266680000001227e+01	 1.666656597249306e+00	-2.384989074448533e-02
0	 2.266680000001227e+01	 1.999986200037600e+00	 3.426691505275616e-03
0	 2.266680000001227e+01	 2.333315502825495e+00	 3.854312451718697e-02
0	 2.266680000001227e+01	 2.666644622278756e+00	 8.149938846902394e-02
0	 2.266680000001227e+01	 2.999973675063150e+00	 1.322954470769089e-01
0	 2.266680000001227e+01	 3.333302777844445e+00	 1.909312475927468e-01
0	 2.333350000001459e+01	 0.000000000000000e+00	-2.989946255484914e-02
0	 2.333350000001457e+01	 3.333328527767943e-01	-3.833593518557624e-02
0	 2.333350000001459e+01	 6.666648222243556e-01	-3.963950199986929e-02
0	 2.333350000001458e+01	 9.999960250084500e-01	-3.381010865896394e-02
0	 2.333350000001458e+01	 1.333326577794844e+00	-2.084771581370484e-02
0	 2.333350000001459e+01	 1.666656597249306e+00	-7.522990897327620e-04
0	 2.333350000001459e+01	 1.999986200037600e+00	 2.647615090616943e-02
0	 2.333350000001460e+01	 2.333315502825494e+00	 6.083762858760577e-02
0	 2.333350000001459e+01	 2.666644622278756e+00	 1.023321133909516e-01
0	 2.333350000001459e+01	 2.999973675063150e+00	 1.509595697712162e-01
0	 2.333350000001459e+01	 3.333302777844445e+00	 2.067199472022191e-01
0	 2.400020000001640e+01	 0.000000000000000e+00	-1.570102479176814e-02
0	 2.400020000001640e+01	 3.333328527767944e-01	-1.982842306348686e-02
0	 2.400020000001640e+01	 6.666648222243553e-01	-1.768065608910337e-02
0	 2.400020000001640e+01	 9.999960250084501e-01	-9.257679532426023e-03
0	 2.400020000001641e+01	 1.333326577794844e+00	 5.440537766680933e-03
0	 2.400020000001640e+01	 1.666656597249305e+00	 2.641401378987614e-02
0	 2.400020000001641e+01	 1.999986200037600e+00	 5.366275334529310e-02
0	 2.400020000001641e+01	 2.333315502825494e+00	 8.718674805702287e-02
0	 2.400020000001640e+01	 2.666644622278755e+00	 1.269859763745507e-01
0	 2.400020000001640e+01	 2.999973675063150e+00	 1.730604035679485e-01
0	 2.400020000001640e+01	 3.333302777844445e+00	 2.254099817290602e-01
0	 2.466690000001762e+01	 0.000000000000000e+00	-1.250780995870560e-03
0	 2.466690000001762e+01	 3.333328527767945e-01	-6.822622190381449e-04
0	 2.466690000001762e+01	 6.666648222243555e-01	 5.237231028776720e-03
0	 2.466690000001762e+01	 9.999960250084502e-01	 1.650773226195713e-02
0	 2.466690000001762e+01	 1.333326577794845e+00	 3.312926375992969e-02
0	 2.466690000001763e+01	 1.666656597249306e+00	 5.510183656450723e-02
0	 2.466690000001761e+01	 1.999986200037600e+00	 8.242545048115923e-02
0	 2.466690000001762e+01	 2.333315502825494e+00	 1.151000940745557e-01
0	 2.466690000001762e+01	 2.666644622278756e+00	 1.531257446790968e-01
0	 2.466690000001762e+01	 2.999973675063150e+00	 1.965023683828712e-01
0	 2.466690000001762e+01	 3.333302777844446e+00	 2.452299200447715e-01
0	 2.533360000001814e+01	 0.000000000000000e+00	 1.224067388021394e-02
0	 2.533360000001814e+01	 3.333328527767945e-01	 1.745564070711268e-02
0	 2.533360000001813e+01	 6.666648222243554e-01	 2.711543432960605e-02
0	 2.533360000001814e+01	 9.999960250084503e-01	 4.122007760765225e-02
0	 2.533360000001814e+01	 1.333326577794844e+00	 5.976958406828919e-02
0	 2.533360000001813e+01	 1.666656597249305e+00	 8.276395790314478e-02
0	 2.533360000001813e+01	 1.999986200037600e+00	 1.102031939701508e-01
0	 2.533360000001814e+01	 2.333315502825495e+00	 1.420872777924834e-01
0	 2.533360000001814e+01	 2.666644622278756e+00	 1.784161855606376e-01
0	 2.533360000001813e+01	 2.999973675063150e+00	 2.191898841303249e-01
0	 2.533360000001813e+01	 3.333302777844444e+00	 2.644083310193671e-01
0	 2.600030000001785e+01	 0.000000000000000e+00	 2.356274488758600e-02
0	 2.600030000001784e+01	 3.333328527767943e-01	 3.293837907976489e-02
0	 2.600030000001786e+01	 6.666648222243555e-01	 4.595522878784976e-02
0	 2.600030000001785e+01	 9.999960250084500e-01	 6.261330738578312e-02
0	 2.600030000001785e+01	 1.333326577794844e+00	 8.291262058760245e-02
0	 2.600030000001785e+01	 1.666656597249305e+00	 1.068531664736847e-01
0	 2.600030000001786e+01	 1.999986200037600e+00	 1.344349354718822e-01
0	 2.600030000001784e+01	 2.333315502825495e+00	 1.656579103625991e-01
0	 2.600030000001785e+01	 2.666644622278755e+00	 2.005220662841256e-01
0	 2.600030000001785e+01	 2.999973675063150e+00	 2.390273707233393e-01
0	 2.600030000001786e+01	 3.333302777844445e+00	 2.811737835232272e-01
0	 2.666700000001667e+01	 0.000000000000000e+00	 3.150483707219491e-02
0	 2.666700000001667e+01	 3.333328527767944e-01	 4.411904626372583e-02
0	 2.666700000001667e+01	 6.666648222243557e-01	 5.975788938879533e-02
0	 2.666700000001667e+01	 9.999960250084503e-01	 7.842137247876199e-02
0	 2.666700000001667e+01	 1.333326577794844e+00	 1.001094952211202e-01
0	 2.666700000001666e+01	 1.666656597249305e+00	 1.248222509474020e-01
0	 2.666700000001667e+01	 1.999986200037600e+00	 1.525596266435967e-01
0	 2.666700000001666e+01	 2.333315502825495e+00	 1.833216029357591e-01
0	 2.666700000001667e+01	 2.666644622278756e+00	 2.171081541040514e-01
0	 2.666700000001667e+01	 2.999973675063150e+00	 2.539192480754295e-01
0	 2.666700000001667e+01	 3.333302777844445e+00	 2.937548464266120e-01
0	 2.000000000000000e+01	 3.333302777844445e+00	 1.922184209287989e-01
0	 2.000000000000000e+01	 3.666642022268356e+00	 2.543082674782318e-01
0	 2.000000000000000e+01	 3.999981400030399e+00	 3.165050296469748e-01
0	 2.000000000000000e+01	 4.333320877796045e+00	 3.788087259827919e-01
0	 2.000000000000001e+01	 4.666660422230756e+00	 4.412193750967758e-01
0	 2.000000000000000e+01	 4.999999999999999e+00	 5.037369956640251e-01
0	 2.000000000000000e+01	 5.333339577769244e+00	 5.663616064244995e-01
0	 2.000000000000000e+01	 5.666679122203955e+00	 6.290932261808252e-01
0	 2.000000000000000e+01	 6.000018599969599e+00	 6.919318738031111e-01
0	 2.000000000000000e+01	 6.333357977731642e+00	 7.548775682217684e-01
0	 2.000000000000000e+01	 6.666697222155556e+00	 8.179303284340418e-01
0	 2.066670000000332e+01	 3.333302777844446e+00	 1.786874695698277e-01
0	 2.066670000000332e+01	 3.666642022268356e+00	 2.436532515714514e-01
0	 2.066670000000331e+01	 3.999981400030399e+00	 3.087205684219399e-01
0	 2.066670000000332e+01	 4.333320877796044e+00	 3.738894395371363e-01
0	 2.066670000000331e+01	 4.666660422230754e+00	 4.391598843907472e-01
0	 2.066670000000332e+01	 4.999999999999998e+00	 5.045319225177407e-01
0	 2.066670000000332e+01	 5.333339577769244e+00	 5.700055735160692e-01
0	 2.066670000000332e+01	 5.666679122203954e+00	 6.355808570431630e-01
0	 2.066670000000331e+01	 6.000018599969598e+00	 7.012577928172840e-01
0	 2.066670000000332e+01	 6.333357977731643e+00	 7.670364006180603e-01
0	 2.066670000000332e+01	 6.666697222155556e+00	 8.329167002872586e-01
0	 2.133340000000654e+01	 3.333302777844445e+00	 1.751435776471487e-01
0	 2.133340000000654e+01	 3.666642022268357e+00	 2.409033444507106e-01
0	 2.133340000000654e+01	 3.999981400030399e+00	 3.067483652436339e-01
0	 2.133340000000653e+01	 4.333320877796045e+00	 3.726786596886003e-01
0	 2.133340000000653e+01	 4.666660422230755e+00	 4.386942475019109e-01
0	 2.133340000000654e+01	 5.000000000000000e+00	 5.047951484486276e-01
0	 2.133340000000654e+01	 5.333339577769244e+00	 5.709813823484391e-01
0	 2.133340000000652e+01	 5.666679122203952e+00	 6.372529690693222e-01
0	 2.133340000000654e+01	 6.000018599969597e+00	 7.036099285324884e-01
0	 2.133340000000653e+01	 6.333357977731643e+00	 7.700522807086553e-01
0	 2.133340000000653e+01	 6.666697222155554e+00	 8.365800456200553e-01
0	 2.200010000000955e+01	 3.333302777844445e+00	 1.798153140313930e-01
0	 2.200010000000955e+01	 3.666642022268356e+00	 2.446547618251854e-01
0	 2.200010000000955e+01	 3.999981400030400e+00	 3.095547604515306e-01
0	 2.200010000000955e+01	 4.333320877796045e+00	 3.745153293167786e-01
0	 2.200010000000955e+01	 4.666660422230756e+00	 4.395364878663530e-01
0	 2.200010000000956e+01	 4.999999999999999e+00	 5.046182555773583e-01
0	 2.200010000000956e+01	 5.333339577769244e+00	 5.697606519669182e-01
0	 2.200010000000955e+01	 5.666679122203954e+00	 6.349636965863341e-01
0	 2.200010000000955e+01	 6.000018599969599e+00	 7.002274090239712e-01
0	 2.200010000000955e+01	 6.333357977731642e+00	 7.655518089061075e-01
0	 2.200010000000955e+01	 6.666697222155554e+00	 8.309369158925786e-01
0	 2.266680000001227e+01	 3.333302777844445e+00	 1.909312475927468e-01
0	 2.266680000001228e+01	 3.666642022268356e+00	 2.535037193982715e-01
0	 2.266680000001228e+01	 3.999981400030401e+00	 3.161060943854753e-01
0	 2.266680000001227e+01	 4.333320877796044e+00	 3.787383913047203e-01
0	 2.266680000001227e+01	 4.666660422230755e+00	 4.414006289226488e-01
0	 2.266680000001227e+01	 5.000000000000002e+00	 5.040928260258227e-01
0	 2.266680000001227e+01	 5.333339577769243e+00	 5.668150014174004e-01
0	 2.266680000001227e+01	 5.666679122203954e+00	 6.295671739176095e-01
0	 2.266680000001227e+01	 6.000018599969598e+00	 6.923493623671630e-01
0	 2.266680000001227e+01	 6.333357977731642e+00	 7.551615856249543e-01
0	 2.266680000001227e+01	 6.666697222155555e+00	 8.180038625626592e-01
0	 2.333350000001459e+01	 3.333302777844445e+00	 2.067199472022191e-01
0	 2.333350000001459e+01	 3.666642022268356e+00	 2.660464328782169e-01
0	 2.333350000001458e+01	 3.999981400030400e+00	 3.253687073881139e-01
0	 2.333350000001459e+01	 4.333320877796044e+00	 3.846867885314250e-01
0	 2.333350000001460e+01	 4.666660422230756e+00	 4.440006941078286e-01
0	 2.333350000001460e+01	 4.999999999999999e+00	 5.033104419153976e-01
0	 2.333350000001459e+01	 5.333339577769245e+00	 5.626160497447380e-01
0	 2.333350000001459e+01	 5.666679122203955e+00	 6.219175353898813e-01
0	 2.333350000001458e+01	 6.000018599969599e+00	 6.812149166384225e-01
0	 2.333350000001458e+01	 6.333357977731644e+00	 7.405082112768084e-01
0	 2.333350000001459e+01	 6.666697222155555e+00	 7.997974370905411e-01
0	 2.400020000001640e+01	 3.333302777844445e+00	 2.254099817290602e-01
0	 2.400020000001641e+01	 3.666642022268356e+00	 2.808791179720403e-01
0	 2.400020000001640e+01	 3.999981400030399e+00	 3.363089397974393e-01
0	 2.400020000001640e+01	 4.333320877796045e+00	 3.916994638775525e-01
0	 2.400020000001641e+01	 4.666660422230756e+00	 4.470507068593096e-01
0	 2.400020000001640e+01	 4.999999999999997e+00	 5.023626853662542e-01
0	 2.400020000001640e+01	 5.333339577769244e+00	 5.576354159962513e-01
0	 2.400020000001640e+01	 5.666679122203954e+00	 6.128689153266202e-01
0	 2.400020000001640e+01	 6.000018599969597e+00	 6.680631999117587e-01
0	 2.400020000001641e+01	 6.333357977731643e+00	 7.232182862788382e-01
0	 2.400020000001641e+01	 6.666697222155557e+00	 7.783341909333689e-01
0	 2.466690000001762e+01	 3.333302777844446e+00	 2.452299200447716e-01
0	 2.466690000001763e+01	 3.666642022268355e+00	 2.965979903839624e-01
0	 2.466690000001762e+01	 3.999981400030399e+00	 3.478931319546147e-01
0	 2.466690000001761e+01	 4.333320877796044e+00	 3.991153602245409e-01
0	 2.466690000001762e+01	 4.666660422230756e+00	 4.502646906136356e-01
0	 2.466690000001763e+01	 5.000000000000000e+00	 5.013411384982523e-01
0	 2.466690000001761e+01	 5.333339577769244e+00	 5.523447192155791e-01
0	 2.466690000001762e+01	 5.666679122203955e+00	 6.032754480553790e-01
0	 2.466690000001763e+01	 6.000018599969599e+00	 6.541333402625561e-01
0	 2.466690000001762e+01	 6.333357977731643e+00	 7.049184110419952e-01
0	 2.466690000001762e+01	 6.666697222155555e+00	 7.556306755518735e-01
0	 2.533360000001813e+01	 3.333302777844444e+00	 2.644083310193671e-01
0	 2.533360000001814e+01	 3.666642022268356e+00	 3.117992658219560e-01
0	 2.533360000001814e+01	 3.999981400030399e+00	 3.590876242025858e-01
0	 2.533360000001814e+01	 4.333320877796045e+00	 4.062734204514697e-01
0	 2.533360000001814e+01	 4.666660422230756e+00	 4.533566688066694e-01
0	 2.533360000001814e+01	 4.999999999999999e+00	 5.003373834363103e-01
0	 2.533360000001814e+01	 5.333339577769243e+00	 5.472155784505237e-01
0	 2.533360000001813e+01	 5.666679122203954e+00	 5.939912678988801e-01
0	 2.533360000001813e+01	 6.000018599969598e+00	 6.406644657665526e-01
0	 2.533360000001814e+01	 6.333357977731642e+00	 6.872351859806654e-01
0	 2.533360000001813e+01	 6.666697222155553e+00	 7.337034424033609e-01
0	 2.600030000001786e+01	 3.333302777844445e+00	 2.811737835232272e-01
0	 2.600030000001785e+01	 3.666642022268356e+00	 3.250791599933250e-01
0	 2.600030000001786e+01	 3.999981400030400e+00	 3.688587568777431e-01
0	 2.600030000001786e+01	 4.333320877796045e+00	 4.125125874433236e-01
0	 2.600030000001785e+01	 4.666660422230754e+00	 4.560406648774321e-01
0	 2.600030000001785e+01	 4.999999999999999e+00	 4.994430022980869e-01
0	 2.600030000001785e+01	 5.333339577769244e+00	 5.427196127454402e-01
0	 2.600030000001785e+01	 5.666679122203955e+00	 5.858705091833901e-01
0	 2.600030000001786e+01	 6.000018599969598e+00	 6.288957044995453e-01
0	 2.600030000001785e+01	 6.333357977731644e+00	 6.717952115083913e-01
0	 2.600030000001785e+01	 6.666697222155554e+00	 7.145690429478356e-01
0	 2.666700000001667e+01	 3.333302777844445e+00	 2.937548464266120e-01
0	 2.666700000001667e+01	 3.666642022268356e+00	 3.350338886022692e-01
0	 2.666700000001666e+01	 3.999981400030400e+00	 3.761728703222186e-01
0	 2.666700000001667e+01	 4.333320877796044e+00	 4.171718040742590e-01
0	 2.666700000001667e+01	 4.666660422230756e+00	 4.580307022628229e-01
0	 2.666700000001667e+01	 5.000000000000001e+00	 4.987495772069500e-01
0	 2.666700000001666e+01	 5.333339577769243e+00	 5.393284411467949e-01
0	 2.666700000001667e+01	 5.666679122203955e+00	 5.797673062329523e-01
0	 2.666700000001666e+01	 6.000018599969598e+00	 6.200661845359376e-01
0	 2.666700000001667e+01	 6.333357977731644e+00	 6.602250880393427e-01
0	 2.666700000001667e+01	 6.666697222155555e+00	 7.002440286451558e-01
0	 2.000000000000000e+01	 6.666697222155556e+00	 8.179303284340419e-01
0	 2.000000000000000e+01	 7.000026324936852e+00	 8.769565004843949e-01
0	 2.000000000000000e+01	 7.333355377721243e+00	 9.278261602624045e-01
0	 2.000000000000000e+01	 7.666684497174508e+00	 9.705392549639997e-01
0	 2.000000000000000e+01	 8.000013799962403e+00	 1.005095748918034e+00
0	 2.000000000000000e+01	 8.333343402750696e+00	 1.031495623579280e+00
0	 2.000000000000000e+01	 8.666673422205157e+00	 1.049738877535105e+00
0	 2.000000000000000e+01	 9.000003974991552e+00	 1.059825526498101e+00
0	 2.000000000000000e+01	 9.333335177775650e+00	 1.061755603312563e+00
0	 2.000000000000000e+01	 9.666667147223212e+00	 1.055529157950728e+00
0	 2.000000000000000e+01	 1.000000000000000e+01	 1.041146257510089e+00
0	 2.066670000000332e+01	 6.666697222155556e+00	 8.329167002872587e-01
0	 2.066670000000332e+01	 7.000026324936854e+00	 8.943496681945557e-01
0	 2.066670000000332e+01	 7.333355377721245e+00	 9.467901775404323e-01
0	 2.066670000000332e+01	 7.666684497174507e+00	 9.902381739381758e-01
0	 2.066670000000332e+01	 8.000013799962403e+00	 1.024693621884436e+00
0	 2.066670000000332e+01	 8.333343402750696e+00	 1.050156504758891e+00
0	 2.066670000000332e+01	 8.666673422205161e+00	 1.066626824827271e+00
0	 2.066670000000332e+01	 9.000003974991552e+00	 1.074104603239357e+00
0	 2.066670000000332e+01	 9.333335177775648e+00	 1.072589880026554e+00
0	 2.066670000000332e+01	 9.666667147223212e+00	 1.062082714110121e+00
0	 2.066670000000332e+01	 1.000000000000000e+01	 1.042583183289805e+00
0	 2.133340000000653e+01	 6.666697222155554e+00	 8.365800456200554e-01
0	 2.133340000000653e+01	 7.000026324936851e+00	 8.985288540278057e-01
0	 2.133340000000654e+01	 7.333355377721244e+00	 9.512382713317032e-01
0	 2.133340000000653e+01	 7.666684497174507e+00	 9.947082428775507e-01
0	 2.133340000000653e+01	 8.000013799962399e+00	 1.028938733415853e+00
0	 2.133340000000653e+01	 8.333343402750696e+00	 1.053929727103873e+00
0	 2.133340000000654e+01	 8.666673422205163e+00	 1.069681227496239e+00
0	 2.133340000000653e+01	 9.000003974991555e+00	 1.076193257553249e+00
0	 2.133340000000653e+01	 9.333335177775648e+00	 1.073465859638586e+00
0	 2.133340000000653e+01	 9.666667147223212e+00	 1.061499095516064e+00
0	 2.133340000000654e+01	 1.000000000000000e+01	 1.040293046352981e+00
0	 2.200010000000955e+01	 6.666697222155554e+00	 8.309369158925787e-01
0	 2.200010000000955e+01	 7.000026324936851e+00	 8.918501463380670e-01
0	 2.200010000000955e+01	 7.333355377721245e+00	 9.437627829795858e-01
0	 2.200010000000955e+01	 7.666684497174506e+00	 9.866747719874041e-01
0	 2.200010000000955e+01	 8.000013799962401e+00	 1.020586078425441e+00
0	 2.200010000000956e+01	 8.333343402750696e+00	 1.045496686264695e+00
0	 2.200010000000955e+01	 8.666673422205157e+00	 1.061406598376607e+00
0	 2.200010000000955e+01	 9.000003974991554e+00	 1.068315836534671e+00
0	 2.200010000000956e+01	 9.333335177775648e+00	 1.066224441413457e+00
0	 2.200010000000955e+01	 9.666667147223212e+00	 1.055132472584666e+00
0	 2.200010000000955e+01	 1.000000000000000e+01	 1.035040008528122e+00
0	 2.266680000001227e+01	 6.666697222155555e+00	 8.180038625626593e-01
0	 2.266680000001227e+01	 7.000026324936849e+00	 8.766696334735513e-01
0	 2.266680000001227e+01	 7.333355377721244e+00	 9.269560538354430e-01
0	 2.266680000001228e+01	 7.666684497174508e+00	 9.688630714758303e-01
0	 2.266680000001228e+01	 8.000013799962403e+00	 1.002390651821156e+00
0	 2.266680000001227e+01	 8.333343402750696e+00	 1.027538777891542e+00
0	 2.266680000001227e+01	 8.666673422205161e+00	 1.044307450304813e+00
0	 2.266680000001227e+01	 9.000003974991552e+00	 1.052696687277332e+00
0	 2.266680000001227e+01	 9.333335177775647e+00	 1.052706524620563e+00
0	 2.266680000001227e+01	 9.666667147223210e+00	 1.044337015741491e+00
0	 2.266680000001227e+01	 1.000000000000000e+01	 1.027588231647930e+00
0	 2.333350000001459e+01	 6.666697222155555e+00	 7.997974370905410e-01
0	 2.333350000001458e+01	 7.000026324936851e+00	 8.553434037826924e-01
0	 2.333350000001458e+01	 7.333355377721245e+00	 9.034104252401657e-01
0	 2.333350000001460e+01	 7.666684497174507e+00	 9.439984515529113e-01
0	 2.333350000001459e+01	 8.000013799962403e+00	 9.771074485160564e-01
0	 2.333350000001459e+01	 8.333343402750696e+00	 1.002737397634464e+00
0	 2.333350000001458e+01	 8.666673422205156e+00	 1.020888296114441e+00
0	 2.333350000001459e+01	 9.000003974991555e+00	 1.031560156872703e+00
0	 2.333350000001458e+01	 9.333335177775645e+00	 1.034753008531291e+00
0	 2.333350000001458e+01	 9.666667147223208e+00	 1.030466895410347e+00
0	 2.333350000001459e+01	 1.000000000000000e+01	 1.018701877545943e+00
0	 2.400020000001641e+01	 6.666697222155557e+00	 7.783341909333688e-01
0	 2.400020000001640e+01	 7.000026324936850e+00	 8.302275456159897e-01
0	 2.400020000001641e+01	 7.333355377721245e+00	 8.757182385401059e-01
0	 2.400020000001641e+01	 7.666684497174505e+00	 9.148062224218165e-01
0	 2.400020000001640e+01	 8.000013799962399e+00	 9.474914634206291e-01
0	 2.400020000001640e+01	 8.333343402750698e+00	 9.737739411428105e-01
0	 2.400020000001641e+01	 8.666673422205161e+00	 9.936536486415825e-01
0	 2.400020000001641e+01	 9.000003974991554e+00	 1.007130592414963e+00
0	 2.400020000001640e+01	 9.333335177775648e+00	 1.014204792409391e+00
0	 2.400020000001641e+01	 9.666667147223212e+00	 1.014876282009284e+00
0	 2.400020000001640e+01	 1.000000000000000e+01	 1.009145108054907e+00
0	 2.466690000001762e+01	 6.666697222155555e+00	 7.556306755518734e-01
0	 2.466690000001763e+01	 7.000026324936851e+00	 8.036781473228509e-01
0	 2.466690000001763e+01	 7.333355377721246e+00	 8.464718350820944e-01
0	 2.466690000001762e+01	 7.666684497174506e+00	 8.840116942936166e-01
0	 2.466690000001762e+01	 8.000013799962401e+00	 9.162976914450184e-01
0	 2.466690000001763e+01	 8.333343402750698e+00	 9.433298040683804e-01
0	 2.466690000001762e+01	 8.666673422205159e+00	 9.651080207214253e-01
0	 2.466690000001762e+01	 9.000003974991555e+00	 9.816323409989497e-01
0	 2.466690000001762e+01	 9.333335177775647e+00	 9.929027755253249e-01
0	 2.466690000001762e+01	 9.666667147223208e+00	 9.989193459610981e-01
0	 2.466690000001762e+01	 1.000000000000000e+01	 9.996820850007968e-01
0	 2.533360000001813e+01	 6.666697222155553e+00	 7.337034424033611e-01
0	 2.533360000001814e+01	 7.000026324936850e+00	 7.780512972519313e-01
0	 2.533360000001814e+01	 7.333355377721247e+00	 8.182635562132200e-01
0	 2.533360000001814e+01	 7.666684497174506e+00	 8.543401773717515e-01
0	 2.533360000001814e+01	 8.000013799962401e+00	 8.862811275016319e-01
0	 2.533360000001814e+01	 8.333343402750694e+00	 9.140863820587339e-01
0	 2.533360000001813e+01	 8.666673422205157e+00	 9.377559251870837e-01
0	 2.533360000001813e+01	 9.000003974991550e+00	 9.572897497127506e-01
0	 2.533360000001814e+01	 9.333335177775648e+00	 9.726878571492025e-01
0	 2.533360000001814e+01	 9.666667147223212e+00	 9.839502576910862e-01
0	 2.533360000001814e+01	 1.000000000000000e+01	 9.910769702220606e-01
0	 2.600030000001785e+01	 6.666697222155554e+00	 7.145690429478357e-01
0	 2.600030000001784e+01	 7.000026324936849e+00	 7.557030837539761e-01
0	 2.600030000001785e+01	 7.333355377721245e+00	 7.936857432758057e-01
0	 2.600030000001786e+01	 7.666684497174507e+00	 8.285169818660783e-01
0	 2.600030000001786e+01	 8.000013799962401e+00	 8.601967664996156e-01
0	 2.600030000001785e+01	 8.333343402750696e+00	 8.887250707659172e-01
0	 2.600030000001784e+01	 8.666673422205156e+00	 9.141018748746169e-01
0	 2.600030000001785e+01	 9.000003974991552e+00	 9.363271656531446e-01
0	 2.600030000001785e+01	 9.333335177775648e+00	 9.554009365451445e-01
0	 2.600030000001785e+01	 9.666667147223210e+00	 9.713231876159092e-01
0	 2.600030000001785e+01	 1.000000000000000e+01	 9.840939255440950e-01
0	 2.666700000001667e+01	 6.666697222155555e+00	 7.002440286451557e-01
0	 2.666700000001666e+01	 7.000026324936849e+00	 7.389895951775738e-01
0	 2.666700000001667e+01	 7.333355377721246e+00	 7.753307376160635e-01
0	 2.666700000001666e+01	 7.666684497174507e+00	 8.092674179834821e-01
0	 2.666700000001666e+01	 8.000013799962403e+00	 8.407996033514183e-01
0	 2.666700000001666e+01	 8.333343402750696e+00	 8.699272658395840e-01
0	 2.666700000001667e+01	 8.666673422205159e+00	 8.966503826204669e-01
0	 2.666700000001667e+01	 9.000003974991555e+00	 9.209689359121095e-01
0	 2.666700000001667e+01	 9.333335177775648e+00	 9.428829129854339e-01
0	 2.666700000001666e+01	 9.666667147223212e+00	 9.623923061640309e-01
0	 2.666700000001667e+01	 1.000000000000000e+01	 9.794971128056188e-01
0	 2.666700000001667e+01	 0.000000000000000e+00	 3.150483707219491e-02
0	 2.666700000001667e+01	 3.333328527767944e-01	 4.411904626372583e-02
0	 2.666700000001667e+01	 6.666648222243557e-01	 5.975788938879533e-02
0	 2.666700000001667e+01	 9.999960250084503e-01	 7.842137247876199e-02
0	 2.666700000001667e+01	 1.333326577794844e+00	 1.001094952211202e-01
0	 2.666700000001666e+01	 1.666656597249305e+00	 1.248222509474020e-01
0	 2.666700000001667e+01	 1.999986200037600e+00	 1.525596266435967e-01
0	 2.666700000001666e+01	 2.333315502825495e+00	 1.833216029357591e-01
0	 2.666700000001667e+01	 2.666644622278756e+00	 2.171081541040513e-01
0	 2.666700000001667e+01	 2.999973675063150e+00	 2.539192480754295e-01
0	 2.666700000001667e+01	 3.333302777844445e+00	 2.937548464266120e-01
0	 2.733360000001453e+01	 0.000000000000000e+00	 3.517941130182461e-02
0	 2.733360000001453e+01	 3.333328527767945e-01	 4.977871295963953e-02
0	 2.733360000001453e+01	 6.666648222243555e-01	 6.703694265583164e-02
0	 2.733360000001453e+01	 9.999960250084500e-01	 8.695410201331231e-02
0	 2.733360000001453e+01	 1.333326577794845e+00	 1.095301870681212e-01
0	 2.733360000001453e+01	 1.666656597249305e+00	 1.347651882754607e-01
0	 2.733360000001453e+01	 1.999986200037600e+00	 1.626590905033166e-01
0	 2.733360000001453e+01	 2.333315502825495e+00	 1.932118730400498e-01
0	 2.733360000001454e+01	 2.666644622278756e+00	 2.264235095866520e-01
0	 2.733360000001453e+01	 2.999973675063151e+00	 2.622939682619690e-01
0	 2.733360000001452e+01	 3.333302777844444e+00	 3.008232116042059e-01
0	 2.800020000001160e+01	 0.000000000000000e+00	 3.499366118392886e-02
0	 2.800020000001160e+01	 3.333328527767944e-01	 5.041442246257104e-02
0	 2.800020000001160e+01	 6.666648222243555e-01	 6.836025593578411e-02
0	 2.800020000001160e+01	 9.999960250084500e-01	 8.883116152008483e-02
0	 2.800020000001160e+01	 1.333326577794845e+00	 1.118271338092799e-01
0	 2.800020000001160e+01	 1.666656597249305e+00	 1.373481621057372e-01
0	 2.800020000001160e+01	 1.999986200037600e+00	 1.653942304050970e-01
0	 2.800020000001159e+01	 2.333315502825495e+00	 1.959653174046498e-01
0	 2.800020000001160e+01	 2.666644622278756e+00	 2.290613964982193e-01
0	 2.800020000001160e+01	 2.999973675063150e+00	 2.646824357717508e-01
0	 2.800020000001160e+01	 3.333302777844445e+00	 3.028283980144919e-01
0	 2.866680000000807e+01	 0.000000000000000e+00	 3.167645914767026e-02
0	 2.866680000000806e+01	 3.333328527767945e-01	 4.694941093314207e-02
0	 2.866680000000806e+01	 6.666648222243553e-01	 6.480583763950284e-02
0	 2.866680000000807e+01	 9.999960250084503e-01	 8.524573969962521e-02
0	 2.866680000000807e+01	 1.333326577794845e+00	 1.082691121233735e-01
0	 2.866680000000807e+01	 1.666656597249306e+00	 1.338759444890709e-01
0	 2.866680000000807e+01	 1.999986200037600e+00	 1.620662209575965e-01
0	 2.866680000000807e+01	 2.333315502825495e+00	 1.928399202589975e-01
0	 2.866680000000806e+01	 2.666644622278755e+00	 2.261970157003985e-01
0	 2.866680000000807e+01	 2.999973675063150e+00	 2.621374751614209e-01
0	 2.866680000000806e+01	 3.333302777844444e+00	 3.006612611007942e-01
0	 2.933340000000413e+01	 0.000000000000000e+00	 2.595667762582515e-02
0	 2.933340000000413e+01	 3.333328527767944e-01	 4.030691453717404e-02
0	 2.933340000000413e+01	 6.666648222243555e-01	 5.745169616477951e-02
0	 2.933340000000414e+01	 9.999960250084503e-01	 7.739102525849020e-02
0	 2.933340000000413e+01	 1.333326577794844e+00	 1.001248986956712e-01
0	 2.933340000000414e+01	 1.666656597249306e+00	 1.256533074858909e-01
0	 2.933340000000414e+01	 1.999986200037601e+00	 1.539762367699698e-01
0	 2.933340000000413e+01	 2.333315502825494e+00	 1.850936658241307e-01
0	 2.933340000000413e+01	 2.666644622278755e+00	 2.190055680505245e-01
0	 2.933340000000414e+01	 2.999973675063150e+00	 2.557119109867667e-01
0	 2.933340000000413e+01	 3.333302777844444e+00	 2.952126563000289e-01
0	 3.000000000000000e+01	 0.000000000000000e+00	 1.856318904049100e-02
0	 3.000000000000001e+01	 3.333328527767945e-01	 3.141016943131161e-02
0	 3.000000000000000e+01	 6.666648222243556e-01	 4.737583992115720e-02
0	 2.999999999999999e+01	 9.999960250084499e-01	 6.646020690055596e-02
0	 3.000000000000000e+01	 1.333326577794845e+00	 8.866327020773350e-02
0	 3.000000000000000e+01	 1.666656597249305e+00	 1.139850231454914e-01
0	 3.000000000000001e+01	 1.999986200037600e+00	 1.424254524514336e-01
0	 3.000000000000001e+01	 2.333315502825495e+00	 1.739845383254429e-01
0	 3.000000000000000e+01	 2.666644622278756e+00	 2.086622544106476e-01
0	 3.000000000000000e+01	 2.999973675063150e+00	 2.464585678040963e-01
0	 3.000000000000001e+01	 3.333302777844446e+00	 2.873734390539197e-01
0	 3.066659999999587e+01	 0.000000000000000e+00	 1.022486582905295e-02
0	 3.066659999999588e+01	 3.333328527767945e-01	 2.118241178158564e-02
0	 3.066659999999586e+01	 6.666648222243555e-01	 3.565627731198500e-02
0	 3.066659999999586e+01	 9.999960250084500e-01	 5.364647332472390e-02
0	 3.066659999999586e+01	 1.333326577794844e+00	 7.515300334681112e-02
0	 3.066659999999587e+01	 1.666656597249305e+00	 1.001758635230828e-01
0	 3.066659999999586e+01	 1.999986200037600e+00	 1.287150426111375e-01
0	 3.066659999999587e+01	 2.333315502825495e+00	 1.607705219886596e-01
0	 3.066659999999587e+01	 2.666644622278756e+00	 1.963422756386431e-01
0	 3.066659999999587e+01	 2.999973675063151e+00	 2.354302701700935e-01
0	 3.066659999999587e+01	 3.333302777844444e+00	 2.780344648043529e-01
0	 3.133319999999194e+01	 0.000000000000000e+00	 1.670580414241297e-03
0	 3.133319999999193e+01	 3.333328527767944e-01	 1.054687774807907e-02
0	 3.133319999999193e+01	 6.666648222243554e-01	 2.337101673948376e-02
0	 3.133319999999193e+01	 9.999960250084501e-01	 4.014301323445563e-02
0	 3.133319999999194e+01	 1.333326577794844e+00	 6.086287479194280e-02
0	 3.133319999999193e+01	 1.666656597249305e+00	 8.553060067681456e-02
0	 3.133319999999194e+01	 1.999986200037600e+00	 1.141461818606410e-01
0	 3.133319999999194e+01	 2.333315502825494e+00	 1.467096010335713e-01
0	 3.133319999999194e+01	 2.666644622278757e+00	 1.832208325928129e-01
0	 3.133319999999193e+01	 2.999973675063150e+00	 2.236798426386542e-01
0	 3.133319999999194e+01	 3.333302777844446e+00	 2.680865889881577e-01
0	 3.199979999998840e+01	 0.000000000000000e+00	-6.370794771177337e-03
0	 3.199979999998841e+01	 3.333328527767945e-01	 4.268034928612252e-04
0	 3.199979999998840e+01	 6.666648222243555e-01	 1.159806661447229e-02
0	 3.199979999998840e+01	 9.999960250084501e-01	 2.714301533978402e-02
0	 3.199979999998841e+01	 1.333326577794844e+00	 4.706166122722307e-02
0	 3.199979999998842e+01	 1.666656597249306e+00	 7.135400665216220e-02
0	 3.199979999998839e+01	 1.999986200037600e+00	 1.000200448062540e-01
0	 3.199979999998840e+01	 2.333315502825495e+00	 1.330597596925536e-01
0	 3.199979999998840e+01	 2.666644622278756e+00	 1.704731261364659e-01
0	 3.199979999998841e+01	 2.999973675063150e+00	 2.122601097708256e-01
0	 3.199979999998840e+01	 3.333302777844445e+00	 2.584206670494176e-01
0	 3.266639999998547e+01	 0.000000000000000e+00	-1.317038730349565e-02
0	 3.266639999998547e+01	 3.333328527767945e-01	-8.254574825447312e-03
0	 3.266639999998547e+01	 6.666648222243555e-01	 1.415435337026908e-03
0	 3.266639999998547e+01	 9.999960250084499e-01	 1.583966833916518e-02
0	 3.266639999998548e+01	 1.333326577794845e+00	 3.501813933697999e-02
0	 3.266639999998547e+01	 1.666656597249305e+00	 5.895085351018772e-02
0	 3.266639999998547e+01	 1.999986200037600e+00	 8.763780605743865e-02
0	 3.266639999998547e+01	 2.333315502825495e+00	 1.210789821866152e-01
0	 3.266639999998547e+01	 2.666644622278756e+00	 1.592743571277945e-01
0	 3.266639999998547e+01	 2.999973675063150e+00	 2.022238961195486e-01
0	 3.266639999998547e+01	 3.333302777844445e+00	 2.499275544269950e-01
0	 3.333299999998333e+01	 0.000000000000000e+00	-1.799932474763779e-02
0	 3.333299999998334e+01	 3.333328527767944e-01	-1.457402105039831e-02
0	 3.333299999998333e+01	 6.666648222243554e-01	-6.098868681651119e-03
0	 3.333299999998334e+01	 9.999960250084502e-01	 7.426160936742103e-03
0	 3.333299999998333e+01	 1.333326577794845e+00	 2.600108580312233e-02
0	 3.333299999998334e+01	 1.666656597249306e+00	 4.962591330360600e-02
0	 3.333299999998333e+01	 1.999986200037600e+00	 7.830064022312035e-02
0	 3.333299999998333e+01	 2.333315502825495e+00	 1.120252527407231e-01
0	 3.333299999998334e+01	 2.666644622278756e+00	 1.507997264216040e-01
0	 3.333299999998334e+01	 2.999973675063150e+00	 1.946240262422095e-01
0	 3.333299999998333e+01	 3.333302777844445e+00	 2.434981065619550e-01
0	 2.666700000001667e+01	 3.333302777844445e+00	 2.937548464266119e-01
0	 2.666700000001667e+01	 3.666642022268356e+00	 3.350338886022692e-01
0	 2.666700000001666e+01	 3.999981400030400e+00	 3.761728703222185e-01
0	 2.666700000001667e+01	 4.333320877796044e+00	 4.171718040742590e-01
0	 2.666700000001667e+01	 4.666660422230756e+00	 4.580307022628229e-01
0	 2.666700000001667e+01	 5.000000000000001e+00	 4.987495772069501e-01
0	 2.666700000001666e+01	 5.333339577769243e+00	 5.393284411467949e-01
0	 2.666700000001667e+01	 5.666679122203955e+00	 5.797673062329523e-01
0	 2.666700000001666e+01	 6.000018599969598e+00	 6.200661845359378e-01
0	 2.666700000001667e+01	 6.333357977731644e+00	 6.602250880393427e-01
0	 2.666700000001667e+01	 6.666697222155555e+00	 7.002440286451556e-01
0	 2.733360000001452e+01	 3.333302777844444e+00	 3.008232116042059e-01
0	 2.733360000001453e+01	 3.666642022268356e+00	 3.406111903887636e-01
0	 2.733360000001453e+01	 3.999981400030400e+00	 3.802554996937627e-01
0	 2.733360000001453e+01	 4.333320877796044e+00	 4.197561515653431e-01
0	 2.733360000001453e+01	 4.666660422230756e+00	 4.591131579593916e-01
0	 2.733360000001453e+01	 4.999999999999998e+00	 4.983265307498121e-01
0	 2.733360000001453e+01	 5.333339577769244e+00	 5.373962817205280e-01
0	 2.733360000001453e+01	 5.666679122203955e+00	 5.763224225729009e-01
0	 2.733360000001453e+01	 6.000018599969600e+00	 6.151049649199525e-01
0	 2.733360000001453e+01	 6.333357977731642e+00	 6.537439202882209e-01
0	 2.733360000001452e+01	 6.666697222155554e+00	 6.922393001191134e-01
0	 2.800020000001160e+01	 3.333302777844445e+00	 3.028283980144919e-01
0	 2.800020000001160e+01	 3.666642022268356e+00	 3.421691006363966e-01
0	 2.800020000001160e+01	 3.999981400030399e+00	 3.813720319530642e-01
0	 2.800020000001160e+01	 4.333320877796045e+00	 4.204372038728718e-01
0	 2.800020000001160e+01	 4.666660422230756e+00	 4.593646282176025e-01
0	 2.800020000001161e+01	 5.000000000000001e+00	 4.981543167279042e-01
0	 2.800020000001160e+01	 5.333339577769244e+00	 5.368062810620871e-01
0	 2.800020000001160e+01	 5.666679122203956e+00	 5.753205327945141e-01
0	 2.800020000001160e+01	 6.000018599969599e+00	 6.136970834174026e-01
0	 2.800020000001160e+01	 6.333357977731644e+00	 6.519359443419038e-01
0	 2.800020000001160e+01	 6.666697222155557e+00	 6.900371268952790e-01
0	 2.866680000000806e+01	 3.333302777844444e+00	 3.006612611007942e-01
0	 2.866680000000807e+01	 3.666642022268355e+00	 3.404157591565407e-01
0	 2.866680000000806e+01	 3.999981400030399e+00	 3.800460018057241e-01
0	 2.866680000000806e+01	 4.333320877796043e+00	 4.195520010732381e-01
0	 2.866680000000806e+01	 4.666660422230756e+00	 4.589337689004603e-01
0	 2.866680000000807e+01	 5.000000000000000e+00	 4.981913171597122e-01
0	 2.866680000000807e+01	 5.333339577769244e+00	 5.373246576466509e-01
0	 2.866680000000806e+01	 5.666679122203954e+00	 5.763338020821785e-01
0	 2.866680000000807e+01	 6.000018599969600e+00	 6.152187621159156e-01
0	 2.866680000000806e+01	 6.333357977731642e+00	 6.539795493170554e-01
0	 2.866680000000806e+01	 6.666697222155554e+00	 6.926161751856492e-01
0	 2.933340000000413e+01	 3.333302777844444e+00	 2.952126563000289e-01
0	 2.933340000000414e+01	 3.666642022268355e+00	 3.360593057552579e-01
0	 2.933340000000413e+01	 3.999981400030400e+00	 3.768009439584669e-01
0	 2.933340000000414e+01	 4.333320877796044e+00	 4.174375832403590e-01
0	 2.933340000000414e+01	 4.666660422230755e+00	 4.579692358731103e-01
0	 2.933340000000413e+01	 5.000000000000000e+00	 4.983959140636502e-01
0	 2.933340000000413e+01	 5.333339577769243e+00	 5.387176299548616e-01
0	 2.933340000000414e+01	 5.666679122203956e+00	 5.789343956286066e-01
0	 2.933340000000413e+01	 6.000018599969598e+00	 6.190462231033512e-01
0	 2.933340000000412e+01	 6.333357977731639e+00	 6.590531243318309e-01
0	 2.933340000000414e+01	 6.666697222155555e+00	 6.989551112085942e-01
0	 3.000000000000001e+01	 3.333302777844446e+00	 2.873734390539197e-01
0	 3.000000000000000e+01	 3.666642022268356e+00	 3.298078802453417e-01
0	 2.999999999999999e+01	 3.999981400030399e+00	 3.721603931124688e-01
0	 3.000000000000000e+01	 4.333320877796044e+00	 4.144309904497336e-01
0	 3.000000000000000e+01	 4.666660422230756e+00	 4.566196850012502e-01
0	 2.999999999999999e+01	 5.000000000000000e+00	 4.987264894588920e-01
0	 3.000000000000000e+01	 5.333339577769243e+00	 5.407514164649937e-01
0	 3.000000000000000e+01	 5.666679122203954e+00	 5.826944786200902e-01
0	 3.000000000000000e+01	 6.000018599969599e+00	 6.245556884671678e-01
0	 3.000000000000000e+01	 6.333357977731642e+00	 6.663350585041014e-01
0	 3.000000000000000e+01	 6.666697222155555e+00	 7.080326011795470e-01
0	 3.066659999999587e+01	 3.333302777844444e+00	 2.780344648043530e-01
0	 3.066659999999587e+01	 3.666642022268355e+00	 3.223696224330291e-01
0	 3.066659999999586e+01	 3.999981400030399e+00	 3.666478839768685e-01
0	 3.066659999999587e+01	 4.333320877796044e+00	 4.108692627785987e-01
0	 3.066659999999587e+01	 4.666660422230754e+00	 4.550337721491012e-01
0	 3.066659999999586e+01	 4.999999999999999e+00	 4.991414253616451e-01
0	 3.066659999999586e+01	 5.333339577769244e+00	 5.431922356571652e-01
0	 3.066659999999587e+01	 5.666679122203955e+00	 5.871862162454108e-01
0	 3.066659999999587e+01	 6.000018599969599e+00	 6.311233802965694e-01
0	 3.066659999999587e+01	 6.333357977731644e+00	 6.750037409506398e-01
0	 3.066659999999587e+01	 6.666697222155556e+00	 7.188273113108462e-01
0	 3.133319999999194e+01	 3.333302777844446e+00	 2.680865889881577e-01
0	 3.133319999999194e+01	 3.666642022268356e+00	 3.144526721294379e-01
0	 3.133319999999193e+01	 3.999981400030400e+00	 3.607869512554072e-01
0	 3.133319999999193e+01	 4.333320877796043e+00	 4.070894403007000e-01
0	 3.133319999999193e+01	 4.666660422230754e+00	 4.533601531817942e-01
0	 3.133319999999193e+01	 4.999999999999999e+00	 4.995991037923910e-01
0	 3.133319999999194e+01	 5.333339577769244e+00	 5.458063060101809e-01
0	 3.133319999999194e+01	 5.666679122203954e+00	 5.919817736936164e-01
0	 3.133319999999194e+01	 6.000018599969598e+00	 6.381255206779149e-01
0	 3.133319999999194e+01	 6.333357977731643e+00	 6.842375607872518e-01
0	 3.133319999999194e+01	 6.666697222155555e+00	 7.303179078205047e-01
0	 3.199979999998840e+01	 3.333302777844445e+00	 2.584206670494176e-01
0	 3.199979999998840e+01	 3.666642022268356e+00	 3.067651691423330e-01
0	 3.199979999998841e+01	 3.999981400030400e+00	 3.551011296531853e-01
0	 3.199979999998840e+01	 4.333320877796043e+00	 4.034285630920863e-01
0	 3.199979999998842e+01	 4.666660422230756e+00	 4.517474839636517e-01
0	 3.199979999998840e+01	 5.000000000000000e+00	 5.000579067696527e-01
0	 3.199979999998840e+01	 5.333339577769241e+00	 5.483598460031788e-01
0	 3.199979999998840e+01	 5.666679122203954e+00	 5.966533161521224e-01
0	 3.199979999998840e+01	 6.000018599969599e+00	 6.449383317035577e-01
0	 3.199979999998840e+01	 6.333357977731643e+00	 6.932149071359367e-01
0	 3.199979999998840e+01	 6.666697222155555e+00	 7.414830569232025e-01
0	 3.266639999998547e+01	 3.333302777844445e+00	 2.499275544269950e-01
0	 3.266639999998548e+01	 3.666642022268356e+00	 3.000152532821025e-01
0	 3.266639999998548e+01	 3.999981400030400e+00	 3.501139538758430e-01
0	 3.266639999998547e+01	 4.333320877796044e+00	 4.002236712276974e-01
0	 3.266639999998547e+01	 4.666660422230755e+00	 4.503444203614054e-01
0	 3.266639999998547e+01	 4.999999999999998e+00	 5.004762163098522e-01
0	 3.266639999998548e+01	 5.333339577769244e+00	 5.506190741112559e-01
0	 3.266639999998547e+01	 5.666679122203955e+00	 6.007730088092174e-01
0	 3.266639999998546e+01	 6.000018599969598e+00	 6.509380354549156e-01
0	 3.266639999998547e+01	 6.333357977731643e+00	 7.011141691090907e-01
0	 3.266639999998547e+01	 6.666697222155555e+00	 7.513014248331977e-01
0	 3.333299999998333e+01	 3.333302777844445e+00	 2.434981065619550e-01
0	 3.333299999998333e+01	 3.666642022268356e+00	 2.949110643558125e-01
0	 3.333299999998333e+01	 3.999981400030399e+00	 3.463489586287040e-01
0	 3.333299999998334e+01	 4.333320877796044e+00	 3.978118047817112e-01
0	 3.333299999998334e+01	 4.666660422230756e+00	 4.492996182401170e-01
0	 3.333299999998333e+01	 5.000000000000001e+00	 5.008124144337248e-01
0	 3.333299999998333e+01	 5.333339577769244e+00	 5.523502088179921e-01
0	 3.333299999998334e+01	 5.666679122203956e+00	 6.039130168554933e-01
0	 3.333299999998333e+01	 6.000018599969600e+00	 6.555008540253801e-01
0	 3.333299999998334e+01	 6.333357977731643e+00	 7.071137358272409e-01
0	 3.333299999998334e+01	 6.666697222155556e+00	 7.587516777666836e-01
0	 2.666700000001667e+01	 6.666697222155555e+00	 7.002440286451557e-01
0	 2.666700000001666e+01	 7.000026324936849e+00	 7.389895951775737e-01
0	 2.666700000001667e+01	 7.333355377721246e+00	 7.753307376160637e-01
0	 2.666700000001666e+01	 7.666684497174507e+00	 8.092674179834821e-01
0	 2.666700000001666e+01	 8.000013799962403e+00	 8.407996033514183e-01
0	 2.666700000001666e+01	 8.333343402750696e+00	 8.699272658395840e-01
0	 2.666700000001667e+01	 8.666673422205159e+00	 8.966503826204668e-01
0	 2.666700000001667e+01	 9.000003974991555e+00	 9.209689359121093e-01
0	 2.666700000001667e+01	 9.333335177775648e+00	 9.428829129854339e-01
0	 2.666700000001666e+01	 9.666667147223212e+00	 9.623923061640309e-01
0	 2.666700000001667e+01	 1.000000000000000e+01	 9.794971128056188e-01
0	 2.733360000001452e+01	 6.666697222155554e+00	 6.922393001191134e-01
0	 2.733360000001453e+01	 7.000026324936849e+00	 7.296755173233350e-01
0	 2.733360000001454e+01	 7.333355377721247e+00	 7.651392557988391e-01
0	 2.733360000001453e+01	 7.666684497174508e+00	 7.986304784549744e-01
0	 2.733360000001453e+01	 8.000013799962401e+00	 8.301491523466950e-01
0	 2.733360000001453e+01	 8.333343402750696e+00	 8.596952486695849e-01
0	 2.733360000001454e+01	 8.666673422205159e+00	 8.872687427621668e-01
0	 2.733360000001453e+01	 9.000003974991554e+00	 9.128696141040453e-01
0	 2.733360000001453e+01	 9.333335177775648e+00	 9.364978463183126e-01
0	 2.733360000001453e+01	 9.666667147223208e+00	 9.581534271736236e-01
0	 2.733360000001453e+01	 1.000000000000000e+01	 9.778363485735618e-01
0	 2.800020000001160e+01	 6.666697222155557e+00	 6.900371268952789e-01
0	 2.800020000001160e+01	 7.000026324936850e+00	 7.271529205857806e-01
0	 2.800020000001160e+01	 7.333355377721246e+00	 7.624378627803148e-01
0	 2.800020000001159e+01	 7.666684497174506e+00	 7.958919165649221e-01
0	 2.800020000001160e+01	 8.000013799962403e+00	 8.275150488740657e-01
0	 2.800020000001159e+01	 8.333343402750694e+00	 8.573072304856960e-01
0	 2.800020000001160e+01	 8.666673422205159e+00	 8.852684360241279e-01
0	 2.800020000001160e+01	 9.000003974991554e+00	 9.113986439502429e-01
0	 2.800020000001159e+01	 9.333335177775647e+00	 9.356978365875124e-01
0	 2.800020000001159e+01	 9.666667147223208e+00	 9.581660000894857e-01
0	 2.800020000001160e+01	 1.000000000000000e+01	 9.788031244596423e-01
0	 2.866680000000806e+01	 6.666697222155554e+00	 6.926161751856493e-01
0	 2.866680000000806e+01	 7.000026324936848e+00	 7.302248697563903e-01
0	 2.866680000000806e+01	 7.333355377721245e+00	 7.659041429529237e-01
0	 2.866680000000806e+01	 7.666684497174508e+00	 7.996539574582479e-01
0	 2.866680000000808e+01	 8.000013799962403e+00	 8.314742800051890e-01
0	 2.866680000000807e+01	 8.333343402750696e+00	 8.613650813824970e-01
0	 2.866680000000807e+01	 8.666673422205157e+00	 8.893263364232273e-01
0	 2.866680000000807e+01	 9.000003974991555e+00	 9.153580240169981e-01
0	 2.866680000000806e+01	 9.333335177775647e+00	 9.394601271075227e-01
0	 2.866680000000806e+01	 9.666667147223212e+00	 9.616326326884466e-01
0	 2.866680000000807e+01	 1.000000000000000e+01	 9.818755318069365e-01
0	 2.933340000000414e+01	 6.666697222155555e+00	 6.989551112085941e-01
0	 2.933340000000414e+01	 7.000026324936849e+00	 7.376944296218215e-01
0	 2.933340000000413e+01	 7.333355377721244e+00	 7.742156807042290e-01
0	 2.933340000000414e+01	 7.666684497174507e+00	 8.085188262756955e-01
0	 2.933340000000413e+01	 8.000013799962401e+00	 8.406038328131812e-01
0	 2.933340000000414e+01	 8.333343402750698e+00	 8.704706714505113e-01
0	 2.933340000000413e+01	 8.666673422205159e+00	 8.981193179832483e-01
0	 2.933340000000414e+01	 9.000003974991554e+00	 9.235497528603611e-01
0	 2.933340000000413e+01	 9.333335177775650e+00	 9.467619611934347e-01
0	 2.933340000000414e+01	 9.666667147223212e+00	 9.677559327516769e-01
0	 2.933340000000413e+01	 1.000000000000000e+01	 9.865316619628042e-01
0	 3.000000000000000e+01	 6.666697222155555e+00	 7.080326011795469e-01
0	 3.000000000000000e+01	 7.000026324936851e+00	 7.483646649769695e-01
0	 3.000000000000000e+01	 7.333355377721245e+00	 7.860500604280622e-01
0	 3.000000000000001e+01	 7.666684497174508e+00	 8.210887481624930e-01
0	 3.000000000000001e+01	 8.000013799962403e+00	 8.534806943664741e-01
0	 3.000000000000000e+01	 8.333343402750696e+00	 8.832258707868018e-01
0	 3.000000000000001e+01	 8.666673422205159e+00	 9.103242547250061e-01
0	 3.000000000000000e+01	 9.000003974991552e+00	 9.347758290411891e-01
0	 3.000000000000000e+01	 9.333335177775648e+00	 9.565805821615155e-01
0	 3.000000000000000e+01	 9.666667147223210e+00	 9.757385080594311e-01
0	 3.000000000000000e+01	 1.000000000000000e+01	 9.922496062718098e-01
0	 3.066659999999587e+01	 6.666697222155556e+00	 7.188273113108461e-01
0	 3.066659999999587e+01	 7.000026324936851e+00	 7.610386406071284e-01
0	 3.066659999999586e+01	 7.333355377721243e+00	 8.000848665115206e-01
0	 3.066659999999587e+01	 7.666684497174508e+00	 8.359659482599656e-01
0	 3.066659999999587e+01	 8.000013799962403e+00	 8.686818517397286e-01
0	 3.066659999999587e+01	 8.333343402750696e+00	 8.982325494836011e-01
0	 3.066659999999587e+01	 8.666673422205157e+00	 9.246180206693630e-01
0	 3.066659999999587e+01	 9.000003974991554e+00	 9.478382511284601e-01
0	 3.066659999999587e+01	 9.333335177775647e+00	 9.678932333276168e-01
0	 3.066659999999587e+01	 9.666667147223210e+00	 9.847829663963592e-01
0	 3.066659999999587e+01	 9.999999999999998e+00	 9.985074560881388e-01
0	 3.133319999999194e+01	 6.666697222155555e+00	 7.303179078205045e-01
0	 3.133319999999193e+01	 7.000026324936850e+00	 7.745194213076944e-01
0	 3.133319999999194e+01	 7.333355377721246e+00	 8.149976833463117e-01
0	 3.133319999999194e+01	 7.666684497174508e+00	 8.517526517131850e-01
0	 3.133319999999194e+01	 8.000013799962403e+00	 8.847842920053314e-01
0	 3.133319999999193e+01	 8.333343402750698e+00	 9.140925776353952e-01
0	 3.133319999999194e+01	 8.666673422205159e+00	 9.396774898392467e-01
0	 3.133319999999193e+01	 9.000003974991554e+00	 9.615390176720490e-01
0	 3.133319999999193e+01	 9.333335177775648e+00	 9.796771580047621e-01
0	 3.133319999999194e+01	 9.666667147223212e+00	 9.940919155289145e-01
0	 3.133319999999194e+01	 1.000000000000000e+01	 1.004783302750947e+00
0	 3.199979999998840e+01	 6.666697222155555e+00	 7.414830569232026e-01
0	 3.199979999998840e+01	 7.000026324936849e+00	 7.876100718657537e-01
0	 3.199979999998839e+01	 7.333355377721245e+00	 8.294660953219398e-01
0	 3.199979999998840e+01	 7.666684497174507e+00	 8.670510836637433e-01
0	 3.199979999998840e+01	 8.000013799962401e+00	 9.003650022312895e-01
0	 3.199979999998840e+01	 8.333343402750700e+00	 9.294078253347700e-01
0	 3.199979999998841e+01	 8.666673422205159e+00	 9.541795362572851e-01
0	 3.199979999998841e+01	 9.000003974991554e+00	 9.746801272428044e-01
0	 3.199979999998840e+01	 9.333335177775648e+00	 9.909095995103867e-01
0	 3.199979999998840e+01	 9.666667147223208e+00	 1.002867963250613e+00
0	 3.199979999998840e+01	 1.000000000000000e+01	 1.010555237614525e+00
0	 3.266639999998547e+01	 6.666697222155555e+00	 7.513014248331978e-01
0	 3.266639999998547e+01	 7.000026324936850e+00	 7.991136570714766e-01
0	 3.266639999998547e+01	 7.333355377721245e+00	 8.421676868261910e-01
0	 3.266639999998547e+01	 7.666684497174506e+00	 8.804634692522719e-01
0	 3.266639999998547e+01	 8.000013799962401e+00	 9.140009694915573e-01
0	 3.266639999998547e+01	 8.333343402750700e+00	 9.427801626786328e-01
0	 3.266639999998547e+01	 8.666673422205157e+00	 9.668010339386991e-01
0	 3.266639999998547e+01	 9.000003974991554e+00	 9.860635783962191e-01
0	 3.266639999998547e+01	 9.333335177775652e+00	 1.000567801159203e+00
0	 3.266639999998547e+01	 9.666667147223210e+00	 1.010313717332592e+00
0	 3.266639999998547e+01	 1.000000000000000e+01	 1.015301352017542e+00
0	 3.333299999998334e+01	 6.666697222155556e+00	 7.587516777666835e-01
0	 3.333299999998334e+01	 7.000026324936851e+00	 8.078332417132443e-01
0	 3.333299999998334e+01	 7.333355377721245e+00	 8.517800422548276e-01
0	 3.333299999998333e+01	 7.666684497174505e+00	 8.905920336250245e-01
0	 3.333299999998334e+01	 8.000013799962403e+00	 9.242691808586505e-01
0	 3.333299999998334e+01	 8.333343402750698e+00	 9.528114597579790e-01
0	 3.333299999998334e+01	 8.666673422205157e+00	 9.762188569090733e-01
0	 3.333299999998334e+01	 9.000003974991555e+00	 9.944913696955241e-01
0	 3.333299999998334e+01	 9.333335177775650e+00	 1.007629006268753e+00
0	 3.333299999998334e+01	 9.666667147223210e+00	 1.015631785568042e+00
0	 3.333299999998333e+01	 1.000000000000000e+01	 1.018499737319090e+00
0	 3.333299999998333e+01	 0.000000000000000e+00	-1.799932474763779e-02
0	 3.333299999998334e+01	 3.333328527767944e-01	-1.457402105039831e-02
0	 3.333299999998333e+01	 6.666648222243554e-01	-6.098868681651119e-03
0	 3.333299999998334e+01	 9.999960250084502e-01	 7.426160936742103e-03
0	 3.333299999998333e+01	 1.333326577794845e+00	 2.600108580312233e-02
0	 3.333299999998334e+01	 1.666656597249306e+00	 4.962591330360600e-02
0	 3.333299999998333e+01	 1.999986200037600e+00	 7.830064022312035e-02
0	 3.333299999998333e+01	 2.333315502825495e+00	 1.120252527407231e-01
0	 3.333299999998334e+01	 2.666644622278756e+00	 1.507997264216040e-01
0	 3.333299999998334e+01	 2.999973675063150e+00	 1.946240262422095e-01
0	 3.333299999998333e+01	 3.333302777844445e+00	 2.434981065619550e-01
0	 3.399969999998215e+01	 0.000000000000000e+00	-2.032235553931298e-02
0	 3.399969999998214e+01	 3.333328527767945e-01	-1.784764924099401e-02
0	 3.399969999998213e+01	 6.666648222243552e-01	-1.014237554266772e-02
0	 3.399969999998216e+01	 9.999960250084502e-01	 2.793496285077368e-03
0	 3.399969999998213e+01	 1.333326577794845e+00	 2.095998600412988e-02
0	 3.399969999998216e+01	 1.666656597249305e+00	 4.435710239994496e-02
0	 3.399969999998214e+01	 1.999986200037601e+00	 7.298484326281632e-02
0	 3.399969999998215e+01	 2.333315502825495e+00	 1.068431954044016e-01
0	 3.399969999998215e+01	 2.666644622278756e+00	 1.459321346484871e-01
0	 3.399969999998215e+01	 2.999973675063150e+00	 1.902516258365928e-01
0	 3.399969999998213e+01	 3.333302777844444e+00	 2.398016228246882e-01
0	 3.466639999998186e+01	 0.000000000000000e+00	-2.037709067446401e-02
0	 3.466639999998186e+01	 3.333328527767945e-01	-1.834659774243048e-02
0	 3.466639999998186e+01	 6.666648222243556e-01	-1.101177826049635e-02
0	 3.466639999998186e+01	 9.999960250084501e-01	 1.627399456456458e-03
0	 3.466639999998186e+01	 1.333326577794844e+00	 1.957095596265493e-02
0	 3.466639999998186e+01	 1.666656597249305e+00	 4.281890065077722e-02
0	 3.466639999998186e+01	 1.999986200037600e+00	 7.137123179465348e-02
0	 3.466639999998186e+01	 2.333315502825494e+00	 1.052279365189855e-01
0	 3.466639999998186e+01	 2.666644622278755e+00	 1.443889908099807e-01
0	 3.466639999998186e+01	 2.999973675063150e+00	 1.888543595188657e-01
0	 3.466639999998186e+01	 3.333302777844445e+00	 2.386239963491621e-01
0	 3.533309999998238e+01	 0.000000000000000e+00	-1.859557198887793e-02
0	 3.533309999998239e+01	 3.333328527767945e-01	-1.658234087596275e-02
0	 3.533309999998237e+01	 6.666648222243556e-01	-9.280432457995506e-03
0	 3.533309999998239e+01	 9.999960250084500e-01	 3.310184864444825e-03
0	 3.533309999998236e+01	 1.333326577794844e+00	 2.118953158779475e-02
0	 3.533309999998239e+01	 1.666656597249306e+00	 4.435761710057939e-02
0	 3.533309999998237e+01	 1.999986200037600e+00	 7.281443968704859e-02
0	 3.533309999998237e+01	 2.333315502825495e+00	 1.065599865222423e-01
0	 3.533309999998237e+01	 2.666644622278755e+00	 1.455942336764199e-01
0	 3.533309999998236e+01	 2.999973675063150e+00	 1.899171461127000e-01
0	 3.533309999998237e+01	 3.333302777844446e+00	 2.395286776937588e-01
0	 3.599979999998359e+01	 0.000000000000000e+00	-1.540984134886711e-02
0	 3.599979999998359e+01	 3.333328527767944e-01	-1.306635293166565e-02
0	 3.599979999998359e+01	 6.666648222243554e-01	-5.521693748323317e-03
0	 3.599979999998359e+01	 9.999960250084500e-01	 7.224166899899660e-03
0	 3.599979999998358e+01	 1.333326577794844e+00	 2.517124879678817e-02
0	 3.599979999998360e+01	 1.666656597249306e+00	 4.831956078539375e-02
0	 3.599979999998358e+01	 1.999986200037600e+00	 7.666910080155853e-02
0	 3.599979999998358e+01	 2.333315502825494e+00	 1.102198558479088e-01
0	 3.599979999998359e+01	 2.666644622278755e+00	 1.489718020095928e-01
0	 3.599979999998359e+01	 2.999973675063150e+00	 1.929249044472705e-01
0	 3.599979999998359e+01	 3.333302777844445e+00	 2.420791174058976e-01
0	 3.666649999998540e+01	 0.000000000000000e+00	-1.125194059532143e-02
0	 3.666649999998540e+01	 3.333328527767944e-01	-8.310108227713648e-03
0	 3.666649999998540e+01	 6.666648222243554e-01	-3.089177559474251e-04
0	 3.666649999998542e+01	 9.999960250084503e-01	 1.275165997054161e-02
0	 3.666649999998540e+01	 1.333326577794845e+00	 3.087164350543020e-02
0	 3.666649999998539e+01	 1.666656597249306e+00	 5.405104075040880e-02
0	 3.666649999998542e+01	 1.999986200037600e+00	 8.228984900321157e-02
0	 3.666649999998540e+01	 2.333315502825494e+00	 1.155880549329168e-01
0	 3.666649999998540e+01	 2.666644622278755e+00	 1.539456345759498e-01
0	 3.666649999998540e+01	 2.999973675063150e+00	 1.973625533477869e-01
0	 3.666649999998541e+01	 3.333302777844445e+00	 2.458387660438589e-01
0	 3.733319999998772e+01	 0.000000000000000e+00	-6.553911585750640e-03
0	 3.733319999998773e+01	 3.333328527767944e-01	-2.825081046941540e-03
0	 3.733319999998772e+01	 6.666648222243557e-01	 5.784539908336278e-03
0	 3.733319999998773e+01	 9.999960250084501e-01	 1.927497848080113e-02
0	 3.733319999998773e+01	 1.333326577794845e+00	 3.764625161964402e-02
0	 3.733319999998771e+01	 1.666656597249306e+00	 6.089836603401966e-02
0	 3.733319999998772e+01	 1.999986200037600e+00	 8.903131816154287e-02
0	 3.733319999998773e+01	 2.333315502825494e+00	 1.220450942147159e-01
0	 3.733319999998772e+01	 2.666644622278756e+00	 1.599396701392219e-01
0	 3.733319999998771e+01	 2.999973675063150e+00	 2.027150116372064e-01
0	 3.733319999998772e+01	 3.333302777844445e+00	 2.503710741605865e-01
0	 3.799989999999043e+01	 0.000000000000000e+00	-1.747796168227700e-03
0	 3.799989999999043e+01	 3.333328527767944e-01	 2.877254286759373e-03
0	 3.799989999999044e+01	 6.666648222243557e-01	 1.218532362534553e-02
0	 3.799989999999044e+01	 9.999960250084502e-01	 2.617643682939997e-02
0	 3.799989999999044e+01	 1.333326577794845e+00	 4.485060907137589e-02
0	 3.799989999999044e+01	 1.666656597249306e+00	 6.820784567461174e-02
0	 3.799989999999043e+01	 1.999986200037599e+00	 9.624814214280884e-02
0	 3.799989999999044e+01	 2.333315502825494e+00	 1.289714841324770e-01
0	 3.799989999999045e+01	 2.666644622278756e+00	 1.663778474680840e-01
0	 3.799989999999044e+01	 2.999973675063150e+00	 2.084671981406546e-01
0	 3.799989999999043e+01	 3.333302777844445e+00	 2.552394923121010e-01
0	 3.866659999999345e+01	 0.000000000000000e+00	 2.734363798072318e-03
0	 3.866659999999345e+01	 3.333328527767945e-01	 8.285423484182347e-03
0	 3.866659999999345e+01	 6.666648222243556e-01	 1.832007777539538e-02
0	 3.866659999999345e+01	 9.999960250084501e-01	 3.283834941706220e-02
0	 3.866659999999344e+01	 1.333326577794844e+00	 5.184025175866703e-02
0	 3.866659999999346e+01	 1.666656597249306e+00	 7.532578871874254e-02
0	 3.866659999999344e+01	 1.999986200037600e+00	 1.032949548090143e-01
0	 3.866659999999345e+01	 2.333315502825494e+00	 1.357477351165670e-01
0	 3.866659999999345e+01	 2.666644622278756e+00	 1.726841053223774e-01
0	 3.866659999999344e+01	 2.999973675063151e+00	 2.141040316834453e-01
0	 3.866659999999344e+01	 3.333302777844445e+00	 2.600074710491970e-01
0	 3.933329999999666e+01	 0.000000000000000e+00	 6.460526472803532e-03
0	 3.933329999999668e+01	 3.333328527767944e-01	 1.288795223216261e-02
0	 3.933329999999666e+01	 6.666648222243555e-01	 2.361544674191941e-02
0	 3.933329999999667e+01	 9.999960250084502e-01	 3.864303065022894e-02
0	 3.933329999999666e+01	 1.333326577794845e+00	 5.797071560332286e-02
0	 3.933329999999666e+01	 1.666656597249305e+00	 8.159850420286832e-02
0	 3.933329999999667e+01	 1.999986200037600e+00	 1.095263900244978e-01
0	 3.933329999999666e+01	 2.333315502825495e+00	 1.417543576066007e-01
0	 3.933329999999666e+01	 2.666644622278755e+00	 1.782823824721593e-01
0	 3.933329999999666e+01	 2.999973675063150e+00	 2.191104310932049e-01
0	 3.933329999999665e+01	 3.333302777844444e+00	 2.642384609270098e-01
0	 4.000000000000000e+01	 0.000000000000000e+00	 8.998649998744839e-03
0	 4.000000000000001e+01	 3.333328527767945e-01	 1.617336623632614e-02
0	 3.999999999999999e+01	 6.666648222243553e-01	 2.749807490408645e-02
0	 4.000000000000000e+01	 9.999960250084500e-01	 4.297279493138771e-02
0	 4.000000000000001e+01	 1.333326577794845e+00	 6.259753651970680e-02
0	 4.000000000000001e+01	 1.666656597249306e+00	 8.637230117058288e-02
0	 4.000000000000000e+01	 1.999986200037600e+00	 1.142970816590089e-01
0	 4.000000000000001e+01	 2.333315502825495e+00	 1.463718620446189e-01
0	 4.000000000000000e+01	 2.666644622278756e+00	 1.825966176780380e-01
0	 4.000000000000001e+01	 2.999973675063151e+00	 2.229713151890954e-01
0	 4.000000000000001e+01	 3.333302777844445e+00	 2.674959124996317e-01
0	 3.333299999998333e+01	 3.333302777844445e+00	 2.434981065619550e-01
0	 3.333299999998333e+01	 3.666642022268356e+00	 2.949110643558125e-01
0	 3.333299999998333e+01	 3.999981400030399e+00	 3.463489586287040e-01
0	 3.333299999998334e+01	 4.333320877796044e+00	 3.978118047817112e-01
0	 3.333299999998334e+01	 4.666660422230756e+00	 4.492996182401170e-01
0	 3.333299999998333e+01	 5.000000000000001e+00	 5.008124144337248e-01
0	 3.333299999998333e+01	 5.333339577769244e+00	 5.523502088179921e-01
0	 3.333299999998334e+01	 5.666679122203956e+00	 6.039130168554933e-01
0	 3.333299999998333e+01	 6.000018599969600e+00	 6.555008540253801e-01
0	 3.333299999998334e+01	 6.333357977731643e+00	 7.071137358272409e-01
0	 3.333299999998334e+01	 6.666697222155556e+00	 7.587516777666834e-01
0	 3.399969999998213e+01	 3.333302777844444e+00	 2.398016228246881e-01
0	 3.399969999998213e+01	 3.666642022268355e+00	 2.919843636142775e-01
0	 3.399969999998216e+01	 3.999981400030400e+00	 3.441990029321458e-01
0	 3.399969999998213e+01	 4.333320877796043e+00	 3.964455564041588e-01
0	 3.399969999998215e+01	 4.666660422230755e+00	 4.487240396830119e-01
0	 3.399969999998214e+01	 4.999999999999999e+00	 5.010344684371196e-01
0	 3.399969999998216e+01	 5.333339577769244e+00	 5.533768583554222e-01
0	 3.399969999998213e+01	 5.666679122203955e+00	 6.057512251474051e-01
0	 3.399969999998215e+01	 6.000018599969599e+00	 6.581575845382488e-01
0	 3.399969999998213e+01	 6.333357977731642e+00	 7.105959522751206e-01
0	 3.399969999998215e+01	 6.666697222155557e+00	 7.630663441225252e-01
0	 3.466639999998186e+01	 3.333302777844445e+00	 2.386239963491621e-01
0	 3.466639999998186e+01	 3.666642022268356e+00	 2.910636266148047e-01
0	 3.466639999998186e+01	 3.999981400030400e+00	 3.435358771772508e-01
0	 3.466639999998186e+01	 4.333320877796044e+00	 3.960407637403837e-01
0	 3.466639999998186e+01	 4.666660422230756e+00	 4.485783020350554e-01
0	 3.466639999998185e+01	 4.999999999999998e+00	 5.011485078079250e-01
0	 3.466639999998186e+01	 5.333339577769244e+00	 5.537513968240766e-01
0	 3.466639999998185e+01	 5.666679122203953e+00	 6.063869848720734e-01
0	 3.466639999998186e+01	 6.000018599969600e+00	 6.590552877560497e-01
0	 3.466639999998186e+01	 6.333357977731643e+00	 7.117563213018047e-01
0	 3.466639999998186e+01	 6.666697222155557e+00	 7.644901013519445e-01
0	 3.533309999998237e+01	 3.333302777844446e+00	 2.395286776937588e-01
0	 3.533309999998239e+01	 3.666642022268356e+00	 2.918002440683769e-01
0	 3.533309999998238e+01	 3.999981400030399e+00	 3.441001722616145e-01
0	 3.533309999998237e+01	 4.333320877796044e+00	 3.964284779337036e-01
0	 3.533309999998238e+01	 4.666660422230755e+00	 4.487851767624326e-01
0	 3.533309999998238e+01	 4.999999999999998e+00	 5.011702844403719e-01
0	 3.533309999998239e+01	 5.333339577769244e+00	 5.535838166838295e-01
0	 3.533309999998237e+01	 5.666679122203954e+00	 6.060257892135099e-01
0	 3.533309999998239e+01	 6.000018599969598e+00	 6.584962177827653e-01
0	 3.533309999998239e+01	 6.333357977731644e+00	 7.109951181510153e-01
0	 3.533309999998238e+01	 6.666697222155555e+00	 7.635225060967270e-01
0	 3.599979999998359e+01	 3.333302777844445e+00	 2.420791174058976e-01
0	 3.599979999998359e+01	 3.666642022268356e+00	 2.938456066864089e-01
0	 3.599979999998359e+01	 3.999981400030400e+00	 3.456324790895325e-01
0	 3.599979999998359e+01	 4.333320877796044e+00	 3.974397501277502e-01
0	 3.599979999998359e+01	 4.666660422230756e+00	 4.492674353259614e-01
0	 3.599979999998359e+01	 4.999999999999999e+00	 5.011155502284381e-01
0	 3.599979999998359e+01	 5.333339577769244e+00	 5.529841103844825e-01
0	 3.599979999998360e+01	 5.666679122203954e+00	 6.048731313578364e-01
0	 3.599979999998359e+01	 6.000018599969598e+00	 6.567826287249223e-01
0	 3.599979999998359e+01	 6.333357977731643e+00	 7.087126180748756e-01
0	 3.599979999998359e+01	 6.666697222155554e+00	 7.606631150085743e-01
0	 3.666649999998541e+01	 3.333302777844445e+00	 2.458387660438589e-01
0	 3.666649999998540e+01	 3.666642022268356e+00	 2.968511051845789e-01
0	 3.666649999998540e+01	 3.999981400030400e+00	 3.478733885574274e-01
0	 3.666649999998540e+01	 4.333320877796045e+00	 3.989056314590929e-01
0	 3.666649999998540e+01	 4.666660422230755e+00	 4.499478491921262e-01
0	 3.666649999998540e+01	 5.000000000000000e+00	 5.010000570629464e-01
0	 3.666649999998540e+01	 5.333339577769244e+00	 5.520622703880891e-01
0	 3.666649999998540e+01	 5.666679122203953e+00	 6.031345044881237e-01
0	 3.666649999998540e+01	 6.000018599969597e+00	 6.542167746878910e-01
0	 3.666649999998540e+01	 6.333357977731643e+00	 7.053090963254544e-01
0	 3.666649999998540e+01	 6.666697222155554e+00	 7.564114847291826e-01
0	 3.733319999998772e+01	 3.333302777844445e+00	 2.503710741605865e-01
0	 3.733319999998772e+01	 3.666642022268356e+00	 3.004681302733117e-01
0	 3.733319999998772e+01	 3.999981400030399e+00	 3.505634915667320e-01
0	 3.733319999998773e+01	 4.333320877796043e+00	 4.006571730723836e-01
0	 3.733319999998772e+01	 4.666660422230755e+00	 4.507491898207837e-01
0	 3.733319999998773e+01	 4.999999999999999e+00	 5.008395568380740e-01
0	 3.733319999998773e+01	 5.333339577769244e+00	 5.509282891538085e-01
0	 3.733319999998772e+01	 5.666679122203954e+00	 6.010154017930304e-01
0	 3.733319999998771e+01	 6.000018599969599e+00	 6.511009097821892e-01
0	 3.733319999998772e+01	 6.333357977731643e+00	 7.011848281461877e-01
0	 3.733319999998773e+01	 6.666697222155555e+00	 7.512671719097547e-01
0	 3.799989999999043e+01	 3.333302777844445e+00	 2.552394923121009e-01
0	 3.799989999999043e+01	 3.666642022268356e+00	 3.043480726661821e-01
0	 3.799989999999043e+01	 3.999981400030400e+00	 3.534433790198212e-01
0	 3.799989999999043e+01	 4.333320877796043e+00	 4.025254261094892e-01
0	 3.799989999999043e+01	 4.666660422230753e+00	 4.515942286770188e-01
0	 3.799989999999043e+01	 4.999999999999999e+00	 5.006498014443916e-01
0	 3.799989999999043e+01	 5.333339577769243e+00	 5.496921591345282e-01
0	 3.799989999999044e+01	 5.666679122203954e+00	 5.987213164543851e-01
0	 3.799989999999045e+01	 6.000018599969600e+00	 6.477372881088204e-01
0	 3.799989999999043e+01	 6.333357977731643e+00	 6.967400887909652e-01
0	 3.799989999999043e+01	 6.666697222155555e+00	 7.457297331927298e-01
0	 3.866659999999344e+01	 3.333302777844445e+00	 2.600074710491969e-01
0	 3.866659999999344e+01	 3.666642022268355e+00	 3.081423230759238e-01
0	 3.866659999999345e+01	 3.999981400030399e+00	 3.562536418118055e-01
0	 3.866659999999344e+01	 4.333320877796043e+00	 4.043414417135074e-01
0	 3.866659999999346e+01	 4.666660422230754e+00	 4.524057372269646e-01
0	 3.866659999999344e+01	 4.999999999999998e+00	 5.004465427799095e-01
0	 3.866659999999345e+01	 5.333339577769243e+00	 5.484638727899663e-01
0	 3.866659999999345e+01	 5.666679122203956e+00	 5.964577416589200e-01
0	 3.866659999999344e+01	 6.000018599969598e+00	 6.444281637731166e-01
0	 3.866659999999345e+01	 6.333357977731641e+00	 6.923751535089379e-01
0	 3.866659999999344e+01	 6.666697222155556e+00	 7.402987252241868e-01
0	 3.933329999999665e+01	 3.333302777844444e+00	 2.642384609270098e-01
0	 3.933329999999666e+01	 3.666642022268356e+00	 3.115022722152942e-01
0	 3.933329999999667e+01	 3.999981400030400e+00	 3.587348708465413e-01
0	 3.933329999999667e+01	 4.333320877796043e+00	 4.059362710237999e-01
0	 3.933329999999666e+01	 4.666660422230755e+00	 4.531064869306501e-01
0	 3.933329999999665e+01	 4.999999999999998e+00	 5.002455327323005e-01
0	 3.933329999999667e+01	 5.333339577769243e+00	 5.473534225760504e-01
0	 3.933329999999668e+01	 5.666679122203955e+00	 5.944301705906039e-01
0	 3.933329999999667e+01	 6.000018599969599e+00	 6.414757908857425e-01
0	 3.933329999999667e+01	 6.333357977731642e+00	 6.884902975475362e-01
0	 3.933329999999667e+01	 6.666697222155556e+00	 7.354737046529765e-01
0	 4.000000000000001e+01	 3.333302777844445e+00	 2.674959124996317e-01
0	 4.000000000000001e+01	 3.666642022268356e+00	 3.140793107941753e-01
0	 4.000000000000001e+01	 3.999981400030400e+00	 3.606276570206739e-01
0	 4.000000000000001e+01	 4.333320877796045e+00	 4.071409651801461e-01
0	 4.000000000000000e+01	 4.666660422230755e+00	 4.536192492520390e-01
0	 4.000000000000001e+01	 4.999999999999999e+00	 5.000625231971115e-01
0	 4.000000000000001e+01	 5.333339577769244e+00	 5.464708009539957e-01
0	 3.999999999999999e+01	 5.666679122203954e+00	 5.928440964382370e-01
0	 4.000000000000000e+01	 6.000018599969598e+00	 6.391824235464858e-01
0	 4.000000000000000e+01	 6.333357977731642e+00	 6.854857961576917e-01
0	 4.000000000000001e+01	 6.666697222155556e+00	 7.317542281232021e-01
0	 3.333299999998334e+01	 6.666697222155556e+00	 7.587516777666835e-01
0	 3.333299999998334e+01	 7.000026324936851e+00	 8.078332417132443e-01
0	 3.333299999998334e+01	 7.333355377721245e+00	 8.517800422548275e-01
0	 3.333299999998333e+01	 7.666684497174505e+00	 8.905920336250245e-01
0	 3.333299999998334e+01	 8.000013799962403e+00	 9.242691808586505e-01
0	 3.333299999998334e+01	 8.333343402750698e+00	 9.528114597579790e-01
0	 3.333299999998334e+01	 8.666673422205157e+00	 9.762188569090733e-01
0	 3.333299999998334e+01	 9.000003974991555e+00	 9.944913696955241e-01
0	 3.333299999998334e+01	 9.333335177775650e+00	 1.007629006268753e+00
0	 3.333299999998334e+01	 9.666667147223210e+00	 1.015631785568042e+00
0	 3.333299999998333e+01	 1.000000000000000e+01	 1.018499737319090e+00
0	 3.399969999998215e+01	 6.666697222155557e+00	 7.630663441225251e-01
0	 3.399969999998215e+01	 7.000026324936850e+00	 8.128697901186984e-01
0	 3.399969999998213e+01	 7.333355377721244e+00	 8.573104224307021e-01
0	 3.399969999998215e+01	 7.666684497174509e+00	 8.963881947995986e-01
0	 3.399969999998215e+01	 8.000013799962403e+00	 9.301030722250898e-01
0	 3.399969999998216e+01	 8.333343402750698e+00	 9.584550309713592e-01
0	 3.399969999998213e+01	 8.666673422205157e+00	 9.814440585638985e-01
0	 3.399969999998215e+01	 9.000003974991552e+00	 9.990701537940969e-01
0	 3.399969999998215e+01	 9.333335177775648e+00	 1.011333326708346e+00
0	 3.399969999998214e+01	 9.666667147223212e+00	 1.018233598617778e+00
0	 3.399969999998215e+01	 1.000000000000000e+01	 1.019771002105888e+00
0	 3.466639999998186e+01	 6.666697222155557e+00	 7.644901013519445e-01
0	 3.466639999998186e+01	 7.000026324936849e+00	 8.145120173543237e-01
0	 3.466639999998186e+01	 7.333355377721247e+00	 8.590805764816197e-01
0	 3.466639999998186e+01	 7.666684497174507e+00	 8.981957323405336e-01
0	 3.466639999998186e+01	 8.000013799962403e+00	 9.318574500006579e-01
0	 3.466639999998186e+01	 8.333343402750698e+00	 9.600657059751908e-01
0	 3.466639999998186e+01	 8.666673422205159e+00	 9.828204882332611e-01
0	 3.466639999998185e+01	 9.000003974991552e+00	 1.000121796196687e+00
0	 3.466639999998186e+01	 9.333335177775648e+00	 1.011969640737342e+00
0	 3.466639999998187e+01	 9.666667147223210e+00	 1.018364044178806e+00
0	 3.466639999998186e+01	 1.000000000000000e+01	 1.019305040312469e+00
0	 3.533309999998238e+01	 6.666697222155555e+00	 7.635225060967269e-01
0	 3.533309999998237e+01	 7.000026324936848e+00	 8.133477325150512e-01
0	 3.533309999998237e+01	 7.333355377721244e+00	 8.577432536945566e-01
0	 3.533309999998238e+01	 7.666684497174506e+00	 8.967090234241261e-01
0	 3.533309999998238e+01	 8.000013799962399e+00	 9.302450069054206e-01
0	 3.533309999998237e+01	 8.333343402750698e+00	 9.583511807291244e-01
0	 3.533309999998238e+01	 8.666673422205157e+00	 9.810275328986161e-01
0	 3.533309999998237e+01	 9.000003974991554e+00	 9.982740628127548e-01
0	 3.533309999998238e+01	 9.333335177775648e+00	 1.010090781280300e+00
0	 3.533309999998237e+01	 9.666667147223212e+00	 1.016477710508898e+00
0	 3.533309999998238e+01	 1.000000000000000e+01	 1.017434884108760e+00
0	 3.599979999998359e+01	 6.666697222155554e+00	 7.606631150085742e-01
0	 3.599979999998358e+01	 7.000026324936850e+00	 8.099647446891292e-01
0	 3.599979999998359e+01	 7.333355377721245e+00	 8.539512033546514e-01
0	 3.599979999998358e+01	 7.666684497174506e+00	 8.926224452172616e-01
0	 3.599979999998359e+01	 8.000013799962403e+00	 9.259784356498701e-01
0	 3.599979999998359e+01	 8.333343402750698e+00	 9.540191511926447e-01
0	 3.599979999998358e+01	 8.666673422205156e+00	 9.767445795386994e-01
0	 3.599979999998358e+01	 9.000003974991554e+00	 9.941547195587144e-01
0	 3.599979999998359e+01	 9.333335177775647e+00	 1.006249581267498e+00
0	 3.599979999998360e+01	 9.666667147223214e+00	 1.013029185858119e+00
0	 3.599979999998359e+01	 1.000000000000000e+01	 1.014493565672571e+00
0	 3.666649999998540e+01	 6.666697222155554e+00	 7.564114847291825e-01
0	 3.666649999998542e+01	 7.000026324936851e+00	 8.049508629744011e-01
0	 3.666649999998540e+01	 7.333355377721245e+00	 8.483571747559799e-01
0	 3.666649999998540e+01	 7.666684497174507e+00	 8.866303748862948e-01
0	 3.666649999998540e+01	 8.000013799962401e+00	 9.197704289538042e-01
0	 3.666649999998539e+01	 8.333343402750696e+00	 9.477773133240440e-01
0	 3.666649999998540e+01	 8.666673422205157e+00	 9.706510151454620e-01
0	 3.666649999998540e+01	 9.000003974991552e+00	 9.883915323440335e-01
0	 3.666649999998541e+01	 9.333335177775648e+00	 1.000998873627993e+00
0	 3.666649999998541e+01	 9.666667147223210e+00	 1.008473058484225e+00
0	 3.666649999998540e+01	 1.000000000000000e+01	 1.010814117177333e+00
0	 3.733319999998773e+01	 6.666697222155555e+00	 7.512671719097547e-01
0	 3.733319999998771e+01	 7.000026324936849e+00	 7.988938964587992e-01
0	 3.733319999998771e+01	 7.333355377721244e+00	 8.416139171862073e-01
0	 3.733319999998773e+01	 7.666684497174506e+00	 8.794271896046352e-01
0	 3.733319999998773e+01	 8.000013799962403e+00	 9.123336795320797e-01
0	 3.733319999998771e+01	 8.333343402750696e+00	 9.403333630851528e-01
0	 3.733319999998771e+01	 8.666673422205159e+00	 9.634262266929602e-01
0	 3.733319999998773e+01	 9.000003974991554e+00	 9.816122670812887e-01
0	 3.733319999998771e+01	 9.333335177775647e+00	 9.948914912848376e-01
0	 3.733319999998771e+01	 9.666667147223210e+00	 1.003263916644004e+00
0	 3.733319999998772e+01	 1.000000000000000e+01	 1.006729570799336e+00
0	 3.799989999999043e+01	 6.666697222155555e+00	 7.457297331927299e-01
0	 3.799989999999044e+01	 7.000026324936850e+00	 7.923816542357740e-01
0	 3.799989999999044e+01	 7.333355377721244e+00	 8.343741799316007e-01
0	 3.799989999999043e+01	 7.666684497174505e+00	 8.717072665401362e-01
0	 3.799989999999043e+01	 8.000013799962399e+00	 9.043808800951229e-01
0	 3.799989999999043e+01	 8.333343402750694e+00	 9.323949964347222e-01
0	 3.799989999999044e+01	 8.666673422205159e+00	 9.557496011660416e-01
0	 3.799989999999044e+01	 9.000003974991554e+00	 9.744446896872202e-01
0	 3.799989999999043e+01	 9.333335177775648e+00	 9.884802671691886e-01
0	 3.799989999999044e+01	 9.666667147223210e+00	 9.978563486044941e-01
0	 3.799989999999043e+01	 9.999999999999998e+00	 1.002572958715220e+00
0	 3.866659999999344e+01	 6.666697222155556e+00	 7.402987252241869e-01
0	 3.866659999999344e+01	 7.000026324936851e+00	 7.860019453996346e-01
0	 3.866659999999344e+01	 7.333355377721244e+00	 8.272907122839873e-01
0	 3.866659999999345e+01	 7.666684497174507e+00	 8.641649828593431e-01
0	 3.866659999999346e+01	 8.000013799962403e+00	 8.966247233693939e-01
0	 3.866659999999345e+01	 8.333343402750696e+00	 9.246699093350992e-01
0	 3.866659999999345e+01	 8.666673422205156e+00	 9.483005255459549e-01
0	 3.866659999999345e+01	 9.000003974991554e+00	 9.675165660632590e-01
0	 3.866659999999345e+01	 9.333335177775645e+00	 9.823180342232567e-01
0	 3.866659999999346e+01	 9.666667147223210e+00	 9.927049426113023e-01
0	 3.866659999999345e+01	 1.000000000000000e+01	 9.986773131095317e-01
0	 3.933329999999667e+01	 6.666697222155556e+00	 7.354737046529766e-01
0	 3.933329999999665e+01	 7.000026324936849e+00	 7.803425790416832e-01
0	 3.933329999999666e+01	 7.333355377721244e+00	 8.210162635306822e-01
0	 3.933329999999666e+01	 7.666684497174506e+00	 8.574947157331269e-01
0	 3.933329999999667e+01	 8.000013799962401e+00	 8.897779020601178e-01
0	 3.933329999999666e+01	 8.333343402750696e+00	 9.178657977438651e-01
0	 3.933329999999666e+01	 8.666673422205157e+00	 9.417583868200773e-01
0	 3.933329999999666e+01	 9.000003974991552e+00	 9.614556621331050e-01
0	 3.933329999999668e+01	 9.333335177775648e+00	 9.769576253445547e-01
0	 3.933329999999666e+01	 9.666667147223210e+00	 9.882642869298454e-01
0	 3.933329999999666e+01	 1.000000000000000e+01	 9.953756661465715e-01
0	 4.000000000000001e+01	 6.666697222155556e+00	 7.317542281232021e-01
0	 4.000000000000001e+01	 7.000026324936850e+00	 7.759913642525557e-01
0	 3.999999999999999e+01	 7.333355377721245e+00	 8.162035829657501e-01
0	 4.000000000000001e+01	 7.666684497174508e+00	 8.523908423334099e-01
0	 4.000000000000001e+01	 8.000013799962401e+00	 8.845531088911111e-01
0	 4.000000000000000e+01	 8.333343402750694e+00	 9.126903576202122e-01
0	 4.000000000000001e+01	 8.666673422205159e+00	 9.368025719649469e-01
0	 3.999999999999999e+01	 9.000003974991554e+00	 9.568897438063529e-01
0	 4.000000000000001e+01	 9.333335177775650e+00	 9.729518734916937e-01
0	 4.000000000000000e+01	 9.666667147223212e+00	 9.849889698095798e-01
0	 4.000000000000000e+01	 1.000000000000000e+01	 9.930010500119485e-01
0	 4.000000000000000e+01	 0.000000000000000e+00	 8.998649998744839e-03
0	 4.000000000000001e+01	 3.333328527767945e-01	 1.617336623632614e-02
0	 3.999999999999999e+01	 6.666648222243553e-01	 2.749807490408645e-02
0	 4.000000000000000e+01	 9.999960250084500e-01	 4.297279493138771e-02
0	 4.000000000000001e+01	 1.333326577794845e+00	 6.259753651970680e-02
0	 4.000000000000001e+01	 1.666656597249306e+00	 8.637230117058288e-02
0	 4.000000000000000e+01	 1.999986200037600e+00	 1.142970816590089e-01
0	 4.000000000000001e+01	 2.333315502825495e+00	 1.463718620446189e-01
0	 4.000000000000000e+01	 2.666644622278756e+00	 1.825966176780380e-01
0	 4.000000000000001e+01	 2.999973675063151e+00	 2.229713151890954e-01
0	 4.000000000000001e+01	 3.333302777844445e+00	 2.674959124996317e-01
0	 4.066670000000332e+01	 0.000000000000000e+00	 1.003220291363447e-02
0	 4.066670000000332e+01	 3.333328527767944e-01	 1.776289299712463e-02
0	 4.066670000000333e+01	 6.666648222243555e-01	 2.954047967272619e-02
0	 4.066670000000334e+01	 9.999960250084503e-01	 4.536498062053307e-02
0	 4.066670000000332e+01	 1.333326577794844e+00	 6.523640502092987e-02
0	 4.066670000000332e+01	 1.666656597249305e+00	 8.915475356175440e-02
0	 4.066670000000333e+01	 1.999986200037601e+00	 1.171200184279105e-01
0	 4.066670000000332e+01	 2.333315502825494e+00	 1.491321833063364e-01
0	 4.066670000000330e+01	 2.666644622278756e+00	 1.851912233875666e-01
0	 4.066670000000333e+01	 2.999973675063152e+00	 2.252971053634395e-01
0	 4.066670000000332e+01	 3.333302777844445e+00	 2.694497874223713e-01
0	 4.133340000000653e+01	 0.000000000000000e+00	 9.706695300231657e-03
0	 4.133340000000653e+01	 3.333328527767944e-01	 1.780856731855912e-02
0	 4.133340000000655e+01	 6.666648222243556e-01	 2.989867055694399e-02
0	 4.133340000000653e+01	 9.999960250084502e-01	 4.597702193744903e-02
0	 4.133340000000653e+01	 1.333326577794844e+00	 6.604362999475089e-02
0	 4.133340000000653e+01	 1.666656597249306e+00	 9.009849490137151e-02
0	 4.133340000000653e+01	 1.999986200037600e+00	 1.181416084495970e-01
0	 4.133340000000653e+01	 2.333315502825494e+00	 1.501729540527670e-01
0	 4.133340000000653e+01	 2.666644622278756e+00	 1.861925067596792e-01
0	 4.133340000000653e+01	 2.999973675063150e+00	 2.262002332276312e-01
0	 4.133340000000653e+01	 3.333302777844445e+00	 2.701960917530735e-01
0	 4.200010000000955e+01	 0.000000000000000e+00	 8.283147640505714e-03
0	 4.200010000000955e+01	 3.333328527767945e-01	 1.659512580492450e-02
0	 4.200010000000955e+01	 6.666648222243555e-01	 2.887453008643614e-02
0	 4.200010000000957e+01	 9.999960250084499e-01	 4.512137705360333e-02
0	 4.200010000000955e+01	 1.333326577794844e+00	 6.533567493067725e-02
0	 4.200010000000955e+01	 1.666656597249305e+00	 8.951742362150571e-02
0	 4.200010000000954e+01	 1.999986200037600e+00	 1.176666146957331e-01
0	 4.200010000000955e+01	 2.333315502825495e+00	 1.497832313963697e-01
0	 4.200010000000954e+01	 2.666644622278755e+00	 1.858672486251852e-01
0	 4.200010000000953e+01	 2.999973675063150e+00	 2.259186329587201e-01
0	 4.200010000000955e+01	 3.333302777844445e+00	 2.699373426464673e-01
0	 4.266680000001226e+01	 0.000000000000000e+00	 6.022580405107324e-03
0	 4.266680000001227e+01	 3.333328527767945e-01	 1.440730507218841e-02
0	 4.266680000001226e+01	 6.666648222243556e-01	 2.676994080346772e-02
0	 4.266680000001227e+01	 9.999960250084501e-01	 4.311050414846536e-02
0	 4.266680000001226e+01	 1.333326577794844e+00	 6.342900331527949e-02
0	 4.266680000001227e+01	 1.666656597249306e+00	 8.772543814800823e-02
0	 4.266680000001227e+01	 1.999986200037600e+00	 1.159998001436162e-01
0	 4.266680000001227e+01	 2.333315502825495e+00	 1.482520724406308e-01
0	 4.266680000001228e+01	 2.666644622278756e+00	 1.844822298308132e-01
0	 4.266680000001226e+01	 2.999973675063150e+00	 2.246902387406556e-01
0	 4.266680000001225e+01	 3.333302777844445e+00	 2.688760572556739e-01
0	 4.333350000001457e+01	 0.000000000000000e+00	 3.186014067633400e-03
0	 4.333350000001458e+01	 3.333328527767944e-01	 1.152984172469410e-02
0	 4.333350000001458e+01	 6.666648222243554e-01	 2.388678522760896e-02
0	 4.333350000001457e+01	 9.999960250084500e-01	 4.025686139508650e-02
0	 4.333350000001459e+01	 1.333326577794844e+00	 6.064007863447135e-02
0	 4.333350000001457e+01	 1.666656597249305e+00	 8.503643690820825e-02
0	 4.333350000001457e+01	 1.999986200037600e+00	 1.134459277591621e-01
0	 4.333350000001458e+01	 2.333315502825495e+00	 1.458685342959624e-01
0	 4.333350000001457e+01	 2.666644622278756e+00	 1.823042312067639e-01
0	 4.333350000001458e+01	 2.999973675063150e+00	 2.227529847450818e-01
0	 4.333350000001457e+01	 3.333302777844445e+00	 2.672147527434306e-01
0	 4.400020000001639e+01	 0.000000000000000e+00	 3.446912080980632e-05
0	 4.400020000001640e+01	 3.333328527767945e-01	 8.247472370455079e-03
0	 4.400020000001640e+01	 6.666648222243557e-01	 2.052694588888027e-02
0	 4.400020000001640e+01	 9.999960250084502e-01	 3.687290697495417e-02
0	 4.400020000001638e+01	 1.333326577794844e+00	 5.728536438411382e-02
0	 4.400020000001640e+01	 1.666656597249306e+00	 8.176431833502848e-02
0	 4.400020000001638e+01	 1.999986200037600e+00	 1.103097605177724e-01
0	 4.400020000001639e+01	 2.333315502825495e+00	 1.429216740677683e-01
0	 4.400020000001638e+01	 2.666644622278755e+00	 1.796000335919512e-01
0	 4.400020000001638e+01	 2.999973675063150e+00	 2.203448051509284e-01
0	 4.400020000001640e+01	 3.333302777844446e+00	 2.651559462627948e-01
0	 4.466690000001762e+01	 0.000000000000000e+00	-3.171033981006518e-03
0	 4.466690000001761e+01	 3.333328527767945e-01	 4.844933633270668e-03
0	 4.466690000001761e+01	 6.666648222243553e-01	 1.699230533713368e-02
0	 4.466690000001761e+01	 9.999960250084502e-01	 3.327109905358453e-02
0	 4.466690000001760e+01	 1.333326577794845e+00	 5.368132403932369e-02
0	 4.466690000001761e+01	 1.666656597249306e+00	 7.822298085141241e-02
0	 4.466690000001762e+01	 1.999986200037600e+00	 1.068960613896475e-01
0	 4.466690000001761e+01	 2.333315502825494e+00	 1.397005488661718e-01
0	 4.466690000001761e+01	 2.666644622278756e+00	 1.766364178264467e-01
0	 4.466690000001761e+01	 2.999973675063150e+00	 2.177036341319809e-01
0	 4.466690000001761e+01	 3.333302777844444e+00	 2.629021549730485e-01
0	 4.533360000001812e+01	 0.000000000000000e+00	-6.169474756191830e-03
0	 4.533360000001812e+01	 3.333328527767945e-01	 1.606962101531812e-03
0	 4.533360000001812e+01	 6.666648222243556e-01	 1.358474608620470e-02
0	 4.533360000001813e+01	 9.999960250084502e-01	 2.976389582004449e-02
0	 4.533360000001814e+01	 1.333326577794844e+00	 5.014442110040706e-02
0	 4.533360000001812e+01	 1.666656597249305e+00	 7.472632289112088e-02
0	 4.533360000001812e+01	 1.999986200037600e+00	 1.035095933473638e-01
0	 4.533360000001812e+01	 2.333315502825494e+00	 1.364942157953106e-01
0	 4.533360000001812e+01	 2.666644622278755e+00	 1.736801647436576e-01
0	 4.533360000001813e+01	 2.999973675063150e+00	 2.150674058668189e-01
0	 4.533360000001812e+01	 3.333302777844444e+00	 2.606558960292248e-01
0	 4.600030000001784e+01	 0.000000000000000e+00	-8.699832717438098e-03
0	 4.600030000001784e+01	 3.333328527767944e-01	-1.181705598953996e-03
0	 4.600030000001784e+01	 6.666648222243556e-01	 1.060615068082778e-02
0	 4.600030000001783e+01	 9.999960250084501e-01	 2.666375544583982e-02
0	 4.600030000001782e+01	 1.333326577794845e+00	 4.699111904166692e-02
0	 4.600030000001784e+01	 1.666656597249306e+00	 7.158824287115249e-02
0	 4.600030000001783e+01	 1.999986200037600e+00	 1.004551193618129e-01
0	 4.600030000001784e+01	 2.333315502825495e+00	 1.335917319676980e-01
0	 4.600030000001784e+01	 2.666644622278756e+00	 1.709980551845725e-01
0	 4.600030000001785e+01	 2.999973675063150e+00	 2.126740545403044e-01
0	 4.600030000001784e+01	 3.333302777844445e+00	 2.586196865885571e-01
0	 4.666700000001666e+01	 0.000000000000000e+00	-1.050108740727979e-02
0	 4.666700000001667e+01	 3.333328527767945e-01	-3.236332853305862e-03
0	 4.666700000001668e+01	 6.666648222243556e-01	 8.358401657709067e-03
0	 4.666700000001668e+01	 9.999960250084500e-01	 2.428313609963376e-02
0	 4.666700000001667e+01	 1.333326577794844e+00	 4.453788136431416e-02
0	 4.666700000001667e+01	 1.666656597249305e+00	 6.912263923262366e-02
0	 4.666700000001666e+01	 1.999986200037600e+00	 9.803740240405479e-02
0	 4.666700000001667e+01	 2.333315502825495e+00	 1.312821544841752e-01
0	 4.666700000001666e+01	 2.666644622278755e+00	 1.688568699819885e-01
0	 4.666700000001667e+01	 2.999973675063150e+00	 2.107615143173986e-01
0	 4.666700000001666e+01	 3.333302777844445e+00	 2.569960438098254e-01
0	 4.000000000000001e+01	 3.333302777844445e+00	 2.674959124996317e-01
0	 4.000000000000001e+01	 3.666642022268356e+00	 3.140793107941753e-01
0	 4.000000000000001e+01	 3.999981400030400e+00	 3.606276570206739e-01
0	 4.000000000000001e+01	 4.333320877796045e+00	 4.071409651801461e-01
0	 4.000000000000000e+01	 4.666660422230755e+00	 4.536192492520390e-01
0	 4.000000000000001e+01	 4.999999999999999e+00	 5.000625231971114e-01
0	 4.000000000000001e+01	 5.333339577769244e+00	 5.464708009539957e-01
0	 3.999999999999999e+01	 5.666679122203954e+00	 5.928440964382370e-01
0	 4.000000000000000e+01	 6.000018599969598e+00	 6.391824235464860e-01
0	 4.000000000000000e+01	 6.333357977731642e+00	 6.854857961576916e-01
0	 4.000000000000001e+01	 6.666697222155556e+00	 7.317542281232021e-01
0	 4.066670000000332e+01	 3.333302777844445e+00	 2.694497874223714e-01
0	 4.066670000000330e+01	 3.666642022268356e+00	 3.156101546267777e-01
0	 4.066670000000332e+01	 3.999981400030399e+00	 3.617363628163233e-01
0	 4.066670000000332e+01	 4.333320877796044e+00	 4.078284258726118e-01
0	 4.066670000000332e+01	 4.666660422230755e+00	 4.538863576447704e-01
0	 4.066670000000332e+01	 4.999999999999997e+00	 4.999101719619886e-01
0	 4.066670000000331e+01	 5.333339577769244e+00	 5.458998826437906e-01
0	 4.066670000000331e+01	 5.666679122203953e+00	 5.918555034786784e-01
0	 4.066670000000332e+01	 6.000018599969597e+00	 6.377770482383309e-01
0	 4.066670000000331e+01	 6.333357977731644e+00	 6.836645306739356e-01
0	 4.066670000000330e+01	 6.666697222155553e+00	 7.295179645167700e-01
0	 4.133340000000653e+01	 3.333302777844445e+00	 2.701960917530735e-01
0	 4.133340000000653e+01	 3.666642022268356e+00	 3.161728199028506e-01
0	 4.133340000000653e+01	 3.999981400030399e+00	 3.621204370363528e-01
0	 4.133340000000653e+01	 4.333320877796045e+00	 4.080389569673398e-01
0	 4.133340000000652e+01	 4.666660422230755e+00	 4.539283934952889e-01
0	 4.133340000000653e+01	 5.000000000000001e+00	 4.997887604016674e-01
0	 4.133340000000653e+01	 5.333339577769244e+00	 5.456200714452631e-01
0	 4.133340000000655e+01	 5.666679122203955e+00	 5.914223403741103e-01
0	 4.133340000000653e+01	 6.000018599969598e+00	 6.371955809152984e-01
0	 4.133340000000653e+01	 6.333357977731641e+00	 6.829398067800891e-01
0	 4.133340000000654e+01	 6.666697222155556e+00	 7.286550316573130e-01
0	 4.200010000000955e+01	 3.333302777844445e+00	 2.699373426464673e-01
0	 4.200010000000955e+01	 3.666642022268355e+00	 3.159306479117806e-01
0	 4.200010000000957e+01	 3.999981400030400e+00	 3.619031000522135e-01
0	 4.200010000000955e+01	 4.333320877796044e+00	 4.078547128798218e-01
0	 4.200010000000954e+01	 4.666660422230756e+00	 4.537855001917058e-01
0	 4.200010000000957e+01	 5.000000000000000e+00	 4.996954757814357e-01
0	 4.200010000000955e+01	 5.333339577769244e+00	 5.455846534258545e-01
0	 4.200010000000955e+01	 5.666679122203955e+00	 5.914530468809496e-01
0	 4.200010000000955e+01	 6.000018599969600e+00	 6.373006699082144e-01
0	 4.200010000000956e+01	 6.333357977731644e+00	 6.831275362419805e-01
0	 4.200010000000955e+01	 6.666697222155555e+00	 7.289336596031942e-01
0	 4.266680000001225e+01	 3.333302777844445e+00	 2.688760572556739e-01
0	 4.266680000001227e+01	 3.666642022268356e+00	 3.150469799479456e-01
0	 4.266680000001227e+01	 3.999981400030400e+00	 3.612075722504192e-01
0	 4.266680000001227e+01	 4.333320877796044e+00	 4.073578480217314e-01
0	 4.266680000001227e+01	 4.666660422230755e+00	 4.534978211122890e-01
0	 4.266680000001226e+01	 4.999999999999999e+00	 4.996275053752193e-01
0	 4.266680000001226e+01	 5.333339577769244e+00	 5.457469146441486e-01
0	 4.266680000001226e+01	 5.666679122203955e+00	 5.918560627589988e-01
0	 4.266680000001227e+01	 6.000018599969597e+00	 6.379549635439664e-01
0	 4.266680000001227e+01	 6.333357977731642e+00	 6.840436308258917e-01
0	 4.266680000001225e+01	 6.666697222155555e+00	 7.301220784165238e-01
0	 4.333350000001457e+01	 3.333302777844445e+00	 2.672147527434306e-01
0	 4.333350000001458e+01	 3.666642022268356e+00	 3.136851572980118e-01
0	 4.333350000001458e+01	 3.999981400030400e+00	 3.601570740044616e-01
0	 4.333350000001459e+01	 4.333320877796043e+00	 4.066305168028748e-01
0	 4.333350000001457e+01	 4.666660422230755e+00	 4.531054996368591e-01
0	 4.333350000001459e+01	 4.999999999999999e+00	 4.995820364438738e-01
0	 4.333350000001458e+01	 5.333339577769244e+00	 5.460601411707502e-01
0	 4.333350000001459e+01	 5.666679122203955e+00	 5.925398277603746e-01
0	 4.333350000001458e+01	 6.000018599969599e+00	 6.390211101546874e-01
0	 4.333350000001457e+01	 6.333357977731644e+00	 6.855040023047009e-01
0	 4.333350000001457e+01	 6.666697222155554e+00	 7.319885181527432e-01
0	 4.400020000001640e+01	 3.333302777844446e+00	 2.651559462627948e-01
0	 4.400020000001639e+01	 3.666642022268355e+00	 3.120085212523765e-01
0	 4.400020000001638e+01	 3.999981400030399e+00	 3.588748256969370e-01
0	 4.400020000001638e+01	 4.333320877796045e+00	 4.057548736430284e-01
0	 4.400020000001639e+01	 4.666660422230756e+00	 4.526486791469300e-01
0	 4.400020000001639e+01	 4.999999999999998e+00	 4.995562562640147e-01
0	 4.400020000001641e+01	 5.333339577769243e+00	 5.464776190696640e-01
0	 4.400020000001639e+01	 5.666679122203953e+00	 5.934127816414962e-01
0	 4.400020000001638e+01	 6.000018599969598e+00	 6.403617580683940e-01
0	 4.400020000001638e+01	 6.333357977731642e+00	 6.873245624444378e-01
0	 4.400020000001639e+01	 6.666697222155555e+00	 7.343012088701176e-01
0	 4.466690000001761e+01	 3.333302777844444e+00	 2.629021549730486e-01
0	 4.466690000001761e+01	 3.666642022268355e+00	 3.101804131039465e-01
0	 4.466690000001761e+01	 3.999981400030399e+00	 3.574840477082614e-01
0	 4.466690000001760e+01	 4.333320877796043e+00	 4.048130729540864e-01
0	 4.466690000001761e+01	 4.666660422230756e+00	 4.521675030184251e-01
0	 4.466690000001761e+01	 4.999999999999999e+00	 4.995473520994548e-01
0	 4.466690000001762e+01	 5.333339577769244e+00	 5.469526344054418e-01
0	 4.466690000001761e+01	 5.666679122203957e+00	 5.943833641625825e-01
0	 4.466690000001760e+01	 6.000018599969597e+00	 6.418395556129388e-01
0	 4.466690000001761e+01	 6.333357977731644e+00	 6.893212230097051e-01
0	 4.466690000001761e+01	 6.666697222155555e+00	 7.368283806292167e-01
0	 4.533360000001812e+01	 3.333302777844444e+00	 2.606558960292248e-01
0	 4.533360000001812e+01	 3.666642022268356e+00	 3.083641741389266e-01
0	 4.533360000001812e+01	 3.999981400030399e+00	 3.561079604143998e-01
0	 4.533360000001812e+01	 4.333320877796043e+00	 4.038872691439653e-01
0	 4.533360000001812e+01	 4.666660422230756e+00	 4.517021146380168e-01
0	 4.533360000001813e+01	 5.000000000000000e+00	 4.995525112205338e-01
0	 4.533360000001812e+01	 5.333339577769243e+00	 5.474384732429549e-01
0	 4.533360000001813e+01	 5.666679122203954e+00	 5.953600150795283e-01
0	 4.533360000001812e+01	 6.000018599969599e+00	 6.433171511190579e-01
0	 4.533360000001812e+01	 6.333357977731642e+00	 6.913098957773538e-01
0	 4.533360000001812e+01	 6.666697222155554e+00	 7.393382634864762e-01
0	 4.600030000001784e+01	 3.333302777844445e+00	 2.586196865885570e-01
0	 4.600030000001784e+01	 3.666642022268356e+00	 3.067231456491078e-01
0	 4.600030000001782e+01	 3.999981400030399e+00	 3.548697841971883e-01
0	 4.600030000001783e+01	 4.333320877796044e+00	 4.030596166338988e-01
0	 4.600030000001784e+01	 4.666660422230755e+00	 4.512926573816790e-01
0	 4.600030000001784e+01	 5.000000000000000e+00	 4.995689208932251e-01
0	 4.600030000001784e+01	 5.333339577769243e+00	 5.478884216479512e-01
0	 4.600030000001783e+01	 5.666679122203953e+00	 5.962511741436001e-01
0	 4.600030000001784e+01	 6.000018599969598e+00	 6.446571929109211e-01
0	 4.600030000001783e+01	 6.333357977731643e+00	 6.931064925037327e-01
0	 4.600030000001784e+01	 6.666697222155555e+00	 7.415990875054154e-01
0	 4.666700000001666e+01	 3.333302777844445e+00	 2.569960438098253e-01
0	 4.666700000001667e+01	 3.666642022268356e+00	 3.054206689253467e-01
0	 4.666700000001666e+01	 3.999981400030400e+00	 3.538927394340355e-01
0	 4.666700000001668e+01	 4.333320877796044e+00	 4.024122698303598e-01
0	 4.666700000001666e+01	 4.666660422230756e+00	 4.509792746348074e-01
0	 4.666700000001666e+01	 5.000000000000001e+00	 4.995937683924551e-01
0	 4.666700000001666e+01	 5.333339577769244e+00	 5.482557656866686e-01
0	 4.666700000001668e+01	 5.666679122203955e+00	 5.969652811183256e-01
0	 4.666700000001667e+01	 6.000018599969598e+00	 6.457223293231372e-01
0	 4.666700000001667e+01	 6.333357977731644e+00	 6.945269249681792e-01
0	 4.666700000001667e+01	 6.666697222155556e+00	 7.433790827402723e-01
0	 4.000000000000001e+01	 6.666697222155556e+00	 7.317542281232021e-01
0	 4.000000000000001e+01	 7.000026324936850e+00	 7.759913642525557e-01
0	 3.999999999999999e+01	 7.333355377721245e+00	 8.162035829657501e-01
0	 4.000000000000001e+01	 7.666684497174508e+00	 8.523908423334099e-01
0	 4.000000000000001e+01	 8.000013799962401e+00	 8.845531088911111e-01
0	 4.000000000000000e+01	 8.333343402750694e+00	 9.126903576202122e-01
0	 4.000000000000001e+01	 8.666673422205159e+00	 9.368025719649469e-01
0	 3.999999999999999e+01	 9.000003974991554e+00	 9.568897438063529e-01
0	 4.000000000000001e+01	 9.333335177775650e+00	 9.729518734916937e-01
0	 4.000000000000000e+01	 9.666667147223212e+00	 9.849889698095798e-01
0	 4.000000000000000e+01	 1.000000000000000e+01	 9.930010500119485e-01
0	 4.066670000000330e+01	 6.666697222155553e+00	 7.295179645167699e-01
0	 4.066670000000332e+01	 7.000026324936852e+00	 7.733923619558917e-01
0	 4.066670000000330e+01	 7.333355377721245e+00	 8.133454442782719e-01
0	 4.066670000000332e+01	 7.666684497174507e+00	 8.493771698232419e-01
0	 4.066670000000332e+01	 8.000013799962403e+00	 8.814875051739914e-01
0	 4.066670000000332e+01	 8.333343402750694e+00	 9.096764251416606e-01
0	 4.066670000000332e+01	 8.666673422205159e+00	 9.339439127741045e-01
0	 4.066670000000332e+01	 9.000003974991552e+00	 9.542899593551966e-01
0	 4.066670000000332e+01	 9.333335177775650e+00	 9.707145644054327e-01
0	 4.066670000000332e+01	 9.666667147223208e+00	 9.832177356677979e-01
0	 4.066670000000332e+01	 1.000000000000000e+01	 9.917994891477271e-01
0	 4.133340000000654e+01	 6.666697222155556e+00	 7.286550316573129e-01
0	 4.133340000000653e+01	 7.000026324936852e+00	 7.724146403698209e-01
0	 4.133340000000654e+01	 7.333355377721245e+00	 8.122947188005234e-01
0	 4.133340000000653e+01	 7.666684497174508e+00	 8.482952253684111e-01
0	 4.133340000000654e+01	 8.000013799962403e+00	 8.804161266357585e-01
0	 4.133340000000653e+01	 8.333343402750696e+00	 9.086573973179224e-01
0	 4.133340000000653e+01	 8.666673422205159e+00	 9.330190202701634e-01
0	 4.133340000000653e+01	 9.000003974991552e+00	 9.535009864948710e-01
0	 4.133340000000654e+01	 9.333335177775648e+00	 9.701032951522010e-01
0	 4.133340000000653e+01	 9.666667147223212e+00	 9.828259535459448e-01
0	 4.133340000000653e+01	 1.000000000000000e+01	 9.916689771077389e-01
0	 4.200010000000955e+01	 6.666697222155555e+00	 7.289336596031943e-01
0	 4.200010000000955e+01	 7.000026324936846e+00	 7.727835195406355e-01
0	 4.200010000000956e+01	 7.333355377721246e+00	 8.127443022740855e-01
0	 4.200010000000956e+01	 7.666684497174508e+00	 8.488159661273214e-01
0	 4.200010000000955e+01	 8.000013799962401e+00	 8.809984776085421e-01
0	 4.200010000000955e+01	 8.333343402750698e+00	 9.092918113835238e-01
0	 4.200010000000955e+01	 8.666673422205159e+00	 9.336959502822954e-01
0	 4.200010000000956e+01	 9.000003974991554e+00	 9.542108853159033e-01
0	 4.200010000000954e+01	 9.333335177775647e+00	 9.708366156442358e-01
0	 4.200010000000955e+01	 9.666667147223214e+00	 9.835731486192284e-01
0	 4.200010000000955e+01	 9.999999999999998e+00	 9.924204997189754e-01
0	 4.266680000001225e+01	 6.666697222155555e+00	 7.301220784165239e-01
0	 4.266680000001227e+01	 7.000026324936850e+00	 7.742243195245416e-01
0	 4.266680000001227e+01	 7.333355377721246e+00	 8.143870904275357e-01
0	 4.266680000001227e+01	 7.666684497174506e+00	 8.506103492617556e-01
0	 4.266680000001227e+01	 8.000013799962403e+00	 8.828940624170019e-01
0	 4.266680000001226e+01	 8.333343402750696e+00	 9.112382045646134e-01
0	 4.266680000001227e+01	 8.666673422205159e+00	 9.356427586502825e-01
0	 4.266680000001226e+01	 9.000003974991554e+00	 9.561077158920300e-01
0	 4.266680000001227e+01	 9.333335177775648e+00	 9.726330757731716e-01
0	 4.266680000001227e+01	 9.666667147223212e+00	 9.852188460690064e-01
0	 4.266680000001226e+01	 9.999999999999998e+00	 9.938650428041202e-01
0	 4.333350000001457e+01	 6.666697222155554e+00	 7.319885181527431e-01
0	 4.333350000001459e+01	 7.000026324936852e+00	 7.764623603593698e-01
0	 4.333350000001456e+01	 7.333355377721244e+00	 8.169159790106535e-01
0	 4.333350000001460e+01	 7.666684497174509e+00	 8.533493319301814e-01
0	 4.333350000001458e+01	 8.000013799962401e+00	 8.857623853867740e-01
0	 4.333350000001458e+01	 8.333343402750698e+00	 9.141551140891987e-01
0	 4.333350000001458e+01	 8.666673422205159e+00	 9.385275011967491e-01
0	 4.333350000001457e+01	 9.000003974991555e+00	 9.588795382973273e-01
0	 4.333350000001458e+01	 9.333335177775648e+00	 9.752112254400026e-01
0	 4.333350000001457e+01	 9.666667147223210e+00	 9.875225710927091e-01
0	 4.333350000001457e+01	 9.999999999999998e+00	 9.958135921887979e-01
0	 4.400020000001639e+01	 6.666697222155555e+00	 7.343012088701177e-01
0	 4.400020000001640e+01	 7.000026324936850e+00	 7.792229620995265e-01
0	 4.400020000001638e+01	 7.333355377721246e+00	 8.200238637528360e-01
0	 4.400020000001638e+01	 7.666684497174504e+00	 8.567038712952235e-01
0	 4.400020000001638e+01	 8.000013799962399e+00	 8.892629508510516e-01
0	 4.400020000001639e+01	 8.333343402750700e+00	 9.177010771962864e-01
0	 4.400020000001638e+01	 8.666673422205163e+00	 9.420182337588127e-01
0	 4.400020000001641e+01	 9.000003974991552e+00	 9.622144126243971e-01
0	 4.400020000001639e+01	 9.333335177775648e+00	 9.782896145334868e-01
0	 4.400020000001639e+01	 9.666667147223210e+00	 9.902438488730754e-01
0	 4.400020000001639e+01	 1.000000000000000e+01	 9.980771336971241e-01
0	 4.466690000001761e+01	 6.666697222155555e+00	 7.368283806292169e-01
0	 4.466690000001761e+01	 7.000026324936850e+00	 7.822314447969222e-01
0	 4.466690000001761e+01	 7.333355377721245e+00	 8.234036403955138e-01
0	 4.466690000001761e+01	 7.666684497174508e+00	 8.603449245166681e-01
0	 4.466690000001761e+01	 8.000013799962401e+00	 8.930552631377274e-01
0	 4.466690000001761e+01	 8.333343402750696e+00	 9.215346311074984e-01
0	 4.466690000001761e+01	 8.666673422205157e+00	 9.457830121706883e-01
0	 4.466690000001761e+01	 9.000003974991554e+00	 9.658003989489486e-01
0	 4.466690000001761e+01	 9.333335177775650e+00	 9.815867929612314e-01
0	 4.466690000001761e+01	 9.666667147223212e+00	 9.931422045986817e-01
0	 4.466690000001762e+01	 1.000000000000000e+01	 1.000466653150326e+00
0	 4.533360000001812e+01	 6.666697222155554e+00	 7.393382634864764e-01
0	 4.533360000001813e+01	 7.000026324936851e+00	 7.852131284860978e-01
0	 4.533360000001813e+01	 7.333355377721245e+00	 8.267482046731495e-01
0	 4.533360000001812e+01	 7.666684497174507e+00	 8.639434487615527e-01
0	 4.533360000001812e+01	 8.000013799962399e+00	 8.967988265723059e-01
0	 4.533360000001811e+01	 8.333343402750698e+00	 9.253143130533521e-01
0	 4.533360000001812e+01	 8.666673422205159e+00	 9.494898922494116e-01
0	 4.533360000001812e+01	 9.000003974991552e+00	 9.693255573493483e-01
0	 4.533360000001812e+01	 9.333335177775645e+00	 9.848213106119790e-01
0	 4.533360000001812e+01	 9.666667147223208e+00	 9.959771634561959e-01
0	 4.533360000001812e+01	 1.000000000000000e+01	 1.002793136375321e+00
0	 4.600030000001784e+01	 6.666697222155555e+00	 7.415990875054155e-01
0	 4.600030000001784e+01	 7.000026324936850e+00	 7.878933332324959e-01
0	 4.600030000001783e+01	 7.333355377721244e+00	 8.297504523270374e-01
0	 4.600030000001782e+01	 7.666684497174505e+00	 8.671704011782242e-01
0	 4.600030000001784e+01	 8.000013799962401e+00	 9.001531454819681e-01
0	 4.600030000001784e+01	 8.333343402750696e+00	 9.286986602613325e-01
0	 4.600030000001783e+01	 8.666673422205156e+00	 9.528069298500378e-01
0	 4.600030000001783e+01	 9.000003974991552e+00	 9.724779479037942e-01
0	 4.600030000001785e+01	 9.333335177775648e+00	 9.877117173986861e-01
0	 4.600030000001784e+01	 9.666667147223210e+00	 9.985082506312271e-01
0	 4.600030000001784e+01	 1.000000000000000e+01	 1.004867569202572e+00
0	 4.666700000001667e+01	 6.666697222155556e+00	 7.433790827402724e-01
0	 4.666700000001666e+01	 7.000026324936850e+00	 7.899973790691267e-01
0	 4.666700000001667e+01	 7.333355377721246e+00	 8.321032790940338e-01
0	 4.666700000001667e+01	 7.666684497174507e+00	 8.696967389346376e-01
0	 4.666700000001666e+01	 8.000013799962403e+00	 9.027777241952066e-01
0	 4.666700000001666e+01	 8.333343402750696e+00	 9.313462099641049e-01
0	 4.666700000001667e+01	 8.666673422205157e+00	 9.554021807858070e-01
0	 4.666700000001666e+01	 9.000003974991552e+00	 9.749456306927190e-01
0	 4.666700000001666e+01	 9.333335177775647e+00	 9.899765632116655e-01
0	 4.666700000001667e+01	 9.666667147223210e+00	 1.000494991309133e+00
0	 4.666700000001666e+01	 1.000000000000000e+01	 1.006500937449400e+00
0	 4.666700000001666e+01	 0.000000000000000e+00	-1.050108740727979e-02
0	 4.666700000001667e+01	 3.333328527767945e-01	-3.236332853305862e-03
0	 4.666700000001668e+01	 6.666648222243556e-01	 8.358401657709067e-03
0	 4.666700000001668e+01	 9.999960250084500e-01	 2.428313609963376e-02
0	 4.666700000001667e+01	 1.333326577794844e+00	 4.453788136431416e-02
0	 4.666700000001667e+01	 1.666656597249305e+00	 6.912263923262366e-02
0	 4.666700000001666e+01	 1.999986200037600e+00	 9.803740240405479e-02
0	 4.666700000001667e+01	 2.333315502825495e+00	 1.312821544841752e-01
0	 4.666700000001666e+01	 2.666644622278755e+00	 1.688568699819885e-01
0	 4.666700000001667e+01	 2.999973675063150e+00	 2.107615143173986e-01
0	 4.666700000001666e+01	 3.333302777844445e+00	 2.569960438098254e-01
0	 4.733360000001453e+01	 0.000000000000000e+00	-1.138116334895034e-02
0	 4.733360000001453e+01	 3.333328527767944e-01	-4.345069861769861e-03
0	 4.733360000001454e+01	 6.666648222243555e-01	 7.067899548484327e-03
0	 4.733360000001453e+01	 9.999960250084501e-01	 2.285776539424865e-02
0	 4.733360000001453e+01	 1.333326577794845e+00	 4.302453899499863e-02
0	 4.733360000001453e+01	 1.666656597249305e+00	 6.756822248628884e-02
0	 4.733360000001453e+01	 1.999986200037600e+00	 9.648880881408954e-02
0	 4.733360000001453e+01	 2.333315502825494e+00	 1.297862817139303e-01
0	 4.733360000001453e+01	 2.666644622278756e+00	 1.674606157581495e-01
0	 4.733360000001453e+01	 2.999973675063151e+00	 2.095117763011563e-01
0	 4.733360000001453e+01	 3.333302777844445e+00	 2.559397195240551e-01
0	 4.800020000001160e+01	 0.000000000000000e+00	-1.142438575432727e-02
0	 4.800020000001158e+01	 3.333328527767944e-01	-4.588436118847673e-03
0	 4.800020000001160e+01	 6.666648222243555e-01	 6.658133072584921e-03
0	 4.800020000001160e+01	 9.999960250084499e-01	 2.231534276685143e-02
0	 4.800020000001159e+01	 1.333326577794844e+00	 4.238320464249058e-02
0	 4.800020000001160e+01	 1.666656597249305e+00	 6.686172110097974e-02
0	 4.800020000001161e+01	 1.999986200037600e+00	 9.575088530647546e-02
0	 4.800020000001160e+01	 2.333315502825494e+00	 1.290506811496794e-01
0	 4.800020000001161e+01	 2.666644622278756e+00	 1.667610832642187e-01
0	 4.800020000001160e+01	 2.999973675063150e+00	 2.088820570056509e-01
0	 4.800020000001162e+01	 3.333302777844445e+00	 2.554135584780162e-01
0	 4.866680000000807e+01	 0.000000000000000e+00	-1.078372785718905e-02
0	 4.866680000000806e+01	 3.333328527767944e-01	-4.119532347177692e-03
0	 4.866680000000806e+01	 6.666648222243553e-01	 6.977418736445607e-03
0	 4.866680000000807e+01	 9.999960250084501e-01	 2.250714666446078e-02
0	 4.866680000000808e+01	 1.333326577794845e+00	 4.246966337114003e-02
0	 4.866680000000809e+01	 1.666656597249306e+00	 6.686497150694380e-02
0	 4.866680000000807e+01	 1.999986200037601e+00	 9.569306440955747e-02
0	 4.866680000000807e+01	 2.333315502825495e+00	 1.289539261102087e-01
0	 4.866680000000806e+01	 2.666644622278755e+00	 1.666475313177689e-01
0	 4.866680000000806e+01	 2.999973675063150e+00	 2.087738454425913e-01
0	 4.866680000000808e+01	 3.333302777844446e+00	 2.553328245865749e-01
0	 4.933340000000412e+01	 0.000000000000000e+00	-9.612162884303129e-03
0	 4.933340000000412e+01	 3.333328527767943e-01	-3.091459246629723e-03
0	 4.933340000000413e+01	 6.666648222243556e-01	 7.874073055444079e-03
0	 4.933340000000415e+01	 9.999960250084503e-01	 2.328445550347959e-02
0	 4.933340000000413e+01	 1.333326577794844e+00	 4.313970026193190e-02
0	 4.933340000000414e+01	 1.666656597249306e+00	 6.743981014178305e-02
0	 4.933340000000414e+01	 1.999986200037601e+00	 9.618477863374385e-02
0	 4.933340000000414e+01	 2.333315502825494e+00	 1.293745898970627e-01
0	 4.933340000000413e+01	 2.666644622278756e+00	 1.670092187382183e-01
0	 4.933340000000414e+01	 2.999973675063151e+00	 2.090886306447099e-01
0	 4.933340000000412e+01	 3.333302777844445e+00	 2.556127817748614e-01
0	 5.000000000000000e+01	 0.000000000000000e+00	-8.062664058044677e-03
0	 5.000000000000001e+01	 3.333328527767945e-01	-1.657317531232835e-03
0	 5.000000000000000e+01	 6.666648222243556e-01	 9.196412523796825e-03
0	 5.000000000000000e+01	 9.999960250084498e-01	 2.449854772955361e-02
0	 5.000000000000001e+01	 1.333326577794845e+00	 4.424910038637703e-02
0	 4.999999999999999e+01	 1.666656597249305e+00	 6.844807343461266e-02
0	 5.000000000000001e+01	 1.999986200037600e+00	 9.709546048922495e-02
0	 5.000000000000001e+01	 2.333315502825495e+00	 1.301912458153490e-01
0	 5.000000000000001e+01	 2.666644622278756e+00	 1.677354043404866e-01
0	 5.000000000000000e+01	 2.999973675063151e+00	 2.097279016379710e-01
0	 5.000000000000001e+01	 3.333302777844446e+00	 2.561686939611936e-01
0	 5.066659999999587e+01	 0.000000000000000e+00	-6.288204603486696e-03
0	 5.066659999999587e+01	 3.333328527767945e-01	 2.979209589680967e-05
0	 5.066659999999585e+01	 6.666648222243555e-01	 1.079275364745212e-02
0	 5.066659999999585e+01	 9.999960250084499e-01	 2.600070176306410e-02
0	 5.066659999999587e+01	 1.333326577794844e+00	 4.565364880890181e-02
0	 5.066659999999585e+01	 1.666656597249305e+00	 6.975159781569630e-02
0	 5.066659999999587e+01	 1.999986200037600e+00	 9.829454248533472e-02
0	 5.066659999999586e+01	 2.333315502825495e+00	 1.312824671822394e-01
0	 5.066659999999587e+01	 2.666644622278756e+00	 1.687153469355787e-01
0	 5.066659999999587e+01	 2.999973675063150e+00	 2.105931474483647e-01
0	 5.066659999999585e+01	 3.333302777844445e+00	 2.569158250741818e-01
0	 5.133319999999193e+01	 0.000000000000000e+00	-4.441757755027958e-03
0	 5.133319999999193e+01	 3.333328527767944e-01	 1.816768919988702e-03
0	 5.133319999999192e+01	 6.666648222243555e-01	 1.251141294281161e-02
0	 5.133319999999192e+01	 9.999960250084502e-01	 2.764219603873392e-02
0	 5.133319999999193e+01	 1.333326577794844e+00	 4.720913061020157e-02
0	 5.133319999999193e+01	 1.666656597249306e+00	 7.121221972332298e-02
0	 5.133319999999192e+01	 1.999986200037600e+00	 9.965145714065293e-02
0	 5.133319999999192e+01	 2.333315502825495e+00	 1.325268273049516e-01
0	 5.133319999999192e+01	 2.666644622278756e+00	 1.698383053536973e-01
0	 5.133319999999193e+01	 2.999973675063150e+00	 2.115858570973678e-01
0	 5.133319999999191e+01	 3.333302777844444e+00	 2.577694390288295e-01
0	 5.199979999998840e+01	 0.000000000000000e+00	-2.676296721043872e-03
0	 5.199979999998839e+01	 3.333328527767945e-01	 3.550512222097418e-03
0	 5.199979999998839e+01	 6.666648222243554e-01	 1.420070690642328e-02
0	 5.199979999998839e+01	 9.999960250084502e-01	 2.927430898971436e-02
0	 5.199979999998838e+01	 1.333326577794845e+00	 4.877133085719856e-02
0	 5.199979999998838e+01	 1.666656597249305e+00	 7.269177558133533e-02
0	 5.199979999998838e+01	 1.999986200037600e+00	 1.010356369580635e-01
0	 5.199979999998840e+01	 2.333315502825496e+00	 1.338028994974443e-01
0	 5.199979999998840e+01	 2.666644622278756e+00	 1.709935384011897e-01
0	 5.199979999998839e+01	 2.999973675063150e+00	 2.126075196078615e-01
0	 5.199979999998838e+01	 3.333302777844445e+00	 2.586447997506358e-01
0	 5.266639999998544e+01	 0.000000000000000e+00	-1.144794747390599e-03
0	 5.266639999998544e+01	 3.333328527767944e-01	 5.077921306840620e-03
0	 5.266639999998545e+01	 6.666648222243555e-01	 1.570895204771785e-02
0	 5.266639999998545e+01	 9.999960250084501e-01	 3.074831905368519e-02
0	 5.266639999998545e+01	 1.333326577794845e+00	 5.019603462891153e-02
0	 5.266639999998544e+01	 1.666656597249305e+00	 7.405210183509983e-02
0	 5.266639999998544e+01	 1.999986200037600e+00	 1.023165144647088e-01
0	 5.266639999998545e+01	 2.333315502825495e+00	 1.349892570625961e-01
0	 5.266639999998545e+01	 2.666644622278755e+00	 1.720703049023710e-01
0	 5.266639999998544e+01	 2.999973675063150e+00	 2.135596240121769e-01
0	 5.266639999998545e+01	 3.333302777844445e+00	 2.594571711586344e-01
0	 5.333299999998333e+01	 0.000000000000000e+00	-2.250451080550187e-07
0	 5.333299999998334e+01	 3.333328527767944e-01	 6.245895455461805e-03
0	 5.333299999998333e+01	 6.666648222243554e-01	 1.688446487441107e-02
0	 5.333299999998334e+01	 9.999960250084504e-01	 3.191550464550029e-02
0	 5.333299999998333e+01	 1.333326577794845e+00	 5.133902699324856e-02
0	 5.333299999998334e+01	 1.666656597249305e+00	 7.515503490529617e-02
0	 5.333299999998332e+01	 1.999986200037600e+00	 1.033635221648733e-01
0	 5.333299999998333e+01	 2.333315502825495e+00	 1.359644733082369e-01
0	 5.333299999998334e+01	 2.666644622278756e+00	 1.729578636632459e-01
0	 5.333299999998334e+01	 2.999973675063150e+00	 2.143436593288409e-01
0	 5.333299999998334e+01	 3.333302777844445e+00	 2.601218171779662e-01
0	 4.666700000001666e+01	 3.333302777844445e+00	 2.569960438098254e-01
0	 4.666700000001667e+01	 3.666642022268356e+00	 3.054206689253467e-01
0	 4.666700000001666e+01	 3.999981400030400e+00	 3.538927394340355e-01
0	 4.666700000001668e+01	 4.333320877796044e+00	 4.024122698303598e-01
0	 4.666700000001666e+01	 4.666660422230756e+00	 4.509792746348074e-01
0	 4.666700000001666e+01	 5.000000000000001e+00	 4.995937683924551e-01
0	 4.666700000001666e+01	 5.333339577769244e+00	 5.482557656866686e-01
0	 4.666700000001668e+01	 5.666679122203955e+00	 5.969652811183257e-01
0	 4.666700000001667e+01	 6.000018599969598e+00	 6.457223293231372e-01
0	 4.666700000001667e+01	 6.333357977731644e+00	 6.945269249681792e-01
0	 4.666700000001667e+01	 6.666697222155556e+00	 7.433790827402723e-01
0	 4.733360000001453e+01	 3.333302777844445e+00	 2.559397195240552e-01
0	 4.733360000001455e+01	 3.666642022268356e+00	 3.045813151598852e-01
0	 4.733360000001453e+01	 3.999981400030399e+00	 3.532705594330027e-01
0	 4.733360000001453e+01	 4.333320877796045e+00	 4.020074668988762e-01
0	 4.733360000001452e+01	 4.666660422230755e+00	 4.507920521504908e-01
0	 4.733360000001453e+01	 4.999999999999999e+00	 4.996243297926872e-01
0	 4.733360000001453e+01	 5.333339577769242e+00	 5.485043144718807e-01
0	 4.733360000001454e+01	 5.666679122203955e+00	 5.974320208637047e-01
0	 4.733360000001453e+01	 6.000018599969600e+00	 6.464074636651848e-01
0	 4.733360000001453e+01	 6.333357977731642e+00	 6.954306576038636e-01
0	 4.733360000001452e+01	 6.666697222155555e+00	 7.445016174369301e-01
0	 4.800020000001162e+01	 3.333302777844445e+00	 2.554135584780163e-01
0	 4.800020000001161e+01	 3.666642022268356e+00	 3.041739054189214e-01
0	 4.800020000001160e+01	 3.999981400030399e+00	 3.529785349459130e-01
0	 4.800020000001161e+01	 4.333320877796044e+00	 4.018274616477420e-01
0	 4.800020000001161e+01	 4.666660422230757e+00	 4.507207001502149e-01
0	 4.800020000001160e+01	 5.000000000000002e+00	 4.996582650970565e-01
0	 4.800020000001159e+01	 5.333339577769244e+00	 5.486401711699200e-01
0	 4.800020000001162e+01	 5.666679122203956e+00	 5.976664330628062e-01
0	 4.800020000001160e+01	 6.000018599969599e+00	 6.467370655097615e-01
0	 4.800020000001162e+01	 6.333357977731644e+00	 6.958520832604977e-01
0	 4.800020000001160e+01	 6.666697222155558e+00	 7.450115010996210e-01
0	 4.866680000000808e+01	 3.333302777844446e+00	 2.553328245865749e-01
0	 4.866680000000807e+01	 3.666642022268356e+00	 3.041286412271854e-01
0	 4.866680000000808e+01	 3.999981400030400e+00	 3.529625849475852e-01
0	 4.866680000000807e+01	 4.333320877796043e+00	 4.018346703599593e-01
0	 4.866680000000807e+01	 4.666660422230756e+00	 4.507449120972891e-01
0	 4.866680000000807e+01	 5.000000000000001e+00	 4.996933248163565e-01
0	 4.866680000000807e+01	 5.333339577769244e+00	 5.486799231928154e-01
0	 4.866680000000806e+01	 5.666679122203953e+00	 5.977047219312336e-01
0	 4.866680000000808e+01	 6.000018599969599e+00	 6.467677357550107e-01
0	 4.866680000000806e+01	 6.333357977731643e+00	 6.958689794139068e-01
0	 4.866680000000807e+01	 6.666697222155556e+00	 7.450084676787366e-01
0	 4.933340000000412e+01	 3.333302777844445e+00	 2.556127817748614e-01
0	 4.933340000000411e+01	 3.666642022268355e+00	 3.043757240989375e-01
0	 4.933340000000413e+01	 3.999981400030400e+00	 3.531686284141511e-01
0	 4.933340000000413e+01	 4.333320877796044e+00	 4.019915093228980e-01
0	 4.933340000000415e+01	 4.666660422230756e+00	 4.508443814539896e-01
0	 4.933340000000413e+01	 4.999999999999999e+00	 4.997272594451450e-01
0	 4.933340000000414e+01	 5.333339577769243e+00	 5.486401579657111e-01
0	 4.933340000000413e+01	 5.666679122203955e+00	 5.975830916809853e-01
0	 4.933340000000413e+01	 6.000018599969599e+00	 6.465560752987290e-01
0	 4.933340000000413e+01	 6.333357977731642e+00	 6.955591235290997e-01
0	 4.933340000000414e+01	 6.666697222155555e+00	 7.445922511062623e-01
0	 5.000000000000001e+01	 3.333302777844446e+00	 2.561686939611936e-01
0	 5.000000000000001e+01	 3.666642022268356e+00	 3.048453555557457e-01
0	 4.999999999999999e+01	 3.999981400030400e+00	 3.535425843133525e-01
0	 4.999999999999999e+01	 4.333320877796043e+00	 4.022603948218078e-01
0	 5.000000000000001e+01	 4.666660422230756e+00	 4.509988016767204e-01
0	 5.000000000000001e+01	 4.999999999999999e+00	 4.997578194933018e-01
0	 4.999999999999999e+01	 5.333339577769242e+00	 5.485374629036071e-01
0	 5.000000000000001e+01	 5.666679122203955e+00	 5.973377465305060e-01
0	 4.999999999999999e+01	 6.000018599969598e+00	 6.461586850357254e-01
0	 5.000000000000001e+01	 6.333357977731642e+00	 6.950002930762276e-01
0	 5.000000000000001e+01	 6.666697222155556e+00	 7.438625853295455e-01
0	 5.066659999999585e+01	 3.333302777844445e+00	 2.569158250741817e-01
0	 5.066659999999587e+01	 3.666642022268356e+00	 3.054677371215466e-01
0	 5.066659999999585e+01	 3.999981400030399e+00	 3.540303716214684e-01
0	 5.066659999999588e+01	 4.333320877796043e+00	 4.026037431380271e-01
0	 5.066659999999585e+01	 4.666660422230753e+00	 4.511878662279761e-01
0	 5.066659999999586e+01	 4.999999999999999e+00	 4.997827554652205e-01
0	 5.066659999999586e+01	 5.333339577769243e+00	 5.483884254269737e-01
0	 5.066659999999587e+01	 5.666679122203953e+00	 5.970048906963120e-01
0	 5.066659999999587e+01	 6.000018599969598e+00	 6.456321658623113e-01
0	 5.066659999999587e+01	 6.333357977731644e+00	 6.942702655238476e-01
0	 5.066659999999586e+01	 6.666697222155556e+00	 7.429192042850755e-01
0	 5.133319999999191e+01	 3.333302777844444e+00	 2.577694390288296e-01
0	 5.133319999999192e+01	 3.666642022268356e+00	 3.061730703122589e-01
0	 5.133319999999193e+01	 3.999981400030400e+00	 3.545779093155557e-01
0	 5.133319999999192e+01	 4.333320877796043e+00	 4.029839705619729e-01
0	 5.133319999999191e+01	 4.666660422230756e+00	 4.513912685665507e-01
0	 5.133319999999193e+01	 4.999999999999999e+00	 4.997998178592790e-01
0	 5.133319999999193e+01	 5.333339577769244e+00	 5.482096329584225e-01
0	 5.133319999999193e+01	 5.666679122203955e+00	 5.966207283915699e-01
0	 5.133319999999193e+01	 6.000018599969598e+00	 6.450331186759521e-01
0	 5.133319999999192e+01	 6.333357977731641e+00	 6.934468183414669e-01
0	 5.133319999999192e+01	 6.666697222155556e+00	 7.418618419139626e-01
0	 5.199979999998838e+01	 3.333302777844445e+00	 2.586447997506357e-01
0	 5.199979999998838e+01	 3.666642022268355e+00	 3.068915566482739e-01
0	 5.199979999998839e+01	 3.999981400030400e+00	 3.551311163627699e-01
0	 5.199979999998840e+01	 4.333320877796044e+00	 4.033634933706942e-01
0	 5.199979999998840e+01	 4.666660422230755e+00	 4.515887021545283e-01
0	 5.199979999998838e+01	 5.000000000000000e+00	 4.998067571839221e-01
0	 5.199979999998838e+01	 5.333339577769244e+00	 5.480176729197114e-01
0	 5.199979999998839e+01	 5.666679122203955e+00	 5.962214638288530e-01
0	 5.199979999998838e+01	 6.000018599969598e+00	 6.444181443698961e-01
0	 5.199979999998839e+01	 6.333357977731643e+00	 6.926077289958953e-01
0	 5.199979999998840e+01	 6.666697222155556e+00	 7.407902321594174e-01
0	 5.266639999998545e+01	 3.333302777844445e+00	 2.594571711586345e-01
0	 5.266639999998545e+01	 3.666642022268356e+00	 3.075533976491168e-01
0	 5.266639999998546e+01	 3.999981400030400e+00	 3.556359117356811e-01
0	 5.266639999998545e+01	 4.333320877796044e+00	 4.037047278590661e-01
0	 5.266639999998545e+01	 4.666660422230754e+00	 4.517598604522622e-01
0	 5.266639999998546e+01	 4.999999999999999e+00	 4.998013239380192e-01
0	 5.266639999998546e+01	 5.333339577769244e+00	 5.478291327258643e-01
0	 5.266639999998544e+01	 5.666679122203954e+00	 5.958433012309309e-01
0	 5.266639999998544e+01	 6.000018599969598e+00	 6.438438438446489e-01
0	 5.266639999998544e+01	 6.333357977731642e+00	 6.918307749583901e-01
0	 5.266639999998545e+01	 6.666697222155556e+00	 7.398041089595093e-01
0	 5.333299999998334e+01	 3.333302777844445e+00	 2.601218171779661e-01
0	 5.333299999998331e+01	 3.666642022268355e+00	 3.080887948334797e-01
0	 5.333299999998333e+01	 3.999981400030399e+00	 3.560382144118118e-01
0	 5.333299999998332e+01	 4.333320877796043e+00	 4.039700903038417e-01
0	 5.333299999998334e+01	 4.666660422230756e+00	 4.518844369179394e-01
0	 5.333299999998332e+01	 5.000000000000001e+00	 4.997812686243454e-01
0	 5.333299999998332e+01	 5.333339577769242e+00	 5.476605998007282e-01
0	 5.333299999998333e+01	 5.666679122203955e+00	 5.955224448041523e-01
0	 5.333299999998334e+01	 6.000018599969599e+00	 6.433668179936236e-01
0	 5.333299999998332e+01	 6.333357977731643e+00	 6.911937336992845e-01
0	 5.333299999998334e+01	 6.666697222155556e+00	 7.390032062585867e-01
0	 4.666700000001667e+01	 6.666697222155556e+00	 7.433790827402724e-01
0	 4.666700000001666e+01	 7.000026324936850e+00	 7.899973790691267e-01
0	 4.666700000001667e+01	 7.333355377721246e+00	 8.321032790940338e-01
0	 4.666700000001667e+01	 7.666684497174507e+00	 8.696967389346374e-01
0	 4.666700000001666e+01	 8.000013799962403e+00	 9.027777241952066e-01
0	 4.666700000001666e+01	 8.333343402750696e+00	 9.313462099641049e-01
0	 4.666700000001667e+01	 8.666673422205157e+00	 9.554021807858070e-01
0	 4.666700000001666e+01	 9.000003974991552e+00	 9.749456306927188e-01
0	 4.666700000001666e+01	 9.333335177775647e+00	 9.899765632116655e-01
0	 4.666700000001667e+01	 9.666667147223210e+00	 1.000494991309133e+00
0	 4.666700000001666e+01	 1.000000000000000e+01	 1.006500937449400e+00
0	 4.733360000001452e+01	 6.666697222155555e+00	 7.445016174369301e-01
0	 4.733360000001454e+01	 7.000026324936851e+00	 7.913161929455813e-01
0	 4.733360000001453e+01	 7.333355377721247e+00	 8.335731355563648e-01
0	 4.733360000001453e+01	 7.666684497174507e+00	 8.712724012463857e-01
0	 4.733360000001454e+01	 8.000013799962401e+00	 9.044139555470201e-01
0	 4.733360000001454e+01	 8.333343402750698e+00	 9.329977735818400e-01
0	 4.733360000001453e+01	 8.666673422205157e+00	 9.570238400330282e-01
0	 4.733360000001453e+01	 9.000003974991554e+00	 9.764921491575749e-01
0	 4.733360000001455e+01	 9.333335177775650e+00	 9.914027047863803e-01
0	 4.733360000001453e+01	 9.666667147223210e+00	 1.001755520317190e+00
0	 4.733360000001453e+01	 1.000000000000000e+01	 1.007550618714232e+00
0	 4.800020000001160e+01	 6.666697222155558e+00	 7.450115010996211e-01
0	 4.800020000001158e+01	 7.000026324936847e+00	 7.919041708163237e-01
0	 4.800020000001160e+01	 7.333355377721245e+00	 8.342218509613348e-01
0	 4.800020000001161e+01	 7.666684497174507e+00	 8.719644974510656e-01
0	 4.800020000001161e+01	 8.000013799962405e+00	 9.051320757998220e-01
0	 4.800020000001157e+01	 8.333343402750694e+00	 9.337245611334664e-01
0	 4.800020000001159e+01	 8.666673422205157e+00	 9.577419381838258e-01
0	 4.800020000001160e+01	 9.000003974991554e+00	 9.771842012852702e-01
0	 4.800020000001159e+01	 9.333335177775648e+00	 9.920513544083942e-01
0	 4.800020000001160e+01	 9.666667147223210e+00	 1.002343411080861e+00
0	 4.800020000001160e+01	 1.000000000000000e+01	 1.008060394476526e+00
0	 4.866680000000807e+01	 6.666697222155556e+00	 7.450084676787366e-01
0	 4.866680000000805e+01	 7.000026324936848e+00	 7.918810603021610e-01
0	 4.866680000000806e+01	 7.333355377721245e+00	 8.341845224649678e-01
0	 4.866680000000806e+01	 7.666684497174506e+00	 8.719188100893989e-01
0	 4.866680000000807e+01	 8.000013799962403e+00	 9.050838886880407e-01
0	 4.866680000000809e+01	 8.333343402750700e+00	 9.336797333844407e-01
0	 4.866680000000807e+01	 8.666673422205157e+00	 9.577063288893222e-01
0	 4.866680000000806e+01	 9.000003974991552e+00	 9.771636695046343e-01
0	 4.866680000000807e+01	 9.333335177775647e+00	 9.920517591256706e-01
0	 4.866680000000807e+01	 9.666667147223210e+00	 1.002370611257561e+00
0	 4.866680000000807e+01	 1.000000000000000e+01	 1.008120248990442e+00
0	 4.933340000000414e+01	 6.666697222155555e+00	 7.445922511062621e-01
0	 4.933340000000413e+01	 7.000026324936849e+00	 7.913666090405154e-01
0	 4.933340000000412e+01	 7.333355377721244e+00	 8.335962472400514e-01
0	 4.933340000000412e+01	 7.666684497174506e+00	 8.712811216960920e-01
0	 4.933340000000412e+01	 8.000013799962399e+00	 9.044211979639910e-01
0	 4.933340000000414e+01	 8.333343402750700e+00	 9.330164511206639e-01
0	 4.933340000000413e+01	 8.666673422205159e+00	 9.570668658064931e-01
0	 4.933340000000414e+01	 9.000003974991555e+00	 9.765724361931486e-01
0	 4.933340000000413e+01	 9.333335177775650e+00	 9.915331660069016e-01
0	 4.933340000000413e+01	 9.666667147223210e+00	 1.001949068509670e+00
0	 4.933340000000412e+01	 1.000000000000000e+01	 1.007820166498839e+00
0	 5.000000000000001e+01	 6.666697222155556e+00	 7.438625853295454e-01
0	 5.000000000000000e+01	 7.000026324936852e+00	 7.904805646534409e-01
0	 5.000000000000001e+01	 7.333355377721246e+00	 8.325921224418401e-01
0	 5.000000000000001e+01	 7.666684497174508e+00	 8.701972148112874e-01
0	 5.000000000000000e+01	 8.000013799962401e+00	 9.032958073456409e-01
0	 5.000000000000000e+01	 8.333343402750696e+00	 9.318878751049664e-01
0	 5.000000000000000e+01	 8.666673422205159e+00	 9.559734025876265e-01
0	 5.000000000000001e+01	 9.000003974991554e+00	 9.755523837697999e-01
0	 4.999999999999999e+01	 9.333335177775648e+00	 9.906248220949573e-01
0	 5.000000000000002e+01	 9.666667147223212e+00	 1.001190730470573e+00
0	 5.000000000000000e+01	 1.000000000000000e+01	 1.007250131253063e+00
0	 5.066659999999586e+01	 6.666697222155556e+00	 7.429192042850756e-01
0	 5.066659999999585e+01	 7.000026324936849e+00	 7.893426747684710e-01
0	 5.066659999999587e+01	 7.333355377721245e+00	 8.313072452433973e-01
0	 5.066659999999585e+01	 7.666684497174507e+00	 8.688128719692726e-01
0	 5.066659999999587e+01	 8.000013799962401e+00	 9.018595205909529e-01
0	 5.066659999999586e+01	 8.333343402750698e+00	 9.304471661032175e-01
0	 5.066659999999588e+01	 8.666673422205161e+00	 9.545757928747358e-01
0	 5.066659999999587e+01	 9.000003974991554e+00	 9.742453946213804e-01
0	 5.066659999999587e+01	 9.333335177775650e+00	 9.894559744530014e-01
0	 5.066659999999586e+01	 9.666667147223212e+00	 1.000207544808773e+00
0	 5.066659999999587e+01	 1.000000000000000e+01	 1.006500127509836e+00
0	 5.133319999999192e+01	 6.666697222155556e+00	 7.418618419139628e-01
0	 5.133319999999192e+01	 7.000026324936848e+00	 7.880726870142775e-01
0	 5.133319999999192e+01	 7.333355377721245e+00	 8.298767128018156e-01
0	 5.133319999999192e+01	 7.666684497174504e+00	 8.672738757072845e-01
0	 5.133319999999191e+01	 8.000013799962401e+00	 9.002641414261637e-01
0	 5.133319999999190e+01	 8.333343402750696e+00	 9.288474848989161e-01
0	 5.133319999999191e+01	 8.666673422205159e+00	 9.530238903265444e-01
0	 5.133319999999192e+01	 9.000003974991555e+00	 9.727933511685686e-01
0	 5.133319999999192e+01	 9.333335177775647e+00	 9.881558701295400e-01
0	 5.133319999999193e+01	 9.666667147223210e+00	 9.991114591689292e-01
0	 5.133319999999193e+01	 1.000000000000000e+01	 1.005660139523741e+00
0	 5.199979999998840e+01	 6.666697222155556e+00	 7.407902321594173e-01
0	 5.199979999998838e+01	 7.000026324936848e+00	 7.867903490182816e-01
0	 5.199979999998838e+01	 7.333355377721247e+00	 8.284356222874603e-01
0	 5.199979999998839e+01	 7.666684497174506e+00	 8.657260085630708e-01
0	 5.199979999998839e+01	 8.000013799962403e+00	 8.986614735845497e-01
0	 5.199979999998838e+01	 8.333343402750698e+00	 9.272419922556854e-01
0	 5.199979999998838e+01	 8.666673422205156e+00	 9.514675485986701e-01
0	 5.199979999998839e+01	 9.000003974991555e+00	 9.713381357964522e-01
0	 5.199979999998838e+01	 9.333335177775650e+00	 9.868537561776741e-01
0	 5.199979999998839e+01	 9.666667147223210e+00	 9.980144212175261e-01
0	 5.199979999998840e+01	 1.000000000000000e+01	 1.004820151520595e+00
0	 5.266639999998545e+01	 6.666697222155556e+00	 7.398041089595094e-01
0	 5.266639999998546e+01	 7.000026324936850e+00	 7.856154084094678e-01
0	 5.266639999998546e+01	 7.333355377721245e+00	 8.271190708651847e-01
0	 5.266639999998544e+01	 7.666684497174507e+00	 8.643150530721554e-01
0	 5.266639999998547e+01	 8.000013799962403e+00	 8.972033208196808e-01
0	 5.266639999998544e+01	 8.333343402750698e+00	 9.257838489458254e-01
0	 5.266639999998547e+01	 8.666673422205159e+00	 9.500566213357822e-01
0	 5.266639999998546e+01	 9.000003974991554e+00	 9.700216309102307e-01
0	 5.266639999998544e+01	 9.333335177775650e+00	 9.856788796633706e-01
0	 5.266639999998544e+01	 9.666667147223210e+00	 9.970283785859326e-01
0	 5.266639999998544e+01	 9.999999999999998e+00	 1.004070147783230e+00
0	 5.333299999998334e+01	 6.666697222155556e+00	 7.390032062585868e-01
0	 5.333299999998334e+01	 7.000026324936851e+00	 7.846676128149732e-01
0	 5.333299999998334e+01	 7.333355377721246e+00	 8.260621556976033e-01
0	 5.333299999998333e+01	 7.666684497174505e+00	 8.631867917780358e-01
0	 5.333299999998333e+01	 8.000013799962403e+00	 8.960414868632469e-01
0	 5.333299999998333e+01	 8.333343402750696e+00	 9.246262157492144e-01
0	 5.333299999998334e+01	 8.666673422205159e+00	 9.489409621986227e-01
0	 5.333299999998334e+01	 9.000003974991555e+00	 9.689857189295559e-01
0	 5.333299999998334e+01	 9.333335177775650e+00	 9.847604876216756e-01
0	 5.333299999998333e+01	 9.666667147223210e+00	 9.962652789514536e-01
0	 5.333299999998333e+01	 1.000000000000000e+01	 1.003500112534790e+00
0	 5.333299999998333e+01	 0.000000000000000e+00	-2.250451080550187e-07
0	 5.333299999998334e+01	 3.333328527767944e-01	 6.245895455461806e-03
0	 5.333299999998333e+01	 6.666648222243554e-01	 1.688446487441107e-02
0	 5.333299999998334e+01	 9.999960250084504e-01	 3.191550464550029e-02
0	 5.333299999998333e+01	 1.333326577794845e+00	 5.133902699324856e-02
0	 5.333299999998334e+01	 1.666656597249305e+00	 7.515503490529618e-02
0	 5.333299999998332e+01	 1.999986200037600e+00	 1.033635221648733e-01
0	 5.333299999998333e+01	 2.333315502825495e+00	 1.359644733082369e-01
0	 5.333299999998334e+01	 2.666644622278756e+00	 1.729578636632459e-01
0	 5.333299999998334e+01	 2.999973675063150e+00	 2.143436593288409e-01
0	 5.333299999998334e+01	 3.333302777844445e+00	 2.601218171779662e-01
0	 5.399969999998215e+01	 0.000000000000000e+00	 6.434900709001966e-04
0	 5.399969999998215e+01	 3.333328527767945e-01	 6.939386988317113e-03
0	 5.399969999998214e+01	 6.666648222243552e-01	 1.761239980018914e-02
0	 5.399969999998213e+01	 9.999960250084502e-01	 3.266254980321049e-02
0	 5.399969999998214e+01	 1.333326577794845e+00	 5.208984910133618e-02
0	 5.399969999998215e+01	 1.666656597249305e+00	 7.589430059869443e-02
0	 5.399969999998215e+01	 1.999986200037600e+00	 1.040758980179498e-01
0	 5.399969999998214e+01	 2.333315502825494e+00	 1.366346258762945e-01
0	 5.399969999998216e+01	 2.666644622278756e+00	 1.735704595157179e-01
0	 5.399969999998214e+01	 2.999973675063150e+00	 2.148833650752651e-01
0	 5.399969999998213e+01	 3.333302777844444e+00	 2.605732995054443e-01
0	 5.466639999998186e+01	 0.000000000000000e+00	 8.281457729562869e-04
0	 5.466639999998186e+01	 3.333328527767945e-01	 7.195024251546342e-03
0	 5.466639999998186e+01	 6.666648222243555e-01	 1.792469077051384e-02
0	 5.466639999998186e+01	 9.999960250084501e-01	 3.301716647307704e-02
0	 5.466639999998185e+01	 1.333326577794845e+00	 5.247246331673878e-02
0	 5.466639999998187e+01	 1.666656597249306e+00	 7.629058411386860e-02
0	 5.466639999998186e+01	 1.999986200037600e+00	 1.044715224976530e-01
0	 5.466639999998186e+01	 2.333315502825494e+00	 1.370152629526134e-01
0	 5.466639999998186e+01	 2.666644622278756e+00	 1.739217807992061e-01
0	 5.466639999998186e+01	 2.999973675063150e+00	 2.151910421941519e-01
0	 5.466639999998186e+01	 3.333302777844445e+00	 2.608230041266150e-01
0	 5.533309999998237e+01	 0.000000000000000e+00	 6.347501842220520e-04
0	 5.533309999998238e+01	 3.333328527767945e-01	 7.087642409605010e-03
0	 5.533309999998237e+01	 6.666648222243555e-01	 1.789025498220041e-02
0	 5.533309999998237e+01	 9.999960250084501e-01	 3.304260886482915e-02
0	 5.533309999998238e+01	 1.333326577794844e+00	 5.254471587431676e-02
0	 5.533309999998237e+01	 1.666656597249305e+00	 7.639657869570284e-02
0	 5.533309999998237e+01	 1.999986200037600e+00	 1.045981908771685e-01
0	 5.533309999998239e+01	 2.333315502825495e+00	 1.371495368468071e-01
0	 5.533309999998237e+01	 2.666644622278755e+00	 1.740505918689743e-01
0	 5.533309999998237e+01	 2.999973675063150e+00	 2.153013221048230e-01
0	 5.533309999998237e+01	 3.333302777844444e+00	 2.609016845633238e-01
0	 5.599979999998358e+01	 0.000000000000000e+00	 1.443113951746902e-04
0	 5.599979999998360e+01	 3.333328527767944e-01	 6.692076630826070e-03
0	 5.599979999998358e+01	 6.666648222243553e-01	 1.757800963626430e-02
0	 5.599979999998359e+01	 9.999960250084499e-01	 3.280213120703150e-02
0	 5.599979999998359e+01	 1.333326577794844e+00	 5.236445300948977e-02
0	 5.599979999998359e+01	 1.666656597249306e+00	 7.626497760296085e-02
0	 5.599979999998359e+01	 1.999986200037600e+00	 1.045036984363725e-01
0	 5.599979999998357e+01	 2.333315502825494e+00	 1.370805998485614e-01
0	 5.599979999998359e+01	 2.666644622278756e+00	 1.739956570718968e-01
0	 5.599979999998359e+01	 2.999973675063151e+00	 2.152488362278730e-01
0	 5.599979999998358e+01	 3.333302777844445e+00	 2.608400943209322e-01
0	 5.666649999998540e+01	 0.000000000000000e+00	-5.621625008664580e-04
0	 5.666649999998540e+01	 3.333328527767945e-01	 6.083162071822561e-03
0	 5.666649999998539e+01	 6.666648222243554e-01	 1.705687194731495e-02
0	 5.666649999998539e+01	 9.999960250084498e-01	 3.235898772930233e-02
0	 5.666649999998540e+01	 1.333326577794844e+00	 5.198952096873949e-02
0	 5.666649999998541e+01	 1.666656597249306e+00	 7.594847408892677e-02
0	 5.666649999998541e+01	 1.999986200037600e+00	 1.042358404359670e-01
0	 5.666649999998540e+01	 2.333315502825494e+00	 1.368516042702803e-01
0	 5.666649999998540e+01	 2.666644622278755e+00	 1.737957407607680e-01
0	 5.666649999998541e+01	 2.999973675063150e+00	 2.150682159811819e-01
0	 5.666649999998541e+01	 3.333302777844445e+00	 2.606689869265774e-01
0	 5.733319999998771e+01	 0.000000000000000e+00	-1.403663399213481e-03
0	 5.733319999998773e+01	 3.333328527767945e-01	 5.335733896103236e-03
0	 5.733319999998772e+01	 6.666648222243555e-01	 1.639575909552771e-02
0	 5.733319999998773e+01	 9.999960250084503e-01	 3.177643265633148e-02
0	 5.733319999998773e+01	 1.333326577794845e+00	 5.147776598448787e-02
0	 5.733319999998773e+01	 1.666656597249306e+00	 7.549976140496971e-02
0	 5.733319999998773e+01	 1.999986200037600e+00	 1.038424121575008e-01
0	 5.733319999998773e+01	 2.333315502825495e+00	 1.365057024151709e-01
0	 5.733319999998770e+01	 2.666644622278755e+00	 1.734896072833427e-01
0	 5.733319999998773e+01	 2.999973675063150e+00	 2.147940927906426e-01
0	 5.733319999998771e+01	 3.333302777844445e+00	 2.604191158917658e-01
0	 5.799989999999045e+01	 0.000000000000000e+00	-2.299183200862755e-03
0	 5.799989999999043e+01	 3.333328527767944e-01	 4.524627267224112e-03
0	 5.799989999999043e+01	 6.666648222243554e-01	 1.566358828570046e-02
0	 5.799989999999043e+01	 9.999960250084503e-01	 3.111772020858662e-02
0	 5.799989999999043e+01	 1.333326577794845e+00	 5.088703429557365e-02
0	 5.799989999999043e+01	 1.666656597249305e+00	 7.497153280081287e-02
0	 5.799989999999044e+01	 1.999986200037600e+00	 1.033712088685461e-01
0	 5.799989999999043e+01	 2.333315502825495e+00	 1.360860465805758e-01
0	 5.799989999999043e+01	 2.666644622278755e+00	 1.731160209939301e-01
0	 5.799989999999043e+01	 2.999973675063150e+00	 2.144610980750366e-01
0	 5.799989999999044e+01	 3.333302777844446e+00	 2.601212347252359e-01
0	 5.866659999999346e+01	 0.000000000000000e+00	-3.167713789757799e-03
0	 5.866659999999344e+01	 3.333328527767945e-01	 3.724677344416603e-03
0	 5.866659999999346e+01	 6.666648222243556e-01	 1.492927673941703e-02
0	 5.866659999999344e+01	 9.999960250084501e-01	 3.044610460200210e-02
0	 5.866659999999344e+01	 1.333326577794844e+00	 5.027517215451812e-02
0	 5.866659999999344e+01	 1.666656597249305e+00	 7.441648153626448e-02
0	 5.866659999999344e+01	 1.999986200037600e+00	 1.028700258360453e-01
0	 5.866659999999346e+01	 2.333315502825495e+00	 1.356357890778085e-01
0	 5.866659999999344e+01	 2.666644622278755e+00	 1.727137462420342e-01
0	 5.866659999999344e+01	 2.999973675063150e+00	 2.141038632454097e-01
0	 5.866659999999344e+01	 3.333302777844445e+00	 2.598060969538393e-01
0	 5.933329999999666e+01	 0.000000000000000e+00	-3.928247095316411e-03
0	 5.933329999999665e+01	 3.333328527767944e-01	 3.010719305215363e-03
0	 5.933329999999666e+01	 6.666648222243555e-01	 1.426174162150838e-02
0	 5.933329999999665e+01	 9.999960250084499e-01	 2.982484007573318e-02
0	 5.933329999999667e+01	 1.333326577794844e+00	 4.970002578640184e-02
0	 5.933329999999666e+01	 1.666656597249306e+00	 7.388730086193608e-02
0	 5.933329999999666e+01	 1.999986200037600e+00	 1.023866583449971e-01
0	 5.933329999999666e+01	 2.333315502825495e+00	 1.351980822072434e-01
0	 5.933329999999665e+01	 2.666644622278755e+00	 1.723215473806188e-01
0	 5.933329999999666e+01	 2.999973675063150e+00	 2.137570197290117e-01
0	 5.933329999999666e+01	 3.333302777844446e+00	 2.595044560859134e-01
0	 5.999999999999999e+01	 0.000000000000000e+00	-4.499774995797828e-03
0	 5.999999999999999e+01	 3.333328527767945e-01	 2.457588302436101e-03
0	 6.000000000000000e+01	 6.666648222243554e-01	 1.372990017278102e-02
0	 6.000000000000002e+01	 9.999960250084502e-01	 2.931718083822545e-02
0	 6.000000000000001e+01	 1.333326577794844e+00	 4.921944143292676e-02
0	 6.000000000000001e+01	 1.666656597249305e+00	 7.343668402608031e-02
0	 6.000000000000000e+01	 1.999986200037600e+00	 1.019689016521164e-01
0	 6.000000000000001e+01	 2.333315502825495e+00	 1.348160782660924e-01
0	 6.000000000000000e+01	 2.666644622278755e+00	 1.719781887493291e-01
0	 6.000000000000000e+01	 2.999973675063150e+00	 2.134551989535181e-01
0	 6.000000000000001e+01	 3.333302777844445e+00	 2.592470656392901e-01
0	 5.333299999998334e+01	 3.333302777844445e+00	 2.601218171779662e-01
0	 5.333299999998331e+01	 3.666642022268355e+00	 3.080887948334797e-01
0	 5.333299999998333e+01	 3.999981400030399e+00	 3.560382144118118e-01
0	 5.333299999998332e+01	 4.333320877796043e+00	 4.039700903038417e-01
0	 5.333299999998334e+01	 4.666660422230756e+00	 4.518844369179395e-01
0	 5.333299999998332e+01	 5.000000000000001e+00	 4.997812686243454e-01
0	 5.333299999998332e+01	 5.333339577769242e+00	 5.476605998007282e-01
0	 5.333299999998333e+01	 5.666679122203955e+00	 5.955224448041523e-01
0	 5.333299999998334e+01	 6.000018599969599e+00	 6.433668179936236e-01
0	 5.333299999998332e+01	 6.333357977731643e+00	 6.911937336992845e-01
0	 5.333299999998334e+01	 6.666697222155556e+00	 7.390032062585870e-01
0	 5.399969999998213e+01	 3.333302777844444e+00	 2.605732995054442e-01
0	 5.399969999998214e+01	 3.666642022268355e+00	 3.084440712050203e-01
0	 5.399969999998216e+01	 3.999981400030400e+00	 3.562966587339588e-01
0	 5.399969999998214e+01	 4.333320877796043e+00	 4.041310764593722e-01
0	 5.399969999998214e+01	 4.666660422230755e+00	 4.519473387510493e-01
0	 5.399969999998213e+01	 4.999999999999999e+00	 4.997454599619963e-01
0	 5.399969999998216e+01	 5.333339577769244e+00	 5.475254544354548e-01
0	 5.399969999998215e+01	 5.666679122203955e+00	 5.952873364988169e-01
0	 5.399969999998216e+01	 6.000018599969599e+00	 6.430311204726165e-01
0	 5.399969999998213e+01	 6.333357977731642e+00	 6.907568206729378e-01
0	 5.399969999998216e+01	 6.666697222155556e+00	 7.384644513898097e-01
0	 5.466639999998186e+01	 3.333302777844445e+00	 2.608230041266150e-01
0	 5.466639999998186e+01	 3.666642022268355e+00	 3.086297493824866e-01
0	 5.466639999998187e+01	 3.999981400030400e+00	 3.564205347436928e-01
0	 5.466639999998187e+01	 4.333320877796043e+00	 4.041953745653045e-01
0	 5.466639999998185e+01	 4.666660422230756e+00	 4.519542831851237e-01
0	 5.466639999998186e+01	 5.000000000000000e+00	 4.996972749435305e-01
0	 5.466639999998185e+01	 5.333339577769243e+00	 5.474243641669281e-01
0	 5.466639999998186e+01	 5.666679122203955e+00	 5.951355651719425e-01
0	 5.466639999998186e+01	 6.000018599969600e+00	 6.428308922633319e-01
0	 5.466639999998184e+01	 6.333357977731642e+00	 6.905103597376780e-01
0	 5.466639999998187e+01	 6.666697222155557e+00	 7.381739818798118e-01
0	 5.533309999998237e+01	 3.333302777844444e+00	 2.609016845633238e-01
0	 5.533309999998239e+01	 3.666642022268356e+00	 3.086725323531291e-01
0	 5.533309999998237e+01	 3.999981400030400e+00	 3.564318948371772e-01
0	 5.533309999998238e+01	 4.333320877796045e+00	 4.041797863579892e-01
0	 5.533309999998236e+01	 4.666660422230755e+00	 4.519162212519753e-01
0	 5.533309999998237e+01	 4.999999999999997e+00	 4.996412138342013e-01
0	 5.533309999998239e+01	 5.333339577769244e+00	 5.473547784354562e-01
0	 5.533309999998237e+01	 5.666679122203955e+00	 5.950569293640416e-01
0	 5.533309999998237e+01	 6.000018599969598e+00	 6.427476809282322e-01
0	 5.533309999998239e+01	 6.333357977731644e+00	 6.904270474198632e-01
0	 5.533309999998238e+01	 6.666697222155555e+00	 7.380950431386077e-01
0	 5.599979999998358e+01	 3.333302777844445e+00	 2.608400943209322e-01
0	 5.599979999998359e+01	 3.666642022268356e+00	 3.085991230954409e-01
0	 5.599979999998359e+01	 3.999981400030400e+00	 3.563527914104742e-01
0	 5.599979999998359e+01	 4.333320877796043e+00	 4.041011135975154e-01
0	 5.599979999998360e+01	 4.666660422230756e+00	 4.518441039855080e-01
0	 5.599979999998359e+01	 4.999999999999999e+00	 4.995817769033966e-01
0	 5.599979999998359e+01	 5.333339577769243e+00	 5.473141466740535e-01
0	 5.599979999998360e+01	 5.666679122203955e+00	 5.950412276100570e-01
0	 5.599979999998358e+01	 6.000018599969596e+00	 6.427630340338860e-01
0	 5.599979999998359e+01	 6.333357977731643e+00	 6.904795802550526e-01
0	 5.599979999998358e+01	 6.666697222155554e+00	 7.381908805823442e-01
0	 5.666649999998541e+01	 3.333302777844445e+00	 2.606689869265775e-01
0	 5.666649999998540e+01	 3.666642022268356e+00	 3.084362245978490e-01
0	 5.666649999998541e+01	 3.999981400030399e+00	 3.562052768533762e-01
0	 5.666649999998538e+01	 4.333320877796045e+00	 4.039761580206472e-01
0	 5.666649999998542e+01	 4.666660422230756e+00	 4.517488824312178e-01
0	 5.666649999998540e+01	 5.000000000000000e+00	 4.995234644168907e-01
0	 5.666649999998540e+01	 5.333339577769244e+00	 5.472999183066876e-01
0	 5.666649999998540e+01	 5.666679122203953e+00	 5.950782584388619e-01
0	 5.666649999998540e+01	 6.000018599969598e+00	 6.428584991484221e-01
0	 5.666649999998541e+01	 6.333357977731644e+00	 6.906406547643298e-01
0	 5.666649999998540e+01	 6.666697222155555e+00	 7.384247396286662e-01
0	 5.733319999998771e+01	 3.333302777844445e+00	 2.604191158917658e-01
0	 5.733319999998773e+01	 3.666642022268357e+00	 3.082105398462817e-01
0	 5.733319999998772e+01	 3.999981400030400e+00	 3.560114035639932e-01
0	 5.733319999998772e+01	 4.333320877796043e+00	 4.038217213811641e-01
0	 5.733319999998771e+01	 4.666660422230755e+00	 4.516415076249785e-01
0	 5.733319999998773e+01	 5.000000000000000e+00	 4.994707766404473e-01
0	 5.733319999998773e+01	 5.333339577769244e+00	 5.473095427811496e-01
0	 5.733319999998773e+01	 5.666679122203954e+00	 5.951578203924655e-01
0	 5.733319999998770e+01	 6.000018599969599e+00	 6.430156238380713e-01
0	 5.733319999998771e+01	 6.333357977731642e+00	 6.908829674770454e-01
0	 5.733319999998771e+01	 6.666697222155556e+00	 7.387598656897221e-01
0	 5.799989999999044e+01	 3.333302777844446e+00	 2.601212347252359e-01
0	 5.799989999999044e+01	 3.666642022268357e+00	 3.079487718166286e-01
0	 5.799989999999043e+01	 3.999981400030400e+00	 3.557932239351719e-01
0	 5.799989999999043e+01	 4.333320877796044e+00	 4.036546054126232e-01
0	 5.799989999999043e+01	 4.666660422230754e+00	 4.515329305976619e-01
0	 5.799989999999043e+01	 4.999999999999999e+00	 4.994282138469110e-01
0	 5.799989999999044e+01	 5.333339577769245e+00	 5.473404695162646e-01
0	 5.799989999999045e+01	 5.666679122203955e+00	 5.952697119998813e-01
0	 5.799989999999044e+01	 6.000018599969599e+00	 6.432159556680571e-01
0	 5.799989999999043e+01	 6.333357977731644e+00	 6.911792149300657e-01
0	 5.799989999999043e+01	 6.666697222155555e+00	 7.391595041870672e-01
0	 5.866659999999344e+01	 3.333302777844445e+00	 2.598060969538393e-01
0	 5.866659999999345e+01	 3.666642022268355e+00	 3.076776235031815e-01
0	 5.866659999999344e+01	 3.999981400030399e+00	 3.555727903646033e-01
0	 5.866659999999344e+01	 4.333320877796044e+00	 4.034916118751105e-01
0	 5.866659999999344e+01	 4.666660422230755e+00	 4.514341023959574e-01
0	 5.866659999999342e+01	 4.999999999999999e+00	 4.994002762944463e-01
0	 5.866659999999344e+01	 5.333339577769244e+00	 5.473901479628090e-01
0	 5.866659999999344e+01	 5.666679122203953e+00	 5.954037317965586e-01
0	 5.866659999999344e+01	 6.000018599969597e+00	 6.434410422134527e-01
0	 5.866659999999344e+01	 6.333357977731641e+00	 6.915020936390506e-01
0	 5.866659999999344e+01	 6.666697222155554e+00	 7.395869005301602e-01
0	 5.933329999999666e+01	 3.333302777844446e+00	 2.595044560859134e-01
0	 5.933329999999665e+01	 3.666642022268355e+00	 3.074237978896202e-01
0	 5.933329999999666e+01	 3.999981400030400e+00	 3.553721552502464e-01
0	 5.933329999999668e+01	 4.333320877796044e+00	 4.033495425099556e-01
0	 5.933329999999666e+01	 4.666660422230756e+00	 4.513559740518719e-01
0	 5.933329999999665e+01	 5.000000000000000e+00	 4.993914642607974e-01
0	 5.933329999999665e+01	 5.333339577769244e+00	 5.474560275384732e-01
0	 5.933329999999666e+01	 5.666679122203955e+00	 5.955496783149843e-01
0	 5.933329999999665e+01	 6.000018599969598e+00	 6.436724310323013e-01
0	 5.933329999999667e+01	 6.333357977731643e+00	 6.918243001483718e-01
0	 5.933329999999665e+01	 6.666697222155556e+00	 7.400053001319491e-01
0	 6.000000000000001e+01	 3.333302777844445e+00	 2.592470656392901e-01
0	 6.000000000000000e+01	 3.666642022268356e+00	 3.072139979528707e-01
0	 5.999999999999998e+01	 3.999981400030399e+00	 3.552133709763237e-01
0	 6.000000000000001e+01	 4.333320877796045e+00	 4.032451990599298e-01
0	 6.000000000000000e+01	 4.666660422230756e+00	 4.513094966025336e-01
0	 5.999999999999999e+01	 4.999999999999999e+00	 4.994062779994207e-01
0	 6.000000000000001e+01	 5.333339577769245e+00	 5.475355576845861e-01
0	 6.000000000000001e+01	 5.666679122203956e+00	 5.956973500945142e-01
0	 6.000000000000000e+01	 6.000018599969599e+00	 6.438916696926310e-01
0	 5.999999999999999e+01	 6.333357977731641e+00	 6.921185309634059e-01
0	 6.000000000000001e+01	 6.666697222155557e+00	 7.403779484188335e-01
0	 5.333299999998334e+01	 6.666697222155556e+00	 7.390032062585868e-01
0	 5.333299999998334e+01	 7.000026324936851e+00	 7.846676128149732e-01
0	 5.333299999998334e+01	 7.333355377721246e+00	 8.260621556976033e-01
0	 5.333299999998333e+01	 7.666684497174505e+00	 8.631867917780358e-01
0	 5.333299999998333e+01	 8.000013799962403e+00	 8.960414868632469e-01
0	 5.333299999998333e+01	 8.333343402750696e+00	 9.246262157492143e-01
0	 5.333299999998334e+01	 8.666673422205159e+00	 9.489409621986227e-01
0	 5.333299999998334e+01	 9.000003974991555e+00	 9.689857189295559e-01
0	 5.333299999998334e+01	 9.333335177775650e+00	 9.847604876216753e-01
0	 5.333299999998333e+01	 9.666667147223210e+00	 9.962652789514536e-01
0	 5.333299999998333e+01	 1.000000000000000e+01	 1.003500112534790e+00
0	 5.399969999998216e+01	 6.666697222155556e+00	 7.384644513898095e-01
0	 5.399969999998213e+01	 7.000026324936850e+00	 7.840390826638863e-01
0	 5.399969999998214e+01	 7.333355377721244e+00	 8.253686036677494e-01
0	 5.399969999998216e+01	 7.666684497174507e+00	 8.624529713254127e-01
0	 5.399969999998216e+01	 8.000013799962403e+00	 8.952921514786631e-01
0	 5.399969999998216e+01	 8.333343402750698e+00	 9.238861188841446e-01
0	 5.399969999998214e+01	 8.666673422205157e+00	 9.482348571945299e-01
0	 5.399969999998214e+01	 9.000003974991552e+00	 9.683383590033693e-01
0	 5.399969999998215e+01	 9.333335177775648e+00	 9.841966258061442e-01
0	 5.399969999998216e+01	 9.666667147223214e+00	 9.958096680062472e-01
0	 5.399969999998215e+01	 1.000000000000000e+01	 1.003177504945979e+00
0	 5.466639999998187e+01	 6.666697222155557e+00	 7.381739818798119e-01
0	 5.466639999998186e+01	 7.000026324936849e+00	 7.837119363773453e-01
0	 5.466639999998185e+01	 7.333355377721245e+00	 8.250172175425788e-01
0	 5.466639999998187e+01	 7.666684497174506e+00	 8.620897823059543e-01
0	 5.466639999998187e+01	 8.000013799962405e+00	 8.949295965111277e-01
0	 5.466639999998186e+01	 8.333343402750698e+00	 9.235366348865763e-01
0	 5.466639999998186e+01	 8.666673422205159e+00	 9.479108810392998e-01
0	 5.466639999998184e+01	 9.000003974991552e+00	 9.680523274758441e-01
0	 5.466639999998186e+01	 9.333335177775647e+00	 9.839609755805264e-01
0	 5.466639999998186e+01	 9.666667147223208e+00	 9.956368356436737e-01
0	 5.466639999998186e+01	 1.000000000000000e+01	 1.003079926830281e+00
0	 5.533309999998238e+01	 6.666697222155555e+00	 7.380950431386079e-01
0	 5.533309999998238e+01	 7.000026324936850e+00	 7.836405611065107e-01
0	 5.533309999998237e+01	 7.333355377721245e+00	 8.249553113651372e-01
0	 5.533309999998237e+01	 7.666684497174506e+00	 8.620392508438621e-01
0	 5.533309999998237e+01	 8.000013799962401e+00	 8.948923453674958e-01
0	 5.533309999998238e+01	 8.333343402750701e+00	 9.235145696323319e-01
0	 5.533309999998239e+01	 8.666673422205156e+00	 9.479059072519809e-01
0	 5.533309999998237e+01	 9.000003974991552e+00	 9.680663506785557e-01
0	 5.533309999998237e+01	 9.333335177775648e+00	 9.839959012822174e-01
0	 5.533309999998239e+01	 9.666667147223210e+00	 9.956945693204331e-01
0	 5.533309999998237e+01	 1.000000000000000e+01	 1.003162373906466e+00
0	 5.599979999998358e+01	 6.666697222155554e+00	 7.381908805823442e-01
0	 5.599979999998359e+01	 7.000026324936849e+00	 7.837793439924360e-01
0	 5.599979999998358e+01	 7.333355377721245e+00	 8.251301991884010e-01
0	 5.599979999998358e+01	 7.666684497174504e+00	 8.622434030687257e-01
0	 5.599979999998359e+01	 8.000013799962401e+00	 8.951189214399208e-01
0	 5.599979999998359e+01	 8.333343402750698e+00	 9.237567289994678e-01
0	 5.599979999998359e+01	 8.666673422205157e+00	 9.481568093367727e-01
0	 5.599979999998358e+01	 9.000003974991552e+00	 9.683191549539822e-01
0	 5.599979999998359e+01	 9.333335177775647e+00	 9.842437672486677e-01
0	 5.599979999998359e+01	 9.666667147223212e+00	 9.959306565053752e-01
0	 5.599979999998358e+01	 1.000000000000000e+01	 1.003379841916026e+00
0	 5.666649999998540e+01	 6.666697222155555e+00	 7.384247396286662e-01
0	 5.666649999998541e+01	 7.000026324936850e+00	 7.840826721630424e-01
0	 5.666649999998540e+01	 7.333355377721245e+00	 8.254891950501294e-01
0	 5.666649999998540e+01	 7.666684497174506e+00	 8.626442651206671e-01
0	 5.666649999998541e+01	 8.000013799962401e+00	 8.955478481556333e-01
0	 5.666649999998540e+01	 8.333343402750698e+00	 9.241999188431798e-01
0	 5.666649999998540e+01	 8.666673422205157e+00	 9.486004608189160e-01
0	 5.666649999998538e+01	 9.000003974991554e+00	 9.687494666364913e-01
0	 5.666649999998541e+01	 9.333335177775650e+00	 9.846469377673016e-01
0	 5.666649999998540e+01	 9.666667147223208e+00	 9.962928846287111e-01
0	 5.666649999998540e+01	 1.000000000000000e+01	 1.003687326583442e+00
0	 5.733319999998771e+01	 6.666697222155556e+00	 7.387598656897220e-01
0	 5.733319999998772e+01	 7.000026324936852e+00	 7.845049327764092e-01
0	 5.733319999998771e+01	 7.333355377721244e+00	 8.259796129961660e-01
0	 5.733319999998772e+01	 7.666684497174507e+00	 8.631838631285609e-01
0	 5.733319999998773e+01	 8.000013799962403e+00	 8.961176489087299e-01
0	 5.733319999998775e+01	 8.333343402750698e+00	 9.247809450445500e-01
0	 5.733319999998772e+01	 8.666673422205161e+00	 9.491737352089960e-01
0	 5.733319999998773e+01	 9.000003974991554e+00	 9.692960120589201e-01
0	 5.733319999998769e+01	 9.333335177775647e+00	 9.851477771942948e-01
0	 5.733319999998772e+01	 9.666667147223212e+00	 9.967290411931606e-01
0	 5.733319999998771e+01	 1.000000000000000e+01	 1.004039823610389e+00
0	 5.799989999999043e+01	 6.666697222155555e+00	 7.391595041870673e-01
0	 5.799989999999043e+01	 7.000026324936849e+00	 7.850005129610823e-01
0	 5.799989999999043e+01	 7.333355377721245e+00	 8.265487670797839e-01
0	 5.799989999999044e+01	 7.666684497174506e+00	 8.638042232188313e-01
0	 5.799989999999045e+01	 8.000013799962403e+00	 8.967668471081216e-01
0	 5.799989999999043e+01	 8.333343402750698e+00	 9.254366134668629e-01
0	 5.799989999999042e+01	 8.666673422205157e+00	 9.498135060341196e-01
0	 5.799989999999043e+01	 9.000003974991552e+00	 9.698975175630205e-01
0	 5.799989999999044e+01	 9.333335177775648e+00	 9.856886498293620e-01
0	 5.799989999999043e+01	 9.666667147223208e+00	 9.971869136214211e-01
0	 5.799989999999045e+01	 1.000000000000000e+01	 1.004392328752893e+00
0	 5.866659999999344e+01	 6.666697222155554e+00	 7.395869005301602e-01
0	 5.866659999999344e+01	 7.000026324936851e+00	 7.855237998718776e-01
0	 5.866659999999344e+01	 7.333355377721243e+00	 8.271439713362773e-01
0	 5.866659999999346e+01	 7.666684497174508e+00	 8.644473715358412e-01
0	 5.866659999999344e+01	 8.000013799962401e+00	 8.974339661704630e-01
0	 5.866659999999345e+01	 8.333343402750696e+00	 9.261037299780442e-01
0	 5.866659999999346e+01	 8.666673422205159e+00	 9.504566467958564e-01
0	 5.866659999999347e+01	 9.000003974991555e+00	 9.704927094915627e-01
0	 5.866659999999344e+01	 9.333335177775647e+00	 9.862119200218165e-01
0	 5.866659999999346e+01	 9.666667147223212e+00	 9.976142894011857e-01
0	 5.866659999999346e+01	 1.000000000000000e+01	 1.004699837708904e+00
0	 5.933329999999665e+01	 6.666697222155556e+00	 7.400053001319490e-01
0	 5.933329999999667e+01	 7.000026324936849e+00	 7.860291806379416e-01
0	 5.933329999999667e+01	 7.333355377721245e+00	 8.277125398104140e-01
0	 5.933329999999668e+01	 7.666684497174506e+00	 8.650553342012643e-01
0	 5.933329999999666e+01	 8.000013799962401e+00	 8.980575294891721e-01
0	 5.933329999999666e+01	 8.333343402750698e+00	 9.267191004576633e-01
0	 5.933329999999666e+01	 8.666673422205157e+00	 9.510400310156867e-01
0	 5.933329999999665e+01	 9.000003974991552e+00	 9.710203141721212e-01
0	 5.933329999999666e+01	 9.333335177775648e+00	 9.866599520851765e-01
0	 5.933329999999666e+01	 9.666667147223208e+00	 9.979589559823621e-01
0	 5.933329999999666e+01	 9.999999999999998e+00	 1.004917346225213e+00
0	 6.000000000000001e+01	 6.666697222155557e+00	 7.403779484188334e-01
0	 6.000000000000000e+01	 7.000026324936850e+00	 7.864710424106008e-01
0	 6.000000000000000e+01	 7.333355377721244e+00	 8.282017865530720e-01
0	 6.000000000000000e+01	 7.666684497174508e+00	 8.655701373533657e-01
0	 6.000000000000001e+01	 8.000013799962401e+00	 8.985760604779882e-01
0	 6.000000000000000e+01	 8.333343402750696e+00	 9.272195307618990e-01
0	 6.000000000000001e+01	 8.666673422205157e+00	 9.515005322071313e-01
0	 6.000000000000001e+01	 9.000003974991552e+00	 9.714190579568127e-01
0	 6.000000000000000e+01	 9.333335177775648e+00	 9.869751103168749e-01
0	 6.000000000000001e+01	 9.666667147223212e+00	 9.981687008015410e-01
0	 5.999999999999999e+01	 1.000000000000000e+01	 1.004999850007404e+00
0	 5.999999999999999e+01	 0.000000000000000e+00	-4.499774995797828e-03
0	 5.999999999999999e+01	 3.333328527767945e-01	 2.457588302436101e-03
0	 6.000000000000000e+01	 6.666648222243554e-01	 1.372990017278102e-02
0	 6.000000000000002e+01	 9.999960250084502e-01	 2.931718083822545e-02
0	 6.000000000000001e+01	 1.333326577794844e+00	 4.921944143292676e-02
0	 6.000000000000001e+01	 1.666656597249305e+00	 7.343668402608031e-02
0	 6.000000000000000e+01	 1.999986200037600e+00	 1.019689016521164e-01
0	 6.000000000000001e+01	 2.333315502825495e+00	 1.348160782660924e-01
0	 6.000000000000000e+01	 2.666644622278755e+00	 1.719781887493291e-01
0	 6.000000000000000e+01	 2.999973675063150e+00	 2.134551989535181e-01
0	 6.000000000000001e+01	 3.333302777844445e+00	 2.592470656392901e-01
0	 6.066670000000332e+01	 0.000000000000000e+00	-4.822291344200398e-03
0	 6.066670000000331e+01	 3.333328527767944e-01	 2.121563981665153e-03
0	 6.066670000000330e+01	 6.666648222243554e-01	 1.338635300466288e-02
0	 6.066670000000332e+01	 9.999960250084503e-01	 2.897209598335492e-02
0	 6.066670000000332e+01	 1.333326577794845e+00	 4.887880410568544e-02
0	 6.066670000000333e+01	 1.666656597249306e+00	 7.310647946861824e-02
0	 6.066670000000332e+01	 1.999986200037600e+00	 1.016551151114778e-01
0	 6.066670000000331e+01	 2.333315502825494e+00	 1.345246949990187e-01
0	 6.066670000000332e+01	 2.666644622278756e+00	 1.717151940050939e-01
0	 6.066670000000332e+01	 2.999973675063151e+00	 2.132265779453001e-01
0	 6.066670000000331e+01	 3.333302777844445e+00	 2.590588035545374e-01
0	 6.133340000000654e+01	 0.000000000000000e+00	-4.919797795846095e-03
0	 6.133340000000651e+01	 3.333328527767944e-01	 1.984703963274011e-03
0	 6.133340000000655e+01	 6.666648222243556e-01	 1.321843443864649e-02
0	 6.133340000000653e+01	 9.999960250084502e-01	 2.878141401230122e-02
0	 6.133340000000653e+01	 1.333326577794844e+00	 4.867365391906126e-02
0	 6.133340000000653e+01	 1.666656597249305e+00	 7.289515633568279e-02
0	 6.133340000000652e+01	 1.999986200037600e+00	 1.014459143375997e-01
0	 6.133340000000653e+01	 2.333315502825495e+00	 1.343259119051762e-01
0	 6.133340000000653e+01	 2.666644622278756e+00	 1.715351239284982e-01
0	 6.133340000000651e+01	 2.999973675063149e+00	 2.130735162114957e-01
0	 6.133340000000653e+01	 3.333302777844445e+00	 2.589410454641866e-01
0	 6.200010000000953e+01	 0.000000000000000e+00	-4.837297941030996e-03
0	 6.200010000000955e+01	 3.333328527767945e-01	 2.010510349832591e-03
0	 6.200010000000954e+01	 6.666648222243556e-01	 1.319716226560069e-02
0	 6.200010000000953e+01	 9.999960250084500e-01	 2.872267828937114e-02
0	 6.200010000000955e+01	 1.333326577794844e+00	 4.858706977095918e-02
0	 6.200010000000956e+01	 1.666656597249306e+00	 7.279033896624129e-02
0	 6.200010000000954e+01	 1.999986200037600e+00	 1.013324790065112e-01
0	 6.200010000000954e+01	 2.333315502825495e+00	 1.342134739173478e-01
0	 6.200010000000955e+01	 2.666644622278756e+00	 1.714332986120755e-01
0	 6.200010000000954e+01	 2.999973675063150e+00	 2.129919188858891e-01
0	 6.200010000000955e+01	 3.333302777844445e+00	 2.588892914217212e-01
0	 6.266680000001226e+01	 0.000000000000000e+00	-4.619795392688393e-03
0	 6.266680000001227e+01	 3.333328527767945e-01	 2.162485241902740e-03
0	 6.266680000001227e+01	 6.666648222243555e-01	 1.329355422146441e-02
0	 6.266680000001227e+01	 9.999960250084501e-01	 2.877343217233391e-02
0	 6.266680000001223e+01	 1.333326577794844e+00	 4.860213055036037e-02
0	 6.266680000001225e+01	 1.666656597249305e+00	 7.277965169687435e-02
0	 6.266680000001225e+01	 1.999986200037600e+00	 1.013059888132249e-01
0	 6.266680000001223e+01	 2.333315502825494e+00	 1.341811259824177e-01
0	 6.266680000001225e+01	 2.666644622278755e+00	 1.714050381343498e-01
0	 6.266680000001227e+01	 2.999973675063150e+00	 2.129776910777991e-01
0	 6.266680000001227e+01	 3.333302777844445e+00	 2.588990414879824e-01
0	 6.333350000001457e+01	 0.000000000000000e+00	-4.312293747201097e-03
0	 6.333350000001457e+01	 3.333328527767944e-01	 2.404130746177159e-03
0	 6.333350000001456e+01	 6.666648222243554e-01	 1.347862808444295e-02
0	 6.333350000001457e+01	 9.999960250084501e-01	 2.891121902390485e-02
0	 6.333350000001455e+01	 1.333326577794844e+00	 4.870191513638202e-02
0	 6.333350000001457e+01	 1.666656597249306e+00	 7.285071885148235e-02
0	 6.333350000001457e+01	 1.999986200037600e+00	 1.013576234446905e-01
0	 6.333350000001457e+01	 2.333315502825495e+00	 1.342226130313016e-01
0	 6.333350000001456e+01	 2.666644622278756e+00	 1.714456625857534e-01
0	 6.333350000001457e+01	 2.999973675063150e+00	 2.130267379260037e-01
0	 6.333350000001457e+01	 3.333302777844445e+00	 2.589657957168349e-01
0	 6.400020000001638e+01	 0.000000000000000e+00	-3.959796593957583e-03
0	 6.400020000001639e+01	 3.333328527767945e-01	 2.698948955008884e-03
0	 6.400020000001638e+01	 6.666648222243555e-01	 1.372340160783769e-02
0	 6.400020000001639e+01	 9.999960250084501e-01	 2.911358222124912e-02
0	 6.400020000001639e+01	 1.333326577794845e+00	 4.886950243738458e-02
0	 6.400020000001639e+01	 1.666656597249305e+00	 7.299116478190469e-02
0	 6.400020000001638e+01	 1.999986200037599e+00	 1.014785625749597e-01
0	 6.400020000001638e+01	 2.333315502825495e+00	 1.343316799979584e-01
0	 6.400020000001638e+01	 2.666644622278755e+00	 1.715504920467628e-01
0	 6.400020000001638e+01	 2.999973675063150e+00	 2.131349645463061e-01
0	 6.400020000001639e+01	 3.333302777844445e+00	 2.590850541671660e-01
0	 6.466690000001759e+01	 0.000000000000000e+00	-3.607307552899363e-03
0	 6.466690000001761e+01	 3.333328527767946e-01	 3.010441983911829e-03
0	 6.466690000001759e+01	 6.666648222243553e-01	 1.399889257149766e-02
0	 6.466690000001758e+01	 9.999960250084500e-01	 2.935806510977273e-02
0	 6.466690000001763e+01	 1.333326577794845e+00	 4.908797133482193e-02
0	 6.466690000001761e+01	 1.666656597249306e+00	 7.318861380525297e-02
0	 6.466690000001761e+01	 1.999986200037600e+00	 1.016599859042830e-01
0	 6.466690000001761e+01	 2.333315502825495e+00	 1.345020718242322e-01
0	 6.466690000001758e+01	 2.666644622278755e+00	 1.717148465982285e-01
0	 6.466690000001762e+01	 2.999973675063150e+00	 2.132982760670691e-01
0	 6.466690000001761e+01	 3.333302777844445e+00	 2.592523168886242e-01
0	 6.533360000001812e+01	 0.000000000000000e+00	-3.299830206487186e-03
0	 6.533360000001812e+01	 3.333328527767944e-01	 3.302111954927138e-03
0	 6.533360000001811e+01	 6.666648222243555e-01	 1.427611872993629e-02
0	 6.533360000001811e+01	 9.999960250084501e-01	 2.962221106308690e-02
0	 6.533360000001812e+01	 1.333326577794845e+00	 4.934040071536727e-02
0	 6.533360000001811e+01	 1.666656597249305e+00	 7.343069026601812e-02
0	 6.533360000001812e+01	 1.999986200037600e+00	 1.018930731028486e-01
0	 6.533360000001809e+01	 2.333315502825494e+00	 1.347275334474919e-01
0	 6.533360000001811e+01	 2.666644622278756e+00	 1.719340463317324e-01
0	 6.533360000001811e+01	 2.999973675063150e+00	 2.135125776066115e-01
0	 6.533360000001812e+01	 3.333302777844445e+00	 2.594630839426886e-01
0	 6.600030000001783e+01	 0.000000000000000e+00	-3.082368159208414e-03
0	 6.600030000001782e+01	 3.333328527767944e-01	 3.537460936772041e-03
0	 6.600030000001782e+01	 6.666648222243553e-01	 1.452609783292858e-02
0	 6.600030000001783e+01	 9.999960250084502e-01	 2.988356343477208e-02
0	 6.600030000001783e+01	 1.333326577794844e+00	 4.960986947101231e-02
0	 6.600030000001780e+01	 1.666656597249305e+00	 7.370501848681038e-02
0	 6.600030000001783e+01	 1.999986200037600e+00	 1.021690038641181e-01
0	 6.600030000001786e+01	 2.333315502825495e+00	 1.350018098017337e-01
0	 6.600030000001782e+01	 2.666644622278755e+00	 1.722034113255487e-01
0	 6.600030000001782e+01	 2.999973675063150e+00	 2.137737742926589e-01
0	 6.600030000001783e+01	 3.333302777844444e+00	 2.597128553852054e-01
0	 6.666700000001666e+01	 0.000000000000000e+00	-2.999925015550403e-03
0	 6.666700000001666e+01	 3.333328527767945e-01	 3.679991049418773e-03
0	 6.666700000001666e+01	 6.666648222243556e-01	 1.471984766030552e-02
0	 6.666700000001666e+01	 9.999960250084502e-01	 3.011966559612675e-02
0	 6.666700000001667e+01	 1.333326577794845e+00	 4.987945649544891e-02
0	 6.666700000001667e+01	 1.666656597249306e+00	 7.399922281389783e-02
0	 6.666700000001667e+01	 1.999986200037600e+00	 1.024789578649755e-01
0	 6.666700000001666e+01	 2.333315502825494e+00	 1.353186458214060e-01
0	 6.666700000001666e+01	 2.666644622278755e+00	 1.725182616606115e-01
0	 6.666700000001667e+01	 2.999973675063150e+00	 2.140777712497046e-01
0	 6.666700000001666e+01	 3.333302777844444e+00	 2.599971312693576e-01
0	 6.000000000000001e+01	 3.333302777844445e+00	 2.592470656392901e-01
0	 6.000000000000000e+01	 3.666642022268356e+00	 3.072139979528707e-01
0	 5.999999999999998e+01	 3.999981400030399e+00	 3.552133709763237e-01
0	 6.000000000000001e+01	 4.333320877796045e+00	 4.032451990599298e-01
0	 6.000000000000000e+01	 4.666660422230756e+00	 4.513094966025336e-01
0	 5.999999999999999e+01	 4.999999999999999e+00	 4.994062779994207e-01
0	 6.000000000000001e+01	 5.333339577769245e+00	 5.475355576845861e-01
0	 6.000000000000001e+01	 5.666679122203956e+00	 5.956973500945142e-01
0	 6.000000000000000e+01	 6.000018599969599e+00	 6.438916696926310e-01
0	 5.999999999999999e+01	 6.333357977731641e+00	 6.921185309634059e-01
0	 6.000000000000001e+01	 6.666697222155557e+00	 7.403779484188335e-01
0	 6.066670000000331e+01	 3.333302777844445e+00	 2.590588035545374e-01
0	 6.066670000000331e+01	 3.666642022268356e+00	 3.070696061748159e-01
0	 6.066670000000330e+01	 3.999981400030399e+00	 3.551138845131581e-01
0	 6.066670000000332e+01	 4.333320877796044e+00	 4.031916529438932e-01
0	 6.066670000000332e+01	 4.666660422230755e+00	 4.513029258629012e-01
0	 6.066670000000330e+01	 4.999999999999998e+00	 4.994477176992257e-01
0	 6.066670000000332e+01	 5.333339577769244e+00	 5.476260428780092e-01
0	 6.066670000000332e+01	 5.666679122203954e+00	 5.958379158683756e-01
0	 6.066670000000332e+01	 6.000018599969599e+00	 6.440833511443325e-01
0	 6.066670000000330e+01	 6.333357977731643e+00	 6.923623632079827e-01
0	 6.066670000000331e+01	 6.666697222155556e+00	 7.406749665741854e-01
0	 6.133340000000653e+01	 3.333302777844445e+00	 2.589410454641866e-01
0	 6.133340000000653e+01	 3.666642022268356e+00	 3.069907229869494e-01
0	 6.133340000000651e+01	 3.999981400030399e+00	 3.550727211164176e-01
0	 6.133340000000653e+01	 4.333320877796046e+00	 4.031870542384256e-01
0	 6.133340000000654e+01	 4.666660422230756e+00	 4.513337367713113e-01
0	 6.133340000000653e+01	 5.000000000000001e+00	 4.995127831408904e-01
0	 6.133340000000653e+01	 5.333339577769244e+00	 5.477242077938739e-01
0	 6.133340000000653e+01	 5.666679122203956e+00	 5.959680252056870e-01
0	 6.133340000000653e+01	 6.000018599969598e+00	 6.442442498583278e-01
0	 6.133340000000653e+01	 6.333357977731642e+00	 6.925528962638753e-01
0	 6.133340000000654e+01	 6.666697222155557e+00	 7.408939789417006e-01
0	 6.200010000000955e+01	 3.333302777844445e+00	 2.588892914217212e-01
0	 6.200010000000955e+01	 3.666642022268356e+00	 3.069721283105009e-01
0	 6.200010000000955e+01	 3.999981400030400e+00	 3.550843005981287e-01
0	 6.200010000000955e+01	 4.333320877796044e+00	 4.032258227025795e-01
0	 6.200010000000954e+01	 4.666660422230756e+00	 4.513967090316521e-01
0	 6.200010000000954e+01	 4.999999999999999e+00	 4.995969740312876e-01
0	 6.200010000000956e+01	 5.333339577769244e+00	 5.478266321547252e-01
0	 6.200010000000955e+01	 5.666679122203956e+00	 5.960856978730987e-01
0	 6.200010000000955e+01	 6.000018599969599e+00	 6.443741856852864e-01
0	 6.200010000000954e+01	 6.333357977731643e+00	 6.926921100923934e-01
0	 6.200010000000954e+01	 6.666697222155555e+00	 7.410394856263659e-01
0	 6.266680000001227e+01	 3.333302777844445e+00	 2.588990414879824e-01
0	 6.266680000001226e+01	 3.666642022268355e+00	 3.070086020675051e-01
0	 6.266680000001226e+01	 3.999981400030400e+00	 3.551430427900090e-01
0	 6.266680000001226e+01	 4.333320877796044e+00	 4.033023780755746e-01
0	 6.266680000001226e+01	 4.666660422230755e+00	 4.514866223531550e-01
0	 6.266680000001226e+01	 4.999999999999999e+00	 4.996957900645756e-01
0	 6.266680000001227e+01	 5.333339577769244e+00	 5.479298956679248e-01
0	 6.266680000001227e+01	 5.666679122203955e+00	 5.961889536386940e-01
0	 6.266680000001225e+01	 6.000018599969597e+00	 6.444729784731000e-01
0	 6.266680000001228e+01	 6.333357977731643e+00	 6.927819846633294e-01
0	 6.266680000001227e+01	 6.666697222155557e+00	 7.411159867391723e-01
0	 6.333350000001457e+01	 3.333302777844445e+00	 2.589657957168349e-01
0	 6.333350000001457e+01	 3.666642022268356e+00	 3.070949241868501e-01
0	 6.333350000001459e+01	 3.999981400030400e+00	 3.552433675111833e-01
0	 6.333350000001456e+01	 4.333320877796043e+00	 4.034111401156165e-01
0	 6.333350000001457e+01	 4.666660422230756e+00	 4.515982564467341e-01
0	 6.333350000001458e+01	 5.000000000000000e+00	 4.998047309425513e-01
0	 6.333350000001456e+01	 5.333339577769244e+00	 5.480305780620995e-01
0	 6.333350000001456e+01	 5.666679122203954e+00	 5.962758122810434e-01
0	 6.333350000001459e+01	 6.000018599969599e+00	 6.445404480789770e-01
0	 6.333350000001457e+01	 6.333357977731643e+00	 6.928244999465563e-01
0	 6.333350000001457e+01	 6.666697222155556e+00	 7.411279823995738e-01
0	 6.400020000001639e+01	 3.333302777844445e+00	 2.590850541671659e-01
0	 6.400020000001639e+01	 3.666642022268356e+00	 3.072258745847902e-01
0	 6.400020000001639e+01	 3.999981400030400e+00	 3.553796945783933e-01
0	 6.400020000001639e+01	 4.333320877796045e+00	 4.035465285784929e-01
0	 6.400020000001641e+01	 4.666660422230756e+00	 4.517263910186464e-01
0	 6.400020000001638e+01	 4.999999999999998e+00	 4.999192963594240e-01
0	 6.400020000001639e+01	 5.333339577769243e+00	 5.481252590502005e-01
0	 6.400020000001638e+01	 5.666679122203954e+00	 5.963442935557213e-01
0	 6.400020000001639e+01	 6.000018599969597e+00	 6.445764143476588e-01
0	 6.400020000001638e+01	 6.333357977731642e+00	 6.928216359031157e-01
0	 6.400020000001639e+01	 6.666697222155556e+00	 7.410799727157242e-01
0	 6.466690000001761e+01	 3.333302777844445e+00	 2.592523168886242e-01
0	 6.466690000001762e+01	 3.666642022268356e+00	 3.073962331969344e-01
0	 6.466690000001759e+01	 3.999981400030401e+00	 3.555464438180853e-01
0	 6.466690000001761e+01	 4.333320877796044e+00	 4.037029632004493e-01
0	 6.466690000001759e+01	 4.666660422230755e+00	 4.518658057912195e-01
0	 6.466690000001758e+01	 4.999999999999997e+00	 5.000349860210703e-01
0	 6.466690000001758e+01	 5.333339577769243e+00	 5.482105183563104e-01
0	 6.466690000001759e+01	 5.666679122203955e+00	 5.963924172423108e-01
0	 6.466690000001761e+01	 6.000018599969598e+00	 6.445806971344055e-01
0	 6.466690000001761e+01	 6.333357977731644e+00	 6.927753724962128e-01
0	 6.466690000001759e+01	 6.666697222155555e+00	 7.409764577992894e-01
0	 6.533360000001812e+01	 3.333302777844445e+00	 2.594630839426886e-01
0	 6.533360000001811e+01	 3.666642022268356e+00	 3.076007799298376e-01
0	 6.533360000001811e+01	 3.999981400030400e+00	 3.557380350519133e-01
0	 6.533360000001812e+01	 4.333320877796045e+00	 4.038748637458565e-01
0	 6.533360000001812e+01	 4.666660422230756e+00	 4.520112804572342e-01
0	 6.533360000001812e+01	 5.000000000000000e+00	 5.001472996265164e-01
0	 6.533360000001809e+01	 5.333339577769244e+00	 5.482829356945341e-01
0	 6.533360000001808e+01	 5.666679122203954e+00	 5.964182031022413e-01
0	 6.533360000001809e+01	 6.000018599969597e+00	 6.445531162907362e-01
0	 6.533360000001812e+01	 6.333357977731643e+00	 6.926876896950561e-01
0	 6.533360000001811e+01	 6.666697222155554e+00	 7.408219377636435e-01
0	 6.600030000001783e+01	 3.333302777844444e+00	 2.597128553852054e-01
0	 6.600030000001783e+01	 3.666642022268356e+00	 3.078342947200659e-01
0	 6.600030000001783e+01	 3.999981400030399e+00	 3.559488881032697e-01
0	 6.600030000001782e+01	 4.333320877796044e+00	 4.040566499589074e-01
0	 6.600030000001784e+01	 4.666660422230756e+00	 4.521575947421248e-01
0	 6.600030000001783e+01	 4.999999999999999e+00	 5.002517368695293e-01
0	 6.600030000001782e+01	 5.333339577769242e+00	 5.483390907854425e-01
0	 6.600030000001782e+01	 5.666679122203955e+00	 5.964196709103794e-01
0	 6.600030000001783e+01	 6.000018599969599e+00	 6.444934916617933e-01
0	 6.600030000001784e+01	 6.333357977731644e+00	 6.925605674595163e-01
0	 6.600030000001784e+01	 6.666697222155557e+00	 7.406209127225506e-01
0	 6.666700000001666e+01	 3.333302777844444e+00	 2.599971312693576e-01
0	 6.666700000001667e+01	 3.666642022268356e+00	 3.080915574906462e-01
0	 6.666700000001666e+01	 3.999981400030400e+00	 3.561734227807723e-01
0	 6.666700000001669e+01	 4.333320877796045e+00	 4.042427415865426e-01
0	 6.666700000001667e+01	 4.666660422230756e+00	 4.522995283389099e-01
0	 6.666700000001666e+01	 5.000000000000000e+00	 5.003437974526481e-01
0	 6.666700000001666e+01	 5.333339577769244e+00	 5.483755633476916e-01
0	 6.666700000001667e+01	 5.666679122203955e+00	 5.963948404318224e-01
0	 6.666700000001666e+01	 6.000018599969599e+00	 6.444016431052397e-01
0	 6.666700000001664e+01	 6.333357977731641e+00	 6.923959857645859e-01
0	 6.666700000001667e+01	 6.666697222155555e+00	 7.403778827871085e-01
0	 6.000000000000001e+01	 6.666697222155557e+00	 7.403779484188334e-01
0	 6.000000000000000e+01	 7.000026324936850e+00	 7.864710424106008e-01
0	 6.000000000000000e+01	 7.333355377721244e+00	 8.282017865530720e-01
0	 6.000000000000000e+01	 7.666684497174508e+00	 8.655701373533657e-01
0	 6.000000000000001e+01	 8.000013799962401e+00	 8.985760604779882e-01
0	 6.000000000000000e+01	 8.333343402750696e+00	 9.272195307618990e-01
0	 6.000000000000001e+01	 8.666673422205157e+00	 9.515005322071313e-01
0	 6.000000000000001e+01	 9.000003974991552e+00	 9.714190579568127e-01
0	 6.000000000000000e+01	 9.333335177775648e+00	 9.869751103168749e-01
0	 6.000000000000001e+01	 9.666667147223212e+00	 9.981687008015410e-01
0	 5.999999999999999e+01	 1.000000000000000e+01	 1.004999850007404e+00
0	 6.066670000000331e+01	 6.666697222155556e+00	 7.406749665741854e-01
0	 6.066670000000331e+01	 7.000026324936850e+00	 7.868125820023596e-01
0	 6.066670000000332e+01	 7.333355377721245e+00	 8.285694866629127e-01
0	 6.066670000000331e+01	 7.666684497174507e+00	 8.659456370282127e-01
0	 6.066670000000332e+01	 8.000013799962403e+00	 8.989409987864598e-01
0	 6.066670000000333e+01	 8.333343402750698e+00	 9.275555468221824e-01
0	 6.066670000000331e+01	 8.666673422205159e+00	 9.517892652167088e-01
0	 6.066670000000332e+01	 9.000003974991554e+00	 9.716421472535807e-01
0	 6.066670000000329e+01	 9.333335177775648e+00	 9.871141954154311e-01
0	 6.066670000000332e+01	 9.666667147223208e+00	 9.982054213836811e-01
0	 6.066670000000332e+01	 1.000000000000000e+01	 1.004915846036768e+00
0	 6.133340000000654e+01	 6.666697222155557e+00	 7.408939789417007e-01
0	 6.133340000000654e+01	 7.000026324936850e+00	 7.870522349665083e-01
0	 6.133340000000651e+01	 7.333355377721245e+00	 8.288152594651800e-01
0	 6.133340000000653e+01	 7.666684497174506e+00	 8.661830089132739e-01
0	 6.133340000000653e+01	 8.000013799962403e+00	 8.991554490220752e-01
0	 6.133340000000654e+01	 8.333343402750696e+00	 9.277325547305619e-01
0	 6.133340000000653e+01	 8.666673422205161e+00	 9.519143102051371e-01
0	 6.133340000000653e+01	 9.000003974991555e+00	 9.717007088452118e-01
0	 6.133340000000653e+01	 9.333335177775648e+00	 9.870917532768392e-01
0	 6.133340000000653e+01	 9.666667147223212e+00	 9.980874553789751e-01
0	 6.133340000000654e+01	 1.000000000000000e+01	 1.004687836205604e+00
0	 6.200010000000954e+01	 6.666697222155555e+00	 7.410394856263660e-01
0	 6.200010000000954e+01	 7.000026324936848e+00	 7.871972465165398e-01
0	 6.200010000000956e+01	 7.333355377721246e+00	 8.289491853496065e-01
0	 6.200010000000954e+01	 7.666684497174508e+00	 8.662952586072175e-01
0	 6.200010000000955e+01	 8.000013799962403e+00	 8.992354320389053e-01
0	 6.200010000000957e+01	 8.333343402750698e+00	 9.277696806434337e-01
0	 6.200010000000954e+01	 8.666673422205159e+00	 9.518979886556286e-01
0	 6.200010000000955e+01	 9.000003974991552e+00	 9.716203495939921e-01
0	 6.200010000000955e+01	 9.333335177775648e+00	 9.869367661968987e-01
0	 6.200010000000956e+01	 9.666667147223212e+00	 9.978472504728781e-01
0	 6.200010000000953e+01	 1.000000000000000e+01	 1.004351823682619e+00
0	 6.266680000001227e+01	 6.666697222155557e+00	 7.411159867391722e-01
0	 6.266680000001226e+01	 7.000026324936848e+00	 7.872548618833671e-01
0	 6.266680000001224e+01	 7.333355377721244e+00	 8.289813446938286e-01
0	 6.266680000001224e+01	 7.666684497174507e+00	 8.662953917069253e-01
0	 6.266680000001225e+01	 8.000013799962403e+00	 8.991969686917280e-01
0	 6.266680000001227e+01	 8.333343402750696e+00	 9.276860507068935e-01
0	 6.266680000001227e+01	 8.666673422205161e+00	 9.517626220636685e-01
0	 6.266680000001225e+01	 9.000003974991554e+00	 9.714266763462661e-01
0	 6.266680000001225e+01	 9.333335177775647e+00	 9.866782164191633e-01
0	 6.266680000001226e+01	 9.666667147223210e+00	 9.975172543764351e-01
0	 6.266680000001226e+01	 1.000000000000000e+01	 1.003943811606715e+00
0	 6.333350000001457e+01	 6.666697222155556e+00	 7.411279823995739e-01
0	 6.333350000001457e+01	 7.000026324936852e+00	 7.872323262822398e-01
0	 6.333350000001456e+01	 7.333355377721245e+00	 8.289218178904808e-01
0	 6.333350000001457e+01	 7.666684497174506e+00	 8.661964137999588e-01
0	 6.333350000001458e+01	 8.000013799962401e+00	 8.990560798287651e-01
0	 6.333350000001457e+01	 8.333343402750696e+00	 9.275007910761959e-01
0	 6.333350000001455e+01	 8.666673422205156e+00	 9.515305319196533e-01
0	 6.333350000001458e+01	 9.000003974991555e+00	 9.711452959935004e-01
0	 6.333350000001458e+01	 9.333335177775650e+00	 9.863450862223747e-01
0	 6.333350000001457e+01	 9.666667147223208e+00	 9.971299147726386e-01
0	 6.333350000001457e+01	 1.000000000000000e+01	 1.003499803130983e+00
0	 6.400020000001639e+01	 6.666697222155556e+00	 7.410799727157241e-01
0	 6.400020000001638e+01	 7.000026324936847e+00	 7.871368849361635e-01
0	 6.400020000001639e+01	 7.333355377721245e+00	 8.287806853216234e-01
0	 6.400020000001639e+01	 7.666684497174505e+00	 8.660113304867619e-01
0	 6.400020000001638e+01	 8.000013799962401e+00	 8.988287863039639e-01
0	 6.400020000001639e+01	 8.333343402750701e+00	 9.272330278998748e-01
0	 6.400020000001638e+01	 8.666673422205157e+00	 9.512240397033265e-01
0	 6.400020000001639e+01	 9.000003974991554e+00	 9.708018153769066e-01
0	 6.400020000001638e+01	 9.333335177775645e+00	 9.859663578666749e-01
0	 6.400020000001638e+01	 9.666667147223210e+00	 9.967176793857654e-01
0	 6.400020000001638e+01	 1.000000000000000e+01	 1.003055801408358e+00
0	 6.466690000001759e+01	 6.666697222155555e+00	 7.409764577992896e-01
0	 6.466690000001761e+01	 7.000026324936853e+00	 7.869757830674039e-01
0	 6.466690000001761e+01	 7.333355377721245e+00	 8.285680273702264e-01
0	 6.466690000001762e+01	 7.666684497174507e+00	 8.657531473686360e-01
0	 6.466690000001761e+01	 8.000013799962403e+00	 8.985311089628122e-01
0	 6.466690000001761e+01	 8.333343402750698e+00	 9.269018873359421e-01
0	 6.466690000001761e+01	 8.666673422205161e+00	 9.508654669120032e-01
0	 6.466690000001759e+01	 9.000003974991554e+00	 9.704218413639408e-01
0	 6.466690000001759e+01	 9.333335177775648e+00	 9.855710136224883e-01
0	 6.466690000001759e+01	 9.666667147223208e+00	 9.963129958823760e-01
0	 6.466690000001759e+01	 1.000000000000000e+01	 1.002647809586362e+00
0	 6.533360000001811e+01	 6.666697222155554e+00	 7.408219377636434e-01
0	 6.533360000001811e+01	 7.000026324936848e+00	 7.867562659091013e-01
0	 6.533360000001809e+01	 7.333355377721244e+00	 8.282939244241779e-01
0	 6.533360000001811e+01	 7.666684497174507e+00	 8.654348700236268e-01
0	 6.533360000001811e+01	 8.000013799962399e+00	 8.981790686672877e-01
0	 6.533360000001811e+01	 8.333343402750696e+00	 9.265264955321264e-01
0	 6.533360000001811e+01	 8.666673422205157e+00	 9.504771350232248e-01
0	 6.533360000001811e+01	 9.000003974991554e+00	 9.700309808113864e-01
0	 6.533360000001811e+01	 9.333335177775648e+00	 9.851880357410047e-01
0	 6.533360000001811e+01	 9.666667147223208e+00	 9.959483119635058e-01
0	 6.533360000001812e+01	 1.000000000000000e+01	 1.002311830818372e+00
0	 6.600030000001784e+01	 6.666697222155557e+00	 7.406209127225505e-01
0	 6.600030000001782e+01	 7.000026324936848e+00	 7.864855786708773e-01
0	 6.600030000001782e+01	 7.333355377721245e+00	 8.279684568587004e-01
0	 6.600030000001780e+01	 7.666684497174505e+00	 8.650695040686457e-01
0	 6.600030000001782e+01	 8.000013799962399e+00	 8.977886862725697e-01
0	 6.600030000001783e+01	 8.333343402750698e+00	 9.261259786337326e-01
0	 6.600030000001782e+01	 8.666673422205157e+00	 9.500813655517180e-01
0	 6.600030000001783e+01	 9.000003974991552e+00	 9.696548405812033e-01
0	 6.600030000001784e+01	 9.333335177775647e+00	 9.848464065123407e-01
0	 6.600030000001783e+01	 9.666667147223210e+00	 9.956560753466700e-01
0	 6.600030000001783e+01	 1.000000000000000e+01	 1.002083868245334e+00
0	 6.666700000001667e+01	 6.666697222155555e+00	 7.403778827871086e-01
0	 6.666700000001666e+01	 7.000026324936850e+00	 7.861709665767254e-01
0	 6.666700000001667e+01	 7.333355377721246e+00	 8.276017050668051e-01
0	 6.666700000001664e+01	 7.666684497174504e+00	 8.646700550870453e-01
0	 6.666700000001666e+01	 8.000013799962401e+00	 8.973759826155775e-01
0	 6.666700000001667e+01	 8.333343402750696e+00	 9.257194627995606e-01
0	 6.666700000001667e+01	 8.666673422205157e+00	 9.497004799487875e-01
0	 6.666700000001667e+01	 9.000003974991554e+00	 9.693190275382392e-01
0	 6.666700000001664e+01	 9.333335177775645e+00	 9.845751081919720e-01
0	 6.666700000001669e+01	 9.666667147223214e+00	 9.954687336999747e-01
0	 6.666700000001666e+01	 1.000000000000000e+01	 1.001999925021696e+00
0	 6.666700000001666e+01	 0.000000000000000e+00	-2.999925015550403e-03
0	 6.666700000001666e+01	 3.333328527767945e-01	 3.679991049418773e-03
0	 6.666700000001666e+01	 6.666648222243556e-01	 1.471984766030552e-02
0	 6.666700000001666e+01	 9.999960250084502e-01	 3.011966559612675e-02
0	 6.666700000001667e+01	 1.333326577794845e+00	 4.987945649544891e-02
0	 6.666700000001667e+01	 1.666656597249306e+00	 7.399922281389784e-02
0	 6.666700000001667e+01	 1.999986200037600e+00	 1.024789578649755e-01
0	 6.666700000001666e+01	 2.333315502825494e+00	 1.353186458214060e-01
0	 6.666700000001666e+01	 2.666644622278755e+00	 1.725182616606115e-01
0	 6.666700000001667e+01	 2.999973675063150e+00	 2.140777712497046e-01
0	 6.666700000001666e+01	 3.333302777844444e+00	 2.599971312693576e-01
0	 6.733360000001453e+01	 0.000000000000000e+00	-3.083977813730742e-03
0	 6.733360000001451e+01	 3.333328527767944e-01	 3.702776096994515e-03
0	 6.733360000001450e+01	 6.666648222243555e-01	 1.483453553200214e-02
0	 6.733360000001453e+01	 9.999960250084500e-01	 3.031132106033201e-02
0	 6.733360000001454e+01	 1.333326577794845e+00	 5.013314414607280e-02
0	 6.733360000001454e+01	 1.666656597249306e+00	 7.430000709755144e-02
0	 6.733360000001453e+01	 1.999986200037600e+00	 1.028119031190663e-01
0	 6.733360000001456e+01	 2.333315502825495e+00	 1.356688162906362e-01
0	 6.733360000001451e+01	 2.666644622278756e+00	 1.728707215561831e-01
0	 6.733360000001451e+01	 2.999973675063150e+00	 2.144175847464417e-01
0	 6.733360000001453e+01	 3.333302777844444e+00	 2.603093625649407e-01
0	 6.800020000001160e+01	 0.000000000000000e+00	-3.312005406462682e-03
0	 6.800020000001157e+01	 3.333328527767944e-01	 3.617174689066204e-03
0	 6.800020000001157e+01	 6.666648222243555e-01	 1.487201630306083e-02
0	 6.800020000001160e+01	 9.999960250084500e-01	 3.045253971508546e-02
0	 6.800020000001157e+01	 1.333326577794844e+00	 5.035875616451686e-02
0	 6.800020000001162e+01	 1.666656597249305e+00	 7.459066775718111e-02
0	 6.800020000001160e+01	 1.999986200037600e+00	 1.031482675721514e-01
0	 6.800020000001160e+01	 2.333315502825495e+00	 1.360315395460567e-01
0	 6.800020000001160e+01	 2.666644622278755e+00	 1.732404585711917e-01
0	 6.800020000001159e+01	 2.999973675063150e+00	 2.147749904500476e-01
0	 6.800020000001160e+01	 3.333302777844445e+00	 2.606350918901916e-01
0	 6.866680000000807e+01	 0.000000000000000e+00	-3.648014105055822e-03
0	 6.866680000000807e+01	 3.333328527767945e-01	 3.444078357007611e-03
0	 6.866680000000807e+01	 6.666648222243555e-01	 1.484026883028949e-02
0	 6.866680000000807e+01	 9.999960250084503e-01	 3.054057729722150e-02
0	 6.866680000000807e+01	 1.333326577794845e+00	 5.054501471435785e-02
0	 6.866680000000808e+01	 1.666656597249305e+00	 7.485358300922133e-02
0	 6.866680000000808e+01	 1.999986200037600e+00	 1.034662750369231e-01
0	 6.866680000000807e+01	 2.333315502825495e+00	 1.363830746510925e-01
0	 6.866680000000808e+01	 2.666644622278755e+00	 1.736039566500170e-01
0	 6.866680000000808e+01	 2.999973675063150e+00	 2.151288867869930e-01
0	 6.866680000000808e+01	 3.333302777844446e+00	 2.609578217812530e-01
0	 6.933340000000413e+01	 0.000000000000000e+00	-4.056010200924762e-03
0	 6.933340000000415e+01	 3.333328527767945e-01	 3.204378609085240e-03
0	 6.933340000000416e+01	 6.666648222243555e-01	 1.474727195708785e-02
0	 6.933340000000416e+01	 9.999960250084501e-01	 3.057268951792576e-02
0	 6.933340000000413e+01	 1.333326577794844e+00	 5.068064198756111e-02
0	 6.933340000000416e+01	 1.666656597249306e+00	 7.507113103021973e-02
0	 6.933340000000415e+01	 1.999986200037600e+00	 1.037441493677168e-01
0	 6.933340000000418e+01	 2.333315502825496e+00	 1.366996806855706e-01
0	 6.933340000000416e+01	 2.666644622278757e+00	 1.739376997206042e-01
0	 6.933340000000413e+01	 2.999973675063150e+00	 2.154581721692887e-01
0	 6.933340000000415e+01	 3.333302777844445e+00	 2.612610547650273e-01
0	 7.000000000000000e+01	 0.000000000000000e+00	-4.499999996852673e-03
0	 7.000000000000003e+01	 3.333328527767946e-01	 2.918966984468832e-03
0	 7.000000000000003e+01	 6.666648222243555e-01	 1.460100455323363e-02
0	 7.000000000000001e+01	 9.999960250084500e-01	 3.054613211665850e-02
0	 7.000000000000003e+01	 1.333326577794845e+00	 5.075436011546035e-02
0	 7.000000000000003e+01	 1.666656597249306e+00	 7.522569002076125e-02
0	 7.000000000000003e+01	 1.999986200037600e+00	 1.039601143615811e-01
0	 7.000000000000003e+01	 2.333315502825495e+00	 1.369576167237860e-01
0	 7.000000000000004e+01	 2.666644622278756e+00	 1.742181717222803e-01
0	 7.000000000000004e+01	 2.999973675063151e+00	 2.157417450288754e-01
0	 7.000000000000001e+01	 3.333302777844445e+00	 2.615282933759303e-01
0	 7.066659999999588e+01	 0.000000000000000e+00	-4.943989798464870e-03
0	 7.066659999999587e+01	 3.333328527767945e-01	 2.608734963787298e-03
0	 7.066659999999588e+01	 6.666648222243553e-01	 1.440944547434530e-02
0	 7.066659999999591e+01	 9.999960250084503e-01	 3.045816083397207e-02
0	 7.066659999999588e+01	 1.333326577794844e+00	 5.075489131151813e-02
0	 7.066659999999588e+01	 1.666656597249306e+00	 7.529963818650789e-02
0	 7.066659999999590e+01	 1.999986200037600e+00	 1.040923938727110e-01
0	 7.066659999999590e+01	 2.333315502825495e+00	 1.371331418215443e-01
0	 7.066659999999590e+01	 2.666644622278755e+00	 1.744218565850569e-01
0	 7.066659999999590e+01	 2.999973675063151e+00	 2.159585037891777e-01
0	 7.066659999999591e+01	 3.333302777844445e+00	 2.617430401375624e-01
0	 7.133319999999196e+01	 0.000000000000000e+00	-5.351985900018094e-03
0	 7.133319999999196e+01	 3.333328527767944e-01	 2.294574125747602e-03
0	 7.133319999999196e+01	 6.666648222243554e-01	 1.418057355635944e-02
0	 7.133319999999195e+01	 9.999960250084500e-01	 3.030603139081237e-02
0	 7.133319999999196e+01	 1.333326577794844e+00	 5.067095771634603e-02
0	 7.133319999999199e+01	 1.666656597249305e+00	 7.527535372241678e-02
0	 7.133319999999199e+01	 1.999986200037600e+00	 1.041192117097993e-01
0	 7.133319999999198e+01	 2.333315502825495e+00	 1.372025150572038e-01
0	 7.133319999999198e+01	 2.666644622278756e+00	 1.745252382492612e-01
0	 7.133319999999196e+01	 2.999973675063150e+00	 2.160873468707991e-01
0	 7.133319999999196e+01	 3.333302777844445e+00	 2.618887975895409e-01
0	 7.199979999998844e+01	 0.000000000000000e+00	-5.687994595769090e-03
0	 7.199979999998841e+01	 3.333328527767944e-01	 1.997375976586851e-03
0	 7.199979999998844e+01	 6.666648222243555e-01	 1.392236768061636e-02
0	 7.199979999998843e+01	 9.999960250084502e-01	 3.008699951111578e-02
0	 7.199979999998844e+01	 1.333326577794845e+00	 5.049128150365649e-02
0	 7.199979999998845e+01	 1.666656597249306e+00	 7.513521482231722e-02
0	 7.199979999998844e+01	 1.999986200037600e+00	 1.040187917060890e-01
0	 7.199979999998844e+01	 2.333315502825495e+00	 1.371419954994695e-01
0	 7.199979999998844e+01	 2.666644622278756e+00	 1.745048006498153e-01
0	 7.199979999998843e+01	 2.999973675063150e+00	 2.161071726902231e-01
0	 7.199979999998843e+01	 3.333302777844445e+00	 2.619490682599389e-01
0	 7.266639999998552e+01	 0.000000000000000e+00	-5.916022191343175e-03
0	 7.266639999998549e+01	 3.333328527767944e-01	 1.738032007946587e-03
0	 7.266639999998553e+01	 6.666648222243554e-01	 1.364280668796055e-02
0	 7.266639999998553e+01	 9.999960250084502e-01	 2.979832093873827e-02
0	 7.266639999998553e+01	 1.333326577794845e+00	 5.020458486830139e-02
0	 7.266639999998552e+01	 1.666656597249306e+00	 7.486159968405258e-02
0	 7.266639999998552e+01	 1.999986200037600e+00	 1.037693576802653e-01
0	 7.266639999998549e+01	 2.333315502825494e+00	 1.369278422185670e-01
0	 7.266639999998550e+01	 2.666644622278755e+00	 1.743370277184779e-01
0	 7.266639999998550e+01	 2.999973675063149e+00	 2.159968796783807e-01
0	 7.266639999998552e+01	 3.333302777844445e+00	 2.619073546816704e-01
0	 7.333299999998334e+01	 0.000000000000000e+00	-6.000074986681370e-03
0	 7.333299999998337e+01	 3.333328527767945e-01	 1.537433774523867e-03
0	 7.333299999998334e+01	 6.666648222243555e-01	 1.334986945870901e-02
0	 7.333299999998334e+01	 9.999960250084501e-01	 2.943725138369439e-02
0	 7.333299999998333e+01	 1.333326577794844e+00	 4.979958994839082e-02
0	 7.333299999998334e+01	 1.666656597249305e+00	 7.443688650933428e-02
0	 7.333299999998334e+01	 1.999986200037600e+00	 1.033491334853406e-01
0	 7.333299999998333e+01	 2.333315502825494e+00	 1.365363142963869e-01
0	 7.333299999998333e+01	 2.666644622278755e+00	 1.739984033951683e-01
0	 7.333299999998334e+01	 2.999973675063150e+00	 2.157353662560789e-01
0	 7.333299999998333e+01	 3.333302777844444e+00	 2.617471593834008e-01
0	 6.666700000001666e+01	 3.333302777844444e+00	 2.599971312693576e-01
0	 6.666700000001667e+01	 3.666642022268356e+00	 3.080915574906462e-01
0	 6.666700000001666e+01	 3.999981400030400e+00	 3.561734227807723e-01
0	 6.666700000001669e+01	 4.333320877796045e+00	 4.042427415865426e-01
0	 6.666700000001667e+01	 4.666660422230756e+00	 4.522995283389099e-01
0	 6.666700000001666e+01	 5.000000000000000e+00	 5.003437974526481e-01
0	 6.666700000001666e+01	 5.333339577769244e+00	 5.483755633476916e-01
0	 6.666700000001667e+01	 5.666679122203955e+00	 5.963948404318224e-01
0	 6.666700000001666e+01	 6.000018599969599e+00	 6.444016431052397e-01
0	 6.666700000001664e+01	 6.333357977731641e+00	 6.923959857645859e-01
0	 6.666700000001667e+01	 6.666697222155555e+00	 7.403778827871087e-01
0	 6.733360000001453e+01	 3.333302777844444e+00	 2.603093625649408e-01
0	 6.733360000001454e+01	 3.666642022268356e+00	 3.083663443060220e-01
0	 6.733360000001456e+01	 3.999981400030401e+00	 3.564059784514720e-01
0	 6.733360000001451e+01	 4.333320877796044e+00	 4.044282794213654e-01
0	 6.733360000001453e+01	 4.666660422230755e+00	 4.524332616451073e-01
0	 6.733360000001451e+01	 4.999999999999998e+00	 5.004209395266427e-01
0	 6.733360000001451e+01	 5.333339577769242e+00	 5.483913274704220e-01
0	 6.733360000001451e+01	 5.666679122203954e+00	 5.963444398586752e-01
0	 6.733360000001453e+01	 6.000018599969599e+00	 6.442802910734656e-01
0	 6.733360000001454e+01	 6.333357977731643e+00	 6.921988954798465e-01
0	 6.733360000001453e+01	 6.666697222155556e+00	 7.401002674427294e-01
0	 6.800020000001160e+01	 3.333302777844445e+00	 2.606350918901915e-01
0	 6.800020000001162e+01	 3.666642022268355e+00	 3.086486676175296e-01
0	 6.800020000001160e+01	 3.999981400030399e+00	 3.566407839590827e-01
0	 6.800020000001160e+01	 4.333320877796044e+00	 4.046114553512669e-01
0	 6.800020000001162e+01	 4.666660422230757e+00	 4.525606961886410e-01
0	 6.800020000001160e+01	 5.000000000000002e+00	 5.004885208705508e-01
0	 6.800020000001160e+01	 5.333339577769244e+00	 5.483949437818805e-01
0	 6.800020000001160e+01	 5.666679122203956e+00	 5.962799792870196e-01
0	 6.800020000001159e+01	 6.000018599969599e+00	 6.441436417449484e-01
0	 6.800020000001162e+01	 6.333357977731644e+00	 6.919859454994876e-01
0	 6.800020000001162e+01	 6.666697222155557e+00	 7.398069048774648e-01
0	 6.866680000000808e+01	 3.333302777844446e+00	 2.609578217812530e-01
0	 6.866680000000808e+01	 3.666642022268356e+00	 3.089275415599117e-01
0	 6.866680000000808e+01	 3.999981400030399e+00	 3.568719901295673e-01
0	 6.866680000000805e+01	 4.333320877796042e+00	 4.047911819071607e-01
0	 6.866680000000808e+01	 4.666660422230755e+00	 4.526851312879605e-01
0	 6.866680000000807e+01	 5.000000000000000e+00	 5.005538526517657e-01
0	 6.866680000000808e+01	 5.333339577769244e+00	 5.483973603591105e-01
0	 6.866680000000807e+01	 5.666679122203955e+00	 5.962156687625744e-01
0	 6.866680000000808e+01	 6.000018599969600e+00	 6.440087921969704e-01
0	 6.866680000000808e+01	 6.333357977731642e+00	 6.917767449805658e-01
0	 6.866680000000807e+01	 6.666697222155556e+00	 7.395195414161002e-01
0	 6.933340000000415e+01	 3.333302777844445e+00	 2.612610547650272e-01
0	 6.933340000000415e+01	 3.666642022268355e+00	 3.091919802800297e-01
0	 6.933340000000416e+01	 3.999981400030400e+00	 3.570937477713888e-01
0	 6.933340000000418e+01	 4.333320877796043e+00	 4.049663716388383e-01
0	 6.933340000000415e+01	 4.666660422230756e+00	 4.528098662713958e-01
0	 6.933340000000413e+01	 5.000000000000001e+00	 5.006242460332042e-01
0	 6.933340000000415e+01	 5.333339577769243e+00	 5.484095252727746e-01
0	 6.933340000000415e+01	 5.666679122203954e+00	 5.961657183177970e-01
0	 6.933340000000413e+01	 6.000018599969599e+00	 6.438928394892177e-01
0	 6.933340000000416e+01	 6.333357977731642e+00	 6.915909030768579e-01
0	 6.933340000000415e+01	 6.666697222155557e+00	 7.392599233647748e-01
0	 7.000000000000001e+01	 3.333302777844445e+00	 2.615282933759303e-01
0	 7.000000000000003e+01	 3.666642022268356e+00	 3.094309979288312e-01
0	 7.000000000000000e+01	 3.999981400030399e+00	 3.573002077016811e-01
0	 7.000000000000001e+01	 4.333320877796045e+00	 4.051359370843863e-01
0	 7.000000000000001e+01	 4.666660422230756e+00	 4.529382004670419e-01
0	 7.000000000000003e+01	 5.000000000000000e+00	 5.007070121845321e-01
0	 7.000000000000001e+01	 5.333339577769244e+00	 5.484423865946899e-01
0	 7.000000000000000e+01	 5.666679122203954e+00	 5.961443379961455e-01
0	 7.000000000000003e+01	 6.000018599969600e+00	 6.438128806927221e-01
0	 7.000000000000003e+01	 6.333357977731644e+00	 6.914480289583883e-01
0	 7.000000000000000e+01	 6.666697222155554e+00	 7.390497970508015e-01
0	 7.066659999999591e+01	 3.333302777844445e+00	 2.617430401375624e-01
0	 7.066659999999590e+01	 3.666642022268356e+00	 3.096336086456368e-01
0	 7.066659999999590e+01	 3.999981400030399e+00	 3.574855207331169e-01
0	 7.066659999999591e+01	 4.333320877796045e+00	 4.052987907859695e-01
0	 7.066659999999588e+01	 4.666660422230755e+00	 4.530734331866006e-01
0	 7.066659999999587e+01	 4.999999999999999e+00	 5.008094622815539e-01
0	 7.066659999999591e+01	 5.333339577769244e+00	 5.485068923949586e-01
0	 7.066659999999591e+01	 5.666679122203955e+00	 5.961657378321842e-01
0	 7.066659999999588e+01	 6.000018599969598e+00	 6.437860128771448e-01
0	 7.066659999999591e+01	 6.333357977731644e+00	 6.913677317813030e-01
0	 7.066659999999591e+01	 6.666697222155555e+00	 7.389109087830281e-01
0	 7.133319999999196e+01	 3.333302777844445e+00	 2.618887975895408e-01
0	 7.133319999999196e+01	 3.666642022268356e+00	 3.097888265878933e-01
0	 7.133319999999195e+01	 3.999981400030399e+00	 3.576438376791079e-01
0	 7.133319999999195e+01	 4.333320877796043e+00	 4.054538452827622e-01
0	 7.133319999999198e+01	 4.666660422230756e+00	 4.532188637646583e-01
0	 7.133319999999196e+01	 4.999999999999999e+00	 5.009389074806185e-01
0	 7.133319999999196e+01	 5.333339577769244e+00	 5.486139907477525e-01
0	 7.133319999999196e+01	 5.666679122203954e+00	 5.962441278666228e-01
0	 7.133319999999196e+01	 6.000018599969599e+00	 6.438293331042034e-01
0	 7.133319999999198e+01	 6.333357977731642e+00	 6.913696207029967e-01
0	 7.133319999999198e+01	 6.666697222155556e+00	 7.388650048805391e-01
0	 7.199979999998843e+01	 3.333302777844445e+00	 2.619490682599390e-01
0	 7.199979999998845e+01	 3.666642022268356e+00	 3.098856658886331e-01
0	 7.199979999998844e+01	 3.999981400030399e+00	 3.577693093667457e-01
0	 7.199979999998844e+01	 4.333320877796044e+00	 4.056000131104783e-01
0	 7.199979999998843e+01	 4.666660422230756e+00	 4.533777915226066e-01
0	 7.199979999998845e+01	 5.000000000000000e+00	 5.011026589541185e-01
0	 7.199979999998844e+01	 5.333339577769243e+00	 5.487746297242511e-01
0	 7.199979999998844e+01	 5.666679122203955e+00	 5.963937181362089e-01
0	 7.199979999998843e+01	 6.000018599969598e+00	 6.439599384406466e-01
0	 7.199979999998845e+01	 6.333357977731645e+00	 6.914733048826136e-01
0	 7.199979999998844e+01	 6.666697222155554e+00	 7.389338316497083e-01
0	 7.266639999998552e+01	 3.333302777844445e+00	 2.619073546816704e-01
0	 7.266639999998552e+01	 3.666642022268356e+00	 3.099131406977120e-01
0	 7.266639999998553e+01	 3.999981400030400e+00	 3.578560865918576e-01
0	 7.266639999998550e+01	 4.333320877796045e+00	 4.057362068203895e-01
0	 7.266639999998553e+01	 4.666660422230755e+00	 4.535535157899556e-01
0	 7.266639999998552e+01	 4.999999999999998e+00	 5.013080278668604e-01
0	 7.266639999998553e+01	 5.333339577769244e+00	 5.489997573977911e-01
0	 7.266639999998552e+01	 5.666679122203955e+00	 5.966287186778336e-01
0	 7.266639999998552e+01	 6.000018599969599e+00	 6.441949259630843e-01
0	 7.266639999998552e+01	 6.333357977731644e+00	 6.916983934819091e-01
0	 7.266639999998550e+01	 6.666697222155555e+00	 7.391391354206949e-01
0	 7.333299999998333e+01	 3.333302777844444e+00	 2.617471593834008e-01
0	 7.333299999998336e+01	 3.666642022268356e+00	 3.098602651664846e-01
0	 7.333299999998331e+01	 3.999981400030399e+00	 3.578983201895183e-01
0	 7.333299999998334e+01	 4.333320877796044e+00	 4.058613389431652e-01
0	 7.333299999998334e+01	 4.666660422230755e+00	 4.537493358784951e-01
0	 7.333299999998334e+01	 5.000000000000000e+00	 5.015623253950132e-01
0	 7.333299999998333e+01	 5.333339577769243e+00	 5.493003218380929e-01
0	 7.333299999998333e+01	 5.666679122203956e+00	 5.969633395298364e-01
0	 7.333299999998334e+01	 6.000018599969598e+00	 6.445513927275736e-01
0	 7.333299999998334e+01	 6.333357977731644e+00	 6.920644956625860e-01
0	 7.333299999998334e+01	 6.666697222155554e+00	 7.395026624958936e-01
0	 6.666700000001667e+01	 6.666697222155555e+00	 7.403778827871086e-01
0	 6.666700000001666e+01	 7.000026324936850e+00	 7.861709665767254e-01
0	 6.666700000001667e+01	 7.333355377721246e+00	 8.276017050668051e-01
0	 6.666700000001664e+01	 7.666684497174504e+00	 8.646700550870453e-01
0	 6.666700000001666e+01	 8.000013799962401e+00	 8.973759826155775e-01
0	 6.666700000001667e+01	 8.333343402750696e+00	 9.257194627995604e-01
0	 6.666700000001667e+01	 8.666673422205157e+00	 9.497004799487875e-01
0	 6.666700000001667e+01	 9.000003974991554e+00	 9.693190275382393e-01
0	 6.666700000001664e+01	 9.333335177775645e+00	 9.845751081919720e-01
0	 6.666700000001669e+01	 9.666667147223214e+00	 9.954687336999747e-01
0	 6.666700000001666e+01	 1.000000000000000e+01	 1.001999925021696e+00
0	 6.733360000001453e+01	 6.666697222155556e+00	 7.401002674427295e-01
0	 6.733360000001451e+01	 7.000026324936848e+00	 7.858223285398592e-01
0	 6.733360000001450e+01	 7.333355377721245e+00	 8.272058310095284e-01
0	 6.733360000001454e+01	 7.666684497174507e+00	 8.642507317221236e-01
0	 6.733360000001451e+01	 8.000013799962399e+00	 8.969569966540799e-01
0	 6.733360000001454e+01	 8.333343402750698e+00	 9.253246009181991e-01
0	 6.733360000001453e+01	 8.666673422205159e+00	 9.493535286866338e-01
0	 6.733360000001454e+01	 9.000003974991554e+00	 9.690437733123508e-01
0	 6.733360000001451e+01	 9.333335177775647e+00	 9.843953372088307e-01
0	 6.733360000001453e+01	 9.666667147223210e+00	 9.954082319160978e-01
0	 6.733360000001453e+01	 1.000000000000000e+01	 1.002082478084453e+00
0	 6.800020000001162e+01	 6.666697222155557e+00	 7.398069048774648e-01
0	 6.800020000001157e+01	 7.000026324936847e+00	 7.854598554693952e-01
0	 6.800020000001157e+01	 7.333355377721245e+00	 8.268009586251280e-01
0	 6.800020000001162e+01	 7.666684497174508e+00	 8.638301712512106e-01
0	 6.800020000001162e+01	 8.000013799962405e+00	 8.965474593343327e-01
0	 6.800020000001157e+01	 8.333343402750694e+00	 9.249527978945159e-01
0	 6.800020000001159e+01	 8.666673422205159e+00	 9.490461710009618e-01
0	 6.800020000001160e+01	 9.000003974991554e+00	 9.688275717951008e-01
0	 6.800020000001159e+01	 9.333335177775648e+00	 9.842970024764540e-01
0	 6.800020000001159e+01	 9.666667147223210e+00	 9.954544742895842e-01
0	 6.800020000001160e+01	 1.000000000000000e+01	 1.002300007523535e+00
0	 6.866680000000807e+01	 6.666697222155556e+00	 7.395195414161002e-01
0	 6.866680000000807e+01	 7.000026324936848e+00	 7.851063809466993e-01
0	 6.866680000000807e+01	 7.333355377721245e+00	 8.264092840497189e-01
0	 6.866680000000807e+01	 7.666684497174508e+00	 8.634282076877848e-01
0	 6.866680000000810e+01	 8.000013799962401e+00	 8.961631178003002e-01
0	 6.866680000000807e+01	 8.333343402750698e+00	 9.246139893356055e-01
0	 6.866680000000807e+01	 8.666673422205157e+00	 9.487808062332340e-01
0	 6.866680000000807e+01	 9.000003974991554e+00	 9.686635614323341e-01
0	 6.866680000000808e+01	 9.333335177775648e+00	 9.842622568722663e-01
0	 6.866680000000808e+01	 9.666667147223212e+00	 9.955769034904537e-01
0	 6.866680000000807e+01	 1.000000000000000e+01	 1.002607521200766e+00
0	 6.933340000000415e+01	 6.666697222155557e+00	 7.392599233647746e-01
0	 6.933340000000412e+01	 7.000026324936849e+00	 7.847847385697435e-01
0	 6.933340000000413e+01	 7.333355377721243e+00	 8.260530034571882e-01
0	 6.933340000000416e+01	 7.666684497174507e+00	 8.630646750272080e-01
0	 6.933340000000415e+01	 8.000013799962401e+00	 8.958197191896886e-01
0	 6.933340000000415e+01	 8.333343402750698e+00	 9.243181108274904e-01
0	 6.933340000000413e+01	 8.666673422205157e+00	 9.485598337258307e-01
0	 6.933340000000419e+01	 9.000003974991555e+00	 9.685448806564726e-01
0	 6.933340000000412e+01	 9.333335177775647e+00	 9.842732532614913e-01
0	 6.933340000000412e+01	 9.666667147223208e+00	 9.957449621988113e-01
0	 6.933340000000413e+01	 9.999999999999998e+00	 1.002960027009222e+00
0	 7.000000000000000e+01	 6.666697222155554e+00	 7.390497970508014e-01
0	 7.000000000000003e+01	 7.000026324936853e+00	 7.845177619259903e-01
0	 7.000000000000001e+01	 7.333355377721245e+00	 8.257543129899549e-01
0	 7.000000000000003e+01	 7.666684497174507e+00	 8.627594072686228e-01
0	 7.000000000000003e+01	 8.000013799962403e+00	 8.955330106614730e-01
0	 7.000000000000001e+01	 8.333343402750698e+00	 9.240750979617340e-01
0	 7.000000000000003e+01	 8.666673422205159e+00	 9.483856528499743e-01
0	 7.000000000000003e+01	 9.000003974991552e+00	 9.684646678910769e-01
0	 7.000000000000001e+01	 9.333335177775648e+00	 9.843121445194127e-01
0	 7.000000000000003e+01	 9.666667147223214e+00	 9.959280930970720e-01
0	 7.000000000000000e+01	 1.000000000000000e+01	 1.003312532822297e+00
0	 7.066659999999591e+01	 6.666697222155555e+00	 7.389109087830282e-01
0	 7.066659999999590e+01	 7.000026324936848e+00	 7.843282846033239e-01
0	 7.066659999999591e+01	 7.333355377721245e+00	 8.255354087966649e-01
0	 7.066659999999591e+01	 7.666684497174505e+00	 8.625322384165247e-01
0	 7.066659999999591e+01	 8.000013799962401e+00	 8.953187393553096e-01
0	 7.066659999999590e+01	 8.333343402750696e+00	 9.238948863386917e-01
0	 7.066659999999588e+01	 8.666673422205157e+00	 9.482606629428502e-01
0	 7.066659999999588e+01	 9.000003974991554e+00	 9.684160615826637e-01
0	 7.066659999999591e+01	 9.333335177775650e+00	 9.843610835243018e-01
0	 7.066659999999587e+01	 9.666667147223210e+00	 9.960957388433607e-01
0	 7.066659999999588e+01	 9.999999999999998e+00	 1.003620046504079e+00
0	 7.133319999999198e+01	 6.666697222155556e+00	 7.388650048805391e-01
0	 7.133319999999196e+01	 7.000026324936849e+00	 7.842391401921701e-01
0	 7.133319999999198e+01	 7.333355377721245e+00	 8.254184870322379e-01
0	 7.133319999999199e+01	 7.666684497174509e+00	 8.624030024817304e-01
0	 7.133319999999200e+01	 8.000013799962401e+00	 8.951926524177227e-01
0	 7.133319999999198e+01	 8.333343402750696e+00	 9.237874115473351e-01
0	 7.133319999999195e+01	 8.666673422205156e+00	 9.481872633617188e-01
0	 7.133319999999198e+01	 9.000003974991554e+00	 9.683922001892431e-01
0	 7.133319999999196e+01	 9.333335177775648e+00	 9.844022231282601e-01
0	 7.133319999999198e+01	 9.666667147223212e+00	 9.962173421332114e-01
0	 7.133319999999196e+01	 1.000000000000000e+01	 1.003837575937136e+00
0	 7.199979999998844e+01	 6.666697222155554e+00	 7.389338316497082e-01
0	 7.199979999998843e+01	 7.000026324936848e+00	 7.842731622834673e-01
0	 7.199979999998843e+01	 7.333355377721245e+00	 8.254257438492733e-01
0	 7.199979999998844e+01	 7.666684497174507e+00	 8.623915334550781e-01
0	 7.199979999998844e+01	 8.000013799962401e+00	 8.951704969991178e-01
0	 7.199979999998844e+01	 8.333343402750694e+00	 9.237626091711317e-01
0	 7.199979999998845e+01	 8.666673422205157e+00	 9.481678534579508e-01
0	 7.199979999998843e+01	 9.000003974991554e+00	 9.683862221224510e-01
0	 7.199979999998844e+01	 9.333335177775648e+00	 9.844177162226235e-01
0	 7.199979999998843e+01	 9.666667147223208e+00	 9.962623456260947e-01
0	 7.199979999998844e+01	 1.000000000000000e+01	 1.003920128996393e+00
0	 7.266639999998550e+01	 6.666697222155555e+00	 7.391391354206950e-01
0	 7.266639999998553e+01	 7.000026324936849e+00	 7.844531844671149e-01
0	 7.266639999998552e+01	 7.333355377721244e+00	 8.255793753969088e-01
0	 7.266639999998550e+01	 7.666684497174506e+00	 8.625176653498555e-01
0	 7.266639999998553e+01	 8.000013799962403e+00	 8.952680202527014e-01
0	 7.266639999998550e+01	 8.333343402750696e+00	 9.238304148263790e-01
0	 7.266639999998552e+01	 8.666673422205159e+00	 9.482048325767871e-01
0	 7.266639999998552e+01	 9.000003974991554e+00	 9.683912658211660e-01
0	 7.266639999998552e+01	 9.333335177775650e+00	 9.843897156744260e-01
0	 7.266639999998552e+01	 9.666667147223208e+00	 9.962001920113112e-01
0	 7.266639999998552e+01	 1.000000000000000e+01	 1.003822713541144e+00
0	 7.333299999998334e+01	 6.666697222155554e+00	 7.395026624958935e-01
0	 7.333299999998334e+01	 7.000026324936848e+00	 7.848020403230793e-01
0	 7.333299999998333e+01	 7.333355377721244e+00	 8.259015778323269e-01
0	 7.333299999998333e+01	 7.666684497174506e+00	 8.628012321676272e-01
0	 7.333299999998334e+01	 8.000013799962401e+00	 8.955009693164705e-01
0	 7.333299999998336e+01	 8.333343402750698e+00	 9.240007640806571e-01
0	 7.333299999998336e+01	 8.666673422205159e+00	 9.483006000797446e-01
0	 7.333299999998334e+01	 9.000003974991554e+00	 9.684004697425193e-01
0	 7.333299999998333e+01	 9.333335177775648e+00	 9.843003743491995e-01
0	 7.333299999998334e+01	 9.666667147223208e+00	 9.960003239481259e-01
0	 7.333299999998334e+01	 1.000000000000000e+01	 1.003500337487528e+00
0	 7.333299999998334e+01	 0.000000000000000e+00	-6.000074986681371e-03
0	 7.333299999998337e+01	 3.333328527767945e-01	 1.537433774523867e-03
0	 7.333299999998334e+01	 6.666648222243555e-01	 1.334986945870901e-02
0	 7.333299999998334e+01	 9.999960250084501e-01	 2.943725138369439e-02
0	 7.333299999998333e+01	 1.333326577794844e+00	 4.979958994839082e-02
0	 7.333299999998334e+01	 1.666656597249305e+00	 7.443688650933428e-02
0	 7.333299999998334e+01	 1.999986200037600e+00	 1.033491334853406e-01
0	 7.333299999998333e+01	 2.333315502825494e+00	 1.365363142963869e-01
0	 7.333299999998333e+01	 2.666644622278755e+00	 1.739984033951683e-01
0	 7.333299999998334e+01	 2.999973675063150e+00	 2.157353662560789e-01
0	 7.333299999998333e+01	 3.333302777844444e+00	 2.617471593834008e-01
0	 7.399969999998216e+01	 0.000000000000000e+00	-5.914631690167453e-03
0	 7.399969999998217e+01	 3.333328527767945e-01	 1.412648007184365e-03
0	 7.399969999998216e+01	 6.666648222243553e-01	 1.305333973305699e-02
0	 7.399969999998216e+01	 9.999960250084501e-01	 2.900746330147569e-02
0	 7.399969999998214e+01	 1.333326577794844e+00	 4.927502945718200e-02
0	 7.399969999998216e+01	 1.666656597249305e+00	 7.385603988768633e-02
0	 7.399969999998216e+01	 1.999986200037600e+00	 1.027504872208378e-01
0	 7.399969999998216e+01	 2.333315502825495e+00	 1.359583550249719e-01
0	 7.399969999998217e+01	 2.666644622278756e+00	 1.734796178232539e-01
0	 7.399969999998217e+01	 2.999973675063150e+00	 2.153142410704037e-01
0	 7.399969999998218e+01	 3.333302777844445e+00	 2.614621811530237e-01
0	 7.466639999998186e+01	 0.000000000000000e+00	-5.676168588529126e-03
0	 7.466639999998186e+01	 3.333328527767945e-01	 1.365542391955007e-03
0	 7.466639999998186e+01	 6.666648222243555e-01	 1.277049158327198e-02
0	 7.466639999998188e+01	 9.999960250084500e-01	 2.853869941750923e-02
0	 7.466639999998185e+01	 1.333326577794844e+00	 4.867017713573270e-02
0	 7.466639999998191e+01	 1.666656597249306e+00	 7.316492685637721e-02
0	 7.466639999998189e+01	 1.999986200037600e+00	 1.020229414963732e-01
0	 7.466639999998186e+01	 2.333315502825494e+00	 1.352442048403082e-01
0	 7.466639999998186e+01	 2.666644622278755e+00	 1.728286914781332e-01
0	 7.466639999998186e+01	 2.999973675063150e+00	 2.147763668674570e-01
0	 7.466639999998186e+01	 3.333302777844445e+00	 2.610871872859196e-01
0	 7.533309999998239e+01	 0.000000000000000e+00	-5.311688389013310e-03
0	 7.533309999998239e+01	 3.333328527767945e-01	 1.394135921773961e-03
0	 7.533309999998238e+01	 6.666648222243556e-01	 1.252040558628699e-02
0	 7.533309999998239e+01	 9.999960250084501e-01	 2.806714170340751e-02
0	 7.533309999998238e+01	 1.333326577794844e+00	 4.803435614704023e-02
0	 7.533309999998238e+01	 1.666656597249306e+00	 7.242205147346251e-02
0	 7.533309999998238e+01	 1.999986200037600e+00	 1.012302209963948e-01
0	 7.533309999998238e+01	 2.333315502825495e+00	 1.344588487087688e-01
0	 7.533309999998235e+01	 2.666644622278755e+00	 1.721079093409116e-01
0	 7.533309999998239e+01	 2.999973675063150e+00	 2.141773683276867e-01
0	 7.533309999998237e+01	 3.333302777844445e+00	 2.606671818323866e-01
0	 7.599979999998359e+01	 0.000000000000000e+00	-4.848193798866924e-03
0	 7.599979999998364e+01	 3.333328527767945e-01	 1.496447648521764e-03
0	 7.599979999998361e+01	 6.666648222243555e-01	 1.232216232216917e-02
0	 7.599979999998361e+01	 9.999960250084500e-01	 2.762897214269708e-02
0	 7.599979999998359e+01	 1.333326577794844e+00	 4.741688960334081e-02
0	 7.599979999998361e+01	 1.666656597249305e+00	 7.168591780577567e-02
0	 7.599979999998361e+01	 1.999986200037600e+00	 1.004360503915549e-01
0	 7.599979999998359e+01	 2.333315502825494e+00	 1.336672716369825e-01
0	 7.599979999998358e+01	 2.666644622278756e+00	 1.713795564054697e-01
0	 7.599979999998361e+01	 2.999973675063151e+00	 2.135728701227574e-01
0	 7.599979999998358e+01	 3.333302777844445e+00	 2.602471688427075e-01
0	 7.666649999998540e+01	 0.000000000000000e+00	-4.312687496915470e-03
0	 7.666649999998543e+01	 3.333328527767944e-01	 1.670496527072477e-03
0	 7.666649999998540e+01	 6.666648222243554e-01	 1.219484238872334e-02
0	 7.666649999998545e+01	 9.999960250084502e-01	 2.726037273534123e-02
0	 7.666649999998542e+01	 1.333326577794844e+00	 4.686710070275682e-02
0	 7.666649999998540e+01	 1.666656597249306e+00	 7.101502989036065e-02
0	 7.666649999998542e+01	 1.999986200037600e+00	 9.970415435559514e-02
0	 7.666649999998542e+01	 2.333315502825495e+00	 1.329344586151109e-01
0	 7.666649999998542e+01	 2.666644622278755e+00	 1.707059176629651e-01
0	 7.666649999998542e+01	 2.999973675063149e+00	 2.130184969406389e-01
0	 7.666649999998543e+01	 3.333302777844444e+00	 2.598721523635911e-01
0	 7.733319999998773e+01	 0.000000000000000e+00	-3.732172196090151e-03
0	 7.733319999998776e+01	 3.333328527767945e-01	 1.914301600815080e-03
0	 7.733319999998774e+01	 6.666648222243554e-01	 1.215752635636609e-02
0	 7.733319999998776e+01	 9.999960250084502e-01	 2.699752543316051e-02
0	 7.733319999998773e+01	 1.333326577794844e+00	 4.643431256888123e-02
0	 7.733319999998776e+01	 1.666656597249306e+00	 7.046789180093588e-02
0	 7.733319999998774e+01	 1.999986200037600e+00	 9.909825757812731e-02
0	 7.733319999998774e+01	 2.333315502825495e+00	 1.323253946436324e-01
0	 7.733319999998771e+01	 2.666644622278755e+00	 1.701492781163192e-01
0	 7.733319999998771e+01	 2.999973675063150e+00	 2.125698734497467e-01
0	 7.733319999998773e+01	 3.333302777844445e+00	 2.595871364452828e-01
0	 7.799989999999043e+01	 0.000000000000000e+00	-3.133650609322177e-03
0	 7.799989999999043e+01	 3.333328527767945e-01	 2.225881875039039e-03
0	 7.799989999999043e+01	 6.666648222243554e-01	 1.222929482989372e-02
0	 7.799989999999042e+01	 9.999960250084501e-01	 2.687661224446123e-02
0	 7.799989999999045e+01	 1.333326577794845e+00	 4.616784834086861e-02
0	 7.799989999999045e+01	 1.666656597249305e+00	 7.010300760335665e-02
0	 7.799989999999046e+01	 1.999986200037600e+00	 9.868208473702827e-02
0	 7.799989999999043e+01	 2.333315502825494e+00	 1.319050647190107e-01
0	 7.799989999999043e+01	 2.666644622278756e+00	 1.697719227586992e-01
0	 7.799989999999043e+01	 2.999973675063150e+00	 2.122826243322992e-01
0	 7.799989999999045e+01	 3.333302777844446e+00	 2.594371251397437e-01
0	 7.866659999999345e+01	 0.000000000000000e+00	-2.544125404068470e-03
0	 7.866659999999345e+01	 3.333328527767945e-01	 2.603256348752236e-03
0	 7.866659999999348e+01	 6.666648222243556e-01	 1.242922838577964e-02
0	 7.866659999999344e+01	 9.999960250084502e-01	 2.693381513093238e-02
0	 7.866659999999344e+01	 1.333326577794844e+00	 4.611703119436052e-02
0	 7.866659999999347e+01	 1.666656597249305e+00	 6.997888133937989e-02
0	 7.866659999999345e+01	 1.999986200037600e+00	 9.851936050441414e-02
0	 7.866659999999348e+01	 2.333315502825495e+00	 1.317384538218911e-01
0	 7.866659999999344e+01	 2.666644622278756e+00	 1.696361365825535e-01
0	 7.866659999999347e+01	 2.999973675063151e+00	 2.122123742620988e-01
0	 7.866659999999345e+01	 3.333302777844445e+00	 2.594671224936405e-01
0	 7.933329999999667e+01	 0.000000000000000e+00	-1.990599298944528e-03
0	 7.933329999999667e+01	 3.333328527767944e-01	 3.044444021887712e-03
0	 7.933329999999665e+01	 6.666648222243555e-01	 1.277640761154109e-02
0	 7.933329999999667e+01	 9.999960250084500e-01	 2.720531609216440e-02
0	 7.933329999999667e+01	 1.333326577794844e+00	 4.633118426966629e-02
0	 7.933329999999665e+01	 1.666656597249306e+00	 7.015401707175700e-02
0	 7.933329999999665e+01	 1.999986200037600e+00	 9.867380957103941e-02
0	 7.933329999999667e+01	 2.333315502825494e+00	 1.318905469581833e-01
0	 7.933329999999667e+01	 2.666644622278756e+00	 1.698042045883768e-01
0	 7.933329999999668e+01	 2.999973675063150e+00	 2.124147479213138e-01
0	 7.933329999999665e+01	 3.333302777844444e+00	 2.597221325655499e-01
0	 8.000000000000000e+01	 0.000000000000000e+00	-1.500075001197268e-03
0	 8.000000000000003e+01	 3.333328527767945e-01	 3.547463935748652e-03
0	 8.000000000000001e+01	 6.666648222243555e-01	 1.328991309292862e-02
0	 8.000000000000000e+01	 9.999960250084501e-01	 2.772729709107086e-02
0	 8.000000000000001e+01	 1.333326577794844e+00	 4.685963071215832e-02
0	 8.000000000000001e+01	 1.666656597249306e+00	 7.068691886844944e-02
0	 8.000000000000003e+01	 1.999986200037600e+00	 9.920915661094816e-02
0	 8.000000000000000e+01	 2.333315502825495e+00	 1.324263291287232e-01
0	 7.999999999999999e+01	 2.666644622278755e+00	 1.703384117578627e-01
0	 8.000000000000000e+01	 2.999973675063150e+00	 2.129453699718306e-01
0	 8.000000000000000e+01	 3.333302777844445e+00	 2.602471593926952e-01
0	 7.333299999998333e+01	 3.333302777844444e+00	 2.617471593834008e-01
0	 7.333299999998336e+01	 3.666642022268356e+00	 3.098602651664846e-01
0	 7.333299999998331e+01	 3.999981400030399e+00	 3.578983201895182e-01
0	 7.333299999998334e+01	 4.333320877796044e+00	 4.058613389431652e-01
0	 7.333299999998334e+01	 4.666660422230755e+00	 4.537493358784951e-01
0	 7.333299999998334e+01	 5.000000000000000e+00	 5.015623253950132e-01
0	 7.333299999998333e+01	 5.333339577769243e+00	 5.493003218380929e-01
0	 7.333299999998333e+01	 5.666679122203956e+00	 5.969633395298363e-01
0	 7.333299999998334e+01	 6.000018599969598e+00	 6.445513927275738e-01
0	 7.333299999998334e+01	 6.333357977731644e+00	 6.920644956625858e-01
0	 7.333299999998334e+01	 6.666697222155554e+00	 7.395026624958934e-01
0	 7.399969999998218e+01	 3.333302777844445e+00	 2.614621811530236e-01
0	 7.399969999998213e+01	 3.666642022268355e+00	 3.097233016844831e-01
0	 7.399969999998214e+01	 3.999981400030399e+00	 3.578946112747547e-01
0	 7.399969999998214e+01	 4.333320877796043e+00	 4.059761244781646e-01
0	 7.399969999998217e+01	 4.666660422230756e+00	 4.539678557860458e-01
0	 7.399969999998214e+01	 4.999999999999998e+00	 5.018698196391602e-01
0	 7.399969999998216e+01	 5.333339577769244e+00	 5.496820304102290e-01
0	 7.399969999998214e+01	 5.666679122203955e+00	 5.974045024342246e-01
0	 7.399969999998214e+01	 6.000018599969599e+00	 6.450372499967306e-01
0	 7.399969999998213e+01	 6.333357977731643e+00	 6.925802873165430e-01
0	 7.399969999998218e+01	 6.666697222155556e+00	 7.400336285557630e-01
0	 7.466639999998186e+01	 3.333302777844445e+00	 2.610871872859195e-01
0	 7.466639999998186e+01	 3.666642022268356e+00	 3.095276475305424e-01
0	 7.466639999998186e+01	 3.999981400030400e+00	 3.578613762974975e-01
0	 7.466639999998186e+01	 4.333320877796044e+00	 4.060883882137193e-01
0	 7.466639999998185e+01	 4.666660422230756e+00	 4.542086978318334e-01
0	 7.466639999998189e+01	 4.999999999999998e+00	 5.022223196229554e-01
0	 7.466639999998185e+01	 5.333339577769243e+00	 5.501292680124756e-01
0	 7.466639999998186e+01	 5.666679122203955e+00	 5.979295573595580e-01
0	 7.466639999998188e+01	 6.000018599969599e+00	 6.456232019525614e-01
0	 7.466639999998185e+01	 6.333357977731644e+00	 6.932102160284727e-01
0	 7.466639999998188e+01	 6.666697222155557e+00	 7.406906137408960e-01
0	 7.533309999998237e+01	 3.333302777844445e+00	 2.606671818323867e-01
0	 7.533309999998239e+01	 3.666642022268356e+00	 3.093059756231147e-01
0	 7.533309999998239e+01	 3.999981400030400e+00	 3.578194971317476e-01
0	 7.533309999998235e+01	 4.333320877796044e+00	 4.062077610437342e-01
0	 7.533309999998237e+01	 4.666660422230755e+00	 4.544707819684922e-01
0	 7.533309999998237e+01	 4.999999999999997e+00	 5.026085744439269e-01
0	 7.533309999998237e+01	 5.333339577769244e+00	 5.506211529320533e-01
0	 7.533309999998235e+01	 5.666679122203954e+00	 5.985085318074589e-01
0	 7.533309999998238e+01	 6.000018599969598e+00	 6.462707253950318e-01
0	 7.533309999998238e+01	 6.333357977731644e+00	 6.939077479287327e-01
0	 7.533309999998238e+01	 6.666697222155555e+00	 7.414196135492950e-01
0	 7.599979999998358e+01	 3.333302777844445e+00	 2.602471688427076e-01
0	 7.599979999998361e+01	 3.666642022268356e+00	 3.090909589065596e-01
0	 7.599979999998359e+01	 3.999981400030399e+00	 3.577898556519202e-01
0	 7.599979999998359e+01	 4.333320877796044e+00	 4.063438738487032e-01
0	 7.599979999998361e+01	 4.666660422230756e+00	 4.547530281626517e-01
0	 7.599979999998358e+01	 4.999999999999999e+00	 5.030173331902041e-01
0	 7.599979999998359e+01	 5.333339577769243e+00	 5.511368034271651e-01
0	 7.599979999998359e+01	 5.666679122203954e+00	 5.991114532928532e-01
0	 7.599979999998358e+01	 6.000018599969597e+00	 6.469412971101327e-01
0	 7.599979999998361e+01	 6.333357977731643e+00	 6.946263491232229e-01
0	 7.599979999998361e+01	 6.666697222155554e+00	 7.421666234820963e-01
0	 7.666649999998543e+01	 3.333302777844444e+00	 2.598721523635911e-01
0	 7.666649999998540e+01	 3.666642022268356e+00	 3.089152703002277e-01
0	 7.666649999998542e+01	 3.999981400030400e+00	 3.577933337382118e-01
0	 7.666649999998542e+01	 4.333320877796045e+00	 4.065063575175039e-01
0	 7.666649999998540e+01	 4.666660422230755e+00	 4.550543563834012e-01
0	 7.666649999998540e+01	 5.000000000000000e+00	 5.034373449561591e-01
0	 7.666649999998539e+01	 5.333339577769244e+00	 5.516553377915783e-01
0	 7.666649999998540e+01	 5.666679122203954e+00	 5.997083493264439e-01
0	 7.666649999998540e+01	 6.000018599969597e+00	 6.475963939011586e-01
0	 7.666649999998539e+01	 6.333357977731643e+00	 6.953194857597632e-01
0	 7.666649999998543e+01	 6.666697222155554e+00	 7.428776390417368e-01
0	 7.733319999998773e+01	 3.333302777844445e+00	 2.595871364452828e-01
0	 7.733319999998773e+01	 3.666642022268356e+00	 3.088115827332178e-01
0	 7.733319999998771e+01	 3.999981400030399e+00	 3.578508132648981e-01
0	 7.733319999998771e+01	 4.333320877796043e+00	 4.067048429494467e-01
0	 7.733319999998773e+01	 4.666660422230756e+00	 4.553736865783022e-01
0	 7.733319999998771e+01	 5.000000000000000e+00	 5.038573588337332e-01
0	 7.733319999998773e+01	 5.333339577769244e+00	 5.521558742926130e-01
0	 7.733319999998770e+01	 5.666679122203955e+00	 6.002692474149580e-01
0	 7.733319999998771e+01	 6.000018599969598e+00	 6.481974925542963e-01
0	 7.733319999998773e+01	 6.333357977731644e+00	 6.959406239519951e-01
0	 7.733319999998771e+01	 6.666697222155556e+00	 7.434986557336515e-01
0	 7.799989999999045e+01	 3.333302777844446e+00	 2.594371251397438e-01
0	 7.799989999999043e+01	 3.666642022268356e+00	 3.088125691388145e-01
0	 7.799989999999046e+01	 3.999981400030400e+00	 3.579831761057796e-01
0	 7.799989999999043e+01	 4.333320877796043e+00	 4.069489610239510e-01
0	 7.799989999999045e+01	 4.666660422230754e+00	 4.557099387129429e-01
0	 7.799989999999045e+01	 4.999999999999999e+00	 5.042661239087619e-01
0	 7.799989999999045e+01	 5.333339577769244e+00	 5.526175312028914e-01
0	 7.799989999999043e+01	 5.666679122203954e+00	 6.007641750720961e-01
0	 7.799989999999045e+01	 6.000018599969598e+00	 6.487060698715420e-01
0	 7.799989999999042e+01	 6.333357977731643e+00	 6.964432298255303e-01
0	 7.799989999999045e+01	 6.666697222155556e+00	 7.439756690409126e-01
0	 7.866659999999345e+01	 3.333302777844445e+00	 2.594671224936405e-01
0	 7.866659999999345e+01	 3.666642022268356e+00	 3.089509024451098e-01
0	 7.866659999999345e+01	 3.999981400030400e+00	 3.582113041511905e-01
0	 7.866659999999347e+01	 4.333320877796043e+00	 4.072483426299118e-01
0	 7.866659999999345e+01	 4.666660422230755e+00	 4.560620327581896e-01
0	 7.866659999999345e+01	 5.000000000000000e+00	 5.046523892806103e-01
0	 7.866659999999347e+01	 5.333339577769244e+00	 5.530194268026566e-01
0	 7.866659999999345e+01	 5.666679122203954e+00	 6.011631598096683e-01
0	 7.866659999999345e+01	 6.000018599969599e+00	 6.490836026449216e-01
0	 7.866659999999345e+01	 6.333357977731643e+00	 6.967807695059810e-01
0	 7.866659999999342e+01	 6.666697222155554e+00	 7.442546744780155e-01
0	 7.933329999999665e+01	 3.333302777844444e+00	 2.597221325655500e-01
0	 7.933329999999665e+01	 3.666642022268356e+00	 3.092592555811621e-01
0	 7.933329999999667e+01	 3.999981400030400e+00	 3.585560792692659e-01
0	 7.933329999999670e+01	 4.333320877796044e+00	 4.076126186611234e-01
0	 7.933329999999668e+01	 4.666660422230755e+00	 4.564288886708211e-01
0	 7.933329999999668e+01	 5.000000000000000e+00	 5.050049040331975e-01
0	 7.933329999999670e+01	 5.333339577769244e+00	 5.533406793635380e-01
0	 7.933329999999668e+01	 5.666679122203955e+00	 6.014362291358287e-01
0	 7.933329999999665e+01	 6.000018599969597e+00	 6.492915676623406e-01
0	 7.933329999999665e+01	 6.333357977731642e+00	 6.969067091157813e-01
0	 7.933329999999667e+01	 6.666697222155556e+00	 7.442816675436592e-01
0	 8.000000000000000e+01	 3.333302777844445e+00	 2.602471593926952e-01
0	 8.000000000000003e+01	 3.666642022268356e+00	 3.097703014745178e-01
0	 7.999999999999999e+01	 3.999981400030399e+00	 3.590383833291520e-01
0	 7.999999999999999e+01	 4.333320877796045e+00	 4.080514200062282e-01
0	 8.000000000000000e+01	 4.666660422230755e+00	 4.568094264039949e-01
0	 8.000000000000001e+01	 5.000000000000001e+00	 5.053124172604929e-01
0	 8.000000000000000e+01	 5.333339577769244e+00	 5.535604071686794e-01
0	 8.000000000000000e+01	 5.666679122203955e+00	 6.015534105574423e-01
0	 7.999999999999999e+01	 6.000018599969598e+00	 6.492914417244258e-01
0	 8.000000000000000e+01	 6.333357977731642e+00	 6.967745147879632e-01
0	 8.000000000000000e+01	 6.666697222155555e+00	 7.440026437322610e-01
0	 7.333299999998334e+01	 6.666697222155554e+00	 7.395026624958935e-01
0	 7.333299999998334e+01	 7.000026324936848e+00	 7.848020403230794e-01
0	 7.333299999998333e+01	 7.333355377721244e+00	 8.259015778323268e-01
0	 7.333299999998333e+01	 7.666684497174506e+00	 8.628012321676272e-01
0	 7.333299999998334e+01	 8.000013799962401e+00	 8.955009693164705e-01
0	 7.333299999998336e+01	 8.333343402750698e+00	 9.240007640806571e-01
0	 7.333299999998336e+01	 8.666673422205159e+00	 9.483006000797443e-01
0	 7.333299999998334e+01	 9.000003974991554e+00	 9.684004697425193e-01
0	 7.333299999998333e+01	 9.333335177775648e+00	 9.843003743491995e-01
0	 7.333299999998334e+01	 9.666667147223208e+00	 9.960003239481259e-01
0	 7.333299999998334e+01	 1.000000000000000e+01	 1.003500337487528e+00
0	 7.399969999998218e+01	 6.666697222155556e+00	 7.400336285557632e-01
0	 7.399969999998217e+01	 7.000026324936850e+00	 7.853289369692195e-01
0	 7.399969999998214e+01	 7.333355377721245e+00	 8.264006778717128e-01
0	 7.399969999998217e+01	 7.666684497174507e+00	 8.632488084443229e-01
0	 7.399969999998218e+01	 8.000013799962403e+00	 8.958732947521137e-01
0	 7.399969999998214e+01	 8.333343402750698e+00	 9.242741117281210e-01
0	 7.399969999998214e+01	 8.666673422205159e+00	 9.484512431668199e-01
0	 7.399969999998216e+01	 9.000003974991554e+00	 9.684046817520440e-01
0	 7.399969999998217e+01	 9.333335177775648e+00	 9.841344290088556e-01
0	 7.399969999998216e+01	 9.666667147223212e+00	 9.956404953563418e-01
0	 7.399969999998216e+01	 1.000000000000000e+01	 1.002922900077085e+00
0	 7.466639999998188e+01	 6.666697222155557e+00	 7.406906137408961e-01
0	 7.466639999998186e+01	 7.000026324936847e+00	 7.859880636461334e-01
0	 7.466639999998188e+01	 7.333355377721246e+00	 8.270290374599993e-01
0	 7.466639999998186e+01	 7.666684497174506e+00	 8.638134924168434e-01
0	 7.466639999998188e+01	 8.000013799962401e+00	 8.963413946797991e-01
0	 7.466639999998188e+01	 8.333343402750696e+00	 9.246127193513105e-01
0	 7.466639999998186e+01	 8.666673422205159e+00	 9.486274504749186e-01
0	 7.466639999998188e+01	 9.000003974991554e+00	 9.683855810241235e-01
0	 7.466639999998186e+01	 9.333335177775648e+00	 9.838871129366268e-01
0	 7.466639999998189e+01	 9.666667147223208e+00	 9.951320570671359e-01
0	 7.466639999998186e+01	 1.000000000000000e+01	 1.002120433208579e+00
0	 7.533309999998238e+01	 6.666697222155555e+00	 7.414196135492951e-01
0	 7.533309999998238e+01	 7.000026324936848e+00	 7.867199255998505e-01
0	 7.533309999998235e+01	 7.333355377721244e+00	 8.277250918824828e-01
0	 7.533309999998239e+01	 7.666684497174506e+00	 8.644350696891797e-01
0	 7.533309999998237e+01	 8.000013799962399e+00	 8.968498252836440e-01
0	 7.533309999998235e+01	 8.333343402750698e+00	 9.249693339753227e-01
0	 7.533309999998239e+01	 8.666673422205157e+00	 9.487935800956049e-01
0	 7.533309999998238e+01	 9.000003974991554e+00	 9.683225569918973e-01
0	 7.533309999998238e+01	 9.333335177775648e+00	 9.835562670370102e-01
0	 7.533309999998238e+01	 9.666667147223212e+00	 9.944947215980140e-01
0	 7.533309999998239e+01	 1.000000000000000e+01	 1.001137941115810e+00
0	 7.599979999998361e+01	 6.666697222155554e+00	 7.421666234820962e-01
0	 7.599979999998359e+01	 7.000026324936850e+00	 7.874650280859863e-01
0	 7.599979999998358e+01	 7.333355377721243e+00	 8.284272764221632e-01
0	 7.599979999998359e+01	 7.666684497174505e+00	 8.650533258334162e-01
0	 7.599979999998359e+01	 8.000013799962401e+00	 8.973431427216484e-01
0	 7.599979999998359e+01	 8.333343402750696e+00	 9.252967026142433e-01
0	 7.599979999998358e+01	 8.666673422205156e+00	 9.489139901543635e-01
0	 7.599979999998359e+01	 9.000003974991554e+00	 9.681949990786983e-01
0	 7.599979999998359e+01	 9.333335177775650e+00	 9.831397322173486e-01
0	 7.599979999998361e+01	 9.666667147223212e+00	 9.937482015426812e-01
0	 7.599979999998359e+01	 1.000000000000000e+01	 1.000020428097767e+00
0	 7.666649999998543e+01	 6.666697222155554e+00	 7.428776390417368e-01
0	 7.666649999998542e+01	 7.000026324936850e+00	 7.881638763486962e-01
0	 7.666649999998542e+01	 7.333355377721245e+00	 8.290740263618370e-01
0	 7.666649999998540e+01	 7.666684497174507e+00	 8.656080464507752e-01
0	 7.666649999998540e+01	 8.000013799962401e+00	 8.977659031823302e-01
0	 7.666649999998540e+01	 8.333343402750696e+00	 9.255475723052818e-01
0	 7.666649999998542e+01	 8.666673422205157e+00	 9.489530387645011e-01
0	 7.666649999998542e+01	 9.000003974991552e+00	 9.679822966881082e-01
0	 7.666649999998543e+01	 9.333335177775650e+00	 9.826353493991045e-01
0	 7.666649999998542e+01	 9.666667147223210e+00	 9.929122094142775e-01
0	 7.666649999998540e+01	 1.000000000000000e+01	 9.988128984393680e-01
0	 7.733319999998771e+01	 6.666697222155556e+00	 7.434986557336514e-01
0	 7.733319999998771e+01	 7.000026324936851e+00	 7.887569756517834e-01
0	 7.733319999998771e+01	 7.333355377721244e+00	 8.296037769678459e-01
0	 7.733319999998774e+01	 7.666684497174508e+00	 8.660390171278209e-01
0	 7.733319999998773e+01	 8.000013799962403e+00	 8.980626628291776e-01
0	 7.733319999998776e+01	 8.333343402750698e+00	 9.256746900561559e-01
0	 7.733319999998771e+01	 8.666673422205159e+00	 9.488750840305057e-01
0	 7.733319999998774e+01	 9.000003974991554e+00	 9.676638392500819e-01
0	 7.733319999998771e+01	 9.333335177775648e+00	 9.820409595072276e-01
0	 7.733319999998776e+01	 9.666667147223212e+00	 9.920064577919232e-01
0	 7.733319999998773e+01	 1.000000000000000e+01	 9.975603563978129e-01
0	 7.799989999999045e+01	 6.666697222155556e+00	 7.439756690409125e-01
0	 7.799989999999043e+01	 7.000026324936849e+00	 7.891848312295631e-01
0	 7.799989999999045e+01	 7.333355377721244e+00	 8.299549635236760e-01
0	 7.799989999999045e+01	 7.666684497174506e+00	 8.662860234534082e-01
0	 7.799989999999046e+01	 8.000013799962401e+00	 8.981779778501620e-01
0	 7.799989999999046e+01	 8.333343402750696e+00	 9.256308028951545e-01
0	 7.799989999999045e+01	 8.666673422205159e+00	 9.486444840790607e-01
0	 7.799989999999042e+01	 9.000003974991554e+00	 9.672190162063440e-01
0	 7.799989999999043e+01	 9.333335177775647e+00	 9.813544034190776e-01
0	 7.799989999999043e+01	 9.666667147223210e+00	 9.910506591849281e-01
0	 7.799989999999043e+01	 1.000000000000000e+01	 9.963078062625462e-01
0	 7.866659999999342e+01	 6.666697222155554e+00	 7.442546744780156e-01
0	 7.866659999999347e+01	 7.000026324936848e+00	 7.893879483385257e-01
0	 7.866659999999345e+01	 7.333355377721243e+00	 8.300660213096960e-01
0	 7.866659999999345e+01	 7.666684497174507e+00	 8.662888510069973e-01
0	 7.866659999999345e+01	 8.000013799962403e+00	 8.980564044037519e-01
0	 7.866659999999347e+01	 8.333343402750698e+00	 9.253686578516750e-01
0	 7.866659999999344e+01	 8.666673422205157e+00	 9.482255970193659e-01
0	 7.866659999999345e+01	 9.000003974991554e+00	 9.666272169775337e-01
0	 7.866659999999345e+01	 9.333335177775647e+00	 9.805735221149593e-01
0	 7.866659999999345e+01	 9.666667147223210e+00	 9.900645261764285e-01
0	 7.866659999999345e+01	 1.000000000000000e+01	 9.951002523130646e-01
0	 7.933329999999667e+01	 6.666697222155556e+00	 7.442816675436593e-01
0	 7.933329999999665e+01	 7.000026324936849e+00	 7.893068322371496e-01
0	 7.933329999999667e+01	 7.333355377721246e+00	 8.298753856013468e-01
0	 7.933329999999667e+01	 7.666684497174506e+00	 8.659872853904701e-01
0	 7.933329999999667e+01	 8.000013799962401e+00	 8.976424986794977e-01
0	 7.933329999999665e+01	 8.333343402750696e+00	 9.248410019417637e-01
0	 7.933329999999665e+01	 8.666673422205157e+00	 9.475827809787967e-01
0	 7.933329999999665e+01	 9.000003974991552e+00	 9.658678309792262e-01
0	 7.933329999999667e+01	 9.333335177775648e+00	 9.796961564520110e-01
0	 7.933329999999667e+01	 9.666667147223208e+00	 9.890677713114725e-01
0	 7.933329999999667e+01	 1.000000000000000e+01	 9.939826988068371e-01
0	 8.000000000000000e+01	 6.666697222155555e+00	 7.440026437322609e-01
0	 7.999999999999999e+01	 7.000026324936849e+00	 7.888819881556404e-01
0	 7.999999999999999e+01	 7.333355377721245e+00	 8.293214916893041e-01
0	 8.000000000000000e+01	 7.666684497174508e+00	 8.653211121921098e-01
0	 8.000000000000000e+01	 8.000013799962403e+00	 8.968808168544631e-01
0	 8.000000000000000e+01	 8.333343402750694e+00	 9.240005821876721e-01
0	 8.000000000000001e+01	 8.666673422205159e+00	 9.466803940646390e-01
0	 8.000000000000000e+01	 9.000003974991554e+00	 9.649202476228447e-01
0	 8.000000000000001e+01	 9.333335177775650e+00	 9.787201473763054e-01
0	 8.000000000000000e+01	 9.666667147223212e+00	 9.880801071193597e-01
0	 8.000000000000000e+01	 1.000000000000000e+01	 9.930001500205188e-01
0	 8.000000000000000e+01	 0.000000000000000e+00	-1.500075001197268e-03
0	 8.000000000000003e+01	 3.333328527767945e-01	 3.547463935748652e-03
0	 8.000000000000001e+01	 6.666648222243555e-01	 1.328991309292862e-02
0	 8.000000000000000e+01	 9.999960250084501e-01	 2.772729709107086e-02
0	 8.000000000000001e+01	 1.333326577794844e+00	 4.685963071215832e-02
0	 8.000000000000001e+01	 1.666656597249306e+00	 7.068691886844944e-02
0	 8.000000000000003e+01	 1.999986200037600e+00	 9.920915661094816e-02
0	 8.000000000000000e+01	 2.333315502825495e+00	 1.324263291287232e-01
0	 7.999999999999999e+01	 2.666644622278755e+00	 1.703384117578627e-01
0	 8.000000000000000e+01	 2.999973675063150e+00	 2.129453699718306e-01
0	 8.000000000000000e+01	 3.333302777844445e+00	 2.602471593926952e-01
0	 8.066670000000332e+01	 0.000000000000000e+00	-1.093554670779689e-03
0	 8.066670000000330e+01	 3.333328527767944e-01	 4.106867393878150e-03
0	 8.066670000000332e+01	 6.666648222243556e-01	 1.397735458157574e-02
0	 8.066670000000333e+01	 9.999960250084502e-01	 2.851793122500393e-02
0	 8.066670000000332e+01	 1.333326577794844e+00	 4.772861181148987e-02
0	 8.066670000000333e+01	 1.666656597249306e+00	 7.160940103960048e-02
0	 8.066670000000337e+01	 1.999986200037601e+00	 1.001602938001229e-01
0	 8.066670000000333e+01	 2.333315502825495e+00	 1.333812751747777e-01
0	 8.066670000000332e+01	 2.666644622278756e+00	 1.712723204375591e-01
0	 8.066670000000332e+01	 2.999973675063150e+00	 2.138333950634871e-01
0	 8.066670000000335e+01	 3.333302777844445e+00	 2.610644547053675e-01
0	 8.133340000000653e+01	 0.000000000000000e+00	-7.680384035233551e-04
0	 8.133340000000653e+01	 3.333328527767944e-01	 4.703335055708886e-03
0	 8.133340000000653e+01	 6.666648222243555e-01	 1.480045863015087e-02
0	 8.133340000000655e+01	 9.999960250084500e-01	 2.952335607468074e-02
0	 8.133340000000652e+01	 1.333326577794844e+00	 4.887204140745368e-02
0	 8.133340000000656e+01	 1.666656597249305e+00	 7.284651894851116e-02
0	 8.133340000000653e+01	 1.999986200037600e+00	 1.014467832965486e-01
0	 8.133340000000651e+01	 2.333315502825495e+00	 1.346728193462723e-01
0	 8.133340000000653e+01	 2.666644622278756e+00	 1.725246022770718e-01
0	 8.133340000000653e+01	 2.999973675063150e+00	 2.150020975373866e-01
0	 8.133340000000653e+01	 3.333302777844445e+00	 2.621052608700736e-01
0	 8.200010000000955e+01	 0.000000000000000e+00	-5.145257252287660e-04
0	 8.200010000000955e+01	 3.333328527767945e-01	 5.314079908934528e-03
0	 8.200010000000955e+01	 6.666648222243556e-01	 1.570948092022478e-02
0	 8.200010000000955e+01	 9.999960250084501e-01	 3.067170029991606e-02
0	 8.200010000000955e+01	 1.333326577794845e+00	 5.020075145865759e-02
0	 8.200010000000955e+01	 1.666656597249306e+00	 7.429663820880839e-02
0	 8.200010000000954e+01	 1.999986200037600e+00	 1.029593547742921e-01
0	 8.200010000000955e+01	 2.333315502825495e+00	 1.361888857788113e-01
0	 8.200010000000954e+01	 2.666644622278756e+00	 1.739852062695713e-01
0	 8.200010000000955e+01	 2.999973675063150e+00	 2.163482817045183e-01
0	 8.200010000000955e+01	 3.333302777844445e+00	 2.632780679393173e-01
0	 8.266680000001227e+01	 0.000000000000000e+00	-3.240161958021305e-04
0	 8.266680000001224e+01	 3.333328527767945e-01	 5.916314892658543e-03
0	 8.266680000001226e+01	 6.666648222243555e-01	 1.665467713137130e-02
0	 8.266680000001227e+01	 9.999960250084501e-01	 3.189109257614046e-02
0	 8.266680000001226e+01	 1.333326577794844e+00	 5.162557394260318e-02
0	 8.266680000001224e+01	 1.666656597249305e+00	 7.585812444592996e-02
0	 8.266680000001223e+01	 1.999986200037600e+00	 1.045887378740390e-01
0	 8.266680000001223e+01	 2.333315502825494e+00	 1.378173985699533e-01
0	 8.266680000001229e+01	 2.666644622278756e+00	 1.755440814187911e-01
0	 8.266680000001229e+01	 2.999973675063151e+00	 2.177687518747157e-01
0	 8.266680000001227e+01	 3.333302777844444e+00	 2.644913659373662e-01
0	 8.333350000001458e+01	 0.000000000000000e+00	-1.875093751496585e-04
0	 8.333350000001458e+01	 3.333328527767945e-01	 6.487253041373538e-03
0	 8.333350000001454e+01	 6.666648222243552e-01	 1.758630295904508e-02
0	 8.333350000001460e+01	 9.999960250084501e-01	 3.310966160365663e-02
0	 8.333350000001458e+01	 1.333326577794845e+00	 5.305734082069366e-02
0	 8.333350000001460e+01	 1.666656597249306e+00	 7.742934327720356e-02
0	 8.333350000001457e+01	 1.999986200037600e+00	 1.062256622663350e-01
0	 8.333350000001458e+01	 2.333315502825495e+00	 1.394462818280962e-01
0	 8.333350000001457e+01	 2.666644622278755e+00	 1.770911767090488e-01
0	 8.333350000001458e+01	 2.999973675063150e+00	 2.191603123616933e-01
0	 8.333350000001457e+01	 3.333302777844444e+00	 2.656536449371405e-01
0	 8.400020000001639e+01	 0.000000000000000e+00	-9.600480044041939e-05
0	 8.400020000001638e+01	 3.333328527767945e-01	 7.004107302251729e-03
0	 8.400020000001639e+01	 6.666648222243554e-01	 1.845461414729152e-02
0	 8.400020000001639e+01	 9.999960250084501e-01	 3.425553601968046e-02
0	 8.400020000001638e+01	 1.333326577794845e+00	 5.440688407293827e-02
0	 8.400020000001641e+01	 1.666656597249306e+00	 7.890866031006423e-02
0	 8.400020000001639e+01	 1.999986200037600e+00	 1.077608575998496e-01
0	 8.400020000001638e+01	 2.333315502825495e+00	 1.409634596757127e-01
0	 8.400020000001638e+01	 2.666644622278756e+00	 1.785164411443853e-01
0	 8.400020000001638e+01	 2.999973675063150e+00	 2.204197674647199e-01
0	 8.400020000001642e+01	 3.333302777844446e+00	 2.666733949646977e-01
0	 8.466690000001762e+01	 0.000000000000000e+00	-4.050203158062261e-05
0	 8.466690000001759e+01	 3.333328527767945e-01	 7.444090629612105e-03
0	 8.466690000001759e+01	 6.666648222243553e-01	 1.920986633831714e-02
0	 8.466690000001759e+01	 9.999960250084502e-01	 3.525684454503628e-02
0	 8.466690000001761e+01	 1.333326577794844e+00	 5.558503567044976e-02
0	 8.466690000001758e+01	 1.666656597249305e+00	 8.019444119022288e-02
0	 8.466690000001762e+01	 1.999986200037600e+00	 1.090850535504772e-01
0	 8.466690000001759e+01	 2.333315502825495e+00	 1.422568562361927e-01
0	 8.466690000001762e+01	 2.666644622278756e+00	 1.797098237131441e-01
0	 8.466690000001758e+01	 2.999973675063150e+00	 2.214439214885672e-01
0	 8.466690000001761e+01	 3.333302777844445e+00	 2.674591060556663e-01
0	 8.533360000001811e+01	 0.000000000000000e+00	-1.200059437076738e-05
0	 8.533360000001814e+01	 3.333328527767945e-01	 7.784416022520555e-03
0	 8.533360000001812e+01	 6.666648222243555e-01	 1.980231525726741e-02
0	 8.533360000001812e+01	 9.999960250084501e-01	 3.604171582819682e-02
0	 8.533360000001812e+01	 1.333326577794845e+00	 5.650262757250378e-02
0	 8.533360000001812e+01	 1.666656597249306e+00	 8.118505151390949e-02
0	 8.533360000001812e+01	 1.999986200037600e+00	 1.100889797715922e-01
0	 8.533360000001812e+01	 2.333315502825495e+00	 1.432143956015688e-01
0	 8.533360000001812e+01	 2.666644622278756e+00	 1.805612734223812e-01
0	 8.533360000001809e+01	 2.999973675063150e+00	 2.221295787520745e-01
0	 8.533360000001811e+01	 3.333302777844446e+00	 2.679192682660379e-01
0	 8.600030000001783e+01	 0.000000000000000e+00	-1.500071454203401e-06
0	 8.600030000001784e+01	 3.333328527767945e-01	 8.002296476760347e-03
0	 8.600030000001784e+01	 6.666648222243555e-01	 2.018221660246683e-02
0	 8.600030000001782e+01	 9.999960250084500e-01	 3.653827854902025e-02
0	 8.600030000001783e+01	 1.333326577794844e+00	 5.707049175707824e-02
0	 8.600030000001783e+01	 1.666656597249306e+00	 8.177885691312767e-02
0	 8.600030000001783e+01	 1.999986200037600e+00	 1.106633659057484e-01
0	 8.600030000001782e+01	 2.333315502825495e+00	 1.437240018925810e-01
0	 8.600030000001783e+01	 2.666644622278756e+00	 1.809607392443530e-01
0	 8.600030000001782e+01	 2.999973675063150e+00	 2.223735435515863e-01
0	 8.600030000001782e+01	 3.333302777844445e+00	 2.679623716402592e-01
0	 8.666700000001666e+01	 0.000000000000000e+00	 0.000000000000000e+00
0	 8.666700000001669e+01	 3.333328527767945e-01	 8.074944916196423e-03
0	 8.666700000001667e+01	 6.666648222243556e-01	 2.029982606123537e-02
0	 8.666700000001664e+01	 9.999960250084501e-01	 3.667466139121107e-02
0	 8.666700000001666e+01	 1.333326577794844e+00	 5.719946019539815e-02
0	 8.666700000001664e+01	 1.666656597249305e+00	 8.187422299539490e-02
0	 8.666700000001666e+01	 1.999986200037600e+00	 1.106989416351364e-01
0	 8.666700000001666e+01	 2.333315502825495e+00	 1.436735992325059e-01
0	 8.666700000001666e+01	 2.666644622278756e+00	 1.807981701792452e-01
0	 8.666700000001666e+01	 2.999973675063150e+00	 2.220726201900348e-01
0	 8.666700000001666e+01	 3.333302777844445e+00	 2.674969062174125e-01
0	 8.000000000000000e+01	 3.333302777844445e+00	 2.602471593926952e-01
0	 8.000000000000003e+01	 3.666642022268356e+00	 3.097703014745178e-01
0	 7.999999999999999e+01	 3.999981400030399e+00	 3.590383833291520e-01
0	 7.999999999999999e+01	 4.333320877796045e+00	 4.080514200062282e-01
0	 8.000000000000000e+01	 4.666660422230755e+00	 4.568094264039949e-01
0	 8.000000000000001e+01	 5.000000000000001e+00	 5.053124172604929e-01
0	 8.000000000000000e+01	 5.333339577769244e+00	 5.535604071686794e-01
0	 8.000000000000000e+01	 5.666679122203955e+00	 6.015534105574423e-01
0	 7.999999999999999e+01	 6.000018599969598e+00	 6.492914417244258e-01
0	 8.000000000000000e+01	 6.333357977731642e+00	 6.967745147879632e-01
0	 8.000000000000000e+01	 6.666697222155555e+00	 7.440026437322610e-01
0	 8.066670000000335e+01	 3.333302777844445e+00	 2.610644547053675e-01
0	 8.066670000000333e+01	 3.666642022268356e+00	 3.104984311462148e-01
0	 8.066670000000330e+01	 3.999981400030399e+00	 3.596653267359354e-01
0	 8.066670000000332e+01	 4.333320877796044e+00	 4.085651565131385e-01
0	 8.066670000000332e+01	 4.666660422230753e+00	 4.571979353404421e-01
0	 8.066670000000329e+01	 4.999999999999997e+00	 5.055636779223734e-01
0	 8.066670000000330e+01	 5.333339577769242e+00	 5.536623988205330e-01
0	 8.066670000000333e+01	 5.666679122203955e+00	 6.014941124150939e-01
0	 8.066670000000330e+01	 6.000018599969598e+00	 6.490588329416068e-01
0	 8.066670000000333e+01	 6.333357977731643e+00	 6.963565744735867e-01
0	 8.066670000000335e+01	 6.666697222155555e+00	 7.433873509112271e-01
0	 8.133340000000653e+01	 3.333302777844445e+00	 2.621052608700736e-01
0	 8.133340000000652e+01	 3.666642022268356e+00	 3.113849079716226e-01
0	 8.133340000000653e+01	 3.999981400030399e+00	 3.603889339687198e-01
0	 8.133340000000652e+01	 4.333320877796044e+00	 4.091173538539536e-01
0	 8.133340000000651e+01	 4.666660422230755e+00	 4.575701824588022e-01
0	 8.133340000000653e+01	 5.000000000000000e+00	 5.057474344332121e-01
0	 8.133340000000651e+01	 5.333339577769242e+00	 5.536491242731196e-01
0	 8.133340000000652e+01	 5.666679122203955e+00	 6.012752663154204e-01
0	 8.133340000000656e+01	 6.000018599969598e+00	 6.486258747236326e-01
0	 8.133340000000651e+01	 6.333357977731644e+00	 6.957009634927689e-01
0	 8.133340000000651e+01	 6.666697222155555e+00	 7.425005464509641e-01
0	 8.200010000000955e+01	 3.333302777844445e+00	 2.632780679393173e-01
0	 8.200010000000952e+01	 3.666642022268356e+00	 3.123527134088618e-01
0	 8.200010000000955e+01	 3.999981400030400e+00	 3.611474580104960e-01
0	 8.200010000000954e+01	 4.333320877796044e+00	 4.096623166749764e-01
0	 8.200010000000957e+01	 4.666660422230756e+00	 4.578973041611593e-01
0	 8.200010000000957e+01	 5.000000000000000e+00	 5.058524350697351e-01
0	 8.200010000000952e+01	 5.333339577769243e+00	 5.535277238296605e-01
0	 8.200010000000954e+01	 5.666679122203954e+00	 6.009231847077412e-01
0	 8.200010000000954e+01	 6.000018599969601e+00	 6.480388317804311e-01
0	 8.200010000000951e+01	 6.333357977731642e+00	 6.948746789879275e-01
0	 8.200010000000957e+01	 6.666697222155556e+00	 7.414307400834688e-01
0	 8.266680000001227e+01	 3.333302777844444e+00	 2.644913659373661e-01
0	 8.266680000001226e+01	 3.666642022268356e+00	 3.133248289244494e-01
0	 8.266680000001226e+01	 3.999981400030399e+00	 3.618791518598334e-01
0	 8.266680000001226e+01	 4.333320877796045e+00	 4.101543496017742e-01
0	 8.266680000001226e+01	 4.666660422230755e+00	 4.581504368471351e-01
0	 8.266680000001229e+01	 5.000000000000000e+00	 5.058674281214109e-01
0	 8.266680000001226e+01	 5.333339577769244e+00	 5.533053377789704e-01
0	 8.266680000001227e+01	 5.666679122203955e+00	 6.004641800082284e-01
0	 8.266680000001226e+01	 6.000018599969597e+00	 6.473439688395303e-01
0	 8.266680000001226e+01	 6.333357977731642e+00	 6.939447181150826e-01
0	 8.266680000001229e+01	 6.666697222155557e+00	 7.402664415349527e-01
0	 8.333350000001457e+01	 3.333302777844444e+00	 2.656536449371406e-01
0	 8.333350000001455e+01	 3.666642022268356e+00	 3.142242359879936e-01
0	 8.333350000001458e+01	 3.999981400030399e+00	 3.625222685110309e-01
0	 8.333350000001457e+01	 4.333320877796044e+00	 4.105477572836125e-01
0	 8.333350000001458e+01	 4.666660422230755e+00	 4.583007169202774e-01
0	 8.333350000001457e+01	 4.999999999999999e+00	 5.057811618634810e-01
0	 8.333350000001458e+01	 5.333339577769244e+00	 5.529891064116075e-01
0	 8.333350000001457e+01	 5.666679122203956e+00	 5.999245646690343e-01
0	 8.333350000001458e+01	 6.000018599969598e+00	 6.465875506092728e-01
0	 8.333350000001458e+01	 6.333357977731642e+00	 6.929780780220843e-01
0	 8.333350000001458e+01	 6.666697222155556e+00	 7.390961605281293e-01
0	 8.400020000001642e+01	 3.333302777844446e+00	 2.666733949646978e-01
0	 8.400020000001639e+01	 3.666642022268355e+00	 3.149739160507904e-01
0	 8.400020000001639e+01	 3.999981400030400e+00	 3.630150609588721e-01
0	 8.400020000001636e+01	 4.333320877796045e+00	 4.107968443502433e-01
0	 8.400020000001638e+01	 4.666660422230756e+00	 4.583192807700227e-01
0	 8.400020000001638e+01	 4.999999999999998e+00	 5.055823845876529e-01
0	 8.400020000001639e+01	 5.333339577769243e+00	 5.525861700165874e-01
0	 8.400020000001636e+01	 5.666679122203954e+00	 5.993306511262716e-01
0	 8.400020000001639e+01	 6.000018599969599e+00	 6.458158418248400e-01
0	 8.400020000001639e+01	 6.333357977731643e+00	 6.920417558507428e-01
0	 8.400020000001641e+01	 6.666697222155555e+00	 7.380084068109078e-01
0	 8.466690000001761e+01	 3.333302777844445e+00	 2.674591060556663e-01
0	 8.466690000001759e+01	 3.666642022268356e+00	 3.154968505918688e-01
0	 8.466690000001759e+01	 3.999981400030400e+00	 3.632957821837822e-01
0	 8.466690000001762e+01	 4.333320877796044e+00	 4.108559154414788e-01
0	 8.466690000001761e+01	 4.666660422230756e+00	 4.581772647972103e-01
0	 8.466690000001761e+01	 4.999999999999998e+00	 5.052598445645787e-01
0	 8.466690000001762e+01	 5.333339577769243e+00	 5.521036688924534e-01
0	 8.466690000001762e+01	 5.666679122203957e+00	 5.987087518155849e-01
0	 8.466690000001761e+01	 6.000018599969599e+00	 6.450751071931858e-01
0	 8.466690000001761e+01	 6.333357977731643e+00	 6.912027487601672e-01
0	 8.466690000001761e+01	 6.666697222155556e+00	 7.370916901103018e-01
0	 8.533360000001811e+01	 3.333302777844446e+00	 2.679192682660378e-01
0	 8.533360000001811e+01	 3.666642022268356e+00	 3.157160210654028e-01
0	 8.533360000001815e+01	 3.999981400030400e+00	 3.633026852020927e-01
0	 8.533360000001811e+01	 4.333320877796043e+00	 4.106792751949498e-01
0	 8.533360000001812e+01	 4.666660422230756e+00	 4.578458053976240e-01
0	 8.533360000001812e+01	 4.999999999999999e+00	 5.048022900715765e-01
0	 8.533360000001812e+01	 5.333339577769244e+00	 5.515487433349493e-01
0	 8.533360000001812e+01	 5.666679122203954e+00	 5.980851791637466e-01
0	 8.533360000001812e+01	 6.000018599969598e+00	 6.444116114411138e-01
0	 8.533360000001812e+01	 6.333357977731642e+00	 6.905280539003184e-01
0	 8.533360000001812e+01	 6.666697222155555e+00	 7.364345201567035e-01
0	 8.600030000001782e+01	 3.333302777844445e+00	 2.679623716402593e-01
0	 8.600030000001784e+01	 3.666642022268356e+00	 3.155544089220078e-01
0	 8.600030000001784e+01	 3.999981400030401e+00	 3.629740229890172e-01
0	 8.600030000001783e+01	 4.333320877796045e+00	 4.102212282412631e-01
0	 8.600030000001782e+01	 4.666660422230754e+00	 4.572960389764198e-01
0	 8.600030000001783e+01	 5.000000000000000e+00	 5.041984694059892e-01
0	 8.600030000001786e+01	 5.333339577769244e+00	 5.509285336229370e-01
0	 8.600030000001782e+01	 5.666679122203954e+00	 5.974862456245478e-01
0	 8.600030000001782e+01	 6.000018599969598e+00	 6.438716192867100e-01
0	 8.600030000001780e+01	 6.333357977731643e+00	 6.900846684150130e-01
0	 8.600030000001783e+01	 6.666697222155556e+00	 7.361254066799051e-01
0	 8.666700000001666e+01	 3.333302777844445e+00	 2.674969062174124e-01
0	 8.666700000001667e+01	 3.666642022268357e+00	 3.149349956549003e-01
0	 8.666700000001669e+01	 3.999981400030400e+00	 3.622480485456506e-01
0	 8.666700000001666e+01	 4.333320877796044e+00	 4.094360792216358e-01
0	 8.666700000001667e+01	 4.666660422230755e+00	 4.564991019290529e-01
0	 8.666700000001669e+01	 5.000000000000000e+00	 5.034371308433772e-01
0	 8.666700000001666e+01	 5.333339577769242e+00	 5.502501800663675e-01
0	 8.666700000001669e+01	 5.666679122203955e+00	 5.969382636174320e-01
0	 8.666700000001667e+01	 6.000018599969599e+00	 6.435013954565533e-01
0	 8.666700000001667e+01	 6.333357977731644e+00	 6.899395894573178e-01
0	 8.666700000001667e+01	 6.666697222155556e+00	 7.362528594137384e-01
0	 8.000000000000000e+01	 6.666697222155555e+00	 7.440026437322609e-01
0	 7.999999999999999e+01	 7.000026324936849e+00	 7.888819881556404e-01
0	 7.999999999999999e+01	 7.333355377721245e+00	 8.293214916893041e-01
0	 8.000000000000000e+01	 7.666684497174508e+00	 8.653211121921098e-01
0	 8.000000000000000e+01	 8.000013799962403e+00	 8.968808168544631e-01
0	 8.000000000000000e+01	 8.333343402750694e+00	 9.240005821876721e-01
0	 8.000000000000001e+01	 8.666673422205159e+00	 9.466803940646390e-01
0	 8.000000000000000e+01	 9.000003974991554e+00	 9.649202476228447e-01
0	 8.000000000000001e+01	 9.333335177775650e+00	 9.787201473763054e-01
0	 8.000000000000000e+01	 9.666667147223212e+00	 9.880801071193597e-01
0	 8.000000000000000e+01	 1.000000000000000e+01	 9.930001500205188e-01
0	 8.066670000000335e+01	 6.666697222155555e+00	 7.433873509112270e-01
0	 8.066670000000335e+01	 7.000026324936851e+00	 7.880816965681278e-01
0	 8.066670000000330e+01	 7.333355377721244e+00	 8.283729177075274e-01
0	 8.066670000000333e+01	 7.666684497174507e+00	 8.642609723607484e-01
0	 8.066670000000335e+01	 8.000013799962403e+00	 8.957458278084051e-01
0	 8.066670000000333e+01	 8.333343402750696e+00	 9.228274605700160e-01
0	 8.066670000000332e+01	 8.666673422205161e+00	 9.455058563938135e-01
0	 8.066670000000335e+01	 9.000003974991555e+00	 9.637810103101916e-01
0	 8.066670000000332e+01	 9.333335177775648e+00	 9.776529265616460e-01
0	 8.066670000000330e+01	 9.666667147223210e+00	 9.871216186508434e-01
0	 8.066670000000332e+01	 1.000000000000000e+01	 9.921871093530642e-01
0	 8.133340000000651e+01	 6.666697222155555e+00	 7.425005464509640e-01
0	 8.133340000000655e+01	 7.000026324936852e+00	 7.869853386643306e-01
0	 8.133340000000653e+01	 7.333355377721244e+00	 8.271188132515952e-01
0	 8.133340000000652e+01	 7.666684497174508e+00	 8.629009284077289e-01
0	 8.133340000000652e+01	 8.000013799962399e+00	 8.943316514352958e-01
0	 8.133340000000653e+01	 8.333343402750696e+00	 9.214109588227247e-01
0	 8.133340000000653e+01	 8.666673422205161e+00	 9.441388361596735e-01
0	 8.133340000000655e+01	 9.000003974991554e+00	 9.625152781677770e-01
0	 8.133340000000653e+01	 9.333335177775648e+00	 9.765402887546194e-01
0	 8.133340000000652e+01	 9.666667147223212e+00	 9.862138809150662e-01
0	 8.133340000000653e+01	 1.000000000000000e+01	 9.915360768063193e-01
0	 8.200010000000957e+01	 6.666697222155556e+00	 7.414307400834689e-01
0	 8.200010000000954e+01	 7.000026324936849e+00	 7.857000708934065e-01
0	 8.200010000000957e+01	 7.333355377721246e+00	 8.256784708076204e-01
0	 8.200010000000955e+01	 7.666684497174508e+00	 8.613658981638913e-01
0	 8.200010000000954e+01	 8.000013799962401e+00	 8.927623203318015e-01
0	 8.200010000000952e+01	 8.333343402750694e+00	 9.198677136579798e-01
0	 8.200010000000952e+01	 8.666673422205159e+00	 9.426820635347977e-01
0	 8.200010000000955e+01	 9.000003974991555e+00	 9.612053643418341e-01
0	 8.200010000000955e+01	 9.333335177775647e+00	 9.754376194872511e-01
0	 8.200010000000955e+01	 9.666667147223212e+00	 9.853788413866187e-01
0	 8.200010000000955e+01	 1.000000000000000e+01	 9.910290514546379e-01
0	 8.266680000001229e+01	 6.666697222155557e+00	 7.402664415349528e-01
0	 8.266680000001229e+01	 7.000026324936848e+00	 7.843330496675495e-01
0	 8.266680000001226e+01	 7.333355377721244e+00	 8.241711828291675e-01
0	 8.266680000001226e+01	 7.666684497174506e+00	 8.597807995176765e-01
0	 8.266680000001227e+01	 8.000013799962403e+00	 8.911618670757602e-01
0	 8.266680000001223e+01	 8.333343402750696e+00	 9.183143617666250e-01
0	 8.266680000001227e+01	 8.666673422205161e+00	 9.412382687175144e-01
0	 8.266680000001227e+01	 9.000003974991555e+00	 9.599335819332412e-01
0	 8.266680000001222e+01	 9.333335177775647e+00	 9.744003042803019e-01
0	 8.266680000001223e+01	 9.666667147223210e+00	 9.846384475558094e-01
0	 8.266680000001227e+01	 1.000000000000000e+01	 9.906480323953405e-01
0	 8.333350000001458e+01	 6.666697222155556e+00	 7.390961605281294e-01
0	 8.333350000001460e+01	 7.000026324936851e+00	 7.829914314092489e-01
0	 8.333350000001455e+01	 7.333355377721245e+00	 8.227162418003053e-01
0	 8.333350000001458e+01	 7.666684497174507e+00	 8.582705503080774e-01
0	 8.333350000001457e+01	 8.000013799962401e+00	 8.896543242869018e-01
0	 8.333350000001458e+01	 8.333343402750694e+00	 9.168675398572169e-01
0	 8.333350000001458e+01	 8.666673422205157e+00	 9.399101818850762e-01
0	 8.333350000001460e+01	 9.000003974991554e+00	 9.587822440274564e-01
0	 8.333350000001458e+01	 9.333335177775650e+00	 9.734837286550988e-01
0	 8.333350000001458e+01	 9.666667147223210e+00	 9.840146469276964e-01
0	 8.333350000001458e+01	 1.000000000000000e+01	 9.903750187595407e-01
0	 8.400020000001641e+01	 6.666697222155555e+00	 7.380084068109080e-01
0	 8.400020000001638e+01	 7.000026324936850e+00	 7.817823725392643e-01
0	 8.400020000001639e+01	 7.333355377721245e+00	 8.214329401867245e-01
0	 8.400020000001641e+01	 7.666684497174506e+00	 8.569600684043640e-01
0	 8.400020000001639e+01	 8.000013799962401e+00	 8.883637245493812e-01
0	 8.400020000001641e+01	 8.333343402750700e+00	 9.156438846095605e-01
0	 8.400020000001638e+01	 8.666673422205159e+00	 9.388005332372076e-01
0	 8.400020000001638e+01	 9.000003974991552e+00	 9.578336637389580e-01
0	 8.400020000001639e+01	 9.333335177775648e+00	 9.727432781086575e-01
0	 8.400020000001639e+01	 9.666667147223208e+00	 9.835293869761231e-01
0	 8.400020000001639e+01	 1.000000000000000e+01	 9.901920095927140e-01
0	 8.466690000001761e+01	 6.666697222155556e+00	 7.370916901103020e-01
0	 8.466690000001761e+01	 7.000026324936850e+00	 7.808130294930667e-01
0	 8.466690000001761e+01	 7.333355377721245e+00	 8.204405704482053e-01
0	 8.466690000001761e+01	 7.666684497174506e+00	 8.559742716666789e-01
0	 8.466690000001759e+01	 8.000013799962401e+00	 8.874141004744007e-01
0	 8.466690000001759e+01	 8.333343402750698e+00	 9.147600327421791e-01
0	 8.466690000001763e+01	 8.666673422205157e+00	 9.380120529586579e-01
0	 8.466690000001759e+01	 9.000003974991555e+00	 9.571701542122601e-01
0	 8.466690000001759e+01	 9.333335177775647e+00	 9.722343381964050e-01
0	 8.466690000001762e+01	 9.666667147223212e+00	 9.832046151762427e-01
0	 8.466690000001762e+01	 1.000000000000000e+01	 9.900810040500219e-01
0	 8.533360000001812e+01	 6.666697222155555e+00	 7.364345201567036e-01
0	 8.533360000001811e+01	 7.000026324936847e+00	 7.801905586689352e-01
0	 8.533360000001812e+01	 7.333355377721245e+00	 8.198584250500306e-01
0	 8.533360000001812e+01	 7.666684497174505e+00	 8.554380779646150e-01
0	 8.533360000001812e+01	 8.000013799962401e+00	 8.869294846515196e-01
0	 8.533360000001811e+01	 8.333343402750694e+00	 9.143326209323480e-01
0	 8.533360000001811e+01	 8.666673422205159e+00	 9.376474712231982e-01
0	 8.533360000001812e+01	 9.000003974991552e+00	 9.568740285277255e-01
0	 8.533360000001814e+01	 9.333335177775647e+00	 9.720122943956212e-01
0	 8.533360000001811e+01	 9.666667147223212e+00	 9.830622790478415e-01
0	 8.533360000001811e+01	 9.999999999999998e+00	 9.900240011997610e-01
0	 8.600030000001783e+01	 6.666697222155556e+00	 7.361254066799050e-01
0	 8.600030000001783e+01	 7.000026324936848e+00	 7.800221165023483e-01
0	 8.600030000001784e+01	 7.333355377721245e+00	 8.198057964782041e-01
0	 8.600030000001782e+01	 7.666684497174508e+00	 8.554764051444640e-01
0	 8.600030000001782e+01	 8.000013799962399e+00	 8.870339096859358e-01
0	 8.600030000001782e+01	 8.333343402750696e+00	 9.144782859066048e-01
0	 8.600030000001783e+01	 8.666673422205159e+00	 9.378095182481799e-01
0	 8.600030000001783e+01	 9.000003974991552e+00	 9.570275998014013e-01
0	 8.600030000001783e+01	 9.333335177775647e+00	 9.721325322848198e-01
0	 8.600030000001784e+01	 9.666667147223210e+00	 9.831243260938644e-01
0	 8.600030000001783e+01	 1.000000000000000e+01	 9.900030001553481e-01
0	 8.666700000001667e+01	 6.666697222155556e+00	 7.362528594137383e-01
0	 8.666700000001663e+01	 7.000026324936849e+00	 7.804148594114952e-01
0	 8.666700000001666e+01	 7.333355377721245e+00	 8.204019771944276e-01
0	 8.666700000001666e+01	 7.666684497174507e+00	 8.562141710828660e-01
0	 8.666700000001667e+01	 8.000013799962401e+00	 8.878514081820997e-01
0	 8.666700000001667e+01	 8.333343402750698e+00	 9.153136643357190e-01
0	 8.666700000001667e+01	 8.666673422205157e+00	 9.386009241845484e-01
0	 8.666700000001669e+01	 9.000003974991555e+00	 9.577131811399203e-01
0	 8.666700000001666e+01	 9.333335177775648e+00	 9.726504373374488e-01
0	 8.666700000001670e+01	 9.666667147223210e+00	 9.834127037322887e-01
0	 8.666700000001666e+01	 1.000000000000000e+01	 9.900000000095984e-01
0	 8.666700000001666e+01	 0.000000000000000e+00	 0.000000000000000e+00
0	 8.666700000001669e+01	 3.333328527767945e-01	 8.074944916196423e-03
0	 8.666700000001667e+01	 6.666648222243556e-01	 2.029982606123537e-02
0	 8.666700000001664e+01	 9.999960250084501e-01	 3.667466139121107e-02
0	 8.666700000001666e+01	 1.333326577794844e+00	 5.719946019539815e-02
0	 8.666700000001664e+01	 1.666656597249305e+00	 8.187422299539490e-02
0	 8.666700000001666e+01	 1.999986200037600e+00	 1.106989416351364e-01
0	 8.666700000001666e+01	 2.333315502825495e+00	 1.436735992325059e-01
0	 8.666700000001666e+01	 2.666644622278756e+00	 1.807981701792452e-01
0	 8.666700000001666e+01	 2.999973675063150e+00	 2.220726201900348e-01
0	 8.666700000001666e+01	 3.333302777844445e+00	 2.674969062174125e-01
0	 8.733360002778814e+01	 0.000000000000000e+00	 0.000000000000000e+00
0	 8.733360002778814e+01	 3.333328527767945e-01	 7.993852994364895e-03
0	 8.733360002778812e+01	 6.666648222243553e-01	 2.013306310339138e-02
0	 8.733360002778817e+01	 9.999960250084499e-01	 3.641764836003450e-02
0	 8.733360002778815e+01	 1.333326577794844e+00	 5.684761811023614e-02
0	 8.733360002778814e+01	 1.666656597249305e+00	 8.142297295150464e-02
0	 8.733360002778815e+01	 1.999986200037600e+00	 1.101437048118922e-01
0	 8.733360002778815e+01	 2.333315502825495e+00	 1.430097969181207e-01
0	 8.733360002778814e+01	 2.666644622278756e+00	 1.800212237538971e-01
0	 8.733360002778815e+01	 2.999973675063150e+00	 2.211779511301563e-01
0	 8.733360002778812e+01	 3.333302777844445e+00	 2.664799361445960e-01
0	 8.800020022220055e+01	 0.000000000000000e+00	 0.000000000000000e+00
0	 8.800020022220055e+01	 3.333328527767945e-01	 7.807519162538798e-03
0	 8.800020022220053e+01	 6.666648222243553e-01	 1.977028793860126e-02
0	 8.800020022220053e+01	 9.999960250084501e-01	 3.588832463520854e-02
0	 8.800020022220053e+01	 1.333326577794844e+00	 5.616163879774529e-02
0	 8.800020022220056e+01	 1.666656597249305e+00	 8.059023126186132e-02
0	 8.800020022220052e+01	 1.999986200037600e+00	 1.091740941393155e-01
0	 8.800020022220056e+01	 2.333315502825495e+00	 1.419132108535320e-01
0	 8.800020022220056e+01	 2.666644622278756e+00	 1.788075560176940e-01
0	 8.800020022220056e+01	 2.999973675063150e+00	 2.198570955979770e-01
0	 8.800020022220055e+01	 3.333302777844445e+00	 2.650617868050236e-01
0	 8.866680074989577e+01	 0.000000000000000e+00	 0.000000000000000e+00
0	 8.866680074989578e+01	 3.333328527767944e-01	 7.578670160683938e-03
0	 8.866680074989577e+01	 6.666648222243556e-01	 1.932743101775136e-02
0	 8.866680074989577e+01	 9.999960250084501e-01	 3.524630112815389e-02
0	 8.866680074989578e+01	 1.333326577794844e+00	 5.533529040779801e-02
0	 8.866680074989580e+01	 1.666656597249306e+00	 7.959439995586648e-02
0	 8.866680074989578e+01	 1.999986200037600e+00	 1.080236221307418e-01
0	 8.866680074989577e+01	 2.333315502825494e+00	 1.406229405265700e-01
0	 8.866680074989577e+01	 2.666644622278756e+00	 1.773923299857979e-01
0	 8.866680074989576e+01	 2.999973675063150e+00	 2.183317565981095e-01
0	 8.866680074989577e+01	 3.333302777844445e+00	 2.634411776822094e-01
0	 8.933340177751576e+01	 0.000000000000000e+00	 0.000000000000000e+00
0	 8.933340177751576e+01	 3.333328527767945e-01	 7.370032714003719e-03
0	 8.933340177751577e+01	 6.666648222243556e-01	 1.892042265805503e-02
0	 8.933340177751576e+01	 9.999960250084500e-01	 3.465118873677124e-02
0	 8.933340177751576e+01	 1.333326577794845e+00	 5.456234109192972e-02
0	 8.933340177751579e+01	 1.666656597249306e+00	 7.865388108030506e-02
0	 8.933340177751577e+01	 1.999986200037600e+00	 1.069258012642643e-01
0	 8.933340177751577e+01	 2.333315502825495e+00	 1.393780854458334e-01
0	 8.933340177751576e+01	 2.666644622278756e+00	 1.760107086388549e-01
0	 8.933340177751576e+01	 2.999973675063150e+00	 2.168236370891387e-01
0	 8.933340177751577e+01	 3.333302777844445e+00	 2.618168282589133e-01
0	 9.000000347170241e+01	 0.000000000000000e+00	 0.000000000000000e+00
0	 9.000000347170241e+01	 3.333328527767945e-01	 7.244333505577990e-03
0	 9.000000347170237e+01	 6.666648222243554e-01	 1.866519330213956e-02
0	 9.000000347170244e+01	 9.999960250084502e-01	 3.426259838802723e-02
0	 9.000000347170241e+01	 1.333326577794845e+00	 5.403655902092719e-02
0	 9.000000347170243e+01	 1.666656597249306e+00	 7.798707667269383e-02
0	 9.000000347170240e+01	 1.999986200037600e+00	 1.061141440590889e-01
0	 9.000000347170244e+01	 2.333315502825494e+00	 1.384177450995004e-01
0	 9.000000347170243e+01	 2.666644622278756e+00	 1.748978549712205e-01
0	 9.000000347170241e+01	 2.999973675063150e+00	 2.155544400823066e-01
0	 9.000000347170241e+01	 3.333302777844445e+00	 2.603874580272882e-01
0	 9.066660599909765e+01	 0.000000000000000e+00	 0.000000000000000e+00
0	 9.066660599909764e+01	 3.333328527767945e-01	 7.264299281969590e-03
0	 9.066660599909768e+01	 6.666648222243555e-01	 1.867767333892029e-02
0	 9.066660599909768e+01	 9.999960250084502e-01	 3.424014099635077e-02
0	 9.066660599909764e+01	 1.333326577794844e+00	 5.395171234304758e-02
0	 9.066660599909767e+01	 1.666656597249306e+00	 7.781238878404975e-02
0	 9.066660599909764e+01	 1.999986200037600e+00	 1.058221630095520e-01
0	 9.066660599909767e+01	 2.333315502825494e+00	 1.379810189999439e-01
0	 9.066660599909765e+01	 2.666644622278756e+00	 1.742889319852588e-01
0	 9.066660599909763e+01	 2.999973675063150e+00	 2.147458685336900e-01
0	 9.066660599909765e+01	 3.333302777844445e+00	 2.593517864611010e-01
0	 9.133320952634340e+01	 0.000000000000000e+00	 0.000000000000000e+00
0	 9.133320952634340e+01	 3.333328527767944e-01	 7.492656739123325e-03
0	 9.133320952634340e+01	 6.666648222243555e-01	 1.907379317355176e-02
0	 9.133320952634337e+01	 9.999960250084500e-01	 3.474342744336045e-02
0	 9.133320952634340e+01	 1.333326577794844e+00	 5.450156919747871e-02
0	 9.133320952634340e+01	 1.666656597249306e+00	 7.834821945036451e-02
0	 9.133320952634338e+01	 1.999986200037600e+00	 1.062833706355424e-01
0	 9.133320952634340e+01	 2.333315502825495e+00	 1.383070066068408e-01
0	 9.133320952634340e+01	 2.666644622278756e+00	 1.744191026519918e-01
0	 9.133320952634341e+01	 2.999973675063150e+00	 2.146196254315382e-01
0	 9.133320952634338e+01	 3.333302777844445e+00	 2.589085330521387e-01
0	 9.199981422008155e+01	 0.000000000000000e+00	 0.000000000000000e+00
0	 9.199981422008155e+01	 3.333328527767945e-01	 7.992132622861668e-03
0	 9.199981422008150e+01	 6.666648222243554e-01	 1.996948315765392e-02
0	 9.199981422008155e+01	 9.999960250084502e-01	 3.593206866170719e-02
0	 9.199981422008156e+01	 1.333326577794845e+00	 5.587989775198821e-02
0	 9.199981422008155e+01	 1.666656597249305e+00	 7.981297069463246e-02
0	 9.199981422008157e+01	 1.999986200037600e+00	 1.077312794224153e-01
0	 9.199981422008155e+01	 2.333315502825495e+00	 1.396348074618818e-01
0	 9.199981422008155e+01	 2.666644622278755e+00	 1.755235299754878e-01
0	 9.199981422008156e+01	 2.999973675063151e+00	 2.153974137797660e-01
0	 9.199981422008155e+01	 3.333302777844445e+00	 2.592564172854029e-01
0	 9.266642024695403e+01	 0.000000000000000e+00	 0.000000000000000e+00
0	 9.266642024695403e+01	 3.333328527767944e-01	 8.825453621381154e-03
0	 9.266642024695405e+01	 6.666648222243555e-01	 2.148067374439279e-02
0	 9.266642024695402e+01	 9.999960250084502e-01	 3.796567555344120e-02
0	 9.266642024695406e+01	 1.333326577794844e+00	 5.828046614796702e-02
0	 9.266642024695403e+01	 1.666656597249306e+00	 8.242504458374711e-02
0	 9.266642024695405e+01	 1.999986200037600e+00	 1.103994018879250e-01
0	 9.266642024695405e+01	 2.333315502825495e+00	 1.422035210296734e-01
0	 9.266642024695405e+01	 2.666644622278756e+00	 1.778373769475825e-01
0	 9.266642024695402e+01	 2.999973675063150e+00	 2.173009365336917e-01
0	 9.266642024695403e+01	 3.333302777844444e+00	 2.605941586518309e-01
0	 9.333302777360282e+01	 0.000000000000000e+00	 0.000000000000000e+00
0	 9.333302777360281e+01	 3.333328527767944e-01	 1.005534644765794e-02
0	 9.333302777360285e+01	 6.666648222243555e-01	 2.372329529548258e-02
0	 9.333302777360281e+01	 9.999960250084499e-01	 4.100385903219660e-02
0	 9.333302777360281e+01	 1.333326577794844e+00	 6.189704255921369e-02
0	 9.333302777360284e+01	 1.666656597249306e+00	 8.640284313591523e-02
0	 9.333302777360284e+01	 1.999986200037600e+00	 1.145212505156067e-01
0	 9.333302777360282e+01	 2.333315502825494e+00	 1.462522468069092e-01
0	 9.333302777360282e+01	 2.666644622278756e+00	 1.815958065511748e-01
0	 9.333302777360284e+01	 2.999973675063150e+00	 2.205518966980629e-01
0	 9.333302777360282e+01	 3.333302777844445e+00	 2.631204766148291e-01
0	 8.666700000001666e+01	 3.333302777844445e+00	 2.674969062174125e-01
0	 8.666700000001667e+01	 3.666642022268357e+00	 3.149349956549003e-01
0	 8.666700000001669e+01	 3.999981400030400e+00	 3.622480485456506e-01
0	 8.666700000001666e+01	 4.333320877796044e+00	 4.094360792216358e-01
0	 8.666700000001667e+01	 4.666660422230755e+00	 4.564991019290529e-01
0	 8.666700000001669e+01	 5.000000000000000e+00	 5.034371308433772e-01
0	 8.666700000001666e+01	 5.333339577769242e+00	 5.502501800663675e-01
0	 8.666700000001669e+01	 5.666679122203955e+00	 5.969382636174320e-01
0	 8.666700000001667e+01	 6.000018599969599e+00	 6.435013954565533e-01
0	 8.666700000001667e+01	 6.333357977731644e+00	 6.899395894573178e-01
0	 8.666700000001667e+01	 6.666697222155556e+00	 7.362528594137384e-01
0	 8.733360002778812e+01	 3.333302777844445e+00	 2.664799361445960e-01
0	 8.733360002778818e+01	 3.666642022268355e+00	 3.138221310334621e-01
0	 8.733360002778817e+01	 3.999981400030400e+00	 3.610966880072734e-01
0	 8.733360002778817e+01	 4.333320877796043e+00	 4.083036213268209e-01
0	 8.733360002778815e+01	 4.666660422230755e+00	 4.554429451980200e-01
0	 8.733360002778814e+01	 4.999999999999999e+00	 5.025146737894879e-01
0	 8.733360002778815e+01	 5.333339577769244e+00	 5.495188212476778e-01
0	 8.733360002778817e+01	 5.666679122203954e+00	 5.964554016523077e-01
0	 8.733360002778815e+01	 6.000018599969598e+00	 6.433244290492974e-01
0	 8.733360002778818e+01	 6.333357977731643e+00	 6.901259174647688e-01
0	 8.733360002778811e+01	 6.666697222155554e+00	 7.368598808601274e-01
0	 8.800020022220055e+01	 3.333302777844445e+00	 2.650617868050236e-01
0	 8.800020022220053e+01	 3.666642022268356e+00	 3.123445307709010e-01
0	 8.800020022220053e+01	 3.999981400030399e+00	 3.596254340452646e-01
0	 8.800020022220053e+01	 4.333320877796043e+00	 4.069045108067834e-01
0	 8.800020022220056e+01	 4.666660422230756e+00	 4.541817752526721e-01
0	 8.800020022220055e+01	 4.999999999999999e+00	 5.014572415456474e-01
0	 8.800020022220052e+01	 5.333339577769243e+00	 5.487309238941208e-01
0	 8.800020022220053e+01	 5.666679122203954e+00	 5.960028364625862e-01
0	 8.800020022220055e+01	 6.000018599969598e+00	 6.432729934359543e-01
0	 8.800020022220053e+01	 6.333357977731641e+00	 6.905414089934301e-01
0	 8.800020022220056e+01	 6.666697222155557e+00	 7.378080973235310e-01
0	 8.866680074989577e+01	 3.333302777844445e+00	 2.634411776822095e-01
0	 8.866680074989578e+01	 3.666642022268356e+00	 3.106721184841599e-01
0	 8.866680074989578e+01	 3.999981400030400e+00	 3.579733147627007e-01
0	 8.866680074989576e+01	 4.333320877796044e+00	 4.053447806557008e-01
0	 8.866680074989580e+01	 4.666660422230756e+00	 4.527865302960765e-01
0	 8.866680074989578e+01	 5.000000000000000e+00	 5.002985779104321e-01
0	 8.866680074989578e+01	 5.333339577769244e+00	 5.478809377269070e-01
0	 8.866680074989578e+01	 5.666679122203954e+00	 5.955336240359763e-01
0	 8.866680074989580e+01	 6.000018599969599e+00	 6.432566511546254e-01
0	 8.866680074989578e+01	 6.333357977731641e+00	 6.910500334706962e-01
0	 8.866680074989577e+01	 6.666697222155555e+00	 7.389137853805079e-01
0	 8.933340177751577e+01	 3.333302777844445e+00	 2.618168282589133e-01
0	 8.933340177751579e+01	 3.666642022268356e+00	 3.089748177637989e-01
0	 8.933340177751576e+01	 3.999981400030399e+00	 3.562793582795563e-01
0	 8.933340177751579e+01	 4.333320877796044e+00	 4.037304638386311e-01
0	 8.933340177751577e+01	 4.666660422230755e+00	 4.513281485569235e-01
0	 8.933340177751576e+01	 5.000000000000000e+00	 4.990724266759135e-01
0	 8.933340177751577e+01	 5.333339577769244e+00	 5.469633124647025e-01
0	 8.933340177751579e+01	 5.666679122203955e+00	 5.950008203414893e-01
0	 8.933340177751577e+01	 6.000018599969599e+00	 6.431849647616790e-01
0	 8.933340177751576e+01	 6.333357977731644e+00	 6.915157603001918e-01
0	 8.933340177751577e+01	 6.666697222155555e+00	 7.399932216171397e-01
0	 9.000000347170241e+01	 3.333302777844445e+00	 2.603874580272881e-01
0	 9.000000347170241e+01	 3.666642022268356e+00	 3.074225522345713e-01
0	 9.000000347170243e+01	 3.999981400030399e+00	 3.546825926913591e-01
0	 9.000000347170244e+01	 4.333320877796044e+00	 4.021675933396197e-01
0	 9.000000347170243e+01	 4.666660422230755e+00	 4.498775682479784e-01
0	 9.000000347170244e+01	 4.999999999999997e+00	 4.978125316363344e-01
0	 9.000000347170241e+01	 5.333339577769244e+00	 5.459724978443455e-01
0	 9.000000347170243e+01	 5.666679122203955e+00	 5.943574813681249e-01
0	 9.000000347170241e+01	 6.000018599969599e+00	 6.429674968058486e-01
0	 9.000000347170243e+01	 6.333357977731643e+00	 6.918025589210198e-01
0	 9.000000347170240e+01	 6.666697222155554e+00	 7.408626825982313e-01
0	 9.066660599909765e+01	 3.333302777844445e+00	 2.593517864611009e-01
0	 9.066660599909768e+01	 3.666642022268356e+00	 3.061852455009684e-01
0	 9.066660599909768e+01	 3.999981400030399e+00	 3.533220461234804e-01
0	 9.066660599909767e+01	 4.333320877796043e+00	 4.007622021442546e-01
0	 9.066660599909765e+01	 4.666660422230755e+00	 4.485057275770730e-01
0	 9.066660599909764e+01	 5.000000000000000e+00	 4.965526366028613e-01
0	 9.066660599909764e+01	 5.333339577769243e+00	 5.449029435868918e-01
0	 9.066660599909767e+01	 5.666679122203955e+00	 5.935566630888169e-01
0	 9.066660599909764e+01	 6.000018599969600e+00	 6.425138098334021e-01
0	 9.066660599909765e+01	 6.333357977731643e+00	 6.917743987457767e-01
0	 9.066660599909765e+01	 6.666697222155554e+00	 7.413384449049220e-01
0	 9.133320952634338e+01	 3.333302777844445e+00	 2.589085330521387e-01
0	 9.133320952634340e+01	 3.666642022268355e+00	 3.054328211727669e-01
0	 9.133320952634338e+01	 3.999981400030400e+00	 3.523367466798971e-01
0	 9.133320952634338e+01	 4.333320877796044e+00	 3.996203232363001e-01
0	 9.133320952634338e+01	 4.666660422230756e+00	 4.472835647620581e-01
0	 9.133320952634342e+01	 5.000000000000001e+00	 4.953264853688682e-01
0	 9.133320952634341e+01	 5.333339577769244e+00	 5.437490994156166e-01
0	 9.133320952634340e+01	 5.666679122203954e+00	 5.925514214863231e-01
0	 9.133320952634337e+01	 6.000018599969597e+00	 6.417334664044213e-01
0	 9.133320952634338e+01	 6.333357977731644e+00	 6.912952491917503e-01
0	 9.133320952634338e+01	 6.666697222155555e+00	 7.412367851272869e-01
0	 9.199981422008155e+01	 3.333302777844445e+00	 2.592564172854029e-01
0	 9.199981422008156e+01	 3.666642022268356e+00	 3.053352028569430e-01
0	 9.199981422008156e+01	 3.999981400030399e+00	 3.518657224658146e-01
0	 9.199981422008156e+01	 4.333320877796043e+00	 3.988479895962002e-01
0	 9.199981422008155e+01	 4.666660422230755e+00	 4.462820180040617e-01
0	 9.199981422008156e+01	 5.000000000000001e+00	 4.941678217211554e-01
0	 9.199981422008156e+01	 5.333339577769244e+00	 5.425054150480184e-01
0	 9.199981422008156e+01	 5.666679122203954e+00	 5.912948125400170e-01
0	 9.199981422008155e+01	 6.000018599969599e+00	 6.405360290521190e-01
0	 9.199981422008155e+01	 6.333357977731644e+00	 6.902290796845496e-01
0	 9.199981422008153e+01	 6.666697222155555e+00	 7.403739798328960e-01
0	 9.266642024695403e+01	 3.333302777844444e+00	 2.605941586518308e-01
0	 9.266642024695403e+01	 3.666642022268356e+00	 3.060623141634435e-01
0	 9.266642024695406e+01	 3.999981400030400e+00	 3.520480015978512e-01
0	 9.266642024695403e+01	 4.333320877796043e+00	 3.985512342037892e-01
0	 9.266642024695403e+01	 4.666660422230756e+00	 4.455720255374523e-01
0	 9.266642024695403e+01	 4.999999999999999e+00	 4.931103894760314e-01
0	 9.266642024695406e+01	 5.333339577769244e+00	 5.411663402155016e-01
0	 9.266642024695403e+01	 5.666679122203955e+00	 5.897398922329498e-01
0	 9.266642024695403e+01	 6.000018599969599e+00	 6.388310603373341e-01
0	 9.266642024695405e+01	 6.333357977731643e+00	 6.884398596483159e-01
0	 9.266642024695405e+01	 6.666697222155556e+00	 7.385663055970042e-01
0	 9.333302777360282e+01	 3.333302777844445e+00	 2.631204766148291e-01
0	 9.333302777360282e+01	 3.666642022268356e+00	 3.077840787039627e-01
0	 9.333302777360282e+01	 3.999981400030399e+00	 3.530226121857539e-01
0	 9.333302777360281e+01	 4.333320877796043e+00	 3.988360900354846e-01
0	 9.333302777360282e+01	 4.666660422230756e+00	 4.452245255641261e-01
0	 9.333302777360282e+01	 4.999999999999999e+00	 4.921879324288979e-01
0	 9.333302777360284e+01	 5.333339577769244e+00	 5.397263246389298e-01
0	 9.333302777360282e+01	 5.666679122203954e+00	 5.878397165290054e-01
0	 9.333302777360284e+01	 6.000018599969598e+00	 6.365281228063434e-01
0	 9.333302777360281e+01	 6.333357977731643e+00	 6.857915584986073e-01
0	 9.333302777360284e+01	 6.666697222155555e+00	 7.356300389992098e-01
0	 8.666700000001667e+01	 6.666697222155556e+00	 7.362528594137383e-01
0	 8.666700000001663e+01	 7.000026324936849e+00	 7.804148594114952e-01
0	 8.666700000001666e+01	 7.333355377721245e+00	 8.204019771944276e-01
0	 8.666700000001666e+01	 7.666684497174507e+00	 8.562141710828659e-01
0	 8.666700000001667e+01	 8.000013799962401e+00	 8.878514081820996e-01
0	 8.666700000001667e+01	 8.333343402750698e+00	 9.153136643357190e-01
0	 8.666700000001667e+01	 8.666673422205157e+00	 9.386009241845484e-01
0	 8.666700000001669e+01	 9.000003974991555e+00	 9.577131811399203e-01
0	 8.666700000001666e+01	 9.333335177775648e+00	 9.726504373374488e-01
0	 8.666700000001670e+01	 9.666667147223210e+00	 9.834127037322887e-01
0	 8.666700000001666e+01	 1.000000000000000e+01	 9.900000000095984e-01
0	 8.733360002778811e+01	 6.666697222155554e+00	 7.368598808601273e-01
0	 8.733360002778815e+01	 7.000026324936849e+00	 7.814202522695498e-01
0	 8.733360002778815e+01	 7.333355377721245e+00	 8.217037249356784e-01
0	 8.733360002778817e+01	 7.666684497174506e+00	 8.577102568608435e-01
0	 8.733360002778817e+01	 8.000013799962403e+00	 8.894398150671796e-01
0	 8.733360002778815e+01	 8.333343402750696e+00	 9.168923755360023e-01
0	 8.733360002778814e+01	 8.666673422205156e+00	 9.400679232182083e-01
0	 8.733360002778815e+01	 9.000003974991550e+00	 9.589664520973629e-01
0	 8.733360002778815e+01	 9.333335177775647e+00	 9.735879650874865e-01
0	 8.733360002778812e+01	 9.666667147223208e+00	 9.839324740781096e-01
0	 8.733360002778814e+01	 1.000000000000000e+01	 9.900000000055516e-01
0	 8.800020022220056e+01	 6.666697222155557e+00	 7.378080973235310e-01
0	 8.800020022220055e+01	 7.000026324936848e+00	 7.828680328565253e-01
0	 8.800020022220055e+01	 7.333355377721246e+00	 8.235189836242609e-01
0	 8.800020022220050e+01	 7.666684497174503e+00	 8.597609072634071e-01
0	 8.800020022220055e+01	 8.000013799962401e+00	 8.915937706788469e-01
0	 8.800020022220050e+01	 8.333343402750696e+00	 9.190175500479594e-01
0	 8.800020022220055e+01	 8.666673422205159e+00	 9.420322307869988e-01
0	 8.800020022220056e+01	 9.000003974991555e+00	 9.606378075858288e-01
0	 8.800020022220055e+01	 9.333335177775648e+00	 9.748342843611538e-01
0	 8.800020022220055e+01	 9.666667147223208e+00	 9.846216743561337e-01
0	 8.800020022220055e+01	 1.000000000000000e+01	 9.900000000084878e-01
0	 8.866680074989577e+01	 6.666697222155555e+00	 7.389137853805078e-01
0	 8.866680074989576e+01	 7.000026324936848e+00	 7.845324478757079e-01
0	 8.866680074989577e+01	 7.333355377721245e+00	 8.255933928635514e-01
0	 8.866680074989577e+01	 7.666684497174504e+00	 8.620965775716426e-01
0	 8.866680074989577e+01	 8.000013799962401e+00	 8.940419688089367e-01
0	 8.866680074989580e+01	 8.333343402750696e+00	 9.214295429514783e-01
0	 8.866680074989576e+01	 8.666673422205156e+00	 9.442592859132566e-01
0	 8.866680074989577e+01	 9.000003974991552e+00	 9.625311932251583e-01
0	 8.866680074989578e+01	 9.333335177775648e+00	 9.762452699914769e-01
0	 8.866680074989580e+01	 9.666667147223210e+00	 9.854015308506906e-01
0	 8.866680074989577e+01	 1.000000000000000e+01	 9.900000000026700e-01
0	 8.933340177751577e+01	 6.666697222155555e+00	 7.399932216171397e-01
0	 8.933340177751577e+01	 7.000026324936852e+00	 7.861877440153486e-01
0	 8.933340177751576e+01	 7.333355377721245e+00	 8.276725922374673e-01
0	 8.933340177751579e+01	 7.666684497174508e+00	 8.644477230794245e-01
0	 8.933340177751576e+01	 8.000013799962401e+00	 8.965131032236655e-01
0	 8.933340177751577e+01	 8.333343402750696e+00	 9.238687092477915e-01
0	 8.933340177751576e+01	 8.666673422205159e+00	 9.465145276016020e-01
0	 8.933340177751577e+01	 9.000003974991554e+00	 9.644505546745580e-01
0	 8.933340177751576e+01	 9.333335177775647e+00	 9.776767966812963e-01
0	 8.933340177751576e+01	 9.666667147223208e+00	 9.861932697935982e-01
0	 8.933340177751576e+01	 1.000000000000000e+01	 9.900000000092424e-01
0	 9.000000347170240e+01	 6.666697222155554e+00	 7.408626825982312e-01
0	 9.000000347170243e+01	 7.000026324936850e+00	 7.876081679798537e-01
0	 9.000000347170243e+01	 7.333355377721246e+00	 8.295022213443924e-01
0	 9.000000347170243e+01	 7.666684497174505e+00	 8.665447990631754e-01
0	 9.000000347170243e+01	 8.000013799962403e+00	 8.987358676885082e-01
0	 9.000000347170243e+01	 8.333343402750696e+00	 9.260754039920209e-01
0	 9.000000347170241e+01	 8.666673422205159e+00	 9.485633949007071e-01
0	 9.000000347170240e+01	 9.000003974991552e+00	 9.661998375478102e-01
0	 9.000000347170237e+01	 9.333335177775645e+00	 9.789847392562918e-01
0	 9.000000347170241e+01	 9.666667147223210e+00	 9.869181174988100e-01
0	 9.000000347170241e+01	 1.000000000000000e+01	 9.900000000152820e-01
0	 9.066660599909765e+01	 6.666697222155554e+00	 7.413384449049221e-01
0	 9.066660599909765e+01	 7.000026324936851e+00	 7.885679664834945e-01
0	 9.066660599909765e+01	 7.333355377721244e+00	 8.308279197784337e-01
0	 9.066660599909765e+01	 7.666684497174507e+00	 8.681182608100714e-01
0	 9.066660599909764e+01	 8.000013799962399e+00	 9.004389560006792e-01
0	 9.066660599909765e+01	 8.333343402750698e+00	 9.277899822315520e-01
0	 9.066660599909765e+01	 8.666673422205159e+00	 9.501713268147274e-01
0	 9.066660599909767e+01	 9.000003974991554e+00	 9.675829874762254e-01
0	 9.066660599909763e+01	 9.333335177775648e+00	 9.800249724223377e-01
0	 9.066660599909764e+01	 9.666667147223210e+00	 9.874973002429611e-01
0	 9.066660599909765e+01	 1.000000000000000e+01	 9.900000000024928e-01
0	 9.133320952634338e+01	 6.666697222155555e+00	 7.412367851272867e-01
0	 9.133320952634340e+01	 7.000026324936850e+00	 7.888413862060825e-01
0	 9.133320952634338e+01	 7.333355377721245e+00	 8.313953271429939e-01
0	 9.133320952634340e+01	 7.666684497174506e+00	 8.688985636159035e-01
0	 9.133320952634338e+01	 8.000013799962401e+00	 9.013510619246416e-01
0	 9.133320952634340e+01	 8.333343402750696e+00	 9.287527989969308e-01
0	 9.133320952634341e+01	 8.666673422205161e+00	 9.511037623366544e-01
0	 9.133320952634337e+01	 9.000003974991552e+00	 9.684039500805972e-01
0	 9.133320952634340e+01	 9.333335177775648e+00	 9.806533709500276e-01
0	 9.133320952634341e+01	 9.666667147223212e+00	 9.878520442892166e-01
0	 9.133320952634340e+01	 1.000000000000000e+01	 9.900000000152814e-01
0	 9.199981422008153e+01	 6.666697222155555e+00	 7.403739798328960e-01
0	 9.199981422008156e+01	 7.000026324936851e+00	 7.882026738809274e-01
0	 9.199981422008156e+01	 7.333355377721244e+00	 8.309500830218161e-01
0	 9.199981422008155e+01	 7.666684497174507e+00	 8.686161627530548e-01
0	 9.199981422008156e+01	 8.000013799962405e+00	 9.012008792443621e-01
0	 9.199981422008155e+01	 8.333343402750694e+00	 9.287042093310378e-01
0	 9.199981422008153e+01	 8.666673422205159e+00	 9.511261405144193e-01
0	 9.199981422008156e+01	 9.000003974991554e+00	 9.684666709971946e-01
0	 9.199981422008155e+01	 9.333335177775650e+00	 9.807258096361251e-01
0	 9.199981422008155e+01	 9.666667147223210e+00	 9.879035759020641e-01
0	 9.199981422008155e+01	 9.999999999999998e+00	 9.900000000209668e-01
0	 9.266642024695405e+01	 6.666697222155556e+00	 7.385663055970043e-01
0	 9.266642024695402e+01	 7.000026324936846e+00	 7.864260761794506e-01
0	 9.266642024695405e+01	 7.333355377721245e+00	 8.292378270127456e-01
0	 9.266642024695403e+01	 7.666684497174507e+00	 8.670015135247531e-01
0	 9.266642024695403e+01	 8.000013799962403e+00	 8.997171017356564e-01
0	 9.266642024695405e+01	 8.333343402750698e+00	 9.273845682790574e-01
0	 9.266642024695403e+01	 8.666673422205159e+00	 9.500039003782699e-01
0	 9.266642024695403e+01	 9.000003974991554e+00	 9.675750958790270e-01
0	 9.266642024695403e+01	 9.333335177775648e+00	 9.800981631929963e-01
0	 9.266642024695403e+01	 9.666667147223208e+00	 9.875731213721667e-01
0	 9.266642024695403e+01	 9.999999999999998e+00	 9.900000000039140e-01
0	 9.333302777360284e+01	 6.666697222155555e+00	 7.356300389992099e-01
0	 9.333302777360284e+01	 7.000026324936850e+00	 7.832858398198168e-01
0	 9.333302777360284e+01	 7.333355377721245e+00	 8.260041987161395e-01
0	 9.333302777360282e+01	 7.666684497174508e+00	 8.637850712150308e-01
0	 9.333302777360284e+01	 8.000013799962401e+00	 8.966284231677322e-01
0	 9.333302777360282e+01	 8.333343402750698e+00	 9.245342308761805e-01
0	 9.333302777360282e+01	 8.666673422205159e+00	 9.475024809228715e-01
0	 9.333302777360281e+01	 9.000003974991554e+00	 9.655331703151391e-01
0	 9.333302777360282e+01	 9.333335177775648e+00	 9.786263064143093e-01
0	 9.333302777360282e+01	 9.666667147223210e+00	 9.867819069606315e-01
0	 9.333302777360282e+01	 1.000000000000000e+01	 9.900000000238088e-01
0	 9.333302777360282e+01	 0.000000000000000e+00	 0.000000000000000e+00
0	 9.333302777360281e+01	 3.333328527767944e-01	 1.005534644765794e-02
0	 9.333302777360285e+01	 6.666648222243555e-01	 2.372329529548258e-02
0	 9.333302777360281e+01	 9.999960250084499e-01	 4.100385903219660e-02
0	 9.333302777360281e+01	 1.333326577794844e+00	 6.189704255921369e-02
0	 9.333302777360284e+01	 1.666656597249306e+00	 8.640284313591523e-02
0	 9.333302777360284e+01	 1.999986200037600e+00	 1.145212505156067e-01
0	 9.333302777360282e+01	 2.333315502825494e+00	 1.462522468069092e-01
0	 9.333302777360282e+01	 2.666644622278756e+00	 1.815958065511748e-01
0	 9.333302777360284e+01	 2.999973675063150e+00	 2.205518966980629e-01
0	 9.333302777360282e+01	 3.333302777844445e+00	 2.631204766148290e-01
0	 9.399973674594318e+01	 0.000000000000000e+00	 0.000000000000000e+00
0	 9.399973674594318e+01	 3.333328527767944e-01	 1.167274959673151e-02
0	 9.399973674594315e+01	 6.666648222243554e-01	 2.668150291480562e-02
0	 9.399973674594320e+01	 9.999960250084501e-01	 4.502626895706051e-02
0	 9.399973674594320e+01	 1.333326577794844e+00	 6.670704977534793e-02
0	 9.399973674594317e+01	 1.666656597249305e+00	 9.172384032251378e-02
0	 9.399973674594321e+01	 1.999986200037601e+00	 1.200766286190443e-01
0	 9.399973674594321e+01	 2.333315502825496e+00	 1.517653956435537e-01
0	 9.399973674594318e+01	 2.666644622278755e+00	 1.867901153777738e-01
0	 9.399973674594318e+01	 2.999973675063150e+00	 2.251507548009016e-01
0	 9.399973674594318e+01	 3.333302777844444e+00	 2.668472738906225e-01
0	 9.466644621848461e+01	 0.000000000000000e+00	 0.000000000000000e+00
0	 9.466644621848459e+01	 3.333328527767945e-01	 1.337986864193294e-02
0	 9.466644621848459e+01	 6.666648222243555e-01	 2.980945942630679e-02
0	 9.466644621848461e+01	 9.999960250084502e-01	 4.928877774147732e-02
0	 9.466644621848462e+01	 1.333326577794845e+00	 7.181782258948687e-02
0	 9.466644621848461e+01	 1.666656597249305e+00	 9.739658653290043e-02
0	 9.466644621848459e+01	 1.999986200037600e+00	 1.260250557684874e-01
0	 9.466644621848461e+01	 2.333315502825494e+00	 1.577032100592460e-01
0	 9.466644621848458e+01	 2.666644622278756e+00	 1.924310227884101e-01
0	 9.466644621848459e+01	 2.999973675063150e+00	 2.302084609076239e-01
0	 9.466644621848461e+01	 3.333302777844445e+00	 2.710354849982032e-01
0	 9.533315502450996e+01	 0.000000000000000e+00	 0.000000000000000e+00
0	 9.533315502450996e+01	 3.333328527767945e-01	 1.480698316259913e-02
0	 9.533315502450999e+01	 6.666648222243556e-01	 3.242929817913527e-02
0	 9.533315502450995e+01	 9.999960250084500e-01	 5.286694744335529e-02
0	 9.533315502450995e+01	 1.333326577794845e+00	 7.611992745398911e-02
0	 9.533315502450994e+01	 1.666656597249305e+00	 1.021882287771339e-01
0	 9.533315502450996e+01	 1.999986200037600e+00	 1.310718360765802e-01
0	 9.533315502450998e+01	 2.333315502825494e+00	 1.627707281137866e-01
0	 9.533315502450998e+01	 2.666644622278756e+00	 1.972848777204110e-01
0	 9.533315502450998e+01	 2.999973675063150e+00	 2.346142518189629e-01
0	 9.533315502450999e+01	 3.333302777844445e+00	 2.747588114349485e-01
0	 9.599986199730215e+01	 0.000000000000000e+00	 0.000000000000000e+00
0	 9.599986199730216e+01	 3.333328527767945e-01	 1.558437268295693e-02
0	 9.599986199730216e+01	 6.666648222243556e-01	 3.386315244857076e-02
0	 9.599986199730216e+01	 9.999960250084504e-01	 5.483634010951077e-02
0	 9.599986199730215e+01	 1.333326577794844e+00	 7.850393079837929e-02
0	 9.599986199730218e+01	 1.666656597249305e+00	 1.048659140400075e-01
0	 9.599986199730215e+01	 1.999986200037601e+00	 1.339222736615621e-01
0	 9.599986199730216e+01	 2.333315502825495e+00	 1.656729878411501e-01
0	 9.599986199730216e+01	 2.666644622278756e+00	 2.001180290985601e-01
0	 9.599986199730215e+01	 2.999973675063150e+00	 2.372573643124320e-01
0	 9.599986199730216e+01	 3.333302777844445e+00	 2.770909546690998e-01
0	 9.666656597014405e+01	 0.000000000000000e+00	 0.000000000000000e+00
0	 9.666656597014406e+01	 3.333328527767945e-01	 1.534231674495876e-02
0	 9.666656597014406e+01	 6.666648222243556e-01	 3.343315555027353e-02
0	 9.666656597014405e+01	 9.999960250084502e-01	 5.427251776317141e-02
0	 9.666656597014405e+01	 1.333326577794844e+00	 7.786039907151154e-02
0	 9.666656597014406e+01	 1.666656597249305e+00	 1.041967893251810e-01
0	 9.666656597014408e+01	 1.999986200037600e+00	 1.332816726275644e-01
0	 9.666656597014406e+01	 2.333315502825495e+00	 1.651150272967971e-01
0	 9.666656597014406e+01	 2.666644622278756e+00	 1.996968258930286e-01
0	 9.666656597014403e+01	 2.999973675063150e+00	 2.370270351826547e-01
0	 9.666656597014406e+01	 3.333302777844445e+00	 2.771056162014253e-01
0	 9.733326577631854e+01	 0.000000000000000e+00	 0.000000000000000e+00
0	 9.733326577631851e+01	 3.333328527767945e-01	 1.371109492432261e-02
0	 9.733326577631854e+01	 6.666648222243554e-01	 3.046144076311390e-02
0	 9.733326577631853e+01	 9.999960250084499e-01	 5.025104249229367e-02
0	 9.733326577631854e+01	 1.333326577794844e+00	 7.307989870613341e-02
0	 9.733326577631856e+01	 1.666656597249306e+00	 9.894800163282541e-02
0	 9.733326577631853e+01	 1.999986200037600e+00	 1.278553370822078e-01
0	 9.733326577631853e+01	 2.333315502825495e+00	 1.598018845289751e-01
0	 9.733326577631853e+01	 2.666644622278756e+00	 1.947876170072187e-01
0	 9.733326577631853e+01	 2.999973675063150e+00	 2.328125012344749e-01
0	 9.733326577631851e+01	 3.333302777844444e+00	 2.738764974878687e-01
0	 9.799996024910850e+01	 0.000000000000000e+00	 0.000000000000000e+00
0	 9.799996024910848e+01	 3.333328527767944e-01	 1.032098671838430e-02
0	 9.799996024910848e+01	 6.666648222243555e-01	 2.427014139987894e-02
0	 9.799996024910850e+01	 9.999960250084501e-01	 4.184747631250622e-02
0	 9.799996024910848e+01	 1.333326577794844e+00	 6.305299614444150e-02
0	 9.799996024910850e+01	 1.666656597249306e+00	 8.788669794257498e-02
0	 9.799996024910848e+01	 1.999986200037600e+00	 1.163485711536694e-01
0	 9.799996024910851e+01	 2.333315502825494e+00	 1.484385975757658e-01
0	 9.799996024910850e+01	 2.666644622278755e+00	 1.841567514164228e-01
0	 9.799996024910851e+01	 2.999973675063150e+00	 2.235029992513510e-01
0	 9.799996024910851e+01	 3.333302777844446e+00	 2.664773000346876e-01
0	 9.866664822179681e+01	 0.000000000000000e+00	 0.000000000000000e+00
0	 9.866664822179678e+01	 3.333328527767944e-01	 4.802271718062884e-03
0	 9.866664822179678e+01	 6.666648222243555e-01	 1.418139076342347e-02
0	 9.866664822179682e+01	 9.999960250084502e-01	 2.813738128909902e-02
0	 9.866664822179679e+01	 1.333326577794845e+00	 4.667025782821091e-02
0	 9.866664822179679e+01	 1.666656597249305e+00	 6.978002527855595e-02
0	 9.866664822179681e+01	 1.999986200037601e+00	 9.746667893265197e-02
0	 9.866664822179681e+01	 2.333315502825494e+00	 1.297302044895891e-01
0	 9.866664822179682e+01	 2.666644622278756e+00	 1.665705780338557e-01
0	 9.866664822179679e+01	 2.999973675063150e+00	 2.079877660243331e-01
0	 9.866664822179681e+01	 3.333302777844445e+00	 2.539817253230148e-01
0	 9.933332852766634e+01	 0.000000000000000e+00	 0.000000000000000e+00
0	 9.933332852766631e+01	 3.333328527767945e-01	-3.214770579370865e-03
0	 9.933332852766631e+01	 6.666648222243556e-01	-4.826778458415114e-04
0	 9.933332852766632e+01	 9.999960250084500e-01	 8.196319477380627e-03
0	 9.933332852766632e+01	 1.333326577794844e+00	 2.282225018849070e-02
0	 9.933332852766631e+01	 1.666656597249305e+00	 4.339513059786156e-02
0	 9.933332852766634e+01	 1.999986200037600e+00	 6.991496453263102e-02
0	 9.933332852766635e+01	 2.333315502825495e+00	 1.023817433199060e-01
0	 9.933332852766634e+01	 2.666644622278756e+00	 1.407954458170747e-01
0	 9.933332852766632e+01	 2.999973675063150e+00	 1.851560383558152e-01
0	 9.933332852766634e+01	 3.333302777844445e+00	 2.354634748215851e-01
0	 1.000000000000000e+02	 0.000000000000000e+00	 0.000000000000000e+00
0	 1.000000000000000e+02	 3.333328527767945e-01	-1.409986059176297e-02
0	 9.999999999999999e+01	 6.666648222243555e-01	-2.039993112134797e-02
0	 1.000000000000000e+02	 9.999960250084501e-01	-1.890014708676521e-02
0	 1.000000000000000e+02	 1.333326577794844e+00	-9.600460320645156e-03
0	 1.000000000000000e+02	 1.666656597249306e+00	 7.499160949410661e-03
0	 1.000000000000000e+02	 1.999986200037600e+00	 3.239873209181598e-02
0	 1.000000000000000e+02	 2.333315502825495e+00	 6.509825211711193e-02
0	 1.000000000000000e+02	 2.666644622278756e+00	 1.055977036971075e-01
0	 1.000000000000000e+02	 2.999973675063150e+00	 1.538970530332563e-01
0	 1.000000000000000e+02	 3.333302777844445e+00	 2.099962500185843e-01
0	 9.333302777360282e+01	 3.333302777844445e+00	 2.631204766148291e-01
0	 9.333302777360282e+01	 3.666642022268356e+00	 3.077840787039627e-01
0	 9.333302777360282e+01	 3.999981400030399e+00	 3.530226121857539e-01
0	 9.333302777360281e+01	 4.333320877796043e+00	 3.988360900354845e-01
0	 9.333302777360282e+01	 4.666660422230756e+00	 4.452245255641261e-01
0	 9.333302777360282e+01	 4.999999999999999e+00	 4.921879324288980e-01
0	 9.333302777360284e+01	 5.333339577769244e+00	 5.397263246389298e-01
0	 9.333302777360282e+01	 5.666679122203954e+00	 5.878397165290055e-01
0	 9.333302777360284e+01	 6.000018599969598e+00	 6.365281228063434e-01
0	 9.333302777360281e+01	 6.333357977731643e+00	 6.857915584986073e-01
0	 9.333302777360284e+01	 6.666697222155555e+00	 7.356300389992096e-01
0	 9.399973674594318e+01	 3.333302777844444e+00	 2.668472738906224e-01
0	 9.399973674594320e+01	 3.666642022268357e+00	 3.105236715651684e-01
0	 9.399973674594318e+01	 3.999981400030400e+00	 3.548213833088941e-01
0	 9.399973674594318e+01	 4.333320877796043e+00	 3.997404217575382e-01
0	 9.399973674594317e+01	 4.666660422230756e+00	 4.452807999203010e-01
0	 9.399973674594317e+01	 5.000000000000000e+00	 4.914425311746946e-01
0	 9.399973674594320e+01	 5.333339577769244e+00	 5.382256292859791e-01
0	 9.399973674594320e+01	 5.666679122203955e+00	 5.856301083641194e-01
0	 9.399973674594317e+01	 6.000018599969597e+00	 6.336559829283998e-01
0	 9.399973674594318e+01	 6.333357977731644e+00	 6.823032678510572e-01
0	 9.399973674594318e+01	 6.666697222155556e+00	 7.315719783705488e-01
0	 9.466644621848461e+01	 3.333302777844445e+00	 2.710354849982032e-01
0	 9.466644621848461e+01	 3.666642022268355e+00	 3.137145265680786e-01
0	 9.466644621848459e+01	 3.999981400030399e+00	 3.570455135094887e-01
0	 9.466644621848461e+01	 4.333320877796044e+00	 4.010284581386359e-01
0	 9.466644621848459e+01	 4.666660422230756e+00	 4.456633731673614e-01
0	 9.466644621848462e+01	 4.999999999999999e+00	 4.909502716923484e-01
0	 9.466644621848461e+01	 5.333339577769244e+00	 5.368891671949764e-01
0	 9.466644621848459e+01	 5.666679122203954e+00	 5.834800735635658e-01
0	 9.466644621848459e+01	 6.000018599969599e+00	 6.307230050560021e-01
0	 9.466644621848459e+01	 6.333357977731644e+00	 6.786179763480567e-01
0	 9.466644621848462e+01	 6.666697222155555e+00	 7.271650024965176e-01
0	 9.533315502450999e+01	 3.333302777844445e+00	 2.747588114349484e-01
0	 9.533315502450996e+01	 3.666642022268356e+00	 3.166429795585735e-01
0	 9.533315502450995e+01	 3.999981400030400e+00	 3.591887228202351e-01
0	 9.533315502450998e+01	 4.333320877796043e+00	 4.023960532862372e-01
0	 9.533315502450996e+01	 4.666660422230756e+00	 4.462649834350231e-01
0	 9.533315502450995e+01	 4.999999999999999e+00	 4.907955261225392e-01
0	 9.533315502451001e+01	 5.333339577769244e+00	 5.359876946180421e-01
0	 9.533315502450994e+01	 5.666679122203952e+00	 5.818415025629030e-01
0	 9.533315502450996e+01	 6.000018599969599e+00	 6.283569640201725e-01
0	 9.533315502450996e+01	 6.333357977731642e+00	 6.755340934380969e-01
0	 9.533315502450998e+01	 6.666697222155556e+00	 7.233729056739763e-01
0	 9.599986199730216e+01	 3.333302777844445e+00	 2.770909546690998e-01
0	 9.599986199730215e+01	 3.666642022268356e+00	 3.185953663872044e-01
0	 9.599986199730215e+01	 3.999981400030400e+00	 3.607447312861485e-01
0	 9.599986199730213e+01	 4.333320877796044e+00	 4.035390613224121e-01
0	 9.599986199730215e+01	 4.666660422230755e+00	 4.469783688607729e-01
0	 9.599986199730212e+01	 4.999999999999998e+00	 4.910626666358119e-01
0	 9.599986199730216e+01	 5.333339577769243e+00	 5.357919677864214e-01
0	 9.599986199730216e+01	 5.666679122203954e+00	 5.811662858216367e-01
0	 9.599986199730213e+01	 6.000018599969599e+00	 6.271856346439857e-01
0	 9.599986199730212e+01	 6.333357977731643e+00	 6.738500285460219e-01
0	 9.599986199730213e+01	 6.666697222155555e+00	 7.211594822053912e-01
0	 9.666656597014406e+01	 3.333302777844445e+00	 2.771056162014253e-01
0	 9.666656597014403e+01	 3.666642022268356e+00	 3.188580229289265e-01
0	 9.666656597014406e+01	 3.999981400030399e+00	 3.612072589534809e-01
0	 9.666656597014403e+01	 4.333320877796043e+00	 4.041533363541434e-01
0	 9.666656597014406e+01	 4.666660422230756e+00	 4.476962675614048e-01
0	 9.666656597014405e+01	 4.999999999999999e+00	 4.918360653855317e-01
0	 9.666656597014408e+01	 5.333339577769245e+00	 5.365727429426532e-01
0	 9.666656597014406e+01	 5.666679122203954e+00	 5.819063137860788e-01
0	 9.666656597014406e+01	 6.000018599969598e+00	 6.278367917549693e-01
0	 9.666656597014405e+01	 6.333357977731641e+00	 6.743641910949516e-01
0	 9.666656597014406e+01	 6.666697222155554e+00	 7.214885263735487e-01
0	 9.733326577631851e+01	 3.333302777844444e+00	 2.738764974878687e-01
0	 9.733326577631856e+01	 3.666642022268356e+00	 3.167172850245356e-01
0	 9.733326577631851e+01	 3.999981400030399e+00	 3.600700258734434e-01
0	 9.733326577631853e+01	 4.333320877796043e+00	 4.039347324980011e-01
0	 9.733326577631853e+01	 4.666660422230754e+00	 4.483114176838178e-01
0	 9.733326577631853e+01	 4.999999999999999e+00	 4.932000944876786e-01
0	 9.733326577631851e+01	 5.333339577769244e+00	 5.386007763301436e-01
0	 9.733326577631853e+01	 5.666679122203953e+00	 5.845134768976489e-01
0	 9.733326577631854e+01	 6.000018599969597e+00	 6.309382101921226e-01
0	 9.733326577631856e+01	 6.333357977731644e+00	 6.778749905161651e-01
0	 9.733326577631853e+01	 6.666697222155556e+00	 7.253238324997641e-01
0	 9.799996024910851e+01	 3.333302777844446e+00	 2.664773000346876e-01
0	 9.799996024910850e+01	 3.666642022268356e+00	 3.114594885542809e-01
0	 9.799996024910850e+01	 3.999981400030400e+00	 3.568267520993005e-01
0	 9.799996024910851e+01	 4.333320877796044e+00	 4.025791038780768e-01
0	 9.799996024910848e+01	 4.666660422230756e+00	 4.487165573460222e-01
0	 9.799996024910850e+01	 5.000000000000000e+00	 4.952391261449753e-01
0	 9.799996024910850e+01	 5.333339577769243e+00	 5.421468241910604e-01
0	 9.799996024910848e+01	 5.666679122203955e+00	 5.894396656118488e-01
0	 9.799996024910850e+01	 6.000018599969598e+00	 6.371176647638129e-01
0	 9.799996024910848e+01	 6.333357977731643e+00	 6.851808362423339e-01
0	 9.799996024910850e+01	 6.666697222155557e+00	 7.336291948798965e-01
0	 9.866664822179681e+01	 3.333302777844445e+00	 2.539817253230148e-01
0	 9.866664822179678e+01	 3.666642022268356e+00	 3.023709693473619e-01
0	 9.866664822179681e+01	 3.999981400030400e+00	 3.509711576561006e-01
0	 9.866664822179678e+01	 4.333320877796043e+00	 3.997823046016086e-01
0	 9.866664822179679e+01	 4.666660422230756e+00	 4.488044246751799e-01
0	 9.866664822179681e+01	 4.999999999999999e+00	 4.980375324756853e-01
0	 9.866664822179679e+01	 5.333339577769243e+00	 5.474816427572928e-01
0	 9.866664822179681e+01	 5.666679122203955e+00	 5.971367703701709e-01
0	 9.866664822179682e+01	 6.000018599969599e+00	 6.470029303153533e-01
0	 9.866664822179679e+01	 6.333357977731643e+00	 6.970801377117415e-01
0	 9.866664822179681e+01	 6.666697222155555e+00	 7.473684077992361e-01
0	 9.933332852766634e+01	 3.333302777844445e+00	 2.354634748215852e-01
0	 9.933332852766632e+01	 3.666642022268356e+00	 2.887380632845131e-01
0	 9.933332852766637e+01	 3.999981400030400e+00	 3.419969626028688e-01
0	 9.933332852766634e+01	 4.333320877796045e+00	 3.952401887862227e-01
0	 9.933332852766631e+01	 4.666660422230755e+00	 4.484677578160917e-01
0	 9.933332852766631e+01	 4.999999999999999e+00	 5.016796856406575e-01
0	 9.933332852766632e+01	 5.333339577769244e+00	 5.548759882628570e-01
0	 9.933332852766631e+01	 5.666679122203953e+00	 6.080566816277376e-01
0	 9.933332852766634e+01	 6.000018599969599e+00	 6.612217816698358e-01
0	 9.933332852766634e+01	 6.333357977731643e+00	 7.143713043470384e-01
0	 9.933332852766634e+01	 6.666697222155556e+00	 7.675052655700748e-01
0	 1.000000000000000e+02	 3.333302777844445e+00	 2.099962500185843e-01
0	 1.000000000000000e+02	 3.666642022268356e+00	 2.698471062107894e-01
0	 1.000000000000000e+02	 3.999981400030400e+00	 3.293978869915985e-01
0	 1.000000000000000e+02	 4.333320877796044e+00	 3.886486105506439e-01
0	 1.000000000000000e+02	 4.666660422230756e+00	 4.475992948835549e-01
0	 1.000000000000000e+02	 5.000000000000000e+00	 5.062499578042305e-01
0	 9.999999999999999e+01	 5.333339577769243e+00	 5.646006169646833e-01
0	 9.999999999999997e+01	 5.666679122203954e+00	 6.226512898189858e-01
0	 1.000000000000000e+02	 6.000018599969598e+00	 6.804019936609821e-01
0	 1.000000000000000e+02	 6.333357977731644e+00	 7.378527455656374e-01
0	 1.000000000000000e+02	 6.666697222155555e+00	 7.950035624734345e-01
0	 9.333302777360284e+01	 6.666697222155555e+00	 7.356300389992099e-01
0	 9.333302777360284e+01	 7.000026324936850e+00	 7.832858398198168e-01
0	 9.333302777360284e+01	 7.333355377721245e+00	 8.260041987161395e-01
0	 9.333302777360282e+01	 7.666684497174508e+00	 8.637850712150308e-01
0	 9.333302777360284e+01	 8.000013799962401e+00	 8.966284231677322e-01
0	 9.333302777360282e+01	 8.333343402750698e+00	 9.245342308761804e-01
0	 9.333302777360282e+01	 8.666673422205159e+00	 9.475024809228715e-01
0	 9.333302777360281e+01	 9.000003974991554e+00	 9.655331703151391e-01
0	 9.333302777360282e+01	 9.333335177775648e+00	 9.786263064143093e-01
0	 9.333302777360282e+01	 9.666667147223210e+00	 9.867819069606313e-01
0	 9.333302777360282e+01	 1.000000000000000e+01	 9.900000000238088e-01
0	 9.399973674594318e+01	 6.666697222155556e+00	 7.315719783705490e-01
0	 9.399973674594321e+01	 7.000026324936848e+00	 7.787764532574836e-01
0	 9.399973674594320e+01	 7.333355377721246e+00	 8.212339611784666e-01
0	 9.399973674594321e+01	 7.666684497174509e+00	 8.589444578954240e-01
0	 9.399973674594321e+01	 8.000013799962403e+00	 8.919079091611649e-01
0	 9.399973674594317e+01	 8.333343402750696e+00	 9.201242906934256e-01
0	 9.399973674594321e+01	 8.666673422205159e+00	 9.435935881621114e-01
0	 9.399973674594318e+01	 9.000003974991552e+00	 9.623157972228410e-01
0	 9.399973674594315e+01	 9.333335177775648e+00	 9.762909234994540e-01
0	 9.399973674594320e+01	 9.666667147223208e+00	 9.855189825619241e-01
0	 9.399973674594318e+01	 1.000000000000000e+01	 9.900000000095317e-01
0	 9.466644621848462e+01	 6.666697222155555e+00	 7.271650024965177e-01
0	 9.466644621848458e+01	 7.000026324936850e+00	 7.737778337470945e-01
0	 9.466644621848461e+01	 7.333355377721243e+00	 8.158731084557889e-01
0	 9.466644621848464e+01	 7.666684497174507e+00	 8.534507827800677e-01
0	 9.466644621848458e+01	 8.000013799962403e+00	 8.865108223437844e-01
0	 9.466644621848461e+01	 8.333343402750700e+00	 9.150532022470513e-01
0	 9.466644621848461e+01	 8.666673422205161e+00	 9.390779070896892e-01
0	 9.466644621848461e+01	 9.000003974991554e+00	 9.585849309867613e-01
0	 9.466644621848462e+01	 9.333335177775650e+00	 9.735742774784790e-01
0	 9.466644621848457e+01	 9.666667147223210e+00	 9.840459596300256e-01
0	 9.466644621848461e+01	 1.000000000000000e+01	 9.900000000119069e-01
0	 9.533315502450998e+01	 6.666697222155556e+00	 7.233729056739764e-01
0	 9.533315502450998e+01	 7.000026324936851e+00	 7.693906171606748e-01
0	 9.533315502450998e+01	 7.333355377721244e+00	 8.111072908797919e-01
0	 9.533315502450998e+01	 7.666684497174507e+00	 8.485228833400575e-01
0	 9.533315502450995e+01	 8.000013799962401e+00	 8.816373601035361e-01
0	 9.533315502450996e+01	 8.333343402750698e+00	 9.104506957588534e-01
0	 9.533315502450998e+01	 8.666673422205161e+00	 9.349628739191767e-01
0	 9.533315502450996e+01	 9.000003974991552e+00	 9.551738872100206e-01
0	 9.533315502450999e+01	 9.333335177775650e+00	 9.710837373555258e-01
0	 9.533315502450996e+01	 9.666667147223208e+00	 9.826924350335182e-01
0	 9.533315502450996e+01	 1.000000000000000e+01	 9.900000000131498e-01
0	 9.599986199730213e+01	 6.666697222155555e+00	 7.211594822053913e-01
0	 9.599986199730218e+01	 7.000026324936852e+00	 7.667154394299697e-01
0	 9.599986199730216e+01	 7.333355377721245e+00	 8.081221587718362e-01
0	 9.599986199730216e+01	 7.666684497174506e+00	 8.453795970736999e-01
0	 9.599986199730216e+01	 8.000013799962401e+00	 8.784877198960275e-01
0	 9.599986199730216e+01	 8.333343402750698e+00	 9.074465014773094e-01
0	 9.599986199730215e+01	 8.666673422205159e+00	 9.322559247947790e-01
0	 9.599986199730215e+01	 9.000003974991554e+00	 9.529159815631709e-01
0	 9.599986199730215e+01	 9.333335177775648e+00	 9.694266721512294e-01
0	 9.599986199730219e+01	 9.666667147223210e+00	 9.817880056773630e-01
0	 9.599986199730215e+01	 1.000000000000000e+01	 9.900000000081766e-01
0	 9.666656597014406e+01	 6.666697222155554e+00	 7.214885263735489e-01
0	 9.666656597014405e+01	 7.000026324936849e+00	 7.668529364170973e-01
0	 9.666656597014405e+01	 7.333355377721245e+00	 8.081033624496478e-01
0	 9.666656597014403e+01	 7.666684497174505e+00	 8.452397614631748e-01
0	 9.666656597014405e+01	 8.000013799962401e+00	 8.782620990990402e-01
0	 9.666656597014405e+01	 8.333343402750694e+00	 9.071703496109135e-01
0	 9.666656597014408e+01	 8.666673422205159e+00	 9.319644959511506e-01
0	 9.666656597014406e+01	 9.000003974991554e+00	 9.526445296403679e-01
0	 9.666656597014403e+01	 9.333335177775647e+00	 9.692104508859914e-01
0	 9.666656597014403e+01	 9.666667147223210e+00	 9.816622685197642e-01
0	 9.666656597014405e+01	 1.000000000000000e+01	 9.900000000209666e-01
0	 9.733326577631853e+01	 6.666697222155556e+00	 7.253238324997640e-01
0	 9.733326577631853e+01	 7.000026324936848e+00	 7.709037440610634e-01
0	 9.733326577631853e+01	 7.333355377721245e+00	 8.122365522651658e-01
0	 9.733326577631856e+01	 7.666684497174508e+00	 8.493222140100865e-01
0	 9.733326577631851e+01	 8.000013799962399e+00	 8.821606951534559e-01
0	 9.733326577631851e+01	 8.333343402750694e+00	 9.107519704371189e-01
0	 9.733326577631854e+01	 8.666673422205159e+00	 9.350960235567616e-01
0	 9.733326577631853e+01	 9.000003974991552e+00	 9.551928471081765e-01
0	 9.733326577631854e+01	 9.333335177775648e+00	 9.710424425928260e-01
0	 9.733326577631857e+01	 9.666667147223210e+00	 9.826448204518007e-01
0	 9.733326577631854e+01	 1.000000000000000e+01	 9.900000000067561e-01
0	 9.799996024910850e+01	 6.666697222155557e+00	 7.336291948798965e-01
0	 9.799996024910853e+01	 7.000026324936850e+00	 7.799684982473758e-01
0	 9.799996024910848e+01	 7.333355377721245e+00	 8.217073785102876e-01
0	 9.799996024910850e+01	 7.666684497174508e+00	 8.588457921886152e-01
0	 9.799996024910848e+01	 8.000013799962399e+00	 8.913837054586619e-01
0	 9.799996024910850e+01	 8.333343402750696e+00	 9.193210941692816e-01
0	 9.799996024910848e+01	 8.666673422205159e+00	 9.426579438221112e-01
0	 9.799996024910851e+01	 9.000003974991554e+00	 9.613942495692422e-01
0	 9.799996024910850e+01	 9.333335177775648e+00	 9.755300162582221e-01
0	 9.799996024910851e+01	 9.666667147223208e+00	 9.850652583576498e-01
0	 9.799996024910850e+01	 1.000000000000000e+01	 9.900000000067561e-01
0	 9.866664822179681e+01	 6.666697222155555e+00	 7.473684077992362e-01
0	 9.866664822179678e+01	 7.000026324936849e+00	 7.951478348702593e-01
0	 9.866664822179682e+01	 7.333355377721245e+00	 8.377014915328926e-01
0	 9.866664822179678e+01	 7.666684497174506e+00	 8.750293334915749e-01
0	 9.866664822179681e+01	 8.000013799962401e+00	 9.071313274417873e-01
0	 9.866664822179679e+01	 8.333343402750696e+00	 9.340074510453032e-01
0	 9.866664822179681e+01	 8.666673422205159e+00	 9.556576929253860e-01
0	 9.866664822179681e+01	 9.000003974991554e+00	 9.720820526870066e-01
0	 9.866664822179679e+01	 9.333335177775648e+00	 9.832805409120964e-01
0	 9.866664822179679e+01	 9.666667147223208e+00	 9.892531791875319e-01
0	 9.866664822179681e+01	 1.000000000000000e+01	 9.900000000238086e-01
0	 9.933332852766634e+01	 6.666697222155556e+00	 7.675052655700747e-01
0	 9.933332852766631e+01	 7.000026324936849e+00	 8.175423898325789e-01
0	 9.933332852766632e+01	 7.333355377721246e+00	 8.614045416431118e-01
0	 9.933332852766634e+01	 7.666684497174509e+00	 8.990916754185154e-01
0	 9.933332852766635e+01	 8.000013799962401e+00	 9.306037585189277e-01
0	 9.933332852766634e+01	 8.333343402750698e+00	 9.559407712918928e-01
0	 9.933332852766632e+01	 8.666673422205159e+00	 9.751027070514698e-01
0	 9.933332852766634e+01	 9.000003974991554e+00	 9.880895720708097e-01
0	 9.933332852766634e+01	 9.333335177775650e+00	 9.949013855826672e-01
0	 9.933332852766634e+01	 9.666667147223208e+00	 9.955381798438921e-01
0	 9.933332852766634e+01	 1.000000000000000e+01	 9.900000000124399e-01
0	 1.000000000000000e+02	 6.666697222155555e+00	 7.950035624734344e-01
0	 1.000000000000000e+02	 7.000026324936851e+00	 8.482527990358291e-01
0	 1.000000000000000e+02	 7.333355377721245e+00	 8.940021791858581e-01
0	 1.000000000000000e+02	 7.666684497174507e+00	 9.322516554516171e-01
0	 1.000000000000000e+02	 8.000013799962401e+00	 9.630011960984798e-01
0	 1.000000000000000e+02	 8.333343402750696e+00	 9.862507851726323e-01
0	 1.000000000000000e+02	 8.666673422205157e+00	 1.002000422400674e+00
0	 9.999999999999999e+01	 9.000003974991552e+00	 1.010250123370488e+00
0	 1.000000000000000e+02	 9.333335177775650e+00	 1.010999919305996e+00
0	 1.000000000000000e+02	 9.666667147223208e+00	 1.004249857231758e+00
0	 1.000000000000000e+02	 1.000000000000000e+01	 9.900000000351772e-01
