label=Stress xy
num_items=4050

0:-5.1166775924303782e-003
1:-2.4407284757948577e-002
2:-3.9724236293481541e-002
3:-2.2185712779927046e-002
4:9.8629015189662973e-003
5:4.3618116515025474e-003
6:1.1248533229635135e-002
7:5.5605359611720112e-002
8:2.9219049789925514e-002
9:8.0571158585515754e-003
10:9.7983489178465645e-003
11:5.4157401907885080e-002
12:8.4030340377101755e-003
13:-6.8736561244807398e-002
14:-7.9701304812202639e-002
15:-1.7325755308015459e-002
16:7.6910532272536430e-004
17:1.1598395597210827e-002
18:-7.0297120481894029e-002
19:-2.2546528297438490e-001
20:8.9431471175369842e-002
21:-5.7013362206632029e-002
22:-8.0149322888020091e-001
23:-1.8842347376466939e+000
24:8.1509264369510143e-002
25:-1.9747470543537046e-001
26:-1.4114743033627060e+000
27:-3.1177069601187957e+000
28:2.1683120526986684e-002
29:-2.7271171700560115e-001
30:-1.5733313556870416e+000
31:-3.3834103797641273e+000
32:-3.4245647306074295e-001
33:-6.9123784610208572e-001
34:-2.0843634766491848e+000
35:-4.5058736090951133e+000
36:-2.6477193151050566e+000
37:-4.1111057572141219e+000
38:-6.2301458096446209e+000
39:-8.2220878970585520e+000
40:-4.3048498053177369e+000
41:-6.4442169610393645e+000
42:-8.8095674040279999e+000
43:-1.0181280412505403e+001
44:-4.6300218382811247e+000
45:-6.7810947403100208e+000
46:-8.8747126283218130e+000
47:-9.7525853150183561e+000
48:-6.4613287417247598e+000
49:-1.0982153121033081e+001
50:-1.6211678277487852e+001
51:-1.7600874520023524e+001
52:-9.4690432003576532e+000
53:-1.1832038767499656e+001
54:-1.3652818816831894e+001
55:-1.2917512913639916e+001
56:-1.0714265161138922e+001
57:-1.1114259845432548e+001
58:-1.0041285807222710e+001
59:-7.6419141004271918e+000
60:-9.9031330774031456e+000
61:-9.4387719156220307e+000
62:-7.2832175700426243e+000
63:-4.3855381611820334e+000
64:-1.6790071759773532e+001
65:-1.2573835172352208e+001
66:-4.5432576624617536e+000
67:1.0750080983837333e+000
68:-1.1450535938000478e+001
69:-7.2572785669920545e+000
70:-7.1293557671626018e-001
71:3.6304070617666016e+000
72:-5.7428331393929986e+000
73:-1.8667150634410197e+000
74:2.9622007286749512e+000
75:5.8741169688977521e+000
76:-2.4322935564779038e+000
77:1.0741237014066414e+000
78:4.8854011768586973e+000
79:6.9772332518207616e+000
80:3.1325247491909742e+000
81:4.8732520861057242e+000
82:4.2740006437220925e+000
83:2.8011617544809688e+000
84:5.2509573654340942e+000
85:6.6770011659447315e+000
86:6.1023252897520726e+000
87:4.4870032440289442e+000
88:6.9551933376732187e+000
89:7.8984713769504760e+000
90:7.2563355327290990e+000
91:5.5849755900187752e+000
92:7.7200802574840006e+000
93:8.2949899523264268e+000
94:7.5125894224884444e+000
95:5.8220109883666309e+000
96:2.0228174820563436e+000
97:9.7779963265904080e-001
98:2.8363349768973634e-001
99:9.6870568313357372e-002
100:3.4491139082268498e+000
101:1.8780890968606492e+000
102:6.1908734379487740e-001
103:1.9956701638549285e-001
104:4.3993943036263357e+000
105:2.5063602553058333e+000
106:8.8100300703415813e-001
107:3.0361897266691262e-001
108:4.6088570965381139e+000
109:2.6533107616677745e+000
110:9.5649960139320467e-001
111:3.5028242110528085e-001
112:6.5758256784679767e-002
113:3.1632032203946815e-002
114:1.1958799837221652e-002
115:7.8699044091490832e-003
116:1.3818107215470213e-001
117:7.9358001866220884e-002
118:4.7870677034071413e-002
119:4.2576938517321000e-002
120:2.1985615504447106e-001
121:1.3938836852194936e-001
122:9.3122444521065148e-002
123:8.3810613351466015e-002
124:2.6417989333471642e-001
125:1.7953585381477216e-001
126:1.2581729647345555e-001
127:1.1243741387439862e-001
128:7.1616391379030727e-003
129:6.5772939025270242e-003
130:6.6898221026752622e-003
131:6.9551839476956600e-003
132:4.1620312760435936e-002
133:3.8977992445339921e-002
134:3.4689698650263251e-002
135:3.1730723971730199e-002
136:8.2223604800251468e-002
137:7.7584128300994981e-002
138:6.9357773939359060e-002
139:6.3197497180136675e-002
140:1.1005439618067694e-001
141:1.0422361224728478e-001
142:9.4239800423297035e-002
143:8.6397981368062773e-002
144:7.0024521031188071e-003
145:6.6859018179167735e-003
146:5.7642196632932035e-003
147:4.9627547980806430e-003
148:3.0531333962047869e-002
149:2.8605585312487931e-002
150:2.6321966608591398e-002
151:2.4476013165819984e-002
152:6.0485849907961763e-002
153:5.6318245778331423e-002
154:5.1883467008446947e-002
155:4.8597744654385377e-002
156:8.2645698011153859e-002
157:7.6703840165373696e-002
158:7.0380706662132295e-002
159:6.5951751172156056e-002
160:4.5971076242394991e-003
161:4.1763620317782791e-003
162:3.9913326124477152e-003
163:3.9632891704758488e-003
164:2.3400403185185114e-002
165:2.1569949579237687e-002
166:1.9654404441347310e-002
167:1.8565430749440517e-002
168:4.6718954598397748e-002
169:4.3348356287783919e-002
170:3.9512984865316861e-002
171:3.7144569531240963e-002
172:6.3556572722630697e-002
173:5.9243403632814821e-002
174:5.4207944666277402e-002
175:5.0949446088701958e-002
176:3.9348935812271038e-003
177:3.7620045156658440e-003
178:3.3784251561191016e-003
179:3.0473182286250389e-003
180:1.8108780915446640e-002
181:1.7206653468779535e-002
182:1.5887080605355080e-002
183:1.4770335326507240e-002
184:3.6104862803844770e-002
185:3.4194475311778515e-002
186:3.1627542588275492e-002
187:2.9536728287813153e-002
188:4.9449923960974904e-002
189:4.6733476457029119e-002
190:4.3202826847910443e-002
191:4.0413195552062589e-002
192:2.8849818152014936e-003
193:2.6517773128359652e-003
194:2.4399073681771136e-003
195:2.2979615586485097e-003
196:1.4146796110530695e-002
197:1.3055339833547168e-002
198:1.1775716514051963e-002
199:1.0870833811447498e-002
200:2.8369714779400219e-002
201:2.6255042136755228e-002
202:2.3660391169409472e-002
203:2.1776936082460514e-002
204:3.8878659084308917e-002
205:3.6061620707081313e-002
206:3.2528592182950525e-002
207:2.9914980137258754e-002
208:2.2129667158109589e-003
209:2.0041441101298495e-003
210:1.6599335013340174e-003
211:1.3688733683342804e-003
212:1.0398957324843760e-002
213:9.4184091559082524e-003
214:7.9417078387183874e-003
215:6.6692543803046622e-003
216:2.0794247725463597e-002
217:1.8803808218629061e-002
218:1.5870600411750244e-002
219:1.3353824806268922e-002
220:2.8539778604934122e-002
221:2.5781111096022300e-002
222:2.1761143754941238e-002
223:1.8330815861724879e-002
224:1.2125655388500285e-003
225:9.1855264706419313e-004
226:4.9800788311064751e-004
227:1.1461045841617040e-004
228:5.9447945901246390e-003
229:4.4980411150357833e-003
230:2.3982771718187193e-003
231:5.8817882413350067e-004
232:1.1913688489826883e-002
233:9.0061836414199632e-003
234:4.7607695153250740e-003
235:1.1169697592070024e-003
236:1.6369118451643728e-002
237:1.2388931255246616e-002
238:6.5513015612261704e-003
239:1.5365876637219822e-003
240:-2.0793662275690898e-002
241:-1.3373437146097264e-001
242:-1.3817683486885918e-001
243:-4.2807879001422904e-002
244:-7.0356035693610363e-003
245:9.2075458898511958e-002
246:3.3635081542962308e-001
247:5.9784421266314725e-001
248:2.5803926404429389e-001
249:1.3711451935593126e+000
250:2.4878711736073189e+000
251:3.1152827989384764e+000
252:7.3559966980014291e-001
253:3.3127205889024443e+000
254:5.5569867719681749e+000
255:6.5170723720905643e+000
256:1.8608689433430897e-002
257:-2.4548886496465222e-001
258:-1.5111037909897718e+000
259:-3.2767904512420829e+000
260:7.3598576640700719e-001
261:5.6455093809826429e-001
262:-6.3315397821950214e-001
263:-2.3368172462720480e+000
264:3.3553748608090643e+000
265:3.2547458711057100e+000
266:2.0120791505012758e+000
267:2.5345029496641308e-001
268:6.7746991079592105e+000
269:6.5846218372201113e+000
270:5.1028742507059555e+000
271:3.1465518163132176e+000
272:-4.4854097754368443e+000
273:-6.5063640117148065e+000
274:-8.3335462861757765e+000
275:-8.9561733893611422e+000
276:-3.4912634940524137e+000
277:-5.3256228230850846e+000
278:-6.7802033534829382e+000
279:-7.0604209868963297e+000
280:-9.1153538644239274e-001
281:-2.7074957703881553e+000
282:-4.0287016370937874e+000
283:-4.1730100167081732e+000
284:1.8927413385662857e+000
285:-6.0569252932999113e-002
286:-1.5809801676817572e+000
287:-1.8773470207862553e+000
288:-8.9610410525502964e+000
289:-8.2483964848988762e+000
290:-5.8816265554009695e+000
291:-2.9609849588716886e+000
292:-6.8793207012083846e+000
293:-5.9041224802469037e+000
294:-3.4432929454208252e+000
295:-6.9924145745805355e-001
296:-3.9229923132187032e+000
297:-2.9522098155654874e+000
298:-8.1554692394848172e-001
299:1.4066017158476332e+000
300:-1.7141661977076859e+000
301:-1.0011490772288820e+000
302:6.0997891779449276e-001
303:2.2974480765522829e+000
304:-1.0607919001083885e+000
305:2.2270630830547957e+000
306:5.6248376785508194e+000
307:7.3978376886423369e+000
308:1.0042971647128445e+000
309:3.7982993818600712e+000
310:6.4534803569529213e+000
311:7.7049544637826219e+000
312:2.7349793036142316e+000
313:4.8072047377928868e+000
314:6.5987970313301814e+000
315:7.3217888612078541e+000
316:3.3062527285808283e+000
317:4.8601898351385087e+000
318:6.1540346726656852e+000
319:6.6220972710205599e+000
320:8.0000479756758072e+000
321:8.3971051023533878e+000
322:7.5123516266331514e+000
323:5.8036770136463476e+000
324:8.0843925522712627e+000
325:8.2086203455919815e+000
326:7.2042710062367048e+000
327:5.5362300324017770e+000
328:7.4900521651758458e+000
329:7.3797266759320816e+000
330:6.3563193520014734e+000
331:4.8622985378541985e+000
332:6.6968795089042157e+000
333:6.4988738817363032e+000
334:5.5362277311453143e+000
335:4.2238862452434764e+000
336:4.5904240640260339e+000
337:2.6406317338183753e+000
338:9.5731069351578513e-001
339:3.6139329013492777e-001
340:4.3742740795869794e+000
341:2.5172617599606415e+000
342:9.2757769099627130e-001
343:3.7247995584795901e-001
344:3.8439397085117664e+000
345:2.2249884583450950e+000
346:8.4876213228470410e-001
347:3.7266691058698892e-001
348:3.3441832385398991e+000
349:1.9504000127737335e+000
350:7.6985077519864120e-001
351:3.6292512577678904e-001
352:2.7929455065059483e-001
353:1.9758149811451697e-001
354:1.4213705412950292e-001
355:1.2658895152423294e-001
356:2.9907633326784461e-001
357:2.2404777745706475e-001
358:1.6775131145656644e-001
359:1.4971090986190125e-001
360:3.1092086004725911e-001
361:2.4549369678733302e-001
362:1.9217522046313720e-001
363:1.7366253126881687e-001
364:3.1021855405852117e-001
365:2.5329327096191978e-001
366:2.0532778471294177e-001
367:1.8801690662533432e-001
368:1.2369173858667133e-001
369:1.1732489510410438e-001
370:1.0680036823759297e-001
371:9.8311899364574656e-002
372:1.4635685532954629e-001
373:1.3961496244961510e-001
374:1.2846851068267037e-001
375:1.1883334096364499e-001
376:1.7036856135615716e-001
377:1.6379856936498782e-001
378:1.5222589677365173e-001
379:1.4133122856769845e-001
380:1.8481508595503898e-001
381:1.7824468366233473e-001
382:1.6633997419204444e-001
383:1.5483948997469790e-001
384:9.4048140411167769e-002
385:8.7155690312394812e-002
386:7.9770528012749198e-002
387:7.4738160443121968e-002
388:1.1359880025679898e-001
389:1.0497081590352238e-001
390:9.5799099206742594e-002
391:8.9883734414268640e-002
392:1.3502216158071992e-001
393:1.2456921046186699e-001
394:1.1369389248823504e-001
395:1.0707471420172254e-001
396:1.4807506646989102e-001
397:1.3687677450675392e-001
398:1.2532817167973875e-001
399:1.1842890202844480e-001
400:7.2109828209705393e-002
401:6.7386175888088401e-002
402:6.1810960931138817e-002
403:5.8111617203333889e-002
404:8.6972010596447602e-002
405:8.1708139055648055e-002
406:7.5293611624556819e-002
407:7.0811542574666472e-002
408:1.0399792655313575e-001
409:9.8330942305872901e-002
410:9.1083864392196415e-002
411:8.5710499772187421e-002
412:1.1527576519689578e-001
413:1.0937888201435600e-001
414:1.0162448444987504e-001
415:9.5711825390560112e-002
416:5.6363726860846224e-002
417:5.3209420595525525e-002
418:4.9168230638783089e-002
419:4.6027573564034772e-002
420:6.8595870343658077e-002
421:6.4630709604141010e-002
422:5.9685645820091997e-002
423:5.5958722452648733e-002
424:8.2938936986001743e-002
425:7.8025872480589634e-002
426:7.2063659153271981e-002
427:6.7707536058033493e-002
428:9.2609881703578215e-002
429:8.7133872298962037e-002
430:8.0560235477467476e-002
431:7.5813916816002330e-002
432:4.4316688744624147e-002
433:4.1157890981606049e-002
434:3.7153292316124339e-002
435:3.4160189450057228e-002
436:5.3964852884291328e-002
437:5.0242141358941561e-002
438:4.5423108430432617e-002
439:4.1748807196534843e-002
440:6.5418924725717600e-002
441:6.1085047294047901e-002
442:5.5333665768106867e-002
443:5.0846916398959670e-002
444:7.3335981974870276e-002
445:6.8600567049792796e-002
446:6.2223982833043076e-002
447:5.7185621994776031e-002
448:3.2576771215417535e-002
449:2.9413567707312915e-002
450:2.4829387726945422e-002
451:2.0930501740762258e-002
452:3.9784025121807697e-002
453:3.5883607843544260e-002
454:3.0282566995221912e-002
455:2.5547825571049662e-002
456:4.8418198308844390e-002
457:4.3623117736676396e-002
458:3.6796925257616436e-002
459:3.1062384176995396e-002
460:5.4440218562543080e-002
461:4.9031665874050348e-002
462:4.1360485644040303e-002
463:3.4933275636079869e-002
464:1.8702791867301137e-002
465:1.4172067546032757e-002
466:7.5102536968676744e-003
467:1.7815533274152095e-003
468:2.2847924439195332e-002
469:1.7333842238426763e-002
470:9.1870472420705653e-003
471:2.1634665053002211e-003
472:2.7799661875344578e-002
473:2.1105761575018738e-002
474:1.1161497670739533e-002
475:2.5602057988743272e-003
476:3.1279716348363101e-002
477:2.3764562182647414e-002
478:1.2565677730150127e-002
479:2.8609867235394634e-003
480:1.1067653374977386e+000
481:4.7159492956836955e+000
482:7.7114925994116570e+000
483:8.8387684550767158e+000
484:2.1319052705225556e+000
485:7.5310833618985118e+000
486:1.1694009538228672e+001
487:1.2905965243521567e+001
488:5.1353900614978309e+000
489:1.1718637883326256e+001
490:1.6281836132693449e+001
491:1.7021070503790508e+001
492:9.6611464554276960e+000
493:1.5579311927550640e+001
494:1.9081028122395708e+001
495:1.8922881922522873e+001
496:9.0628526466137824e+000
497:8.7410836431150631e+000
498:7.0329580168488839e+000
499:4.9076694299841579e+000
500:1.2933402325718095e+001
501:1.2176881491179151e+001
502:9.9297600184512032e+000
503:7.4893723164335704e+000
504:1.6573958316282372e+001
505:1.4980624721119973e+001
506:1.1919487356603463e+001
507:9.1431694366016067e+000
508:1.7994662604831781e+001
509:1.5647887414719770e+001
510:1.1966778142734034e+001
511:9.0322327991075149e+000
512:3.5770611412088389e+000
513:1.4750534950505119e+000
514:-2.5248016278771046e-001
515:-7.1389577307503160e-001
516:6.0420528710662111e+000
517:3.7197395242717755e+000
518:1.6820528096032146e+000
519:9.6857612553863814e-001
520:7.6294068288363928e+000
521:5.1945992120802069e+000
522:2.9823937822351527e+000
523:2.1069868084749239e+000
524:7.5467611143692208e+000
525:5.1798747727603036e+000
526:3.0287081916663112e+000
527:2.1652950906332058e+000
528:-6.4200578772664618e-001
529:-1.4166239359577837e-001
530:1.1225185887196731e+000
531:2.5088590960325305e+000
532:8.9864666374647606e-001
533:1.0654840507075840e+000
534:1.7783168974917627e+000
535:2.6786045218471490e+000
536:1.9362984256181772e+000
537:1.8448014743601919e+000
538:2.0882629807212374e+000
539:2.5386652223766144e+000
540:1.9844598518397636e+000
541:1.8361082534312343e+000
542:1.9216068490585851e+000
543:2.1784101287861550e+000
544:3.3543598419279572e+000
545:4.6706342732386386e+000
546:5.7758595680187801e+000
547:6.1660404648749019e+000
548:3.2575087812683146e+000
549:4.1853498977847092e+000
550:4.9837464620662209e+000
551:5.2501652243476800e+000
552:2.8571539794684950e+000
553:3.3946320522931406e+000
554:3.8728065530092071e+000
555:4.0089177579724407e+000
556:2.3702629128046651e+000
557:2.7079014882159500e+000
558:3.0126730957490624e+000
559:3.0789884938826537e+000
560:6.2153255151820828e+000
561:6.0006510206604506e+000
562:5.0876485510897602e+000
563:3.8764362909573662e+000
564:5.2610352773597597e+000
565:5.0305552341286122e+000
566:4.2252584162640057e+000
567:3.2092713803414648e+000
568:3.9830081679766454e+000
569:3.7550846748580859e+000
570:3.1103273382496042e+000
571:2.3505184092624432e+000
572:3.0376058801650583e+000
573:2.8305674721747316e+000
574:2.3184024771621559e+000
575:1.7460230543722484e+000
576:3.0720558121748605e+000
577:1.7999010643660427e+000
578:7.2425912815843818e-001
579:3.5426694959322985e-001
580:2.5469162490535417e+000
581:1.5036666264946990e+000
582:6.2638149145449817e-001
583:3.2829519909864557e-001
584:1.8682112908596533e+000
585:1.1138533077715380e+000
586:4.8736327489107462e-001
587:2.8241040564983083e-001
588:1.3906079350468650e+000
589:8.3825886980313413e-001
590:3.8589846963911223e-001
591:2.4540249522919083e-001
592:3.0650706758675167e-001
593:2.5479588909766276e-001
594:2.1078134784748964e-001
595:1.9446805696550790e-001
596:2.9188403657545631e-001
597:2.5307470782773261e-001
598:2.1855508183621078e-001
599:2.0415428755895626e-001
600:2.6263186690167900e-001
601:2.4348075775271355e-001
602:2.2299539805350252e-001
603:2.1096826930402943e-001
604:2.3730601805812307e-001
605:2.3193990755205324e-001
606:2.2116487991701242e-001
607:2.1077334324662769e-001
608:1.9118233921444813e-001
609:1.8436612341346248e-001
610:1.7220209388102686e-001
611:1.6057013648378432e-001
612:2.0024220396141912e-001
613:1.9239082351182060e-001
614:1.7977315392574056e-001
615:1.6844985951587763e-001
616:2.0580328227659481e-001
617:1.9625676081973492e-001
618:1.8357088532745572e-001
619:1.7361993684239688e-001
620:2.0479557893883707e-001
621:1.9441956789728121e-001
622:1.8246746797853242e-001
623:1.7416738611516433e-001
624:1.5376309921467524e-001
625:1.4249434190978849e-001
626:1.3085027774159599e-001
627:1.2386322858476241e-001
628:1.6200009619415098e-001
629:1.5121884929176285e-001
630:1.3977442018081887e-001
631:1.3263745882632288e-001
632:1.6827142383295668e-001
633:1.5899619111896962e-001
634:1.4834152839379894e-001
635:1.4107329294050305e-001
636:1.6993643345459838e-001
637:1.6216733097281477e-001
638:1.5235049314583585e-001
639:1.4508041158784218e-001
640:1.2065368692778021e-001
641:1.1461683296603908e-001
642:1.0662088292862058e-001
643:1.0048813448678791e-001
644:1.2925995374804236e-001
645:1.2292268299862157e-001
646:1.1458867118490626e-001
647:1.0822787818972865e-001
648:1.3744060738747804e-001
649:1.3077149127099635e-001
650:1.2230380664347619e-001
651:1.1599060228263962e-001
652:1.4130757717130499e-001
653:1.3455168709182669e-001
654:1.2627923971216684e-001
655:1.2024069990169263e-001
656:9.7261288851775637e-002
657:9.1567641182960416e-002
658:8.4740151723472448e-002
659:7.9814129841936837e-002
660:1.0488572353532417e-001
661:9.8955147408296404e-002
662:9.1775510533046861e-002
663:8.6549913957578495e-002
664:1.1269483366268471e-001
665:1.0673363562197694e-001
666:9.9301651597088203e-002
667:9.3764630799912499e-002
668:1.1709435675465456e-001
669:1.1126844341237133e-001
670:1.0377118326256535e-001
671:9.8064150676328135e-002
672:7.7241929219381542e-002
673:7.2307903518705627e-002
674:6.5627675201254398e-002
675:6.0325118121380285e-002
676:8.3808262475586051e-002
677:7.8532849222728407e-002
678:7.1356215597922421e-002
679:6.5630440009515081e-002
680:9.0831089428604836e-002
681:8.5195926704082117e-002
682:7.7533901521494974e-002
683:7.1400361720748207e-002
684:9.5019841103491376e-002
685:8.9195867780410082e-002
686:8.1299576171060220e-002
687:7.4963449196179602e-002
688:5.7428964544175350e-002
689:5.1725556792892015e-002
690:4.3642238058050647e-002
691:3.6873187199994453e-002
692:6.2492519244680425e-002
693:5.6303868155919291e-002
694:4.7521973869414556e-002
695:4.0164040552444241e-002
696:6.8024559776457466e-002
697:6.1331831610278567e-002
698:5.1784982569110703e-002
699:4.3766858255614764e-002
700:7.1460955553367775e-002
701:6.4475872763774006e-002
702:5.4454815528703564e-002
703:4.6018182087767263e-002
704:3.3025685693270593e-002
705:2.5103739295150140e-002
706:1.3285037359966567e-002
707:3.0361540939341123e-003
708:3.5981255381655947e-002
709:2.7360797100498612e-002
710:1.4483540963948270e-002
711:3.3055201215271071e-003
712:3.9207380873490585e-002
713:2.9811305414022791e-002
714:1.5767708688971580e-002
715:3.5636480733233149e-003
716:4.1220515387229824e-002
717:3.1340914855724662e-002
718:1.6575288990909650e-002
719:3.7318333928950081e-003
720:1.3135047331594079e+001
721:1.7929080438636220e+001
722:2.0227855780749810e+001
723:1.9379066389281718e+001
724:2.0931863312623364e+001
725:2.2254352749941908e+001
726:2.1272225458901758e+001
727:1.8881667622993298e+001
728:2.9685186297559490e+001
729:2.5507126724888831e+001
730:1.9724699337937199e+001
731:1.5415001816506651e+001
732:3.1775376312610469e+001
733:2.4199448767743490e+001
734:1.5691074631759319e+001
735:1.0490671353927681e+001
736:1.8170515306896586e+001
737:1.5417101617918854e+001
738:1.1442392272890091e+001
739:8.4770081889431683e+000
740:1.7183181381906664e+001
741:1.3813126863331885e+001
742:9.5445099713336070e+000
743:6.7296187828525573e+000
744:1.3267410621507269e+001
745:9.5282761180502220e+000
746:5.4772597940989858e+000
747:3.2626973711983109e+000
748:8.2435192320387731e+000
749:4.6687749534824983e+000
750:1.3037245720060615e+000
751:-1.6492634278377963e-001
752:7.0411076825310515e+000
753:4.7740695653344387e+000
754:2.7312594167356901e+000
755:1.9240698939598346e+000
756:5.4898475377339810e+000
757:3.5764532227745471e+000
758:1.8982123424632311e+000
759:1.2759900075304469e+000
760:2.4522624040678300e+000
761:1.2793004351362902e+000
762:3.5772591828632799e-001
763:1.2654851112955587e-001
764:-5.4751959791433724e-001
765:-9.9197146520714297e-001
766:-1.1544977569127486e+000
767:-9.7396247973255812e-001
768:1.7613103051344812e+000
769:1.6315771239056382e+000
770:1.7031057051730156e+000
771:1.9103076413877191e+000
772:1.1745838750666817e+000
773:1.1247417812336371e+000
774:1.2266493286430384e+000
775:1.3884833201245856e+000
776:1.6226207807539314e-001
777:3.0455201840210216e-001
778:5.4371129669425389e-001
779:7.2289434082211135e-001
780:-7.8299423501596899e-001
781:-4.1698558530793861e-001
782:4.5965598347504364e-003
783:2.5034352933683551e-001
784:2.0610907541280006e+000
785:2.3289910246201635e+000
786:2.5692232945770761e+000
787:2.6105742312308422e+000
788:1.4900291797091534e+000
789:1.6697040953120825e+000
790:1.8260401147390037e+000
791:1.8382998576980700e+000
792:8.0456126806520900e-001
793:9.3697873171026380e-001
794:1.0421042556095133e+000
795:1.0426866976039530e+000
796:3.4559323925875995e-001
797:4.8442867637130210e-001
798:5.8439732654495669e-001
799:5.8936120395743463e-001
800:2.5660349310233501e+000
801:2.3767555757078997e+000
802:1.9362334389172422e+000
803:1.4570887023903274e+000
804:1.7943235133204447e+000
805:1.6425922694036075e+000
806:1.3249102545163112e+000
807:9.9788623461707160e-001
808:1.0081180275623260e+000
809:9.0761104716408414e-001
810:7.2324428230770332e-001
811:5.4992421468008534e-001
812:5.6552309261308276e-001
813:5.0192347717580099e-001
814:3.9748411383772969e-001
815:3.0928282738213986e-001
816:1.1630286637616616e+000
817:7.0759388642281917e-001
818:3.3783564207906364e-001
819:2.2725705017994766e-001
820:8.0230928328176199e-001
821:5.0161586274438408e-001
822:2.6233471821257931e-001
823:1.9755274596127878e-001
824:4.5135219661602893e-001
825:3.0175452931632507e-001
826:1.8752959300040570e-001
827:1.6415602727384665e-001
828:2.6269678939026320e-001
829:1.9310579294675032e-001
830:1.4343222234101941e-001
831:1.3970787191985812e-001
832:2.2425801452467314e-001
833:2.2475116373081411e-001
834:2.1811148284665541e-001
835:2.0851602931551988e-001
836:2.0144520594257528e-001
837:2.0967277001990042e-001
838:2.0896297685878210e-001
839:2.0105164944274834e-001
840:1.7268343593120361e-001
841:1.8598511248890132e-001
842:1.9058869158985034e-001
843:1.8559070158851645e-001
844:1.4929552670900528e-001
845:1.6389353725780936e-001
846:1.7169585085041142e-001
847:1.6973494006141843e-001
848:2.0230470079640964e-001
849:1.9186438694675603e-001
850:1.8067106422659240e-001
851:1.7340088689839558e-001
852:1.9492898654300461e-001
853:1.8506605453982500e-001
854:1.7558722869492774e-001
855:1.7015167828976413e-001
856:1.8060152371693761e-001
857:1.7275403033846770e-001
858:1.6590286016465000e-001
859:1.6254666623507186e-001
860:1.6636964839478702e-001
861:1.6096518532117357e-001
862:1.5635158237798713e-001
863:1.5430096082004621e-001
864:1.6979255553655798e-001
865:1.6285495896923108e-001
866:1.5352403290395347e-001
867:1.4631021621660525e-001
868:1.6760550798108290e-001
869:1.6218159419084185e-001
870:1.5395226473321189e-001
871:1.4709237154880797e-001
872:1.6113235170185425e-001
873:1.5755044423301831e-001
874:1.5113302732165151e-001
875:1.4523874994308383e-001
876:1.5353820820717326e-001
877:1.5123380006746062e-001
878:1.4646479548448474e-001
879:1.4168710491080452e-001
880:1.4250905858043844e-001
881:1.3580096652179954e-001
882:1.2774881754045275e-001
883:1.2192716542691047e-001
884:1.4337524448326414e-001
885:1.3692740915746179e-001
886:1.2937850368963608e-001
887:1.2398165572165223e-001
888:1.4190547844738680e-001
889:1.3612176942352136e-001
890:1.2936942439164148e-001
891:1.2453189719049686e-001
892:1.3885668000253487e-001
893:1.3382742156940231e-001
894:1.2778615117425707e-001
895:1.2337421912861790e-001
896:1.1888781725875107e-001
897:1.1317333969347750e-001
898:1.0568029223683229e-001
899:9.9911748193345543e-002
900:1.2115144159804690e-001
901:1.1569699548495875e-001
902:1.0832584882209896e-001
903:1.0254011828378307e-001
904:1.2197915255035324e-001
905:1.1695371806161936e-001
906:1.0996653151901442e-001
907:1.0435459327084161e-001
908:1.2103339929795187e-001
909:1.1639819541046013e-001
910:1.0986968913364083e-001
911:1.0453646338617645e-001
912:9.6826135307533381e-002
913:9.0938531524581256e-002
914:8.2968380255379670e-002
915:7.6561567504647945e-002
916:9.9425010663752950e-002
917:9.3487925397674670e-002
918:8.5444100687761107e-002
919:7.8948072727161853e-002
920:1.0129533791600144e-001
921:9.5426662787672617e-002
922:8.7404544914169990e-002
923:8.0871247468650972e-002
924:1.0159016097366355e-001
925:9.5872647023783522e-002
926:8.7955018871269774e-002
927:8.1453224403285215e-002
928:7.3009690975583005e-002
929:6.5900614249270267e-002
930:5.5667309108846465e-002
931:4.7040645947428725e-002
932:7.5328827258320977e-002
933:6.8044837924421120e-002
934:5.7502777005205383e-002
935:4.8592658824510901e-002
936:7.7212177644536570e-002
937:6.9812648414812439e-002
938:5.9044113097476758e-002
939:4.9907025742727117e-002
940:7.7800555170258648e-002
941:7.0398399828378672e-002
942:5.9589503275489855e-002
943:5.0385381578963807e-002
944:4.2135267633422041e-002
945:3.2039222260875182e-002
946:1.6951510063593279e-002
947:3.8207287249908740e-003
948:4.3523995635024716e-002
949:3.3097262358122909e-002
950:1.7516499721869850e-002
951:3.9482981667535513e-003
952:4.4700137351421004e-002
953:3.3986929259367846e-002
954:1.7978733363542772e-002
955:4.0404671855825336e-003
956:4.5128225642617800e-002
957:3.4304326113816355e-002
958:1.8133079380403237e-002
959:4.0658409744426666e-003
960:3.0208475833907276e+001
961:2.1614115347540960e+001
962:1.2422446015578013e+001
963:7.1138087294804757e+000
964:2.2635362021405314e+001
965:1.4211569179483226e+001
966:5.6283975115665381e+000
967:9.2458430069475273e-001
968:8.4362238911133147e+000
969:2.6039602989085142e+000
970:-3.0387806951112450e+000
971:-6.0428701425560147e+000
972:-1.4732010851664505e+000
973:-5.1749411807667158e+000
974:-8.4263831501869024e+000
975:-1.0069301515689153e+001
976:4.9304976790726700e+000
977:1.6310721827371997e+000
978:-1.1808032226503016e+000
979:-2.1708997384895174e+000
980:-9.2461065575441015e-001
981:-3.4642114903161647e+000
982:-5.1540575966573199e+000
983:-5.3348242131656454e+000
984:-7.2215319964889462e+000
985:-8.5579734604461777e+000
986:-8.8384368842996395e+000
987:-8.1955502979785511e+000
988:-1.0724709252627918e+001
989:-1.1201313134973132e+001
990:-1.0595899889718202e+001
991:-9.5089266212359291e+000
992:-2.3075263232961749e+000
993:-2.3341147977398431e+000
994:-2.0521243541044654e+000
995:-1.6208535963459536e+000
996:-5.0988151227174034e+000
997:-4.4934164515262767e+000
998:-3.5262880174474285e+000
999:-2.6983646308530007e+000
1000:-7.6404813655486166e+000
1001:-6.4967568456084548e+000
1002:-4.9301159757321553e+000
1003:-3.7443443283798556e+000
1004:-8.8080028736681637e+000
1005:-7.4212244626857489e+000
1006:-5.5805418407123790e+000
1007:-4.2311158008016330e+000
1008:-1.3306661053573408e+000
1009:-8.2023765829088569e-001
1010:-2.7710334081662430e-001
1011:1.9803289971621126e-002
1012:-2.2471042368357876e+000
1013:-1.4996867464133636e+000
1014:-7.5129804207898432e-001
1015:-3.6057071921171119e-001
1016:-3.1440462600052137e+000
1017:-2.1749904555552226e+000
1018:-1.2279602291124618e+000
1019:-7.3722702985543298e-001
1020:-3.5634439037498478e+000
1021:-2.4950955304449569e+000
1022:-1.4583792394581514e+000
1023:-9.1935013895595175e-001
1024:1.3044273839434420e-001
1025:2.8450469168271358e-001
1026:3.9060904402112406e-001
1027:4.0077786136076093e-001
1028:-2.1748122176105059e-001
1029:-2.6177643251477561e-002
1030:1.0250354467287717e-001
1031:1.2814800803902823e-001
1032:-5.5453753227737967e-001
1033:-3.1283626277528170e-001
1034:-1.4702904821510218e-001
1035:-9.7249908797337692e-002
1036:-7.1553972508647112e-001
1037:-4.4593834092846768e-001
1038:-2.5839385691311650e-001
1039:-1.9429045542264678e-001
1040:3.8306652262477070e-001
1041:3.3721396653093366e-001
1042:2.6711702265372866e-001
1043:2.1325900893126878e-001
1044:1.2315938598769760e-001
1045:1.0789757462099996e-001
1046:8.8842419048977495e-002
1047:8.1773758495111537e-002
1048:-8.6081729821986724e-002
1049:-6.9273925287384908e-002
1050:-4.5399145964242590e-002
1051:-1.9360584235607155e-002
1052:-1.7398616730080063e-001
1053:-1.4133477031798120e-001
1054:-1.0068698236324408e-001
1055:-6.4885246161447432e-002
1056:1.8703352277958865e-001
1057:1.4843659585004779e-001
1058:1.2319603887918584e-001
1059:1.2631279721215297e-001
1060:8.2226239636254778e-002
1061:8.4058736868300329e-002
1062:9.0345880561252159e-002
1063:1.0164339198587206e-001
1064:-1.6654501296313399e-003
1065:2.6452152298632542e-002
1066:5.3442759865839858e-002
1067:6.9612921340670444e-002
1068:-4.3032066190229236e-002
1069:-7.8676286401380257e-003
1070:2.5851125431182738e-002
1071:4.4119721186870374e-002
1072:1.3585027099353014e-001
1073:1.5058828205523808e-001
1074:1.6003339179238568e-001
1075:1.6001419010754231e-001
1076:1.1053382109919022e-001
1077:1.2484233708065132e-001
1078:1.3672289045214508e-001
1079:1.4026955228728188e-001
1080:7.7477967886041971e-002
1081:9.0891037222962837e-002
1082:1.0500121369295083e-001
1083:1.1261551643942783e-001
1084:5.1830910863927812e-002
1085:6.5251913928379743e-002
1086:8.0792315492196218e-002
1087:9.0811526122760902e-002
1088:1.5776124499555227e-001
1089:1.5395007606071970e-001
1090:1.5059807198641659e-001
1091:1.4913831452491130e-001
1092:1.4025711596487894e-001
1093:1.3975319496485342e-001
1094:1.3905200162886555e-001
1095:1.3871345647907174e-001
1096:1.1541557582528630e-001
1097:1.1929397428438028e-001
1098:1.2236161291600189e-001
1099:1.2363640175211781e-001
1100:9.5353296190884160e-002
1101:1.0215928351854150e-001
1102:1.0808816618134300e-001
1103:1.1079113699086926e-001
1104:1.4864220573439729e-001
1105:1.4695644652478504e-001
1106:1.4313367553443027e-001
1107:1.3906955002284985e-001
1108:1.3863060176323955e-001
1109:1.3793558054288002e-001
1110:1.3574429215022848e-001
1111:1.3301712773559118e-001
1112:1.2407117443109655e-001
1113:1.2452367233951560e-001
1114:1.2422665448371760e-001
1115:1.2315376201239928e-001
1116:1.1173380380762399e-001
1117:1.1314192876369790e-001
1118:1.1421459592586483e-001
1119:1.1430260912798436e-001
1120:1.3657661186614536e-001
1121:1.3203356382408601e-001
1122:1.2640882339190390e-001
1123:1.2222412243847246e-001
1124:1.3120500239196042e-001
1125:1.2768081546483165e-001
1126:1.2296555335465514e-001
1127:1.1927060962318034e-001
1128:1.2224742477468133e-001
1129:1.2016073286864208e-001
1130:1.1683462017763629e-001
1131:1.1391383698753257e-001
1132:1.1404853053624515e-001
1133:1.1306124483335168e-001
1134:1.1089801437400579e-001
1135:1.0867197595434917e-001
1136:1.1999553055031865e-001
1137:1.1558674874683503e-001
1138:1.0935426004457979e-001
1139:1.0421636326519154e-001
1140:1.1726776650128866e-001
1141:1.1330125202659677e-001
1142:1.0764488160690203e-001
1143:1.0290059048104792e-001
1144:1.1225148149956013e-001
1145:1.0891227955542816e-001
1146:1.0404333979375747e-001
1147:9.9850260442694752e-002
1148:1.0731774100253967e-001
1149:1.0451621551280622e-001
1150:1.0028825172984888e-001
1151:9.6543576024481437e-002
1152:1.0135335061376718e-001
1153:9.5749823219824948e-002
1154:8.7919193643157451e-002
1155:8.1456187487478057e-002
1156:1.0021572310590587e-001
1157:9.4875333914574506e-002
1158:8.7280179433440186e-002
1159:8.0945332253696572e-002
1160:9.7431076955592680e-002
1161:9.2518059459940349e-002
1162:8.5363155213846631e-002
1163:7.9299288608200888e-002
1164:9.4348533009301599e-002
1165:8.9818140435382429e-002
1166:8.3091719198999617e-002
1167:7.7307723746669624e-002
1168:7.7820238570762548e-002
1169:7.0446731690258474e-002
1170:5.9661935703532724e-002
1171:5.0458503579261030e-002
1172:7.7368547023737105e-002
1173:7.0098952872422571e-002
1174:5.9425366815265203e-002
1175:5.0277937944671933e-002
1176:7.5851041629448265e-002
1177:6.8808474000451689e-002
1178:5.8400845976023803e-002
1179:4.9429693163235706e-002
1180:7.3993814620625098e-002
1181:6.7189988244104271e-002
1182:5.7074472084068552e-002
1183:4.8316193074910752e-002
1184:4.5193606684834735e-002
1185:3.4348666431405273e-002
1186:1.8148835002482374e-002
1187:4.0678145498695356e-003
1188:4.5030509306545730e-002
1189:3.4216464681014240e-002
1190:1.8073807231350526e-002
1191:4.0643605126959199e-003
1192:4.4266849412054422e-002
1193:3.3626750347659447e-002
1194:1.7762187950519037e-002
1195:4.0186239288884703e-003
1196:4.3265288991459948e-002
1197:3.2856826781710875e-002
1198:1.7347962067900149e-002
1199:3.9239326749298635e-003
1200:-5.1172883214282301e+000
1201:-8.1261899539577769e+000
1202:-1.0505977594406696e+001
1203:-1.1597381041969257e+001
1204:-8.2505323763201819e+000
1205:-1.0840165537735954e+001
1206:-1.2500570323961849e+001
1207:-1.3011121818187371e+001
1208:-7.3143367117497951e+000
1209:-1.0110844823399162e+001
1210:-1.1798142345232341e+001
1211:-1.2126276389812356e+001
1212:-4.8130105788295605e+000
1213:-7.4845832522549944e+000
1214:-9.1771694774277801e+000
1215:-9.5100270872728228e+000
1216:-1.2023271836077392e+001
1217:-1.2133233222188125e+001
1218:-1.1172138791831195e+001
1219:-9.9186364033841112e+000
1220:-1.3149458561765924e+001
1221:-1.2812941640408569e+001
1222:-1.1456560107908158e+001
1223:-1.0042032604336987e+001
1224:-1.2104031147586184e+001
1225:-1.1576438467379051e+001
1226:-1.0184257478703058e+001
1227:-8.8579374200582635e+000
1228:-9.4638003454283819e+000
1229:-9.0076443260864067e+000
1230:-7.9007303177188533e+000
1231:-6.8682617777601447e+000
1232:-9.1667018470595725e+000
1233:-7.6967318925119184e+000
1234:-5.7653476471806613e+000
1235:-4.3655655727351368e+000
1236:-9.2503616332360128e+000
1237:-7.7256451162692263e+000
1238:-5.7523486349524520e+000
1239:-4.3471499168292622e+000
1240:-8.1388388339500271e+000
1241:-6.7677462472557322e+000
1242:-5.0169326466297974e+000
1243:-3.7916398977730688e+000
1244:-6.3115840669268986e+000
1245:-5.2506364116896345e+000
1246:-3.9004593989389118e+000
1247:-2.9635550571104359e+000
1248:-3.6791413061297207e+000
1249:-2.5847437543244607e+000
1250:-1.5259677635706193e+000
1251:-9.7490352913298928e-001
1252:-3.6677273678920890e+000
1253:-2.5905211506120724e+000
1254:-1.5535053864930974e+000
1255:-1.0134582397876304e+000
1256:-3.2080297986660051e+000
1257:-2.2884254637061177e+000
1258:-1.4082809832878063e+000
1259:-9.5015740128148285e-001
1260:-2.5215615191577800e+000
1261:-1.8286957107343227e+000
1262:-1.1690910114051878e+000
1263:-8.2599733272451881e-001
1264:-7.6533757581105433e-001
1265:-4.8835649999410446e-001
1266:-2.9528386435334703e-001
1267:-2.2701946618401184e-001
1268:-8.0656324216255093e-001
1269:-5.3333023929691314e-001
1270:-3.4199191608487972e-001
1271:-2.7086342815834552e-001
1272:-7.7344477466283468e-001
1273:-5.3943303858401959e-001
1274:-3.7276389850044367e-001
1275:-3.0589289112888790e-001
1276:-6.9281549874363679e-001
1277:-5.1480834326060898e-001
1278:-3.8332163126006774e-001
1279:-3.2483306738814421e-001
1280:-2.0376516561821623e-001
1281:-1.6637706320262513e-001
1282:-1.2165510054014853e-001
1283:-8.4303926181727468e-002
1284:-2.4431454656780310e-001
1285:-2.0158610321814258e-001
1286:-1.5292126760690639e-001
1287:-1.1527981774101723e-001
1288:-2.7834472117894671e-001
1289:-2.3323146459917052e-001
1290:-1.8310483581280071e-001
1291:-1.4724664672073534e-001
1292:-2.9839567688578650e-001
1293:-2.5349743227752808e-001
1294:-2.0266615046825490e-001
1295:-1.6761215319245862e-001
1296:-6.2080096625989373e-002
1297:-2.5630018219290066e-002
1298:1.0336361463392903e-002
1299:2.9929989498798024e-002
1300:-9.3798595814015298e-002
1301:-5.7284879072348811e-002
1302:-1.8944113518708464e-002
1303:3.0606336458515468e-003
1304:-1.2798347036911964e-001
1305:-9.3976752090379284e-002
1306:-5.5357176703761439e-002
1307:-3.0985597217951820e-002
1308:-1.4973523469231409e-001
1309:-1.1787976161601606e-001
1310:-8.0316931883496881e-002
1311:-5.5119058679412004e-002
1312:3.7992940246000598e-002
1313:5.1935341468690208e-002
1314:6.8286671519750972e-002
1315:7.9271107117694237e-002
1316:1.2270239287939758e-002
1317:2.7951741315764906e-002
1318:4.6161291646388068e-002
1319:5.8613616819895610e-002
1320:-1.9999212988901217e-002
1321:-1.4799815373036864e-003
1322:1.9398340913314844e-002
1323:3.3309310222242858e-002
1324:-4.3096746072244022e-002
1325:-2.2759169500992427e-002
1326:-7.0299786156933740e-005
1327:1.4754066102430508e-002
1328:8.4500243473791384e-002
1329:9.2567540245581031e-002
1330:9.9919357073874893e-002
1331:1.0346354420948498e-001
1332:6.4737254848292305e-002
1333:7.4553082110868862e-002
1334:8.4139373325640282e-002
1335:8.9228388878548531e-002
1336:4.0086919700689894e-002
1337:5.1330717532353388e-002
1338:6.3134056024978111e-002
1339:7.0080038660899027e-002
1340:2.1863011620362954e-002
1341:3.3878260986059353e-002
1342:4.7030059378632770e-002
1343:5.5229413422531889e-002
1344:1.0475074780043953e-001
1345:1.0674863884340859e-001
1346:1.0855298512740438e-001
1347:1.0921216747572558e-001
1348:9.1242866130933339e-002
1349:9.4465368856747570e-002
1350:9.7681132213169958e-002
1351:9.9349653679305081e-002
1352:7.3094336909972399e-002
1353:7.7995353599118800e-002
1354:8.3050484179388914e-002
1355:8.5932699805216103e-002
1356:5.8964057325153918e-002
1357:6.5085360990731894e-002
1358:7.1472568256578453e-002
1359:7.5217400787444849e-002
1360:1.0927433931820765e-001
1361:1.0884486917628164e-001
1362:1.0731482407230580e-001
1363:1.0549112899881137e-001
1364:9.9942902139026568e-002
1365:1.0046806881341891e-001
1366:1.0006910001285295e-001
1367:9.9002734680263951e-002
1368:8.7127815956824131e-002
1369:8.8758240885710993e-002
1370:8.9734677666784349e-002
1371:8.9644449633099865e-002
1372:7.6832029462346005e-002
1373:7.9244413875225864e-002
1374:8.1222867318043263e-002
1375:8.1867198861777124e-002
1376:1.0432020625598160e-001
1377:1.0182979206165622e-001
1378:9.7959618683712765e-002
1379:9.4462348673347407e-002
1380:9.8191156103317842e-002
1381:9.6311907764313601e-002
1382:9.3141063340089397e-002
1383:9.0124218997962802e-002
1384:8.9316738671968751e-002
1385:8.8266111327689148e-002
1386:8.6044921802228919e-002
1387:8.3679119270722954e-002
1388:8.1912080353922403e-002
1389:8.1503667045828607e-002
1390:8.0023164947008438e-002
1391:7.8167650662306021e-002
1392:9.2392425882014503e-002
1393:8.8082027869634538e-002
1394:8.1611720095806667e-002
1395:7.5999368898374373e-002
1396:8.8296346950636317e-002
1397:8.4415083316189909e-002
1398:7.8452418415212166e-002
1399:7.3186775446138927e-002
1400:8.2178389456464704e-002
1401:7.8882936599620299e-002
1402:7.3627579155616019e-002
1403:6.8857726505041406e-002
1404:7.6924048179400795e-002
1405:7.4094013001895664e-002
1406:6.9412047579413369e-002
1407:6.5054020760801662e-002
1408:7.2768357576220091e-002
1409:6.6112780257845699e-002
1410:5.6182822839939466e-002
1411:4.7565100366870110e-002
1412:7.0125790969519888e-002
1413:6.3780326044219363e-002
1414:5.4250268768325352e-002
1415:4.5943819046214189e-002
1416:6.6045120211288791e-002
1417:6.0162179558742576e-002
1418:5.1245184725790587e-002
1419:4.3426423672589337e-002
1420:6.2451555466481651e-002
1421:5.6964303625237869e-002
1422:4.8578293992353340e-002
1423:4.1185431190587554e-002
1424:4.2590382303410959e-002
1425:3.2338675148727916e-002
1426:1.7065403018134740e-002
1427:3.8475106717017682e-003
1428:4.1140040450277748e-002
1429:3.1236499983465598e-002
1430:1.6478549332304207e-002
1431:3.7061875671114369e-003
1432:3.8892944692622410e-002
1433:2.9536936618248896e-002
1434:1.5583141888771921e-002
1435:3.5024143249517822e-003
1436:3.6888749832477974e-002
1437:2.8013386894550359e-002
1438:1.4767777439811244e-002
1439:3.2981480191469760e-003
1440:-3.4846750245953513e+000
1441:-5.7680286550892435e+000
1442:-7.2555868578703375e+000
1443:-7.5586090534714296e+000
1444:-1.6983533278615563e+000
1445:-3.1624737159374430e+000
1446:-4.1691140252493399e+000
1447:-4.3918960059924830e+000
1448:-5.0554870248786943e-001
1449:-1.0643301584728957e+000
1450:-1.4987236157591544e+000
1451:-1.6219650909761880e+000
1452:-1.7833191981684396e-001
1453:-3.5586510974180952e-001
1454:-5.3609265591064093e-001
1455:-6.1752171652780796e-001
1456:-7.5149764211607462e+000
1457:-7.1453776087875651e+000
1458:-6.2741108258998564e+000
1459:-5.4674335890749433e+000
1460:-4.3631744308227995e+000
1461:-4.1517448895841982e+000
1462:-3.6731430664324636e+000
1463:-3.2340034621144427e+000
1464:-1.6218706187099419e+000
1465:-1.5725739366280962e+000
1466:-1.4491115864339725e+000
1467:-1.3304841514473575e+000
1468:-6.3743434613406891e-001
1469:-6.5979479056850843e-001
1470:-6.6933781395162328e-001
1471:-6.6449287640552901e-001
1472:-5.0329671403593732e+000
1473:-4.2011831574357075e+000
1474:-3.1390067117888170e+000
1475:-2.4030503123153637e+000
1476:-2.9970806883914363e+000
1477:-2.5350296176505314e+000
1478:-1.9354986785090613e+000
1479:-1.5197841793823637e+000
1480:-1.2640190900024018e+000
1481:-1.1222133519634399e+000
1482:-9.2371625892969922e-001
1483:-7.8318912175198963e-001
1484:-6.5793691214750294e-001
1485:-6.3178869787040015e-001
1486:-5.8129884033427881e-001
1487:-5.4160557052060210e-001
1488:-2.0573980080512309e+000
1489:-1.5175971558156425e+000
1490:-1.0058294211301069e+000
1491:-7.3966250947529688e-001
1492:-1.3264384287916531e+000
1493:-1.0276217710963658e+000
1494:-7.4732429962014246e-001
1495:-6.0092458439023821e-001
1496:-7.1904137711707583e-001
1497:-6.2249760948224764e-001
1498:-5.3332992488790454e-001
1499:-4.8397386747478310e-001
1500:-5.2355607281239869e-001
1501:-4.9674565682884569e-001
1502:-4.6961170194810242e-001
1503:-4.4939206391844949e-001
1504:-6.3572245772706470e-001
1505:-4.9517525051937844e-001
1506:-3.8708420732348098e-001
1507:-3.3442968132245360e-001
1508:-5.4237055656265043e-001
1509:-4.6001242336291343e-001
1510:-3.8885904671815652e-001
1511:-3.4656135208666478e-001
1512:-4.6170785135146664e-001
1513:-4.2564625974200337e-001
1514:-3.8440974031965325e-001
1515:-3.5213433802681332e-001
1516:-4.3734262059072931e-001
1517:-4.1363574844251100e-001
1518:-3.7998181715652429e-001
1519:-3.5108387920358486e-001
1520:-3.0906327817839074e-001
1521:-2.6465070028984850e-001
1522:-2.1304940865597283e-001
1523:-1.7768423447161466e-001
1524:-3.2390948674272996e-001
1525:-2.8203728545822682e-001
1526:-2.3075825801803565e-001
1527:-1.9521317483033920e-001
1528:-3.3329725793225090e-001
1529:-2.9663487027916519e-001
1530:-2.4899498554951491e-001
1531:-2.1469702400507501e-001
1532:-3.3434283376718182e-001
1533:-3.0165572595564683e-001
1534:-2.5845019770336758e-001
1535:-2.2645455481811019e-001
1536:-1.6009711364343765e-001
1537:-1.2897336430047163e-001
1538:-9.2132270193834423e-002
1539:-6.6926370348570477e-002
1540:-1.7790236625166736e-001
1541:-1.4764378251435945e-001
1542:-1.1187752891577966e-001
1543:-8.6905888540764989e-002
1544:-1.9779190463561502e-001
1545:-1.6837907143358247e-001
1546:-1.3368659994796403e-001
1547:-1.0925550457073445e-001
1548:-2.1026910850437791e-001
1549:-1.8183664404822664e-001
1550:-1.4799881100198045e-001
1551:-1.2404751806586126e-001
1552:-5.4615413692445006e-002
1553:-3.3659419418628878e-002
1554:-1.0215683930784779e-002
1555:5.0607622398789734e-003
1556:-7.4375849226839805e-002
1557:-5.2797703781610666e-002
1558:-2.8390567435170367e-002
1559:-1.2400117343141143e-002
1560:-9.6839150482067385e-002
1561:-7.5178109356135364e-002
1562:-5.0217344729641976e-002
1563:-3.3572547812154824e-002
1564:-1.1185988872219631e-001
1565:-9.0440738361086709e-002
1566:-6.5425312439643057e-002
1567:-4.8484979616925585e-002
1568:1.2350327095579278e-002
1569:2.4758281429780170e-002
1570:3.8558074519292537e-002
1571:4.7350408848990805e-002
1572:-4.7709020214756924e-003
1573:8.3438695485450395e-003
1574:2.3233814619255524e-002
1575:3.2986100691131955e-002
1576:-2.5547413682706313e-002
1577:-1.1639575438928717e-002
1578:4.3911794894667634e-003
1579:1.5109388934299250e-002
1580:-4.0228031907477611e-002
1581:-2.5864821064579765e-002
1582:-9.2020270704439352e-003
1583:2.0496884392997260e-003
1584:5.1427076137779762e-002
1585:5.8136687587998566e-002
1586:6.5183140114807178e-002
1587:6.9366654184890450e-002
1588:3.7609714338986772e-002
1589:4.5282449214545564e-002
1590:5.3453407638527101e-002
1591:5.8415000906856258e-002
1592:2.0279042889391738e-002
1593:2.8961047557617546e-002
1594:3.8398518412376785e-002
1595:4.4288108578145947e-002
1596:7.5265968555819273e-003
1597:1.6819433772497807e-002
1598:2.7093178733773971e-002
1599:3.3630021097573758e-002
1600:7.1198005122930022e-002
1601:7.4015571949300987e-002
1602:7.6515137456160023e-002
1603:7.7543477564116003e-002
1604:6.0638334250455915e-002
1605:6.4182714236164604e-002
1606:6.7608295492894807e-002
1607:6.9318597231609866e-002
1608:4.6989935716606923e-002
1609:5.1407739509972877e-002
1610:5.5927981636861246e-002
1611:5.8444506982048137e-002
1612:3.6670982038007331e-002
1613:4.1696271550980948e-002
1614:4.6963749277991421e-002
1615:5.0031457786634849e-002
1616:7.7784037957068133e-002
1617:7.7714609166837992e-002
1618:7.6628096931984760e-002
1619:7.5046020555183487e-002
1620:6.9908585938921228e-002
1621:7.0451917965795322e-002
1622:7.0089509473203485e-002
1623:6.9015826893749979e-002
1624:5.9452237082652105e-002
1625:6.0744587683609720e-002
1626:6.1293222963270208e-002
1627:6.0871639310134028e-002
1628:5.1328985056141828e-002
1629:5.3154998039504631e-002
1630:5.4374476100119605e-002
1631:5.4443407346401532e-002
1632:7.3940824620105317e-002
1633:7.1363161268112624e-002
1634:6.6996237562125027e-002
1635:6.2868042089715553e-002
1636:6.8168911837602889e-002
1637:6.6063931269261703e-002
1638:6.2292564572454898e-002
1639:5.8604992548087403e-002
1640:6.0357874751526951e-002
1641:5.8864271872347718e-002
1642:5.5870502183649917e-002
1643:5.2767714100049351e-002
1644:5.4181782971073185e-002
1645:5.3150907179347777e-002
1646:5.0748447800201067e-002
1647:4.8095387705673349e-002
1648:6.0384176709112294e-002
1649:5.5121080347240961e-002
1650:4.7036677667954406e-002
1651:3.9885900573436370e-002
1652:5.6351167385113025e-002
1653:5.1525237746472462e-002
1654:4.4031788104306378e-002
1655:3.7356160989557727e-002
1656:5.0823594850197544e-002
1657:4.6591521696326126e-002
1658:3.9907907387157257e-002
1659:3.3886366396460574e-002
1660:4.6392074498614828e-002
1661:4.2626188762118204e-002
1662:3.6584952099708322e-002
1663:3.1085514006017292e-002
1664:3.5723815043258826e-002
1665:2.7122839348380973e-002
1666:1.4284100331949106e-002
1667:3.1674603346451341e-003
1668:3.3458315371818904e-002
1669:2.5398596387288634e-002
1670:1.3367548114153829e-002
1671:2.9549384336702432e-003
1672:3.0352705008333564e-002
1673:2.3041610398172475e-002
1674:1.2132760474344258e-002
1675:2.7015252403603733e-003
1676:2.7843119875707322e-002
1677:2.1130657655500755e-002
1678:1.1118816842365882e-002
1679:2.4717898764502538e-003
1680:-1.2045666499657752e-001
1681:-2.4665956706005820e-001
1682:-3.8928890243297415e-001
1683:-4.6734315378167218e-001
1684:-5.6404186090218460e-002
1685:-1.3944965062191597e-001
1686:-2.4451776454653790e-001
1687:-3.1557209545223253e-001
1688:-2.0238491068776877e-002
1689:-8.1740489250221787e-002
1690:-1.6039530508058011e-001
1691:-2.1831899063492238e-001
1692:-1.3306654197004514e-002
1693:-7.2134747107925695e-002
1694:-1.4326418895292556e-001
1695:-1.9381944704554141e-001
1696:-4.9448165561226948e-001
1697:-5.3231970606682466e-001
1698:-5.6206177944919333e-001
1699:-5.7219978237723468e-001
1700:-3.4799890327405614e-001
1701:-3.9779893599758365e-001
1702:-4.4408311479174101e-001
1703:-4.6792853807094692e-001
1704:-2.4775097285831391e-001
1705:-2.9593302963597223e-001
1706:-3.4646779514022741e-001
1707:-3.7796347944595143e-001
1708:-2.1933980883211837e-001
1709:-2.6271693447179417e-001
1710:-3.1129344701289025e-001
1711:-3.4353914583253814e-001
1712:-5.7353593197978270e-001
1713:-5.6525842716432340e-001
1714:-5.4052123845925748e-001
1715:-5.1841113874422895e-001
1716:-4.7727972381007161e-001
1717:-4.8875964740207112e-001
1718:-4.9380874156401067e-001
1719:-4.9199857024386212e-001
1720:-3.9287434107241587e-001
1721:-4.1795380698999990e-001
1722:-4.4316728977879616e-001
1723:-4.5499109334550031e-001
1724:-3.5929671124296997e-001
1725:-3.8594127386501226e-001
1726:-4.1298238699819212e-001
1727:-4.2600905208414630e-001
1728:-5.0775849651786253e-001
1729:-4.9052664674251967e-001
1730:-4.6923252809718907e-001
1731:-4.5001998096408985e-001
1732:-4.8960115929697878e-001
1733:-4.8256970977903713e-001
1734:-4.6687444622882412e-001
1735:-4.4842855641599827e-001
1736:-4.5814675904525393e-001
1737:-4.5852057341636265e-001
1738:-4.4865908324143672e-001
1739:-4.3353191067448382e-001
1740:-4.2974703739138426e-001
1741:-4.3155311508994015e-001
1742:-4.2468704236134480e-001
1743:-4.1306539483355981e-001
1744:-4.3778287335912319e-001
1745:-4.1318498225258260e-001
1746:-3.7836629091156793e-001
1747:-3.4947753562759531e-001
1748:-4.3605173685918269e-001
1749:-4.1065579279685865e-001
1750:-3.7485344316417479e-001
1751:-3.4630413536013949e-001
1752:-4.2298545564148821e-001
1753:-4.0048946263610541e-001
1754:-3.6770293308663138e-001
1755:-3.4134216807904899e-001
1756:-4.0486938700215802e-001
1757:-3.8679822963154836e-001
1758:-3.5925865340504198e-001
1759:-3.3618049391526411e-001
1760:-3.3330459901857551e-001
1761:-3.0231319435104470e-001
1762:-2.6174361801267371e-001
1763:-2.3144658295843651e-001
1764:-3.3099568577800226e-001
1765:-3.0260784333528751e-001
1766:-2.6624676698892596e-001
1767:-2.3884730986786173e-001
1768:-3.2731160293043898e-001
1769:-3.0179980100301157e-001
1770:-2.6960653502500531e-001
1771:-2.4519303105950119e-001
1772:-3.2355544102535216e-001
1773:-3.0032631510606184e-001
1774:-2.7064071706903614e-001
1775:-2.4793101435022455e-001
1776:-2.1587413479570633e-001
1777:-1.8822060426348658e-001
1778:-1.5493483921915058e-001
1779:-1.3123947115628395e-001
1780:-2.2443333730330248e-001
1781:-1.9835848572697773e-001
1782:-1.6633705192250142e-001
1783:-1.4328861593980066e-001
1784:-2.3214007135792231e-001
1785:-2.0814071187722144e-001
1786:-1.7810223921059723e-001
1787:-1.5620715877346564e-001
1788:-2.3574625971692881e-001
1789:-2.1324134194819200e-001
1790:-1.8487238518677174e-001
1791:-1.6404451922775223e-001
1792:-1.1917998470443392e-001
1793:-9.7928174903093079e-002
1794:-7.2965695605124462e-002
1795:-5.5937428124600543e-002
1796:-1.3153807628644873e-001
1797:-1.1072060351534205e-001
1798:-8.6005332091919226e-002
1799:-6.8916360920651148e-002
1800:-1.4499245774063282e-001
1801:-1.2497287552098935e-001
1802:-1.0086616327092822e-001
1803:-8.3907760606271531e-002
1804:-1.5332292564268751e-001
1805:-1.3406773833070074e-001
1806:-1.1063713042590662e-001
1807:-9.3949298133644277e-002
1808:-4.7591647781159777e-002
1809:-3.3052897283478079e-002
1810:-1.6143380567242533e-002
1811:-4.6749810362812132e-003
1812:-6.0455460585184424e-002
1813:-4.5674666868418541e-002
1814:-2.8408934604784435e-002
1815:-1.6621152179486530e-002
1816:-7.5404327009509539e-002
1817:-6.0480551069320369e-002
1818:-4.2940131704198969e-002
1819:-3.0879185880401793e-002
1820:-8.5506016943349597e-002
1821:-7.0616204631978041e-002
1822:-5.3005891182137700e-002
1823:-4.0826769684004532e-002
1824:9.3170433117216510e-004
1825:1.0499749404029649e-002
1826:2.1175076184926110e-002
1827:2.8033375599613129e-002
1828:-1.0822091665300515e-002
1829:-8.3375440389734854e-004
1830:1.0480132435358905e-002
1831:1.7869483786364965e-002
1832:-2.4912213682283645e-002
1833:-1.4542489699687454e-002
1834:-2.6127790036283034e-003
1835:5.3230423735430481e-003
1836:-3.4780226644563240e-002
1837:-2.4224317831068948e-002
1838:-1.1974255013205256e-002
1839:-3.7307865631491677e-003
1840:3.1244066223598415e-002
1841:3.6569638648176590e-002
1842:4.2202086910597542e-002
1843:4.5539594060622149e-002
1844:2.1367968630121623e-002
1845:2.7209010747827653e-002
1846:3.3475464060321487e-002
1847:3.7283915235163848e-002
1848:9.1319236096589693e-003
1849:1.5546684699610926e-002
1850:2.2542299876003254e-002
1851:2.6900704400120611e-002
1852:2.6337470733187859e-004
1853:7.0383229439913049e-003
1854:1.4516862961014303e-002
1855:1.9249914004454704e-002
1856:4.6980531462181285e-002
1857:4.9075766370761172e-002
1858:5.0641599678181923e-002
1859:5.0967672733976011e-002
1860:3.8974968045923028e-002
1861:4.1541481922420243e-002
1862:4.3719338271535367e-002
1863:4.4505910271235453e-002
1864:2.8883690250531998e-002
1865:3.2000799853166458e-002
1866:3.4900372067298971e-002
1867:3.6239946088777661e-002
1868:2.1432613216764089e-002
1869:2.4925554982094568e-002
1870:2.8320370522538947e-002
1871:3.0045492836852344e-002
1872:5.0838895689179063e-002
1873:5.0051666351911404e-002
1874:4.7960980305457139e-002
1875:4.5546246479535042e-002
1876:4.4617708191819760e-002
1877:4.4275102958559846e-002
1878:4.2758531990517774e-002
1879:4.0785497064112837e-002
1880:3.6645597130067389e-002
1881:3.6853692954048355e-002
1882:3.6059745384405296e-002
1883:3.4648641799488906e-002
1884:3.0659370881794320e-002
1885:3.1263838962810445e-002
1886:3.0999456751718942e-002
1887:3.0005036097075079e-002
1888:4.3971247142778419e-002
1889:4.0455422371420233e-002
1890:3.4761435388701654e-002
1891:2.9545701296914119e-002
1892:3.9448979637081480e-002
1893:3.6399660059051778e-002
1894:3.1357180645629881e-002
1895:2.6676601461749244e-002
1896:3.3616760805457550e-002
1897:3.1165797144235560e-002
1898:2.6964454854129540e-002
1899:2.2979401852086280e-002
1900:2.9200036973926164e-002
1901:2.7195960418401308e-002
1902:2.3625766713438259e-002
1903:2.0165252786769901e-002
1904:2.6461869579639159e-002
1905:2.0074704905493481e-002
1906:1.0549035934496744e-002
1907:2.3262084729123358e-003
1908:2.3892768023259871e-002
1909:1.8120487846091566e-002
1910:9.5117664451156540e-003
1911:2.0871561973228800e-003
1912:2.0587007720183150e-002
1913:1.5616396272969693e-002
1914:8.2002412338320237e-003
1915:1.8108397381766481e-003
1916:1.8069000088757257e-002
1917:1.3704667525568094e-002
1918:7.1888880216230350e-003
1919:1.5793585612851237e-003
1920:-1.2292839426556334e-002
1921:-7.0642542978423165e-002
1922:-1.4056272259428185e-001
1923:-1.8958480398898067e-001
1924:-1.1411625222492016e-002
1925:-6.6246880475982040e-002
1926:-1.3258369869340056e-001
1927:-1.7926617119471469e-001
1928:-1.1429717498768879e-002
1929:-5.8787657421761258e-002
1930:-1.1820330786337577e-001
1931:-1.6151117652491803e-001
1932:-1.1692644414682096e-002
1933:-5.3550884336552279e-002
1934:-1.0734626273784326e-001
1935:-1.4752796456712367e-001
1936:-2.1409861253574289e-001
1937:-2.5633416647055485e-001
1938:-3.0431600035065681e-001
1939:-3.3603077868316200e-001
1940:-2.0262632936074551e-001
1941:-2.4359267209110777e-001
1942:-2.9072948328767628e-001
1943:-3.2136920401523611e-001
1944:-1.8365995790565409e-001
1945:-2.2286677548085293e-001
1946:-2.6810740619128298e-001
1947:-2.9713024987152842e-001
1948:-1.6838472861593032e-001
1949:-2.0519262699587087e-001
1950:-2.4756250108736552e-001
1951:-2.7491254559168604e-001
1952:-3.5123276326773528e-001
1953:-3.7601887275786505e-001
1954:-3.9991447853863538e-001
1955:-4.1083703937454497e-001
1956:-3.3552066639263295e-001
1957:-3.5727639902513997e-001
1958:-3.7652937972277473e-001
1959:-3.8466620034520160e-001
1960:-3.1023246684814904e-001
1961:-3.2990817261629335e-001
1962:-3.4702079935356234e-001
1963:-3.5463814492438900e-001
1964:-2.8742248358192185e-001
1965:-3.0680881977168928e-001
1966:-3.2492498821509785e-001
1967:-3.3411405753549017e-001
1968:-4.1382384026440916e-001
1969:-4.1514003648032083e-001
1970:-4.0929788337987522e-001
1971:-3.9959377635447513e-001
1972:-3.8682158281922541e-001
1973:-3.8784347809054598e-001
1974:-3.8378128686532220e-001
1975:-3.7684396172126650e-001
1976:-3.5708624637345188e-001
1977:-3.5926360889341252e-001
1978:-3.5757676591250931e-001
1979:-3.5293973827767627e-001
1980:-3.3758446617111620e-001
1981:-3.4155479403455474e-001
1982:-3.4184518172107092e-001
1983:-3.3841789887133233e-001
1984:-3.9276160936223825e-001
1985:-3.7747466883221148e-001
1986:-3.5351329515778351e-001
1987:-3.3274303527925481e-001
1988:-3.7189936360535980e-001
1989:-3.6062273431968117e-001
1990:-3.4214675162530539e-001
1991:-3.2519529938839586e-001
1992:-3.4935370006174526e-001
1993:-3.4109111291642691e-001
1994:-3.2716152882572042e-001
1995:-3.1383433260770804e-001
1996:-3.3537563069545906e-001
1997:-3.2823656983551303e-001
1998:-3.1611326367066306e-001
1999:-3.0450362136893000e-001
2000:-3.2108127901462197e-001
2001:-2.9921904004709943e-001
2002:-2.7074235436042721e-001
2003:-2.4876519479519626e-001
2004:-3.1525577257699072e-001
2005:-2.9594439731745698e-001
2006:-2.6985446352901599e-001
2007:-2.4935204454804927e-001
2008:-3.0575962274535612e-001
2009:-2.8949260740797661e-001
2010:-2.6664699472670250e-001
2011:-2.4827982630550108e-001
2012:-2.9747024285253515e-001
2013:-2.8315445511829535e-001
2014:-2.6274304403404858e-001
2015:-2.4610545930152353e-001
2016:-2.3697321280911798e-001
2017:-2.1520666774867050e-001
2018:-1.8774612882897704e-001
2019:-1.6752874011497648e-001
2020:-2.3832663311389080e-001
2021:-2.1796272976697947e-001
2022:-1.9217479676837432e-001
2023:-1.7305132747190807e-001
2024:-2.3832675964600689e-001
2025:-2.1983735334129625e-001
2026:-1.9617167008965283e-001
2027:-1.7838797037195464e-001
2028:-2.3700930275286006e-001
2029:-2.1997197611967592e-001
2030:-1.9789828360307937e-001
2031:-1.8111056761068567e-001
2032:-1.5708945991111017e-001
2033:-1.3828232675186877e-001
2034:-1.1527772797425750e-001
2035:-9.8794878461647445e-002
2036:-1.6311069640404033e-001
2037:-1.4511232679763419e-001
2038:-1.2292644587191677e-001
2039:-1.0689282979003388e-001
2040:-1.6905254857007546e-001
2041:-1.5206086558290727e-001
2042:-1.3096321837738845e-001
2043:-1.1560110334134135e-001
2044:-1.7223141183200913e-001
2045:-1.5600771841197394e-001
2046:-1.3576252131774166e-001
2047:-1.2095153445555676e-001
2048:-9.0418918557150590e-002
2049:-7.5601233499604292e-002
2050:-5.8002856899478289e-002
2051:-4.5787957269692571e-002
2052:-9.8694261824723753e-002
2053:-8.4104646098623850e-002
2054:-6.6629860851316738e-002
2055:-5.4404083646902371e-002
2056:-1.0770412992365853e-001
2057:-9.3552181117411329e-002
2058:-7.6413518807274650e-002
2059:-6.4285951003105468e-002
2060:-1.1331448800666949e-001
2061:-9.9568034778291570e-002
2062:-8.2796756542376421e-002
2063:-7.0830746699250713e-002
2064:-3.9712003569538315e-002
2065:-2.9087134112843215e-002
2066:-1.6713938014020494e-002
2067:-8.3445173986748476e-003
2068:-4.8294408943706846e-002
2069:-3.7579393713237166e-002
2070:-2.5031140342851341e-002
2071:-1.6475208569726903e-002
2072:-5.8180682645979802e-002
2073:-4.7430638901660063e-002
2074:-3.4758381184323846e-002
2075:-2.6045411053354475e-002
2076:-6.4771866394211383e-002
2077:-5.4066058281874455e-002
2078:-4.1379491532714557e-002
2079:-3.2605627026658500e-002
2080:-4.2707656689619337e-003
2081:2.6668398911821600e-003
2082:1.0374983897831863e-002
2083:1.5291319723080924e-002
2084:-1.2281632737053070e-002
2085:-5.0919643876214437e-003
2086:2.9856497656836197e-003
2087:8.2067157110022378e-003
2088:-2.1745853565255501e-002
2089:-1.4321502625721428e-002
2090:-5.8767572792566732e-003
2091:-3.3513566127345437e-004
2092:-2.8257646720248077e-002
2093:-2.0716580611278686e-002
2094:-1.2071568790318992e-002
2095:-6.3416596686278158e-003
2096:1.7572446473347526e-002
2097:2.1250152550205906e-002
2098:2.4888806707235946e-002
2099:2.6805458525577398e-002
2100:1.0654787065461021e-002
2101:1.4649094123971867e-002
2102:1.8710609639365071e-002
2103:2.0962559970995987e-002
2104:2.2949227548165899e-003
2105:6.6422016145933323e-003
2106:1.1187343414186313e-002
2107:1.3829764705975084e-002
2108:-3.5998944983216242e-003
2109:9.7118895081031351e-004
2110:5.8342597110883918e-003
2111:8.7397412644722693e-003
2112:2.7523803217664088e-002
2113:2.8329342713739280e-002
2114:2.8337079290929826e-002
2115:2.7558611682959096e-002
2116:2.1864693688709382e-002
2117:2.3026001031326737e-002
2118:2.3519324482562547e-002
2119:2.3129388174421672e-002
2120:1.4947687540724982e-002
2121:1.6530014103229834e-002
2122:1.7605037278731035e-002
2123:1.7686310663369995e-002
2124:1.0004609565778045e-002
2125:1.1876050112874183e-002
2126:1.3355619331266473e-002
2127:1.3768794258549308e-002
2128:2.6871587604306784e-002
2129:2.5100204764532529e-002
2130:2.1859391065828244e-002
2131:1.8673324560722245e-002
2132:2.2655714886787082e-002
2133:2.1306555336778679e-002
2134:1.8665615675336141e-002
2135:1.5980659873277014e-002
2136:1.7473474554693967e-002
2137:1.6643187464496879e-002
2138:1.4743452998757184e-002
2139:1.2679826534771600e-002
2140:1.3741192793248081e-002
2141:1.3281212696964279e-002
2142:1.1913091594322831e-002
2143:1.0296425587991735e-002
2144:1.6732275160963647e-002
2145:1.2685670410131911e-002
2146:6.6413867520973653e-003
2147:1.4397965238655698e-003
2148:1.4323288741014838e-002
2149:1.0857172473204115e-002
2150:5.6734586027033370e-003
2151:1.2156207743320093e-003
2152:1.1374618567662115e-002
2153:8.6284509256191622e-003
2154:4.5101325784851418e-003
2155:9.7137045144204438e-004
2156:9.2447732835498116e-003
2157:7.0162995591567636e-003
2158:3.6623804201897938e-003
2159:7.8161120791111029e-004
2160:-1.1709792627585074e-002
2161:-5.1418572547183426e-002
2162:-1.0254069749818694e-001
2163:-1.4082434653872511e-001
2164:-1.1146918330673643e-002
2165:-4.8015202120059837e-002
2166:-9.5118048670334437e-002
2167:-1.3017010289638045e-001
2168:-9.6503764223278485e-003
2169:-4.4022122161471000e-002
2170:-8.7196226740279062e-002
2171:-1.1880537183366781e-001
2172:-8.3464248921977617e-003
2173:-4.0817396580400366e-002
2174:-8.1364318465005941e-002
2175:-1.1088508119721502e-001
2176:-1.6072372487654996e-001
2177:-1.9567136514265737e-001
2178:-2.3586284468379037e-001
2179:-2.6212122441773245e-001
2180:-1.4831580791329396e-001
2181:-1.7996545549679702e-001
2182:-2.1643128623495556e-001
2183:-2.4082891778140211e-001
2184:-1.3500878603113370e-001
2185:-1.6325281280958076e-001
2186:-1.9610694422619626e-001
2187:-2.1863391226560835e-001
2188:-1.2598117287618782e-001
2189:-1.5250289248082829e-001
2190:-1.8371435751458276e-001
2191:-2.0529197245583092e-001
2192:-2.7437485751483265e-001
2193:-2.9397561414984086e-001
2194:-3.1333600050290827e-001
2195:-3.2383978899668353e-001
2196:-2.5261016803072706e-001
2197:-2.7232143734768666e-001
2198:-2.9317577533920286e-001
2199:-3.0530503263411224e-001
2200:-2.2980747921836003e-001
2201:-2.4898116137305543e-001
2202:-2.6996935098798963e-001
2203:-2.8254904476197995e-001
2204:-2.1601730393024840e-001
2205:-2.3433952941751657e-001
2206:-2.5429090540657751e-001
2207:-2.6623870595067528e-001
2208:-3.2801848113735999e-001
2209:-3.3312994406835650e-001
2210:-3.3453736179702209e-001
2211:-3.3170220245386217e-001
2212:-3.1035344796594294e-001
2213:-3.1697669431518405e-001
2214:-3.2014875783250568e-001
2215:-3.1853533551722435e-001
2216:-2.8788586356537155e-001
2217:-2.9530398775175026e-001
2218:-3.0005684849094222e-001
2219:-3.0007148931818811e-001
2220:-2.7133841304854422e-001
2221:-2.7869688003015530e-001
2222:-2.8413342652008194e-001
2223:-2.8522684812227467e-001
2224:-3.2889146889781867e-001
2225:-3.2212187631176398e-001
2226:-3.1051968822994791e-001
2227:-2.9947956549694649e-001
2228:-3.1633133224299376e-001
2229:-3.1055033515209285e-001
2230:-3.0014829293974649e-001
2231:-2.9016656077443831e-001
2232:-2.9886079869643406e-001
2233:-2.9481337230214799e-001
2234:-2.8645852714184833e-001
2235:-2.7799160731391892e-001
2236:-2.8476283537743391e-001
2237:-2.8213582650990149e-001
2238:-2.7557021828701134e-001
2239:-2.6838729869390093e-001
2240:-2.9284733914459543e-001
2241:-2.7939545261085585e-001
2242:-2.6021052911480669e-001
2243:-2.4449681808194615e-001
2244:-2.8420693746513870e-001
2245:-2.7218864548117239e-001
2246:-2.5504479416282672e-001
2247:-2.4088450836202635e-001
2248:-2.7285631712749542e-001
2249:-2.6247985866655016e-001
2250:-2.4757591455810662e-001
2251:-2.3511596535626497e-001
2252:-2.6389675545027447e-001
2253:-2.5470043341552995e-001
2254:-2.4129050593508206e-001
2255:-2.2994225612357772e-001
2256:-2.3585896804438572e-001
2257:-2.1958975880958850e-001
2258:-1.9835303847644273e-001
2259:-1.8209609584370542e-001
2260:-2.3302717727598996e-001
2261:-2.1809139683466300e-001
2262:-1.9836087220090903e-001
2263:-1.8310431510526382e-001
2264:-2.2813056758969708e-001
2265:-2.1473327540753503e-001
2266:-1.9683395685201280e-001
2267:-1.8286343484178699e-001
2268:-2.2353717366089951e-001
2269:-2.1119288374601683e-001
2270:-1.9459602128073505e-001
2271:-1.8157084091028702e-001
2272:-1.7346588135279997e-001
2273:-1.5766093789823690e-001
2274:-1.3787805938726996e-001
2275:-1.2336497378676291e-001
2276:-1.7495940734798773e-001
2277:-1.5997097109869404e-001
2278:-1.4107930695342233e-001
2279:-1.2712778899819444e-001
2280:-1.7536464514759789e-001
2281:-1.6147043623382976e-001
2282:-1.4377359672761345e-001
2283:-1.3056791481493846e-001
2284:-1.7455541432854751e-001
2285:-1.6149127366462065e-001
2286:-1.4471960731052674e-001
2287:-1.3210317798857985e-001
2288:-1.1586885790802959e-001
2289:-1.0235112686619353e-001
2290:-8.5805556735824226e-002
2291:-7.3955116095033774e-002
2292:-1.1989210286294832e-001
2293:-1.0680400828994598e-001
2294:-9.0703235235689628e-002
2295:-7.9102873376226054e-002
2296:-1.2367390610234708e-001
2297:-1.1115813898246230e-001
2298:-9.5677183544005048e-002
2299:-8.4455632504346026e-002
2300:-1.2548238311259302e-001
2301:-1.1342760588061213e-001
2302:-9.8455683872146427e-002
2303:-8.7557117781479496e-002
2304:-6.7937552540690060e-002
2305:-5.7282451303036351e-002
2306:-4.4617036998470319e-002
2307:-3.5829826352802116e-002
2308:-7.3186219558583746e-002
2309:-6.2669405472241785e-002
2310:-5.0094998623181945e-002
2311:-4.1317204306381625e-002
2312:-7.8706911589225187e-002
2313:-6.8441026895778245e-002
2314:-5.6075941787503407e-002
2315:-4.7375653028142631e-002
2316:-8.1957610177410753e-002
2317:-7.1926590247129843e-002
2318:-5.9782397772429663e-002
2319:-5.1189249813997334e-002
2320:-3.1465890603548020e-002
2321:-2.3882077841235756e-002
2322:-1.5156583366228571e-002
2323:-9.3459020282615664e-003
2324:-3.6939829893448073e-002
2325:-2.9306344472529083e-002
2326:-2.0469740664927502e-002
2327:-1.4538344443307285e-002
2328:-4.3013239347586274e-002
2329:-3.5374180673260300e-002
2330:-2.6468106933850120e-002
2331:-2.0436621990769996e-002
2332:-4.6863473639691823e-002
2333:-3.9265697055156590e-002
2334:-3.0363124739099814e-002
2335:-2.4297063068371511e-002
2336:-6.5544499166308289e-003
2337:-1.8807957458351413e-003
2338:3.1327766432395045e-003
2339:6.1654647183497450e-003
2340:-1.1670178076702592e-002
2341:-6.8339184535566250e-003
2342:-1.5743001983876401e-003
2343:1.6712954851066549e-003
2344:-1.7498986694379663e-002
2345:-1.2506639276295998e-002
2346:-6.9956017332993680e-003
2347:-3.5223973510575025e-003
2348:-2.1328353853021124e-002
2349:-1.6257273284645168e-002
2350:-1.0605090617056643e-002
2351:-6.9952196415167681e-003
2352:7.5020521000802596e-003
2353:9.5154735448114147e-003
2354:1.1195501792197166e-002
2355:1.1774594145569802e-002
2356:3.1294538352918109e-003
2357:5.3857671244410448e-003
2358:7.4126690623499509e-003
2359:8.2815620989311455e-003
2360:-1.9311477786534399e-003
2361:5.9567286666746815e-004
2362:3.0168907141059540e-003
2363:4.2205355954289536e-003
2364:-5.3214063662139523e-003
2365:-2.6228913452708072e-003
2366:5.5248956602380916e-005
2367:1.4813112853594645e-003
2368:1.1840106135848712e-002
2369:1.1566848893918584e-002
2370:1.0467583574303592e-002
2371:9.0773361277051209e-003
2372:8.5105299867899546e-003
2373:8.5657954199615405e-003
2374:7.9405922666065526e-003
2375:6.9501240386681106e-003
2376:4.6398800696975237e-003
2377:5.0791487785884926e-003
2378:5.0099746846027707e-003
2379:4.4894139526490302e-003
2380:2.0283906688881425e-003
2381:2.7263909005386571e-003
2382:3.0333336005926225e-003
2383:2.8313913019693587e-003
2384:8.1541779688499415e-003
2385:6.1877728453738666e-003
2386:3.2201274482300413e-003
2387:6.7130242700395870e-004
2388:6.2539324372053165e-003
2389:4.7498855896851450e-003
2390:2.4623354224985058e-003
2391:4.9675754007627983e-004
2392:4.0601452720697619e-003
2393:3.0983965934858570e-003
2394:1.6050097018013307e-003
2395:3.1760359405692568e-004
2396:2.5831860928248614e-003
2397:1.9877513025401989e-003
2398:1.0272199917115438e-003
2399:1.9197436642289734e-004
2400:-7.7352883722054443e-003
2401:-3.8951309520992385e-002
2402:-7.8054903093554465e-002
2403:-1.0663003000599000e-001
2404:-6.9901433981034008e-003
2405:-3.5750690980448127e-002
2406:-7.2109018539086508e-002
2407:-9.8949607713436361e-002
2408:-6.5858578781099984e-003
2409:-3.2362450479522201e-002
2410:-6.5317790287942379e-002
2411:-8.9943990519142772e-002
2412:-6.4733436038179552e-003
2413:-3.0418799261075765e-002
2414:-6.1105945452500421e-002
2415:-8.4095899931545676e-002
2416:-1.2129076609051914e-001
2417:-1.4723105580807180e-001
2418:-1.7796563809628815e-001
2419:-1.9920303478759588e-001
2420:-1.1283007686286359e-001
2421:-1.3765978519802824e-001
2422:-1.6736907031189777e-001
2423:-1.8787491852443919e-001
2424:-1.0278975311779258e-001
2425:-1.2593516160572174e-001
2426:-1.5381905530309462e-001
2427:-1.7308952643186354e-001
2428:-9.6106344087988627e-002
2429:-1.1772946612826592e-001
2430:-1.4379963562366171e-001
2431:-1.6189628786739074e-001
2432:-2.0969707669324150e-001
2433:-2.2745137363344384e-001
2434:-2.4656733765948827e-001
2435:-2.5796141981846771e-001
2436:-1.9791730074675526e-001
2437:-2.1469842700729821e-001
2438:-2.3255345111910011e-001
2439:-2.4321969155566184e-001
2440:-1.8249910560002480e-001
2441:-1.9820983483504825e-001
2442:-2.1504332991307015e-001
2443:-2.2533297321922799e-001
2444:-1.7078575747760277e-001
2445:-1.8578924529386645e-001
2446:-2.0218562733497344e-001
2447:-2.1246285277160595e-001
2448:-2.6284692571286100e-001
2449:-2.7003005734647267e-001
2450:-2.7566537479680364e-001
2451:-2.7721470312221153e-001
2452:-2.4786921981296511e-001
2453:-2.5489846173557673e-001
2454:-2.6085255715832173e-001
2455:-2.6300859881702959e-001
2456:-2.2995117920955552e-001
2457:-2.3707671140398581e-001
2458:-2.4339762324913045e-001
2459:-2.4599675946132588e-001
2460:-2.1716605472110967e-001
2461:-2.2447213048183748e-001
2462:-2.3104167373955642e-001
2463:-2.3384210891867169e-001
2464:-2.7708882104107824e-001
2465:-2.7516470423932621e-001
2466:-2.6956631207205295e-001
2467:-2.6310426424576522e-001
2468:-2.6332190947175588e-001
2469:-2.6237936189449124e-001
2470:-2.5826168305638625e-001
2471:-2.5299531858092822e-001
2472:-2.4660317983550803e-001
2473:-2.4641349256143380e-001
2474:-2.4362596337235548e-001
2475:-2.3957882544715073e-001
2476:-2.3456540409397741e-001
2477:-2.3471064922077370e-001
2478:-2.3259642104104655e-001
2479:-2.2923643617189141e-001
2480:-2.5897328329290931e-001
2481:-2.5040305495022402e-001
2482:-2.3774155042118178e-001
2483:-2.2693796551965231e-001
2484:-2.4949301907878282e-001
2485:-2.4203278573031942e-001
2486:-2.3071449736907676e-001
2487:-2.2089661098133137e-001
2488:-2.3677101302349096e-001
2489:-2.3058139492642829e-001
2490:-2.2086018803261312e-001
2491:-2.1224285681575830e-001
2492:-2.2684804449526788e-001
2493:-2.2146416938783112e-001
2494:-2.1281310478123250e-001
2495:-2.0502903750136892e-001
2496:-2.2081941267334768e-001
2497:-2.0900128827873596e-001
2498:-1.9306344255258553e-001
2499:-1.8051950743540995e-001
2500:-2.1529760320761041e-001
2501:-2.0442872107963680e-001
2502:-1.8966779911885931e-001
2503:-1.7797256434817121e-001
2504:-2.0728033822266242e-001
2505:-1.9756974499433605e-001
2506:-1.8423304598019161e-001
2507:-1.7355413915276463e-001
2508:-2.0051337095372593e-001
2509:-1.9161970115889926e-001
2510:-1.7929363638954954e-001
2511:-1.6934002734056985e-001
2512:-1.7375048465335496e-001
2513:-1.6111541283142747e-001
2514:-1.4483418547276952e-001
2515:-1.3253936427831889e-001
2516:-1.7163460017571916e-001
2517:-1.5975860354024421e-001
2518:-1.4436642232251726e-001
2519:-1.3267360219831195e-001
2520:-1.6772902203597262e-001
2521:-1.5676800414600303e-001
2522:-1.4247752089515892e-001
2523:-1.3155767167733060e-001
2524:-1.6388232690742932e-001
2525:-1.5358180717889919e-001
2526:-1.4009848606489639e-001
2527:-1.2975588758315015e-001
2528:-1.2607077861536461e-001
2529:-1.1427309169817293e-001
2530:-9.9585236607935113e-002
2531:-8.8867872757709493e-002
2532:-1.2649721469613814e-001
2533:-1.1519567584387146e-001
2534:-1.0105800255884058e-001
2535:-9.0692375654586543e-002
2536:-1.2576689983164738e-001
2537:-1.1512702111999765e-001
2538:-1.0173251699076004e-001
2539:-9.1848177439899523e-002
2540:-1.2425751542215907e-001
2541:-1.1412590731350693e-001
2542:-1.0131410619595774e-001
2543:-9.1815948583356621e-002
2544:-8.3352831151605217e-002
2545:-7.3458314320280743e-002
2546:-6.1450169493542602e-002
2547:-5.2930083978244759e-002
2548:-8.5341575570501593e-002
2549:-7.5717253424986170e-002
2550:-6.3989557322511284e-002
2551:-5.5630616747628675e-002
2552:-8.6724245158817465e-002
2553:-7.7481211387883456e-002
2554:-6.6167208321104010e-002
2555:-5.8062294691565652e-002
2556:-8.6877174486813133e-002
2557:-7.7950498327884393e-002
2558:-6.6990154878883615e-002
2559:-5.9111354918648440e-002
2560:-4.8632713890630480e-002
2561:-4.1072964098913721e-002
2562:-3.2191907655454266e-002
2563:-2.6121735521492315e-002
2564:-5.1400763285289003e-002
2565:-4.3938919694242150e-002
2566:-3.5132012182946655e-002
2567:-2.9079274328821101e-002
2568:-5.3945994730019230e-002
2569:-4.6660119236046037e-002
2570:-3.8012785896407365e-002
2571:-3.2030628785746328e-002
2572:-5.5099809994960516e-002
2573:-4.7982823997749724e-002
2574:-3.9503276922337405e-002
2575:-3.3610722436616509e-002
2576:-2.3143908971709818e-002
2577:-1.8044701836163794e-002
2578:-1.2334993928275957e-002
2579:-8.6654634966339926e-003
2580:-2.6097481382531297e-002
2581:-2.0970079380410674e-002
2582:-1.5184281045047435e-002
2583:-1.1426897731588326e-002
2584:-2.9068981449772897e-002
2585:-2.3952215728871868e-002
2586:-1.8128599661442975e-002
2587:-1.4303103694481371e-002
2588:-3.0683595317154342e-002
2589:-2.5610751485533042e-002
2590:-1.9804470173488027e-002
2591:-1.5961791407818143e-002
2592:-6.9545036050885174e-003
2593:-4.1771490991704069e-003
2594:-1.3783683656872676e-003
2595:1.5381253985584606e-004
2596:-9.6589276744992927e-003
2597:-6.7573644101737154e-003
2598:-3.7631841987585480e-003
2599:-2.0557701369883045e-003
2600:-1.2485268068473434e-002
2601:-9.4675769993767499e-003
2602:-6.2786038332048903e-003
2603:-4.3890873802973802e-003
2604:-1.4124188327847969e-002
2605:-1.1052108884069031e-002
2606:-7.7592860376746011e-003
2607:-5.7654448322945820e-003
2608:7.6231184591241802e-004
2609:1.5851307316363285e-003
2610:2.0740770396923043e-003
2611:2.0265932779585365e-003
2612:-1.3448937947186583e-003
2613:-3.1319021721956599e-004
2614:4.8148176359707790e-004
2615:6.9404396221229648e-004
2616:-3.5697509072186726e-003
2617:-2.3149985300558408e-003
2618:-1.1915072668055614e-003
2619:-6.9806088374442467e-004
2620:-4.8820367269993914e-003
2621:-3.4939502648513700e-003
2622:-2.1718324075767487e-003
2623:-1.5077040674223695e-003
2624:1.8661828483827420e-003
2625:1.4476553256577446e-003
2626:7.4283428539094823e-004
2627:1.2328883447770107e-004
2628:6.8149435649551729e-004
2629:5.5942480359259100e-004
2630:2.7967526532249901e-004
2631:1.5920038800133919e-005
2632:-5.5081396491906819e-004
2633:-3.5562581830399752e-004
2634:-1.8782142678901804e-004
2635:-8.2961207450142250e-005
2636:-1.2632986509258537e-003
2637:-8.7801553092260829e-004
2638:-4.4869970992910497e-004
2639:-1.3399909143507822e-004
2640:-6.4046179215958366e-003
2641:-2.9601693455723530e-002
2642:-5.9249987668650438e-002
2643:-8.1399661656627750e-002
2644:-6.1007971960602659e-003
2645:-2.7996447754109154e-002
2646:-5.5831241168837163e-002
2647:-7.6511674149834411e-002
2648:-5.4656528711004588e-003
2649:-2.5665952027541742e-002
2650:-5.1242382091856213e-002
2651:-7.0173498153172337e-002
2652:-4.9154719053108708e-003
2653:-2.3705136684026604e-002
2654:-4.7527158655896247e-002
2655:-6.5196658383556275e-002
2656:-9.2946971135166701e-002
2657:-1.1367860708299188e-001
2658:-1.3864823992772271e-001
2659:-1.5604895926569243e-001
2660:-8.7250499945359786e-002
2661:-1.0644648855673303e-001
2662:-1.2953554374649426e-001
2663:-1.4573438187421633e-001
2664:-7.9980368537553401e-002
2665:-9.7477509943092247e-002
2666:-1.1853997173806120e-001
2667:-1.3340899011216997e-001
2668:-7.4367634982302033e-002
2669:-9.0771656974680925e-002
2670:-1.1058283006929848e-001
2671:-1.2460106813751472e-001
2672:-1.6465102738762083e-001
2673:-1.7930204307051670e-001
2674:-1.9553274595614281e-001
2675:-2.0583836584323739e-001
2676:-1.5382534003485734e-001
2677:-1.6778733510736646e-001
2678:-1.8353951785351433e-001
2679:-1.9369799130933887e-001
2680:-1.4089332672200319e-001
2681:-1.5390501997313721e-001
2682:-1.6872454659702327e-001
2683:-1.7834932892243049e-001
2684:-1.3166196210146827e-001
2685:-1.4392132823559392e-001
2686:-1.5786092931217718e-001
2687:-1.6690857047469146e-001
2688:-2.1058831769377101e-001
2689:-2.1798397481997270e-001
2690:-2.2467161531546301e-001
2691:-2.2756953951863024e-001
2692:-1.9841615217722930e-001
2693:-2.0581089348723250e-001
2694:-2.1261886418668399e-001
2695:-2.1570949851652768e-001
2696:-1.8283504985518440e-001
2697:-1.8995128573962730e-001
2698:-1.9671860238442357e-001
2699:-2.0002415409495028e-001
2700:-1.7113046268304904e-001
2701:-1.7789748791476720e-001
2702:-1.8449780756400627e-001
2703:-1.8788729408962557e-001
2704:-2.2835042138889039e-001
2705:-2.2864137417487462e-001
2706:-2.2680470567092997e-001
2707:-2.2373230382757020e-001
2708:-2.1662953598813892e-001
2709:-2.1723019903346211e-001
2710:-2.1590251316904155e-001
2711:-2.1331384560115862e-001
2712:-2.0113960654945048e-001
2713:-2.0215412366986993e-001
2714:-2.0144692670050923e-001
2715:-1.9940457293311392e-001
2716:-1.8911521290134056e-001
2717:-1.9038399667091829e-001
2718:-1.9007706914097816e-001
2719:-1.8839462430849865e-001
2720:-2.2152448822623250e-001
2721:-2.1650327808148401e-001
2722:-2.0835879464233750e-001
2723:-2.0098169751250752e-001
2724:-2.1139981036434691e-001
2725:-2.0697678939830608e-001
2726:-1.9968539134340704e-001
2727:-1.9300402844826137e-001
2728:-1.9780994192553333e-001
2729:-1.9404639233080853e-001
2730:-1.8771602854614672e-001
2731:-1.8183100517840256e-001
2732:-1.8701138840205050e-001
2733:-1.8368918606737372e-001
2734:-1.7801028869619978e-001
2735:-1.7266971313973128e-001
2736:-1.9668679569023476e-001
2737:-1.8820038674816089e-001
2738:-1.7638530000148481e-001
2739:-1.6680393329526971e-001
2740:-1.8908955492534940e-001
2741:-1.8131218726747739e-001
2742:-1.7040266346429583e-001
2743:-1.6149479905868513e-001
2744:-1.7835584574753807e-001
2745:-1.7140771603603333e-001
2746:-1.6158135524913478e-001
2747:-1.5350058670011335e-001
2748:-1.6949623079477791e-001
2749:-1.6312199632264374e-001
2750:-1.5405676446719052e-001
2751:-1.4656822574161471e-001
2752:-1.6153665678189569e-001
2753:-1.5157889879176056e-001
2754:-1.3851501798937466e-001
2755:-1.2847315956217184e-001
2756:-1.5657712461360387e-001
2757:-1.4725051050260302e-001
2758:-1.3496003938467779e-001
2759:-1.2547263391385968e-001
2760:-1.4902038685884791e-001
2761:-1.4048963811674825e-001
2762:-1.2918236346906253e-001
2763:-1.2040404260535878e-001
2764:-1.4240576845790129e-001
2765:-1.3445978003085440e-001
2766:-1.2388616403357204e-001
2767:-1.1564431112782650e-001
2768:-1.2312761062863294e-001
2769:-1.1326439000531793e-001
2770:-1.0076586697769478e-001
2771:-9.1479646252031352e-002
2772:-1.2040878494163051e-001
2773:-1.1104469810457816e-001
2774:-9.9138473186069526e-002
2775:-9.0260710229358609e-002
2776:-1.1570171137733457e-001
2777:-1.0698569466875188e-001
2778:-9.5864261625482380e-002
2779:-8.7540053509905971e-002
2780:-1.1121778488964783e-001
2781:-1.0300097036125136e-001
2782:-9.2493257061505893e-002
2783:-8.4608840740757696e-002
2784:-8.6644003067673683e-002
2785:-7.7895031069461676e-002
2786:-6.7136043547072144e-002
2787:-5.9388203023395751e-002
2788:-8.5626608957525913e-002
2789:-7.7227323559570057e-002
2790:-6.6868961254766338e-002
2791:-5.9385479066694308e-002
2792:-8.3183460813152102e-002
2793:-7.5270395011056687e-002
2794:-6.5478178151724797e-002
2795:-5.8376114401474076e-002
2796:-8.0475124495352823e-002
2797:-7.2956203707773226e-002
2798:-6.3630297539804287e-002
2799:-5.6848653631990931e-002
2800:-5.5438220682557313e-002
2801:-4.8422423767210253e-002
2802:-4.0047652540159323e-002
2803:-3.4215125008495176e-002
2804:-5.5561353463306248e-002
2805:-4.8756070026871295e-002
2806:-4.0606901844795408e-002
2807:-3.4910390740338887e-002
2808:-5.4736776505996412e-002
2809:-4.8247060836614092e-002
2810:-4.0449185121542906e-002
2811:-3.4975614337758802e-002
2812:-5.3367019896171229e-002
2813:-4.7150881643920013e-002
2814:-3.9665824273515400e-002
2815:-3.4397510502961220e-002
2816:-3.1313076513242354e-002
2817:-2.6276171106543064e-002
2818:-2.0495341119081915e-002
2819:-1.6655760665308491e-002
2820:-3.2068110855357823e-002
2821:-2.7122366539372136e-002
2822:-2.1419933134740537e-002
2823:-1.7609440948707648e-002
2824:-3.2235889611008005e-002
2825:-2.7454954581330140e-002
2826:-2.1914138265165313e-002
2827:-1.8186775487112748e-002
2828:-3.1754840918366965e-002
2829:-2.7134687237580085e-002
2830:-2.1762417408389096e-002
2831:-1.8132863190498182e-002
2832:-1.4814082324727959e-002
2833:-1.1725159761516134e-002
2834:-8.3929734224676943e-003
2835:-6.3559491821689237e-003
2836:-1.5772469332516907e-002
2837:-1.2675281603409654e-002
2838:-9.2999722200213797e-003
2839:-7.2056305582569695e-003
2840:-1.6379960230576501e-002
2841:-1.3317211731643082e-002
2842:-9.9448219872675988e-003
2843:-7.8210239447764774e-003
2844:-1.6367301725734258e-002
2845:-1.3364944735264494e-002
2846:-1.0038918338185498e-002
2847:-7.9260561321622056e-003
2848:-5.4451121726862050e-003
2849:-3.9992341849477463e-003
2850:-2.5901073909335194e-003
2851:-1.8507735668292942e-003
2852:-6.2560384483962839e-003
2853:-4.7265429951309718e-003
2854:-3.1889340635045537e-003
2855:-2.3372844192103459e-003
2856:-6.8450365323673790e-003
2857:-5.2533032977382420e-003
2858:-3.6131138343608819e-003
2859:-2.6683940558308722e-003
2860:-6.9476019001853285e-003
2861:-5.3423386358943028e-003
2862:-3.6704672324345275e-003
2863:-2.6926656847387257e-003
2864:-1.5635369448014113e-003
2865:-1.0956705103666500e-003
2866:-5.5569080891455607e-004
2867:-1.5471860374924410e-004
2868:-1.9859640710756417e-003
2869:-1.3971782071662510e-003
2870:-7.0171814198170010e-004
2871:-1.8534869132567832e-004
2872:-2.2636017536881532e-003
2873:-1.5802894714822928e-003
2874:-7.7945833291631454e-004
2875:-1.9981395937488278e-004
2876:-2.2683708064586386e-003
2877:-1.5579256904903595e-003
2878:-7.4675370373993813e-004
2879:-1.8207692488963033e-004
2880:-4.6392409718607362e-003
2881:-2.2613693815118224e-002
2882:-4.5466214545534005e-002
2883:-6.2474994273996637e-002
2884:-4.2277030827326690e-003
2885:-2.0708713050821843e-002
2886:-4.1757520209794674e-002
2887:-5.7511193571904665e-002
2888:-3.8362680823816613e-003
2889:-1.8493835264376209e-002
2890:-3.7262714264249458e-002
2891:-5.1359758932661301e-002
2892:-3.5775985486962607e-003
2893:-1.6949407445142606e-002
2894:-3.4047605985089782e-002
2895:-4.6875792908938833e-002
2896:-7.1327098251730059e-002
2897:-8.7206338437764194e-002
2898:-1.0643647922033618e-001
2899:-1.2004863778855324e-001
2900:-6.5746197539386750e-002
2901:-8.0586885533026509e-002
2902:-9.8640653661090469e-002
2903:-1.1143186583498045e-001
2904:-5.8750445262015553e-002
2905:-7.2111260328381416e-002
2906:-8.8422389921554503e-002
2907:-1.0000066175225060e-001
2908:-5.3597361508506768e-002
2909:-6.5740593009829845e-002
2910:-8.0567119800757703e-002
2911:-9.1110472474756898e-002
2912:-1.2689482781929126e-001
2913:-1.3874901338229279e-001
2914:-1.5218714204584974e-001
2915:-1.6090058936905288e-001
2916:-1.1785257261427697e-001
2917:-1.2893269338111274e-001
2918:-1.4145816537938574e-001
2919:-1.4959077374560514e-001
2920:-1.0581302783462604e-001
2921:-1.1584185266898181e-001
2922:-1.2720557855742934e-001
2923:-1.3463512196334965e-001
2924:-9.6415622228969600e-002
2925:-1.0559513635182660e-001
2926:-1.1605103521525133e-001
2927:-1.2293476446305683e-001
2928:-1.6497195172265813e-001
2929:-1.7153077193508318e-001
2930:-1.7800062320271476e-001
2931:-1.8139088070779805e-001
2932:-1.5340769011168440e-001
2933:-1.5959634397673902e-001
2934:-1.6578150170424766e-001
2935:-1.6909502360477838e-001
2936:-1.3814921237907307e-001
2937:-1.4386449236248766e-001
2938:-1.4960323015760749e-001
2939:-1.5270059018689078e-001
2940:-1.2620810692182538e-001
2941:-1.3152999816500868e-001
2942:-1.3686541442004854e-001
2943:-1.3974040721793726e-001
2944:-1.8265119221927434e-001
2945:-1.8401193416575884e-001
2946:-1.8387859657094446e-001
2947:-1.8236848205256639e-001
2948:-1.7036079410827151e-001
2949:-1.7180384319015160e-001
2950:-1.7191086083990004e-001
2951:-1.7068142475108031e-001
2952:-1.5389587966612944e-001
2953:-1.5531606496793379e-001
2954:-1.5560193454569007e-001
2955:-1.5465875824602240e-001
2956:-1.4085015567906967e-001
2957:-1.4219596350370367e-001
2958:-1.4254697655220397e-001
2959:-1.4176698767204904e-001
2960:-1.8109045472736546e-001
2961:-1.7798883098239635e-001
2962:-1.7263590583334193e-001
2963:-1.6756789481470885e-001
2964:-1.6958474967714773e-001
2965:-1.6686605005113270e-001
2966:-1.6208324488318626e-001
2967:-1.5749697262418366e-001
2968:-1.5376251160564436e-001
2969:-1.5147463764160715e-001
2970:-1.4734845508278752e-001
2971:-1.4333217613159238e-001
2972:-1.4099327172474330e-001
2973:-1.3897720656152510e-001
2974:-1.3528370331491094e-001
2975:-1.3165937890942908e-001
2976:-1.6454547473068040e-001
2977:-1.5845920547255932e-001
2978:-1.4977786330270670e-001
2979:-1.4259019230713407e-001
2980:-1.5474388155656257e-001
2981:-1.4917574042447576e-001
2982:-1.4119205878541541e-001
2983:-1.3455430490489928e-001
2984:-1.4090420505102269e-001
2985:-1.3597341634927410e-001
2986:-1.2886537895738320e-001
2987:-1.2292592340761974e-001
2988:-1.2946139310714463e-001
2989:-1.2499244339205881e-001
2990:-1.1853514421686782e-001
2991:-1.1312261048409580e-001
2992:-1.3859017276814745e-001
2993:-1.3094610599312828e-001
2994:-1.2075681531588776e-001
2995:-1.1279981299788745e-001
2996:-1.3085183132183142e-001
2997:-1.2376479584358885e-001
2998:-1.1429308517388831e-001
2999:-1.0687462041823784e-001
3000:-1.1960286548917928e-001
3001:-1.1323253394000041e-001
3002:-1.0469782735350965e-001
3003:-9.7993493233467260e-002
3004:-1.1008753113778737e-001
3005:-1.0426508145244268e-001
3006:-9.6454795738758078e-002
3007:-9.0309024635736507e-002
3008:-1.0852094064774023e-001
3009:-1.0057274864342419e-001
3010:-9.0397639354123885e-002
3011:-8.2753255854900162e-002
3012:-1.0287725337817295e-001
3013:-9.5443623767444877e-002
3014:-8.5909820546075613e-002
3015:-7.8731372606142117e-002
3016:-9.4373328527830300e-002
3017:-8.7634079333119896e-002
3018:-7.8974486081910156e-002
3019:-7.2437793810906745e-002
3020:-8.6986239366673143e-002
3021:-8.0798248314988816e-002
3022:-7.2839810301019561e-002
3023:-6.6823180670514404e-002
3024:-7.8741768483929997e-002
3025:-7.1440329518555820e-002
3026:-6.2374480227003190e-002
3027:-5.5773812328418701e-002
3028:-7.4958290853549520e-002
3029:-6.8083889795663266e-002
3030:-5.9534151659423024e-002
3031:-5.3296720014163433e-002
3032:-6.8995471467790545e-002
3033:-6.2718733394069651e-002
3034:-5.4901029571892815e-002
3035:-4.9185806761583642e-002
3036:-6.3650791997379386e-002
3037:-5.7865311265024304e-002
3038:-5.0655646524770427e-002
3039:-4.5378632268968662e-002
3040:-5.2382116575497469e-002
3041:-4.6323287010573616e-002
3042:-3.9020532681398191e-002
3043:-3.3873773287985021e-002
3044:-5.0086929481513658e-002
3045:-4.4348125993157357e-002
3046:-3.7420046151930196e-002
3047:-3.2526458218463637e-002
3048:-4.6239869679050936e-002
3049:-4.0968560593980546e-002
3050:-3.4594662390030652e-002
3051:-3.0081606909471880e-002
3052:-4.2655565114021472e-002
3053:-3.7781397555802058e-002
3054:-3.1883020374448408e-002
3055:-2.7700624637161192e-002
3056:-3.1289319587655455e-002
3057:-2.6766991320065225e-002
3058:-2.1500312941996055e-002
3059:-1.7934927720733504e-002
3060:-3.0064634752551431e-002
3061:-2.5750997555927115e-002
3062:-2.0715005452394589e-002
3063:-1.7294588360730771e-002
3064:-2.7806582251917809e-002
3065:-2.3815304783091015e-002
3066:-1.9144659654447359e-002
3067:-1.5961515480759074e-002
3068:-2.5589570895379825e-002
3069:-2.1884014823052210e-002
3070:-1.7542611511361605e-002
3071:-1.4577775502161437e-002
3072:-1.6197756285127259e-002
3073:-1.3239518935926725e-002
3074:-9.9535594104692617e-003
3075:-7.8580969209504151e-003
3076:-1.5623568480599691e-002
3077:-1.2771744442134282e-002
3078:-9.5908354063595127e-003
3079:-7.5503030015312157e-003
3080:-1.4401879203326138e-002
3081:-1.1734644418983756e-002
3082:-8.7482021235771989e-003
3083:-6.8218639811266904e-003
3084:-1.3122372176213893e-002
3085:-1.0630856826253733e-002
3086:-7.8360930469557194e-003
3087:-6.0285986976174296e-003
3088:-6.8844298073051143e-003
3089:-5.2836051020841079e-003
3090:-3.6106588153437358e-003
3091:-2.6279556265191811e-003
3092:-6.5973341963783882e-003
3093:-5.0269189513338954e-003
3094:-3.3808931114928482e-003
3095:-2.4111401862264891e-003
3096:-5.9181369804745922e-003
3097:-4.4285296093325658e-003
3098:-2.8698016110956623e-003
3099:-1.9554545037131091e-003
3100:-5.1788692359089660e-003
3101:-3.7805463127384927e-003
3102:-2.3244014813574932e-003
3103:-1.4775973367448267e-003
3104:-2.2003664837362893e-003
3105:-1.4904764694079083e-003
3106:-6.9725651943825743e-004
3107:-1.6181964879296258e-004
3108:-1.9892175588188707e-003
3109:-1.3045388317706576e-003
3110:-5.8165736152022019e-004
3111:-1.3398137765190151e-004
3112:-1.5609506199781881e-003
3113:-9.4841175837383847e-004
3114:-3.7422064268534199e-004
3115:-9.0836451774437639e-005
3116:-1.1166391425593983e-003
3117:-5.8240888198097466e-004
3118:-1.5291737709919454e-004
3119:-2.0920431126705496e-005
3120:-3.4309134373502080e-003
3121:-1.6154252542491646e-002
3122:-3.2388943109870318e-002
3123:-4.4543899751547419e-002
3124:-3.0879457498447674e-003
3125:-1.4526170694962953e-002
3126:-2.9072698145402438e-002
3127:-3.9932214770555294e-002
3128:-2.5400325147373649e-003
3129:-1.2121440648844115e-002
3130:-2.4277820476572842e-002
3131:-3.3347939678502969e-002
3132:-2.0807933809296906e-003
3133:-1.0084762181975081e-002
3134:-2.0237758795329297e-002
3135:-2.7834145226637526e-002
3136:-5.0903615743728606e-002
3137:-6.2374209225561070e-002
3138:-7.6364201319175248e-002
3139:-8.6322559806337101e-002
3140:-4.5603522510528842e-002
3141:-5.5801269087874389e-002
3142:-6.8210412858056138e-002
3143:-7.7055980840871119e-002
3144:-3.8086095518155463e-002
3145:-4.6581622136323275e-002
3146:-5.6894046527178749e-002
3147:-6.4253286745068250e-002
3148:-3.1814884380018553e-002
3149:-3.8948323841930116e-002
3150:-4.7601820499884644e-002
3151:-5.3781642077170094e-002
3152:-9.1343613106131691e-002
3153:-1.0005144529243121e-001
3154:-1.1000352689756293e-001
3155:-1.1657738779636957e-001
3156:-8.1530704309135199e-002
3157:-8.9313098666020871e-002
3158:-9.8241377774327121e-002
3159:-1.0415909979333242e-001
3160:-6.7986514820439936e-002
3161:-7.4480301673737856e-002
3162:-8.1927536066504200e-002
3163:-8.6861722269061845e-002
3164:-5.6919492002956679e-002
3165:-6.2361864218920426e-002
3166:-6.8576975390853820e-002
3167:-7.2683208671497648e-002
3168:-1.1970927766642657e-001
3169:-1.2479840155582533e-001
3170:-1.2989568262439707e-001
3171:-1.3264171589519569e-001
3172:-1.0698324040046094e-001
3173:-1.1157180078837840e-001
3174:-1.1617150012882253e-001
3175:-1.1865954486505544e-001
3176:-8.9216084240774748e-002
3177:-9.3045722115608492e-002
3178:-9.6900439727599888e-002
3179:-9.9005743521993206e-002
3180:-7.4641298310903617e-002
3181:-7.7828778158582981e-002
3182:-8.1043861377049650e-002
3183:-8.2807125668018691e-002
3184:-1.3370307316072313e-001
3185:-1.3500191455279800e-001
3186:-1.3537166349117893e-001
3187:-1.3466073593417580e-001
3188:-1.1962807879192119e-001
3189:-1.2082966366499237e-001
3190:-1.2121198795418835e-001
3191:-1.2060830497287657e-001
3192:-9.9835699156004737e-002
3193:-1.0087342280532437e-001
3194:-1.0121982871177305e-001
3195:-1.0071992986552424e-001
3196:-8.3505228320131228e-002
3197:-8.4371872556615782e-002
3198:-8.4642904576433503e-002
3199:-8.4200141488276717e-002
3200:-1.3394078529550815e-001
3201:-1.3204848878706729e-001
3202:-1.2856153692162969e-001
3203:-1.2513171717438226e-001
3204:-1.1997699025191917e-001
3205:-1.1830211048632548e-001
3206:-1.1519713202777986e-001
3207:-1.1213478491270736e-001
3208:-1.0018906782547227e-001
3209:-9.8786211308485139e-002
3210:-9.6189947698037445e-002
3211:-9.3625922252396340e-002
3212:-8.3741017041333507e-002
3213:-8.2549164895259389e-002
3214:-8.0363076124909796e-002
3215:-7.8202933490058107e-002
3216:-1.2305047457297524e-001
3217:-1.1882013132527718e-001
3218:-1.1270524016961689e-001
3219:-1.0757319010404716e-001
3220:-1.1027521061932841e-001
3221:-1.0649909837886569e-001
3222:-1.0103957680705064e-001
3223:-9.6448209213909147e-002
3224:-9.2066944289771357e-002
3225:-8.8906645250024355e-002
3226:-8.4339332273934489e-002
3227:-8.0490101304762821e-002
3228:-7.6886407268520141e-002
3229:-7.4221831607370684e-002
3230:-7.0374242820302718e-002
3231:-6.7127361470478847e-002
3232:-1.0469214672189514e-001
3233:-9.9163858884141684e-002
3234:-9.1744686647517379e-002
3235:-8.5902158863374017e-002
3236:-9.3865784905271921e-002
3237:-8.8910629360109239e-002
3238:-8.2257952366875262e-002
3239:-7.7012207298417651e-002
3240:-7.8320603698918662e-002
3241:-7.4163379528832923e-002
3242:-6.8586114099950787e-002
3243:-6.4182086815481737e-002
3244:-6.5295008746892050e-002
3245:-6.1792944643442788e-002
3246:-5.7104235796216131e-002
3247:-5.3398597409234895e-002
3248:-8.2741436004942867e-002
3249:-7.6855191619230559e-002
3250:-6.9283097558815052e-002
3251:-6.3554923314123740e-002
3252:-7.4171081266043590e-002
3253:-6.8881596496051384e-002
3254:-6.2076806717393969e-002
3255:-5.6923830642028016e-002
3256:-6.1792812994779525e-002
3257:-5.7349733754064790e-002
3258:-5.1638331142495414e-002
3259:-4.7308570525448276e-002
3260:-5.1384929189645281e-002
3261:-4.7647035322430094e-002
3262:-4.2849587769524432e-002
3263:-3.9210026522210978e-002
3264:-6.0532912023673023e-002
3265:-5.5022154063878982e-002
3266:-4.8154367945355922e-002
3267:-4.3125026520579937e-002
3268:-5.4202438367445246e-002
3269:-4.9241924976477308e-002
3270:-4.3060950527003893e-002
3271:-3.8530856556235712e-002
3272:-4.5018575315848609e-002
3273:-4.0849277380164625e-002
3274:-3.5659152339319052e-002
3275:-3.1852086321215771e-002
3276:-3.7282388913425168e-002
3277:-3.3778634654193389e-002
3278:-2.9423959448909288e-002
3279:-2.6228235606737781e-002
3280:-4.0528343730065787e-002
3281:-3.5880109030053974e-002
3282:-3.0253770404744730e-002
3283:-2.6261842145084858e-002
3284:-3.6189578365906312e-002
3285:-3.1999135929779772e-002
3286:-2.6926372665118790e-002
3287:-2.3323877284700704e-002
3288:-2.9881778794035512e-002
3289:-2.6358272824663014e-002
3290:-2.2095803625867862e-002
3291:-1.9066256407989299e-002
3292:-2.4572266780065018e-002
3293:-2.1615071025594096e-002
3294:-1.8042866751635831e-002
3295:-1.5503071357013820e-002
3296:-2.4245746962706319e-002
3297:-2.0706435280921309e-002
3298:-1.6558106039552378e-002
3299:-1.3722524108577779e-002
3300:-2.1502596290896427e-002
3301:-1.8305244043777799e-002
3302:-1.4556012778068247e-002
3303:-1.1989432644448437e-002
3304:-1.7532616415104077e-002
3305:-1.4841597166689533e-002
3306:-1.1686518286440529e-002
3307:-9.5234809297402977e-003
3308:-1.4215886698952058e-002
3309:-1.1959585710634697e-002
3310:-9.3166431012350198e-003
3311:-7.5033769833043468e-003
3312:-1.2329308753948739e-002
3313:-9.9434303523219247e-003
3314:-7.2656155996843668e-003
3315:-5.5322140023678929e-003
3316:-1.0726406464212879e-002
3317:-8.5628653080193542e-003
3318:-6.1334850590219307e-003
3319:-4.5593531588309505e-003
3320:-8.4570343583156432e-003
3321:-6.6307891890669234e-003
3322:-4.5810745448922009e-003
3323:-3.2524602101058815e-003
3324:-6.6080975331662475e-003
3325:-5.0761268933776109e-003
3326:-3.3584276292982374e-003
3327:-2.2449667873125018e-003
3328:-4.7167913901383805e-003
3329:-3.3768468983799279e-003
3330:-1.9866723542534830e-003
3331:-1.1833919727775402e-003
3332:-3.8183361327649044e-003
3333:-2.6048622799601691e-003
3334:-1.3571289782344962e-003
3335:-6.4754317519609569e-004
3336:-2.6268036914211730e-003
3337:-1.6086308378762647e-003
3338:-5.7912922377981581e-004
3339:-1.1946447621616270e-005
3340:-1.7204622798821726e-003
3341:-8.7262139234588329e-004
3342:-3.1564088299222797e-005
3343:4.1403188480894885e-004
3344:-8.4390241892867137e-004
3345:-3.5743103125269104e-004
3346:-1.1960454644430660e-005
3347:3.4396627372802371e-005
3348:-3.5399235092647090e-004
3349:3.4765881567414463e-005
3350:2.1797859485310950e-004
3351:1.0543572669314553e-004
3352:2.1263231655095367e-004
3353:4.6562888264747192e-004
3354:4.4642402388337060e-004
3355:1.5084546217710218e-004
3356:5.8066651245812148e-004
3357:7.3011350479494782e-004
3358:5.7905911125897278e-004
3359:1.7975873755706476e-004
3360:-1.8338582406436858e-003
3361:-8.9387862528493168e-003
3362:-1.7955075131950625e-002
3363:-2.4720452176152950e-002
3364:-1.3733169818918268e-003
3365:-6.6952271490464659e-003
3366:-1.3440660571312248e-002
3367:-1.8528040501864729e-002
3368:-7.3337513511399657e-004
3369:-3.5279008226189964e-003
3370:-7.0300394708130631e-003
3371:-9.6913403559844430e-003
3372:-1.7099013803012852e-004
3373:-8.5891109221152191e-004
3374:-1.6511891216349505e-003
3375:-2.2730427547799172e-003
3376:-2.8276502836300170e-002
3377:-3.4652210069521960e-002
3378:-4.2389651949049714e-002
3379:-4.7918427438895621e-002
3380:-2.1218625649106520e-002
3381:-2.6039663294022748e-002
3382:-3.1887704923732496e-002
3383:-3.6075467573641808e-002
3384:-1.1116579348076546e-002
3385:-1.3639791366022181e-002
3386:-1.6668354184033528e-002
3387:-1.8854584909736655e-002
3388:-2.6275165219540202e-003
3389:-3.1878059988237977e-003
3390:-3.7853445369457547e-003
3391:-4.2420778783708989e-003
3392:-5.0726148549691590e-002
3393:-5.5582907018047668e-002
3394:-6.1109860660740041e-002
3395:-6.4755131379745368e-002
3396:-3.8206981915473726e-002
3397:-4.1874982345430342e-002
3398:-4.6023361486474429e-002
3399:-4.8757005854022900e-002
3400:-1.9983263153923694e-002
3401:-2.1905008462264265e-002
3402:-2.4053293000073670e-002
3403:-2.5476759313776114e-002
3404:-4.5070743675676471e-003
3405:-4.9310017518287225e-003
3406:-5.3693660931873610e-003
3407:-5.6712619646800749e-003
3408:-6.6493815210594776e-002
3409:-6.9323471719397178e-002
3410:-7.2174719359149889e-002
3411:-7.3734977472520460e-002
3412:-5.0064905238527600e-002
3413:-5.2187928096688943e-002
3414:-5.4312500119718513e-002
3415:-5.5462255173158274e-002
3416:-2.6167694193694847e-002
3417:-2.7277615211234070e-002
3418:-2.8364076770165027e-002
3419:-2.8937521682847526e-002
3420:-5.8320724326993006e-003
3421:-6.0767313145075573e-003
3422:-6.2953129385708859e-003
3423:-6.4097865809820574e-003
3424:-7.4350614216726660e-002
3425:-7.5106344679644360e-002
3426:-7.5320293193286189e-002
3427:-7.4903227506040074e-002
3428:-5.5910206680451664e-002
3429:-5.6448341822999050e-002
3430:-5.6567269895207453e-002
3431:-5.6220328874130192e-002
3432:-2.9157150841151228e-002
3433:-2.9420287321587600e-002
3434:-2.9465393526029806e-002
3435:-2.9264130797010731e-002
3436:-6.4596264198780512e-003
3437:-6.5386834331037343e-003
3438:-6.5817468012392332e-003
3439:-6.5384760265802325e-003
3440:-7.4483021693429005e-002
3441:-7.3408697878391341e-002
3442:-7.1452702958250000e-002
3443:-6.9518435271262724e-002
3444:-5.5887227320664451e-002
3445:-5.5059492017928181e-002
3446:-5.3572093041623595e-002
3447:-5.2096135254697043e-002
3448:-2.9074879194914038e-002
3449:-2.8624926650721028e-002
3450:-2.7830872349760092e-002
3451:-2.7031990244218505e-002
3452:-6.4828504388329223e-003
3453:-6.3673468999359169e-003
3454:-6.1742418002145418e-003
3455:-5.9633014164410360e-003
3456:-6.8336899546221644e-002
3457:-6.5948035472240707e-002
3458:-6.2501117359131067e-002
3459:-5.9590474898588312e-002
3460:-5.1189759749258025e-002
3461:-4.9367057457115948e-002
3462:-4.6746962203844979e-002
3463:-4.4529573829764926e-002
3464:-2.6535396151512392e-002
3465:-2.5562831952891454e-002
3466:-2.4189261649259573e-002
3467:-2.3013577017623448e-002
3468:-5.8251664046844887e-003
3469:-5.5994444922257865e-003
3470:-5.3213520427555887e-003
3471:-5.0570460078709972e-003
3472:-5.7946811860246930e-002
3473:-5.4812341271122805e-002
3474:-5.0623577157910105e-002
3475:-4.7311621736392251e-002
3476:-4.3273745657106483e-002
3477:-4.0892407269491199e-002
3478:-3.7724547352332286e-002
3479:-3.5215018630613625e-002
3480:-2.2337402918379615e-002
3481:-2.1076300705121641e-002
3482:-1.9419504595541266e-002
3483:-1.8094372406064936e-002
3484:-4.8854250306523232e-003
3485:-4.5956223587930228e-003
3486:-4.2438290559582261e-003
3487:-3.9393215990663963e-003
3488:-4.5509859804547852e-002
3489:-4.2170211271088991e-002
3490:-3.7889629971341668e-002
3491:-3.4640871014813300e-002
3492:-3.3844968573255738e-002
3493:-3.1316589507819063e-002
3494:-2.8088470255949190e-002
3495:-2.5634802190121746e-002
3496:-1.7361032711927432e-002
3497:-1.6028245983877878e-002
3498:-1.4348710429493138e-002
3499:-1.3062459123493422e-002
3500:-3.7542876196028142e-003
3501:-3.4498728119495077e-003
3502:-3.0994277808713811e-003
3503:-2.8125480596346338e-003
3504:-3.2918551024722117e-002
3505:-2.9792110419579958e-002
3506:-2.5911524098833481e-002
3507:-2.3063123803991826e-002
3508:-2.4329861960118083e-002
3509:-2.1969777365464637e-002
3510:-1.9050936032170201e-002
3511:-1.6906331028174661e-002
3512:-1.2369302730193611e-002
3513:-1.1130836665442472e-002
3514:-9.6166043249173647e-003
3515:-8.4977905546536441e-003
3516:-2.6421053837314104e-003
3517:-2.3605550317744492e-003
3518:-2.0422086790539418e-003
3519:-1.7949993451366944e-003
3520:-2.1585905081325601e-002
3521:-1.8951016154717441e-002
3522:-1.5772168762543226e-002
3523:-1.3511840874425703e-002
3524:-1.5791062619885204e-002
3525:-1.3808281173169143e-002
3526:-1.1424360159038752e-002
3527:-9.7281869366057944e-003
3528:-7.9093644201150178e-003
3529:-6.8743135790893155e-003
3530:-5.6430356185913121e-003
3531:-4.7630341669218030e-003
3532:-1.6536229298616336e-003
3533:-1.4214932554132734e-003
3534:-1.1643558211621100e-003
3535:-9.7239929926420151e-004
3536:-1.2365421805750424e-002
3537:-1.0357636353448437e-002
3538:-8.0080102920936942e-003
3539:-6.3956135645539596e-003
3540:-8.8657364859956768e-003
3541:-7.3590194910662056e-003
3542:-5.6007132924501242e-003
3543:-4.3936314556526478e-003
3544:-4.3107956010017641e-003
3545:-3.5270196037712983e-003
3546:-2.6209732899692821e-003
3547:-1.9981559135949845e-003
3548:-8.6538519384153417e-004
3549:-6.8915060445323012e-004
3550:-4.9818498150608153e-004
3551:-3.6521421472230438e-004
3552:-5.5988519663724553e-003
3553:-4.2362898572047723e-003
3554:-2.7096248482560924e-003
3555:-1.7197882362479651e-003
3556:-3.7958966046079796e-003
3557:-2.7754136904496567e-003
3558:-1.6337134275331848e-003
3559:-8.9203779115292522e-004
3560:-1.6875685764979826e-003
3561:-1.1604634434629398e-003
3562:-5.7293118769956113e-004
3563:-1.8702996804973495e-004
3564:-2.9539572255425899e-004
3565:-1.8202061786210696e-004
3566:-5.8874330821226728e-005
3567:2.9536206156520891e-005
3568:-1.2532960939679264e-003
3569:-5.0267385428270429e-004
3570:2.3189290876463471e-004
3571:6.0972287338924530e-004
3572:-5.4148076482424278e-004
3573:1.6976616197296111e-005
3574:5.4774210773582042e-004
3575:8.0362224308635610e-004
3576:-1.7947297313685884e-006
3577:2.8748659779438251e-004
3578:5.4792147062169053e-004
3579:6.5980369098492123e-004
3580:7.7044285057683610e-005
3581:1.4612136290721297e-004
3582:1.9785162675841090e-004
3583:2.1358626172106820e-004
3584:7.4464205738044946e-004
3585:8.4212139342625212e-004
3586:6.3540672648296583e-004
3587:2.0030547352067830e-004
3588:8.8554015805399240e-004
3589:9.1054274680600199e-004
3590:6.5551258015679394e-004
3591:2.1157122102960136e-004
3592:6.8865462100149851e-004
3593:6.7170183174664283e-004
3594:4.6139080396204407e-004
3595:1.1260110695518696e-004
3596:2.1571850785011585e-004
3597:2.0679789148478787e-004
3598:1.0619451276550103e-004
3599:-9.8738029045270477e-005
3600:0.0000000000000000e+000
3601:0.0000000000000000e+000
3602:0.0000000000000000e+000
3603:0.0000000000000000e+000
3604:0.0000000000000000e+000
3605:0.0000000000000000e+000
3606:0.0000000000000000e+000
3607:0.0000000000000000e+000
3608:0.0000000000000000e+000
3609:0.0000000000000000e+000
3610:0.0000000000000000e+000
3611:0.0000000000000000e+000
3612:0.0000000000000000e+000
3613:0.0000000000000000e+000
3614:0.0000000000000000e+000
3615:0.0000000000000000e+000
3616:0.0000000000000000e+000
3617:0.0000000000000000e+000
3618:0.0000000000000000e+000
3619:0.0000000000000000e+000
3620:0.0000000000000000e+000
3621:0.0000000000000000e+000
3622:0.0000000000000000e+000
3623:0.0000000000000000e+000
3624:0.0000000000000000e+000
3625:0.0000000000000000e+000
3626:0.0000000000000000e+000
3627:0.0000000000000000e+000
3628:0.0000000000000000e+000
3629:0.0000000000000000e+000
3630:0.0000000000000000e+000
3631:0.0000000000000000e+000
3632:0.0000000000000000e+000
3633:0.0000000000000000e+000
3634:0.0000000000000000e+000
3635:0.0000000000000000e+000
3636:0.0000000000000000e+000
3637:0.0000000000000000e+000
3638:0.0000000000000000e+000
3639:0.0000000000000000e+000
3640:0.0000000000000000e+000
3641:0.0000000000000000e+000
3642:0.0000000000000000e+000
3643:0.0000000000000000e+000
3644:0.0000000000000000e+000
3645:0.0000000000000000e+000
3646:0.0000000000000000e+000
3647:0.0000000000000000e+000
3648:0.0000000000000000e+000
3649:0.0000000000000000e+000
3650:0.0000000000000000e+000
3651:0.0000000000000000e+000
3652:0.0000000000000000e+000
3653:0.0000000000000000e+000
3654:0.0000000000000000e+000
3655:0.0000000000000000e+000
3656:0.0000000000000000e+000
3657:0.0000000000000000e+000
3658:0.0000000000000000e+000
3659:0.0000000000000000e+000
3660:0.0000000000000000e+000
3661:0.0000000000000000e+000
3662:0.0000000000000000e+000
3663:0.0000000000000000e+000
3664:0.0000000000000000e+000
3665:0.0000000000000000e+000
3666:0.0000000000000000e+000
3667:0.0000000000000000e+000
3668:0.0000000000000000e+000
3669:0.0000000000000000e+000
3670:0.0000000000000000e+000
3671:0.0000000000000000e+000
3672:0.0000000000000000e+000
3673:0.0000000000000000e+000
3674:0.0000000000000000e+000
3675:0.0000000000000000e+000
3676:0.0000000000000000e+000
3677:0.0000000000000000e+000
3678:0.0000000000000000e+000
3679:0.0000000000000000e+000
3680:0.0000000000000000e+000
3681:0.0000000000000000e+000
3682:0.0000000000000000e+000
3683:0.0000000000000000e+000
3684:0.0000000000000000e+000
3685:0.0000000000000000e+000
3686:0.0000000000000000e+000
3687:0.0000000000000000e+000
3688:0.0000000000000000e+000
3689:0.0000000000000000e+000
3690:0.0000000000000000e+000
3691:0.0000000000000000e+000
3692:0.0000000000000000e+000
3693:0.0000000000000000e+000
3694:0.0000000000000000e+000
3695:0.0000000000000000e+000
3696:0.0000000000000000e+000
3697:0.0000000000000000e+000
3698:0.0000000000000000e+000
3699:0.0000000000000000e+000
3700:0.0000000000000000e+000
3701:0.0000000000000000e+000
3702:0.0000000000000000e+000
3703:0.0000000000000000e+000
3704:0.0000000000000000e+000
3705:0.0000000000000000e+000
3706:0.0000000000000000e+000
3707:0.0000000000000000e+000
3708:0.0000000000000000e+000
3709:0.0000000000000000e+000
3710:0.0000000000000000e+000
3711:0.0000000000000000e+000
3712:0.0000000000000000e+000
3713:0.0000000000000000e+000
3714:0.0000000000000000e+000
3715:0.0000000000000000e+000
3716:0.0000000000000000e+000
3717:0.0000000000000000e+000
3718:0.0000000000000000e+000
3719:0.0000000000000000e+000
3720:0.0000000000000000e+000
3721:0.0000000000000000e+000
3722:0.0000000000000000e+000
3723:0.0000000000000000e+000
3724:0.0000000000000000e+000
3725:0.0000000000000000e+000
3726:0.0000000000000000e+000
3727:0.0000000000000000e+000
3728:0.0000000000000000e+000
3729:0.0000000000000000e+000
3730:0.0000000000000000e+000
3731:0.0000000000000000e+000
3732:0.0000000000000000e+000
3733:0.0000000000000000e+000
3734:0.0000000000000000e+000
3735:0.0000000000000000e+000
3736:0.0000000000000000e+000
3737:0.0000000000000000e+000
3738:0.0000000000000000e+000
3739:0.0000000000000000e+000
3740:0.0000000000000000e+000
3741:0.0000000000000000e+000
3742:0.0000000000000000e+000
3743:0.0000000000000000e+000
3744:0.0000000000000000e+000
3745:0.0000000000000000e+000
3746:0.0000000000000000e+000
3747:0.0000000000000000e+000
3748:0.0000000000000000e+000
3749:0.0000000000000000e+000
3750:0.0000000000000000e+000
3751:0.0000000000000000e+000
3752:0.0000000000000000e+000
3753:0.0000000000000000e+000
3754:0.0000000000000000e+000
3755:0.0000000000000000e+000
3756:0.0000000000000000e+000
3757:0.0000000000000000e+000
3758:0.0000000000000000e+000
3759:0.0000000000000000e+000
3760:0.0000000000000000e+000
3761:0.0000000000000000e+000
3762:0.0000000000000000e+000
3763:0.0000000000000000e+000
3764:0.0000000000000000e+000
3765:0.0000000000000000e+000
3766:0.0000000000000000e+000
3767:0.0000000000000000e+000
3768:0.0000000000000000e+000
3769:0.0000000000000000e+000
3770:0.0000000000000000e+000
3771:0.0000000000000000e+000
3772:0.0000000000000000e+000
3773:0.0000000000000000e+000
3774:0.0000000000000000e+000
3775:0.0000000000000000e+000
3776:0.0000000000000000e+000
3777:0.0000000000000000e+000
3778:0.0000000000000000e+000
3779:0.0000000000000000e+000
3780:0.0000000000000000e+000
3781:0.0000000000000000e+000
3782:0.0000000000000000e+000
3783:0.0000000000000000e+000
3784:0.0000000000000000e+000
3785:0.0000000000000000e+000
3786:0.0000000000000000e+000
3787:0.0000000000000000e+000
3788:0.0000000000000000e+000
3789:0.0000000000000000e+000
3790:0.0000000000000000e+000
3791:0.0000000000000000e+000
3792:0.0000000000000000e+000
3793:0.0000000000000000e+000
3794:0.0000000000000000e+000
3795:0.0000000000000000e+000
3796:0.0000000000000000e+000
3797:0.0000000000000000e+000
3798:0.0000000000000000e+000
3799:0.0000000000000000e+000
3800:0.0000000000000000e+000
3801:0.0000000000000000e+000
3802:0.0000000000000000e+000
3803:0.0000000000000000e+000
3804:0.0000000000000000e+000
3805:0.0000000000000000e+000
3806:0.0000000000000000e+000
3807:0.0000000000000000e+000
3808:0.0000000000000000e+000
3809:0.0000000000000000e+000
3810:0.0000000000000000e+000
3811:0.0000000000000000e+000
3812:0.0000000000000000e+000
3813:0.0000000000000000e+000
3814:0.0000000000000000e+000
3815:0.0000000000000000e+000
3816:0.0000000000000000e+000
3817:0.0000000000000000e+000
3818:0.0000000000000000e+000
3819:0.0000000000000000e+000
3820:0.0000000000000000e+000
3821:0.0000000000000000e+000
3822:0.0000000000000000e+000
3823:0.0000000000000000e+000
3824:0.0000000000000000e+000
3825:0.0000000000000000e+000
3826:0.0000000000000000e+000
3827:0.0000000000000000e+000
3828:0.0000000000000000e+000
3829:0.0000000000000000e+000
3830:0.0000000000000000e+000
3831:0.0000000000000000e+000
3832:0.0000000000000000e+000
3833:0.0000000000000000e+000
3834:0.0000000000000000e+000
3835:0.0000000000000000e+000
3836:0.0000000000000000e+000
3837:0.0000000000000000e+000
3838:0.0000000000000000e+000
3839:0.0000000000000000e+000
3840:0.0000000000000000e+000
3841:0.0000000000000000e+000
3842:0.0000000000000000e+000
3843:0.0000000000000000e+000
3844:0.0000000000000000e+000
3845:0.0000000000000000e+000
3846:0.0000000000000000e+000
3847:0.0000000000000000e+000
3848:0.0000000000000000e+000
3849:0.0000000000000000e+000
3850:0.0000000000000000e+000
3851:0.0000000000000000e+000
3852:0.0000000000000000e+000
3853:0.0000000000000000e+000
3854:0.0000000000000000e+000
3855:0.0000000000000000e+000
3856:0.0000000000000000e+000
3857:0.0000000000000000e+000
3858:0.0000000000000000e+000
3859:0.0000000000000000e+000
3860:0.0000000000000000e+000
3861:0.0000000000000000e+000
3862:0.0000000000000000e+000
3863:0.0000000000000000e+000
3864:0.0000000000000000e+000
3865:0.0000000000000000e+000
3866:0.0000000000000000e+000
3867:0.0000000000000000e+000
3868:0.0000000000000000e+000
3869:0.0000000000000000e+000
3870:0.0000000000000000e+000
3871:0.0000000000000000e+000
3872:0.0000000000000000e+000
3873:0.0000000000000000e+000
3874:0.0000000000000000e+000
3875:0.0000000000000000e+000
3876:0.0000000000000000e+000
3877:0.0000000000000000e+000
3878:0.0000000000000000e+000
3879:0.0000000000000000e+000
3880:0.0000000000000000e+000
3881:0.0000000000000000e+000
3882:0.0000000000000000e+000
3883:0.0000000000000000e+000
3884:0.0000000000000000e+000
3885:0.0000000000000000e+000
3886:0.0000000000000000e+000
3887:0.0000000000000000e+000
3888:0.0000000000000000e+000
3889:0.0000000000000000e+000
3890:0.0000000000000000e+000
3891:0.0000000000000000e+000
3892:0.0000000000000000e+000
3893:0.0000000000000000e+000
3894:0.0000000000000000e+000
3895:0.0000000000000000e+000
3896:0.0000000000000000e+000
3897:0.0000000000000000e+000
3898:0.0000000000000000e+000
3899:0.0000000000000000e+000
3900:0.0000000000000000e+000
3901:0.0000000000000000e+000
3902:0.0000000000000000e+000
3903:0.0000000000000000e+000
3904:0.0000000000000000e+000
3905:0.0000000000000000e+000
3906:0.0000000000000000e+000
3907:0.0000000000000000e+000
3908:0.0000000000000000e+000
3909:0.0000000000000000e+000
3910:0.0000000000000000e+000
3911:0.0000000000000000e+000
3912:0.0000000000000000e+000
3913:0.0000000000000000e+000
3914:0.0000000000000000e+000
3915:0.0000000000000000e+000
3916:0.0000000000000000e+000
3917:0.0000000000000000e+000
3918:0.0000000000000000e+000
3919:0.0000000000000000e+000
3920:0.0000000000000000e+000
3921:0.0000000000000000e+000
3922:0.0000000000000000e+000
3923:0.0000000000000000e+000
3924:0.0000000000000000e+000
3925:0.0000000000000000e+000
3926:0.0000000000000000e+000
3927:0.0000000000000000e+000
3928:0.0000000000000000e+000
3929:0.0000000000000000e+000
3930:0.0000000000000000e+000
3931:0.0000000000000000e+000
3932:0.0000000000000000e+000
3933:0.0000000000000000e+000
3934:0.0000000000000000e+000
3935:0.0000000000000000e+000
3936:0.0000000000000000e+000
3937:0.0000000000000000e+000
3938:0.0000000000000000e+000
3939:0.0000000000000000e+000
3940:0.0000000000000000e+000
3941:0.0000000000000000e+000
3942:0.0000000000000000e+000
3943:0.0000000000000000e+000
3944:0.0000000000000000e+000
3945:0.0000000000000000e+000
3946:0.0000000000000000e+000
3947:0.0000000000000000e+000
3948:0.0000000000000000e+000
3949:0.0000000000000000e+000
3950:0.0000000000000000e+000
3951:0.0000000000000000e+000
3952:0.0000000000000000e+000
3953:0.0000000000000000e+000
3954:0.0000000000000000e+000
3955:0.0000000000000000e+000
3956:0.0000000000000000e+000
3957:0.0000000000000000e+000
3958:0.0000000000000000e+000
3959:0.0000000000000000e+000
3960:0.0000000000000000e+000
3961:0.0000000000000000e+000
3962:0.0000000000000000e+000
3963:0.0000000000000000e+000
3964:0.0000000000000000e+000
3965:0.0000000000000000e+000
3966:0.0000000000000000e+000
3967:0.0000000000000000e+000
3968:0.0000000000000000e+000
3969:0.0000000000000000e+000
3970:0.0000000000000000e+000
3971:0.0000000000000000e+000
3972:0.0000000000000000e+000
3973:0.0000000000000000e+000
3974:0.0000000000000000e+000
3975:0.0000000000000000e+000
3976:0.0000000000000000e+000
3977:0.0000000000000000e+000
3978:0.0000000000000000e+000
3979:0.0000000000000000e+000
3980:0.0000000000000000e+000
3981:0.0000000000000000e+000
3982:0.0000000000000000e+000
3983:0.0000000000000000e+000
3984:0.0000000000000000e+000
3985:0.0000000000000000e+000
3986:0.0000000000000000e+000
3987:0.0000000000000000e+000
3988:0.0000000000000000e+000
3989:0.0000000000000000e+000
3990:0.0000000000000000e+000
3991:0.0000000000000000e+000
3992:0.0000000000000000e+000
3993:0.0000000000000000e+000
3994:0.0000000000000000e+000
3995:0.0000000000000000e+000
3996:0.0000000000000000e+000
3997:0.0000000000000000e+000
3998:0.0000000000000000e+000
3999:0.0000000000000000e+000
4000:0.0000000000000000e+000
4001:0.0000000000000000e+000
4002:0.0000000000000000e+000
4003:0.0000000000000000e+000
4004:0.0000000000000000e+000
4005:0.0000000000000000e+000
4006:0.0000000000000000e+000
4007:0.0000000000000000e+000
4008:0.0000000000000000e+000
4009:0.0000000000000000e+000
4010:0.0000000000000000e+000
4011:0.0000000000000000e+000
4012:0.0000000000000000e+000
4013:0.0000000000000000e+000
4014:0.0000000000000000e+000
4015:0.0000000000000000e+000
4016:0.0000000000000000e+000
4017:0.0000000000000000e+000
4018:0.0000000000000000e+000
4019:0.0000000000000000e+000
4020:0.0000000000000000e+000
4021:0.0000000000000000e+000
4022:0.0000000000000000e+000
4023:0.0000000000000000e+000
4024:0.0000000000000000e+000
4025:0.0000000000000000e+000
4026:0.0000000000000000e+000
4027:0.0000000000000000e+000
4028:0.0000000000000000e+000
4029:0.0000000000000000e+000
4030:0.0000000000000000e+000
4031:0.0000000000000000e+000
4032:0.0000000000000000e+000
4033:0.0000000000000000e+000
4034:0.0000000000000000e+000
4035:0.0000000000000000e+000
4036:0.0000000000000000e+000
4037:0.0000000000000000e+000
4038:0.0000000000000000e+000
4039:0.0000000000000000e+000
4040:0.0000000000000000e+000
4041:0.0000000000000000e+000
4042:0.0000000000000000e+000
4043:0.0000000000000000e+000
4044:0.0000000000000000e+000
4045:0.0000000000000000e+000
4046:0.0000000000000000e+000
4047:0.0000000000000000e+000
4048:0.0000000000000000e+000
4049:0.0000000000000000e+000
4050:0.0000000000000000e+000
4051:0.0000000000000000e+000
4052:0.0000000000000000e+000
4053:0.0000000000000000e+000
4054:0.0000000000000000e+000
4055:0.0000000000000000e+000
4056:0.0000000000000000e+000
4057:0.0000000000000000e+000
4058:0.0000000000000000e+000
4059:0.0000000000000000e+000
4060:0.0000000000000000e+000
4061:0.0000000000000000e+000
4062:0.0000000000000000e+000
4063:0.0000000000000000e+000
4064:0.0000000000000000e+000
4065:0.0000000000000000e+000
4066:0.0000000000000000e+000
4067:0.0000000000000000e+000
4068:0.0000000000000000e+000
4069:0.0000000000000000e+000
4070:0.0000000000000000e+000
4071:0.0000000000000000e+000
4072:0.0000000000000000e+000
4073:0.0000000000000000e+000
4074:0.0000000000000000e+000
4075:0.0000000000000000e+000
4076:0.0000000000000000e+000
4077:0.0000000000000000e+000
4078:0.0000000000000000e+000
4079:0.0000000000000000e+000
4080:0.0000000000000000e+000
4081:0.0000000000000000e+000
4082:0.0000000000000000e+000
4083:0.0000000000000000e+000
4084:0.0000000000000000e+000
4085:0.0000000000000000e+000
4086:0.0000000000000000e+000
4087:0.0000000000000000e+000
4088:0.0000000000000000e+000
4089:0.0000000000000000e+000
4090:0.0000000000000000e+000
4091:0.0000000000000000e+000
4092:0.0000000000000000e+000
4093:0.0000000000000000e+000
4094:0.0000000000000000e+000
4095:0.0000000000000000e+000
4096:0.0000000000000000e+000
4097:0.0000000000000000e+000
4098:0.0000000000000000e+000
4099:0.0000000000000000e+000
4100:0.0000000000000000e+000
4101:0.0000000000000000e+000
4102:0.0000000000000000e+000
4103:0.0000000000000000e+000
4104:0.0000000000000000e+000
4105:0.0000000000000000e+000
4106:0.0000000000000000e+000
4107:0.0000000000000000e+000
4108:0.0000000000000000e+000
4109:0.0000000000000000e+000
4110:0.0000000000000000e+000
4111:0.0000000000000000e+000
4112:0.0000000000000000e+000
4113:0.0000000000000000e+000
4114:0.0000000000000000e+000
4115:0.0000000000000000e+000
4116:0.0000000000000000e+000
4117:0.0000000000000000e+000
4118:0.0000000000000000e+000
4119:0.0000000000000000e+000
4120:0.0000000000000000e+000
4121:0.0000000000000000e+000
4122:0.0000000000000000e+000
4123:0.0000000000000000e+000
4124:0.0000000000000000e+000
4125:0.0000000000000000e+000
4126:0.0000000000000000e+000
4127:0.0000000000000000e+000
4128:0.0000000000000000e+000
4129:0.0000000000000000e+000
4130:0.0000000000000000e+000
4131:0.0000000000000000e+000
4132:0.0000000000000000e+000
4133:0.0000000000000000e+000
4134:0.0000000000000000e+000
4135:0.0000000000000000e+000
4136:0.0000000000000000e+000
4137:0.0000000000000000e+000
4138:0.0000000000000000e+000
4139:0.0000000000000000e+000
4140:0.0000000000000000e+000
4141:0.0000000000000000e+000
4142:0.0000000000000000e+000
4143:0.0000000000000000e+000
4144:0.0000000000000000e+000
4145:0.0000000000000000e+000
4146:0.0000000000000000e+000
4147:0.0000000000000000e+000
4148:0.0000000000000000e+000
4149:0.0000000000000000e+000
4150:0.0000000000000000e+000
4151:0.0000000000000000e+000
4152:0.0000000000000000e+000
4153:0.0000000000000000e+000
4154:0.0000000000000000e+000
4155:0.0000000000000000e+000
4156:0.0000000000000000e+000
4157:0.0000000000000000e+000
4158:0.0000000000000000e+000
4159:0.0000000000000000e+000
4160:0.0000000000000000e+000
4161:0.0000000000000000e+000
4162:0.0000000000000000e+000
4163:0.0000000000000000e+000
4164:0.0000000000000000e+000
4165:0.0000000000000000e+000
4166:0.0000000000000000e+000
4167:0.0000000000000000e+000
4168:0.0000000000000000e+000
4169:0.0000000000000000e+000
4170:0.0000000000000000e+000
4171:0.0000000000000000e+000
4172:0.0000000000000000e+000
4173:0.0000000000000000e+000
4174:0.0000000000000000e+000
4175:0.0000000000000000e+000
4176:0.0000000000000000e+000
4177:0.0000000000000000e+000
4178:0.0000000000000000e+000
4179:0.0000000000000000e+000
4180:0.0000000000000000e+000
4181:0.0000000000000000e+000
4182:0.0000000000000000e+000
4183:0.0000000000000000e+000
4184:0.0000000000000000e+000
4185:0.0000000000000000e+000
4186:0.0000000000000000e+000
4187:0.0000000000000000e+000
4188:0.0000000000000000e+000
4189:0.0000000000000000e+000
4190:0.0000000000000000e+000
4191:0.0000000000000000e+000
4192:0.0000000000000000e+000
4193:0.0000000000000000e+000
4194:0.0000000000000000e+000
4195:0.0000000000000000e+000
4196:0.0000000000000000e+000
4197:0.0000000000000000e+000
4198:0.0000000000000000e+000
4199:0.0000000000000000e+000
4200:0.0000000000000000e+000
4201:0.0000000000000000e+000
4202:0.0000000000000000e+000
4203:0.0000000000000000e+000
4204:0.0000000000000000e+000
4205:0.0000000000000000e+000
4206:0.0000000000000000e+000
4207:0.0000000000000000e+000
4208:0.0000000000000000e+000
4209:0.0000000000000000e+000
4210:0.0000000000000000e+000
4211:0.0000000000000000e+000
4212:0.0000000000000000e+000
4213:0.0000000000000000e+000
4214:0.0000000000000000e+000
4215:0.0000000000000000e+000
4216:0.0000000000000000e+000
4217:0.0000000000000000e+000
4218:0.0000000000000000e+000
4219:0.0000000000000000e+000
4220:0.0000000000000000e+000
4221:0.0000000000000000e+000
4222:0.0000000000000000e+000
4223:0.0000000000000000e+000
4224:0.0000000000000000e+000
4225:0.0000000000000000e+000
4226:0.0000000000000000e+000
4227:0.0000000000000000e+000
4228:0.0000000000000000e+000
4229:0.0000000000000000e+000
4230:0.0000000000000000e+000
4231:0.0000000000000000e+000
4232:0.0000000000000000e+000
4233:0.0000000000000000e+000
4234:0.0000000000000000e+000
4235:0.0000000000000000e+000
4236:0.0000000000000000e+000
4237:0.0000000000000000e+000
4238:0.0000000000000000e+000
4239:0.0000000000000000e+000
4240:0.0000000000000000e+000
4241:0.0000000000000000e+000
4242:0.0000000000000000e+000
4243:0.0000000000000000e+000
4244:0.0000000000000000e+000
4245:0.0000000000000000e+000
4246:0.0000000000000000e+000
4247:0.0000000000000000e+000
4248:0.0000000000000000e+000
4249:0.0000000000000000e+000
4250:0.0000000000000000e+000
4251:0.0000000000000000e+000
4252:0.0000000000000000e+000
4253:0.0000000000000000e+000
4254:0.0000000000000000e+000
4255:0.0000000000000000e+000
4256:0.0000000000000000e+000
4257:0.0000000000000000e+000
4258:0.0000000000000000e+000
4259:0.0000000000000000e+000
4260:0.0000000000000000e+000
4261:0.0000000000000000e+000
4262:0.0000000000000000e+000
4263:0.0000000000000000e+000
4264:0.0000000000000000e+000
4265:0.0000000000000000e+000
4266:0.0000000000000000e+000
4267:0.0000000000000000e+000
4268:0.0000000000000000e+000
4269:0.0000000000000000e+000
4270:0.0000000000000000e+000
4271:0.0000000000000000e+000
4272:0.0000000000000000e+000
4273:0.0000000000000000e+000
4274:0.0000000000000000e+000
4275:0.0000000000000000e+000
4276:0.0000000000000000e+000
4277:0.0000000000000000e+000
4278:0.0000000000000000e+000
4279:0.0000000000000000e+000
4280:0.0000000000000000e+000
4281:0.0000000000000000e+000
4282:0.0000000000000000e+000
4283:0.0000000000000000e+000
4284:0.0000000000000000e+000
4285:0.0000000000000000e+000
4286:0.0000000000000000e+000
4287:0.0000000000000000e+000
4288:0.0000000000000000e+000
4289:0.0000000000000000e+000
4290:0.0000000000000000e+000
4291:0.0000000000000000e+000
4292:0.0000000000000000e+000
4293:0.0000000000000000e+000
4294:0.0000000000000000e+000
4295:0.0000000000000000e+000
4296:0.0000000000000000e+000
4297:0.0000000000000000e+000
4298:0.0000000000000000e+000
4299:0.0000000000000000e+000
4300:0.0000000000000000e+000
4301:0.0000000000000000e+000
4302:0.0000000000000000e+000
4303:0.0000000000000000e+000
4304:0.0000000000000000e+000
4305:0.0000000000000000e+000
4306:0.0000000000000000e+000
4307:0.0000000000000000e+000
4308:0.0000000000000000e+000
4309:0.0000000000000000e+000
4310:0.0000000000000000e+000
4311:0.0000000000000000e+000
4312:0.0000000000000000e+000
4313:0.0000000000000000e+000
4314:0.0000000000000000e+000
4315:0.0000000000000000e+000
4316:0.0000000000000000e+000
4317:0.0000000000000000e+000
4318:0.0000000000000000e+000
4319:0.0000000000000000e+000
4320:0.0000000000000000e+000
4321:0.0000000000000000e+000
4322:0.0000000000000000e+000
4323:0.0000000000000000e+000
4324:0.0000000000000000e+000
4325:0.0000000000000000e+000
4326:0.0000000000000000e+000
4327:0.0000000000000000e+000
4328:0.0000000000000000e+000
4329:0.0000000000000000e+000
4330:0.0000000000000000e+000
4331:0.0000000000000000e+000
4332:0.0000000000000000e+000
4333:0.0000000000000000e+000
4334:0.0000000000000000e+000
4335:0.0000000000000000e+000
4336:0.0000000000000000e+000
4337:0.0000000000000000e+000
4338:0.0000000000000000e+000
4339:0.0000000000000000e+000
4340:0.0000000000000000e+000
4341:0.0000000000000000e+000
4342:0.0000000000000000e+000
4343:0.0000000000000000e+000
4344:0.0000000000000000e+000
4345:0.0000000000000000e+000
4346:0.0000000000000000e+000
4347:0.0000000000000000e+000
4348:0.0000000000000000e+000
4349:0.0000000000000000e+000
4350:0.0000000000000000e+000
4351:0.0000000000000000e+000
4352:0.0000000000000000e+000
4353:0.0000000000000000e+000
4354:0.0000000000000000e+000
4355:0.0000000000000000e+000
4356:0.0000000000000000e+000
4357:0.0000000000000000e+000
4358:0.0000000000000000e+000
4359:0.0000000000000000e+000
4360:0.0000000000000000e+000
4361:0.0000000000000000e+000
4362:0.0000000000000000e+000
4363:0.0000000000000000e+000
4364:0.0000000000000000e+000
4365:0.0000000000000000e+000
4366:0.0000000000000000e+000
4367:0.0000000000000000e+000
4368:0.0000000000000000e+000
4369:0.0000000000000000e+000
4370:0.0000000000000000e+000
4371:0.0000000000000000e+000
4372:0.0000000000000000e+000
4373:0.0000000000000000e+000
4374:0.0000000000000000e+000
4375:0.0000000000000000e+000
4376:0.0000000000000000e+000
4377:0.0000000000000000e+000
4378:0.0000000000000000e+000
4379:0.0000000000000000e+000
4380:0.0000000000000000e+000
4381:0.0000000000000000e+000
4382:0.0000000000000000e+000
4383:0.0000000000000000e+000
4384:0.0000000000000000e+000
4385:0.0000000000000000e+000
4386:0.0000000000000000e+000
4387:0.0000000000000000e+000
4388:0.0000000000000000e+000
4389:0.0000000000000000e+000
4390:0.0000000000000000e+000
4391:0.0000000000000000e+000
4392:0.0000000000000000e+000
4393:0.0000000000000000e+000
4394:0.0000000000000000e+000
4395:0.0000000000000000e+000
4396:0.0000000000000000e+000
4397:0.0000000000000000e+000
4398:0.0000000000000000e+000
4399:0.0000000000000000e+000
4400:0.0000000000000000e+000
4401:0.0000000000000000e+000
4402:0.0000000000000000e+000
4403:0.0000000000000000e+000
4404:0.0000000000000000e+000
4405:0.0000000000000000e+000
4406:0.0000000000000000e+000
4407:0.0000000000000000e+000
4408:0.0000000000000000e+000
4409:0.0000000000000000e+000
4410:0.0000000000000000e+000
4411:0.0000000000000000e+000
4412:0.0000000000000000e+000
4413:0.0000000000000000e+000
4414:0.0000000000000000e+000
4415:0.0000000000000000e+000
4416:0.0000000000000000e+000
4417:0.0000000000000000e+000
4418:0.0000000000000000e+000
4419:0.0000000000000000e+000
4420:0.0000000000000000e+000
4421:0.0000000000000000e+000
4422:0.0000000000000000e+000
4423:0.0000000000000000e+000
4424:0.0000000000000000e+000
4425:0.0000000000000000e+000
4426:0.0000000000000000e+000
4427:0.0000000000000000e+000
4428:0.0000000000000000e+000
4429:0.0000000000000000e+000
4430:0.0000000000000000e+000
4431:0.0000000000000000e+000
4432:0.0000000000000000e+000
4433:0.0000000000000000e+000
4434:0.0000000000000000e+000
4435:0.0000000000000000e+000
4436:0.0000000000000000e+000
4437:0.0000000000000000e+000
4438:0.0000000000000000e+000
4439:0.0000000000000000e+000
4440:0.0000000000000000e+000
4441:0.0000000000000000e+000
4442:0.0000000000000000e+000
4443:0.0000000000000000e+000
4444:0.0000000000000000e+000
4445:0.0000000000000000e+000
4446:0.0000000000000000e+000
4447:0.0000000000000000e+000
4448:0.0000000000000000e+000
4449:0.0000000000000000e+000
4450:0.0000000000000000e+000
4451:0.0000000000000000e+000
4452:0.0000000000000000e+000
4453:0.0000000000000000e+000
4454:0.0000000000000000e+000
4455:0.0000000000000000e+000
4456:0.0000000000000000e+000
4457:0.0000000000000000e+000
4458:0.0000000000000000e+000
4459:0.0000000000000000e+000
4460:0.0000000000000000e+000
4461:0.0000000000000000e+000
4462:0.0000000000000000e+000
4463:0.0000000000000000e+000
4464:0.0000000000000000e+000
4465:0.0000000000000000e+000
4466:0.0000000000000000e+000
4467:0.0000000000000000e+000
4468:0.0000000000000000e+000
4469:0.0000000000000000e+000
4470:0.0000000000000000e+000
4471:0.0000000000000000e+000
4472:0.0000000000000000e+000
4473:0.0000000000000000e+000
4474:0.0000000000000000e+000
4475:0.0000000000000000e+000
4476:0.0000000000000000e+000
4477:0.0000000000000000e+000
4478:0.0000000000000000e+000
4479:0.0000000000000000e+000
4480:0.0000000000000000e+000
4481:0.0000000000000000e+000
4482:0.0000000000000000e+000
4483:0.0000000000000000e+000
4484:0.0000000000000000e+000
4485:0.0000000000000000e+000
4486:0.0000000000000000e+000
4487:0.0000000000000000e+000
4488:0.0000000000000000e+000
4489:0.0000000000000000e+000
4490:0.0000000000000000e+000
4491:0.0000000000000000e+000
4492:0.0000000000000000e+000
4493:0.0000000000000000e+000
4494:0.0000000000000000e+000
4495:0.0000000000000000e+000
4496:0.0000000000000000e+000
4497:0.0000000000000000e+000
4498:0.0000000000000000e+000
4499:0.0000000000000000e+000
4500:0.0000000000000000e+000
4501:0.0000000000000000e+000
4502:0.0000000000000000e+000
4503:0.0000000000000000e+000
4504:0.0000000000000000e+000
4505:0.0000000000000000e+000
4506:0.0000000000000000e+000
4507:0.0000000000000000e+000
4508:0.0000000000000000e+000
4509:0.0000000000000000e+000
4510:0.0000000000000000e+000
4511:0.0000000000000000e+000
4512:0.0000000000000000e+000
4513:0.0000000000000000e+000
4514:0.0000000000000000e+000
4515:0.0000000000000000e+000
4516:0.0000000000000000e+000
4517:0.0000000000000000e+000
4518:0.0000000000000000e+000
4519:0.0000000000000000e+000
4520:0.0000000000000000e+000
4521:0.0000000000000000e+000
4522:0.0000000000000000e+000
4523:0.0000000000000000e+000
4524:0.0000000000000000e+000
4525:0.0000000000000000e+000
4526:0.0000000000000000e+000
4527:0.0000000000000000e+000
4528:0.0000000000000000e+000
4529:0.0000000000000000e+000
4530:0.0000000000000000e+000
4531:0.0000000000000000e+000
4532:0.0000000000000000e+000
4533:0.0000000000000000e+000
4534:0.0000000000000000e+000
4535:0.0000000000000000e+000
4536:0.0000000000000000e+000
4537:0.0000000000000000e+000
4538:0.0000000000000000e+000
4539:0.0000000000000000e+000
4540:0.0000000000000000e+000
4541:0.0000000000000000e+000
4542:0.0000000000000000e+000
4543:0.0000000000000000e+000
4544:0.0000000000000000e+000
4545:0.0000000000000000e+000
4546:0.0000000000000000e+000
4547:0.0000000000000000e+000
4548:0.0000000000000000e+000
4549:0.0000000000000000e+000
4550:0.0000000000000000e+000
4551:0.0000000000000000e+000
4552:0.0000000000000000e+000
4553:0.0000000000000000e+000
4554:0.0000000000000000e+000
4555:0.0000000000000000e+000
4556:0.0000000000000000e+000
4557:0.0000000000000000e+000
4558:0.0000000000000000e+000
4559:0.0000000000000000e+000
4560:0.0000000000000000e+000
4561:0.0000000000000000e+000
4562:0.0000000000000000e+000
4563:0.0000000000000000e+000
4564:0.0000000000000000e+000
4565:0.0000000000000000e+000
4566:0.0000000000000000e+000
4567:0.0000000000000000e+000
4568:0.0000000000000000e+000
4569:0.0000000000000000e+000
4570:0.0000000000000000e+000
4571:0.0000000000000000e+000
4572:0.0000000000000000e+000
4573:0.0000000000000000e+000
4574:0.0000000000000000e+000
4575:0.0000000000000000e+000
4576:0.0000000000000000e+000
4577:0.0000000000000000e+000
4578:0.0000000000000000e+000
4579:0.0000000000000000e+000
4580:0.0000000000000000e+000
4581:0.0000000000000000e+000
4582:0.0000000000000000e+000
4583:0.0000000000000000e+000
4584:0.0000000000000000e+000
4585:0.0000000000000000e+000
4586:0.0000000000000000e+000
4587:0.0000000000000000e+000
4588:0.0000000000000000e+000
4589:0.0000000000000000e+000
4590:0.0000000000000000e+000
4591:0.0000000000000000e+000
4592:0.0000000000000000e+000
4593:0.0000000000000000e+000
4594:0.0000000000000000e+000
4595:0.0000000000000000e+000
4596:0.0000000000000000e+000
4597:0.0000000000000000e+000
4598:0.0000000000000000e+000
4599:0.0000000000000000e+000
4600:0.0000000000000000e+000
4601:0.0000000000000000e+000
4602:0.0000000000000000e+000
4603:0.0000000000000000e+000
4604:0.0000000000000000e+000
4605:0.0000000000000000e+000
4606:0.0000000000000000e+000
4607:0.0000000000000000e+000
4608:0.0000000000000000e+000
4609:0.0000000000000000e+000
4610:0.0000000000000000e+000
4611:0.0000000000000000e+000
4612:0.0000000000000000e+000
4613:0.0000000000000000e+000
4614:0.0000000000000000e+000
4615:0.0000000000000000e+000
4616:0.0000000000000000e+000
4617:0.0000000000000000e+000
4618:0.0000000000000000e+000
4619:0.0000000000000000e+000
4620:0.0000000000000000e+000
4621:0.0000000000000000e+000
4622:0.0000000000000000e+000
4623:0.0000000000000000e+000
4624:0.0000000000000000e+000
4625:0.0000000000000000e+000
4626:0.0000000000000000e+000
4627:0.0000000000000000e+000
4628:0.0000000000000000e+000
4629:0.0000000000000000e+000
4630:0.0000000000000000e+000
4631:0.0000000000000000e+000
4632:0.0000000000000000e+000
4633:0.0000000000000000e+000
4634:0.0000000000000000e+000
4635:0.0000000000000000e+000
4636:0.0000000000000000e+000
4637:0.0000000000000000e+000
4638:0.0000000000000000e+000
4639:0.0000000000000000e+000
4640:0.0000000000000000e+000
4641:0.0000000000000000e+000
4642:0.0000000000000000e+000
4643:0.0000000000000000e+000
4644:0.0000000000000000e+000
4645:0.0000000000000000e+000
4646:0.0000000000000000e+000
4647:0.0000000000000000e+000
4648:0.0000000000000000e+000
4649:0.0000000000000000e+000
4650:0.0000000000000000e+000
4651:0.0000000000000000e+000
4652:0.0000000000000000e+000
4653:0.0000000000000000e+000
4654:0.0000000000000000e+000
4655:0.0000000000000000e+000
4656:0.0000000000000000e+000
4657:0.0000000000000000e+000
4658:0.0000000000000000e+000
4659:0.0000000000000000e+000
4660:0.0000000000000000e+000
4661:0.0000000000000000e+000
4662:0.0000000000000000e+000
4663:0.0000000000000000e+000
4664:0.0000000000000000e+000
4665:0.0000000000000000e+000
4666:0.0000000000000000e+000
4667:0.0000000000000000e+000
4668:0.0000000000000000e+000
4669:0.0000000000000000e+000
4670:0.0000000000000000e+000
4671:0.0000000000000000e+000
4672:0.0000000000000000e+000
4673:0.0000000000000000e+000
4674:0.0000000000000000e+000
4675:0.0000000000000000e+000
4676:0.0000000000000000e+000
4677:0.0000000000000000e+000
4678:0.0000000000000000e+000
4679:0.0000000000000000e+000
4680:0.0000000000000000e+000
4681:0.0000000000000000e+000
4682:0.0000000000000000e+000
4683:0.0000000000000000e+000
4684:0.0000000000000000e+000
4685:0.0000000000000000e+000
4686:0.0000000000000000e+000
4687:0.0000000000000000e+000
4688:0.0000000000000000e+000
4689:0.0000000000000000e+000
4690:0.0000000000000000e+000
4691:0.0000000000000000e+000
4692:0.0000000000000000e+000
4693:0.0000000000000000e+000
4694:0.0000000000000000e+000
4695:0.0000000000000000e+000
4696:0.0000000000000000e+000
4697:0.0000000000000000e+000
4698:0.0000000000000000e+000
4699:0.0000000000000000e+000
4700:0.0000000000000000e+000
4701:0.0000000000000000e+000
4702:0.0000000000000000e+000
4703:0.0000000000000000e+000
4704:0.0000000000000000e+000
4705:0.0000000000000000e+000
4706:0.0000000000000000e+000
4707:0.0000000000000000e+000
4708:0.0000000000000000e+000
4709:0.0000000000000000e+000
4710:0.0000000000000000e+000
4711:0.0000000000000000e+000
4712:0.0000000000000000e+000
4713:0.0000000000000000e+000
4714:0.0000000000000000e+000
4715:0.0000000000000000e+000
4716:0.0000000000000000e+000
4717:0.0000000000000000e+000
4718:0.0000000000000000e+000
4719:0.0000000000000000e+000
4720:0.0000000000000000e+000
4721:0.0000000000000000e+000
4722:0.0000000000000000e+000
4723:0.0000000000000000e+000
4724:0.0000000000000000e+000
4725:0.0000000000000000e+000
4726:0.0000000000000000e+000
4727:0.0000000000000000e+000
4728:0.0000000000000000e+000
4729:0.0000000000000000e+000
4730:0.0000000000000000e+000
4731:0.0000000000000000e+000
4732:0.0000000000000000e+000
4733:0.0000000000000000e+000
4734:0.0000000000000000e+000
4735:0.0000000000000000e+000
4736:0.0000000000000000e+000
4737:0.0000000000000000e+000
4738:0.0000000000000000e+000
4739:0.0000000000000000e+000
4740:0.0000000000000000e+000
4741:0.0000000000000000e+000
4742:0.0000000000000000e+000
4743:0.0000000000000000e+000
4744:0.0000000000000000e+000
4745:0.0000000000000000e+000
4746:0.0000000000000000e+000
4747:0.0000000000000000e+000
4748:0.0000000000000000e+000
4749:0.0000000000000000e+000
4750:0.0000000000000000e+000
4751:0.0000000000000000e+000
4752:0.0000000000000000e+000
4753:0.0000000000000000e+000
4754:0.0000000000000000e+000
4755:0.0000000000000000e+000
4756:0.0000000000000000e+000
4757:0.0000000000000000e+000
4758:0.0000000000000000e+000
4759:0.0000000000000000e+000
4760:0.0000000000000000e+000
4761:0.0000000000000000e+000
4762:0.0000000000000000e+000
4763:0.0000000000000000e+000
4764:0.0000000000000000e+000
4765:0.0000000000000000e+000
4766:0.0000000000000000e+000
4767:0.0000000000000000e+000
4768:0.0000000000000000e+000
4769:0.0000000000000000e+000
4770:0.0000000000000000e+000
4771:0.0000000000000000e+000
4772:0.0000000000000000e+000
4773:0.0000000000000000e+000
4774:0.0000000000000000e+000
4775:0.0000000000000000e+000
4776:0.0000000000000000e+000
4777:0.0000000000000000e+000
4778:0.0000000000000000e+000
4779:0.0000000000000000e+000
4780:0.0000000000000000e+000
4781:0.0000000000000000e+000
4782:0.0000000000000000e+000
4783:0.0000000000000000e+000
4784:0.0000000000000000e+000
4785:0.0000000000000000e+000
4786:0.0000000000000000e+000
4787:0.0000000000000000e+000
4788:0.0000000000000000e+000
4789:0.0000000000000000e+000
4790:0.0000000000000000e+000
4791:0.0000000000000000e+000
4792:0.0000000000000000e+000
4793:0.0000000000000000e+000
4794:0.0000000000000000e+000
4795:0.0000000000000000e+000
4796:0.0000000000000000e+000
4797:0.0000000000000000e+000
4798:0.0000000000000000e+000
4799:0.0000000000000000e+000
4800:0.0000000000000000e+000
4801:0.0000000000000000e+000
4802:0.0000000000000000e+000
4803:0.0000000000000000e+000
4804:0.0000000000000000e+000
4805:0.0000000000000000e+000
4806:0.0000000000000000e+000
4807:0.0000000000000000e+000
4808:0.0000000000000000e+000
4809:0.0000000000000000e+000
4810:0.0000000000000000e+000
4811:0.0000000000000000e+000
4812:0.0000000000000000e+000
4813:0.0000000000000000e+000
4814:0.0000000000000000e+000
4815:0.0000000000000000e+000
4816:0.0000000000000000e+000
4817:0.0000000000000000e+000
4818:0.0000000000000000e+000
4819:0.0000000000000000e+000
4820:0.0000000000000000e+000
4821:0.0000000000000000e+000
4822:0.0000000000000000e+000
4823:0.0000000000000000e+000
4824:0.0000000000000000e+000
4825:0.0000000000000000e+000
4826:0.0000000000000000e+000
4827:0.0000000000000000e+000
4828:0.0000000000000000e+000
4829:0.0000000000000000e+000
4830:0.0000000000000000e+000
4831:0.0000000000000000e+000
4832:0.0000000000000000e+000
4833:0.0000000000000000e+000
4834:0.0000000000000000e+000
4835:0.0000000000000000e+000
4836:0.0000000000000000e+000
4837:0.0000000000000000e+000
4838:0.0000000000000000e+000
4839:0.0000000000000000e+000
4840:0.0000000000000000e+000
4841:0.0000000000000000e+000
4842:0.0000000000000000e+000
4843:0.0000000000000000e+000
4844:0.0000000000000000e+000
4845:0.0000000000000000e+000
4846:0.0000000000000000e+000
4847:0.0000000000000000e+000
4848:0.0000000000000000e+000
4849:0.0000000000000000e+000
4850:0.0000000000000000e+000
4851:0.0000000000000000e+000
4852:0.0000000000000000e+000
4853:0.0000000000000000e+000
4854:0.0000000000000000e+000
4855:0.0000000000000000e+000
4856:0.0000000000000000e+000
4857:0.0000000000000000e+000
4858:0.0000000000000000e+000
4859:0.0000000000000000e+000
4860:0.0000000000000000e+000
4861:0.0000000000000000e+000
4862:0.0000000000000000e+000
4863:0.0000000000000000e+000
4864:0.0000000000000000e+000
4865:0.0000000000000000e+000
4866:0.0000000000000000e+000
4867:0.0000000000000000e+000
4868:0.0000000000000000e+000
4869:0.0000000000000000e+000
4870:0.0000000000000000e+000
4871:0.0000000000000000e+000
4872:0.0000000000000000e+000
4873:0.0000000000000000e+000
4874:0.0000000000000000e+000
4875:0.0000000000000000e+000
4876:0.0000000000000000e+000
4877:0.0000000000000000e+000
4878:0.0000000000000000e+000
4879:0.0000000000000000e+000
4880:0.0000000000000000e+000
4881:0.0000000000000000e+000
4882:0.0000000000000000e+000
4883:0.0000000000000000e+000
4884:0.0000000000000000e+000
4885:0.0000000000000000e+000
4886:0.0000000000000000e+000
4887:0.0000000000000000e+000
4888:0.0000000000000000e+000
4889:0.0000000000000000e+000
4890:0.0000000000000000e+000
4891:0.0000000000000000e+000
4892:0.0000000000000000e+000
4893:0.0000000000000000e+000
4894:0.0000000000000000e+000
4895:0.0000000000000000e+000
4896:0.0000000000000000e+000
4897:0.0000000000000000e+000
4898:0.0000000000000000e+000
4899:0.0000000000000000e+000
4900:0.0000000000000000e+000
4901:0.0000000000000000e+000
4902:0.0000000000000000e+000
4903:0.0000000000000000e+000
4904:0.0000000000000000e+000
4905:0.0000000000000000e+000
4906:0.0000000000000000e+000
4907:0.0000000000000000e+000
4908:0.0000000000000000e+000
4909:0.0000000000000000e+000
4910:0.0000000000000000e+000
4911:0.0000000000000000e+000
4912:0.0000000000000000e+000
4913:0.0000000000000000e+000
4914:0.0000000000000000e+000
4915:0.0000000000000000e+000
4916:0.0000000000000000e+000
4917:0.0000000000000000e+000
4918:0.0000000000000000e+000
4919:0.0000000000000000e+000
4920:0.0000000000000000e+000
4921:0.0000000000000000e+000
4922:0.0000000000000000e+000
4923:0.0000000000000000e+000
4924:0.0000000000000000e+000
4925:0.0000000000000000e+000
4926:0.0000000000000000e+000
4927:0.0000000000000000e+000
4928:0.0000000000000000e+000
4929:0.0000000000000000e+000
4930:0.0000000000000000e+000
4931:0.0000000000000000e+000
4932:0.0000000000000000e+000
4933:0.0000000000000000e+000
4934:0.0000000000000000e+000
4935:0.0000000000000000e+000
4936:0.0000000000000000e+000
4937:0.0000000000000000e+000
4938:0.0000000000000000e+000
4939:0.0000000000000000e+000
4940:0.0000000000000000e+000
4941:0.0000000000000000e+000
4942:0.0000000000000000e+000
4943:0.0000000000000000e+000
4944:0.0000000000000000e+000
4945:0.0000000000000000e+000
4946:0.0000000000000000e+000
4947:0.0000000000000000e+000
4948:0.0000000000000000e+000
4949:0.0000000000000000e+000
4950:0.0000000000000000e+000
4951:0.0000000000000000e+000
4952:0.0000000000000000e+000
4953:0.0000000000000000e+000
4954:0.0000000000000000e+000
4955:0.0000000000000000e+000
4956:0.0000000000000000e+000
4957:0.0000000000000000e+000
4958:0.0000000000000000e+000
4959:0.0000000000000000e+000
4960:0.0000000000000000e+000
4961:0.0000000000000000e+000
4962:0.0000000000000000e+000
4963:0.0000000000000000e+000
4964:0.0000000000000000e+000
4965:0.0000000000000000e+000
4966:0.0000000000000000e+000
4967:0.0000000000000000e+000
4968:0.0000000000000000e+000
4969:0.0000000000000000e+000
4970:0.0000000000000000e+000
4971:0.0000000000000000e+000
4972:0.0000000000000000e+000
4973:0.0000000000000000e+000
4974:0.0000000000000000e+000
4975:0.0000000000000000e+000
4976:0.0000000000000000e+000
4977:0.0000000000000000e+000
4978:0.0000000000000000e+000
4979:0.0000000000000000e+000
4980:0.0000000000000000e+000
4981:0.0000000000000000e+000
4982:0.0000000000000000e+000
4983:0.0000000000000000e+000
4984:0.0000000000000000e+000
4985:0.0000000000000000e+000
4986:0.0000000000000000e+000
4987:0.0000000000000000e+000
4988:0.0000000000000000e+000
4989:0.0000000000000000e+000
4990:0.0000000000000000e+000
4991:0.0000000000000000e+000
4992:0.0000000000000000e+000
4993:0.0000000000000000e+000
4994:0.0000000000000000e+000
4995:0.0000000000000000e+000
4996:0.0000000000000000e+000
4997:0.0000000000000000e+000
4998:0.0000000000000000e+000
4999:0.0000000000000000e+000
5000:0.0000000000000000e+000
5001:0.0000000000000000e+000
5002:0.0000000000000000e+000
5003:0.0000000000000000e+000
5004:0.0000000000000000e+000
5005:0.0000000000000000e+000
5006:0.0000000000000000e+000
5007:0.0000000000000000e+000
5008:0.0000000000000000e+000
5009:0.0000000000000000e+000
5010:0.0000000000000000e+000
5011:0.0000000000000000e+000
5012:0.0000000000000000e+000
5013:0.0000000000000000e+000
5014:0.0000000000000000e+000
5015:0.0000000000000000e+000
5016:0.0000000000000000e+000
5017:0.0000000000000000e+000
5018:0.0000000000000000e+000
5019:0.0000000000000000e+000
5020:0.0000000000000000e+000
5021:0.0000000000000000e+000
5022:0.0000000000000000e+000
5023:0.0000000000000000e+000
5024:0.0000000000000000e+000
5025:0.0000000000000000e+000
5026:0.0000000000000000e+000
5027:0.0000000000000000e+000
5028:0.0000000000000000e+000
5029:0.0000000000000000e+000
5030:0.0000000000000000e+000
5031:0.0000000000000000e+000
5032:0.0000000000000000e+000
5033:0.0000000000000000e+000
5034:0.0000000000000000e+000
5035:0.0000000000000000e+000
5036:0.0000000000000000e+000
5037:0.0000000000000000e+000
5038:0.0000000000000000e+000
5039:0.0000000000000000e+000
5040:0.0000000000000000e+000
5041:0.0000000000000000e+000
5042:0.0000000000000000e+000
5043:0.0000000000000000e+000
5044:0.0000000000000000e+000
5045:0.0000000000000000e+000
5046:0.0000000000000000e+000
5047:0.0000000000000000e+000
5048:0.0000000000000000e+000
5049:0.0000000000000000e+000
5050:0.0000000000000000e+000
5051:0.0000000000000000e+000
5052:0.0000000000000000e+000
5053:0.0000000000000000e+000
5054:0.0000000000000000e+000
5055:0.0000000000000000e+000
5056:0.0000000000000000e+000
5057:0.0000000000000000e+000
5058:0.0000000000000000e+000
5059:0.0000000000000000e+000
5060:0.0000000000000000e+000
5061:0.0000000000000000e+000
5062:0.0000000000000000e+000
5063:0.0000000000000000e+000
5064:0.0000000000000000e+000
5065:0.0000000000000000e+000
5066:0.0000000000000000e+000
5067:0.0000000000000000e+000
5068:0.0000000000000000e+000
5069:0.0000000000000000e+000
5070:0.0000000000000000e+000
5071:0.0000000000000000e+000
5072:0.0000000000000000e+000
5073:0.0000000000000000e+000
5074:0.0000000000000000e+000
5075:0.0000000000000000e+000
5076:0.0000000000000000e+000
5077:0.0000000000000000e+000
5078:0.0000000000000000e+000
5079:0.0000000000000000e+000
5080:0.0000000000000000e+000
5081:0.0000000000000000e+000
5082:0.0000000000000000e+000
5083:0.0000000000000000e+000
5084:0.0000000000000000e+000
5085:0.0000000000000000e+000
5086:0.0000000000000000e+000
5087:0.0000000000000000e+000
5088:0.0000000000000000e+000
5089:0.0000000000000000e+000
5090:0.0000000000000000e+000
5091:0.0000000000000000e+000
5092:0.0000000000000000e+000
5093:0.0000000000000000e+000
5094:0.0000000000000000e+000
5095:0.0000000000000000e+000
5096:0.0000000000000000e+000
5097:0.0000000000000000e+000
5098:0.0000000000000000e+000
5099:0.0000000000000000e+000
5100:0.0000000000000000e+000
5101:0.0000000000000000e+000
5102:0.0000000000000000e+000
5103:0.0000000000000000e+000
5104:0.0000000000000000e+000
5105:0.0000000000000000e+000
5106:0.0000000000000000e+000
5107:0.0000000000000000e+000
5108:0.0000000000000000e+000
5109:0.0000000000000000e+000
5110:0.0000000000000000e+000
5111:0.0000000000000000e+000
5112:0.0000000000000000e+000
5113:0.0000000000000000e+000
5114:0.0000000000000000e+000
5115:0.0000000000000000e+000
5116:0.0000000000000000e+000
5117:0.0000000000000000e+000
5118:0.0000000000000000e+000
5119:0.0000000000000000e+000
5120:0.0000000000000000e+000
5121:0.0000000000000000e+000
5122:0.0000000000000000e+000
5123:0.0000000000000000e+000
5124:0.0000000000000000e+000
5125:0.0000000000000000e+000
5126:0.0000000000000000e+000
5127:0.0000000000000000e+000
5128:0.0000000000000000e+000
5129:0.0000000000000000e+000
5130:0.0000000000000000e+000
5131:0.0000000000000000e+000
5132:0.0000000000000000e+000
5133:0.0000000000000000e+000
5134:0.0000000000000000e+000
5135:0.0000000000000000e+000
5136:0.0000000000000000e+000
5137:0.0000000000000000e+000
5138:0.0000000000000000e+000
5139:0.0000000000000000e+000
5140:0.0000000000000000e+000
5141:0.0000000000000000e+000
5142:0.0000000000000000e+000
5143:0.0000000000000000e+000
5144:0.0000000000000000e+000
5145:0.0000000000000000e+000
5146:0.0000000000000000e+000
5147:0.0000000000000000e+000
5148:0.0000000000000000e+000
5149:0.0000000000000000e+000
5150:0.0000000000000000e+000
5151:0.0000000000000000e+000
5152:0.0000000000000000e+000
5153:0.0000000000000000e+000
5154:0.0000000000000000e+000
5155:0.0000000000000000e+000
5156:0.0000000000000000e+000
5157:0.0000000000000000e+000
5158:0.0000000000000000e+000
5159:0.0000000000000000e+000
5160:0.0000000000000000e+000
5161:0.0000000000000000e+000
5162:0.0000000000000000e+000
5163:0.0000000000000000e+000
5164:0.0000000000000000e+000
5165:0.0000000000000000e+000
5166:0.0000000000000000e+000
5167:0.0000000000000000e+000
5168:0.0000000000000000e+000
5169:0.0000000000000000e+000
5170:0.0000000000000000e+000
5171:0.0000000000000000e+000
5172:0.0000000000000000e+000
5173:0.0000000000000000e+000
5174:0.0000000000000000e+000
5175:0.0000000000000000e+000
5176:0.0000000000000000e+000
5177:0.0000000000000000e+000
5178:0.0000000000000000e+000
5179:0.0000000000000000e+000
5180:0.0000000000000000e+000
5181:0.0000000000000000e+000
5182:0.0000000000000000e+000
5183:0.0000000000000000e+000
5184:0.0000000000000000e+000
5185:0.0000000000000000e+000
5186:0.0000000000000000e+000
5187:0.0000000000000000e+000
5188:0.0000000000000000e+000
5189:0.0000000000000000e+000
5190:0.0000000000000000e+000
5191:0.0000000000000000e+000
5192:0.0000000000000000e+000
5193:0.0000000000000000e+000
5194:0.0000000000000000e+000
5195:0.0000000000000000e+000
5196:0.0000000000000000e+000
5197:0.0000000000000000e+000
5198:0.0000000000000000e+000
5199:0.0000000000000000e+000
5200:0.0000000000000000e+000
5201:0.0000000000000000e+000
5202:0.0000000000000000e+000
5203:0.0000000000000000e+000
5204:0.0000000000000000e+000
5205:0.0000000000000000e+000
5206:0.0000000000000000e+000
5207:0.0000000000000000e+000
5208:0.0000000000000000e+000
5209:0.0000000000000000e+000
5210:0.0000000000000000e+000
5211:0.0000000000000000e+000
5212:0.0000000000000000e+000
5213:0.0000000000000000e+000
5214:0.0000000000000000e+000
5215:0.0000000000000000e+000
5216:0.0000000000000000e+000
5217:0.0000000000000000e+000
5218:0.0000000000000000e+000
5219:0.0000000000000000e+000
5220:0.0000000000000000e+000
5221:0.0000000000000000e+000
5222:0.0000000000000000e+000
5223:0.0000000000000000e+000
5224:0.0000000000000000e+000
5225:0.0000000000000000e+000
5226:0.0000000000000000e+000
5227:0.0000000000000000e+000
5228:0.0000000000000000e+000
5229:0.0000000000000000e+000
5230:0.0000000000000000e+000
5231:0.0000000000000000e+000
5232:0.0000000000000000e+000
5233:0.0000000000000000e+000
5234:0.0000000000000000e+000
5235:0.0000000000000000e+000
5236:0.0000000000000000e+000
5237:0.0000000000000000e+000
5238:0.0000000000000000e+000
5239:0.0000000000000000e+000
5240:0.0000000000000000e+000
5241:0.0000000000000000e+000
5242:0.0000000000000000e+000
5243:0.0000000000000000e+000
5244:0.0000000000000000e+000
5245:0.0000000000000000e+000
5246:0.0000000000000000e+000
5247:0.0000000000000000e+000
5248:0.0000000000000000e+000
5249:0.0000000000000000e+000
5250:0.0000000000000000e+000
5251:0.0000000000000000e+000
5252:0.0000000000000000e+000
5253:0.0000000000000000e+000
5254:0.0000000000000000e+000
5255:0.0000000000000000e+000
5256:0.0000000000000000e+000
5257:0.0000000000000000e+000
5258:0.0000000000000000e+000
5259:0.0000000000000000e+000
5260:0.0000000000000000e+000
5261:0.0000000000000000e+000
5262:0.0000000000000000e+000
5263:0.0000000000000000e+000
5264:0.0000000000000000e+000
5265:0.0000000000000000e+000
5266:0.0000000000000000e+000
5267:0.0000000000000000e+000
5268:0.0000000000000000e+000
5269:0.0000000000000000e+000
5270:0.0000000000000000e+000
5271:0.0000000000000000e+000
5272:0.0000000000000000e+000
5273:0.0000000000000000e+000
5274:0.0000000000000000e+000
5275:0.0000000000000000e+000
5276:0.0000000000000000e+000
5277:0.0000000000000000e+000
5278:0.0000000000000000e+000
5279:0.0000000000000000e+000
5280:0.0000000000000000e+000
5281:0.0000000000000000e+000
5282:0.0000000000000000e+000
5283:0.0000000000000000e+000
5284:0.0000000000000000e+000
5285:0.0000000000000000e+000
5286:0.0000000000000000e+000
5287:0.0000000000000000e+000
5288:0.0000000000000000e+000
5289:0.0000000000000000e+000
5290:0.0000000000000000e+000
5291:0.0000000000000000e+000
5292:0.0000000000000000e+000
5293:0.0000000000000000e+000
5294:0.0000000000000000e+000
5295:0.0000000000000000e+000
5296:0.0000000000000000e+000
5297:0.0000000000000000e+000
5298:0.0000000000000000e+000
5299:0.0000000000000000e+000
5300:0.0000000000000000e+000
5301:0.0000000000000000e+000
5302:0.0000000000000000e+000
5303:0.0000000000000000e+000
5304:0.0000000000000000e+000
5305:0.0000000000000000e+000
5306:0.0000000000000000e+000
5307:0.0000000000000000e+000
5308:0.0000000000000000e+000
5309:0.0000000000000000e+000
5310:0.0000000000000000e+000
5311:0.0000000000000000e+000
5312:0.0000000000000000e+000
5313:0.0000000000000000e+000
5314:0.0000000000000000e+000
5315:0.0000000000000000e+000
5316:0.0000000000000000e+000
5317:0.0000000000000000e+000
5318:0.0000000000000000e+000
5319:0.0000000000000000e+000
5320:0.0000000000000000e+000
5321:0.0000000000000000e+000
5322:0.0000000000000000e+000
5323:0.0000000000000000e+000
5324:0.0000000000000000e+000
5325:0.0000000000000000e+000
5326:0.0000000000000000e+000
5327:0.0000000000000000e+000
5328:0.0000000000000000e+000
5329:0.0000000000000000e+000
5330:0.0000000000000000e+000
5331:0.0000000000000000e+000
5332:0.0000000000000000e+000
5333:0.0000000000000000e+000
5334:0.0000000000000000e+000
5335:0.0000000000000000e+000
5336:0.0000000000000000e+000
5337:0.0000000000000000e+000
5338:0.0000000000000000e+000
5339:0.0000000000000000e+000
5340:0.0000000000000000e+000
5341:0.0000000000000000e+000
5342:0.0000000000000000e+000
5343:0.0000000000000000e+000
5344:0.0000000000000000e+000
5345:0.0000000000000000e+000
5346:0.0000000000000000e+000
5347:0.0000000000000000e+000
5348:0.0000000000000000e+000
5349:0.0000000000000000e+000
5350:0.0000000000000000e+000
5351:0.0000000000000000e+000
5352:0.0000000000000000e+000
5353:0.0000000000000000e+000
5354:0.0000000000000000e+000
5355:0.0000000000000000e+000
5356:0.0000000000000000e+000
5357:0.0000000000000000e+000
5358:0.0000000000000000e+000
5359:0.0000000000000000e+000
5360:0.0000000000000000e+000
5361:0.0000000000000000e+000
5362:0.0000000000000000e+000
5363:0.0000000000000000e+000
5364:0.0000000000000000e+000
5365:0.0000000000000000e+000
5366:0.0000000000000000e+000
5367:0.0000000000000000e+000
5368:0.0000000000000000e+000
5369:0.0000000000000000e+000
5370:0.0000000000000000e+000
5371:0.0000000000000000e+000
5372:0.0000000000000000e+000
5373:0.0000000000000000e+000
5374:0.0000000000000000e+000
5375:0.0000000000000000e+000
5376:0.0000000000000000e+000
5377:0.0000000000000000e+000
5378:0.0000000000000000e+000
5379:0.0000000000000000e+000
5380:0.0000000000000000e+000
5381:0.0000000000000000e+000
5382:0.0000000000000000e+000
5383:0.0000000000000000e+000
5384:0.0000000000000000e+000
5385:0.0000000000000000e+000
5386:0.0000000000000000e+000
5387:0.0000000000000000e+000
5388:0.0000000000000000e+000
5389:0.0000000000000000e+000
5390:0.0000000000000000e+000
5391:0.0000000000000000e+000
5392:0.0000000000000000e+000
5393:0.0000000000000000e+000
5394:0.0000000000000000e+000
5395:0.0000000000000000e+000
5396:0.0000000000000000e+000
5397:0.0000000000000000e+000
5398:0.0000000000000000e+000
5399:0.0000000000000000e+000
5400:0.0000000000000000e+000
5401:0.0000000000000000e+000
5402:0.0000000000000000e+000
5403:0.0000000000000000e+000
5404:0.0000000000000000e+000
5405:0.0000000000000000e+000
5406:0.0000000000000000e+000
5407:0.0000000000000000e+000
5408:0.0000000000000000e+000
5409:0.0000000000000000e+000
5410:0.0000000000000000e+000
5411:0.0000000000000000e+000
5412:0.0000000000000000e+000
5413:0.0000000000000000e+000
5414:0.0000000000000000e+000
5415:0.0000000000000000e+000
5416:0.0000000000000000e+000
5417:0.0000000000000000e+000
5418:0.0000000000000000e+000
5419:0.0000000000000000e+000
5420:0.0000000000000000e+000
5421:0.0000000000000000e+000
5422:0.0000000000000000e+000
5423:0.0000000000000000e+000
5424:0.0000000000000000e+000
5425:0.0000000000000000e+000
5426:0.0000000000000000e+000
5427:0.0000000000000000e+000
5428:0.0000000000000000e+000
5429:0.0000000000000000e+000
5430:0.0000000000000000e+000
5431:0.0000000000000000e+000
5432:0.0000000000000000e+000
5433:0.0000000000000000e+000
5434:0.0000000000000000e+000
5435:0.0000000000000000e+000
5436:0.0000000000000000e+000
5437:0.0000000000000000e+000
5438:0.0000000000000000e+000
5439:0.0000000000000000e+000
5440:0.0000000000000000e+000
5441:0.0000000000000000e+000
5442:0.0000000000000000e+000
5443:0.0000000000000000e+000
5444:0.0000000000000000e+000
5445:0.0000000000000000e+000
5446:0.0000000000000000e+000
5447:0.0000000000000000e+000
5448:0.0000000000000000e+000
5449:0.0000000000000000e+000
5450:0.0000000000000000e+000
5451:0.0000000000000000e+000
5452:0.0000000000000000e+000
5453:0.0000000000000000e+000
5454:0.0000000000000000e+000
5455:0.0000000000000000e+000
5456:0.0000000000000000e+000
5457:0.0000000000000000e+000
5458:0.0000000000000000e+000
5459:0.0000000000000000e+000
5460:0.0000000000000000e+000
5461:0.0000000000000000e+000
5462:0.0000000000000000e+000
5463:0.0000000000000000e+000
5464:0.0000000000000000e+000
5465:0.0000000000000000e+000
5466:0.0000000000000000e+000
5467:0.0000000000000000e+000
5468:0.0000000000000000e+000
5469:0.0000000000000000e+000
5470:0.0000000000000000e+000
5471:0.0000000000000000e+000
5472:0.0000000000000000e+000
5473:0.0000000000000000e+000
5474:0.0000000000000000e+000
5475:0.0000000000000000e+000
5476:0.0000000000000000e+000
5477:0.0000000000000000e+000
5478:0.0000000000000000e+000
5479:0.0000000000000000e+000
5480:0.0000000000000000e+000
5481:0.0000000000000000e+000
5482:0.0000000000000000e+000
5483:0.0000000000000000e+000
5484:0.0000000000000000e+000
5485:0.0000000000000000e+000
5486:0.0000000000000000e+000
5487:0.0000000000000000e+000
5488:0.0000000000000000e+000
5489:0.0000000000000000e+000
5490:0.0000000000000000e+000
5491:0.0000000000000000e+000
5492:0.0000000000000000e+000
5493:0.0000000000000000e+000
5494:0.0000000000000000e+000
5495:0.0000000000000000e+000
5496:0.0000000000000000e+000
5497:0.0000000000000000e+000
5498:0.0000000000000000e+000
5499:0.0000000000000000e+000
5500:0.0000000000000000e+000
5501:0.0000000000000000e+000
5502:0.0000000000000000e+000
5503:0.0000000000000000e+000
5504:0.0000000000000000e+000
5505:0.0000000000000000e+000
5506:0.0000000000000000e+000
5507:0.0000000000000000e+000
5508:0.0000000000000000e+000
5509:0.0000000000000000e+000
5510:0.0000000000000000e+000
5511:0.0000000000000000e+000
5512:0.0000000000000000e+000
5513:0.0000000000000000e+000
5514:0.0000000000000000e+000
5515:0.0000000000000000e+000
5516:0.0000000000000000e+000
5517:0.0000000000000000e+000
5518:0.0000000000000000e+000
5519:0.0000000000000000e+000
5520:0.0000000000000000e+000
5521:0.0000000000000000e+000
5522:0.0000000000000000e+000
5523:0.0000000000000000e+000
5524:0.0000000000000000e+000
5525:0.0000000000000000e+000
5526:0.0000000000000000e+000
5527:0.0000000000000000e+000
5528:0.0000000000000000e+000
5529:0.0000000000000000e+000
5530:0.0000000000000000e+000
5531:0.0000000000000000e+000
5532:0.0000000000000000e+000
5533:0.0000000000000000e+000
5534:0.0000000000000000e+000
5535:0.0000000000000000e+000
5536:0.0000000000000000e+000
5537:0.0000000000000000e+000
5538:0.0000000000000000e+000
5539:0.0000000000000000e+000
5540:0.0000000000000000e+000
5541:0.0000000000000000e+000
5542:0.0000000000000000e+000
5543:0.0000000000000000e+000
5544:0.0000000000000000e+000
5545:0.0000000000000000e+000
5546:0.0000000000000000e+000
5547:0.0000000000000000e+000
5548:0.0000000000000000e+000
5549:0.0000000000000000e+000
5550:0.0000000000000000e+000
5551:0.0000000000000000e+000
5552:0.0000000000000000e+000
5553:0.0000000000000000e+000
5554:0.0000000000000000e+000
5555:0.0000000000000000e+000
5556:0.0000000000000000e+000
5557:0.0000000000000000e+000
5558:0.0000000000000000e+000
5559:0.0000000000000000e+000
5560:0.0000000000000000e+000
5561:0.0000000000000000e+000
5562:0.0000000000000000e+000
5563:0.0000000000000000e+000
5564:0.0000000000000000e+000
5565:0.0000000000000000e+000
5566:0.0000000000000000e+000
5567:0.0000000000000000e+000
5568:0.0000000000000000e+000
5569:0.0000000000000000e+000
5570:0.0000000000000000e+000
5571:0.0000000000000000e+000
5572:0.0000000000000000e+000
5573:0.0000000000000000e+000
5574:0.0000000000000000e+000
5575:0.0000000000000000e+000
5576:0.0000000000000000e+000
5577:0.0000000000000000e+000
5578:0.0000000000000000e+000
5579:0.0000000000000000e+000
5580:0.0000000000000000e+000
5581:0.0000000000000000e+000
5582:0.0000000000000000e+000
5583:0.0000000000000000e+000
5584:0.0000000000000000e+000
5585:0.0000000000000000e+000
5586:0.0000000000000000e+000
5587:0.0000000000000000e+000
5588:0.0000000000000000e+000
5589:0.0000000000000000e+000
5590:0.0000000000000000e+000
5591:0.0000000000000000e+000
5592:0.0000000000000000e+000
5593:0.0000000000000000e+000
5594:0.0000000000000000e+000
5595:0.0000000000000000e+000
5596:0.0000000000000000e+000
5597:0.0000000000000000e+000
5598:0.0000000000000000e+000
5599:0.0000000000000000e+000
5600:0.0000000000000000e+000
5601:0.0000000000000000e+000
5602:0.0000000000000000e+000
5603:0.0000000000000000e+000
5604:0.0000000000000000e+000
5605:0.0000000000000000e+000
5606:0.0000000000000000e+000
5607:0.0000000000000000e+000
5608:0.0000000000000000e+000
5609:0.0000000000000000e+000
5610:0.0000000000000000e+000
5611:0.0000000000000000e+000
5612:0.0000000000000000e+000
5613:0.0000000000000000e+000
5614:0.0000000000000000e+000
5615:0.0000000000000000e+000
5616:0.0000000000000000e+000
5617:0.0000000000000000e+000
5618:0.0000000000000000e+000
5619:0.0000000000000000e+000
5620:0.0000000000000000e+000
5621:0.0000000000000000e+000
5622:0.0000000000000000e+000
5623:0.0000000000000000e+000
5624:0.0000000000000000e+000
5625:0.0000000000000000e+000
5626:0.0000000000000000e+000
5627:0.0000000000000000e+000
5628:0.0000000000000000e+000
5629:0.0000000000000000e+000
5630:0.0000000000000000e+000
5631:0.0000000000000000e+000
5632:0.0000000000000000e+000
5633:0.0000000000000000e+000
5634:0.0000000000000000e+000
5635:0.0000000000000000e+000
5636:0.0000000000000000e+000
5637:0.0000000000000000e+000
5638:0.0000000000000000e+000
5639:0.0000000000000000e+000
5640:0.0000000000000000e+000
5641:0.0000000000000000e+000
5642:0.0000000000000000e+000
5643:0.0000000000000000e+000
5644:0.0000000000000000e+000
5645:0.0000000000000000e+000
5646:0.0000000000000000e+000
5647:0.0000000000000000e+000
5648:0.0000000000000000e+000
5649:0.0000000000000000e+000
5650:0.0000000000000000e+000
5651:0.0000000000000000e+000
5652:0.0000000000000000e+000
5653:0.0000000000000000e+000
5654:0.0000000000000000e+000
5655:0.0000000000000000e+000
5656:0.0000000000000000e+000
5657:0.0000000000000000e+000
5658:0.0000000000000000e+000
5659:0.0000000000000000e+000
5660:0.0000000000000000e+000
5661:0.0000000000000000e+000
5662:0.0000000000000000e+000
5663:0.0000000000000000e+000
5664:0.0000000000000000e+000
5665:0.0000000000000000e+000
5666:0.0000000000000000e+000
5667:0.0000000000000000e+000
5668:0.0000000000000000e+000
5669:0.0000000000000000e+000
5670:0.0000000000000000e+000
5671:0.0000000000000000e+000
5672:0.0000000000000000e+000
5673:0.0000000000000000e+000
5674:0.0000000000000000e+000
5675:0.0000000000000000e+000
5676:0.0000000000000000e+000
5677:0.0000000000000000e+000
5678:0.0000000000000000e+000
5679:0.0000000000000000e+000
5680:0.0000000000000000e+000
5681:0.0000000000000000e+000
5682:0.0000000000000000e+000
5683:0.0000000000000000e+000
5684:0.0000000000000000e+000
5685:0.0000000000000000e+000
5686:0.0000000000000000e+000
5687:0.0000000000000000e+000
5688:0.0000000000000000e+000
5689:0.0000000000000000e+000
5690:0.0000000000000000e+000
5691:0.0000000000000000e+000
5692:0.0000000000000000e+000
5693:0.0000000000000000e+000
5694:0.0000000000000000e+000
5695:0.0000000000000000e+000
5696:0.0000000000000000e+000
5697:0.0000000000000000e+000
5698:0.0000000000000000e+000
5699:0.0000000000000000e+000
5700:0.0000000000000000e+000
5701:0.0000000000000000e+000
5702:0.0000000000000000e+000
5703:0.0000000000000000e+000
5704:0.0000000000000000e+000
5705:0.0000000000000000e+000
5706:0.0000000000000000e+000
5707:0.0000000000000000e+000
5708:0.0000000000000000e+000
5709:0.0000000000000000e+000
5710:0.0000000000000000e+000
5711:0.0000000000000000e+000
5712:0.0000000000000000e+000
5713:0.0000000000000000e+000
5714:0.0000000000000000e+000
5715:0.0000000000000000e+000
5716:0.0000000000000000e+000
5717:0.0000000000000000e+000
5718:0.0000000000000000e+000
5719:0.0000000000000000e+000
5720:0.0000000000000000e+000
5721:0.0000000000000000e+000
5722:0.0000000000000000e+000
5723:0.0000000000000000e+000
5724:0.0000000000000000e+000
5725:0.0000000000000000e+000
5726:0.0000000000000000e+000
5727:0.0000000000000000e+000
5728:0.0000000000000000e+000
5729:0.0000000000000000e+000
5730:0.0000000000000000e+000
5731:0.0000000000000000e+000
5732:0.0000000000000000e+000
5733:0.0000000000000000e+000
5734:0.0000000000000000e+000
5735:0.0000000000000000e+000
5736:0.0000000000000000e+000
5737:0.0000000000000000e+000
5738:0.0000000000000000e+000
5739:0.0000000000000000e+000
5740:0.0000000000000000e+000
5741:0.0000000000000000e+000
5742:0.0000000000000000e+000
5743:0.0000000000000000e+000
5744:0.0000000000000000e+000
5745:0.0000000000000000e+000
5746:0.0000000000000000e+000
5747:0.0000000000000000e+000
5748:0.0000000000000000e+000
5749:0.0000000000000000e+000
5750:0.0000000000000000e+000
5751:0.0000000000000000e+000
5752:0.0000000000000000e+000
5753:0.0000000000000000e+000
5754:0.0000000000000000e+000
5755:0.0000000000000000e+000
5756:0.0000000000000000e+000
5757:0.0000000000000000e+000
5758:0.0000000000000000e+000
5759:0.0000000000000000e+000
5760:0.0000000000000000e+000
5761:0.0000000000000000e+000
5762:0.0000000000000000e+000
5763:0.0000000000000000e+000
5764:0.0000000000000000e+000
5765:0.0000000000000000e+000
5766:0.0000000000000000e+000
5767:0.0000000000000000e+000
5768:0.0000000000000000e+000
5769:0.0000000000000000e+000
5770:0.0000000000000000e+000
5771:0.0000000000000000e+000
5772:0.0000000000000000e+000
5773:0.0000000000000000e+000
5774:0.0000000000000000e+000
5775:0.0000000000000000e+000
5776:0.0000000000000000e+000
5777:0.0000000000000000e+000
5778:0.0000000000000000e+000
5779:0.0000000000000000e+000
5780:0.0000000000000000e+000
5781:0.0000000000000000e+000
5782:0.0000000000000000e+000
5783:0.0000000000000000e+000
5784:0.0000000000000000e+000
5785:0.0000000000000000e+000
5786:0.0000000000000000e+000
5787:0.0000000000000000e+000
5788:0.0000000000000000e+000
5789:0.0000000000000000e+000
5790:0.0000000000000000e+000
5791:0.0000000000000000e+000
5792:0.0000000000000000e+000
5793:0.0000000000000000e+000
5794:0.0000000000000000e+000
5795:0.0000000000000000e+000
5796:0.0000000000000000e+000
5797:0.0000000000000000e+000
5798:0.0000000000000000e+000
5799:0.0000000000000000e+000
5800:0.0000000000000000e+000
5801:0.0000000000000000e+000
5802:0.0000000000000000e+000
5803:0.0000000000000000e+000
5804:0.0000000000000000e+000
5805:0.0000000000000000e+000
5806:0.0000000000000000e+000
5807:0.0000000000000000e+000
5808:0.0000000000000000e+000
5809:0.0000000000000000e+000
5810:0.0000000000000000e+000
5811:0.0000000000000000e+000
5812:0.0000000000000000e+000
5813:0.0000000000000000e+000
5814:0.0000000000000000e+000
5815:0.0000000000000000e+000
5816:0.0000000000000000e+000
5817:0.0000000000000000e+000
5818:0.0000000000000000e+000
5819:0.0000000000000000e+000
5820:0.0000000000000000e+000
5821:0.0000000000000000e+000
5822:0.0000000000000000e+000
5823:0.0000000000000000e+000
5824:0.0000000000000000e+000
5825:0.0000000000000000e+000
5826:0.0000000000000000e+000
5827:0.0000000000000000e+000
5828:0.0000000000000000e+000
5829:0.0000000000000000e+000
5830:0.0000000000000000e+000
5831:0.0000000000000000e+000
5832:0.0000000000000000e+000
5833:0.0000000000000000e+000
5834:0.0000000000000000e+000
5835:0.0000000000000000e+000
5836:0.0000000000000000e+000
5837:0.0000000000000000e+000
5838:0.0000000000000000e+000
5839:0.0000000000000000e+000
5840:0.0000000000000000e+000
5841:0.0000000000000000e+000
5842:0.0000000000000000e+000
5843:0.0000000000000000e+000
5844:0.0000000000000000e+000
5845:0.0000000000000000e+000
5846:0.0000000000000000e+000
5847:0.0000000000000000e+000
5848:0.0000000000000000e+000
5849:0.0000000000000000e+000
5850:0.0000000000000000e+000
5851:0.0000000000000000e+000
5852:0.0000000000000000e+000
5853:0.0000000000000000e+000
5854:0.0000000000000000e+000
5855:0.0000000000000000e+000
5856:0.0000000000000000e+000
5857:0.0000000000000000e+000
5858:0.0000000000000000e+000
5859:0.0000000000000000e+000
5860:0.0000000000000000e+000
5861:0.0000000000000000e+000
5862:0.0000000000000000e+000
5863:0.0000000000000000e+000
5864:0.0000000000000000e+000
5865:0.0000000000000000e+000
5866:0.0000000000000000e+000
5867:0.0000000000000000e+000
5868:0.0000000000000000e+000
5869:0.0000000000000000e+000
5870:0.0000000000000000e+000
5871:0.0000000000000000e+000
5872:0.0000000000000000e+000
5873:0.0000000000000000e+000
5874:0.0000000000000000e+000
5875:0.0000000000000000e+000
5876:0.0000000000000000e+000
5877:0.0000000000000000e+000
5878:0.0000000000000000e+000
5879:0.0000000000000000e+000
5880:0.0000000000000000e+000
5881:0.0000000000000000e+000
5882:0.0000000000000000e+000
5883:0.0000000000000000e+000
5884:0.0000000000000000e+000
5885:0.0000000000000000e+000
5886:0.0000000000000000e+000
5887:0.0000000000000000e+000
5888:0.0000000000000000e+000
5889:0.0000000000000000e+000
5890:0.0000000000000000e+000
5891:0.0000000000000000e+000
5892:0.0000000000000000e+000
5893:0.0000000000000000e+000
5894:0.0000000000000000e+000
5895:0.0000000000000000e+000
5896:0.0000000000000000e+000
5897:0.0000000000000000e+000
5898:0.0000000000000000e+000
5899:0.0000000000000000e+000
5900:0.0000000000000000e+000
5901:0.0000000000000000e+000
5902:0.0000000000000000e+000
5903:0.0000000000000000e+000
5904:0.0000000000000000e+000
5905:0.0000000000000000e+000
5906:0.0000000000000000e+000
5907:0.0000000000000000e+000
5908:0.0000000000000000e+000
5909:0.0000000000000000e+000
5910:0.0000000000000000e+000
5911:0.0000000000000000e+000
5912:0.0000000000000000e+000
5913:0.0000000000000000e+000
5914:0.0000000000000000e+000
5915:0.0000000000000000e+000
5916:0.0000000000000000e+000
5917:0.0000000000000000e+000
5918:0.0000000000000000e+000
5919:0.0000000000000000e+000
5920:0.0000000000000000e+000
5921:0.0000000000000000e+000
5922:0.0000000000000000e+000
5923:0.0000000000000000e+000
5924:0.0000000000000000e+000
5925:0.0000000000000000e+000
5926:0.0000000000000000e+000
5927:0.0000000000000000e+000
5928:0.0000000000000000e+000
5929:0.0000000000000000e+000
5930:0.0000000000000000e+000
5931:0.0000000000000000e+000
5932:0.0000000000000000e+000
5933:0.0000000000000000e+000
5934:0.0000000000000000e+000
5935:0.0000000000000000e+000
5936:0.0000000000000000e+000
5937:0.0000000000000000e+000
5938:0.0000000000000000e+000
5939:0.0000000000000000e+000
5940:0.0000000000000000e+000
5941:0.0000000000000000e+000
5942:0.0000000000000000e+000
5943:0.0000000000000000e+000
5944:0.0000000000000000e+000
5945:0.0000000000000000e+000
5946:0.0000000000000000e+000
5947:0.0000000000000000e+000
5948:0.0000000000000000e+000
5949:0.0000000000000000e+000
5950:0.0000000000000000e+000
5951:0.0000000000000000e+000
5952:0.0000000000000000e+000
5953:0.0000000000000000e+000
5954:0.0000000000000000e+000
5955:0.0000000000000000e+000
5956:0.0000000000000000e+000
5957:0.0000000000000000e+000
5958:0.0000000000000000e+000
5959:0.0000000000000000e+000
5960:0.0000000000000000e+000
5961:0.0000000000000000e+000
5962:0.0000000000000000e+000
5963:0.0000000000000000e+000
5964:0.0000000000000000e+000
5965:0.0000000000000000e+000
5966:0.0000000000000000e+000
5967:0.0000000000000000e+000
5968:0.0000000000000000e+000
5969:0.0000000000000000e+000
5970:0.0000000000000000e+000
5971:0.0000000000000000e+000
5972:0.0000000000000000e+000
5973:0.0000000000000000e+000
5974:0.0000000000000000e+000
5975:0.0000000000000000e+000
5976:0.0000000000000000e+000
5977:0.0000000000000000e+000
5978:0.0000000000000000e+000
5979:0.0000000000000000e+000
5980:0.0000000000000000e+000
5981:0.0000000000000000e+000
5982:0.0000000000000000e+000
5983:0.0000000000000000e+000
5984:0.0000000000000000e+000
5985:0.0000000000000000e+000
5986:0.0000000000000000e+000
5987:0.0000000000000000e+000
5988:0.0000000000000000e+000
5989:0.0000000000000000e+000
5990:0.0000000000000000e+000
5991:0.0000000000000000e+000
5992:0.0000000000000000e+000
5993:0.0000000000000000e+000
5994:0.0000000000000000e+000
5995:0.0000000000000000e+000
5996:0.0000000000000000e+000
5997:0.0000000000000000e+000
5998:0.0000000000000000e+000
5999:0.0000000000000000e+000
6000:0.0000000000000000e+000
6001:0.0000000000000000e+000
6002:0.0000000000000000e+000
6003:0.0000000000000000e+000
6004:0.0000000000000000e+000
6005:0.0000000000000000e+000
6006:0.0000000000000000e+000
6007:0.0000000000000000e+000
6008:0.0000000000000000e+000
6009:0.0000000000000000e+000
6010:0.0000000000000000e+000
6011:0.0000000000000000e+000
6012:0.0000000000000000e+000
6013:0.0000000000000000e+000
6014:0.0000000000000000e+000
6015:0.0000000000000000e+000
6016:0.0000000000000000e+000
6017:0.0000000000000000e+000
6018:0.0000000000000000e+000
6019:0.0000000000000000e+000
6020:0.0000000000000000e+000
6021:0.0000000000000000e+000
6022:0.0000000000000000e+000
6023:0.0000000000000000e+000
6024:0.0000000000000000e+000
6025:0.0000000000000000e+000
6026:0.0000000000000000e+000
6027:0.0000000000000000e+000
6028:0.0000000000000000e+000
6029:0.0000000000000000e+000
6030:0.0000000000000000e+000
6031:0.0000000000000000e+000
6032:0.0000000000000000e+000
6033:0.0000000000000000e+000
6034:0.0000000000000000e+000
6035:0.0000000000000000e+000
6036:0.0000000000000000e+000
6037:0.0000000000000000e+000
6038:0.0000000000000000e+000
6039:0.0000000000000000e+000
6040:0.0000000000000000e+000
6041:0.0000000000000000e+000
6042:0.0000000000000000e+000
6043:0.0000000000000000e+000
6044:0.0000000000000000e+000
6045:0.0000000000000000e+000
6046:0.0000000000000000e+000
6047:0.0000000000000000e+000
6048:0.0000000000000000e+000
6049:0.0000000000000000e+000
6050:0.0000000000000000e+000
6051:0.0000000000000000e+000
6052:0.0000000000000000e+000
6053:0.0000000000000000e+000
6054:0.0000000000000000e+000
6055:0.0000000000000000e+000
6056:0.0000000000000000e+000
6057:0.0000000000000000e+000
6058:0.0000000000000000e+000
6059:0.0000000000000000e+000
6060:0.0000000000000000e+000
6061:0.0000000000000000e+000
6062:0.0000000000000000e+000
6063:0.0000000000000000e+000
6064:0.0000000000000000e+000
6065:0.0000000000000000e+000
6066:0.0000000000000000e+000
6067:0.0000000000000000e+000
6068:0.0000000000000000e+000
6069:0.0000000000000000e+000
6070:0.0000000000000000e+000
6071:0.0000000000000000e+000
6072:0.0000000000000000e+000
6073:0.0000000000000000e+000
6074:0.0000000000000000e+000
6075:0.0000000000000000e+000
6076:0.0000000000000000e+000
6077:0.0000000000000000e+000
6078:0.0000000000000000e+000
6079:0.0000000000000000e+000
6080:0.0000000000000000e+000
6081:0.0000000000000000e+000
6082:0.0000000000000000e+000
6083:0.0000000000000000e+000
6084:0.0000000000000000e+000
6085:0.0000000000000000e+000
6086:0.0000000000000000e+000
6087:0.0000000000000000e+000
6088:0.0000000000000000e+000
6089:0.0000000000000000e+000
6090:0.0000000000000000e+000
6091:0.0000000000000000e+000
6092:0.0000000000000000e+000
6093:0.0000000000000000e+000
6094:0.0000000000000000e+000
6095:0.0000000000000000e+000
6096:0.0000000000000000e+000
6097:0.0000000000000000e+000
6098:0.0000000000000000e+000
6099:0.0000000000000000e+000
6100:0.0000000000000000e+000
6101:0.0000000000000000e+000
6102:0.0000000000000000e+000
6103:0.0000000000000000e+000
6104:0.0000000000000000e+000
6105:0.0000000000000000e+000
6106:0.0000000000000000e+000
6107:0.0000000000000000e+000
6108:0.0000000000000000e+000
6109:0.0000000000000000e+000
6110:0.0000000000000000e+000
6111:0.0000000000000000e+000
6112:0.0000000000000000e+000
6113:0.0000000000000000e+000
6114:0.0000000000000000e+000
6115:0.0000000000000000e+000
6116:0.0000000000000000e+000
6117:0.0000000000000000e+000
6118:0.0000000000000000e+000
6119:0.0000000000000000e+000
6120:0.0000000000000000e+000
6121:0.0000000000000000e+000
6122:0.0000000000000000e+000
6123:0.0000000000000000e+000
6124:0.0000000000000000e+000
6125:0.0000000000000000e+000
6126:0.0000000000000000e+000
6127:0.0000000000000000e+000
6128:0.0000000000000000e+000
6129:0.0000000000000000e+000
6130:0.0000000000000000e+000
6131:0.0000000000000000e+000
6132:0.0000000000000000e+000
6133:0.0000000000000000e+000
6134:0.0000000000000000e+000
6135:0.0000000000000000e+000
6136:0.0000000000000000e+000
6137:0.0000000000000000e+000
6138:0.0000000000000000e+000
6139:0.0000000000000000e+000
6140:0.0000000000000000e+000
6141:0.0000000000000000e+000
6142:0.0000000000000000e+000
6143:0.0000000000000000e+000
6144:0.0000000000000000e+000
6145:0.0000000000000000e+000
6146:0.0000000000000000e+000
6147:0.0000000000000000e+000
6148:0.0000000000000000e+000
6149:0.0000000000000000e+000
6150:0.0000000000000000e+000
6151:0.0000000000000000e+000
6152:0.0000000000000000e+000
6153:0.0000000000000000e+000
6154:0.0000000000000000e+000
6155:0.0000000000000000e+000
6156:0.0000000000000000e+000
6157:0.0000000000000000e+000
6158:0.0000000000000000e+000
6159:0.0000000000000000e+000
6160:0.0000000000000000e+000
6161:0.0000000000000000e+000
6162:0.0000000000000000e+000
6163:0.0000000000000000e+000
6164:0.0000000000000000e+000
6165:0.0000000000000000e+000
6166:0.0000000000000000e+000
6167:0.0000000000000000e+000
6168:0.0000000000000000e+000
6169:0.0000000000000000e+000
6170:0.0000000000000000e+000
6171:0.0000000000000000e+000
6172:0.0000000000000000e+000
6173:0.0000000000000000e+000
6174:0.0000000000000000e+000
6175:0.0000000000000000e+000
6176:0.0000000000000000e+000
6177:0.0000000000000000e+000
6178:0.0000000000000000e+000
6179:0.0000000000000000e+000
6180:0.0000000000000000e+000
6181:0.0000000000000000e+000
6182:0.0000000000000000e+000
6183:0.0000000000000000e+000
6184:0.0000000000000000e+000
6185:0.0000000000000000e+000
6186:0.0000000000000000e+000
6187:0.0000000000000000e+000
6188:0.0000000000000000e+000
6189:0.0000000000000000e+000
6190:0.0000000000000000e+000
6191:0.0000000000000000e+000
6192:0.0000000000000000e+000
6193:0.0000000000000000e+000
6194:0.0000000000000000e+000
6195:0.0000000000000000e+000
6196:0.0000000000000000e+000
6197:0.0000000000000000e+000
6198:0.0000000000000000e+000
6199:0.0000000000000000e+000
6200:0.0000000000000000e+000
6201:0.0000000000000000e+000
6202:0.0000000000000000e+000
6203:0.0000000000000000e+000
6204:0.0000000000000000e+000
6205:0.0000000000000000e+000
6206:0.0000000000000000e+000
6207:0.0000000000000000e+000
6208:0.0000000000000000e+000
6209:0.0000000000000000e+000
6210:0.0000000000000000e+000
6211:0.0000000000000000e+000
6212:0.0000000000000000e+000
6213:0.0000000000000000e+000
6214:0.0000000000000000e+000
6215:0.0000000000000000e+000
6216:0.0000000000000000e+000
6217:0.0000000000000000e+000
6218:0.0000000000000000e+000
6219:0.0000000000000000e+000
6220:0.0000000000000000e+000
6221:0.0000000000000000e+000
6222:0.0000000000000000e+000
6223:0.0000000000000000e+000
6224:0.0000000000000000e+000
6225:0.0000000000000000e+000
6226:0.0000000000000000e+000
6227:0.0000000000000000e+000
6228:0.0000000000000000e+000
6229:0.0000000000000000e+000
6230:0.0000000000000000e+000
6231:0.0000000000000000e+000
6232:0.0000000000000000e+000
6233:0.0000000000000000e+000
6234:0.0000000000000000e+000
6235:0.0000000000000000e+000
6236:0.0000000000000000e+000
6237:0.0000000000000000e+000
6238:0.0000000000000000e+000
6239:0.0000000000000000e+000
6240:0.0000000000000000e+000
6241:0.0000000000000000e+000
6242:0.0000000000000000e+000
6243:0.0000000000000000e+000
6244:0.0000000000000000e+000
6245:0.0000000000000000e+000
6246:0.0000000000000000e+000
6247:0.0000000000000000e+000
6248:0.0000000000000000e+000
6249:0.0000000000000000e+000
6250:0.0000000000000000e+000
6251:0.0000000000000000e+000
6252:0.0000000000000000e+000
6253:0.0000000000000000e+000
6254:0.0000000000000000e+000
6255:0.0000000000000000e+000
6256:0.0000000000000000e+000
6257:0.0000000000000000e+000
6258:0.0000000000000000e+000
6259:0.0000000000000000e+000
6260:0.0000000000000000e+000
6261:0.0000000000000000e+000
6262:0.0000000000000000e+000
6263:0.0000000000000000e+000
6264:0.0000000000000000e+000
6265:0.0000000000000000e+000
6266:0.0000000000000000e+000
6267:0.0000000000000000e+000
6268:0.0000000000000000e+000
6269:0.0000000000000000e+000
6270:0.0000000000000000e+000
6271:0.0000000000000000e+000
6272:0.0000000000000000e+000
6273:0.0000000000000000e+000
6274:0.0000000000000000e+000
6275:0.0000000000000000e+000
6276:0.0000000000000000e+000
6277:0.0000000000000000e+000
6278:0.0000000000000000e+000
6279:0.0000000000000000e+000
6280:0.0000000000000000e+000
6281:0.0000000000000000e+000
6282:0.0000000000000000e+000
6283:0.0000000000000000e+000
6284:0.0000000000000000e+000
6285:0.0000000000000000e+000
6286:0.0000000000000000e+000
6287:0.0000000000000000e+000
6288:0.0000000000000000e+000
6289:0.0000000000000000e+000
6290:0.0000000000000000e+000
6291:0.0000000000000000e+000
6292:0.0000000000000000e+000
6293:0.0000000000000000e+000
6294:0.0000000000000000e+000
6295:0.0000000000000000e+000
6296:0.0000000000000000e+000
6297:0.0000000000000000e+000
6298:0.0000000000000000e+000
6299:0.0000000000000000e+000
6300:0.0000000000000000e+000
6301:0.0000000000000000e+000
6302:0.0000000000000000e+000
6303:0.0000000000000000e+000
6304:0.0000000000000000e+000
6305:0.0000000000000000e+000
6306:0.0000000000000000e+000
6307:0.0000000000000000e+000
6308:0.0000000000000000e+000
6309:0.0000000000000000e+000
6310:0.0000000000000000e+000
6311:0.0000000000000000e+000
6312:0.0000000000000000e+000
6313:0.0000000000000000e+000
6314:0.0000000000000000e+000
6315:0.0000000000000000e+000
6316:0.0000000000000000e+000
6317:0.0000000000000000e+000
6318:0.0000000000000000e+000
6319:0.0000000000000000e+000
6320:0.0000000000000000e+000
6321:0.0000000000000000e+000
6322:0.0000000000000000e+000
6323:0.0000000000000000e+000
6324:0.0000000000000000e+000
6325:0.0000000000000000e+000
6326:0.0000000000000000e+000
6327:0.0000000000000000e+000
6328:0.0000000000000000e+000
6329:0.0000000000000000e+000
6330:0.0000000000000000e+000
6331:0.0000000000000000e+000
6332:0.0000000000000000e+000
6333:0.0000000000000000e+000
6334:0.0000000000000000e+000
6335:0.0000000000000000e+000
6336:0.0000000000000000e+000
6337:0.0000000000000000e+000
6338:0.0000000000000000e+000
6339:0.0000000000000000e+000
6340:0.0000000000000000e+000
6341:0.0000000000000000e+000
6342:0.0000000000000000e+000
6343:0.0000000000000000e+000
6344:0.0000000000000000e+000
6345:0.0000000000000000e+000
6346:0.0000000000000000e+000
6347:0.0000000000000000e+000
6348:0.0000000000000000e+000
6349:0.0000000000000000e+000
6350:0.0000000000000000e+000
6351:0.0000000000000000e+000
6352:0.0000000000000000e+000
6353:0.0000000000000000e+000
6354:0.0000000000000000e+000
6355:0.0000000000000000e+000
6356:0.0000000000000000e+000
6357:0.0000000000000000e+000
6358:0.0000000000000000e+000
6359:0.0000000000000000e+000
6360:0.0000000000000000e+000
6361:0.0000000000000000e+000
6362:0.0000000000000000e+000
6363:0.0000000000000000e+000
6364:0.0000000000000000e+000
6365:0.0000000000000000e+000
6366:0.0000000000000000e+000
6367:0.0000000000000000e+000
6368:0.0000000000000000e+000
6369:0.0000000000000000e+000
6370:0.0000000000000000e+000
6371:0.0000000000000000e+000
6372:0.0000000000000000e+000
6373:0.0000000000000000e+000
6374:0.0000000000000000e+000
6375:0.0000000000000000e+000
6376:0.0000000000000000e+000
6377:0.0000000000000000e+000
6378:0.0000000000000000e+000
6379:0.0000000000000000e+000
6380:0.0000000000000000e+000
6381:0.0000000000000000e+000
6382:0.0000000000000000e+000
6383:0.0000000000000000e+000
6384:0.0000000000000000e+000
6385:0.0000000000000000e+000
6386:0.0000000000000000e+000
6387:0.0000000000000000e+000
6388:0.0000000000000000e+000
6389:0.0000000000000000e+000
6390:0.0000000000000000e+000
6391:0.0000000000000000e+000
6392:0.0000000000000000e+000
6393:0.0000000000000000e+000
6394:0.0000000000000000e+000
6395:0.0000000000000000e+000
6396:0.0000000000000000e+000
6397:0.0000000000000000e+000
6398:0.0000000000000000e+000
6399:0.0000000000000000e+000
6400:0.0000000000000000e+000
6401:0.0000000000000000e+000
6402:0.0000000000000000e+000
6403:0.0000000000000000e+000
6404:0.0000000000000000e+000
6405:0.0000000000000000e+000
6406:0.0000000000000000e+000
6407:0.0000000000000000e+000
6408:0.0000000000000000e+000
6409:0.0000000000000000e+000
6410:0.0000000000000000e+000
6411:0.0000000000000000e+000
6412:0.0000000000000000e+000
6413:0.0000000000000000e+000
6414:0.0000000000000000e+000
6415:0.0000000000000000e+000
6416:0.0000000000000000e+000
6417:0.0000000000000000e+000
6418:0.0000000000000000e+000
6419:0.0000000000000000e+000
6420:0.0000000000000000e+000
6421:0.0000000000000000e+000
6422:0.0000000000000000e+000
6423:0.0000000000000000e+000
6424:0.0000000000000000e+000
6425:0.0000000000000000e+000
6426:0.0000000000000000e+000
6427:0.0000000000000000e+000
6428:0.0000000000000000e+000
6429:0.0000000000000000e+000
6430:0.0000000000000000e+000
6431:0.0000000000000000e+000
6432:0.0000000000000000e+000
6433:0.0000000000000000e+000
6434:0.0000000000000000e+000
6435:0.0000000000000000e+000
6436:0.0000000000000000e+000
6437:0.0000000000000000e+000
6438:0.0000000000000000e+000
6439:0.0000000000000000e+000
6440:0.0000000000000000e+000
6441:0.0000000000000000e+000
6442:0.0000000000000000e+000
6443:0.0000000000000000e+000
6444:0.0000000000000000e+000
6445:0.0000000000000000e+000
6446:0.0000000000000000e+000
6447:0.0000000000000000e+000
6448:0.0000000000000000e+000
6449:0.0000000000000000e+000
6450:0.0000000000000000e+000
6451:0.0000000000000000e+000
6452:0.0000000000000000e+000
6453:0.0000000000000000e+000
6454:0.0000000000000000e+000
6455:0.0000000000000000e+000
6456:0.0000000000000000e+000
6457:0.0000000000000000e+000
6458:0.0000000000000000e+000
6459:0.0000000000000000e+000
6460:0.0000000000000000e+000
6461:0.0000000000000000e+000
6462:0.0000000000000000e+000
6463:0.0000000000000000e+000
6464:0.0000000000000000e+000
6465:0.0000000000000000e+000
6466:0.0000000000000000e+000
6467:0.0000000000000000e+000
6468:0.0000000000000000e+000
6469:0.0000000000000000e+000
6470:0.0000000000000000e+000
6471:0.0000000000000000e+000
6472:0.0000000000000000e+000
6473:0.0000000000000000e+000
6474:0.0000000000000000e+000
6475:0.0000000000000000e+000
6476:0.0000000000000000e+000
6477:0.0000000000000000e+000
6478:0.0000000000000000e+000
6479:0.0000000000000000e+000
6480:0.0000000000000000e+000
6481:0.0000000000000000e+000
6482:0.0000000000000000e+000
6483:0.0000000000000000e+000
6484:0.0000000000000000e+000
6485:0.0000000000000000e+000
6486:0.0000000000000000e+000
6487:0.0000000000000000e+000
6488:0.0000000000000000e+000
6489:0.0000000000000000e+000
6490:0.0000000000000000e+000
6491:0.0000000000000000e+000
6492:0.0000000000000000e+000
6493:0.0000000000000000e+000
6494:0.0000000000000000e+000
6495:0.0000000000000000e+000
6496:0.0000000000000000e+000
6497:0.0000000000000000e+000
6498:0.0000000000000000e+000
6499:0.0000000000000000e+000
6500:0.0000000000000000e+000
6501:0.0000000000000000e+000
6502:0.0000000000000000e+000
6503:0.0000000000000000e+000
6504:0.0000000000000000e+000
6505:0.0000000000000000e+000
6506:0.0000000000000000e+000
6507:0.0000000000000000e+000
6508:0.0000000000000000e+000
6509:0.0000000000000000e+000
6510:0.0000000000000000e+000
6511:0.0000000000000000e+000
6512:0.0000000000000000e+000
6513:0.0000000000000000e+000
6514:0.0000000000000000e+000
6515:0.0000000000000000e+000
6516:0.0000000000000000e+000
6517:0.0000000000000000e+000
6518:0.0000000000000000e+000
6519:0.0000000000000000e+000
6520:0.0000000000000000e+000
6521:0.0000000000000000e+000
6522:0.0000000000000000e+000
6523:0.0000000000000000e+000
6524:0.0000000000000000e+000
6525:0.0000000000000000e+000
6526:0.0000000000000000e+000
6527:0.0000000000000000e+000
6528:0.0000000000000000e+000
6529:0.0000000000000000e+000
6530:0.0000000000000000e+000
6531:0.0000000000000000e+000
6532:0.0000000000000000e+000
6533:0.0000000000000000e+000
6534:0.0000000000000000e+000
6535:0.0000000000000000e+000
6536:0.0000000000000000e+000
6537:0.0000000000000000e+000
6538:0.0000000000000000e+000
6539:0.0000000000000000e+000
6540:0.0000000000000000e+000
6541:0.0000000000000000e+000
6542:0.0000000000000000e+000
6543:0.0000000000000000e+000
6544:0.0000000000000000e+000
6545:0.0000000000000000e+000
6546:0.0000000000000000e+000
6547:0.0000000000000000e+000
6548:0.0000000000000000e+000
6549:0.0000000000000000e+000
6550:0.0000000000000000e+000
6551:0.0000000000000000e+000
6552:0.0000000000000000e+000
6553:0.0000000000000000e+000
6554:0.0000000000000000e+000
6555:0.0000000000000000e+000
6556:0.0000000000000000e+000
6557:0.0000000000000000e+000
6558:0.0000000000000000e+000
6559:0.0000000000000000e+000
6560:0.0000000000000000e+000
6561:0.0000000000000000e+000
6562:0.0000000000000000e+000
6563:0.0000000000000000e+000
6564:0.0000000000000000e+000
6565:0.0000000000000000e+000
6566:0.0000000000000000e+000
6567:0.0000000000000000e+000
6568:0.0000000000000000e+000
6569:0.0000000000000000e+000
6570:0.0000000000000000e+000
6571:0.0000000000000000e+000
6572:0.0000000000000000e+000
6573:0.0000000000000000e+000
6574:0.0000000000000000e+000
6575:0.0000000000000000e+000
6576:0.0000000000000000e+000
6577:0.0000000000000000e+000
6578:0.0000000000000000e+000
6579:0.0000000000000000e+000
6580:0.0000000000000000e+000
6581:0.0000000000000000e+000
6582:0.0000000000000000e+000
6583:0.0000000000000000e+000
6584:0.0000000000000000e+000
6585:0.0000000000000000e+000
6586:0.0000000000000000e+000
6587:0.0000000000000000e+000
6588:0.0000000000000000e+000
6589:0.0000000000000000e+000
6590:0.0000000000000000e+000
6591:0.0000000000000000e+000
6592:0.0000000000000000e+000
6593:0.0000000000000000e+000
6594:0.0000000000000000e+000
6595:0.0000000000000000e+000
6596:0.0000000000000000e+000
6597:0.0000000000000000e+000
6598:0.0000000000000000e+000
6599:0.0000000000000000e+000
6600:0.0000000000000000e+000
6601:0.0000000000000000e+000
6602:0.0000000000000000e+000
6603:0.0000000000000000e+000
6604:0.0000000000000000e+000
6605:0.0000000000000000e+000
6606:0.0000000000000000e+000
6607:0.0000000000000000e+000
6608:0.0000000000000000e+000
6609:0.0000000000000000e+000
6610:0.0000000000000000e+000
6611:0.0000000000000000e+000
6612:0.0000000000000000e+000
6613:0.0000000000000000e+000
6614:0.0000000000000000e+000
6615:0.0000000000000000e+000
6616:0.0000000000000000e+000
6617:0.0000000000000000e+000
6618:0.0000000000000000e+000
6619:0.0000000000000000e+000
6620:0.0000000000000000e+000
6621:0.0000000000000000e+000
6622:0.0000000000000000e+000
6623:0.0000000000000000e+000
6624:0.0000000000000000e+000
6625:0.0000000000000000e+000
6626:0.0000000000000000e+000
6627:0.0000000000000000e+000
6628:0.0000000000000000e+000
6629:0.0000000000000000e+000
6630:0.0000000000000000e+000
6631:0.0000000000000000e+000
6632:0.0000000000000000e+000
6633:0.0000000000000000e+000
6634:0.0000000000000000e+000
6635:0.0000000000000000e+000
6636:0.0000000000000000e+000
6637:0.0000000000000000e+000
6638:0.0000000000000000e+000
6639:0.0000000000000000e+000
6640:0.0000000000000000e+000
6641:0.0000000000000000e+000
6642:0.0000000000000000e+000
6643:0.0000000000000000e+000
6644:0.0000000000000000e+000
6645:0.0000000000000000e+000
6646:0.0000000000000000e+000
6647:0.0000000000000000e+000
6648:0.0000000000000000e+000
6649:0.0000000000000000e+000
6650:0.0000000000000000e+000
6651:0.0000000000000000e+000
6652:0.0000000000000000e+000
6653:0.0000000000000000e+000
6654:0.0000000000000000e+000
6655:0.0000000000000000e+000
6656:0.0000000000000000e+000
6657:0.0000000000000000e+000
6658:0.0000000000000000e+000
6659:0.0000000000000000e+000
6660:0.0000000000000000e+000
6661:0.0000000000000000e+000
6662:0.0000000000000000e+000
6663:0.0000000000000000e+000
6664:0.0000000000000000e+000
6665:0.0000000000000000e+000
6666:0.0000000000000000e+000
6667:0.0000000000000000e+000
6668:0.0000000000000000e+000
6669:0.0000000000000000e+000
6670:0.0000000000000000e+000
6671:0.0000000000000000e+000
6672:0.0000000000000000e+000
6673:0.0000000000000000e+000
6674:0.0000000000000000e+000
6675:0.0000000000000000e+000
6676:0.0000000000000000e+000
6677:0.0000000000000000e+000
6678:0.0000000000000000e+000
6679:0.0000000000000000e+000
6680:0.0000000000000000e+000
6681:0.0000000000000000e+000
6682:0.0000000000000000e+000
6683:0.0000000000000000e+000
6684:0.0000000000000000e+000
6685:0.0000000000000000e+000
6686:0.0000000000000000e+000
6687:0.0000000000000000e+000
6688:0.0000000000000000e+000
6689:0.0000000000000000e+000
6690:0.0000000000000000e+000
6691:0.0000000000000000e+000
6692:0.0000000000000000e+000
6693:0.0000000000000000e+000
6694:0.0000000000000000e+000
6695:0.0000000000000000e+000
6696:0.0000000000000000e+000
6697:0.0000000000000000e+000
6698:0.0000000000000000e+000
6699:0.0000000000000000e+000
6700:0.0000000000000000e+000
6701:0.0000000000000000e+000
6702:0.0000000000000000e+000
6703:0.0000000000000000e+000
6704:0.0000000000000000e+000
6705:0.0000000000000000e+000
6706:0.0000000000000000e+000
6707:0.0000000000000000e+000
6708:0.0000000000000000e+000
6709:0.0000000000000000e+000
6710:0.0000000000000000e+000
6711:0.0000000000000000e+000
6712:0.0000000000000000e+000
6713:0.0000000000000000e+000
6714:0.0000000000000000e+000
6715:0.0000000000000000e+000
6716:0.0000000000000000e+000
6717:0.0000000000000000e+000
6718:0.0000000000000000e+000
6719:0.0000000000000000e+000
6720:0.0000000000000000e+000
6721:0.0000000000000000e+000
6722:0.0000000000000000e+000
6723:0.0000000000000000e+000
6724:0.0000000000000000e+000
6725:0.0000000000000000e+000
6726:0.0000000000000000e+000
6727:0.0000000000000000e+000
6728:0.0000000000000000e+000
6729:0.0000000000000000e+000
6730:0.0000000000000000e+000
6731:0.0000000000000000e+000
6732:0.0000000000000000e+000
6733:0.0000000000000000e+000
6734:0.0000000000000000e+000
6735:0.0000000000000000e+000
6736:0.0000000000000000e+000
6737:0.0000000000000000e+000
6738:0.0000000000000000e+000
6739:0.0000000000000000e+000
6740:0.0000000000000000e+000
6741:0.0000000000000000e+000
6742:0.0000000000000000e+000
6743:0.0000000000000000e+000
6744:0.0000000000000000e+000
6745:0.0000000000000000e+000
6746:0.0000000000000000e+000
6747:0.0000000000000000e+000
6748:0.0000000000000000e+000
6749:0.0000000000000000e+000
6750:0.0000000000000000e+000
6751:0.0000000000000000e+000
6752:0.0000000000000000e+000
6753:0.0000000000000000e+000
6754:0.0000000000000000e+000
6755:0.0000000000000000e+000
6756:0.0000000000000000e+000
6757:0.0000000000000000e+000
6758:0.0000000000000000e+000
6759:0.0000000000000000e+000
6760:0.0000000000000000e+000
6761:0.0000000000000000e+000
6762:0.0000000000000000e+000
6763:0.0000000000000000e+000
6764:0.0000000000000000e+000
6765:0.0000000000000000e+000
6766:0.0000000000000000e+000
6767:0.0000000000000000e+000
6768:0.0000000000000000e+000
6769:0.0000000000000000e+000
6770:0.0000000000000000e+000
6771:0.0000000000000000e+000
6772:0.0000000000000000e+000
6773:0.0000000000000000e+000
6774:0.0000000000000000e+000
6775:0.0000000000000000e+000
6776:0.0000000000000000e+000
6777:0.0000000000000000e+000
6778:0.0000000000000000e+000
6779:0.0000000000000000e+000
6780:0.0000000000000000e+000
6781:0.0000000000000000e+000
6782:0.0000000000000000e+000
6783:0.0000000000000000e+000
6784:0.0000000000000000e+000
6785:0.0000000000000000e+000
6786:0.0000000000000000e+000
6787:0.0000000000000000e+000
6788:0.0000000000000000e+000
6789:0.0000000000000000e+000
6790:0.0000000000000000e+000
6791:0.0000000000000000e+000
6792:0.0000000000000000e+000
6793:0.0000000000000000e+000
6794:0.0000000000000000e+000
6795:0.0000000000000000e+000
6796:0.0000000000000000e+000
6797:0.0000000000000000e+000
6798:0.0000000000000000e+000
6799:0.0000000000000000e+000
6800:0.0000000000000000e+000
6801:0.0000000000000000e+000
6802:0.0000000000000000e+000
6803:0.0000000000000000e+000
6804:0.0000000000000000e+000
6805:0.0000000000000000e+000
6806:0.0000000000000000e+000
6807:0.0000000000000000e+000
6808:0.0000000000000000e+000
6809:0.0000000000000000e+000
6810:0.0000000000000000e+000
6811:0.0000000000000000e+000
6812:0.0000000000000000e+000
6813:0.0000000000000000e+000
6814:0.0000000000000000e+000
6815:0.0000000000000000e+000
6816:0.0000000000000000e+000
6817:0.0000000000000000e+000
6818:0.0000000000000000e+000
6819:0.0000000000000000e+000
6820:0.0000000000000000e+000
6821:0.0000000000000000e+000
6822:0.0000000000000000e+000
6823:0.0000000000000000e+000
6824:0.0000000000000000e+000
6825:0.0000000000000000e+000
6826:0.0000000000000000e+000
6827:0.0000000000000000e+000
6828:0.0000000000000000e+000
6829:0.0000000000000000e+000
6830:0.0000000000000000e+000
6831:0.0000000000000000e+000
6832:0.0000000000000000e+000
6833:0.0000000000000000e+000
6834:0.0000000000000000e+000
6835:0.0000000000000000e+000
6836:0.0000000000000000e+000
6837:0.0000000000000000e+000
6838:0.0000000000000000e+000
6839:0.0000000000000000e+000
6840:0.0000000000000000e+000
6841:0.0000000000000000e+000
6842:0.0000000000000000e+000
6843:0.0000000000000000e+000
6844:0.0000000000000000e+000
6845:0.0000000000000000e+000
6846:0.0000000000000000e+000
6847:0.0000000000000000e+000
6848:0.0000000000000000e+000
6849:0.0000000000000000e+000
6850:0.0000000000000000e+000
6851:0.0000000000000000e+000
6852:0.0000000000000000e+000
6853:0.0000000000000000e+000
6854:0.0000000000000000e+000
6855:0.0000000000000000e+000
6856:0.0000000000000000e+000
6857:0.0000000000000000e+000
6858:0.0000000000000000e+000
6859:0.0000000000000000e+000
6860:0.0000000000000000e+000
6861:0.0000000000000000e+000
6862:0.0000000000000000e+000
6863:0.0000000000000000e+000
6864:0.0000000000000000e+000
6865:0.0000000000000000e+000
6866:0.0000000000000000e+000
6867:0.0000000000000000e+000
6868:0.0000000000000000e+000
6869:0.0000000000000000e+000
6870:0.0000000000000000e+000
6871:0.0000000000000000e+000
6872:0.0000000000000000e+000
6873:0.0000000000000000e+000
6874:0.0000000000000000e+000
6875:0.0000000000000000e+000
6876:0.0000000000000000e+000
6877:0.0000000000000000e+000
6878:0.0000000000000000e+000
6879:0.0000000000000000e+000
6880:0.0000000000000000e+000
6881:0.0000000000000000e+000
6882:0.0000000000000000e+000
6883:0.0000000000000000e+000
6884:0.0000000000000000e+000
6885:0.0000000000000000e+000
6886:0.0000000000000000e+000
6887:0.0000000000000000e+000
6888:0.0000000000000000e+000
6889:0.0000000000000000e+000
6890:0.0000000000000000e+000
6891:0.0000000000000000e+000
6892:0.0000000000000000e+000
6893:0.0000000000000000e+000
6894:0.0000000000000000e+000
6895:0.0000000000000000e+000
6896:0.0000000000000000e+000
6897:0.0000000000000000e+000
6898:0.0000000000000000e+000
6899:0.0000000000000000e+000
6900:0.0000000000000000e+000
6901:0.0000000000000000e+000
6902:0.0000000000000000e+000
6903:0.0000000000000000e+000
6904:0.0000000000000000e+000
6905:0.0000000000000000e+000
6906:0.0000000000000000e+000
6907:0.0000000000000000e+000
6908:0.0000000000000000e+000
6909:0.0000000000000000e+000
6910:0.0000000000000000e+000
6911:0.0000000000000000e+000
6912:0.0000000000000000e+000
6913:0.0000000000000000e+000
6914:0.0000000000000000e+000
6915:0.0000000000000000e+000
6916:0.0000000000000000e+000
6917:0.0000000000000000e+000
6918:0.0000000000000000e+000
6919:0.0000000000000000e+000
6920:0.0000000000000000e+000
6921:0.0000000000000000e+000
6922:0.0000000000000000e+000
6923:0.0000000000000000e+000
6924:0.0000000000000000e+000
6925:0.0000000000000000e+000
6926:0.0000000000000000e+000
6927:0.0000000000000000e+000
6928:0.0000000000000000e+000
6929:0.0000000000000000e+000
6930:0.0000000000000000e+000
6931:0.0000000000000000e+000
6932:0.0000000000000000e+000
6933:0.0000000000000000e+000
6934:0.0000000000000000e+000
6935:0.0000000000000000e+000
6936:0.0000000000000000e+000
6937:0.0000000000000000e+000
6938:0.0000000000000000e+000
6939:0.0000000000000000e+000
6940:0.0000000000000000e+000
6941:0.0000000000000000e+000
6942:0.0000000000000000e+000
6943:0.0000000000000000e+000
6944:0.0000000000000000e+000
6945:0.0000000000000000e+000
6946:0.0000000000000000e+000
6947:0.0000000000000000e+000
6948:0.0000000000000000e+000
6949:0.0000000000000000e+000
6950:0.0000000000000000e+000
6951:0.0000000000000000e+000
6952:0.0000000000000000e+000
6953:0.0000000000000000e+000
6954:0.0000000000000000e+000
6955:0.0000000000000000e+000
6956:0.0000000000000000e+000
6957:0.0000000000000000e+000
6958:0.0000000000000000e+000
6959:0.0000000000000000e+000
6960:0.0000000000000000e+000
6961:0.0000000000000000e+000
6962:0.0000000000000000e+000
6963:0.0000000000000000e+000
6964:0.0000000000000000e+000
6965:0.0000000000000000e+000
6966:0.0000000000000000e+000
6967:0.0000000000000000e+000
6968:0.0000000000000000e+000
6969:0.0000000000000000e+000
6970:0.0000000000000000e+000
6971:0.0000000000000000e+000
6972:0.0000000000000000e+000
6973:0.0000000000000000e+000
6974:0.0000000000000000e+000
6975:0.0000000000000000e+000
6976:0.0000000000000000e+000
6977:0.0000000000000000e+000
6978:0.0000000000000000e+000
6979:0.0000000000000000e+000
6980:0.0000000000000000e+000
6981:0.0000000000000000e+000
6982:0.0000000000000000e+000
6983:0.0000000000000000e+000
6984:0.0000000000000000e+000
6985:0.0000000000000000e+000
6986:0.0000000000000000e+000
6987:0.0000000000000000e+000
6988:0.0000000000000000e+000
6989:0.0000000000000000e+000
6990:0.0000000000000000e+000
6991:0.0000000000000000e+000
6992:0.0000000000000000e+000
6993:0.0000000000000000e+000
6994:0.0000000000000000e+000
6995:0.0000000000000000e+000
6996:0.0000000000000000e+000
6997:0.0000000000000000e+000
6998:0.0000000000000000e+000
6999:0.0000000000000000e+000
7000:0.0000000000000000e+000
7001:0.0000000000000000e+000
7002:0.0000000000000000e+000
7003:0.0000000000000000e+000
7004:0.0000000000000000e+000
7005:0.0000000000000000e+000
7006:0.0000000000000000e+000
7007:0.0000000000000000e+000
7008:0.0000000000000000e+000
7009:0.0000000000000000e+000
7010:0.0000000000000000e+000
7011:0.0000000000000000e+000
7012:0.0000000000000000e+000
7013:0.0000000000000000e+000
7014:0.0000000000000000e+000
7015:0.0000000000000000e+000
7016:0.0000000000000000e+000
7017:0.0000000000000000e+000
7018:0.0000000000000000e+000
7019:0.0000000000000000e+000
7020:0.0000000000000000e+000
7021:0.0000000000000000e+000
7022:0.0000000000000000e+000
7023:0.0000000000000000e+000
7024:0.0000000000000000e+000
7025:0.0000000000000000e+000
7026:0.0000000000000000e+000
7027:0.0000000000000000e+000
7028:0.0000000000000000e+000
7029:0.0000000000000000e+000
7030:0.0000000000000000e+000
7031:0.0000000000000000e+000
7032:0.0000000000000000e+000
7033:0.0000000000000000e+000
7034:0.0000000000000000e+000
7035:0.0000000000000000e+000
7036:0.0000000000000000e+000
7037:0.0000000000000000e+000
7038:0.0000000000000000e+000
7039:0.0000000000000000e+000
7040:0.0000000000000000e+000
7041:0.0000000000000000e+000
7042:0.0000000000000000e+000
7043:0.0000000000000000e+000
7044:0.0000000000000000e+000
7045:0.0000000000000000e+000
7046:0.0000000000000000e+000
7047:0.0000000000000000e+000
7048:0.0000000000000000e+000
7049:0.0000000000000000e+000
7050:0.0000000000000000e+000
7051:0.0000000000000000e+000
7052:0.0000000000000000e+000
7053:0.0000000000000000e+000
7054:0.0000000000000000e+000
7055:0.0000000000000000e+000
7056:0.0000000000000000e+000
7057:0.0000000000000000e+000
7058:0.0000000000000000e+000
7059:0.0000000000000000e+000
7060:0.0000000000000000e+000
7061:0.0000000000000000e+000
7062:0.0000000000000000e+000
7063:0.0000000000000000e+000
7064:0.0000000000000000e+000
7065:0.0000000000000000e+000
7066:0.0000000000000000e+000
7067:0.0000000000000000e+000
7068:0.0000000000000000e+000
7069:0.0000000000000000e+000
7070:0.0000000000000000e+000
7071:0.0000000000000000e+000
7072:0.0000000000000000e+000
7073:0.0000000000000000e+000
7074:0.0000000000000000e+000
7075:0.0000000000000000e+000
7076:0.0000000000000000e+000
7077:0.0000000000000000e+000
7078:0.0000000000000000e+000
7079:0.0000000000000000e+000
7080:0.0000000000000000e+000
7081:0.0000000000000000e+000
7082:0.0000000000000000e+000
7083:0.0000000000000000e+000
7084:0.0000000000000000e+000
7085:0.0000000000000000e+000
7086:0.0000000000000000e+000
7087:0.0000000000000000e+000
7088:0.0000000000000000e+000
7089:0.0000000000000000e+000
7090:0.0000000000000000e+000
7091:0.0000000000000000e+000
7092:0.0000000000000000e+000
7093:0.0000000000000000e+000
7094:0.0000000000000000e+000
7095:0.0000000000000000e+000
7096:0.0000000000000000e+000
7097:0.0000000000000000e+000
7098:0.0000000000000000e+000
7099:0.0000000000000000e+000
7100:0.0000000000000000e+000
7101:0.0000000000000000e+000
7102:0.0000000000000000e+000
7103:0.0000000000000000e+000
7104:0.0000000000000000e+000
7105:0.0000000000000000e+000
7106:0.0000000000000000e+000
7107:0.0000000000000000e+000
7108:0.0000000000000000e+000
7109:0.0000000000000000e+000
7110:0.0000000000000000e+000
7111:0.0000000000000000e+000
7112:0.0000000000000000e+000
7113:0.0000000000000000e+000
7114:0.0000000000000000e+000
7115:0.0000000000000000e+000
7116:0.0000000000000000e+000
7117:0.0000000000000000e+000
7118:0.0000000000000000e+000
7119:0.0000000000000000e+000
7120:0.0000000000000000e+000
7121:0.0000000000000000e+000
7122:0.0000000000000000e+000
7123:0.0000000000000000e+000
7124:0.0000000000000000e+000
7125:0.0000000000000000e+000
7126:0.0000000000000000e+000
7127:0.0000000000000000e+000
7128:0.0000000000000000e+000
7129:0.0000000000000000e+000
7130:0.0000000000000000e+000
7131:0.0000000000000000e+000
7132:0.0000000000000000e+000
7133:0.0000000000000000e+000
7134:0.0000000000000000e+000
7135:0.0000000000000000e+000
7136:0.0000000000000000e+000
7137:0.0000000000000000e+000
7138:0.0000000000000000e+000
7139:0.0000000000000000e+000
7140:0.0000000000000000e+000
7141:0.0000000000000000e+000
7142:0.0000000000000000e+000
7143:0.0000000000000000e+000
7144:0.0000000000000000e+000
7145:0.0000000000000000e+000
7146:0.0000000000000000e+000
7147:0.0000000000000000e+000
7148:0.0000000000000000e+000
7149:0.0000000000000000e+000
7150:0.0000000000000000e+000
7151:0.0000000000000000e+000
7152:0.0000000000000000e+000
7153:0.0000000000000000e+000
7154:0.0000000000000000e+000
7155:0.0000000000000000e+000
7156:0.0000000000000000e+000
7157:0.0000000000000000e+000
7158:0.0000000000000000e+000
7159:0.0000000000000000e+000
7160:0.0000000000000000e+000
7161:0.0000000000000000e+000
7162:0.0000000000000000e+000
7163:0.0000000000000000e+000
7164:0.0000000000000000e+000
7165:0.0000000000000000e+000
7166:0.0000000000000000e+000
7167:0.0000000000000000e+000
7168:0.0000000000000000e+000
7169:0.0000000000000000e+000
7170:0.0000000000000000e+000
7171:0.0000000000000000e+000
7172:0.0000000000000000e+000
7173:0.0000000000000000e+000
7174:0.0000000000000000e+000
7175:0.0000000000000000e+000
7176:0.0000000000000000e+000
7177:0.0000000000000000e+000
7178:0.0000000000000000e+000
7179:0.0000000000000000e+000
7180:0.0000000000000000e+000
7181:0.0000000000000000e+000
7182:0.0000000000000000e+000
7183:0.0000000000000000e+000
7184:0.0000000000000000e+000
7185:0.0000000000000000e+000
7186:0.0000000000000000e+000
7187:0.0000000000000000e+000
7188:0.0000000000000000e+000
7189:0.0000000000000000e+000
7190:0.0000000000000000e+000
7191:0.0000000000000000e+000
7192:0.0000000000000000e+000
7193:0.0000000000000000e+000
7194:0.0000000000000000e+000
7195:0.0000000000000000e+000
7196:0.0000000000000000e+000
7197:0.0000000000000000e+000
7198:0.0000000000000000e+000
7199:0.0000000000000000e+000
