x	y	stress_xx
 1.0000000000e+00	 0.0000000000e+00	-2.1090121251e-02
 9.9983382185e-01	 2.3018797407e-02	-6.8748706802e-03
 9.9932755992e-01	 4.6082152713e-02	 1.2629785796e-02
 9.9846971248e-01	 6.9177695236e-02	 3.8877771952e-02
 9.9724892368e-01	 9.2292602777e-02	 7.3297048563e-02
 9.9565401780e-01	 1.1541361525e-01	 1.1727464198e-01
 9.9367403434e-01	 1.3852705063e-01	 1.7214047514e-01
 9.9129826399e-01	 1.6161882325e-01	 2.3915007629e-01
 9.8851628533e-01	 1.8467446446e-01	 3.1946626859e-01
 9.8531800201e-01	 2.0767914567e-01	 4.1413997359e-01
 9.8169368030e-01	 2.3061770384e-01	 5.2409029270e-01
 1.0142857623e+00	 0.0000000000e+00	 1.5489969327e-01
 1.0141172102e+00	 2.3347638476e-02	 1.6736635734e-01
 1.0136037159e+00	 4.6740471396e-02	 1.8598210113e-01
 1.0127336135e+00	 7.0165951353e-02	 2.1182667291e-01
 1.0114953848e+00	 9.3611072970e-02	 2.4594355776e-01
 1.0098776945e+00	 1.1706238673e-01	 2.8932694182e-01
 1.0078694254e+00	 1.4050601516e-01	 3.4290776287e-01
 1.0054597154e+00	 1.6392767136e-01	 4.0753892537e-01
 1.0026379941e+00	 1.8731267998e-01	 4.8397978171e-01
 9.9939402083e-01	 2.1064600060e-01	 5.7288000616e-01
 9.9571792291e-01	 2.3391225356e-01	 6.7476301421e-01
 1.0285716130e+00	 0.0000000000e+00	 3.2108274754e-01
 1.0284006869e+00	 2.3676481579e-02	 3.3227570940e-01
 1.0278799602e+00	 4.7398794148e-02	 3.5035331313e-01
 1.0269976027e+00	 7.1154213578e-02	 3.7605063331e-01
 1.0257419340e+00	 9.4929551314e-02	 4.1005743510e-01
 1.0241014591e+00	 1.1871116841e-01	 4.5300698502e-01
 1.0220649043e+00	 1.4248499193e-01	 5.0546421180e-01
 1.0196212544e+00	 1.6623653374e-01	 5.6791329704e-01
 1.0167597901e+00	 1.8995091181e-01	 6.4074479530e-01
 1.0134701267e+00	 2.1361287387e-01	 7.2424240377e-01
 1.0097422522e+00	 2.3720682365e-01	 8.1856952217e-01
 1.0428575404e+00	 0.0000000000e+00	 4.7780660495e-01
 1.0426842402e+00	 2.4005326445e-02	 4.8805806468e-01
 1.0421562812e+00	 4.8057120433e-02	 5.0581068666e-01
 1.0412616685e+00	 7.2142481105e-02	 5.3148311926e-01
 1.0399885597e+00	 9.6248036731e-02	 5.6544085563e-01
 1.0383253001e+00	 1.2035995893e-01	 6.0798680460e-01
 1.0362604594e+00	 1.4446397931e-01	 6.5935145535e-01
 1.0337828694e+00	 1.6854540851e-01	 7.1968271674e-01
 1.0308816619e+00	 1.9258915780e-01	 7.8903552837e-01
 1.0275463081e+00	 2.1657976306e-01	 8.6736135620e-01
 1.0237666568e+00	 2.4050141141e-01	 9.5449770214e-01
 1.0571435327e+00	 0.0000000000e+00	 6.2540001946e-01
 1.0569678585e+00	 2.4334172807e-02	 6.3490720323e-01
 1.0564326670e+00	 4.8715449711e-02	 6.5241782343e-01
 1.0555257991e+00	 7.3130753127e-02	 6.7806116310e-01
 1.0542352502e+00	 9.7566528146e-02	 7.1190665430e-01
 1.0525492057e+00	 1.2200875696e-01	 7.5395612474e-01
 1.0504560790e+00	 1.4644297570e-01	 8.0413586294e-01
 1.0479445488e+00	 1.7085429379e-01	 8.6228858298e-01
 1.0450035980e+00	 1.9522741578e-01	 9.2816538269e-01
 1.0416225535e+00	 2.1954666575e-01	 1.0014178008e+00
 1.0377911252e+00	 2.4379601417e-01	 1.0815900911e+00
 1.0714295784e+00	 0.0000000000e+00	 7.6417418504e-01
 1.0712515302e+00	 2.4663020396e-02	 7.7300654137e-01
 1.0707091062e+00	 4.9373781447e-02	 7.9023490156e-01
 1.0697899831e+00	 7.4119028838e-02	 8.1572512099e-01
 1.0684819939e+00	 9.8885024482e-02	 8.4927761042e-01
 1.0667731645e+00	 1.2365756113e-01	 8.9062117631e-01
 1.0646517517e+00	 1.4842197947e-01	 9.3940688581e-01
 1.0621062811e+00	 1.7316318768e-01	 9.9520203715e-01
 1.0591255868e+00	 1.9786568362e-01	 1.0574843252e+00
 1.0556988515e+00	 2.2251357951e-01	 1.1256363005e+00
 1.0518156460e+00	 2.4709062922e-01	 1.1989402283e+00
 1.0857156657e+00	 0.0000000000e+00	 8.9442388662e-01
 1.0855352435e+00	 2.4991868945e-02	 9.0252980912e-01
 1.0849855870e+00	 5.0032115103e-02	 9.1931889637e-01
 1.0840542086e+00	 7.5107307430e-02	 9.4441844960e-01
 1.0827287791e+00	 1.0020352466e-01	 9.7738578863e-01
 1.0809971648e+00	 1.2530637012e-01	 1.0177036059e+00
 1.0788474657e+00	 1.5040098901e-01	 1.0647755333e+00
 1.0762680546e+00	 1.7547208830e-01	 1.1179220013e+00
 1.0732476168e+00	 2.0050395915e-01	 1.1763764766e+00
 1.0697751905e+00	 2.2548050193e-01	 1.2392821677e+00
 1.0658402077e+00	 2.5038525388e-01	 1.3056892937e+00
 1.1000017831e+00	 0.0000000000e+00	 1.0164285614e+00
 1.0998189868e+00	 2.5320718183e-02	 1.0236416749e+00
 1.0992620978e+00	 5.0690450140e-02	 1.0397237839e+00
 1.0983184641e+00	 7.6095588098e-02	 1.0640875001e+00
 1.0969755942e+00	 1.0152202761e-01	 1.0960719312e+00
 1.0952211949e+00	 1.2695518256e-01	 1.1349394699e+00
 1.0930432096e+00	 1.5238000271e-01	 1.1798729677e+00
 1.0904298580e+00	 1.7778099377e-01	 1.2299733689e+00
 1.0873696765e+00	 2.0314224021e-01	 1.2842578883e+00
 1.0838515591e+00	 2.2844743057e-01	 1.3416588123e+00
 1.0798647988e+00	 2.5367988546e-01	 1.4010230087e+00
 1.1142879188e+00	 0.0000000000e+00	 1.1304532786e+00
 1.1141027485e+00	 2.5649567844e-02	 1.1364983221e+00
 1.1135386269e+00	 5.1348786023e-02	 1.1515007287e+00
 1.1125827379e+00	 7.7083870033e-02	 1.1746813282e+00
 1.1112224277e+00	 1.0284053225e-01	 1.2051848969e+00
 1.1094452433e+00	 1.2860399713e-01	 1.2420783057e+00
 1.1072389717e+00	 1.5435901894e-01	 1.2843492072e+00
 1.1045916795e+00	 1.8008990221e-01	 1.3309053344e+00
 1.1014917543e+00	 2.0578052467e-01	 1.3805744893e+00
 1.0979279458e+00	 2.3141436302e-01	 1.4321052938e+00
 1.0938894079e+00	 2.5697452127e-01	 1.4841687743e+00
 1.1285740611e+00	 0.0000000000e+00	 1.2367496448e+00
 1.1283865168e+00	 2.5978417659e-02	 1.2412479822e+00
 1.1278151627e+00	 5.2007122212e-02	 1.2546982577e+00
 1.1268470183e+00	 7.8072152430e-02	 1.2761515183e+00
 1.1254692677e+00	 1.0415903751e-01	 1.3045811426e+00
 1.1236692983e+00	 1.3025281246e-01	 1.3388822734e+00
 1.1214347404e+00	 1.5633803610e-01	 1.3778719271e+00
 1.1187535076e+00	 1.8239881172e-01	 1.4202898495e+00
 1.1156138386e+00	 2.0841881035e-01	 1.4648001900e+00
 1.1120043390e+00	 2.3438129685e-01	 1.5099940589e+00
 1.1079140236e+00	 2.6026915861e-01	 1.5543930272e+00
 1.1428601985e+00	 0.0000000000e+00	 1.3355566416e+00
 1.1426702801e+00	 2.6307267358e-02	 1.3380314275e+00
 1.1420916935e+00	 5.2665458172e-02	 1.3493624206e+00
 1.1411112938e+00	 7.9060434482e-02	 1.3684520211e+00
 1.1397161028e+00	 1.0547754230e-01	 1.3941242438e+00
 1.1378933484e+00	 1.3190162721e-01	 1.4251253621e+00
 1.1356305041e+00	 1.5831705257e-01	 1.4601253513e+00
 1.1329153307e+00	 1.8470772042e-01	 1.4977201957e+00
 1.1297359180e+00	 2.1105709511e-01	 1.5364351271e+00
 1.1260807273e+00	 2.3734822965e-01	 1.5747288484e+00
 1.1219386343e+00	 2.6356379480e-01	 1.6109987934e+00
 9.8169368030e-01	 2.3061770384e-01	 5.2409029270e-01
 9.7763428640e-01	 2.5347307689e-01	 6.4882594992e-01
 9.7313068804e-01	 2.7623115241e-01	 7.8685274837e-01
 9.6817446680e-01	 2.9887597146e-01	 9.3743958748e-01
 9.6275771633e-01	 3.2139136714e-01	 1.0998467843e+00
 9.5687307865e-01	 3.4376100127e-01	 1.2733322804e+00
 9.5051377945e-01	 3.6596840296e-01	 1.4571581705e+00
 9.4367366227e-01	 3.8799700919e-01	 1.6505974868e+00
 9.3634722131e-01	 4.0983020693e-01	 1.8529411646e+00
 9.2852963255e-01	 4.3145137682e-01	 2.0635051045e+00
 9.2021678307e-01	 4.5284393814e-01	 2.2816372406e+00
 9.9571792291e-01	 2.3391225356e-01	 6.7476301421e-01
 9.9160053748e-01	 2.5709413304e-01	 7.8946783152e-01
 9.8703260179e-01	 2.8017732501e-01	 9.1586765246e-01
 9.8200557714e-01	 3.0314564256e-01	 1.0528986915e+00
 9.7651144426e-01	 3.2598268784e-01	 1.1994894358e+00
 9.7054274004e-01	 3.4867188923e-01	 1.3545695853e+00
 9.6409259340e-01	 3.7119654059e-01	 1.5170795014e+00
 9.5715475994e-01	 3.9353984225e-01	 1.6859800722e+00
 9.4972365518e-01	 4.1568494387e-01	 1.8602628900e+00
 9.4179438621e-01	 4.3761498865e-01	 2.0389606191e+00
 9.3336278133e-01	 4.5931315901e-01	 2.2211574207e+00
 1.0097422522e+00	 2.3720682365e-01	 8.1856952217e-01
 1.0055668749e+00	 2.6071521158e-01	 9.2386512376e-01
 1.0009346015e+00	 2.8412352201e-01	 1.0393529353e+00
 9.9583677301e-01	 3.0741534007e-01	 1.1636928095e+00
 9.9026525724e-01	 3.3057403692e-01	 1.2955378893e+00
 9.8421248596e-01	 3.5358280757e-01	 1.4335458494e+00
 9.7767149133e-01	 3.7642471054e-01	 1.5763908029e+00
 9.7063594097e-01	 3.9908270958e-01	 1.7227757595e+00
 9.6310017177e-01	 4.2153971700e-01	 1.8714455041e+00
 9.5505922188e-01	 4.4377863858e-01	 2.0211997432e+00
 9.4650886088e-01	 4.6578241988e-01	 2.1709063516e+00
 1.0237666568e+00	 2.4050141141e-01	 9.5449770214e-01
 1.0195332873e+00	 2.6433630954e-01	 1.0508538435e+00
 1.0148366758e+00	 2.8806974019e-01	 1.1559872851e+00
 1.0096680431e+00	 3.1168506048e-01	 1.2683353567e+00
 1.0040191440e+00	 3.3516541064e-01	 1.3863298187e+00
 9.9788230525e-01	 3.5849375226e-01	 1.5084099854e+00
 9.9125046212e-01	 3.8165290856e-01	 1.6330366421e+00
 9.8411719435e-01	 4.0462560667e-01	 1.7587066224e+00
 9.7647676014e-01	 4.2739452156e-01	 1.8839678935e+00
 9.6832412875e-01	 4.4994232160e-01	 2.0074349721e+00
 9.5965501098e-01	 4.7225171547e-01	 2.1278044740e+00
 1.0377911252e+00	 2.4379601417e-01	 1.0815900911e+00
 1.0334997632e+00	 2.6795742398e-01	 1.1693328637e+00
 1.0287388134e+00	 2.9201597632e-01	 1.2645207455e+00
 1.0234993761e+00	 3.1595480033e-01	 1.3654200333e+00
 1.0177730934e+00	 3.3975680526e-01	 1.4702926783e+00
 1.0115521867e+00	 3.6340471929e-01	 1.5774108865e+00
 1.0048294947e+00	 3.8688113036e-01	 1.6850726095e+00
 9.9759850906e-01	 4.1016852897e-01	 1.7916177822e+00
 9.8985340938e-01	 4.3324935275e-01	 1.8954451360e+00
 9.8158909597e-01	 4.5610603267e-01	 1.9950293909e+00
 9.7280122090e-01	 4.7872104050e-01	 2.0889386053e+00
 1.0518156460e+00	 2.4709062922e-01	 1.1989402283e+00
 1.0474662913e+00	 2.7157855194e-01	 1.2782597166e+00
 1.0426410028e+00	 2.9596222719e-01	 1.3637699530e+00
 1.0373307608e+00	 3.2022455611e-01	 1.4536154660e+00
 1.0315270941e+00	 3.4434821701e-01	 1.5459377120e+00
 1.0252221192e+00	 3.6831570466e-01	 1.6388907551e+00
 1.0184085780e+00	 3.9210937168e-01	 1.7306579111e+00
 1.0110798741e+00	 4.1571147196e-01	 1.8194691987e+00
 1.0032301086e+00	 4.3910420581e-01	 1.9036194164e+00
 9.9485411272e-01	 4.6226976674e-01	 1.9814866310e+00
 9.8594747989e-01	 4.8519038969e-01	 2.0515508444e+00
 1.0658402077e+00	 2.5038525388e-01	 1.3056892937e+00
 1.0614328601e+00	 2.7519969046e-01	 1.3766467294e+00
 1.0565432328e+00	 2.9990848956e-01	 1.4526137494e+00
 1.0511621858e+00	 3.2449432434e-01	 1.5316602729e+00
 1.0452811349e+00	 3.4893964216e-01	 1.6118544338e+00
 1.0388920916e+00	 3.7322670435e-01	 1.6912789576e+00
 1.0319877008e+00	 3.9733762825e-01	 1.7680485461e+00
 1.0245612785e+00	 4.2125443113e-01	 1.8403281101e+00
 1.0166068467e+00	 4.4495907594e-01	 1.9063516580e+00
 1.0081191681e+00	 4.6843351880e-01	 1.9644416188e+00
 9.9909377723e-01	 4.9165975774e-01	 2.0130283515e+00
 1.0798647988e+00	 2.5367988546e-01	 1.4010230087e+00
 1.0753994583e+00	 2.7882083658e-01	 1.4635574588e+00
 1.0704454920e+00	 3.0385476022e-01	 1.5299891364e+00
 1.0649936398e+00	 3.2876410154e-01	 1.5983585115e+00
 1.0590352046e+00	 3.5353107694e-01	 1.6667055395e+00
 1.0525620927e+00	 3.7813771435e-01	 1.7330863581e+00
 1.0455668522e+00	 4.0256589580e-01	 1.7955910147e+00
 1.0380427111e+00	 4.2679740193e-01	 1.8523620596e+00
 1.0299836130e+00	 4.5081395837e-01	 1.9016138073e+00
 1.0213842514e+00	 4.7459728379e-01	 1.9416520439e+00
 1.0122401022e+00	 4.9812913938e-01	 1.9708939237e+00
 1.0938894079e+00	 2.5697452127e-01	 1.4841687743e+00
 1.0893660743e+00	 2.8244198734e-01	 1.5381034015e+00
 1.0843477691e+00	 3.0780103594e-01	 1.5948875402e+00
 1.0788251116e+00	 3.3303388422e-01	 1.6525754775e+00
 1.0727892920e+00	 3.5812251762e-01	 1.7092222081e+00
 1.0662321113e+00	 3.8304873066e-01	 1.7629000869e+00
 1.0591460211e+00	 4.0779417006e-01	 1.8117165105e+00
 1.0515241611e+00	 4.3234037985e-01	 1.8538324596e+00
 1.0433603965e+00	 4.5666884831e-01	 1.8874817099e+00
 1.0346493517e+00	 4.8076105670e-01	 1.9109904843e+00
 1.0253864440e+00	 5.0459852932e-01	 1.9227972943e+00
 1.1079140236e+00	 2.6026915861e-01	 1.5543930272e+00
 1.1033326969e+00	 2.8606313980e-01	 1.5994409531e+00
 1.0982500526e+00	 3.1174731350e-01	 1.6463513608e+00
 1.0926565899e+00	 3.3730366890e-01	 1.6932338221e+00
 1.0865433858e+00	 3.6271396044e-01	 1.7381997609e+00
 1.0799021363e+00	 3.8795974926e-01	 1.7793787073e+00
 1.0727251962e+00	 4.1302244676e-01	 1.8149355523e+00
 1.0650056174e+00	 4.3788336035e-01	 1.8430886435e+00
 1.0567371862e+00	 4.6252374099e-01	 1.8621285284e+00
 1.0479144583e+00	 4.8692483249e-01	 1.8704371283e+00
 1.0385327919e+00	 5.1106792229e-01	 1.8665070936e+00
 1.1219386343e+00	 2.6356379480e-01	 1.6109987934e+00
 1.1172993146e+00	 2.8968429099e-01	 1.6467685955e+00
 1.1121523313e+00	 3.1569358968e-01	 1.6834707792e+00
 1.1064880633e+00	 3.4157345207e-01	 1.7193099600e+00
 1.1002974747e+00	 3.6730540165e-01	 1.7524936452e+00
 1.0935721566e+00	 3.9287076614e-01	 1.7812477427e+00
 1.0863043666e+00	 4.1825072163e-01	 1.8038330199e+00
 1.0784870689e+00	 4.4342633892e-01	 1.8185623634e+00
 1.0701139712e+00	 4.6837863162e-01	 1.8238186528e+00
 1.0611795601e+00	 4.9308860612e-01	 1.8180730421e+00
 1.0516791353e+00	 5.1753731298e-01	 1.7999034107e+00
 9.2021678307e-01	 4.5284393814e-01	 2.2816372406e+00
 9.1140466485e-01	 4.7399286534e-01	 2.5059682966e+00
 9.0209123535e-01	 4.9488028000e-01	 2.7311076923e+00
 8.9227467429e-01	 5.1548998767e-01	 2.9507205249e+00
 8.8195396682e-01	 5.3580602098e-01	 3.1588975118e+00
 8.7112892028e-01	 5.5581268770e-01	 3.3502282233e+00
 8.5980017780e-01	 5.7549461858e-01	 3.5198713861e+00
 8.4796922867e-01	 5.9483681473e-01	 3.6636210356e+00
 8.3563841542e-01	 6.1382469423e-01	 3.7779673080e+00
 8.2281093734e-01	 6.3244413771e-01	 3.8601507104e+00
 8.0949085058e-01	 6.5068153262e-01	 3.9082087817e+00
 9.3336278133e-01	 4.5931315901e-01	 2.2211574207e+00
 9.2442477528e-01	 4.8076421475e-01	 2.4064175562e+00
 9.1497829635e-01	 5.0195002206e-01	 2.5911294377e+00
 9.0502149822e-01	 5.2285415512e-01	 2.7699383733e+00
 8.9455335158e-01	 5.4346041845e-01	 2.9378629909e+00
 8.8357366100e-01	 5.6375289565e-01	 3.0903579577e+00
 8.7208307879e-01	 5.8371599792e-01	 3.2233740967e+00
 8.6008311553e-01	 6.0333451209e-01	 3.3334148493e+00
 8.4757614721e-01	 6.2259364793e-01	 3.4175880446e+00
 8.3456541884e-01	 6.4147908436e-01	 3.4736519787e+00
 8.2105504448e-01	 6.5997701436e-01	 3.5000548745e+00
 9.4650886088e-01	 4.6578241988e-01	 2.1709063516e+00
 9.3744496623e-01	 4.8753560604e-01	 2.3208504201e+00
 9.2786543703e-01	 5.0901980784e-01	 2.4688946127e+00
 9.1776840098e-01	 5.3021836810e-01	 2.6105753770e+00
 9.0715281425e-01	 5.5111486325e-01	 2.7417551117e+00
 8.9601847867e-01	 5.7169315271e-01	 2.8586753101e+00
 8.8436605574e-01	 5.9193742811e-01	 2.9580073965e+00
 8.7219707731e-01	 6.1183226200e-01	 3.0369003590e+00
 8.5951395283e-01	 6.3136265585e-01	 3.0930242941e+00
 8.4631997302e-01	 6.5051408687e-01	 3.1246090188e+00
 8.3261930989e-01	 6.6927255357e-01	 3.1304769603e+00
 9.5965501098e-01	 4.7225171547e-01	 2.1278044740e+00
 9.5046522705e-01	 4.9430703367e-01	 2.2458991631e+00
 9.4075264687e-01	 5.1608963156e-01	 2.3607849993e+00
 9.3051537214e-01	 5.3758262060e-01	 2.4688042488e+00
 9.1975234453e-01	 5.5876934913e-01	 2.5665824969e+00
 9.0846336313e-01	 5.7963345238e-01	 2.6510731214e+00
 8.9664909860e-01	 6.0015890241e-01	 2.7195997226e+00
 8.8431110409e-01	 6.2033005752e-01	 2.7698957550e+00
 8.7145182251e-01	 6.4013171083e-01	 2.8001406188e+00
 8.5807459028e-01	 6.5954913787e-01	 2.8089914992e+00
 8.4418363736e-01	 6.7856814267e-01	 2.7956102978e+00
 9.7280122090e-01	 4.7872104050e-01	 2.0889386053e+00
 9.6348554711e-01	 5.0107849211e-01	 2.1783780145e+00
 9.5363991535e-01	 5.2315948744e-01	 2.2633778772e+00
 9.4326240130e-01	 5.4494690662e-01	 2.3410045036e+00
 9.3235193215e-01	 5.6642386984e-01	 2.4085694459e+00
 9.2090830421e-01	 5.8757378818e-01	 2.4636661732e+00
 9.0893219736e-01	 6.0838041412e-01	 2.5042049396e+00
 8.9642518600e-01	 6.2882789170e-01	 2.5284452161e+00
 8.8338974652e-01	 6.4890080571e-01	 2.5350250700e+00
 8.6982926103e-01	 6.6858422998e-01	 2.5229869051e+00
 8.5574801746e-01	 6.8786377406e-01	 2.4917990199e+00
 9.8594747989e-01	 4.8519038969e-01	 2.0515508444e+00
 9.7650591578e-01	 5.0784997584e-01	 2.1152710257e+00
 9.6652723194e-01	 5.3022936973e-01	 2.1734329882e+00
 9.5600947806e-01	 5.5231122013e-01	 2.2237486706e+00
 9.4495156680e-01	 5.7407841913e-01	 2.2641415557e+00
 9.3335329176e-01	 5.9551415362e-01	 2.2927763918e+00
 9.2121534197e-01	 6.1660195653e-01	 2.3080873134e+00
 9.0853931314e-01	 6.3732575760e-01	 2.3088038464e+00
 8.9532771509e-01	 6.5766993333e-01	 2.2939742933e+00
 8.8158397567e-01	 6.7761935581e-01	 2.2629860210e+00
 8.6731244073e-01	 6.9715944016e-01	 2.2155822140e+00
 9.9909377723e-01	 4.9165975774e-01	 2.0130283515e+00
 9.8952632243e-01	 5.1462147931e-01	 2.0537208936e+00
 9.7941458612e-01	 5.3729927263e-01	 2.0878805300e+00
 9.6875659199e-01	 5.5967555511e-01	 2.1137895933e+00
 9.5755123821e-01	 5.8173299074e-01	 2.1299124773e+00
 9.4579831560e-01	 6.0345454222e-01	 2.1349192208e+00
 9.3349852241e-01	 6.2482352292e-01	 2.1277076694e+00
 9.2065347560e-01	 6.4582364829e-01	 2.1074238005e+00
 9.0726571848e-01	 6.6643908653e-01	 2.0734798069e+00
 8.9333872459e-01	 6.8665450801e-01	 2.0255695594e+00
 8.7887689772e-01	 7.0645513337e-01	 1.9636810998e+00
 1.0122401022e+00	 4.9812913938e-01	 1.9708939237e+00
 1.0025467564e+00	 5.2139299701e-01	 1.9910186547e+00
 9.9230196737e-01	 5.4436919038e-01	 2.0038100837e+00
 9.8150373269e-01	 5.6703990557e-01	 2.0080487177e+00
 9.7015093607e-01	 5.8938757843e-01	 2.0026717019e+00
 9.5824336558e-01	 6.1139494750e-01	 1.9867910539e+00
 9.4578172865e-01	 6.3304510657e-01	 1.9597106290e+00
 9.3276766351e-01	 6.5432155683e-01	 1.9209414882e+00
 9.1920374695e-01	 6.7520825814e-01	 1.8702153497e+00
 9.0509349820e-01	 6.9568967917e-01	 1.8074958299e+00
 8.9044137901e-01	 7.1575084610e-01	 1.7329872061e+00
 1.0253864440e+00	 5.0459852932e-01	 1.9227972943e+00
 1.0155672071e+00	 5.2816452339e-01	 1.9245941715e+00
 1.0051893652e+00	 5.5143911721e-01	 1.9184603926e+00
 9.9425088975e-01	 5.7440426547e-01	 1.9036052812e+00
 9.8275065011e-01	 5.9704217595e-01	 1.8793732868e+00
 9.7068843153e-01	 6.1933536297e-01	 1.8452576333e+00
 9.5806495065e-01	 6.4126670077e-01	 1.8009128268e+00
 9.4488186697e-01	 6.6281947627e-01	 1.7461657640e+00
 9.3114179073e-01	 6.8397744100e-01	 1.6810252009e+00
 9.1684828689e-01	 7.0472486193e-01	 1.6056893565e+00
 9.0200587513e-01	 7.2504657075e-01	 1.5205514553e+00
 1.0385327919e+00	 5.1106792229e-01	 1.8665070936e+00
 1.0285876639e+00	 5.3493605294e-01	 1.8520073402e+00
 1.0180767689e+00	 5.5850904733e-01	 1.8292099170e+00
 1.0069980528e+00	 5.8176862881e-01	 1.7976863219e+00
 9.9535037002e-01	 6.0469677703e-01	 1.7571254363e+00
 9.8313350329e-01	 6.2727578214e-01	 1.7073433296e+00
 9.7034817838e-01	 6.4948829881e-01	 1.6482920218e+00
 9.5699607607e-01	 6.7131739968e-01	 1.5800670112e+00
 9.4307984008e-01	 6.9274662796e-01	 1.5029133863e+00
 9.2860308106e-01	 7.1376004891e-01	 1.4172303587e+00
 9.1357037665e-01	 7.3434229975e-01	 1.3235740776e+00
 1.0516791353e+00	 5.1753731298e-01	 1.7999034107e+00
 1.0416081161e+00	 5.4170758012e-01	 1.7709399582e+00
 1.0309641682e+00	 5.6557897498e-01	 1.7335680967e+00
 1.0197452113e+00	 5.8913298958e-01	 1.6876574359e+00
 1.0079500855e+00	 6.1235137544e-01	 1.6331808640e+00
 9.9557857069e-01	 6.3521619854e-01	 1.5702212239e+00
 9.8263140181e-01	 6.5770989397e-01	 1.4989770251e+00
 9.6911028094e-01	 6.7981532011e-01	 1.4197670454e+00
 9.5501788526e-01	 7.0151581184e-01	 1.3330336939e+00
 9.4035787113e-01	 7.2279523272e-01	 1.2393450203e+00
 9.2513487412e-01	 7.4363802549e-01	 1.1393952794e+00
 8.0949085058e-01	 6.5068153262e-01	 3.9082087817e+00
 7.9568306243e-01	 6.6852381742e-01	 3.9218737117e+00
 7.8139331794e-01	 6.8595852703e-01	 3.8999399267e+00
 7.6662819543e-01	 7.0297382675e-01	 3.8400433097e+00
 7.5139509416e-01	 7.1955854692e-01	 3.7403534388e+00
 7.3570221656e-01	 7.3570221656e-01	 3.5995964843e+00
 7.1955854692e-01	 7.5139509416e-01	 3.4170715690e+00
 7.0297382675e-01	 7.6662819543e-01	 3.1926602687e+00
 6.8595852703e-01	 7.8139331794e-01	 2.9268290590e+00
 6.6852381742e-01	 7.9568306243e-01	 2.6206246517e+00
 6.5068153262e-01	 8.0949085058e-01	 2.2756623017e+00
 8.2105504448e-01	 6.5997701436e-01	 3.5000548745e+00
 8.0705000155e-01	 6.7807418980e-01	 3.4959275343e+00
 7.9255611717e-01	 6.9575796752e-01	 3.4598173649e+00
 7.7758006362e-01	 7.1301634377e-01	 3.3901698865e+00
 7.6212934589e-01	 7.2983798931e-01	 3.2858935936e+00
 7.4621228358e-01	 7.4621228358e-01	 3.1463759460e+00
 7.2983798931e-01	 7.6212934589e-01	 2.9714937112e+00
 7.1301634377e-01	 7.7758006362e-01	 2.7616174304e+00
 6.9575796752e-01	 7.9255611717e-01	 2.5176098993e+00
 6.7807418980e-01	 8.0705000155e-01	 2.2408186643e+00
 6.5997701436e-01	 8.2105504448e-01	 1.9330626564e+00
 8.3261930989e-01	 6.6927255357e-01	 3.1304769603e+00
 8.1841701096e-01	 6.8762462123e-01	 3.1092731244e+00
 8.0371898543e-01	 7.0555746861e-01	 3.0593642130e+00
 7.8853199954e-01	 7.2305892288e-01	 2.9799069955e+00
 7.7286366400e-01	 7.4011749526e-01	 2.8704569617e+00
 7.5672241559e-01	 7.5672241559e-01	 2.7309782155e+00
 7.4011749526e-01	 7.7286366400e-01	 2.5618485239e+00
 7.2305892288e-01	 7.8853199954e-01	 2.3638593827e+00
 7.0555746861e-01	 8.0371898543e-01	 2.1382110607e+00
 6.8762462123e-01	 8.1841701096e-01	 1.8865026777e+00
 6.6927255357e-01	 8.3261930989e-01	 1.6107174673e+00
 8.4418363736e-01	 6.7856814267e-01	 2.7956102978e+00
 8.2978408138e-01	 6.9717510391e-01	 2.7582573396e+00
 8.1488191359e-01	 7.1535702229e-01	 2.6951724435e+00
 7.9948399424e-01	 7.3310155590e-01	 2.6061295165e+00
 7.8359803972e-01	 7.5039705638e-01	 2.4912431717e+00
 7.6723260400e-01	 7.6723260400e-01	 2.3509733021e+00
 7.5039705638e-01	 7.8359803972e-01	 2.1861255344e+00
 7.3310155590e-01	 7.9948399424e-01	 1.9978475052e+00
 7.1535702229e-01	 8.1488191359e-01	 1.7876209794e+00
 6.9717510391e-01	 8.2978408138e-01	 1.5572499116e+00
 6.7856814267e-01	 8.4418363736e-01	 1.3088446305e+00
 8.5574801746e-01	 6.8786377406e-01	 2.4917990199e+00
 8.4115120351e-01	 7.0672563005e-01	 2.4394244833e+00
 8.2604489255e-01	 7.2515662055e-01	 2.3640182343e+00
 8.1043603877e-01	 7.4314423460e-01	 2.2658812524e+00
 7.9433246429e-01	 7.6067666427e-01	 2.1456032314e+00
 7.7774284023e-01	 7.7774284023e-01	 2.0040625826e+00
 7.6067666427e-01	 7.9433246429e-01	 1.8424229696e+00
 7.4314423460e-01	 8.1043603877e-01	 1.6621263807e+00
 7.2515662055e-01	 8.2604489255e-01	 1.4648828128e+00
 7.0672563005e-01	 8.4115120351e-01	 1.2526567044e+00
 6.8786377406e-01	 8.5574801746e-01	 1.0276503200e+00
 8.6731244073e-01	 6.9715944016e-01	 2.2155822140e+00
 8.5251836809e-01	 7.1627619184e-01	 2.1495031476e+00
 8.3720791319e-01	 7.3495625541e-01	 2.0628496955e+00
 8.2138812419e-01	 7.5318695080e-01	 1.9563636749e+00
 8.0506692893e-01	 7.7095631054e-01	 1.8310294423e+00
 7.8825311570e-01	 7.8825311570e-01	 1.6880700513e+00
 7.7095631054e-01	 8.0506692893e-01	 1.5289405178e+00
 7.5318695080e-01	 8.2138812419e-01	 1.3553182558e+00
 7.3495625541e-01	 8.3720791319e-01	 1.1690907991e+00
 7.1627619184e-01	 8.5251836809e-01	 9.7234097917e-01
 6.9715944016e-01	 8.6731244073e-01	 7.6732977583e-01
 8.7887689772e-01	 7.0645513337e-01	 1.9636810998e+00
 8.6388556582e-01	 7.2582678149e-01	 1.8853940933e+00
 8.4837096638e-01	 7.4475591884e-01	 1.7887755630e+00
 8.3234024156e-01	 7.6322969630e-01	 1.6749255571e+00
 8.1580142487e-01	 7.8123598680e-01	 1.5451461111e+00
 7.9876342183e-01	 7.9876342183e-01	 1.4009342595e+00
 7.8123598680e-01	 8.1580142487e-01	 1.2439726600e+00
 7.6322969630e-01	 8.3234024156e-01	 1.0761179383e+00
 7.4475591884e-01	 8.4837096638e-01	 8.9938690391e-01
 7.2582678149e-01	 8.6388556582e-01	 7.1594083046e-01
 7.0645513337e-01	 8.7887689772e-01	 5.2806802978e-01
 8.9044137901e-01	 7.1575084610e-01	 1.7329872061e+00
 8.7525278742e-01	 7.3537739119e-01	 1.6441590743e+00
 8.5953404301e-01	 7.5455560285e-01	 1.5390547729e+00
 8.4329238192e-01	 7.7327246288e-01	 1.4190534139e+00
 8.2653594336e-01	 7.9151568464e-01	 1.2857009834e+00
 8.0927375003e-01	 8.0927375003e-01	 1.1407008833e+00
 7.9151568464e-01	 8.2653594336e-01	 9.8590252151e-01
 7.7327246288e-01	 8.4329238192e-01	 8.2328809259e-01
 7.5455560285e-01	 8.5953404301e-01	 6.5495772738e-01
 7.3537739119e-01	 8.7525278742e-01	 4.8311322078e-01
 7.1575084610e-01	 8.9044137901e-01	 3.1004057424e-01
 9.0200587513e-01	 7.2504657075e-01	 1.5205514553e+00
 8.8662002361e-01	 7.4492801315e-01	 1.4230105206e+00
 8.7069713397e-01	 7.6435529944e-01	 1.3110868371e+00
 8.5424453633e-01	 7.8331524234e-01	 1.1863626768e+00
 8.3727047563e-01	 8.0179539567e-01	 1.0505573360e+00
 8.1978409171e-01	 8.1978409171e-01	 9.0551586195e-01
 8.0179539567e-01	 8.3727047563e-01	 7.5319619524e-01
 7.8331524234e-01	 8.5424453633e-01	 5.9565489578e-01
 7.6435529944e-01	 8.7069713397e-01	 4.3503164988e-01
 7.4492801315e-01	 8.8662002361e-01	 2.7353277774e-01
 7.2504657075e-01	 9.0200587513e-01	 1.1341398018e-01
 9.1357037665e-01	 7.3434229975e-01	 1.3235740776e+00
 8.9798726510e-01	 7.5447863957e-01	 1.2193020041e+00
 8.8186023014e-01	 7.7415500060e-01	 1.1024029497e+00
 8.6519669586e-01	 7.9335802650e-01	 9.7458953876e-01
 8.4800501290e-01	 8.1207511149e-01	 8.3768666955e-01
 8.3029443830e-01	 8.3029443830e-01	 6.9361905742e-01
 8.1207511149e-01	 8.4800501290e-01	 5.4439749659e-01
 7.9335802650e-01	 8.6519669586e-01	 3.9210402418e-01
 7.7415500060e-01	 8.8186023014e-01	 2.3887619367e-01
 7.5447863957e-01	 8.9798726510e-01	 8.6890682219e-02
 7.3434229975e-01	 9.1357037665e-01	-6.1653532107e-02
 9.2513487412e-01	 7.4363802549e-01	 1.1393952794e+00
 9.0935450262e-01	 7.6402926264e-01	 1.0305194196e+00
 8.9302332240e-01	 7.8395469832e-01	 9.1065775870e-01
 8.7614885155e-01	 8.0340080713e-01	 7.8158340977e-01
 8.5873954642e-01	 8.2235482372e-01	 6.4516194877e-01
 8.4080478121e-01	 8.4080478121e-01	 5.0333838897e-01
 8.2235482372e-01	 8.5873954642e-01	 3.5812311092e-01
 8.0340080713e-01	 8.7614885155e-01	 2.1157694013e-01
 7.8395469832e-01	 8.9302332240e-01	 6.5795582545e-02
 7.6402926264e-01	 9.0935450262e-01	-7.7106360055e-02
 7.4363802549e-01	 9.2513487412e-01	-2.1501156486e-01
 6.5068153262e-01	 8.0949085058e-01	 2.2756623017e+00
 6.3244413771e-01	 8.2281093734e-01	 1.8963427976e+00
 6.1382469423e-01	 8.3563841542e-01	 1.4902925204e+00
 5.9483681473e-01	 8.4796922867e-01	 1.0639987087e+00
 5.7549461858e-01	 8.5980017780e-01	 6.2340852065e-01
 5.5581268770e-01	 8.7112892028e-01	 1.7389765873e-01
 5.3580602098e-01	 8.8195396682e-01	-2.7975313514e-01
 5.1548998767e-01	 8.9227467429e-01	-7.3337369469e-01
 4.9488028000e-01	 9.0209123535e-01	-1.1834122819e+00
 4.7399286534e-01	 9.1140466485e-01	-1.6269359405e+00
 4.5284393814e-01	 9.2021678307e-01	-2.0616237357e+00
 6.5997701436e-01	 8.2105504448e-01	 1.9330626564e+00
 6.4147908436e-01	 8.3456541884e-01	 1.5961591497e+00
 6.2259364793e-01	 8.4757614721e-01	 1.2344406724e+00
 6.0333451209e-01	 8.6008311553e-01	 8.5353586366e-01
 5.8371599792e-01	 8.7208307879e-01	 4.5863866721e-01
 5.6375289565e-01	 8.8357366100e-01	 5.4479990359e-02
 5.4346041845e-01	 8.9455335158e-01	-3.5469416710e-01
 5.2285415512e-01	 9.0502149822e-01	-7.6513806418e-01
 5.0195002206e-01	 9.1497829635e-01	-1.1736151222e+00
 4.8076421475e-01	 9.2442477528e-01	-1.5774005672e+00
 4.5931315901e-01	 9.3336278133e-01	-1.9742781019e+00
 6.6927255357e-01	 8.3261930989e-01	 1.6107174673e+00
 6.5051408687e-01	 8.4631997302e-01	 1.3105705607e+00
 6.3136265585e-01	 8.5951395283e-01	 9.8766493731e-01
 6.1183226200e-01	 8.7219707731e-01	 6.4685451243e-01
 5.9193742811e-01	 8.8436605574e-01	 2.9265201212e-01
 5.7169315271e-01	 8.9601847867e-01	-7.0796574184e-02
 5.5111486325e-01	 9.0715281425e-01	-4.3973232175e-01
 5.3021836810e-01	 9.1776840098e-01	-8.1079840272e-01
 5.0901980784e-01	 9.2786543703e-01	-1.1810498463e+00
 4.8753560604e-01	 9.3744496623e-01	-1.5479581461e+00
 4.6578241988e-01	 9.4650886088e-01	-1.9094109208e+00
 6.7856814267e-01	 8.4418363736e-01	 1.3088446305e+00
 6.5954913787e-01	 8.5807459028e-01	 1.0404408333e+00
 6.4013171083e-01	 8.7145182251e-01	 7.5141450887e-01
 6.2033005752e-01	 8.8431110409e-01	 4.4592633197e-01
 6.0015890241e-01	 8.9664909860e-01	 1.2787787533e-01
 5.7963345238e-01	 9.0846336313e-01	-1.9911138259e-01
 5.5876934913e-01	 9.1975234453e-01	-5.3172293568e-01
 5.3758262060e-01	 9.3051537214e-01	-8.6695391505e-01
 5.1608963156e-01	 9.4075264687e-01	-1.2021275231e+00
 4.9430703367e-01	 9.5046522705e-01	-1.5348992972e+00
 4.7225171547e-01	 9.5965501098e-01	-1.8632593357e+00
 6.8786377406e-01	 8.5574801746e-01	 1.0276503200e+00
 6.6858422998e-01	 8.6982926103e-01	 7.8658713983e-01
 6.4890080571e-01	 8.8338974652e-01	 5.2706031238e-01
 6.2882789170e-01	 8.9642518600e-01	 2.5261649225e-01
 6.0838041412e-01	 9.0893219736e-01	-3.3385664773e-02
 5.8757378818e-01	 9.2090830421e-01	-3.2779617503e-01
 5.6642386984e-01	 9.3235193215e-01	-6.2769125046e-01
 5.4494690662e-01	 9.4326240130e-01	-9.3038755474e-01
 5.2315948744e-01	 9.5363991535e-01	-1.2334531392e+00
 5.0107849211e-01	 9.6348554711e-01	-1.5347150692e+00
 4.7872104050e-01	 9.7280122090e-01	-1.8322638089e+00
 6.9715944016e-01	 8.6731244073e-01	 7.6732977583e-01
 6.7761935581e-01	 8.8158397567e-01	 5.4978313685e-01
 6.5766993333e-01	 8.9532771509e-01	 3.1590022757e-01
 6.3732575760e-01	 9.0853931314e-01	 6.8690760743e-02
 6.1660195653e-01	 9.2121534197e-01	-1.8896301871e-01
 5.9551415362e-01	 9.3335329176e-01	-4.5432492217e-01
 5.7407841913e-01	 9.4495156680e-01	-7.2482108387e-01
 5.5231122013e-01	 9.5600947806e-01	-9.9805377311e-01
 5.3022936973e-01	 9.6652723194e-01	-1.2718126705e+00
 5.0784997584e-01	 9.7650591578e-01	-1.5440835766e+00
 4.8519038969e-01	 9.8594747989e-01	-1.8130545673e+00
 7.0645513337e-01	 8.7887689772e-01	 5.2806802978e-01
 6.8665450801e-01	 8.9333872459e-01	 3.3076183376e-01
 6.6643908653e-01	 9.0726571848e-01	 1.1916389934e-01
 6.4582364829e-01	 9.2065347560e-01	-1.0417795350e-01
 6.2482352292e-01	 9.3349852241e-01	-3.3679302362e-01
 6.0345454222e-01	 9.4579831560e-01	-5.7630446477e-01
 5.8173299074e-01	 9.5755123821e-01	-8.2044439469e-01
 5.5967555511e-01	 9.6875659199e-01	-1.0670672345e+00
 5.3729927263e-01	 9.7941458612e-01	-1.3141611735e+00
 5.1462147931e-01	 9.8952632243e-01	-1.5598576923e+00
 4.9165975774e-01	 9.9909377723e-01	-1.8024391177e+00
 7.1575084610e-01	 8.9044137901e-01	 3.1004057424e-01
 6.9568967917e-01	 9.0509349820e-01	 1.3021823801e-01
 6.7520825814e-01	 9.1920374695e-01	-6.1982826133e-02
 6.5432155683e-01	 9.3276766351e-01	-2.6440356526e-01
 6.3304510657e-01	 9.4578172865e-01	-4.7492150876e-01
 6.1139494750e-01	 9.5824336558e-01	-6.9146588201e-01
 5.8938757843e-01	 9.7015093607e-01	-9.1203165999e-01
 5.6703990557e-01	 9.8150373269e-01	-1.1346924104e+00
 5.4436919038e-01	 9.9230196737e-01	-1.3576118038e+00
 5.2139299701e-01	 1.0025467564e+00	-1.5790536981e+00
 4.9812913938e-01	 1.0122401022e+00	-1.7973907336e+00
 7.2504657075e-01	 9.0200587513e-01	 1.1341398018e-01
 7.0472486193e-01	 9.1684828689e-01	-5.1188202938e-02
 6.8397744100e-01	 9.3114179073e-01	-2.2643380612e-01
 6.6281947627e-01	 9.4488186697e-01	-4.1048124241e-01
 6.4126670077e-01	 9.5806495065e-01	-6.0149443227e-01
 6.1933536297e-01	 9.7068843153e-01	-7.9765652333e-01
 5.9704217595e-01	 9.8275065011e-01	-9.9718299204e-01
 5.7440426547e-01	 9.9425088975e-01	-1.1983339727e+00
 5.5143911721e-01	 1.0051893652e+00	-1.3994256790e+00
 5.2816452339e-01	 1.0155672071e+00	-1.5988408068e+00
 5.0459852932e-01	 1.0253864440e+00	-1.7950378272e+00
 7.3434229975e-01	 9.1357037665e-01	-6.1653532107e-02
 7.1376004891e-01	 9.2860308106e-01	-2.1283134497e-01
 6.9274662796e-01	 9.4307984008e-01	-3.7313881693e-01
 6.7131739968e-01	 9.5699607607e-01	-5.4098225791e-01
 6.4948829881e-01	 9.7034817838e-01	-7.1475153897e-01
 6.2727578214e-01	 9.8313350329e-01	-8.9283264489e-01
 6.0469677703e-01	 9.9535037002e-01	-1.0736199293e+00
 5.8176862881e-01	 1.0069980528e+00	-1.2555279168e+00
 5.5850904733e-01	 1.0180767689e+00	-1.4370025104e+00
 5.3493605294e-01	 1.0285876639e+00	-1.6165314804e+00
 5.1106792229e-01	 1.0385327919e+00	-1.7926541277e+00
 7.4363802549e-01	 9.2513487412e-01	-2.1501156486e-01
 7.2279523272e-01	 9.4035787113e-01	-3.5411625979e-01
 7.0151581184e-01	 9.5501788526e-01	-5.0110005309e-01
 6.7981532011e-01	 9.6911028094e-01	-6.5454922758e-01
 6.5770989397e-01	 9.8263140181e-01	-8.1302049325e-01
 6.3521619854e-01	 9.9557857069e-01	-9.7505259788e-01
 6.1235137544e-01	 1.0079500855e+00	-1.1391778427e+00
 5.8913298958e-01	 1.0197452113e+00	-1.3039333496e+00
 5.6557897498e-01	 1.0309641682e+00	-1.4678719369e+00
 5.4170758012e-01	 1.0416081161e+00	-1.6295724733e+00
 5.1753731298e-01	 1.0516791353e+00	-1.7876495959e+00
 4.5284393814e-01	 9.2021678307e-01	-2.0616237357e+00
 4.3145137682e-01	 9.2852963255e-01	-2.4846389004e+00
 4.0983020693e-01	 9.3634722131e-01	-2.8919398722e+00
 3.8799700919e-01	 9.4367366227e-01	-3.2802163933e+00
 3.6596840296e-01	 9.5051377945e-01	-3.6467583155e+00
 3.4376100127e-01	 9.5687307865e-01	-3.9894400748e+00
 3.2139136714e-01	 9.6275771633e-01	-4.3066998823e+00
 2.9887597146e-01	 9.6817446680e-01	-4.5975142927e+00
 2.7623115241e-01	 9.7313068804e-01	-4.8613688386e+00
 2.5347307689e-01	 9.7763428640e-01	-5.0982254197e+00
 2.3061770384e-01	 9.8169368030e-01	-5.3084871352e+00
 4.5931315901e-01	 9.3336278133e-01	-1.9742781019e+00
 4.3761498865e-01	 9.4179438621e-01	-2.3615150540e+00
 4.1568494387e-01	 9.4972365518e-01	-2.7354208451e+00
 3.9353984225e-01	 9.5715475994e-01	-3.0930453928e+00
 3.7119654059e-01	 9.6409259340e-01	-3.4319762173e+00
 3.4867188923e-01	 9.7054274004e-01	-3.7503243859e+00
 3.2598268784e-01	 9.7651144426e-01	-4.0467057375e+00
 3.0314564256e-01	 9.8200557714e-01	-4.3202179779e+00
 2.8017732501e-01	 9.8703260179e-01	-4.5704142652e+00
 2.5709413304e-01	 9.9160053748e-01	-4.7972739062e+00
 2.3391225356e-01	 9.9571792291e-01	-5.0011707770e+00
 4.6578241988e-01	 9.4650886088e-01	-1.9094109208e+00
 4.4377863858e-01	 9.5505922188e-01	-2.2628966121e+00
 4.2153971700e-01	 9.6310017177e-01	-2.6051654990e+00
 3.9908270958e-01	 9.7063594097e-01	-2.9335971242e+00
 3.7642471054e-01	 9.7767149133e-01	-3.2460504576e+00
 3.5358280757e-01	 9.8421248596e-01	-3.5408512531e+00
 3.3057403692e-01	 9.9026525724e-01	-3.8167752031e+00
 3.0741534007e-01	 9.9583677301e-01	-4.0730274243e+00
 2.8412352201e-01	 1.0009346015e+00	-4.3092188240e+00
 2.6071521158e-01	 1.0055668749e+00	-4.5253399042e+00
 2.3720682365e-01	 1.0097422522e+00	-4.7217325499e+00
 4.7225171547e-01	 9.5965501098e-01	-1.8632593357e+00
 4.4994232160e-01	 9.6832412875e-01	-2.1850119349e+00
 4.2739452156e-01	 9.7647676014e-01	-2.4974173494e+00
 4.0462560667e-01	 9.8411719435e-01	-2.7981553474e+00
 3.8165290856e-01	 9.9125046212e-01	-3.0853311132e+00
 3.5849375226e-01	 9.9788230525e-01	-3.3574639588e+00
 3.3516541064e-01	 1.0040191440e+00	-3.6134723135e+00
 3.1168506048e-01	 1.0096680431e+00	-3.8526554665e+00
 2.8806974019e-01	 1.0148366758e+00	-4.0746725518e+00
 2.6433630954e-01	 1.0195332873e+00	-4.2795192688e+00
 2.4050141141e-01	 1.0237666568e+00	-4.4675028258e+00
 4.7872104050e-01	 9.7280122090e-01	-1.8322638089e+00
 4.5610603267e-01	 9.8158909597e-01	-2.1242931771e+00
 4.3324935275e-01	 9.8985340938e-01	-2.4086228879e+00
 4.1016852897e-01	 9.9759850906e-01	-2.6832046241e+00
 3.8688113036e-01	 1.0048294947e+00	-2.9463654788e+00
 3.6340471929e-01	 1.0115521867e+00	-3.1967979672e+00
 3.3975680526e-01	 1.0177730934e+00	-3.4335467597e+00
 3.1595480033e-01	 1.0234993761e+00	-3.6559925545e+00
 2.9201597632e-01	 1.0287388134e+00	-3.8638335243e+00
 2.6795742398e-01	 1.0334997632e+00	-4.0570647707e+00
 2.4379601417e-01	 1.0377911252e+00	-4.2359562176e+00
 4.8519038969e-01	 9.8594747989e-01	-1.8130545673e+00
 4.6226976674e-01	 9.9485411272e-01	-2.0773627023e+00
 4.3910420581e-01	 1.0032301086e+00	-2.3354180513e+00
 4.1571147196e-01	 1.0110798741e+00	-2.5854169325e+00
 3.9210937168e-01	 1.0184085780e+00	-2.8258849218e+00
 3.6831570466e-01	 1.0252221192e+00	-3.0556681147e+00
 3.4434821701e-01	 1.0315270941e+00	-3.2739215144e+00
 3.2022455611e-01	 1.0373307608e+00	-3.4800949147e+00
 2.9596222719e-01	 1.0426410028e+00	-3.6739166558e+00
 2.7157855194e-01	 1.0474662913e+00	-3.8553756376e+00
 2.4709062922e-01	 1.0518156460e+00	-4.0247019659e+00
 4.9165975774e-01	 9.9909377723e-01	-1.8024391177e+00
 4.6843351880e-01	 1.0081191681e+00	-2.0410205686e+00
 4.4495907594e-01	 1.0166068467e+00	-2.2746157584e+00
 4.2125443113e-01	 1.0245612785e+00	-2.5016393377e+00
 3.9733762825e-01	 1.0319877008e+00	-2.7207927727e+00
 3.7322670435e-01	 1.0388920916e+00	-2.9310568094e+00
 3.4893964216e-01	 1.0452811349e+00	-3.1316814334e+00
 3.2449432434e-01	 1.0511621858e+00	-3.3221736452e+00
 2.9990848956e-01	 1.0565432328e+00	-3.5022833822e+00
 2.7519969046e-01	 1.0614328601e+00	-3.6719879202e+00
 2.5038525388e-01	 1.0658402077e+00	-3.8314750829e+00
 4.9812913938e-01	 1.0122401022e+00	-1.7973907336e+00
 4.7459728379e-01	 1.0213842514e+00	-2.0122329899e+00
 4.5081395837e-01	 1.0299836130e+00	-2.2231944177e+00
 4.2679740193e-01	 1.0380427111e+00	-2.4288826225e+00
 4.0256589580e-01	 1.0455668522e+00	-2.6281531588e+00
 3.7813771435e-01	 1.0525620927e+00	-2.8201031509e+00
 3.5353107694e-01	 1.0590352046e+00	-3.0040627436e+00
 3.2876410154e-01	 1.0649936398e+00	-3.1795846598e+00
 3.0385476022e-01	 1.0704454920e+00	-3.3464321477e+00
 2.7882083658e-01	 1.0753994583e+00	-3.5045656087e+00
 2.5367988546e-01	 1.0798647988e+00	-3.6541281867e+00
 5.0459852932e-01	 1.0253864440e+00	-1.7950378272e+00
 4.8076105670e-01	 1.0346493517e+00	-1.9881216827e+00
 4.5666884831e-01	 1.0433603965e+00	-2.1782873169e+00
 4.3234037985e-01	 1.0515241611e+00	-2.3643107914e+00
 4.0779417006e-01	 1.0591460211e+00	-2.5451806964e+00
 3.8304873066e-01	 1.0662321113e+00	-2.7200928852e+00
 3.5812251762e-01	 1.0727892920e+00	-2.8884433405e+00
 3.3303388422e-01	 1.0788251116e+00	-3.0498194051e+00
 3.0780103594e-01	 1.0843477691e+00	-3.2039896224e+00
 2.8244198734e-01	 1.0893660743e+00	-3.3508924320e+00
 2.5697452127e-01	 1.0938894079e+00	-3.4906239624e+00
 5.1106792229e-01	 1.0385327919e+00	-1.7926541277e+00
 4.8692483249e-01	 1.0479144583e+00	-1.9659540221e+00
 4.6252374099e-01	 1.0567371862e+00	-2.1371728191e+00
 4.3788336035e-01	 1.0650056174e+00	-2.3052313716e+00
 4.1302244676e-01	 1.0727251962e+00	-2.4692309642e+00
 3.8795974926e-01	 1.0799021363e+00	-2.6284491226e+00
 3.6271396044e-01	 1.0865433858e+00	-2.7823338204e+00
 3.3730366890e-01	 1.0926565899e+00	-2.9304962822e+00
 3.1174731350e-01	 1.0982500526e+00	-3.0727025865e+00
 2.8606313980e-01	 1.1033326969e+00	-3.2088642786e+00
 2.6026915861e-01	 1.1079140236e+00	-3.3390281964e+00
 5.1753731298e-01	 1.0516791353e+00	-1.7876495959e+00
 4.9308860612e-01	 1.0611795601e+00	-1.9431339351e+00
 4.6837863162e-01	 1.0701139712e+00	-2.0972652931e+00
 4.4342633892e-01	 1.0784870689e+00	-2.2490864408e+00
 4.1825072163e-01	 1.0863043666e+00	-2.3977916923e+00
 3.9287076614e-01	 1.0935721566e+00	-2.5427237506e+00
 3.6730540165e-01	 1.1002974747e+00	-2.6833691858e+00
 3.4157345207e-01	 1.1064880633e+00	-2.8193527106e+00
 3.1569358968e-01	 1.1121523313e+00	-2.9504304223e+00
 2.8968429099e-01	 1.1172993146e+00	-3.0764821864e+00
 2.6356379480e-01	 1.1219386343e+00	-3.1975033313e+00
 2.3061770384e-01	 9.8169368030e-01	-5.3084871352e+00
 2.0767914567e-01	 9.8531800201e-01	-5.4933597928e+00
 1.8467446446e-01	 9.8851628533e-01	-5.6540374278e+00
 1.6161882325e-01	 9.9129826399e-01	-5.7912927630e+00
 1.3852705063e-01	 9.9367403434e-01	-5.9059417997e+00
 1.1541361525e-01	 9.9565401780e-01	-5.9988363564e+00
 9.2292602777e-02	 9.9724892368e-01	-6.0708569059e+00
 6.9177695236e-02	 9.9846971248e-01	-6.1229057582e+00
 4.6082152713e-02	 9.9932755992e-01	-6.1559006257e+00
 2.3018797407e-02	 9.9983382185e-01	-6.1707685987e+00
 0.0000000000e+00	 1.0000000000e+00	-6.1684405498e+00
 2.3391225356e-01	 9.9571792291e-01	-5.0011707770e+00
 2.1064600060e-01	 9.9939402083e-01	-5.1820794850e+00
 1.8731267998e-01	 1.0026379941e+00	-5.3399338753e+00
 1.6392767136e-01	 1.0054597154e+00	-5.4754140954e+00
 1.4050601516e-01	 1.0078694254e+00	-5.5892611224e+00
 1.1706238673e-01	 1.0098776945e+00	-5.6822681765e+00
 9.3611072970e-02	 1.0114953848e+00	-5.7552723770e+00
 7.0165951353e-02	 1.0127336135e+00	-5.8091467060e+00
 4.6740471396e-02	 1.0136037159e+00	-5.8447923376e+00
 2.3347638476e-02	 1.0141172102e+00	-5.8631313751e+00
 0.0000000000e+00	 1.0142857623e+00	-5.8651000332e+00
 2.3720682365e-01	 1.0097422522e+00	-4.7217325499e+00
 2.1361287387e-01	 1.0134701267e+00	-4.8973557487e+00
 1.8995091181e-01	 1.0167597901e+00	-5.0511048494e+00
 1.6623653374e-01	 1.0196212544e+00	-5.1835742414e+00
 1.4248499193e-01	 1.0220649043e+00	-5.2954344850e+00
 1.1871116841e-01	 1.0241014591e+00	-5.3874227564e+00
 9.4929551314e-02	 1.0257419340e+00	-5.4603334810e+00
 7.1154213578e-02	 1.0269976027e+00	-5.5150092429e+00
 4.7398794148e-02	 1.0278799602e+00	-5.5523320418e+00
 2.3676481578e-02	 1.0284006869e+00	-5.5732149571e+00
 0.0000000000e+00	 1.0285716130e+00	-5.5785942668e+00
 2.4050141141e-01	 1.0237666568e+00	-4.4675028258e+00
 2.1657976306e-01	 1.0275463081e+00	-4.6367603411e+00
 1.9258915780e-01	 1.0308816619e+00	-4.7853486474e+00
 1.6854540851e-01	 1.0337828694e+00	-4.9137834566e+00
 1.4446397931e-01	 1.0362604594e+00	-5.0226698467e+00
 1.2035995893e-01	 1.0383253001e+00	-5.1126918851e+00
 9.6248036731e-02	 1.0399885597e+00	-5.1846023948e+00
 7.2142481105e-02	 1.0412616685e+00	-5.2392129670e+00
 4.8057120433e-02	 1.0421562812e+00	-5.2773843043e+00
 2.4005326445e-02	 1.0426842402e+00	-5.3000169694e+00
 0.0000000000e+00	 1.0428575404e+00	-5.3080425972e+00
 2.4379601417e-01	 1.0377911252e+00	-4.2359562176e+00
 2.1954666575e-01	 1.0416225535e+00	-4.3979962153e+00
 1.9522741578e-01	 1.0450035980e+00	-4.5405825188e+00
 1.7085429379e-01	 1.0479445488e+00	-4.6641594937e+00
 1.4644297570e-01	 1.0504560790e+00	-4.7692719783e+00
 1.2200875696e-01	 1.0525492057e+00	-4.8565542282e+00
 9.7566528146e-02	 1.0542352502e+00	-4.9267189638e+00
 7.3130753127e-02	 1.0555257991e+00	-4.9805466375e+00
 4.8715449711e-02	 1.0564326670e+00	-5.0188750172e+00
 2.4334172807e-02	 1.0569678585e+00	-5.0425891723e+00
 0.0000000000e+00	 1.0571435327e+00	-5.0526119284e+00
 2.4709062922e-01	 1.0518156460e+00	-4.0247019659e+00
 2.2251357951e-01	 1.0556988515e+00	-4.1788887754e+00
 1.9786568362e-01	 1.0591255868e+00	-4.3148347371e+00
 1.7316318768e-01	 1.0621062811e+00	-4.4329204376e+00
 1.4842197947e-01	 1.0646517517e+00	-4.5336360105e+00
 1.2365756113e-01	 1.0667731645e+00	-4.6175695384e+00
 9.8885024482e-02	 1.0684819939e+00	-4.6853955253e+00
 7.4119028838e-02	 1.0697899831e+00	-4.7378635647e+00
 4.9373781447e-02	 1.0707091062e+00	-4.7757873118e+00
 2.4663020396e-02	 1.0712515302e+00	-4.8000338533e+00
 0.0000000000e+00	 1.0714295784e+00	-4.8115135515e+00
 2.5038525388e-01	 1.0658402077e+00	-3.8314750829e+00
 2.2548050193e-01	 1.0697751905e+00	-3.9773778222e+00
 2.0050395915e-01	 1.0732476168e+00	-4.1062372967e+00
 1.7547208830e-01	 1.0762680546e+00	-4.2183781058e+00
 1.5040098901e-01	 1.0788474657e+00	-4.3142414897e+00
 1.2530637012e-01	 1.0809971648e+00	-4.3943733211e+00
 1.0020352466e-01	 1.0827287791e+00	-4.4594121400e+00
 7.5107307430e-02	 1.0840542086e+00	-4.5100773642e+00
 5.0032115103e-02	 1.0849855870e+00	-4.5471577929e+00
 2.4991868945e-02	 1.0855352435e+00	-4.5715005035e+00
 0.0000000000e+00	 1.0857156657e+00	-4.5840002258e+00
 2.5367988546e-01	 1.0798647988e+00	-3.6541281867e+00
 2.2844743057e-01	 1.0838515591e+00	-3.7915101257e+00
 2.0314224021e-01	 1.0873696765e+00	-3.9130191788e+00
 1.7778099377e-01	 1.0904298580e+00	-4.0189319625e+00
 1.5238000271e-01	 1.0930432096e+00	-4.1096468972e+00
 1.2695518256e-01	 1.0952211949e+00	-4.1856719163e+00
 1.0152202761e-01	 1.0969755942e+00	-4.2476121953e+00
 7.6095588098e-02	 1.0983184641e+00	-4.2961580415e+00
 5.0690450140e-02	 1.0992620978e+00	-4.3320730674e+00
 2.5320718183e-02	 1.0998189868e+00	-4.3561827530e+00
 0.0000000000e+00	 1.1000017831e+00	-4.3693634857e+00
 2.5697452127e-01	 1.0938894079e+00	-3.4906239624e+00
 2.3141436302e-01	 1.0979279458e+00	-3.6194325686e+00
 2.0578052467e-01	 1.1014917543e+00	-3.7335001348e+00
 1.8008990221e-01	 1.1045916795e+00	-3.8330635008e+00
 1.5435901894e-01	 1.1072389717e+00	-3.9184845901e+00
 1.2860399713e-01	 1.1094452433e+00	-3.9902379586e+00
 1.0284053225e-01	 1.1112224277e+00	-4.0488983461e+00
 7.7083870033e-02	 1.1125827379e+00	-4.0951283775e+00
 5.1348786023e-02	 1.1135386269e+00	-4.1296665393e+00
 2.5649567844e-02	 1.1141027485e+00	-4.1533155413e+00
 0.0000000000e+00	 1.1142879188e+00	-4.1669311556e+00
 2.6026915861e-01	 1.1079140236e+00	-3.3390281964e+00
 2.3438129685e-01	 1.1120043390e+00	-3.4593858097e+00
 2.0841881035e-01	 1.1156138386e+00	-3.5660849410e+00
 1.8239881172e-01	 1.1187535076e+00	-3.6593310508e+00
 1.5633803610e-01	 1.1214347404e+00	-3.7394561251e+00
 1.3025281246e-01	 1.1236692983e+00	-3.8069061808e+00
 1.0415903751e-01	 1.1254692677e+00	-3.8622287636e+00
 7.8072152430e-02	 1.1268470183e+00	-3.9060605882e+00
 5.2007122212e-02	 1.1278151627e+00	-3.9391154474e+00
 2.5978417659e-02	 1.1283865168e+00	-3.9621725034e+00
 0.0000000000e+00	 1.1285740611e+00	-3.9760650530e+00
 2.6356379480e-01	 1.1219386343e+00	-3.1975033313e+00
 2.3734822965e-01	 1.1260807273e+00	-3.3096984227e+00
 2.1105709511e-01	 1.1297359180e+00	-3.4092580845e+00
 1.8470772042e-01	 1.1329153307e+00	-3.4963649773e+00
 1.5831705257e-01	 1.1356305041e+00	-3.5713279337e+00
 1.3190162721e-01	 1.1378933484e+00	-3.6345695329e+00
 1.0547754230e-01	 1.1397161028e+00	-3.6866136655e+00
 7.9060434482e-02	 1.1411112938e+00	-3.7280732351e+00
 5.2665458172e-02	 1.1420916935e+00	-3.7596381263e+00
 2.6307267358e-02	 1.1426702801e+00	-3.7820635506e+00
 0.0000000000e+00	 1.1428601985e+00	-3.7961588637e+00
 1.1428601985e+00	 0.0000000000e+00	 1.3355566416e+00
 1.1426702801e+00	 2.6307267358e-02	 1.3380314275e+00
 1.1420916935e+00	 5.2665458172e-02	 1.3493624206e+00
 1.1411112938e+00	 7.9060434482e-02	 1.3684520211e+00
 1.1397161028e+00	 1.0547754230e-01	 1.3941242438e+00
 1.1378933484e+00	 1.3190162721e-01	 1.4251253621e+00
 1.1356305041e+00	 1.5831705257e-01	 1.4601253513e+00
 1.1329153307e+00	 1.8470772042e-01	 1.4977201957e+00
 1.1297359180e+00	 2.1105709511e-01	 1.5364351271e+00
 1.1260807273e+00	 2.3734822965e-01	 1.5747288484e+00
 1.1219386343e+00	 2.6356379480e-01	 1.6109987934e+00
 1.1571453214e+00	 0.0000000000e+00	 1.4283391551e+00
 1.1569530291e+00	 2.6636093707e-02	 1.4286545780e+00
 1.1563672105e+00	 5.3323747384e-02	 1.4376578377e+00
 1.1553745563e+00	 8.0048646356e-02	 1.4541238743e+00
 1.1539619263e+00	 1.0679595347e-01	 1.4767492290e+00
 1.1521163884e+00	 1.3355032488e-01	 1.5041538025e+00
 1.1498252598e+00	 1.6029592851e-01	 1.5348835163e+00
 1.1470761482e+00	 1.8701646517e-01	 1.5674139417e+00
 1.1438569947e+00	 2.1369519253e-01	 1.6001549537e+00
 1.1401561161e+00	 2.4031495177e-01	 1.6314564591e+00
 1.1359622492e+00	 2.6685819703e-01	 1.6596152347e+00
 1.1714304292e+00	 0.0000000000e+00	 1.5162076011e+00
 1.1712357631e+00	 2.6964919710e-02	 1.5146253389e+00
 1.1706427125e+00	 5.3982035906e-02	 1.5215043619e+00
 1.1696378039e+00	 8.1036857194e-02	 1.5355133372e+00
 1.1682077347e+00	 1.0811436326e-01	 1.5552430367e+00
 1.1663394135e+00	 1.3519902083e-01	 1.5792090869e+00
 1.1640200006e+00	 1.6227480237e-01	 1.6058557104e+00
 1.1612369509e+00	 1.8932520749e-01	 1.6335605195e+00
 1.1579780564e+00	 2.1633328717e-01	 1.6606404163e+00
 1.1542314900e+00	 2.4328167077e-01	 1.6853586362e+00
 1.1499858493e+00	 2.7015259581e-01	 1.7059329656e+00
 1.1857155238e+00	 0.0000000000e+00	 1.5988519089e+00
 1.1855184838e+00	 2.7293745407e-02	 1.5956246143e+00
 1.1849182012e+00	 5.4640323814e-02	 1.6005724970e+00
 1.1839010381e+00	 8.2025067110e-02	 1.6122782921e+00
 1.1824535299e+00	 1.0943277181e-01	 1.6292478383e+00
 1.1805624252e+00	 1.3684771523e-01	 1.6499136964e+00
 1.1782147281e+00	 1.6425367438e-01	 1.6726398364e+00
 1.1753977403e+00	 1.9163394766e-01	 1.6957274447e+00
 1.1720991051e+00	 2.1897137936e-01	 1.7174219017e+00
 1.1683068509e+00	 2.4624838700e-01	 1.7359209609e+00
 1.1640094364e+00	 2.7344699152e-01	 1.7493841470e+00
 1.2000006067e+00	 0.0000000000e+00	 1.6759767763e+00
 1.1998011928e+00	 2.7622570835e-02	 1.6713485075e+00
 1.1991936782e+00	 5.5298611184e-02	 1.6745484406e+00
 1.1981642607e+00	 8.3013276220e-02	 1.6840929171e+00
 1.1966993134e+00	 1.1075117929e-01	 1.6984228493e+00
 1.1947854254e+00	 1.3849640829e-01	 1.7159080941e+00
 1.1924094441e+00	 1.6623254478e-01	 1.7348529503e+00
 1.1895585182e+00	 1.9394268595e-01	 1.7535028331e+00
 1.1862201421e+00	 2.2160946939e-01	 1.7700521661e+00
 1.1823822002e+00	 2.4921510081e-01	 1.7826535171e+00
 1.1780330119e+00	 2.7674138453e-01	 1.7894279873e+00
 1.2142856796e+00	 0.0000000000e+00	 1.7473008017e+00
 1.2140838918e+00	 2.7951396034e-02	 1.7415074263e+00
 1.2134691452e+00	 5.5956898094e-02	 1.7431331622e+00
 1.2124274734e+00	 8.4001484638e-02	 1.7506467273e+00
 1.2109450870e+00	 1.1206958585e-01	 1.7624433273e+00
 1.2090084156e+00	 1.4014510020e-01	 1.7768496678e+00
 1.2066041501e+00	 1.6821141380e-01	 1.7921301347e+00
 1.2037192862e+00	 1.9625142262e-01	 1.8064941899e+00
 1.2003411693e+00	 2.2424755758e-01	 1.8181050190e+00
 1.1964575397e+00	 2.5218181254e-01	 1.8250894510e+00
 1.1920565777e+00	 2.8003577524e-01	 1.8255491516e+00
 1.2285707441e+00	 0.0000000000e+00	 1.8125556760e+00
 1.2283665825e+00	 2.8280221041e-02	 1.8058252525e+00
 1.2277446039e+00	 5.6615184621e-02	 1.8060415440e+00
 1.2266906777e+00	 8.4989692481e-02	 1.8116436843e+00
 1.2251908523e+00	 1.1338799164e-01	 1.8209996393e+00
 1.2232313976e+00	 1.4179379114e-01	 1.8324117468e+00
 1.2207988478e+00	 1.7019028166e-01	 1.8441234516e+00
 1.2178800459e+00	 1.9856015794e-01	 1.8543272825e+00
 1.2144621883e+00	 2.2688564422e-01	 1.8611741000e+00
 1.2105328710e+00	 2.5514852255e-01	 1.8627836307e+00
 1.2060801353e+00	 2.8333016403e-01	 1.8572562822e+00
 1.2428558020e+00	 0.0000000000e+00	 1.8714854308e+00
 1.2426492666e+00	 2.8609045895e-02	 1.8640385679e+00
 1.2420200560e+00	 5.7273470840e-02	 1.8630015824e+00
 1.2409538753e+00	 8.5977899862e-02	 1.8668013659e+00
 1.2394366109e+00	 1.1470639681e-01	 1.8737963944e+00
 1.2374543728e+00	 1.4344248132e-01	 1.8822826856e+00
 1.2349935389e+00	 1.7216914860e-01	 1.8905009664e+00
 1.2320407989e+00	 2.0086889219e-01	 1.8966450913e+00
 1.2285832006e+00	 2.2952372964e-01	 1.8988717395e+00
 1.2246081957e+00	 2.5811523116e-01	 1.8953113978e+00
 1.2201036864e+00	 2.8662455128e-01	 1.8840806208e+00
 1.2571408549e+00	 0.0000000000e+00	 1.9238457374e+00
 1.2569319456e+00	 2.8937870634e-02	 1.9158959327e+00
 1.2562955030e+00	 5.7931756830e-02	 1.9137536428e+00
 1.2552170680e+00	 8.6966106898e-02	 1.9158501928e+00
 1.2536823645e+00	 1.1602480153e-01	 1.9205516342e+00
 1.2516773431e+00	 1.4509117092e-01	 1.9261650113e+00
 1.2491882250e+00	 1.7414801484e-01	 1.9309458397e+00
 1.2462015471e+00	 2.0317762563e-01	 1.9331068326e+00
 1.2427042081e+00	 2.3216181413e-01	 1.9308278969e+00
 1.2386835154e+00	 2.6108193874e-01	 1.9222674049e+00
 1.2341272325e+00	 2.8991893738e-01	 1.9055747250e+00
 1.2714259045e+00	 0.0000000000e+00	 1.9694032535e+00
 1.2712146213e+00	 2.9266695296e-02	 1.9611572133e+00
 1.2705709467e+00	 5.8590042665e-02	 1.9580497652e+00
 1.2694802573e+00	 8.7954313704e-02	 1.9585327080e+00
 1.2679281148e+00	 1.1734320593e-01	 1.9609960793e+00
 1.2659003101e+00	 1.4673986013e-01	 1.9637746269e+00
 1.2633829079e+00	 1.7612688063e-01	 1.9651554792e+00
 1.2603622919e+00	 2.0548635853e-01	 1.9633870461e+00
 1.2568252122e+00	 2.3479989801e-01	 1.9566891708e+00
 1.2527588319e+00	 2.6404864563e-01	 1.9432645312e+00
 1.2481507754e+00	 2.9321332271e-01	 1.9213112711e+00
 1.2857109524e+00	 0.0000000000e+00	 2.0079350134e+00
 1.2854972953e+00	 2.9595519919e-02	 1.9995929547e+00
 1.2848463888e+00	 5.9248328424e-02	 1.9956530164e+00
 1.2837434449e+00	 8.8942520394e-02	 1.9946029032e+00
 1.2821738634e+00	 1.1866161018e-01	 1.9948724249e+00
 1.2801232755e+00	 1.4838854915e-01	 1.9948400695e+00
 1.2775775890e+00	 1.7810574618e-01	 1.9928407485e+00
 1.2745230351e+00	 2.0779509116e-01	 1.9871747446e+00
 1.2709462147e+00	 2.3743798158e-01	 1.9761178752e+00
 1.2668341468e+00	 2.6701535218e-01	 1.9579328699e+00
 1.2621743166e+00	 2.9650770765e-01	 1.9308819370e+00
 1.1219386343e+00	 2.6356379480e-01	 1.6109987934e+00
 1.1172993146e+00	 2.8968429099e-01	 1.6467685955e+00
 1.1121523313e+00	 3.1569358968e-01	 1.6834707792e+00
 1.1064880633e+00	 3.4157345207e-01	 1.7193099600e+00
 1.1002974747e+00	 3.6730540165e-01	 1.7524936452e+00
 1.0935721566e+00	 3.9287076614e-01	 1.7812477427e+00
 1.0863043666e+00	 4.1825072163e-01	 1.8038330199e+00
 1.0784870689e+00	 4.4342633892e-01	 1.8185623634e+00
 1.0701139712e+00	 4.6837863162e-01	 1.8238186528e+00
 1.0611795601e+00	 4.9308860612e-01	 1.8180730421e+00
 1.0516791353e+00	 5.1753731298e-01	 1.7999034107e+00
 1.1359622492e+00	 2.6685819703e-01	 1.6596152347e+00
 1.1312649405e+00	 2.9330518504e-01	 1.6862060605e+00
 1.1260536227e+00	 3.1963958564e-01	 1.7128486204e+00
 1.1203185545e+00	 3.4584293205e-01	 1.7378610903e+00
 1.1140505870e+00	 3.7189651683e-01	 1.7595655733e+00
 1.1072412061e+00	 3.9778143428e-01	 1.7763027034e+00
 1.0998825728e+00	 4.2347862524e-01	 1.7864471412e+00
 1.0919675632e+00	 4.4896892388e-01	 1.7884238181e+00
 1.0834898063e+00	 4.7423310649e-01	 1.7807247546e+00
 1.0744437200e+00	 4.9925194206e-01	 1.7619262573e+00
 1.0648245451e+00	 5.2400624429e-01	 1.7307062705e+00
 1.1499858493e+00	 2.7015259581e-01	 1.7059329656e+00
 1.1452305518e+00	 2.9692607529e-01	 1.7239607932e+00
 1.1399548996e+00	 3.2358557746e-01	 1.7412052867e+00
 1.1341490312e+00	 3.5011240755e-01	 1.7560966088e+00
 1.1278036849e+00	 3.7648762718e-01	 1.7670699902e+00
 1.1209102412e+00	 4.0269209728e-01	 1.7725794536e+00
 1.1134607646e+00	 4.2870652337e-01	 1.7711123701e+00
 1.1054480432e+00	 4.5451150302e-01	 1.7612047113e+00
 1.0968656274e+00	 4.8008757521e-01	 1.7414568355e+00
 1.0877078660e+00	 5.0541527153e-01	 1.7105496208e+00
 1.0779699412e+00	 5.3047516881e-01	 1.6672607373e+00
 1.1640094364e+00	 2.7344699152e-01	 1.7493841470e+00
 1.1591961500e+00	 3.0054696216e-01	 1.7594078547e+00
 1.1538561635e+00	 3.2753156559e-01	 1.7678606482e+00
 1.1479794950e+00	 3.5438187907e-01	 1.7732831586e+00
 1.1415567699e+00	 3.8107873325e-01	 1.7742223232e+00
 1.1345792636e+00	 4.0760275569e-01	 1.7692442529e+00
 1.1270389439e+00	 4.3393441661e-01	 1.7569478719e+00
 1.1189285107e+00	 4.6005407698e-01	 1.7359792015e+00
 1.1102414360e+00	 4.8594203847e-01	 1.7050461346e+00
 1.1009719996e+00	 5.1157859525e-01	 1.6629335267e+00
 1.0911153249e+00	 5.3694408729e-01	 1.6085184057e+00
 1.1780330119e+00	 2.7674138453e-01	 1.7894279873e+00
 1.1731617368e+00	 3.0416784607e-01	 1.7919520729e+00
 1.1677574160e+00	 3.3147755050e-01	 1.7921669702e+00
 1.1618099475e+00	 3.5865134709e-01	 1.7887223134e+00
 1.1553098437e+00	 3.8566983557e-01	 1.7802753696e+00
 1.1482482749e+00	 4.1251341009e-01	 1.7655030721e+00
 1.1406171120e+00	 4.3916230558e-01	 1.7431147661e+00
 1.1324089672e+00	 4.6559664642e-01	 1.7118655446e+00
 1.1236172336e+00	 4.9179649695e-01	 1.6705700331e+00
 1.1142361224e+00	 5.1774191393e-01	 1.6181164563e+00
 1.1042606979e+00	 5.4341300048e-01	 1.5534808051e+00
 1.1920565777e+00	 2.8003577524e-01	 1.8255491516e+00
 1.1871273138e+00	 3.0778872745e-01	 1.8210262921e+00
 1.1816586589e+00	 3.3542353264e-01	 1.8135070084e+00
 1.1756403904e+00	 3.6292081213e-01	 1.8017485228e+00
 1.1690629078e+00	 3.9026093468e-01	 1.7845170981e+00
 1.1619172766e+00	 4.1742406105e-01	 1.7605992578e+00
 1.1541952706e+00	 4.4439019090e-01	 1.7288136589e+00
 1.1458894143e+00	 4.7113921198e-01	 1.6880235009e+00
 1.1369930219e+00	 4.9765095133e-01	 1.6371493397e+00
 1.1275002359e+00	 5.2390522830e-01	 1.5751821493e+00
 1.1174060618e+00	 5.4988190915e-01	 1.5011964625e+00
 1.2060801353e+00	 2.8333016403e-01	 1.8572562822e+00
 1.2010928827e+00	 3.1140960672e-01	 1.8460897444e+00
 1.1955598936e+00	 3.3936951249e-01	 1.8312922363e+00
 1.1894708251e+00	 3.6719027468e-01	 1.8117272017e+00
 1.1828159640e+00	 3.9485203111e-01	 1.7862686049e+00
 1.1755862703e+00	 4.2233470914e-01	 1.7538113597e+00
 1.1677734213e+00	 4.4961807316e-01	 1.7132823478e+00
 1.1593698535e+00	 4.7668177431e-01	 1.6636519219e+00
 1.1503688024e+00	 5.0350540230e-01	 1.6039457665e+00
 1.1407643416e+00	 5.3006853907e-01	 1.5332569733e+00
 1.1305514179e+00	 5.5635081404e-01	 1.4507581706e+00
 1.2201036864e+00	 2.8662455128e-01	 1.8840806208e+00
 1.2150584451e+00	 3.1503048430e-01	 1.8666265333e+00
 1.2094611218e+00	 3.4331549049e-01	 1.8449611953e+00
 1.2033012534e+00	 3.7145973523e-01	 1.8180529505e+00
 1.1965690137e+00	 3.9944312540e-01	 1.7848822100e+00
 1.1892552576e+00	 4.2724535495e-01	 1.7444511076e+00
 1.1813515657e+00	 4.5484595299e-01	 1.6957936845e+00
 1.1728502864e+00	 4.8222433405e-01	 1.6379865040e+00
 1.1637445767e+00	 5.0935985053e-01	 1.5701595783e+00
 1.1540284412e+00	 5.3623184697e-01	 1.4915074733e+00
 1.1436967679e+00	 5.6281971592e-01	 1.4013004434e+00
 1.2341272325e+00	 2.8991893738e-01	 1.9055747250e+00
 1.2290240026e+00	 3.1865136061e-01	 1.8821442214e+00
 1.2233623451e+00	 3.4726146712e-01	 1.8539779569e+00
 1.2171316769e+00	 3.7572919429e-01	 1.8201478977e+00
 1.2103220586e+00	 4.0403421808e-01	 1.7797396834e+00
 1.2029242401e+00	 4.3215599904e-01	 1.7318615267e+00
 1.1949297053e+00	 4.6007383098e-01	 1.6756535833e+00
 1.1863307146e+00	 4.8776689185e-01	 1.6102976955e+00
 1.1771203463e+00	 5.1521429672e-01	 1.5350274022e+00
 1.1672925361e+00	 5.4239515271e-01	 1.4491380898e+00
 1.1568421134e+00	 5.6928861553e-01	 1.3519971463e+00
 1.2481507754e+00	 2.9321332271e-01	 1.9213112711e+00
 1.2429895568e+00	 3.2227223607e-01	 1.8921725127e+00
 1.2372635652e+00	 3.5120744282e-01	 1.8578306890e+00
 1.2309620972e+00	 3.7999865236e-01	 1.8174601535e+00
 1.2240751003e+00	 4.0862530968e-01	 1.7702505909e+00
 1.2165932195e+00	 4.3706664197e-01	 1.7154151798e+00
 1.2085078418e+00	 4.6530170775e-01	 1.6521991643e+00
 1.1998111396e+00	 4.9330944835e-01	 1.5798887445e+00
 1.1904961128e+00	 5.2106874154e-01	 1.4978201856e+00
 1.1805566279e+00	 5.4855845701e-01	 1.4053890301e+00
 1.1699874557e+00	 5.7575751363e-01	 1.3020592858e+00
 1.2621743166e+00	 2.9650770765e-01	 1.9308819370e+00
 1.2569551095e+00	 3.2589311112e-01	 1.8962620228e+00
 1.2511647837e+00	 3.5515341806e-01	 1.8560303176e+00
 1.2447925158e+00	 3.8426810993e-01	 1.8094623669e+00
 1.2378281404e+00	 4.1321640076e-01	 1.7558507506e+00
 1.2302621973e+00	 4.4197728434e-01	 1.6945125264e+00
 1.2220859766e+00	 4.7052958392e-01	 1.6247970198e+00
 1.2132915631e+00	 4.9885200421e-01	 1.5460938769e+00
 1.2038718777e+00	 5.2692318567e-01	 1.4578412892e+00
 1.1938207182e+00	 5.5472176059e-01	 1.3595342812e+00
 1.1831327965e+00	 5.8222641097e-01	 1.2507329455e+00
 1.0516791353e+00	 5.1753731298e-01	 1.7999034107e+00
 1.0416081161e+00	 5.4170758012e-01	 1.7709399582e+00
 1.0309641682e+00	 5.6557897498e-01	 1.7335680967e+00
 1.0197452113e+00	 5.8913298958e-01	 1.6876574359e+00
 1.0079500855e+00	 6.1235137544e-01	 1.6331808640e+00
 9.9557857069e-01	 6.3521619854e-01	 1.5702212239e+00
 9.8263140181e-01	 6.5770989397e-01	 1.4989770251e+00
 9.6911028094e-01	 6.7981532011e-01	 1.4197670454e+00
 9.5501788526e-01	 7.0151581184e-01	 1.3330336939e+00
 9.4035787113e-01	 7.2279523272e-01	 1.2393450203e+00
 9.2513487412e-01	 7.4363802549e-01	 1.1393952794e+00
 1.0648245451e+00	 5.2400624429e-01	 1.7307062705e+00
 1.0546276438e+00	 5.4847862645e-01	 1.6886490823e+00
 1.0438506524e+00	 5.7264840060e-01	 1.6382065951e+00
 1.0324914647e+00	 5.9649682740e-01	 1.5795025846e+00
 1.0205489063e+00	 6.2000543029e-01	 1.5127522435e+00
 1.0080227544e+00	 6.4315605109e-01	 1.4382662053e+00
 9.9491375301e-01	 6.6593090532e-01	 1.3564536654e+00
 9.8122362558e-01	 6.8831263711e-01	 1.2678244965e+00
 9.6695508272e-01	 7.1028437303e-01	 1.1729902717e+00
 9.5211182648e-01	 7.3182977495e-01	 1.0726641240e+00
 9.3669855040e-01	 7.5293309115e-01	 9.6765938842e-01
 1.0779699412e+00	 5.3047516881e-01	 1.6672607373e+00
 1.0676471577e+00	 5.5524966567e-01	 1.6131180011e+00
 1.0567371230e+00	 5.7971781880e-01	 1.5506122912e+00
 1.0452377047e+00	 6.0386065750e-01	 1.4800967234e+00
 1.0331477139e+00	 6.2765947711e-01	 1.4020048836e+00
 1.0204669250e+00	 6.5109589530e-01	 1.3168524414e+00
 1.0071960913e+00	 6.7415190804e-01	 1.2252379176e+00
 9.9333695750e-01	 6.9680994518e-01	 1.1278425446e+00
 9.7889226764e-01	 7.1905292502e-01	 1.0254291690e+00
 9.6386576950e-01	 7.4086430769e-01	 9.1884016555e-01
 9.4826221454e-01	 7.6222814704e-01	 8.0899434299e-01
 1.0911153249e+00	 5.3694408729e-01	 1.6085184057e+00
 1.0806666595e+00	 5.6202069857e-01	 1.5432634129e+00
 1.0696235816e+00	 5.8678723039e-01	 1.4696733914e+00
 1.0579839328e+00	 6.1122448071e-01	 1.3883068697e+00
 1.0457465097e+00	 6.3531351679e-01	 1.2997927853e+00
 1.0329110840e+00	 6.5903573210e-01	 1.2048299216e+00
 1.0194784182e+00	 6.8237290309e-01	 1.1041855541e+00
 1.0054502781e+00	 7.0530724533e-01	 9.9869327807e-01
 9.9082944142e-01	 7.2782146881e-01	 8.8925000468e-01
 9.7561970154e-01	 7.4989883200e-01	 7.7681212659e-01
 9.5982586788e-01	 7.7152319426e-01	 6.6239086893e-01
 1.1042606979e+00	 5.4341300048e-01	 1.5534808051e+00
 1.0936861507e+00	 5.6879172595e-01	 1.4780536128e+00
 1.0825100297e+00	 5.9385663622e-01	 1.3943310558e+00
 1.0707301505e+00	 6.1858829792e-01	 1.3030540038e+00
 1.0583452952e+00	 6.4296755021e-01	 1.2050245320e+00
 1.0453552328e+00	 6.6697556242e-01	 1.1011034091e+00
 1.0317607350e+00	 6.9059389142e-01	 9.9220684565e-01
 1.0175635888e+00	 7.1380453853e-01	 8.7930250674e-01
 1.0027666055e+00	 7.3659000545e-01	 7.6340480790e-01
 9.8737362398e-01	 7.5893334893e-01	 6.4556952486e-01
 9.7138951178e-01	 7.8081823389e-01	 5.2688776400e-01
 1.1174060618e+00	 5.4988190915e-01	 1.5011964625e+00
 1.1067056328e+00	 5.7556274858e-01	 1.4165054576e+00
 1.0953964687e+00	 6.0092603709e-01	 1.3235762832e+00
 1.0834763592e+00	 6.2595210997e-01	 1.2233098943e+00
 1.0709440719e+00	 6.5062157828e-01	 1.1166600791e+00
 1.0577993729e+00	 6.7491538718e-01	 1.0046292187e+00
 1.0440430432e+00	 6.9881487399e-01	 8.8826335526e-01
 1.0296768911e+00	 7.2230182579e-01	 7.6864660143e-01
 1.0147037611e+00	 7.4535853595e-01	 6.4689493514e-01
 9.9912753820e-01	 7.6796785954e-01	 5.2414944115e-01
 9.8295314759e-01	 7.9011326701e-01	 4.0156906995e-01
 1.1305514179e+00	 5.5635081404e-01	 1.4507581706e+00
 1.1197251073e+00	 5.8233376727e-01	 1.3576815425e+00
 1.1082829003e+00	 6.0799543384e-01	 1.2564470135e+00
 1.0962225605e+00	 6.3331591773e-01	 1.1480941456e+00
 1.0835428413e+00	 6.5827560189e-01	 1.0337077670e+00
 1.0702435058e+00	 6.8285520730e-01	 9.1441221926e-01
 1.0563253442e+00	 7.0703585178e-01	 7.9136495628e-01
 1.0417901863e+00	 7.3079910809e-01	 6.6574955441e-01
 1.0266409098e+00	 7.5412706134e-01	 5.3876820214e-01
 1.0108814456e+00	 7.7700236488e-01	 4.1163375383e-01
 9.9451677665e-01	 7.9940829472e-01	 2.8556144184e-01
 1.1436967679e+00	 5.6281971592e-01	 1.4013004434e+00
 1.1327445757e+00	 5.8910478279e-01	 1.3006875729e+00
 1.1211693258e+00	 6.1506482729e-01	 1.1920254303e+00
 1.1089687559e+00	 6.4067972205e-01	 1.0764714483e+00
 1.0961416048e+00	 6.6592962192e-01	 9.5522154052e-01
 1.0826876329e+00	 6.9079502373e-01	 8.2950304396e-01
 1.0686076395e+00	 7.1525682572e-01	 7.0056705577e-01
 1.0539034758e+00	 7.3929638643e-01	 5.6968024247e-01
 1.0385780530e+00	 7.6289558263e-01	 4.3811621367e-01
 1.0226353474e+00	 7.8603686600e-01	 3.0714656415e-01
 1.0060804003e+00	 8.0870331808e-01	 1.7803169884e-01
 1.1568421134e+00	 5.6928861553e-01	 1.3519971463e+00
 1.1457640395e+00	 5.9587579594e-01	 1.2446699150e+00
 1.1340557468e+00	 6.2213421827e-01	 1.1294354473e+00
 1.1217149468e+00	 6.4804352379e-01	 1.0075490185e+00
 1.1087403638e+00	 6.7358363927e-01	 8.8029835772e-01
 1.0951317556e+00	 6.9873483737e-01	 7.4899548949e-01
 1.0808899306e+00	 7.2347779679e-01	 6.1496800736e-01
 1.0660167611e+00	 7.4779366179e-01	 4.7954987659e-01
 1.0505151919e+00	 7.7166410086e-01	 3.4407187549e-01
 1.0343892452e+00	 7.9507136396e-01	 2.0985179710e-01
 1.0176440199e+00	 8.1799833819e-01	 7.8184542019e-02
 1.1699874557e+00	 5.7575751363e-01	 1.3020592858e+00
 1.1587835003e+00	 6.0264680752e-01	 1.1888133116e+00
 1.1469421648e+00	 6.2920360760e-01	 1.0678403636e+00
 1.1344611348e+00	 6.5540732381e-01	 9.4047420790e-01
 1.1213391200e+00	 6.8123765483e-01	 8.0807577366e-01
 1.1075758754e+00	 7.0667464916e-01	 6.7202409145e-01
 1.0931722187e+00	 7.3169876594e-01	 5.3370669859e-01
 1.0781300435e+00	 7.5629093517e-01	 3.9450962358e-01
 1.0624523281e+00	 7.8043261704e-01	 2.5580707398e-01
 1.0461431402e+00	 8.0410585981e-01	 1.1895096400e-01
 1.0292076368e+00	 8.2729335613e-01	-1.4739574026e-02
 1.1831327965e+00	 5.8222641097e-01	 1.2507329455e+00
 1.1718029596e+00	 6.0941781830e-01	 1.1323387504e+00
 1.1598285813e+00	 6.3627299610e-01	 1.0064406763e+00
 1.1472073212e+00	 6.6277112297e-01	 8.7443227486e-01
 1.1339378746e+00	 6.8889166950e-01	 7.3772968504e-01
 1.1200199937e+00	 7.1461446003e-01	 5.9776186104e-01
 1.1054545054e+00	 7.3991973413e-01	 4.5596029898e-01
 1.0902433246e+00	 7.6478820756e-01	 3.1374838631e-01
 1.0743894629e+00	 7.8920113219e-01	 1.7253051050e-01
 1.0578970339e+00	 8.1314035461e-01	 3.3681074294e-02
 1.0407712524e+00	 8.3658837299e-01	-1.0146642755e-01
 9.2513487412e-01	 7.4363802549e-01	 1.1393952794e+00
 9.0935450262e-01	 7.6402926264e-01	 1.0305194196e+00
 8.9302332240e-01	 7.8395469832e-01	 9.1065775870e-01
 8.7614885155e-01	 8.0340080713e-01	 7.8158340977e-01
 8.5873954642e-01	 8.2235482372e-01	 6.4516194877e-01
 8.4080478121e-01	 8.4080478121e-01	 5.0333838897e-01
 8.2235482372e-01	 8.5873954642e-01	 3.5812311092e-01
 8.0340080713e-01	 8.7614885155e-01	 2.1157694013e-01
 7.8395469832e-01	 8.9302332240e-01	 6.5795582545e-02
 7.6402926264e-01	 9.0935450262e-01	-7.7106360055e-02
 7.4363802549e-01	 9.2513487412e-01	-2.1501156486e-01
 9.3669855040e-01	 7.5293309115e-01	 9.6765938842e-01
 9.2072093295e-01	 7.7357920753e-01	 8.5530640736e-01
 9.0418562198e-01	 7.9375370018e-01	 7.3349823351e-01
 8.8710022954e-01	 8.1344287464e-01	 6.0403025098e-01
 8.6947331767e-01	 8.3263380599e-01	 4.6877359613e-01
 8.5131437779e-01	 8.5131437779e-01	 3.2966189725e-01
 8.3263380599e-01	 8.6947331767e-01	 1.8867716784e-01
 8.1344287464e-01	 8.8710022954e-01	 4.7835048523e-02
 7.9375370018e-01	 9.0418562198e-01	-9.0830393645e-02
 7.7357920753e-01	 9.2072093295e-01	-2.2528209115e-01
 7.5293309115e-01	 9.3669855040e-01	-3.5349540627e-01
 9.4826221454e-01	 7.6222814704e-01	 8.0899434299e-01
 9.3208735134e-01	 7.8312914239e-01	 6.9323844320e-01
 9.1534790983e-01	 8.0355269175e-01	 5.6944103951e-01
 8.9805159602e-01	 8.2348493160e-01	 4.3941157984e-01
 8.8020707766e-01	 8.4291277747e-01	 3.0501988526e-01
 8.6182396333e-01	 8.6182396333e-01	 1.6818272202e-01
 8.4291277747e-01	 8.8020707766e-01	 3.0849709408e-02
 8.2348493160e-01	 8.9805159602e-01	-1.0501123963e-01
 8.0355269175e-01	 9.1534790983e-01	-2.3742873825e-01
 7.8312914239e-01	 9.3208735134e-01	-3.6444279375e-01
 7.6222814704e-01	 9.4826221454e-01	-4.8411951142e-01
 9.5982586788e-01	 7.7152319426e-01	 6.6239086893e-01
 9.4345375912e-01	 7.9267906833e-01	 5.4336727003e-01
 9.2651018726e-01	 8.1335167417e-01	 4.1760502919e-01
 9.0900295228e-01	 8.3352697918e-01	 2.8691980849e-01
 8.9094082763e-01	 8.5319173935e-01	 1.5317355713e-01
 8.7233353906e-01	 8.7233353906e-01	 1.8260980592e-02
 8.5319173935e-01	 8.9094082763e-01	-1.1590448749e-01
 8.3352697918e-01	 9.0900295228e-01	-2.4740501306e-01
 8.1335167417e-01	 9.2651018726e-01	-3.7433278439e-01
 7.9267906833e-01	 9.4345375912e-01	-4.9480432328e-01
 7.7152319426e-01	 9.5982586788e-01	-6.0697448082e-01
 9.7138951178e-01	 7.8081823389e-01	 5.2688776400e-01
 9.5482015763e-01	 8.0222898648e-01	 4.0478979714e-01
 9.3767245558e-01	 8.2315064859e-01	 2.7715102574e-01
 9.1995429960e-01	 8.4356901857e-01	 1.4578581695e-01
 9.0167456884e-01	 8.6347069283e-01	 1.2541995420e-02
 8.8284310620e-01	 8.8284310620e-01	-1.2071272774e-01
 8.6347069283e-01	 9.0167456884e-01	-2.5210467154e-01
 8.4356901857e-01	 9.1995429960e-01	-3.7976824957e-01
 8.2315064859e-01	 9.3767245558e-01	-5.0185998065e-01
 8.0222898648e-01	 9.5482015763e-01	-6.1657224479e-01
 7.8081823389e-01	 9.7138951178e-01	-7.2214658909e-01
 9.8295314759e-01	 7.9011326701e-01	 4.0156906995e-01
 9.6618654817e-01	 8.1177889794e-01	 2.7664544315e-01
 9.4883471608e-01	 8.3294961614e-01	 1.4727935398e-01
 9.3090563925e-01	 8.5361105092e-01	 1.5276690063e-02
 9.1240830252e-01	 8.7374963913e-01	-1.1753481155e-01
 8.9335266599e-01	 8.9335266599e-01	-2.4931911508e-01
 8.7374963913e-01	 9.1240830252e-01	-3.7824564527e-01
 8.5361105092e-01	 9.3090563925e-01	-5.0250305826e-01
 8.3294961614e-01	 9.4883471608e-01	-6.2031282592e-01
 8.1177889794e-01	 9.6618654817e-01	-7.2994243862e-01
 7.9011326701e-01	 9.8295314759e-01	-8.2971803973e-01
 9.9451677665e-01	 7.9940829472e-01	 2.8556144184e-01
 9.7755293208e-01	 8.2132880383e-01	 1.5811366427e-01
 9.5999697007e-01	 8.4274857799e-01	 2.7227543424e-02
 9.4185697251e-01	 8.6365307742e-01	-1.0530638779e-01
 9.2314202995e-01	 8.8402857942e-01	-2.3768616679e-01
 9.0386221965e-01	 9.0386221965e-01	-3.6811187323e-01
 8.8402857942e-01	 9.2314202995e-01	-4.9479918669e-01
 8.6365307742e-01	 9.4185697251e-01	-6.1599283500e-01
 8.4274857799e-01	 9.5999697007e-01	-7.2997973881e-01
 8.2132880383e-01	 9.7755293208e-01	-8.3510166389e-01
 7.9940829472e-01	 9.9451677665e-01	-9.2976720224e-01
 1.0060804003e+00	 8.0870331808e-01	 1.7803169884e-01
 9.8891931069e-01	 8.3087870527e-01	 4.8411653109e-02
 9.7115921886e-01	 8.5254753526e-01	-8.3731810125e-02
 9.5280830067e-01	 8.7369509923e-01	-2.1663009264e-01
 9.3387575237e-01	 8.9430751492e-01	-3.4851242977e-01
 9.1437176840e-01	 9.1437176840e-01	-4.7761922685e-01
 8.9430751492e-01	 9.3387575237e-01	-6.0221537286e-01
 8.7369509923e-01	 9.5280830067e-01	-7.2060333823e-01
 8.5254753526e-01	 9.7115921886e-01	-8.3113586733e-01
 8.3087870527e-01	 9.8891931069e-01	-9.3222808296e-01
 8.0870331808e-01	 1.0060804003e+00	-1.0223688327e+00
 1.0176440199e+00	 8.1799833819e-01	 7.8184542019e-02
 1.0002856853e+00	 8.4042860336e-01	-5.3207805650e-02
 9.8232146373e-01	 8.6234648910e-01	-1.8629303721e-01
 9.6375962499e-01	 8.8373711753e-01	-3.1933078733e-01
 9.4460947103e-01	 9.0458644682e-01	-4.5058666121e-01
 9.2488131348e-01	 9.2488131348e-01	-5.7834538079e-01
 9.0458644682e-01	 9.4460947103e-01	-7.0092381318e-01
 8.8373711753e-01	 9.6375962499e-01	-8.1668369146e-01
 8.6234648910e-01	 9.8232146373e-01	-9.2404384312e-01
 8.4042860336e-01	 1.0002856853e+00	-1.0214917503e+00
 8.1799833819e-01	 1.0176440199e+00	-1.1075942797e+00
 1.0292076368e+00	 8.2729335613e-01	-1.4739574026e-02
 1.0116520573e+00	 8.4997849922e-01	-1.4745833496e-01
 9.9348370600e-01	 8.7214544065e-01	-2.8111925297e-01
 9.7471094675e-01	 8.9377913348e-01	-4.1401622473e-01
 9.5534318719e-01	 9.1486537633e-01	-5.4445615702e-01
 9.3539085610e-01	 9.3539085610e-01	-6.7077186976e-01
 9.1486537633e-01	 9.5534318719e-01	-7.9133479959e-01
 8.9377913348e-01	 9.7471094675e-01	-9.0456731807e-01
 8.7214544065e-01	 9.9348370600e-01	-1.0089544850e+00
 8.4997849922e-01	 1.0116520573e+00	-1.1030550683e+00
 8.2729335613e-01	 1.0292076368e+00	-1.1855116756e+00
 1.0407712524e+00	 8.3658837299e-01	-1.0146642755e-01
 1.0230184280e+00	 8.5952839397e-01	-2.3502183183e-01
 1.0046459470e+00	 8.8194439106e-01	-3.6884409157e-01
 9.8566226724e-01	 9.0382114827e-01	-5.0126713737e-01
 9.6607690210e-01	 9.2514430463e-01	-6.3064387982e-01
 9.4590039750e-01	 9.4590039750e-01	-7.5535881803e-01
 9.2514430463e-01	 9.6607690210e-01	-8.7384038005e-01
 9.0382114827e-01	 9.8566226724e-01	-9.8457281388e-01
 8.8194439106e-01	 1.0046459470e+00	-1.0861074556e+00
 8.5952839397e-01	 1.0230184280e+00	-1.1770732127e+00
 8.3658837299e-01	 1.0407712524e+00	-1.2561861161e+00
 7.4363802549e-01	 9.2513487412e-01	-2.1501156486e-01
 7.2279523272e-01	 9.4035787113e-01	-3.5411625979e-01
 7.0151581184e-01	 9.5501788526e-01	-5.0110005309e-01
 6.7981532011e-01	 9.6911028094e-01	-6.5454922758e-01
 6.5770989397e-01	 9.8263140181e-01	-8.1302049325e-01
 6.3521619854e-01	 9.9557857069e-01	-9.7505259788e-01
 6.1235137544e-01	 1.0079500855e+00	-1.1391778427e+00
 5.8913298958e-01	 1.0197452113e+00	-1.3039333496e+00
 5.6557897498e-01	 1.0309641682e+00	-1.4678719369e+00
 5.4170758012e-01	 1.0416081161e+00	-1.6295724733e+00
 5.1753731298e-01	 1.0516791353e+00	-1.7876495959e+00
 7.5293309115e-01	 9.3669855040e-01	-3.5349540627e-01
 7.3182977495e-01	 9.5211182648e-01	-4.8172799110e-01
 7.1028437303e-01	 9.6695508272e-01	-6.1674977391e-01
 6.8831263711e-01	 9.8122362558e-01	-7.5728828823e-01
 6.6593090532e-01	 9.9491375301e-01	-9.0203328381e-01
 6.4315605109e-01	 1.0080227544e+00	-1.0496475272e+00
 6.2000543029e-01	 1.0205489063e+00	-1.1987776439e+00
 5.9649682740e-01	 1.0324914647e+00	-1.3480648518e+00
 5.7264840060e-01	 1.0438506524e+00	-1.4961554452e+00
 5.4847862645e-01	 1.0546276438e+00	-1.6417108951e+00
 5.2400624429e-01	 1.0648245451e+00	-1.7834174496e+00
 7.6222814704e-01	 9.4826221454e-01	-4.8411951142e-01
 7.4086430769e-01	 9.6386576950e-01	-6.0272669372e-01
 7.1905292502e-01	 9.7889226764e-01	-7.2706780628e-01
 6.9680994518e-01	 9.9333695750e-01	-8.5600120916e-01
 6.7415190804e-01	 1.0071960913e+00	-9.8834047515e-01
 6.5109589530e-01	 1.0204669250e+00	-1.1228644199e+00
 6.2765947711e-01	 1.0331477139e+00	-1.2583272940e+00
 6.0386065750e-01	 1.0452377047e+00	-1.3934689910e+00
 5.7971781880e-01	 1.0567371230e+00	-1.5270251306e+00
 5.5524966567e-01	 1.0676471577e+00	-1.6577368850e+00
 5.3047516881e-01	 1.0779699412e+00	-1.7843604261e+00
 7.7152319426e-01	 9.5982586788e-01	-6.0697448082e-01
 7.4989883200e-01	 9.7561970154e-01	-7.1707619888e-01
 7.2782146881e-01	 9.9082944142e-01	-8.3189612101e-01
 7.0530724533e-01	 1.0054502781e+00	-9.5041319929e-01
 6.8237290309e-01	 1.0194784182e+00	-1.0715557621e+00
 6.5903573210e-01	 1.0329110840e+00	-1.1942108132e+00
 6.3531351679e-01	 1.0457465097e+00	-1.3172335975e+00
 6.1122448071e-01	 1.0579839328e+00	-1.4394572917e+00
 5.8678723039e-01	 1.0696235816e+00	-1.5597026808e+00
 5.6202069857e-01	 1.0806666595e+00	-1.6767876892e+00
 5.3694408729e-01	 1.0911153249e+00	-1.7895366412e+00
 7.8081823389e-01	 9.7138951178e-01	-7.2214658909e-01
 7.5893334893e-01	 9.8737362398e-01	-8.2474204848e-01
 7.3659000545e-01	 1.0027666055e+00	-9.3108420238e-01
 7.1380453853e-01	 1.0175635888e+00	-1.0402625411e+00
 6.9059389142e-01	 1.0317607350e+00	-1.1513112231e+00
 6.6697556242e-01	 1.0453552328e+00	-1.2632176831e+00
 6.4296755021e-01	 1.0583452952e+00	-1.3749315943e+00
 6.1858829792e-01	 1.0707301505e+00	-1.4853740515e+00
 5.9385663622e-01	 1.0825100297e+00	-1.5934468346e+00
 5.6879172595e-01	 1.0936861507e+00	-1.6980416259e+00
 5.4341300048e-01	 1.1042606979e+00	-1.7980490510e+00
 7.9011326701e-01	 9.8295314759e-01	-8.2971803973e-01
 7.6796785954e-01	 9.9912753820e-01	-9.2569139476e-01
 7.4535853595e-01	 1.0147037611e+00	-1.0244886066e+00
 7.2230182579e-01	 1.0296768911e+00	-1.1252998218e+00
 6.9881487399e-01	 1.0440430432e+00	-1.2272562395e+00
 6.7491538718e-01	 1.0577993729e+00	-1.3294380660e+00
 6.5062157828e-01	 1.0709440719e+00	-1.4308828996e+00
 6.2595210997e-01	 1.0834763592e+00	-1.5305944132e+00
 6.0092603709e-01	 1.0953964687e+00	-1.6275512026e+00
 5.7556274858e-01	 1.1067056328e+00	-1.7207156695e+00
 5.4988190915e-01	 1.1174060618e+00	-1.8090428145e+00
 7.9940829472e-01	 9.9451677665e-01	-9.2976720224e-01
 7.7700236488e-01	 1.0108814456e+00	-1.0198929071e+00
 7.5412706134e-01	 1.0266409098e+00	-1.1119725507e+00
 7.3079910809e-01	 1.0417901863e+00	-1.2052872185e+00
 7.0703585178e-01	 1.0563253442e+00	-1.2990564893e+00
 6.8285520730e-01	 1.0702435058e+00	-1.3924457766e+00
 6.5827560189e-01	 1.0835428413e+00	-1.4845741585e+00
 6.3331591773e-01	 1.0962225605e+00	-1.5745225720e+00
 6.0799543384e-01	 1.1082829003e+00	-1.6613422398e+00
 5.8233376727e-01	 1.1197251073e+00	-1.7440632037e+00
 5.5635081404e-01	 1.1305514179e+00	-1.8217028401e+00
 8.0870331808e-01	 1.0060804003e+00	-1.0223688327e+00
 7.8603686600e-01	 1.0226353474e+00	-1.1073166851e+00
 7.6289558263e-01	 1.0385780530e+00	-1.1934055307e+00
 7.3929638643e-01	 1.0539034758e+00	-1.2799978324e+00
 7.1525682572e-01	 1.0686076395e+00	-1.3663930116e+00
 6.9079502373e-01	 1.0826876329e+00	-1.4518342138e+00
 6.6592962192e-01	 1.0961416048e+00	-1.5355156088e+00
 6.4067972205e-01	 1.1089687559e+00	-1.6165901061e+00
 6.1506482729e-01	 1.1211693258e+00	-1.6941773584e+00
 5.8910478279e-01	 1.1327445757e+00	-1.7673719289e+00
 5.6281971592e-01	 1.1436967679e+00	-1.8352515016e+00
 8.1799833819e-01	 1.0176440199e+00	-1.1075942797e+00
 7.9507136396e-01	 1.0343892452e+00	-1.1879341779e+00
 7.7166410086e-01	 1.0505151919e+00	-1.2686629644e+00
 7.4779366179e-01	 1.0660167611e+00	-1.3492150682e+00
 7.2347779679e-01	 1.0808899306e+00	-1.4289613336e+00
 6.9873483737e-01	 1.0951317556e+00	-1.5072152484e+00
 6.7358363927e-01	 1.1087403638e+00	-1.5832397397e+00
 6.4804352379e-01	 1.1217149468e+00	-1.6562544210e+00
 6.2213421827e-01	 1.1340557468e+00	-1.7254431693e+00
 5.9587579594e-01	 1.1457640395e+00	-1.7899619130e+00
 5.6928861553e-01	 1.1568421134e+00	-1.8489465094e+00
 8.2729335613e-01	 1.0292076368e+00	-1.1855116756e+00
 8.0410585981e-01	 1.0461431402e+00	-1.2617181081e+00
 7.8043261704e-01	 1.0624523281e+00	-1.3376258596e+00
 7.5629093517e-01	 1.0781300435e+00	-1.4127320560e+00
 7.3169876594e-01	 1.0931722187e+00	-1.4864706571e+00
 7.0667464916e-01	 1.1075758754e+00	-1.5582181857e+00
 6.8123765483e-01	 1.1213391200e+00	-1.6273000430e+00
 6.5540732381e-01	 1.1344611348e+00	-1.6929972988e+00
 6.2920360760e-01	 1.1469421648e+00	-1.7545538418e+00
 6.0264680752e-01	 1.1587835003e+00	-1.8111837731e+00
 5.7575751363e-01	 1.1699874557e+00	-1.8620789259e+00
 8.3658837299e-01	 1.0407712524e+00	-1.2561861161e+00
 8.1314035461e-01	 1.0578970339e+00	-1.3286424023e+00
 7.8920113219e-01	 1.0743894629e+00	-1.4001805037e+00
 7.6478820756e-01	 1.0902433246e+00	-1.4703511111e+00
 7.3991973413e-01	 1.1054545054e+00	-1.5386430995e+00
 7.1461446003e-01	 1.1200199937e+00	-1.6044887973e+00
 6.8889166950e-01	 1.1339378746e+00	-1.6672698458e+00
 6.6277112297e-01	 1.1472073212e+00	-1.7263235445e+00
 6.3627299610e-01	 1.1598285813e+00	-1.7809495732e+00
 6.0941781830e-01	 1.1718029596e+00	-1.8304169785e+00
 5.8222641097e-01	 1.1831327965e+00	-1.8739713126e+00
 5.1753731298e-01	 1.0516791353e+00	-1.7876495959e+00
 4.9308860612e-01	 1.0611795601e+00	-1.9431339351e+00
 4.6837863162e-01	 1.0701139712e+00	-2.0972652931e+00
 4.4342633892e-01	 1.0784870689e+00	-2.2490864408e+00
 4.1825072163e-01	 1.0863043666e+00	-2.3977916923e+00
 3.9287076614e-01	 1.0935721566e+00	-2.5427237506e+00
 3.6730540165e-01	 1.1002974747e+00	-2.6833691858e+00
 3.4157345207e-01	 1.1064880633e+00	-2.8193527106e+00
 3.1569358968e-01	 1.1121523313e+00	-2.9504304223e+00
 2.8968429099e-01	 1.1172993146e+00	-3.0764821864e+00
 2.6356379480e-01	 1.1219386343e+00	-3.1975033313e+00
 5.2400624429e-01	 1.0648245451e+00	-1.7834174496e+00
 4.9925194206e-01	 1.0744437200e+00	-1.9227101792e+00
 4.7423310649e-01	 1.0834898063e+00	-2.0612730799e+00
 4.4896892388e-01	 1.0919675632e+00	-2.1982552883e+00
 4.2347862524e-01	 1.0998825728e+00	-2.3329313266e+00
 3.9778143428e-01	 1.1072412061e+00	-2.4646989199e+00
 3.7189651683e-01	 1.1140505870e+00	-2.5930756580e+00
 3.4584293205e-01	 1.1203185545e+00	-2.7176946324e+00
 3.1963958564e-01	 1.1260536227e+00	-2.8382991893e+00
 2.9330518504e-01	 1.1312649405e+00	-2.9547369382e+00
 2.6685819703e-01	 1.1359622492e+00	-3.0669531591e+00
 5.3047516881e-01	 1.0779699412e+00	-1.7843604261e+00
 5.0541527153e-01	 1.0877078660e+00	-1.9086936266e+00
 4.8008757521e-01	 1.0968656274e+00	-2.0328168375e+00
 4.5451150302e-01	 1.1054480432e+00	-2.1559769352e+00
 4.2870652337e-01	 1.1134607646e+00	-2.2775222970e+00
 4.0269209728e-01	 1.1209102412e+00	-2.3969015033e+00
 3.7648762718e-01	 1.1278036849e+00	-2.5136610757e+00
 3.5011240755e-01	 1.1341490312e+00	-2.6274423558e+00
 3.2358557746e-01	 1.1399548996e+00	-2.7379776339e+00
 2.9692607529e-01	 1.1452305518e+00	-2.8450856412e+00
 2.7015259581e-01	 1.1499858493e+00	-2.9486665171e+00
 5.3694408729e-01	 1.0911153249e+00	-1.7895366412e+00
 5.1157859525e-01	 1.1009719996e+00	-1.9000716668e+00
 4.8594203847e-01	 1.1102414360e+00	-2.0108249185e+00
 4.6005407698e-01	 1.1189285107e+00	-2.1211325254e+00
 4.3393441661e-01	 1.1270389439e+00	-2.2304104362e+00
 4.0760275569e-01	 1.1345792636e+00	-2.3381539208e+00
 3.8107873325e-01	 1.1415567699e+00	-2.4439362830e+00
 3.5438187907e-01	 1.1479794950e+00	-2.5474068632e+00
 3.2753156559e-01	 1.1538561635e+00	-2.6482884151e+00
 3.0054696216e-01	 1.1591961500e+00	-2.7463739413e+00
 2.7344699152e-01	 1.1640094364e+00	-2.8415230762e+00
 5.4341300048e-01	 1.1042606979e+00	-1.7980490510e+00
 5.1774191393e-01	 1.1142361224e+00	-1.8958798981e+00
 4.9179649695e-01	 1.1236172336e+00	-1.9942766954e+00
 4.6559664642e-01	 1.1324089672e+00	-2.0926564709e+00
 4.3916230558e-01	 1.1406171120e+00	-2.1904965268e+00
 4.1251341009e-01	 1.1482482749e+00	-2.2873346577e+00
 3.8566983557e-01	 1.1553098437e+00	-2.3827687405e+00
 3.5865134709e-01	 1.1618099475e+00	-2.4764557478e+00
 3.3147755050e-01	 1.1677574160e+00	-2.5681102469e+00
 3.0416784607e-01	 1.1731617368e+00	-2.6575024453e+00
 2.7674138453e-01	 1.1780330119e+00	-2.7444558483e+00
 5.4988190915e-01	 1.1174060618e+00	-1.8090428145e+00
 5.2390522830e-01	 1.1275002359e+00	-1.8951992912e+00
 4.9765095133e-01	 1.1369930219e+00	-1.9821995593e+00
 4.7113921198e-01	 1.1458894143e+00	-2.0695333188e+00
 4.4439019090e-01	 1.1541952706e+00	-2.1567330690e+00
 4.1742406105e-01	 1.1619172766e+00	-2.2433749666e+00
 3.9026093468e-01	 1.1690629078e+00	-2.3290791955e+00
 3.6292081213e-01	 1.1756403904e+00	-2.4135098832e+00
 3.3542353264e-01	 1.1816586589e+00	-2.4963746006e+00
 3.0778872745e-01	 1.1871273138e+00	-2.5774234877e+00
 2.8003577524e-01	 1.1920565777e+00	-2.6564480485e+00
 5.5635081404e-01	 1.1305514179e+00	-1.8217028401e+00
 5.3006853907e-01	 1.1407643416e+00	-1.8971535522e+00
 5.0350540230e-01	 1.1503688024e+00	-1.9736661290e+00
 4.7668177431e-01	 1.1593698535e+00	-2.0507948363e+00
 4.4961807316e-01	 1.1677734213e+00	-2.1281212743e+00
 4.2233470914e-01	 1.1755862703e+00	-2.2052557995e+00
 3.9485203111e-01	 1.1828159640e+00	-2.2818385835e+00
 3.6719027468e-01	 1.1894708251e+00	-2.3575403259e+00
 3.3936951249e-01	 1.1955598936e+00	-2.4320626383e+00
 3.1140960672e-01	 1.2010928827e+00	-2.5051381236e+00
 2.8333016403e-01	 1.2060801353e+00	-2.5765301765e+00
 5.6281971592e-01	 1.1436967679e+00	-1.8352515016e+00
 5.3623184697e-01	 1.1540284412e+00	-1.9009066664e+00
 5.0935985053e-01	 1.1637445767e+00	-1.9677916514e+00
 4.8222433405e-01	 1.1728502864e+00	-2.0355172973e+00
 4.5484595299e-01	 1.1813515657e+00	-2.1037082657e+00
 4.2724535495e-01	 1.1892552576e+00	-2.1720049518e+00
 3.9944312540e-01	 1.1965690137e+00	-2.2400651444e+00
 3.7145973523e-01	 1.2033012534e+00	-2.3075654315e+00
 3.4331549049e-01	 1.2094611218e+00	-2.3742023564e+00
 3.1503048430e-01	 1.2150584451e+00	-2.4396933283e+00
 2.8662455128e-01	 1.2201036864e+00	-2.5037772992e+00
 5.6928861553e-01	 1.1568421134e+00	-1.8489465094e+00
 5.4239515271e-01	 1.1672925361e+00	-1.9056606097e+00
 5.1521429672e-01	 1.1771203463e+00	-1.9637315798e+00
 4.8776689185e-01	 1.1863307146e+00	-2.0228189537e+00
 4.6007383098e-01	 1.1949297053e+00	-2.0825844693e+00
 4.3215599904e-01	 1.2029242401e+00	-2.1426944012e+00
 4.0403421808e-01	 1.2103220586e+00	-2.2028217346e+00
 3.7572919429e-01	 1.2171316769e+00	-2.2626481672e+00
 3.4726146712e-01	 1.2233623451e+00	-2.3218659255e+00
 3.1865136061e-01	 1.2290240026e+00	-2.3801793890e+00
 2.8991893738e-01	 1.2341272325e+00	-2.4373065187e+00
 5.7575751363e-01	 1.1699874557e+00	-1.8620789259e+00
 5.4855845701e-01	 1.1805566279e+00	-1.9106532154e+00
 5.2106874154e-01	 1.1904961128e+00	-1.9606793151e+00
 4.9330944835e-01	 1.1998111396e+00	-2.0118576773e+00
 4.6530170775e-01	 1.2085078418e+00	-2.0638811824e+00
 4.3706664197e-01	 1.2165932195e+00	-2.1164378252e+00
 4.0862530968e-01	 1.2240751003e+00	-2.1692133209e+00
 3.7999865236e-01	 1.2309620972e+00	-2.2218936059e+00
 3.5120744282e-01	 1.2372635652e+00	-2.2741672083e+00
 3.2227223607e-01	 1.2429895568e+00	-2.3257274712e+00
 2.9321332271e-01	 1.2481507754e+00	-2.3762746105e+00
 5.8222641097e-01	 1.1831327965e+00	-1.8739713126e+00
 5.5472176059e-01	 1.1938207182e+00	-1.9151561813e+00
 5.2692318567e-01	 1.2038718777e+00	-1.9578640986e+00
 4.9885200421e-01	 1.2132915631e+00	-2.0018287592e+00
 4.7052958392e-01	 1.2220859766e+00	-2.0467683022e+00
 4.4197728434e-01	 1.2302621973e+00	-2.0923882851e+00
 4.1321640076e-01	 1.2378281404e+00	-2.1383846412e+00
 3.8426810993e-01	 1.2447925158e+00	-2.1844465869e+00
 3.5515341806e-01	 1.2511647837e+00	-2.2302594437e+00
 3.2589311112e-01	 1.2569551095e+00	-2.2755073477e+00
 2.9650770765e-01	 1.2621743166e+00	-2.3198758200e+00
 2.6356379480e-01	 1.1219386343e+00	-3.1975033313e+00
 2.3734822965e-01	 1.1260807273e+00	-3.3096984227e+00
 2.1105709511e-01	 1.1297359180e+00	-3.4092580845e+00
 1.8470772042e-01	 1.1329153307e+00	-3.4963649773e+00
 1.5831705257e-01	 1.1356305041e+00	-3.5713279337e+00
 1.3190162721e-01	 1.1378933484e+00	-3.6345695329e+00
 1.0547754230e-01	 1.1397161028e+00	-3.6866136655e+00
 7.9060434482e-02	 1.1411112938e+00	-3.7280732351e+00
 5.2665458172e-02	 1.1420916935e+00	-3.7596381263e+00
 2.6307267358e-02	 1.1426702801e+00	-3.7820635506e+00
 0.0000000000e+00	 1.1428601985e+00	-3.7961588637e+00
 2.6685819703e-01	 1.1359622492e+00	-3.0669531591e+00
 2.4031495177e-01	 1.1401561161e+00	-3.1712239145e+00
 2.1369519253e-01	 1.1438569947e+00	-3.2638421973e+00
 1.8701646517e-01	 1.1470761482e+00	-3.3449716385e+00
 1.6029592851e-01	 1.1498252598e+00	-3.4149005259e+00
 1.3355032488e-01	 1.1521163884e+00	-3.4740295369e+00
 1.0679595347e-01	 1.1539619263e+00	-3.5228594603e+00
 8.0048646356e-02	 1.1553745563e+00	-3.5619790521e+00
 5.3323747384e-02	 1.1563672105e+00	-3.5920531541e+00
 2.6636093707e-02	 1.1569530291e+00	-3.6138111856e+00
 0.0000000000e+00	 1.1571453214e+00	-3.6280361011e+00
 2.7015259581e-01	 1.1499858493e+00	-2.9486665171e+00
 2.4328167077e-01	 1.1542314900e+00	-3.0451189754e+00
 2.1633328717e-01	 1.1579780564e+00	-3.1308851629e+00
 1.8932520749e-01	 1.1612369509e+00	-3.2061086664e+00
 1.6227480237e-01	 1.1640200006e+00	-3.2710556655e+00
 1.3519902083e-01	 1.1663394135e+00	-3.3261028895e+00
 1.0811436326e-01	 1.1682077347e+00	-3.3717255594e+00
 8.1036857194e-02	 1.1696378039e+00	-3.4084854605e+00
 5.3982035906e-02	 1.1706427125e+00	-3.4370192719e+00
 2.6964919710e-02	 1.1712357631e+00	-3.4580272614e+00
 0.0000000000e+00	 1.1714304292e+00	-3.4722624381e+00
 2.7344699152e-01	 1.1640094364e+00	-2.8415230762e+00
 2.4624838700e-01	 1.1683068509e+00	-2.9303006565e+00
 2.1897137936e-01	 1.1720991051e+00	-3.0093374160e+00
 1.9163394766e-01	 1.1753977403e+00	-3.0787560891e+00
 1.6425367438e-01	 1.1782147281e+00	-3.1387994013e+00
 1.3684771523e-01	 1.1805624252e+00	-3.1898183115e+00
 1.0943277181e-01	 1.1824535299e+00	-3.2322602379e+00
 8.2025067110e-02	 1.1839010381e+00	-3.2666574071e+00
 5.4640323814e-02	 1.1849182012e+00	-3.2936154532e+00
 2.7293745407e-02	 1.1855184838e+00	-3.3138023722e+00
 0.0000000000e+00	 1.1857155238e+00	-3.3279379216e+00
 2.7674138453e-01	 1.1780330119e+00	-2.7444558483e+00
 2.4921510081e-01	 1.1823822002e+00	-2.8257375706e+00
 2.2160946939e-01	 1.1862201421e+00	-2.8981993634e+00
 1.9394268595e-01	 1.1895585182e+00	-2.9619424982e+00
 1.6623254478e-01	 1.1924094441e+00	-3.0171851066e+00
 1.3849640829e-01	 1.1947854254e+00	-3.0642507695e+00
 1.1075117929e-01	 1.1966993134e+00	-3.1035570862e+00
 8.3013276220e-02	 1.1981642607e+00	-3.1356043608e+00
 5.5298611184e-02	 1.1991936782e+00	-3.1609645264e+00
 2.7622570835e-02	 1.1998011928e+00	-3.1802704138e+00
 0.0000000000e+00	 1.2000006067e+00	-3.1942054507e+00
 2.8003577524e-01	 1.1920565777e+00	-2.6564480485e+00
 2.5218181254e-01	 1.1964575397e+00	-2.7304468588e+00
 2.2424755758e-01	 1.2003411693e+00	-2.7965184447e+00
 1.9625142262e-01	 1.2037192862e+00	-2.8547421924e+00
 1.6821141380e-01	 1.2066041501e+00	-2.9053106964e+00
 1.4014510020e-01	 1.2090084156e+00	-2.9485187555e+00
 1.1206958585e-01	 1.2109450870e+00	-2.9847523446e+00
 8.4001484638e-02	 1.2124274734e+00	-3.0144776936e+00
 5.5956898094e-02	 1.2134691452e+00	-3.0382305945e+00
 2.7951396034e-02	 1.2140838918e+00	-3.0566060368e+00
 0.0000000000e+00	 1.2142856796e+00	-3.0702482561e+00
 2.8333016403e-01	 1.2060801353e+00	-2.5765301765e+00
 2.5514852255e-01	 1.2105328710e+00	-2.6434913694e+00
 2.2688564422e-01	 1.2144621883e+00	-2.7033863980e+00
 1.9856015794e-01	 1.2178800459e+00	-2.7562725198e+00
 1.7019028166e-01	 1.2207988478e+00	-2.8023160370e+00
 1.4179379114e-01	 1.2232313976e+00	-2.8417817571e+00
 1.1338799164e-01	 1.2251908523e+00	-2.8750224232e+00
 8.4989692481e-02	 1.2266906777e+00	-2.9024682440e+00
 5.6615184621e-02	 1.2277446039e+00	-2.9246166358e+00
 2.8280221041e-02	 1.2283665825e+00	-2.9420222766e+00
 0.0000000000e+00	 1.2285707441e+00	-2.9552875549e+00
 2.8662455128e-01	 1.2201036864e+00	-2.5037772992e+00
 2.5811523116e-01	 1.2246081957e+00	-2.5639770310e+00
 2.2952372964e-01	 1.2285832006e+00	-2.6179367139e+00
 2.0086889219e-01	 1.2320407989e+00	-2.6656914043e+00
 1.7216914860e-01	 1.2349935389e+00	-2.7073805358e+00
 1.4344248132e-01	 1.2374543728e+00	-2.7432379004e+00
 1.1470639681e-01	 1.2394366109e+00	-2.7735815938e+00
 8.5977899862e-02	 1.2409538753e+00	-2.7988040494e+00
 5.7273470840e-02	 1.2420200560e+00	-2.8193622693e+00
 2.8609045895e-02	 1.2426492666e+00	-2.8357683479e+00
 0.0000000000e+00	 1.2428558020e+00	-2.8485803676e+00
 2.8991893738e-01	 1.2341272325e+00	-2.4373065187e+00
 2.6108193874e-01	 1.2386835154e+00	-2.4910504049e+00
 2.3216181413e-01	 1.2427042081e+00	-2.5393422632e+00
 2.0317762563e-01	 1.2462015471e+00	-2.5821950396e+00
 1.7414801484e-01	 1.2491882250e+00	-2.6197208939e+00
 1.4509117092e-01	 1.2516773431e+00	-2.6521217555e+00
 1.1602480153e-01	 1.2536823645e+00	-2.6796798384e+00
 8.6966106898e-02	 1.2552170680e+00	-2.7027482321e+00
 5.7931756830e-02	 1.2562955030e+00	-2.7217416734e+00
 2.8937870634e-02	 1.2569319456e+00	-2.7371275887e+00
 0.0000000000e+00	 1.2571408549e+00	-2.7494174840e+00
 2.9321332271e-01	 1.2481507754e+00	-2.3762746105e+00
 2.6404864563e-01	 1.2527588319e+00	-2.4238964025e+00
 2.3479989801e-01	 1.2568252122e+00	-2.4668130849e+00
 2.0548635853e-01	 1.2603622919e+00	-2.5050157400e+00
 1.7612688063e-01	 1.2633829079e+00	-2.5385890116e+00
 1.4673986013e-01	 1.2659003101e+00	-2.5677022889e+00
 1.1734320593e-01	 1.2679281148e+00	-2.5926008431e+00
 8.7954313704e-02	 1.2694802573e+00	-2.6135970285e+00
 5.8590042665e-02	 1.2705709467e+00	-2.6310616440e+00
 2.9266695296e-02	 1.2712146213e+00	-2.6454155437e+00
 0.0000000000e+00	 1.2714259045e+00	-2.6571215658e+00
 2.9650770765e-01	 1.2621743166e+00	-2.3198758200e+00
 2.6701535218e-01	 1.2668341468e+00	-2.3617361549e+00
 2.3743798158e-01	 1.2709462147e+00	-2.3995943211e+00
 2.0779509116e-01	 1.2745230351e+00	-2.4334199334e+00
 1.7810574618e-01	 1.2775775890e+00	-2.4632700330e+00
 1.4838854915e-01	 1.2801232755e+00	-2.4892809525e+00
 1.1866161018e-01	 1.2821738634e+00	-2.5116601261e+00
 8.8942520394e-02	 1.2837434449e+00	-2.5306779495e+00
 5.9248328424e-02	 1.2848463888e+00	-2.5466597829e+00
 2.9595519919e-02	 1.2854972953e+00	-2.5599781747e+00
 0.0000000000e+00	 1.2857109524e+00	-2.5710453765e+00
 1.2857109524e+00	 0.0000000000e+00	 2.0079350134e+00
 1.2854972953e+00	 2.9595519919e-02	 1.9995929547e+00
 1.2848463888e+00	 5.9248328424e-02	 1.9956530164e+00
 1.2837434449e+00	 8.8942520394e-02	 1.9946029032e+00
 1.2821738634e+00	 1.1866161018e-01	 1.9948724249e+00
 1.2801232755e+00	 1.4838854915e-01	 1.9948400695e+00
 1.2775775890e+00	 1.7810574618e-01	 1.9928407485e+00
 1.2745230351e+00	 2.0779509116e-01	 1.9871747446e+00
 1.2709462147e+00	 2.3743798158e-01	 1.9761178752e+00
 1.2668341468e+00	 2.6701535218e-01	 1.9579328699e+00
 1.2621743166e+00	 2.9650770765e-01	 1.9308819370e+00
 1.2999969994e+00	 0.0000000000e+00	 2.0419616755e+00
 1.2997809683e+00	 2.9924367543e-02	 2.0336197988e+00
 1.2991228294e+00	 5.9906660228e-02	 2.0289290124e+00
 1.2980076302e+00	 8.9930796205e-02	 2.0264200304e+00
 1.2964206085e+00	 1.1998010665e-01	 2.0245696179e+00
 1.2943472356e+00	 1.5003735349e-01	 2.0218072093e+00
 1.2917732631e+00	 1.8008475015e-01	 2.0165226675e+00
 1.2886847687e+00	 2.1010398527e-01	 2.0070752100e+00
 1.2850682048e+00	 2.4007624967e-01	 1.9918035118e+00
 1.2809104461e+00	 2.6998226622e-01	 1.9690369793e+00
 1.2761988388e+00	 2.9980232302e-01	 1.9371081691e+00
 1.3142830432e+00	 0.0000000000e+00	 2.0739942319e+00
 1.3140646380e+00	 3.0253215090e-02	 2.0656460672e+00
 1.3133992666e+00	 6.0564991877e-02	 2.0602364170e+00
 1.3122718122e+00	 9.0919071785e-02	 2.0563381811e+00
 1.3106673502e+00	 1.2129860281e-01	 2.0524740728e+00
 1.3085711925e+00	 1.5168615745e-01	 2.0471232752e+00
 1.3059689338e+00	 1.8206375365e-01	 2.0387292048e+00
 1.3028464991e+00	 2.1241287885e-01	 2.0257084082e+00
 1.2991901917e+00	 2.4271451714e-01	 2.0064605981e+00
 1.2949867422e+00	 2.7294917958e-01	 1.9793798197e+00
 1.2902233576e+00	 3.0309693762e-01	 1.9428667177e+00
 1.3285690802e+00	 0.0000000000e+00	 2.1038171712e+00
 1.3283483011e+00	 3.0582062483e-02	 2.0954521321e+00
 1.3276756971e+00	 6.1223323219e-02	 2.0893504377e+00
 1.3265359875e+00	 9.1907346903e-02	 2.0841263702e+00
 1.3249140853e+00	 1.2261709835e-01	 2.0783476108e+00
 1.3227951427e+00	 1.5333496063e-01	 2.0705419228e+00
 1.3201645979e+00	 1.8404275623e-01	 2.0592049122e+00
 1.3170082228e+00	 2.1472177135e-01	 2.0428088878e+00
 1.3133121720e+00	 2.4535278339e-01	 2.0198128237e+00
 1.3090630317e+00	 2.7591609155e-01	 1.9886734128e+00
 1.3042478699e+00	 3.0639155069e-01	 1.9478571797e+00
 1.3428551073e+00	 0.0000000000e+00	 2.1312241455e+00
 1.3426319541e+00	 3.0910909646e-02	 2.1228277047e+00
 1.3419521177e+00	 6.1881654101e-02	 2.1160558406e+00
 1.3408001529e+00	 9.2895621330e-02	 2.1095634355e+00
 1.3391608104e+00	 1.2393559298e-01	 2.1019621822e+00
 1.3370190829e+00	 1.5498376267e-01	 2.0918272843e+00
 1.3343602520e+00	 1.8602175742e-01	 2.0777052064e+00
 1.3311699367e+00	 2.1703066223e-01	 2.0581224887e+00
 1.3274341424e+00	 2.4799104779e-01	 2.0315956314e+00
 1.3231393113e+00	 2.7888300145e-01	 1.9966420303e+00
 1.3182723724e+00	 3.0968616145e-01	 1.9517919317e+00
 1.3571411210e+00	 0.0000000000e+00	 2.1560174874e+00
 1.3569155938e+00	 3.1239756502e-02	 2.1475713431e+00
 1.3562285250e+00	 6.2539984367e-02	 2.1401464471e+00
 1.3550643049e+00	 9.3883894835e-02	 2.1324375199e+00
 1.3534075222e+00	 1.2525408637e-01	 2.1230993327e+00
 1.3512430099e+00	 1.5663256316e-01	 2.1107534174e+00
 1.3485558929e+00	 1.8800075677e-01	 2.0939957964e+00
 1.3453316373e+00	 2.1933955096e-01	 2.0714057467e+00
 1.3415560997e+00	 2.5062930972e-01	 2.0415555986e+00
 1.3372155778e+00	 2.8184990857e-01	 2.0030215493e+00
 1.3322968618e+00	 3.1298076913e-01	 1.9543954570e+00
 1.3714271181e+00	 0.0000000000e+00	 2.1780077579e+00
 1.3711992169e+00	 3.1568602975e-02	 2.1694899908e+00
 1.3705049155e+00	 6.3198313866e-02	 2.1614246619e+00
 1.3693284403e+00	 9.4872167187e-02	 2.1525455864e+00
 1.3676542174e+00	 1.2657257822e-01	 2.1415497038e+00
 1.3654669203e+00	 1.5828136173e-01	 2.1271037874e+00
 1.3627515173e+00	 1.8997975381e-01	 2.1078521474e+00
 1.3594933214e+00	 2.2164843700e-01	 2.0824253365e+00
 1.3556780404e+00	 2.5326756858e-01	 2.0494498568e+00
 1.3512918279e+00	 2.8481681224e-01	 2.0075588475e+00
 1.3463213348e+00	 3.1627537297e-01	 1.9554037144e+00
 1.3857130952e+00	 0.0000000000e+00	 2.1970133213e+00
 1.3854828199e+00	 3.1897448987e-02	 2.1883985445e+00
 1.3847812861e+00	 6.3856642444e-02	 2.1797010302e+00
 1.3835925557e+00	 9.5860438155e-02	 2.1696929635e+00
 1.3819008927e+00	 1.2789106823e-01	 2.1571125628e+00
 1.3796908107e+00	 1.5993015799e-01	 2.1406707820e+00
 1.3769471217e+00	 1.9195874808e-01	 2.1190589773e+00
 1.3736549856e+00	 2.2395731980e-01	 2.0909575482e+00
 1.3697999614e+00	 2.5590582374e-01	 2.0550455470e+00
 1.3653680583e+00	 2.8778371175e-01	 2.0100112352e+00
 1.3603457882e+00	 3.1956997219e-01	 1.9545635465e+00
 1.3999990489e+00	 0.0000000000e+00	 2.2128599469e+00
 1.3997663996e+00	 3.2226294462e-02	 2.2041194475e+00
 1.3990576334e+00	 6.4514969946e-02	 2.1947938218e+00
 1.3978566478e+00	 9.6848707509e-02	 2.1836929171e+00
 1.3961475447e+00	 1.2920955608e-01	 2.1695953627e+00
 1.3939146780e+00	 1.6157895156e-01	 2.1512552556e+00
 1.3911427030e+00	 1.9393773912e-01	 2.1274097841e+00
 1.3878166268e+00	 2.2626619883e-01	 2.0967877968e+00
 1.3839218593e+00	 2.5854407459e-01	 2.0581193089e+00
 1.3794442657e+00	 2.9075060642e-01	 2.0101459235e+00
 1.3743702187e+00	 3.2286456604e-01	 1.9516321243e+00
 1.4142849760e+00	 0.0000000000e+00	 2.2253804348e+00
 1.4140499527e+00	 3.2555139323e-02	 2.2164823085e+00
 1.4133339541e+00	 6.5173296219e-02	 2.2065286407e+00
 1.4121207133e+00	 9.7836975018e-02	 2.1943662499e+00
 1.4103941701e+00	 1.3052804147e-01	 2.1788133283e+00
 1.4081385186e+00	 1.6322774205e-01	 2.1586661017e+00
 1.4053382578e+00	 1.9591672646e-01	 2.1327064026e+00
 1.4019782415e+00	 2.2857507355e-01	 2.0997101606e+00
 1.3980437309e+00	 2.6118232052e-01	 2.0584568005e+00
 1.3935204468e+00	 2.9371749554e-01	 2.0077395230e+00
 1.3883946231e+00	 3.2615915374e-01	 1.9463764245e+00
 1.4285708730e+00	 0.0000000000e+00	 2.2344142637e+00
 1.4283334758e+00	 3.2883983494e-02	 2.2253235425e+00
 1.4276102447e+00	 6.5831621110e-02	 2.2147380575e+00
 1.4263847488e+00	 9.8825240452e-02	 2.2015409239e+00
 1.4246407655e+00	 1.3184652410e-01	 2.1845890671e+00
 1.4223623295e+00	 1.6487652907e-01	 2.1627198497e+00
 1.4195337827e+00	 1.9789570964e-01	 2.1347585861e+00
 1.4161398264e+00	 2.3088394342e-01	 2.0995269478e+00
 1.4121655728e+00	 2.6382056091e-01	 2.0558522472e+00
 1.4075965984e+00	 2.9668437844e-01	 2.0025775741e+00
 1.4024189979e+00	 3.2945373451e-01	 1.9385727395e+00
 1.2621743166e+00	 2.9650770765e-01	 1.9308819370e+00
 1.2569551095e+00	 3.2589311112e-01	 1.8962620228e+00
 1.2511647837e+00	 3.5515341806e-01	 1.8560303176e+00
 1.2447925158e+00	 3.8426810993e-01	 1.8094623669e+00
 1.2378281404e+00	 4.1321640076e-01	 1.7558507506e+00
 1.2302621973e+00	 4.4197728434e-01	 1.6945125264e+00
 1.2220859766e+00	 4.7052958392e-01	 1.6247970198e+00
 1.2132915631e+00	 4.9885200421e-01	 1.5460938769e+00
 1.2038718777e+00	 5.2692318567e-01	 1.4578412892e+00
 1.1938207182e+00	 5.5472176059e-01	 1.3595342812e+00
 1.1831327965e+00	 5.8222641097e-01	 1.2507329455e+00
 1.2761988388e+00	 2.9980232302e-01	 1.9371081691e+00
 1.2709216389e+00	 3.2951423942e-01	 1.8972687307e+00
 1.2650669745e+00	 3.5909966930e-01	 1.8514459627e+00
 1.2586239018e+00	 3.8853786612e-01	 1.7990142232e+00
 1.2515821424e+00	 4.1780781295e-01	 1.7393666072e+00
 1.2439321311e+00	 4.4688827018e-01	 1.6719216907e+00
 1.2356650612e+00	 4.7575782574e-01	 1.5961305590e+00
 1.2267729294e+00	 5.0439494774e-01	 1.5114840454e+00
 1.2172485781e+00	 5.3277803929e-01	 1.4175200923e+00
 1.2070857362e+00	 5.6088549527e-01	 1.3138311371e+00
 1.1962790568e+00	 5.8869576078e-01	 1.2000714167e+00
 1.2902233576e+00	 3.0309693762e-01	 1.9428667177e+00
 1.2848881651e+00	 3.3313536688e-01	 1.8981224559e+00
 1.2789691621e+00	 3.6304591962e-01	 1.8470385940e+00
 1.2724552846e+00	 3.9280762132e-01	 1.7890847749e+00
 1.2653361413e+00	 4.2239922408e-01	 1.7237510364e+00
 1.2576020617e+00	 4.5179925488e-01	 1.6505538794e+00
 1.2492441426e+00	 4.8098606635e-01	 1.5690425610e+00
 1.2402542926e+00	 5.0993788998e-01	 1.4788055461e+00
 1.2306252755e+00	 5.3863289155e-01	 1.3794770332e+00
 1.2203507511e+00	 5.6704922850e-01	 1.2707434685e+00
 1.2094253140e+00	 5.9516510908e-01	 1.1523499501e+00
 1.3042478699e+00	 3.0639155069e-01	 1.9478571797e+00
 1.2988546847e+00	 3.3675649265e-01	 1.8985101976e+00
 1.2928713432e+00	 3.6699216811e-01	 1.8424830551e+00
 1.2862866609e+00	 3.9707737452e-01	 1.7793372598e+00
 1.2790901337e+00	 4.2699063306e-01	 1.7086563281e+00
 1.2712719860e+00	 4.5671023728e-01	 1.6300511999e+00
 1.2628232177e+00	 4.8621430452e-01	 1.5431658229e+00
 1.2537356495e+00	 5.1548082964e-01	 1.4476828417e+00
 1.2440019666e+00	 5.4448774107e-01	 1.3433293179e+00
 1.2336157599e+00	 5.7321295886e-01	 1.2298824003e+00
 1.2225715651e+00	 6.0163445437e-01	 1.1071748575e+00
 1.3182723724e+00	 3.0968616145e-01	 1.9517919317e+00
 1.3128211946e+00	 3.4037761589e-01	 1.8981322712e+00
 1.3067735145e+00	 3.7093841382e-01	 1.8374680234e+00
 1.3001180275e+00	 4.0134712474e-01	 1.7694492441e+00
 1.2928441165e+00	 4.3158203882e-01	 1.6937495670e+00
 1.2849419007e+00	 4.6162121625e-01	 1.6100709886e+00
 1.2764022833e+00	 4.9144253903e-01	 1.5181487673e+00
 1.2672169970e+00	 5.2102376541e-01	 1.4177563759e+00
 1.2573786483e+00	 5.5034258650e-01	 1.3087104429e+00
 1.2468807593e+00	 5.7937668491e-01	 1.1908756067e+00
 1.2357178070e+00	 6.0810379512e-01	 1.0641692060e+00
 1.3322968618e+00	 3.1298076913e-01	 1.9543954570e+00
 1.3267876914e+00	 3.4399873574e-01	 1.8967016070e+00
 1.3206756729e+00	 3.7488465586e-01	 1.8316952821e+00
 1.3139493812e+00	 4.0561687097e-01	 1.7591118679e+00
 1.3065980864e+00	 4.3617344031e-01	 1.6787118537e+00
 1.2986118027e+00	 4.6653219063e-01	 1.5902850089e+00
 1.2899813362e+00	 4.9667076865e-01	 1.4936546197e+00
 1.2806983319e+00	 5.2656669601e-01	 1.3886817317e+00
 1.2707553176e+00	 5.5619742646e-01	 1.2752693372e+00
 1.2601457464e+00	 5.8554040520e-01	 1.1533664409e+00
 1.2488640366e+00	 6.1457312984e-01	 1.0229719357e+00
 1.3463213348e+00	 3.1627537297e-01	 1.9554037144e+00
 1.3407541720e+00	 3.4761985137e-01	 1.8939430929e+00
 1.3345778151e+00	 3.7883089329e-01	 1.8248790367e+00
 1.3277807188e+00	 4.0988661222e-01	 1.7480291380e+00
 1.3203520403e+00	 4.4076483643e-01	 1.6632375745e+00
 1.3122816886e+00	 4.7144315928e-01	 1.5703786991e+00
 1.3035603733e+00	 5.0189899218e-01	 1.4693606372e+00
 1.2941796511e+00	 5.3210962014e-01	 1.3601288431e+00
 1.2841319713e+00	 5.6205225959e-01	 1.2426695585e+00
 1.2734107180e+00	 5.9170411830e-01	 1.1170131173e+00
 1.2620102508e+00	 6.2104245701e-01	 9.8323703312e-01
 1.3603457882e+00	 3.1956997219e-01	 1.9545635465e+00
 1.3547206330e+00	 3.5124096194e-01	 1.8895929578e+00
 1.3484799377e+00	 3.8277712519e-01	 1.8167452750e+00
 1.3416120371e+00	 4.1415634749e-01	 1.7359172643e+00
 1.3341059750e+00	 4.4535622613e-01	 1.6470337161e+00
 1.3259515555e+00	 4.7635412106e-01	 1.5500504679e+00
 1.3171393913e+00	 5.0712720839e-01	 1.4449573852e+00
 1.3076609514e+00	 5.3765253651e-01	 1.3317812544e+00
 1.2975086062e+00	 5.6790708453e-01	 1.2105885387e+00
 1.2866756711e+00	 5.9786782277e-01	 1.0814879461e+00
 1.2751564467e+00	 6.2751177512e-01	 9.4463275514e-01
 1.3743702187e+00	 3.2286456604e-01	 1.9516321243e+00
 1.3686870711e+00	 3.5486206658e-01	 1.8833981924e+00
 1.3623820377e+00	 3.8672335066e-01	 1.8070311650e+00
 1.3554433327e+00	 4.1842607579e-01	 1.7225040368e+00
 1.3478598872e+00	 4.4994760833e-01	 1.6298192222e+00
 1.3396214000e+00	 4.8126507482e-01	 1.5290110318e+00
 1.3307183872e+00	 5.1235541606e-01	 1.4201480576e+00
 1.3211422296e+00	 5.4319544383e-01	 1.3033354264e+00
 1.3108852193e+00	 5.7376189990e-01	 1.1787168763e+00
 1.2999406024e+00	 6.0403151717e-01	 1.0464766132e+00
 1.2883026211e+00	 6.3398108266e-01	 9.0684090085e-01
 1.3883946231e+00	 3.2615915374e-01	 1.9463764245e+00
 1.3826534833e+00	 3.5848316447e-01	 1.8751160053e+00
 1.3762841118e+00	 3.9066956875e-01	 1.7954844902e+00
 1.3692746025e+00	 4.2269579611e-01	 1.7075282405e+00
 1.3616137737e+00	 4.5453898196e-01	 1.6113243899e+00
 1.3532912190e+00	 4.8617601941e-01	 1.5069827935e+00
 1.3442973577e+00	 5.1758361397e-01	 1.3946478392e+00
 1.3346234828e+00	 5.4873834080e-01	 1.2745000830e+00
 1.3242618074e+00	 5.7961670434e-01	 1.1467576704e+00
 1.3132055090e+00	 6.1019520007e-01	 1.0116775048e+00
 1.3014487709e+00	 6.4045037813e-01	 8.6955612734e-01
 1.4024189979e+00	 3.2945373451e-01	 1.9385727395e+00
 1.3966198660e+00	 3.6210425476e-01	 1.8645133120e+00
 1.3901861566e+00	 3.9461577856e-01	 1.7818631184e+00
 1.3831058433e+00	 4.2696550748e-01	 1.6907391054e+00
 1.3753676313e+00	 4.5913034595e-01	 1.5912903010e+00
 1.3669610093e+00	 4.9108695369e-01	 1.4836992570e+00
 1.3578762997e+00	 5.2281180090e-01	 1.3681833054e+00
 1.3481047076e+00	 5.5428122614e-01	 1.2449955983e+00
 1.3376383674e+00	 5.8547149649e-01	 1.1144258959e+00
 1.3264703878e+00	 6.1635887003e-01	 9.7680107213e-01
 1.3145948931e+00	 6.4691966002e-01	 8.3248530657e-01
 1.1831327965e+00	 5.8222641097e-01	 1.2507329455e+00
 1.1718029596e+00	 6.0941781830e-01	 1.1323387504e+00
 1.1598285813e+00	 6.3627299610e-01	 1.0064406763e+00
 1.1472073212e+00	 6.6277112297e-01	 8.7443227486e-01
 1.1339378746e+00	 6.8889166950e-01	 7.3772968504e-01
 1.1200199937e+00	 7.1461446003e-01	 5.9776186104e-01
 1.1054545054e+00	 7.3991973413e-01	 4.5596029898e-01
 1.0902433246e+00	 7.6478820756e-01	 3.1374838631e-01
 1.0743894629e+00	 7.8920113219e-01	 1.7253051050e-01
 1.0578970339e+00	 8.1314035461e-01	 3.3681074294e-02
 1.0407712524e+00	 8.3658837299e-01	-1.0146642755e-01
 1.1962790568e+00	 5.8869576078e-01	 1.2000714167e+00
 1.1848233296e+00	 6.1618930268e-01	 1.0770645125e+00
 1.1727158992e+00	 6.4334287907e-01	 9.4679490520e-01
 1.1599543992e+00	 6.7013543720e-01	 8.1070365959e-01
 1.1465375105e+00	 6.9654621954e-01	 6.7025034528e-01
 1.1324649825e+00	 7.2255482624e-01	 5.2690267969e-01
 1.1177376512e+00	 7.4814127733e-01	 3.8212569968e-01
 1.1023574529e+00	 7.7328607429e-01	 2.3737059533e-01
 1.0863274326e+00	 7.9797026066e-01	 9.4063352492e-02
 1.0696517496e+00	 8.2217548132e-01	-4.6406639389e-02
 1.0523356768e+00	 8.4588403999e-01	-1.8269785067e-01
 1.2094253140e+00	 5.9516510908e-01	 1.1523499501e+00
 1.1978436965e+00	 6.2296078548e-01	 1.0250453356e+00
 1.1856032140e+00	 6.5041276039e-01	 8.9071063993e-01
 1.1727014743e+00	 6.7749974970e-01	 7.5082831246e-01
 1.1591371434e+00	 7.0420076778e-01	 6.0689550447e-01
 1.1449099683e+00	 7.3049519060e-01	 4.6041318873e-01
 1.1300207942e+00	 7.5636281862e-01	 3.1287483603e-01
 1.1144715783e+00	 7.8178393904e-01	 1.6575479102e-01
 1.0982653996e+00	 8.0673938709e-01	 2.0496502820e-02
 1.0814064627e+00	 8.3121060593e-01	-1.2149922472e-01
 1.0639000985e+00	 8.5517970482e-01	-2.5888579186e-01
 1.2225715651e+00	 6.0163445437e-01	 1.1071748575e+00
 1.2108640573e+00	 6.2973226512e-01	 9.7588412852e-01
 1.1984905228e+00	 6.5748263841e-01	 8.3778901120e-01
 1.1854485433e+00	 6.8486405877e-01	 6.9440740508e-01
 1.1717367705e+00	 7.1185531246e-01	 5.4726838071e-01
 1.1573549484e+00	 7.3843555126e-01	 3.9790083603e-01
 1.1423039314e+00	 7.6458435607e-01	 2.4782173619e-01
 1.1265856982e+00	 7.9028179982e-01	 9.8524087573e-02
 1.1102033610e+00	 8.1550850942e-01	-4.8535190698e-02
 1.0931611702e+00	 8.4024572632e-01	-1.9194732552e-01
 1.0754645148e+00	 8.6447536531e-01	-3.3036350065e-01
 1.2357178070e+00	 6.0810379512e-01	 1.0641692060e+00
 1.2238844090e+00	 6.3650374002e-01	 9.2920070067e-01
 1.2113778226e+00	 6.6455251148e-01	 7.8764812682e-01
 1.1981956035e+00	 6.9222836268e-01	 6.4105908512e-01
 1.1843363887e+00	 7.1950985177e-01	 4.9098908178e-01
 1.1697999197e+00	 7.4637590636e-01	 3.3898977984e-01
 1.1545870600e+00	 7.7280588776e-01	 1.8659685933e-01
 1.1386998095e+00	 7.9877965465e-01	 3.5317644223e-02
 1.1221413140e+00	 8.2427762561e-01	-1.1338133385e-01
 1.1049158695e+00	 8.4928084039e-01	-2.5808665597e-01
 1.0870289230e+00	 8.7377101929e-01	-3.9745003655e-01
 1.2488640366e+00	 6.1457312984e-01	 1.0229719357e+00
 1.2369047486e+00	 6.4327520860e-01	 8.8463087263e-01
 1.2242651104e+00	 6.7162237796e-01	 7.3992217798e-01
 1.2109426517e+00	 6.9959265972e-01	 5.9041758269e-01
 1.1969359952e+00	 7.2716438394e-01	 4.3769371607e-01
 1.1822448794e+00	 7.5431625404e-01	 2.8332000918e-01
 1.1668701771e+00	 7.8102741179e-01	 1.2884623085e-01
 1.1508139096e+00	 8.0727750155e-01	-2.4210179235e-02
 1.1340792559e+00	 8.3304673362e-01	-1.7437680428e-01
 1.1166705579e+00	 8.5831594603e-01	-3.2023878639e-01
 1.0985933204e+00	 8.8306666460e-01	-4.6045101587e-01
 1.2620102508e+00	 6.2104245701e-01	 9.8323703312e-01
 1.2499250729e+00	 6.5004666928e-01	 8.4182564189e-01
 1.2371523831e+00	 6.7869223618e-01	 6.9426060151e-01
 1.2236896851e+00	 7.0695694817e-01	 5.4213237260e-01
 1.2095355870e+00	 7.3481890718e-01	 3.8703355917e-01
 1.1946898246e+00	 7.6225659247e-01	 2.3054651932e-01
 1.1791532800e+00	 7.8924892622e-01	 7.4230631525e-02
 1.1629279955e+00	 8.1577533854e-01	-8.0390614185e-02
 1.1460171838e+00	 8.4181583140e-01	-2.3184251857e-01
 1.1284252325e+00	 8.6735104112e-01	-3.7871187992e-01
 1.1101577043e+00	 8.9236229907e-01	-5.1965931187e-01
 1.2751564467e+00	 6.2751177512e-01	 9.4463275514e-01
 1.2629453791e+00	 6.5681812048e-01	 8.0045040044e-01
 1.2500396378e+00	 6.8576208451e-01	 6.5032729376e-01
 1.2364367006e+00	 7.1432122631e-01	 4.9586738844e-01
 1.2221351611e+00	 7.4247341971e-01	 3.3867427190e-01
 1.2071347524e+00	 7.7019691977e-01	 1.8033853811e-01
 1.1914363656e+00	 7.9747042914e-01	 2.2424836880e-02
 1.1750420644e+00	 8.2427316363e-01	-1.3354122597e-01
 1.1579550950e+00	 8.5058491690e-01	-2.8608615194e-01
 1.1401798907e+00	 8.7638612357e-01	-4.3380138357e-01
 1.1217220720e+00	 9.0165792052e-01	-5.7535571160e-01
 1.2883026211e+00	 6.3398108266e-01	 9.0684090085e-01
 1.2759656639e+00	 6.6358956063e-01	 7.6018420010e-01
 1.2629268715e+00	 6.9283192129e-01	 6.0779987279e-01
 1.2491836953e+00	 7.2168549242e-01	 4.5130028471e-01
 1.2347347147e+00	 7.5012791973e-01	 2.9229516628e-01
 1.2195796598e+00	 7.7813723411e-01	 1.3237879973e-01
 1.2037194311e+00	 8.0569191863e-01	-2.6883096915e-02
 1.1871561136e+00	 8.3277097484e-01	-1.8396661117e-01
 1.1698929868e+00	 8.5935398808e-01	-3.3740281388e-01
 1.1519345297e+00	 8.8542119125e-01	-4.8579067707e-01
 1.1332864209e+00	 9.1095352679e-01	-6.2780953257e-01
 1.3014487709e+00	 6.4045037813e-01	 8.6955612734e-01
 1.2889859245e+00	 6.7036098813e-01	 7.2071906248e-01
 1.2758140811e+00	 6.9990174487e-01	 5.6636898512e-01
 1.2619306663e+00	 7.2904974479e-01	 4.0812174368e-01
 1.2473342447e+00	 7.5778240547e-01	 2.4758851591e-01
 1.2320245441e+00	 7.8607753363e-01	 8.6362862457e-02
 1.2160024738e+00	 8.1391339278e-01	-7.3992503881e-02
 1.1992701402e+00	 8.4126877019e-01	-2.3195905272e-01
 1.1818308562e+00	 8.6812304290e-01	-3.8607568278e-01
 1.1636891467e+00	 8.9445624208e-01	-5.3495168234e-01
 1.1448507481e+00	 9.2024911570e-01	-6.7727920201e-01
 1.3145948931e+00	 6.4691966002e-01	 8.3248530657e-01
 1.3020061577e+00	 6.7713240141e-01	 6.8175933024e-01
 1.2887012636e+00	 7.0697155361e-01	 5.2573765412e-01
 1.2746776104e+00	 7.3641398169e-01	 3.6603482386e-01
 1.2599337483e+00	 7.6543687513e-01	 2.0425890775e-01
 1.2444694021e+00	 7.9401781647e-01	 4.1998467344e-02
 1.2282854906e+00	 8.2213484966e-01	-1.1919073882e-01
 1.2113841413e+00	 8.4976654770e-01	-2.7779913561e-01
 1.1937687006e+00	 8.7689207929e-01	-4.3237660261e-01
 1.1754437391e+00	 9.0349127393e-01	-5.8154543642e-01
 1.1564150511e+00	 9.2954468510e-01	-7.2401280141e-01
 1.0407712524e+00	 8.3658837299e-01	-1.0146642755e-01
 1.0230184280e+00	 8.5952839397e-01	-2.3502183183e-01
 1.0046459470e+00	 8.8194439106e-01	-3.6884409157e-01
 9.8566226724e-01	 9.0382114827e-01	-5.0126713737e-01
 9.6607690210e-01	 9.2514430463e-01	-6.3064387982e-01
 9.4590039750e-01	 9.4590039750e-01	-7.5535881803e-01
 9.2514430463e-01	 9.6607690210e-01	-8.7384038005e-01
 9.0382114827e-01	 9.8566226724e-01	-9.8457281388e-01
 8.8194439106e-01	 1.0046459470e+00	-1.0861074556e+00
 8.5952839397e-01	 1.0230184280e+00	-1.1770732127e+00
 8.3658837299e-01	 1.0407712524e+00	-1.2561861161e+00
 1.0523356768e+00	 8.4588403999e-01	-1.8269785067e-01
 1.0343855936e+00	 8.6907895669e-01	-3.1683549359e-01
 1.0158089687e+00	 8.9174402687e-01	-4.5062171217e-01
 9.9661435372e-01	 9.1386386544e-01	-5.8243359865e-01
 9.7681136778e-01	 9.3542395190e-01	-7.1067246569e-01
 9.5641067399e-01	 9.5641067399e-01	-8.3377613211e-01
 9.3542395190e-01	 9.7681136778e-01	-9.5023088077e-01
 9.1386386544e-01	 9.9661435372e-01	-1.0585829122e+00
 8.9174402687e-01	 1.0158089687e+00	-1.1574491268e+00
 8.6907895669e-01	 1.0343855936e+00	-1.2455270800e+00
 8.4588403999e-01	 1.0523356768e+00	-1.3216039728e+00
 1.0639000985e+00	 8.5517970482e-01	-2.5888579186e-01
 1.0457527567e+00	 8.7862951718e-01	-3.9360128435e-01
 1.0269719878e+00	 9.0154366038e-01	-5.2738748576e-01
 1.0075664376e+00	 9.2390658027e-01	-6.5866526615e-01
 9.8754583095e-01	 9.4570359677e-01	-7.8588455526e-01
 9.6692094803e-01	 9.6692094803e-01	-9.0753629958e-01
 9.4570359677e-01	 9.8754583095e-01	-1.0221640363e+00
 9.2390658027e-01	 1.0075664376e+00	-1.1283749133e+00
 9.0154366038e-01	 1.0269719878e+00	-1.2248499930e+00
 8.7862951718e-01	 1.0457527567e+00	-1.3103536933e+00
 8.5517970482e-01	 1.0639000985e+00	-1.3837422331e+00
 1.0754645148e+00	 8.6447536531e-01	-3.3036350065e-01
 1.0571199144e+00	 8.8818007321e-01	-4.6563278725e-01
 1.0381350017e+00	 9.1134328932e-01	-5.9943370551e-01
 1.0185185165e+00	 9.3394929041e-01	-7.3023148008e-01
 9.9828028912e-01	 9.5598323684e-01	-8.5652484326e-01
 9.7743121717e-01	 9.7743121717e-01	-9.7685765758e-01
 9.5598323684e-01	 9.9828028912e-01	-1.0898301047e+00
 9.3394929041e-01	 1.0185185165e+00	-1.1941092751e+00
 9.1134328932e-01	 1.0381350017e+00	-1.2884390023e+00
 8.8818007321e-01	 1.0571199144e+00	-1.3716488012e+00
 8.6447536531e-01	 1.0754645148e+00	-1.4426617864e+00
 1.0870289230e+00	 8.7377101929e-01	-3.9745003655e-01
 1.0684870641e+00	 8.9773062256e-01	-5.3323023174e-01
 1.0492980078e+00	 9.2114291140e-01	-6.6704021631e-01
 1.0294705876e+00	 9.4399199353e-01	-7.9739010864e-01
 1.0090147398e+00	 9.6626286971e-01	-9.2282760073e-01
 9.8794147894e-01	 9.8794147894e-01	-1.0419492408e+00
 9.6626286971e-01	 1.0090147398e+00	-1.1534112361e+00
 9.4399199353e-01	 1.0294705876e+00	-1.2559396156e+00
 9.2114291140e-01	 1.0492980078e+00	-1.3483396030e+00
 8.9773062256e-01	 1.0684870641e+00	-1.4295040648e+00
 8.7377101929e-01	 1.0870289230e+00	-1.4984209182e+00
 1.0985933204e+00	 8.8306666460e-01	-4.6045101587e-01
 1.0798542033e+00	 9.0728116300e-01	-5.9668119634e-01
 1.0604610035e+00	 9.3094252434e-01	-7.3047506993e-01
 1.0404226485e+00	 9.5403468727e-01	-8.6038815174e-01
 1.0197491804e+00	 9.7654249299e-01	-9.8501722353e-01
 9.9845173091e-01	 9.9845173091e-01	-1.1030112708e+00
 9.7654249299e-01	 1.0197491804e+00	-1.2130818990e+00
 9.5403468727e-01	 1.0404226485e+00	-1.3140130723e+00
 9.3094252434e-01	 1.0604610035e+00	-1.4046700332e+00
 9.0728116300e-01	 1.0798542033e+00	-1.4840072735e+00
 8.8306666460e-01	 1.0985933204e+00	-1.5510754471e+00
 1.1101577043e+00	 8.9236229907e-01	-5.1965931187e-01
 1.0912213292e+00	 9.1683169229e-01	-6.5626126754e-01
 1.0716239861e+00	 9.4074212584e-01	-7.8999513916e-01
 1.0513746967e+00	 9.6407736930e-01	-9.1946230702e-01
 1.0304836085e+00	 9.8682210428e-01	-1.0433087466e+00
 1.0089619706e+00	 1.0089619706e+00	-1.1602356154e+00
 9.8682210428e-01	 1.0304836085e+00	-1.2690092808e+00
 9.6407736930e-01	 1.0513746967e+00	-1.3684706397e+00
 9.4074212584e-01	 1.0716239861e+00	-1.4575435921e+00
 9.1683169229e-01	 1.0912213292e+00	-1.5352425460e+00
 8.9236229907e-01	 1.1101577043e+00	-1.6006788533e+00
 1.1217220720e+00	 9.0165792052e-01	-5.7535571160e-01
 1.1025884392e+00	 9.2638220821e-01	-7.1223465791e-01
 1.0827869531e+00	 9.5054171363e-01	-8.4584669406e-01
 1.0623267295e+00	 9.7412003726e-01	-9.7483950081e-01
 1.0412180216e+00	 9.9710170118e-01	-1.0979083266e+00
 1.0194721956e+00	 1.0194721956e+00	-1.2138062186e+00
 9.9710170118e-01	 1.0412180216e+00	-1.3213536627e+00
 9.7412003726e-01	 1.0623267295e+00	-1.4194474864e+00
 9.5054171363e-01	 1.0827869531e+00	-1.5070688941e+00
 9.2638220821e-01	 1.1025884392e+00	-1.5832905196e+00
 9.0165792052e-01	 1.1217220720e+00	-1.6472823985e+00
 1.1332864209e+00	 9.1095352679e-01	-6.2780953257e-01
 1.1139555306e+00	 9.3593270854e-01	-7.6485478637e-01
 1.0939499019e+00	 9.6034128541e-01	-8.9826594285e-01
 1.0732787444e+00	 9.8416268883e-01	-1.0267373867e+00
 1.0519524171e+00	 1.0073812813e+00	-1.1490136944e+00
 1.0299824034e+00	 1.0299824034e+00	-1.2638995053e+00
 1.0073812813e+00	 1.0519524171e+00	-1.3702687722e+00
 9.8416268883e-01	 1.0732787444e+00	-1.4670732514e+00
 9.6034128541e-01	 1.0939499019e+00	-1.5533501084e+00
 9.3593270854e-01	 1.1139555306e+00	-1.6282285278e+00
 9.1095352679e-01	 1.1332864209e+00	-1.6909352399e+00
 1.1448507481e+00	 9.2024911570e-01	-6.7727920201e-01
 1.1253226008e+00	 9.4548319104e-01	-8.1436482338e-01
 1.1051128299e+00	 9.7014083889e-01	-9.4747954007e-01
 1.0842307389e+00	 9.9420532164e-01	-1.0753648136e+00
 1.0626867927e+00	 1.0176608422e+00	-1.1968145810e+00
 1.0404925916e+00	 1.0404925916e+00	-1.3106847608e+00
 1.0176608422e+00	 1.0626867927e+00	-1.4159021137e+00
 9.9420532164e-01	 1.0842307389e+00	-1.5114723242e+00
 9.7014083889e-01	 1.1051128299e+00	-1.5964871830e+00
 9.4548319104e-01	 1.1253226008e+00	-1.6701307671e+00
 9.2024911570e-01	 1.1448507481e+00	-1.7316845354e+00
 1.1564150511e+00	 9.2954468510e-01	-7.2401280141e-01
 1.1366896471e+00	 9.5503365348e-01	-8.6099820331e-01
 1.1162757344e+00	 9.7994037180e-01	-9.9370506428e-01
 1.0951827104e+00	 1.0042479334e+00	-1.1209222665e+00
 1.0734211456e+00	 1.0279403815e+00	-1.2414931175e+00
 1.0510027578e+00	 1.0510027578e+00	-1.3543244876e+00
 1.0279403815e+00	 1.0734211456e+00	-1.4583952799e+00
 1.0042479334e+00	 1.0951827104e+00	-1.5527641064e+00
 9.7994037180e-01	 1.1162757344e+00	-1.6365760555e+00
 9.5503365348e-01	 1.1366896471e+00	-1.7090684535e+00
 9.2954468510e-01	 1.1564150511e+00	-1.7695755444e+00
 8.3658837299e-01	 1.0407712524e+00	-1.2561861161e+00
 8.1314035461e-01	 1.0578970339e+00	-1.3286424023e+00
 7.8920113219e-01	 1.0743894629e+00	-1.4001805037e+00
 7.6478820756e-01	 1.0902433246e+00	-1.4703511111e+00
 7.3991973413e-01	 1.1054545054e+00	-1.5386430995e+00
 7.1461446003e-01	 1.1200199937e+00	-1.6044887973e+00
 6.8889166950e-01	 1.1339378746e+00	-1.6672698458e+00
 6.6277112297e-01	 1.1472073212e+00	-1.7263235445e+00
 6.3627299610e-01	 1.1598285813e+00	-1.7809495732e+00
 6.0941781830e-01	 1.1718029596e+00	-1.8304169785e+00
 5.8222641097e-01	 1.1831327965e+00	-1.8739713126e+00
 8.4588403999e-01	 1.0523356768e+00	-1.3216039728e+00
 8.2217548132e-01	 1.0696517496e+00	-1.3906745263e+00
 7.9797026066e-01	 1.0863274326e+00	-1.4582577378e+00
 7.7328607429e-01	 1.1023574529e+00	-1.5239517908e+00
 7.4814127733e-01	 1.1177376512e+00	-1.5872949274e+00
 7.2255482624e-01	 1.1324649825e+00	-1.6477702852e+00
 6.9654621954e-01	 1.1465375105e+00	-1.7048113224e+00
 6.7013543720e-01	 1.1599543992e+00	-1.7578077321e+00
 6.4334287907e-01	 1.1727158992e+00	-1.8061117414e+00
 6.1618930268e-01	 1.1848233296e+00	-1.8490446898e+00
 5.8869576078e-01	 1.1962790568e+00	-1.8859037781e+00
 8.5517970482e-01	 1.0639000985e+00	-1.3837422331e+00
 8.3121060593e-01	 1.0814064627e+00	-1.4498073033e+00
 8.0673938709e-01	 1.0982653996e+00	-1.5138464559e+00
 7.8178393904e-01	 1.1144715783e+00	-1.5755022929e+00
 7.5636281862e-01	 1.1300207942e+00	-1.6343594789e+00
 7.3049519060e-01	 1.1449099683e+00	-1.6899491665e+00
 7.0420076778e-01	 1.1591371434e+00	-1.7417540035e+00
 6.7749974970e-01	 1.1727014743e+00	-1.7892136307e+00
 6.5041276039e-01	 1.1856032140e+00	-1.8317305706e+00
 6.2296078548e-01	 1.1978436965e+00	-1.8686764056e+00
 5.9516510908e-01	 1.2094253140e+00	-1.8993981446e+00
 8.6447536531e-01	 1.0754645148e+00	-1.4426617864e+00
 8.4024572632e-01	 1.0931611702e+00	-1.5060660375e+00
 8.1550850942e-01	 1.1102033610e+00	-1.5669365909e+00
 7.9028179982e-01	 1.1265856982e+00	-1.6249574393e+00
 7.6458435607e-01	 1.1423039314e+00	-1.6797567678e+00
 7.3843555126e-01	 1.1573549484e+00	-1.7309109879e+00
 7.1185531246e-01	 1.1717367705e+00	-1.7779493441e+00
 6.8486405877e-01	 1.1854485433e+00	-1.8203590091e+00
 6.5748263841e-01	 1.1984905228e+00	-1.8575905737e+00
 6.2973226512e-01	 1.2108640573e+00	-1.8890638349e+00
 6.0163445437e-01	 1.2225715651e+00	-1.9141737849e+00
 8.7377101929e-01	 1.0870289230e+00	-1.4984209182e+00
 8.4928084039e-01	 1.1049158695e+00	-1.5594749429e+00
 8.2427762561e-01	 1.1221413140e+00	-1.6175184912e+00
 7.9877965465e-01	 1.1386998095e+00	-1.6722739614e+00
 7.7280588776e-01	 1.1545870600e+00	-1.7234101985e+00
 7.4637590636e-01	 1.1697999197e+00	-1.7705461535e+00
 7.1950985177e-01	 1.1843363887e+00	-1.8132551072e+00
 6.9222836268e-01	 1.1981956035e+00	-1.8510693773e+00
 6.6455251148e-01	 1.2113778226e+00	-1.8834854204e+00
 6.3650374002e-01	 1.2238844090e+00	-1.9099692392e+00
 6.0810379512e-01	 1.2357178070e+00	-1.9299620008e+00
 8.8306666460e-01	 1.0985933204e+00	-1.5510754471e+00
 8.5831594603e-01	 1.1166705579e+00	-1.6100572016e+00
 8.3304673362e-01	 1.1340792559e+00	-1.6655828981e+00
 8.0727750155e-01	 1.1508139096e+00	-1.7174103994e+00
 7.8102741179e-01	 1.1668701771e+00	-1.7652463874e+00
 7.5431625404e-01	 1.1822448794e+00	-1.8087496688e+00
 7.2716438394e-01	 1.1969359952e+00	-1.8475350319e+00
 6.9959265972e-01	 1.2109426517e+00	-1.8811775794e+00
 6.7162237796e-01	 1.2242651104e+00	-1.9092174551e+00
 6.4327520860e-01	 1.2369047486e+00	-1.9311648776e+00
 6.1457312984e-01	 1.2488640366e+00	-1.9465053952e+00
 8.9236229907e-01	 1.1101577043e+00	-1.6006788533e+00
 8.6735104112e-01	 1.1284252325e+00	-1.6578350165e+00
 8.4181583140e-01	 1.1460171838e+00	-1.7111209262e+00
 8.1577533854e-01	 1.1629279955e+00	-1.7603270079e+00
 7.8924892622e-01	 1.1791532800e+00	-1.8051949955e+00
 7.6225659247e-01	 1.1946898246e+00	-1.8454209011e+00
 7.3481890718e-01	 1.2095355870e+00	-1.8806585217e+00
 7.0695694817e-01	 1.2236896851e+00	-1.9105234117e+00
 6.7869223618e-01	 1.2371523831e+00	-1.9345972451e+00
 6.5004666928e-01	 1.2499250729e+00	-1.9524324857e+00
 6.2104245701e-01	 1.2620102508e+00	-1.9635572833e+00
 9.0165792052e-01	 1.1217220720e+00	-1.6472823985e+00
 8.7638612357e-01	 1.1401798907e+00	-1.7028296623e+00
 8.5058491690e-01	 1.1579550950e+00	-1.7541240433e+00
 8.2427316363e-01	 1.1750420644e+00	-1.8009856676e+00
 7.9747042914e-01	 1.1914363656e+00	-1.8431885713e+00
 7.7019691977e-01	 1.2071347524e+00	-1.8804633545e+00
 7.4247341971e-01	 1.2221351611e+00	-1.9125003527e+00
 7.1432122631e-01	 1.2364367006e+00	-1.9389532639e+00
 6.8576208451e-01	 1.2500396378e+00	-1.9594431570e+00
 6.5681812048e-01	 1.2629453791e+00	-1.9735627873e+00
 6.2751177512e-01	 1.2751564467e+00	-1.9808811407e+00
 9.1095352679e-01	 1.1332864209e+00	-1.6909352399e+00
 8.8542119125e-01	 1.1519345297e+00	-1.7450615322e+00
 8.5935398808e-01	 1.1698929868e+00	-1.7945840526e+00
 8.3277097484e-01	 1.1871561136e+00	-1.8393498020e+00
 8.0569191863e-01	 1.2037194311e+00	-1.8791624038e+00
 7.7813723411e-01	 1.2195796598e+00	-1.9137844588e+00
 7.5012791973e-01	 1.2347347147e+00	-1.9429403993e+00
 7.2168549242e-01	 1.2491836953e+00	-1.9663197826e+00
 6.9283192129e-01	 1.2629268715e+00	-1.9835809579e+00
 6.6358956063e-01	 1.2759656639e+00	-1.9943550354e+00
 6.3398108266e-01	 1.2883026211e+00	-1.9982500846e+00
 9.2024911570e-01	 1.1448507481e+00	-1.7316845354e+00
 8.9445624208e-01	 1.1636891467e+00	-1.7845501829e+00
 8.6812304290e-01	 1.1818308562e+00	-1.8324930757e+00
 8.4126877019e-01	 1.1992701402e+00	-1.8753842997e+00
 8.1391339278e-01	 1.2160024738e+00	-1.9130543833e+00
 7.8607753363e-01	 1.2320245441e+00	-1.9452953713e+00
 7.5778240547e-01	 1.2473342447e+00	-1.9718633768e+00
 7.2904974479e-01	 1.2619306663e+00	-1.9924815556e+00
 6.9990174487e-01	 1.2758140811e+00	-2.0068434424e+00
 6.7036098813e-01	 1.2889859245e+00	-2.0146165816e+00
 6.4045037813e-01	 1.3014487709e+00	-2.0154463870e+00
 9.2954468510e-01	 1.1564150511e+00	-1.7695755444e+00
 9.0349127393e-01	 1.1754437391e+00	-1.8213143762e+00
 8.7689207929e-01	 1.1937687006e+00	-1.8678435365e+00
 8.4976654770e-01	 1.2113841413e+00	-1.9090554409e+00
 8.2213484966e-01	 1.2282854906e+00	-1.9448048720e+00
 7.9401781647e-01	 1.2444694021e+00	-1.9749107901e+00
 7.6543687513e-01	 1.2599337483e+00	-1.9991585989e+00
 7.3641398169e-01	 1.2746776104e+00	-2.0173028145e+00
 7.0697155361e-01	 1.2887012636e+00	-2.0290700805e+00
 6.7713240141e-01	 1.3020061577e+00	-2.0341624713e+00
 6.4691966002e-01	 1.3145948931e+00	-2.0322610169e+00
 5.8222641097e-01	 1.1831327965e+00	-1.8739713126e+00
 5.5472176059e-01	 1.1938207182e+00	-1.9151561813e+00
 5.2692318567e-01	 1.2038718777e+00	-1.9578640986e+00
 4.9885200421e-01	 1.2132915631e+00	-2.0018287592e+00
 4.7052958392e-01	 1.2220859766e+00	-2.0467683022e+00
 4.4197728434e-01	 1.2302621973e+00	-2.0923882851e+00
 4.1321640076e-01	 1.2378281404e+00	-2.1383846412e+00
 3.8426810993e-01	 1.2447925158e+00	-2.1844465869e+00
 3.5515341806e-01	 1.2511647837e+00	-2.2302594437e+00
 3.2589311112e-01	 1.2569551095e+00	-2.2755073477e+00
 2.9650770765e-01	 1.2621743166e+00	-2.3198758200e+00
 5.8869576078e-01	 1.1962790568e+00	-1.8859037781e+00
 5.6088549527e-01	 1.2070857362e+00	-1.9203442307e+00
 5.3277803929e-01	 1.2172485781e+00	-1.9563577059e+00
 5.0439494774e-01	 1.2267729294e+00	-1.9937063258e+00
 4.7575782574e-01	 1.2356650612e+00	-2.0321298483e+00
 4.4688827018e-01	 1.2439321311e+00	-2.0713488839e+00
 4.1780781295e-01	 1.2515821424e+00	-2.1110681530e+00
 3.8853786612e-01	 1.2586239018e+00	-2.1509797371e+00
 3.5909966930e-01	 1.2650669745e+00	-2.1907662846e+00
 3.2951423942e-01	 1.2709216389e+00	-2.2301041329e+00
 2.9980232302e-01	 1.2761988388e+00	-2.2686663145e+00
 5.9516510908e-01	 1.2094253140e+00	-1.8993981446e+00
 5.6704922850e-01	 1.2203507511e+00	-1.9276463073e+00
 5.3863289155e-01	 1.2306252755e+00	-1.9574949327e+00
 5.0993788998e-01	 1.2402542926e+00	-1.9887325570e+00
 4.8098606635e-01	 1.2492441426e+00	-2.0211191237e+00
 4.5179925488e-01	 1.2576020617e+00	-2.0543894223e+00
 4.2239922408e-01	 1.2653361413e+00	-2.0882566158e+00
 3.9280762132e-01	 1.2724552846e+00	-2.1224158067e+00
 3.6304591962e-01	 1.2789691621e+00	-2.1565475911e+00
 3.3313536688e-01	 1.2848881651e+00	-2.1903215576e+00
 3.0309693762e-01	 1.2902233576e+00	-2.2233996895e+00
 6.0163445437e-01	 1.2225715651e+00	-1.9141737849e+00
 5.7321295886e-01	 1.2336157599e+00	-1.9367509280e+00
 5.4448774107e-01	 1.2440019666e+00	-1.9609359358e+00
 5.1548082964e-01	 1.2537356495e+00	-1.9865417585e+00
 4.8621430452e-01	 1.2628232177e+00	-2.0133470909e+00
 4.5671023728e-01	 1.2712719860e+00	-2.0411000104e+00
 4.2699063306e-01	 1.2790901337e+00	-2.0695217493e+00
 3.9707737452e-01	 1.2862866609e+00	-2.0983105444e+00
 3.6699216811e-01	 1.2928713432e+00	-2.1271455066e+00
 3.3675649265e-01	 1.2988546847e+00	-2.1556904608e+00
 3.0639155069e-01	 1.3042478699e+00	-2.1835977069e+00
 6.0810379512e-01	 1.2357178070e+00	-1.9299620008e+00
 5.7937668491e-01	 1.2468807593e+00	-1.9473598518e+00
 5.5034258650e-01	 1.2573786483e+00	-1.9663553210e+00
 5.2102376541e-01	 1.2672169970e+00	-1.9867837854e+00
 4.9144253903e-01	 1.2764022833e+00	-2.0084412551e+00
 4.6162121625e-01	 1.2849419007e+00	-2.0310881890e+00
 4.3158203882e-01	 1.2928441165e+00	-2.0544534867e+00
 4.0134712474e-01	 1.3001180275e+00	-2.0782385921e+00
 3.7093841382e-01	 1.3067735145e+00	-2.1021216468e+00
 3.4037761589e-01	 1.3128211946e+00	-2.1257616351e+00
 3.0968616145e-01	 1.3182723724e+00	-2.1488024692e+00
 6.1457312984e-01	 1.2488640366e+00	-1.9465053952e+00
 5.8554040520e-01	 1.2601457464e+00	-1.9591873827e+00
 5.5619742646e-01	 1.2707553176e+00	-1.9734413827e+00
 5.2656669601e-01	 1.2806983319e+00	-1.9891232239e+00
 4.9667076865e-01	 1.2899813362e+00	-2.0060447939e+00
 4.6653219063e-01	 1.2986118027e+00	-2.0239780119e+00
 4.3617344031e-01	 1.3065980864e+00	-2.0426590157e+00
 4.0561687097e-01	 1.3139493812e+00	-2.0617924906e+00
 3.7488465586e-01	 1.3206756729e+00	-2.0810560748e+00
 3.4399873574e-01	 1.3267876914e+00	-2.1001047769e+00
 3.1298076913e-01	 1.3322968618e+00	-2.1185753483e+00
 6.2104245701e-01	 1.2620102508e+00	-1.9635572833e+00
 5.9170411830e-01	 1.2734107180e+00	-1.9719597167e+00
 5.6205225959e-01	 1.2841319713e+00	-1.9818953912e+00
 5.3210962014e-01	 1.2941796511e+00	-1.9932386240e+00
 5.0189899218e-01	 1.3035603733e+00	-2.0058157408e+00
 4.7144315928e-01	 1.3122816886e+00	-2.0194091862e+00
 4.4076483643e-01	 1.3203520403e+00	-2.0337618805e+00
 4.0988661222e-01	 1.3277807188e+00	-2.0485817474e+00
 3.7883089329e-01	 1.3345778151e+00	-2.0635463407e+00
 3.4761985137e-01	 1.3407541720e+00	-2.0783075014e+00
 3.1627537297e-01	 1.3463213348e+00	-2.0924959825e+00
 6.2751177512e-01	 1.2751564467e+00	-1.9808811407e+00
 5.9786782277e-01	 1.2866756711e+00	-1.9854143284e+00
 5.6790708453e-01	 1.2975086062e+00	-1.9914309234e+00
 5.3765253651e-01	 1.3076609514e+00	-1.9988217795e+00
 5.0712720839e-01	 1.3171393913e+00	-2.0074262197e+00
 4.7635412106e-01	 1.3259515555e+00	-2.0170362649e+00
 4.4535622613e-01	 1.3341059750e+00	-2.0274011378e+00
 4.1415634749e-01	 1.3416120371e+00	-2.0382319619e+00
 3.8277712519e-01	 1.3484799377e+00	-2.0492065801e+00
 3.5124096194e-01	 1.3547206330e+00	-2.0599744193e+00
 3.1956997219e-01	 1.3603457882e+00	-2.0701613346e+00
 6.3398108266e-01	 1.2883026211e+00	-1.9982500846e+00
 6.0403151717e-01	 1.2999406024e+00	-1.9992993956e+00
 5.7376189990e-01	 1.3108852193e+00	-2.0017732352e+00
 5.4319544383e-01	 1.3211422296e+00	-2.0055770525e+00
 5.1235541606e-01	 1.3307183872e+00	-2.0105617256e+00
 4.8126507482e-01	 1.3396214000e+00	-2.0165278899e+00
 4.4994760833e-01	 1.3478598872e+00	-2.0232305660e+00
 4.1842607579e-01	 1.3554433327e+00	-2.0303840046e+00
 3.8672335066e-01	 1.3623820377e+00	-2.0376666676e+00
 3.5486206658e-01	 1.3686870711e+00	-2.0447262695e+00
 3.2286456604e-01	 1.3743702187e+00	-2.0511848083e+00
 6.4045037813e-01	 1.3014487709e+00	-2.0154463870e+00
 6.1019520007e-01	 1.3132055090e+00	-2.0133732588e+00
 5.7961670434e-01	 1.3242618074e+00	-2.0126586711e+00
 5.4873834080e-01	 1.3346234828e+00	-2.0132207382e+00
 5.1758361397e-01	 1.3442973577e+00	-2.0149204495e+00
 4.8617601941e-01	 1.3532912190e+00	-2.0175660801e+00
 4.5453898196e-01	 1.3616137737e+00	-2.0209179214e+00
 4.2269579611e-01	 1.3692746025e+00	-2.0246932456e+00
 3.9066956875e-01	 1.3762841118e+00	-2.0285714221e+00
 3.5848316447e-01	 1.3826534833e+00	-2.0321991045e+00
 3.2615915374e-01	 1.3883946231e+00	-2.0351954171e+00
 6.4691966002e-01	 1.3145948931e+00	-2.0322610169e+00
 6.1635887003e-01	 1.3264703878e+00	-2.0274039127e+00
 5.8547149649e-01	 1.3376383674e+00	-2.0238341105e+00
 5.5428122614e-01	 1.3481047076e+00	-2.0214804687e+00
 5.2281180090e-01	 1.3578762997e+00	-2.0202126433e+00
 4.9108695369e-01	 1.3669610093e+00	-2.0198455627e+00
 4.5913034595e-01	 1.3753676313e+00	-2.0201442392e+00
 4.2696550748e-01	 1.3831058433e+00	-2.0208288298e+00
 3.9461577856e-01	 1.3901861566e+00	-2.0215798594e+00
 3.6210425476e-01	 1.3966198660e+00	-2.0220435249e+00
 3.2945373451e-01	 1.4024189979e+00	-2.0218370048e+00
 2.9650770765e-01	 1.2621743166e+00	-2.3198758200e+00
 2.6701535218e-01	 1.2668341468e+00	-2.3617361549e+00
 2.3743798158e-01	 1.2709462147e+00	-2.3995943211e+00
 2.0779509116e-01	 1.2745230351e+00	-2.4334199334e+00
 1.7810574618e-01	 1.2775775890e+00	-2.4632700330e+00
 1.4838854915e-01	 1.2801232755e+00	-2.4892809525e+00
 1.1866161018e-01	 1.2821738634e+00	-2.5116601261e+00
 8.8942520394e-02	 1.2837434449e+00	-2.5306779495e+00
 5.9248328424e-02	 1.2848463888e+00	-2.5466597829e+00
 2.9595519919e-02	 1.2854972953e+00	-2.5599781747e+00
 0.0000000000e+00	 1.2857109524e+00	-2.5710453765e+00
 2.9980232302e-01	 1.2761988388e+00	-2.2686663145e+00
 2.6998226622e-01	 1.2809104461e+00	-2.3051012286e+00
 2.4007624967e-01	 1.2850682048e+00	-2.3381931198e+00
 2.1010398527e-01	 1.2886847687e+00	-2.3678912909e+00
 1.8008475015e-01	 1.2917732631e+00	-2.3942261963e+00
 1.5003735349e-01	 1.2943472356e+00	-2.4173019978e+00
 1.1998010665e-01	 1.2964206085e+00	-2.4372890596e+00
 8.9930796205e-02	 1.2980076302e+00	-2.4544164798e+00
 5.9906660228e-02	 1.2991228294e+00	-2.4689647447e+00
 2.9924367543e-02	 1.2997809683e+00	-2.4812585787e+00
 0.0000000000e+00	 1.2999969994e+00	-2.4916600546e+00
 3.0309693762e-01	 1.2902233576e+00	-2.2233996895e+00
 2.7294917958e-01	 1.2949867422e+00	-2.2546991794e+00
 2.4271451714e-01	 1.2991901917e+00	-2.2832741352e+00
 2.1241287885e-01	 1.3028464991e+00	-2.3090553333e+00
 1.8206375365e-01	 1.3059689338e+00	-2.3320486193e+00
 1.5168615745e-01	 1.3085711925e+00	-2.3523281264e+00
 1.2129860281e-01	 1.3106673502e+00	-2.3700294287e+00
 9.0919071785e-02	 1.3122718122e+00	-2.3853427170e+00
 6.0564991877e-02	 1.3133992666e+00	-2.3985060798e+00
 3.0253215090e-02	 1.3140646380e+00	-2.4097989552e+00
 0.0000000000e+00	 1.3142830432e+00	-2.4195358151e+00
 3.0639155069e-01	 1.3042478699e+00	-2.1835977069e+00
 2.7591609155e-01	 1.3090630317e+00	-2.2100446665e+00
 2.4535278339e-01	 1.3133121720e+00	-2.2343466660e+00
 2.1472177135e-01	 1.3170082228e+00	-2.2564176841e+00
 1.8404275623e-01	 1.3201645979e+00	-2.2762408741e+00
 1.5333496063e-01	 1.3227951427e+00	-2.2938624174e+00
 1.2261709835e-01	 1.3249140853e+00	-2.3093853071e+00
 9.1907346903e-02	 1.3265359875e+00	-2.3229631441e+00
 6.1223323219e-02	 1.3276756971e+00	-2.3347940189e+00
 3.0582062483e-02	 1.3283483011e+00	-2.3451145434e+00
 0.0000000000e+00	 1.3285690802e+00	-2.3541940875e+00
 3.0968616145e-01	 1.3182723724e+00	-2.1488024692e+00
 2.7888300145e-01	 1.3231393113e+00	-2.1706729923e+00
 2.4799104779e-01	 1.3274341424e+00	-2.1909408820e+00
 2.1703066223e-01	 1.3311699367e+00	-2.2095049946e+00
 1.8602175742e-01	 1.3343602520e+00	-2.2263276488e+00
 1.5498376267e-01	 1.3370190829e+00	-2.2414290869e+00
 1.2393559298e-01	 1.3391608104e+00	-2.2548818638e+00
 9.2895621330e-02	 1.3408001529e+00	-2.2668052370e+00
 6.1881654101e-02	 1.3419521177e+00	-2.2773596265e+00
 3.0910909646e-02	 1.3426319541e+00	-2.2867412039e+00
 0.0000000000e+00	 1.3428551073e+00	-2.2951766597e+00
 3.1298076913e-01	 1.3322968618e+00	-2.1185753483e+00
 2.8184990857e-01	 1.3372155778e+00	-2.1361390154e+00
 2.5062930972e-01	 1.3415560997e+00	-2.1526067258e+00
 2.1933955096e-01	 1.3453316373e+00	-2.1678638375e+00
 1.8800075677e-01	 1.3485558929e+00	-2.1818536354e+00
 1.5663256316e-01	 1.3512430099e+00	-2.1945723755e+00
 1.2525408637e-01	 1.3534075222e+00	-2.2060642523e+00
 9.3883894835e-02	 1.3550643049e+00	-2.2164163594e+00
 6.2539984367e-02	 1.3562285250e+00	-2.2257537045e+00
 3.1239756502e-02	 1.3569155938e+00	-2.2342343328e+00
 0.0000000000e+00	 1.3571411210e+00	-2.2420446062e+00
 3.1627537297e-01	 1.3463213348e+00	-2.0924959825e+00
 2.8481681224e-01	 1.3512918279e+00	-2.1060161323e+00
 2.5326756858e-01	 1.3556780404e+00	-2.1189128830e+00
 2.2164843700e-01	 1.3594933214e+00	-2.1310596689e+00
 1.8997975381e-01	 1.3627515173e+00	-2.1423824885e+00
 1.5828136173e-01	 1.3654669203e+00	-2.1528555054e+00
 1.2657257822e-01	 1.3676542174e+00	-2.1624965701e+00
 9.4872167187e-02	 1.3693284403e+00	-2.1713627275e+00
 6.3198313866e-02	 1.3705049155e+00	-2.1795457639e+00
 3.1568602975e-02	 1.3711992169e+00	-2.1871678445e+00
 0.0000000000e+00	 1.3714271181e+00	-2.1943772833e+00
 3.1956997219e-01	 1.3603457882e+00	-2.0701613346e+00
 2.8778371175e-01	 1.3653680583e+00	-2.0798953219e+00
 2.5590582374e-01	 1.3697999614e+00	-2.0894458162e+00
 2.2395731980e-01	 1.3736549856e+00	-2.0986758557e+00
 1.9195874808e-01	 1.3769471217e+00	-2.1074958478e+00
 1.5993015799e-01	 1.3796908107e+00	-2.1158597018e+00
 1.2789106823e-01	 1.3819008927e+00	-2.1237608820e+00
 9.5860438155e-02	 1.3835925557e+00	-2.1312284377e+00
 6.3856642444e-02	 1.3847812861e+00	-2.1383230610e+00
 3.1897448987e-02	 1.3854828199e+00	-2.1451332174e+00
 0.0000000000e+00	 1.3857130952e+00	-2.1517713874e+00
 3.2286456604e-01	 1.3743702187e+00	-2.0511848083e+00
 2.9075060642e-01	 1.3794442657e+00	-2.0573842481e+00
 2.5854407459e-01	 1.3839218593e+00	-2.0638088578e+00
 2.2626619883e-01	 1.3878166268e+00	-2.0703127611e+00
 1.9393773912e-01	 1.3911427030e+00	-2.0767924201e+00
 1.6157895156e-01	 1.3939146780e+00	-2.0831832748e+00
 1.2920955608e-01	 1.3961475447e+00	-2.0894563037e+00
 9.6848707509e-02	 1.3978566478e+00	-2.0956145546e+00
 6.4514969946e-02	 1.3990576334e+00	-2.1016896912e+00
 3.2226294462e-02	 1.3997663996e+00	-2.1077385971e+00
 0.0000000000e+00	 1.3999990489e+00	-2.1138400696e+00
 3.2615915374e-01	 1.3883946231e+00	-2.0351954171e+00
 2.9371749554e-01	 1.3935204468e+00	-2.0381064175e+00
 2.6118232052e-01	 1.3980437309e+00	-2.0416213578e+00
 2.2857507355e-01	 1.4019782415e+00	-2.0455868864e+00
 1.9591672646e-01	 1.4053382578e+00	-2.0498871176e+00
 1.6322774205e-01	 1.4081385186e+00	-2.0544407558e+00
 1.3052804147e-01	 1.4103941701e+00	-2.0591981401e+00
 9.7836975018e-02	 1.4121207133e+00	-2.0641382538e+00
 6.5173296219e-02	 1.4133339541e+00	-2.0692657393e+00
 3.2555139323e-02	 1.4140499527e+00	-2.0746079553e+00
 0.0000000000e+00	 1.4142849760e+00	-2.0802121053e+00
 3.2945373451e-01	 1.4024189979e+00	-2.0218370048e+00
 2.9668437844e-01	 1.4075965984e+00	-2.0217003869e+00
 2.6382056091e-01	 1.4121655728e+00	-2.0225178833e+00
 2.3088394342e-01	 1.4161398264e+00	-2.0241300640e+00
 1.9789570964e-01	 1.4195337827e+00	-2.0264102476e+00
 1.6487652907e-01	 1.4223623295e+00	-2.0292620873e+00
 1.3184652410e-01	 1.4246407655e+00	-2.0326170765e+00
 9.8825240452e-02	 1.4263847488e+00	-2.0364320165e+00
 6.5831621110e-02	 1.4276102447e+00	-2.0406864793e+00
 3.2883983494e-02	 1.4283334758e+00	-2.0453802979e+00
 0.0000000000e+00	 1.4285708730e+00	-2.0505311121e+00
 1.4285708730e+00	 0.0000000000e+00	 2.2344142637e+00
 1.4283334758e+00	 3.2883983494e-02	 2.2253235425e+00
 1.4276102447e+00	 6.5831621110e-02	 2.2147380575e+00
 1.4263847488e+00	 9.8825240452e-02	 2.2015409239e+00
 1.4246407655e+00	 1.3184652410e-01	 2.1845890671e+00
 1.4223623295e+00	 1.6487652907e-01	 2.1627198497e+00
 1.4195337827e+00	 1.9789570964e-01	 2.1347585861e+00
 1.4161398264e+00	 2.3088394342e-01	 2.0995269478e+00
 1.4121655728e+00	 2.6382056091e-01	 2.0558522472e+00
 1.4075965984e+00	 2.9668437844e-01	 2.0025775741e+00
 1.4024189979e+00	 3.2945373451e-01	 1.9385727395e+00
 1.4428567384e+00	 0.0000000000e+00	 2.2411257611e+00
 1.4426169672e+00	 3.3212826935e-02	 2.2318591020e+00
 1.4418865037e+00	 6.6489944541e-02	 2.2206800512e+00
 1.4406487528e+00	 9.9813503695e-02	 2.2065073886e+00
 1.4388873294e+00	 1.3316500380e-01	 2.1882360487e+00
 1.4365861087e+00	 1.6652531245e-01	 2.1647437110e+00
 1.4337292763e+00	 1.9987468844e-01	 2.1348982544e+00
 1.4303013800e+00	 2.3319280818e-01	 2.0975660749e+00
 1.4262873834e+00	 2.6645879545e-01	 2.0516212541e+00
 1.4216727187e+00	 2.9965125476e-01	 1.9959555512e+00
 1.4164433417e+00	 3.3274830799e-01	 1.9294891712e+00
 1.4571425772e+00	 0.0000000000e+00	 2.2466940975e+00
 1.4569004319e+00	 3.3541669763e-02	 2.2373197447e+00
 1.4561627361e+00	 6.7148266744e-02	 2.2256278622e+00
 1.4549127300e+00	 1.0080176509e-01	 2.2105723077e+00
 1.4531338667e+00	 1.3448348104e-01	 2.1910854064e+00
 1.4508098615e+00	 1.6817409274e-01	 2.1660845071e+00
 1.4479247433e+00	 2.0185366355e-01	 2.1344793781e+00
 1.4444629071e+00	 2.3550166862e-01	 2.0951804400e+00
 1.4404091676e+00	 2.6909702507e-01	 2.0471078225e+00
 1.4357488128e+00	 3.0261812554e-01	 1.9892012144e+00
 1.4304676593e+00	 3.3604287531e-01	 1.9204304607e+00
 1.4714283959e+00	 0.0000000000e+00	 2.2509897171e+00
 1.4711838766e+00	 3.3870512131e-02	 2.2415729758e+00
 1.4704389485e+00	 6.7806588024e-02	 2.2294460403e+00
 1.4691766874e+00	 1.0179002511e-01	 2.2135972780e+00
 1.4673803841e+00	 1.3580195643e-01	 2.1929958062e+00
 1.4650335943e+00	 1.6982287073e-01	 2.1665980152e+00
 1.4621201904e+00	 2.0383263588e-01	 2.1333549079e+00
 1.4586244144e+00	 2.3781052584e-01	 2.0922202506e+00
 1.4545309320e+00	 2.7173525100e-01	 2.0421595204e+00
 1.4498248872e+00	 3.0558499217e-01	 1.9821596175e+00
 1.4444919573e+00	 3.3933743803e-01	 1.9112392936e+00
 1.4857142013e+00	 0.0000000000e+00	 2.2538880564e+00
 1.4854673080e+00	 3.4199354191e-02	 2.2444914059e+00
 1.4847151475e+00	 6.8464908691e-02	 2.2320043543e+00
 1.4834406314e+00	 1.0277828420e-01	 2.2154492292e+00
 1.4816268881e+00	 1.3712043060e-01	 2.1938313597e+00
 1.4792573138e+00	 1.7147164718e-01	 2.1661455692e+00
 1.4763156243e+00	 2.0581160637e-01	 2.1313834601e+00
 1.4727859085e+00	 2.4011938089e-01	 2.0885414851e+00
 1.4686526833e+00	 2.7437347446e-01	 2.0366297887e+00
 1.4639009484e+00	 3.0855185603e-01	 1.9746817837e+00
 1.4585162421e+00	 3.4263199766e-01	 1.9017644164e+00
 1.5000000000e+00	 0.0000000000e+00	 2.2552693072e+00
 1.4997507328e+00	 3.4528196098e-02	 2.2459525083e+00
 1.4989913399e+00	 6.9123229050e-02	 2.2331775442e+00
 1.4977045687e+00	 1.0376654283e-01	 2.2160001702e+00
 1.4958733855e+00	 1.3843890414e-01	 2.1934613653e+00
 1.4934810267e+00	 1.7312042286e-01	 2.1645937957e+00
 1.4905110515e+00	 2.0779057594e-01	 2.1284290470e+00
 1.4869473960e+00	 2.4242823487e-01	 2.0840056187e+00
 1.4827744280e+00	 2.7701169669e-01	 2.0303776614e+00
 1.4779770030e+00	 3.1151871851e-01	 1.9666244221e+00
 1.4725405205e+00	 3.4592655576e-01	 1.8918603476e+00
 1.5142857987e+00	 0.0000000000e+00	 2.2550181921e+00
 1.5140341575e+00	 3.4857038006e-02	 2.2458383898e+00
 1.5132675323e+00	 6.9781549409e-02	 2.2328450865e+00
 1.5119685061e+00	 1.0475480146e-01	 2.2151269496e+00
 1.5101198829e+00	 1.3975737769e-01	 2.1917600633e+00
 1.5077047396e+00	 1.7476919854e-01	 2.1618143641e+00
 1.5047064788e+00	 2.0976954550e-01	 2.1243608229e+00
 1.5011088835e+00	 2.4473708885e-01	 2.0784793643e+00
 1.4968961727e+00	 2.7964991892e-01	 2.0232675029e+00
 1.4920530577e+00	 3.1448558098e-01	 1.9578496592e+00
 1.4865647988e+00	 3.4922111386e-01	 1.8813871065e+00
 1.5285716041e+00	 0.0000000000e+00	 2.2530237537e+00
 1.5283175889e+00	 3.5185880066e-02	 2.2440355751e+00
 1.5275437313e+00	 7.0439870076e-02	 2.2308909740e+00
 1.5262324501e+00	 1.0574306056e-01	 2.2127110307e+00
 1.5243663870e+00	 1.4107585186e-01	 2.1886064063e+00
 1.5219284592e+00	 1.7641797498e-01	 2.1576837522e+00
 1.5189019127e+00	 2.1174851599e-01	 2.1190528442e+00
 1.5152703776e+00	 2.4704594391e-01	 2.0718344282e+00
 1.5110179240e+00	 2.8228814238e-01	 2.0151687583e+00
 1.5061291189e+00	 3.1745244484e-01	 1.9482247866e+00
 1.5005890837e+00	 3.5251567350e-01	 1.8702099559e+00
 1.5428574228e+00	 0.0000000000e+00	 2.2491791548e+00
 1.5426010337e+00	 3.5514722434e-02	 2.2404348022e+00
 1.5418199437e+00	 7.1098191357e-02	 2.2272035068e+00
 1.5404964074e+00	 1.0673132057e-01	 2.2086382775e+00
 1.5386129043e+00	 1.4239432725e-01	 2.1838838404e+00
 1.5361521920e+00	 1.7806675297e-01	 2.1520830232e+00
 1.5330973598e+00	 2.1372748832e-01	 2.1123838425e+00
 1.5294318849e+00	 2.4935480113e-01	 2.0639472791e+00
 1.5251396885e+00	 2.8492636830e-01	 2.0059557191e+00
 1.5202051933e+00	 3.2041931147e-01	 1.9376220219e+00
 1.5146133816e+00	 3.5581023622e-01	 1.8581991597e+00
 1.5571432616e+00	 0.0000000000e+00	 2.2433814899e+00
 1.5568844984e+00	 3.5843565261e-02	 2.2349308299e+00
 1.5560961760e+00	 7.1756513559e-02	 2.2216750950e+00
 1.5547603847e+00	 1.0771958197e-01	 2.2027987537e+00
 1.5528594416e+00	 1.4371280449e-01	 2.1774801004e+00
 1.5503759447e+00	 1.7971553327e-01	 2.1448976163e+00
 1.5472928268e+00	 2.1570646343e-01	 2.1042370110e+00
 1.5435934120e+00	 2.5166366157e-01	 2.0546989300e+00
 1.5392614727e+00	 2.8756459792e-01	 1.9955073013e+00
 1.5342812874e+00	 3.2338618225e-01	 1.9259182829e+00
 1.5286376992e+00	 3.5910480354e-01	 1.8452297540e+00
 1.5714291270e+00	 0.0000000000e+00	 2.2355316070e+00
 1.5711679898e+00	 3.6172408703e-02	 2.2274222555e+00
 1.5703724351e+00	 7.2414836991e-02	 2.2142020725e+00
 1.5690243886e+00	 1.0870784521e-01	 2.1950865320e+00
 1.5671060055e+00	 1.4503128419e-01	 2.1692870147e+00
 1.5645997240e+00	 1.8136431664e-01	 2.1360171476e+00
 1.5614883203e+00	 2.1768544223e-01	 2.0944998016e+00
 1.5577549656e+00	 2.5397252632e-01	 2.0439747323e+00
 1.5533832833e+00	 2.9020283246e-01	 1.9837068351e+00
 1.5483574077e+00	 3.2635305857e-01	 1.9129949745e+00
 1.5426620430e+00	 3.6239937702e-01	 1.8311813303e+00
 1.4024189979e+00	 3.2945373451e-01	 1.9385727395e+00
 1.3966198660e+00	 3.6210425476e-01	 1.8645133120e+00
 1.3901861566e+00	 3.9461577856e-01	 1.7818631184e+00
 1.3831058433e+00	 4.2696550748e-01	 1.6907391054e+00
 1.3753676313e+00	 4.5913034595e-01	 1.5912903010e+00
 1.3669610093e+00	 4.9108695369e-01	 1.4836992570e+00
 1.3578762997e+00	 5.2281180090e-01	 1.3681833054e+00
 1.3481047076e+00	 5.5428122614e-01	 1.2449955983e+00
 1.3376383674e+00	 5.8547149649e-01	 1.1144258959e+00
 1.3264703878e+00	 6.1635887003e-01	 9.7680107213e-01
 1.3145948931e+00	 6.4691966002e-01	 8.3248530657e-01
 1.4164433417e+00	 3.3274830799e-01	 1.9294891712e+00
 1.4105862179e+00	 3.6572533701e-01	 1.8528244568e+00
 1.4040881706e+00	 3.9856197962e-01	 1.7673617331e+00
 1.3969370534e+00	 4.3123520937e-01	 1.6732858321e+00
 1.3891214585e+00	 4.6372169976e-01	 1.5708149230e+00
 1.3806307694e+00	 4.9599787708e-01	 1.4602014633e+00
 1.3714552116e+00	 5.2803997625e-01	 1.3417329202e+00
 1.3615859025e+00	 5.5982409918e-01	 1.2157322336e+00
 1.3510148978e+00	 5.9132627566e-01	 1.0825579924e+00
 1.3397352371e+00	 6.2252252632e-01	 9.4260429772e-01
 1.3277409862e+00	 6.5338892756e-01	 7.9630029154e-01
 1.4304676593e+00	 3.3604287531e-01	 1.9204304607e+00
 1.4245525436e+00	 3.6934641251e-01	 1.8413249138e+00
 1.4179901587e+00	 4.0250817332e-01	 1.7532204524e+00
 1.4107682377e+00	 4.3550490330e-01	 1.6563671728e+00
 1.4028752600e+00	 4.6831304500e-01	 1.5510497006e+00
 1.3943005038e+00	 5.0090879130e-01	 1.4375876652e+00
 1.3850340982e+00	 5.3326814183e-01	 1.3163359019e+00
 1.3750670722e+00	 5.6536696188e-01	 1.1876843564e+00
 1.3643914032e+00	 5.9718104391e-01	 1.0520576673e+00
 1.3530000617e+00	 6.2868617111e-01	 9.0991440906e-01
 1.3408870548e+00	 6.5985818304e-01	 7.6174597610e-01
 1.4444919573e+00	 3.3933743803e-01	 1.9112392936e+00
 1.4385188498e+00	 3.7296748294e-01	 1.8298550773e+00
 1.4318921273e+00	 4.0645436149e-01	 1.7392774200e+00
 1.4245994026e+00	 4.3977459125e-01	 1.6398191323e+00
 1.4166290422e+00	 4.7290438381e-01	 1.5318286837e+00
 1.4079702192e+00	 5.0581969865e-01	 1.4156902153e+00
 1.3986129658e+00	 5.3849630010e-01	 1.2918232376e+00
 1.3885482231e+00	 5.7090981683e-01	 1.1606819943e+00
 1.3777678898e+00	 6.0303580395e-01	 1.0227544699e+00
 1.3662648677e+00	 6.3484980727e-01	 8.7856103077e-01
 1.3540331050e+00	 6.6632742945e-01	 7.2865268647e-01
 1.4585162421e+00	 3.4263199766e-01	 1.9017644164e+00
 1.4524851430e+00	 3.7658854999e-01	 1.8182614909e+00
 1.4457940829e+00	 4.1040054597e-01	 1.7253770155e+00
 1.4384305547e+00	 4.4404427522e-01	 1.6234840334e+00
 1.4303828116e+00	 4.7749571833e-01	 1.5129923156e+00
 1.4216399218e+00	 5.1073060142e-01	 1.3943479246e+00
 1.4121918206e+00	 5.4372445348e-01	 1.2680324254e+00
 1.4020293614e+00	 5.7645266659e-01	 1.1345617232e+00
 1.3911443640e+00	 6.0889055853e-01	 9.9448451589e-01
 1.3795296614e+00	 6.4101343768e-01	 8.4838035096e-01
 1.3671791429e+00	 6.7279666983e-01	 6.9685728535e-01
 1.4725405205e+00	 3.4592655576e-01	 1.8918603476e+00
 1.4664514296e+00	 3.8020961535e-01	 1.8063965544e+00
 1.4596960321e+00	 4.1434672862e-01	 1.7113695573e+00
 1.4522617002e+00	 4.4831395719e-01	 1.6072102163e+00
 1.4441365745e+00	 4.8208705072e-01	 1.4943871281e+00
 1.4353096180e+00	 5.1564150190e-01	 1.3734057553e+00
 1.4257706692e+00	 5.4895260443e-01	 1.2448071644e+00
 1.4155104934e+00	 5.8199551378e-01	 1.1091663553e+00
 1.4045208320e+00	 6.1474531039e-01	 9.6709017458e-01
 1.3927944488e+00	 6.4717706521e-01	 8.1921480872e-01
 1.3803251746e+00	 6.7926590718e-01	 6.6620286063e-01
 1.4865647988e+00	 3.4922111386e-01	 1.8813871065e+00
 1.4804177163e+00	 3.8383068071e-01	 1.7941182481e+00
 1.4735979812e+00	 4.1829291127e-01	 1.6971110228e+00
 1.4660928458e+00	 4.5258363917e-01	 1.5908517548e+00
 1.4578903375e+00	 4.8667838310e-01	 1.4758654551e+00
 1.4489793142e+00	 5.2055240237e-01	 1.3527145306e+00
 1.4393495177e+00	 5.5418075538e-01	 1.2219970626e+00
 1.4289916254e+00	 5.8753836096e-01	 1.0843446448e+00
 1.4178972999e+00	 6.2060006224e-01	 9.4041977428e-01
 1.4060592363e+00	 6.5334069275e-01	 7.9091279928e-01
 1.3934712064e+00	 6.8573514454e-01	 6.3653843178e-01
 1.5005890837e+00	 3.5251567350e-01	 1.8702099559e+00
 1.4943840094e+00	 3.8745174776e-01	 1.7812898722e+00
 1.4874999369e+00	 4.2223909575e-01	 1.6824627842e+00
 1.4799239978e+00	 4.5685332313e-01	 1.5742681885e+00
 1.4716441069e+00	 4.9126971763e-01	 1.4572851616e+00
 1.4626490168e+00	 5.2546330514e-01	 1.3321306614e+00
 1.4529283726e+00	 5.5940890876e-01	 1.1994573610e+00
 1.4424727637e+00	 5.9308121073e-01	 1.0599510107e+00
 1.4312737741e+00	 6.2645481682e-01	 9.1432732374e-01
 1.4193240299e+00	 6.5950432315e-01	 7.6332839576e-01
 1.4066172442e+00	 6.9220438492e-01	 6.0771867267e-01
 1.5146133816e+00	 3.5581023622e-01	 1.8581991597e+00
 1.5083503156e+00	 3.9107281819e-01	 1.7677798006e+00
 1.5014019055e+00	 4.2618528392e-01	 1.6672913589e+00
 1.4937551627e+00	 4.6112301108e-01	 1.5573242702e+00
 1.4853978891e+00	 4.9586105644e-01	 1.4385093875e+00
 1.4763187321e+00	 5.3037421249e-01	 1.3115158871e+00
 1.4665072402e+00	 5.6463706703e-01	 1.1770486725e+00
 1.4559539146e+00	 5.9862406567e-01	 1.0358452746e+00
 1.4446502608e+00	 6.3230957687e-01	 8.8867224932e-01
 1.4325888359e+00	 6.6566795931e-01	 7.3632108637e-01
 1.4197632944e+00	 6.9867363133e-01	 5.7960364987e-01
 1.5286376992e+00	 3.5910480354e-01	 1.8452297540e+00
 1.5223166414e+00	 3.9469389369e-01	 1.7534612487e+00
 1.5153038936e+00	 4.3013147762e-01	 1.6514681738e+00
 1.5075863470e+00	 4.6539270501e-01	 1.5398897269e+00
 1.4991516905e+00	 5.0045240168e-01	 1.4194063062e+00
 1.4899884666e+00	 5.3528512672e-01	 1.2907370321e+00
 1.4800861267e+00	 5.6986523261e-01	 1.1546367359e+00
 1.4694350844e+00	 6.0416692837e-01	 1.0118924126e+00
 1.4580267662e+00	 6.3816434511e-01	 8.6331914652e-01
 1.4458536605e+00	 6.7183160410e-01	 7.0975552606e-01
 1.4329093630e+00	 7.0514288680e-01	 5.5205857531e-01
 1.5426620430e+00	 3.6239937702e-01	 1.8311813303e+00
 1.5362829932e+00	 3.9831497595e-01	 1.7382120537e+00
 1.5292059076e+00	 4.3407767868e-01	 1.6348693423e+00
 1.5214175572e+00	 4.6966240691e-01	 1.5218390339e+00
 1.5129055177e+00	 5.0504375549e-01	 1.3998488955e+00
 1.5036582266e+00	 5.4019605011e-01	 1.2696657742e+00
 1.4936650386e+00	 5.7509340796e-01	 1.1320921830e+00
 1.4829162793e+00	 6.0970980142e-01	 9.8796232167e-01
 1.4714032966e+00	 6.4401912428e-01	 8.3813754522e-01
 1.4591185099e+00	 6.7799526040e-01	 6.8350130178e-01
 1.4460554561e+00	 7.1161215435e-01	 5.2495357248e-01
 1.3145948931e+00	 6.4691966002e-01	 8.3248530657e-01
 1.3020061577e+00	 6.7713240141e-01	 6.8175933024e-01
 1.2887012636e+00	 7.0697155361e-01	 5.2573765412e-01
 1.2746776104e+00	 7.3641398169e-01	 3.6603482386e-01
 1.2599337483e+00	 7.6543687513e-01	 2.0425890775e-01
 1.2444694021e+00	 7.9401781647e-01	 4.1998467344e-02
 1.2282854906e+00	 8.2213484966e-01	-1.1919073882e-01
 1.2113841413e+00	 8.4976654770e-01	-2.7779913561e-01
 1.1937687006e+00	 8.7689207929e-01	-4.3237660261e-01
 1.1754437391e+00	 9.0349127393e-01	-5.8154543642e-01
 1.1564150511e+00	 9.2954468510e-01	-7.2401280141e-01
 1.3277409862e+00	 6.5338892756e-01	 7.9630029154e-01
 1.3150263621e+00	 6.8390379968e-01	 6.4388624085e-01
 1.3015884176e+00	 7.1404134668e-01	 4.8639220486e-01
 1.2874245263e+00	 7.4377820227e-01	 3.2542803326e-01
 1.2725332240e+00	 7.7309132782e-01	 1.6259545879e-01
 1.2569142326e+00	 8.0195808171e-01	-5.2497928872e-04
 1.2405684802e+00	 8.3035628831e-01	-1.6238726197e-01
 1.2234981155e+00	 8.5826430637e-01	-3.2149328346e-01
 1.2057065185e+00	 8.8566109625e-01	-4.7640611573e-01
 1.1871983054e+00	 9.1252628575e-01	-6.2576294395e-01
 1.1679793284e+00	 9.3884023389e-01	-7.6828746976e-01
 1.3408870548e+00	 6.5985818304e-01	 7.6174597610e-01
 1.3280465422e+00	 6.9067518532e-01	 6.0775658668e-01
 1.3144755475e+00	 7.2111112655e-01	 4.4889660735e-01
 1.3001714184e+00	 7.5114240910e-01	 2.8676913676e-01
 1.2851326761e+00	 7.8074576623e-01	 1.2296762472e-01
 1.2693590399e+00	 8.0989833214e-01	-4.0937230032e-02
 1.2528514469e+00	 8.3857771163e-01	-2.0341081623e-01
 1.2356120672e+00	 8.6676204917e-01	-3.6296799555e-01
 1.2176443142e+00	 8.9443009684e-01	-5.1818634180e-01
 1.1989528497e+00	 9.2156128071e-01	-6.6771903239e-01
 1.1795435842e+00	 9.4813576533e-01	-8.1030718906e-01
 1.3540331050e+00	 6.6632742945e-01	 7.2865268647e-01
 1.3410667040e+00	 6.9744656147e-01	 5.7320197379e-01
 1.3273626594e+00	 7.2818089653e-01	 4.1308426948e-01
 1.3129182927e+00	 7.5850660562e-01	 2.4989392337e-01
 1.2977321106e+00	 7.8840019392e-01	 8.5214210048e-02
 1.2818038298e+00	 8.1783857144e-01	-7.9395777989e-02
 1.2651343964e+00	 8.4679912343e-01	-2.4241445593e-01
 1.2477260019e+00	 8.7525978008e-01	-4.0237110514e-01
 1.2295820931e+00	 9.0319908516e-01	-5.5785906863e-01
 1.2107073776e+00	 9.3059626302e-01	-7.0754858197e-01
 1.1911078237e+00	 9.5743128376e-01	-8.5019903665e-01
 1.3671791429e+00	 6.7279666983e-01	 6.9685728535e-01
 1.3540868537e+00	 7.0421793131e-01	 5.4006049546e-01
 1.3402497592e+00	 7.3525065990e-01	 3.7879501696e-01
 1.3256651550e+00	 7.6587079527e-01	 2.1464450820e-01
 1.3103315334e+00	 7.9605461447e-01	 4.9180229274e-02
 1.2942486080e+00	 8.2577880334e-01	-1.1605204879e-01
 1.2774173344e+00	 8.5502052756e-01	-2.7954533881e-01
 1.2598399253e+00	 8.8375750306e-01	-4.3984474982e-01
 1.2415198609e+00	 9.1196806529e-01	-5.9556062098e-01
 1.2224618946e+00	 9.3963123689e-01	-7.4538127563e-01
 1.2026720525e+00	 9.6672679351e-01	-8.8808519281e-01
 1.3803251746e+00	 6.7926590718e-01	 6.6620286063e-01
 1.3671069973e+00	 7.1098929798e-01	 5.0817642316e-01
 1.3531368530e+00	 7.4232041998e-01	 3.4587478759e-01
 1.3384120114e+00	 7.7323498148e-01	 1.8086903111e-01
 1.3229309502e+00	 8.0370903144e-01	 1.4716611078e-02
 1.3066933804e+00	 8.3371903152e-01	-1.5105168962e-01
 1.2897002667e+00	 8.6324192785e-01	-3.1494500686e-01
 1.2719538430e+00	 8.9225522208e-01	-4.7552564283e-01
 1.2534576231e+00	 9.2073704133e-01	-6.3142212087e-01
 1.2342164060e+00	 9.4866620655e-01	-7.8134184671e-01
 1.2142362759e+00	 9.7602229893e-01	-9.2408317414e-01
 1.3934712064e+00	 6.8573514454e-01	 6.3653843178e-01
 1.3801271409e+00	 7.1776066465e-01	 4.7739991514e-01
 1.3660239469e+00	 7.4939018006e-01	 3.1417534294e-01
 1.3511588678e+00	 7.8059916769e-01	 1.4842137251e-01
 1.3355303671e+00	 8.1136344842e-01	-1.8320080722e-02
 1.3191381528e+00	 8.4165925971e-01	-1.8453484191e-01
 1.3019831990e+00	 8.7146332814e-01	-3.4874965141e-01
 1.2840677607e+00	 9.0075294109e-01	-5.0954532910e-01
 1.2653953853e+00	 9.2950601737e-01	-6.6556973311e-01
 1.2459709175e+00	 9.5770117621e-01	-8.1555031260e-01
 1.2258004992e+00	 9.8531780434e-01	-9.5830605372e-01
 1.4066172442e+00	 6.9220438492e-01	 6.0771867267e-01
 1.3931472906e+00	 7.2453203449e-01	 4.4758674139e-01
 1.3789110467e+00	 7.5645994343e-01	 2.8355399621e-01
 1.3639057302e+00	 7.8796335734e-01	 1.1716088503e-01
 1.3481297898e+00	 8.1901786897e-01	-5.0067910573e-02
 1.3315829311e+00	 8.4959949161e-01	-2.1663639871e-01
 1.3142661370e+00	 8.7968473227e-01	-3.8109036322e-01
 1.2961816841e+00	 9.0925066407e-01	-5.4203042687e-01
 1.2773331531e+00	 9.3827499750e-01	-6.9812489713e-01
 1.2577254344e+00	 9.6673615009e-01	-8.4812219523e-01
 1.2373647280e+00	 9.9461331409e-01	-9.9086266896e-01
 1.4197632944e+00	 6.9867363133e-01	 5.7960364987e-01
 1.4061674524e+00	 7.3130341064e-01	 4.1859802378e-01
 1.3917981586e+00	 7.6352971341e-01	 2.5387335515e-01
 1.3766526045e+00	 7.9532755386e-01	 8.6952140162e-02
 1.3607292243e+00	 8.2667229666e-01	-8.0659819927e-02
 1.3440277209e+00	 8.5753973091e-01	-2.4748624772e-01
 1.3265490865e+00	 8.8790614407e-01	-4.1209336875e-01
 1.3082956188e+00	 9.1774839498e-01	-5.7310285592e-01
 1.2892709321e+00	 9.4704398581e-01	-7.2920454588e-01
 1.2694799623e+00	 9.7577113240e-01	-8.7916872940e-01
 1.2489289676e+00	 1.0039088325e+00	-1.0218578178e+00
 1.4329093630e+00	 7.0514288680e-01	 5.5205857531e-01
 1.4191876325e+00	 7.3807479628e-01	 3.9029999067e-01
 1.4046852885e+00	 7.7059949328e-01	 2.2500107925e-01
 1.3893994966e+00	 8.0269176069e-01	 5.7664688822e-02
 1.3733286765e+00	 8.3432673506e-01	-1.1022386228e-01
 1.3564725282e+00	 8.6547998133e-01	-2.7720950098e-01
 1.3388320532e+00	 8.9612756738e-01	-4.4188025337e-01
 1.3204095705e+00	 9.2624613779e-01	-6.0288005319e-01
 1.3012087277e+00	 9.5581298640e-01	-7.5892131266e-01
 1.2812345066e+00	 9.8480612736e-01	-9.0879705953e-01
 1.2604932233e+00	 1.0132043640e+00	-1.0513924442e+00
 1.4460554561e+00	 7.1161215435e-01	 5.2495357248e-01
 1.4322078368e+00	 7.4484619455e-01	 3.6256374475e-01
 1.4175724424e+00	 7.7766928634e-01	 1.9680965011e-01
 1.4021464125e+00	 8.1005598127e-01	 2.9172835027e-02
 1.3859281521e+00	 8.4198118776e-01	-1.3888342541e-01
 1.3689173587e+00	 8.7342024658e-01	-3.0592671198e-01
 1.3511150428e+00	 9.0434900604e-01	-4.7056817238e-01
 1.3325235447e+00	 9.3474389645e-01	-6.3147517662e-01
 1.3131465456e+00	 9.6458200336e-01	-7.8738372667e-01
 1.2929890729e+00	 9.9384113918e-01	-9.3711042575e-01
 1.2720575006e+00	 1.0224999127e+00	-1.0795638136e+00
 1.1564150511e+00	 9.2954468510e-01	-7.2401280141e-01
 1.1366896471e+00	 9.5503365348e-01	-8.6099820331e-01
 1.1162757344e+00	 9.7994037180e-01	-9.9370506428e-01
 1.0951827104e+00	 1.0042479334e+00	-1.1209222665e+00
 1.0734211456e+00	 1.0279403815e+00	-1.2414931175e+00
 1.0510027578e+00	 1.0510027578e+00	-1.3543244876e+00
 1.0279403815e+00	 1.0734211456e+00	-1.4583952799e+00
 1.0042479334e+00	 1.0951827104e+00	-1.5527641064e+00
 9.7994037180e-01	 1.1162757344e+00	-1.6365760555e+00
 9.5503365348e-01	 1.1366896471e+00	-1.7090684535e+00
 9.2954468510e-01	 1.1564150511e+00	-1.7695755444e+00
 1.1679793284e+00	 9.3884023389e-01	-7.6828746976e-01
 1.1480566683e+00	 9.6458409475e-01	-9.0511368787e-01
 1.1274386141e+00	 9.8973988299e-01	-1.0373778544e+00
 1.1061346576e+00	 1.0142905228e+00	-1.1639156029e+00
 1.0841554748e+00	 1.0382198981e+00	-1.2836187143e+00
 1.0615129006e+00	 1.0615129006e+00	-1.3954438894e+00
 1.0382198981e+00	 1.0841554748e+00	-1.4984208365e+00
 1.0142905228e+00	 1.1061346576e+00	-1.5916595512e+00
 9.8973988299e-01	 1.1274386141e+00	-1.6743566809e+00
 9.6458409475e-01	 1.1480566683e+00	-1.7458008829e+00
 9.3884023389e-01	 1.1679793284e+00	-1.8053771041e+00
 1.1795435842e+00	 9.4813576533e-01	-8.1030718906e-01
 1.1594236682e+00	 9.7413451819e-01	-9.4700051730e-01
 1.1386014731e+00	 9.9953937588e-01	-1.0788678326e+00
 1.1170865844e+00	 1.0243330936e+00	-1.2047898826e+00
 1.0948897839e+00	 1.0484993955e+00	-1.3237051589e+00
 1.0720230238e+00	 1.0720230238e+00	-1.4346183175e+00
 1.0484993955e+00	 1.0948897839e+00	-1.5366078975e+00
 1.0243330936e+00	 1.1170865844e+00	-1.6288332217e+00
 9.9953937588e-01	 1.1386014731e+00	-1.7105403747e+00
 9.7413451819e-01	 1.1594236682e+00	-1.7810671734e+00
 9.4813576533e-01	 1.1795435842e+00	-1.8398470658e+00
 1.1911078237e+00	 9.5743128376e-01	-8.5019903665e-01
 1.1707906522e+00	 9.8368492827e-01	-9.8677726896e-01
 1.1497643164e+00	 1.0093388551e+00	-1.1182846210e+00
 1.1280384958e+00	 1.0343756502e+00	-1.2436453562e+00
 1.1056240781e+00	 1.0587788784e+00	-1.3618429540e+00
 1.0825331324e+00	 1.0825331324e+00	-1.4719281925e+00
 1.0587788784e+00	 1.1056240781e+00	-1.5730265126e+00
 1.0343756502e+00	 1.1280384958e+00	-1.6643445539e+00
 1.0093388551e+00	 1.1497643164e+00	-1.7451757623e+00
 9.8368492827e-01	 1.1707906522e+00	-1.8149049916e+00
 9.5743128376e-01	 1.1911078237e+00	-1.8730120372e+00
 1.2026720525e+00	 9.6672679351e-01	-8.8808519281e-01
 1.1821576256e+00	 9.9323532943e-01	-1.0245579502e+00
 1.1609271492e+00	 1.0191383251e+00	-1.1557336167e+00
 1.1389903970e+00	 1.0444181975e+00	-1.2805784091e+00
 1.1163583621e+00	 1.0690583518e+00	-1.3981191119e+00
 1.0930432310e+00	 1.0930432310e+00	-1.5074508330e+00
 1.0690583518e+00	 1.1163583621e+00	-1.6077440287e+00
 1.0444181975e+00	 1.1389903970e+00	-1.6982506887e+00
 1.0191383251e+00	 1.1609271492e+00	-1.7783095903e+00
 9.9323532943e-01	 1.1821576256e+00	-1.8473505468e+00
 9.6672679351e-01	 1.2026720525e+00	-1.9048975936e+00
 1.2142362759e+00	 9.7602229893e-01	-9.2408317414e-01
 1.1935245936e+00	 1.0027857261e+00	-1.0604522161e+00
 1.1720899769e+00	 1.0289377905e+00	-1.1913161923e+00
 1.1499422931e+00	 1.0544607401e+00	-1.3156817463e+00
 1.1270926412e+00	 1.0793378204e+00	-1.4326173215e+00
 1.1035533248e+00	 1.1035533248e+00	-1.5412606036e+00
 1.0793378204e+00	 1.1270926412e+00	-1.6408252182e+00
 1.0544607401e+00	 1.1499422931e+00	-1.7306065815e+00
 1.0289377905e+00	 1.1720899769e+00	-1.8099868156e+00
 1.0027857261e+00	 1.1935245936e+00	-1.8784386602e+00
 9.7602229893e-01	 1.2142362759e+00	-1.9355283280e+00
 1.2258004992e+00	 9.8531780434e-01	-9.5830605372e-01
 1.2048915617e+00	 1.0123361228e+00	-1.0945655750e+00
 1.1832528046e+00	 1.0387372560e+00	-1.2251298865e+00
 1.1608941892e+00	 1.0645032827e+00	-1.3490445655e+00
 1.1378269203e+00	 1.0896172890e+00	-1.4654181050e+00
 1.1140634186e+00	 1.1140634186e+00	-1.5734290537e+00
 1.0896172890e+00	 1.1378269203e+00	-1.6723324008e+00
 1.0645032827e+00	 1.1608941892e+00	-1.7614651057e+00
 1.0387372560e+00	 1.1832528046e+00	-1.8402506906e+00
 1.0123361228e+00	 1.2048915617e+00	-1.9082028310e+00
 9.8531780434e-01	 1.2258004992e+00	-1.9649278969e+00
 1.2373647280e+00	 9.9461331409e-01	-9.9086266896e-01
 1.2162585351e+00	 1.0218865240e+00	-1.1269995826e+00
 1.1944156375e+00	 1.0485367260e+00	-1.2572685831e+00
 1.1718460905e+00	 1.0745458300e+00	-1.3807527219e+00
 1.1485612044e+00	 1.0998967623e+00	-1.4965989663e+00
 1.1245735173e+00	 1.1245735173e+00	-1.6040250503e+00
 1.0998967623e+00	 1.1485612044e+00	-1.7023255586e+00
 1.0745458300e+00	 1.1718460905e+00	-1.7908771501e+00
 1.0485367260e+00	 1.1944156375e+00	-1.8691428427e+00
 1.0218865240e+00	 1.2162585351e+00	-1.9366752980e+00
 9.9461331409e-01	 1.2373647280e+00	-1.9931190647e+00
 1.2489289676e+00	 1.0039088325e+00	-1.0218578178e+00
 1.2276255191e+00	 1.0314369341e+00	-1.1578520248e+00
 1.2055784808e+00	 1.0583362052e+00	-1.2878226807e+00
 1.1827980019e+00	 1.0845883867e+00	-1.4108888826e+00
 1.1592954985e+00	 1.1101762453e+00	-1.5262345308e+00
 1.1350836258e+00	 1.1350836258e+00	-1.6331149016e+00
 1.1101762453e+00	 1.1592954985e+00	-1.7308624441e+00
 1.0845883867e+00	 1.1827980019e+00	-1.8188917110e+00
 1.0583362052e+00	 1.2055784808e+00	-1.8967033499e+00
 1.0314369341e+00	 1.2276255191e+00	-1.9638870984e+00
 1.0039088325e+00	 1.2489289676e+00	-2.0201237450e+00
 1.2604932233e+00	 1.0132043640e+00	-1.0513924442e+00
 1.2389925190e+00	 1.0409873575e+00	-1.1872170910e+00
 1.2167413397e+00	 1.0681356981e+00	-1.3168792526e+00
 1.1937499287e+00	 1.0946309574e+00	-1.4395326733e+00
 1.1700298077e+00	 1.1204557426e+00	-1.5543966774e+00
 1.1455937491e+00	 1.1455937491e+00	-1.6607624748e+00
 1.1204557426e+00	 1.1700298077e+00	-1.7579986829e+00
 1.0946309574e+00	 1.1937499287e+00	-1.8455559789e+00
 1.0681356981e+00	 1.2167413397e+00	-1.9229708119e+00
 1.0409873575e+00	 1.2389925190e+00	-1.9898681230e+00
 1.0132043640e+00	 1.2604932233e+00	-2.0459630400e+00
 1.2720575006e+00	 1.0224999127e+00	-1.0795638136e+00
 1.2503595401e+00	 1.0505377988e+00	-1.2151855379e+00
 1.2279042194e+00	 1.0779352093e+00	-1.3445221980e+00
 1.2047018759e+00	 1.1046735469e+00	-1.4667608166e+00
 1.1807641368e+00	 1.1307352592e+00	-1.5811546640e+00
 1.1561038919e+00	 1.1561038919e+00	-1.6870293075e+00
 1.1307352592e+00	 1.1807641368e+00	-1.7837878708e+00
 1.1046735469e+00	 1.2047018759e+00	-1.8709154214e+00
 1.0779352093e+00	 1.2279042194e+00	-1.9479824175e+00
 1.0505377988e+00	 1.2503595401e+00	-2.0146471685e+00
 1.0224999127e+00	 1.2720575006e+00	-2.0706572774e+00
 9.2954468510e-01	 1.1564150511e+00	-1.7695755444e+00
 9.0349127393e-01	 1.1754437391e+00	-1.8213143762e+00
 8.7689207929e-01	 1.1937687006e+00	-1.8678435365e+00
 8.4976654770e-01	 1.2113841413e+00	-1.9090554409e+00
 8.2213484966e-01	 1.2282854906e+00	-1.9448048720e+00
 7.9401781647e-01	 1.2444694021e+00	-1.9749107901e+00
 7.6543687513e-01	 1.2599337483e+00	-1.9991585989e+00
 7.3641398169e-01	 1.2746776104e+00	-2.0173028145e+00
 7.0697155361e-01	 1.2887012636e+00	-2.0290700805e+00
 6.7713240141e-01	 1.3020061577e+00	-2.0341624713e+00
 6.4691966002e-01	 1.3145948931e+00	-2.0322610169e+00
 9.3884023389e-01	 1.1679793284e+00	-1.8053771041e+00
 9.1252628575e-01	 1.1871983054e+00	-1.8561233667e+00
 8.8566109625e-01	 1.2057065185e+00	-1.9013973786e+00
 8.5826430637e-01	 1.2234981155e+00	-1.9411111246e+00
 8.3035628831e-01	 1.2405684802e+00	-1.9751419112e+00
 8.0195808171e-01	 1.2569142326e+00	-2.0033339285e+00
 7.7309132782e-01	 1.2725332240e+00	-2.0255002402e+00
 7.4377820227e-01	 1.2874245263e+00	-2.0414251572e+00
 7.1404134668e-01	 1.3015884176e+00	-2.0508669431e+00
 6.8390379968e-01	 1.3150263621e+00	-2.0535607948e+00
 6.5338892756e-01	 1.3277409862e+00	-2.0492220416e+00
 9.4813576533e-01	 1.1795435842e+00	-1.8398470658e+00
 9.2156128071e-01	 1.1989528497e+00	-1.8897448398e+00
 8.9443009684e-01	 1.2176443142e+00	-1.9339240910e+00
 8.6676204917e-01	 1.2356120672e+00	-1.9723155880e+00
 8.3857771163e-01	 1.2528514469e+00	-2.0048183371e+00
 8.0989833214e-01	 1.2693590399e+00	-2.0313009009e+00
 7.8074576623e-01	 1.2851326761e+00	-2.0516031222e+00
 7.5114240910e-01	 1.3001714184e+00	-2.0655382087e+00
 7.2111112655e-01	 1.3144755475e+00	-2.0728951355e+00
 6.9067518532e-01	 1.3280465422e+00	-2.0734413119e+00
 6.5985818304e-01	 1.3408870548e+00	-2.0669254604e+00
 9.5743128376e-01	 1.1911078237e+00	-1.8730120372e+00
 9.3059626302e-01	 1.2107073776e+00	-1.9221941635e+00
 9.0319908516e-01	 1.2295820931e+00	-1.9654275113e+00
 8.7525978008e-01	 1.2477260019e+00	-2.0026608535e+00
 8.4679912343e-01	 1.2651343964e+00	-2.0338140783e+00
 8.1783857144e-01	 1.2818038298e+00	-2.0587792728e+00
 7.8840019392e-01	 1.2977321106e+00	-2.0774221865e+00
 7.5850660562e-01	 1.3129182927e+00	-2.0895840361e+00
 7.2818089653e-01	 1.3273626594e+00	-2.0950836117e+00
 6.9744656147e-01	 1.3410667040e+00	-2.0937196368e+00
 6.6632742945e-01	 1.3540331050e+00	-2.0852733337e+00
 9.6672679351e-01	 1.2026720525e+00	-1.9048975936e+00
 9.3963123689e-01	 1.2224618946e+00	-1.9534861058e+00
 9.1196806529e-01	 1.2415198609e+00	-1.9959113208e+00
 8.8375750306e-01	 1.2598399253e+00	-2.0321392417e+00
 8.5502052756e-01	 1.2774173344e+00	-2.0621098275e+00
 8.2577880334e-01	 1.2942486080e+00	-2.0857378490e+00
 7.9605461447e-01	 1.3103315334e+00	-2.1029140994e+00
 7.6587079527e-01	 1.3256651550e+00	-2.1135069268e+00
 7.3525065990e-01	 1.3402497592e+00	-2.1173640508e+00
 7.0421793131e-01	 1.3540868537e+00	-2.1143146220e+00
 6.7279666983e-01	 1.3671791429e+00	-2.1041714817e+00
 9.7602229893e-01	 1.2142362759e+00	-1.9355283280e+00
 9.4866620655e-01	 1.2342164060e+00	-1.9836348637e+00
 9.2073704133e-01	 1.2534576231e+00	-2.0253790523e+00
 8.9225522208e-01	 1.2719538430e+00	-2.0607433578e+00
 8.6324192785e-01	 1.2897002667e+00	-2.0896870047e+00
 8.3371903152e-01	 1.3066933804e+00	-2.1121466146e+00
 8.0370903144e-01	 1.3229309502e+00	-2.1280371704e+00
 7.7323498148e-01	 1.3384120114e+00	-2.1372532833e+00
 7.4232041998e-01	 1.3531368530e+00	-2.1396707268e+00
 7.1098929798e-01	 1.3671069973e+00	-2.1351482040e+00
 6.7926590718e-01	 1.3803251746e+00	-2.1235293056e+00
 9.8531780434e-01	 1.2258004992e+00	-1.9649278969e+00
 9.5770117621e-01	 1.2459709175e+00	-2.0126540907e+00
 9.2950601737e-01	 1.2653953853e+00	-2.0538340976e+00
 9.0075294109e-01	 1.2840677607e+00	-2.0884660778e+00
 8.7146332814e-01	 1.3019831990e+00	-2.1165277233e+00
 8.4165925971e-01	 1.3191381528e+00	-2.1379766800e+00
 8.1136344842e-01	 1.3355303671e+00	-2.1527512748e+00
 7.8059916769e-01	 1.3511588678e+00	-2.1607715229e+00
 7.4939018006e-01	 1.3660239469e+00	-2.1619403872e+00
 7.1776066465e-01	 1.3801271409e+00	-2.1561452580e+00
 6.8573514454e-01	 1.3934712064e+00	-2.1432596183e+00
 9.9461331409e-01	 1.2373647280e+00	-1.9931190647e+00
 9.6673615009e-01	 1.2577254344e+00	-2.0405569218e+00
 9.3827499750e-01	 1.2773331531e+00	-2.0812797136e+00
 9.0925066407e-01	 1.2961816841e+00	-2.1153005368e+00
 8.7968473227e-01	 1.3142661370e+00	-2.1426147576e+00
 8.4959949161e-01	 1.3315829311e+00	-2.1632002278e+00
 8.1901786897e-01	 1.3481297898e+00	-2.1770177803e+00
 7.8796335734e-01	 1.3639057302e+00	-2.1840119843e+00
 7.5645994343e-01	 1.3789110467e+00	-2.1841121365e+00
 7.2453203449e-01	 1.3931472906e+00	-2.1772334608e+00
 6.9220438492e-01	 1.4066172442e+00	-2.1632784852e+00
 1.0039088325e+00	 1.2489289676e+00	-2.0201237450e+00
 9.7577113240e-01	 1.2694799623e+00	-2.0673559981e+00
 9.4704398581e-01	 1.2892709321e+00	-2.1077190293e+00
 9.1774839498e-01	 1.3082956188e+00	-2.1412401164e+00
 8.8790614407e-01	 1.3265490865e+00	-2.1679315128e+00
 8.5753973091e-01	 1.3440277209e+00	-2.1877904639e+00
 8.2667229666e-01	 1.3607292243e+00	-2.2007994784e+00
 7.9532755386e-01	 1.3766526045e+00	-2.2069268382e+00
 7.6352971341e-01	 1.3917981586e+00	-2.2061273280e+00
 7.3130341064e-01	 1.4061674524e+00	-2.1983431610e+00
 6.9867363133e-01	 1.4197632944e+00	-2.1835050742e+00
 1.0132043640e+00	 1.2604932233e+00	-2.0459630400e+00
 9.8480612736e-01	 1.2812345066e+00	-2.0930634894e+00
 9.5581298640e-01	 1.3012087277e+00	-2.1331550515e+00
 9.2624613779e-01	 1.3204095705e+00	-2.1662784341e+00
 8.9612756738e-01	 1.3388320532e+00	-2.1924619958e+00
 8.6547998133e-01	 1.3564725282e+00	-2.2117215703e+00
 8.3432673506e-01	 1.3733286765e+00	-2.2240605192e+00
 8.0269176069e-01	 1.3893994966e+00	-2.2294700040e+00
 7.7059949328e-01	 1.4046852885e+00	-2.2279294606e+00
 7.3807479628e-01	 1.4191876325e+00	-2.2194072568e+00
 7.0514288680e-01	 1.4329093630e+00	-2.2038615127e+00
 1.0224999127e+00	 1.2720575006e+00	-2.0706572774e+00
 9.9384113918e-01	 1.2929890729e+00	-2.1176911161e+00
 9.6458200336e-01	 1.3131465456e+00	-2.1575906708e+00
 9.3474389645e-01	 1.3325235447e+00	-2.1904093324e+00
 9.0434900604e-01	 1.3511150428e+00	-2.2161907885e+00
 8.7342024658e-01	 1.3689173587e+00	-2.2349686611e+00
 8.4198118776e-01	 1.3859281521e+00	-2.2467663496e+00
 8.1005598127e-01	 1.4021464125e+00	-2.2515970700e+00
 7.7766928634e-01	 1.4175724424e+00	-2.2494640809e+00
 7.4484619455e-01	 1.4322078368e+00	-2.2403610800e+00
 7.1161215435e-01	 1.4460554561e+00	-2.2242727540e+00
 6.4691966002e-01	 1.3145948931e+00	-2.0322610169e+00
 6.1635887003e-01	 1.3264703878e+00	-2.0274039127e+00
 5.8547149649e-01	 1.3376383674e+00	-2.0238341105e+00
 5.5428122614e-01	 1.3481047076e+00	-2.0214804687e+00
 5.2281180090e-01	 1.3578762997e+00	-2.0202126433e+00
 4.9108695369e-01	 1.3669610093e+00	-2.0198455627e+00
 4.5913034595e-01	 1.3753676313e+00	-2.0201442392e+00
 4.2696550748e-01	 1.3831058433e+00	-2.0208288298e+00
 3.9461577856e-01	 1.3901861566e+00	-2.0215798594e+00
 3.6210425476e-01	 1.3966198660e+00	-2.0220435249e+00
 3.2945373451e-01	 1.4024189979e+00	-2.0218370048e+00
 6.5338892756e-01	 1.3277409862e+00	-2.0492220416e+00
 6.2252252632e-01	 1.3397352371e+00	-2.0418784799e+00
 5.9132627566e-01	 1.3510148978e+00	-2.0357463659e+00
 5.5982409918e-01	 1.3615859025e+00	-2.0307642566e+00
 5.2803997625e-01	 1.3714552116e+00	-2.0268097306e+00
 4.9599787708e-01	 1.3806307694e+00	-2.0237039152e+00
 4.6372169976e-01	 1.3891214585e+00	-2.0212163648e+00
 4.3123520937e-01	 1.3969370534e+00	-2.0190702012e+00
 3.9856197962e-01	 1.4040881706e+00	-2.0169474258e+00
 3.6572533701e-01	 1.4105862179e+00	-2.0144943221e+00
 3.3274830799e-01	 1.4164433417e+00	-2.0113268679e+00
 6.5985818304e-01	 1.3408870548e+00	-2.0669254604e+00
 6.2868617111e-01	 1.3530000617e+00	-2.0573576535e+00
 5.9718104391e-01	 1.3643914032e+00	-2.0489205729e+00
 5.6536696188e-01	 1.3750670722e+00	-2.0415622902e+00
 5.3326814183e-01	 1.3850340982e+00	-2.0351682556e+00
 5.0090879130e-01	 1.3943005038e+00	-2.0295658704e+00
 4.6831304500e-01	 1.4028752600e+00	-2.0245294254e+00
 4.3550490330e-01	 1.4107682377e+00	-2.0197853111e+00
 4.0250817332e-01	 1.4179901587e+00	-2.0150174115e+00
 3.6934641251e-01	 1.4245525436e+00	-2.0098725941e+00
 3.3604287531e-01	 1.4304676593e+00	-2.0039662167e+00
 6.6632742945e-01	 1.3540331050e+00	-2.0852733337e+00
 6.3484980727e-01	 1.3662648677e+00	-2.0737300711e+00
 6.0303580395e-01	 1.3777678898e+00	-2.0632324047e+00
 5.7090981683e-01	 1.3885482231e+00	-2.0537377274e+00
 5.3849630010e-01	 1.3986129658e+00	-2.0451392974e+00
 5.0581969865e-01	 1.4079702192e+00	-2.0372708505e+00
 4.7290438381e-01	 1.4166290422e+00	-2.0299115900e+00
 4.3977459125e-01	 1.4245994026e+00	-2.0227914604e+00
 4.0645436149e-01	 1.4318921273e+00	-2.0155966126e+00
 3.7296748294e-01	 1.4385188498e+00	-2.0079749732e+00
 3.3933743803e-01	 1.4444919573e+00	-1.9995418359e+00
 6.7279666983e-01	 1.3671791429e+00	-2.1041714817e+00
 6.4101343768e-01	 1.3795296614e+00	-2.0908886460e+00
 6.0889055853e-01	 1.3911443640e+00	-2.0785623094e+00
 5.7645266659e-01	 1.4020293614e+00	-2.0671589828e+00
 5.4372445348e-01	 1.4121918206e+00	-2.0565796570e+00
 5.1073060142e-01	 1.4216399218e+00	-2.0466644477e+00
 4.7749571833e-01	 1.4303828116e+00	-2.0371976311e+00
 4.4404427522e-01	 1.4384305547e+00	-2.0279129717e+00
 4.1040054597e-01	 1.4457940829e+00	-2.0184992513e+00
 3.7658854999e-01	 1.4524851430e+00	-2.0086059087e+00
 3.4263199766e-01	 1.4585162421e+00	-1.9978487065e+00
 6.7926590718e-01	 1.3803251746e+00	-2.1235293056e+00
 6.4717706521e-01	 1.3927944488e+00	-2.1087303645e+00
 6.1474531039e-01	 1.4045208320e+00	-2.0947952831e+00
 5.8199551378e-01	 1.4155104934e+00	-2.0816994777e+00
 5.4895260443e-01	 1.4257706692e+00	-2.0693515843e+00
 5.1564150190e-01	 1.4353096180e+00	-2.0575981308e+00
 4.8208705072e-01	 1.4441365745e+00	-2.0462286099e+00
 4.4831395719e-01	 1.4522617002e+00	-2.0349808546e+00
 4.1434672862e-01	 1.4596960321e+00	-2.0235466222e+00
 3.8020961535e-01	 1.4664514296e+00	-2.0115772953e+00
 3.4592655576e-01	 1.4725405205e+00	-1.9986896159e+00
 6.8573514454e-01	 1.3934712064e+00	-2.1432596183e+00
 6.5334069275e-01	 1.4060592363e+00	-2.1271560936e+00
 6.2060006224e-01	 1.4178972999e+00	-2.1118206551e+00
 5.8753836096e-01	 1.4289916254e+00	-2.0972374034e+00
 5.5418075538e-01	 1.4393495177e+00	-2.0833225214e+00
 5.2055240237e-01	 1.4489793142e+00	-2.0699289677e+00
 4.8667838310e-01	 1.4578903375e+00	-2.0568515801e+00
 4.5258363917e-01	 1.4660928458e+00	-2.0438324909e+00
 4.1829291127e-01	 1.4735979812e+00	-2.0305667585e+00
 3.8383068071e-01	 1.4804177163e+00	-2.0167081211e+00
 3.4922111386e-01	 1.4865647988e+00	-2.0018747892e+00
 6.9220438492e-01	 1.4066172442e+00	-2.1632784852e+00
 6.5950432315e-01	 1.4193240299e+00	-2.1460703993e+00
 6.2645481682e-01	 1.4312737741e+00	-2.1295318854e+00
 5.9308121073e-01	 1.4424727637e+00	-2.1136554987e+00
 5.5940890876e-01	 1.4529283726e+00	-2.0983648601e+00
 5.2546330514e-01	 1.4626490168e+00	-2.0835193641e+00
 4.9126971763e-01	 1.4716441069e+00	-2.0689193074e+00
 4.5685332313e-01	 1.4799239978e+00	-2.0543113362e+00
 4.2223909575e-01	 1.4874999369e+00	-2.0393941174e+00
 3.8745174776e-01	 1.4943840094e+00	-2.0238241370e+00
 3.5251567350e-01	 1.5005890837e+00	-2.0072215417e+00
 6.9867363133e-01	 1.4197632944e+00	-2.1835050742e+00
 6.6566795931e-01	 1.4325888359e+00	-2.1653813762e+00
 6.3230957687e-01	 1.4446502608e+00	-2.1478263739e+00
 5.9862406567e-01	 1.4559539146e+00	-2.1308408397e+00
 5.6463706703e-01	 1.4665072402e+00	-2.1143557124e+00
 5.3037421249e-01	 1.4763187321e+00	-2.0982368161e+00
 4.9586105644e-01	 1.4853978891e+00	-2.0822900054e+00
 4.6112301108e-01	 1.4937551627e+00	-2.0662666393e+00
 4.2618528392e-01	 1.5014019055e+00	-2.0498692828e+00
 3.9107281819e-01	 1.5083503156e+00	-2.0327575428e+00
 3.5581023622e-01	 1.5146133816e+00	-2.0145539507e+00
 7.0514288680e-01	 1.4329093630e+00	-2.2038615127e+00
 6.7183160410e-01	 1.4458536605e+00	-2.1850004850e+00
 6.3816434511e-01	 1.4580267662e+00	-2.1666052797e+00
 6.0416692837e-01	 1.4694350844e+00	-2.1486846402e+00
 5.6986523261e-01	 1.4800861267e+00	-2.1311766945e+00
 5.3528512672e-01	 1.4899884666e+00	-2.1139536768e+00
 5.0045240168e-01	 1.4991516905e+00	-2.0968270858e+00
 4.6539270501e-01	 1.5075863470e+00	-2.0795531760e+00
 4.3013147762e-01	 1.5153038936e+00	-2.0618386837e+00
 3.9469389369e-01	 1.5223166414e+00	-2.0433466918e+00
 3.5910480354e-01	 1.5286376992e+00	-2.0237025453e+00
 7.1161215435e-01	 1.4460554561e+00	-2.2242727540e+00
 6.7799526040e-01	 1.4591185099e+00	-2.2048424002e+00
 6.4401912428e-01	 1.4714032966e+00	-2.1857733499e+00
 6.0970980142e-01	 1.4829162793e+00	-2.1670820646e+00
 5.7509340796e-01	 1.4936650386e+00	-2.1487137217e+00
 5.4019605011e-01	 1.5036582266e+00	-2.1305469359e+00
 5.0504375549e-01	 1.5129055177e+00	-2.1123989219e+00
 4.6966240691e-01	 1.5214175572e+00	-2.0940309981e+00
 4.3407767868e-01	 1.5292059076e+00	-2.0751543290e+00
 3.9831497595e-01	 1.5362829932e+00	-2.0554358111e+00
 3.6239937702e-01	 1.5426620430e+00	-2.0345040133e+00
 3.2945373451e-01	 1.4024189979e+00	-2.0218370048e+00
 2.9668437844e-01	 1.4075965984e+00	-2.0217003869e+00
 2.6382056091e-01	 1.4121655728e+00	-2.0225178833e+00
 2.3088394342e-01	 1.4161398264e+00	-2.0241300640e+00
 1.9789570964e-01	 1.4195337827e+00	-2.0264102476e+00
 1.6487652907e-01	 1.4223623295e+00	-2.0292620873e+00
 1.3184652410e-01	 1.4246407655e+00	-2.0326170765e+00
 9.8825240452e-02	 1.4263847488e+00	-2.0364320165e+00
 6.5831621110e-02	 1.4276102447e+00	-2.0406864793e+00
 3.2883983494e-02	 1.4283334758e+00	-2.0453802979e+00
 0.0000000000e+00	 1.4285708730e+00	-2.0505311121e+00
 3.3274830799e-01	 1.4164433417e+00	-2.0113268679e+00
 2.9965125476e-01	 1.4216727187e+00	-2.0083687809e+00
 2.6645879545e-01	 1.4262873834e+00	-2.0066886598e+00
 2.3319280818e-01	 1.4303013800e+00	-2.0061218328e+00
 1.9987468844e-01	 1.4337292763e+00	-2.0065318574e+00
 1.6652531245e-01	 1.4365861087e+00	-2.0078085436e+00
 1.3316500380e-01	 1.4388873294e+00	-2.0098659003e+00
 9.9813503695e-02	 1.4406487528e+00	-2.0126400369e+00
 6.6489944541e-02	 1.4418865037e+00	-2.0160870524e+00
 3.3212826935e-02	 1.4426169672e+00	-2.0201809401e+00
 0.0000000000e+00	 1.4428567384e+00	-2.0249115296e+00
 3.3604287531e-01	 1.4304676593e+00	-2.0039662167e+00
 3.0261812554e-01	 1.4357488128e+00	-1.9983954069e+00
 2.6909702507e-01	 1.4404091676e+00	-1.9944025373e+00
 2.3550166862e-01	 1.4444629071e+00	-1.9918179803e+00
 2.0185366355e-01	 1.4479247433e+00	-1.9904960569e+00
 1.6817409274e-01	 1.4508098615e+00	-1.9903134752e+00
 1.3448348104e-01	 1.4531338667e+00	-1.9911676924e+00
 1.0080176509e-01	 1.4549127300e+00	-1.9929752288e+00
 6.7148266744e-02	 1.4561627361e+00	-1.9956699609e+00
 3.3541669763e-02	 1.4569004319e+00	-1.9992014172e+00
 0.0000000000e+00	 1.4571425772e+00	-2.0035330966e+00
 3.3933743803e-01	 1.4444919573e+00	-1.9995418359e+00
 3.0558499217e-01	 1.4498248872e+00	-1.9915580944e+00
 2.7173525100e-01	 1.4545309320e+00	-1.9854298629e+00
 2.3781052584e-01	 1.4586244144e+00	-1.9809828185e+00
 2.0383263588e-01	 1.4621201904e+00	-1.9780625399e+00
 1.6982287073e-01	 1.4650335943e+00	-1.9765333383e+00
 1.3580195643e-01	 1.4673803841e+00	-1.9762770125e+00
 1.0179002511e-01	 1.4691766874e+00	-1.9771915534e+00
 6.7806588024e-02	 1.4704389485e+00	-1.9791898181e+00
 3.3870512131e-02	 1.4711838766e+00	-1.9821981959e+00
 0.0000000000e+00	 1.4714283959e+00	-1.9861552829e+00
 3.4263199766e-01	 1.4585162421e+00	-1.9978487065e+00
 3.0855185603e-01	 1.4639009484e+00	-1.9876432146e+00
 2.7437347446e-01	 1.4686526833e+00	-1.9795498134e+00
 2.4011938089e-01	 1.4727859085e+00	-1.9733897214e+00
 2.0581160637e-01	 1.4763156243e+00	-1.9690002398e+00
 1.7147164718e-01	 1.4792573138e+00	-1.9662339537e+00
 1.3712043060e-01	 1.4816268881e+00	-1.9649578590e+00
 1.0277828420e-01	 1.4834406314e+00	-1.9650524340e+00
 6.8464908691e-02	 1.4847151475e+00	-1.9664106746e+00
 3.4199354191e-02	 1.4854673080e+00	-1.9689371094e+00
 0.0000000000e+00	 1.4857142013e+00	-1.9725468096e+00
 3.4592655576e-01	 1.4725405205e+00	-1.9986896159e+00
 3.1151871851e-01	 1.4779770030e+00	-1.9864452727e+00
 2.7701169669e-01	 1.4827744280e+00	-1.9765499741e+00
 2.4242823487e-01	 1.4869473960e+00	-1.9688206933e+00
 2.0779057594e-01	 1.4905110515e+00	-1.9630868902e+00
 1.7312042286e-01	 1.4934810267e+00	-1.9591900616e+00
 1.3843890414e-01	 1.4958733855e+00	-1.9569832187e+00
 1.0376654283e-01	 1.4977045687e+00	-1.9563303044e+00
 6.9123229050e-02	 1.4989913399e+00	-1.9571055684e+00
 3.4528196098e-02	 1.4997507328e+00	-1.9591929107e+00
 0.0000000000e+00	 1.5000000000e+00	-1.9624852080e+00
 3.4922111386e-01	 1.4865647988e+00	-2.0018747892e+00
 3.1448558098e-01	 1.4920530577e+00	-1.9877665249e+00
 2.7964991892e-01	 1.4968961727e+00	-1.9762259430e+00
 2.4473708885e-01	 1.5011088835e+00	-1.9670659618e+00
 2.0976954550e-01	 1.5047064788e+00	-1.9601086091e+00
 1.7476919854e-01	 1.5077047396e+00	-1.9551849000e+00
 1.3975737769e-01	 1.5101198829e+00	-1.9521346433e+00
 1.0475480146e-01	 1.5119685061e+00	-1.9508061847e+00
 6.9781549409e-02	 1.5132675323e+00	-1.9510561010e+00
 3.4857038006e-02	 1.5140341575e+00	-1.9527488521e+00
 0.0000000000e+00	 1.5142857987e+00	-1.9557564044e+00
 3.5251567350e-01	 1.5005890837e+00	-2.0072215417e+00
 3.1745244484e-01	 1.5061291189e+00	-1.9914166159e+00
 2.8228814238e-01	 1.5110179240e+00	-1.9783809554e+00
 2.4704594391e-01	 1.5152703776e+00	-1.9679235934e+00
 2.1174851599e-01	 1.5189019127e+00	-1.9598595078e+00
 1.7641797498e-01	 1.5219284592e+00	-1.9540098079e+00
 1.4107585186e-01	 1.5243663870e+00	-1.9502018486e+00
 1.0574306056e-01	 1.5262324501e+00	-1.9482692796e+00
 7.0439870076e-02	 1.5275437313e+00	-1.9480520374e+00
 3.5185880066e-02	 1.5283175889e+00	-1.9493962880e+00
 0.0000000000e+00	 1.5285716041e+00	-1.9521543276e+00
 3.5581023622e-01	 1.5146133816e+00	-2.0145539507e+00
 3.2041931147e-01	 1.5202051933e+00	-1.9972122365e+00
 2.8492636830e-01	 1.5251396885e+00	-1.9828255311e+00
 2.4935480113e-01	 1.5294318849e+00	-1.9711991303e+00
 2.1372748832e-01	 1.5330973598e+00	-1.9621413200e+00
 1.7806675297e-01	 1.5361521920e+00	-1.9554638499e+00
 1.4239432725e-01	 1.5386129043e+00	-1.9509823370e+00
 1.0673132057e-01	 1.5404964074e+00	-1.9485165992e+00
 7.1098191357e-02	 1.5418199437e+00	-1.9478909276e+00
 3.5514722434e-02	 1.5426010337e+00	-1.9489342994e+00
 0.0000000000e+00	 1.5428574228e+00	-1.9514805381e+00
 3.5910480354e-01	 1.5286376992e+00	-2.0237025453e+00
 3.2338618225e-01	 1.5342812874e+00	-2.0049768012e+00
 2.8756459792e-01	 1.5392614727e+00	-1.9893771396e+00
 2.5166366157e-01	 1.5435934120e+00	-1.9767052479e+00
 2.1570646343e-01	 1.5472928268e+00	-1.9667630526e+00
 1.7971553327e-01	 1.5503759447e+00	-1.9593534625e+00
 1.4371280449e-01	 1.5528594416e+00	-1.9542810398e+00
 1.0771958197e-01	 1.5547603847e+00	-1.9513526014e+00
 7.1756513559e-02	 1.5560961760e+00	-1.9503777501e+00
 3.5843565261e-02	 1.5568844984e+00	-1.9511693399e+00
 0.0000000000e+00	 1.5571432616e+00	-1.9535438782e+00
 3.6239937702e-01	 1.5426620430e+00	-2.0345040133e+00
 3.2635305857e-01	 1.5483574077e+00	-2.0145401415e+00
 2.9020283246e-01	 1.5533832833e+00	-1.9978598846e+00
 2.5397252632e-01	 1.5577549656e+00	-1.9842614303e+00
 2.1768544223e-01	 1.5614883203e+00	-1.9735406552e+00
 1.8136431664e-01	 1.5645997240e+00	-1.9654921179e+00
 1.4503128419e-01	 1.5671060055e+00	-1.9599099798e+00
 1.0870784521e-01	 1.5690243886e+00	-1.9565888530e+00
 7.2414836991e-02	 1.5703724351e+00	-1.9553245734e+00
 3.6172408703e-02	 1.5711679898e+00	-1.9559149000e+00
 0.0000000000e+00	 1.5714291270e+00	-1.9581601409e+00
 1.5714291270e+00	 0.0000000000e+00	 2.2355316070e+00
 1.5711679898e+00	 3.6172408703e-02	 2.2274222555e+00
 1.5703724351e+00	 7.2414836991e-02	 2.2142020725e+00
 1.5690243886e+00	 1.0870784521e-01	 2.1950865320e+00
 1.5671060055e+00	 1.4503128419e-01	 2.1692870147e+00
 1.5645997240e+00	 1.8136431664e-01	 2.1360171476e+00
 1.5614883203e+00	 2.1768544223e-01	 2.0944998016e+00
 1.5577549656e+00	 2.5397252632e-01	 2.0439747323e+00
 1.5533832833e+00	 2.9020283246e-01	 1.9837068351e+00
 1.5483574077e+00	 3.2635305857e-01	 1.9129949745e+00
 1.5426620430e+00	 3.6239937702e-01	 1.8311813303e+00
 1.5857150240e+00	 0.0000000000e+00	 2.2262734137e+00
 1.5854515129e+00	 3.6501252874e-02	 2.2186069310e+00
 1.5846487257e+00	 7.3073161881e-02	 2.2055208094e+00
 1.5832884241e+00	 1.0969611065e-01	 2.1862621665e+00
 1.5813526010e+00	 1.4634976681e-01	 2.1600761871e+00
 1.5788235348e+00	 1.8301310367e-01	 2.1262124422e+00
 1.5756838453e+00	 2.1966442542e-01	 2.0839318443e+00
 1.5719165505e+00	 2.5628139620e-01	 2.0325142205e+00
 1.5675051252e+00	 2.9284107285e-01	 1.9712664761e+00
 1.5624335593e+00	 3.2931994147e-01	 1.8995313028e+00
 1.5566864179e+00	 3.6569395779e-01	 1.8166963764e+00
 1.6000009511e+00	 0.0000000000e+00	 2.2162658206e+00
 1.5997350659e+00	 3.6830097735e-02	 2.2091963424e+00
 1.5989250463e+00	 7.3731488155e-02	 2.1963804985e+00
 1.5975524896e+00	 1.1068437816e-01	 2.1770987439e+00
 1.5955992264e+00	 1.4766825221e-01	 2.1506319438e+00
 1.5930473755e+00	 1.8466189416e-01	 2.1162676744e+00
 1.5898794000e+00	 2.2164341276e-01	 2.0733071350e+00
 1.5860781652e+00	 2.5859027092e-01	 2.0210726526e+00
 1.5816269967e+00	 2.9547931878e-01	 1.9589157481e+00
 1.5765097404e+00	 3.3228683060e-01	 1.8862257182e+00
 1.5707108222e+00	 3.6898854549e-01	 1.8024386752e+00
 1.6142869048e+00	 0.0000000000e+00	 2.2054368536e+00
 1.6140186456e+00	 3.7158943210e-02	 2.1991143851e+00
 1.6132013936e+00	 7.4389815656e-02	 2.1867017083e+00
 1.6118165817e+00	 1.1167264751e-01	 2.1675142679e+00
 1.6098458784e+00	 1.4898674006e-01	 2.1408704412e+00
 1.6072712427e+00	 1.8631068772e-01	 2.1060978212e+00
 1.6040749813e+00	 2.2362240379e-01	 2.0625400863e+00
 1.6002398064e+00	 2.6089914995e-01	 2.0095644340e+00
 1.5957488947e+00	 2.9811756963e-01	 1.9465695450e+00
 1.5905859478e+00	 3.3525372526e-01	 1.8729940323e+00
 1.5847352527e+00	 3.7228313933e-01	 1.7883253143e+00
 1.6285728819e+00	 0.0000000000e+00	 2.1937170602e+00
 1.6283022487e+00	 3.7487789222e-02	 2.1882876217e+00
 1.6274777642e+00	 7.5048144234e-02	 2.1764077915e+00
 1.6260806971e+00	 1.1266091848e-01	 2.1574296170e+00
 1.6240925536e+00	 1.5030523007e-01	 2.1307107754e+00
 1.6214951332e+00	 1.8795948398e-01	 2.0956208413e+00
 1.6182705858e+00	 2.2560139806e-01	 2.0515481130e+00
 1.6144014706e+00	 2.6320803275e-01	 1.9979069728e+00
 1.6098708156e+00	 3.0075582480e-01	 1.9341457462e+00
 1.6046621782e+00	 3.3822062478e-01	 1.8597550102e+00
 1.5987597061e+00	 3.7557773856e-01	 1.7742762909e+00
 1.6428588790e+00	 0.0000000000e+00	 2.1810393998e+00
 1.6425858717e+00	 3.7816635694e-02	 2.1766451658e+00
 1.6417541548e+00	 7.5706473732e-02	 2.1654247640e+00
 1.6403448325e+00	 1.1364919083e-01	 2.1467684193e+00
 1.6383392488e+00	 1.5162372192e-01	 2.1200748548e+00
 1.6357190435e+00	 1.8960828255e-01	 2.0847575455e+00
 1.6324662101e+00	 2.2758039510e-01	 2.0402515007e+00
 1.6285631547e+00	 2.6551691879e-01	 1.9860205490e+00
 1.6239927564e+00	 3.0339408365e-01	 1.9215650871e+00
 1.6187384282e+00	 3.4118752844e-01	 1.8464302424e+00
 1.6127841791e+00	 3.7887234240e-01	 1.7602143850e+00
 1.6571448927e+00	 0.0000000000e+00	 2.1673391398e+00
 1.6568695114e+00	 3.8145482550e-02	 2.1641185722e+00
 1.6560305621e+00	 7.6364803998e-02	 2.1536811901e+00
 1.6546089846e+00	 1.1463746433e-01	 2.1354569340e+00
 1.6525859606e+00	 1.5294221531e-01	 2.1088872785e+00
 1.6499429705e+00	 1.9125708305e-01	 2.0734314737e+00
 1.6466618510e+00	 2.2955939445e-01	 2.0285732830e+00
 1.6427248553e+00	 2.6782580751e-01	 1.9738281905e+00
 1.6381147136e+00	 3.0603234559e-01	 1.9087510358e+00
 1.6328146948e+00	 3.4415443557e-01	 1.8329440231e+00
 1.6268086685e+00	 3.8216695008e-01	 1.7460650394e+00
 1.6714309198e+00	 0.0000000000e+00	 2.1525537568e+00
 1.6711531645e+00	 3.8474329713e-02	 2.1506417321e+00
 1.6703069826e+00	 7.7023134879e-02	 2.1411080733e+00
 1.6688731499e+00	 1.1562573876e-01	 2.1234239388e+00
 1.6668326858e+00	 1.5426070993e-01	 2.0970752215e+00
 1.6641669108e+00	 1.9290588508e-01	 2.0615687782e+00
 1.6608575052e+00	 2.3153839564e-01	 2.0164391232e+00
 1.6568865692e+00	 2.7013469840e-01	 1.9612555559e+00
 1.6522366840e+00	 3.0867060998e-01	 1.8956296761e+00
 1.6468909744e+00	 3.4712134546e-01	 1.8192232342e+00
 1.6408331710e+00	 3.8546156084e-01	 1.7317562458e+00
 1.6857169568e+00	 0.0000000000e+00	 2.1366228426e+00
 1.6854368275e+00	 3.8803177105e-02	 2.1361507741e+00
 1.6845834132e+00	 7.7681466220e-02	 2.1276387530e+00
 1.6831373252e+00	 1.1661401388e-01	 2.1106006234e+00
 1.6810794208e+00	 1.5557920547e-01	 2.0845683251e+00
 1.6783908610e+00	 1.9455468826e-01	 2.0490981124e+00
 1.6750531693e+00	 2.3351739822e-01	 2.0037772032e+00
 1.6710482929e+00	 2.7244359090e-01	 1.9482308226e+00
 1.6663586643e+00	 3.1130887623e-01	 1.8821295969e+00
 1.6609672639e+00	 3.5008825743e-01	 1.8051972359e+00
 1.6548576833e+00	 3.8875617391e-01	 1.7172184369e+00
 1.7000030006e+00	 0.0000000000e+00	 2.1194880154e+00
 1.6997204972e+00	 3.9132024651e-02	 2.1205839703e+00
 1.6988598504e+00	 7.8339797868e-02	 2.1132088061e+00
 1.6974015072e+00	 1.1760228946e-01	 2.0969204873e+00
 1.6953261626e+00	 1.5689770163e-01	 2.0712985932e+00
 1.6926148178e+00	 1.9620349222e-01	 2.0359505266e+00
 1.6892488400e+00	 2.3549640172e-01	 1.9905181173e+00
 1.6852100233e+00	 2.7475248447e-01	 1.9346845814e+00
 1.6804806512e+00	 3.1394714370e-01	 1.8681817865e+00
 1.6750435600e+00	 3.5305517079e-01	 1.7907977623e+00
 1.6688822022e+00	 3.9205078851e-01	 1.7023843836e+00
 1.7142890476e+00	 0.0000000000e+00	 2.1010928355e+00
 1.7140041702e+00	 3.9460872273e-02	 2.1038816465e+00
 1.7131362910e+00	 7.8998129670e-02	 2.0977559537e+00
 1.7116656925e+00	 1.1859056526e-01	 2.0823192444e+00
 1.7095729076e+00	 1.5821619810e-01	 2.0572002943e+00
 1.7068387780e+00	 1.9785229655e-01	 2.0220593671e+00
 1.7034445140e+00	 2.3747540569e-01	 1.9765947720e+00
 1.6993717569e+00	 2.7706137859e-01	 1.9205497351e+00
 1.6946026414e+00	 3.1658541179e-01	 1.8537195327e+00
 1.6891198593e+00	 3.5602208484e-01	 1.7759588227e+00
 1.6829067243e+00	 3.9534540388e-01	 1.6871890976e+00
 1.5426620430e+00	 3.6239937702e-01	 1.8311813303e+00
 1.5362829932e+00	 3.9831497595e-01	 1.7382120537e+00
 1.5292059076e+00	 4.3407767868e-01	 1.6348693423e+00
 1.5214175572e+00	 4.6966240691e-01	 1.5218390339e+00
 1.5129055177e+00	 5.0504375549e-01	 1.3998488955e+00
 1.5036582266e+00	 5.4019605011e-01	 1.2696657742e+00
 1.4936650386e+00	 5.7509340796e-01	 1.1320921830e+00
 1.4829162793e+00	 6.0970980142e-01	 9.8796232167e-01
 1.4714032966e+00	 6.4401912428e-01	 8.3813754522e-01
 1.4591185099e+00	 6.7799526040e-01	 6.8350130178e-01
 1.4460554561e+00	 7.1161215435e-01	 5.2495357248e-01
 1.5566864179e+00	 3.6569395779e-01	 1.8166963764e+00
 1.5502493760e+00	 4.0193606623e-01	 1.7226357292e+00
 1.5431079524e+00	 4.3802388849e-01	 1.6180576505e+00
 1.5352487979e+00	 4.7393211827e-01	 1.5036928410e+00
 1.5266593753e+00	 5.0963511948e-01	 1.3803145824e+00
 1.5173280169e+00	 5.4510698439e-01	 1.2487355256e+00
 1.5072439807e+00	 5.8032159489e-01	 1.1098038807e+00
 1.4963975041e+00	 6.1525268675e-01	 9.6439901616e-01
 1.4847798566e+00	 6.4987391643e-01	 8.1342648107e-01
 1.4723833886e+00	 6.8415893035e-01	 6.5781247809e-01
 1.4592015783e+00	 7.1808143623e-01	 4.9849782454e-01
 1.5707108222e+00	 3.6898854549e-01	 1.8024386752e+00
 1.5642157881e+00	 4.0555716412e-01	 1.7073590942e+00
 1.5570100265e+00	 4.4197010658e-01	 1.6016209785e+00
 1.5490800678e+00	 4.7820183860e-01	 1.4859984455e+00
 1.5404132618e+00	 5.1422649311e-01	 1.3613087471e+00
 1.5309978360e+00	 5.5001792898e-01	 1.2284086961e+00
 1.5208229512e+00	 5.8554979280e-01	 1.0881904653e+00
 1.5098787572e+00	 6.2079558372e-01	 9.4157676903e-01
 1.4981564447e+00	 6.5572872087e-01	 7.8951544592e-01
 1.4856482952e+00	 6.9032261325e-01	 6.3297347388e-01
 1.4723477282e+00	 7.2455073170e-01	 4.7293046160e-01
 1.5847352527e+00	 3.7228313933e-01	 1.7883253143e+00
 1.5781822263e+00	 4.0917826877e-01	 1.6923005109e+00
 1.5709121264e+00	 4.4591633204e-01	 1.5854786689e+00
 1.5629113634e+00	 4.8247156690e-01	 1.4686759077e+00
 1.5541671740e+00	 5.1881787531e-01	 1.3427519380e+00
 1.5446676805e+00	 5.5492888273e-01	 1.2086061280e+00
 1.5344019471e+00	 5.9077800047e-01	 1.0671729158e+00
 1.5233600355e+00	 6.2633849104e-01	 9.1941657806e-01
 1.5115330578e+00	 6.6158353624e-01	 7.6632537857e-01
 1.4989132266e+00	 6.9648630766e-01	 6.0890513340e-01
 1.4854939025e+00	 7.3102003925e-01	 4.4817224111e-01
 1.5987597061e+00	 3.7557773856e-01	 1.7742762909e+00
 1.5921486873e+00	 4.1279937933e-01	 1.6773812064e+00
 1.5848142491e+00	 4.4986256395e-01	 1.5695528951e+00
 1.5767426816e+00	 4.8674130217e-01	 1.4516480940e+00
 1.5679211087e+00	 5.2340926501e-01	 1.3245674926e+00
 1.5583375473e+00	 5.5983984451e-01	 1.1892514427e+00
 1.5479809651e+00	 5.9600621668e-01	 1.0466749862e+00
 1.5368413358e+00	 6.3188140741e-01	 8.9784221545e-01
 1.5249096927e+00	 6.6743836118e-01	 7.4377999465e-01
 1.5121781796e+00	 7.0265001213e-01	 5.8553108136e-01
 1.4986400984e+00	 7.3748935736e-01	 4.2414670437e-01
 1.6127841791e+00	 3.7887234240e-01	 1.7602143850e+00
 1.6061151678e+00	 4.1642049496e-01	 1.6625251483e+00
 1.5987163913e+00	 4.5380880138e-01	 1.5537685384e+00
 1.5905740192e+00	 4.9101104342e-01	 1.4348405545e+00
 1.5816750626e+00	 5.2800066113e-01	 1.3066814166e+00
 1.5720074333e+00	 5.6475081316e-01	 1.1702709204e+00
 1.5615600022e+00	 6.0123444021e-01	 1.0266230845e+00
 1.5503226549e+00	 6.3742433155e-01	 8.7678010722e-01
 1.5382863464e+00	 6.7329319431e-01	 7.2180566585e-01
 1.5254431512e+00	 7.0881372523e-01	 5.6277760204e-01
 1.5117863127e+00	 7.4395868453e-01	 4.0078005547e-01
 1.6268086685e+00	 3.8216695008e-01	 1.7460650394e+00
 1.6200816647e+00	 4.2004161482e-01	 1.6476589261e+00
 1.6126185497e+00	 4.5775504342e-01	 1.5380530711e+00
 1.6044053729e+00	 4.9528078965e-01	 1.4181814079e+00
 1.5954290326e+00	 5.3259206262e-01	 1.2890222685e+00
 1.5856773353e+00	 5.6966178755e-01	 1.1515933847e+00
 1.5751390551e+00	 6.0646266984e-01	 1.0069461583e+00
 1.5638039898e+00	 6.4296726214e-01	 8.5615921871e-01
 1.5516630156e+00	 6.7914803427e-01	 7.0033130542e-01
 1.5387081383e+00	 7.1497744552e-01	 5.4057352460e-01
 1.5249325422e+00	 7.5042801924e-01	 3.7800104647e-01
 1.6408331710e+00	 3.8546156084e-01	 1.7317562458e+00
 1.6340481746e+00	 4.2366273805e-01	 1.6327116398e+00
 1.6265207210e+00	 4.6170128914e-01	 1.5223364456e+00
 1.6182367396e+00	 4.9955053987e-01	 1.4016012312e+00
 1.6091830154e+00	 5.3718346838e-01	 1.2715210504e+00
 1.5993472500e+00	 5.7457276651e-01	 1.1331500943e+00
 1.5887181207e+00	 6.1169090434e-01	 9.8757558638e-01
 1.5772853373e+00	 6.4851019792e-01	 8.3591094606e-01
 1.5650396974e+00	 6.8500287970e-01	 6.7928825950e-01
 1.5519731378e+00	 7.2114117157e-01	 5.1885011429e-01
 1.5380787841e+00	 7.5689736000e-01	 3.5574086848e-01
 1.6548576833e+00	 3.8875617391e-01	 1.7172184369e+00
 1.6480146942e+00	 4.2728386382e-01	 1.6176147926e+00
 1.6404229021e+00	 4.6564753762e-01	 1.5065509894e+00
 1.6320681159e+00	 5.0382029307e-01	 1.3850329555e+00
 1.6229370078e+00	 5.4177487737e-01	 1.2541111047e+00
 1.6130171742e+00	 5.7948374892e-01	 1.1148746395e+00
 1.6022971957e+00	 6.1691914251e-01	 9.6844507550e-01
 1.5907666942e+00	 6.5405313757e-01	 8.1596901316e-01
 1.5784163885e+00	 6.9085772922e-01	 6.5861020400e-01
 1.5652381465e+00	 7.2730490193e-01	 4.9754096921e-01
 1.5512250352e+00	 7.6336670528e-01	 3.3393304828e-01
 1.6688822022e+00	 3.9205078851e-01	 1.7023843836e+00
 1.6619812204e+00	 4.3090499129e-01	 1.6023021907e+00
 1.6543250897e+00	 4.6959378794e-01	 1.4906313054e+00
 1.6458994987e+00	 5.0809004827e-01	 1.3684117673e+00
 1.6366910066e+00	 5.4636628849e-01	 1.2367280153e+00
 1.6266871049e+00	 5.8439473362e-01	 1.0967028447e+00
 1.6158762772e+00	 6.2214738312e-01	 9.4949056253e-01
 1.6042480574e+00	 6.5959607981e-01	 7.9626937378e-01
 1.5917930858e+00	 6.9671258148e-01	 6.3823304666e-01
 1.5785031615e+00	 7.3346863516e-01	 4.7658192219e-01
 1.5643712924e+00	 7.6983605359e-01	 3.1251335015e-01
 1.6829067243e+00	 3.9534540388e-01	 1.6871890976e+00
 1.6759477498e+00	 4.3452611959e-01	 1.5867098465e+00
 1.6682272805e+00	 4.7354003919e-01	 1.4745141767e+00
 1.6597308847e+00	 5.1235980447e-01	 1.3516750143e+00
 1.6504450087e+00	 5.5095770069e-01	 1.2193095147e+00
 1.6403570387e+00	 5.8930571946e-01	 1.0785726745e+00
 1.6294553618e+00	 6.2737562495e-01	 9.3065012152e-01
 1.6177294238e+00	 6.6513902335e-01	 7.7675011863e-01
 1.6051697863e+00	 7.0256743511e-01	 6.1809483400e-01
 1.5917681795e+00	 7.3963236984e-01	 4.5591094772e-01
 1.5775175527e+00	 7.7630540340e-01	 2.9141968257e-01
 1.4460554561e+00	 7.1161215435e-01	 5.2495357248e-01
 1.4322078368e+00	 7.4484619455e-01	 3.6256374475e-01
 1.4175724424e+00	 7.7766928634e-01	 1.9680965011e-01
 1.4021464125e+00	 8.1005598127e-01	 2.9172835027e-02
 1.3859281521e+00	 8.4198118776e-01	-1.3888342541e-01
 1.3689173587e+00	 8.7342024658e-01	-3.0592671198e-01
 1.3511150428e+00	 9.0434900604e-01	-4.7056817238e-01
 1.3325235447e+00	 9.3474389645e-01	-6.3147517662e-01
 1.3131465456e+00	 9.6458200336e-01	-7.8738372667e-01
 1.2929890729e+00	 9.9384113918e-01	-9.3711042575e-01
 1.2720575006e+00	 1.0224999127e+00	-1.0795638136e+00
 1.4592015783e+00	 7.1808143623e-01	 4.9849782454e-01
 1.4452280701e+00	 7.5161760783e-01	 3.3555372043e-01
 1.4304596250e+00	 7.8473909508e-01	 1.6941915562e-01
 1.4148933566e+00	 8.1742021817e-01	 1.5530971797e-03
 1.3985276557e+00	 8.4963565742e-01	-1.6660440730e-01
 1.3813622168e+00	 8.8136052942e-01	-3.3364466746e-01
 1.3633980596e+00	 9.1257046292e-01	-4.9820290362e-01
 1.3446375458e+00	 9.4324167396e-01	-6.5897073557e-01
 1.3250843900e+00	 9.7335103976e-01	-8.1470841824e-01
 1.3047436653e+00	 1.0028761710e+00	-9.6425663225e-01
 1.2836218036e+00	 1.0317954821e+00	-1.1065476377e+00
 1.4723477282e+00	 7.2455073170e-01	 4.7293046160e-01
 1.4582483306e+00	 7.5838903533e-01	 3.0946374544e-01
 1.4433468346e+00	 7.9180891867e-01	 1.4297853221e-01
 1.4276403275e+00	 8.2478447054e-01	-2.5089705869e-02
 1.4111271858e+00	 8.5729014315e-01	-1.9332496894e-01
 1.3938071010e+00	 8.8930082894e-01	-3.6034300812e-01
 1.3756811022e+00	 9.2079193707e-01	-5.2480370983e-01
 1.3567515724e+00	 9.5173946931e-01	-6.8542340720e-01
 1.3370222595e+00	 9.8212009457e-01	-8.4098693254e-01
 1.3164982823e+00	 1.0119112219e+00	-9.9035922102e-01
 1.2951861308e+00	 1.0410910711e+00	-1.1324962767e+00
 1.4854939025e+00	 7.3102003925e-01	 4.4817224111e-01
 1.4712686155e+00	 7.6516047548e-01	 2.8421469621e-01
 1.4562340682e+00	 7.9887875545e-01	 1.1740916647e-01
 1.4403873222e+00	 8.3214873665e-01	-5.0833262080e-02
 1.4237267393e+00	 8.6494464318e-01	-2.1912143526e-01
 1.4062520084e+00	 8.9724114327e-01	-3.8609623810e-01
 1.3879641678e+00	 9.2901342656e-01	-5.5044279853e-01
 1.3688656215e+00	 9.6023728052e-01	-7.1090261111e-01
 1.3489601512e+00	 9.9088916575e-01	-8.6628539696e-01
 1.3282529213e+00	 1.0209462895e+00	-1.0154805128e+00
 1.3067504797e+00	 1.0503866773e+00	-1.1574677230e+00
 1.4986400984e+00	 7.3748935736e-01	 4.2414670437e-01
 1.4842889216e+00	 7.7193192668e-01	 2.5973022917e-01
 1.4691213229e+00	 8.0594860378e-01	 9.2635207409e-02
 1.4531343378e+00	 8.3951301479e-01	-7.5752529158e-02
 1.4363263135e+00	 8.7259915570e-01	-2.4406744850e-01
 1.4186969362e+00	 9.0518147058e-01	-4.1097624240e-01
 1.4002472534e+00	 9.3723492948e-01	-5.7518983842e-01
 1.3809796905e+00	 9.6873510561e-01	-7.3547532560e-01
 1.3608980624e+00	 9.9965825125e-01	-8.9066761286e-01
 1.3400075795e+00	 1.0299813720e+00	-1.0396806358e+00
 1.3183148474e+00	 1.0596822988e+00	-1.1815179281e+00
 1.5117863127e+00	 7.4395868453e-01	 4.0078005547e-01
 1.4973092460e+00	 7.7870338736e-01	 2.3593665983e-01
 1.4820085956e+00	 8.1301846200e-01	 6.8583446315e-02
 1.4658813711e+00	 8.4687730324e-01	-9.9919853277e-02
 1.4489259052e+00	 8.8025367894e-01	-2.6823408477e-01
 1.4311418814e+00	 9.1312180900e-01	-4.3505240077e-01
 1.4125303562e+00	 9.4545644391e-01	-5.9911206976e-01
 1.3930937764e+00	 9.7723294260e-01	-7.5920619386e-01
 1.3728359904e+00	 1.0084273490e+00	-9.1419515675e-01
 1.3517622541e+00	 1.0390164671e+00	-1.0630176206e+00
 1.3298792313e+00	 1.0689779332e+00	-1.2047008913e+00
 1.5249325422e+00	 7.5042801924e-01	 3.7800104647e-01
 1.5103295855e+00	 7.8547485594e-01	 2.1276284819e-01
 1.4948958834e+00	 8.2008832847e-01	 4.5183202854e-02
 1.4786284194e+00	 8.5424160028e-01	-1.2340508168e-01
 1.4615255117e+00	 8.8790821111e-01	-2.9168996479e-01
 1.4435868411e+00	 9.2106215669e-01	-4.5839169573e-01
 1.4248134734e+00	 9.5367796793e-01	-6.2227440907e-01
 1.4052078764e+00	 9.8573078950e-01	-7.8215762462e-01
 1.3847739322e+00	 1.0171964570e+00	-9.3692747617e-01
 1.3635169425e+00	 1.0480515727e+00	-1.0855474911e+00
 1.3414436287e+00	 1.0782735785e+00	-1.2270687435e+00
 1.5380787841e+00	 7.5689736000e-01	 3.5574086848e-01
 1.5233499373e+00	 7.9224633084e-01	 1.9014008992e-01
 1.5077831832e+00	 8.2715820155e-01	 2.2366216975e-02
 1.4913754795e+00	 8.6160590419e-01	-1.4627566948e-01
 1.4741251299e+00	 8.9556275043e-01	-3.1450135877e-01
 1.4560318125e+00	 9.2900251179e-01	-4.8105881501e-01
 1.4370966020e+00	 9.6189949963e-01	-6.4473954844e-01
 1.4173219878e+00	 9.9422864433e-01	-8.0438988767e-01
 1.3967118853e+00	 1.0259655732e+00	-9.5892198069e-01
 1.3752716418e+00	 1.0570866868e+00	-1.1073243500e+00
 1.3530080369e+00	 1.0875692325e+00	-1.2486718276e+00
 1.5512250352e+00	 7.6336670528e-01	 3.3393304828e-01
 1.5363702981e+00	 7.9901781048e-01	 1.6800201311e-01
 1.5206704920e+00	 8.3422807957e-01	 6.6546328851e-05
 1.5041225486e+00	 8.6897021326e-01	-1.6859678109e-01
 1.4867247570e+00	 9.0321729510e-01	-3.3673228605e-01
 1.4684767925e+00	 9.3694287244e-01	-5.0311624885e-01
 1.4493797392e+00	 9.7012103708e-01	-6.6656804985e-01
 1.4294361076e+00	 1.0027265051e+00	-8.2596120452e-01
 1.4086498466e+00	 1.0347346956e+00	-9.8023412836e-01
 1.3870263493e+00	 1.0661218072e+00	-1.1284004602e+00
 1.3645724532e+00	 1.0968648930e+00	-1.2695587739e+00
 1.5643712924e+00	 7.6983605359e-01	 3.1251335015e-01
 1.5493906650e+00	 8.0578929328e-01	 1.4628448030e-01
 1.5335578069e+00	 8.4129796089e-01	-2.1779531155e-02
 1.5168696236e+00	 8.7633452576e-01	-1.9043138647e-01
 1.4993243899e+00	 9.1087184335e-01	-3.5844460974e-01
 1.4809217783e+00	 9.4488323681e-01	-5.2462438236e-01
 1.4616628821e+00	 9.7834257837e-01	-6.8781843467e-01
 1.4415502331e+00	 1.0112243699e+00	-8.4692783450e-01
 1.4205878136e+00	 1.0435038220e+00	-1.0009175076e+00
 1.3987810624e+00	 1.0751569318e+00	-1.1488263225e+00
 1.3761368749e+00	 1.1061605579e+00	-1.2897765724e+00
 1.5775175527e+00	 7.7630540340e-01	 2.9141968257e-01
 1.5624110349e+00	 8.1256077766e-01	 1.2492549525e-01
 1.5464451247e+00	 8.4836784386e-01	-4.3233609815e-02
 1.5296167016e+00	 8.8369883999e-01	-2.1184035260e-01
 1.5119240258e+00	 9.1852639338e-01	-3.7969812656e-01
 1.4933667671e+00	 9.5282360302e-01	-5.4564158324e-01
 1.4739460279e+00	 9.8656412157e-01	-7.0854726873e-01
 1.4536643614e+00	 1.0197222366e+00	-8.6734415652e-01
 1.4325257833e+00	 1.0522729505e+00	-1.0210239154e+00
 1.4105357781e+00	 1.0841920585e+00	-1.1686507485e+00
 1.3877012993e+00	 1.1154562249e+00	-1.3093706408e+00
 1.2720575006e+00	 1.0224999127e+00	-1.0795638136e+00
 1.2503595401e+00	 1.0505377988e+00	-1.2151855379e+00
 1.2279042194e+00	 1.0779352093e+00	-1.3445221980e+00
 1.2047018759e+00	 1.1046735469e+00	-1.4667608166e+00
 1.1807641368e+00	 1.1307352592e+00	-1.5811546640e+00
 1.1561038919e+00	 1.1561038919e+00	-1.6870293075e+00
 1.1307352592e+00	 1.1807641368e+00	-1.7837878708e+00
 1.1046735469e+00	 1.2047018759e+00	-1.8709154214e+00
 1.0779352093e+00	 1.2279042194e+00	-1.9479824175e+00
 1.0505377988e+00	 1.2503595401e+00	-2.0146471685e+00
 1.0224999127e+00	 1.2720575006e+00	-2.0706572774e+00
 1.2836218036e+00	 1.0317954821e+00	-1.1065476377e+00
 1.2617265865e+00	 1.0600882612e+00	-1.2419576411e+00
 1.2390671240e+00	 1.0877347422e+00	-1.3709731931e+00
 1.2156538473e+00	 1.1147161586e+00	-1.4928133302e+00
 1.1914984898e+00	 1.1410147985e+00	-1.6067639201e+00
 1.1666140580e+00	 1.1666140580e+00	-1.7121834670e+00
 1.1410147985e+00	 1.1914984898e+00	-1.8085081187e+00
 1.1147161586e+00	 1.2156538473e+00	-1.8952558006e+00
 1.0877347422e+00	 1.2390671240e+00	-1.9720294108e+00
 1.0600882612e+00	 1.2617265865e+00	-2.0385190326e+00
 1.0317954821e+00	 1.2836218036e+00	-2.0945031394e+00
 1.2951861308e+00	 1.0410910711e+00	-1.1324962767e+00
 1.2730936567e+00	 1.0696387437e+00	-1.2677113348e+00
 1.2502300519e+00	 1.0975342957e+00	-1.3964326871e+00
 1.2266058418e+00	 1.1247587914e+00	-1.5179102199e+00
 1.2022328653e+00	 1.1512943594e+00	-1.6314611777e+00
 1.1771242462e+00	 1.1771242462e+00	-1.7364757322e+00
 1.1512943594e+00	 1.2022328653e+00	-1.8324217483e+00
 1.1247587914e+00	 1.2266058418e+00	-1.9188486748e+00
 1.0975342957e+00	 1.2502300519e+00	-1.9953904978e+00
 1.0696387437e+00	 1.2730936567e+00	-2.0617677170e+00
 1.0410910711e+00	 1.2951861308e+00	-2.1177883227e+00
 1.3067504797e+00	 1.0503866773e+00	-1.1574677230e+00
 1.2844607481e+00	 1.0791892440e+00	-1.2924999238e+00
 1.2613930007e+00	 1.1073338674e+00	-1.4209491185e+00
 1.2375578568e+00	 1.1348014430e+00	-1.5420949038e+00
 1.2129672609e+00	 1.1615739396e+00	-1.6552847050e+00
 1.1876344541e+00	 1.1876344541e+00	-1.7599391180e+00
 1.1615739396e+00	 1.2129672609e+00	-1.8555564439e+00
 1.1348014430e+00	 1.2375578568e+00	-1.9417163466e+00
 1.1073338674e+00	 1.2613930007e+00	-2.0180825751e+00
 1.0791892440e+00	 1.2844607481e+00	-2.0844047143e+00
 1.0503866773e+00	 1.3067504797e+00	-2.1405189445e+00
 1.3183148474e+00	 1.0596822988e+00	-1.1815179281e+00
 1.2958278581e+00	 1.0887397600e+00	-1.3163748360e+00
 1.2725559677e+00	 1.1171334552e+00	-1.4445692196e+00
 1.2485098896e+00	 1.1448441109e+00	-1.5654092697e+00
 1.2237016739e+00	 1.1718535364e+00	-1.6782714206e+00
 1.1981446790e+00	 1.1981446790e+00	-1.7826054737e+00
 1.1718535364e+00	 1.2237016739e+00	-1.8779389110e+00
 1.1448441109e+00	 1.2485098896e+00	-1.9638803286e+00
 1.1171334552e+00	 1.2725559677e+00	-2.0401219390e+00
 1.0887397600e+00	 1.2958278581e+00	-2.1064411063e+00
 1.0596822988e+00	 1.3183148474e+00	-2.1627008996e+00
 1.3298792313e+00	 1.0689779332e+00	-1.2047008913e+00
 1.3071949839e+00	 1.0982902892e+00	-1.3393857042e+00
 1.2837189503e+00	 1.1269330567e+00	-1.4673380906e+00
 1.2594619377e+00	 1.1548867929e+00	-1.5878937417e+00
 1.2344361020e+00	 1.1821331477e+00	-1.7004569520e+00
 1.2086549187e+00	 1.2086549187e+00	-1.8045055341e+00
 1.1821331477e+00	 1.2344361020e+00	-1.8995949193e+00
 1.1548867929e+00	 1.2594619377e+00	-1.9853613781e+00
 1.1269330567e+00	 1.2837189503e+00	-2.0615243115e+00
 1.0982902892e+00	 1.3071949839e+00	-2.1278875822e+00
 1.0689779332e+00	 1.3298792313e+00	-2.1843398705e+00
 1.3414436287e+00	 1.0782735785e+00	-1.2270687435e+00
 1.3185621231e+00	 1.1078408297e+00	-1.3615804435e+00
 1.2948819460e+00	 1.1367326697e+00	-1.4892992703e+00
 1.2704139986e+00	 1.1649294867e+00	-1.6095873433e+00
 1.2451705427e+00	 1.1924127710e+00	-1.7218756914e+00
 1.2191651707e+00	 1.2191651707e+00	-1.8256689670e+00
 1.1924127710e+00	 1.2451705427e+00	-1.9205493427e+00
 1.1649294867e+00	 1.2704139986e+00	-2.0061795292e+00
 1.1367326697e+00	 1.2948819460e+00	-2.0823048655e+00
 1.1078408297e+00	 1.3185621231e+00	-2.1487544553e+00
 1.0782735785e+00	 1.3414436287e+00	-2.2054413366e+00
 1.3530080369e+00	 1.0875692325e+00	-1.2486718276e+00
 1.3299292729e+00	 1.1173913790e+00	-1.3830053247e+00
 1.3060449521e+00	 1.1465322917e+00	-1.5104948024e+00
 1.2813660698e+00	 1.1749721898e+00	-1.6305277575e+00
 1.2559049933e+00	 1.2026924039e+00	-1.7425608489e+00
 1.2296754325e+00	 1.2296754325e+00	-1.8461244192e+00
 1.2026924039e+00	 1.2559049933e+00	-1.9408261980e+00
 1.1749721898e+00	 1.2813660698e+00	-2.0263541245e+00
 1.1465322917e+00	 1.3060449521e+00	-2.1024782481e+00
 1.1173913790e+00	 1.3299292729e+00	-2.1690516791e+00
 1.0875692325e+00	 1.3530080369e+00	-2.2260105824e+00
 1.3645724532e+00	 1.0968648930e+00	-1.2695587739e+00
 1.3412964306e+00	 1.1269419351e+00	-1.4037050440e+00
 1.3172079660e+00	 1.1563319207e+00	-1.5309652992e+00
 1.2923181486e+00	 1.1850148999e+00	-1.6507513833e+00
 1.2666394515e+00	 1.2129720440e+00	-1.7625445017e+00
 1.2401857016e+00	 1.2401857016e+00	-1.8658995599e+00
 1.2129720440e+00	 1.2666394515e+00	-1.9604486809e+00
 1.1850148999e+00	 1.2923181486e+00	-2.0459038438e+00
 1.1563319207e+00	 1.3172079660e+00	-2.1220586027e+00
 1.1269419351e+00	 1.3412964306e+00	-2.1887888626e+00
 1.0968648930e+00	 1.3645724532e+00	-2.2460527065e+00
 1.3761368749e+00	 1.1061605579e+00	-1.2897765724e+00
 1.3526635936e+00	 1.1364924956e+00	-1.4237227890e+00
 1.3283709851e+00	 1.1661315542e+00	-1.5507500018e+00
 1.3032702325e+00	 1.1950576148e+00	-1.6702933901e+00
 1.2773739147e+00	 1.2232516888e+00	-1.7818576427e+00
 1.2506959757e+00	 1.2506959757e+00	-1.8850211213e+00
 1.2232516888e+00	 1.2773739147e+00	-1.9794392007e+00
 1.1950576148e+00	 1.3032702325e+00	-2.0648467322e+00
 1.1661315542e+00	 1.3283709851e+00	-2.1410595906e+00
 1.1364924956e+00	 1.3526635936e+00	-2.2079752851e+00
 1.1061605579e+00	 1.3761368749e+00	-2.2655726290e+00
 1.3877012993e+00	 1.1154562249e+00	-1.3093706408e+00
 1.3640307593e+00	 1.1460430583e+00	-1.4431003020e+00
 1.3395340068e+00	 1.1759311900e+00	-1.5698868368e+00
 1.3142223190e+00	 1.2051003319e+00	-1.6891877683e+00
 1.2881083803e+00	 1.2335313361e+00	-1.8005302252e+00
 1.2612062521e+00	 1.2612062521e+00	-1.9035149384e+00
 1.2335313361e+00	 1.2881083803e+00	-1.9978194133e+00
 1.2051003319e+00	 1.3142223190e+00	-2.0832002265e+00
 1.1759311900e+00	 1.3395340068e+00	-2.1594944109e+00
 1.1460430583e+00	 1.3640307593e+00	-2.2266199095e+00
 1.1154562249e+00	 1.3877012993e+00	-2.2845750990e+00
 1.0224999127e+00	 1.2720575006e+00	-2.0706572774e+00
 9.9384113918e-01	 1.2929890729e+00	-2.1176911161e+00
 9.6458200336e-01	 1.3131465456e+00	-2.1575906708e+00
 9.3474389645e-01	 1.3325235447e+00	-2.1904093324e+00
 9.0434900604e-01	 1.3511150428e+00	-2.2161907885e+00
 8.7342024658e-01	 1.3689173587e+00	-2.2349686611e+00
 8.4198118776e-01	 1.3859281521e+00	-2.2467663496e+00
 8.1005598127e-01	 1.4021464125e+00	-2.2515970700e+00
 7.7766928634e-01	 1.4175724424e+00	-2.2494640809e+00
 7.4484619455e-01	 1.4322078368e+00	-2.2403610800e+00
 7.1161215435e-01	 1.4460554561e+00	-2.2242727540e+00
 1.0317954821e+00	 1.2836218036e+00	-2.0945031394e+00
 1.0028761710e+00	 1.3047436653e+00	-2.1415359022e+00
 9.7335103976e-01	 1.3250843900e+00	-2.1813215635e+00
 9.4324167396e-01	 1.3446375458e+00	-2.2139253428e+00
 9.1257046292e-01	 1.3633980596e+00	-2.2394054165e+00
 8.8136052942e-01	 1.3813622168e+00	-2.2578123760e+00
 8.4963565742e-01	 1.3985276557e+00	-2.2691888645e+00
 8.1742021817e-01	 1.4148933566e+00	-2.2735693906e+00
 7.8473909508e-01	 1.4304596250e+00	-2.2709803088e+00
 7.5161760783e-01	 1.4452280701e+00	-2.2614399589e+00
 7.1808143623e-01	 1.4592015783e+00	-2.2449589487e+00
 1.0410910711e+00	 1.2951861308e+00	-2.1177883227e+00
 1.0119112219e+00	 1.3164982823e+00	-2.1648878351e+00
 9.8212009457e-01	 1.3370222595e+00	-2.2046385351e+00
 9.5173946931e-01	 1.3567515724e+00	-2.2371165154e+00
 9.2079193707e-01	 1.3756811022e+00	-2.2623935433e+00
 8.8930082894e-01	 1.3938071010e+00	-2.2805363435e+00
 8.5729014315e-01	 1.4111271858e+00	-2.2916060352e+00
 8.2478447054e-01	 1.4276403275e+00	-2.2956577208e+00
 7.9180891867e-01	 1.4433468346e+00	-2.2927402257e+00
 7.5838903533e-01	 1.4582483306e+00	-2.2828959803e+00
 7.2455073170e-01	 1.4723477282e+00	-2.2661610368e+00
 1.0503866773e+00	 1.3067504797e+00	-2.1405189445e+00
 1.0209462895e+00	 1.3282529213e+00	-2.1877477275e+00
 9.9088916575e-01	 1.3489601512e+00	-2.2275371998e+00
 9.6023728052e-01	 1.3688656215e+00	-2.2599733862e+00
 9.2901342656e-01	 1.3879641678e+00	-2.2851407590e+00
 8.9724114327e-01	 1.4062520084e+00	-2.3031213530e+00
 8.6494464318e-01	 1.4237267393e+00	-2.3139940049e+00
 8.3214873665e-01	 1.4403873222e+00	-2.3178337229e+00
 7.9887875545e-01	 1.4562340682e+00	-2.3147111858e+00
 7.6516047548e-01	 1.4712686155e+00	-2.3046923702e+00
 7.3102003925e-01	 1.4854939025e+00	-2.2878383014e+00
 1.0596822988e+00	 1.3183148474e+00	-2.1627008996e+00
 1.0299813720e+00	 1.3400075795e+00	-2.2101163558e+00
 9.9965825125e-01	 1.3608980624e+00	-2.2500133183e+00
 9.6873510561e-01	 1.3809796905e+00	-2.2824868154e+00
 9.3723492948e-01	 1.4002472534e+00	-2.3076331520e+00
 9.0518147058e-01	 1.4186969362e+00	-2.3255488602e+00
 8.7259915570e-01	 1.4363263135e+00	-2.3363297467e+00
 8.3951301479e-01	 1.4531343378e+00	-2.3400700459e+00
 8.0594860378e-01	 1.4691213229e+00	-2.3368616807e+00
 7.7193192668e-01	 1.4842889216e+00	-2.3267936368e+00
 7.3748935736e-01	 1.4986400984e+00	-2.3099514467e+00
 1.0689779332e+00	 1.3298792313e+00	-2.1843398705e+00
 1.0390164671e+00	 1.3517622541e+00	-2.2319944620e+00
 1.0084273490e+00	 1.3728359904e+00	-2.2720627908e+00
 9.7723294260e-01	 1.3930937764e+00	-2.3046479736e+00
 9.4545644391e-01	 1.4125303562e+00	-2.3298572868e+00
 9.1312180900e-01	 1.4311418814e+00	-2.3478009581e+00
 8.8025367894e-01	 1.4489259052e+00	-2.3585910268e+00
 8.4687730324e-01	 1.4658813711e+00	-2.3623402825e+00
 8.1301846200e-01	 1.4820085956e+00	-2.3591612910e+00
 7.7870338736e-01	 1.4973092460e+00	-2.3491655157e+00
 7.4395868453e-01	 1.5117863127e+00	-2.3324625364e+00
 1.0782735785e+00	 1.3414436287e+00	-2.2054413366e+00
 1.0480515727e+00	 1.3635169425e+00	-2.2533827553e+00
 1.0171964570e+00	 1.3847739322e+00	-2.2936816519e+00
 9.8573078950e-01	 1.4052078764e+00	-2.3264483287e+00
 9.5367796793e-01	 1.4248134734e+00	-2.3518001838e+00
 9.2106215669e-01	 1.4435868411e+00	-2.3698603500e+00
 8.8790821111e-01	 1.4615255117e+00	-2.3807563708e+00
 8.5424160028e-01	 1.4786284194e+00	-2.3846189286e+00
 8.2008832847e-01	 1.4948958834e+00	-2.3815806384e+00
 7.8547485594e-01	 1.5103295855e+00	-2.3717749165e+00
 7.5042801924e-01	 1.5249325422e+00	-2.3553349347e+00
 1.0875692325e+00	 1.3530080369e+00	-2.2260105824e+00
 1.0570866868e+00	 1.3752716418e+00	-2.2742819133e+00
 1.0259655732e+00	 1.3967118853e+00	-2.3148660644e+00
 9.9422864433e-01	 1.4173219878e+00	-2.3478796328e+00
 9.6189949963e-01	 1.4370966020e+00	-2.3734493001e+00
 9.2900251179e-01	 1.4560318125e+00	-2.3917103232e+00
 8.9556275043e-01	 1.4741251299e+00	-2.4028050309e+00
 8.6160590419e-01	 1.4913754795e+00	-2.4068813449e+00
 8.2715820155e-01	 1.5077831832e+00	-2.4040913420e+00
 7.9224633084e-01	 1.5233499373e+00	-2.3945898729e+00
 7.5689736000e-01	 1.5380787841e+00	-2.3785332516e+00
 1.0968648930e+00	 1.3645724532e+00	-2.2460527065e+00
 1.0661218072e+00	 1.3870263493e+00	-2.2946925835e+00
 1.0347346956e+00	 1.4086498466e+00	-2.3356123140e+00
 1.0027265051e+00	 1.4294361076e+00	-2.3689339105e+00
 9.7012103708e-01	 1.4493797392e+00	-2.3947925104e+00
 9.3694287244e-01	 1.4684767925e+00	-2.4133347242e+00
 9.0321729510e-01	 1.4867247570e+00	-2.4247169559e+00
 8.6897021326e-01	 1.5041225486e+00	-2.4291037201e+00
 8.3422807957e-01	 1.5206704920e+00	-2.4266659756e+00
 7.9901781048e-01	 1.5363702981e+00	-2.4175794950e+00
 7.6336670528e-01	 1.5512250352e+00	-2.4020232893e+00
 1.1061605579e+00	 1.3761368749e+00	-2.2655726290e+00
 1.0751569318e+00	 1.3987810624e+00	-2.3146153846e+00
 1.0435038220e+00	 1.4205878136e+00	-2.3559168042e+00
 1.0112243699e+00	 1.4415502331e+00	-2.3896034473e+00
 9.7834257837e-01	 1.4616628821e+00	-2.4158180903e+00
 9.4488323681e-01	 1.4809217783e+00	-2.4347179357e+00
 9.1087184335e-01	 1.4993243899e+00	-2.4464727612e+00
 8.7633452576e-01	 1.5168696236e+00	-2.4512630362e+00
 8.4129796089e-01	 1.5335578069e+00	-2.4492780281e+00
 8.0578929328e-01	 1.5493906650e+00	-2.4407139244e+00
 7.6983605359e-01	 1.5643712924e+00	-2.4257719926e+00
 1.1154562249e+00	 1.3877012993e+00	-2.2845750990e+00
 1.0841920585e+00	 1.4105357781e+00	-2.3340509079e+00
 1.0522729505e+00	 1.4325257833e+00	-2.3757760514e+00
 1.0197222366e+00	 1.4536643614e+00	-2.4098807791e+00
 9.8656412157e-01	 1.4739460279e+00	-2.4365146991e+00
 9.5282360302e-01	 1.4933667671e+00	-2.4558448536e+00
 9.1852639338e-01	 1.5119240258e+00	-2.4680537014e+00
 8.8369883999e-01	 1.5296167016e+00	-2.4733370355e+00
 8.4836784386e-01	 1.5464451247e+00	-2.4719018650e+00
 8.1256077766e-01	 1.5624110349e+00	-2.4639642910e+00
 7.7630540340e-01	 1.5775175527e+00	-2.4497474015e+00
 7.1161215435e-01	 1.4460554561e+00	-2.2242727540e+00
 6.7799526040e-01	 1.4591185099e+00	-2.2048424002e+00
 6.4401912428e-01	 1.4714032966e+00	-2.1857733499e+00
 6.0970980142e-01	 1.4829162793e+00	-2.1670820646e+00
 5.7509340796e-01	 1.4936650386e+00	-2.1487137217e+00
 5.4019605011e-01	 1.5036582266e+00	-2.1305469359e+00
 5.0504375549e-01	 1.5129055177e+00	-2.1123989219e+00
 4.6966240691e-01	 1.5214175572e+00	-2.0940309981e+00
 4.3407767868e-01	 1.5292059076e+00	-2.0751543290e+00
 3.9831497595e-01	 1.5362829932e+00	-2.0554358111e+00
 3.6239937702e-01	 1.5426620430e+00	-2.0345040133e+00
 7.1808143623e-01	 1.4592015783e+00	-2.2449589487e+00
 6.8415893035e-01	 1.4723833886e+00	-2.2251111458e+00
 6.4987391643e-01	 1.4847798566e+00	-2.2055182403e+00
 6.1525268675e-01	 1.4963975041e+00	-2.1862046856e+00
 5.8032159489e-01	 1.5072439807e+00	-2.1671229962e+00
 5.4510698439e-01	 1.5173280169e+00	-2.1481584654e+00
 5.0963511948e-01	 1.5266593753e+00	-2.1291343319e+00
 4.7393211827e-01	 1.5352487979e+00	-2.1098172922e+00
 4.3802388849e-01	 1.5431079524e+00	-2.0899232579e+00
 4.0193606623e-01	 1.5502493760e+00	-2.0691232615e+00
 3.6569395779e-01	 1.5566864179e+00	-2.0470494187e+00
 7.2455073170e-01	 1.4723477282e+00	-2.2661610368e+00
 6.9032261325e-01	 1.4856482952e+00	-2.2460354552e+00
 6.5572872087e-01	 1.4981564447e+00	-2.2260557805e+00
 6.2079558372e-01	 1.5098787572e+00	-2.2062552534e+00
 5.8554979280e-01	 1.5208229512e+00	-2.1865944366e+00
 5.5001792898e-01	 1.5309978360e+00	-2.1669659295e+00
 5.1422649311e-01	 1.5404132618e+00	-2.1471995399e+00
 4.7820183860e-01	 1.5490800678e+00	-2.1270678076e+00
 4.4197010658e-01	 1.5570100265e+00	-2.1062917803e+00
 4.0555716412e-01	 1.5642157881e+00	-2.0845469413e+00
 3.6898854549e-01	 1.5707108222e+00	-2.0614692003e+00
 7.3102003925e-01	 1.4854939025e+00	-2.2878383014e+00
 6.9648630766e-01	 1.4989132266e+00	-2.2675706030e+00
 6.6158353624e-01	 1.5115330578e+00	-2.2473369041e+00
 6.2633849104e-01	 1.5233600355e+00	-2.2271800129e+00
 5.9077800047e-01	 1.5344019471e+00	-2.2070692384e+00
 5.5492888273e-01	 1.5446676805e+00	-2.1869051026e+00
 5.1881787531e-01	 1.5541671740e+00	-2.1665245183e+00
 4.8247156690e-01	 1.5629113634e+00	-2.1457063274e+00
 4.4591633204e-01	 1.5709121264e+00	-2.1241770966e+00
 4.0917826877e-01	 1.5781822263e+00	-2.1016170723e+00
 3.7228313933e-01	 1.5847352527e+00	-2.0776662030e+00
 7.3748935736e-01	 1.4986400984e+00	-2.3099514467e+00
 7.0265001213e-01	 1.5121781796e+00	-2.2896734258e+00
 6.6743836118e-01	 1.5249096927e+00	-2.2693142590e+00
 6.3188140741e-01	 1.5368413358e+00	-2.2489270878e+00
 5.9600621668e-01	 1.5479809651e+00	-2.2284906531e+00
 5.5983984451e-01	 1.5583375473e+00	-2.2079140051e+00
 5.2340926501e-01	 1.5679211087e+00	-2.1870416897e+00
 4.8674130217e-01	 1.5767426816e+00	-2.1656593018e+00
 4.4986256395e-01	 1.5848142491e+00	-2.1434993056e+00
 4.1279937933e-01	 1.5921486873e+00	-2.1202470198e+00
 3.7557773856e-01	 1.5987597061e+00	-2.0955466744e+00
 7.4395868453e-01	 1.5117863127e+00	-2.3324625364e+00
 7.0881372523e-01	 1.5254431512e+00	-2.3123022538e+00
 6.7329319431e-01	 1.5382863464e+00	-2.2919421325e+00
 6.3742433155e-01	 1.5503226549e+00	-2.2714463989e+00
 6.0123444021e-01	 1.5615600022e+00	-2.2508038987e+00
 5.6475081316e-01	 1.5720074333e+00	-2.2299328065e+00
 5.2800066113e-01	 1.5816750626e+00	-2.2086858198e+00
 4.9101104342e-01	 1.5905740192e+00	-2.1868557322e+00
 4.5380880138e-01	 1.5987163913e+00	-2.1641812788e+00
 4.1642049496e-01	 1.6061151678e+00	-2.1403531557e+00
 3.7887234240e-01	 1.6127841791e+00	-2.1150201163e+00
 7.5042801924e-01	 1.5249325422e+00	-2.3553349347e+00
 7.1497744552e-01	 1.5387081383e+00	-2.3354168470e+00
 6.7914803427e-01	 1.5516630156e+00	-2.3151763814e+00
 6.4296726214e-01	 1.5638039898e+00	-2.2946895868e+00
 6.0646266984e-01	 1.5751390551e+00	-2.2739560755e+00
 5.6966178755e-01	 1.5856773353e+00	-2.2529037321e+00
 5.3259206262e-01	 1.5954290326e+00	-2.2313939173e+00
 4.9528078965e-01	 1.6044053729e+00	-2.2092270616e+00
 4.5775504342e-01	 1.6126185497e+00	-2.1861485404e+00
 4.2004161482e-01	 1.6200816647e+00	-2.1618547293e+00
 3.8216695008e-01	 1.6268086685e+00	-2.1359991452e+00
 7.5689736000e-01	 1.5380787841e+00	-2.3785332516e+00
 7.2114117157e-01	 1.5519731378e+00	-2.3589783341e+00
 6.8500287970e-01	 1.5650396974e+00	-2.3389743642e+00
 6.4851019792e-01	 1.5772853373e+00	-2.3186099381e+00
 6.1169090434e-01	 1.5887181207e+00	-2.2978960851e+00
 5.7457276651e-01	 1.5993472500e+00	-2.2767709757e+00
 5.3718346838e-01	 1.6091830154e+00	-2.2551051375e+00
 4.9955053987e-01	 1.6182367396e+00	-2.2327070705e+00
 4.6170128914e-01	 1.6265207210e+00	-2.2093291543e+00
 4.2366273805e-01	 1.6340481746e+00	-2.1846737442e+00
 3.8546156084e-01	 1.6408331710e+00	-2.1583993584e+00
 7.6336670528e-01	 1.5512250352e+00	-2.4020232893e+00
 7.2730490193e-01	 1.5652381465e+00	-2.3829491543e+00
 6.9085772922e-01	 1.5784163885e+00	-2.3632948782e+00
 6.5405313757e-01	 1.5907666942e+00	-2.3431623163e+00
 6.1691914251e-01	 1.6022971957e+00	-2.3225745545e+00
 5.7948374892e-01	 1.6130171742e+00	-2.3014806162e+00
 5.4177487737e-01	 1.6229370078e+00	-2.2797606916e+00
 5.0382029307e-01	 1.6320681159e+00	-2.2572317771e+00
 4.6564753762e-01	 1.6404229021e+00	-2.2336536167e+00
 4.2728386382e-01	 1.6480146942e+00	-2.2087348417e+00
 3.8875617391e-01	 1.6548576833e+00	-2.1821392087e+00
 7.6983605359e-01	 1.5643712924e+00	-2.4257719926e+00
 7.3346863516e-01	 1.5785031615e+00	-2.4072930023e+00
 6.9671258148e-01	 1.5917930858e+00	-2.3880980985e+00
 6.5959607981e-01	 1.6042480574e+00	-2.3683030953e+00
 6.2214738312e-01	 1.6158762772e+00	-2.3479437636e+00
 5.8439473362e-01	 1.6266871049e+00	-2.3269805381e+00
 5.4636628849e-01	 1.6366910066e+00	-2.3053037605e+00
 5.0809004827e-01	 1.6458994987e+00	-2.2827393441e+00
 4.6959378794e-01	 1.6543250897e+00	-2.2590547536e+00
 4.3090499129e-01	 1.6619812204e+00	-2.2339651900e+00
 3.9205078851e-01	 1.6688822022e+00	-2.2071398836e+00
 7.7630540340e-01	 1.5775175527e+00	-2.4497474015e+00
 7.3963236984e-01	 1.5917681795e+00	-2.4319747765e+00
 7.0256743511e-01	 1.6051697863e+00	-2.4133455212e+00
 6.6513902335e-01	 1.6177294238e+00	-2.3939900964e+00
 6.2737562495e-01	 1.6294553618e+00	-2.3739575764e+00
 5.8930571946e-01	 1.6403570387e+00	-2.3532203569e+00
 5.5095770069e-01	 1.6504450087e+00	-2.3316794124e+00
 5.1235980447e-01	 1.6597308847e+00	-2.3091699893e+00
 4.7354003919e-01	 1.6682272805e+00	-2.2854676241e+00
 4.3452611959e-01	 1.6759477498e+00	-2.2602943791e+00
 3.9534540388e-01	 1.6829067243e+00	-2.2333251922e+00
 3.6239937702e-01	 1.5426620430e+00	-2.0345040133e+00
 3.2635305857e-01	 1.5483574077e+00	-2.0145401415e+00
 2.9020283246e-01	 1.5533832833e+00	-1.9978598846e+00
 2.5397252632e-01	 1.5577549656e+00	-1.9842614303e+00
 2.1768544223e-01	 1.5614883203e+00	-1.9735406552e+00
 1.8136431664e-01	 1.5645997240e+00	-1.9654921179e+00
 1.4503128419e-01	 1.5671060055e+00	-1.9599099798e+00
 1.0870784521e-01	 1.5690243886e+00	-1.9565888530e+00
 7.2414836991e-02	 1.5703724351e+00	-1.9553245734e+00
 3.6172408703e-02	 1.5711679898e+00	-1.9559149000e+00
 0.0000000000e+00	 1.5714291270e+00	-1.9581601409e+00
 3.6569395779e-01	 1.5566864179e+00	-2.0470494187e+00
 3.2931994147e-01	 1.5624335593e+00	-2.0259876592e+00
 2.9284107285e-01	 1.5675051252e+00	-2.0083549291e+00
 2.5628139620e-01	 1.5719165505e+00	-1.9939452238e+00
 2.1966442542e-01	 1.5756838453e+00	-1.9825479211e+00
 1.8301310367e-01	 1.5788235348e+00	-1.9739490071e+00
 1.4634976681e-01	 1.5813526010e+00	-1.9679322291e+00
 1.0969611065e-01	 1.5832884241e+00	-1.9642801717e+00
 7.3073161881e-02	 1.5846487257e+00	-1.9627752534e+00
 3.6501252874e-02	 1.5854515129e+00	-1.9632006412e+00
 0.0000000000e+00	 1.5857150240e+00	-1.9653410826e+00
 3.6898854549e-01	 1.5707108222e+00	-2.0614692003e+00
 3.3228683060e-01	 1.5765097404e+00	-2.0394438152e+00
 2.9547931878e-01	 1.5816269967e+00	-2.0209823132e+00
 2.5859027092e-01	 1.5860781652e+00	-2.0058730252e+00
 2.2164341276e-01	 1.5898794000e+00	-1.9938976440e+00
 1.8466189416e-01	 1.5930473755e+00	-1.9848326675e+00
 1.4766825221e-01	 1.5955992264e+00	-1.9784507670e+00
 1.1068437816e-01	 1.5975524896e+00	-1.9745220744e+00
 7.3731488155e-02	 1.5989250463e+00	-1.9728153838e+00
 3.6830097735e-02	 1.5997350659e+00	-1.9730992629e+00
 0.0000000000e+00	 1.6000009511e+00	-1.9751430719e+00
 3.7228313933e-01	 1.5847352527e+00	-2.0776662030e+00
 3.3525372526e-01	 1.5905859478e+00	-2.0548045028e+00
 2.9811756963e-01	 1.5957488947e+00	-2.0356322407e+00
 2.6089914995e-01	 1.6002398064e+00	-2.0199306254e+00
 2.2362240379e-01	 1.6040749813e+00	-2.0074724870e+00
 1.8631068772e-01	 1.6072712427e+00	-1.9980239224e+00
 1.4898674006e-01	 1.6098458784e+00	-1.9913458628e+00
 1.1167264751e-01	 1.6118165817e+00	-1.9871955554e+00
 7.4389815656e-02	 1.6132013936e+00	-1.9853279518e+00
 3.7158943210e-02	 1.6140186456e+00	-1.9854969975e+00
 0.0000000000e+00	 1.6142869048e+00	-1.9874568204e+00
 3.7557773856e-01	 1.5987597061e+00	-2.0955466744e+00
 3.3822062478e-01	 1.6046621782e+00	-2.0719692617e+00
 3.0075582480e-01	 1.6098708156e+00	-2.0521987614e+00
 2.6320803275e-01	 1.6144014706e+00	-2.0360078163e+00
 2.2560139806e-01	 1.6182705858e+00	-2.0231592244e+00
 1.8795948398e-01	 1.6214951332e+00	-2.0134077711e+00
 1.5030523007e-01	 1.6240925536e+00	-2.0065019818e+00
 1.1266091848e-01	 1.6260806971e+00	-2.0021857799e+00
 7.5048144234e-02	 1.6274777642e+00	-2.0002000453e+00
 3.7487789222e-02	 1.6283022487e+00	-2.0002840646e+00
 0.0000000000e+00	 1.6285728819e+00	-2.0021768700e+00
 3.7887234240e-01	 1.6127841791e+00	-2.1150201163e+00
 3.4118752844e-01	 1.6187384282e+00	-2.0908411196e+00
 3.0339408365e-01	 1.6239927564e+00	-2.0705796044e+00
 2.6551691879e-01	 1.6285631547e+00	-2.0539982177e+00
 2.2758039510e-01	 1.6324662101e+00	-2.0408485630e+00
 1.8960828255e-01	 1.6357190435e+00	-2.0308732075e+00
 1.5162372192e-01	 1.6383392488e+00	-2.0238076023e+00
 1.1364919083e-01	 1.6403448325e+00	-2.0193819018e+00
 7.5706473732e-02	 1.6417541548e+00	-2.0173226747e+00
 3.7816635694e-02	 1.6425858717e+00	-2.0173544974e+00
 0.0000000000e+00	 1.6428588790e+00	-2.0192014262e+00
 3.8216695008e-01	 1.6268086685e+00	-2.1359991452e+00
 3.4415443557e-01	 1.6328146948e+00	-2.1113264420e+00
 3.0603234559e-01	 1.6381147136e+00	-2.0906760196e+00
 2.6782580751e-01	 1.6427248553e+00	-2.0737991115e+00
 2.2955939445e-01	 1.6466618510e+00	-2.0604349729e+00
 1.9125708305e-01	 1.6499429705e+00	-2.0503130480e+00
 1.5294221531e-01	 1.6525859606e+00	-2.0431550433e+00
 1.1463746433e-01	 1.6546089846e+00	-2.0386768928e+00
 7.6364803998e-02	 1.6560305621e+00	-2.0365906041e+00
 3.8145482550e-02	 1.6568695114e+00	-2.0366059789e+00
 0.0000000000e+00	 1.6571448927e+00	-2.0384322004e+00
 3.8546156084e-01	 1.6408331710e+00	-2.1583993584e+00
 3.4712134546e-01	 1.6468909744e+00	-2.1333347896e+00
 3.0867060998e-01	 1.6522366840e+00	-2.1123926269e+00
 2.7013469840e-01	 1.6568865692e+00	-2.0953112858e+00
 2.3153839564e-01	 1.6608575052e+00	-2.0818165265e+00
 1.9290588508e-01	 1.6641669108e+00	-2.0716237680e+00
 1.5426070993e-01	 1.6668326858e+00	-2.0644403001e+00
 1.1562573876e-01	 1.6688731499e+00	-2.0599673785e+00
 7.7023134879e-02	 1.6703069826e+00	-2.0579021906e+00
 3.8474329713e-02	 1.6711531645e+00	-2.0579396853e+00
 0.0000000000e+00	 1.6714309198e+00	-2.0597742599e+00
 3.8875617391e-01	 1.6548576833e+00	-2.1821392087e+00
 3.5008825743e-01	 1.6609672639e+00	-2.1567787828e+00
 3.1130887623e-01	 1.6663586643e+00	-2.1356372737e+00
 2.7244359090e-01	 1.6710482929e+00	-2.1184388865e+00
 2.3351739822e-01	 1.6750531693e+00	-2.1048947463e+00
 1.9455468826e-01	 1.6783908610e+00	-2.0947053472e+00
 1.5557920547e-01	 1.6810794208e+00	-2.0875628885e+00
 1.1661401388e-01	 1.6831373252e+00	-2.0831534840e+00
 7.7681466220e-02	 1.6845834132e+00	-2.0811592322e+00
 3.8803177105e-02	 1.6854368275e+00	-2.0812601387e+00
 0.0000000000e+00	 1.6857169568e+00	-2.0831358858e+00
 3.9205078851e-01	 1.6688822022e+00	-2.2071398836e+00
 3.5305517079e-01	 1.6750435600e+00	-2.1815739734e+00
 3.1394714370e-01	 1.6804806512e+00	-2.1603208995e+00
 2.7475248447e-01	 1.6852100233e+00	-2.1430892757e+00
 2.3549640172e-01	 1.6892488400e+00	-2.1295744593e+00
 1.9620349222e-01	 1.6926148178e+00	-2.1194611221e+00
 1.5689770163e-01	 1.6953261626e+00	-2.1124256970e+00
 1.1760228946e-01	 1.6974015072e+00	-2.1081386870e+00
 7.8339797868e-02	 1.6988598504e+00	-2.1062668234e+00
 3.9132024651e-02	 1.6997204972e+00	-2.1064750658e+00
 0.0000000000e+00	 1.7000030006e+00	-2.1084284382e+00
 3.9534540388e-01	 1.6829067243e+00	-2.2333251922e+00
 3.5602208484e-01	 1.6891198593e+00	-2.2076387224e+00
 3.1658541179e-01	 1.6946026414e+00	-2.1863574069e+00
 2.7706137859e-01	 1.6993717569e+00	-2.1691728982e+00
 2.3747540569e-01	 1.7034445140e+00	-2.1557636600e+00
 1.9785229655e-01	 1.7068387780e+00	-2.1457976465e+00
 1.5821619810e-01	 1.7095729076e+00	-2.1389348466e+00
 1.1859056526e-01	 1.7116656925e+00	-2.1348296778e+00
 7.8998129670e-02	 1.7131362910e+00	-2.1331332176e+00
 3.9460872273e-02	 1.7140041702e+00	-2.1334952652e+00
 0.0000000000e+00	 1.7142890476e+00	-2.1355662276e+00
 1.7142890476e+00	 0.0000000000e+00	 2.1010928355e+00
 1.7140041702e+00	 3.9460872273e-02	 2.1038816465e+00
 1.7131362910e+00	 7.8998129670e-02	 2.0977559537e+00
 1.7116656925e+00	 1.1859056526e-01	 2.0823192444e+00
 1.7095729076e+00	 1.5821619810e-01	 2.0572002943e+00
 1.7068387780e+00	 1.9785229655e-01	 2.0220593671e+00
 1.7034445140e+00	 2.3747540569e-01	 1.9765947720e+00
 1.6993717569e+00	 2.7706137859e-01	 1.9205497351e+00
 1.6946026414e+00	 3.1658541179e-01	 1.8537195327e+00
 1.6891198593e+00	 3.5602208484e-01	 1.7759588227e+00
 1.6829067243e+00	 3.9534540388e-01	 1.6871890976e+00
 1.7285740955e+00	 0.0000000000e+00	 2.0814285969e+00
 1.7282868443e+00	 3.9789696896e-02	 2.0862646193e+00
 1.7274117330e+00	 7.9656415427e-02	 2.0816623189e+00
 1.7259288802e+00	 1.1957877195e-01	 2.0672804078e+00
 1.7238186563e+00	 1.5953460235e-01	 2.0428070541e+00
 1.7210617433e+00	 1.9950098557e-01	 2.0079660293e+00
 1.7176391952e+00	 2.3945427124e-01	 1.9625231671e+00
 1.7135325001e+00	 2.7937011122e-01	 1.9062930854e+00
 1.7087236439e+00	 3.1922349536e-01	 1.8391461162e+00
 1.7031951742e+00	 3.5898879138e-01	 1.7610153765e+00
 1.6969302655e+00	 3.9863978883e-01	 1.6719039015e+00
 1.7428591451e+00	 0.0000000000e+00	 2.0604653148e+00
 1.7425695200e+00	 4.0118521557e-02	 2.0679392937e+00
 1.7416871767e+00	 8.0314701260e-02	 2.0653027501e+00
 1.7401920695e+00	 1.2056697876e-01	 2.0522873248e+00
 1.7380644066e+00	 1.6085300675e-01	 2.0286591049e+00
 1.7352847103e+00	 2.0114967479e-01	 1.9942246329e+00
 1.7318338780e+00	 2.4143313702e-01	 1.9488371631e+00
 1.7276932449e+00	 2.8167884412e-01	 1.8924031142e+00
 1.7228446480e+00	 3.2186157924e-01	 1.8248886588e+00
 1.7172704907e+00	 3.6195549827e-01	 1.7463263798e+00
 1.7109538084e+00	 4.0193417416e-01	 1.6568219133e+00
 1.7571441980e+00	 0.0000000000e+00	 2.0381220618e+00
 1.7568521990e+00	 4.0447346294e-02	 2.0488313577e+00
 1.7559626238e+00	 8.0972987247e-02	 2.0486106345e+00
 1.7544552621e+00	 1.2155518579e-01	 2.0372816910e+00
 1.7523101602e+00	 1.6217141146e-01	 2.0147065660e+00
 1.7495076806e+00	 2.0279836438e-01	 1.9807933229e+00
 1.7460285641e+00	 2.4341200327e-01	 1.9355020021e+00
 1.7418539931e+00	 2.8398757756e-01	 1.8788506860e+00
 1.7369656554e+00	 3.2449966374e-01	 1.8109216132e+00
 1.7313458104e+00	 3.6492220586e-01	 1.7318672682e+00
 1.7249773546e+00	 4.0522856026e-01	 1.6419163664e+00
 1.7714292559e+00	 0.0000000000e+00	 2.0143205232e+00
 1.7711348830e+00	 4.0776171146e-02	 2.0288688977e+00
 1.7702380758e+00	 8.1631273464e-02	 2.0315215091e+00
 1.7687184598e+00	 1.2254339317e-01	 2.0222070842e+00
 1.7665559188e+00	 1.6348981663e-01	 2.0009011672e+00
 1.7637306559e+00	 2.0444705456e-01	 1.9676315960e+00
 1.7602232552e+00	 2.4539087020e-01	 1.9224840491e+00
 1.7560147461e+00	 2.8629631180e-01	 1.8656076074e+00
 1.7510866678e+00	 3.2713774915e-01	 1.7972202586e+00
 1.7454211351e+00	 3.6788891448e-01	 1.7176142724e+00
 1.7390009056e+00	 4.0852294751e-01	 1.6271613608e+00
 1.7857143204e+00	 0.0000000000e+00	 1.9889848919e+00
 1.7854175737e+00	 4.1104996152e-02	 2.0079823029e+00
 1.7845135346e+00	 8.2289559989e-02	 2.0139729754e+00
 1.7829816641e+00	 1.2353160101e-01	 2.0070088890e+00
 1.7808016841e+00	 1.6480822242e-01	 1.9871961846e+00
 1.7779536378e+00	 2.0609574550e-01	 1.9547002465e+00
 1.7744179530e+00	 2.4736973806e-01	 1.9097507473e+00
 1.7701755058e+00	 2.8860504713e-01	 1.8526465889e+00
 1.7652076867e+00	 3.2977583580e-01	 1.7837606676e+00
 1.7594964664e+00	 3.7085562448e-01	 1.7035443863e+00
 1.7530244632e+00	 4.1181733630e-01	 1.6125318278e+00
 1.7999993933e+00	 0.0000000000e+00	 1.9620417697e+00
 1.7997002727e+00	 4.1433821349e-02	 1.9861041743e+00
 1.7987890016e+00	 8.2947846897e-02	 1.9959046171e+00
 1.7972448767e+00	 1.2451980942e-01	 1.9916342254e+00
 1.7950474576e+00	 1.6612662897e-01	 1.9735463786e+00
 1.7921766280e+00	 2.0774443740e-01	 1.9419613151e+00
 1.7886126590e+00	 2.4934860708e-01	 1.8972705752e+00
 1.7843362738e+00	 2.9091378380e-01	 1.8399412095e+00
 1.7793287139e+00	 3.3241392399e-01	 1.7705196746e+00
 1.7735718059e+00	 3.7382233622e-01	 1.6896353369e+00
 1.7670480290e+00	 4.1511172701e-01	 1.5980034979e+00
 1.8142844762e+00	 0.0000000000e+00	 1.9334200717e+00
 1.8139829818e+00	 4.1762646777e-02	 1.9631692371e+00
 1.8130644786e+00	 8.3606134266e-02	 1.9772579222e+00
 1.8115080993e+00	 1.2550801853e-01	 1.9760318801e+00
 1.8092932412e+00	 1.6744503645e-01	 1.9599079364e+00
 1.8063996282e+00	 2.0939313046e-01	 1.9293780395e+00
 1.8028073749e+00	 2.5132747748e-01	 1.8850130059e+00
 1.7984970517e+00	 2.9322252208e-01	 1.8274658825e+00
 1.7934497510e+00	 3.3505201402e-01	 1.7574748461e+00
 1.7876471552e+00	 3.7678905003e-01	 1.6758655549e+00
 1.7810716046e+00	 4.1840612003e-01	 1.5835528684e+00
 1.8285695708e+00	 0.0000000000e+00	 1.9030509368e+00
 1.8282657025e+00	 4.2091472473e-02	 1.9391142581e+00
 1.8273399673e+00	 8.4264422173e-02	 1.9579762090e+00
 1.8257713336e+00	 1.2649622845e-01	 1.9601522418e+00
 1.8235390363e+00	 1.6876344501e-01	 1.9462384155e+00
 1.8206226400e+00	 2.1104182487e-01	 1.9169148079e+00
 1.8170021025e+00	 2.5330634949e-01	 1.8729484681e+00
 1.8126578411e+00	 2.9553126226e-01	 1.8151958227e+00
 1.8075707996e+00	 3.3769010621e-01	 1.7446044518e+00
 1.8017225160e+00	 3.7975576626e-01	 1.6622141481e+00
 1.7950951916e+00	 4.2170051574e-01	 1.5691571742e+00
 1.8428546786e+00	 0.0000000000e+00	 1.8708676411e+00
 1.8425484365e+00	 4.2420298476e-02	 1.9138779665e+00
 1.8416154693e+00	 8.4922710694e-02	 1.9380045545e+00
 1.8400345811e+00	 1.2748443928e-01	 1.9439472390e+00
 1.8377848448e+00	 1.7008185479e-01	 1.9324966909e+00
 1.8348456650e+00	 2.1269052081e-01	 1.9045371141e+00
 1.8311968433e+00	 2.5528522336e-01	 1.8610483094e+00
 1.8268186438e+00	 2.9784000458e-01	 1.8031070154e+00
 1.8216918614e+00	 3.4032820086e-01	 1.7318874375e+00
 1.8157978900e+00	 3.8272248527e-01	 1.6486608744e+00
 1.8091187918e+00	 4.2499491452e-01	 1.5547943587e+00
 1.8571398015e+00	 0.0000000000e+00	 1.8368055159e+00
 1.8568311855e+00	 4.2749124825e-02	 1.8874009786e+00
 1.8558909863e+00	 8.5580999907e-02	 1.9172897274e+00
 1.8542978437e+00	 1.2847265116e-01	 1.9273702804e+00
 1.8520306682e+00	 1.7140026596e-01	 1.9186429046e+00
 1.8490687050e+00	 2.1433921849e-01	 1.8922115155e+00
 1.8453915989e+00	 2.5726409930e-01	 1.8492847606e+00
 1.8409794613e+00	 3.0014874933e-01	 1.7911761869e+00
 1.8358129380e+00	 3.4296629828e-01	 1.7193033992e+00
 1.8298732788e+00	 3.8568920739e-01	 1.6351861171e+00
 1.8231424066e+00	 4.2828931676e-01	 1.5404430471e+00
 1.6829067243e+00	 3.9534540388e-01	 1.6871890976e+00
 1.6759477498e+00	 4.3452611959e-01	 1.5867098465e+00
 1.6682272805e+00	 4.7354003919e-01	 1.4745141767e+00
 1.6597308847e+00	 5.1235980447e-01	 1.3516750143e+00
 1.6504450087e+00	 5.5095770069e-01	 1.2193095147e+00
 1.6403570387e+00	 5.8930571946e-01	 1.0785726745e+00
 1.6294553618e+00	 6.2737562495e-01	 9.3065012152e-01
 1.6177294238e+00	 6.6513902335e-01	 7.7675011863e-01
 1.6051697863e+00	 7.0256743511e-01	 6.1809483400e-01
 1.5917681795e+00	 7.3963236984e-01	 4.5591094772e-01
 1.5775175527e+00	 7.7630540340e-01	 2.9141968257e-01
 1.6969302655e+00	 3.9863978883e-01	 1.6719039015e+00
 1.6899133024e+00	 4.3814699464e-01	 1.5710577898e+00
 1.6821284990e+00	 4.7748601443e-01	 1.4583808479e+00
 1.6735613033e+00	 5.1662926203e-01	 1.3349758116e+00
 1.6641980487e+00	 5.5554879177e-01	 1.2019893711e+00
 1.6540260165e+00	 5.9421636183e-01	 1.0606054568e+00
 1.6430334966e+00	 6.3260350112e-01	 9.1203768466e-01
 1.6312098473e+00	 6.7068157921e-01	 7.5752100074e-01
 1.6185455512e+00	 7.0842187924e-01	 5.9830258094e-01
 1.6050322698e+00	 7.4579567342e-01	 4.3563206161e-01
 1.5906628935e+00	 7.8277430074e-01	 2.7075119346e-01
 1.7109538084e+00	 4.0193417416e-01	 1.6568219133e+00
 1.7038788566e+00	 4.4176787011e-01	 1.5555844044e+00
 1.6960297191e+00	 4.8143199014e-01	 1.4424276351e+00
 1.6873917235e+00	 5.2089872010e-01	 1.3184792931e+00
 1.6779510904e+00	 5.6013988338e-01	 1.1849106223e+00
 1.6676949958e+00	 5.9912700477e-01	 1.0429294168e+00
 1.6566116331e+00	 6.3783137789e-01	 8.9377216000e-01
 1.6446902723e+00	 6.7622413571e-01	 7.3869535034e-01
 1.6319213177e+00	 7.1427632406e-01	 5.7896607540e-01
 1.6182963616e+00	 7.5195897772e-01	 4.1585191274e-01
 1.6038082358e+00	 7.8924319884e-01	 2.5061025559e-01
 1.7249773546e+00	 4.0522856026e-01	 1.6419163664e+00
 1.7178444141e+00	 4.4538874642e-01	 1.5402589134e+00
 1.7099309424e+00	 4.8537796676e-01	 1.4266197896e+00
 1.7012221470e+00	 5.2516817917e-01	 1.3021468991e+00
 1.6917041353e+00	 5.6473097606e-01	 1.1680311833e+00
 1.6813639784e+00	 6.0403764886e-01	 1.0254993578e+00
 1.6701897727e+00	 6.4305925589e-01	 8.7580578087e-01
 1.6581707005e+00	 6.8176669352e-01	 7.2022350236e-01
 1.6452970872e+00	 7.2013077025e-01	 5.6003455459e-01
 1.6315604565e+00	 7.5812228347e-01	 3.9651956947e-01
 1.6169535813e+00	 7.9571209846e-01	 2.3094682365e-01
 1.7390009056e+00	 4.0852294751e-01	 1.6271613608e+00
 1.7318099765e+00	 4.4900962400e-01	 1.5250515363e+00
 1.7238321706e+00	 4.8932394477e-01	 1.4109236871e+00
 1.7150525753e+00	 5.2943763972e-01	 1.2859413170e+00
 1.7054571851e+00	 5.6932207035e-01	 1.1513103306e+00
 1.6950329657e+00	 6.0894829467e-01	 1.0082715448e+00
 1.6837679171e+00	 6.4828713572e-01	 8.5809232560e-01
 1.6716511334e+00	 6.8730925326e-01	 7.0205739813e-01
 1.6586728615e+00	 7.2598521848e-01	 5.4145889765e-01
 1.6448245561e+00	 7.6428559136e-01	 3.7758574772e-01
 1.6300989313e+00	 8.0218100033e-01	 2.1171247143e-01
 1.7530244632e+00	 4.1181733630e-01	 1.6125318278e+00
 1.7457755454e+00	 4.5263050327e-01	 1.5099334484e+00
 1.7377334053e+00	 4.9326992462e-01	 1.3953067827e+00
 1.7288830101e+00	 5.3370710228e-01	 1.2698264323e+00
 1.7192102412e+00	 5.7391316678e-01	 1.1347086475e+00
 1.7087019594e+00	 6.1385894277e-01	 9.9120364646e-01
 1.6973460678e+00	 6.5351501798e-01	 8.4058705573e-01
 1.6851315726e+00	 6.9285181559e-01	 6.8415052110e-01
 1.6720486420e+00	 7.3183966945e-01	 5.2319156003e-01
 1.6580886618e+00	 7.7044890214e-01	 3.5900274503e-01
 1.6432442874e+00	 8.0864990522e-01	 1.9286032704e-01
 1.7670480290e+00	 4.1511172701e-01	 1.5980034979e+00
 1.7597411225e+00	 4.5625138465e-01	 1.4948767432e+00
 1.7516346481e+00	 4.9721590677e-01	 1.3797375678e+00
 1.7427134529e+00	 5.3797656732e-01	 1.2537672803e+00
 1.7329633053e+00	 5.7850426589e-01	 1.1181879723e+00
 1.7223709611e+00	 6.1876959373e-01	 9.7425467902e-01
 1.7109242264e+00	 6.5874290330e-01	 8.2324665713e-01
 1.6986120196e+00	 6.9839438115e-01	 6.6645783568e-01
 1.6854244303e+00	 7.3769412383e-01	 5.0518651085e-01
 1.6713527753e+00	 7.7661221651e-01	 3.4072437779e-01
 1.6563896513e+00	 8.1511881389e-01	 1.7434501120e-01
 1.7810716046e+00	 4.1840612003e-01	 1.5835528684e+00
 1.7737067093e+00	 4.5987226857e-01	 1.4798543964e+00
 1.7655359007e+00	 5.0116189168e-01	 1.3641855299e+00
 1.7565439054e+00	 5.4224603535e-01	 1.2377300009e+00
 1.7467163791e+00	 5.8309536821e-01	 1.1017113492e+00
 1.7360399723e+00	 6.2368024813e-01	 9.5738495355e-01
 1.7245023945e+00	 6.6397079227e-01	 8.0602918392e-01
 1.7120924761e+00	 7.0393695059e-01	 6.4893572889e-01
 1.6988002280e+00	 7.4354858231e-01	 4.8739917337e-01
 1.6846168981e+00	 7.8277553519e-01	 3.2270592143e-01
 1.6695350243e+00	 8.2158772709e-01	 1.5612257845e-01
 1.7950951916e+00	 4.2170051574e-01	 1.5691571742e+00
 1.7876723075e+00	 4.6349315544e-01	 1.4648402311e+00
 1.7794371646e+00	 5.0510787982e-01	 1.3486211129e+00
 1.7703743692e+00	 5.4651550686e-01	 1.2216817960e+00
 1.7604694641e+00	 5.8768647429e-01	 1.0852429808e+00
 1.7497089947e+00	 6.2859090654e-01	 9.4055602523e-01
 1.7380805737e+00	 6.6919868552e-01	 7.8889400506e-01
 1.7255729436e+00	 7.0947952455e-01	 6.3154195479e-01
 1.7121760366e+00	 7.4940304557e-01	 4.6978636810e-01
 1.6978810317e+00	 7.8893885891e-01	 3.0490405342e-01
 1.6826804081e+00	 8.2805664557e-01	 1.3815046114e-01
 1.8091187918e+00	 4.2499491452e-01	 1.5547943587e+00
 1.8016379188e+00	 4.6711404570e-01	 1.4498088854e+00
 1.7933384415e+00	 5.0905387163e-01	 1.3330156807e+00
 1.7842048459e+00	 5.5078498236e-01	 1.2055908878e+00
 1.7742225620e+00	 5.9227758464e-01	 1.0687481832e+00
 1.7633780299e+00	 6.3350156954e-01	 9.2373064515e-01
 1.7516587656e+00	 6.7442658364e-01	 7.7180175335e-01
 1.7390534237e+00	 7.1502210369e-01	 6.1423558152e-01
 1.7255518577e+00	 7.5525751430e-01	 4.5230625872e-01
 1.7111451776e+00	 7.9510218838e-01	 2.8727679889e-01
 1.6958258041e+00	 8.3452557008e-01	 1.2038741600e-01
 1.8231424066e+00	 4.2828931676e-01	 1.5404430471e+00
 1.8156035447e+00	 4.7073493975e-01	 1.4347357807e+00
 1.8072397329e+00	 5.1299986759e-01	 1.3173414817e+00
 1.7980353372e+00	 5.5505446234e-01	 1.1894264796e+00
 1.7879756743e+00	 5.9686869982e-01	 1.0521933438e+00
 1.7770470794e+00	 6.3841223768e-01	 9.0687271432e-01
 1.7652369718e+00	 6.7965448725e-01	 7.5471427683e-01
 1.7525339179e+00	 7.2056468865e-01	 5.9697694071e-01
 1.7389276928e+00	 7.6111198917e-01	 4.3491830032e-01
 1.7244093376e+00	 8.0126552432e-01	 2.6978347881e-01
 1.7089712139e+00	 8.4099450139e-01	 1.0279347318e-01
 1.5775175527e+00	 7.7630540340e-01	 2.9141968257e-01
 1.5624110349e+00	 8.1256077766e-01	 1.2492549525e-01
 1.5464451247e+00	 8.4836784386e-01	-4.3233609815e-02
 1.5296167016e+00	 8.8369883999e-01	-2.1184035260e-01
 1.5119240258e+00	 9.1852639338e-01	-3.7969812656e-01
 1.4933667671e+00	 9.5282360302e-01	-5.4564158324e-01
 1.4739460279e+00	 9.8656412157e-01	-7.0854726873e-01
 1.4536643614e+00	 1.0197222366e+00	-8.6734415652e-01
 1.4325257833e+00	 1.0522729505e+00	-1.0210239154e+00
 1.4105357781e+00	 1.0841920585e+00	-1.1686507485e+00
 1.3877012993e+00	 1.1154562249e+00	-1.3093706408e+00
 1.5906628935e+00	 7.8277430074e-01	 2.7075119346e-01
 1.5754304942e+00	 8.1933178845e-01	 1.0401630648e-01
 1.5593315412e+00	 8.5543723236e-01	-6.4215166328e-02
 1.5423628881e+00	 8.9106263915e-01	-2.3275618367e-01
 1.5245227805e+00	 9.2618040805e-01	-4.0044015550e-01
 1.5058108854e+00	 9.6076341389e-01	-5.6613127100e-01
 1.4862283146e+00	 9.9478508976e-01	-7.2873487510e-01
 1.4657776425e+00	 1.0282195090e+00	-8.8720774145e-01
 1.4444629181e+00	 1.0610414656e+00	-1.0405680847e+00
 1.4222896718e+00	 1.0932265533e+00	-1.1879051517e+00
 1.3992649148e+00	 1.1247512417e+00	-1.3283882338e+00
 1.6038082358e+00	 7.8924319884e-01	 2.5061025559e-01
 1.5884499550e+00	 8.2610280002e-01	 8.3652348584e-02
 1.5722179592e+00	 8.6250662169e-01	-8.4638580915e-02
 1.5551090760e+00	 8.9842643918e-01	-2.5310544922e-01
 1.5371215366e+00	 9.3383442362e-01	-4.2061133580e-01
 1.5182550052e+00	 9.6870322568e-01	-5.8604955408e-01
 1.4985106028e+00	 1.0030060589e+00	-7.4835376798e-01
 1.4778909249e+00	 1.0367167824e+00	-9.0650800610e-01
 1.4564000543e+00	 1.0698099818e+00	-1.0595564199e+00
 1.4340435668e+00	 1.1022610491e+00	-1.2066126302e+00
 1.4108285318e+00	 1.1340462597e+00	-1.3468685067e+00
 1.6169535813e+00	 7.9571209846e-01	 2.3094682365e-01
 1.6014694189e+00	 8.3287381318e-01	 6.3785124929e-02
 1.5851043802e+00	 8.6957601267e-01	-1.0455061930e-01
 1.5678552669e+00	 9.0579024092e-01	-2.7293300886e-01
 1.5497202957e+00	 9.4148844097e-01	-4.4025445372e-01
 1.5306991280e+00	 9.7664303932e-01	-6.0543698696e-01
 1.5107928938e+00	 1.0112270300e+00	-7.6744212142e-01
 1.4900042102e+00	 1.0452140577e+00	-9.2528060593e-01
 1.4683371932e+00	 1.0785785000e+00	-1.0780219312e+00
 1.4457974646e+00	 1.1112955471e+00	-1.2248034338e+00
 1.4223921514e+00	 1.1433412798e+00	-1.3648388473e+00
 1.6300989313e+00	 8.0218100033e-01	 2.1171247143e-01
 1.6144888873e+00	 8.3964482870e-01	 4.4367708161e-02
 1.5979908058e+00	 8.7664540612e-01	-1.2399653364e-01
 1.5806014623e+00	 9.1315404524e-01	-2.9228226999e-01
 1.5623190591e+00	 9.4914246100e-01	-4.5941091005e-01
 1.5431432550e+00	 9.8458285574e-01	-6.2433281054e-01
 1.5230751891e+00	 1.0194480039e+00	-7.8603687255e-01
 1.5021174997e+00	 1.0537113361e+00	-9.4356004062e-01
 1.4802743364e+00	 1.0873470213e+00	-1.0959965581e+00
 1.4575513664e+00	 1.1203300482e+00	-1.2425068310e+00
 1.4339557751e+00	 1.1526363031e+00	-1.3823257536e+00
 1.6432442874e+00	 8.0864990522e-01	 1.9286032704e-01
 1.6275083617e+00	 8.4641584738e-01	 2.5354677402e-02
 1.6108772373e+00	 8.8371480287e-01	-1.4302012309e-01
 1.5933476636e+00	 9.2051785299e-01	-3.1119524591e-01
 1.5749178285e+00	 9.5679648460e-01	-4.7812077559e-01
 1.5555873879e+00	 9.9252267587e-01	-6.4277500472e-01
 1.5353574902e+00	 1.0276689817e+00	-8.0417377108e-01
 1.5142307949e+00	 1.0622086184e+00	-9.6137970031e-01
 1.4922114851e+00	 1.0961155467e+00	-1.1135112123e+00
 1.4693052738e+00	 1.1293645536e+00	-1.2597511475e+00
 1.4455194041e+00	 1.1619313308e+00	-1.3993548703e+00
 1.6563896513e+00	 8.1511881389e-01	 1.7434501120e-01
 1.6405278438e+00	 8.5318687002e-01	 6.7020584511e-03
 1.6237636764e+00	 8.9078420374e-01	-1.6166379149e-01
 1.6060938724e+00	 9.2788166504e-01	-3.2971261121e-01
 1.5875166052e+00	 9.6445051267e-01	-4.9642284393e-01
 1.5680315280e+00	 1.0004625006e+00	-6.6080033845e-01
 1.5476397984e+00	 1.0358899643e+00	-8.2188742648e-01
 1.5263440971e+00	 1.0707059056e+00	-9.7877190971e-01
 1.5041486408e+00	 1.1048840772e+00	-1.1305958188e+00
 1.4810591880e+00	 1.1383990642e+00	-1.2765638044e+00
 1.4570830399e+00	 1.1712263640e+00	-1.4159510217e+00
 1.6695350243e+00	 8.2158772709e-01	 1.5612257845e-01
 1.6535473350e+00	 8.5995789739e-01	-1.1632733200e-02
 1.6366501244e+00	 8.9785360957e-01	-1.7996860231e-01
 1.6188400901e+00	 9.3524548225e-01	-3.4787375443e-01
 1.6001153907e+00	 9.7210454610e-01	-5.1435468179e-01
 1.5804756768e+00	 1.0084023309e+00	-6.7844441748e-01
 1.5599221152e+00	 1.0441109526e+00	-8.3921135292e-01
 1.5384574079e+00	 1.0792031988e+00	-9.9576797007e-01
 1.5160858048e+00	 1.1136526138e+00	-1.1472793545e+00
 1.4928131105e+00	 1.1474335811e+00	-1.2929713535e+00
 1.4686466838e+00	 1.1805214036e+00	-1.4321382448e+00
 1.6826804081e+00	 8.2805664557e-01	 1.3815046114e-01
 1.6665668368e+00	 8.6672893029e-01	-2.9690946671e-02
 1.6495365830e+00	 9.0492302116e-01	-1.9797433109e-01
 1.6315863182e+00	 9.4260930547e-01	-3.6571682841e-01
 1.6127141865e+00	 9.7975858577e-01	-5.3195267698e-01
 1.5929198358e+00	 1.0163421678e+00	-6.9574172980e-01
 1.5722044421e+00	 1.0523319477e+00	-8.5617801205e-01
 1.5505707285e+00	 1.0877004990e+00	-1.0123981992e+00
 1.5280229786e+00	 1.1224211576e+00	-1.1635898854e+00
 1.5045670425e+00	 1.1564681054e+00	-1.3089995114e+00
 1.4802103372e+00	 1.1898164508e+00	-1.4479398199e+00
 1.6958258041e+00	 8.3452557008e-01	 1.2038741600e-01
 1.6795863508e+00	 8.7349996951e-01	-4.7512547473e-02
 1.6624230537e+00	 9.1199243936e-01	-2.1571951531e-01
 1.6443325582e+00	 9.4997313556e-01	-3.8327879814e-01
 1.6253129941e+00	 9.8741263259e-01	-5.4925208412e-01
 1.6053640065e+00	 1.0242820120e+00	-7.1272568902e-01
 1.5844867804e+00	 1.0605529504e+00	-8.7281885390e-01
 1.5626840604e+00	 1.0961978071e+00	-1.0286919696e+00
 1.5399601635e+00	 1.1311897096e+00	-1.1795546021e+00
 1.5163209855e+00	 1.1655026382e+00	-1.3246731919e+00
 1.4917740013e+00	 1.1991115067e+00	-1.4633783000e+00
 1.7089712139e+00	 8.4099450139e-01	 1.0279347318e-01
 1.6926058784e+00	 8.8027101584e-01	-6.5136266899e-02
 1.6753095378e+00	 9.1906186497e-01	-2.3324150208e-01
 1.6570788115e+00	 9.5733697338e-01	-4.0059548656e-01
 1.6379118149e+00	 9.9506668745e-01	-5.6628706825e-01
 1.6178081901e+00	 1.0322218645e+00	-7.2942867573e-01
 1.5967691316e+00	 1.0687739617e+00	-8.8916435579e-01
 1.5747974050e+00	 1.1046951241e+00	-1.0446777449e+00
 1.5518973610e+00	 1.1399582708e+00	-1.1951998530e+00
 1.5280749409e+00	 1.1745371804e+00	-1.3400165369e+00
 1.5033376776e+00	 1.2084065724e+00	-1.4784755385e+00
 1.3877012993e+00	 1.1154562249e+00	-1.3093706408e+00
 1.3640307593e+00	 1.1460430583e+00	-1.4431003020e+00
 1.3395340068e+00	 1.1759311900e+00	-1.5698868368e+00
 1.3142223190e+00	 1.2051003319e+00	-1.6891877683e+00
 1.2881083803e+00	 1.2335313361e+00	-1.8005302252e+00
 1.2612062521e+00	 1.2612062521e+00	-1.9035149384e+00
 1.2335313361e+00	 1.2881083803e+00	-1.9978194133e+00
 1.2051003319e+00	 1.3142223190e+00	-2.0832002265e+00
 1.1759311900e+00	 1.3395340068e+00	-2.1594944109e+00
 1.1460430583e+00	 1.3640307593e+00	-2.2266199095e+00
 1.1154562249e+00	 1.3877012993e+00	-2.2845750990e+00
 1.3992649148e+00	 1.1247512417e+00	-1.3283882338e+00
 1.3753971299e+00	 1.1555929530e+00	-1.4618996598e+00
 1.3506962478e+00	 1.1857301404e+00	-1.5884516540e+00
 1.3251736395e+00	 1.2151423467e+00	-1.7075229967e+00
 1.2988420952e+00	 1.2438102644e+00	-1.8186621336e+00
 1.2717157935e+00	 1.2717157935e+00	-1.9214910129e+00
 1.2438102644e+00	 1.2988420952e+00	-2.0157080998e+00
 1.2151423467e+00	 1.3251736395e+00	-2.1010905157e+00
 1.1857301404e+00	 1.3506962478e+00	-2.1774952705e+00
 1.1555929530e+00	 1.3753971299e+00	-2.2448595705e+00
 1.1247512417e+00	 1.3992649148e+00	-2.3032002037e+00
 1.4108285318e+00	 1.1340462597e+00	-1.3468685067e+00
 1.3867635019e+00	 1.1651428489e+00	-1.4801751846e+00
 1.3618584901e+00	 1.1955290920e+00	-1.6065129399e+00
 1.3361249613e+00	 1.2251843627e+00	-1.7253806372e+00
 1.3095758114e+00	 1.2540891939e+00	-1.8363468416e+00
 1.2822253362e+00	 1.2822253362e+00	-1.9390535079e+00
 1.2540891939e+00	 1.3095758114e+00	-2.0332188456e+00
 1.2251843627e+00	 1.3361249613e+00	-2.1186393115e+00
 1.1955290920e+00	 1.3618584901e+00	-2.1951906992e+00
 1.1651428489e+00	 1.3867635019e+00	-2.2628283101e+00
 1.1340462597e+00	 1.4108285318e+00	-2.3215862095e+00
 1.4223921514e+00	 1.1433412798e+00	-1.3648388473e+00
 1.3981298765e+00	 1.1746927470e+00	-1.4979513179e+00
 1.3730207349e+00	 1.2053280458e+00	-1.6240921307e+00
 1.3470762856e+00	 1.2352263810e+00	-1.7427790839e+00
 1.3203095301e+00	 1.2643681258e+00	-1.8535996883e+00
 1.2927348813e+00	 1.2927348813e+00	-1.9562147171e+00
 1.2643681258e+00	 1.3203095301e+00	-2.0503609318e+00
 1.2352263810e+00	 1.3470762856e+00	-2.1358529380e+00
 1.2053280458e+00	 1.3730207349e+00	-2.2125841415e+00
 1.1746927470e+00	 1.3981298765e+00	-2.2805267918e+00
 1.1433412798e+00	 1.4223921514e+00	-2.3397311191e+00
 1.4339557751e+00	 1.1526363031e+00	-1.3823257536e+00
 1.4094962552e+00	 1.1842426484e+00	-1.5152517066e+00
 1.3841829837e+00	 1.2151270031e+00	-1.6412099646e+00
 1.3580276137e+00	 1.2452684028e+00	-1.7597361314e+00
 1.3310432525e+00	 1.2746470613e+00	-1.8704355116e+00
 1.3032444300e+00	 1.3032444300e+00	-1.9729865312e+00
 1.2746470613e+00	 1.3310432525e+00	-2.0671433337e+00
 1.2452684028e+00	 1.3580276137e+00	-2.1527375086e+00
 1.2151270031e+00	 1.3841829837e+00	-2.2296789238e+00
 1.1842426484e+00	 1.4094962552e+00	-2.2979556511e+00
 1.1526363031e+00	 1.4339557751e+00	-2.3576329929e+00
 1.4455194041e+00	 1.1619313308e+00	-1.3993548703e+00
 1.4208626391e+00	 1.1937925543e+00	-1.5320992350e+00
 1.3953452377e+00	 1.2249259649e+00	-1.6578865104e+00
 1.3689789470e+00	 1.2553104293e+00	-1.7762689987e+00
 1.3417769799e+00	 1.2849260016e+00	-1.8868686684e+00
 1.3137539837e+00	 1.3137539837e+00	-1.9893804541e+00
 1.2849260016e+00	 1.3417769799e+00	-2.0835747330e+00
 1.2553104293e+00	 1.3689789470e+00	-2.1692989346e+00
 1.2249259649e+00	 1.3953452377e+00	-2.2464782597e+00
 1.1937925543e+00	 1.4208626391e+00	-2.3151154967e+00
 1.1619313308e+00	 1.4455194041e+00	-2.3752899466e+00
 1.4570830399e+00	 1.1712263640e+00	-1.4159510217e+00
 1.4322290296e+00	 1.2033424658e+00	-1.5485160551e+00
 1.4065074982e+00	 1.2347249325e+00	-1.6741411937e+00
 1.3799302867e+00	 1.2653524617e+00	-1.7923943521e+00
 1.3525107136e+00	 1.2952049479e+00	-1.9029130535e+00
 1.3242635435e+00	 1.3242635435e+00	-2.0054076184e+00
 1.2952049479e+00	 1.3525107136e+00	-2.0996635293e+00
 1.2653524617e+00	 1.3799302867e+00	-2.1855429332e+00
 1.2347249325e+00	 1.4065074982e+00	-2.2629852542e+00
 1.2033424658e+00	 1.4322290296e+00	-2.3320069113e+00
 1.1712263640e+00	 1.4570830399e+00	-2.3927001492e+00
 1.4686466838e+00	 1.1805214036e+00	-1.4321382448e+00
 1.4435954281e+00	 1.2128923839e+00	-1.5645236154e+00
 1.4176697665e+00	 1.2445239069e+00	-1.6899928223e+00
 1.3908816340e+00	 1.2753945010e+00	-1.8081283269e+00
 1.3632444548e+00	 1.3054839014e+00	-1.9185821183e+00
 1.3347731106e+00	 1.3347731106e+00	-2.0210787996e+00
 1.3054839014e+00	 1.3632444548e+00	-2.1154178518e+00
 1.2753945010e+00	 1.3908816340e+00	-2.2014750354e+00
 1.2445239069e+00	 1.4176697665e+00	-2.2792029084e+00
 1.2128923839e+00	 1.4435954281e+00	-2.3486304528e+00
 1.1805214036e+00	 1.4686466838e+00	-2.4098618211e+00
 1.4802103372e+00	 1.1898164508e+00	-1.4479398199e+00
 1.4549618359e+00	 1.2224423099e+00	-1.5801426883e+00
 1.4288320440e+00	 1.2543228893e+00	-1.7054596107e+00
 1.4018329902e+00	 1.2854365486e+00	-1.8234865484e+00
 1.3739782048e+00	 1.3157628633e+00	-1.9338888875e+00
 1.3452826863e+00	 1.3452826863e+00	-2.0364044308e+00
 1.3157628633e+00	 1.3739782048e+00	-2.1308455691e+00
 1.2854365486e+00	 1.4018329902e+00	-2.2171005929e+00
 1.2543228893e+00	 1.4288320440e+00	-2.2951341230e+00
 1.2224423099e+00	 1.4549618359e+00	-2.3649866555e+00
 1.1898164508e+00	 1.4802103372e+00	-2.4267732319e+00
 1.4917740013e+00	 1.1991115067e+00	-1.4633783000e+00
 1.4663282543e+00	 1.2319922447e+00	-1.5953933968e+00
 1.4399943318e+00	 1.2641218809e+00	-1.7205592027e+00
 1.4127843567e+00	 1.2954786056e+00	-1.8384841518e+00
 1.3847119648e+00	 1.3260418348e+00	-1.9488459765e+00
 1.3557922719e+00	 1.3557922719e+00	-2.0513946155e+00
 1.3260418348e+00	 1.3847119648e+00	-2.1459543002e+00
 1.2954786056e+00	 1.4127843567e+00	-2.2324247857e+00
 1.2641218809e+00	 1.4399943318e+00	-2.3107817031e+00
 1.2319922447e+00	 1.4663282543e+00	-2.3810760311e+00
 1.1991115067e+00	 1.4917740013e+00	-2.4434326984e+00
 1.5033376776e+00	 1.2084065724e+00	-1.4784755385e+00
 1.4776946846e+00	 1.2415421896e+00	-1.6102952390e+00
 1.4511566314e+00	 1.2739208828e+00	-1.7353086939e+00
 1.4237357347e+00	 1.3055206731e+00	-1.8531358006e+00
 1.3954457360e+00	 1.3363208170e+00	-1.9634656066e+00
 1.3663018685e+00	 1.3663018685e+00	-2.0660591404e+00
 1.3363208170e+00	 1.3954457360e+00	-2.1607514236e+00
 1.3055206731e+00	 1.4237357347e+00	-2.2474526283e+00
 1.2739208828e+00	 1.4511566314e+00	-2.3261483611e+00
 1.2415421896e+00	 1.4776946846e+00	-2.3968990691e+00
 1.2084065724e+00	 1.5033376776e+00	-2.4598385833e+00
 1.1154562249e+00	 1.3877012993e+00	-2.2845750990e+00
 1.0841920585e+00	 1.4105357781e+00	-2.3340509079e+00
 1.0522729505e+00	 1.4325257833e+00	-2.3757760514e+00
 1.0197222366e+00	 1.4536643614e+00	-2.4098807791e+00
 9.8656412157e-01	 1.4739460279e+00	-2.4365146991e+00
 9.5282360302e-01	 1.4933667671e+00	-2.4558448536e+00
 9.1852639338e-01	 1.5119240258e+00	-2.4680537014e+00
 8.8369883999e-01	 1.5296167016e+00	-2.4733370355e+00
 8.4836784386e-01	 1.5464451247e+00	-2.4719018650e+00
 8.1256077766e-01	 1.5624110349e+00	-2.4639642910e+00
 7.7630540340e-01	 1.5775175527e+00	-2.4497474015e+00
 1.1247512417e+00	 1.3992649148e+00	-2.3032002037e+00
 1.0932265533e+00	 1.4222896718e+00	-2.3531411608e+00
 1.0610414656e+00	 1.4444629181e+00	-2.3953327680e+00
 1.0282195090e+00	 1.4657776425e+00	-2.4299082218e+00
 9.9478508976e-01	 1.4862283146e+00	-2.4570232389e+00
 9.6076341389e-01	 1.5058108854e+00	-2.4768540039e+00
 9.2618040805e-01	 1.5245227805e+00	-2.4895949892e+00
 8.9106263915e-01	 1.5423628881e+00	-2.4954566781e+00
 8.5543723236e-01	 1.5593315412e+00	-2.4946632262e+00
 8.1933178845e-01	 1.5754304942e+00	-2.4874500925e+00
 7.8277430074e-01	 1.5906628935e+00	-2.4740616727e+00
 1.1340462597e+00	 1.4108285318e+00	-2.3215862095e+00
 1.1022610491e+00	 1.4340435668e+00	-2.3720272818e+00
 1.0698099818e+00	 1.4564000543e+00	-2.4147296166e+00
 1.0367167824e+00	 1.4778909249e+00	-2.4498287274e+00
 1.0030060589e+00	 1.4985106028e+00	-2.4774858012e+00
 9.6870322568e-01	 1.5182550052e+00	-2.4978855247e+00
 9.3383442362e-01	 1.5371215366e+00	-2.5112337453e+00
 8.9842643918e-01	 1.5551090760e+00	-2.5177550059e+00
 8.6250662169e-01	 1.5722179592e+00	-2.5176899896e+00
 8.2610280002e-01	 1.5884499550e+00	-2.5112929109e+00
 7.8924319884e-01	 1.6038082358e+00	-2.4988288906e+00
 1.1433412798e+00	 1.4223921514e+00	-2.3397311191e+00
 1.1112955471e+00	 1.4457974646e+00	-2.3907046195e+00
 1.0785785000e+00	 1.4683371932e+00	-2.4339591775e+00
 1.0452140577e+00	 1.4900042102e+00	-2.4696320024e+00
 1.0112270300e+00	 1.5107928938e+00	-2.4978891233e+00
 9.7664303932e-01	 1.5306991280e+00	-2.5189230972e+00
 9.4148844097e-01	 1.5497202957e+00	-2.5329505190e+00
 9.0579024092e-01	 1.5678552669e+00	-2.5402093709e+00
 8.6957601267e-01	 1.5851043802e+00	-2.5409562554e+00
 8.3287381318e-01	 1.6014694189e+00	-2.5354635511e+00
 7.9571209846e-01	 1.6169535813e+00	-2.5240165321e+00
 1.1526363031e+00	 1.4339557751e+00	-2.3576329929e+00
 1.1203300482e+00	 1.4575513664e+00	-2.4091686656e+00
 1.0873470213e+00	 1.4802743364e+00	-2.4530142634e+00
 1.0537113361e+00	 1.5021174997e+00	-2.4893080788e+00
 1.0194480039e+00	 1.5230751891e+00	-2.5182203629e+00
 9.8458285574e-01	 1.5431432550e+00	-2.5399509222e+00
 9.4914246100e-01	 1.5623190591e+00	-2.5547264803e+00
 9.1315404524e-01	 1.5806014623e+00	-2.5627978490e+00
 8.7664540612e-01	 1.5979908058e+00	-2.5644369527e+00
 8.3964482870e-01	 1.6144888873e+00	-2.5599337528e+00
 8.0218100033e-01	 1.6300989313e+00	-2.5495931164e+00
 1.1619313308e+00	 1.4455194041e+00	-2.3752899466e+00
 1.1293645536e+00	 1.4693052738e+00	-2.4274150494e+00
 1.0961155467e+00	 1.4922114851e+00	-2.4718879105e+00
 1.0622086184e+00	 1.5142307949e+00	-2.5088473007e+00
 1.0276689817e+00	 1.5353574902e+00	-2.5384670824e+00
 9.9252267587e-01	 1.5555873879e+00	-2.5609536991e+00
 9.5679648460e-01	 1.5749178285e+00	-2.5765433949e+00
 9.2051785299e-01	 1.5933476636e+00	-2.5854992109e+00
 8.8371480287e-01	 1.6108772373e+00	-2.5881078060e+00
 8.4641584738e-01	 1.6275083617e+00	-2.5846761537e+00
 8.0864990522e-01	 1.6432442874e+00	-2.5755281635e+00
 1.1712263640e+00	 1.4570830399e+00	-2.3927001492e+00
 1.1383990642e+00	 1.4810591880e+00	-2.4454395325e+00
 1.1048840772e+00	 1.5041486408e+00	-2.4905733692e+00
 1.0707059056e+00	 1.5263440971e+00	-2.5282403121e+00
 1.0358899643e+00	 1.5476397984e+00	-2.5586172321e+00
 1.0004625006e+00	 1.5680315280e+00	-2.5819166066e+00
 9.6445051267e-01	 1.5875166052e+00	-2.5983836009e+00
 9.2788166504e-01	 1.6060938724e+00	-2.6082928947e+00
 8.9078420374e-01	 1.6237636764e+00	-2.6119453039e+00
 8.5318687002e-01	 1.6405278438e+00	-2.6096642536e+00
 8.1511881389e-01	 1.6563896513e+00	-2.6017921550e+00
 1.1805214036e+00	 1.4686466838e+00	-2.4098618211e+00
 1.1474335811e+00	 1.4928131105e+00	-2.4632380034e+00
 1.1136526138e+00	 1.5160858048e+00	-2.5090640962e+00
 1.0792031988e+00	 1.5384574079e+00	-2.5474780451e+00
 1.0441109526e+00	 1.5599221152e+00	-2.5786591355e+00
 1.0084023309e+00	 1.5804756768e+00	-2.6028252837e+00
 9.7210454610e-01	 1.6001153907e+00	-2.6202299861e+00
 9.3524548225e-01	 1.6188400901e+00	-2.6311589797e+00
 8.9785360957e-01	 1.6366501244e+00	-2.6359266694e+00
 8.5995789739e-01	 1.6535473350e+00	-2.6348723805e+00
 8.2158772709e-01	 1.6695350243e+00	-2.6283564954e+00
 1.1898164508e+00	 1.4802103372e+00	-2.4267732319e+00
 1.1564681054e+00	 1.5045670425e+00	-2.4808064728e+00
 1.1224211576e+00	 1.5280229786e+00	-2.5273537460e+00
 1.0877004990e+00	 1.5505707285e+00	-2.5665517089e+00
 1.0523319477e+00	 1.5722044421e+00	-2.5985814744e+00
 1.0163421678e+00	 1.5929198358e+00	-2.6236658116e+00
 9.7975858577e-01	 1.6127141865e+00	-2.6420659664e+00
 9.4260930547e-01	 1.6315863182e+00	-2.6540781611e+00
 9.0492302116e-01	 1.6495365830e+00	-2.6600298305e+00
 8.6672893029e-01	 1.6665668368e+00	-2.6602756584e+00
 8.2805664557e-01	 1.6826804081e+00	-2.6551934769e+00
 1.1991115067e+00	 1.4917740013e+00	-2.4434326984e+00
 1.1655026382e+00	 1.5163209855e+00	-2.4981410686e+00
 1.1311897096e+00	 1.5399601635e+00	-2.5454361639e+00
 1.0961978071e+00	 1.5626840604e+00	-2.5854527787e+00
 1.0605529504e+00	 1.5844867804e+00	-2.6183732753e+00
 1.0242820120e+00	 1.6053640065e+00	-2.6444246969e+00
 9.8741263259e-01	 1.6253129941e+00	-2.6638754661e+00
 9.4997313556e-01	 1.6443325582e+00	-2.6770317267e+00
 9.1199243936e-01	 1.6624230537e+00	-2.6842333935e+00
 8.7349996951e-01	 1.6795863508e+00	-2.6858499763e+00
 8.3452557008e-01	 1.6958258041e+00	-2.6822762445e+00
 1.2084065724e+00	 1.5033376776e+00	-2.4598385833e+00
 1.1745371804e+00	 1.5280749409e+00	-2.5152380320e+00
 1.1399582708e+00	 1.5518973610e+00	-2.5633053782e+00
 1.1046951241e+00	 1.5747974050e+00	-2.6041729862e+00
 1.0687739617e+00	 1.5967691316e+00	-2.6380238960e+00
 1.0322218645e+00	 1.6178081901e+00	-2.6650888551e+00
 9.9506668745e-01	 1.6379118149e+00	-2.6856428976e+00
 9.5733697338e-01	 1.6570788115e+00	-2.7000015337e+00
 9.1906186497e-01	 1.6753095378e+00	-2.7085166170e+00
 8.8027101584e-01	 1.6926058784e+00	-2.7115719592e+00
 8.4099450139e-01	 1.7089712139e+00	-2.7095787636e+00
 7.7630540340e-01	 1.5775175527e+00	-2.4497474015e+00
 7.3963236984e-01	 1.5917681795e+00	-2.4319747765e+00
 7.0256743511e-01	 1.6051697863e+00	-2.4133455212e+00
 6.6513902335e-01	 1.6177294238e+00	-2.3939900964e+00
 6.2737562495e-01	 1.6294553618e+00	-2.3739575764e+00
 5.8930571946e-01	 1.6403570387e+00	-2.3532203569e+00
 5.5095770069e-01	 1.6504450087e+00	-2.3316794124e+00
 5.1235980447e-01	 1.6597308847e+00	-2.3091699893e+00
 4.7354003919e-01	 1.6682272805e+00	-2.2854676241e+00
 4.3452611959e-01	 1.6759477498e+00	-2.2602943791e+00
 3.9534540388e-01	 1.6829067243e+00	-2.2333251922e+00
 7.8277430074e-01	 1.5906628935e+00	-2.4740616727e+00
 7.4579567342e-01	 1.6050322698e+00	-2.4570980529e+00
 7.0842187924e-01	 1.6185455512e+00	-2.4391308479e+00
 6.7068157921e-01	 1.6312098473e+00	-2.4203060186e+00
 6.3260350112e-01	 1.6430334966e+00	-2.4006868857e+00
 5.9421636183e-01	 1.6540260165e+00	-2.3802588255e+00
 5.5554879177e-01	 1.6641980487e+00	-2.3589345283e+00
 5.1662926203e-01	 1.6735613033e+00	-2.3365597068e+00
 4.7748601443e-01	 1.6821284990e+00	-2.3129191415e+00
 4.3814699464e-01	 1.6899133024e+00	-2.2877429527e+00
 3.9863978883e-01	 1.6969302655e+00	-2.2607129972e+00
 7.8924319884e-01	 1.6038082358e+00	-2.4988288906e+00
 7.5195897772e-01	 1.6182963616e+00	-2.4827685686e+00
 7.1427632406e-01	 1.6319213177e+00	-2.4655510441e+00
 6.7622413571e-01	 1.6446902723e+00	-2.4473387805e+00
 6.3783137789e-01	 1.6566116331e+00	-2.4282105919e+00
 5.9912700477e-01	 1.6676949958e+00	-2.4081662997e+00
 5.6013988338e-01	 1.6779510904e+00	-2.3871319665e+00
 5.2089872010e-01	 1.6873917235e+00	-2.3649655918e+00
 4.8143199014e-01	 1.6960297191e+00	-2.3414631566e+00
 4.4176787011e-01	 1.7038788566e+00	-2.3163649058e+00
 4.0193417416e-01	 1.7109538084e+00	-2.2893617651e+00
 7.9571209846e-01	 1.6169535813e+00	-2.5240165321e+00
 7.5812228347e-01	 1.6315604565e+00	-2.5089509982e+00
 7.2013077025e-01	 1.6452970872e+00	-2.4925690354e+00
 6.8176669352e-01	 1.6581707005e+00	-2.4750505739e+00
 6.4305925589e-01	 1.6701897727e+00	-2.4564911253e+00
 6.0403764886e-01	 1.6813639784e+00	-2.4369063748e+00
 5.6473097606e-01	 1.6917041353e+00	-2.4162373629e+00
 5.2516817917e-01	 1.7012221470e+00	-2.3943561429e+00
 4.8537796676e-01	 1.7099309424e+00	-2.3710717977e+00
 4.4538874642e-01	 1.7178444141e+00	-2.3461367057e+00
 4.0522856026e-01	 1.7249773546e+00	-2.3192529521e+00
 8.0218100033e-01	 1.6300989313e+00	-2.5495931164e+00
 7.6428559136e-01	 1.6448245561e+00	-2.5356111491e+00
 7.2598521848e-01	 1.6586728615e+00	-2.5201489367e+00
 6.8730925326e-01	 1.6716511334e+00	-2.5034048038e+00
 6.4828713572e-01	 1.6837679171e+00	-2.4854921225e+00
 6.0894829467e-01	 1.6950329657e+00	-2.4664438143e+00
 5.6932207035e-01	 1.7054571851e+00	-2.4462174557e+00
 5.2943763972e-01	 1.7150525753e+00	-2.4247008692e+00
 4.8932394477e-01	 1.7238321706e+00	-2.4017180866e+00
 4.4900962400e-01	 1.7318099765e+00	-2.3770355734e+00
 4.0852294751e-01	 1.7390009056e+00	-2.3503686075e+00
 8.0864990522e-01	 1.6432442874e+00	-2.5755281635e+00
 7.7044890214e-01	 1.6580886618e+00	-2.5627159166e+00
 7.3183966945e-01	 1.6720486420e+00	-2.5482560050e+00
 6.9285181559e-01	 1.6851315726e+00	-2.5323660402e+00
 6.5351501798e-01	 1.6973460678e+00	-2.5151783771e+00
 6.1385894277e-01	 1.7087019594e+00	-2.4967445035e+00
 5.7391316678e-01	 1.7192102412e+00	-2.4770400419e+00
 5.3370710228e-01	 1.7288830101e+00	-2.4559702497e+00
 4.9326992462e-01	 1.7377334053e+00	-2.4333759032e+00
 4.5263050327e-01	 1.7457755454e+00	-2.4090394535e+00
 4.1181733630e-01	 1.7530244632e+00	-2.3826913497e+00
 8.1511881389e-01	 1.6563896513e+00	-2.6017921550e+00
 7.7661221651e-01	 1.6713527753e+00	-2.5902332403e+00
 7.3769412383e-01	 1.6854244303e+00	-2.5768565941e+00
 6.9839438115e-01	 1.6986120196e+00	-2.5618999714e+00
 6.5874290330e-01	 1.7109242264e+00	-2.5455157947e+00
 6.1876959373e-01	 1.7223709611e+00	-2.5277754046e+00
 5.7850426589e-01	 1.7329633053e+00	-2.5086739348e+00
 5.3797656732e-01	 1.7427134529e+00	-2.4881356951e+00
 4.9721590677e-01	 1.7516346481e+00	-2.4660199507e+00
 4.5625138465e-01	 1.7597411225e+00	-2.4421269854e+00
 4.1511172701e-01	 1.7670480290e+00	-2.4162043439e+00
 8.2158772709e-01	 1.6695350243e+00	-2.6283564954e+00
 7.8277553519e-01	 1.6846168981e+00	-2.6181320637e+00
 7.4354858231e-01	 1.6988002280e+00	-2.6059181111e+00
 7.0393695059e-01	 1.7120924761e+00	-2.5919733606e+00
 6.6397079227e-01	 1.7245023945e+00	-2.5764713486e+00
 6.2368024813e-01	 1.7360399723e+00	-2.5595045148e+00
 5.8309536821e-01	 1.7467163791e+00	-2.5410889246e+00
 5.4224603535e-01	 1.7565439054e+00	-2.5211695111e+00
 5.0116189168e-01	 1.7655359007e+00	-2.4996257241e+00
 4.5987226857e-01	 1.7737067093e+00	-2.4762774763e+00
 4.1840612003e-01	 1.7810716046e+00	-2.4508912802e+00
 8.2805664557e-01	 1.6826804081e+00	-2.6551934769e+00
 7.8893885891e-01	 1.6978810317e+00	-2.6463822944e+00
 7.4940304557e-01	 1.7121760366e+00	-2.6354089759e+00
 7.0947952455e-01	 1.7255729436e+00	-2.6225540035e+00
 6.6919868552e-01	 1.7380805737e+00	-2.6080130383e+00
 6.2859090654e-01	 1.7497089947e+00	-2.5919008253e+00
 5.8768647429e-01	 1.7604694641e+00	-2.5742557397e+00
 5.4651550686e-01	 1.7703743692e+00	-2.5550448631e+00
 5.0510787982e-01	 1.7794371646e+00	-2.5341694786e+00
 4.6349315544e-01	 1.7876723075e+00	-2.5114708746e+00
 4.2170051574e-01	 1.7950951916e+00	-2.4867363539e+00
 8.3452557008e-01	 1.6958258041e+00	-2.6822762445e+00
 7.9510218838e-01	 1.7111451776e+00	-2.6749547671e+00
 7.5525751430e-01	 1.7255518577e+00	-2.6652985812e+00
 7.1502210369e-01	 1.7390534237e+00	-2.6536106886e+00
 6.7442658364e-01	 1.7516587656e+00	-2.6401098501e+00
 6.3350156954e-01	 1.7633780299e+00	-2.6249342835e+00
 5.9227758464e-01	 1.7742225620e+00	-2.6081460106e+00
 5.5078498236e-01	 1.7842048459e+00	-2.5897357435e+00
 5.0905387163e-01	 1.7933384415e+00	-2.5696282005e+00
 4.6711404570e-01	 1.8016379188e+00	-2.5476877455e+00
 4.2499491452e-01	 1.8091187918e+00	-2.5237242449e+00
 8.4099450139e-01	 1.7089712139e+00	-2.7095787636e+00
 8.0126552432e-01	 1.7244093376e+00	-2.7038212078e+00
 7.6111198917e-01	 1.7389276928e+00	-2.6955572560e+00
 7.2056468865e-01	 1.7525339179e+00	-2.6851131589e+00
 6.7965448725e-01	 1.7652369718e+00	-2.6727317184e+00
 6.3841223768e-01	 1.7770470794e+00	-2.6585757557e+00
 5.9686869982e-01	 1.7879756743e+00	-2.6427322356e+00
 5.5505446234e-01	 1.7980353372e+00	-2.6252169394e+00
 5.1299986759e-01	 1.8072397329e+00	-2.6059795792e+00
 4.7073493975e-01	 1.8156035447e+00	-2.5849092473e+00
 4.2828931676e-01	 1.8231424066e+00	-2.5618401000e+00
 3.9534540388e-01	 1.6829067243e+00	-2.2333251922e+00
 3.5602208484e-01	 1.6891198593e+00	-2.2076387224e+00
 3.1658541179e-01	 1.6946026414e+00	-2.1863574069e+00
 2.7706137859e-01	 1.6993717569e+00	-2.1691728982e+00
 2.3747540569e-01	 1.7034445140e+00	-2.1557636600e+00
 1.9785229655e-01	 1.7068387780e+00	-2.1457976465e+00
 1.5821619810e-01	 1.7095729076e+00	-2.1389348466e+00
 1.1859056526e-01	 1.7116656925e+00	-2.1348296778e+00
 7.8998129670e-02	 1.7131362910e+00	-2.1331332176e+00
 3.9460872273e-02	 1.7140041702e+00	-2.1334952652e+00
 0.0000000000e+00	 1.7142890476e+00	-2.1355662276e+00
 3.9863978883e-01	 1.6969302655e+00	-2.2607129972e+00
 3.5898879138e-01	 1.7031951742e+00	-2.2349926306e+00
 3.1922349536e-01	 1.7087236439e+00	-2.2137714322e+00
 2.7937011122e-01	 1.7135325001e+00	-2.1967206299e+00
 2.3945427124e-01	 1.7176391952e+00	-2.1834981700e+00
 1.9950098557e-01	 1.7210617433e+00	-2.1737515518e+00
 1.5953460235e-01	 1.7238186563e+00	-2.1671205121e+00
 1.1957877195e-01	 1.7259288802e+00	-2.1632395446e+00
 7.9656415427e-02	 1.7274117330e+00	-2.1617402416e+00
 3.9789696896e-02	 1.7282868443e+00	-2.1622534508e+00
 0.0000000000e+00	 1.7285740955e+00	-2.1644112423e+00
 4.0193417416e-01	 1.7109538084e+00	-2.2893617651e+00
 3.6195549827e-01	 1.7172704907e+00	-2.2637017462e+00
 3.2186157924e-01	 1.7228446480e+00	-2.2426367612e+00
 2.8167884412e-01	 1.7276932449e+00	-2.2258121967e+00
 2.4143313702e-01	 1.7318338780e+00	-2.2128595087e+00
 2.0114967479e-01	 1.7352847103e+00	-2.2033993160e+00
 1.6085300675e-01	 1.7380644066e+00	-2.1970443238e+00
 1.2056697876e-01	 1.7401920695e+00	-2.1934020627e+00
 8.0314701260e-02	 1.7416871767e+00	-2.1920774287e+00
 4.0118521557e-02	 1.7425695200e+00	-2.1926750173e+00
 0.0000000000e+00	 1.7428591451e+00	-2.1948012463e+00
 4.0522856026e-01	 1.7249773546e+00	-2.3192529521e+00
 3.6492220586e-01	 1.7313458104e+00	-2.2937509111e+00
 3.2449966374e-01	 1.7369656554e+00	-2.2729379469e+00
 2.8398757756e-01	 1.7418539931e+00	-2.2564284075e+00
 2.4341200327e-01	 1.7460285641e+00	-2.2438215123e+00
 2.0279836438e-01	 1.7495076806e+00	-2.2347048048e+00
 1.6217141146e-01	 1.7523101602e+00	-2.2286574142e+00
 1.2155518579e-01	 1.7544552621e+00	-2.2252531050e+00
 8.0972987247e-02	 1.7559626238e+00	-2.2240631022e+00
 4.0447346294e-02	 1.7568521990e+00	-2.2246586834e+00
 0.0000000000e+00	 1.7571441980e+00	-2.2266135318e+00
 4.0852294751e-01	 1.7390009056e+00	-2.3503686075e+00
 3.6788891448e-01	 1.7454211351e+00	-2.3251254513e+00
 3.2713774915e-01	 1.7510866678e+00	-2.3046600359e+00
 2.8629631180e-01	 1.7560147461e+00	-2.2885506859e+00
 2.4539087020e-01	 1.7602232552e+00	-2.2763588562e+00
 2.0444705456e-01	 1.7637306559e+00	-2.2676330454e+00
 1.6348981663e-01	 1.7665559188e+00	-2.2619124885e+00
 1.2254339317e-01	 1.7687184598e+00	-2.2587306094e+00
 8.1631273464e-02	 1.7702380758e+00	-2.2576182166e+00
 4.0776171146e-02	 1.7711348830e+00	-2.2581064318e+00
 0.0000000000e+00	 1.7714292559e+00	-2.2597293463e+00
 4.1181733630e-01	 1.7530244632e+00	-2.3826913497e+00
 3.7085562448e-01	 1.7594964664e+00	-2.3578111574e+00
 3.2977583580e-01	 1.7652076867e+00	-2.3377885486e+00
 2.8860504713e-01	 1.7701755058e+00	-2.3221610449e+00
 2.4736973806e-01	 1.7744179530e+00	-2.3104470221e+00
 2.0609574550e-01	 1.7779536378e+00	-2.3021501797e+00
 1.6480822242e-01	 1.7808016841e+00	-2.2967637608e+00
 1.2353160101e-01	 1.7829816641e+00	-2.2937744958e+00
 8.2289559989e-02	 1.7845135346e+00	-2.2926662522e+00
 4.1104996152e-02	 1.7854175737e+00	-2.2929233785e+00
 0.0000000000e+00	 1.7857143204e+00	-2.2940337348e+00
 4.1511172701e-01	 1.7670480290e+00	-2.4162043439e+00
 3.7382233622e-01	 1.7735718059e+00	-2.3917942662e+00
 3.3241392399e-01	 1.7793287139e+00	-2.3723094600e+00
 2.9091378380e-01	 1.7843362738e+00	-2.3572420644e+00
 2.4934860708e-01	 1.7886126590e+00	-2.3460622655e+00
 2.0774443740e-01	 1.7921766280e+00	-2.3382234204e+00
 1.6612662897e-01	 1.7950474576e+00	-2.3331668951e+00
 1.2451980942e-01	 1.7972448767e+00	-2.3303265878e+00
 8.2947846897e-02	 1.7987890016e+00	-2.3291331153e+00
 4.1433821349e-02	 1.7997002727e+00	-2.3290176485e+00
 0.0000000000e+00	 1.7999993933e+00	-2.3294153887e+00
 4.1840612003e-01	 1.7810716046e+00	-2.4508912802e+00
 3.7678905003e-01	 1.7876471552e+00	-2.4270614430e+00
 3.3505201402e-01	 1.7934497510e+00	-2.4082091824e+00
 2.9322252208e-01	 1.7984970517e+00	-2.3937768679e+00
 2.5132747748e-01	 1.8028073749e+00	-2.3831815854e+00
 2.0939313046e-01	 1.8063996282e+00	-2.3758210086e+00
 1.6744503645e-01	 1.8092932412e+00	-2.3710789477e+00
 1.2550801853e-01	 1.8115080993e+00	-2.3683305376e+00
 8.3606134266e-02	 1.8130644786e+00	-2.3669470423e+00
 4.1762646777e-02	 1.8139829818e+00	-2.3663002576e+00
 0.0000000000e+00	 1.8142844762e+00	-2.3657665028e+00
 4.2170051574e-01	 1.7950951916e+00	-2.4867363539e+00
 3.7975576626e-01	 1.8017225160e+00	-2.4635997650e+00
 3.3769010621e-01	 1.8075707996e+00	-2.4454745478e+00
 2.9553126226e-01	 1.8126578411e+00	-2.4317491023e+00
 2.5330634949e-01	 1.8170021025e+00	-2.4217826951e+00
 2.1104182487e-01	 1.8206226400e+00	-2.4149121738e+00
 1.6876344501e-01	 1.8235390363e+00	-2.4104583131e+00
 1.2649622845e-01	 1.8257713336e+00	-2.4077317546e+00
 8.4264422173e-02	 1.8273399673e+00	-2.4060385088e+00
 4.2091472473e-02	 1.8282657025e+00	-2.4046849993e+00
 0.0000000000e+00	 1.8285695708e+00	-2.4029826378e+00
 4.2499491452e-01	 1.8091187918e+00	-2.5237242449e+00
 3.8272248527e-01	 1.8157978900e+00	-2.5013967053e+00
 3.4032820086e-01	 1.8216918614e+00	-2.4840927921e+00
 2.9784000458e-01	 1.8268186438e+00	-2.4711429166e+00
 2.5528522336e-01	 1.8311968433e+00	-2.4618439950e+00
 2.1269052081e-01	 1.8348456650e+00	-2.4554670955e+00
 1.7008185479e-01	 1.8377848448e+00	-2.4512646718e+00
 1.2748443928e-01	 1.8400345811e+00	-2.4484773373e+00
 8.4922710694e-02	 1.8416154693e+00	-2.4463401429e+00
 4.2420298476e-02	 1.8425484365e+00	-2.4440883369e+00
 0.0000000000e+00	 1.8428546786e+00	-2.4409625904e+00
 4.2828931676e-01	 1.8231424066e+00	-2.5618401000e+00
 3.8568920739e-01	 1.8298732788e+00	-2.5404401178e+00
 3.4296629828e-01	 1.8358129380e+00	-2.5240515392e+00
 3.0014874933e-01	 1.8409794613e+00	-2.5119429435e+00
 2.5726409930e-01	 1.8453915989e+00	-2.5033445455e+00
 2.1433921849e-01	 1.8490687050e+00	-2.4974568665e+00
 1.7140026596e-01	 1.8520306682e+00	-2.4934589413e+00
 1.2847265116e-01	 1.8542978437e+00	-2.4905160082e+00
 8.5580999907e-02	 1.8558909863e+00	-2.4877866424e+00
 4.2749124825e-02	 1.8568311855e+00	-2.4844293012e+00
 0.0000000000e+00	 1.8571398015e+00	-2.4796082684e+00
 1.8571398015e+00	 0.0000000000e+00	 1.8368055159e+00
 1.8568311855e+00	 4.2749124825e-02	 1.8874009786e+00
 1.8558909863e+00	 8.5580999907e-02	 1.9172897274e+00
 1.8542978437e+00	 1.2847265116e-01	 1.9273702804e+00
 1.8520306682e+00	 1.7140026596e-01	 1.9186429046e+00
 1.8490687050e+00	 2.1433921849e-01	 1.8922115155e+00
 1.8453915989e+00	 2.5726409930e-01	 1.8492847606e+00
 1.8409794613e+00	 3.0014874933e-01	 1.7911761869e+00
 1.8358129380e+00	 3.4296629828e-01	 1.7193033992e+00
 1.8298732788e+00	 3.8568920739e-01	 1.6351861171e+00
 1.8231424066e+00	 4.2828931676e-01	 1.5404430471e+00
 1.8714259389e+00	 0.0000000000e+00	 1.8012643596e+00
 1.8711149488e+00	 4.3077974526e-02	 1.8601593731e+00
 1.8701675171e+00	 8.6239335869e-02	 1.8963201398e+00
 1.8685621191e+00	 1.2946093321e-01	 1.9108720336e+00
 1.8662775033e+00	 1.7271877076e-01	 1.9050534461e+00
 1.8632927551e+00	 2.1598803324e-01	 1.8802166435e+00
 1.8595873627e+00	 2.5924311577e-01	 1.8378275937e+00
 1.8551412844e+00	 3.0245765804e-01	 1.7794646616e+00
 1.8499350174e+00	 3.4560458304e-01	 1.7068160728e+00
 1.8439496671e+00	 3.8865614018e-01	 1.6216760547e+00
 1.8371670174e+00	 4.3158395295e-01	 1.5259395737e+00
 1.8857120812e+00	 0.0000000000e+00	 1.7644865874e+00
 1.8853987171e+00	 4.3406824341e-02	 1.8325278216e+00
 1.8844440529e+00	 8.6897672061e-02	 1.8755326806e+00
 1.8828263996e+00	 1.3044921561e-01	 1.8948948419e+00
 1.8805243434e+00	 1.7403727602e-01	 1.8921323037e+00
 1.8775168101e+00	 2.1763684858e-01	 1.8688867829e+00
 1.8737831314e+00	 2.6122213293e-01	 1.8269218365e+00
 1.8693031125e+00	 3.0476656755e-01	 1.7681195967e+00
 1.8640571018e+00	 3.4824286873e-01	 1.6944760202e+00
 1.8580260603e+00	 3.9162307402e-01	 1.6080945626e+00
 1.8511916330e+00	 4.3487859030e-01	 1.5111782055e+00
 1.8999982169e+00	 0.0000000000e+00	 1.7261725024e+00
 1.8996824787e+00	 4.3735674004e-02	 1.8042953703e+00
 1.8987205820e+00	 8.7556007947e-02	 1.8547966449e+00
 1.8970906734e+00	 1.3143749755e-01	 1.8793785683e+00
 1.8947711768e+00	 1.7535578067e-01	 1.8798790240e+00
 1.8917408585e+00	 2.1928566315e-01	 1.8582690696e+00
 1.8879788935e+00	 2.6320114917e-01	 1.8166489071e+00
 1.8834649340e+00	 3.0707547599e-01	 1.7572421781e+00
 1.8781791796e+00	 3.5088115318e-01	 1.6823884863e+00
 1.8721024470e+00	 3.9459000647e-01	 1.5945340638e+00
 1.8652162422e+00	 4.3817322610e-01	 1.4962205219e+00
 1.9142843343e+00	 0.0000000000e+00	 1.6860313425e+00
 1.9139662220e+00	 4.4064523245e-02	 1.7752573557e+00
 1.9129970928e+00	 8.8214342988e-02	 1.8339852257e+00
 1.9113549288e+00	 1.3242577823e-01	 1.8642648685e+00
 1.9090179920e+00	 1.7667428362e-01	 1.8682931656e+00
 1.9059648886e+00	 2.2093447560e-01	 1.8484092310e+00
 1.9021746373e+00	 2.6518016287e-01	 1.8070877910e+00
 1.8976267374e+00	 3.0938438146e-01	 1.7469305679e+00
 1.8923012392e+00	 3.5351943425e-01	 1.6706555700e+00
 1.8861788156e+00	 3.9755693512e-01	 1.5810842175e+00
 1.8792408333e+00	 4.4146785768e-01	 1.4811262582e+00
 1.9285704216e+00	 0.0000000000e+00	 1.6437809493e+00
 1.9282499354e+00	 4.4393371795e-02	 1.7452151714e+00
 1.9272735736e+00	 8.8872676646e-02	 1.8129753697e+00
 1.9256191544e+00	 1.3341405682e-01	 1.8494971251e+00
 1.9232647772e+00	 1.7799278380e-01	 1.8573742993e+00
 1.9201888889e+00	 2.2258328458e-01	 1.8393516382e+00
 1.9163703514e+00	 2.6715917242e-01	 1.7983151313e+00
 1.9117885109e+00	 3.1169328209e-01	 1.7372800163e+00
 1.9064232692e+00	 3.5615770978e-01	 1.6593763406e+00
 1.9002551546e+00	 4.0052385753e-01	 1.5678320205e+00
 1.8932653949e+00	 4.4476248234e-01	 1.4659533737e+00
 1.9428564673e+00	 0.0000000000e+00	 1.5991474510e+00
 1.9425336070e+00	 4.4722219386e-02	 1.7139760457e+00
 1.9415500127e+00	 8.9531008385e-02	 1.7916476392e+00
 1.9398833383e+00	 1.3440233254e-01	 1.8350203842e+00
 1.9375115209e+00	 1.7931128014e-01	 1.8471220069e+00
 1.9344128477e+00	 2.2423208876e-01	 1.8311393558e+00
 1.9305660240e+00	 2.6913817619e-01	 1.7904053145e+00
 1.9259502432e+00	 3.1400217598e-01	 1.7283829689e+00
 1.9205452580e+00	 3.5879597761e-01	 1.6486469491e+00
 1.9143314526e+00	 4.0349077129e-01	 1.5548619055e+00
 1.9072899157e+00	 4.4805709739e-01	 1.4507581169e+00
 1.9571424596e+00	 0.0000000000e+00	 1.5518649604e+00
 1.9568172253e+00	 4.5051065750e-02	 1.6813528281e+00
 1.9558263986e+00	 9.0189337666e-02	 1.7698860795e+00
 1.9541474690e+00	 1.3539060456e-01	 1.8207812942e+00
 1.9517582114e+00	 1.8062977156e-01	 1.8375358814e+00
 1.9486367534e+00	 2.2588088679e-01	 1.8238141897e+00
 1.9447616437e+00	 2.7111717258e-01	 1.7834305534e+00
 1.9401119226e+00	 3.1631106125e-01	 1.7203291687e+00
 1.9346671941e+00	 3.6143423560e-01	 1.6385607347e+00
 1.9284076980e+00	 4.0645767398e-01	 1.5422558347e+00
 1.9213143841e+00	 4.5135170014e-01	 1.4355950877e+00
 1.9714283870e+00	 0.0000000000e+00	 1.5016752841e+00
 1.9711007787e+00	 4.5379910618e-02	 1.6471637853e+00
 1.9701027195e+00	 9.0847663952e-02	 1.7475780935e+00
 1.9684115347e+00	 1.3637887209e-01	 1.8067280483e+00
 1.9660048370e+00	 1.8194825698e-01	 1.8286155264e+00
 1.9628605943e+00	 2.2752967731e-01	 1.8174167328e+00
 1.9589571987e+00	 2.7309615996e-01	 1.7774609653e+00
 1.9542735376e+00	 3.1861993602e-01	 1.7132057545e+00
 1.9487890659e+00	 3.6407248158e-01	 1.6292083266e+00
 1.9424838794e+00	 4.0942456316e-01	 1.5300933884e+00
 1.9353387887e+00	 4.5464628790e-01	 1.4205172971e+00
 1.9857142377e+00	 0.0000000000e+00	 1.4483276464e+00
 1.9853842553e+00	 4.5708753720e-02	 1.6112324062e+00
 1.9843789638e+00	 9.1505986705e-02	 1.7246143201e+00
 1.9826755239e+00	 1.3736713431e-01	 1.7928103283e+00
 1.9802513862e+00	 1.8326673532e-01	 1.8203605559e+00
 1.9770843589e+00	 2.2917845898e-01	 1.8119864085e+00
 1.9731526776e+00	 2.7507513672e-01	 1.7725646476e+00
 1.9684350766e+00	 3.2092879839e-01	 1.7070973538e+00
 1.9629108619e+00	 3.6671071340e-01	 1.6206777414e+00
 1.9565599852e+00	 4.1239143643e-01	 1.5184518518e+00
 1.9493631180e+00	 4.5794085798e-01	 1.4055762242e+00
 2.0000000000e+00	 0.0000000000e+00	 1.3915784230e+00
 1.9996676437e+00	 4.6037594790e-02	 1.5733872155e+00
 1.9986551198e+00	 9.2164305388e-02	 1.7008885187e+00
 1.9969394250e+00	 1.3835539043e-01	 1.7789792520e+00
 1.9944978474e+00	 1.8458520551e-01	 1.8127705937e+00
 1.9913080356e+00	 2.3082723046e-01	 1.8075615126e+00
 1.9873480687e+00	 2.7705410124e-01	 1.7688077503e+00
 1.9825965280e+00	 3.2323764649e-01	 1.7020861733e+00
 1.9770325707e+00	 3.6934892891e-01	 1.6130544763e+00
 1.9706360040e+00	 4.1535829135e-01	 1.5074062957e+00
 1.9633873606e+00	 4.6123540769e-01	 1.3908218709e+00
 1.8231424066e+00	 4.2828931676e-01	 1.5404430471e+00
 1.8156035447e+00	 4.7073493975e-01	 1.4347357807e+00
 1.8072397329e+00	 5.1299986759e-01	 1.3173414817e+00
 1.7980353372e+00	 5.5505446234e-01	 1.1894264796e+00
 1.7879756743e+00	 5.9686869982e-01	 1.0521933438e+00
 1.7770470794e+00	 6.3841223768e-01	 9.0687271432e-01
 1.7652369718e+00	 6.7965448725e-01	 7.5471427683e-01
 1.7525339179e+00	 7.2056468865e-01	 5.9697694071e-01
 1.7389276928e+00	 7.6111198917e-01	 4.3491830032e-01
 1.7244093376e+00	 8.0126552432e-01	 2.6978347881e-01
 1.7089712139e+00	 8.4099450139e-01	 1.0279347318e-01
 1.8371670174e+00	 4.3158395295e-01	 1.5259395737e+00
 1.8295701624e+00	 4.7435609094e-01	 1.4194421100e+00
 1.8211420116e+00	 5.1694614377e-01	 1.3014364552e+00
 1.8118668106e+00	 5.5932424552e-01	 1.1730670525e+00
 1.8017297632e+00	 6.0146014103e-01	 1.0355134919e+00
 1.7907170996e+00	 6.4332325456e-01	 8.8998243617e-01
 1.7788161422e+00	 6.8488276212e-01	 7.3769870555e-01
 1.7660153695e+00	 7.2610766721e-01	 5.7989558309e-01
 1.7523044778e+00	 7.6696687979e-01	 4.1780441890e-01
 1.7376744394e+00	 8.0742929794e-01	 2.5264363211e-01
 1.7221175573e+00	 8.4746389208e-01	 8.5607228334e-02
 1.8511916330e+00	 4.3487859030e-01	 1.5111782055e+00
 1.8435367849e+00	 4.7797724340e-01	 1.4037830717e+00
 1.8350442951e+00	 5.2089242134e-01	 1.2851514507e+00
 1.8256982888e+00	 5.6359403019e-01	 1.1563860274e+00
 1.8154838570e+00	 6.0605158385e-01	 1.0186240423e+00
 1.8043871247e+00	 6.4823427316e-01	 8.7302954018e-01
 1.7923953173e+00	 6.9011103881e-01	 7.2078480277e-01
 1.7794968257e+00	 7.3165064771e-01	 5.6308102451e-01
 1.7656812675e+00	 7.7282177246e-01	 4.0110830531e-01
 1.7509395459e+00	 8.1359307372e-01	 2.3604505563e-01
 1.7352639052e+00	 8.5393328504e-01	 6.9046926553e-02
 1.8652162422e+00	 4.3817322610e-01	 1.4962205219e+00
 1.8575034010e+00	 4.8159839416e-01	 1.3877819515e+00
 1.8489465721e+00	 5.2483869706e-01	 1.2684756685e+00
 1.8395297606e+00	 5.6786381287e-01	 1.1393432503e+00
 1.8292379444e+00	 6.1064302452e-01	 1.0014607336e+00
 1.8180571433e+00	 6.5314528946e-01	 8.5593141073e-01
 1.8059744861e+00	 6.9533931307e-01	 7.0387784410e-01
 1.7929782757e+00	 7.3719362563e-01	 5.4643315093e-01
 1.7790580509e+00	 7.7867666240e-01	 3.8473162616e-01
 1.7642046462e+00	 8.1975684663e-01	 2.1989879115e-01
 1.7484102470e+00	 8.6040267498e-01	 5.3040972303e-02
 1.8792408333e+00	 4.4146785768e-01	 1.4811262582e+00
 1.8714699991e+00	 4.8521954028e-01	 1.3714613341e+00
 1.8628488314e+00	 5.2878496771e-01	 1.2513986259e+00
 1.8533612147e+00	 5.7213359007e-01	 1.1218997611e+00
 1.8429920141e+00	 6.1523445931e-01	 9.8396121888e-01
 1.8317271444e+00	 6.5805629946e-01	 8.3860789584e-01
 1.8195536375e+00	 7.0056758062e-01	 6.8688593149e-01
 1.8064597084e+00	 7.4273659643e-01	 5.2985483676e-01
 1.7924348172e+00	 7.8453154482e-01	 3.6857898450e-01
 1.7774697295e+00	 8.2592061162e-01	 2.0411853803e-01
 1.7615565720e+00	 8.6687205661e-01	 3.7519910081e-02
 1.8932653949e+00	 4.4476248234e-01	 1.4659533737e+00
 1.8854365679e+00	 4.8884067880e-01	 1.3548431289e+00
 1.8767510614e+00	 5.3273123008e-01	 1.2339101450e+00
 1.8671926397e+00	 5.7640335830e-01	 1.1040177489e+00
 1.8567460549e+00	 6.1982588445e-01	 9.6606499455e-01
 1.8453971167e+00	 6.6296729915e-01	 8.2098121574e-01
 1.8331327604e+00	 7.0579583718e-01	 6.6971988843e-01
 1.8199411127e+00	 7.4827955559e-01	 5.1325183412e-01
 1.8058115554e+00	 7.9038641495e-01	 3.5255781103e-01
 1.7907347849e+00	 8.3208436367e-01	 1.8862055478e-01
 1.7747028693e+00	 8.7334142466e-01	 2.2416345188e-02
 1.9072899157e+00	 4.4805709739e-01	 1.4507581169e+00
 1.8994030960e+00	 4.9246180675e-01	 1.3379485946e+00
 1.8906532508e+00	 5.3667748094e-01	 1.2160003415e+00
 1.8810240243e+00	 5.8067311408e-01	 1.0856605101e+00
 1.8705000556e+00	 6.2441729620e-01	 9.4771333274e-01
 1.8590670493e+00	 6.6787828451e-01	 8.0297587559e-01
 1.8467118437e+00	 7.1102407850e-01	 6.5229315985e-01
 1.8334224778e+00	 7.5382249858e-01	 4.9653266702e-01
 1.8191882546e+00	 7.9624126801e-01	 3.3657826018e-01
 1.8039998017e+00	 8.3824809775e-01	 1.7332356499e-01
 1.7878491283e+00	 8.7981077385e-01	 7.6648679852e-03
 1.9213143841e+00	 4.5135170014e-01	 1.4355950877e+00
 1.9133695719e+00	 4.9608292119e-01	 1.3207983630e+00
 1.9045553884e+00	 5.4062371707e-01	 1.1976596137e+00
 1.8948553573e+00	 5.8494285392e-01	 1.0667924075e+00
 1.8842540050e+00	 6.2900869081e-01	 9.2884921608e-01
 1.8727369307e+00	 6.7278925154e-01	 7.8451858193e-01
 1.8602908762e+00	 7.1625230030e-01	 6.3452171630e-01
 1.8469037925e+00	 7.5936542088e-01	 4.7960853008e-01
 1.8325649038e+00	 8.0209609920e-01	 3.2055311059e-01
 1.8172647689e+00	 8.4441180881e-01	 1.5814866731e-01
 1.8009953382e+00	 8.8628009888e-01	-6.7980185400e-03
 1.9353387887e+00	 4.5464628790e-01	 1.4205172971e+00
 1.9273359843e+00	 4.9970401915e-01	 1.3034124612e+00
 1.9184574627e+00	 5.4456993524e-01	 1.1788786322e+00
 1.9086866274e+00	 5.8921257433e-01	 1.0473788315e+00
 1.8980078918e+00	 6.3360006453e-01	 9.0941727568e-01
 1.8864067500e+00	 6.7770019623e-01	 7.6553816278e-01
 1.8738698470e+00	 7.2148049832e-01	 6.1632396236e-01
 1.8603850459e+00	 7.6490831796e-01	 4.6239319172e-01
 1.8459414922e+00	 8.0795090376e-01	 3.0439767004e-01
 1.8305296758e+00	 8.5057549183e-01	 1.4301924945e-01
 1.8141414883e+00	 8.9274939447e-01	-2.1033968060e-02
 1.9493631180e+00	 4.5794085798e-01	 1.4055762242e+00
 1.9413023217e+00	 5.0332509767e-01	 1.2858103337e+00
 1.9323594624e+00	 5.4851613224e-01	 1.1596483297e+00
 1.9225178233e+00	 5.9348227183e-01	 1.0273861631e+00
 1.9117617047e+00	 6.3819141361e-01	 8.8936373161e-01
 1.9000764959e+00	 6.8261111456e-01	 7.4596549117e-01
 1.8874487449e+00	 7.2670866827e-01	 5.9762064895e-01
 1.8738662269e+00	 7.7045118530e-01	 4.4480290149e-01
 1.8593180088e+00	 8.1380567690e-01	 2.8802968438e-01
 1.8437945114e+00	 8.5673914177e-01	 1.2786090575e-01
 1.8272875679e+00	 8.9921865535e-01	-3.5102857215e-02
 1.9633873606e+00	 4.6123540769e-01	 1.3908218709e+00
 1.9552685728e+00	 5.0694615381e-01	 1.2680108624e+00
 1.9462613761e+00	 5.5246230483e-01	 1.1399598917e+00
 1.9363489336e+00	 5.9775194293e-01	 1.0067817381e+00
 1.9255154327e+00	 6.4278273430e-01	 8.6863633600e-01
 1.9137461573e+00	 6.8752200253e-01	 7.2573341198e-01
 1.9010275589e+00	 7.3193680590e-01	 5.7833478941e-01
 1.8873473245e+00	 7.7599401836e-01	 4.2675630133e-01
 1.8726944426e+00	 8.1966041384e-01	 2.7136925042e-01
 1.8570592651e+00	 8.6290275360e-01	 1.1260135837e-01
 1.8404335661e+00	 9.0568787623e-01	-4.9062849078e-02
 1.7089712139e+00	 8.4099450139e-01	 1.0279347318e-01
 1.6926058784e+00	 8.8027101584e-01	-6.5136266899e-02
 1.6753095378e+00	 9.1906186497e-01	-2.3324150208e-01
 1.6570788115e+00	 9.5733697338e-01	-4.0059548656e-01
 1.6379118149e+00	 9.9506668745e-01	-5.6628706825e-01
 1.6178081901e+00	 1.0322218645e+00	-7.2942867573e-01
 1.5967691316e+00	 1.0687739617e+00	-8.8916435579e-01
 1.5747974050e+00	 1.1046951241e+00	-1.0446777449e+00
 1.5518973610e+00	 1.1399582708e+00	-1.1951998530e+00
 1.5280749409e+00	 1.1745371804e+00	-1.3400165369e+00
 1.5033376776e+00	 1.2084065724e+00	-1.4784755385e+00
 1.7221175573e+00	 8.4746389208e-01	 8.5607228334e-02
 1.7056263306e+00	 8.8704254302e-01	-8.2325805384e-02
 1.6881969371e+00	 9.2613179262e-01	-2.5032508093e-01
 1.6698259701e+00	 9.6470133414e-01	-4.1748673655e-01
 1.6505115304e+00	 1.0027212859e+00	-5.8292192518e-01
 1.6302532575e+00	 1.0401622809e+00	-7.4576459310e-01
 1.6090523550e+00	 1.0769955569e+00	-9.0517931129e-01
 1.5869116099e+00	 1.1131930445e+00	-1.0603690461e+00
 1.5638354061e+00	 1.1487274547e+00	-1.2105827509e+00
 1.5398297309e+00	 1.1835723642e+00	-1.3551226580e+00
 1.5149021751e+00	 1.2177022981e+00	-1.4933511521e+00
 1.7352639052e+00	 8.5393328504e-01	 6.9046926553e-02
 1.7186467874e+00	 8.9381407256e-01	-9.8852014007e-02
 1.7010843409e+00	 9.3320172274e-01	-2.6675050389e-01
 1.6825731331e+00	 9.7206569748e-01	-4.3375782648e-01
 1.6631112503e+00	 1.0103758869e+00	-5.9899816241e-01
 1.6426983293e+00	 1.0481027001e+00	-7.6161826952e-01
 1.6213355827e+00	 1.0852171549e+00	-9.2079521488e-01
 1.5990258190e+00	 1.1216909679e+00	-1.0757440469e+00
 1.5757734555e+00	 1.1574966417e+00	-1.2257252905e+00
 1.5515845251e+00	 1.1926075512e+00	-1.3700521468e+00
 1.5264666766e+00	 1.2269980271e+00	-1.5080972789e+00
 1.7484102470e+00	 8.6040267498e-01	 5.3040972303e-02
 1.7316672381e+00	 9.0058559894e-01	-1.1476595499e-01
 1.7139717387e+00	 9.4027164956e-01	-2.8255035093e-01
 1.6953202902e+00	 9.7943005739e-01	-4.4942513483e-01
 1.6757109644e+00	 1.0180304844e+00	-6.1451845793e-01
 1.6551433952e+00	 1.0560431155e+00	-7.7698139216e-01
 1.6336188047e+00	 1.0934387491e+00	-9.3599566773e-01
 1.6111400225e+00	 1.1301888873e+00	-1.0907813471e+00
 1.5877114993e+00	 1.1662658245e+00	-1.2406043183e+00
 1.5633393138e+00	 1.2016427340e+00	-1.3847834882e+00
 1.5380311727e+00	 1.2362937518e+00	-1.5226975576e+00
 1.7615565720e+00	 8.6687205661e-01	 3.7519910081e-02
 1.7446876721e+00	 9.0735711663e-01	-1.3011716297e-01
 1.7268591199e+00	 9.4734156731e-01	-2.9775622584e-01
 1.7080674309e+00	 9.8679440784e-01	-4.6450454745e-01
 1.6883106622e+00	 1.0256850721e+00	-6.2948540613e-01
 1.6675884452e+00	 1.0639835208e+00	-7.9184589280e-01
 1.6459020110e+00	 1.1016603328e+00	-9.5076475721e-01
 1.6232542104e+00	 1.1386867959e+00	-1.1054601825e+00
 1.5996495277e+00	 1.1750349961e+00	-1.2551973689e+00
 1.5750940874e+00	 1.2106779051e+00	-1.3992958062e+00
 1.5495956540e+00	 1.2455894645e+00	-1.5371361128e+00
 1.7747028693e+00	 8.7334142466e-01	 2.2416345188e-02
 1.7577080788e+00	 9.1412862011e-01	-1.4495370154e-01
 1.7397464741e+00	 9.5441147022e-01	-3.1239879238e-01
 1.7208145448e+00	 9.9415874283e-01	-4.7901147579e-01
 1.7009103336e+00	 1.0333396438e+00	-6.4390152085e-01
 1.6800334691e+00	 1.0719239094e+00	-8.0620393874e-01
 1.6581851914e+00	 1.1098818992e+00	-9.6508703879e-01
 1.6353683728e+00	 1.1471846866e+00	-1.1197604006e+00
 1.6115875311e+00	 1.1838041493e+00	-1.2694826396e+00
 1.5868488363e+00	 1.2197130573e+00	-1.4135688406e+00
 1.5611601110e+00	 1.2548851577e+00	-1.5513975367e+00
 1.7878491283e+00	 8.7981077385e-01	 7.6648679852e-03
 1.7707284474e+00	 9.2090010383e-01	-1.5932221727e-01
 1.7526337907e+00	 9.6148135250e-01	-3.2650780879e-01
 1.7335616215e+00	 1.0015230563e+00	-4.9296087430e-01
 1.7135099683e+00	 1.0409941930e+00	-6.5776923832e-01
 1.6924784566e+00	 1.0798642749e+00	-8.2004792409e-01
 1.6704683360e+00	 1.1181034416e+00	-9.7894751887e-01
 1.6474825000e+00	 1.1556825525e+00	-1.1336624389e+00
 1.6235254997e+00	 1.1925732770e+00	-1.2834389659e+00
 1.5986035510e+00	 1.2287481832e+00	-1.4275829244e+00
 1.5727245343e+00	 1.2641808238e+00	-1.5654668718e+00
 1.8009953382e+00	 8.8628009888e-01	-6.7980185400e-03
 1.7837487675e+00	 9.2767156227e-01	-1.7326799143e-01
 1.7655210592e+00	 9.6855120839e-01	-3.4011216080e-01
 1.7463086507e+00	 1.0088873423e+00	-5.0636725701e-01
 1.7261095559e+00	 1.0486487138e+00	-6.7109091993e-01
 1.7049233977e+00	 1.0878046107e+00	-8.3337046151e-01
 1.6827514348e+00	 1.1263249533e+00	-9.9233163826e-01
 1.6595965819e+00	 1.1641803866e+00	-1.1471473028e+00
 1.6354634237e+00	 1.2013423718e+00	-1.2970457986e+00
 1.6103582217e+00	 1.2377832753e+00	-1.4413189620e+00
 1.5842889143e+00	 1.2734764552e+00	-1.5793295950e+00
 1.8141414883e+00	 8.9274939447e-01	-2.1033968060e-02
 1.7967690283e+00	 9.3444298990e-01	-1.8683498937e-01
 1.7784082690e+00	 9.7562103211e-01	-3.5323989318e-01
 1.7590556219e+00	 1.0162515949e+00	-5.1924471354e-01
 1.7387090862e+00	 1.0563031996e+00	-6.8386885492e-01
 1.7173682822e+00	 1.0957449103e+00	-8.4616437422e-01
 1.6950344776e+00	 1.1345464276e+00	-1.0052252565e+00
 1.6717106087e+00	 1.1726781822e+00	-1.1601965449e+00
 1.6474012934e+00	 1.2101114268e+00	-1.3102831809e+00
 1.6221128390e+00	 1.2468183263e+00	-1.4547584088e+00
 1.5958532418e+00	 1.2827720443e+00	-1.5929716015e+00
 1.8272875679e+00	 8.9921865535e-01	-3.5102857215e-02
 1.8097892193e+00	 9.4121438120e-01	-2.0006590791e-01
 1.7912954097e+00	 9.8269081789e-01	-3.6591824001e-01
 1.7718025246e+00	 1.0236158078e+00	-5.3160692423e-01
 1.7513085489e+00	 1.0639576444e+00	-6.9610526294e-01
 1.7298130998e+00	 1.1036851674e+00	-8.5842268841e-01
 1.7073174546e+00	 1.1427678578e+00	-1.0176146366e+00
 1.6838245705e+00	 1.1811759321e+00	-1.1727922460e+00
 1.6593390990e+00	 1.2188804347e+00	-1.3231317279e+00
 1.6338673932e+00	 1.2558533288e+00	-1.4678832510e+00
 1.6074175072e+00	 1.2920675835e+00	-1.6063791900e+00
 1.8404335661e+00	 9.0568787623e-01	-4.9062849078e-02
 1.8228093297e+00	 9.4798573062e-01	-2.1300222056e-01
 1.8041824707e+00	 9.8976055995e-01	-3.7817365353e-01
 1.7845493486e+00	 1.0309799753e+00	-5.4346717481e-01
 1.7639079336e+00	 1.0716120419e+00	-7.0780229647e-01
 1.7422578406e+00	 1.1116253754e+00	-8.7013862598e-01
 1.7196003556e+00	 1.1509892371e+00	-1.0294864309e+00
 1.6959384573e+00	 1.1896736294e+00	-1.1849169957e+00
 1.6712768308e+00	 1.2276493884e+00	-1.3355726054e+00
 1.6456218747e+00	 1.2648882754e+00	-1.4806759871e+00
 1.6189817012e+00	 1.3013630652e+00	-1.6195390480e+00
 1.5033376776e+00	 1.2084065724e+00	-1.4784755385e+00
 1.4776946846e+00	 1.2415421896e+00	-1.6102952390e+00
 1.4511566314e+00	 1.2739208828e+00	-1.7353086939e+00
 1.4237357347e+00	 1.3055206731e+00	-1.8531358006e+00
 1.3954457360e+00	 1.3363208170e+00	-1.9634656066e+00
 1.3663018685e+00	 1.3663018685e+00	-2.0660591404e+00
 1.3363208170e+00	 1.3954457360e+00	-2.1607514236e+00
 1.3055206731e+00	 1.4237357347e+00	-2.2474526283e+00
 1.2739208828e+00	 1.4511566314e+00	-2.3261483611e+00
 1.2415421896e+00	 1.4776946846e+00	-2.3968990691e+00
 1.2084065724e+00	 1.5033376776e+00	-2.4598385833e+00
 1.5149021751e+00	 1.2177022981e+00	-1.4933511521e+00
 1.4890619222e+00	 1.2510928127e+00	-1.6249836162e+00
 1.4623197237e+00	 1.2837205805e+00	-1.7498494239e+00
 1.4346878904e+00	 1.3155634537e+00	-1.8675805902e+00
 1.4061802696e+00	 1.3466005293e+00	-1.9778780657e+00
 1.3768122114e+00	 1.3768122114e+00	-2.0805144851e+00
 1.3466005293e+00	 1.4061802696e+00	-2.1753360992e+00
 1.3155634537e+00	 1.4346878904e+00	-2.2622638550e+00
 1.2837205805e+00	 1.4623197237e+00	-2.3412936071e+00
 1.2510928127e+00	 1.4890619222e+00	-2.4124954570e+00
 1.2177022981e+00	 1.5149021751e+00	-2.4760122359e+00
 1.5264666766e+00	 1.2269980271e+00	-1.5080972789e+00
 1.5004291636e+00	 1.2606434391e+00	-1.6395726445e+00
 1.4734828198e+00	 1.2935202817e+00	-1.7643074316e+00
 1.4456400499e+00	 1.3256062379e+00	-1.8819480467e+00
 1.4169148068e+00	 1.3568802451e+00	-1.9922095111e+00
 1.3873225580e+00	 1.3873225580e+00	-2.0948781056e+00
 1.3568802451e+00	 1.4169148068e+00	-2.1898132025e+00
 1.3256062379e+00	 1.4456400499e+00	-2.2769482525e+00
 1.2935202817e+00	 1.4734828198e+00	-2.3562909077e+00
 1.2606434391e+00	 1.5004291636e+00	-2.4279222818e+00
 1.2269980271e+00	 1.5264666766e+00	-2.4919953620e+00
 1.5380311727e+00	 1.2362937518e+00	-1.5226975576e+00
 1.5117963998e+00	 1.2701940611e+00	-1.6540527541e+00
 1.4846459108e+00	 1.3033199782e+00	-1.7786795943e+00
 1.4565922043e+00	 1.3356490174e+00	-1.8962411089e+00
 1.4276493391e+00	 1.3671599561e+00	-2.0064685175e+00
 1.3978328997e+00	 1.3978328997e+00	-2.1091637495e+00
 1.3671599561e+00	 1.4276493391e+00	-2.2042011581e+00
 1.3356490174e+00	 1.4565922043e+00	-2.2915283956e+00
 1.3033199782e+00	 1.4846459108e+00	-2.3711664344e+00
 1.2701940611e+00	 1.5117963998e+00	-2.4432087352e+00
 1.2362937518e+00	 1.5380311727e+00	-2.5078195786e+00
 1.5495956540e+00	 1.2455894645e+00	-1.5371361128e+00
 1.5231636214e+00	 1.2797446708e+00	-1.6684146577e+00
 1.4958089874e+00	 1.3131196623e+00	-1.7929628798e+00
 1.4675443447e+00	 1.3456917839e+00	-1.9104626251e+00
 1.4383838576e+00	 1.3774396540e+00	-2.0206634005e+00
 1.4083432279e+00	 1.4083432279e+00	-2.1233847511e+00
 1.3774396540e+00	 1.4383838576e+00	-2.2185178371e+00
 1.3456917839e+00	 1.4675443447e+00	-2.3060261813e+00
 1.3131196623e+00	 1.4958089874e+00	-2.3859455735e+00
 1.2797446708e+00	 1.5231636214e+00	-2.4583831340e+00
 1.2455894645e+00	 1.5495956540e+00	-2.5235155550e+00
 1.5611601110e+00	 1.2548851577e+00	-1.5513975367e+00
 1.5345308192e+00	 1.2892952604e+00	-1.6826493406e+00
 1.5069720406e+00	 1.3229193257e+00	-1.8071543430e+00
 1.4784964621e+00	 1.3557345294e+00	-1.9246153563e+00
 1.4491183535e+00	 1.3877193302e+00	-2.0348022265e+00
 1.4188535340e+00	 1.4188535340e+00	-2.1375540464e+00
 1.3877193302e+00	 1.4491183535e+00	-2.2327805780e+00
 1.3557345294e+00	 1.4784964621e+00	-2.3204628548e+00
 1.3229193257e+00	 1.5069720406e+00	-2.4006529557e+00
 1.2892952604e+00	 1.5345308192e+00	-2.4734729518e+00
 1.2548851577e+00	 1.5611601110e+00	-2.5391130478e+00
 1.5727245343e+00	 1.2641808238e+00	-1.5654668718e+00
 1.5458979837e+00	 1.2988458222e+00	-1.6967480507e+00
 1.5181350613e+00	 1.3327189605e+00	-1.8212511228e+00
 1.4894485475e+00	 1.3657772456e+00	-1.9387019797e+00
 1.4598528182e+00	 1.3979989765e+00	-2.0488928216e+00
 1.4293638095e+00	 1.4293638095e+00	-2.1516841880e+00
 1.3979989765e+00	 1.4598528182e+00	-2.2470062060e+00
 1.3657772456e+00	 1.4894485475e+00	-2.3348590328e+00
 1.3327189605e+00	 1.5181350613e+00	-2.4153124838e+00
 1.2988458222e+00	 1.5458979837e+00	-2.4885048508e+00
 1.2641808238e+00	 1.5727245343e+00	-2.5546409349e+00
 1.5842889143e+00	 1.2734764552e+00	-1.5793295950e+00
 1.5572651059e+00	 1.3083963484e+00	-1.7107022888e+00
 1.5292980402e+00	 1.3425185588e+00	-1.8352504390e+00
 1.5004005920e+00	 1.3758199243e+00	-1.9527250914e+00
 1.4705872427e+00	 1.4082785844e+00	-2.0629427809e+00
 1.4398740457e+00	 1.4398740457e+00	-2.1657873591e+00
 1.4082785844e+00	 1.4705872427e+00	-2.2612110522e+00
 1.3758199243e+00	 1.5004005920e+00	-2.3492347271e+00
 1.3425185588e+00	 1.5292980402e+00	-2.4299473591e+00
 1.3083963484e+00	 1.5572651059e+00	-2.5035047112e+00
 1.2734764552e+00	 1.5842889143e+00	-2.5701272471e+00
 1.5958532418e+00	 1.2827720443e+00	-1.5929716015e+00
 1.5686321763e+00	 1.3179468310e+00	-1.7245037997e+00
 1.5404609684e+00	 1.3523181125e+00	-1.8491495896e+00
 1.5113525867e+00	 1.3858625574e+00	-1.9666872100e+00
 1.4813216185e+00	 1.4185581455e+00	-2.0769594763e+00
 1.4503842341e+00	 1.4503842341e+00	-2.1798753867e+00
 1.4185581455e+00	 1.4813216185e+00	-2.2754109713e+00
 1.3858625574e+00	 1.5113525867e+00	-2.3636093660e+00
 1.3523181125e+00	 1.5404609684e+00	-2.4445801075e+00
 1.3179468310e+00	 1.5686321763e+00	-2.5184976596e+00
 1.2827720443e+00	 1.5958532418e+00	-2.5855991992e+00
 1.6074175072e+00	 1.2920675835e+00	-1.6063791900e+00
 1.5799991857e+00	 1.3274972625e+00	-1.7381445631e+00
 1.5516238367e+00	 1.3621176136e+00	-1.8629459476e+00
 1.5223045226e+00	 1.3959051365e+00	-1.9805907789e+00
 1.4920559366e+00	 1.4288376514e+00	-2.0909500653e+00
 1.4608943661e+00	 1.4608943661e+00	-2.1939597549e+00
 1.4288376514e+00	 1.4920559366e+00	-2.2896213586e+00
 1.3959051365e+00	 1.5223045226e+00	-2.3780018159e+00
 1.3621176136e+00	 1.5516238367e+00	-2.4592326029e+00
 1.3274972625e+00	 1.5799991857e+00	-2.5335080960e+00
 1.2920675835e+00	 1.6074175072e+00	-2.6010832196e+00
 1.6189817012e+00	 1.3013630652e+00	-1.6195390480e+00
 1.5913661249e+00	 1.3370476348e+00	-1.7516167856e+00
 1.5627866359e+00	 1.3719170541e+00	-1.8766369591e+00
 1.5332563909e+00	 1.4059476535e+00	-1.9944381692e+00
 1.5027901883e+00	 1.4391170938e+00	-2.1049214981e+00
 1.4714044331e+00	 1.4714044331e+00	-2.2080516171e+00
 1.4391170938e+00	 1.5027901883e+00	-2.3038571671e+00
 1.4059476535e+00	 1.5332563909e+00	-2.3924304011e+00
 1.3719170541e+00	 1.5627866359e+00	-2.4739260917e+00
 1.3370476348e+00	 1.5913661249e+00	-2.5485597202e+00
 1.3013630652e+00	 1.6189817012e+00	-2.6166049779e+00
 1.2084065724e+00	 1.5033376776e+00	-2.4598385833e+00
 1.1745371804e+00	 1.5280749409e+00	-2.5152380320e+00
 1.1399582708e+00	 1.5518973610e+00	-2.5633053782e+00
 1.1046951241e+00	 1.5747974050e+00	-2.6041729862e+00
 1.0687739617e+00	 1.5967691316e+00	-2.6380238960e+00
 1.0322218645e+00	 1.6178081901e+00	-2.6650888551e+00
 9.9506668745e-01	 1.6379118149e+00	-2.6856428976e+00
 9.5733697338e-01	 1.6570788115e+00	-2.7000015337e+00
 9.1906186497e-01	 1.6753095378e+00	-2.7085166170e+00
 8.8027101584e-01	 1.6926058784e+00	-2.7115719592e+00
 8.4099450139e-01	 1.7089712139e+00	-2.7095787636e+00
 1.2177022981e+00	 1.5149021751e+00	-2.4760122359e+00
 1.1835723642e+00	 1.5398297309e+00	-2.5321026881e+00
 1.1487274547e+00	 1.5638354061e+00	-2.5809541771e+00
 1.1131930445e+00	 1.5869116099e+00	-2.6226972285e+00
 1.0769955569e+00	 1.6090523550e+00	-2.6575156881e+00
 1.0401622809e+00	 1.6302532575e+00	-2.6856436844e+00
 1.0027212859e+00	 1.6505115304e+00	-2.7073621066e+00
 9.6470133414e-01	 1.6698259701e+00	-2.7229946644e+00
 9.2613179262e-01	 1.6881969371e+00	-2.7329035987e+00
 8.8704254302e-01	 1.7056263306e+00	-2.7374851171e+00
 8.4746389208e-01	 1.7221175573e+00	-2.7371646304e+00
 1.2269980271e+00	 1.5264666766e+00	-2.4919953620e+00
 1.1926075512e+00	 1.5515845251e+00	-2.5487624943e+00
 1.1574966417e+00	 1.5757734555e+00	-2.5983973744e+00
 1.1216909679e+00	 1.5990258190e+00	-2.6410304187e+00
 1.0852171549e+00	 1.6213355827e+00	-2.6768470963e+00
 1.0481027001e+00	 1.6426983293e+00	-2.7060848428e+00
 1.0103758869e+00	 1.6631112503e+00	-2.7290294682e+00
 9.7206569748e-01	 1.6825731331e+00	-2.7460111259e+00
 9.3320172274e-01	 1.7010843409e+00	-2.7573999162e+00
 8.9381407256e-01	 1.7186467874e+00	-2.7636011992e+00
 8.5393328504e-01	 1.7352639052e+00	-2.7650506948e+00
 1.2362937518e+00	 1.5380311727e+00	-2.5078195786e+00
 1.2016427340e+00	 1.5633393138e+00	-2.5652497882e+00
 1.1662658245e+00	 1.5877114993e+00	-2.6156651996e+00
 1.1301888873e+00	 1.6111400225e+00	-2.6591978239e+00
 1.0934387491e+00	 1.6336188047e+00	-2.6960355649e+00
 1.0560431155e+00	 1.6551433952e+00	-2.7264191027e+00
 1.0180304844e+00	 1.6757109644e+00	-2.7506382616e+00
 9.7943005739e-01	 1.6953202902e+00	-2.7690279281e+00
 9.4027164956e-01	 1.7139717387e+00	-2.7819635946e+00
 9.0058559894e-01	 1.7316672381e+00	-2.7898566043e+00
 8.6040267498e-01	 1.7484102470e+00	-2.7931491771e+00
 1.2455894645e+00	 1.5495956540e+00	-2.5235155550e+00
 1.2106779051e+00	 1.5750940874e+00	-2.5815959381e+00
 1.1750349961e+00	 1.5996495277e+00	-2.6327869753e+00
 1.1386867959e+00	 1.6232542104e+00	-2.6772239527e+00
 1.1016603328e+00	 1.6459020110e+00	-2.7150980132e+00
 1.0639835208e+00	 1.6675884452e+00	-2.7466530299e+00
 1.0256850721e+00	 1.6883106622e+00	-2.7721819626e+00
 9.8679440784e-01	 1.7080674309e+00	-2.7920227636e+00
 9.4734156731e-01	 1.7268591199e+00	-2.8065539084e+00
 9.0735711663e-01	 1.7446876721e+00	-2.8161896268e+00
 8.6687205661e-01	 1.7615565720e+00	-2.8213749150e+00
 1.2548851577e+00	 1.5611601110e+00	-2.5391130478e+00
 1.2197130573e+00	 1.5868488363e+00	-2.5978313790e+00
 1.1838041493e+00	 1.6115875311e+00	-2.6497911515e+00
 1.1471846866e+00	 1.6353683728e+00	-2.6951325836e+00
 1.1098818992e+00	 1.6581851914e+00	-2.7340508555e+00
 1.0719239094e+00	 1.6800334691e+00	-2.7667929922e+00
 1.0333396438e+00	 1.7009103336e+00	-2.7936542368e+00
 9.9415874283e-01	 1.7208145448e+00	-2.8149739825e+00
 9.5441147022e-01	 1.7397464741e+00	-2.8311313356e+00
 9.1412862011e-01	 1.7577080788e+00	-2.8425403864e+00
 8.7334142466e-01	 1.7747028693e+00	-2.8496452666e+00
 1.2641808238e+00	 1.5727245343e+00	-2.5546409349e+00
 1.2287481832e+00	 1.5986035510e+00	-2.6139856468e+00
 1.1925732770e+00	 1.6235254997e+00	-2.6667053375e+00
 1.1556825525e+00	 1.6474825000e+00	-2.7129467917e+00
 1.1181034416e+00	 1.6704683360e+00	-2.7529100194e+00
 1.0798642749e+00	 1.6924784566e+00	-2.7868451662e+00
 1.0409941930e+00	 1.7135099683e+00	-2.8150489326e+00
 1.0015230563e+00	 1.7335616215e+00	-2.8378605681e+00
 9.6148135250e-01	 1.7526337907e+00	-2.8556575131e+00
 9.2090010383e-01	 1.7707284474e+00	-2.8688507609e+00
 8.7981077385e-01	 1.7878491283e+00	-2.8778800180e+00
 1.2734764552e+00	 1.5842889143e+00	-2.5701272471e+00
 1.2377832753e+00	 1.6103582217e+00	-2.6300874112e+00
 1.2013423718e+00	 1.6354634237e+00	-2.6835563326e+00
 1.1641803866e+00	 1.6595965819e+00	-2.7306889747e+00
 1.1263249533e+00	 1.6827514348e+00	-2.7716909636e+00
 1.0878046107e+00	 1.7049233977e+00	-2.8068155445e+00
 1.0486487138e+00	 1.7261095559e+00	-2.8363600742e+00
 1.0088873423e+00	 1.7463086507e+00	-2.8606621142e+00
 9.6855120839e-01	 1.7655210592e+00	-2.8800951953e+00
 9.2767156227e-01	 1.7837487675e+00	-2.8950643222e+00
 8.8628009888e-01	 1.8009953382e+00	-2.9060012946e+00
 1.2827720443e+00	 1.5958532418e+00	-2.5855991992e+00
 1.2468183263e+00	 1.6221128390e+00	-2.6461645074e+00
 1.2101114268e+00	 1.6474012934e+00	-2.7003701558e+00
 1.1726781822e+00	 1.6717106087e+00	-2.7483808772e+00
 1.1345464276e+00	 1.6950344776e+00	-2.7904086950e+00
 1.0957449103e+00	 1.7173682822e+00	-2.8267099425e+00
 1.0563031996e+00	 1.7387090862e+00	-2.8575818558e+00
 1.0162515949e+00	 1.7590556219e+00	-2.8833588027e+00
 9.7562103211e-01	 1.7784082690e+00	-2.9044082127e+00
 9.3444298990e-01	 1.7967690283e+00	-2.9211262751e+00
 8.9274939447e-01	 1.8141414883e+00	-2.9339334765e+00
 1.2920675835e+00	 1.6074175072e+00	-2.6010832196e+00
 1.2558533288e+00	 1.6338673932e+00	-2.6622439660e+00
 1.2188804347e+00	 1.6593390990e+00	-2.7171720735e+00
 1.1811759321e+00	 1.6838245705e+00	-2.7660436147e+00
 1.1427678578e+00	 1.7073174546e+00	-2.8090777853e+00
 1.1036851674e+00	 1.7298130998e+00	-2.8465340045e+00
 1.0639576444e+00	 1.7513085489e+00	-2.8787086352e+00
 1.0236158078e+00	 1.7718025246e+00	-2.9059313828e+00
 9.8269081789e-01	 1.7912954097e+00	-2.9285614340e+00
 9.4121438120e-01	 1.8097892193e+00	-2.9469833986e+00
 8.9921865535e-01	 1.8272875679e+00	-2.9616031176e+00
 1.3013630652e+00	 1.6189817012e+00	-2.6166049779e+00
 1.2648882754e+00	 1.6456218747e+00	-2.6783520416e+00
 1.2276493884e+00	 1.6712768308e+00	-2.7339866268e+00
 1.1896736294e+00	 1.6959384573e+00	-2.7836976955e+00
 1.1509892371e+00	 1.7196003556e+00	-2.8277123861e+00
 1.1116253754e+00	 1.7422578406e+00	-2.8662932106e+00
 1.0716120419e+00	 1.7639079336e+00	-2.8997349284e+00
 1.0309799753e+00	 1.7845493486e+00	-2.9283611506e+00
 9.8976055995e-01	 1.8041824707e+00	-2.9525207289e+00
 9.4798573062e-01	 1.8228093297e+00	-2.9725839896e+00
 9.0568787623e-01	 1.8404335661e+00	-2.9889388676e+00
 8.4099450139e-01	 1.7089712139e+00	-2.7095787636e+00
 8.0126552432e-01	 1.7244093376e+00	-2.7038212078e+00
 7.6111198917e-01	 1.7389276928e+00	-2.6955572560e+00
 7.2056468865e-01	 1.7525339179e+00	-2.6851131589e+00
 6.7965448725e-01	 1.7652369718e+00	-2.6727317184e+00
 6.3841223768e-01	 1.7770470794e+00	-2.6585757557e+00
 5.9686869982e-01	 1.7879756743e+00	-2.6427322356e+00
 5.5505446234e-01	 1.7980353372e+00	-2.6252169394e+00
 5.1299986759e-01	 1.8072397329e+00	-2.6059795792e+00
 4.7073493975e-01	 1.8156035447e+00	-2.5849092473e+00
 4.2828931676e-01	 1.8231424066e+00	-2.5618401000e+00
 8.4746389208e-01	 1.7221175573e+00	-2.7371646304e+00
 8.0742929794e-01	 1.7376744394e+00	-2.7330648775e+00
 7.6696687979e-01	 1.7523044778e+00	-2.7262848484e+00
 7.2610766721e-01	 1.7660153695e+00	-2.7171714989e+00
 6.8488276212e-01	 1.7788161422e+00	-2.7059906641e+00
 6.4332325456e-01	 1.7907170996e+00	-2.6929302038e+00
 6.0146014103e-01	 1.8017297632e+00	-2.6781037992e+00
 5.5932424552e-01	 1.8118668106e+00	-2.6615553000e+00
 5.1694614377e-01	 1.8211420116e+00	-2.6432635174e+00
 4.7435609094e-01	 1.8295701624e+00	-2.6231473626e+00
 4.3158395295e-01	 1.8371670174e+00	-2.6010712302e+00
 8.5393328504e-01	 1.7352639052e+00	-2.7650506948e+00
 8.1359307372e-01	 1.7509395459e+00	-2.7627094946e+00
 7.7282177246e-01	 1.7656812675e+00	-2.7575149552e+00
 7.3165064771e-01	 1.7794968257e+00	-2.7498289007e+00
 6.9011103881e-01	 1.7923953173e+00	-2.7399371924e+00
 6.4823427316e-01	 1.8043871247e+00	-2.7280523867e+00
 6.0605158385e-01	 1.8154838570e+00	-2.7143170223e+00
 5.6359403019e-01	 1.8256982888e+00	-2.6988074409e+00
 5.2089242134e-01	 1.8350442951e+00	-2.6815380485e+00
 4.7797724340e-01	 1.8435367849e+00	-2.6624659217e+00
 4.3487859030e-01	 1.8511916330e+00	-2.6414956677e+00
 8.6040267498e-01	 1.7484102470e+00	-2.7931491771e+00
 8.1975684663e-01	 1.7642046462e+00	-2.7926467091e+00
 7.7867666240e-01	 1.7790580509e+00	-2.7891283488e+00
 7.3719362563e-01	 1.7929782757e+00	-2.7829649013e+00
 6.9533931307e-01	 1.8059744861e+00	-2.7744591440e+00
 6.5314528946e-01	 1.8180571433e+00	-2.7638478389e+00
 6.1064302452e-01	 1.8292379444e+00	-2.7513043292e+00
 5.6786381287e-01	 1.8395297606e+00	-2.7369416390e+00
 5.2483869706e-01	 1.8489465721e+00	-2.7208159951e+00
 4.8159839416e-01	 1.8575034010e+00	-2.7029306850e+00
 4.3817322610e-01	 1.8652162422e+00	-2.6832401727e+00
 8.6687205661e-01	 1.7615565720e+00	-2.8213749150e+00
 8.2592061162e-01	 1.7774697295e+00	-2.8227714024e+00
 7.8453154482e-01	 1.7924348172e+00	-2.8210093583e+00
 7.4273659643e-01	 1.8064597084e+00	-2.8164626308e+00
 7.0056758062e-01	 1.8195536375e+00	-2.8094477050e+00
 6.5805629946e-01	 1.8317271444e+00	-2.8002249117e+00
 6.1523445931e-01	 1.8429920141e+00	-2.7890001580e+00
 5.7213359007e-01	 1.8533612147e+00	-2.7759271147e+00
 5.2878496771e-01	 1.8628488314e+00	-2.7611097932e+00
 4.8521954028e-01	 1.8714699991e+00	-2.7446054452e+00
 4.4146785768e-01	 1.8792408333e+00	-2.7264277167e+00
 8.7334142466e-01	 1.7747028693e+00	-2.8496452666e+00
 8.3208436367e-01	 1.7907347849e+00	-2.8529815679e+00
 7.9038641495e-01	 1.8058115554e+00	-2.8530457371e+00
 7.4827955559e-01	 1.8199411127e+00	-2.8502086796e+00
 7.0579583718e-01	 1.8331327604e+00	-2.8447972829e+00
 6.6296729915e-01	 1.8453971167e+00	-2.8370946690e+00
 6.1982588445e-01	 1.8567460549e+00	-2.8273408865e+00
 5.7640335830e-01	 1.8671926397e+00	-2.8157339964e+00
 5.3273123008e-01	 1.8767510614e+00	-2.8024315061e+00
 4.8884067880e-01	 1.8854365679e+00	-2.7875521005e+00
 4.4476248234e-01	 1.8932653949e+00	-2.7711776228e+00
 8.7981077385e-01	 1.7878491283e+00	-2.8778800180e+00
 8.3824809775e-01	 1.8039998017e+00	-2.8831781968e+00
 7.9624126801e-01	 1.8191882546e+00	-2.8851285380e+00
 7.5382249858e-01	 1.8334224778e+00	-2.8840929714e+00
 7.1102407850e-01	 1.8467118437e+00	-2.8804053884e+00
 6.6787828451e-01	 1.8590670493e+00	-2.8743707878e+00
 6.2441729620e-01	 1.8705000556e+00	-2.8662647603e+00
 5.8067311408e-01	 1.8810240243e+00	-2.8563332879e+00
 5.3667748094e-01	 1.8906532508e+00	-2.8447928385e+00
 4.9246180675e-01	 1.8994030960e+00	-2.8318307243e+00
 4.4805709739e-01	 1.9072899157e+00	-2.8176057000e+00
 8.8628009888e-01	 1.8009953382e+00	-2.9060012946e+00
 8.4441180881e-01	 1.8172647689e+00	-2.9132651685e+00
 8.0209609920e-01	 1.8325649038e+00	-2.9171519922e+00
 7.5936542088e-01	 1.8469037925e+00	-2.9180086414e+00
 7.1625230030e-01	 1.8602908762e+00	-2.9161725221e+00
 6.7278925154e-01	 1.8727369307e+00	-2.9119694630e+00
 6.2900869081e-01	 1.8842540050e+00	-2.9057118253e+00
 5.8494285392e-01	 1.8948553573e+00	-2.8976968363e+00
 5.4062371707e-01	 1.9045553884e+00	-2.8882051496e+00
 4.9608292119e-01	 1.9133695719e+00	-2.8774996318e+00
 4.5135170014e-01	 1.9213143841e+00	-2.8658243715e+00
 8.9274939447e-01	 1.8141414883e+00	-2.9339334765e+00
 8.5057549183e-01	 1.8305296758e+00	-2.9431491461e+00
 8.0795090376e-01	 1.8459414922e+00	-2.9490133944e+00
 7.6490831796e-01	 1.8603850459e+00	-2.9518519201e+00
 7.2148049832e-01	 1.8738698470e+00	-2.9520020665e+00
 6.7770019623e-01	 1.8864067500e+00	-2.9498093158e+00
 6.3360006453e-01	 1.8980078918e+00	-2.9456238625e+00
 5.8921257433e-01	 1.9086866274e+00	-2.9397973013e+00
 5.4456993524e-01	 1.9184574627e+00	-2.9326794658e+00
 4.9970401915e-01	 1.9273359843e+00	-2.9246154442e+00
 4.5464628790e-01	 1.9353387887e+00	-2.9159427978e+00
 8.9921865535e-01	 1.8272875679e+00	-2.9616031176e+00
 8.5673914177e-01	 1.8437945114e+00	-2.9727394766e+00
 8.1380567690e-01	 1.8593180088e+00	-2.9806129927e+00
 7.7045118530e-01	 1.8738662269e+00	-2.9855220222e+00
 7.2670866827e-01	 1.8874487449e+00	-2.9878001821e+00
 6.8261111456e-01	 1.9000764959e+00	-2.9878113072e+00
 6.3819141361e-01	 1.9117617047e+00	-2.9859443253e+00
 5.9348227183e-01	 1.9225178233e+00	-2.9826081266e+00
 5.4851613224e-01	 1.9323594624e+00	-2.9782264928e+00
 5.0332509767e-01	 1.9413023217e+00	-2.9732331493e+00
 4.5794085798e-01	 1.9493631180e+00	-2.9680669939e+00
 9.0568787623e-01	 1.8404335661e+00	-2.9889388676e+00
 8.6290275360e-01	 1.8570592651e+00	-3.0019480946e+00
 8.1966041384e-01	 1.8726944426e+00	-3.0118538834e+00
 7.7599401836e-01	 1.8873473245e+00	-3.0189210396e+00
 7.3193680590e-01	 1.9010275589e+00	-3.0234757084e+00
 6.8752200253e-01	 1.9137461573e+00	-3.0258986537e+00
 6.4278273430e-01	 1.9255154327e+00	-3.0266182804e+00
 5.9775194293e-01	 1.9363489336e+00	-3.0261035116e+00
 5.5246230483e-01	 1.9462613761e+00	-3.0248566271e+00
 5.0694615381e-01	 1.9552685728e+00	-3.0234061603e+00
 4.6123540769e-01	 1.9633873606e+00	-3.0222999420e+00
 4.2828931676e-01	 1.8231424066e+00	-2.5618401000e+00
 3.8568920739e-01	 1.8298732788e+00	-2.5404401178e+00
 3.4296629828e-01	 1.8358129380e+00	-2.5240515392e+00
 3.0014874933e-01	 1.8409794613e+00	-2.5119429435e+00
 2.5726409930e-01	 1.8453915989e+00	-2.5033445455e+00
 2.1433921849e-01	 1.8490687050e+00	-2.4974568665e+00
 1.7140026596e-01	 1.8520306682e+00	-2.4934589413e+00
 1.2847265116e-01	 1.8542978437e+00	-2.4905160082e+00
 8.5580999907e-02	 1.8558909863e+00	-2.4877866424e+00
 4.2749124825e-02	 1.8568311855e+00	-2.4844293012e+00
 0.0000000000e+00	 1.8571398015e+00	-2.4796082684e+00
 4.3158395295e-01	 1.8371670174e+00	-2.6010712302e+00
 3.8865614018e-01	 1.8439496671e+00	-2.5806966439e+00
 3.4560458304e-01	 1.8499350174e+00	-2.5653024614e+00
 3.0245765804e-01	 1.8551412844e+00	-2.5540954468e+00
 2.5924311577e-01	 1.8595873627e+00	-2.5462357599e+00
 2.1598803324e-01	 1.8632927551e+00	-2.5408470035e+00
 1.7271877076e-01	 1.8662775033e+00	-2.5370257570e+00
 1.2946093321e-01	 1.8685621191e+00	-2.5338505323e+00
 8.6239335869e-02	 1.8701675171e+00	-2.5303901002e+00
 4.3077974526e-02	 1.8711149488e+00	-2.5257111526e+00
 0.0000000000e+00	 1.8714259389e+00	-2.5188852776e+00
 4.3487859030e-01	 1.8511916330e+00	-2.6414956677e+00
 3.9162307402e-01	 1.8580260603e+00	-2.6222564982e+00
 3.4824286873e-01	 1.8640571018e+00	-2.6079367622e+00
 3.0476656755e-01	 1.8693031125e+00	-2.5976855931e+00
 2.6122213293e-01	 1.8737831314e+00	-2.5905911042e+00
 2.1763684858e-01	 1.8775168101e+00	-2.5856924229e+00
 1.7403727602e-01	 1.8805243434e+00	-2.5819911640e+00
 1.3044921561e-01	 1.8828263996e+00	-2.5784622584e+00
 8.6897672061e-02	 1.8844440529e+00	-2.5740640714e+00
 4.3406824341e-02	 1.8853987171e+00	-2.5677477588e+00
 0.0000000000e+00	 1.8857120812e+00	-2.5584658307e+00
 4.3817322610e-01	 1.8652162422e+00	-2.6832401727e+00
 3.9459000647e-01	 1.8721024470e+00	-2.6652973950e+00
 3.5088115318e-01	 1.8781791796e+00	-2.6521555319e+00
 3.0707547599e-01	 1.8834649340e+00	-2.6429108736e+00
 2.6320114917e-01	 1.8879788935e+00	-2.6365781914e+00
 2.1928566315e-01	 1.8917408585e+00	-2.6321053554e+00
 1.7535578067e-01	 1.8947711768e+00	-2.6283873506e+00
 1.3143749755e-01	 1.8970906734e+00	-2.6242795765e+00
 8.7556007947e-02	 1.8987205820e+00	-2.6186103427e+00
 4.3735674004e-02	 1.8996824787e+00	-2.6101924898e+00
 0.0000000000e+00	 1.8999982169e+00	-2.5978340880e+00
 4.4146785768e-01	 1.8792408333e+00	-2.7264277167e+00
 3.9755693512e-01	 1.8861788156e+00	-2.7099917389e+00
 3.5351943425e-01	 1.8923012392e+00	-2.6981538526e+00
 3.0938438146e-01	 1.8976267374e+00	-2.6899628796e+00
 2.6518016287e-01	 1.9021746373e+00	-2.6843596266e+00
 2.2093447560e-01	 1.9059648886e+00	-2.6801946772e+00
 1.7667428362e-01	 1.9090179920e+00	-2.6762455405e+00
 1.3242577823e-01	 1.9113549288e+00	-2.6712330103e+00
 8.8214342988e-02	 1.9129970928e+00	-2.6638366141e+00
 4.4064523245e-02	 1.9139662220e+00	-2.6527090587e+00
 0.0000000000e+00	 1.9142843343e+00	-2.6364896034e+00
 4.4476248234e-01	 1.8932653949e+00	-2.7711776228e+00
 4.0052385753e-01	 1.9002551546e+00	-2.7565068209e+00
 3.5615770978e-01	 1.9064232692e+00	-2.7461210216e+00
 3.1169328209e-01	 1.9117885109e+00	-2.7390275204e+00
 2.6715917242e-01	 1.9163703514e+00	-2.7340931923e+00
 2.2258328458e-01	 1.9201888889e+00	-2.7300660343e+00
 1.7799278380e-01	 1.9232647772e+00	-2.7255960287e+00
 1.3341405682e-01	 1.9256191544e+00	-2.7192551389e+00
 8.8872676646e-02	 1.9272735736e+00	-2.7095562798e+00
 4.4393371795e-02	 1.9282499354e+00	-2.6949711391e+00
 0.0000000000e+00	 1.9285704216e+00	-2.6739467543e+00
 4.4805709739e-01	 1.9072899157e+00	-2.8176057000e+00
 4.0349077129e-01	 1.9143314526e+00	-2.8050050070e+00
 3.5879597761e-01	 1.9205452580e+00	-2.7962407635e+00
 3.1400217598e-01	 1.9259502432e+00	-2.7902852329e+00
 2.6913817619e-01	 1.9305660240e+00	-2.7859320261e+00
 2.2423208876e-01	 1.9344128477e+00	-2.7818219617e+00
 1.7931128014e-01	 1.9375115209e+00	-2.7764682154e+00
 1.3440233254e-01	 1.9398833383e+00	-2.7682805209e+00
 8.9531008385e-02	 1.9415500127e+00	-2.7555882193e+00
 4.4722219386e-02	 1.9425336070e+00	-2.7366619987e+00
 0.0000000000e+00	 1.9428564673e+00	-2.7097341962e+00
 4.5135170014e-01	 1.9213143841e+00	-2.8658243715e+00
 4.0645767398e-01	 1.9284076980e+00	-2.8556439182e+00
 3.6143423560e-01	 1.9346671941e+00	-2.8486914342e+00
 3.1631106125e-01	 1.9401119226e+00	-2.8439111813e+00
 2.7111717258e-01	 1.9447616437e+00	-2.8400247903e+00
 2.2588088679e-01	 1.9486367534e+00	-2.8355619967e+00
 1.8062977156e-01	 1.9517582114e+00	-2.8288906390e+00
 1.3539060456e-01	 1.9541474690e+00	-2.8182456223e+00
 9.0189337666e-02	 1.9558263986e+00	-2.8017565969e+00
 4.5051065750e-02	 1.9568172253e+00	-2.7774741489e+00
 0.0000000000e+00	 1.9571424596e+00	-2.7433943416e+00
 4.5464628790e-01	 1.9353387887e+00	-2.9159427978e+00
 4.0942456316e-01	 1.9424838794e+00	-2.9085766021e+00
 3.6407248158e-01	 1.9487890659e+00	-2.9036462155e+00
 3.1861993602e-01	 1.9542735376e+00	-2.9000754483e+00
 2.7309615996e-01	 1.9589571987e+00	-2.8965158340e+00
 2.2752967731e-01	 1.9628605943e+00	-2.8913827879e+00
 1.8194825698e-01	 1.9660048370e+00	-2.8828910073e+00
 1.3637887209e-01	 1.9684115347e+00	-2.8690887476e+00
 9.0847663952e-02	 1.9701027195e+00	-2.8478906702e+00
 4.5379910618e-02	 1.9711007787e+00	-2.8171090098e+00
 0.0000000000e+00	 1.9714283870e+00	-2.7744828613e+00
 4.5794085798e-01	 1.9493631180e+00	-2.9680669939e+00
 4.1239143643e-01	 1.9565599852e+00	-2.9639516980e+00
 3.6671071340e-01	 1.9629108619e+00	-2.9612733013e+00
 3.2092879839e-01	 1.9684350766e+00	-2.9589432184e+00
 2.7507513672e-01	 1.9731526776e+00	-2.9555453488e+00
 2.2917845898e-01	 1.9770843589e+00	-2.9493781994e+00
 1.8326673532e-01	 1.9802513862e+00	-2.9384962278e+00
 1.3736713431e-01	 1.9826755239e+00	-2.9207499735e+00
 9.1505986705e-02	 1.9843789638e+00	-2.8938246068e+00
 4.5708753720e-02	 1.9853842553e+00	-2.8552765899e+00
 0.0000000000e+00	 1.9857142377e+00	-2.8025682070e+00
 4.6123540769e-01	 1.9633873606e+00	-3.0222999420e+00
 4.1535829135e-01	 1.9706360040e+00	-3.0219135945e+00
 3.6934892891e-01	 1.9770325707e+00	-3.0217360762e+00
 3.2323764649e-01	 1.9825965280e+00	-3.0206749524e+00
 2.7705410124e-01	 1.9873480687e+00	-3.0172495175e+00
 2.3082723046e-01	 1.9913080356e+00	-3.0096394100e+00
 1.8458520551e-01	 1.9944978474e+00	-2.9957324359e+00
 1.3835539043e-01	 1.9969394250e+00	-2.9731710859e+00
 9.2164305388e-02	 1.9986551198e+00	-2.9393973092e+00
 4.6037594790e-02	 1.9996676437e+00	-2.8916951786e+00
 0.0000000000e+00	 2.0000000000e+00	-2.8272311545e+00
