x	y	stress_yy
 1.000000000000000e+00	 0.000000000000000e+00	 1.832583082470995e+01
 9.998338218507750e-01	 2.301879740688203e-02	 1.835834530430683e+01
 9.993275599243348e-01	 4.608215271279779e-02	 1.837399450226934e+01
 9.984697124756583e-01	 6.917769523648053e-02	 1.837146291636501e+01
 9.972489236794969e-01	 9.229260277661558e-02	 1.834935546472541e+01
 9.956540178012001e-01	 1.154136152499791e-01	 1.830619758084922e+01
 9.936740343365396e-01	 1.385270506335803e-01	 1.824043598772423e+01
 9.912982639881663e-01	 1.616188232546628e-01	 1.815044022790298e+01
 9.885162853320295e-01	 1.846744644584668e-01	 1.803450502511976e+01
 9.853180020131134e-01	 2.076791456684508e-01	 1.789085355010866e+01
 9.816936802964240e-01	 2.306177038372821e-01	 1.771764165847511e+01
 1.014285762337685e+00	 0.000000000000000e+00	 1.799327552548218e+01
 1.014117210207158e+00	 2.334763847636930e-02	 1.801309342330764e+01
 1.013603715943827e+00	 4.674047139590417e-02	 1.801650432776148e+01
 1.012733613491393e+00	 7.016595135258462e-02	 1.800222241008630e+01
 1.011495384797893e+00	 9.361107297002941e-02	 1.796889128086757e+01
 1.009877694474696e+00	 1.170623867344661e-01	 1.791508463601407e+01
 1.007869425438318e+00	 1.405060151646194e-01	 1.783930755892987e+01
 1.005459715400836e+00	 1.639276713629985e-01	 1.773999854602753e+01
 1.002637994060108e+00	 1.873126799789160e-01	 1.761553232071465e+01
 9.993940208268849e-01	 2.106460005981402e-01	 1.746422349738539e+01
 9.957179229122425e-01	 2.339122535574748e-01	 1.728433115159640e+01
 1.028571613012482e+00	 0.000000000000000e+00	 1.766649766721267e+01
 1.028400686885902e+00	 2.367648157850007e-02	 1.767616064064022e+01
 1.027879960240766e+00	 4.739879414830282e-02	 1.766987807053086e+01
 1.026997602708497e+00	 7.115421357755074e-02	 1.764638921605874e+01
 1.025741934009444e+00	 9.492955131367199e-02	 1.760437129826140e+01
 1.024101459100028e+00	 1.187111684111830e-01	 1.754244071677076e+01
 1.022064904316570e+00	 1.424849919293243e-01	 1.745915490492090e+01
 1.019621254379648e+00	 1.662365337446359e-01	 1.735301488093739e+01
 1.016759790108138e+00	 1.899509118092326e-01	 1.722246855007216e+01
 1.013470126677695e+00	 2.136128738698931e-01	 1.706591480821215e+01
 1.009742252244628e+00	 2.372068236462269e-01	 1.688170849151997e+01
 1.042857540357000e+00	 0.000000000000000e+00	 1.734630599769509e+01
 1.042684240221567e+00	 2.400532644483651e-02	 1.734799761296538e+01
 1.042156281155643e+00	 4.805712043257811e-02	 1.733421183353306e+01
 1.041261668477513e+00	 7.214248110459021e-02	 1.730370845303564e+01
 1.039988559678984e+00	 9.624803673113663e-02	 1.725519326016438e+01
 1.038325300060698e+00	 1.203599589340155e-01	 1.718731984547033e+01
 1.036260459377960e+00	 1.444639793119433e-01	 1.709869203376469e+01
 1.033782869359052e+00	 1.685454085144208e-01	 1.698786699060857e+01
 1.030881661943093e+00	 1.925891577952661e-01	 1.685335904767406e+01
 1.027546308069888e+00	 2.165797630611406e-01	 1.669364428662347e+01
 1.023766656840262e+00	 2.405014114133076e-01	 1.650716591449530e+01
 1.057143532703853e+00	 0.000000000000000e+00	 1.703346551637913e+01
 1.056967858548713e+00	 2.433417280694075e-02	 1.702903060265147e+01
 1.056432667028950e+00	 4.871544971131429e-02	 1.700959648829932e+01
 1.055525799148979e+00	 7.313075312691440e-02	 1.697393897827108e+01
 1.054235250171347e+00	 9.756652814601664e-02	 1.692078742317135e+01
 1.052549205740208e+00	 1.220087569568488e-01	 1.684882713504286e+01
 1.050456079029154e+00	 1.464429756967244e-01	 1.675670242091508e+01
 1.047944548773499e+00	 1.708542937871996e-01	 1.664302027363888e+01
 1.045003598031943e+00	 1.952274157828657e-01	 1.650635475488815e+01
 1.041622553507811e+00	 2.195466657493138e-01	 1.634525209921645e+01
 1.037791125245829e+00	 2.437960141684862e-01	 1.615823656063698e+01
 1.071429578385649e+00	 0.000000000000000e+00	 1.672870038981510e+01
 1.071251530201898e+00	 2.466302039637492e-02	 1.671966310331839e+01
 1.070709106201178e+00	 4.937378144709573e-02	 1.669611802332210e+01
 1.069789983073436e+00	 7.411902883773466e-02	 1.665685247160443e+01
 1.068481993851369e+00	 9.888502448190539e-02	 1.660061438999654e+01
 1.066773164522058e+00	 1.236575611335686e-01	 1.652611538363983e+01
 1.064651751676819e+00	 1.484219794679160e-01	 1.643203437906516e+01
 1.062106281057439e+00	 1.731631876778187e-01	 1.631702192786739e+01
 1.059125586841663e+00	 1.978656836178809e-01	 1.617970518113501e+01
 1.055698851495811e+00	 2.225135795118439e-01	 1.601869355288361e+01
 1.051815646008011e+00	 2.470906292215318e-01	 1.583258508249170e+01
 1.085715665735001e+00	 0.000000000000000e+00	 1.643269663712481e+01
 1.085535243515682e+00	 2.499186894470118e-02	 1.642027733715647e+01
 1.084985587012820e+00	 5.003211510250672e-02	 1.639385786495919e+01
 1.084054208601425e+00	 7.510730743026230e-02	 1.635223259179303e+01
 1.082728779083882e+00	 1.002035246623961e-01	 1.629416311320762e+01
 1.080997164789749e+00	 1.253063701180604e-01	 1.621838193789437e+01
 1.078847465727619e+00	 1.504009890097661e-01	 1.612359679323042e+01
 1.076268054645321e+00	 1.754720883011241e-01	 1.600849556976781e+01
 1.073247616839224e+00	 2.005039591461607e-01	 1.587175192028478e+01
 1.069775190538234e+00	 2.254805019261618e-01	 1.571203152112604e+01
 1.065840207673492e+00	 2.503852538822138e-01	 1.552799899441094e+01
 1.100001783084519e+00	 0.000000000000000e+00	 1.614610460638826e+01
 1.099818986824623e+00	 2.532071818348164e-02	 1.613123563566782e+01
 1.099262097804366e+00	 5.069045014013161e-02	 1.610289317335289e+01
 1.098318464083486e+00	 7.609558809770867e-02	 1.605987419853030e+01
 1.096975594233721e+00	 1.015220276110822e-01	 1.600094905438356e+01
 1.095221194926784e+00	 1.269551825642097e-01	 1.592486580039969e+01
 1.093043209588223e+00	 1.523800027065229e-01	 1.583035518788705e+01
 1.090429857971597e+00	 1.777809937719623e-01	 1.571613627276166e+01
 1.087369676491597e+00	 2.031422402135547e-01	 1.558092267185035e+01
 1.083851559139426e+00	 2.284474305696987e-01	 1.542342946003415e+01
 1.079864798788953e+00	 2.536798854603011e-01	 1.524238069543885e+01
 1.114287918766816e+00	 0.000000000000000e+00	 1.586954126069460e+01
 1.114102748463282e+00	 2.564956784427844e-02	 1.585288171428325e+01
 1.113538626916308e+00	 5.134878602255466e-02	 1.582329711560434e+01
 1.112582737870157e+00	 7.708387003328505e-02	 1.577958263425934e+01
 1.111222427665721e+00	 1.028405322515569e-01	 1.572051248475960e+01
 1.109445243316661e+00	 1.286039971259019e-01	 1.564484495950666e+01
 1.107238971665293e+00	 1.543590189424345e-01	 1.555132809639024e+01
 1.104591679470715e+00	 1.800899022051795e-01	 1.543870598688680e+01
 1.101491754265754e+00	 2.057805246659122e-01	 1.530572572171174e+01
 1.097927945803734e+00	 2.314143630198855e-01	 1.515114496106034e+01
 1.093889407901079e+00	 2.569745212655634e-01	 1.497374010532112e+01
 1.128574061114501e+00	 0.000000000000000e+00	 1.560359229070879e+01
 1.128386516766216e+00	 2.597841765865374e-02	 1.558554185025072e+01
 1.127815162689139e+00	 5.200712221236022e-02	 1.555513911821695e+01
 1.126847018311981e+00	 7.807215243020288e-02	 1.551117306048778e+01
 1.125469267744715e+00	 1.041590375074135e-01	 1.545241691483240e+01
 1.123669298342884e+00	 1.302528124570227e-01	 1.537763392175739e+01
 1.121434740365498e+00	 1.563380361017492e-01	 1.528558370590936e+01
 1.118753507577126e+00	 1.823988117156219e-01	 1.517502930605775e+01
 1.115613838628670e+00	 2.084188103490824e-01	 1.504474484168689e+01
 1.112004339035504e+00	 2.343812968541535e-01	 1.489352379305815e+01
 1.107914023556551e+00	 2.602691586077694e-01	 1.472018785935186e+01
 1.142860198460186e+00	 0.000000000000000e+00	 1.534881406892194e+01
 1.142670280067985e+00	 2.630726735816965e-02	 1.532952597225243e+01
 1.142091693463350e+00	 5.266545817213261e-02	 1.529848510062123e+01
 1.141111293759497e+00	 7.906043448167339e-02	 1.525446984383913e+01
 1.139716102835537e+00	 1.054775423022454e-01	 1.519624764165047e+01
 1.137893348388953e+00	 1.319016272114574e-01	 1.512258142923806e+01
 1.135630504095502e+00	 1.583170525687151e-01	 1.503223675379190e+01
 1.132915330725281e+00	 1.847077204181359e-01	 1.492398955252762e+01
 1.129735918047314e+00	 2.110570951089146e-01	 1.479663457132849e+01
 1.126080727339082e+00	 2.373482296499335e-01	 1.464899439081135e+01
 1.121938634302054e+00	 2.635637947966888e-01	 1.447992901319887e+01
 9.816936802964240e-01	 2.306177038372821e-01	 1.771764165847511e+01
 9.776342863994824e-01	 2.534730768946625e-01	 1.751053069802396e+01
 9.731306880439857e-01	 2.762311524069800e-01	 1.726529174820097e+01
 9.681744667976357e-01	 2.988759714563225e-01	 1.698052024157611e+01
 9.627577163271480e-01	 3.213913671440238e-01	 1.665522165111258e+01
 9.568730786461752e-01	 3.437610012650069e-01	 1.628885157944888e+01
 9.505137794457967e-01	 3.659684029576715e-01	 1.588135392025347e+01
 9.436736622717954e-01	 3.879970091915093e-01	 1.543319639354012e+01
 9.363472213109787e-01	 4.098302069345519e-01	 1.494540273723488e+01
 9.285296325490471e-01	 4.314513768232032e-01	 1.441958083161080e+01
 9.202167830650884e-01	 4.528439381382666e-01	 1.385794604321564e+01
 9.957179229122425e-01	 2.339122535574748e-01	 1.728433115159640e+01
 9.916005374791480e-01	 2.570941330418181e-01	 1.707304841888913e+01
 9.870326017877620e-01	 2.801773250107799e-01	 1.682766320138535e+01
 9.820055771421120e-01	 3.031456425612922e-01	 1.654683650948076e+01
 9.765114442609665e-01	 3.259826878383744e-01	 1.622960281557399e+01
 9.705427400435855e-01	 3.486718892333964e-01	 1.587540701863172e+01
 9.640925934049355e-01	 3.711965405861092e-01	 1.548413968573079e+01
 9.571547599412131e-01	 3.935398422506569e-01	 1.505616992993045e+01
 9.497236551845439e-01	 4.156849438654169e-01	 1.459237526499716e+01
 9.417943862059640e-01	 4.376149886466908e-01	 1.409416777138741e+01
 9.333627813284100e-01	 4.593131590072458e-01	 1.356351591611891e+01
 1.009742252244628e+00	 2.372068236462269e-01	 1.688170849151997e+01
 1.005566874916577e+00	 2.607152115768242e-01	 1.666841217750706e+01
 1.000934601491359e+00	 2.841235220132460e-01	 1.642467388778831e+01
 9.958367730085770e-01	 3.074153400658279e-01	 1.614922205482491e+01
 9.902652572383444e-01	 3.305740369218140e-01	 1.584112414173398e+01
 9.842124859648721e-01	 3.535828075675452e-01	 1.549982061729988e+01
 9.776714913264066e-01	 3.764247105426353e-01	 1.512515739819640e+01
 9.706359409690050e-01	 3.990827095843819e-01	 1.471741617245060e+01
 9.631001717696162e-01	 4.215397170000070e-01	 1.427734200016170e+01
 9.550592218841777e-01	 4.437786385842048e-01	 1.380616758104005e+01
 9.465088608791017e-01	 4.657824198802068e-01	 1.330563358495072e+01
 1.023766656840262e+00	 2.405014114133076e-01	 1.650716591449530e+01
 1.019533287305854e+00	 2.643363095427448e-01	 1.629370199221354e+01
 1.014836675801436e+00	 2.880697401918617e-01	 1.605311213585649e+01
 1.009668043101530e+00	 3.116850604831455e-01	 1.578419380488285e+01
 1.004019144026986e+00	 3.351654106447972e-01	 1.548605111421355e+01
 9.978823052463919e-01	 3.584937522568460e-01	 1.515812594976729e+01
 9.912504621207464e-01	 3.816529085574751e-01	 1.480022772733226e+01
 9.841171943454884e-01	 4.046256066658365e-01	 1.441256126080143e+01
 9.764767601419596e-01	 4.273945215566902e-01	 1.399575218864083e+01
 9.683241287506194e-01	 4.499423216018177e-01	 1.355086940078306e+01
 9.596550109810312e-01	 4.722517154736102e-01	 1.307944391332988e+01
 1.037791125245829e+00	 2.437960141684862e-01	 1.615823656063698e+01
 1.033499763241064e+00	 2.679574239826441e-01	 1.594615565887164e+01
 1.028738813364647e+00	 2.920159763241097e-01	 1.570993981564818e+01
 1.023499376125471e+00	 3.159548003264606e-01	 1.544845689600165e+01
 1.017773093394594e+00	 3.397568052577776e-01	 1.516085101541245e+01
 1.011552186724500e+00	 3.634047192906907e-01	 1.484657092113218e+01
 1.004829494698492e+00	 3.868811303608553e-01	 1.450539717939587e+01
 9.975985090609817e-01	 4.101685289681731e-01	 1.413746768396317e+01
 9.898534093773371e-01	 4.332493527538351e-01	 1.374330098517475e+01
 9.815890959722187e-01	 4.561060326656014e-01	 1.332381693190939e+01
 9.728012208980669e-01	 4.787210405039170e-01	 1.288035412275723e+01
 1.051815646008011e+00	 2.470906292215318e-01	 1.583258508249170e+01
 1.047466291316291e+00	 2.715785519395860e-01	 1.562315823473673e+01
 1.042641002827651e+00	 2.959622271874738e-01	 1.539228077190160e+01
 1.037330760784896e+00	 3.202245561089889e-01	 1.513889212891603e+01
 1.031527094108872e+00	 3.443482170112095e-01	 1.486217947492355e+01
 1.025222119235553e+00	 3.683157046584718e-01	 1.456160348110908e+01
 1.018408577970180e+00	 3.921093716830016e-01	 1.423692304389234e+01
 1.011079874105802e+00	 4.157114719645439e-01	 1.388821852585701e+01
 1.003230108551512e+00	 4.391042058098098e-01	 1.351591306147405e+01
 9.948541127159070e-01	 4.622697667416280e-01	 1.312079146785289e+01
 9.859474798940767e-01	 4.851903896875877e-01	 1.270401630358382e+01
 1.065840207673492e+00	 2.503852538822138e-01	 1.552799899441094e+01
 1.061432860125619e+00	 2.751996904566348e-01	 1.532223235184451e+01
 1.056543232837103e+00	 2.999084895594362e-01	 1.509741016951419e+01
 1.051162185784308e+00	 3.244943243439465e-01	 1.485254441359992e+01
 1.045281134937524e+00	 3.489396421555472e-01	 1.458686807994218e+01
 1.038892091615907e+00	 3.732267043495812e-01	 1.429985846476783e+01
 1.031987700846347e+00	 3.973376282541403e-01	 1.399125952766738e+01
 1.024561278470266e+00	 4.212544311281006e-01	 1.366110295372408e+01
 1.016606846740247e+00	 4.449590759429827e-01	 1.330972750736797e+01
 1.008119168148615e+00	 4.684335187959696e-01	 1.293779626377666e+01
 9.990937772329286e-01	 4.916597577410830e-01	 1.254631130553124e+01
 1.079864798788953e+00	 2.536798854603011e-01	 1.524238069543885e+01
 1.075399458263132e+00	 2.788208365768544e-01	 1.504102928457336e+01
 1.070445492039662e+00	 3.038547602174804e-01	 1.482274466855498e+01
 1.064993639828203e+00	 3.287641015445487e-01	 1.458661211377178e+01
 1.059035204648252e+00	 3.535310769412446e-01	 1.433191295029701e+01
 1.052562092701919e+00	 3.781377143534121e-01	 1.405814545781840e+01
 1.045566852237530e+00	 4.025658958044971e-01	 1.376504496856380e+01
 1.038042711144692e+00	 4.267974019319960e-01	 1.345260283634174e+01
 1.029983613019307e+00	 4.508139583717223e-01	 1.312108390751012e+01
 1.021384251437273e+00	 4.745972837946980e-01	 1.277104212310501e+01
 1.012240102178491e+00	 4.981291393808635e-01	 1.240333388245455e+01
 1.093889407901079e+00	 2.569745212655634e-01	 1.497374010532112e+01
 1.089366074322916e+00	 2.824419873433087e-01	 1.477732070375405e+01
 1.084347769081984e+00	 3.078010359390896e-01	 1.456583335442586e+01
 1.078825111621082e+00	 3.330338842240116e-01	 1.433843721038168e+01
 1.072789292008760e+00	 3.581225176187560e-01	 1.409446419160430e+01
 1.066232111329943e+00	 3.830487306593562e-01	 1.383343759457014e+01
 1.059146021054265e+00	 4.077941700642983e-01	 1.355509003183686e+01
 1.051524161119399e+00	 4.323403798493822e-01	 1.325938039076412e+01
 1.043360396464453e+00	 4.566688483143967e-01	 1.294650948822924e+01
 1.034649351748811e+00	 4.807610567038857e-01	 1.261693409187543e+01
 1.025386443994631e+00	 5.045985293233902e-01	 1.227137897887946e+01
 1.107914023556551e+00	 2.602691586077694e-01	 1.472018785935186e+01
 1.103332696899054e+00	 2.860631397990621e-01	 1.452899105654292e+01
 1.098250052610725e+00	 3.117473135017465e-01	 1.432434935631387e+01
 1.092656589867442e+00	 3.373036688955506e-01	 1.410549621157072e+01
 1.086543385786751e+00	 3.627139604385353e-01	 1.387181614880005e+01
 1.079902136336337e+00	 3.879597492568057e-01	 1.362286120599077e+01
 1.072725196207091e+00	 4.130224467637699e-01	 1.335836680231901e+01
 1.065005617384702e+00	 4.378833603534111e-01	 1.307826676652594e+01
 1.056737186151450e+00	 4.625237409893744e-01	 1.278270723977862e+01
 1.047914458250161e+00	 4.869248324896046e-01	 1.247205916282813e+01
 1.038532791945218e+00	 5.110679222851237e-01	 1.214692905722571e+01
 1.121938634302054e+00	 2.635637947966888e-01	 1.447992901319887e+01
 1.117299314585631e+00	 2.896842909871785e-01	 1.429403051734762e+01
 1.112152331272543e+00	 3.156935896829344e-01	 1.409608209375719e+01
 1.106488063271783e+00	 3.415734520723818e-01	 1.388539174383848e+01
 1.100297474749929e+00	 3.673054016510370e-01	 1.366139839007339e+01
 1.093572156557455e+00	 3.928707661351533e-01	 1.342368624354016e+01
 1.086304366606542e+00	 4.182507216331378e-01	 1.317199869401834e+01
 1.078487068930921e+00	 4.434263389172351e-01	 1.290625148534656e+01
 1.070113971156061e+00	 4.683786316150235e-01	 1.262654492870501e+01
 1.061179560108253e+00	 4.930886061179267e-01	 1.233317490095237e+01
 1.051679135294118e+00	 5.175373129825247e-01	 1.202664237472940e+01
 9.202167830650884e-01	 4.528439381382666e-01	 1.385794604321564e+01
 9.114046648473878e-01	 4.739928653376373e-01	 1.326328098397901e+01
 9.020912353519670e-01	 4.948802800036434e-01	 1.263758908049675e+01
 8.922746742864819e-01	 5.154899876712747e-01	 1.198289959822881e+01
 8.819539668184718e-01	 5.358060209788083e-01	 1.130211274566021e+01
 8.711289202812919e-01	 5.558126876982258e-01	 1.059901865904853e+01
 8.598001777972277e-01	 5.754946185800570e-01	 9.878306613121314e+00
 8.479692286694867e-01	 5.948368147295444e-01	 9.145563800368961e+00
 8.356384154163032e-01	 6.138246942277596e-01	 8.407263185298433e+00
 8.228109373437806e-01	 6.324441377108051e-01	 7.670740125225906e+00
 8.094908505790605e-01	 6.506815326226161e-01	 6.944157651852254e+00
 9.333627813284100e-01	 4.593131590072458e-01	 1.356351591611891e+01
 9.244247752827184e-01	 4.807642147537833e-01	 1.300354667782852e+01
 9.149782963456433e-01	 5.019500220617313e-01	 1.241677493407738e+01
 9.050214982206021e-01	 5.228541551156739e-01	 1.180510775603011e+01
 8.945533515775020e-01	 5.434604184478213e-01	 1.117119385237683e+01
 8.835736609973344e-01	 5.637528956545838e-01	 1.051843827954355e+01
 8.720830787899015e-01	 5.837159979249101e-01	 9.851008796689214e+00
 8.600831155342660e-01	 6.033345120932596e-01	 9.173833325012541e+00
 8.475761472133474e-01	 6.225936479267381e-01	 8.492588111453939e+00
 8.345654188377984e-01	 6.414790843554314e-01	 7.813676355346620e+00
 8.210550444796545e-01	 6.599770143573945e-01	 7.144197229432303e+00
 9.465088608791017e-01	 4.657824198802068e-01	 1.330563358495072e+01
 9.374449662274109e-01	 4.875356060421673e-01	 1.277901574189054e+01
 9.278654370263987e-01	 5.090198078370565e-01	 1.222912809843329e+01
 9.177684009750668e-01	 5.302183680976542e-01	 1.165776098792650e+01
 9.071528142455878e-01	 5.511148632487299e-01	 1.106733027269801e+01
 8.960184786665549e-01	 5.716931527097678e-01	 1.046088826153605e+01
 8.843660557353290e-01	 5.919374281068149e-01	 9.842127550126188e+00
 8.721970773069457e-01	 6.118322620022576e-01	 9.215377348545550e+00
 8.595139528291983e-01	 6.313626558479829e-01	 8.585591979581320e+00
 8.463199730175579e-01	 6.505140868668495e-01	 7.958331365987804e+00
 8.326193098892952e-01	 6.692725535698656e-01	 7.339733470805428e+00
 9.596550109810312e-01	 4.722517154736102e-01	 1.307944391332988e+01
 9.504652270480891e-01	 4.943070336725015e-01	 1.258473626193299e+01
 9.407526468694558e-01	 5.160896315556505e-01	 1.206968030226056e+01
 9.305153721395666e-01	 5.375826206028219e-01	 1.153595554584160e+01
 9.197523445327681e-01	 5.587693491301476e-01	 1.098576363869383e+01
 9.084633631252294e-01	 5.796334523790161e-01	 1.042183594751454e+01
 8.966490986019068e-01	 6.001589024114224e-01	 9.847435210696945e+00
 8.843111040939087e-01	 6.203300575165623e-01	 9.266350910989898e+00
 8.714518225140709e-01	 6.401317108300180e-01	 8.682888127584793e+00
 8.580745902829160e-01	 6.595491378663692e-01	 8.101849738188209e+00
 8.441836373632470e-01	 6.785681426685646e-01	 7.528511963657129e+00
 9.728012208980669e-01	 4.787210405039170e-01	 1.288035412275723e+01
 9.634855471113760e-01	 5.010784921144978e-01	 1.241602391116748e+01
 9.536399153500362e-01	 5.231594874435458e-01	 1.193373174452563e+01
 9.432624013037896e-01	 5.449469066167819e-01	 1.143505266324423e+01
 9.323519321490816e-01	 5.664238698406905e-01	 1.092199270500974e+01
 9.209083042096341e-01	 5.875737881775672e-01	 1.039699360186077e+01
 9.089321973580297e-01	 6.083804141243842e-01	 9.862932551788985e+00
 8.964251860015402e-01	 6.288278916961995e-01	 9.323116802951922e+00
 8.833897465181827e-01	 6.489008057113672e-01	 8.781272872988739e+00
 8.698292610337306e-01	 6.685842299752990e-01	 8.241530319608581e+00
 8.557480174567735e-01	 6.878637740620275e-01	 7.708400079425004e+00
 9.859474798940767e-01	 4.851903896875877e-01	 1.270401630358382e+01
 9.765059157838942e-01	 5.078499758378683e-01	 1.226844411219786e+01
 9.665272319433628e-01	 5.302293697267743e-01	 1.181683319706506e+01
 9.560094780574259e-01	 5.523112201251403e-01	 1.135066088972703e+01
 9.449515668045673e-01	 5.740784191289722e-01	 1.087175620667043e+01
 9.333532917560440e-01	 5.955141536206587e-01	 1.038230208123399e+01
 9.212153419720944e-01	 6.166019565313522e-01	 9.884833551470583e+00
 9.085393131362222e-01	 6.373257576011928e-01	 9.382231712276543e+00
 8.953277150917490e-01	 6.576699333305543e-01	 8.877713310008730e+00
 8.815839756698585e-01	 6.776193558149491e-01	 8.374815934805770e+00
 8.673124407251396e-01	 6.971594401587902e-01	 7.877378848115432e+00
 9.990937772329286e-01	 4.916597577410830e-01	 1.254631130553124e+01
 9.895263224322676e-01	 5.146214793123250e-01	 1.213779560605178e+01
 9.794145861246581e-01	 5.372992726313681e-01	 1.171476951894962e+01
 9.687565919901648e-01	 5.596755551135029e-01	 1.127861981905088e+01
 9.575512382092630e-01	 5.817329907436078e-01	 1.083101706907815e+01
 9.457983156007349e-01	 6.034545422235297e-01	 1.037391579305215e+01
 9.334985224124954e-01	 6.248235229179774e-01	 9.909551362519988e+00
 9.206534756043400e-01	 6.458236482915676e-01	 9.440433463466574e+00
 9.072657184849856e-01	 6.664390865261035e-01	 8.969336069201145e+00
 8.933387245911578e-01	 6.866545080066284e-01	 8.499283907171023e+00
 8.788768977236079e-01	 7.064551333673871e-01	 8.033535474041997e+00
 1.012240102178491e+00	 4.981291393808635e-01	 1.240333388245455e+01
 1.002546756423119e+00	 5.213929970075802e-01	 1.202009530048518e+01
 9.923019673691437e-01	 5.443691903833595e-01	 1.162354445437794e+01
 9.815037326916951e-01	 5.670399055674747e-01	 1.121498508408234e+01
 9.701509360732091e-01	 5.893875784332123e-01	 1.079594784737929e+01
 9.582433655799834e-01	 6.113949475014185e-01	 1.036818882506669e+01
 9.457817286476292e-01	 6.330451065699113e-01	 9.933685374792113e+00
 9.327676635122770e-01	 6.543215568273484e-01	 9.494629250608106e+00
 9.192037469481085e-01	 6.752082581365386e-01	 9.053416952257793e+00
 9.050934981974861e-01	 6.956896791716466e-01	 8.612637318805389e+00
 8.904413790074432e-01	 7.157508460963548e-01	 8.175056434269269e+00
 1.025386443994631e+00	 5.045985293233902e-01	 1.227137897887946e+01
 1.015567207123072e+00	 5.281645233933461e-01	 1.191156428284711e+01
 1.005189365152042e+00	 5.514391172087801e-01	 1.153936659900486e+01
 9.942508897517067e-01	 5.744042654726615e-01	 1.115601450502096e+01
 9.827506501064427e-01	 5.970421759463997e-01	 1.076291728496253e+01
 9.706884315300646e-01	 6.193353629695629e-01	 1.036166214101926e+01
 9.580649506458910e-01	 6.412667007728053e-01	 9.954009271972240e+00
 9.448818669664171e-01	 6.628194762685597e-01	 9.541884774713660e+00
 9.311417907313339e-01	 6.839774410003836e-01	 9.127371363469999e+00
 9.168482868887002e-01	 7.047248619313129e-01	 8.712696942160814e+00
 9.020058751319096e-01	 7.250465707542284e-01	 8.300221107509545e+00
 1.038532791945218e+00	 5.110679222851237e-01	 1.214692905722571e+01
 1.028587663898750e+00	 5.349360529393342e-01	 1.180861489439907e+01
 1.018076768948577e+00	 5.585090473336626e-01	 1.145863643125607e+01
 1.006998052759889e+00	 5.817686288146692e-01	 1.109815528880880e+01
 9.953503700190041e-01	 6.046967770317856e-01	 1.072847789200453e+01
 9.831335032872549e-01	 6.272757821432017e-01	 1.035105174799332e+01
 9.703481783756770e-01	 6.494882988123111e-01	 9.967459994677888e+00
 9.569960760731446e-01	 6.713173996752270e-01	 9.579414205409639e+00
 9.430798400848772e-01	 6.927466279561625e-01	 9.188745467329044e+00
 9.286030810646587e-01	 7.137600489069369e-01	 8.797393783972057e+00
 9.135703766522705e-01	 7.343422997495432e-01	 8.407395886509180e+00
 1.051679135294118e+00	 5.175373129825247e-01	 1.202664237472940e+01
 1.041608116116776e+00	 5.417075801152571e-01	 1.170783877328601e+01
 1.030964168233969e+00	 5.655789749840386e-01	 1.137793431551702e+01
 1.019745211305930e+00	 5.891329895791028e-01	 1.103803218781750e+01
 1.007950085520931e+00	 6.123513754379840e-01	 1.068935445488045e+01
 9.955785706878293e-01	 6.352161985375726e-01	 1.033323775050515e+01
 9.826314018053823e-01	 6.577098939740801e-01	 9.971127530666296e+00
 9.691102809388425e-01	 6.798153201073742e-01	 9.604570894895048e+00
 9.550178852589553e-01	 7.015158118423989e-01	 9.235208008775899e+00
 9.403578711252181e-01	 7.227952327198277e-01	 8.864762187946051e+00
 9.251348741237903e-01	 7.436380254908352e-01	 8.495028731652033e+00
 8.094908505790605e-01	 6.506815326226161e-01	 6.944157651852254e+00
 7.956830624271515e-01	 6.685238174230594e-01	 6.236892120006037e+00
 7.813933179443889e-01	 6.859585270306811e-01	 5.554657562364007e+00
 7.666281954255775e-01	 7.029738267457829e-01	 4.900562288150368e+00
 7.513950941565928e-01	 7.195585469175594e-01	 4.277487187038023e+00
 7.357022165618519e-01	 7.357022165618521e-01	 3.688062808942397e+00
 7.195585469175590e-01	 7.513950941565929e-01	 3.134649287515394e+00
 7.029738267457828e-01	 7.666281954255776e-01	 2.619319384910109e+00
 6.859585270306806e-01	 7.813933179443893e-01	 2.143844876900292e+00
 6.685238174230592e-01	 7.956830624271517e-01	 1.709686433939195e+00
 6.506815326226163e-01	 8.094908505790606e-01	 1.317987087046941e+00
 8.210550444796545e-01	 6.599770143573945e-01	 7.144197229432303e+00
 8.070500015485216e-01	 6.780741897983326e-01	 6.490257209988837e+00
 7.925561171731763e-01	 6.957579675236486e-01	 5.855098132312920e+00
 7.775800636242920e-01	 7.130163437660235e-01	 5.241905546979508e+00
 7.621293458920958e-01	 7.298379893077620e-01	 4.653691077395064e+00
 7.462122835788024e-01	 7.462122835788025e-01	 4.093268768052645e+00
 7.298379893077620e-01	 7.621293458920964e-01	 3.563233648128688e+00
 7.130163437660234e-01	 7.775800636242922e-01	 3.065942808268717e+00
 6.957579675236482e-01	 7.925561171731764e-01	 2.603499241664710e+00
 6.780741897983322e-01	 8.070500015485218e-01	 2.177738647982703e+00
 6.599770143573943e-01	 8.210550444796544e-01	 1.790219341907309e+00
 8.326193098892952e-01	 6.692725535698656e-01	 7.339733470805428e+00
 8.184170109590402e-01	 6.876246212274461e-01	 6.733160984866364e+00
 8.037189854285399e-01	 7.055574686107333e-01	 6.139817892148612e+00
 7.885319995449450e-01	 7.230589228837120e-01	 5.562937630004996e+00
 7.728636640035178e-01	 7.401174952607817e-01	 5.005627435091025e+00
 7.567224155850235e-01	 7.567224155850236e-01	 4.470844191785758e+00
 7.401174952607816e-01	 7.728636640035181e-01	 3.961371933958259e+00
 7.230589228837118e-01	 7.885319995449455e-01	 3.479801313906747e+00
 7.055574686107329e-01	 8.037189854285400e-01	 3.028511316067085e+00
 6.876246212274458e-01	 8.184170109590403e-01	 2.609653450443353e+00
 6.692725535698655e-01	 8.326193098892952e-01	 2.225138612898092e+00
 8.441836373632470e-01	 6.785681426685646e-01	 7.528511963657129e+00
 8.297840813750883e-01	 6.971751039107528e-01	 6.963964856079431e+00
 8.148819135936146e-01	 7.153570222888413e-01	 6.407757443270958e+00
 7.994839942429858e-01	 7.331015558971893e-01	 5.863143519824091e+00
 7.835980397240893e-01	 7.503970563814085e-01	 5.333292841520496e+00
 7.672326039968961e-01	 7.672326039968963e-01	 4.821266694697703e+00
 7.503970563814082e-01	 7.835980397240895e-01	 4.329994621237882e+00
 7.331015558971890e-01	 7.994839942429861e-01	 3.862252624848621e+00
 7.153570222888415e-01	 8.148819135936152e-01	 3.420643157424469e+00
 6.971751039107525e-01	 8.297840813750883e-01	 3.007577150485573e+00
 6.785681426685646e-01	 8.441836373632471e-01	 2.625258316965274e+00
 8.557480174567735e-01	 6.878637740620275e-01	 7.708400079425004e+00
 8.411512035130448e-01	 7.067256300486032e-01	 7.181118736102956e+00
 8.260448925515365e-01	 7.251566205548785e-01	 6.657914586459296e+00
 8.104360387738634e-01	 7.431442346047952e-01	 6.142035979111007e+00
 7.943324642870420e-01	 7.606766642744333e-01	 5.636684011600503e+00
 7.777428402308016e-01	 7.777428402308020e-01	 5.144988031155397e+00
 7.606766642744328e-01	 7.943324642870419e-01	 4.669981855639519e+00
 7.431442346047951e-01	 8.104360387738637e-01	 4.214581048232047e+00
 7.251566205548781e-01	 8.260448925515365e-01	 3.781561560710494e+00
 7.067256300486029e-01	 8.411512035130450e-01	 3.373540034254768e+00
 6.878637740620274e-01	 8.557480174567736e-01	 2.992956014194973e+00
 8.673124407251396e-01	 6.971594401587902e-01	 7.877378848115432e+00
 8.525183680892905e-01	 7.162761918413502e-01	 7.383155131235400e+00
 8.372079131854400e-01	 7.349562554057512e-01	 6.889340500741444e+00
 8.213881241930269e-01	 7.531869508048717e-01	 6.399153690245604e+00
 8.050669289256061e-01	 7.709563105446461e-01	 5.915797776135612e+00
 7.882531157031213e-01	 7.882531157031215e-01	 5.442435810397716e+00
 7.709563105446458e-01	 8.050669289256063e-01	 4.982166798612321e+00
 7.531869508048714e-01	 8.213881241930272e-01	 4.538002360711903e+00
 7.349562554057508e-01	 8.372079131854402e-01	 4.112844400540671e+00
 7.162761918413497e-01	 8.525183680892905e-01	 3.709464091151508e+00
 6.971594401587901e-01	 8.673124407251396e-01	 3.330482456662375e+00
 8.788768977236079e-01	 7.064551333673871e-01	 8.033535474041997e+00
 8.638855658202043e-01	 7.258267814893441e-01	 7.568683700354584e+00
 8.483709663784602e-01	 7.447559188383650e-01	 7.101136223677553e+00
 8.323402415559250e-01	 7.632296962957591e-01	 6.634059541689227e+00
 8.158014248730130e-01	 7.812359867968365e-01	 6.170631065573893e+00
 7.987634218302354e-01	 7.987634218302355e-01	 5.714015076311151e+00
 7.812359867968363e-01	 8.158014248730134e-01	 5.267338709759169e+00
 7.632296962957585e-01	 8.323402415559253e-01	 4.833668308497879e+00
 7.447559188383648e-01	 8.483709663784607e-01	 4.415986472895669e+00
 7.258267814893438e-01	 8.638855658202044e-01	 4.017170130649369e+00
 7.064551333673871e-01	 8.788768977236078e-01	 3.639969923498217e+00
 8.904413790074432e-01	 7.157508460963548e-01	 8.175056434269269e+00
 8.752527874221663e-01	 7.353773911929373e-01	 7.736386237314476e+00
 8.595340430137332e-01	 7.545556028496262e-01	 7.292449405678864e+00
 8.432923819180074e-01	 7.732724628757974e-01	 6.846339047778975e+00
 8.265359433624941e-01	 7.915156846357957e-01	 6.401180895026701e+00
 8.092737500285259e-01	 8.092737500285260e-01	 5.960109764207680e+00
 7.915156846357952e-01	 8.265359433624941e-01	 5.526245789226659e+00
 7.732724628757972e-01	 8.432923819180078e-01	 5.102670757030883e+00
 7.545556028496260e-01	 8.595340430137337e-01	 4.692404882022345e+00
 7.353773911929372e-01	 8.752527874221667e-01	 4.298384345014944e+00
 7.157508460963549e-01	 8.904413790074435e-01	 3.923439907008615e+00
 9.020058751319096e-01	 7.250465707542284e-01	 8.300221107509545e+00
 8.866200236115567e-01	 7.449280131524817e-01	 7.885012038994352e+00
 8.706971339743936e-01	 7.643552994364409e-01	 7.462471313789534e+00
 8.542445363347229e-01	 7.833152423433283e-01	 7.035598889975597e+00
 8.372704756272800e-01	 8.017953956663135e-01	 6.607444350439652e+00
 8.197840917143736e-01	 8.197840917143742e-01	 6.181084045633739e+00
 8.017953956663133e-01	 8.372704756272804e-01	 5.759597801628478e+00
 7.833152423433281e-01	 8.542445363347232e-01	 5.346045521714592e+00
 7.643552994364405e-01	 8.706971339743941e-01	 4.943444013297265e+00
 7.449280131524816e-01	 8.866200236115570e-01	 4.554744367617064e+00
 7.250465707542285e-01	 9.020058751319096e-01	 4.182810208038439e+00
 9.135703766522705e-01	 7.343422997495432e-01	 8.407395886509180e+00
 8.979872651047554e-01	 7.544786395683292e-01	 8.013373624856344e+00
 8.818602301435767e-01	 7.741550005957150e-01	 7.610434062844047e+00
 8.651966958615209e-01	 7.933580264966917e-01	 7.201465568812413e+00
 8.480050129006019e-01	 8.120751114931807e-01	 6.789418575811890e+00
 8.302944383041598e-01	 8.302944383041599e-01	 6.377283571124058e+00
 8.120751114931802e-01	 8.480050129006023e-01	 5.968068500843637e+00
 7.933580264966916e-01	 8.651966958615213e-01	 5.564775907939767e+00
 7.741550005957150e-01	 8.818602301435772e-01	 5.170380128709146e+00
 7.544786395683287e-01	 8.979872651047555e-01	 4.787804871482622e+00
 7.343422997495435e-01	 9.135703766522707e-01	 4.419901492882164e+00
 9.251348741237903e-01	 7.436380254908352e-01	 8.495028731652033e+00
 9.093545026181421e-01	 7.640292626408308e-01	 8.120342777278953e+00
 8.930233224044176e-01	 7.839546983243546e-01	 7.735608054121279e+00
 8.761488515538501e-01	 8.034008071342293e-01	 7.343584156866379e+00
 8.587395464156911e-01	 8.223548237211875e-01	 6.947100761372565e+00
 8.408047812142654e-01	 8.408047812142655e-01	 6.549036619822273e+00
 8.223548237211870e-01	 8.587395464156912e-01	 6.152297873099898e+00
 8.034008071342290e-01	 8.761488515538506e-01	 5.759795985818542e+00
 7.839546983243543e-01	 8.930233224044180e-01	 5.374425617954846e+00
 7.640292626408302e-01	 9.093545026181423e-01	 4.999042748295484e+00
 7.436380254908355e-01	 9.251348741237905e-01	 4.636443358818536e+00
 6.506815326226163e-01	 8.094908505790606e-01	 1.317987087046941e+00
 6.324441377108048e-01	 8.228109373437807e-01	 9.707717707457577e-01
 6.138246942277593e-01	 8.356384154163033e-01	 6.693720653990014e-01
 5.948368147295442e-01	 8.479692286694869e-01	 4.129839987848308e-01
 5.754946185800568e-01	 8.598001777972279e-01	 1.999410757142612e-01
 5.558126876982253e-01	 8.711289202812919e-01	 2.775489831556192e-02
 5.358060209788079e-01	 8.819539668184722e-01	-1.068357520423849e-01
 5.154899876712745e-01	 8.922746742864820e-01	-2.078084238616515e-01
 4.948802800036430e-01	 9.020912353519670e-01	-2.797942405287446e-01
 4.739928653376368e-01	 9.114046648473878e-01	-3.280100875719102e-01
 4.528439381382665e-01	 9.202167830650881e-01	-3.581869793202307e-01
 6.599770143573943e-01	 8.210550444796544e-01	 1.790219341907309e+00
 6.414790843554309e-01	 8.345654188377986e-01	 1.441800997833021e+00
 6.225936479267378e-01	 8.475761472133476e-01	 1.132607608822120e+00
 6.033345120932594e-01	 8.600831155342663e-01	 8.623107290469813e-01
 5.837159979249100e-01	 8.720830787899015e-01	 6.298414563150645e-01
 5.637528956545833e-01	 8.835736609973346e-01	 4.334227746324275e-01
 5.434604184478211e-01	 8.945533515775020e-01	 2.706092503051916e-01
 5.228541551156736e-01	 9.050214982206022e-01	 1.383332075650809e-01
 5.019500220617310e-01	 9.149782963456434e-01	 3.295642730090165e-02
 4.807642147537830e-01	 9.244247752827184e-01	-4.967364395315588e-02
 4.593131590072458e-01	 9.333627813284101e-01	-1.141642180488909e-01
 6.692725535698655e-01	 8.326193098892952e-01	 2.225138612898092e+00
 6.505140868668492e-01	 8.463199730175580e-01	 1.874868881111449e+00
 6.313626558479827e-01	 8.595139528291983e-01	 1.557984124756912e+00
 6.118322620022574e-01	 8.721970773069458e-01	 1.274581073133907e+00
 5.919374281068147e-01	 8.843660557353294e-01	 1.024126549584750e+00
 5.716931527097676e-01	 8.960184786665553e-01	 8.054823374833419e-01
 5.511148632487294e-01	 9.071528142455881e-01	 6.169363938329115e-01
 5.302183680976538e-01	 9.177684009750672e-01	 4.562396982506441e-01
 5.090198078370561e-01	 9.278654370263989e-01	 3.206479516398547e-01
 4.875356060421670e-01	 9.374449662274114e-01	 2.069672870167188e-01
 4.657824198802068e-01	 9.465088608791018e-01	 1.116031249312421e-01
 6.785681426685646e-01	 8.441836373632471e-01	 2.625258316965274e+00
 6.595491378663686e-01	 8.580745902829160e-01	 2.272811627780130e+00
 6.401317108300179e-01	 8.714518225140712e-01	 1.948588575212032e+00
 6.203300575165623e-01	 8.843111040939093e-01	 1.653063233459057e+00
 6.001589024114220e-01	 8.966490986019068e-01	 1.386179223828384e+00
 5.796334523790159e-01	 9.084633631252296e-01	 1.147367875556969e+00
 5.587693491301475e-01	 9.197523445327686e-01	 9.355718273211164e-01
 5.375826206028216e-01	 9.305153721395665e-01	 7.492735027062818e-01
 5.160896315556502e-01	 9.407526468694557e-01	 5.865278274994903e-01
 4.943070336725011e-01	 9.504652270480891e-01	 4.449985090149207e-01
 4.722517154736102e-01	 9.596550109810310e-01	 3.219971680244378e-01
 6.878637740620274e-01	 8.557480174567736e-01	 2.992956014194973e+00
 6.685842299752985e-01	 8.698292610337308e-01	 2.638312149764654e+00
 6.489008057113668e-01	 8.833897465181827e-01	 2.307341082012322e+00
 6.288278916961991e-01	 8.964251860015403e-01	 2.000848784521360e+00
 6.083804141243839e-01	 9.089321973580301e-01	 1.719199529903503e+00
 5.875737881775670e-01	 9.209083042096341e-01	 1.462328088727306e+00
 5.664238698406903e-01	 9.323519321490821e-01	 1.229756558235906e+00
 5.449469066167815e-01	 9.432624013037897e-01	 1.020615383847160e+00
 5.231594874435456e-01	 9.536399153500364e-01	 8.336680782645154e-01
 5.010784921144974e-01	 9.634855471113758e-01	 6.673390991315968e-01
 4.787210405039172e-01	 9.728012208980670e-01	 5.197443169136611e-01
 6.971594401587901e-01	 8.673124407251396e-01	 3.330482456662375e+00
 6.776193558149488e-01	 8.815839756698589e-01	 2.973910275546715e+00
 6.576699333305539e-01	 8.953277150917490e-01	 2.637006042173745e+00
 6.373257576011925e-01	 9.085393131362224e-01	 2.320864441465436e+00
 6.166019565313520e-01	 9.212153419720943e-01	 2.026216883188293e+00
 5.955141536206586e-01	 9.333532917560440e-01	 1.753438455638491e+00
 5.740784191289717e-01	 9.449515668045674e-01	 1.502558791402259e+00
 5.523112201251401e-01	 9.560094780574260e-01	 1.273276522647881e+00
 5.302293697267740e-01	 9.665272319433633e-01	 1.064976951661569e+00
 5.078499758378680e-01	 9.765059157838943e-01	 8.767525218008363e-01
 4.851903896875877e-01	 9.859474798940765e-01	 7.074256451601382e-01
 7.064551333673871e-01	 8.788768977236078e-01	 3.639969923498217e+00
 6.866545080066282e-01	 8.933387245911584e-01	 3.282012156473677e+00
 6.664390865261031e-01	 9.072657184849857e-01	 2.940202366485645e+00
 6.458236482915671e-01	 9.206534756043400e-01	 2.615882900324635e+00
 6.248235229179774e-01	 9.334985224124955e-01	 2.310101284624060e+00
 6.034545422235295e-01	 9.457983156007354e-01	 2.023612625721116e+00
 5.817329907436075e-01	 9.575512382092632e-01	 1.756885294390130e+00
 5.596755551135026e-01	 9.687565919901651e-01	 1.510109672575065e+00
 5.372992726313677e-01	 9.794145861246583e-01	 1.283209693137917e+00
 5.146214793123248e-01	 9.895263224322677e-01	 1.075856866055862e+00
 4.916597577410830e-01	 9.990937772329286e-01	 8.874864559713305e-01
 7.157508460963549e-01	 8.904413790074435e-01	 3.923439907008615e+00
 6.956896791716466e-01	 9.050934981974866e-01	 3.564898940717873e+00
 6.752082581365383e-01	 9.192037469481085e-01	 3.219412920942939e+00
 6.543215568273478e-01	 9.327676635122771e-01	 2.888532834271653e+00
 6.330451065699109e-01	 9.457817286476290e-01	 2.573573668115952e+00
 6.113949475014181e-01	 9.582433655799836e-01	 2.275612924256418e+00
 5.893875784332121e-01	 9.701509360732092e-01	 1.995491878021698e+00
 5.670399055674743e-01	 9.815037326916953e-01	 1.733819445566076e+00
 5.443691903833591e-01	 9.923019673691438e-01	 1.490978480453730e+00
 5.213929970075799e-01	 1.002546756423119e+00	 1.267134285736717e+00
 4.981291393808635e-01	 1.012240102178491e+00	 1.062245099514714e+00
 7.250465707542285e-01	 9.020058751319096e-01	 4.182810208038439e+00
 7.047248619313127e-01	 9.168482868887010e-01	 3.824734780553489e+00
 6.839774410003833e-01	 9.311417907313339e-01	 3.476993242509797e+00
 6.628194762685597e-01	 9.448818669664175e-01	 3.141308121555677e+00
 6.412667007728051e-01	 9.580649506458917e-01	 2.819215452631732e+00
 6.193353629695627e-01	 9.706884315300651e-01	 2.512060050019810e+00
 5.970421759463996e-01	 9.827506501064432e-01	 2.220993071345500e+00
 5.744042654726613e-01	 9.942508897517068e-01	 1.946971807426210e+00
 5.514391172087798e-01	 1.005189365152043e+00	 1.690761594700348e+00
 5.281645233933456e-01	 1.015567207123073e+00	 1.452939714124635e+00
 5.045985293233903e-01	 1.025386443994631e+00	 1.233901112532923e+00
 7.343422997495435e-01	 9.135703766522707e-01	 4.419901492882164e+00
 7.137600489069367e-01	 9.286030810646588e-01	 4.063574231978375e+00
 6.927466279561619e-01	 9.430798400848776e-01	 3.715179593460915e+00
 6.713173996752266e-01	 9.569960760731446e-01	 3.376576373150370e+00
 6.494882988123111e-01	 9.703481783756774e-01	 3.049477369411335e+00
 6.272757821432012e-01	 9.831335032872551e-01	 2.735442036990627e+00
 6.046967770317851e-01	 9.953503700190042e-01	 2.435871062396829e+00
 5.817686288146687e-01	 1.006998052759889e+00	 2.152002852639884e+00
 5.585090473336621e-01	 1.018076768948577e+00	 1.884911895349861e+00
 5.349360529393340e-01	 1.028587663898750e+00	 1.635508917240292e+00
 5.110679222851237e-01	 1.038532791945217e+00	 1.404542740260770e+00
 7.436380254908355e-01	 9.251348741237905e-01	 4.636443358818536e+00
 7.227952327198275e-01	 9.403578711252182e-01	 4.283369099806325e+00
 7.015158118423985e-01	 9.550178852589556e-01	 3.936096412129529e+00
 6.798153201073739e-01	 9.691102809388428e-01	 3.596586821339179e+00
 6.577098939740799e-01	 9.826314018053828e-01	 3.266687627664314e+00
 6.352161985375724e-01	 9.955785706878293e-01	 2.948122544470093e+00
 6.123513754379838e-01	 1.007950085520931e+00	 2.642483968937234e+00
 5.891329895791025e-01	 1.019745211305930e+00	 2.351226921597243e+00
 5.655789749840383e-01	 1.030964168233969e+00	 2.075664660183641e+00
 5.417075801152568e-01	 1.041608116116776e+00	 1.816965943628222e+00
 5.175373129825247e-01	 1.051679135294118e+00	 1.576153894649865e+00
 4.528439381382665e-01	 9.202167830650881e-01	-3.581869793202330e-01
 4.314513768232033e-01	 9.285296325490469e-01	-3.754738068186293e-01
 4.098302069345520e-01	 9.363472213109786e-01	-3.814962081838602e-01
 3.879970091915094e-01	 9.436736622717951e-01	-3.772020311001241e-01
 3.659684029576717e-01	 9.505137794457966e-01	-3.637430536641142e-01
 3.437610012650071e-01	 9.568730786461752e-01	-3.424535026860858e-01
 3.213913671440240e-01	 9.627577163271481e-01	-3.148278941061575e-01
 2.988759714563226e-01	 9.681744667976357e-01	-2.824985428614069e-01
 2.762311524069802e-01	 9.731306880439857e-01	-2.472130673850281e-01
 2.534730768946626e-01	 9.776342863994822e-01	-2.108121871194997e-01
 2.306177038372821e-01	 9.816936802964242e-01	-1.752080811204424e-01
 4.593131590072458e-01	 9.333627813284101e-01	-1.141642180488885e-01
 4.376149886466910e-01	 9.417943862059641e-01	-1.641028375164779e-01
 4.156849438654171e-01	 9.497236551845435e-01	-2.004021129922322e-01
 3.935398422506571e-01	 9.571547599412135e-01	-2.241182064269671e-01
 3.711965405861093e-01	 9.640925934049352e-01	-2.365156600303331e-01
 3.486718892333965e-01	 9.705427400435856e-01	-2.390447108008720e-01
 3.259826878383746e-01	 9.765114442609666e-01	-2.333179845928992e-01
 3.031456425612923e-01	 9.820055771421120e-01	-2.210869289466624e-01
 2.801773250107800e-01	 9.870326017877615e-01	-2.042183195284943e-01
 2.570941330418183e-01	 9.916005374791478e-01	-1.846711460181862e-01
 2.339122535574748e-01	 9.957179229122425e-01	-1.644741508255163e-01
 4.657824198802068e-01	 9.465088608791018e-01	 1.116031249312421e-01
 4.437786385842050e-01	 9.550592218841775e-01	 3.224734179036748e-02
 4.215397170000070e-01	 9.631001717696162e-01	-3.148145887756870e-02
 3.990827095843820e-01	 9.706359409690051e-01	-8.071149922389909e-02
 3.764247105426354e-01	 9.776714913264067e-01	-1.167822393706490e-01
 3.535828075675455e-01	 9.842124859648724e-01	-1.412208676242117e-01
 3.305740369218143e-01	 9.902652572383446e-01	-1.557182162602702e-01
 3.074153400658280e-01	 9.958367730085771e-01	-1.621044698224132e-01
 2.841235220132461e-01	 1.000934601491359e+00	-1.623250068752728e-01
 2.607152115768244e-01	 1.005566874916577e+00	-1.584166855440334e-01
 2.372068236462269e-01	 1.009742252244628e+00	-1.524848491876734e-01
 4.722517154736102e-01	 9.596550109810310e-01	 3.219971680244402e-01
 4.499423216018179e-01	 9.683241287506192e-01	 2.162442435865579e-01
 4.273945215566904e-01	 9.764767601419596e-01	 1.277342867584164e-01
 4.046256066658366e-01	 9.841171943454887e-01	 5.530137542807823e-02
 3.816529085574754e-01	 9.912504621207464e-01	-2.432930031665892e-03
 3.584937522568462e-01	 9.978823052463918e-01	-4.703562011636198e-02
 3.351654106447973e-01	 1.004019144026986e+00	-8.023773046246996e-02
 3.116850604831456e-01	 1.009668043101530e+00	-1.039096676210396e-01
 2.880697401918619e-01	 1.014836675801436e+00	-1.200367098616140e-01
 2.643363095427450e-01	 1.019533287305854e+00	-1.306949949302267e-01
 2.405014114133076e-01	 1.023766656840262e+00	-1.380282717652404e-01
 4.787210405039172e-01	 9.728012208980670e-01	 5.197443169136566e-01
 4.561060326656015e-01	 9.815890959722186e-01	 3.904112706536977e-01
 4.332493527538352e-01	 9.898534093773371e-01	 2.795803041431220e-01
 4.101685289681732e-01	 9.975985090609815e-01	 1.860803641885145e-01
 3.868811303608555e-01	 1.004829494698492e+00	 1.085281654952628e-01
 3.634047192906908e-01	 1.011552186724500e+00	 4.535225807295307e-02
 3.397568052577777e-01	 1.017773093394594e+00	-5.182391612012838e-03
 3.159548003264608e-01	 1.023499376125470e+00	-4.494967595779609e-02
 2.920159763241100e-01	 1.028738813364647e+00	-7.593782071128219e-02
 2.679574239826443e-01	 1.033499763241064e+00	-1.002253692691144e-01
 2.437960141684862e-01	 1.037791125245829e+00	-1.199579521825935e-01
 4.851903896875877e-01	 9.859474798940765e-01	 7.074256451601402e-01
 4.622697667416281e-01	 9.948541127159070e-01	 5.571373239640391e-01
 4.391042058098099e-01	 1.003230108551511e+00	 4.262673125761760e-01
 4.157114719645438e-01	 1.011079874105801e+00	 3.136702998830740e-01
 3.921093716830018e-01	 1.018408577970179e+00	 2.179905805470095e-01
 3.683157046584720e-01	 1.025222119235553e+00	 1.376858778104246e-01
 3.443482170112096e-01	 1.031527094108872e+00	 7.105166410348440e-02
 3.202245561089890e-01	 1.037330760784897e+00	 1.624561349920661e-02
 2.959622271874740e-01	 1.042641002827651e+00	-2.868815245366907e-02
 2.715785519395862e-01	 1.047466291316291e+00	-6.579533210106292e-02
 2.470906292215318e-01	 1.051815646008011e+00	-9.718849577722444e-02
 4.916597577410830e-01	 9.990937772329286e-01	 8.874864559713305e-01
 4.684335187959697e-01	 1.008119168148615e+00	 7.186856526948786e-01
 4.449590759429830e-01	 1.016606846740247e+00	 5.698897605073057e-01
 4.212544311281008e-01	 1.024561278470266e+00	 4.400084771800026e-01
 3.973376282541404e-01	 1.031987700846347e+00	 3.277444847685416e-01
 3.732267043495814e-01	 1.038892091615907e+00	 2.316166926358549e-01
 3.489396421555473e-01	 1.045281134937523e+00	 1.499839711207180e-01
 3.244943243439466e-01	 1.051162185784308e+00	 8.106901800230570e-02
 2.999084895594364e-01	 1.056543232837103e+00	 2.298202681288886e-02
 2.751996904566350e-01	 1.061432860125619e+00	-2.625614273828480e-02
 2.503852538822138e-01	 1.065840207673492e+00	-6.869155766893442e-02
 4.981291393808635e-01	 1.012240102178491e+00	 1.062245099514716e+00
 4.745972837946981e-01	 1.021384251437272e+00	 8.772020152045639e-01
 4.508139583717224e-01	 1.029983613019306e+00	 7.124333779563297e-01
 4.267974019319963e-01	 1.038042711144692e+00	 5.669316384436291e-01
 4.025658958044973e-01	 1.045566852237530e+00	 4.394871395551523e-01
 3.781377143534123e-01	 1.052562092701918e+00	 3.287104541030679e-01
 3.535310769412447e-01	 1.059035204648252e+00	 2.330552142414715e-01
 3.287641015445488e-01	 1.064993639828203e+00	 1.508410866113061e-01
 3.038547602174806e-01	 1.070445492039662e+00	 8.027657303962044e-02
 2.788208365768544e-01	 1.075399458263132e+00	 1.948134662419565e-02
 2.536798854603012e-01	 1.079864798788953e+00	-3.349213396501427e-02
 5.045985293233903e-01	 1.025386443994631e+00	 1.233901112532923e+00
 4.807610567038857e-01	 1.034649351748811e+00	 1.034722212755800e+00
 4.566688483143969e-01	 1.043360396464453e+00	 8.557821484547969e-01
 4.323403798493825e-01	 1.051524161119399e+00	 6.961824226561362e-01
 4.077941700642985e-01	 1.059146021054265e+00	 5.548288573286386e-01
 3.830487306593562e-01	 1.066232111329943e+00	 4.304527093947152e-01
 3.581225176187561e-01	 1.072789292008759e+00	 3.216322872012647e-01
 3.330338842240117e-01	 1.078825111621081e+00	 2.268147370217726e-01
 3.078010359390897e-01	 1.084347769081983e+00	 1.443376933944067e-01
 2.824419873433090e-01	 1.089366074322916e+00	 7.245051537512959e-02
 2.569745212655634e-01	 1.093889407901079e+00	 9.334861976921793e-03
 5.110679222851237e-01	 1.038532791945217e+00	 1.404542740260770e+00
 4.869248324896047e-01	 1.047914458250161e+00	 1.193179051520618e+00
 4.625237409893745e-01	 1.056737186151450e+00	 1.001724751901413e+00
 4.378833603534112e-01	 1.065005617384702e+00	 8.294153249444181e-01
 4.130224467637700e-01	 1.072725196207091e+00	 6.752985085780172e-01
 3.879597492568058e-01	 1.079902136336336e+00	 5.382538817350071e-01
 3.627139604385357e-01	 1.086543385786751e+00	 4.170129673538612e-01
 3.373036688955508e-01	 1.092656589867441e+00	 3.101795405149068e-01
 3.117473135017467e-01	 1.098250052610725e+00	 2.162498526391805e-01
 2.860631397990623e-01	 1.103332696899054e+00	 1.336325087242682e-01
 2.602691586077694e-01	 1.107914023556551e+00	 6.066776346630376e-02
 5.175373129825247e-01	 1.051679135294118e+00	 1.576153894649865e+00
 4.930886061179270e-01	 1.061179560108253e+00	 1.354408782853297e+00
 4.683786316150236e-01	 1.070113971156061e+00	 1.151960524590980e+00
 4.434263389172353e-01	 1.078487068930921e+00	 9.682022095008602e-01
 4.182507216331380e-01	 1.086304366606542e+00	 8.023486162027982e-01
 3.928707661351534e-01	 1.093572156557455e+00	 6.534539700766135e-01
 3.673054016510371e-01	 1.100297474749929e+00	 5.204302400359293e-01
 3.415734520723819e-01	 1.106488063271783e+00	 4.020656857936440e-01
 3.156935896829346e-01	 1.112152331272543e+00	 2.970433867642761e-01
 2.896842909871788e-01	 1.117299314585631e+00	 2.039595070838622e-01
 2.635637947966888e-01	 1.121938634302054e+00	 1.213410772941517e-01
 2.306177038372821e-01	 9.816936802964242e-01	-1.752080811204424e-01
 2.076791456684508e-01	 9.853180020131134e-01	-1.426252526341205e-01
 1.846744644584667e-01	 9.885162853320296e-01	-1.139649971069181e-01
 1.616188232546627e-01	 9.912982639881665e-01	-8.913240149053392e-02
 1.385270506335802e-01	 9.936740343365396e-01	-6.796395523535770e-02
 1.154136152499789e-01	 9.956540178012000e-01	-5.023515456216376e-02
 9.229260277661536e-02	 9.972489236794971e-01	-3.566801347094772e-02
 6.917769523648026e-02	 9.984697124756582e-01	-2.393839707083600e-02
 4.608215271279750e-02	 9.993275599243346e-01	-1.468310482279644e-02
 2.301879740688172e-02	 9.998338218507749e-01	-7.506643132371149e-03
 0.000000000000000e+00	 1.000000000000000e+00	-1.987638185718676e-03
 2.339122535574748e-01	 9.957179229122425e-01	-1.644741508255163e-01
 2.106460005981401e-01	 9.993940208268849e-01	-1.453703471538401e-01
 1.873126799789159e-01	 1.002637994060108e+00	-1.278441881231882e-01
 1.639276713629985e-01	 1.005459715400836e+00	-1.120280889848031e-01
 1.405060151646193e-01	 1.007869425438318e+00	-9.799997926310100e-02
 1.170623867344659e-01	 1.009877694474696e+00	-8.578794465939099e-02
 9.361107297002917e-02	 1.011495384797892e+00	-7.537492608001184e-02
 7.016595135258435e-02	 1.012733613491392e+00	-6.670341086446374e-02
 4.674047139590386e-02	 1.013603715943827e+00	-5.968005869739956e-02
 2.334763847636898e-02	 1.014117210207157e+00	-5.418021223400649e-02
 0.000000000000000e+00	 1.014285762337685e+00	-5.005224995737301e-02
 2.372068236462269e-01	 1.009742252244628e+00	-1.524848491876707e-01
 2.136128738698931e-01	 1.013470126677695e+00	-1.458511677972010e-01
 1.899509118092326e-01	 1.016759790108138e+00	-1.386526765557941e-01
 1.662365337446358e-01	 1.019621254379648e+00	-1.312225036866703e-01
 1.424849919293242e-01	 1.022064904316569e+00	-1.238525250592675e-01
 1.187111684111829e-01	 1.024101459100028e+00	-1.167953050418276e-01
 9.492955131367173e-02	 1.025741934009444e+00	-1.102662285853211e-01
 7.115421357755045e-02	 1.026997602708497e+00	-1.044457777257723e-01
 4.739879414830253e-02	 1.027879960240767e+00	-9.948190891261088e-02
 2.367648157849975e-02	 1.028400686885902e+00	-9.549249118041425e-02
 0.000000000000000e+00	 1.028571613012482e+00	-9.256776904574870e-02
 2.405014114133076e-01	 1.023766656840262e+00	-1.380282717652426e-01
 2.165797630611406e-01	 1.027546308069888e+00	-1.429900510712381e-01
 1.925891577952661e-01	 1.030881661943092e+00	-1.454321349179373e-01
 1.685454085144206e-01	 1.033782869359052e+00	-1.458631066460376e-01
 1.444639793119431e-01	 1.036260459377960e+00	-1.447626640231170e-01
 1.203599589340152e-01	 1.038325300060698e+00	-1.425811119782283e-01
 9.624803673113642e-02	 1.039988559678984e+00	-1.397391650470907e-01
 7.214248110458996e-02	 1.041261668477513e+00	-1.366280294765958e-01
 4.805712043257780e-02	 1.042156281155644e+00	-1.336097343583376e-01
 2.400532644483619e-02	 1.042684240221567e+00	-1.310176811981409e-01
 0.000000000000000e+00	 1.042857540357000e+00	-1.291573818912561e-01
 2.437960141684862e-01	 1.037791125245829e+00	-1.199579521825935e-01
 2.195466657493138e-01	 1.041622553507811e+00	-1.357675181120008e-01
 1.952274157828656e-01	 1.045003598031943e+00	-1.472759725053199e-01
 1.708542937871995e-01	 1.047944548773499e+00	-1.551433800338304e-01
 1.464429756967243e-01	 1.050456079029154e+00	-1.600124311564000e-01
 1.220087569568486e-01	 1.052549205740208e+00	-1.625057317351182e-01
 9.756652814601643e-02	 1.054235250171347e+00	-1.632235058359468e-01
 7.313075312691415e-02	 1.055525799148979e+00	-1.627416970953131e-01
 4.871544971131398e-02	 1.056432667028950e+00	-1.616104500349103e-01
 2.433417280694042e-02	 1.056967858548713e+00	-1.603529495227396e-01
 0.000000000000000e+00	 1.057143532703853e+00	-1.594645941584991e-01
 2.470906292215318e-01	 1.051815646008011e+00	-9.718849577722199e-02
 2.225135795118439e-01	 1.055698851495811e+00	-1.232183917982970e-01
 1.978656836178807e-01	 1.059125586841663e+00	-1.433258823073711e-01
 1.731631876778185e-01	 1.062106281057438e+00	-1.582997550726968e-01
 1.484219794679158e-01	 1.064651751676819e+00	-1.689220901631803e-01
 1.236575611335684e-01	 1.066773164522058e+00	-1.759635839369365e-01
 9.888502448190516e-02	 1.068481993851369e+00	-1.801793752703711e-01
 7.411902883773439e-02	 1.069789983073437e+00	-1.823053735340157e-01
 4.937378144709543e-02	 1.070709106201178e+00	-1.830550807733102e-01
 2.466302039637459e-02	 1.071251530201898e+00	-1.831168944833199e-01
 0.000000000000000e+00	 1.071429578385649e+00	-1.831518722799870e-01
 2.503852538822138e-01	 1.065840207673492e+00	-6.869155766893464e-02
 2.254805019261618e-01	 1.069775190538234e+00	-1.044282201501496e-01
 2.005039591461607e-01	 1.073247616839224e+00	-1.327686603031371e-01
 1.754720883011241e-01	 1.076268054645321e+00	-1.546087822967279e-01
 1.504009890097659e-01	 1.078847465727620e+00	-1.708476142818749e-01
 1.253063701180602e-01	 1.080997164789749e+00	-1.823808971310461e-01
 1.002035246623959e-01	 1.082728779083882e+00	-1.900952506119897e-01
 7.510730743026205e-02	 1.084054208601425e+00	-1.948629293419306e-01
 5.003211510250640e-02	 1.084985587012820e+00	-1.975371711250760e-01
 2.499186894470083e-02	 1.085535243515682e+00	-1.989481316614032e-01
 0.000000000000000e+00	 1.085715665735001e+00	-1.998993921556478e-01
 2.536798854603012e-01	 1.079864798788953e+00	-3.349213396501427e-02
 2.284474305696987e-01	 1.083851559139426e+00	-7.852997819197594e-02
 2.031422402135546e-01	 1.087369676491597e+00	-1.148332723966790e-01
 1.777809937719622e-01	 1.090429857971597e+00	-1.433845221261165e-01
 1.523800027065227e-01	 1.093043209588223e+00	-1.651783632521684e-01
 1.269551825642095e-01	 1.095221194926783e+00	-1.812136390971775e-01
 1.015220276110820e-01	 1.096975594233721e+00	-1.924861168534466e-01
 7.609558809770840e-02	 1.098318464083486e+00	-1.999818672154277e-01
 5.069045014013127e-02	 1.099262097804365e+00	-2.046713190548259e-01
 2.532071818348128e-02	 1.099818986824623e+00	-2.075039901283011e-01
 0.000000000000000e+00	 1.100001783084519e+00	-2.094038852750444e-01
 2.569745212655634e-01	 1.093889407901079e+00	 9.334861976921793e-03
 2.314143630198855e-01	 1.097927945803735e+00	-4.470102331017922e-02
 2.057805246659121e-01	 1.101491754265755e+00	-8.878814678805225e-02
 1.800899022051794e-01	 1.104591679470715e+00	-1.239761360018554e-01
 1.543590189424344e-01	 1.107238971665294e+00	-1.513349388298875e-01
 1.286039971259017e-01	 1.109445243316661e+00	-1.719456062336768e-01
 1.028405322515567e-01	 1.111222427665721e+00	-1.868917633287128e-01
 7.708387003328478e-02	 1.112582737870157e+00	-1.972518030171884e-01
 5.134878602255434e-02	 1.113538626916308e+00	-2.040918223317827e-01
 2.564956784427809e-02	 1.114102748463282e+00	-2.084593088884559e-01
 0.000000000000000e+00	 1.114287918766816e+00	-2.113775735261756e-01
 2.602691586077694e-01	 1.107914023556551e+00	 6.066776346630331e-02
 2.343812968541535e-01	 1.112004339035504e+00	-2.160281661078178e-03
 2.084188103490823e-01	 1.115613838628670e+00	-5.393867181954071e-02
 1.823988117156219e-01	 1.118753507577126e+00	-9.576566032371603e-02
 1.563380361017490e-01	 1.121434740365498e+00	-1.287672030416611e-01
 1.302528124570224e-01	 1.123669298342884e+00	-1.540866579351319e-01
 1.041590375074133e-01	 1.125469267744714e+00	-1.728752095896771e-01
 7.807215243020260e-02	 1.126847018311981e+00	-1.862830620665463e-01
 5.200712221235990e-02	 1.127815162689139e+00	-1.954514276435737e-01
 2.597841765865338e-02	 1.128386516766216e+00	-2.015053246581346e-01
 0.000000000000000e+00	 1.128574061114501e+00	-2.055471848389276e-01
 2.635637947966888e-01	 1.121938634302054e+00	 1.213410772941514e-01
 2.373482296499335e-01	 1.126080727339082e+00	 4.983435457036145e-02
 2.110570951089145e-01	 1.129735918047314e+00	-9.624881332783275e-03
 1.847077204181358e-01	 1.132915330725281e+00	-5.816594720855228e-02
 1.583170525687149e-01	 1.135630504095502e+00	-9.695244495136257e-02
 1.319016272114572e-01	 1.137893348388953e+00	-1.271710832855002e-01
 1.054775423022452e-01	 1.139716102835537e+00	-1.500212492469024e-01
 7.906043448167313e-02	 1.141111293759497e+00	-1.667053806238594e-01
 5.266545817213228e-02	 1.142091693463350e+00	-1.784201734512136e-01
 2.630726735816929e-02	 1.142670280067985e+00	-1.863486429936818e-01
 0.000000000000000e+00	 1.142860198460186e+00	-1.916530425956746e-01
 1.142860198460186e+00	 0.000000000000000e+00	 1.534881406892194e+01
 1.142670280067985e+00	 2.630726735816965e-02	 1.532952597225243e+01
 1.142091693463350e+00	 5.266545817213261e-02	 1.529848510062123e+01
 1.141111293759497e+00	 7.906043448167339e-02	 1.525446984383913e+01
 1.139716102835537e+00	 1.054775423022454e-01	 1.519624764165047e+01
 1.137893348388953e+00	 1.319016272114574e-01	 1.512258142923806e+01
 1.135630504095502e+00	 1.583170525687151e-01	 1.503223675379190e+01
 1.132915330725281e+00	 1.847077204181359e-01	 1.492398955252762e+01
 1.129735918047314e+00	 2.110570951089146e-01	 1.479663457132848e+01
 1.126080727339082e+00	 2.373482296499335e-01	 1.464899439081135e+01
 1.121938634302054e+00	 2.635637947966888e-01	 1.447992901319887e+01
 1.157145321350848e+00	 0.000000000000000e+00	 1.510611128824868e+01
 1.156953029083323e+00	 2.663609370653390e-02	 1.508570669908704e+01
 1.156367210464742e+00	 5.332374738429320e-02	 1.505416095280594e+01
 1.155374556304495e+00	 8.004864635632550e-02	 1.501024364080727e+01
 1.153961926262349e+00	 1.067959534713262e-01	 1.495271771537707e+01
 1.152116388389058e+00	 1.335503248849476e-01	 1.488034659945234e+01
 1.149825259788246e+00	 1.602959285071759e-01	 1.479190198728112e+01
 1.147076148246399e+00	 1.870164651665215e-01	 1.468617231929704e+01
 1.143856994661234e+00	 2.136951925256247e-01	 1.456197190218057e+01
 1.140156116082579e+00	 2.403149517652857e-01	 1.441815063157281e+01
 1.135962249164317e+00	 2.668581970349608e-01	 1.425360426039485e+01
 1.171430429241259e+00	 0.000000000000000e+00	 1.487549652338928e+01
 1.171235763100916e+00	 2.696491970997891e-02	 1.485421113449703e+01
 1.170642712476017e+00	 5.398203590584637e-02	 1.482238816729557e+01
 1.169637803872298e+00	 8.103685719410998e-02	 1.477879601685647e+01
 1.168207734730349e+00	 1.081143632569114e-01	 1.472220026654145e+01
 1.166339413454362e+00	 1.351990208281577e-01	 1.465137134693845e+01
 1.164020000575990e+00	 1.622748023686339e-01	 1.456509289977845e+01
 1.161236950898263e+00	 1.893252074914670e-01	 1.446217082401739e+01
 1.157978056447746e+00	 2.163332871729747e-01	 1.434144296797578e+01
 1.154231490046761e+00	 2.432816707661114e-01	 1.420178941699044e+01
 1.149985849301752e+00	 2.701525958145355e-01	 1.404214331062489e+01
 1.185715523798227e+00	 0.000000000000000e+00	 1.465624649664833e+01
 1.185518483787291e+00	 2.729374540682903e-02	 1.463429957869018e+01
 1.184918201162855e+00	 5.464032381352620e-02	 1.460240482563508e+01
 1.183901038127150e+00	 8.202506711023397e-02	 1.455933659042590e+01
 1.182453529901738e+00	 1.094327718127217e-01	 1.450386976425253e+01
 1.180562425244395e+00	 1.368477152333390e-01	 1.443478787272363e+01
 1.178214728114948e+00	 1.642536743838632e-01	 1.435089188558928e+01
 1.175397740333110e+00	 1.916339476622378e-01	 1.425100971197405e+01
 1.172099105054432e+00	 2.189713793586628e-01	 1.413400633903587e+01
 1.168306850873861e+00	 2.462483869984567e-01	 1.399879455679148e+01
 1.164009436350526e+00	 2.734469915196950e-01	 1.384434619574068e+01
 1.200000606688556e+00	 0.000000000000000e+00	 1.444767237410268e+01
 1.199801192808974e+00	 2.762257083540859e-02	 1.442526755752807e+01
 1.199193678190934e+00	 5.529861118406665e-02	 1.439348529293952e+01
 1.198164260733292e+00	 8.301327621990451e-02	 1.435111261879996e+01
 1.196699313438714e+00	 1.107511792924778e-01	 1.429693999013235e+01
 1.194785425418687e+00	 1.384964082927426e-01	 1.422976970300252e+01
 1.192409444061335e+00	 1.662325447836382e-01	 1.414842503581903e+01
 1.189558518203180e+00	 1.939426859480992e-01	 1.405176007508280e+01
 1.186220142128876e+00	 2.216094693903864e-01	 1.393867017860795e+01
 1.182382200206109e+00	 2.492151008083671e-01	 1.380810301351461e+01
 1.178033011946810e+00	 2.767413845347217e-01	 1.365907008967464e+01
 1.214285679579051e+00	 0.000000000000000e+00	 1.424911773950891e+01
 1.214083891832494e+00	 2.795139603404196e-02	 1.422644375043653e+01
 1.213469145225935e+00	 5.595689809420178e-02	 1.419493808357157e+01
 1.212427473354969e+00	 8.400148463832864e-02	 1.415340678406250e+01
 1.210945087003475e+00	 1.120695858499002e-01	 1.410066172581904e+01
 1.209008415636766e+00	 1.401451001986199e-01	 1.403552925824917e+01
 1.206604150071366e+00	 1.682114137987335e-01	 1.395685956797846e+01
 1.203719286160712e+00	 1.962514226183162e-01	 1.386353671974200e+01
 1.200341169318661e+00	 2.242475575758435e-01	 1.375448932564261e+01
 1.196457539685740e+00	 2.521818125418887e-01	 1.362870177588553e+01
 1.192056577726769e+00	 2.800357752438980e-01	 1.348522594715518e+01
 1.228570744136519e+00	 0.000000000000000e+00	 1.405995670958273e+01
 1.228366582524378e+00	 2.828022104105345e-02	 1.403718806289751e+01
 1.227744603933536e+00	 5.661518462066559e-02	 1.400610387574301e+01
 1.226690677656422e+00	 8.498969248071346e-02	 1.396553513353765e+01
 1.225190852258222e+00	 1.133879916387098e-01	 1.391432060182578e+01
 1.223231397558160e+00	 1.417937911432220e-01	 1.385131559194598e+01
 1.220798847801256e+00	 1.701902816599234e-01	 1.377540143494006e+01
 1.217880045857944e+00	 1.985601579421542e-01	 1.368549562532242e+01
 1.214462188271370e+00	 2.268856442227320e-01	 1.358056258112331e+01
 1.210532870954982e+00	 2.551485225450670e-01	 1.345962495035481e+01
 1.206080135326573e+00	 2.833301640315056e-01	 1.332177537695818e+01
 1.242855802027764e+00	 0.000000000000000e+00	 1.387959217927446e+01
 1.242649266551153e+00	 2.860904589476743e-02	 1.385688983188832e+01
 1.242020055979417e+00	 5.727347084019214e-02	 1.382635366305626e+01
 1.240953875301895e+00	 8.597789986226598e-02	 1.378684516228586e+01
 1.239436610865154e+00	 1.147063968126271e-01	 1.373723509477174e+01
 1.237454372842400e+00	 1.434424813188002e-01	 1.367641228528052e+01
 1.234993538907220e+00	 1.721691485979826e-01	 1.360329309881344e+01
 1.232040798947115e+00	 2.008688921888784e-01	 1.351683157795418e+01
 1.228583200634588e+00	 2.295237296387498e-01	 1.341603018156734e+01
 1.224608195656070e+00	 2.581152311639481e-01	 1.329995105324302e+01
 1.220103686382390e+00	 2.866245512818271e-01	 1.316772773082144e+01
 1.257140854919592e+00	 0.000000000000000e+00	 1.370745418669847e+01
 1.256931945579345e+00	 2.893787063350823e-02	 1.368496615369125e+01
 1.256295503029258e+00	 5.793175682951539e-02	 1.365508703209173e+01
 1.255217067955632e+00	 8.696610689819327e-02	 1.361671402635413e+01
 1.253682364486469e+00	 1.160248015253727e-01	 1.356875466118137e+01
 1.251677343149015e+00	 1.450911709176057e-01	 1.351013548540259e+01
 1.249188225045472e+00	 1.741480148436853e-01	 1.343981145661946e+01
 1.246201547080464e+00	 2.031776256277540e-01	 1.335677596566501e+01
 1.242704208055896e+00	 2.321618141315945e-01	 1.326007144480822e+01
 1.238683515431234e+00	 2.610819387445777e-01	 1.314880048753367e+01
 1.234127232530387e+00	 2.899189373791445e-01	 1.302213739086540e+01
 1.271425904478810e+00	 0.000000000000000e+00	 1.354299838830497e+01
 1.271214621275483e+00	 2.926669529560020e-02	 1.352086032444819e+01
 1.270570946748737e+00	 5.859004266536945e-02	 1.349173055612626e+01
 1.269480257281874e+00	 8.795431370370244e-02	 1.345454687649478e+01
 1.267928114784366e+00	 1.173432059306674e-01	 1.340825799710927e+01
 1.265900310137534e+00	 1.467398601318897e-01	 1.335183207594865e+01
 1.263382907872229e+00	 1.761268806278061e-01	 1.328426590582262e+01
 1.260362291910229e+00	 2.054863585280462e-01	 1.320459472217810e+01
 1.256825212182878e+00	 2.347998980089641e-01	 1.311190257450739e+01
 1.252758831922707e+00	 2.640486456330018e-01	 1.300533318978949e+01
 1.248150775406733e+00	 2.932133227077401e-01	 1.288410123990526e+01
 1.285710952372222e+00	 0.000000000000000e+00	 1.338570463571825e+01
 1.285497295306093e+00	 2.959551991936768e-02	 1.336404038468996e+01
 1.284846388803535e+00	 5.924832842448829e-02	 1.333573629594904e+01
 1.283743444944865e+00	 8.894252039400048e-02	 1.329977530298258e+01
 1.282173863421045e+00	 1.186616101822318e-01	 1.325515141380330e+01
 1.280123275467486e+00	 1.483885491539035e-01	 1.320087796954512e+01
 1.277577589043704e+00	 1.781057461811192e-01	 1.313599653884253e+01
 1.274523035088650e+00	 2.077950911590204e-01	 1.305958640780552e+01
 1.270946214663118e+00	 2.374379815785564e-01	 1.297077461104857e+01
 1.266834146772720e+00	 2.670153521752661e-01	 1.286874643395884e+01
 1.262174316647597e+00	 2.965077076518963e-01	 1.275275630042809e+01
 1.121938634302054e+00	 2.635637947966888e-01	 1.447992901319887e+01
 1.117299314585631e+00	 2.896842909871785e-01	 1.429403051734762e+01
 1.112152331272543e+00	 3.156935896829344e-01	 1.409608209375719e+01
 1.106488063271783e+00	 3.415734520723818e-01	 1.388539174383847e+01
 1.100297474749929e+00	 3.673054016510370e-01	 1.366139839007339e+01
 1.093572156557455e+00	 3.928707661351533e-01	 1.342368624354016e+01
 1.086304366606542e+00	 4.182507216331378e-01	 1.317199869401834e+01
 1.078487068930921e+00	 4.434263389172351e-01	 1.290625148534656e+01
 1.070113971156061e+00	 4.683786316150235e-01	 1.262654492870501e+01
 1.061179560108253e+00	 4.930886061179267e-01	 1.233317490095237e+01
 1.051679135294118e+00	 5.175373129825247e-01	 1.202664237472940e+01
 1.135962249164317e+00	 2.668581970349608e-01	 1.425360426039485e+01
 1.131264940507173e+00	 2.933051850388362e-01	 1.407316576191335e+01
 1.126053622738153e+00	 3.196395856405782e-01	 1.388188792212124e+01
 1.120318554507902e+00	 3.458429320534967e-01	 1.367915048944331e+01
 1.114050587040045e+00	 3.718965168269621e-01	 1.346444554206262e+01
 1.107241206075309e+00	 3.977814342839482e-01	 1.323738991675423e+01
 1.099882572754026e+00	 4.234786252445681e-01	 1.299773724214390e+01
 1.091967563164214e+00	 4.489689238761272e-01	 1.274538937238106e+01
 1.083489806280113e+00	 4.742331064869885e-01	 1.248040700832660e+01
 1.074443720016364e+00	 4.992519420589114e-01	 1.220301928827381e+01
 1.064824545126001e+00	 5.240062442908520e-01	 1.191363212952140e+01
 1.149985849301752e+00	 2.701525958145355e-01	 1.404214331062489e+01
 1.145230551764896e+00	 2.969260752888895e-01	 1.386749414195500e+01
 1.139954899607613e+00	 3.235855774551876e-01	 1.368307512731291e+01
 1.134149031222319e+00	 3.501124075518628e-01	 1.348833221045555e+01
 1.127803684889805e+00	 3.764876271823806e-01	 1.328280665867994e+01
 1.120910241241152e+00	 4.026920972766797e-01	 1.306614571360309e+01
 1.113460764644947e+00	 4.287065233668244e-01	 1.283811292105238e+01
 1.105448043243582e+00	 4.545115030154289e-01	 1.259859796661298e+01
 1.096865627360146e+00	 4.800875752118876e-01	 1.234762583551748e+01
 1.087707865997702e+00	 5.054152715285448e-01	 1.208536511090747e+01
 1.077969941155748e+00	 5.304751688069794e-01	 1.181213522354846e+01
 1.164009436350526e+00	 2.734469915196950e-01	 1.384434619574068e+01
 1.159196149988179e+00	 3.005469621597157e-01	 1.367573333589899e+01
 1.153856163502768e+00	 3.275315655870698e-01	 1.349829129325540e+01
 1.147979495028594e+00	 3.543818790655260e-01	 1.331152692112195e+01
 1.141556769903712e+00	 3.810787332528600e-01	 1.311502692626446e+01
 1.134579263649660e+00	 4.076027556861920e-01	 1.290846689720892e+01
 1.127038943863363e+00	 4.339344166097565e-01	 1.269162007933540e+01
 1.118928510741666e+00	 4.600540769816966e-01	 1.246436575118049e+01
 1.110241435956580e+00	 4.859420384726595e-01	 1.222669704945205e+01
 1.100971999599649e+00	 5.115785952457937e-01	 1.197872808600535e+01
 1.091115324916893e+00	 5.369440872855219e-01	 1.172070019885981e+01
 1.178033011946810e+00	 2.767413845347217e-01	 1.365907008967464e+01
 1.173161736806400e+00	 3.041678460736917e-01	 1.349666208569602e+01
 1.167757416045464e+00	 3.314775504965320e-01	 1.332624840510460e+01
 1.161809947540286e+00	 3.586513470925324e-01	 1.314739177823425e+01
 1.155309843686275e+00	 3.856698355739673e-01	 1.295972080828593e+01
 1.148248274895508e+00	 4.125134100853290e-01	 1.276293752792555e+01
 1.140617111993330e+00	 4.391623055832140e-01	 1.255682476348026e+01
 1.132408967231106e+00	 4.655966464214871e-01	 1.234125318641950e+01
 1.123617233629833e+00	 4.917964969522419e-01	 1.211618792575492e+01
 1.114236122369594e+00	 5.177419139296247e-01	 1.188169461111059e+01
 1.104260697942969e+00	 5.434130004810946e-01	 1.163794471485662e+01
 1.192056577726769e+00	 2.800357752438980e-01	 1.348522594715518e+01
 1.187127313848934e+00	 3.077887274531949e-01	 1.332911660486706e+01
 1.181658658857547e+00	 3.354235326438813e-01	 1.316571906096521e+01
 1.175640390370952e+00	 3.629208121309280e-01	 1.299464713159920e+01
 1.169062907841999e+00	 3.902609346812700e-01	 1.281556797026107e+01
 1.161917276573373e+00	 4.174240610469351e-01	 1.262820829884939e+01
 1.154195270618903e+00	 4.443901908970469e-01	 1.243236050041449e+01
 1.145889414284543e+00	 4.711392119813576e-01	 1.222788847599498e+01
 1.136993021940326e+00	 4.976509513335730e-01	 1.201473316269426e+01
 1.127500235854920e+00	 5.239052282990043e-01	 1.179291760660925e+01
 1.117406061767513e+00	 5.498819091483128e-01	 1.156255148270838e+01
 1.206080135326573e+00	 2.833301640315056e-01	 1.332177537695818e+01
 1.201092882745161e+00	 3.114096067206020e-01	 1.317198723718063e+01
 1.195559893560861e+00	 3.393695124894245e-01	 1.301553294793693e+01
 1.189470825134154e+00	 3.671902746787588e-01	 1.285207285009013e+01
 1.182815963975389e+00	 3.948520311103353e-01	 1.268130948901156e+01
 1.175586270277928e+00	 4.223347091438544e-01	 1.250299266191003e+01
 1.167773421324141e+00	 4.496180731611049e-01	 1.231692437432645e+01
 1.159369853474618e+00	 4.766817743078645e-01	 1.212296362845350e+01
 1.150368802448477e+00	 5.035054022995908e-01	 1.192103096139654e+01
 1.140764341603015e+00	 5.300685390728993e-01	 1.171111264827812e+01
 1.130551417924058e+00	 5.563508140417918e-01	 1.149326448344825e+01
 1.220103686382390e+00	 2.866245512818271e-01	 1.316772773082144e+01
 1.215058445124458e+00	 3.150304842982906e-01	 1.302421534579308e+01
 1.209461121777253e+00	 3.433154904934693e-01	 1.287457356122056e+01
 1.203301253443449e+00	 3.714597352340707e-01	 1.271850490110389e+01
 1.196569013690954e+00	 3.994431253967306e-01	 1.255574432338348e+01
 1.189255257603850e+00	 4.272453549489311e-01	 1.238606322115874e+01
 1.181351565693099e+00	 4.548459529852373e-01	 1.220927337408175e+01
 1.172850286373970e+00	 4.822243340475645e-01	 1.202523079042467e+01
 1.163744576714707e+00	 5.093598505332340e-01	 1.183383937642305e+01
 1.154028441161263e+00	 5.362318469702763e-01	 1.163505436658459e+01
 1.143696767946139e+00	 5.628197159161465e-01	 1.142888544692012e+01
 1.234127232530387e+00	 2.899189373791445e-01	 1.302213739086540e+01
 1.229024002616201e+00	 3.186513606086377e-01	 1.288479041451756e+01
 1.223362345128567e+00	 3.472614671163222e-01	 1.274177514694733e+01
 1.217131676912398e+00	 3.757291942949100e-01	 1.259283216326364e+01
 1.210322058593197e+00	 4.040342180760229e-01	 1.243772602562720e+01
 1.202924240145814e+00	 4.321559990350092e-01	 1.227624837199745e+01
 1.194929705309834e+00	 4.600738309792942e-01	 1.210822098970836e+01
 1.186330714555242e+00	 4.877668918470147e-01	 1.193349882986060e+01
 1.177120346299433e+00	 5.152142967174402e-01	 1.175197291519949e+01
 1.167292536077051e+00	 5.423951527101019e-01	 1.156357309151726e+01
 1.156842113367289e+00	 5.692886155259922e-01	 1.136827057082515e+01
 1.248150775406733e+00	 2.932133227077401e-01	 1.288410123990526e+01
 1.242989556849769e+00	 3.222722360740202e-01	 1.275274734453547e+01
 1.237263565236651e+00	 3.512074428182910e-01	 1.261611985113323e+01
 1.230962097154558e+00	 3.799986523593224e-01	 1.247399345402029e+01
 1.224075100286626e+00	 4.086253096837797e-01	 1.232615967450752e+01
 1.216593219498494e+00	 4.370666419749334e-01	 1.217242916700255e+01
 1.208507841758404e+00	 4.653017077531252e-01	 1.201263403835842e+01
 1.199811139591073e+00	 4.933094483527717e-01	 1.184663014964516e+01
 1.190496112763076e+00	 5.210687415351478e-01	 1.167429936672396e+01
 1.180556627897764e+00	 5.485584570113426e-01	 1.149555172363380e+01
 1.169987455721043e+00	 5.757575136259440e-01	 1.131032746098166e+01
 1.262174316647597e+00	 2.965077076518963e-01	 1.275275630042809e+01
 1.256955109454539e+00	 3.258931111168156e-01	 1.262716393134765e+01
 1.251164783723348e+00	 3.551534180596824e-01	 1.249663505872463e+01
 1.244792515783490e+00	 3.842681099253539e-01	 1.236097475543638e+01
 1.237828140375747e+00	 4.132164007555682e-01	 1.221999901289626e+01
 1.230262197256569e+00	 4.419772843415474e-01	 1.207353639071759e+01
 1.222085976622863e+00	 4.705295839165800e-01	 1.192142970189665e+01
 1.213291563054103e+00	 4.988520042113921e-01	 1.176353771365338e+01
 1.203871877666055e+00	 5.269231856692950e-01	 1.159973684171818e+01
 1.193820718170790e+00	 5.547217605929656e-01	 1.142992281372914e+01
 1.183132796540936e+00	 5.822264109706171e-01	 1.125401227559085e+01
 1.051679135294118e+00	 5.175373129825247e-01	 1.202664237472940e+01
 1.041608116116776e+00	 5.417075801152571e-01	 1.170783877328601e+01
 1.030964168233969e+00	 5.655789749840386e-01	 1.137793431551702e+01
 1.019745211305930e+00	 5.891329895791028e-01	 1.103803218781750e+01
 1.007950085520931e+00	 6.123513754379840e-01	 1.068935445488045e+01
 9.955785706878293e-01	 6.352161985375726e-01	 1.033323775050515e+01
 9.826314018053823e-01	 6.577098939740801e-01	 9.971127530666296e+00
 9.691102809388425e-01	 6.798153201073742e-01	 9.604570894895048e+00
 9.550178852589553e-01	 7.015158118423989e-01	 9.235208008775899e+00
 9.403578711252181e-01	 7.227952327198277e-01	 8.864762187946051e+00
 9.251348741237903e-01	 7.436380254908352e-01	 8.495028731652036e+00
 1.064824545126001e+00	 5.240062442908520e-01	 1.191363212952140e+01
 1.054627643757190e+00	 5.484786264475274e-01	 1.161276208863204e+01
 1.043850652389678e+00	 5.726484006014743e-01	 1.130125402448760e+01
 1.032491464680596e+00	 5.964968274030253e-01	 1.098015748956097e+01
 1.020548906321208e+00	 6.200054302940132e-01	 1.065062083048815e+01
 1.008022754368101e+00	 6.431560510859452e-01	 1.031388649451160e+01
 9.949137530071114e-01	 6.659309053234386e-01	 9.971285125156427e+00
 9.812236255783677e-01	 6.883126371053294e-01	 9.624228467889203e+00
 9.669550827157742e-01	 7.102843730320811e-01	 9.274201129442988e+00
 9.521118264813074e-01	 7.318297749475440e-01	 8.922751257765375e+00
 9.366985504033987e-01	 7.529330911458786e-01	 8.571480232513858e+00
 1.077969941155748e+00	 5.304751688069794e-01	 1.181213522354846e+01
 1.067647157727559e+00	 5.552496656704091e-01	 1.152811027302936e+01
 1.056737123014926e+00	 5.797178187962588e-01	 1.123383510008101e+01
 1.045237704671911e+00	 6.038606574951999e-01	 1.093030656410643e+01
 1.033147713892791e+00	 6.276594771135987e-01	 1.061860211112695e+01
 1.020466924981896e+00	 6.510958952978120e-01	 1.029987476315683e+01
 1.007196091312141e+00	 6.741519080410896e-01	 9.975347103790467e+00
 9.933369574985162e-01	 6.968099451814584e-01	 9.646304293689138e+00
 9.788922676380573e-01	 7.190529250151160e-01	 9.314086169087972e+00
 9.638657694951804e-01	 7.408643076892963e-01	 8.980078495782458e+00
 9.482622145405371e-01	 7.622281470413493e-01	 8.645703469738246e+00
 1.091115324916893e+00	 5.369440872855219e-01	 1.172070019885981e+01
 1.080666659546745e+00	 5.620206985737621e-01	 1.145247556169769e+01
 1.069623581613069e+00	 5.867872303930618e-01	 1.117432270752010e+01
 1.057983932766892e+00	 6.112244807146443e-01	 1.088718684778686e+01
 1.045746509705525e+00	 6.353135167896200e-01	 1.059207739215590e+01
 1.032911083981049e+00	 6.590357320994003e-01	 1.029006268544719e+01
 1.019478418153453e+00	 6.823729030860695e-01	 9.982263928318449e+00
 1.005450278112578e+00	 7.053072453270419e-01	 9.669848326569870e+00
 9.908294414185685e-01	 7.278214688144412e-01	 9.354021530241971e+00
 9.756197015382420e-01	 7.498988319990696e-01	 9.036019439438633e+00
 9.598258678844229e-01	 7.715231942616434e-01	 8.717099468617057e+00
 1.104260697942969e+00	 5.434130004810946e-01	 1.163794471485662e+01
 1.093686150733604e+00	 5.687917259474445e-01	 1.138451722664551e+01
 1.082510029687462e+00	 5.938566362165515e-01	 1.112142652841630e+01
 1.070730150452557e+00	 6.185882979203762e-01	 1.084956732812145e+01
 1.058345295229253e+00	 6.429675502149553e-01	 1.056988390788647e+01
 1.045355232817389e+00	 6.669755624169363e-01	 1.028336467070849e+01
 1.031760734964027e+00	 6.905938914174142e-01	 9.991036039372418e+00
 1.017563588833845e+00	 7.138045385333613e-01	 9.693955762078451e+00
 1.002766605450071e+00	 7.365900054529947e-01	 9.393205692639704e+00
 9.873736239818964e-01	 7.589333489308475e-01	 9.089884125661477e+00
 9.713895117842751e-01	 7.808182338911576e-01	 8.785097778449337e+00
 1.117406061767513e+00	 5.498819091483128e-01	 1.156255148270838e+01
 1.106705632806998e+00	 5.755627485813165e-01	 1.132295763349430e+01
 1.095396468741459e+00	 6.009260370913970e-01	 1.107391696587483e+01
 1.083476359215923e+00	 6.259521099714127e-01	 1.081627492336708e+01
 1.070944071933819e+00	 6.506215782824841e-01	 1.055091361187648e+01
 1.057799372942749e+00	 6.749153871766472e-01	 1.027874621588104e+01
 1.044043043176842e+00	 6.988148739941590e-01	 1.000071091680992e+01
 1.029676891075605e+00	 7.223018257916974e-01	 9.717764376082894e+00
 1.014703761125330e+00	 7.453585359537156e-01	 9.430874856058411e+00
 9.991275381975498e-01	 7.679678595386151e-01	 9.141015061825016e+00
 9.829531475893118e-01	 7.901132670142886e-01	 8.849154795018551e+00
 1.130551417924058e+00	 5.563508140417918e-01	 1.149326448344825e+01
 1.119725107285783e+00	 5.823337672652362e-01	 1.126657857344064e+01
 1.108282900278415e+00	 6.079954338422673e-01	 1.103062161439154e+01
 1.096222560544009e+00	 6.333159177267716e-01	 1.078619111468919e+01
 1.083542841289068e+00	 6.582756018850847e-01	 1.053410999583643e+01
 1.070243505808959e+00	 6.828552073047597e-01	 1.027522093558818e+01
 1.056325344224879e+00	 7.070358517753396e-01	 1.001038034517442e+01
 1.041790186251149e+00	 7.307991080933313e-01	 9.740452049490541e+00
 1.026640909837109e+00	 7.541270613395418e-01	 9.466300747629468e+00
 1.010881445556606e+00	 7.770023648763554e-01	 9.188785338287492e+00
 9.945167766487508e-01	 7.994082947154326e-01	 8.908752200120380e+00
 1.143696767946139e+00	 5.628197159161465e-01	 1.142888544692012e+01
 1.132744575688819e+00	 5.891047827890633e-01	 1.121421784821617e+01
 1.121169325801685e+00	 6.150648272938309e-01	 1.099042197323351e+01
 1.108968755923832e+00	 6.406797220454709e-01	 1.075824881062399e+01
 1.096141604764842e+00	 6.659296219156364e-01	 1.051846512794734e+01
 1.082687632867852e+00	 6.907950237275002e-01	 1.027184779705168e+01
 1.068607639541119e+00	 7.152568257199923e-01	 1.001917786776650e+01
 1.053903475773768e+00	 7.392963864295434e-01	 9.761234463696038e+00
 1.038578052978170e+00	 7.628955826334110e-01	 9.498788580387615e+00
 1.022635347430469e+00	 7.860368659980541e-01	 9.232596871114486e+00
 1.006080400311810e+00	 8.087033180789859e-01	 8.963395508721804e+00
 1.156842113367289e+00	 5.692886155259922e-01	 1.136827057082515e+01
 1.145764039534964e+00	 5.958757959426564e-01	 1.116476608791821e+01
 1.134055746814624e+00	 6.221342182707570e-01	 1.095225038393354e+01
 1.121714946842410e+00	 6.480435237865279e-01	 1.073142942535210e+01
 1.108740363830987e+00	 6.735836392670183e-01	 1.050301689313499e+01
 1.095131755571259e+00	 6.987348373710959e-01	 1.026772854355736e+01
 1.080889930558540e+00	 7.234777967871520e-01	 1.002627641432159e+01
 1.066016761056750e+00	 7.477936617916149e-01	 9.779362953175710e+00
 1.050515191941278e+00	 7.716641008582622e-01	 9.527675151026250e+00
 1.034389245190546e+00	 7.950713639576943e-01	 9.271878764630044e+00
 1.017644019927708e+00	 8.179983381893458e-01	 9.012612715189146e+00
 1.169987455721043e+00	 5.757575136259440e-01	 1.131032746098167e+01
 1.158783500343078e+00	 6.026468075158748e-01	 1.111716378339313e+01
 1.146942164820587e+00	 6.292036075977139e-01	 1.091508717426914e+01
 1.134461134786759e+00	 6.554073238089599e-01	 1.070476015396509e+01
 1.121339119957345e+00	 6.812376548321089e-01	 1.048684641941428e+01
 1.107575875371013e+00	 7.066746491617736e-01	 1.026200529163987e+01
 1.093172218710124e+00	 7.316987659358548e-01	 1.003088608863762e+01
 1.078130043513388e+00	 7.562909351708273e-01	 9.794122502867662e+00
 1.062452328119198e+00	 7.804326170370328e-01	 9.552327065908564e+00
 1.046143140208240e+00	 8.041058598092611e-01	 9.306085784370527e+00
 1.029207636845662e+00	 8.272933561309074e-01	 9.055953030792136e+00
 1.183132796540936e+00	 5.822264109706171e-01	 1.125401227559085e+01
 1.171802959632020e+00	 6.094178182985777e-01	 1.107039851648349e+01
 1.159828581322929e+00	 6.362729960993709e-01	 1.087795799266475e+01
 1.147207321243899e+00	 6.627711229717850e-01	 1.067731142940159e+01
 1.133937874613762e+00	 6.888916695037870e-01	 1.046907567583022e+01
 1.120019993718943e+00	 7.146144600257595e-01	 1.025385828847308e+01
 1.105454505428850e+00	 7.399197341251366e-01	 1.003225210371103e+01
 1.090243324556970e+00	 7.647882075584607e-01	 9.804829879075019e+00
 1.074389462904693e+00	 7.892011321926621e-01	 9.572139085358117e+00
 1.057897033854956e+00	 8.131403546067386e-01	 9.334696931853054e+00
 1.040771252414892e+00	 8.365883729880681e-01	 9.092985705383898e+00
 9.251348741237903e-01	 7.436380254908352e-01	 8.495028731652036e+00
 9.093545026181421e-01	 7.640292626408308e-01	 8.120342777278953e+00
 8.930233224044176e-01	 7.839546983243546e-01	 7.735608054121279e+00
 8.761488515538501e-01	 8.034008071342293e-01	 7.343584156866378e+00
 8.587395464156911e-01	 8.223548237211875e-01	 6.947100761372567e+00
 8.408047812142654e-01	 8.408047812142655e-01	 6.549036619822273e+00
 8.223548237211870e-01	 8.587395464156912e-01	 6.152297873099896e+00
 8.034008071342290e-01	 8.761488515538506e-01	 5.759795985818545e+00
 7.839546983243543e-01	 8.930233224044180e-01	 5.374425617954845e+00
 7.640292626408302e-01	 9.093545026181423e-01	 4.999042748295486e+00
 7.436380254908355e-01	 9.251348741237905e-01	 4.636443358818534e+00
 9.366985504033987e-01	 7.529330911458786e-01	 8.571480232513858e+00
 9.207209329469740e-01	 7.735792075268062e-01	 8.214536713691555e+00
 9.041856219770256e-01	 7.937537001796383e-01	 7.846684166827004e+00
 8.871002295365527e-01	 8.134428746370428e-01	 7.470547626387615e+00
 8.694733176745297e-01	 8.326338059899012e-01	 7.088827707196394e+00
 8.513143777879396e-01	 8.513143777879398e-01	 6.704280662392490e+00
 8.326338059899007e-01	 8.694733176745300e-01	 6.319697690597974e+00
 8.134428746370425e-01	 8.871002295365529e-01	 5.937883783412586e+00
 7.937537001796382e-01	 9.041856219770259e-01	 5.561636414376984e+00
 7.735792075268058e-01	 9.207209329469740e-01	 5.193724373575882e+00
 7.529330911458786e-01	 9.366985504033989e-01	 4.836867048006781e+00
 9.482622145405371e-01	 7.622281470413493e-01	 8.645703469738246e+00
 9.320873513404406e-01	 7.831291423855008e-01	 8.304984044478193e+00
 9.153479098286428e-01	 8.035526917460267e-01	 7.952596925024051e+00
 8.980515960197999e-01	 8.234849315956234e-01	 7.591037355184350e+00
 8.802070776624943e-01	 8.429127774654996e-01	 7.222880972616359e+00
 8.618239633262329e-01	 8.618239633262332e-01	 6.850764890375066e+00
 8.429127774654992e-01	 8.802070776624945e-01	 6.477367967665428e+00
 8.234849315956231e-01	 8.980515960198002e-01	 6.105390547070617e+00
 8.035526917460263e-01	 9.153479098286429e-01	 5.737533946876286e+00
 7.831291423855004e-01	 9.320873513404410e-01	 5.376480001763339e+00
 7.622281470413493e-01	 9.482622145405372e-01	 5.024870942961824e+00
 9.598258678844229e-01	 7.715231942616434e-01	 8.717099468617057e+00
 9.434537591247535e-01	 7.926790683310672e-01	 8.391213397720723e+00
 9.265101872616607e-01	 8.133516741667508e-01	 8.052998665586109e+00
 9.090029522813683e-01	 8.335269791815854e-01	 7.704825471092279e+00
 8.909408276319577e-01	 8.531917393472582e-01	 7.349148554193221e+00
 8.723335390553479e-01	 8.723335390553483e-01	 6.988489262317483e+00
 8.531917393472578e-01	 8.909408276319581e-01	 6.625416753776547e+00
 8.335269791815850e-01	 9.090029522813686e-01	 6.262528602056601e+00
 8.133516741667507e-01	 9.265101872616610e-01	 5.902431077389632e+00
 7.926790683310669e-01	 9.434537591247538e-01	 5.547719388112117e+00
 7.715231942616434e-01	 9.598258678844229e-01	 5.200958163843795e+00
 9.713895117842751e-01	 7.808182338911576e-01	 8.785097778449337e+00
 9.548201576261218e-01	 8.022289864776585e-01	 8.472775849300969e+00
 9.376724555784728e-01	 8.231506485850438e-01	 8.147558282380432e+00
 9.199542995990326e-01	 8.435690185665407e-01	 7.811694954669780e+00
 9.016745688352942e-01	 8.634706928344529e-01	 7.467523783685500e+00
 8.828431062014854e-01	 8.828431062014855e-01	 7.117453740448051e+00
 8.634706928344525e-01	 9.016745688352944e-01	 6.763946954879208e+00
 8.435690185665403e-01	 9.199542995990332e-01	 6.409500164548550e+00
 8.231506485850433e-01	 9.376724555784728e-01	 6.056625771237024e+00
 8.022289864776583e-01	 9.548201576261224e-01	 5.707832777198797e+00
 7.808182338911576e-01	 9.713895117842752e-01	 5.365607874072071e+00
 9.829531475893118e-01	 7.901132670142886e-01	 8.849154795018551e+00
 9.661865481707581e-01	 8.117788979394280e-01	 8.549243602817764e+00
 9.488347160814705e-01	 8.329496161441370e-01	 8.235960252715595e+00
 9.309056392505691e-01	 8.536110509221023e-01	 7.911439001200429e+00
 9.124083025248777e-01	 8.737496391263593e-01	 7.577905014617818e+00
 8.933526659908472e-01	 8.933526659908475e-01	 7.237658290865172e+00
 8.737496391263588e-01	 9.124083025248780e-01	 6.893056636359748e+00
 8.536110509221021e-01	 9.309056392505696e-01	 6.546497936690225e+00
 8.329496161441363e-01	 9.488347160814706e-01	 6.200401973784278e+00
 8.117788979394276e-01	 9.661865481707583e-01	 5.857192050987705e+00
 7.901132670142885e-01	 9.829531475893116e-01	 5.519276689907723e+00
 9.945167766487508e-01	 7.994082947154326e-01	 8.908752200120380e+00
 9.775529320848717e-01	 8.213288038305283e-01	 8.620208761613885e+00
 9.599969700730466e-01	 8.427485779872628e-01	 8.317903731719539e+00
 9.418569725137537e-01	 8.636530774198836e-01	 8.003860427212130e+00
 9.231420299530818e-01	 8.840285794222529e-01	 7.680195330719634e+00
 9.038622196496362e-01	 9.038622196496365e-01	 7.349102883713723e+00
 8.840285794222525e-01	 9.231420299530823e-01	 7.012839304868490e+00
 8.636530774198832e-01	 9.418569725137540e-01	 6.673705660122667e+00
 8.427485779872623e-01	 9.599969700730470e-01	 6.334030425935538e+00
 8.213288038305280e-01	 9.775529320848719e-01	 5.996151796789226e+00
 7.994082947154325e-01	 9.945167766487507e-01	 5.662399991681459e+00
 1.006080400311810e+00	 8.087033180789859e-01	 8.963395508721804e+00
 9.889193106946728e-01	 8.308787052651121e-01	 8.685282185500654e+00
 9.711592188555936e-01	 8.525475352576530e-01	 8.393101709181771e+00
 9.528083006663611e-01	 8.736950992314974e-01	 8.088771117930765e+00
 9.338757523722805e-01	 8.943075149214100e-01	 7.774302274473431e+00
 9.143717684040532e-01	 9.143717684040537e-01	 7.451787493349022e+00
 8.943075149214097e-01	 9.338757523722809e-01	 7.123384170706655e+00
 8.736950992314970e-01	 9.528083006663611e-01	 6.791298631336829e+00
 8.525475352576527e-01	 9.711592188555939e-01	 6.457769423378715e+00
 8.308787052651120e-01	 9.889193106946730e-01	 6.125050301557374e+00
 8.087033180789860e-01	 1.006080400311810e+00	 5.795393144581450e+00
 1.017644019927708e+00	 8.179983381893458e-01	 9.012612715189146e+00
 1.000285685326373e+00	 8.404286033573330e-01	 8.744092425442295e+00
 9.823214637315038e-01	 8.623464890985402e-01	 8.461280223890224e+00
 9.637596249861673e-01	 8.837371175285563e-01	 8.165991512412040e+00
 9.446094710348477e-01	 9.045864468231064e-01	 7.860137594173791e+00
 9.248813134803007e-01	 9.248813134803011e-01	 7.545712098490055e+00
 9.045864468231058e-01	 9.446094710348479e-01	 7.224776392321279e+00
 8.837371175285563e-01	 9.637596249861677e-01	 6.899444181884354e+00
 8.623464890985397e-01	 9.823214637315040e-01	 6.571865524058110e+00
 8.404286033573327e-01	 1.000285685326373e+00	 6.244210478386474e+00
 8.179983381893455e-01	 1.017644019927708e+00	 5.918652636196181e+00
 1.029207636845662e+00	 8.272933561309074e-01	 9.055953030792136e+00
 1.011652057306182e+00	 8.499784992213438e-01	 8.796284730067590e+00
 9.934837060031694e-01	 8.721454406531562e-01	 8.522177630940362e+00
 9.747109467509483e-01	 8.937791334826740e-01	 8.235350123387505e+00
 9.553431871931574e-01	 9.148653763266172e-01	 7.937617008040441e+00
 9.353908561045803e-01	 9.353908561045807e-01	 7.630876682362155e+00
 9.148653763266166e-01	 9.553431871931575e-01	 7.317097304315570e+00
 8.937791334826736e-01	 9.747109467509487e-01	 6.998302126211169e+00
 8.721454406531558e-01	 9.934837060031696e-01	 6.676554207946959e+00
 8.499784992213435e-01	 1.011652057306182e+00	 6.353940730540183e+00
 8.272933561309074e-01	 1.029207636845662e+00	 6.032557137360193e+00
 1.040771252414892e+00	 8.365883729880681e-01	 9.092985705383898e+00
 1.023018427960310e+00	 8.595283939712974e-01	 8.841520118421597e+00
 1.004645946972983e+00	 8.819443910647330e-01	 8.575543917895972e+00
 9.856622672384795e-01	 9.038211482654626e-01	 8.296683089124437e+00
 9.660769020995830e-01	 9.251443046312183e-01	 8.006659984058818e+00
 9.459003975030937e-01	 9.459003975030944e-01	 7.707281232830292e+00
 9.251443046312178e-01	 9.660769020995831e-01	 7.400424630256732e+00
 9.038211482654623e-01	 9.856622672384796e-01	 7.088025179632005e+00
 8.819443910647331e-01	 1.004645946972983e+00	 6.772060492830052e+00
 8.595283939712971e-01	 1.023018427960311e+00	 6.454535757872422e+00
 8.365883729880681e-01	 1.040771252414892e+00	 6.137468492268752e+00
 7.436380254908355e-01	 9.251348741237905e-01	 4.636443358818534e+00
 7.227952327198275e-01	 9.403578711252182e-01	 4.283369099806325e+00
 7.015158118423985e-01	 9.550178852589556e-01	 3.936096412129529e+00
 6.798153201073739e-01	 9.691102809388428e-01	 3.596586821339182e+00
 6.577098939740799e-01	 9.826314018053828e-01	 3.266687627664313e+00
 6.352161985375724e-01	 9.955785706878293e-01	 2.948122544470092e+00
 6.123513754379838e-01	 1.007950085520931e+00	 2.642483968937234e+00
 5.891329895791025e-01	 1.019745211305930e+00	 2.351226921597241e+00
 5.655789749840383e-01	 1.030964168233969e+00	 2.075664660183641e+00
 5.417075801152568e-01	 1.041608116116776e+00	 1.816965943628222e+00
 5.175373129825247e-01	 1.051679135294118e+00	 1.576153894649868e+00
 7.529330911458786e-01	 9.366985504033989e-01	 4.836867048006781e+00
 7.318297749475436e-01	 9.521118264813079e-01	 4.487672462824533e+00
 7.102843730320807e-01	 9.669550827157742e-01	 4.142368586869015e+00
 6.883126371053290e-01	 9.812236255783680e-01	 3.802996897671473e+00
 6.659309053234379e-01	 9.949137530071112e-01	 3.471510957809752e+00
 6.431560510859449e-01	 1.008022754368101e+00	 3.149765425848945e+00
 6.200054302940129e-01	 1.020548906321208e+00	 2.839506460018207e+00
 5.964968274030251e-01	 1.032491464680596e+00	 2.542363587775911e+00
 5.726484006014738e-01	 1.043850652389678e+00	 2.259843085440251e+00
 5.484786264475269e-01	 1.054627643757190e+00	 1.993322883641493e+00
 5.240062442908519e-01	 1.064824545126001e+00	 1.744048987213510e+00
 7.622281470413493e-01	 9.482622145405372e-01	 5.024870942961824e+00
 7.408643076892962e-01	 9.638657694951810e-01	 4.679221375405915e+00
 7.190529250151156e-01	 9.788922676380574e-01	 4.335744510773286e+00
 6.968099451814580e-01	 9.933369574985162e-01	 3.996549046055335e+00
 6.741519080410894e-01	 1.007196091312142e+00	 3.663679740394866e+00
 6.510958952978116e-01	 1.020466924981897e+00	 3.339104980302166e+00
 6.276594771135983e-01	 1.033147713892791e+00	 3.024705517714984e+00
 6.038606574951996e-01	 1.045237704671911e+00	 2.722264486923221e+00
 5.797178187962586e-01	 1.056737123014926e+00	 2.433458779463762e+00
 5.552496656704088e-01	 1.067647157727559e+00	 2.159851828827924e+00
 5.304751688069793e-01	 1.077969941155748e+00	 1.902887829972920e+00
 7.715231942616434e-01	 9.598258678844229e-01	 5.200958163843795e+00
 7.498988319990690e-01	 9.756197015382422e-01	 4.858604047912827e+00
 7.278214688144408e-01	 9.908294414185691e-01	 4.516884711936535e+00
 7.053072453270417e-01	 1.005450278112579e+00	 4.177963896913726e+00
 6.823729030860691e-01	 1.019478418153453e+00	 3.843963119447733e+00
 6.590357320993998e-01	 1.032911083981049e+00	 3.516947967263329e+00
 6.353135167896196e-01	 1.045746509705525e+00	 3.198915366778085e+00
 6.112244807146440e-01	 1.057983932766892e+00	 2.891781958071659e+00
 5.867872303930614e-01	 1.069623581613069e+00	 2.597373687600713e+00
 5.620206985737617e-01	 1.080666659546745e+00	 2.317416702857153e+00
 5.369440872855219e-01	 1.091115324916893e+00	 2.053529606636745e+00
 7.808182338911576e-01	 9.713895117842752e-01	 5.365607874072071e+00
 7.589333489308472e-01	 9.873736239818964e-01	 5.026380681909681e+00
 7.365900054529944e-01	 1.002766605450072e+00	 4.686418265778217e+00
 7.138045385333609e-01	 1.017563588833845e+00	 4.347927765775930e+00
 6.905938914174139e-01	 1.031760734964027e+00	 4.013093613703782e+00
 6.669755624169360e-01	 1.045355232817389e+00	 3.684062729417358e+00
 6.429675502149550e-01	 1.058345295229253e+00	 3.362930507077880e+00
 6.185882979203756e-01	 1.070730150452557e+00	 3.051727752521943e+00
 5.938566362165510e-01	 1.082510029687462e+00	 2.752408709755076e+00
 5.687917259474442e-01	 1.093686150733605e+00	 2.466840289488696e+00
 5.434130004810946e-01	 1.104260697942969e+00	 2.196792586467541e+00
 7.901132670142885e-01	 9.829531475893116e-01	 5.519276689907723e+00
 7.679678595386146e-01	 9.991275381975497e-01	 5.183085118081607e+00
 7.453585359537155e-01	 1.014703761125330e+00	 4.844944645519205e+00
 7.223018257916970e-01	 1.029676891075605e+00	 4.507094672091741e+00
 6.988148739941589e-01	 1.044043043176842e+00	 4.171769271295150e+00
 6.749153871766467e-01	 1.057799372942749e+00	 3.841181452736279e+00
 6.506215782824836e-01	 1.070944071933819e+00	 3.517508050553522e+00
 6.259521099714122e-01	 1.083476359215924e+00	 3.202875421511328e+00
 6.009260370913967e-01	 1.095396468741459e+00	 2.899346114942965e+00
 5.755627485813160e-01	 1.106705632806998e+00	 2.608906652646442e+00
 5.498819091483128e-01	 1.117406061767513e+00	 2.333456531056824e+00
 7.994082947154325e-01	 9.945167766487507e-01	 5.662399991681459e+00
 7.770023648763551e-01	 1.010881445556606e+00	 5.329226369168910e+00
 7.541270613395413e-01	 1.026640909837109e+00	 4.993035443539316e+00
 7.307991080933308e-01	 1.041790186251149e+00	 4.656088217181550e+00
 7.070358517753395e-01	 1.056325344224880e+00	 4.320655674094754e+00
 6.828552073047591e-01	 1.070243505808959e+00	 3.989002268819173e+00
 6.582756018850845e-01	 1.083542841289068e+00	 3.663369895100049e+00
 6.333159177267713e-01	 1.096222560544010e+00	 3.345962537280803e+00
 6.079954338422668e-01	 1.108282900278415e+00	 3.038931787370475e+00
 5.823337672652358e-01	 1.119725107285783e+00	 2.744363387630398e+00
 5.563508140417918e-01	 1.130551417924058e+00	 2.464264933165191e+00
 8.087033180789860e-01	 1.006080400311810e+00	 5.795393144581450e+00
 7.860368659980534e-01	 1.022635347430469e+00	 5.465290047169179e+00
 7.628955826334107e-01	 1.038578052978170e+00	 5.131235974006998e+00
 7.392963864295431e-01	 1.053903475773768e+00	 4.795503332657269e+00
 7.152568257199916e-01	 1.068607639541119e+00	 4.460387803814194e+00
 6.907950237274999e-01	 1.082687632867853e+00	 4.128191212226647e+00
 6.659296219156362e-01	 1.096141604764842e+00	 3.801204748514494e+00
 6.406797220454709e-01	 1.108968755923833e+00	 3.481692760947057e+00
 6.150648272938307e-01	 1.121169325801685e+00	 3.171877317591244e+00
 5.891047827890625e-01	 1.132744575688819e+00	 2.873923717054417e+00
 5.628197159161465e-01	 1.143696767946138e+00	 2.589927101142316e+00
 8.179983381893455e-01	 1.017644019927708e+00	 5.918652636196181e+00
 7.950713639576940e-01	 1.034389245190546e+00	 5.591739693219170e+00
 7.716641008582614e-01	 1.050515191941279e+00	 5.260066766225872e+00
 7.477936617916146e-01	 1.066016761056751e+00	 4.925907909619565e+00
 7.234777967871515e-01	 1.080889930558541e+00	 4.591571780852499e+00
 6.987348373710952e-01	 1.095131755571259e+00	 4.259384044344948e+00
 6.735836392670180e-01	 1.108740363830987e+00	 3.931670014429923e+00
 6.480435237865273e-01	 1.121714946842410e+00	 3.610737769367327e+00
 6.221342182707568e-01	 1.134055746814624e+00	 3.298861951068637e+00
 5.958757959426559e-01	 1.145764039534964e+00	 2.998268443862732e+00
 5.692886155259922e-01	 1.156842113367289e+00	 2.711120101210145e+00
 8.272933561309074e-01	 1.029207636845662e+00	 6.032557137360193e+00
 8.041058598092605e-01	 1.046143140208240e+00	 5.709018017811506e+00
 7.804326170370325e-01	 1.062452328119198e+00	 5.380024957295062e+00
 7.562909351708267e-01	 1.078130043513388e+00	 5.047844318008324e+00
 7.316987659358543e-01	 1.093172218710124e+00	 4.714786485906144e+00
 7.066746491617730e-01	 1.107575875371013e+00	 4.383187954279032e+00
 6.812376548321085e-01	 1.121339119957345e+00	 4.055393551093118e+00
 6.554073238089596e-01	 1.134461134786760e+00	 3.733739052088048e+00
 6.292036075977134e-01	 1.146942164820587e+00	 3.420534405359602e+00
 6.026468075158744e-01	 1.158783500343079e+00	 3.118047772667150e+00
 5.757575136259440e-01	 1.169987455721043e+00	 2.828490568791533e+00
 8.365883729880681e-01	 1.040771252414892e+00	 6.137468492268752e+00
 8.131403546067379e-01	 1.057897033854957e+00	 5.817548058320944e+00
 7.892011321926615e-01	 1.074389462904693e+00	 5.491585591914911e+00
 7.647882075584603e-01	 1.090243324556970e+00	 5.161830824652212e+00
 7.399197341251362e-01	 1.105454505428851e+00	 4.830585073459259e+00
 7.146144600257591e-01	 1.120019993718943e+00	 4.500183146340019e+00
 6.888916695037869e-01	 1.133937874613762e+00	 4.172975312877508e+00
 6.627711229717848e-01	 1.147207321243900e+00	 3.851309588483688e+00
 6.362729960993706e-01	 1.159828581322929e+00	 3.537514566138619e+00
 6.094178182985774e-01	 1.171802959632020e+00	 3.233883009648259e+00
 5.822264109706172e-01	 1.183132796540936e+00	 2.942656399069590e+00
 5.175373129825247e-01	 1.051679135294118e+00	 1.576153894649866e+00
 4.930886061179270e-01	 1.061179560108253e+00	 1.354408782853294e+00
 4.683786316150236e-01	 1.070113971156061e+00	 1.151960524590979e+00
 4.434263389172353e-01	 1.078487068930921e+00	 9.682022095008584e-01
 4.182507216331380e-01	 1.086304366606542e+00	 8.023486162027986e-01
 3.928707661351534e-01	 1.093572156557455e+00	 6.534539700766135e-01
 3.673054016510371e-01	 1.100297474749929e+00	 5.204302400359273e-01
 3.415734520723819e-01	 1.106488063271783e+00	 4.020656857936440e-01
 3.156935896829346e-01	 1.112152331272543e+00	 2.970433867642783e-01
 2.896842909871788e-01	 1.117299314585631e+00	 2.039595070838622e-01
 2.635637947966888e-01	 1.121938634302054e+00	 1.213410772941492e-01
 5.240062442908519e-01	 1.064824545126001e+00	 1.744048987213511e+00
 4.992519420589116e-01	 1.074443720016364e+00	 1.513178649949952e+00
 4.742331064869885e-01	 1.083489806280113e+00	 1.300867453928026e+00
 4.489689238761274e-01	 1.091967563164214e+00	 1.106673603639482e+00
 4.234786252445683e-01	 1.099882572754026e+00	 9.299869006337862e-01
 3.977814342839484e-01	 1.107241206075309e+00	 7.700445719268931e-01
 3.718965168269625e-01	 1.114050587040045e+00	 6.259476630576630e-01
 3.458429320534969e-01	 1.120318554507902e+00	 4.966777311866144e-01
 3.196395856405784e-01	 1.126053622738153e+00	 3.811135905830227e-01
 2.933051850388365e-01	 1.131264940507173e+00	 2.780478832986861e-01
 2.668581970349608e-01	 1.135962249164317e+00	 1.862032709083370e-01
 5.304751688069793e-01	 1.077969941155748e+00	 1.902887829972922e+00
 5.054152715285452e-01	 1.087707865997702e+00	 1.663687629303602e+00
 4.800875752118880e-01	 1.096865627360146e+00	 1.442331323671666e+00
 4.545115030154290e-01	 1.105448043243582e+00	 1.238534664048066e+00
 4.287065233668245e-01	 1.113460764644947e+00	 1.051854376157365e+00
 4.026920972766799e-01	 1.120910241241152e+00	 8.817021502869635e-01
 3.764876271823808e-01	 1.127803684889804e+00	 7.273592211060689e-01
 3.501124075518630e-01	 1.134149031222319e+00	 5.879912956010094e-01
 3.235855774551878e-01	 1.139954899607613e+00	 4.626636016027337e-01
 2.969260752888898e-01	 1.145230551764896e+00	 3.503558470792569e-01
 2.701525958145354e-01	 1.149985849301752e+00	 2.499769005947154e-01
 5.369440872855219e-01	 1.091115324916893e+00	 2.053529606636742e+00
 5.115785952457940e-01	 1.100971999599649e+00	 1.806784669990973e+00
 4.859420384726598e-01	 1.110241435956580e+00	 1.577186119941491e+00
 4.600540769816969e-01	 1.118928510741666e+00	 1.364599946215055e+00
 4.339344166097567e-01	 1.127038943863363e+00	 1.168741981211056e+00
 4.076027556861921e-01	 1.134579263649660e+00	 9.891901390198090e-01
 3.810787332528601e-01	 1.141556769903712e+00	 8.253972695314671e-01
 3.543818790655262e-01	 1.147979495028594e+00	 6.767044073000623e-01
 3.275315655870700e-01	 1.153856163502768e+00	 5.423542067331200e-01
 3.005469621597160e-01	 1.159196149988180e+00	 4.215043702363863e-01
 2.734469915196949e-01	 1.164009436350527e+00	 3.132408934554765e-01
 5.434130004810946e-01	 1.104260697942969e+00	 2.196792586467541e+00
 5.177419139296249e-01	 1.114236122369594e+00	 1.943278293779398e+00
 4.917964969522420e-01	 1.123617233629833e+00	 1.706226113866741e+00
 4.655966464214873e-01	 1.132408967231106e+00	 1.485645215727909e+00
 4.391623055832144e-01	 1.140617111993330e+00	 1.281402988795834e+00
 4.125134100853292e-01	 1.148248274895508e+00	 1.093235616157704e+00
 3.856698355739675e-01	 1.155309843686275e+00	 9.207592876668511e-01
 3.586513470925326e-01	 1.161809947540285e+00	 7.634818530568142e-01
 3.314775504965322e-01	 1.167757416045464e+00	 6.208147247134377e-01
 3.041678460736920e-01	 1.173161736806400e+00	 4.920848523072716e-01
 2.767413845347217e-01	 1.178033011946810e+00	 3.765466064048761e-01
 5.498819091483128e-01	 1.117406061767513e+00	 2.333456531056824e+00
 5.239052282990043e-01	 1.127500235854920e+00	 2.073938973210803e+00
 4.976509513335732e-01	 1.136993021940326e+00	 1.830208197735436e+00
 4.711392119813578e-01	 1.145889414284543e+00	 1.602409729972019e+00
 4.443901908970471e-01	 1.154195270618903e+00	 1.390555221999317e+00
 4.174240610469353e-01	 1.161917276573373e+00	 1.194531442360765e+00
 3.902609346812702e-01	 1.169062907841999e+00	 1.014109930212113e+00
 3.629208121309281e-01	 1.175640390370952e+00	 8.489571333644859e-01
 3.354235326438815e-01	 1.181658658857547e+00	 6.986448569878907e-01
 3.077887274531950e-01	 1.187127313848934e+00	 5.626608598877698e-01
 2.800357752438979e-01	 1.192056577726769e+00	 4.404194477148100e-01
 5.563508140417918e-01	 1.130551417924058e+00	 2.464264933165190e+00
 5.300685390728995e-01	 1.140764341603014e+00	 2.199501343753532e+00
 5.035054022995912e-01	 1.150368802448477e+00	 1.949854058136707e+00
 4.766817743078647e-01	 1.159369853474618e+00	 1.715598360622811e+00
 4.496180731611050e-01	 1.167773421324142e+00	 1.496883114929535e+00
 4.223347091438546e-01	 1.175586270277928e+00	 1.293738250163202e+00
 3.948520311103356e-01	 1.182815963975389e+00	 1.106082935480598e+00
 3.671902746787591e-01	 1.189470825134154e+00	 9.337342812206828e-01
 3.393695124894248e-01	 1.195559893560861e+00	 7.764164094343755e-01
 3.114096067206023e-01	 1.201092882745161e+00	 6.337697446013808e-01
 2.833301640315056e-01	 1.206080135326573e+00	 5.053603854158362e-01
 5.628197159161465e-01	 1.143696767946138e+00	 2.589927101142316e+00
 5.362318469702764e-01	 1.154028441161263e+00	 2.320666263373854e+00
 5.093598505332343e-01	 1.163744576714707e+00	 2.065852199213843e+00
 4.822243340475648e-01	 1.172850286373970e+00	 1.825883569742156e+00
 4.548459529852376e-01	 1.181351565693099e+00	 1.601039631498361e+00
 4.272453549489312e-01	 1.189255257603850e+00	 1.391486296014038e+00
 3.994431253967307e-01	 1.196569013690954e+00	 1.197282902027837e+00
 3.714597352340709e-01	 1.203301253443449e+00	 1.018389555463212e+00
 3.433154904934695e-01	 1.209461121777253e+00	 8.546748953399010e-01
 3.150304842982908e-01	 1.215058445124458e+00	 7.059241494710322e-01
 2.866245512818271e-01	 1.220103686382390e+00	 5.718473516586917e-01
 5.692886155259922e-01	 1.156842113367289e+00	 2.711120101210149e+00
 5.423951527101020e-01	 1.167292536077051e+00	 2.438102731666328e+00
 5.152142967174405e-01	 1.177120346299433e+00	 2.178859827952332e+00
 4.877668918470149e-01	 1.186330714555242e+00	 1.933907251124969e+00
 4.600738309792945e-01	 1.194929705309834e+00	 1.703648053364070e+00
 4.321559990350095e-01	 1.202924240145813e+00	 1.488377186027608e+00
 4.040342180760231e-01	 1.210322058593197e+00	 1.288286944131794e+00
 3.757291942949101e-01	 1.217131676912397e+00	 1.103473018638627e+00
 3.472614671163226e-01	 1.223362345128568e+00	 9.339410290691590e-01
 3.186513606086379e-01	 1.229024002616201e+00	 7.796134125721417e-01
 2.899189373791444e-01	 1.234127232530387e+00	 6.403365513124577e-01
 5.757575136259440e-01	 1.169987455721043e+00	 2.828490568791531e+00
 5.485584570113428e-01	 1.180556627897764e+00	 2.552449679589408e+00
 5.210687415351480e-01	 1.190496112763076e+00	 2.289504612355250e+00
 4.933094483527719e-01	 1.199811139591073e+00	 2.040282447496090e+00
 4.653017077531255e-01	 1.208507841758404e+00	 1.805303647324337e+00
 4.370666419749336e-01	 1.216593219498495e+00	 1.584985485378178e+00
 4.086253096837799e-01	 1.224075100286626e+00	 1.379646235655607e+00
 3.799986523593226e-01	 1.230962097154558e+00	 1.189510008484501e+00
 3.512074428182912e-01	 1.237263565236650e+00	 1.014712119025215e+00
 3.222722360740204e-01	 1.242989556849769e+00	 8.553048760462780e-01
 2.932133227077402e-01	 1.248150775406734e+00	 7.112636823326770e-01
 5.822264109706172e-01	 1.183132796540936e+00	 2.942656399069588e+00
 5.547217605929659e-01	 1.193820718170789e+00	 2.664317639872125e+00
 5.269231856692952e-01	 1.203871877666055e+00	 2.398386322393921e+00
 4.988520042113924e-01	 1.213291563054103e+00	 2.145594953214621e+00
 4.705295839165803e-01	 1.222085976622864e+00	 1.906575221537557e+00
 4.419772843415477e-01	 1.230262197256569e+00	 1.681860220389616e+00
 4.132164007555683e-01	 1.237828140375747e+00	 1.471887450974094e+00
 3.842681099253542e-01	 1.244792515783489e+00	 1.277002511302517e+00
 3.551534180596826e-01	 1.251164783723347e+00	 1.097463367735473e+00
 3.258931111168158e-01	 1.256955109454539e+00	 9.334451078373012e-01
 2.965077076518963e-01	 1.262174316647596e+00	 7.850450747625484e-01
 2.635637947966888e-01	 1.121938634302054e+00	 1.213410772941517e-01
 2.373482296499335e-01	 1.126080727339082e+00	 4.983435457036145e-02
 2.110570951089145e-01	 1.129735918047314e+00	-9.624881332785717e-03
 1.847077204181358e-01	 1.132915330725281e+00	-5.816594720855006e-02
 1.583170525687149e-01	 1.135630504095502e+00	-9.695244495136035e-02
 1.319016272114572e-01	 1.137893348388953e+00	-1.271710832855026e-01
 1.054775423022452e-01	 1.139716102835537e+00	-1.500212492469024e-01
 7.906043448167313e-02	 1.141111293759497e+00	-1.667053806238594e-01
 5.266545817213228e-02	 1.142091693463350e+00	-1.784201734512159e-01
 2.630726735816929e-02	 1.142670280067985e+00	-1.863486429936818e-01
 0.000000000000000e+00	 1.142860198460186e+00	-1.916530425956724e-01
 2.668581970349608e-01	 1.135962249164317e+00	 1.862032709083370e-01
 2.403149517652857e-01	 1.140156116082579e+00	 1.063636568987330e-01
 2.136951925256246e-01	 1.143856994661234e+00	 3.946693783796595e-02
 1.870164651665213e-01	 1.147076148246399e+00	-1.563214481076636e-02
 1.602959285071758e-01	 1.149825259788246e+00	-6.011909941638738e-02
 1.335503248849474e-01	 1.152116388389058e+00	-9.520779764514820e-02
 1.067959534713259e-01	 1.153961926262349e+00	-1.221293521908779e-01
 8.004864635632519e-02	 1.155374556304495e+00	-1.421218169009097e-01
 5.332374738429285e-02	 1.156367210464742e+00	-1.564207492319474e-01
 2.663609370653354e-02	 1.156953029083323e+00	-1.662506582574677e-01
 0.000000000000000e+00	 1.157145321350848e+00	-1.728173463799918e-01
 2.701525958145354e-01	 1.149985849301752e+00	 2.499769005947154e-01
 2.432816707661115e-01	 1.154231490046761e+00	 1.624130322050483e-01
 2.163332871729747e-01	 1.157978056447746e+00	 8.858344847106281e-02
 1.893252074914669e-01	 1.161236950898263e+00	 2.733982390991141e-02
 1.622748023686338e-01	 1.164020000575990e+00	-2.251194259980949e-02
 1.351990208281575e-01	 1.166339413454362e+00	-6.219926798922670e-02
 1.081143632569111e-01	 1.168207734730349e+00	-9.297119526171449e-02
 8.103685719410969e-02	 1.169637803872298e+00	-1.160875382115640e-01
 5.398203590584604e-02	 1.170642712476017e+00	-1.328089058919026e-01
 2.696491970997855e-02	 1.171235763100916e+00	-1.443876345534914e-01
 0.000000000000000e+00	 1.171430429241259e+00	-1.520596388733737e-01
 2.734469915196949e-01	 1.164009436350527e+00	 3.132408934554762e-01
 2.462483869984567e-01	 1.168306850873860e+00	 2.185216010116617e-01
 2.189713793586627e-01	 1.172099105054432e+00	 1.382300606693723e-01
 1.916339476622377e-01	 1.175397740333110e+00	 7.122717291501046e-02
 1.642536743838629e-01	 1.178214728114948e+00	 1.632297372079350e-02
 1.368477152333388e-01	 1.180562425244396e+00	-2.771046394422139e-02
 1.094327718127214e-01	 1.182453529901738e+00	-6.212689612258782e-02
 8.202506711023368e-02	 1.183901038127150e+00	-8.819461130836737e-02
 5.464032381352585e-02	 1.184918201162855e+00	-1.071860214934239e-01
 2.729374540682866e-02	 1.185518483787291e+00	-1.203681727525736e-01
 0.000000000000000e+00	 1.185715523798227e+00	-1.289941907378247e-01
 2.767413845347217e-01	 1.178033011946810e+00	 3.765466064048741e-01
 2.492151008083671e-01	 1.182382200206109e+00	 2.752028091833787e-01
 2.216094693903863e-01	 1.186220142128876e+00	 1.888881151402975e-01
 1.939426859480990e-01	 1.189558518203180e+00	 1.164843894647922e-01
 1.662325447836380e-01	 1.192409444061334e+00	 5.681797899036489e-02
 1.384964082927424e-01	 1.194785425418687e+00	 8.672926970833217e-03
 1.107511792924775e-01	 1.196699313438713e+00	-2.919656896293432e-02
 8.301327621990420e-02	 1.198164260733292e+00	-5.805453044559683e-02
 5.529861118406629e-02	 1.199193678190934e+00	-7.917245820205943e-02
 2.762257083540821e-02	 1.199801192808975e+00	-9.381951390677901e-02
 0.000000000000000e+00	 1.200000606688556e+00	-1.032536428785500e-01
 2.800357752438979e-01	 1.192056577726769e+00	 4.404194477148100e-01
 2.521818125418886e-01	 1.196457539685740e+00	 3.329459379580371e-01
 2.242475575758435e-01	 1.200341169318661e+00	 2.410162987880295e-01
 1.962514226183161e-01	 1.203719286160712e+00	 1.635445707209167e-01
 1.682114137987333e-01	 1.206604150071365e+00	 9.938505530132535e-02
 1.401451001986197e-01	 1.209008415636766e+00	 4.734571777152352e-02
 1.120695858499000e-01	 1.210945087003475e+00	 6.200851492432102e-03
 8.400148463832836e-02	 1.212427473354968e+00	-2.529707486249633e-02
 5.595689809420142e-02	 1.213469145225935e+00	-4.840644585419107e-02
 2.795139603404157e-02	 1.214083891832495e+00	-6.438644305036711e-02
 0.000000000000000e+00	 1.214285679579051e+00	-7.448792612686361e-02
 2.833301640315056e-01	 1.206080135326573e+00	 5.053603854158339e-01
 2.551485225450670e-01	 1.210532870954983e+00	 3.922175086130015e-01
 2.268856442227319e-01	 1.214462188271370e+00	 2.950519615320117e-01
 1.985601579421541e-01	 1.217880045857944e+00	 2.128206670864903e-01
 1.701902816599233e-01	 1.220798847801255e+00	 1.444170201035961e-01
 1.417937911432218e-01	 1.223231397558161e+00	 8.868435541912922e-02
 1.133879916387095e-01	 1.225190852258222e+00	 4.442870391864995e-02
 8.498969248071314e-02	 1.226690677656422e+00	 1.043075401335325e-02
 5.661518462066523e-02	 1.227744603933536e+00	-1.454304342466806e-02
 2.828022104105307e-02	 1.228366582524378e+00	-3.173026948866586e-02
 0.000000000000000e+00	 1.228570744136519e+00	-4.236325630279159e-02
 2.866245512818271e-01	 1.220103686382390e+00	 5.718473516586935e-01
 2.581152311639481e-01	 1.224608195656070e+00	 4.534625902472342e-01
 2.295237296387498e-01	 1.228583200634588e+00	 3.514123423000495e-01
 2.008688921888782e-01	 1.232040798947115e+00	 2.647066397886104e-01
 1.721691485979824e-01	 1.234993538907219e+00	 1.922886273389448e-01
 1.434424813188000e-01	 1.237454372842401e+00	 1.330479760554422e-01
 1.147063968126268e-01	 1.239436610865154e+00	 8.583361887380470e-02
 8.597789986226567e-02	 1.240953875301895e+00	 4.946572205777922e-02
 5.727347084019176e-02	 1.242020055979417e+00	 2.274682787402926e-02
 2.860904589476704e-02	 1.242649266551153e+00	 4.472122579777249e-03
 0.000000000000000e+00	 1.242855802027764e+00	-6.561198592091921e-03
 2.899189373791444e-01	 1.234127232530387e+00	 6.403365513124577e-01
 2.610819387445777e-01	 1.238683515431234e+00	 5.171060183858249e-01
 2.321618141315945e-01	 1.242704208055896e+00	 4.104957114208403e-01
 2.031776256277538e-01	 1.246201547080464e+00	 3.195785395256909e-01
 1.741480148436851e-01	 1.249188225045472e+00	 2.433575934894956e-01
 1.450911709176055e-01	 1.251677343149015e+00	 1.807793882822128e-01
 1.160248015253724e-01	 1.253682364486469e+00	 1.307464678312367e-01
 8.696610689819298e-02	 1.255217067955632e+00	 9.212928446873248e-02
 5.793175682951503e-02	 1.256295503029258e+00	 6.377728556049789e-02
 2.893787063350784e-02	 1.256931945579345e+00	 4.452915870317198e-02
 0.000000000000000e+00	 1.257140854919592e+00	 3.322220427716926e-02
 2.932133227077402e-01	 1.248150775406734e+00	 7.112636823326770e-01
 2.640486456330018e-01	 1.252758831922707e+00	 5.835535314221607e-01
 2.347998980089640e-01	 1.256825212182878e+00	 4.726824359926083e-01
 2.054863585280461e-01	 1.260362291910229e+00	 3.777955123885055e-01
 1.761268806278058e-01	 1.263382907872229e+00	 2.979655544461921e-01
 1.467398601318895e-01	 1.265900310137534e+00	 2.322059901439364e-01
 1.173432059306671e-01	 1.267928114784366e+00	 1.794832482256636e-01
 8.795431370370210e-02	 1.269480257281874e+00	 1.387284456195443e-01
 5.859004266536907e-02	 1.270570946748737e+00	 1.088483261062243e-01
 2.926669529559979e-02	 1.271214621275483e+00	 8.873539917139395e-02
 0.000000000000000e+00	 1.271425904478810e+00	 7.727724507649736e-02
 2.965077076518963e-01	 1.262174316647596e+00	 7.850450747625461e-01
 2.670153521752661e-01	 1.266834146772720e+00	 6.531928312885487e-01
 2.374379815785563e-01	 1.270946214663118e+00	 5.383359742194316e-01
 2.077950911590201e-01	 1.274523035088650e+00	 4.397007387125047e-01
 1.781057461811192e-01	 1.277577589043705e+00	 3.564389585790380e-01
 1.483885491539033e-01	 1.280123275467486e+00	 2.876406249720647e-01
 1.186616101822315e-01	 1.282173863421045e+00	 2.323459094887599e-01
 8.894252039400018e-02	 1.283743444944866e+00	 1.895565615815018e-01
 5.924832842448790e-02	 1.284846388803535e+00	 1.582466091363741e-01
 2.959551991936728e-02	 1.285497295306093e+00	 1.373723090044292e-01
 0.000000000000000e+00	 1.285710952372222e+00	 1.258813109100330e-01
 1.285710952372222e+00	 0.000000000000000e+00	 1.338570463571825e+01
 1.285497295306093e+00	 2.959551991936768e-02	 1.336404038468996e+01
 1.284846388803535e+00	 5.924832842448829e-02	 1.333573629594904e+01
 1.283743444944865e+00	 8.894252039400048e-02	 1.329977530298258e+01
 1.282173863421045e+00	 1.186616101822318e-01	 1.325515141380330e+01
 1.280123275467486e+00	 1.483885491539035e-01	 1.320087796954512e+01
 1.277577589043704e+00	 1.781057461811192e-01	 1.313599653884253e+01
 1.274523035088650e+00	 2.077950911590204e-01	 1.305958640780552e+01
 1.270946214663118e+00	 2.374379815785564e-01	 1.297077461104857e+01
 1.266834146772720e+00	 2.670153521752661e-01	 1.286874643395884e+01
 1.262174316647597e+00	 2.965077076518963e-01	 1.275275630042809e+01
 1.299996999436575e+00	 0.000000000000000e+00	 1.323622927087117e+01
 1.299780968341605e+00	 2.992436754283352e-02	 1.321510892314962e+01
 1.299122829357391e+00	 5.990666022752204e-02	 1.318767169133639e+01
 1.298007630249775e+00	 8.993079620458713e-02	 1.315294682619309e+01
 1.296420608479857e+00	 1.199801066498033e-01	 1.310997453967455e+01
 1.294347235625972e+00	 1.500373534937382e-01	 1.305781395029427e+01
 1.291773263065350e+00	 1.800847501464908e-01	 1.299555163827512e+01
 1.288684768743407e+00	 2.101039852746392e-01	 1.292231077154319e+01
 1.285068204839977e+00	 2.400762496692715e-01	 1.283726074980106e+01
 1.280910446123659e+00	 2.699822662242060e-01	 1.273962729921568e+01
 1.276198838767993e+00	 2.998023230222043e-01	 1.262870293489669e+01
 1.314283043168385e+00	 0.000000000000000e+00	 1.309523888134941e+01
 1.314064638045126e+00	 3.025321508956966e-02	 1.307467984102818e+01
 1.313399266580941e+00	 6.056499187694717e-02	 1.304811921421189e+01
 1.312271812227235e+00	 9.091907178457748e-02	 1.301463060028740e+01
 1.310667350215281e+00	 1.212986028097242e-01	 1.297329834798768e+01
 1.308571192466371e+00	 1.516861574488443e-01	 1.292322519199505e+01
 1.305968933775486e+00	 1.820637536500776e-01	 1.286354047463287e+01
 1.302846499094542e+00	 2.124128788514846e-01	 1.279340891502791e+01
 1.299190191722443e+00	 2.427145171443396e-01	 1.271203987482482e+01
 1.294986742190813e+00	 2.729491795807888e-01	 1.261869705538957e+01
 1.290223357616614e+00	 3.030969376236583e-01	 1.251270854666557e+01
 1.328569080234105e+00	 0.000000000000000e+00	 1.296223047369493e+01
 1.328348301083665e+00	 3.058206248284655e-02	 1.294224075234875e+01
 1.327675697142885e+00	 6.122332321915620e-02	 1.291655710374157e+01
 1.326535987548803e+00	 9.190734690337923e-02	 1.288429554806231e+01
 1.324914085302944e+00	 1.226170983543531e-01	 1.284458254621645e+01
 1.322795142669631e+00	 1.533349606345124e-01	 1.279656233201698e+01
 1.320164597861666e+00	 1.840427562301277e-01	 1.273940480604450e+01
 1.317008222837535e+00	 2.147217713508359e-01	 1.267231395495941e+01
 1.313312172015283e+00	 2.453527833881926e-01	 1.259453674725876e+01
 1.309063031689621e+00	 2.759160915527708e-01	 1.250537244286909e+01
 1.304247869921001e+00	 3.063915506875612e-01	 1.240418223976134e+01
 1.342855107300192e+00	 0.000000000000000e+00	 1.283672245402375e+01
 1.342631954124233e+00	 3.091090964593466e-02	 1.281730107033160e+01
 1.341952117711919e+00	 6.188165410054168e-02	 1.279248579717167e+01
 1.340800152886037e+00	 9.289562133040007e-02	 1.276143318680007e+01
 1.339160810418477e+00	 1.239355929760491e-01	 1.272330982843539e+01
 1.337019082916703e+00	 1.549837626660329e-01	 1.267729938027520e+01
 1.334360252011446e+00	 1.860217574248894e-01	 1.262261014101531e+01
 1.331169936667871e+00	 2.170306622339723e-01	 1.255848312613170e+01
 1.327434142423264e+00	 2.479910477852630e-01	 1.248420060189420e+01
 1.323139311335525e+00	 2.788830014479088e-01	 1.239909501700921e+01
 1.318272372408692e+00	 3.096861614452167e-01	 1.230255825813540e+01
 1.357141121033102e+00	 0.000000000000000e+00	 1.271825350172082e+01
 1.356915593833839e+00	 3.123975650210440e-02	 1.269939086005505e+01
 1.356228524956741e+00	 6.253998436749619e-02	 1.267542676149454e+01
 1.355064304910496e+00	 9.388389483504776e-02	 1.264555643906932e+01
 1.353407522237509e+00	 1.252540863671710e-01	 1.260898466548148e+01
 1.351243009888537e+00	 1.566325631586963e-01	 1.256493248907720e+01
 1.348555892912382e+00	 1.880007567726111e-01	 1.251264448838532e+01
 1.345331637281031e+00	 2.193395509621733e-01	 1.245139651203438e+01
 1.341556099651152e+00	 2.506293097199832e-01	 1.238050385905845e+01
 1.337215577843965e+00	 2.818499085739595e-01	 1.229932984204616e+01
 1.332296861807227e+00	 3.129807691279275e-01	 1.220729466246985e+01
 1.371427118099289e+00	 0.000000000000000e+00	 1.260638151350988e+01
 1.371199216879492e+00	 3.156860297462624e-02	 1.258805976280575e+01
 1.370504915546047e+00	 6.319831386641224e-02	 1.256492139811563e+01
 1.369328440293738e+00	 9.487216718673007e-02	 1.253619851783095e+01
 1.367654217435671e+00	 1.265725782200777e-01	 1.250113217071016e+01
 1.365466920266081e+00	 1.582813617277929e-01	 1.245897879983314e+01
 1.362751517252028e+00	 1.899797538115409e-01	 1.240901718539385e+01
 1.359493321372499e+00	 2.216484369967183e-01	 1.235055585476987e+01
 1.355678040403714e+00	 2.532675685767853e-01	 1.228294091698405e+01
 1.351291827930385e+00	 2.848168122386797e-01	 1.220556426662050e+01
 1.346321334844147e+00	 3.162753729669972e-01	 1.211787208966039e+01
 1.385713095165209e+00	 0.000000000000000e+00	 1.250068261282108e+01
 1.385482819928202e+00	 3.189744898677063e-02	 1.248287598694592e+01
 1.384781286148537e+00	 6.385664244368242e-02	 1.246053001525475e+01
 1.383592555707320e+00	 9.586043815485464e-02	 1.243291188048786e+01
 1.381900892688592e+00	 1.278910682271282e-01	 1.239929703589199e+01
 1.379690810730285e+00	 1.599301579886133e-01	 1.235897536108459e+01
 1.376947121717941e+00	 1.919587480799270e-01	 1.231125779821550e+01
 1.373654985637756e+00	 2.239573197988867e-01	 1.225548343856428e+01
 1.369799961385716e+00	 2.559058237401017e-01	 1.219102701885659e+01
 1.365368058310225e+00	 2.877837117498259e-01	 1.211730677502062e+01
 1.360345788246990e+00	 3.195699721937289e-01	 1.203379258901185e+01
 1.399999048897318e+00	 0.000000000000000e+00	 1.240075021979335e+01
 1.399766399646979e+00	 3.222629446180800e-02	 1.238342536054807e+01
 1.399057633432906e+00	 6.451496994569926e-02	 1.236183086324489e+01
 1.397856647822801e+00	 9.684870750882919e-02	 1.233526724695557e+01
 1.396147544671901e+00	 1.292095560806813e-01	 1.230304253224111e+01
 1.393914677962101e+00	 1.615789515564481e-01	 1.226447811275879e+01
 1.391142702997676e+00	 1.939377391160178e-01	 1.221891508979241e+01
 1.387816626772285e+00	 2.262661988299577e-01	 1.216572104161651e+01
 1.383921859301924e+00	 2.585440745943648e-01	 1.210429718920864e+01
 1.379444265698925e+00	 2.907506064151547e-01	 1.203408590873967e+01
 1.374370218743297e+00	 3.228645660394258e-01	 1.195457852966789e+01
 1.414284975962072e+00	 0.000000000000000e+00	 1.230619417762558e+01
 1.414049952702832e+00	 3.255513932300882e-02	 1.228931044143049e+01
 1.413333954067853e+00	 6.517329621885529e-02	 1.226841922828244e+01
 1.412120713311740e+00	 9.783697501806153e-02	 1.224285267722795e+01
 1.410394170061229e+00	 1.305280414730958e-01	 1.221194957197154e+01
 1.408138518642477e+00	 1.632277420465876e-01	 1.217506093196708e+01
 1.405338257778788e+00	 1.959167264580614e-01	 1.213155605020561e+01
 1.401978241471570e+00	 2.285750735512108e-01	 1.208082895145497e+01
 1.398043730857107e+00	 2.611823205240068e-01	 1.202230523475764e+01
 1.393520446811928e+00	 2.937174955424229e-01	 1.195544925337544e+01
 1.388394623060607e+00	 3.261591537353912e-01	 1.187977157423992e+01
 1.428570873025926e+00	 0.000000000000000e+00	 1.221663993133291e+01
 1.428333475762771e+00	 3.288398349364353e-02	 1.220014968057679e+01
 1.427610244722076e+00	 6.583162110954309e-02	 1.217990658053817e+01
 1.426384748845693e+00	 9.882524045195930e-02	 1.215527270427471e+01
 1.424640765532204e+00	 1.318465240967308e-01	 1.212561582614551e+01
 1.422362329452363e+00	 1.648765290743223e-01	 1.209031473604046e+01
 1.419533782748831e+00	 1.978957096443060e-01	 1.204876498520895e+01
 1.416139826431091e+00	 2.308839434239253e-01	 1.200038503935760e+01
 1.412165572756028e+00	 2.638205609134598e-01	 1.194462280517786e+01
 1.407596598364675e+00	 2.966843784393872e-01	 1.188096248630041e+01
 1.402418997926461e+00	 3.294537345129283e-01	 1.180893171400205e+01
 1.262174316647597e+00	 2.965077076518963e-01	 1.275275630042809e+01
 1.256955109454539e+00	 3.258931111168156e-01	 1.262716393134765e+01
 1.251164783723348e+00	 3.551534180596824e-01	 1.249663505872463e+01
 1.244792515783490e+00	 3.842681099253539e-01	 1.236097475543638e+01
 1.237828140375747e+00	 4.132164007555682e-01	 1.221999901289626e+01
 1.230262197256569e+00	 4.419772843415474e-01	 1.207353639071759e+01
 1.222085976622863e+00	 4.705295839165800e-01	 1.192142970189665e+01
 1.213291563054103e+00	 4.988520042113921e-01	 1.176353771365338e+01
 1.203871877666055e+00	 5.269231856692950e-01	 1.159973684171818e+01
 1.193820718170790e+00	 5.547217605929656e-01	 1.142992281372914e+01
 1.183132796540936e+00	 5.822264109706171e-01	 1.125401227559085e+01
 1.276198838767993e+00	 2.998023230222043e-01	 1.262870293489669e+01
 1.270921638882720e+00	 3.295142394221146e-01	 1.250865930710735e+01
 1.265066974533483e+00	 3.590996693027053e-01	 1.238397152934362e+01
 1.258623901783632e+00	 3.885378661189792e-01	 1.225447232259939e+01
 1.251582142423700e+00	 4.178078129515949e-01	 1.212000024845354e+01
 1.243932131093599e+00	 4.468882701834049e-01	 1.198040078653496e+01
 1.235665061212145e+00	 4.757578257441907e-01	 1.183552746582431e+01
 1.226772929407417e+00	 5.043949477444406e-01	 1.168524303940793e+01
 1.217248578138877e+00	 5.327780392929062e-01	 1.152942069035820e+01
 1.207085736202502e+00	 5.608854952672500e-01	 1.136794525452204e+01
 1.196279056813543e+00	 5.886957607827461e-01	 1.120071444421232e+01
 1.290223357616614e+00	 3.030969376236583e-01	 1.251270854666557e+01
 1.284888165052574e+00	 3.331353668823323e-01	 1.239805282639888e+01
 1.278969162100207e+00	 3.630459196247387e-01	 1.227900957393496e+01
 1.272455284556780e+00	 3.928076213160798e-01	 1.215543736323982e+01
 1.265336141262610e+00	 4.223992240759926e-01	 1.202719595623763e+01
 1.257602061741100e+00	 4.517992548790162e-01	 1.189414685197044e+01
 1.249244142632999e+00	 4.809860663514812e-01	 1.175615390607303e+01
 1.240254292615020e+00	 5.099378899836977e-01	 1.161308401890797e+01
 1.230625275490343e+00	 5.386328915499143e-01	 1.146480788915036e+01
 1.220350751138874e+00	 5.670492285028369e-01	 1.131120082793896e+01
 1.209425314018505e+00	 5.951651090848595e-01	 1.115214362695773e+01
 1.304247869921001e+00	 3.063915506875612e-01	 1.240418223976134e+01
 1.298854684705190e+00	 3.367564926525975e-01	 1.229474749759670e+01
 1.292871343179647e+00	 3.669921681050627e-01	 1.218114882354730e+01
 1.286286660875609e+00	 3.970773745204665e-01	 1.206326892535501e+01
 1.279090133683234e+00	 4.269906330575335e-01	 1.194098746052012e+01
 1.271271986009470e+00	 4.567102372825999e-01	 1.181418109984895e+01
 1.262823217717048e+00	 4.862143045186584e-01	 1.168272367598323e+01
 1.253735649531359e+00	 5.154808296359515e-01	 1.154648642325798e+01
 1.244001966599343e+00	 5.444877410743382e-01	 1.140533831403866e+01
 1.233615759884871e+00	 5.732129588616810e-01	 1.125914649522803e+01
 1.222571565088504e+00	 6.016344543676050e-01	 1.110777682691868e+01
 1.318272372408692e+00	 3.096861614452167e-01	 1.230255825813540e+01
 1.312821194581664e+00	 3.403776158880397e-01	 1.219817172839250e+01
 1.306773514527932e+00	 3.709384138229578e-01	 1.208981445225718e+01
 1.300118027512793e+00	 4.013471247359494e-01	 1.197739162476688e+01
 1.292844116476331e+00	 4.315820388249894e-01	 1.186080155651186e+01
 1.284941900709110e+00	 4.616212162483760e-01	 1.173993529311421e+01
 1.276402283295917e+00	 4.914425390259288e-01	 1.161467633257086e+01
 1.267216997010882e+00	 5.210237654079906e-01	 1.148490045409689e+01
 1.257378648344766e+00	 5.503425865001975e-01	 1.135047567124640e+01
 1.246880759345454e+00	 5.793766849057361e-01	 1.121126232083062e+01
 1.235717806956221e+00	 6.081037951216303e-01	 1.106711329748410e+01
 1.332296861807227e+00	 3.129807691279275e-01	 1.220729466246985e+01
 1.326787691423086e+00	 3.439987357437876e-01	 1.210777798894170e+01
 1.320675672901189e+00	 3.748846558577046e-01	 1.200445583274368e+01
 1.313949381241011e+00	 4.056168709663394e-01	 1.189725429938226e+01
 1.306598086432660e+00	 4.361734403071328e-01	 1.178608916971203e+01
 1.298611802650422e+00	 4.665321906305634e-01	 1.167086511578836e+01
 1.289981336201229e+00	 4.966707686534989e-01	 1.155147502570799e+01
 1.280698331908039e+00	 5.265666960066030e-01	 1.142779945766696e+01
 1.270755317605502e+00	 5.561974264615115e-01	 1.129970624292234e+01
 1.260145746425587e+00	 5.855404051969570e-01	 1.116705025627945e+01
 1.248864036554340e+00	 6.145731298375837e-01	 1.102967337111098e+01
 1.346321334844147e+00	 3.162753729669972e-01	 1.211787208966039e+01
 1.340754171970549e+00	 3.476198513749700e-01	 1.202304155854065e+01
 1.334577815055549e+00	 3.788308932885835e-01	 1.192454527586688e+01
 1.327780718832936e+00	 4.098866122154465e-01	 1.182232874753914e+01
 1.320352040342977e+00	 4.407648364327352e-01	 1.171632409902518e+01
 1.312281688643806e+00	 4.714431592833817e-01	 1.160644892697407e+01
 1.303560373264609e+00	 5.018989921815753e-01	 1.149260526920747e+01
 1.294179651077275e+00	 5.321096201385769e-01	 1.137467871923157e+01
 1.284131971260440e+00	 5.620522595922992e-01	 1.125253771116288e+01
 1.273410718030233e+00	 5.917041182972974e-01	 1.112603300008244e+01
 1.262010250815542e+00	 6.210424570061129e-01	 1.099499736127700e+01
 1.360345788246990e+00	 3.195699721937289e-01	 1.203379258901185e+01
 1.354720632965146e+00	 3.512409619367159e-01	 1.194345934980810e+01
 1.348479937747139e+00	 3.827771251948748e-01	 1.184957684818961e+01
 1.341612037061243e+00	 4.141563474870811e-01	 1.175210854437235e+01
 1.334105974998042e+00	 4.453562261305693e-01	 1.165100183760281e+01
 1.325951555499662e+00	 4.763541210610502e-01	 1.154618659190796e+01
 1.317139391317681e+00	 5.071272083903644e-01	 1.143757378790257e+01
 1.307660951373040e+00	 5.376525365107007e-01	 1.132505433204503e+01
 1.297508606188468e+00	 5.679070845265797e-01	 1.120849805475556e+01
 1.286675671064355e+00	 5.978678227687122e-01	 1.108775292811019e+01
 1.275156446672509e+00	 6.275117751178659e-01	 1.096264453233538e+01
 1.374370218743297e+00	 3.228645660394258e-01	 1.195457852966789e+01
 1.368687071147968e+00	 3.548620665841546e-01	 1.186854880483658e+01
 1.362382037732088e+00	 3.867233506558594e-01	 1.177906526187662e+01
 1.355443332698608e+00	 4.184260757850536e-01	 1.168610793062747e+01
 1.347859887188615e+00	 4.499476083294069e-01	 1.158963846585905e+01
 1.339621400028392e+00	 4.812650748177886e-01	 1.148959838456314e+01
 1.330718387192070e+00	 5.123554160600730e-01	 1.138590743529472e+01
 1.321142229649782e+00	 5.431954438297626e-01	 1.127846213555083e+01
 1.310885219268478e+00	 5.737618998983726e-01	 1.116713451345097e+01
 1.299940602432917e+00	 6.040315171731547e-01	 1.105177108945273e+01
 1.288302621057924e+00	 6.339810826634908e-01	 1.093219213242325e+01
 1.388394623060607e+00	 3.261591537353912e-01	 1.187977157423992e+01
 1.382653483260108e+00	 3.584831644724148e-01	 1.179784685822583e+01
 1.376284111766524e+00	 3.906695687508174e-01	 1.171254483185481e+01
 1.369274602517707e+00	 4.226957961131750e-01	 1.162386076880160e+01
 1.361613773705451e+00	 4.545389819580201e-01	 1.153176961155869e+01
 1.353291219040396e+00	 4.861760194078157e-01	 1.143622395674334e+01
 1.344297357719400e+00	 5.175836139709075e-01	 1.133715217678130e+01
 1.334623482761948e+00	 5.487383408025508e-01	 1.123445671791453e+01
 1.324261807379358e+00	 5.796167043416971e-01	 1.112801261498944e+01
 1.313205509040881e+00	 6.101952000725799e-01	 1.101766626311725e+01
 1.301448770904468e+00	 6.404503781336350e-01	 1.090323448496599e+01
 1.402418997926461e+00	 3.294537345129283e-01	 1.180893171400205e+01
 1.396619866042658e+00	 3.621042547566253e-01	 1.173090896231834e+01
 1.390186156606576e+00	 3.946157785590295e-01	 1.164956849552775e+01
 1.383105843291214e+00	 4.269655074752547e-01	 1.156491956189942e+01
 1.375367631339310e+00	 4.591303459451807e-01	 1.147694947228374e+01
 1.366961009346076e+00	 4.910869536853510e-01	 1.138562136901507e+01
 1.357876299731293e+00	 5.228118009030744e-01	 1.129087213387370e+01
 1.348104707563986e+00	 5.542812261358537e-01	 1.119261047838905e+01
 1.337638367399997e+00	 5.854714964905721e-01	 1.109071526049111e+01
 1.326470387793212e+00	 6.163588700289419e-01	 1.098503407130933e+01
 1.314594893144823e+00	 6.469196600189466e-01	 1.087538213467727e+01
 1.183132796540936e+00	 5.822264109706171e-01	 1.125401227559085e+01
 1.171802959632020e+00	 6.094178182985777e-01	 1.107039851648349e+01
 1.159828581322929e+00	 6.362729960993709e-01	 1.087795799266475e+01
 1.147207321243899e+00	 6.627711229717850e-01	 1.067731142940159e+01
 1.133937874613762e+00	 6.888916695037870e-01	 1.046907567583021e+01
 1.120019993718943e+00	 7.146144600257595e-01	 1.025385828847308e+01
 1.105454505428850e+00	 7.399197341251366e-01	 1.003225210371103e+01
 1.090243324556970e+00	 7.647882075584607e-01	 9.804829879075019e+00
 1.074389462904693e+00	 7.892011321926621e-01	 9.572139085358117e+00
 1.057897033854956e+00	 8.131403546067386e-01	 9.334696931853054e+00
 1.040771252414892e+00	 8.365883729880681e-01	 9.092985705383898e+00
 1.196279056813543e+00	 5.886957607827461e-01	 1.120071444421232e+01
 1.184823329568884e+00	 6.161893026801177e-01	 1.102599353266516e+01
 1.172715899167537e+00	 6.433428790699680e-01	 1.084252176776428e+01
 1.159954399234961e+00	 6.701354371961921e-01	 1.065087963998563e+01
 1.146537510492046e+00	 6.965462195362728e-01	 1.045163967053197e+01
 1.132464982472780e+00	 7.225548262406800e-01	 1.024536115824963e+01
 1.117737651234249e+00	 7.481412773310235e-01	 1.003258496833190e+01
 1.102357452866200e+00	 7.732860742889249e-01	 9.813828442467052e+00
 1.086327432635354e+00	 7.979702606633312e-01	 9.589580511223389e+00
 1.069651749630091e+00	 8.221754813233386e-01	 9.360297088734592e+00
 1.052335676803569e+00	 8.458840399867048e-01	 9.126396827072199e+00
 1.209425314018505e+00	 5.951651090848595e-01	 1.115214362695773e+01
 1.197843696467493e+00	 6.229607854811509e-01	 1.098578619212199e+01
 1.185603214004979e+00	 6.504127603904537e-01	 1.081074233833898e+01
 1.172701474251644e+00	 6.774997497018224e-01	 1.062755374604109e+01
 1.159137143430437e+00	 7.042007677823064e-01	 1.043675048648820e+01
 1.144909968322899e+00	 7.304951906025160e-01	 1.023884593851841e+01
 1.130020794173789e+00	 7.563628186182840e-01	 1.003433179474784e+01
 1.114471578349102e+00	 7.817839390363610e-01	 9.823673236371874e+00
 1.098265399580877e+00	 8.067393870877569e-01	 9.607304355941977e+00
 1.081406462662920e+00	 8.312106059317127e-01	 9.385623905825689e+00
 1.063900098494396e+00	 8.551797048164093e-01	 9.158991446449765e+00
 1.222571565088504e+00	 6.016344543676050e-01	 1.110777682691868e+01
 1.210864057289905e+00	 6.297322651218270e-01	 1.094927587910010e+01
 1.198490522828354e+00	 6.574826384113476e-01	 1.078214321722946e+01
 1.185448543319761e+00	 6.848640587704881e-01	 1.060688313322776e+01
 1.171736770489137e+00	 7.118553124559704e-01	 1.042398511166600e+01
 1.157354948365572e+00	 7.384355512586466e-01	 1.023391892245113e+01
 1.142303931381488e+00	 7.645843560686765e-01	 1.003712984556307e+01
 1.126585698179115e+00	 7.902817998180376e-01	 9.834034106200093e+00
 1.110203360955788e+00	 8.155085094198991e-01	 9.625014598082720e+00
 1.093161170210711e+00	 8.402457263237395e-01	 9.410416970162185e+00
 1.075464514789027e+00	 8.644753653082524e-01	 9.190546147541792e+00
 1.235717806956221e+00	 6.081037951216303e-01	 1.106711329748410e+01
 1.223884408998180e+00	 6.365037400222964e-01	 1.091598327570473e+01
 1.211377822630763e+00	 6.645525114831703e-01	 1.075626818834159e+01
 1.198195603465128e+00	 6.922283626840025e-01	 1.058843635725895e+01
 1.184336388728350e+00	 7.195098517713456e-01	 1.041293852948442e+01
 1.169799919697071e+00	 7.463759063564521e-01	 1.023020315161294e+01
 1.154587059991365e+00	 7.728058877639603e-01	 1.004063181390774e+01
 1.138699809529677e+00	 7.987796546512245e-01	 9.844594941377862e+00
 1.122141313974611e+00	 8.242776256137182e-01	 9.642427807761710e+00
 1.104915869530733e+00	 8.492808403912976e-01	 9.434426945097409e+00
 1.087028922989120e+00	 8.737710192933065e-01	 9.220847016396842e+00
 1.248864036554340e+00	 6.145731298375837e-01	 1.102967337111098e+01
 1.236904748554374e+00	 6.432752086027080e-01	 1.088544924078212e+01
 1.224265110405305e+00	 6.716223779564416e-01	 1.073268023955309e+01
 1.210942651713557e+00	 6.995926597241778e-01	 1.057180013473864e+01
 1.196935995208283e+00	 7.271643839425148e-01	 1.040322277145536e+01
 1.182244879413671e+00	 7.543162540433125e-01	 1.022733753422113e+01
 1.166870177137439e+00	 7.810274117858940e-01	 1.004450501104133e+01
 1.150813909574226e+00	 8.072775015531899e-01	 9.855052935908528e+00
 1.134079255851869e+00	 8.330467336231737e-01	 9.659272483634254e+00
 1.116670557880252e+00	 8.583159460262669e-01	 9.457414987029050e+00
 1.098593320396328e+00	 8.830666646026432e-01	 9.249689140658417e+00
 1.262010250815542e+00	 6.210424570061129e-01	 1.099499736127700e+01
 1.249925072920549e+00	 6.500466692832125e-01	 1.085723375885239e+01
 1.237152383145082e+00	 6.786922361816812e-01	 1.071096056229517e+01
 1.223689685090863e+00	 7.069569481728269e-01	 1.055657839705420e+01
 1.209535586989136e+00	 7.348189071835588e-01	 1.039446602901857e+01
 1.194689824611643e+00	 7.622565924666073e-01	 1.022497601849776e+01
 1.179153279953728e+00	 7.892489262162363e-01	 1.004843060471711e+01
 1.162927995486199e+00	 8.157753385412044e-01	 9.865117895136573e+00
 1.146017183802085e+00	 8.418158314022254e-01	 9.675288431313762e+00
 1.128425232516537e+00	 8.673510411205255e-01	 9.479152198570565e+00
 1.110157704312310e+00	 8.923622990673346e-01	 9.276876140404829e+00
 1.275156446672509e+00	 6.275117751178659e-01	 1.096264453233538e+01
 1.262945379058761e+00	 6.568181204839599e-01	 1.083091495403927e+01
 1.250039637843193e+00	 6.857620845094093e-01	 1.069070761299924e+01
 1.236436700622858e+00	 7.143212263117624e-01	 1.054239140277551e+01
 1.222135161131115e+00	 7.424734197085595e-01	 1.038631182029989e+01
 1.207134752387260e+00	 7.701969197737164e-01	 1.022278681714114e+01
 1.191436365574252e+00	 7.974704291367465e-01	 1.005210290464548e+01
 1.175042064439034e+00	 8.242731636325358e-01	 9.874511585380581e+00
 1.157955095039786e+00	 8.505849169048342e-01	 9.690226180228477e+00
 1.140179890696855e+00	 8.763861235659529e-01	 9.499419115538208e+00
 1.121722072038720e+00	 9.016579205184524e-01	 9.302219728001585e+00
 1.288302621057924e+00	 6.339810826634908e-01	 1.093219213242325e+01
 1.275965663931068e+00	 6.635895606250993e-01	 1.080608816435569e+01
 1.262926871492737e+00	 6.928319212901460e-01	 1.067153623199076e+01
 1.249183695335358e+00	 7.216854924227970e-01	 1.052887490438263e+01
 1.234734714694425e+00	 7.501279197315989e-01	 1.037841820787072e+01
 1.219579659836794e+00	 7.781372341120201e-01	 1.022045167926638e+01
 1.203719431133027e+00	 8.056919186291830e-01	 1.005522869169272e+01
 1.187156113606170e+00	 8.327709748444542e-01	 9.882967123374204e+00
 1.169892986779494e+00	 8.593539880849598e-01	 9.703846436171524e+00
 1.151934529678472e+00	 8.854211912544275e-01	 9.518005225338388e+00
 1.133286420877215e+00	 9.109535267870686e-01	 9.325539294894414e+00
 1.301448770904468e+00	 6.404503781336350e-01	 1.090323448496599e+01
 1.288985924499531e+00	 6.703609881267809e-01	 1.078236507207819e+01
 1.275814081086816e+00	 6.999017448744109e-01	 1.065307681576947e+01
 1.261930666254174e+00	 7.290497447877435e-01	 1.051567936548144e+01
 1.247334244739268e+00	 7.577824054667585e-01	 1.037045706390360e+01
 1.232024544056519e+00	 7.860775336288979e-01	 1.021766520645892e+01
 1.216002473764073e+00	 8.139133927753053e-01	 1.005752658772383e+01
 1.199270140161044e+00	 8.412687701942285e-01	 9.890228402700897e+00
 1.181830856235734e+00	 8.681230428965618e-01	 9.715919567021011e+00
 1.163689146718658e+00	 8.944562420778287e-01	 9.534708514536348e+00
 1.144850748129450e+00	 9.202491157042549e-01	 9.346661523438614e+00
 1.314594893144823e+00	 6.469196600189466e-01	 1.087538213467727e+01
 1.302006157726207e+00	 6.771324014091545e-01	 1.075937288628569e+01
 1.288701263618528e+00	 7.069715536127238e-01	 1.063497453893983e+01
 1.274677610405123e+00	 7.364139816884141e-01	 1.050246922497426e+01
 1.259933748325849e+00	 7.654368751281202e-01	 1.036211337940697e+01
 1.244469402142706e+00	 7.940178164717294e-01	 1.021413420985433e+01
 1.228285490601410e+00	 8.221348496568718e-01	 1.005872646324497e+01
 1.211384141277094e+00	 8.497665476991278e-01	 9.896049554633571e+00
 1.193768700623030e+00	 8.768920792936009e-01	 9.726225119308928e+00
 1.175443739074679e+00	 9.034912739280352e-01	 9.549335043563431e+00
 1.156415051097081e+00	 9.295446851010828e-01	 9.365420022012575e+00
 1.040771252414892e+00	 8.365883729880681e-01	 9.092985705383898e+00
 1.023018427960310e+00	 8.595283939712974e-01	 8.841520118421597e+00
 1.004645946972983e+00	 8.819443910647330e-01	 8.575543917895972e+00
 9.856622672384795e-01	 9.038211482654626e-01	 8.296683089124437e+00
 9.660769020995830e-01	 9.251443046312183e-01	 8.006659984058818e+00
 9.459003975030937e-01	 9.459003975030944e-01	 7.707281232830290e+00
 9.251443046312178e-01	 9.660769020995831e-01	 7.400424630256731e+00
 9.038211482654623e-01	 9.856622672384796e-01	 7.088025179632004e+00
 8.819443910647331e-01	 1.004645946972983e+00	 6.772060492830053e+00
 8.595283939712971e-01	 1.023018427960311e+00	 6.454535757872423e+00
 8.365883729880681e-01	 1.040771252414892e+00	 6.137468492268752e+00
 1.052335676803569e+00	 8.458840399867048e-01	 9.126396827072199e+00
 1.034385593637595e+00	 8.690789566902977e-01	 8.882564063225505e+00
 1.015808968688077e+00	 8.917440268656871e-01	 8.624197050547957e+00
 9.966143537184107e-01	 9.138638654388909e-01	 8.352833273766166e+00
 9.768113677779181e-01	 9.354239518974904e-01	 8.070106194219914e+00
 9.564106739936137e-01	 9.564106739936139e-01	 7.777733856252688e+00
 9.354239518974901e-01	 9.768113677779182e-01	 7.477506470198046e+00
 9.138638654388903e-01	 9.966143537184112e-01	 7.171273144290129e+00
 8.917440268656868e-01	 1.015808968688077e+00	 6.860927954647254e+00
 8.690789566902973e-01	 1.034385593637595e+00	 6.548395554927385e+00
 8.458840399867049e-01	 1.052335676803569e+00	 6.235616534974706e+00
 1.063900098494396e+00	 8.551797048164093e-01	 9.158991446449765e+00
 1.045752756663082e+00	 8.786295171809760e-01	 8.922266467064190e+00
 1.026971987799014e+00	 9.015436603802878e-01	 8.671006218965069e+00
 1.007566437643386e+00	 9.239065802693275e-01	 8.406662873336220e+00
 9.875458309520403e-01	 9.457035967655604e-01	 8.130784042537311e+00
 9.669209480321814e-01	 9.669209480321818e-01	 7.845002056241713e+00
 9.457035967655600e-01	 9.875458309520405e-01	 7.551022217582842e+00
 9.239065802693268e-01	 1.007566437643387e+00	 7.250610201982785e+00
 9.015436603802873e-01	 1.026971987799014e+00	 6.945578778224372e+00
 8.786295171809756e-01	 1.045752756663083e+00	 6.637774044069470e+00
 8.551797048164094e-01	 1.063900098494396e+00	 6.329061376952382e+00
 1.075464514789027e+00	 8.644753653082524e-01	 9.190546147541792e+00
 1.057119914384448e+00	 8.881800732149159e-01	 8.960441241862011e+00
 1.038135001701094e+00	 9.113432893219885e-01	 8.715821962169526e+00
 1.018518516457923e+00	 9.339492904134958e-01	 8.458058298703222e+00
 9.982802891172464e-01	 9.559832368368600e-01	 8.188615005158111e+00
 9.774312171664081e-01	 9.774312171664084e-01	 7.909041519936478e+00
 9.559832368368598e-01	 9.982802891172471e-01	 7.620960872565062e+00
 9.339492904134957e-01	 1.018518516457923e+00	 7.326057728627855e+00
 9.113432893219882e-01	 1.038135001701094e+00	 7.026065743479824e+00
 8.881800732149152e-01	 1.057119914384449e+00	 6.722754407995616e+00
 8.644753653082524e-01	 1.075464514789027e+00	 6.417915578289564e+00
 1.087028922989120e+00	 8.737710192933065e-01	 9.220847016396842e+00
 1.068487064149366e+00	 8.977306225636994e-01	 8.996910213219817e+00
 1.049298007789620e+00	 9.211429114042431e-01	 8.758501174367762e+00
 1.029470587606540e+00	 9.439919935281210e-01	 8.506910789599740e+00
 1.009014739768834e+00	 9.662628697128208e-01	 8.243523895129378e+00
 9.879414789439063e-01	 9.879414789439066e-01	 7.969809815798800e+00
 9.662628697128207e-01	 1.009014739768835e+00	 7.687311899289601e+00
 9.439919935281209e-01	 1.029470587606540e+00	 7.397636186718813e+00
 9.211429114042424e-01	 1.049298007789620e+00	 7.102439380876538e+00
 8.977306225636988e-01	 1.068487064149366e+00	 6.803416286553076e+00
 8.737710192933065e-01	 1.087028922989120e+00	 6.502286906494181e+00
 1.098593320396328e+00	 8.830666646026432e-01	 9.249689140658417e+00
 1.079854203305508e+00	 9.072811629989098e-01	 9.031502703572405e+00
 1.060461003459893e+00	 9.309425243405042e-01	 8.798906770124070e+00
 1.040422648533754e+00	 9.540346872699265e-01	 8.553116160120958e+00
 1.019749180402101e+00	 9.765424929948752e-01	 8.295438686415153e+00
 9.984517309122878e-01	 9.984517309122882e-01	 8.027266294235528e+00
 9.765424929948747e-01	 1.019749180402101e+00	 7.750065201109396e+00
 9.540346872699262e-01	 1.040422648533754e+00	 7.465365173038094e+00
 9.309425243405040e-01	 1.060461003459894e+00	 7.174748089455765e+00
 9.072811629989095e-01	 1.079854203305509e+00	 6.879835962852173e+00
 8.830666646026430e-01	 1.098593320396329e+00	 6.582278588390270e+00
 1.110157704312310e+00	 8.923622990673346e-01	 9.276876140404829e+00
 1.091221329200549e+00	 9.168316922921298e-01	 9.064055141391727e+00
 1.071623986107216e+00	 9.407421258442269e-01	 8.836907370455570e+00
 1.051374696684083e+00	 9.640773692956361e-01	 8.596574560125255e+00
 1.030483608512344e+00	 9.868221042844536e-01	 8.344290348909503e+00
 1.008961970619164e+00	 1.008961970619164e+00	 8.081371994430562e+00
 9.868221042844530e-01	 1.030483608512344e+00	 7.809211097351326e+00
 9.640773692956357e-01	 1.051374696684084e+00	 7.529263463389202e+00
 9.407421258442266e-01	 1.071623986107216e+00	 7.243038247495804e+00
 9.168316922921292e-01	 1.091221329200549e+00	 6.952086537749981e+00
 8.923622990673349e-01	 1.110157704312310e+00	 6.657989546274619e+00
 1.121722072038720e+00	 9.016579205184524e-01	 9.302219728001585e+00
 1.102588439182163e+00	 9.263822082149419e-01	 9.094410694556530e+00
 1.082786953126889e+00	 9.505417136288637e-01	 8.872377008338519e+00
 1.062326729502046e+00	 9.741200372619742e-01	 8.637190251389619e+00
 1.041218021594859e+00	 9.971017011829885e-01	 8.390012693652272e+00
 1.019472195612146e+00	 1.019472195612146e+00	 8.132089556938309e+00
 9.971017011829884e-01	 1.041218021594859e+00	 7.864740301518649e+00
 9.741200372619737e-01	 1.062326729502046e+00	 7.589349054562674e+00
 9.505417136288635e-01	 1.082786953126890e+00	 7.307354316327720e+00
 9.263822082149412e-01	 1.102588439182163e+00	 7.020238093544284e+00
 9.016579205184526e-01	 1.121722072038720e+00	 6.729514619469948e+00
 1.133286420877215e+00	 9.109535267870686e-01	 9.325539294894414e+00
 1.113955530598024e+00	 9.359327085389288e-01	 9.122418926162952e+00
 1.093949901914216e+00	 9.603412854078683e-01	 8.905194852240260e+00
 1.073278744432160e+00	 9.841626888256640e-01	 8.674871397466333e+00
 1.051952417144943e+00	 1.007381281291911e+00	 8.432542227518919e+00
 1.029982403438847e+00	 1.029982403438848e+00	 8.179383141627111e+00
 1.007381281291911e+00	 1.051952417144943e+00	 7.916643900827978e+00
 9.841626888256638e-01	 1.073278744432160e+00	 7.645639203733481e+00
 9.603412854078678e-01	 1.093949901914216e+00	 7.367738937796852e+00
 9.359327085389286e-01	 1.113955530598024e+00	 7.084357847648205e+00
 9.109535267870685e-01	 1.133286420877215e+00	 6.796944772317092e+00
 1.144850748129450e+00	 9.202491157042549e-01	 9.346661523438614e+00
 1.125322600795804e+00	 9.454831910356732e-01	 9.147935471189504e+00
 1.105112829864497e+00	 9.701408388946942e-01	 8.935244946402447e+00
 1.084230738918943e+00	 9.942053216434308e-01	 8.709529866272133e+00
 1.062686792657895e+00	 1.017660842212654e+00	 8.471818016714700e+00
 1.040492591646879e+00	 1.040492591646879e+00	 8.223218350594557e+00
 1.017660842212653e+00	 1.062686792657896e+00	 7.964913336985912e+00
 9.942053216434305e-01	 1.084230738918943e+00	 7.698150465471430e+00
 9.701408388946938e-01	 1.105112829864497e+00	 7.424233025818931e+00
 9.454831910356730e-01	 1.125322600795804e+00	 7.144510296953606e+00
 9.202491157042547e-01	 1.144850748129450e+00	 6.860367289565130e+00
 1.156415051097081e+00	 9.295446851010828e-01	 9.365420022012575e+00
 1.136689647123178e+00	 9.550336534767583e-01	 9.170821732557179e+00
 1.116275734373034e+00	 9.799403718027949e-01	 8.962415966703080e+00
 1.095182710406913e+00	 1.004247933371997e+00	 8.741081044519149e+00
 1.073421145629011e+00	 1.027940381546648e+00	 8.507781558457285e+00
 1.051002757783851e+00	 1.051002757783852e+00	 8.263562155706843e+00
 1.027940381546647e+00	 1.073421145629011e+00	 8.009540388118980e+00
 1.004247933371997e+00	 1.095182710406913e+00	 7.746898726531378e+00
 9.799403718027947e-01	 1.116275734373035e+00	 7.476875852444618e+00
 9.550336534767578e-01	 1.136689647123179e+00	 7.200757353535169e+00
 9.295446851010828e-01	 1.156415051097081e+00	 6.919865960041143e+00
 8.365883729880681e-01	 1.040771252414892e+00	 6.137468492268752e+00
 8.131403546067379e-01	 1.057897033854957e+00	 5.817548058320944e+00
 7.892011321926615e-01	 1.074389462904693e+00	 5.491585591914911e+00
 7.647882075584603e-01	 1.090243324556970e+00	 5.161830824652212e+00
 7.399197341251362e-01	 1.105454505428851e+00	 4.830585073459258e+00
 7.146144600257591e-01	 1.120019993718943e+00	 4.500183146340021e+00
 6.888916695037869e-01	 1.133937874613762e+00	 4.172975312877510e+00
 6.627711229717848e-01	 1.147207321243900e+00	 3.851309588483688e+00
 6.362729960993706e-01	 1.159828581322929e+00	 3.537514566138621e+00
 6.094178182985774e-01	 1.171802959632020e+00	 3.233883009648260e+00
 5.822264109706172e-01	 1.183132796540936e+00	 2.942656399069588e+00
 8.458840399867049e-01	 1.052335676803569e+00	 6.235616534974706e+00
 8.221754813233382e-01	 1.069651749630091e+00	 5.919361143202604e+00
 7.979702606633309e-01	 1.086327432635354e+00	 5.596552762868575e+00
 7.732860742889248e-01	 1.102357452866200e+00	 5.269419060188806e+00
 7.481412773310232e-01	 1.117737651234249e+00	 4.940245629276829e+00
 7.225548262406796e-01	 1.132464982472780e+00	 4.611357809299545e+00
 6.965462195362724e-01	 1.146537510492047e+00	 4.285102498096869e+00
 6.701354371961920e-01	 1.159954399234961e+00	 3.963830216397170e+00
 6.433428790699675e-01	 1.172715899167537e+00	 3.649877662424199e+00
 6.161893026801172e-01	 1.184823329568884e+00	 3.345550977719609e+00
 5.886957607827459e-01	 1.196279056813543e+00	 3.053109922168518e+00
 8.551797048164094e-01	 1.063900098494396e+00	 6.329061376952382e+00
 8.312106059317125e-01	 1.081406462662920e+00	 6.016297828227085e+00
 8.067393870877567e-01	 1.098265399580878e+00	 5.696522838385528e+00
 7.817839390363607e-01	 1.114471578349103e+00	 5.371939888114865e+00
 7.563628186182836e-01	 1.130020794173789e+00	 5.044816126763955e+00
 7.304951906025154e-01	 1.144909968322899e+00	 4.717464138807511e+00
 7.042007677823060e-01	 1.159137143430437e+00	 4.392223643856482e+00
 6.774997497018219e-01	 1.172701474251644e+00	 4.071443388646630e+00
 6.504127603904530e-01	 1.185603214004979e+00	 3.757463475978455e+00
 6.229607854811502e-01	 1.197843696467493e+00	 3.452598357320354e+00
 5.951651090848594e-01	 1.209425314018505e+00	 3.159120693492205e+00
 8.644753653082524e-01	 1.075464514789027e+00	 6.417915578289564e+00
 8.402457263237391e-01	 1.093161170210712e+00	 6.108498126531831e+00
 8.155085094198986e-01	 1.110203360955788e+00	 5.791660531109007e+00
 7.902817998180374e-01	 1.126585698179116e+00	 5.469580063293758e+00
 7.645843560686761e-01	 1.142303931381488e+00	 5.144502816837639e+00
 7.384355512586462e-01	 1.157354948365572e+00	 4.818725460596196e+00
 7.118553124559701e-01	 1.171736770489137e+00	 4.494576867038591e+00
 6.848640587704878e-01	 1.185448543319762e+00	 4.174399878563425e+00
 6.574826384113471e-01	 1.198490522828354e+00	 3.860533460910343e+00
 6.297322651218268e-01	 1.210864057289906e+00	 3.555295475384955e+00
 6.016344543676049e-01	 1.222571565088503e+00	 3.260966279853673e+00
 8.737710192933065e-01	 1.087028922989120e+00	 6.502286906494181e+00
 8.492808403912974e-01	 1.104915869530733e+00	 6.196096090862646e+00
 8.242776256137179e-01	 1.122141313974611e+00	 5.882123542682387e+00
 7.987796546512239e-01	 1.138699809529677e+00	 5.562518392085109e+00
 7.728058877639600e-01	 1.154587059991365e+00	 5.239503172779518e+00
 7.463759063564516e-01	 1.169799919697072e+00	 4.915355596682581e+00
 7.195098517713455e-01	 1.184336388728351e+00	 4.592390151923665e+00
 6.922283626840020e-01	 1.198195603465128e+00	 4.272939788839369e+00
 6.645525114831701e-01	 1.211377822630763e+00	 3.959337946727926e+00
 6.365037400222959e-01	 1.223884408998181e+00	 3.653901157219384e+00
 6.081037951216300e-01	 1.235717806956221e+00	 3.358912438890647e+00
 8.830666646026430e-01	 1.098593320396329e+00	 6.582278588390270e+00
 8.583159460262664e-01	 1.116670557880253e+00	 6.279220126943779e+00
 8.330467336231733e-01	 1.134079255851869e+00	 5.968062932427443e+00
 8.072775015531897e-01	 1.150813909574226e+00	 5.650926150380828e+00
 7.810274117858935e-01	 1.166870177137439e+00	 5.330006351927908e+00
 7.543162540433123e-01	 1.182244879413672e+00	 5.007559365294941e+00
 7.271643839425146e-01	 1.196935995208283e+00	 4.685881883237084e+00
 6.995926597241775e-01	 1.210942651713558e+00	 4.367293112914248e+00
 6.716223779564410e-01	 1.224265110405306e+00	 4.054116723642716e+00
 6.432752086027077e-01	 1.236904748554375e+00	 3.748663331673975e+00
 6.145731298375836e-01	 1.248864036554340e+00	 3.453213740450450e+00
 8.923622990673349e-01	 1.110157704312310e+00	 6.657989546274619e+00
 8.673510411205249e-01	 1.128425232516537e+00	 6.357993287268011e+00
 8.418158314022248e-01	 1.146017183802086e+00	 6.049623462986823e+00
 8.157753385412038e-01	 1.162927995486199e+00	 5.734967475521177e+00
 7.892489262162360e-01	 1.179153279953729e+00	 5.416193628522186e+00
 7.622565924666068e-01	 1.194689824611644e+00	 5.095533049562357e+00
 7.348189071835585e-01	 1.209535586989136e+00	 4.775261345890219e+00
 7.069569481728264e-01	 1.223689685090863e+00	 4.457680261286349e+00
 6.786922361816808e-01	 1.237152383145082e+00	 4.145099591302415e+00
 6.500466692832122e-01	 1.249925072920549e+00	 3.839819598503253e+00
 6.210424570061129e-01	 1.262010250815542e+00	 3.544114149149284e+00
 9.016579205184526e-01	 1.121722072038720e+00	 6.729514619469948e+00
 8.763861235659521e-01	 1.140179890696855e+00	 6.432533546718963e+00
 8.505849169048336e-01	 1.157955095039786e+00	 6.126943924592256e+00
 8.242731636325352e-01	 1.175042064439034e+00	 5.814799733975063e+00
 7.974704291367462e-01	 1.191436365574252e+00	 5.498238799780458e+00
 7.701969197737161e-01	 1.207134752387260e+00	 5.179464837221039e+00
 7.424734197085591e-01	 1.222135161131116e+00	 4.860729193817429e+00
 7.143212263117621e-01	 1.236436700622859e+00	 4.544312555276306e+00
 6.857620845094089e-01	 1.250039637843193e+00	 4.232506873590831e+00
 6.568181204839595e-01	 1.262945379058760e+00	 3.927597760640815e+00
 6.275117751178659e-01	 1.275156446672509e+00	 3.631847570906235e+00
 9.109535267870685e-01	 1.133286420877215e+00	 6.796944772317092e+00
 8.854211912544271e-01	 1.151934529678473e+00	 6.502954061323102e+00
 8.593539880849593e-01	 1.169892986779494e+00	 6.200157439484826e+00
 8.327709748444536e-01	 1.187156113606170e+00	 5.890573866515483e+00
 8.056919186291830e-01	 1.203719431133028e+00	 5.576308567122062e+00
 7.781372341120194e-01	 1.219579659836794e+00	 5.259535233407078e+00
 7.501279197315985e-01	 1.234734714694425e+00	 4.942477890116724e+00
 7.216854924227964e-01	 1.249183695335357e+00	 4.627392690568890e+00
 6.928319212901455e-01	 1.262926871492738e+00	 4.316549901917261e+00
 6.635895606250989e-01	 1.275965663931068e+00	 4.012216323894731e+00
 6.339810826634908e-01	 1.288302621057924e+00	 3.716638366025354e+00
 9.202491157042547e-01	 1.144850748129450e+00	 6.860367289565130e+00
 8.944562420778284e-01	 1.163689146718658e+00	 6.569363411324129e+00
 8.681230428965616e-01	 1.181830856235735e+00	 6.269391747890727e+00
 8.412687701942280e-01	 1.199270140161045e+00	 5.962434712480659e+00
 8.139133927753052e-01	 1.216002473764074e+00	 5.650562894291623e+00
 7.860775336288973e-01	 1.232024544056519e+00	 5.335917448438060e+00
 7.577824054667582e-01	 1.247334244739269e+00	 5.020692120522384e+00
 7.290497447877430e-01	 1.261930666254174e+00	 4.707115172668461e+00
 6.999017448744103e-01	 1.275814081086816e+00	 4.397431469224260e+00
 6.703609881267807e-01	 1.288985924499531e+00	 4.093884966366255e+00
 6.404503781336349e-01	 1.301448770904468e+00	 3.798701831189710e+00
 9.295446851010828e-01	 1.156415051097081e+00	 6.919865960041143e+00
 9.034912739280351e-01	 1.175443739074679e+00	 6.631865829676546e+00
 8.768920792936006e-01	 1.193768700623031e+00	 6.334769476842693e+00
 8.497665476991274e-01	 1.211384141277095e+00	 6.030521314584686e+00
 8.221348496568712e-01	 1.228285490601410e+00	 5.721155344001563e+00
 7.940178164717289e-01	 1.244469402142706e+00	 5.408777762333870e+00
 7.654368751281195e-01	 1.259933748325849e+00	 5.095549182075507e+00
 7.364139816884138e-01	 1.274677610405123e+00	 4.783666726234280e+00
 7.069715536127235e-01	 1.288701263618529e+00	 4.475346256761347e+00
 6.771324014091542e-01	 1.302006157726207e+00	 4.172804979711058e+00
 6.469196600189466e-01	 1.314594893144823e+00	 3.878244652543722e+00
 5.822264109706172e-01	 1.183132796540936e+00	 2.942656399069588e+00
 5.547217605929659e-01	 1.193820718170789e+00	 2.664317639872122e+00
 5.269231856692952e-01	 1.203871877666055e+00	 2.398386322393924e+00
 4.988520042113924e-01	 1.213291563054103e+00	 2.145594953214621e+00
 4.705295839165803e-01	 1.222085976622864e+00	 1.906575221537556e+00
 4.419772843415477e-01	 1.230262197256569e+00	 1.681860220389616e+00
 4.132164007555683e-01	 1.237828140375747e+00	 1.471887450974092e+00
 3.842681099253542e-01	 1.244792515783489e+00	 1.277002511302517e+00
 3.551534180596826e-01	 1.251164783723347e+00	 1.097463367735475e+00
 3.258931111168158e-01	 1.256955109454539e+00	 9.334451078373012e-01
 2.965077076518963e-01	 1.262174316647596e+00	 7.850450747625508e-01
 5.886957607827459e-01	 1.196279056813543e+00	 3.053109922168520e+00
 5.608854952672502e-01	 1.207085736202502e+00	 2.772934273870624e+00
 5.327780392929063e-01	 1.217248578138877e+00	 2.504489117005858e+00
 5.043949477444409e-01	 1.226772929407417e+00	 2.248606726544629e+00
 4.757578257441908e-01	 1.235665061212146e+00	 2.006024053698120e+00
 4.468882701834050e-01	 1.243932131093599e+00	 1.777383801180374e+00
 4.178078129515951e-01	 1.251582142423700e+00	 1.563236304087633e+00
 3.885378661189793e-01	 1.258623901783632e+00	 1.364042131154492e+00
 3.590996693027055e-01	 1.265066974533483e+00	 1.180175316964388e+00
 3.295142394221147e-01	 1.270921638882720e+00	 1.011927133692142e+00
 2.998023230222043e-01	 1.276198838767993e+00	 8.595103109534468e-01
 5.951651090848594e-01	 1.209425314018505e+00	 3.159120693492202e+00
 5.670492285028373e-01	 1.220350751138875e+00	 2.877313193384521e+00
 5.386328915499144e-01	 1.230625275490343e+00	 2.606592683909533e+00
 5.099378899836980e-01	 1.240254292615020e+00	 2.347885671881764e+00
 4.809860663514815e-01	 1.249244142632999e+00	 2.102028603945118e+00
 4.517992548790164e-01	 1.257602061741100e+00	 1.869767850163441e+00
 4.223992240759929e-01	 1.265336141262610e+00	 1.651760514411054e+00
 3.928076213160800e-01	 1.272455284556779e+00	 1.448575999346352e+00
 3.630459196247389e-01	 1.278969162100207e+00	 1.260698247961678e+00
 3.331353668823325e-01	 1.284888165052573e+00	 1.088528580009618e+00
 3.030969376236582e-01	 1.290223357616614e+00	 9.323890398715131e-01
 6.016344543676049e-01	 1.222571565088503e+00	 3.260966279853676e+00
 5.732129588616812e-01	 1.233615759884870e+00	 2.977737349639610e+00
 5.444877410743385e-01	 1.244001966599343e+00	 2.704983275189513e+00
 5.154808296359519e-01	 1.253735649531359e+00	 2.443719434263262e+00
 4.862143045186587e-01	 1.262823217717048e+00	 2.194876184463843e+00
 4.567102372826002e-01	 1.271271986009470e+00	 1.959297807936320e+00
 4.269906330575337e-01	 1.279090133683234e+00	 1.737742302810843e+00
 3.970773745204668e-01	 1.286286660875608e+00	 1.530881961597822e+00
 3.669921681050630e-01	 1.292871343179647e+00	 1.339304669427773e+00
 3.367564926525978e-01	 1.298854684705190e+00	 1.163515849717236e+00
 3.063915506875612e-01	 1.304247869921001e+00	 1.003940981462041e+00
 6.081037951216300e-01	 1.235717806956221e+00	 3.358912438890648e+00
 5.793766849057363e-01	 1.246880759345453e+00	 3.074477656083405e+00
 5.503425865001976e-01	 1.257378648344766e+00	 2.799934965195885e+00
 5.210237654079908e-01	 1.267216997010882e+00	 2.536383422207540e+00
 4.914425390259290e-01	 1.276402283295917e+00	 2.284841885556742e+00
 4.616212162483762e-01	 1.284941900709110e+00	 2.046246973308757e+00
 4.315820388249896e-01	 1.292844116476330e+00	 1.821451885807566e+00
 4.013471247359497e-01	 1.300118027512793e+00	 1.611226045869029e+00
 3.709384138229581e-01	 1.306773514527931e+00	 1.416255499796391e+00
 3.403776158880399e-01	 1.312821194581663e+00	 1.237144015655960e+00
 3.096861614452166e-01	 1.318272372408692e+00	 1.074414810298847e+00
 6.145731298375836e-01	 1.248864036554340e+00	 3.453213740450450e+00
 5.855404051969570e-01	 1.260145746425586e+00	 3.167793621827743e+00
 5.561974264615117e-01	 1.270755317605502e+00	 2.891710291379997e+00
 5.265666960066031e-01	 1.280698331908039e+00	 2.626141451669981e+00
 4.966707686534990e-01	 1.289981336201229e+00	 2.372189218856207e+00
 4.665321906305637e-01	 1.298611802650422e+00	 2.130877142326479e+00
 4.361734403071331e-01	 1.306598086432659e+00	 1.903148107392429e+00
 4.056168709663396e-01	 1.313949381241011e+00	 1.689863084382011e+00
 3.748846558577049e-01	 1.320675672901190e+00	 1.491800677307229e+00
 3.439987357437878e-01	 1.326787691423086e+00	 1.309657416982682e+00
 3.129807691279275e-01	 1.332296861807227e+00	 1.144048737023744e+00
 6.210424570061129e-01	 1.262010250815542e+00	 3.544114149149284e+00
 5.917041182972975e-01	 1.273410718030232e+00	 3.257933945512403e+00
 5.620522595922993e-01	 1.284131971260440e+00	 2.980560855088445e+00
 5.321096201385771e-01	 1.294179651077275e+00	 2.713246349763393e+00
 5.018989921815754e-01	 1.303560373264609e+00	 2.457170720347534e+00
 4.714431592833819e-01	 1.312281688643805e+00	 2.213439207367162e+00
 4.407648364327355e-01	 1.320352040342977e+00	 1.983079031365758e+00
 4.098866122154466e-01	 1.327780718832936e+00	 1.767037296776431e+00
 3.788308932885837e-01	 1.334577815055549e+00	 1.566179731959768e+00
 3.476198513749703e-01	 1.340754171970550e+00	 1.381290218307510e+00
 3.162753729669972e-01	 1.346321334844147e+00	 1.213071053455273e+00
 6.275117751178659e-01	 1.275156446672509e+00	 3.631847570906237e+00
 5.978678227687122e-01	 1.286675671064355e+00	 3.345137072444501e+00
 5.679070845265799e-01	 1.297508606188468e+00	 3.066727885204868e+00
 5.376525365107008e-01	 1.307660951373040e+00	 2.797940521144177e+00
 5.071272083903645e-01	 1.317139391317681e+00	 2.540028516101464e+00
 4.763541210610505e-01	 1.325951555499662e+00	 2.294173719188944e+00
 4.453562261305695e-01	 1.334105974998043e+00	 2.061482497045838e+00
 4.141563474870814e-01	 1.341612037061243e+00	 1.842982837203804e+00
 3.827771251948752e-01	 1.348479937747140e+00	 1.639622322097588e+00
 3.512409619367163e-01	 1.354720632965146e+00	 1.452266934254722e+00
 3.195699721937289e-01	 1.360345788246990e+00	 1.281700643989114e+00
 6.339810826634908e-01	 1.288302621057924e+00	 3.716638366025354e+00
 6.040315171731551e-01	 1.299940602432917e+00	 3.429631717636791e+00
 5.737618998983728e-01	 1.310885219268478e+00	 3.150442767292106e+00
 5.431954438297628e-01	 1.321142229649781e+00	 2.880456479731530e+00
 5.123554160600733e-01	 1.330718387192070e+00	 2.620994853379470e+00
 4.812650748177888e-01	 1.339621400028392e+00	 2.373311414576333e+00
 4.499476083294071e-01	 1.347859887188614e+00	 2.138586640964427e+00
 4.184260757850540e-01	 1.355443332698608e+00	 1.917924307934628e+00
 3.867233506558597e-01	 1.362382037732089e+00	 1.712348738149829e+00
 3.548620665841549e-01	 1.368687071147968e+00	 1.522802921916082e+00
 3.228645660394259e-01	 1.374370218743297e+00	 1.350147465696164e+00
 6.404503781336349e-01	 1.301448770904468e+00	 3.798701831189710e+00
 6.101952000725803e-01	 1.313205509040881e+00	 3.511637357154538e+00
 5.796167043416972e-01	 1.324261807379358e+00	 3.231927540673722e+00
 5.487383408025510e-01	 1.334623482761947e+00	 2.961017348209552e+00
 5.175836139709077e-01	 1.344297357719399e+00	 2.700292599559211e+00
 4.861760194078159e-01	 1.353291219040396e+00	 2.451073712016962e+00
 4.545389819580204e-01	 1.361613773705451e+00	 2.214610386951577e+00
 4.226957961131751e-01	 1.369274602517706e+00	 1.992077241846469e+00
 3.906695687508178e-01	 1.376284111766524e+00	 1.784570375850381e+00
 3.584831644724150e-01	 1.382653483260108e+00	 1.593104843466688e+00
 3.261591537353913e-01	 1.388394623060607e+00	 1.418612999331616e+00
 6.469196600189466e-01	 1.314594893144823e+00	 3.878244652543723e+00
 6.163588700289421e-01	 1.326470387793212e+00	 3.591364689989906e+00
 5.854714964905722e-01	 1.337638367399996e+00	 3.311395365698503e+00
 5.542812261358540e-01	 1.348104707563986e+00	 3.039837327567240e+00
 5.228118009030747e-01	 1.357876299731294e+00	 2.778135711132263e+00
 4.910869536853514e-01	 1.366961009346076e+00	 2.527673177644994e+00
 4.591303459451811e-01	 1.375367631339310e+00	 2.289763906824491e+00
 4.269655074752550e-01	 1.383105843291213e+00	 2.065648555970131e+00
 3.946157785590299e-01	 1.390186156606576e+00	 1.856490181071881e+00
 3.621042547566256e-01	 1.396619866042657e+00	 1.663371101030761e+00
 3.294537345129284e-01	 1.402418997926461e+00	 1.487290673290540e+00
 2.965077076518963e-01	 1.262174316647596e+00	 7.850450747625484e-01
 2.670153521752661e-01	 1.266834146772720e+00	 6.531928312885482e-01
 2.374379815785563e-01	 1.270946214663118e+00	 5.383359742194338e-01
 2.077950911590201e-01	 1.274523035088650e+00	 4.397007387125047e-01
 1.781057461811192e-01	 1.277577589043705e+00	 3.564389585790404e-01
 1.483885491539033e-01	 1.280123275467486e+00	 2.876406249720624e-01
 1.186616101822315e-01	 1.282173863421045e+00	 2.323459094887599e-01
 8.894252039400018e-02	 1.283743444944866e+00	 1.895565615815018e-01
 5.924832842448790e-02	 1.284846388803535e+00	 1.582466091363766e-01
 2.959551991936728e-02	 1.285497295306093e+00	 1.373723090044292e-01
 0.000000000000000e+00	 1.285710952372222e+00	 1.258813109100330e-01
 2.998023230222043e-01	 1.276198838767993e+00	 8.595103109534468e-01
 2.699822662242061e-01	 1.280910446123660e+00	 7.238160618892000e-01
 2.400762496692715e-01	 1.285068204839977e+00	 6.052345059989155e-01
 2.101039852746391e-01	 1.288684768743407e+00	 5.030756086413208e-01
 1.800847501464906e-01	 1.291773263065350e+00	 4.165731501925898e-01
 1.500373534937380e-01	 1.294347235625973e+00	 3.448968362641462e-01
 1.199801066498031e-01	 1.296420608479858e+00	 2.871639289349324e-01
 8.993079620458681e-02	 1.298007630249775e+00	 2.424503083452987e-01
 5.990666022752165e-02	 1.299122829357391e+00	 2.098008922198840e-01
 2.992436754283312e-02	 1.299780968341605e+00	 1.882393581791384e-01
 0.000000000000000e+00	 1.299996999436575e+00	 1.767771298129661e-01
 3.030969376236582e-01	 1.290223357616614e+00	 9.323890398715131e-01
 2.729491795807888e-01	 1.294986742190813e+00	 7.931296866150661e-01
 2.427145171443394e-01	 1.299190191722442e+00	 6.710819965108914e-01
 2.124128788514845e-01	 1.302846499094541e+00	 5.656363000221607e-01
 1.820637536500774e-01	 1.305968933775486e+00	 4.761051230177891e-01
 1.516861574488442e-01	 1.308571192466371e+00	 4.017348579064008e-01
 1.212986028097239e-01	 1.310667350215280e+00	 3.417170101189269e-01
 9.091907178457713e-02	 1.312271812227235e+00	 2.951989288624599e-01
 6.056499187694677e-02	 1.313399266580941e+00	 2.612939485604082e-01
 3.025321508956925e-02	 1.314064638045126e+00	 2.390908840650812e-01
 0.000000000000000e+00	 1.314283043168385e+00	 2.276628383282582e-01
 3.063915506875612e-01	 1.304247869921001e+00	 1.003940981462039e+00
 2.759160915527708e-01	 1.309063031689621e+00	 8.613865246807784e-01
 2.453527833881924e-01	 1.313312172015283e+00	 7.361244457157055e-01
 2.147217713508357e-01	 1.317008222837535e+00	 6.276221707644076e-01
 1.840427562301275e-01	 1.320164597861665e+00	 5.352678626320004e-01
 1.533349606345122e-01	 1.322795142669631e+00	 4.583816618494747e-01
 1.226170983543528e-01	 1.324914085302944e+00	 3.962265552650175e-01
 9.190734690337890e-02	 1.326535987548803e+00	 3.480187807247903e-01
 6.122332321915580e-02	 1.327675697142885e+00	 3.129376932449732e-01
 3.058206248284614e-02	 1.328348301083665e+00	 2.901350341357012e-01
 0.000000000000000e+00	 1.328569080234105e+00	 2.787435596320140e-01
 3.096861614452166e-01	 1.318272372408692e+00	 1.074414810298846e+00
 2.788830014479088e-01	 1.323139311335524e+00	 9.288286438803388e-01
 2.479910477852629e-01	 1.327434142423264e+00	 8.005973926045045e-01
 2.170306622339722e-01	 1.331169936667870e+00	 6.892624006860457e-01
 1.860217574248893e-01	 1.334360252011446e+00	 5.942844478879801e-01
 1.549837626660326e-01	 1.337019082916703e+00	 5.150545693888275e-01
 1.239355929760488e-01	 1.339160810418477e+00	 4.509045530881273e-01
 9.289562133039975e-02	 1.340800152886037e+00	 4.011170227824901e-01
 6.188165410054127e-02	 1.341952117711918e+00	 3.649350317309847e-01
 3.091090964593424e-02	 1.342631954124233e+00	 3.415711065944873e-01
 0.000000000000000e+00	 1.342855107300192e+00	 3.302156963269187e-01
 3.129807691279275e-01	 1.332296861807227e+00	 1.144048737023742e+00
 2.818499085739596e-01	 1.337215577843965e+00	 9.956879265755889e-01
 2.506293097199830e-01	 1.341556099651152e+00	 8.647264659192944e-01
 2.193395509621732e-01	 1.345331637281030e+00	 7.507765273617879e-01
 1.880007567726109e-01	 1.348555892912382e+00	 6.533685724944314e-01
 1.566325631586960e-01	 1.351243009888536e+00	 5.719617592799033e-01
 1.252540863671707e-01	 1.353407522237509e+00	 5.059540744385966e-01
 9.388389483504743e-02	 1.355064304910496e+00	 4.546920994938533e-01
 6.253998436749579e-02	 1.356228524956741e+00	 4.174803342483631e-01
 3.123975650210397e-02	 1.356915593833839e+00	 3.935900163408088e-01
 0.000000000000000e+00	 1.357141121033102e+00	 3.822673896355704e-01
 3.162753729669972e-01	 1.346321334844147e+00	 1.213071053455275e+00
 2.848168122386797e-01	 1.351291827930385e+00	 1.062186600319954e+00
 2.532675685767853e-01	 1.355678040403714e+00	 9.287279004617939e-01
 2.216484369967182e-01	 1.359493321372498e+00	 8.123749484900120e-01
 1.899797538115407e-01	 1.362751517252028e+00	 7.127250340064801e-01
 1.582813617277927e-01	 1.365466920266081e+00	 6.293027441061587e-01
 1.265725782200774e-01	 1.367654217435671e+00	 5.615697369779451e-01
 9.487216718672974e-02	 1.369328440293738e+00	 5.089341950112543e-01
 6.319831386641184e-02	 1.370504915546047e+00	 4.707598805599320e-01
 3.156860297462580e-02	 1.371199216879492e+00	 4.463747318207947e-01
 0.000000000000000e+00	 1.371427118099289e+00	 4.350789499020284e-01
 3.195699721937289e-01	 1.360345788246990e+00	 1.281700643989114e+00
 2.877837117498259e-01	 1.365368058310224e+00	 1.128537735668274e+00
 2.559058237401016e-01	 1.369799961385716e+00	 9.928090214748246e-01
 2.239573197988864e-01	 1.373654985637755e+00	 8.742593931934333e-01
 1.919587480799268e-01	 1.376947121717941e+00	 7.725501925776361e-01
 1.599301579886132e-01	 1.379690810730285e+00	 6.872688171875330e-01
 1.278910682271278e-01	 1.381900892688592e+00	 6.179381411192142e-01
 9.586043815485427e-02	 1.383592555707320e+00	 5.640256591868031e-01
 6.385664244368201e-02	 1.384781286148536e+00	 5.249522772176445e-01
 3.189744898677018e-02	 1.385482819928203e+00	 5.001006848636596e-01
 0.000000000000000e+00	 1.385713095165209e+00	 4.888232604714557e-01
 3.228645660394259e-01	 1.374370218743297e+00	 1.350147465696164e+00
 2.907506064151547e-01	 1.379444265698925e+00	 1.194945713517792e+00
 2.585440745943647e-01	 1.383921859301924e+00	 1.057168699375365e+00
 2.262661988299575e-01	 1.387816626772285e+00	 9.366233644728936e-01
 1.939377391160176e-01	 1.391142702997676e+00	 8.330324016320469e-01
 1.615789515564478e-01	 1.393914677962101e+00	 7.460434721354083e-01
 1.292095560806810e-01	 1.396147544671901e+00	 6.752382792844029e-01
 9.684870750882889e-02	 1.397856647822801e+00	 6.201414075031884e-01
 6.451496994569883e-02	 1.399057633432906e+00	 5.802288492803112e-01
 3.222629446180756e-02	 1.399766399646979e+00	 5.549361554329244e-01
 0.000000000000000e+00	 1.399999048897318e+00	 5.436661568492669e-01
 3.261591537353913e-01	 1.388394623060607e+00	 1.418612999331617e+00
 2.937174955424229e-01	 1.393520446811928e+00	 1.261606664131783e+00
 2.611823205240066e-01	 1.398043730857107e+00	 1.121997776935278e+00
 2.285750735512107e-01	 1.401978241471570e+00	 9.996525548522073e-01
 1.959167264580612e-01	 1.405338257778787e+00	 8.943524124428515e-01
 1.632277420465874e-01	 1.408138518642477e+00	 8.058027969860986e-01
 1.305280414730955e-01	 1.410394170061229e+00	 7.336419203646687e-01
 9.783697501806117e-02	 1.412120713311740e+00	 6.774492967726606e-01
 6.517329621885488e-02	 1.413333954067853e+00	 6.367540082960537e-01
 3.255513932300839e-02	 1.414049952702832e+00	 6.110426330651977e-01
 0.000000000000000e+00	 1.414284975962072e+00	 5.997667828866466e-01
 3.294537345129284e-01	 1.402418997926461e+00	 1.487290673290540e+00
 2.966843784393872e-01	 1.407596598364675e+00	 1.328708879829326e+00
 2.638205609134598e-01	 1.412165572756028e+00	 1.187479470837823e+00
 2.308839434239252e-01	 1.416139826431092e+00	 1.063525237091437e+00
 1.978957096443058e-01	 1.419533782748832e+00	 9.566837544414650e-01
 1.648765290743220e-01	 1.422362329452364e+00	 8.667158446931786e-01
 1.318465240967305e-01	 1.424640765532204e+00	 7.933139711194479e-01
 9.882524045195897e-02	 1.426384748845694e+00	 7.361104782995367e-01
 6.583162110954265e-02	 1.427610244722075e+00	 6.946855982122058e-01
 3.288398349364309e-02	 1.428333475762771e+00	 6.685751566286433e-01
 0.000000000000000e+00	 1.428570873025926e+00	 6.572779256009014e-01
 1.428570873025926e+00	 0.000000000000000e+00	 1.221663993133291e+01
 1.428333475762771e+00	 3.288398349364353e-02	 1.220014968057679e+01
 1.427610244722076e+00	 6.583162110954309e-02	 1.217990658053817e+01
 1.426384748845693e+00	 9.882524045195930e-02	 1.215527270427471e+01
 1.424640765532204e+00	 1.318465240967308e-01	 1.212561582614551e+01
 1.422362329452363e+00	 1.648765290743223e-01	 1.209031473604046e+01
 1.419533782748831e+00	 1.978957096443060e-01	 1.204876498520895e+01
 1.416139826431091e+00	 2.308839434239253e-01	 1.200038503935760e+01
 1.412165572756028e+00	 2.638205609134598e-01	 1.194462280517786e+01
 1.407596598364675e+00	 2.966843784393872e-01	 1.188096248630041e+01
 1.402418997926461e+00	 3.294537345129283e-01	 1.180893171400205e+01
 1.442856738422074e+00	 0.000000000000000e+00	 1.213229712878796e+01
 1.442616967160266e+00	 3.321282693534739e-02	 1.211617008184759e+01
 1.441886503729889e+00	 6.648994454095894e-02	 1.209653459726000e+01
 1.440648752760408e+00	 9.981350369522651e-02	 1.207278121482692e+01
 1.438887329422610e+00	 1.331650037977660e-01	 1.204430523003370e+01
 1.436586108732203e+00	 1.665253124472980e-01	 1.201051174198280e+01
 1.433729276251555e+00	 1.998746884438770e-01	 1.197082111874713e+01
 1.430301379998563e+00	 2.331928081787428e-01	 1.192467485768933e+01
 1.426287383351045e+00	 2.664587954549431e-01	 1.187154180920455e+01
 1.421672718714860e+00	 2.996512547599297e-01	 1.181092472261454e+01
 1.416443341704605e+00	 3.327483079876941e-01	 1.174236706270814e+01
 1.457142577150667e+00	 0.000000000000000e+00	 1.205341016327756e+01
 1.456900431894637e+00	 3.354166976321469e-02	 1.203763453311419e+01
 1.456162736088080e+00	 6.714826674351429e-02	 1.201858261522853e+01
 1.454912730048382e+00	 1.008017650937523e-01	 1.199567217577769e+01
 1.453133866718838e+00	 1.344834810376646e-01	 1.196832487101423e+01
 1.450809861460411e+00	 1.681740927425823e-01	 1.193597104618471e+01
 1.447924743255468e+00	 2.018536635494074e-01	 1.189805493837484e+01
 1.444462907130610e+00	 2.355016686237530e-01	 1.185404026257665e+01
 1.440409167584866e+00	 2.690970250718210e-01	 1.180341615155877e+01
 1.435748812789194e+00	 3.026181255424343e-01	 1.174570341079751e+01
 1.430467659303615e+00	 3.360428753127599e-01	 1.168046103990557e+01
 1.471428395878593e+00	 0.000000000000000e+00	 1.197967689952234e+01
 1.471183876631666e+00	 3.387051213070462e-02	 1.196423597047767e+01
 1.470438948459055e+00	 6.780658802442420e-02	 1.194573958194223e+01
 1.469176687366300e+00	 1.017900251087220e-01	 1.192363152657782e+01
 1.467380384069432e+00	 1.358019564317108e-01	 1.189735869992189e+01
 1.465033594274894e+00	 1.698228707295979e-01	 1.186637566711468e+01
 1.462120190385275e+00	 2.038326358844076e-01	 1.183014962078576e+01
 1.458624414436090e+00	 2.378105258364077e-01	 1.178816571096063e+01
 1.454530932047793e+00	 2.717352509952452e-01	 1.173993271952220e+01
 1.449824887156638e+00	 3.055849921714104e-01	 1.168498904281705e+01
 1.444491957268275e+00	 3.393374380255506e-01	 1.162290893656207e+01
 1.485714201272741e+00	 0.000000000000000e+00	 1.191080682821966e+01
 1.485467308037133e+00	 3.419935419127627e-02	 1.189567914543387e+01
 1.484715147505218e+00	 6.846490869090381e-02	 1.187770641355797e+01
 1.483440631370847e+00	 1.027782842013209e-01	 1.185635729088716e+01
 1.481626888122938e+00	 1.371204305951887e-01	 1.183110282814360e+01
 1.479257313813562e+00	 1.714716471777679e-01	 1.180142081951321e+01
 1.476315624265676e+00	 2.058116063723873e-01	 1.176680053272156e+01
 1.472785908523857e+00	 2.401193808941586e-01	 1.172674780045395e+01
 1.468652683330120e+00	 2.743734744563666e-01	 1.168079044743951e+01
 1.463900948386158e+00	 3.085518560313680e-01	 1.162848401892985e+01
 1.458516242143368e+00	 3.426319976634912e-01	 1.156941776722646e+01
 1.500000000000000e+00	 0.000000000000000e+00	 1.184652051233004e+01
 1.499750732776819e+00	 3.452819609838880e-02	 1.183168006213774e+01
 1.498991339888977e+00	 6.912322905016832e-02	 1.181419542485560e+01
 1.497704568718708e+00	 1.037665428327345e-01	 1.179355900103642e+01
 1.495873385527899e+00	 1.384389041433825e-01	 1.176926494844540e+01
 1.493481026714322e+00	 1.731204228565149e-01	 1.174081333352041e+01
 1.490511051521376e+00	 2.077905759368570e-01	 1.170771465039901e+01
 1.486947396002769e+00	 2.424282348744578e-01	 1.166949469112328e+01
 1.482774428022150e+00	 2.770116966863368e-01	 1.162569974296357e+01
 1.477977003046713e+00	 3.115187185068158e-01	 1.157590208054185e+01
 1.472540520473678e+00	 3.459265557640069e-01	 1.151970571169250e+01
 1.514285798727260e+00	 0.000000000000000e+00	 1.178654906473266e+01
 1.514034157516504e+00	 3.485703800550132e-02	 1.177196544654785e+01
 1.513267532272734e+00	 6.978154940943283e-02	 1.175492979149647e+01
 1.511968506066570e+00	 1.047548014641481e-01	 1.173495715509435e+01
 1.510119882932860e+00	 1.397573776915763e-01	 1.171156378861076e+01
 1.507704739615082e+00	 1.747691985352620e-01	 1.168427110671147e+01
 1.504706478777075e+00	 2.097695455013266e-01	 1.165261001182745e+01
 1.501108883481681e+00	 2.447370888547570e-01	 1.161612556002874e+01
 1.496896172714179e+00	 2.796499189163070e-01	 1.157438194580517e+01
 1.492053057707269e+00	 3.144855809822638e-01	 1.152696777519806e+01
 1.486564798803988e+00	 3.492211138645225e-01	 1.147350158829380e+01
 1.528571604121408e+00	 0.000000000000000e+00	 1.173063365519594e+01
 1.528317588921971e+00	 3.518588006607298e-02	 1.171627224536365e+01
 1.527543731318899e+00	 7.043987007591246e-02	 1.169964304246101e+01
 1.526232450071117e+00	 1.057430605567471e-01	 1.168028270440572e+01
 1.524366386986366e+00	 1.410758518550542e-01	 1.165772859574196e+01
 1.521928459153750e+00	 1.764179749834320e-01	 1.163152258688490e+01
 1.518901912657477e+00	 2.117485159893064e-01	 1.160121519986361e+01
 1.515270377569448e+00	 2.470459439125080e-01	 1.156637008637592e+01
 1.511017923996508e+00	 2.822881423774285e-01	 1.152656881685877e+01
 1.506129118936787e+00	 3.174524448422210e-01	 1.148141595159853e+01
 1.500589083679082e+00	 3.525156735024633e-01	 1.143054435675837e+01
 1.542857422849333e+00	 0.000000000000000e+00	 1.167852504476158e+01
 1.542601033659000e+00	 3.551472243356290e-02	 1.166434715282286e+01
 1.541819943689873e+00	 7.109819135682234e-02	 1.164807858070779e+01
 1.540496407389035e+00	 1.067313205717167e-01	 1.162927656962301e+01
 1.538612904336961e+00	 1.423943272491004e-01	 1.160749864923539e+01
 1.536152191968234e+00	 1.780667529704477e-01	 1.158230628360891e+01
 1.533097359787283e+00	 2.137274883243064e-01	 1.155326885400961e+01
 1.529431884874928e+00	 2.493548011251626e-01	 1.151996796529451e+01
 1.525139688459433e+00	 2.849263683008526e-01	 1.148200205573399e+01
 1.520205193304232e+00	 3.204193114711973e-01	 1.143899128269224e+01
 1.514613381643741e+00	 3.558102362152540e-01	 1.139058264870569e+01
 1.557143261577926e+00	 0.000000000000000e+00	 1.162998314578013e+01
 1.556884498393372e+00	 3.584356526143021e-02	 1.161594616356834e+01
 1.556096176048064e+00	 7.175651355937768e-02	 1.159998923024040e+01
 1.554760384677008e+00	 1.077195819702425e-01	 1.158168918340078e+01
 1.552859441633188e+00	 1.437128044889990e-01	 1.156062280058777e+01
 1.550375944696441e+00	 1.797155332657319e-01	 1.153637030667746e+01
 1.547292826791196e+00	 2.157064634298368e-01	 1.150851920910667e+01
 1.543593412006975e+00	 2.516636615701728e-01	 1.147666844840353e+01
 1.539261472693255e+00	 2.875645979177306e-01	 1.144043284486705e+01
 1.534281287378566e+00	 3.233861822537020e-01	 1.139944781504465e+01
 1.528637699242752e+00	 3.591048035403198e-01	 1.135337432400926e+01
 1.571429126974074e+00	 0.000000000000000e+00	 1.158477660596430e+01
 1.571167989790867e+00	 3.617240870313405e-02	 1.157083414992409e+01
 1.570372435055877e+00	 7.241483699079355e-02	 1.155513680789998e+01
 1.569024388591724e+00	 1.087078452135097e-01	 1.153728005805449e+01
 1.567106005523594e+00	 1.450312841900342e-01	 1.151685903832448e+01
 1.564599723976281e+00	 1.813643166387076e-01	 1.149347192976206e+01
 1.561488320293920e+00	 2.176854422294079e-01	 1.146672365921185e+01
 1.557754965574446e+00	 2.539725263249902e-01	 1.143622990945730e+01
 1.553383283288272e+00	 2.902028324592137e-01	 1.140162141851930e+01
 1.548357407728751e+00	 3.263530585742443e-01	 1.136254854280541e+01
 1.542662043020896e+00	 3.623993770150854e-01	 1.131868605137758e+01
 1.402418997926461e+00	 3.294537345129283e-01	 1.180893171400205e+01
 1.396619866042658e+00	 3.621042547566253e-01	 1.173090896231834e+01
 1.390186156606576e+00	 3.946157785590295e-01	 1.164956849552775e+01
 1.383105843291214e+00	 4.269655074752547e-01	 1.156491956189942e+01
 1.375367631339310e+00	 4.591303459451807e-01	 1.147694947228374e+01
 1.366961009346076e+00	 4.910869536853510e-01	 1.138562136901507e+01
 1.357876299731293e+00	 5.228118009030744e-01	 1.129087213387370e+01
 1.348104707563986e+00	 5.542812261358537e-01	 1.119261047838905e+01
 1.337638367399997e+00	 5.854714964905721e-01	 1.109071526049111e+01
 1.326470387793212e+00	 6.163588700289419e-01	 1.098503407130933e+01
 1.314594893144823e+00	 6.469196600189466e-01	 1.087538213467727e+01
 1.416443341704605e+00	 3.327483079876941e-01	 1.174236706270814e+01
 1.410586217866144e+00	 3.657253370143579e-01	 1.166805556353422e+01
 1.404088170630291e+00	 3.985619796201447e-01	 1.159047349315080e+01
 1.396937053405456e+00	 4.312352093732099e-01	 1.150964312802948e+01
 1.389121458485565e+00	 4.637216997552888e-01	 1.142556342308006e+01
 1.380630769350629e+00	 4.959978770775202e-01	 1.133820758710519e+01
 1.371455211643566e+00	 5.280399762466951e-01	 1.124752079900161e+01
 1.361585902483125e+00	 5.598240991830850e-01	 1.115341811092935e+01
 1.351014897769846e+00	 5.913262756620284e-01	 1.105578258559599e+01
 1.339735237142398e+00	 6.225225263232392e-01	 1.095446371474944e+01
 1.327740986245340e+00	 6.533889275647720e-01	 1.084927616482585e+01
 1.430467659303615e+00	 3.360428753127599e-01	 1.168046103990557e+01
 1.424552543618833e+00	 3.693464125129539e-01	 1.160968921400448e+01
 1.417990158703402e+00	 4.025081733152876e-01	 1.153568498441304e+01
 1.410768237701365e+00	 4.355049033013803e-01	 1.145848301147694e+01
 1.402875259958045e+00	 4.683130449952526e-01	 1.137809334809708e+01
 1.394300503838440e+00	 5.009087913030714e-01	 1.129449883247159e+01
 1.385034098208786e+00	 5.332681418315466e-01	 1.120765262291533e+01
 1.375067072237715e+00	 5.653669618841587e-01	 1.111747592374122e+01
 1.364391403170606e+00	 5.971810439051404e-01	 1.102385595231021e+01
 1.353000061731035e+00	 6.286861711126494e-01	 1.092664419745116e+01
 1.340887054807036e+00	 6.598581830352498e-01	 1.082565501839946e+01
 1.444491957268275e+00	 3.393374380255506e-01	 1.162290893656207e+01
 1.438518849818423e+00	 3.729674829421977e-01	 1.155551083282582e+01
 1.431892127313559e+00	 4.064543614859512e-01	 1.148490998642086e+01
 1.424599402633524e+00	 4.397745912522124e-01	 1.141115282022153e+01
 1.416629042175190e+00	 4.729043838076080e-01	 1.133425996014664e+01
 1.407970219188693e+00	 5.058196986536592e-01	 1.125422345567147e+01
 1.398612965763713e+00	 5.384963000973219e-01	 1.117100414339198e+01
 1.388548223118887e+00	 5.709098168256141e-01	 1.108452920521857e+01
 1.377767889844539e+00	 6.030358039519947e-01	 1.099468997408644e+01
 1.366264867749247e+00	 6.348498072733942e-01	 1.090134004031045e+01
 1.354033104964594e+00	 6.663274294492167e-01	 1.080429371075367e+01
 1.458516242143368e+00	 3.426319976634912e-01	 1.156941776722646e+01
 1.452485142982614e+00	 3.765885499918734e-01	 1.150523284608321e+01
 1.445794082948414e+00	 4.104005459736285e-01	 1.143786678861212e+01
 1.438430554656515e+00	 4.440442752181522e-01	 1.136737718096918e+01
 1.430382811555445e+00	 4.774957183348914e-01	 1.129379471740145e+01
 1.421639921780571e+00	 5.107306014209381e-01	 1.121712025876751e+01
 1.412191820645105e+00	 5.437244534837126e-01	 1.113732203473131e+01
 1.402029361417770e+00	 5.764526665939903e-01	 1.105433304363105e+01
 1.391144364033907e+00	 6.088905585346770e-01	 1.096804870551622e+01
 1.379529661387155e+00	 6.410134376816954e-01	 1.087832482422873e+01
 1.367179142852703e+00	 6.727966698255098e-01	 1.078497591353999e+01
 1.472540520473678e+00	 3.459265557640069e-01	 1.151970571169250e+01
 1.466451429629105e+00	 3.802096153517646e-01	 1.145857863883683e+01
 1.459696032095616e+00	 4.143467286198128e-01	 1.139428441592710e+01
 1.452261700224921e+00	 4.483139571916458e-01	 1.132689121441038e+01
 1.444136574517253e+00	 4.820870507196391e-01	 1.125643931168247e+01
 1.435309617993256e+00	 5.156415018965624e-01	 1.118293799762116e+01
 1.425770669189721e+00	 5.489526044304112e-01	 1.110636262506165e+01
 1.415510493425496e+00	 5.819955137758276e-01	 1.102665186047523e+01
 1.404520831980972e+00	 6.147453103852731e-01	 1.094370519277925e+01
 1.392794448834883e+00	 6.471770652137749e-01	 1.085738075872757e+01
 1.380325174606045e+00	 6.792659071829659e-01	 1.076749354256180e+01
 1.486564798803988e+00	 3.492211138645225e-01	 1.147350158829380e+01
 1.480417716275596e+00	 3.838306807116561e-01	 1.141528203815508e+01
 1.473597981242819e+00	 4.182929112659970e-01	 1.135390212239205e+01
 1.466092845793325e+00	 4.525836391651394e-01	 1.128944004020611e+01
 1.457890337479054e+00	 4.866783831043864e-01	 1.122194518573585e+01
 1.448979314205931e+00	 5.205524023721870e-01	 1.115143491238183e+01
 1.439349517734319e+00	 5.541807553771096e-01	 1.107789144099136e+01
 1.428991625433194e+00	 5.875383609576647e-01	 1.100125897026236e+01
 1.417897299927996e+00	 6.206000622358694e-01	 1.092144104956059e+01
 1.406059236282551e+00	 6.533406927458544e-01	 1.083829827500214e+01
 1.393471206359307e+00	 6.857351445404221e-01	 1.075164636897897e+01
 1.500589083679082e+00	 3.525156735024633e-01	 1.143054435675837e+01
 1.494384009439786e+00	 3.874517477613316e-01	 1.137508682516098e+01
 1.487499936877670e+00	 4.222390957536742e-01	 1.131646891312387e+01
 1.479923997816310e+00	 4.568533231310791e-01	 1.125477830975507e+01
 1.471644106859294e+00	 4.912697176316699e-01	 1.119007307760139e+01
 1.462649016797778e+00	 5.254633051394657e-01	 1.112237828432611e+01
 1.452928372615660e+00	 5.594089087635005e-01	 1.105168277781559e+01
 1.442472763731995e+00	 5.930812107260414e-01	 1.097793616501193e+01
 1.431273774117241e+00	 6.264548168185513e-01	 1.090104605676837e+01
 1.419324029920284e+00	 6.595043231541553e-01	 1.082087564181361e+01
 1.406617244247173e+00	 6.922043849167152e-01	 1.073724165233273e+01
 1.514613381643741e+00	 3.558102362152540e-01	 1.139058264870569e+01
 1.508350315639376e+00	 3.910728181905754e-01	 1.133774627420970e+01
 1.501401905487825e+00	 4.261852839243379e-01	 1.128174309291233e+01
 1.493755162748458e+00	 4.611230110819112e-01	 1.122266976494013e+01
 1.485397889076415e+00	 4.958610564440254e-01	 1.116059259031504e+01
 1.476318732147982e+00	 5.303742124900537e-01	 1.109554401733776e+01
 1.466507240170501e+00	 5.646370670292757e-01	 1.102751929362027e+01
 1.455953914613030e+00	 5.986240656674965e-01	 1.095647332184807e+01
 1.444650260790970e+00	 6.323095768654057e-01	 1.088231778450804e+01
 1.432588835938203e+00	 6.656679593149002e-01	 1.080491860273852e+01
 1.419763294404329e+00	 6.986736313306823e-01	 1.072409379397499e+01
 1.528637699242752e+00	 3.591048035403198e-01	 1.135337432400926e+01
 1.522316641392064e+00	 3.946938936891715e-01	 1.130302271745360e+01
 1.515303893560931e+00	 4.301314776194807e-01	 1.124949183967162e+01
 1.507586347044352e+00	 4.653927050100816e-01	 1.119288682118388e+01
 1.499151690548858e+00	 5.004524016839892e-01	 1.113328178531716e+01
 1.489988466635725e+00	 5.352851267156048e-01	 1.107071624244438e+01
 1.480086126735601e+00	 5.698652326141274e-01	 1.100519162574765e+01
 1.469435084367429e+00	 6.041669283685701e-01	 1.093666803221423e+01
 1.458026766191443e+00	 6.381643451085179e-01	 1.086506123488253e+01
 1.445853660526431e+00	 6.718316041043105e-01	 1.079024003340274e+01
 1.432909362965459e+00	 7.051428868011598e-01	 1.071202400959081e+01
 1.542662043020896e+00	 3.623993770150854e-01	 1.131868605137758e+01
 1.536282993215550e+00	 3.983149759469040e-01	 1.127068713317777e+01
 1.529205907584642e+00	 4.340776786805960e-01	 1.121949080117728e+01
 1.521417557158576e+00	 4.696624069080367e-01	 1.116521017326560e+01
 1.512905517695068e+00	 5.050437554940970e-01	 1.110792679805672e+01
 1.503658226640188e+00	 5.401960501077737e-01	 1.104768694394278e+01
 1.493665038647719e+00	 5.750934079577475e-01	 1.098449802819903e+01
 1.482916279286322e+00	 6.097098014158012e-01	 1.091832525132908e+01
 1.471403296560924e+00	 6.440191242799742e-01	 1.084908850429222e+01
 1.459118509875090e+00	 6.779952603986078e-01	 1.077665961742712e+01
 1.446055456065250e+00	 7.116121543469853e-01	 1.070086001959794e+01
 1.314594893144823e+00	 6.469196600189466e-01	 1.087538213467727e+01
 1.302006157726207e+00	 6.771324014091545e-01	 1.075937288628569e+01
 1.288701263618528e+00	 7.069715536127238e-01	 1.063497453893983e+01
 1.274677610405123e+00	 7.364139816884141e-01	 1.050246922497426e+01
 1.259933748325849e+00	 7.654368751281202e-01	 1.036211337940697e+01
 1.244469402142706e+00	 7.940178164717294e-01	 1.021413420985433e+01
 1.228285490601410e+00	 8.221348496568718e-01	 1.005872646324497e+01
 1.211384141277094e+00	 8.497665476991278e-01	 9.896049554633571e+00
 1.193768700623030e+00	 8.768920792936009e-01	 9.726225119308928e+00
 1.175443739074679e+00	 9.034912739280352e-01	 9.549335043563431e+00
 1.156415051097081e+00	 9.295446851010828e-01	 9.365420022012575e+00
 1.327740986245340e+00	 6.533889275647720e-01	 1.084927616482585e+01
 1.315026362092133e+00	 6.839037996823172e-01	 1.073780615935578e+01
 1.301588417584430e+00	 7.140413466803667e-01	 1.061797820850157e+01
 1.287424526301110e+00	 7.437782022657358e-01	 1.049004792777698e+01
 1.272533223984267e+00	 7.730913278227418e-01	 1.035424507237871e+01
 1.256914232643484e+00	 8.019580817142202e-01	 1.021077021889558e+01
 1.240568480212031e+00	 8.303562883147737e-01	 1.005979175095880e+01
 1.223498115541023e+00	 8.582643063677963e-01	 9.901443211383317e+00
 1.205706518548623e+00	 8.856610962530627e-01	 9.735821079028147e+00
 1.187198305375145e+00	 9.125262857509887e-01	 9.562983022615528e+00
 1.167979328430909e+00	 9.388402338930860e-01	 9.382946676175452e+00
 1.340887054807036e+00	 6.598581830352498e-01	 1.082565501839946e+01
 1.328046542154254e+00	 6.906751853161535e-01	 1.071845349833288e+01
 1.314475547494891e+00	 7.211111265516637e-01	 1.060292666342457e+01
 1.300171418403419e+00	 7.511424090970864e-01	 1.047930420973294e+01
 1.285132676124198e+00	 7.807457662295900e-01	 1.034778989623822e+01
 1.269359039914403e+00	 8.098983321353761e-01	 1.020855843710553e+01
 1.252851446894847e+00	 8.385777116264355e-01	 1.006175270395887e+01
 1.235612067192585e+00	 8.667620491743747e-01	 9.907481297936567e+00
 1.217644314190617e+00	 8.944300968440329e-01	 9.745816546778981e+00
 1.198952849734027e+00	 9.215612807088772e-01	 9.576792976072875e+00
 1.179543584178313e+00	 9.481357653336441e-01	 9.400406296129400e+00
 1.354033104964594e+00	 6.663274294492167e-01	 1.080429371075367e+01
 1.341066703988496e+00	 6.974465614704949e-01	 1.070110079884373e+01
 1.327362659363738e+00	 7.281808965257016e-01	 1.058961685986237e+01
 1.312918292660426e+00	 7.585066056189583e-01	 1.047004626450863e+01
 1.297732110625212e+00	 7.884001939206060e-01	 1.034256745448232e+01
 1.281803829762870e+00	 8.178385714405283e-01	 1.020733004405991e+01
 1.265134396381741e+00	 8.467991234284111e-01	 1.006445223669311e+01
 1.247726001884798e+00	 8.752597800843780e-01	 9.914018613592788e+00
 1.229582093119834e+00	 9.031990851586249e-01	 9.756078346562788e+00
 1.210707377636641e+00	 9.305962630179525e-01	 9.590643881103251e+00
 1.191107823735815e+00	 9.574312837605971e-01	 9.417690128103724e+00
 1.367179142852703e+00	 6.727966698255098e-01	 1.078497591353999e+01
 1.354086853670782e+00	 7.042179313051731e-01	 1.068554219426369e+01
 1.340249759204795e+00	 7.352506599015664e-01	 1.057785356623920e+01
 1.325665155020511e+00	 7.658707952678440e-01	 1.046208966575901e+01
 1.310331533366881e+00	 7.960546144677322e-01	 1.033840429168991e+01
 1.294248607996289e+00	 8.257788033350082e-01	 1.020692271511956e+01
 1.277417334404598e+00	 8.550205275572582e-01	 1.006773930799356e+01
 1.259839925270682e+00	 8.837575030633226e-01	 9.920915544869269e+00
 1.241519860907095e+00	 9.119680652889500e-01	 9.766478427056047e+00
 1.222461894568301e+00	 9.396312368944653e-01	 9.604419372067422e+00
 1.202672052499939e+00	 9.667267935117863e-01	 9.434693603581483e+00
 1.380325174606045e+00	 6.792659071829659e-01	 1.076749354256180e+01
 1.367106997277037e+00	 7.109892979800194e-01	 1.067157966352083e+01
 1.353136853031889e+00	 7.423204199783444e-01	 1.056744899133247e+01
 1.338412011432047e+00	 7.732349814802353e-01	 1.045525701581260e+01
 1.322930950228776e+00	 8.037090314429114e-01	 1.033513356312502e+01
 1.306693380422067e+00	 8.337190315241463e-01	 1.020718031225567e+01
 1.289700266695305e+00	 8.632419278495311e-01	 1.007146863341432e+01
 1.271953843003254e+00	 8.922552220767233e-01	 9.928037799626079e+00
 1.253457623123223e+00	 9.207370413271208e-01	 9.776893617777988e+00
 1.234216406014319e+00	 9.486662065546664e-01	 9.618007518964234e+00
 1.214236275867208e+00	 9.760222989250513e-01	 9.451316140233521e+00
 1.393471206359307e+00	 6.857351445404221e-01	 1.075164636897897e+01
 1.380127140883184e+00	 7.177606646548657e-01	 1.065902266111885e+01
 1.366023946858845e+00	 7.493901800551216e-01	 1.055822243342521e+01
 1.351158867843413e+00	 7.805991676926244e-01	 1.044937761425919e+01
 1.335530367090467e+00	 8.113634484180853e-01	 1.033259472305742e+01
 1.319138152847608e+00	 8.416592597132743e-01	 1.020795259239027e+01
 1.301983198985745e+00	 8.714633281417865e-01	 1.007550041386615e+01
 1.284067760735535e+00	 9.007529410900955e-01	 9.935256156253356e+00
 1.265395385339038e+00	 9.295060173652493e-01	 9.787205399071834e+00
 1.245970917460011e+00	 9.577011762148074e-01	 9.631300618427177e+00
 1.225800499234146e+00	 9.853178043382338e-01	 9.467460954130127e+00
 1.406617244247173e+00	 6.922043849167152e-01	 1.073724165233273e+01
 1.393147290565148e+00	 7.245320344895437e-01	 1.064768776792379e+01
 1.378911046699490e+00	 7.564599434309848e-01	 1.054999994914887e+01
 1.363905730202986e+00	 7.879633573415036e-01	 1.044428714513721e+01
 1.348129789831525e+00	 8.190178689651958e-01	 1.033063323057545e+01
 1.331582931080320e+00	 8.495994916077230e-01	 1.020909493210545e+01
 1.314266137007805e+00	 8.796847322705800e-01	 1.007970007948062e+01
 1.296181684120543e+00	 9.092506640689551e-01	 9.942446226934845e+00
 1.277333153125360e+00	 9.382749974954472e-01	 9.797299684995224e+00
 1.257725434390691e+00	 9.667361500911392e-01	 9.644194996450786e+00
 1.237364727997274e+00	 9.946133140891735e-01	 9.483034882491772e+00
 1.419763294404329e+00	 6.986736313306823e-01	 1.072409379397499e+01
 1.406167452398852e+00	 7.313034106438844e-01	 1.063739836136788e+01
 1.391798158567646e+00	 7.635297134050192e-01	 1.054261404073914e+01
 1.376652604459141e+00	 7.953275538633646e-01	 1.043982738151409e+01
 1.360729224331522e+00	 8.266722966561857e-01	 1.032910027175621e+01
 1.344027720927606e+00	 8.575397309128240e-01	 1.021046806765925e+01
 1.326549086493368e+00	 8.879061440724667e-01	 1.008393804771602e+01
 1.308295618811295e+00	 9.177483949788170e-01	 9.949488234074394e+00
 1.289270932053014e+00	 9.470439858098275e-01	 9.807066618282418e+00
 1.269479962291672e+00	 9.757711323999124e-01	 9.656590822085811e+00
 1.248928967553118e+00	 1.003908832515712e+00	 9.497948216295240e+00
 1.432909362965459e+00	 7.051428868011598e-01	 1.071202400959081e+01
 1.419187632460221e+00	 7.380747962777202e-01	 1.062798430382223e+01
 1.404685288477143e+00	 7.705994932763116e-01	 1.053590336052131e+01
 1.389399496560257e+00	 8.026917606947001e-01	 1.043584590634179e+01
 1.373328676470027e+00	 8.343267350629970e-01	 1.032785249714190e+01
 1.356472528196873e+00	 8.654799813339080e-01	 1.021193784932454e+01
 1.338832053174321e+00	 8.961275673840037e-01	 1.008808949478964e+01
 1.320409570460812e+00	 9.262461377851972e-01	 9.956266799039568e+00
 1.301208727692818e+00	 9.558129864005016e-01	 9.816400376602308e+00
 1.281234506648269e+00	 9.848061273573786e-01	 9.668391931398284e+00
 1.260493223298199e+00	 1.013204363955689e+00	 9.512114542101889e+00
 1.446055456065250e+00	 7.116121543469853e-01	 1.070086001959794e+01
 1.432207836825179e+00	 7.448461945508820e-01	 1.061928164798148e+01
 1.417572442441803e+00	 7.776692863439487e-01	 1.052971243152790e+01
 1.402146412454711e+00	 8.100559812720015e-01	 1.043219584855092e+01
 1.385928152126612e+00	 8.419811877575717e-01	 1.032675177354733e+01
 1.368917358695528e+00	 8.734202465763066e-01	 1.021337500913854e+01
 1.351115042782549e+00	 9.043490060417461e-01	 1.009203413958754e+01
 1.332523544722111e+00	 9.347438964536106e-01	 9.962670742437748e+00
 1.313146545615595e+00	 9.645820033595822e-01	 9.825198989392950e+00
 1.292989072945795e+00	 9.938411391797882e-01	 9.679505661038657e+00
 1.272057500629041e+00	 1.022499912746946e+00	 9.525450592520396e+00
 1.156415051097081e+00	 9.295446851010828e-01	 9.365420022012575e+00
 1.136689647123178e+00	 9.550336534767583e-01	 9.170821732557179e+00
 1.116275734373034e+00	 9.799403718027949e-01	 8.962415966703080e+00
 1.095182710406913e+00	 1.004247933371997e+00	 8.741081044519149e+00
 1.073421145629011e+00	 1.027940381546648e+00	 8.507781558457285e+00
 1.051002757783851e+00	 1.051002757783852e+00	 8.263562155706843e+00
 1.027940381546647e+00	 1.073421145629011e+00	 8.009540388118980e+00
 1.004247933371997e+00	 1.095182710406913e+00	 7.746898726531378e+00
 9.799403718027947e-01	 1.116275734373035e+00	 7.476875852444618e+00
 9.550336534767578e-01	 1.136689647123179e+00	 7.200757353535169e+00
 9.295446851010828e-01	 1.156415051097081e+00	 6.919865960041143e+00
 1.167979328430909e+00	 9.388402338930860e-01	 9.382946676175452e+00
 1.148056668253955e+00	 9.645840947479684e-01	 9.192234846061089e+00
 1.127438614137450e+00	 9.897398829888864e-01	 8.987880901694481e+00
 1.106134657618302e+00	 1.014290522839711e+00	 8.770704275823327e+00
 1.084155474805915e+00	 1.038219898094590e+00	 8.541609034409904e+00
 1.061512900623551e+00	 1.061512900623551e+00	 8.301578121782136e+00
 1.038219898094590e+00	 1.084155474805915e+00	 8.051666690472693e+00
 1.014290522839711e+00	 1.106134657618302e+00	 7.792994605702613e+00
 9.897398829888857e-01	 1.127438614137450e+00	 7.526738230355500e+00
 9.645840947479679e-01	 1.148056668253955e+00	 7.254121609756018e+00
 9.388402338930860e-01	 1.167979328430909e+00	 6.976407186220323e+00
 1.179543584178313e+00	 9.481357653336441e-01	 9.400406296129400e+00
 1.159423668166479e+00	 9.741345181918949e-01	 9.213355429387523e+00
 1.138601473064650e+00	 9.995393758827325e-01	 9.012827230382502e+00
 1.117086584386196e+00	 1.024333093561410e+00	 8.799584841922890e+00
 1.094889783945534e+00	 1.048499395454237e+00	 8.574474436525330e+00
 1.072023023844444e+00	 1.072023023844445e+00	 8.338419903645701e+00
 1.048499395454236e+00	 1.094889783945534e+00	 8.092416638362781e+00
 1.024333093561409e+00	 1.117086584386196e+00	 7.837524514900696e+00
 9.995393758827319e-01	 1.138601473064650e+00	 7.574860144038384e+00
 9.741345181918943e-01	 1.159423668166480e+00	 7.305588526850806e+00
 9.481357653336442e-01	 1.179543584178313e+00	 7.030914227971865e+00
 1.191107823735815e+00	 9.574312837605971e-01	 9.417690128103724e+00
 1.170790652165233e+00	 9.836849282653308e-01	 9.234087152590511e+00
 1.149764316363858e+00	 1.009338855057359e+00	 9.037171212719532e+00
 1.128038495821394e+00	 1.034375650223553e+00	 8.827651702788003e+00
 1.105624078057122e+00	 1.058778878422611e+00	 8.606319477657410e+00
 1.082533132351175e+00	 1.082533132351175e+00	 8.374041961759998e+00
 1.058778878422611e+00	 1.105624078057122e+00	 8.131757375980509e+00
 1.034375650223553e+00	 1.128038495821395e+00	 7.880468159528716e+00
 1.009338855057359e+00	 1.149764316363859e+00	 7.621233679352969e+00
 9.836849282653305e-01	 1.170790652165234e+00	 7.355162332967679e+00
 9.574312837605973e-01	 1.191107823735815e+00	 7.083403161391585e+00
 1.202672052499939e+00	 9.667267935117863e-01	 9.434693603581483e+00
 1.182157625554698e+00	 9.932353294250700e-01	 9.254337393080803e+00
 1.160927149244302e+00	 1.019138325085792e+00	 9.060832331719444e+00
 1.138990397034699e+00	 1.044418197512602e+00	 8.854836552907171e+00
 1.116358362149933e+00	 1.069058351796734e+00	 8.637088114588140e+00
 1.093043231048384e+00	 1.093043231048384e+00	 8.408400510112950e+00
 1.069058351796734e+00	 1.116358362149933e+00	 8.169657313080240e+00
 1.044418197512602e+00	 1.138990397034699e+00	 7.921806027284646e+00
 1.019138325085792e+00	 1.160927149244302e+00	 7.665851228118585e+00
 9.932353294250695e-01	 1.182157625554698e+00	 7.402847095019163e+00
 9.667267935117863e-01	 1.202672052499939e+00	 7.133889445443673e+00
 1.214236275867208e+00	 9.760222989250513e-01	 9.451316140233521e+00
 1.193524593639354e+00	 1.002785726127905e+00	 9.274017059332273e+00
 1.172089976915204e+00	 1.028937790541059e+00	 9.083733140240355e+00
 1.149942293136908e+00	 1.054460740115017e+00	 8.881073691348275e+00
 1.127092641233221e+00	 1.079337820373628e+00	 8.666726441463229e+00
 1.103553324840712e+00	 1.103553324840712e+00	 8.441453433017994e+00
 1.079337820373628e+00	 1.127092641233221e+00	 8.206086065026250e+00
 1.054460740115017e+00	 1.149942293136908e+00	 7.961519351229777e+00
 1.028937790541058e+00	 1.172089976915205e+00	 7.708705473871982e+00
 1.002785726127905e+00	 1.193524593639354e+00	 7.448646726691778e+00
 9.760222989250517e-01	 1.214236275867209e+00	 7.182387951681814e+00
 1.225800499234146e+00	 9.853178043382338e-01	 9.467460954130127e+00
 1.204891561723683e+00	 1.012336122830632e+00	 9.293040424575675e+00
 1.183252804585793e+00	 1.038737255996183e+00	 9.105799116447695e+00
 1.160894189238823e+00	 1.064503282717258e+00	 8.906299899180762e+00
 1.137826920316240e+00	 1.089617288950315e+00	 8.695182589264762e+00
 1.114063418632800e+00	 1.114063418632800e+00	 8.473160206627643e+00
 1.089617288950315e+00	 1.137826920316241e+00	 8.241014396236064e+00
 1.064503282717258e+00	 1.160894189238823e+00	 7.999590074949269e+00
 1.038737255996183e+00	 1.183252804585794e+00	 7.749789378431898e+00
 1.012336122830631e+00	 1.204891561723683e+00	 7.492564996002031e+00
 9.853178043382338e-01	 1.225800499234146e+00	 7.228912992286795e+00
 1.237364727997274e+00	 9.946133140891735e-01	 9.483034882491772e+00
 1.216258535112166e+00	 1.021886523990040e+00	 9.311324969825959e+00
 1.194415637465293e+00	 1.048536726024194e+00	 9.126958527388858e+00
 1.171846090451243e+00	 1.074545830005786e+00	 8.930454323777345e+00
 1.148561204408244e+00	 1.099896762323818e+00	 8.722406630925704e+00
 1.124573517329290e+00	 1.124573517329291e+00	 8.503481824851759e+00
 1.099896762323817e+00	 1.148561204408244e+00	 8.274414166797808e+00
 1.074545830005786e+00	 1.171846090451244e+00	 8.036000819668034e+00
 1.048536726024194e+00	 1.194415637465293e+00	 7.789096169217872e+00
 1.021886523990040e+00	 1.216258535112166e+00	 7.534605532428545e+00
 9.946133140891735e-01	 1.237364727997274e+00	 7.273478346530420e+00
 1.248928967553118e+00	 1.003908832515712e+00	 9.497948216295240e+00
 1.227625519109282e+00	 1.031436934062925e+00	 9.328791235637500e+00
 1.205578480762928e+00	 1.058336205198116e+00	 9.147142300153465e+00
 1.182798001884969e+00	 1.084588386667060e+00	 8.953478369548797e+00
 1.159295498518487e+00	 1.110176245291156e+00	 8.748350491720339e+00
 1.135083625834824e+00	 1.135083625834825e+00	 8.532380729395086e+00
 1.110176245291155e+00	 1.159295498518488e+00	 8.306258282055945e+00
 1.084588386667060e+00	 1.182798001884970e+00	 8.070734853195198e+00
 1.058336205198115e+00	 1.205578480762929e+00	 7.826619327274021e+00
 1.031436934062925e+00	 1.227625519109283e+00	 7.574771833647394e+00
 1.003908832515712e+00	 1.248928967553118e+00	 7.316097285768192e+00
 1.260493223298199e+00	 1.013204363955689e+00	 9.512114542101889e+00
 1.238992519019514e+00	 1.040987357506080e+00	 9.345362682026575e+00
 1.216741339687926e+00	 1.068135698090975e+00	 9.166283900131713e+00
 1.193749928650801e+00	 1.094630957387542e+00	 8.975315594698213e+00
 1.170029807656223e+00	 1.120455742649354e+00	 8.772967864591429e+00
 1.145593749054043e+00	 1.145593749054043e+00	 8.559820743649157e+00
 1.120455742649353e+00	 1.170029807656223e+00	 8.336520644974332e+00
 1.094630957387542e+00	 1.193749928650801e+00	 8.103776060579403e+00
 1.068135698090974e+00	 1.216741339687926e+00	 7.862352575952714e+00
 1.040987357506080e+00	 1.238992519019515e+00	 7.613067271896638e+00
 1.013204363955689e+00	 1.260493223298199e+00	 7.356782597055023e+00
 1.272057500629041e+00	 1.022499912746946e+00	 9.525450592520396e+00
 1.250359540147344e+00	 1.050537798776298e+00	 9.360965556040487e+00
 1.227904219449511e+00	 1.077935209275797e+00	 9.184319215918523e+00
 1.204701875859538e+00	 1.104673546853691e+00	 8.995911613611680e+00
 1.180764136830705e+00	 1.130735259195432e+00	 8.796214130099616e+00
 1.156103891891588e+00	 1.156103891891588e+00	 8.585767010192967e+00
 1.130735259195432e+00	 1.180764136830706e+00	 8.365176111099839e+00
 1.104673546853691e+00	 1.204701875859538e+00	 8.135108916366075e+00
 1.077935209275797e+00	 1.227904219449511e+00	 7.896289870216033e+00
 1.050537798776297e+00	 1.250359540147344e+00	 7.649495099993302e+00
 1.022499912746946e+00	 1.272057500629041e+00	 7.395546605471822e+00
 9.295446851010828e-01	 1.156415051097081e+00	 6.919865960041143e+00
 9.034912739280351e-01	 1.175443739074679e+00	 6.631865829676546e+00
 8.768920792936006e-01	 1.193768700623031e+00	 6.334769476842693e+00
 8.497665476991274e-01	 1.211384141277095e+00	 6.030521314584686e+00
 8.221348496568712e-01	 1.228285490601410e+00	 5.721155344001563e+00
 7.940178164717289e-01	 1.244469402142706e+00	 5.408777762333870e+00
 7.654368751281195e-01	 1.259933748325849e+00	 5.095549182075507e+00
 7.364139816884138e-01	 1.274677610405123e+00	 4.783666726234280e+00
 7.069715536127235e-01	 1.288701263618529e+00	 4.475346256761347e+00
 6.771324014091542e-01	 1.302006157726207e+00	 4.172804979711058e+00
 6.469196600189466e-01	 1.314594893144823e+00	 3.878244652543722e+00
 9.388402338930860e-01	 1.167979328430909e+00	 6.976407186220323e+00
 9.125262857509882e-01	 1.187198305375145e+00	 6.691363486795632e+00
 8.856610962530621e-01	 1.205706518548624e+00	 6.397120496860767e+00
 8.582643063677960e-01	 1.223498115541023e+00	 6.095583860669290e+00
 8.303562883147731e-01	 1.240568480212031e+00	 5.788749875883363e+00
 8.019580817142199e-01	 1.256914232643485e+00	 5.478688339164286e+00
 7.730913278227416e-01	 1.272533223984267e+00	 5.167524982420646e+00
 7.437782022657355e-01	 1.287424526301110e+00	 4.857423762680289e+00
 7.140413466803662e-01	 1.301588417584430e+00	 4.550569260930461e+00
 6.839037996823167e-01	 1.315026362092133e+00	 4.249149432307009e+00
 6.533889275647721e-01	 1.327740986245340e+00	 3.955338932359182e+00
 9.481357653336442e-01	 1.179543584178313e+00	 7.030914227971865e+00
 9.215612807088770e-01	 1.198952849734028e+00	 6.748709960788140e+00
 8.944300968440325e-01	 1.217644314190618e+00	 6.457221465755071e+00
 8.667620491743738e-01	 1.235612067192585e+00	 6.158315498848800e+00
 8.385777116264349e-01	 1.252851446894847e+00	 5.853950335717879e+00
 8.098983321353757e-01	 1.269359039914404e+00	 5.546158863230813e+00
 7.807457662295895e-01	 1.285132676124198e+00	 5.237031243241719e+00
 7.511424090970859e-01	 1.300171418403419e+00	 4.928697409153548e+00
 7.211111265516633e-01	 1.314475547494891e+00	 4.623309648698790e+00
 6.906751853161528e-01	 1.328046542154255e+00	 4.323025513875897e+00
 6.598581830352498e-01	 1.340887054807035e+00	 4.029991281808584e+00
 9.574312837605973e-01	 1.191107823735815e+00	 7.083403161391585e+00
 9.305962630179522e-01	 1.210707377636642e+00	 6.803932644660784e+00
 9.031990851586242e-01	 1.229582093119834e+00	 6.515110370547894e+00
 8.752597800843774e-01	 1.247726001884798e+00	 6.218764102436902e+00
 8.467991234284110e-01	 1.265134396381741e+00	 5.916813794314408e+00
 8.178385714405275e-01	 1.281803829762870e+00	 5.611254936536243e+00
 7.884001939206055e-01	 1.297732110625213e+00	 5.304141457268216e+00
 7.585066056189579e-01	 1.312918292660427e+00	 4.997568437570798e+00
 7.281808965257009e-01	 1.327362659363738e+00	 4.693654891379459e+00
 6.974465614704943e-01	 1.341066703988496e+00	 4.394526849615538e+00
 6.663274294492167e-01	 1.354033104964595e+00	 4.102300970971948e+00
 9.667267935117863e-01	 1.202672052499939e+00	 7.133889445443673e+00
 9.396312368944647e-01	 1.222461894568301e+00	 6.857057878792261e+00
 9.119680652889495e-01	 1.241519860907096e+00	 6.570823737914581e+00
 8.837575030633220e-01	 1.259839925270682e+00	 6.276975703877686e+00
 8.550205275572574e-01	 1.277417334404598e+00	 5.977395127561246e+00
 8.257788033350074e-01	 1.294248607996289e+00	 5.674039637720025e+00
 7.960546144677318e-01	 1.310331533366881e+00	 5.368926290042751e+00
 7.658707952678434e-01	 1.325665155020511e+00	 5.064114512348799e+00
 7.352506599015661e-01	 1.340249759204795e+00	 4.761689094765007e+00
 7.042179313051726e-01	 1.354086853670782e+00	 4.463743462161517e+00
 6.727966698255098e-01	 1.367179142852703e+00	 4.172363449903996e+00
 9.760222989250517e-01	 1.214236275867209e+00	 7.182387951681814e+00
 9.486662065546658e-01	 1.234216406014319e+00	 6.908111001392052e+00
 9.207370413271203e-01	 1.253457623123224e+00	 6.624396704054714e+00
 8.922552220767228e-01	 1.271953843003255e+00	 6.332994582731860e+00
 8.632419278495306e-01	 1.289700266695305e+00	 6.035747121263973e+00
 8.337190315241457e-01	 1.306693380422067e+00	 5.734573642527016e+00
 8.037090314429112e-01	 1.322930950228776e+00	 5.431453714846189e+00
 7.732349814802350e-01	 1.338412011432048e+00	 5.128410338663821e+00
 7.423204199783441e-01	 1.353136853031890e+00	 4.827493159658707e+00
 7.109892979800190e-01	 1.367106997277037e+00	 4.530761943389292e+00
 6.792659071829658e-01	 1.380325174606045e+00	 4.240270530773673e+00
 9.853178043382338e-01	 1.225800499234146e+00	 7.228912992286795e+00
 9.577011762148071e-01	 1.245970917460012e+00	 6.957116396100572e+00
 9.295060173652488e-01	 1.265395385339038e+00	 6.675863080604937e+00
 9.007529410900951e-01	 1.284067760735536e+00	 6.386863348678252e+00
 8.714633281417857e-01	 1.301983198985745e+00	 6.091920570044438e+00
 8.416592597132739e-01	 1.319138152847608e+00	 5.792915337451538e+00
 8.113634484180847e-01	 1.335530367090467e+00	 5.491789139978734e+00
 7.805991676926241e-01	 1.351158867843414e+00	 5.190527802312170e+00
 7.493901800551211e-01	 1.366023946858846e+00	 4.891144933311217e+00
 7.177606646548652e-01	 1.380127140883184e+00	 4.595665616483428e+00
 6.857351445404221e-01	 1.393471206359307e+00	 4.306110559685090e+00
 9.946133140891735e-01	 1.237364727997274e+00	 7.273478346530420e+00
 9.667361500911388e-01	 1.257725434390691e+00	 7.004097536918108e+00
 9.382749974954470e-01	 1.277333153125361e+00	 6.725255416852747e+00
 9.092506640689543e-01	 1.296181684120542e+00	 6.438623019857294e+00
 8.796847322705793e-01	 1.314266137007804e+00	 6.145964370689345e+00
 8.495994916077225e-01	 1.331582931080320e+00	 5.849120927003422e+00
 8.190178689651954e-01	 1.348129789831525e+00	 5.549995528897781e+00
 7.879633573415030e-01	 1.363905730202985e+00	 5.250536101721535e+00
 7.564599434309841e-01	 1.378911046699490e+00	 4.952719352358436e+00
 7.245320344895431e-01	 1.393147290565148e+00	 4.658534688911300e+00
 6.922043849167152e-01	 1.406617244247173e+00	 4.369968578855826e+00
 1.003908832515712e+00	 1.248928967553118e+00	 7.316097285768192e+00
 9.757711323999120e-01	 1.269479962291672e+00	 7.049077030635566e+00
 9.470439858098268e-01	 1.289270932053014e+00	 6.772605058491053e+00
 9.177483949788166e-01	 1.308295618811296e+00	 6.488313096858340e+00
 8.879061440724666e-01	 1.326549086493368e+00	 6.197925610308689e+00
 8.575397309128235e-01	 1.344027720927606e+00	 5.903244535010037e+00
 8.266722966561850e-01	 1.360729224331522e+00	 5.606133513676179e+00
 7.953275538633642e-01	 1.376652604459141e+00	 5.308501872622038e+00
 7.635297134050186e-01	 1.391798158567647e+00	 5.012288577811868e+00
 7.313034106438838e-01	 1.406167452398852e+00	 4.719446396891049e+00
 6.986736313306823e-01	 1.419763294404329e+00	 4.431926479777500e+00
 1.013204363955689e+00	 1.260493223298199e+00	 7.356782597055023e+00
 9.848061273573779e-01	 1.281234506648269e+00	 7.092076656927635e+00
 9.558129864005016e-01	 1.301208727692819e+00	 6.817942203135910e+00
 9.262461377851967e-01	 1.320409570460812e+00	 6.535971632631037e+00
 8.961275673840033e-01	 1.338832053174322e+00	 6.247849649637198e+00
 8.654799813339078e-01	 1.356472528196874e+00	 5.955338300337345e+00
 8.343267350629964e-01	 1.373328676470027e+00	 5.660261502209632e+00
 8.026917606946993e-01	 1.389399496560258e+00	 5.364489305849411e+00
 7.705994932763115e-01	 1.404685288477143e+00	 5.069922122612072e+00
 7.380747962777198e-01	 1.419187632460222e+00	 4.778475141900724e+00
 7.051428868011599e-01	 1.432909362965459e+00	 4.492063147938699e+00
 1.022499912746946e+00	 1.272057500629041e+00	 7.395546605471822e+00
 9.938411391797880e-01	 1.292989072945795e+00	 7.133117406257385e+00
 9.645820033595817e-01	 1.313146545615596e+00	 6.861295952813560e+00
 9.347438964536103e-01	 1.332523544722111e+00	 6.581635298580276e+00
 9.043490060417456e-01	 1.351115042782550e+00	 6.295780201788596e+00
 8.734202465763062e-01	 1.368917358695529e+00	 6.005452467385597e+00
 8.419811877575710e-01	 1.385928152126612e+00	 5.712435779571853e+00
 8.100559812720007e-01	 1.402146412454711e+00	 5.418560258716832e+00
 7.776692863439484e-01	 1.417572442441804e+00	 5.125686972219008e+00
 7.448461945508813e-01	 1.432207836825180e+00	 4.835692619735449e+00
 7.116121543469851e-01	 1.446055456065250e+00	 4.550454599647603e+00
 6.469196600189466e-01	 1.314594893144823e+00	 3.878244652543723e+00
 6.163588700289421e-01	 1.326470387793212e+00	 3.591364689989906e+00
 5.854714964905722e-01	 1.337638367399996e+00	 3.311395365698503e+00
 5.542812261358540e-01	 1.348104707563986e+00	 3.039837327567240e+00
 5.228118009030747e-01	 1.357876299731294e+00	 2.778135711132263e+00
 4.910869536853514e-01	 1.366961009346076e+00	 2.527673177644994e+00
 4.591303459451811e-01	 1.375367631339310e+00	 2.289763906824491e+00
 4.269655074752550e-01	 1.383105843291213e+00	 2.065648555970131e+00
 3.946157785590299e-01	 1.390186156606576e+00	 1.856490181071881e+00
 3.621042547566256e-01	 1.396619866042657e+00	 1.663371101030761e+00
 3.294537345129284e-01	 1.402418997926461e+00	 1.487290673290540e+00
 6.533889275647721e-01	 1.327740986245340e+00	 3.955338932359181e+00
 6.225225263232393e-01	 1.339735237142397e+00	 3.668786857434892e+00
 5.913262756620284e-01	 1.351014897769846e+00	 3.388722699631440e+00
 5.598240991830853e-01	 1.361585902483125e+00	 3.116698884217161e+00
 5.280399762466951e-01	 1.371455211643566e+00	 2.854215814621962e+00
 4.959978770775202e-01	 1.380630769350628e+00	 2.602714242044514e+00
 4.637216997552890e-01	 1.389121458485566e+00	 2.363568600942542e+00
 4.312352093732100e-01	 1.396937053405456e+00	 2.138081330315200e+00
 3.985619796201450e-01	 1.404088170630291e+00	 1.927478183649086e+00
 3.657253370143581e-01	 1.410586217866145e+00	 1.732904514826154e+00
 3.327483079876942e-01	 1.416443341704605e+00	 1.555422513408234e+00
 6.598581830352498e-01	 1.340887054807035e+00	 4.029991281808584e+00
 6.286861711126497e-01	 1.353000061731036e+00	 3.743812271461753e+00
 5.971810439051409e-01	 1.364391403170606e+00	 3.463722374371891e+00
 5.653669618841588e-01	 1.375067072237715e+00	 3.191322289292216e+00
 5.332681418315468e-01	 1.385034098208786e+00	 2.928164079856454e+00
 5.009087913030716e-01	 1.394300503838440e+00	 2.675742907167148e+00
 4.683130449952527e-01	 1.402875259958044e+00	 2.435489738369677e+00
 4.355049033013806e-01	 1.410768237701365e+00	 2.208765059023332e+00
 4.025081733152879e-01	 1.417990158703402e+00	 1.996853599100587e+00
 3.693464125129542e-01	 1.424552543618833e+00	 1.800960065876913e+00
 3.360428753127599e-01	 1.430467659303615e+00	 1.622205862061428e+00
 6.663274294492167e-01	 1.354033104964595e+00	 4.102300970971948e+00
 6.348498072733945e-01	 1.366264867749247e+00	 3.816545090859150e+00
 6.030358039519952e-01	 1.377767889844539e+00	 3.536502474616176e+00
 5.709098168256141e-01	 1.388548223118886e+00	 3.263818690386923e+00
 5.384963000973219e-01	 1.398612965763712e+00	 3.000093956319084e+00
 5.058196986536593e-01	 1.407970219188693e+00	 2.746874266838317e+00
 4.729043838076082e-01	 1.416629042175190e+00	 2.505643503936538e+00
 4.397745912522127e-01	 1.424599402633524e+00	 2.277816568872097e+00
 4.064543614859514e-01	 1.431892127313559e+00	 2.064733550805734e+00
 3.729674829421980e-01	 1.438518849818423e+00	 1.867654931376592e+00
 3.393374380255505e-01	 1.444491957268275e+00	 1.687757808337368e+00
 6.727966698255098e-01	 1.367179142852703e+00	 4.172363449903996e+00
 6.410134376816959e-01	 1.379529661387156e+00	 3.887085466017576e+00
 6.088905585346771e-01	 1.391144364033907e+00	 3.607166925329659e+00
 5.764526665939905e-01	 1.402029361417770e+00	 3.334294957234778e+00
 5.437244534837128e-01	 1.412191820645104e+00	 3.070114526782415e+00
 5.107306014209383e-01	 1.421639921780570e+00	 2.816218984624465e+00
 4.774957183348917e-01	 1.430382811555445e+00	 2.574141609960741e+00
 4.440442752181524e-01	 1.438430554656515e+00	 2.345348189156715e+00
 4.104005459736288e-01	 1.445794082948413e+00	 2.131230652987304e+00
 3.765885499918736e-01	 1.452485142982614e+00	 1.933101777040129e+00
 3.426319976634912e-01	 1.458516242143368e+00	 1.752190932995456e+00
 6.792659071829658e-01	 1.380325174606045e+00	 4.240270530773673e+00
 6.471770652137750e-01	 1.392794448834883e+00	 3.955529730019710e+00
 6.147453103852734e-01	 1.404520831980973e+00	 3.675815690022473e+00
 5.819955137758277e-01	 1.415510493425495e+00	 3.402853885587067e+00
 5.489526044304115e-01	 1.425770669189720e+00	 3.138330715394854e+00
 5.156415018965628e-01	 1.435309617993255e+00	 2.883883504922358e+00
 4.820870507196393e-01	 1.444136574517252e+00	 2.641091509324887e+00
 4.483139571916460e-01	 1.452261700224921e+00	 2.411467965932676e+00
 4.143467286198130e-01	 1.459696032095616e+00	 2.196453225487456e+00
 3.802096153517648e-01	 1.466451429629105e+00	 1.997408971967974e+00
 3.459265557640069e-01	 1.472540520473678e+00	 1.815613523159809e+00
 6.857351445404221e-01	 1.393471206359307e+00	 4.306110559685090e+00
 6.533406927458544e-01	 1.406059236282552e+00	 4.021970578905093e+00
 6.206000622358696e-01	 1.417897299927996e+00	 3.742544957792545e+00
 5.875383609576650e-01	 1.428991625433194e+00	 3.469594389541556e+00
 5.541807553771099e-01	 1.439349517734319e+00	 3.204843483978955e+00
 5.205524023721871e-01	 1.448979314205930e+00	 2.949970252089746e+00
 4.866783831043868e-01	 1.457890337479054e+00	 2.706596596482425e+00
 4.525836391651395e-01	 1.466092845793325e+00	 2.476279864121788e+00
 4.182929112659973e-01	 1.473597981242819e+00	 2.260505496375772e+00
 3.838306807116564e-01	 1.480417716275596e+00	 2.060680791337241e+00
 3.492211138645225e-01	 1.486564798803988e+00	 1.878129774849187e+00
 6.922043849167152e-01	 1.406617244247173e+00	 4.369968578855826e+00
 6.595043231541556e-01	 1.419324029920284e+00	 4.086497241817835e+00
 6.264548168185518e-01	 1.431273774117241e+00	 3.807447319871356e+00
 5.930812107260417e-01	 1.442472763731995e+00	 3.534611683077164e+00
 5.594089087635007e-01	 1.452928372615660e+00	 3.269750017313061e+00
 5.254633051394662e-01	 1.462649016797779e+00	 3.014577818400363e+00
 4.912697176316702e-01	 1.471644106859294e+00	 2.770756397183616e+00
 4.568533231310793e-01	 1.479923997816310e+00	 2.539883958275085e+00
 4.222390957536747e-01	 1.487499936877671e+00	 2.323487793186936e+00
 3.874517477613319e-01	 1.494384009439787e+00	 2.123017607718004e+00
 3.525156735024633e-01	 1.500589083679082e+00	 1.939839984140459e+00
 6.986736313306823e-01	 1.419763294404329e+00	 4.431926479777502e+00
 6.656679593149004e-01	 1.432588835938203e+00	 4.149195641694311e+00
 6.323095768654061e-01	 1.444650260790970e+00	 3.870611936353568e+00
 5.986240656674968e-01	 1.455953914613030e+00	 3.597997451495527e+00
 5.646370670292757e-01	 1.466507240170500e+00	 3.333143898110660e+00
 5.303742124900538e-01	 1.476318732147982e+00	 3.077801141548544e+00
 4.958610564440256e-01	 1.485397889076415e+00	 2.833666747651637e+00
 4.611230110819116e-01	 1.493755162748458e+00	 2.602376612729486e+00
 4.261852839243382e-01	 1.501401905487825e+00	 2.385496723525153e+00
 3.910728181905756e-01	 1.508350315639376e+00	 2.184516071751704e+00
 3.558102362152539e-01	 1.514613381643741e+00	 2.000840727703069e+00
 7.051428868011599e-01	 1.432909362965459e+00	 4.492063147938698e+00
 6.718316041043106e-01	 1.445853660526430e+00	 4.210148547097739e+00
 6.381643451085180e-01	 1.458026766191443e+00	 3.932124693741167e+00
 6.041669283685706e-01	 1.469435084367429e+00	 3.659840013416876e+00
 5.698652326141274e-01	 1.480086126735601e+00	 3.395115272360591e+00
 5.352851267156051e-01	 1.489988466635725e+00	 3.139731672374610e+00
 5.004524016839894e-01	 1.499151690548859e+00	 2.895419963888190e+00
 4.653927050100819e-01	 1.507586347044352e+00	 2.663850651838861e+00
 4.301314776194810e-01	 1.515303893560932e+00	 2.446625345718496e+00
 3.946938936891718e-01	 1.522316641392064e+00	 2.245269282875820e+00
 3.591048035403197e-01	 1.528637699242752e+00	 2.061225033387668e+00
 7.116121543469851e-01	 1.446055456065250e+00	 4.550454599647603e+00
 6.779952603986081e-01	 1.459118509875090e+00	 4.269435715764654e+00
 6.440191242799743e-01	 1.471403296560924e+00	 3.992068353887321e+00
 6.097098014158014e-01	 1.482916279286323e+00	 3.720224473933104e+00
 5.750934079577478e-01	 1.493665038647719e+00	 3.455751005640694e+00
 5.401960501077742e-01	 1.503658226640188e+00	 3.200457533434328e+00
 5.050437554940973e-01	 1.512905517695068e+00	 2.956105001736280e+00
 4.696624069080371e-01	 1.521417557158576e+00	 2.724395520912763e+00
 4.340776786805963e-01	 1.529205907584642e+00	 2.506963330157928e+00
 3.983149759469042e-01	 1.536282993215550e+00	 2.305366950728834e+00
 3.623993770150853e-01	 1.542662043020896e+00	 2.121082541502274e+00
 3.294537345129284e-01	 1.402418997926461e+00	 1.487290673290540e+00
 2.966843784393872e-01	 1.407596598364675e+00	 1.328708879829326e+00
 2.638205609134598e-01	 1.412165572756028e+00	 1.187479470837823e+00
 2.308839434239252e-01	 1.416139826431092e+00	 1.063525237091437e+00
 1.978957096443058e-01	 1.419533782748832e+00	 9.566837544414650e-01
 1.648765290743220e-01	 1.422362329452364e+00	 8.667158446931786e-01
 1.318465240967305e-01	 1.424640765532204e+00	 7.933139711194479e-01
 9.882524045195897e-02	 1.426384748845694e+00	 7.361104782995367e-01
 6.583162110954265e-02	 1.427610244722075e+00	 6.946855982122058e-01
 3.288398349364309e-02	 1.428333475762771e+00	 6.685751566286433e-01
 0.000000000000000e+00	 1.428570873025926e+00	 6.572779256009014e-01
 3.327483079876942e-01	 1.416443341704605e+00	 1.555422513408236e+00
 2.996512547599297e-01	 1.421672718714860e+00	 1.395440666076850e+00
 2.664587954549430e-01	 1.426287383351045e+00	 1.252756121316688e+00
 2.331928081787427e-01	 1.430301379998563e+00	 1.127346088261238e+00
 1.998746884438768e-01	 1.433729276251555e+00	 1.019102225771356e+00
 1.665253124472977e-01	 1.436586108732203e+00	 9.278387374279120e-01
 1.331650037977657e-01	 1.438887329422610e+00	 8.533004377684656e-01
 9.981350369522612e-02	 1.440648752760408e+00	 7.951706999845234e-01
 6.648994454095852e-02	 1.441886503729888e+00	 7.530792069470338e-01
 3.321282693534693e-02	 1.442616967160266e+00	 7.266094390215279e-01
 0.000000000000000e+00	 1.442856738422074e+00	 7.153058434401107e-01
 3.360428753127599e-01	 1.430467659303615e+00	 1.622205862061428e+00
 3.026181255424344e-01	 1.435748812789194e+00	 1.460948743584905e+00
 2.690970250718209e-01	 1.440409167584866e+00	 1.316931292853573e+00
 2.355016686237529e-01	 1.444462907130611e+00	 1.190183515194433e+00
 2.018536635494072e-01	 1.447924743255469e+00	 1.080649544157973e+00
 1.681740927425821e-01	 1.450809861460411e+00	 9.881953804125077e-01
 1.344834810376643e-01	 1.453133866718838e+00	 9.126166375386013e-01
 1.008017650937519e-01	 1.454912730048382e+00	 8.536462054532372e-01
 6.714826674351385e-02	 1.456162736088079e+00	 8.109617532660074e-01
 3.354166976321423e-02	 1.456900431894637e+00	 7.841930044585352e-01
 0.000000000000000e+00	 1.457142577150667e+00	 7.729287281472126e-01
 3.393374380255505e-01	 1.444491957268275e+00	 1.687757808337367e+00
 3.055849921714104e-01	 1.449824887156639e+00	 1.525349877370615e+00
 2.717352509952450e-01	 1.454530932047792e+00	 1.380121061406678e+00
 2.378105258364076e-01	 1.458624414436090e+00	 1.252152586833185e+00
 2.038326358844074e-01	 1.462120190385275e+00	 1.141439500666147e+00
 1.698228707295977e-01	 1.465033594274894e+00	 1.047898062846850e+00
 1.358019564317105e-01	 1.467380384069432e+00	 9.713731801712817e-01
 1.017900251087216e-01	 1.469176687366300e+00	 9.116457930753239e-01
 6.780658802442376e-02	 1.470438948459054e+00	 8.684401370130137e-01
 3.387051213070415e-02	 1.471183876631666e+00	 8.414308107588677e-01
 0.000000000000000e+00	 1.471428395878593e+00	 8.302495944119892e-01
 3.426319976634912e-01	 1.458516242143368e+00	 1.752190932995456e+00
 3.085518560313680e-01	 1.463900948386158e+00	 1.588756336366203e+00
 2.743734744563665e-01	 1.468652683330121e+00	 1.442437033147023e+00
 2.401193808941584e-01	 1.472785908523857e+00	 1.313363940875037e+00
 2.058116063723871e-01	 1.476315624265677e+00	 1.201581504089042e+00
 1.714716471777676e-01	 1.479257313813562e+00	 1.107054749258481e+00
 1.371204305951884e-01	 1.481626888122938e+00	 1.029676415174576e+00
 1.027782842013206e-01	 1.483440631370847e+00	 9.692740705074636e-01
 6.846490869090337e-02	 1.484715147505218e+00	 9.256171401969349e-01
 3.419935419127582e-02	 1.485467308037133e+00	 8.984237724620614e-01
 0.000000000000000e+00	 1.485714201272741e+00	 8.873674882448253e-01
 3.459265557640069e-01	 1.472540520473678e+00	 1.815613523159808e+00
 3.115187185068158e-01	 1.477977003046713e+00	 1.651276107508247e+00
 2.770116966863367e-01	 1.482774428022150e+00	 1.503986557276957e+00
 2.424282348744576e-01	 1.486947396002769e+00	 1.373923994738038e+00
 2.077905759368567e-01	 1.490511051521376e+00	 1.261180789565374e+00
 1.731204228565147e-01	 1.493481026714322e+00	 1.165769285361844e+00
 1.384389041433821e-01	 1.495873385527899e+00	 1.087628634600724e+00
 1.037665428327341e-01	 1.497704568718708e+00	 1.026631654148247e+00
 6.912322905016788e-02	 1.498991339888976e+00	 9.825916229663008e-01
 3.452819609838832e-02	 1.499750732776819e+00	 9.552689532438670e-01
 0.000000000000000e+00	 1.500000000000000e+00	 9.443776758337892e-01
 3.492211138645225e-01	 1.486564798803988e+00	 1.878129774849187e+00
 3.144855809822637e-01	 1.492053057707269e+00	 1.713013097698868e+00
 2.796499189163069e-01	 1.496896172714180e+00	 1.564872926791980e+00
 2.447370888547568e-01	 1.501108883481681e+00	 1.433935144574632e+00
 2.097695455013264e-01	 1.504706478777075e+00	 1.320338615377492e+00
 1.747691985352618e-01	 1.507704739615082e+00	 1.224141592255233e+00
 1.397573776915759e-01	 1.510119882932860e+00	 1.145328264335661e+00
 1.047548014641477e-01	 1.511968506066570e+00	 1.083815357293928e+00
 6.978154940943238e-02	 1.513267532272735e+00	 1.039458708481399e+00
 3.485703800550086e-02	 1.514034157516504e+00	 1.012059747431524e+00
 0.000000000000000e+00	 1.514285798727260e+00	 1.001371821702587e+00
 3.525156735024633e-01	 1.500589083679082e+00	 1.939839984140457e+00
 3.174524448422210e-01	 1.506129118936787e+00	 1.774067324432091e+00
 2.822881423774284e-01	 1.511017923996508e+00	 1.625195567975392e+00
 2.470459439125078e-01	 1.515270377569448e+00	 1.493495953116301e+00
 2.117485159893061e-01	 1.518901912657477e+00	 1.379152448705295e+00
 1.764179749834317e-01	 1.521928459153749e+00	 1.282267849719022e+00
 1.410758518550538e-01	 1.524366386986366e+00	 1.202870044653061e+00
 1.057430605567467e-01	 1.526232450071117e+00	 1.140918367734178e+00
 7.043987007591201e-02	 1.527543731318899e+00	 1.096309957411238e+00
 3.518588006607250e-02	 1.528317588921971e+00	 1.068886051331965e+00
 0.000000000000000e+00	 1.528571604121408e+00	 1.058438156869879e+00
 3.558102362152539e-01	 1.514613381643741e+00	 2.000840727703069e+00
 3.204193114711973e-01	 1.520205193304232e+00	 1.834535095821441e+00
 2.849263683008524e-01	 1.525139688459433e+00	 1.685050219356627e+00
 2.493548011251625e-01	 1.529431884874928e+00	 1.552701327073919e+00
 2.137274883243062e-01	 1.533097359787283e+00	 1.437716141051687e+00
 1.780667529704474e-01	 1.536152191968234e+00	 1.340240669322172e+00
 1.423943272491001e-01	 1.538612904336961e+00	 1.260345200729385e+00
 1.067313205717163e-01	 1.540496407389035e+00	 1.198030415473385e+00
 7.109819135682192e-02	 1.541819943689873e+00	 1.153233532727996e+00
 3.551472243356241e-02	 1.542601033659000e+00	 1.125834425034005e+00
 0.000000000000000e+00	 1.542857422849333e+00	 1.115661637658656e+00
 3.591048035403197e-01	 1.528637699242752e+00	 2.061225033387667e+00
 3.233861822537019e-01	 1.534281287378566e+00	 1.894509180709241e+00
 2.875645979177304e-01	 1.539261472693255e+00	 1.744529100810798e+00
 2.516636615701727e-01	 1.543593412006975e+00	 1.611642684764597e+00
 2.157064634298367e-01	 1.547292826791197e+00	 1.496120094003632e+00
 1.797155332657316e-01	 1.550375944696441e+00	 1.398149257992049e+00
 1.437128044889987e-01	 1.552859441633188e+00	 1.317841603764700e+00
 1.077195819702421e-01	 1.554760384677008e+00	 1.255237931211915e+00
 7.175651355937723e-02	 1.556096176048064e+00	 1.210314355422781e+00
 3.584356526142972e-02	 1.556884498393372e+00	 1.182988245296330e+00
 0.000000000000000e+00	 1.557143261577926e+00	 1.173124095756703e+00
 3.623993770150853e-01	 1.542662043020896e+00	 2.121082541502274e+00
 3.263530585742443e-01	 1.548357407728751e+00	 1.954078969489713e+00
 2.902028324592135e-01	 1.553383283288272e+00	 1.803721073426772e+00
 2.539725263249901e-01	 1.557754965574446e+00	 1.670408114588121e+00
 2.176854422294076e-01	 1.561488320293919e+00	 1.554451415944355e+00
 1.813643166387074e-01	 1.564599723976281e+00	 1.456079572655051e+00
 1.450312841900338e-01	 1.567106005523594e+00	 1.375443923308548e+00
 1.087078452135093e-01	 1.569024388591723e+00	 1.312624196175983e+00
 7.241483699079308e-02	 1.570372435055877e+00	 1.267634251720918e+00
 3.617240870313355e-02	 1.571167989790866e+00	 1.240427850089838e+00
 0.000000000000000e+00	 1.571429126974074e+00	 1.230904380085182e+00
 1.571429126974074e+00	 0.000000000000000e+00	 1.158477660596430e+01
 1.571167989790867e+00	 3.617240870313405e-02	 1.157083414992409e+01
 1.570372435055877e+00	 7.241483699079355e-02	 1.155513680789998e+01
 1.569024388591724e+00	 1.087078452135097e-01	 1.153728005805449e+01
 1.567106005523594e+00	 1.450312841900342e-01	 1.151685903832448e+01
 1.564599723976281e+00	 1.813643166387076e-01	 1.149347192976206e+01
 1.561488320293920e+00	 2.176854422294079e-01	 1.146672365921185e+01
 1.557754965574446e+00	 2.539725263249902e-01	 1.143622990945730e+01
 1.553383283288272e+00	 2.902028324592137e-01	 1.140162141851930e+01
 1.548357407728751e+00	 3.263530585742443e-01	 1.136254854280541e+01
 1.542662043020896e+00	 3.623993770150854e-01	 1.131868605137758e+01
 1.585715024037928e+00	 0.000000000000000e+00	 1.154300494703966e+01
 1.585451512850806e+00	 3.650125287376479e-02	 1.152913121602864e+01
 1.584648725710099e+00	 7.307316188147503e-02	 1.151365733538070e+01
 1.583288424125677e+00	 1.096961106474002e-01	 1.149619692096209e+01
 1.581352600994570e+00	 1.463497668136621e-01	 1.147636312132461e+01
 1.578823534786167e+00	 1.830131036664365e-01	 1.145377189638364e+01
 1.575683845263964e+00	 2.196644254156486e-01	 1.142804560709398e+01
 1.571916550533969e+00	 2.562813961977032e-01	 1.139881690466850e+01
 1.567505125187193e+00	 2.928410728486677e-01	 1.136573290160483e+01
 1.562433559281498e+00	 3.293199414712119e-01	 1.132845959998195e+01
 1.556686417886749e+00	 3.656939577926278e-01	 1.128668654525043e+01
 1.600000951102682e+00	 0.000000000000000e+00	 1.150480267834066e+01
 1.599735065906658e+00	 3.683009773493779e-02	 1.149099028879169e+01
 1.598925046345046e+00	 7.373148815458680e-02	 1.147571808176115e+01
 1.597552489614615e+00	 1.106843781565817e-01	 1.145861775533208e+01
 1.595599226383898e+00	 1.476682522060276e-01	 1.143932064884808e+01
 1.593047375466544e+00	 1.846618941565351e-01	 1.141746094110396e+01
 1.589879400045076e+00	 2.216434127576645e-01	 1.139267915092324e+01
 1.586078165233253e+00	 2.585902709189449e-01	 1.136462592874613e+01
 1.581626996742376e+00	 2.954793187783158e-01	 1.133296612170829e+01
 1.576509740394501e+00	 3.322868305985031e-01	 1.129738308804124e+01
 1.570710822204060e+00	 3.689885454886305e-01	 1.125758322955271e+01
 1.614286904834791e+00	 0.000000000000000e+00	 1.147000182154013e+01
 1.614018645625435e+00	 3.715894320989962e-02	 1.145623665386914e+01
 1.613201393629416e+00	 7.438981565648350e-02	 1.144113913905703e+01
 1.611816581730097e+00	 1.116726475104183e-01	 1.142435902311719e+01
 1.609845878367207e+00	 1.489867400594473e-01	 1.140554603327489e+01
 1.607271242698359e+00	 1.863106877242590e-01	 1.138435301933182e+01
 1.604074981324810e+00	 2.236224037936801e-01	 1.136043938852739e+01
 1.600239806367783e+00	 2.608991499499849e-01	 1.133347482226960e+01
 1.595748894658584e+00	 2.981175696325953e-01	 1.130314325707182e+01
 1.590585947783202e+00	 3.352537252638942e-01	 1.126914710550504e+01
 1.584735252700366e+00	 3.722831393344285e-01	 1.123121168604548e+01
 1.628572881900711e+00	 0.000000000000000e+00	 1.143844028976748e+01
 1.628302248674145e+00	 3.748778922189691e-02	 1.142470172480718e+01
 1.627477764231905e+00	 7.504814423351969e-02	 1.140974690947585e+01
 1.626080697143679e+00	 1.126609184782742e-01	 1.139324362388790e+01
 1.624092553620127e+00	 1.503052300662380e-01	 1.137486019656041e+01
 1.621495133162564e+00	 1.879594839848635e-01	 1.135426861211688e+01
 1.618270585790724e+00	 2.256013980619200e-01	 1.133114790331134e+01
 1.614401470633040e+00	 2.632080327520929e-01	 1.130518781517168e+01
 1.609870815640586e+00	 3.007558247959439e-01	 1.127609272309929e+01
 1.604662178163042e+00	 3.382206247751619e-01	 1.124358578033129e+01
 1.598759706103210e+00	 3.755777385613570e-01	 1.120741326335939e+01
 1.642858878966899e+00	 0.000000000000000e+00	 1.140996163149757e+01
 1.642585871719799e+00	 3.781663569417622e-02	 1.139622277665575e+01
 1.641754154821212e+00	 7.570647373205003e-02	 1.138137383110746e+01
 1.640344832526921e+00	 1.136491908295135e-01	 1.136510061498481e+01
 1.638339248818290e+00	 1.516237219187165e-01	 1.134709028726035e+01
 1.635719043540108e+00	 1.896082825536043e-01	 1.132703444247624e+01
 1.632466210130369e+00	 2.275803951006085e-01	 1.130463248232512e+01
 1.628563154724508e+00	 2.655169187865385e-01	 1.127959524898844e+01
 1.623992756393148e+00	 3.033940836527993e-01	 1.125164890122084e+01
 1.618738428249461e+00	 3.411875284400820e-01	 1.122053900780720e+01
 1.612784179140129e+00	 3.788723424007510e-01	 1.118603482630006e+01
 1.657144892699808e+00	 0.000000000000000e+00	 1.138441478767934e+01
 1.656869511429405e+00	 3.814548254998415e-02	 1.137064269335283e+01
 1.656030562066033e+00	 7.636480399842913e-02	 1.135585811779504e+01
 1.654608984551380e+00	 1.146374643335004e-01	 1.133976494613800e+01
 1.652585960637322e+00	 1.529422153091996e-01	 1.132206941218430e+01
 1.649942970511941e+00	 1.912570830457367e-01	 1.130248320638573e+01
 1.646661851031305e+00	 2.295593944479705e-01	 1.128072684890622e+01
 1.642724855337668e+00	 2.678258075145912e-01	 1.125653331346746e+01
 1.638114713621036e+00	 3.060323455875986e-01	 1.122965188177380e+01
 1.632814694757902e+00	 3.441544355664312e-01	 1.119985220199190e+01
 1.626808668538664e+00	 3.821669500839458e-01	 1.116692851811333e+01
 1.671430919765895e+00	 0.000000000000000e+00	 1.136165386131243e+01
 1.671153164469973e+00	 3.847432971256731e-02	 1.134780972805630e+01
 1.670306982635067e+00	 7.702313487901155e-02	 1.133304351233863e+01
 1.668873149888615e+00	 1.156257387595990e-01	 1.131707720768787e+01
 1.666832685752855e+00	 1.542607099300041e-01	 1.129963638180290e+01
 1.664166910759013e+00	 1.929058850765161e-01	 1.128045331755888e+01
 1.660857505181086e+00	 2.315383956422302e-01	 1.125927040902499e+01
 1.656886569168004e+00	 2.701346983975205e-01	 1.123584379667584e+01
 1.652236684029017e+00	 3.086706099847796e-01	 1.120994722006194e+01
 1.646890974403806e+00	 3.471213454619858e-01	 1.118137605989876e+01
 1.640833171026356e+00	 3.854615608422766e-01	 1.114995153493519e+01
 1.685716956831615e+00	 0.000000000000000e+00	 1.134153789873390e+01
 1.685436827508512e+00	 3.880317710517230e-02	 1.132757727565559e+01
 1.684583413197011e+00	 7.768146622015194e-02	 1.131277905224088e+01
 1.683137325210183e+00	 1.166140138771735e-01	 1.129688339160149e+01
 1.681079420840518e+00	 1.555792054734467e-01	 1.127963546859340e+01
 1.678390860962274e+00	 1.945546882611981e-01	 1.126078866519610e+01
 1.675053169267265e+00	 2.335173982216121e-01	 1.124010801052085e+01
 1.671048292910997e+00	 2.724435908965961e-01	 1.121737384780773e+01
 1.666358664321857e+00	 3.113088762287799e-01	 1.119238570481171e+01
 1.660967263902613e+00	 3.500882574345220e-01	 1.116496633766167e+01
 1.654857683330742e+00	 3.887561739070783e-01	 1.113496591170407e+01
 1.700003000563425e+00	 0.000000000000000e+00	 1.132393068192649e+01
 1.699720497212033e+00	 3.913202465104567e-02	 1.130980365674717e+01
 1.698859850420562e+00	 7.833979786820486e-02	 1.129491884725740e+01
 1.697401507187642e+00	 1.176022894555880e-01	 1.127903466453193e+01
 1.695326162575941e+00	 1.568977016318442e-01	 1.126191617756283e+01
 1.692614817802672e+00	 1.962034922150380e-01	 1.124333838394151e+01
 1.689248839977401e+00	 2.354964017243409e-01	 1.122308971447099e+01
 1.685210023262131e+00	 2.747524844730876e-01	 1.120097575194445e+01
 1.680480651204323e+00	 3.139471437040368e-01	 1.117682313829654e+01
 1.675043559969767e+00	 3.530551707918165e-01	 1.115048363798106e+01
 1.668882202179363e+00	 3.920507885096862e-01	 1.112183831886170e+01
 1.714289047627778e+00	 0.000000000000000e+00	 1.130870053120577e+01
 1.714004170247544e+00	 3.946087227343405e-02	 1.129435191240532e+01
 1.713136290974417e+00	 7.899812966952499e-02	 1.127932186806360e+01
 1.711665692492551e+00	 1.185905652642067e-01	 1.126338715221847e+01
 1.709572907634753e+00	 1.582161980975134e-01	 1.124633302823877e+01
 1.706838777961159e+00	 1.978522965532914e-01	 1.122795663533585e+01
 1.703444513999047e+00	 2.374754056886410e-01	 1.120807057798474e+01
 1.699371756916888e+00	 2.770613785882647e-01	 1.118650671607077e+01
 1.694602641381181e+00	 3.165854117949879e-01	 1.116312012744912e+01
 1.689119859320706e+00	 3.560220848416451e-01	 1.113779320819184e+01
 1.682906724299760e+00	 3.953454038814352e-01	 1.111043986921331e+01
 1.542662043020896e+00	 3.623993770150854e-01	 1.131868605137758e+01
 1.536282993215550e+00	 3.983149759469040e-01	 1.127068713317777e+01
 1.529205907584642e+00	 4.340776786805960e-01	 1.121949080117728e+01
 1.521417557158576e+00	 4.696624069080367e-01	 1.116521017326560e+01
 1.512905517695068e+00	 5.050437554940970e-01	 1.110792679805672e+01
 1.503658226640188e+00	 5.401960501077737e-01	 1.104768694394278e+01
 1.493665038647719e+00	 5.750934079577475e-01	 1.098449802819903e+01
 1.482916279286322e+00	 6.097098014158012e-01	 1.091832525132908e+01
 1.471403296560924e+00	 6.440191242799742e-01	 1.084908850429222e+01
 1.459118509875090e+00	 6.779952603986078e-01	 1.077665961742712e+01
 1.446055456065250e+00	 7.116121543469853e-01	 1.070086001959794e+01
 1.556686417886749e+00	 3.656939577926278e-01	 1.128668654525043e+01
 1.550249375998099e+00	 4.019360662311212e-01	 1.124091303263865e+01
 1.543107952424686e+00	 4.380238884888155e-01	 1.119192050237269e+01
 1.535248797932060e+00	 4.739321182701246e-01	 1.113982975398284e+01
 1.526659375328873e+00	 5.096351194812659e-01	 1.108472944534313e+01
 1.517328016945761e+00	 5.451069843853168e-01	 1.102667227658204e+01
 1.507243980659426e+00	 5.803215948899214e-01	 1.096567131273978e+01
 1.496397504088063e+00	 6.152526867491098e-01	 1.090169651185535e+01
 1.484779856581116e+00	 6.498739164288541e-01	 1.083467152776333e+01
 1.472383388626781e+00	 6.841589303549737e-01	 1.076447085817562e+01
 1.459201578304726e+00	 7.180814362322998e-01	 1.069091740842968e+01
 1.570710822204060e+00	 3.689885454886305e-01	 1.125758322955271e+01
 1.564215788110238e+00	 4.055571641194287e-01	 1.121391530031909e+01
 1.557010026459114e+00	 4.419701065838270e-01	 1.116700487798950e+01
 1.549080067751132e+00	 4.782018385983015e-01	 1.111698030074250e+01
 1.540413261845648e+00	 5.142264931099342e-01	 1.106393708964941e+01
 1.530997835957645e+00	 5.500179289753961e-01	 1.100793401883456e+01
 1.520822951186545e+00	 5.855497928008031e-01	 1.094898932374899e+01
 1.509878757199894e+00	 6.207955837219393e-01	 1.088707711591187e+01
 1.498156444691492e+00	 6.557287208722125e-01	 1.082212407521710e+01
 1.485648295234026e+00	 6.903226132544257e-01	 1.075400649231801e+01
 1.472347728150277e+00	 7.245507317024646e-01	 1.068254773349721e+01
 1.584735252700366e+00	 3.722831393344285e-01	 1.123121168604548e+01
 1.578182226293059e+00	 4.091782687669958e-01	 1.118953748821929e+01
 1.570912126444055e+00	 4.459163320449563e-01	 1.114459487528838e+01
 1.562911363388469e+00	 4.824715668964256e-01	 1.109651957649004e+01
 1.554167174036154e+00	 5.188178753089214e-01	 1.104541372776536e+01
 1.544667680486245e+00	 5.549288827322758e-01	 1.099134181976128e+01
 1.534401947060710e+00	 5.907780004706400e-01	 1.093432678397408e+01
 1.523360035476277e+00	 6.263384910411125e-01	 1.087434628723398e+01
 1.511533057770965e+00	 6.615835362440975e-01	 1.081132930762146e+01
 1.498913226601820e+00	 6.964863076589417e-01	 1.074515306643880e+01
 1.485493902534635e+00	 7.310200392481445e-01	 1.067564039083735e+01
 1.598759706103210e+00	 3.755777385613570e-01	 1.120741326335939e+01
 1.592148687287654e+00	 4.127993793289919e-01	 1.116762863555645e+01
 1.584814249135637e+00	 4.498625639515296e-01	 1.112454666927128e+01
 1.576742681616749e+00	 4.867413021683550e-01	 1.107831033277512e+01
 1.567921108691154e+00	 5.234092650070474e-01	 1.102902812636663e+01
 1.558337547341971e+00	 5.598398445102201e-01	 1.097676990000021e+01
 1.547980965113555e+00	 5.960062166796786e-01	 1.092156280973569e+01
 1.536841335771679e+00	 6.318814074134527e-01	 1.086338748522481e+01
 1.524909692698449e+00	 6.674383611785578e-01	 1.080217448349086e+01
 1.512178179635163e+00	 7.026500121304985e-01	 1.073780110590578e+01
 1.498640098390529e+00	 7.374893573600056e-01	 1.067008865532205e+01
 1.612784179140129e+00	 3.788723424007510e-01	 1.118603482630006e+01
 1.606115167835117e+00	 4.164204949605868e-01	 1.114804303022518e+01
 1.598716391289989e+00	 4.538088013828732e-01	 1.110672143541951e+01
 1.590574019208646e+00	 4.910110434179482e-01	 1.106222009288308e+01
 1.581675062601407e+00	 5.280006611331310e-01	 1.101465361465157e+01
 1.572007433335227e+00	 5.647508131634927e-01	 1.096409685302134e+01
 1.561560002176714e+00	 6.012344402081660e-01	 1.091058071991768e+01
 1.550322654940563e+00	 6.374243315457835e-01	 1.085408822080630e+01
 1.538286346352859e+00	 6.732931943096417e-01	 1.079455078073821e+01
 1.525443151239054e+00	 7.088137252310736e-01	 1.073184494188088e+01
 1.511786312650691e+00	 7.439586845287128e-01	 1.066578951200988e+01
 1.626808668538664e+00	 3.821669500839458e-01	 1.116692851811333e+01
 1.620081664676538e+00	 4.200416148169498e-01	 1.113063998258946e+01
 1.612618549663240e+00	 4.577550434183133e-01	 1.109098513418029e+01
 1.604405372936839e+00	 4.952807896490632e-01	 1.104812094617743e+01
 1.595429032557675e+00	 5.325920626159918e-01	 1.100216788769799e+01
 1.585677335276421e+00	 5.696617875463581e-01	 1.095320545665579e+01
 1.575139055081823e+00	 6.064626698363499e-01	 1.090126785483150e+01
 1.563803989837394e+00	 6.429672621449282e-01	 1.084633988179002e+01
 1.551663015613107e+00	 6.791480342713972e-01	 1.078835312773621e+01
 1.538708138318490e+00	 7.149774455226444e-01	 1.072718254727373e+01
 1.524932542247848e+00	 7.504280192449314e-01	 1.066264349621587e+01
 1.640833171026356e+00	 3.854615608422766e-01	 1.114995153493519e+01
 1.634048174553012e+00	 4.236627380532504e-01	 1.111528361086836e+01
 1.626520721011518e+00	 4.617012891371760e-01	 1.107720830649911e+01
 1.618236739574002e+00	 4.995505398655581e-01	 1.103588935298317e+01
 1.609183015350721e+00	 5.371834683844493e-01	 1.099145281989835e+01
 1.599347249975960e+00	 5.745727665130803e-01	 1.094398249428477e+01
 1.588718120660515e+00	 6.116909043444767e-01	 1.089351540436434e+01
 1.577285337316637e+00	 6.485101979177099e-01	 1.084003756719824e+01
 1.565039697358108e+00	 6.850028796978732e-01	 1.078348004303730e+01
 1.551973137778469e+00	 7.211411715671885e-01	 1.072371538110317e+01
 1.538078784114736e+00	 7.568973599993275e-01	 1.066055454177831e+01
 1.654857683330742e+00	 3.887561739070783e-01	 1.113496591170407e+01
 1.648014694205628e+00	 4.272838638246583e-01	 1.110184263742856e+01
 1.640422902090953e+00	 4.656475376187876e-01	 1.106526587974307e+01
 1.632068115892814e+00	 5.038202930712914e-01	 1.102540595938573e+01
 1.622937007771303e+00	 5.417748773673225e-01	 1.098239428787623e+01
 1.613017174244250e+00	 5.794837489179233e-01	 1.093631858511551e+01
 1.602297195744425e+00	 6.169191425127935e-01	 1.088721824486077e+01
 1.590766694232754e+00	 6.540531375709525e-01	 1.083507993000487e+01
 1.578416388466777e+00	 6.908577292231182e-01	 1.077983348323918e+01
 1.565238146523991e+00	 7.273049019266826e-01	 1.072134824076831e+01
 1.551225035184080e+00	 7.633667052825658e-01	 1.065942983703666e+01
 1.668882202179363e+00	 3.920507885096862e-01	 1.112183831886170e+01
 1.661981220375480e+00	 4.309049912863429e-01	 1.109019019534214e+01
 1.654325089657674e+00	 4.695937879424743e-01	 1.105503698340433e+01
 1.645899498665951e+00	 5.080900482701213e-01	 1.101655542136276e+01
 1.636691006610186e+00	 5.463662884934315e-01	 1.097488200232658e+01
 1.626687104891698e+00	 5.843947336151508e-01	 1.093010802301028e+01
 1.615876277165188e+00	 6.221473831215475e-01	 1.088227478422432e+01
 1.604248057440212e+00	 6.595960798114789e-01	 1.083136902780104e+01
 1.591793085818026e+00	 6.967125814811796e-01	 1.077731869851664e+01
 1.578503161460054e+00	 7.334686351631050e-01	 1.071998912176408e+01
 1.564371292388615e+00	 7.698360535853119e-01	 1.065917968806707e+01
 1.682906724299760e+00	 3.953454038814352e-01	 1.111043986921331e+01
 1.675947749803660e+00	 4.345261195934738e-01	 1.108020364461134e+01
 1.668227280467807e+00	 4.735400391875617e-01	 1.104640477401328e+01
 1.659730884666089e+00	 5.123598044659057e-01	 1.100922623770464e+01
 1.650445008658129e+00	 5.509577006915951e-01	 1.096880934825931e+01
 1.640357038728711e+00	 5.893057194590274e-01	 1.092524862336943e+01
 1.629455361754438e+00	 6.273756249509855e-01	 1.087858681475991e+01
 1.617729423793474e+00	 6.651390233461127e-01	 1.082881018092339e+01
 1.605169786290770e+00	 7.025674351061066e-01	 1.077584409537301e+01
 1.591768179491655e+00	 7.396323698384317e-01	 1.071954908440708e+01
 1.577517552661069e+00	 7.763054033982315e-01	 1.065971738875245e+01
 1.446055456065250e+00	 7.116121543469853e-01	 1.070086001959794e+01
 1.432207836825179e+00	 7.448461945508820e-01	 1.061928164798148e+01
 1.417572442441803e+00	 7.776692863439487e-01	 1.052971243152790e+01
 1.402146412454711e+00	 8.100559812720015e-01	 1.043219584855092e+01
 1.385928152126612e+00	 8.419811877575717e-01	 1.032675177354733e+01
 1.368917358695528e+00	 8.734202465763066e-01	 1.021337500913854e+01
 1.351115042782549e+00	 9.043490060417461e-01	 1.009203413958754e+01
 1.332523544722111e+00	 9.347438964536106e-01	 9.962670742437748e+00
 1.313146545615595e+00	 9.645820033595822e-01	 9.825198989392950e+00
 1.292989072945795e+00	 9.938411391797882e-01	 9.679505661038657e+00
 1.272057500629041e+00	 1.022499912746946e+00	 9.525450592520396e+00
 1.459201578304726e+00	 7.180814362322998e-01	 1.069091740842968e+01
 1.445228070050683e+00	 7.516176078332568e-01	 1.061162785276626e+01
 1.430459624972012e+00	 7.847390950822563e-01	 1.052440005265776e+01
 1.414893356603801e+00	 8.174202181726493e-01	 1.042925666024153e+01
 1.398527655710973e+00	 8.496356574188768e-01	 1.032619738872647e+01
 1.381362216779143e+00	 8.813605294190271e-01	 1.021519774588636e+01
 1.363398059616986e+00	 9.125704629231188e-01	 1.009620808590169e+01
 1.344637545834977e+00	 9.432416739582017e-01	 9.969153013036863e+00
 1.325084389999482e+00	 9.733510397561601e-01	 9.833931165182783e+00
 1.304743665298257e+00	 1.002876171029337e+00	 9.690415398817825e+00
 1.283621803593056e+00	 1.031795482142871e+00	 9.538453389571149e+00
 1.472347728150277e+00	 7.245507317024646e-01	 1.068254773349721e+01
 1.458248330617824e+00	 7.583890353349527e-01	 1.060539284953942e+01
 1.443346834564395e+00	 7.918089186665238e-01	 1.052035416772866e+01
 1.427640327520521e+00	 8.247844705375758e-01	 1.042743378593071e+01
 1.411127185753312e+00	 8.572901431539766e-01	 1.032661164654590e+01
 1.393807100995965e+00	 8.893008289357811e-01	 1.021784447465155e+01
 1.375681102244761e+00	 9.207919370690237e-01	 1.010106502986467e+01
 1.356751572386259e+00	 9.517394693076289e-01	 9.976181702248443e+00
 1.337022259451874e+00	 9.821200945672420e-01	 9.843078477123751e+00
 1.316498282334426e+00	 1.011911221851995e+00	 9.701615287237885e+00
 1.295186130841210e+00	 1.041091071059036e+00	 9.551628763520426e+00
 1.485493902534635e+00	 7.310200392481445e-01	 1.067564039083735e+01
 1.471268615488724e+00	 7.651604754761316e-01	 1.060046881283838e+01
 1.456234068212133e+00	 7.988787554472803e-01	 1.051747011313967e+01
 1.440387322230788e+00	 8.321487366486009e-01	 1.042662610780583e+01
 1.423726739313953e+00	 8.649446431769593e-01	 1.032789735724077e+01
 1.406252008442408e+00	 8.972411432739574e-01	 1.022122231200256e+01
 1.387964167800051e+00	 9.290134265612310e-01	 1.010651676632945e+01
 1.368865621549567e+00	 9.602372805191779e-01	 9.983673646435562e+00
 1.348960151187484e+00	 9.908891657468134e-01	 9.852563155190198e+00
 1.328252921311766e+00	 1.020946289539680e+00	 9.713033288480331e+00
 1.306750479675358e+00	 1.050386677326566e+00	 9.564910731509638e+00
 1.498640098390529e+00	 7.374893573600056e-01	 1.067008865532205e+01
 1.484288921625506e+00	 7.719319266769569e-01	 1.059675169857810e+01
 1.469121322908410e+00	 8.059486037750556e-01	 1.051564689575859e+01
 1.453134337760516e+00	 8.395130147875444e-01	 1.042673605414262e+01
 1.436326313453225e+00	 8.725991557019142e-01	 1.032996073934103e+01
 1.418696936214885e+00	 9.051814705809439e-01	 1.022524163173533e+01
 1.400247253417037e+00	 9.372349294815117e-01	 1.011247818325796e+01
 1.380979690498518e+00	 9.687351056101363e-01	 9.991548598207110e+00
 1.360898062421025e+00	 9.996582512488599e-01	 9.862310156385455e+00
 1.340007579487740e+00	 1.029981371984304e+00	 9.724599890659885e+00
 1.318314847397356e+00	 1.059682298776580e+00	 9.578235624195774e+00
 1.511786312650691e+00	 7.439586845287128e-01	 1.066578951200988e+01
 1.497309245990293e+00	 7.787033873575906e-01	 1.059414107963470e+01
 1.482008595646407e+00	 8.130184620003784e-01	 1.051478703332226e+01
 1.465881371135623e+00	 8.468773032362267e-01	 1.042766944510785e+01
 1.448925905231452e+00	 8.802536789429295e-01	 1.033271127145946e+01
 1.431141881409813e+00	 9.131218090041288e-01	 1.022981592322371e+01
 1.412530356229895e+00	 9.454564439116367e-01	 1.011886712720121e+01
 1.393093776406722e+00	 9.772329425977901e-01	 9.999729099581481e+00
 1.372835990367206e+00	 1.008427349027368e+00	 9.872247046126393e+00
 1.351762254119812e+00	 1.039016467077784e+00	 9.736247997946421e+00
 1.329879231309057e+00	 1.068977933240202e+00	 9.591541985103060e+00
 1.524932542247848e+00	 7.504280192449314e-01	 1.066264349621587e+01
 1.510329585545209e+00	 7.854748559381955e-01	 1.059253998992867e+01
 1.494895883419309e+00	 8.200883284737793e-01	 1.051479640308764e+01
 1.478628419382025e+00	 8.542416002764679e-01	 1.042933534653336e+01
 1.461525511708960e+00	 8.879082111140940e-01	 1.033606155174163e+01
 1.443586841123604e+00	 9.210621566909006e-01	 1.023486165709243e+01
 1.424813473372803e+00	 9.536779679333758e-01	 1.012560427573328e+01
 1.405207876447794e+00	 9.857307894994263e-01	 1.000814036170729e+01
 1.384773932240742e+00	 1.017196457036321e+00	 9.882303885759907e+00
 1.363516942465446e+00	 1.048051572712035e+00	 9.747912826367152e+00
 1.341443628712318e+00	 1.078273578548551e+00	 9.604770475177769e+00
 1.538078784114736e+00	 7.568973599993275e-01	 1.066055454177831e+01
 1.523349937252375e+00	 7.922463308389349e-01	 1.059185477649932e+01
 1.507783183220298e+00	 8.271582015457860e-01	 1.051558409823985e+01
 1.491375479525636e+00	 8.616059041900879e-01	 1.043164593118466e+01
 1.474125129946076e+00	 8.955627504294971e-01	 1.033992716451955e+01
 1.456031812452673e+00	 9.290025117886478e-01	 1.024029815777491e+01
 1.437096601979941e+00	 9.618994996285009e-01	 1.013261301642375e+01
 1.417321987795348e+00	 9.942286443323317e-01	 1.001671015074872e+01
 1.396711885256342e+00	 1.025965573229707e+00	 9.892413125844620e+00
 1.375271641782104e+00	 1.057086686778972e+00	 9.759531804949333e+00
 1.353008036908993e+00	 1.087569232532751e+00	 9.617863782234926e+00
 1.551225035184080e+00	 7.633667052825658e-01	 1.065942983703666e+01
 1.536370298073917e+00	 7.990178104799711e-01	 1.059199495909689e+01
 1.520670492042556e+00	 8.342280795669296e-01	 1.051706229159773e+01
 1.504122548592373e+00	 8.689702132589067e-01	 1.043451634707996e+01
 1.486724757003127e+00	 9.032172951032263e-01	 1.034422655374199e+01
 1.468476792493434e+00	 9.369428724447580e-01	 1.024604748254768e+01
 1.449379739185485e+00	 9.701210370787814e-01	 1.013981933196065e+01
 1.429436107622995e+00	 1.002726505113793e+00	 1.002536867957026e+01
 1.408649846628719e+00	 1.034734695561511e+00	 9.902509504855981e+00
 1.387026349327250e+00	 1.066121807170510e+00	 9.771044481886905e+00
 1.364572453200936e+00	 1.096864893023922e+00	 9.630766535007028e+00
 1.564371292388615e+00	 7.698360535853119e-01	 1.065917968806707e+01
 1.549390664971957e+00	 8.057892932814672e-01	 1.059287309685001e+01
 1.533557806879267e+00	 8.412979608877380e-01	 1.051914610618753e+01
 1.516869623608153e+00	 8.763345257647448e-01	 1.043786459244480e+01
 1.499324389940438e+00	 9.108718433493710e-01	 1.034888090278291e+01
 1.480921778342302e+00	 9.448832368066197e-01	 1.025203430666048e+01
 1.461662882123616e+00	 9.783425783659890e-01	 1.014715169106242e+01
 1.441550233104349e+00	 1.011224369861097e+00	 1.003404850487967e+01
 1.420587813572585e+00	 1.043503821985717e+00	 9.912529952995980e+00
 1.398781062358348e+00	 1.075156931778564e+00	 9.782392435435673e+00
 1.376136874890005e+00	 1.106160557853187e+00	 9.643425221523978e+00
 1.577517552661069e+00	 7.763054033982315e-01	 1.065971738875245e+01
 1.562411034908616e+00	 8.125607776635853e-01	 1.059440466159643e+01
 1.546445124723613e+00	 8.483678438587413e-01	 1.052175349228447e+01
 1.529616701598890e+00	 8.836988399894217e-01	 1.044161139691570e+01
 1.511924025818336e+00	 9.185263933820198e-01	 1.035381402025642e+01
 1.493366767095691e+00	 9.528236030216212e-01	 1.025818581420694e+01
 1.473946027928508e+00	 9.865641215718935e-01	 1.015454094484131e+01
 1.453664361413024e+00	 1.019722236591529e+00	 1.004268442951120e+01
 1.432525783302651e+00	 1.052272950456313e+00	 9.922413500809704e+00
 1.410535778132862e+00	 1.084192058495051e+00	 9.793519189261405e+00
 1.387701299278052e+00	 1.115456224851666e+00	 9.655788111572004e+00
 1.272057500629041e+00	 1.022499912746946e+00	 9.525450592520396e+00
 1.250359540147344e+00	 1.050537798776298e+00	 9.360965556040487e+00
 1.227904219449511e+00	 1.077935209275797e+00	 9.184319215918523e+00
 1.204701875859538e+00	 1.104673546853691e+00	 8.995911613611680e+00
 1.180764136830705e+00	 1.130735259195432e+00	 8.796214130099616e+00
 1.156103891891588e+00	 1.156103891891588e+00	 8.585767010192967e+00
 1.130735259195432e+00	 1.180764136830706e+00	 8.365176111099839e+00
 1.104673546853691e+00	 1.204701875859538e+00	 8.135108916366075e+00
 1.077935209275797e+00	 1.227904219449511e+00	 7.896289870216033e+00
 1.050537798776297e+00	 1.250359540147344e+00	 7.649495099993302e+00
 1.022499912746946e+00	 1.272057500629041e+00	 7.395546605471822e+00
 1.283621803593056e+00	 1.031795482142871e+00	 9.538453389571149e+00
 1.261726586471149e+00	 1.060088261216182e+00	 9.376109485055212e+00
 1.239067123954619e+00	 1.087734742182361e+00	 9.201769204683778e+00
 1.215653847344298e+00	 1.114716158580364e+00	 9.015797097107640e+00
 1.191498489798890e+00	 1.141014798527169e+00	 8.818627711718861e+00
 1.166614058025953e+00	 1.166614058025953e+00	 8.610763397898355e+00
 1.141014798527169e+00	 1.191498489798890e+00	 8.392771342667377e+00
 1.114716158580364e+00	 1.215653847344298e+00	 8.165279883747562e+00
 1.087734742182360e+00	 1.239067123954620e+00	 7.928974148733644e+00
 1.060088261216181e+00	 1.261726586471148e+00	 7.684591083645173e+00
 1.031795482142871e+00	 1.283621803593056e+00	 7.432913945187858e+00
 1.295186130841210e+00	 1.041091071059036e+00	 9.551628763520426e+00
 1.273093656664901e+00	 1.069638743711571e+00	 9.391311023784523e+00
 1.250230051901031e+00	 1.097534295667453e+00	 9.219159846319736e+00
 1.226605841827457e+00	 1.124758791395993e+00	 9.035505818310508e+00
 1.202232865308533e+00	 1.151294359445364e+00	 8.840748207149511e+00
 1.177124246231041e+00	 1.177124246231041e+00	 8.635353022431310e+00
 1.151294359445364e+00	 1.202232865308534e+00	 8.419850330343298e+00
 1.124758791395993e+00	 1.226605841827457e+00	 8.194830853525582e+00
 1.097534295667452e+00	 1.250230051901031e+00	 7.960941902960295e+00
 1.069638743711570e+00	 1.273093656664901e+00	 7.718882700898868e+00
 1.041091071059036e+00	 1.295186130841210e+00	 7.469399164884662e+00
 1.306750479675358e+00	 1.050386677326566e+00	 9.564910731509638e+00
 1.284460748076471e+00	 1.079189244034114e+00	 9.406510452213217e+00
 1.261393000684236e+00	 1.107333867444610e+00	 9.236437769393731e+00
 1.237557856753712e+00	 1.134801442957407e+00	 9.054990811062940e+00
 1.212967260855094e+00	 1.161573939551575e+00	 8.862535082551766e+00
 1.187634454054607e+00	 1.187634454054607e+00	 8.659501779269963e+00
 1.161573939551575e+00	 1.212967260855095e+00	 8.446385365709396e+00
 1.134801442957407e+00	 1.237557856753713e+00	 8.223740450005183e+00
 1.107333867444610e+00	 1.261393000684237e+00	 7.992177996647347e+00
 1.079189244034114e+00	 1.284460748076472e+00	 7.752360932265143e+00
 1.050386677326566e+00	 1.306750479675358e+00	 7.504999210433562e+00
 1.318314847397356e+00	 1.059682298776580e+00	 9.578235624195774e+00
 1.295827858053730e+00	 1.088739759955460e+00	 9.421650144135516e+00
 1.272555967699726e+00	 1.117133455227372e+00	 9.253551473576163e+00
 1.248509889567757e+00	 1.144844110921433e+00	 9.074206755623687e+00
 1.223701673934031e+00	 1.171853536447356e+00	 8.883949224875211e+00
 1.198144679044406e+00	 1.198144679044407e+00	 8.683176759169891e+00
 1.171853536447356e+00	 1.223701673934032e+00	 8.472349711288231e+00
 1.144844110921433e+00	 1.248509889567758e+00	 8.251988046329592e+00
 1.117133455227372e+00	 1.272555967699726e+00	 8.022667823564806e+00
 1.088739759955460e+00	 1.295827858053730e+00	 7.785017073769307e+00
 1.059682298776580e+00	 1.318314847397355e+00	 7.539711134038996e+00
 1.329879231309057e+00	 1.068977933240202e+00	 9.591541985103060e+00
 1.307194983944547e+00	 1.098290289247258e+00	 9.436674476053494e+00
 1.283718950342991e+00	 1.126933056729275e+00	 9.270451248216142e+00
 1.259461937714286e+00	 1.154886792944901e+00	 9.093109907006777e+00
 1.234436102040804e+00	 1.182133147734263e+00	 8.904952880002629e+00
 1.208654918748195e+00	 1.208654918748196e+00	 8.706346196107800e+00
 1.182133147734263e+00	 1.234436102040805e+00	 8.497717558236054e+00
 1.154886792944901e+00	 1.259461937714287e+00	 8.279553731825555e+00
 1.126933056729275e+00	 1.283718950342991e+00	 8.052397284357079e+00
 1.098290289247258e+00	 1.307194983944547e+00	 7.816842723130081e+00
 1.068977933240202e+00	 1.329879231309057e+00	 7.573532089509976e+00
 1.341443628712318e+00	 1.078273578548551e+00	 9.604770475177769e+00
 1.318562123096792e+00	 1.107840829681157e+00	 9.451529740785094e+00
 1.294881946009521e+00	 1.136732669663859e+00	 9.287089095126532e+00
 1.270413998637995e+00	 1.164929486684639e+00	 9.111658027025314e+00
 1.245170542670870e+00	 1.192412771013853e+00	 8.925509594091514e+00
 1.219165170713729e+00	 1.219165170713729e+00	 8.728979417916424e+00
 1.192412771013853e+00	 1.245170542670870e+00	 8.522463986222792e+00
 1.164929486684638e+00	 1.270413998637995e+00	 8.306418281036812e+00
 1.136732669663859e+00	 1.294881946009521e+00	 8.081352764595053e+00
 1.107840829681157e+00	 1.318562123096793e+00	 7.847829766653131e+00
 1.078273578548551e+00	 1.341443628712317e+00	 7.606459327775976e+00
 1.353008036908993e+00	 1.087569232532751e+00	 9.617863782234926e+00
 1.329929272858337e+00	 1.117391379028806e+00	 9.466164065500086e+00
 1.306044952094807e+00	 1.146532291744662e+00	 9.303418655326464e+00
 1.281366069783578e+00	 1.174972189797474e+00	 9.129810319818292e+00
 1.255904993319687e+00	 1.202692403887681e+00	 8.945584157922035e+00
 1.229675432488762e+00	 1.229675432488763e+00	 8.751046799449377e+00
 1.202692403887681e+00	 1.255904993319688e+00	 8.546564925368376e+00
 1.174972189797473e+00	 1.281366069783578e+00	 8.332563124344851e+00
 1.146532291744661e+00	 1.306044952094807e+00	 8.109521113953281e+00
 1.117391379028805e+00	 1.329929272858337e+00	 7.877970366796268e+00
 1.087569232532751e+00	 1.353008036908992e+00	 7.638490192632787e+00
 1.364572453200936e+00	 1.096864893023922e+00	 9.630766535007028e+00
 1.341296430577051e+00	 1.126941935061853e+00	 9.480527333921405e+00
 1.317207965994339e+00	 1.156331920685220e+00	 9.319395139506966e+00
 1.292318148595728e+00	 1.185014899940235e+00	 9.147527370653906e+00
 1.266639451482715e+00	 1.212972043957304e+00	 8.965142554073372e+00
 1.240185701621051e+00	 1.240185701621051e+00	 8.772519718126489e+00
 1.212972043957304e+00	 1.266639451482715e+00	 8.569997120113523e+00
 1.185014899940234e+00	 1.292318148595729e+00	 8.357970320082774e+00
 1.156331920685220e+00	 1.317207965994339e+00	 8.136889626445392e+00
 1.126941935061853e+00	 1.341296430577051e+00	 7.907256950366821e+00
 1.096864893023922e+00	 1.364572453200936e+00	 7.669622116704629e+00
 1.376136874890005e+00	 1.106160557853187e+00	 9.643425221523978e+00
 1.352663593600802e+00	 1.136492495551947e+00	 9.494571112447105e+00
 1.328370985103609e+00	 1.166131554199074e+00	 9.334975262000473e+00
 1.303270232519143e+00	 1.195057614769750e+00	 9.164771087816952e+00
 1.277373914655412e+00	 1.223251688824277e+00	 8.984151906761983e+00
 1.250695975658350e+00	 1.250695975658350e+00	 8.793370511719104e+00
 1.223251688824276e+00	 1.277373914655412e+00	 8.592738094911297e+00
 1.195057614769750e+00	 1.303270232519143e+00	 8.382622528054332e+00
 1.166131554199074e+00	 1.328370985103609e+00	 8.163446021655488e+00
 1.136492495551947e+00	 1.352663593600803e+00	 7.935682197313659e+00
 1.106160557853187e+00	 1.376136874890005e+00	 7.699852617609732e+00
 1.387701299278052e+00	 1.115456224851666e+00	 9.655788111572004e+00
 1.364030759277465e+00	 1.146043058270738e+00	 9.508248579964153e+00
 1.339534006818105e+00	 1.175931189999760e+00	 9.350117178050311e+00
 1.314222318998515e+00	 1.205100331942848e+00	 9.181504647400114e+00
 1.288108380333235e+00	 1.233531336090155e+00	 9.002580434186639e+00
 1.261206252148415e+00	 1.261206252148416e+00	 8.813572438245309e+00
 1.233531336090155e+00	 1.288108380333236e+00	 8.614766121633027e+00
 1.205100331942847e+00	 1.314222318998515e+00	 8.406502984376523e+00
 1.175931189999759e+00	 1.339534006818105e+00	 8.189178426907603e+00
 1.146043058270737e+00	 1.364030759277465e+00	 7.963239030079494e+00
 1.115456224851666e+00	 1.387701299278052e+00	 7.729179294317658e+00
 1.022499912746946e+00	 1.272057500629041e+00	 7.395546605471822e+00
 9.938411391797880e-01	 1.292989072945795e+00	 7.133117406257385e+00
 9.645820033595817e-01	 1.313146545615596e+00	 6.861295952813560e+00
 9.347438964536103e-01	 1.332523544722111e+00	 6.581635298580276e+00
 9.043490060417456e-01	 1.351115042782550e+00	 6.295780201788596e+00
 8.734202465763062e-01	 1.368917358695529e+00	 6.005452467385597e+00
 8.419811877575710e-01	 1.385928152126612e+00	 5.712435779571853e+00
 8.100559812720007e-01	 1.402146412454711e+00	 5.418560258716832e+00
 7.776692863439484e-01	 1.417572442441804e+00	 5.125686972219008e+00
 7.448461945508813e-01	 1.432207836825180e+00	 4.835692619735449e+00
 7.116121543469851e-01	 1.446055456065250e+00	 4.550454599647603e+00
 1.031795482142871e+00	 1.283621803593056e+00	 7.432913945187858e+00
 1.002876171029337e+00	 1.304743665298257e+00	 7.172708474787877e+00
 9.733510397561598e-01	 1.325084389999482e+00	 6.903155760355608e+00
 9.432416739582011e-01	 1.344637545834978e+00	 6.625769742127027e+00
 9.125704629231184e-01	 1.363398059616986e+00	 6.342155312749423e+00
 8.813605294190264e-01	 1.381362216779144e+00	 6.053993970806664e+00
 8.496356574188763e-01	 1.398527655710974e+00	 5.763028962501615e+00
 8.174202181726491e-01	 1.414893356603802e+00	 5.471050141039841e+00
 7.847390950822557e-01	 1.430459624972012e+00	 5.179878769340673e+00
 7.516176078332562e-01	 1.445228070050684e+00	 4.891352482915334e+00
 7.180814362322998e-01	 1.459201578304726e+00	 4.607310616609036e+00
 1.041091071059036e+00	 1.295186130841210e+00	 7.469399164884662e+00
 1.011911221851995e+00	 1.316498282334426e+00	 7.211347255051186e+00
 9.821200945672417e-01	 1.337022259451875e+00	 6.943997661304527e+00
 9.517394693076283e-01	 1.356751572386259e+00	 6.668825673603919e+00
 9.207919370690233e-01	 1.375681102244761e+00	 6.387396654464900e+00
 8.893008289357806e-01	 1.393807100995965e+00	 6.101352005783827e+00
 8.572901431539762e-01	 1.411127185753312e+00	 5.812394622818741e+00
 8.247844705375753e-01	 1.427640327520522e+00	 5.522274060542453e+00
 7.918089186665234e-01	 1.443346834564396e+00	 5.232771633927848e+00
 7.583890353349521e-01	 1.458248330617824e+00	 4.945685665276905e+00
 7.245507317024646e-01	 1.472347728150277e+00	 4.662817078964709e+00
 1.050386677326566e+00	 1.306750479675358e+00	 7.504999210433562e+00
 1.020946289539679e+00	 1.328252921311766e+00	 7.249036389333407e+00
 9.908891657468131e-01	 1.348960151187485e+00	 6.983829622495930e+00
 9.602372805191773e-01	 1.368865621549567e+00	 6.710816008032165e+00
 9.290134265612304e-01	 1.387964167800052e+00	 6.431521711443139e+00
 8.972411432739568e-01	 1.406252008442408e+00	 6.147548247417141e+00
 8.649446431769587e-01	 1.423726739313954e+00	 5.860558249215449e+00
 8.321487366486005e-01	 1.440387322230788e+00	 5.572260946430593e+00
 7.988787554472800e-01	 1.456234068212134e+00	 5.284397568485069e+00
 7.651604754761312e-01	 1.471268615488724e+00	 4.998726883112992e+00
 7.310200392481446e-01	 1.485493902534635e+00	 4.717011066718213e+00
 1.059682298776580e+00	 1.318314847397355e+00	 7.539711134038996e+00
 1.029981371984303e+00	 1.340007579487740e+00	 7.285778426521002e+00
 9.996582512488599e-01	 1.360898062421025e+00	 7.022659330693507e+00
 9.687351056101354e-01	 1.380979690498518e+00	 6.751753206906372e+00
 9.372349294815112e-01	 1.400247253417037e+00	 6.474547354509340e+00
 9.051814705809433e-01	 1.418696936214885e+00	 6.192603610271028e+00
 8.725991557019135e-01	 1.436326313453225e+00	 5.907544436231507e+00
 8.395130147875441e-01	 1.453134337760517e+00	 5.621038713237489e+00
 8.059486037750551e-01	 1.469121322908410e+00	 5.334787453212496e+00
 7.719319266769559e-01	 1.484288921625506e+00	 5.050509635397033e+00
 7.374893573600056e-01	 1.498640098390529e+00	 4.769928359822197e+00
 1.068977933240202e+00	 1.329879231309057e+00	 7.573532089509976e+00
 1.039016467077783e+00	 1.351762254119812e+00	 7.321575826054428e+00
 1.008427349027367e+00	 1.372835990367206e+00	 7.060494204657910e+00
 9.772329425977898e-01	 1.393093776406722e+00	 6.791649297804511e+00
 9.454564439116363e-01	 1.412530356229895e+00	 6.516489867379184e+00
 9.131218090041283e-01	 1.431141881409813e+00	 6.236538281333450e+00
 8.802536789429289e-01	 1.448925905231452e+00	 5.953376923024182e+00
 8.468773032362263e-01	 1.465881371135624e+00	 5.668634304835322e+00
 8.130184620003781e-01	 1.482008595646407e+00	 5.383971094699948e+00
 7.787033873575901e-01	 1.497309245990293e+00	 5.101066256611064e+00
 7.439586845287128e-01	 1.511786312650691e+00	 4.821603494606764e+00
 1.078273578548551e+00	 1.341443628712317e+00	 7.606459327775976e+00
 1.048051572712034e+00	 1.363516942465446e+00	 7.356430961677734e+00
 1.017196457036321e+00	 1.384773932240742e+00	 7.097341406591949e+00
 9.857307894994257e-01	 1.405207876447794e+00	 6.830515892984266e+00
 9.536779679333754e-01	 1.424813473372804e+00	 6.557364971858497e+00
 9.210621566909001e-01	 1.443586841123604e+00	 6.279371751271338e+00
 8.879082111140938e-01	 1.461525511708960e+00	 5.998078630134092e+00
 8.542416002764672e-01	 1.478628419382025e+00	 5.715073736172211e+00
 8.200883284737788e-01	 1.494895883419310e+00	 5.431977272103712e+00
 7.854748559381950e-01	 1.510329585545209e+00	 5.150427966842997e+00
 7.504280192449314e-01	 1.524932542247848e+00	 4.872069817290846e+00
 1.087569232532751e+00	 1.353008036908992e+00	 7.638490192632787e+00
 1.057086686778971e+00	 1.375271641782104e+00	 7.390346124995880e+00
 1.025965573229707e+00	 1.396711885256342e+00	 7.133207852998928e+00
 9.942286443323313e-01	 1.417321987795348e+00	 6.868364207026222e+00
 9.618994996285004e-01	 1.437096601979941e+00	 6.597187851751835e+00
 9.290025117886472e-01	 1.456031812452673e+00	 6.321122844084082e+00
 8.955627504294964e-01	 1.474125129946077e+00	 6.041671694366607e+00
 8.616059041900874e-01	 1.491375479525636e+00	 5.760382132869751e+00
 8.271582015457856e-01	 1.507783183220298e+00	 5.478833780956582e+00
 7.922463308389345e-01	 1.523349937252376e+00	 5.198624919315904e+00
 7.568973599993274e-01	 1.538078784114736e+00	 4.921359534750970e+00
 1.096864893023922e+00	 1.364572453200936e+00	 7.669622116704629e+00
 1.066121807170509e+00	 1.387026349327251e+00	 7.423323528851360e+00
 1.034734695561510e+00	 1.408649846628719e+00	 7.168100224989619e+00
 1.002726505113793e+00	 1.429436107622995e+00	 6.905205073580470e+00
 9.701210370787809e-01	 1.449379739185485e+00	 6.635973175555584e+00
 9.369428724447576e-01	 1.468476792493435e+00	 6.361809745249941e+00
 9.032172951032259e-01	 1.486724757003127e+00	 6.084177501900736e+00
 8.689702132589063e-01	 1.504122548592373e+00	 5.804583768808319e+00
 8.342280795669288e-01	 1.520670492042557e+00	 5.524567474751754e+00
 7.990178104799709e-01	 1.536370298073918e+00	 5.245686245502333e+00
 7.633667052825658e-01	 1.551225035184081e+00	 4.969503762710127e+00
 1.106160557853187e+00	 1.376136874890005e+00	 7.699852617609732e+00
 1.075156931778564e+00	 1.398781062358349e+00	 7.455365310530725e+00
 1.043503821985717e+00	 1.420587813572585e+00	 7.202024978069510e+00
 1.011224369861096e+00	 1.441550233104349e+00	 6.941048961269606e+00
 9.783425783659885e-01	 1.461662882123616e+00	 6.673735118007938e+00
 9.448832368066190e-01	 1.480921778342302e+00	 6.401450028454585e+00
 9.108718433493705e-01	 1.499324389940438e+00	 6.125616719729596e+00
 8.763345257647444e-01	 1.516869623608153e+00	 5.847702101818651e+00
 8.412979608877375e-01	 1.533557806879267e+00	 5.569204304431008e+00
 8.057892932814669e-01	 1.549390664971957e+00	 5.291640097964994e+00
 7.698360535853118e-01	 1.564371292388615e+00	 5.016532571498196e+00
 1.115456224851666e+00	 1.387701299278052e+00	 7.729179294317658e+00
 1.084192058495050e+00	 1.410535778132863e+00	 7.486473534810949e+00
 1.052272950456312e+00	 1.432525783302652e+00	 7.234988351437364e+00
 1.019722236591529e+00	 1.453664361413024e+00	 6.975905988796716e+00
 9.865641215718933e-01	 1.473946027928509e+00	 6.710487380561765e+00
 9.528236030216204e-01	 1.493366767095692e+00	 6.440060680983478e+00
 9.185263933820192e-01	 1.511924025818336e+00	 6.166009325529849e+00
 8.836988399894211e-01	 1.529616701598891e+00	 5.889759807589517e+00
 8.483678438587410e-01	 1.546445124723613e+00	 5.612769355899868e+00
 8.125607776635847e-01	 1.562411034908617e+00	 5.336513691056765e+00
 7.763054033982313e-01	 1.577517552661069e+00	 5.062475029525714e+00
 7.116121543469851e-01	 1.446055456065250e+00	 4.550454599647603e+00
 6.779952603986081e-01	 1.459118509875090e+00	 4.269435715764654e+00
 6.440191242799743e-01	 1.471403296560924e+00	 3.992068353887321e+00
 6.097098014158014e-01	 1.482916279286323e+00	 3.720224473933104e+00
 5.750934079577478e-01	 1.493665038647719e+00	 3.455751005640694e+00
 5.401960501077742e-01	 1.503658226640188e+00	 3.200457533434328e+00
 5.050437554940973e-01	 1.512905517695068e+00	 2.956105001736280e+00
 4.696624069080371e-01	 1.521417557158576e+00	 2.724395520912763e+00
 4.340776786805963e-01	 1.529205907584642e+00	 2.506963330157928e+00
 3.983149759469042e-01	 1.536282993215550e+00	 2.305366950728834e+00
 3.623993770150853e-01	 1.542662043020896e+00	 2.121082541502274e+00
 7.180814362322998e-01	 1.459201578304726e+00	 4.607310616609036e+00
 6.841589303549738e-01	 1.472383388626782e+00	 4.327221331676775e+00
 6.498739164288544e-01	 1.484779856581117e+00	 4.050559882747719e+00
 6.152526867491104e-01	 1.496397504088063e+00	 3.779219282839352e+00
 5.803215948899217e-01	 1.507243980659427e+00	 3.515070102680345e+00
 5.451069843853170e-01	 1.517328016945761e+00	 3.259947765935128e+00
 5.096351194812663e-01	 1.526659375328873e+00	 3.015640866138230e+00
 4.739321182701249e-01	 1.535248797932060e+00	 2.783880590886898e+00
 4.380238884888158e-01	 1.543107952424687e+00	 2.566331314405605e+00
 4.019360662311215e-01	 1.550249375998100e+00	 2.364582396100167e+00
 3.656939577926278e-01	 1.556686417886749e+00	 2.180141200647061e+00
 7.245507317024646e-01	 1.472347728150277e+00	 4.662817078964711e+00
 6.903226132544259e-01	 1.485648295234026e+00	 4.383644652612738e+00
 6.557287208722129e-01	 1.498156444691492e+00	 4.107690597302363e+00
 6.207955837219395e-01	 1.509878757199893e+00	 3.836866805330573e+00
 5.855497928008034e-01	 1.520822951186545e+00	 3.573065319178754e+00
 5.500179289753964e-01	 1.530997835957644e+00	 3.318145251795073e+00
 5.142264931099344e-01	 1.540413261845647e+00	 3.073920728732533e+00
 4.782018385983018e-01	 1.549080067751132e+00	 2.842149942958462e+00
 4.419701065838273e-01	 1.557010026459114e+00	 2.624525388186409e+00
 4.055571641194289e-01	 1.564215788110238e+00	 2.422665312512178e+00
 3.689885454886305e-01	 1.570710822204060e+00	 2.238106411453432e+00
 7.310200392481446e-01	 1.485493902534635e+00	 4.717011066718214e+00
 6.964863076589421e-01	 1.498913226601821e+00	 4.438744805004672e+00
 6.615835362440979e-01	 1.511533057770965e+00	 4.163501413026294e+00
 6.263384910411126e-01	 1.523360035476277e+00	 3.893209539423369e+00
 5.907780004706401e-01	 1.534401947060710e+00	 3.629780579875411e+00
 5.549288827322761e-01	 1.544667680486245e+00	 3.375095236839701e+00
 5.188178753089218e-01	 1.554167174036154e+00	 3.130991100199223e+00
 4.824715668964258e-01	 1.562911363388469e+00	 2.899251344806205e+00
 4.459163320449566e-01	 1.570912126444055e+00	 2.681594615442822e+00
 4.091782687669960e-01	 1.578182226293059e+00	 2.479666145101085e+00
 3.722831393344285e-01	 1.584735252700366e+00	 2.295030129218677e+00
 7.374893573600056e-01	 1.498640098390529e+00	 4.769928359822199e+00
 7.026500121304988e-01	 1.512178179635163e+00	 4.492559543632636e+00
 6.674383611785580e-01	 1.524909692698449e+00	 4.218031811168753e+00
 6.318814074134532e-01	 1.536841335771679e+00	 3.948288493576061e+00
 5.960062166796790e-01	 1.547980965113555e+00	 3.685258270081019e+00
 5.598398445102205e-01	 1.558337547341970e+00	 3.430841381296125e+00
 5.234092650070477e-01	 1.567921108691153e+00	 3.186896861416767e+00
 4.867413021683554e-01	 1.576742681616749e+00	 2.955230890372953e+00
 4.498625639515298e-01	 1.584814249135637e+00	 2.737586341061751e+00
 4.127993793289922e-01	 1.592148687287655e+00	 2.535633571640638e+00
 3.755777385613569e-01	 1.598759706103210e+00	 2.350962489037509e+00
 7.439586845287128e-01	 1.511786312650691e+00	 4.821603494606764e+00
 7.088137252310740e-01	 1.525443151239054e+00	 4.545125311169880e+00
 6.732931943096422e-01	 1.538286346352859e+00	 4.271319901023579e+00
 6.374243315457838e-01	 1.550322654940563e+00	 4.002143251369670e+00
 6.012344402081665e-01	 1.561560002176714e+00	 3.739539302531981e+00
 5.647508131634932e-01	 1.572007433335227e+00	 3.485425828660135e+00
 5.280006611331313e-01	 1.581675062601407e+00	 3.241681334256417e+00
 4.910110434179485e-01	 1.590574019208646e+00	 3.010133072575537e+00
 4.538088013828737e-01	 1.598716391289989e+00	 2.792546265560825e+00
 4.164204949605870e-01	 1.606115167835117e+00	 2.590614579333750e+00
 3.788723424007510e-01	 1.612784179140129e+00	 2.405951884896347e+00
 7.504280192449314e-01	 1.524932542247848e+00	 4.872069817290846e+00
 7.149774455226450e-01	 1.538708138318490e+00	 4.596477294650233e+00
 6.791480342713977e-01	 1.551663015613107e+00	 4.323402478980430e+00
 6.429672621449286e-01	 1.563803989837395e+00	 4.054812032844932e+00
 6.064626698363502e-01	 1.575139055081823e+00	 3.792663180788576e+00
 5.696617875463584e-01	 1.585677335276421e+00	 3.538889271003050e+00
 5.325920626159921e-01	 1.595429032557675e+00	 3.295386348716974e+00
 4.952807896490634e-01	 1.604405372936839e+00	 3.064000852256568e+00
 4.577550434183135e-01	 1.612618549663240e+00	 2.846518515913414e+00
 4.200416148169501e-01	 1.620081664676538e+00	 2.644654537634555e+00
 3.821669500839457e-01	 1.626808668538665e+00	 2.460045044678715e+00
 7.568973599993274e-01	 1.538078784114736e+00	 4.921359534750968e+00
 7.211411715671887e-01	 1.551973137778469e+00	 4.646649479041014e+00
 6.850028796978735e-01	 1.565039697358109e+00	 4.374315084549668e+00
 6.485101979177100e-01	 1.577285337316637e+00	 4.106331752696137e+00
 6.116909043444768e-01	 1.588718120660515e+00	 3.844668059383977e+00
 5.745727665130806e-01	 1.599347249975960e+00	 3.591271010931615e+00
 5.371834683844495e-01	 1.609183015350720e+00	 3.348052306618650e+00
 4.995505398655584e-01	 1.618236739574002e+00	 3.116875723601373e+00
 4.617012891371763e-01	 1.626520721011518e+00	 2.899545712743724e+00
 4.236627380532507e-01	 1.634048174553011e+00	 2.697797267337907e+00
 3.854615608422766e-01	 1.640833171026356e+00	 2.513287101326553e+00
 7.633667052825658e-01	 1.551225035184081e+00	 4.969503762710127e+00
 7.273049019266828e-01	 1.565238146523991e+00	 4.695674698093875e+00
 6.908577292231181e-01	 1.578416388466777e+00	 4.424092053539917e+00
 6.540531375709528e-01	 1.590766694232754e+00	 4.156738075507180e+00
 6.169191425127937e-01	 1.602297195744425e+00	 3.895590800916531e+00
 5.794837489179234e-01	 1.613017174244251e+00	 3.642609020399058e+00
 5.417748773673230e-01	 1.622937007771304e+00	 3.399718242060128e+00
 5.038202930712917e-01	 1.632068115892814e+00	 3.168797776231404e+00
 4.656475376187880e-01	 1.640422902090953e+00	 2.951669034107218e+00
 4.272838638246586e-01	 1.648014694205628e+00	 2.750085106157940e+00
 3.887561739070783e-01	 1.654857683330742e+00	 2.565721660384845e+00
 7.698360535853118e-01	 1.564371292388615e+00	 5.016532571498196e+00
 7.334686351631050e-01	 1.578503161460053e+00	 4.743584682632646e+00
 6.967125814811799e-01	 1.591793085818026e+00	 4.472766568556025e+00
 6.595960798114791e-01	 1.604248057440212e+00	 4.206065468204414e+00
 6.221473831215476e-01	 1.615876277165188e+00	 3.945467030264848e+00
 5.843947336151513e-01	 1.626687104891698e+00	 3.692939996552576e+00
 5.463662884934321e-01	 1.636691006610186e+00	 3.450421878828850e+00
 5.080900482701216e-01	 1.645899498665951e+00	 3.219805754167909e+00
 4.695937879424745e-01	 1.654325089657673e+00	 3.002928276056811e+00
 4.309049912863432e-01	 1.661981220375480e+00	 2.801558971001922e+00
 3.920507885096861e-01	 1.668882202179363e+00	 2.617390864142859e+00
 7.763054033982313e-01	 1.577517552661069e+00	 5.062475029525715e+00
 7.396323698384324e-01	 1.591768179491655e+00	 4.790410106428699e+00
 7.025674351061071e-01	 1.605169786290770e+00	 4.520370706973607e+00
 6.651390233461130e-01	 1.617729423793473e+00	 4.254347249888084e+00
 6.273756249509856e-01	 1.629455361754438e+00	 3.994331186094080e+00
 5.893057194590278e-01	 1.640357038728711e+00	 3.742299414789973e+00
 5.509577006915954e-01	 1.650445008658129e+00	 3.500199684942566e+00
 5.123598044659060e-01	 1.659730884666089e+00	 3.269937111849409e+00
 4.735400391875621e-01	 1.668227280467808e+00	 3.053361910182637e+00
 4.345261195934739e-01	 1.675947749803660e+00	 2.852258417132109e+00
 3.953454038814352e-01	 1.682906724299760e+00	 2.668335452569858e+00
 3.623993770150853e-01	 1.542662043020896e+00	 2.121082541502274e+00
 3.263530585742443e-01	 1.548357407728751e+00	 1.954078969489713e+00
 2.902028324592135e-01	 1.553383283288272e+00	 1.803721073426772e+00
 2.539725263249901e-01	 1.557754965574446e+00	 1.670408114588121e+00
 2.176854422294076e-01	 1.561488320293919e+00	 1.554451415944355e+00
 1.813643166387074e-01	 1.564599723976281e+00	 1.456079572655051e+00
 1.450312841900338e-01	 1.567106005523594e+00	 1.375443923308548e+00
 1.087078452135093e-01	 1.569024388591723e+00	 1.312624196175983e+00
 7.241483699079308e-02	 1.570372435055877e+00	 1.267634251720918e+00
 3.617240870313355e-02	 1.571167989790866e+00	 1.240427850089838e+00
 0.000000000000000e+00	 1.571429126974074e+00	 1.230904380085182e+00
 3.656939577926278e-01	 1.556686417886749e+00	 2.180141200647060e+00
 3.293199414712120e-01	 1.562433559281498e+00	 2.012929555372566e+00
 2.928410728486677e-01	 1.567505125187194e+00	 1.862272227191709e+00
 2.562813961977030e-01	 1.571916550533969e+00	 1.728610181448853e+00
 2.196644254156484e-01	 1.575683845263964e+00	 1.612296186540242e+00
 1.830131036664362e-01	 1.578823534786167e+00	 1.513599737860613e+00
 1.463497668136618e-01	 1.581352600994570e+00	 1.432712271878491e+00
 1.096961106473998e-01	 1.583288424125677e+00	 1.369752584942861e+00
 7.307316188147454e-02	 1.584648725710099e+00	 1.324772377928055e+00
 3.650125287376429e-02	 1.585451512850806e+00	 1.297761854900795e+00
 0.000000000000000e+00	 1.585715024037928e+00	 1.288655311416708e+00
 3.689885454886305e-01	 1.570710822204060e+00	 2.238106411453431e+00
 3.322868305985031e-01	 1.576509740394501e+00	 2.070724635226711e+00
 2.954793187783156e-01	 1.581626996742376e+00	 1.919808368186325e+00
 2.585902709189448e-01	 1.586078165233253e+00	 1.785842183610018e+00
 2.216434127576642e-01	 1.589879400045076e+00	 1.669222087119379e+00
 1.846618941565348e-01	 1.593047375466543e+00	 1.570260147689481e+00
 1.476682522060273e-01	 1.595599226383897e+00	 1.489189449926125e+00
 1.106843781565813e-01	 1.597552489614615e+00	 1.426169282443418e+00
 7.373148815458633e-02	 1.598925046345047e+00	 1.381290483197689e+00
 3.683009773493729e-02	 1.599735065906658e+00	 1.354580869291450e+00
 0.000000000000000e+00	 1.600000951102682e+00	 1.346010685829533e+00
 3.722831393344285e-01	 1.584735252700366e+00	 2.295030129218675e+00
 3.352537252638942e-01	 1.590585947783202e+00	 2.127517609141442e+00
 2.981175696325952e-01	 1.595748894658584e+00	 1.976384019519372e+00
 2.608991499499848e-01	 1.600239806367783e+00	 1.842159397792162e+00
 2.236224037936799e-01	 1.604074981324811e+00	 1.725284734200980e+00
 1.863106877242587e-01	 1.607271242698359e+00	 1.626116303474657e+00
 1.489867400594469e-01	 1.609845878367206e+00	 1.544930350650624e+00
 1.116726475104179e-01	 1.611816581730097e+00	 1.481928045992923e+00
 7.438981565648303e-02	 1.613201393629416e+00	 1.437240629497533e+00
 3.715894320989912e-02	 1.614018645625435e+00	 1.410934671705117e+00
 0.000000000000000e+00	 1.614286904834791e+00	 1.403017384245044e+00
 3.755777385613569e-01	 1.598759706103210e+00	 2.350962489037509e+00
 3.382206247751618e-01	 1.604662178163041e+00	 2.183360006449094e+00
 3.007558247959438e-01	 1.609870815640586e+00	 2.032051794273657e+00
 2.632080327520928e-01	 1.614401470633040e+00	 1.897615164381423e+00
 2.256013980619198e-01	 1.618270585790723e+00	 1.780537796184742e+00
 1.879594839848633e-01	 1.621495133162564e+00	 1.681221762616190e+00
 1.503052300662377e-01	 1.624092553620127e+00	 1.599987944812338e+00
 1.126609184782738e-01	 1.626080697143680e+00	 1.537080750493855e+00
 7.504814423351923e-02	 1.627477764231905e+00	 1.492673056057169e+00
 3.748778922189638e-02	 1.628302248674145e+00	 1.466871298180021e+00
 0.000000000000000e+00	 1.628572881900711e+00	 1.459720647080599e+00
 3.788723424007510e-01	 1.612784179140129e+00	 2.405951884896347e+00
 3.411875284400819e-01	 1.618738428249461e+00	 2.238301567022319e+00
 3.033940836527992e-01	 1.623992756393148e+00	 2.086862478515302e+00
 2.655169187865384e-01	 1.628563154724507e+00	 1.952260971588237e+00
 2.275803951006083e-01	 1.632466210130370e+00	 1.835033078027239e+00
 1.896082825536040e-01	 1.635719043540108e+00	 1.735628223081665e+00
 1.516237219187161e-01	 1.638339248818289e+00	 1.654413364305080e+00
 1.136491908295131e-01	 1.640344832526921e+00	 1.591677470275499e+00
 7.570647373204954e-02	 1.641754154821212e+00	 1.547636258620855e+00
 3.781663569417570e-02	 1.642585871719799e+00	 1.522437118118860e+00
 0.000000000000000e+00	 1.642858878966899e+00	 1.516164145598828e+00
 3.821669500839457e-01	 1.626808668538665e+00	 2.460045044678715e+00
 3.441544355664312e-01	 1.632814694757902e+00	 2.292390318368670e+00
 3.060323455875985e-01	 1.638114713621036e+00	 2.140865110012424e+00
 2.678258075145910e-01	 1.642724855337668e+00	 2.006146535255137e+00
 2.295593944479702e-01	 1.646661851031305e+00	 1.888820601541386e+00
 1.912570830457364e-01	 1.649942970511941e+00	 1.789385603538199e+00
 1.529422153091992e-01	 1.652585960637322e+00	 1.708255981408443e+00
 1.146374643335000e-01	 1.654608984551381e+00	 1.645766556702686e+00
 7.636480399842863e-02	 1.656030562066033e+00	 1.602177064603858e+00
 3.814548254998362e-02	 1.656869511429404e+00	 1.577676906141431e+00
 0.000000000000000e+00	 1.657144892699808e+00	 1.572390049568337e+00
 3.854615608422766e-01	 1.640833171026356e+00	 2.513287101326553e+00
 3.471213454619858e-01	 1.646890974403806e+00	 2.345672648773669e+00
 3.086706099847795e-01	 1.652236684029017e+00	 2.194107052918716e+00
 2.701346983975204e-01	 1.656886569168003e+00	 2.059319874574623e+00
 2.315383956422299e-01	 1.660857505181086e+00	 1.941948681579540e+00
 1.929058850765158e-01	 1.664166910759013e+00	 1.842542119377783e+00
 1.542607099300037e-01	 1.666832685752855e+00	 1.761563483977976e+00
 1.156257387595986e-01	 1.668873149888614e+00	 1.699394711806870e+00
 7.702313487901102e-02	 1.670306982635067e+00	 1.656340704396416e+00
 3.847432971256679e-02	 1.671153164469973e+00	 1.632633910254414e+00
 0.000000000000000e+00	 1.671430919765895e+00	 1.628439091456703e+00
 3.887561739070783e-01	 1.654857683330742e+00	 2.565721660384845e+00
 3.500882574345220e-01	 1.660967263902613e+00	 2.398193376727066e+00
 3.113088762287797e-01	 1.666358664321857e+00	 2.246634068661991e+00
 2.724435908965959e-01	 1.671048292910997e+00	 2.111827383958422e+00
 2.335173982216118e-01	 1.675053169267265e+00	 1.994463998345486e+00
 1.945546882611978e-01	 1.678390860962273e+00	 1.895144354878534e+00
 1.555792054734463e-01	 1.681079420840518e+00	 1.814381946814180e+00
 1.166140138771731e-01	 1.683137325210182e+00	 1.752607058175325e+00
 7.768146622015146e-02	 1.684583413197011e+00	 1.710170879044394e+00
 3.880317710517176e-02	 1.685436827508512e+00	 1.687349916556956e+00
 0.000000000000000e+00	 1.685716956831615e+00	 1.684350627361033e+00
 3.920507885096861e-01	 1.668882202179363e+00	 2.617390864142857e+00
 3.530551707918164e-01	 1.675043559969767e+00	 2.449995816850371e+00
 3.139471437040367e-01	 1.680480651204323e+00	 2.298490383260288e+00
 2.747524844730875e-01	 1.685210023262131e+00	 2.163713901285663e+00
 2.354964017243407e-01	 1.689248839977401e+00	 2.046411666062532e+00
 1.962034922150377e-01	 1.692614817802672e+00	 1.947237331730096e+00
 1.568977016318438e-01	 1.695326162575941e+00	 1.866755899435319e+00
 1.176022894555876e-01	 1.697401507187642e+00	 1.805447205318508e+00
 7.833979786820437e-02	 1.698859850420562e+00	 1.763709824518848e+00
 3.913202465104514e-02	 1.699720497212033e+00	 1.741865310685558e+00
 0.000000000000000e+00	 1.700003000563425e+00	 1.740162694868335e+00
 3.953454038814352e-01	 1.682906724299760e+00	 2.668335452569858e+00
 3.560220848416451e-01	 1.689119859320706e+00	 2.501121842529793e+00
 3.165854117949879e-01	 1.694602641381182e+00	 2.349718751274015e+00
 2.770613785882645e-01	 1.699371756916888e+00	 2.215022772740167e+00
 2.374754056886408e-01	 1.703444513999047e+00	 2.097835298209600e+00
 1.978522965532911e-01	 1.706838777961158e+00	 1.998864574134108e+00
 1.582161980975129e-01	 1.709572907634753e+00	 1.918728390462987e+00
 1.185905652642063e-01	 1.711665692492552e+00	 1.857957312720512e+00
 7.899812966952448e-02	 1.713136290974417e+00	 1.816998372774479e+00
 3.946087227343351e-02	 1.714004170247544e+00	 1.796219136188064e+00
 0.000000000000000e+00	 1.714289047627778e+00	 1.795912068024155e+00
 1.714289047627778e+00	 0.000000000000000e+00	 1.130870053120577e+01
 1.714004170247544e+00	 3.946087227343405e-02	 1.129435191240532e+01
 1.713136290974417e+00	 7.899812966952499e-02	 1.127932186806360e+01
 1.711665692492551e+00	 1.185905652642067e-01	 1.126338715221847e+01
 1.709572907634753e+00	 1.582161980975134e-01	 1.124633302823877e+01
 1.706838777961159e+00	 1.978522965532914e-01	 1.122795663533585e+01
 1.703444513999047e+00	 2.374754056886410e-01	 1.120807057798474e+01
 1.699371756916888e+00	 2.770613785882647e-01	 1.118650671607076e+01
 1.694602641381181e+00	 3.165854117949879e-01	 1.116312012744912e+01
 1.689119859320706e+00	 3.560220848416451e-01	 1.113779320819184e+01
 1.682906724299760e+00	 3.953454038814352e-01	 1.111043986921331e+01
 1.728574095521189e+00	 0.000000000000000e+00	 1.129573011220075e+01
 1.728286844278154e+00	 3.978969689590382e-02	 1.128120263448519e+01
 1.727411733029215e+00	 7.965641542658061e-02	 1.126603681020753e+01
 1.725928880155543e+00	 1.195787719521365e-01	 1.125003264013197e+01
 1.723818656271432e+00	 1.595346023467900e-01	 1.123300064749304e+01
 1.721061743291110e+00	 1.995009855734061e-01	 1.121476530892700e+01
 1.717639195170523e+00	 2.394542712406711e-01	 1.119516869280085e+01
 1.713532500095309e+00	 2.793701112187154e-01	 1.117407428031323e+01
 1.708723643861422e+00	 3.192234953648744e-01	 1.115137093858560e+01
 1.703195174170718e+00	 3.589887913849909e-01	 1.112697700856736e+01
 1.696930265540624e+00	 3.986397888273382e-01	 1.110084446406693e+01
 1.742859145080407e+00	 0.000000000000000e+00	 1.128485666555413e+01
 1.742569519974292e+00	 4.011852155654502e-02	 1.127031038440672e+01
 1.741687176748694e+00	 8.031470126013213e-02	 1.125510386425309e+01
 1.740192069481785e+00	 1.205669787550092e-01	 1.123906986145715e+01
 1.738064406569329e+00	 1.608530067495478e-01	 1.122205378521671e+01
 1.735284710279628e+00	 2.011496747855981e-01	 1.120391711075379e+01
 1.731833877997279e+00	 2.414331370233990e-01	 1.118454097583952e+01
 1.727693244925074e+00	 2.816788441184743e-01	 1.116382993383876e+01
 1.722844647988404e+00	 3.218615792426328e-01	 1.114171583044222e+01
 1.717270490662191e+00	 3.619554982746882e-01	 1.111816176505885e+01
 1.710953808416969e+00	 4.019341741579514e-01	 1.109316609159321e+01
 1.757144197972236e+00	 0.000000000000000e+00	 1.127589134333374e+01
 1.756852199002485e+00	 4.044734629376737e-02	 1.126150972611718e+01
 1.755962623798535e+00	 8.097298724705353e-02	 1.124637940528847e+01
 1.754455262135521e+00	 1.215551857881995e-01	 1.123037511569074e+01
 1.752310160190644e+00	 1.621714114596792e-01	 1.121338648755088e+01
 1.749507680586243e+00	 2.027983643822760e-01	 1.119532136109645e+01
 1.746028564135532e+00	 2.434120032677273e-01	 1.117610925205256e+01
 1.741853993058423e+00	 2.839875775568943e-01	 1.115570493926688e+01
 1.736965655409712e+00	 3.244996637360027e-01	 1.113409213999656e+01
 1.731345810437356e+00	 3.649222058567783e-01	 1.111128723257239e+01
 1.724977354564966e+00	 4.052285602575090e-01	 1.108734298036286e+01
 1.771429255863481e+00	 0.000000000000000e+00	 1.126865138958529e+01
 1.771134883029259e+00	 4.077617114598067e-02	 1.125464056011386e+01
 1.770238075844416e+00	 8.163127346421889e-02	 1.123972444121396e+01
 1.768718459780996e+00	 1.225433931670820e-01	 1.122382869231145e+01
 1.766555918797576e+00	 1.634898166310768e-01	 1.120689621807638e+01
 1.763730655870483e+00	 2.044470545558483e-01	 1.118889030492019e+01
 1.760223255241496e+00	 2.453908702045582e-01	 1.116979786768076e+01
 1.756014746147593e+00	 2.862963118033288e-01	 1.114963277605900e+01
 1.751086667772930e+00	 3.271377491527243e-01	 1.112843922512001e+01
 1.745421135138444e+00	 3.678889144773020e-01	 1.110629510890669e+01
 1.739000905620783e+00	 4.085229475102455e-01	 1.108331535106256e+01
 1.785714320420949e+00	 0.000000000000000e+00	 1.126295989667352e+01
 1.785417573721143e+00	 4.110499615159467e-02	 1.124954790999374e+01
 1.784513534552017e+00	 8.228955998850228e-02	 1.123500442743481e+01
 1.782981664082449e+00	 1.235316010070312e-01	 1.121931471118148e+01
 1.780801684052323e+00	 1.648082224176332e-01	 1.120248372111400e+01
 1.777953637791879e+00	 2.060957454987233e-01	 1.118453899488403e+01
 1.774417952971385e+00	 2.473697380647936e-01	 1.116553358939828e+01
 1.770175505844826e+00	 2.886050471271306e-01	 1.114554905184099e+01
 1.765207686725639e+00	 3.297758358005370e-01	 1.112469838373930e+01
 1.759496466407687e+00	 3.708556244823006e-01	 1.110312895703615e+01
 1.753024463220587e+00	 4.118173363003946e-01	 1.108102533681074e+01
 1.799999393311444e+00	 0.000000000000000e+00	 1.125864557322868e+01
 1.799700272744663e+00	 4.143382134901918e-02	 1.124608171916979e+01
 1.798789001587018e+00	 8.294784689677770e-02	 1.123208909038014e+01
 1.797244876704124e+00	 1.245198094234218e-01	 1.121672097054961e+01
 1.795047457617085e+00	 1.661266289732409e-01	 1.120005289153572e+01
 1.792176628009957e+00	 2.077444374033096e-01	 1.118218517992201e+01
 1.788612658981417e+00	 2.493486070793360e-01	 1.116324550826061e+01
 1.784336273802357e+00	 2.909137837976530e-01	 1.114339141794941e+01
 1.779328713915424e+00	 3.324139239871812e-01	 1.112281277684833e+01
 1.773571805887316e+00	 3.738223362178146e-01	 1.110173413109547e+01
 1.767048029000547e+00	 4.151117270121904e-01	 1.108041690726854e+01
 1.814284476201773e+00	 0.000000000000000e+00	 1.125554252305857e+01
 1.813982981766347e+00	 4.176264677666395e-02	 1.124409665719324e+01
 1.813064478615097e+00	 8.360613426591922e-02	 1.123085225936136e+01
 1.811508099310267e+00	 1.255080185316283e-01	 1.121593880223686e+01
 1.809293241154060e+00	 1.674450364517926e-01	 1.119951065072791e+01
 1.806399628184248e+00	 2.093931304620157e-01	 1.118174919908929e+01
 1.802807374927804e+00	 2.513274774790874e-01	 1.116286494819141e+01
 1.798497051672427e+00	 2.932225220842489e-01	 1.114309948896864e+01
 1.793449750989868e+00	 3.350520140203967e-01	 1.112272735515810e+01
 1.787647155219565e+00	 3.767890500298854e-01	 1.110205770586185e+01
 1.781071604596829e+00	 4.184061200298669e-01	 1.108143579633695e+01
 1.828569570758740e+00	 0.000000000000000e+00	 1.125349003442630e+01
 1.828265702452721e+00	 4.209147247293873e-02	 1.124345193515653e+01
 1.827339967301935e+00	 8.426442217280079e-02	 1.123117170631399e+01
 1.825771333565118e+00	 1.264962284470254e-01	 1.121686293361168e+01
 1.823539036325449e+00	 1.687634450071806e-01	 1.120076682837002e+01
 1.820622639974282e+00	 2.110418248672499e-01	 1.118315388038537e+01
 1.817002102466761e+00	 2.533063494949500e-01	 1.116432537876004e+01
 1.812657841107275e+00	 2.955312622562716e-01	 1.114461476604036e+01
 1.807570799596554e+00	 3.376901062079237e-01	 1.112438878918561e+01
 1.801722516046665e+00	 3.797557662645540e-01	 1.110404840954350e+01
 1.795095191645604e+00	 4.217005157376583e-01	 1.108402943324392e+01
 1.842854678649152e+00	 0.000000000000000e+00	 1.125233237913128e+01
 1.842548436470314e+00	 4.242029847625331e-02	 1.124401112968399e+01
 1.841615469313211e+00	 8.492271069429662e-02	 1.123292899299484e+01
 1.840034581132922e+00	 1.274844392849876e-01	 1.121939135598642e+01
 1.837784844793450e+00	 1.700818547932978e-01	 1.120373404971313e+01
 1.834845665039586e+00	 2.126905208114208e-01	 1.118632444428418e+01
 1.831196843254505e+00	 2.552852233578261e-01	 1.116756233201674e+01
 1.826818643759138e+00	 2.978400045830740e-01	 1.114788056374097e+01
 1.821691861383066e+00	 3.403282008575017e-01	 1.112774540259508e+01
 1.815797890010847e+00	 3.827224852678610e-01	 1.110765655969476e+01
 1.809118791783039e+00	 4.249949145197988e-01	 1.108814687683719e+01
 1.857139801539814e+00	 0.000000000000000e+00	 1.125191862086524e+01
 1.856831185485652e+00	 4.274912482501749e-02	 1.124564201504775e+01
 1.855890986314602e+00	 8.558099990728060e-02	 1.123600932523326e+01
 1.854297843677920e+00	 1.284726511608895e-01	 1.122342519908900e+01
 1.852030668220261e+00	 1.714002659640365e-01	 1.120832762806205e+01
 1.849068705039691e+00	 2.143392184869368e-01	 1.119118841171760e+01
 1.845391598947249e+00	 2.572640992986178e-01	 1.117251332316700e+01
 1.840979461280257e+00	 3.001487493340095e-01	 1.115284194033447e+01
 1.835812937996986e+00	 3.429662982768709e-01	 1.113274710861646e+01
 1.829873278754343e+00	 3.856892073858478e-01	 1.111283400208974e+01
 1.823142406645302e+00	 4.282893167605222e-01	 1.109373875291070e+01
 1.682906724299760e+00	 3.953454038814352e-01	 1.111043986921331e+01
 1.675947749803660e+00	 4.345261195934738e-01	 1.108020364461134e+01
 1.668227280467807e+00	 4.735400391875617e-01	 1.104640477401328e+01
 1.659730884666089e+00	 5.123598044659057e-01	 1.100922623770464e+01
 1.650445008658129e+00	 5.509577006915951e-01	 1.096880934825931e+01
 1.640357038728711e+00	 5.893057194590274e-01	 1.092524862336943e+01
 1.629455361754438e+00	 6.273756249509855e-01	 1.087858681475991e+01
 1.617729423793474e+00	 6.651390233461127e-01	 1.082881018092339e+01
 1.605169786290770e+00	 7.025674351061066e-01	 1.077584409537301e+01
 1.591768179491655e+00	 7.396323698384317e-01	 1.071954908440708e+01
 1.577517552661069e+00	 7.763054033982315e-01	 1.065971738875245e+01
 1.696930265540624e+00	 3.986397888273382e-01	 1.110084446406693e+01
 1.689913302408431e+00	 4.381469946384857e-01	 1.107195501980507e+01
 1.682128498954506e+00	 4.774860144314484e-01	 1.103944484445729e+01
 1.673561303295025e+00	 5.166292620345447e-01	 1.100350187598792e+01
 1.664198048747260e+00	 5.555487917659617e-01	 1.096427092689130e+01
 1.654026016486803e+00	 5.942163618280745e-01	 1.092184838869481e+01
 1.643033496618929e+00	 6.326035011166402e-01	 1.087627709786668e+01
 1.631209847256555e+00	 6.706815792066391e-01	 1.082754145380288e+01
 1.618545551193824e+00	 7.084218792418324e-01	 1.077556288366680e+01
 1.605032269764788e+00	 7.457956734213033e-01	 1.072019575123329e+01
 1.590662893481110e+00	 7.827743007438482e-01	 1.066122380727980e+01
 1.710953808416969e+00	 4.019341741579514e-01	 1.109316609159321e+01
 1.703878856642000e+00	 4.417678701064068e-01	 1.106555023091497e+01
 1.696029719062592e+00	 4.814319901362581e-01	 1.103426098448873e+01
 1.687391723537195e+00	 5.208987201019111e-01	 1.099948889939775e+01
 1.677951090440714e+00	 5.601398833766248e-01	 1.096137995400490e+01
 1.667694995839533e+00	 5.991270047707271e-01	 1.092003011622409e+01
 1.656611633067583e+00	 6.378313778929233e-01	 1.087548006973591e+01
 1.644690272292521e+00	 6.762241357145047e-01	 1.082771020152785e+01
 1.631921317657670e+00	 7.142763240612714e-01	 1.077663594833743e+01
 1.618296361585791e+00	 7.519589777238973e-01	 1.072210360199847e+01
 1.603808235835264e+00	 7.892431988448088e-01	 1.066388667406591e+01
 1.724977354564966e+00	 4.052285602575090e-01	 1.108734298036286e+01
 1.717844414133743e+00	 4.453887464195300e-01	 1.106092407582790e+01
 1.709930942413911e+00	 4.853779667621866e-01	 1.103078492488075e+01
 1.701222147006159e+00	 5.251681791659193e-01	 1.099711639548454e+01
 1.691704135342993e+00	 5.647309760590074e-01	 1.096006335797203e+01
 1.681363978381567e+00	 6.040376488596787e-01	 1.091971911877411e+01
 1.670189772684441e+00	 6.430592558895325e-01	 1.087612002982612e+01
 1.658170700473988e+00	 6.817666935161188e-01	 1.082924036951060e+01
 1.645297087242689e+00	 7.201307702472223e-01	 1.077898759525137e+01
 1.631560456501998e+00	 7.581222834650542e-01	 1.072519807030426e+01
 1.616953581256991e+00	 7.957120984556170e-01	 1.066763336761467e+01
 1.739000905620783e+00	 4.085229475102455e-01	 1.108331535106256e+01
 1.731809976513040e+00	 4.490096240001489e-01	 1.105801345518949e+01
 1.723832170630307e+00	 4.893239447694294e-01	 1.102895059807321e+01
 1.715052575315472e+00	 5.294376397244838e-01	 1.099631573869395e+01
 1.705457185058600e+00	 5.693220703485321e-01	 1.096025042367031e+01
 1.695032965707572e+00	 6.089482946676218e-01	 1.092084311773926e+01
 1.683767917053543e+00	 6.482871357161656e-01	 1.087812371881891e+01
 1.671651133373571e+00	 6.873092532578903e-01	 1.083205835576481e+01
 1.658672861509265e+00	 7.259852184824843e-01	 1.078254457120886e+01
 1.644824556060741e+00	 7.642855913636147e-01	 1.072940699427145e+01
 1.630098931279753e+00	 8.021810003307787e-01	 1.067239360817969e+01
 1.753024463220587e+00	 4.118173363003946e-01	 1.108102533681074e+01
 1.745775545409268e+00	 4.526305032705572e-01	 1.105675728829564e+01
 1.737733405333627e+00	 4.932699246181824e-01	 1.102869405010883e+01
 1.728883010078692e+00	 5.337071022755192e-01	 1.099702049889483e+01
 1.719210241192034e+00	 5.739131667806220e-01	 1.096187269822711e+01
 1.708701959412214e+00	 6.138589427672492e-01	 1.092333214675325e+01
 1.697346067758932e+00	 6.535150179825200e-01	 1.088142022097528e+01
 1.685131572563887e+00	 6.928518155862283e-01	 1.083609291280710e+01
 1.672048642017779e+00	 7.318396694498565e-01	 1.078723596631250e+01
 1.658088661809354e+00	 7.704489021384190e-01	 1.073466052036546e+01
 1.643244287437012e+00	 8.086499052247982e-01	 1.067809936410106e+01
 1.767048029000547e+00	 4.151117270121904e-01	 1.108041690726854e+01
 1.759741122451803e+00	 4.562513846530477e-01	 1.105709643298999e+01
 1.751634648145715e+00	 4.972159067686412e-01	 1.102995335676397e+01
 1.742713452909377e+00	 5.379765673169402e-01	 1.099916635426391e+01
 1.732963305347800e+00	 5.785042658906993e-01	 1.096486390125321e+01
 1.722370961090161e+00	 6.187695937312541e-01	 1.092711845993951e+01
 1.710924226384649e+00	 6.587429032982933e-01	 1.088594087114278e+01
 1.698612019617552e+00	 6.983943811475415e-01	 1.084127505423093e+01
 1.685424430328613e+00	 7.376941238321379e-01	 1.079299312098589e+01
 1.671352775295170e+00	 7.766122165083076e-01	 1.074089101180262e+01
 1.656389651262230e+00	 8.151188138921801e-01	 1.068468476260329e+01
 1.781071604596829e+00	 4.184061200298669e-01	 1.108143579633695e+01
 1.773706709270024e+00	 4.598722685699136e-01	 1.105897360934661e+01
 1.765535900688415e+00	 5.011618916810018e-01	 1.103266854364239e+01
 1.756543905421082e+00	 5.422460353466612e-01	 1.100269100828721e+01
 1.746716379130398e+00	 5.830953682141868e-01	 1.096915983931816e+01
 1.736039972336078e+00	 6.236802481323294e-01	 1.093213644449702e+01
 1.724502394514734e+00	 6.639707922731830e-01	 1.089161916615683e+01
 1.712092476107182e+00	 7.039369505882386e-01	 1.084753796569537e+01
 1.698800228002152e+00	 7.435485823121282e-01	 1.079974953738619e+01
 1.684616898065521e+00	 7.827755351921205e-01	 1.074803296128470e+01
 1.669535024288868e+00	 8.215877270874299e-01	 1.069208600480836e+01
 1.795095191645604e+00	 4.217005157376583e-01	 1.108402943324392e+01
 1.787672307493307e+00	 4.634931554434489e-01	 1.106233332693079e+01
 1.779437164583574e+00	 5.051078798154593e-01	 1.103678151001566e+01
 1.770374369227367e+00	 5.465155068625966e-01	 1.100753411065265e+01
 1.760469464144329e+00	 5.876864742865074e-01	 1.097469832443553e+01
 1.749708994744631e+00	 6.285909065431676e-01	 1.093832253738473e+01
 1.738080573733230e+00	 6.691986855168867e-01	 1.089839068039613e+01
 1.725572943605393e+00	 7.094795245547292e-01	 1.085481692008709e+01
 1.712176036598775e+00	 7.494030455726258e-01	 1.080744079497003e+01
 1.697881031667741e+00	 7.889388589086984e-01	 1.075602290782485e+01
 1.682680408050388e+00	 8.280566455650521e-01	 1.070024128473352e+01
 1.809118791783039e+00	 4.249949145197988e-01	 1.108814687683719e+01
 1.801637918751031e+00	 4.671140456959464e-01	 1.106712181544387e+01
 1.793338441453034e+00	 5.090538716322103e-01	 1.104223595620642e+01
 1.784204845941787e+00	 5.507849823626610e-01	 1.101363718182300e+01
 1.774222561994096e+00	 5.922775846430840e-01	 1.098141909634031e+01
 1.763378029910488e+00	 6.335015695364624e-01	 1.094561514588177e+01
 1.751658765624176e+00	 6.744265836391019e-01	 1.090619298526650e+01
 1.739053423684801e+00	 7.150221036934215e-01	 1.086304919662923e+01
 1.725551857678869e+00	 7.552575142964307e-01	 1.081600446998751e+01
 1.711145177649163e+00	 7.951021883768816e-01	 1.076479935744293e+01
 1.695825804080252e+00	 8.345255700795510e-01	 1.070909071205735e+01
 1.823142406645302e+00	 4.282893167605222e-01	 1.109373875291070e+01
 1.815603544672573e+00	 4.707349397496997e-01	 1.107328695856964e+01
 1.807239732918643e+00	 5.129998675914498e-01	 1.104897731432397e+01
 1.798035337177901e+00	 5.550544623447690e-01	 1.102094354109078e+01
 1.787975674284199e+00	 5.968686998193390e-01	 1.098926374835435e+01
 1.777047079428317e+00	 6.384122376849063e-01	 1.095395457181512e+01
 1.765236971771615e+00	 6.796544872495263e-01	 1.091496557240168e+01
 1.752533917918022e+00	 7.205646886507250e-01	 1.087217400372448e+01
 1.738927692802811e+00	 7.611119891663414e-01	 1.082538005869251e+01
 1.724409337557121e+00	 8.012655243155106e-01	 1.077430270752186e+01
 1.708971213911921e+00	 8.409945013854322e-01	 1.071857623845126e+01
 1.577517552661069e+00	 7.763054033982315e-01	 1.065971738875245e+01
 1.562411034908616e+00	 8.125607776635853e-01	 1.059440466159643e+01
 1.546445124723613e+00	 8.483678438587413e-01	 1.052175349228447e+01
 1.529616701598890e+00	 8.836988399894217e-01	 1.044161139691570e+01
 1.511924025818336e+00	 9.185263933820198e-01	 1.035381402025642e+01
 1.493366767095691e+00	 9.528236030216212e-01	 1.025818581420694e+01
 1.473946027928508e+00	 9.865641215718935e-01	 1.015454094484131e+01
 1.453664361413024e+00	 1.019722236591529e+00	 1.004268442951120e+01
 1.432525783302651e+00	 1.052272950456313e+00	 9.922413500809704e+00
 1.410535778132862e+00	 1.084192058495051e+00	 9.793519189261405e+00
 1.387701299278052e+00	 1.115456224851666e+00	 9.655788111572004e+00
 1.590662893481110e+00	 7.827743007438482e-01	 1.066122380727980e+01
 1.575430494197757e+00	 8.193317884469776e-01	 1.059678258143311e+01
 1.559331541226210e+00	 8.554372323608842e-01	 1.052508852036661e+01
 1.542362888056345e+00	 8.910626391525762e-01	 1.044597115172080e+01
 1.524522780475129e+00	 9.261804080539138e-01	 1.035924986844316e+01
 1.505810885444059e+00	 9.607634138857474e-01	 1.026473483479211e+01
 1.486228314647727e+00	 9.947850897612733e-01	 1.016222810474523e+01
 1.465777642457148e+00	 1.028219508979247e+00	 1.005152495031920e+01
 1.444462918088727e+00	 1.061041465612036e+00	 9.932415392804657e+00
 1.422289671780186e+00	 1.093226553292651e+00	 9.804685925280978e+00
 1.399264914847900e+00	 1.124751241708993e+00	 9.668121410135376e+00
 1.603808235835264e+00	 7.892431988448088e-01	 1.066388667406591e+01
 1.588449955006404e+00	 8.261028000209216e-01	 1.060020702023555e+01
 1.572217959232855e+00	 8.625066216883476e-01	 1.052936276417450e+01
 1.555109076001540e+00	 8.984264391753550e-01	 1.045116590499851e+01
 1.537121536602497e+00	 9.338344236192464e-01	 1.036542009948970e+01
 1.518255005244984e+00	 9.687032256766132e-01	 1.027192179430215e+01
 1.498510602800634e+00	 1.003006058910155e+00	 1.017046155362186e+01
 1.477890924915242e+00	 1.036716782358670e+00	 1.006082557579204e+01
 1.456400054268210e+00	 1.069809981791085e+00	 9.942797388116995e+00
 1.434043566799518e+00	 1.102261049144593e+00	 9.816159704726921e+00
 1.410828531767526e+00	 1.134046259651052e+00	 9.680696428152528e+00
 1.616953581256991e+00	 7.957120984556170e-01	 1.066763336761467e+01
 1.601469418853318e+00	 8.328738131751846e-01	 1.060460778486655e+01
 1.585104380246781e+00	 8.695760126657284e-01	 1.053450857226274e+01
 1.567855266921338e+00	 9.057902409167240e-01	 1.045713065310773e+01
 1.549720295670102e+00	 9.414884409708640e-01	 1.037226245577824e+01
 1.530699127950089e+00	 9.766430393204287e-01	 1.027968727082746e+01
 1.510792893819975e+00	 1.011227029977573e+00	 1.017918478582005e+01
 1.490004210200340e+00	 1.045214057721086e+00	 1.007053278740057e+01
 1.468337193233596e+00	 1.078578500016408e+00	 9.953509016019900e+00
 1.445797464561987e+00	 1.111295547104869e+00	 9.827893154737566e+00
 1.422392151385875e+00	 1.143341279762238e+00	 9.693468929706933e+00
 1.630098931279753e+00	 8.021810003307787e-01	 1.067239360817969e+01
 1.614488887257262e+00	 8.396448286995342e-01	 1.060991694557956e+01
 1.597990805771218e+00	 8.766454061176232e-01	 1.054046047456671e+01
 1.580601462302604e+00	 9.131540452356487e-01	 1.046380248836076e+01
 1.562319059147608e+00	 9.491424610016120e-01	 1.037971668705425e+01
 1.543143255010995e+00	 9.845828557434052e-01	 1.028797375834398e+01
 1.523075189138495e+00	 1.019448003922562e+00	 1.018834311750376e+01
 1.502117499725479e+00	 1.053711336057785e+00	 1.008059479207984e+01
 1.480274336377378e+00	 1.087347021310958e+00	 9.964501432947559e+00
 1.457551366438721e+00	 1.120330048227474e+00	 9.839840429698935e+00
 1.433955775051891e+00	 1.152636303126949e+00	 9.706396104960058e+00
 1.643244287437012e+00	 8.086499052247982e-01	 1.067809936410106e+01
 1.627508361736999e+00	 8.464158473837371e-01	 1.061606874549034e+01
 1.610877237309396e+00	 8.837148028686295e-01	 1.054715509515528e+01
 1.593347663632206e+00	 9.205178529910945e-01	 1.047112051519373e+01
 1.574917828504675e+00	 9.567964846043375e-01	 1.038772447014111e+01
 1.555587387879325e+00	 9.925226758717542e-01	 1.029672559008786e+01
 1.535357490188940e+00	 1.027668981704154e+00	 1.019788361379020e+01
 1.514230794903695e+00	 1.062208618360056e+00	 1.009096145322202e+01
 1.492211485092054e+00	 1.096115546697684e+00	 9.975727357420928e+00
 1.469305273800852e+00	 1.129364553566402e+00	 9.851957150167767e+00
 1.445519404114519e+00	 1.161931330829578e+00	 9.719436513121945e+00
 1.656389651262230e+00	 8.151188138921801e-01	 1.068468476260329e+01
 1.640527843811289e+00	 8.531868700175608e-01	 1.062299951436048e+01
 1.623763676364548e+00	 8.907842037433427e-01	 1.055453106913904e+01
 1.606093872397005e+00	 9.278816650420267e-01	 1.047902577032977e+01
 1.587516605210965e+00	 9.644505126718853e-01	 1.039622933247882e+01
 1.568031528006701e+00	 1.000462500631687e+00	 1.030588886557951e+01
 1.547639798404058e+00	 1.035889964281385e+00	 1.020775501935834e+01
 1.526344097148023e+00	 1.070705905619187e+00	 1.010158422495607e+01
 1.504148640770117e+00	 1.104884077199536e+00	 9.987141008073028e+00
 1.481059188019506e+00	 1.138399064175646e+00	 9.864200344703654e+00
 1.457083039922703e+00	 1.171226363954524e+00	 9.732550028138034e+00
 1.669535024288868e+00	 8.215877270874299e-01	 1.069208600480836e+01
 1.653547334998897e+00	 8.599578973907720e-01	 1.063064758645497e+01
 1.636650124439903e+00	 8.978536095663603e-01	 1.056252896350500e+01
 1.618840090083870e+00	 9.352454822474111e-01	 1.048746114671492e+01
 1.600115390736142e+00	 9.721045460971018e-01	 1.040517657927581e+01
 1.580475676844747e+00	 1.008402330949414e+00	 1.031541138109632e+01
 1.559922115216593e+00	 1.044110952613289e+00	 1.021790769233648e+01
 1.538457407871499e+00	 1.079203198826468e+00	 1.011241608953304e+01
 1.516085804804064e+00	 1.113652613839465e+00	 9.998698044602820e+00
 1.492813110465814e+00	 1.147433581109201e+00	 9.876528394449990e+00
 1.468646683825388e+00	 1.180521403586180e+00	 9.745697786942618e+00
 1.682680408050388e+00	 8.280566455650521e-01	 1.070024128473352e+01
 1.666566836818583e+00	 8.667289302931382e-01	 1.063895322225120e+01
 1.649536583038693e+00	 9.049230211622783e-01	 1.057109120166290e+01
 1.631586318179661e+00	 9.426093054662129e-01	 1.049637132102014e+01
 1.612714186549867e+00	 9.797585857728328e-01	 1.041451322407626e+01
 1.592919835845084e+00	 1.016342167751147e+00	 1.032524256340510e+01
 1.572204442059292e+00	 1.052331947658898e+00	 1.022829354128953e+01
 1.550570728487159e+00	 1.087700498973188e+00	 1.012341149764715e+01
 1.528022978586386e+00	 1.122421157640422e+00	 1.001035551149747e+01
 1.504567042510903e+00	 1.156468105421060e+00	 9.888900980313101e+00
 1.480210337171517e+00	 1.189816450808942e+00	 9.758842140138398e+00
 1.695825804080252e+00	 8.345255700795510e-01	 1.070909071205735e+01
 1.679586350789110e+00	 8.734999695144262e-01	 1.064785853378996e+01
 1.662423053664149e+00	 9.119924393556940e-01	 1.058016199150190e+01
 1.644332558171247e+00	 9.499731355573974e-01	 1.050570268451627e+01
 1.625312994121802e+00	 9.874126325919251e-01	 1.042418792255761e+01
 1.605364006459333e+00	 1.024282011963096e+00	 1.033533340657743e+01
 1.584486780364901e+00	 1.060552950377249e+00	 1.023886596513780e+01
 1.562684060408038e+00	 1.096197807050635e+00	 1.013452631153315e+01
 1.539960163509583e+00	 1.131189709625357e+00	 1.002207178437281e+01
 1.516320985525905e+00	 1.165502638165219e+00	 9.901279032598882e+00
 1.491774001310037e+00	 1.199111506707208e+00	 9.771946604970610e+00
 1.708971213911921e+00	 8.409945013854322e-01	 1.071857623845126e+01
 1.692605878429240e+00	 8.802710158444028e-01	 1.065730741347267e+01
 1.675309537819501e+00	 9.190618649712039e-01	 1.058968725676830e+01
 1.657078811545492e+00	 9.573369733799312e-01	 1.051540327713994e+01
 1.637911814921611e+00	 9.950666874472247e-01	 1.043415090938416e+01
 1.617808190139119e+00	 1.032221864511473e+00	 1.034563641172184e+01
 1.596769131566166e+00	 1.068773961727374e+00	 1.024957979584935e+01
 1.574797405047172e+00	 1.104695124050099e+00	 1.014571775069057e+01
 1.551897360966147e+00	 1.139958270817221e+00	 1.003380651879093e+01
 1.528074940881947e+00	 1.174537180395669e+00	 9.913624682974323e+00
 1.503337677589890e+00	 1.208406572365371e+00	 9.784975820472036e+00
 1.387701299278052e+00	 1.115456224851666e+00	 9.655788111572004e+00
 1.364030759277465e+00	 1.146043058270738e+00	 9.508248579964153e+00
 1.339534006818105e+00	 1.175931189999760e+00	 9.350117178050311e+00
 1.314222318998515e+00	 1.205100331942848e+00	 9.181504647400118e+00
 1.288108380333235e+00	 1.233531336090155e+00	 9.002580434186639e+00
 1.261206252148415e+00	 1.261206252148416e+00	 8.813572438245311e+00
 1.233531336090155e+00	 1.288108380333236e+00	 8.614766121633027e+00
 1.205100331942847e+00	 1.314222318998515e+00	 8.406502984376523e+00
 1.175931189999759e+00	 1.339534006818105e+00	 8.189178426907606e+00
 1.146043058270737e+00	 1.364030759277465e+00	 7.963239030079492e+00
 1.115456224851666e+00	 1.387701299278052e+00	 7.729179294317658e+00
 1.399264914847900e+00	 1.124751241708993e+00	 9.668121410135376e+00
 1.375397129932205e+00	 1.155592953020909e+00	 9.521829874712164e+00
 1.350696247788508e+00	 1.185730140411611e+00	 9.365093741007575e+00
 1.325173639486599e+00	 1.215142346725971e+00	 9.198002349203289e+00
 1.298842095240169e+00	 1.243810264395152e+00	 9.020702572636100e+00
 1.271715793547383e+00	 1.271715793547383e+00	 8.833398728818855e+00
 1.243810264395151e+00	 1.298842095240169e+00	 8.636351862705236e+00
 1.215142346725971e+00	 1.325173639486600e+00	 8.429878407433961e+00
 1.185730140411611e+00	 1.350696247788508e+00	 8.214348239388054e+00
 1.155592953020908e+00	 1.375397129932205e+00	 7.990182155656536e+00
 1.124751241708993e+00	 1.399264914847900e+00	 7.757848812563314e+00
 1.410828531767526e+00	 1.134046259651052e+00	 9.680696428152528e+00
 1.386763501913673e+00	 1.165142848885558e+00	 9.535589430024078e+00
 1.361858490061780e+00	 1.195529091967020e+00	 9.380181348723891e+00
 1.336124961252898e+00	 1.225184362681042e+00	 9.214541344015593e+00
 1.309575811399881e+00	 1.254089193899776e+00	 9.038794969403991e+00
 1.282225336172927e+00	 1.282225336172928e+00	 8.853124235199862e+00
 1.254089193899775e+00	 1.309575811399881e+00	 8.657767056246531e+00
 1.225184362681042e+00	 1.336124961252899e+00	 8.453016087238980e+00
 1.195529091967019e+00	 1.361858490061780e+00	 8.239216959962839e+00
 1.165142848885558e+00	 1.386763501913674e+00	 8.016765947885807e+00
 1.134046259651052e+00	 1.410828531767526e+00	 7.786107094029687e+00
 1.422392151385875e+00	 1.143341279762238e+00	 9.693468929706933e+00
 1.398129876547819e+00	 1.174692746978819e+00	 9.549486230589025e+00
 1.373020734940072e+00	 1.205328045809172e+00	 9.395342328106850e+00
 1.347076285574974e+00	 1.235226380979596e+00	 9.231087400772029e+00
 1.320309530064563e+00	 1.264368125803190e+00	 9.056826912712381e+00
 1.292734881251103e+00	 1.292734881251103e+00	 8.872721819017848e+00
 1.264368125803190e+00	 1.320309530064563e+00	 8.678988167848185e+00
 1.235226380979596e+00	 1.347076285574974e+00	 8.475896100074610e+00
 1.205328045809172e+00	 1.373020734940072e+00	 8.263768258424808e+00
 1.174692746978818e+00	 1.398129876547820e+00	 8.042977629060790e+00
 1.143341279762238e+00	 1.422392151385875e+00	 7.813944848927941e+00
 1.433955775051891e+00	 1.152636303126949e+00	 9.706396104960058e+00
 1.409496255160591e+00	 1.184242648414825e+00	 9.563480583309504e+00
 1.384182983725537e+00	 1.215127003081255e+00	 9.410540220492798e+00
 1.358027613730387e+00	 1.245268402793169e+00	 9.247607391834958e+00
 1.331043252486407e+00	 1.274647061304560e+00	 9.074768680719348e+00
 1.303244430007965e+00	 1.303244430007966e+00	 8.892165216603097e+00
 1.274647061304560e+00	 1.331043252486408e+00	 8.699992421582829e+00
 1.245268402793168e+00	 1.358027613730388e+00	 8.498499164269591e+00
 1.215127003081255e+00	 1.384182983725537e+00	 8.287986330731833e+00
 1.184242648414824e+00	 1.409496255160592e+00	 8.068804833082147e+00
 1.152636303126949e+00	 1.433955775051891e+00	 7.841353086601496e+00
 1.445519404114519e+00	 1.161931330829578e+00	 9.719436513121945e+00
 1.420862639077938e+00	 1.193792554307709e+00	 9.577534064427132e+00
 1.395345237720325e+00	 1.224925964926454e+00	 9.425739733084765e+00
 1.368978946996702e+00	 1.255310429293297e+00	 9.264069248872712e+00
 1.341776979917606e+00	 1.284926001603051e+00	 9.092591501937997e+00
 1.313753983669569e+00	 1.313753983669570e+00	 8.911429004015654e+00
 1.284926001603050e+00	 1.341776979917607e+00	 8.720757769682798e+00
 1.255310429293297e+00	 1.368978946996703e+00	 8.520806614534727e+00
 1.224925964926455e+00	 1.395345237720325e+00	 8.311855877978701e+00
 1.193792554307708e+00	 1.420862639077939e+00	 8.094235589012179e+00
 1.161931330829579e+00	 1.445519404114519e+00	 7.868323103579615e+00
 1.457083039922703e+00	 1.171226363954524e+00	 9.732550028138034e+00
 1.432229029625809e+00	 1.203342465771605e+00	 9.591609469166853e+00
 1.406507498226588e+00	 1.234724932487957e+00	 9.440906692703429e+00
 1.379930286651479e+00	 1.265352461651516e+00	 9.280441920839907e+00
 1.352510713610353e+00	 1.295204947897826e+00	 9.110267517540715e+00
 1.324263543461969e+00	 1.324263543461970e+00	 8.930488563740163e+00
 1.295204947897825e+00	 1.352510713610354e+00	 8.741262863662801e+00
 1.265352461651516e+00	 1.379930286651479e+00	 8.542800377521722e+00
 1.234724932487956e+00	 1.406507498226588e+00	 8.335362086370644e+00
 1.203342465771604e+00	 1.432229029625810e+00	 8.119258305412659e+00
 1.171226363954523e+00	 1.457083039922703e+00	 7.894846472199890e+00
 1.468646683825388e+00	 1.180521403586180e+00	 9.745697786942618e+00
 1.443595428130154e+00	 1.212892383920647e+00	 9.605670763760781e+00
 1.417669766546477e+00	 1.244523906908949e+00	 9.456008001723472e+00
 1.390881633972279e+00	 1.275394501039364e+00	 9.296695333943145e+00
 1.363244454816839e+00	 1.305483901388050e+00	 9.127769745444795e+00
 1.334773110611222e+00	 1.334773110611222e+00	 8.949320052954477e+00
 1.305483901388049e+00	 1.363244454816840e+00	 8.761487026807277e+00
 1.275394501039363e+00	 1.390881633972279e+00	 8.564462948536752e+00
 1.244523906908948e+00	 1.417669766546476e+00	 8.358490608143304e+00
 1.212892383920646e+00	 1.443595428130154e+00	 8.143861755422730e+00
 1.180521403586179e+00	 1.468646683825388e+00	 7.920915029768519e+00
 1.480210337171517e+00	 1.189816450808942e+00	 9.758842140138398e+00
 1.454961835916920e+00	 1.222442309868967e+00	 9.619683039721313e+00
 1.428832043982143e+00	 1.254322889332617e+00	 9.471011596076050e+00
 1.401832990236666e+00	 1.285436548628375e+00	 9.312800353484015e+00
 1.373978204789257e+00	 1.315762863272888e+00	 9.145072046081967e+00
 1.345282686343380e+00	 1.345282686343381e+00	 8.967900373286019e+00
 1.315762863272887e+00	 1.373978204789257e+00	 8.781410227947612e+00
 1.285436548628374e+00	 1.401832990236666e+00	 8.585777369346101e+00
 1.254322889332617e+00	 1.428832043982143e+00	 8.381227543377221e+00
 1.222442309868966e+00	 1.454961835916921e+00	 8.168035062536628e+00
 1.189816450808942e+00	 1.480210337171518e+00	 7.946520868228919e+00
 1.491774001310037e+00	 1.199111506707208e+00	 9.771946604970610e+00
 1.466328254312057e+00	 1.231992244730699e+00	 9.633612470241683e+00
 1.439994331835738e+00	 1.264121880902148e+00	 9.485886405204964e+00
 1.412784356722201e+00	 1.295478605590086e+00	 9.328728747477111e+00
 1.384711964779798e+00	 1.326041834751505e+00	 9.162149089760353e+00
 1.355792271884501e+00	 1.355792271884501e+00	 8.986207141975267e+00
 1.326041834751504e+00	 1.384711964779799e+00	 8.801013056459455e+00
 1.295478605590085e+00	 1.412784356722201e+00	 8.606727207014323e+00
 1.264121880902147e+00	 1.439994331835739e+00	 8.403559422658425e+00
 1.231992244730698e+00	 1.466328254312057e+00	 8.191767687042933e+00
 1.199111506707207e+00	 1.491774001310037e+00	 7.971656324310814e+00
 1.503337677589890e+00	 1.208406572365371e+00	 9.784975820472036e+00
 1.477694684641512e+00	 1.241542189619976e+00	 9.647426268609195e+00
 1.451156631409414e+00	 1.273920882760728e+00	 9.500602313871569e+00
 1.423735734706447e+00	 1.305520673096032e+00	 9.344453151947665e+00
 1.395445736040656e+00	 1.336320817023064e+00	 9.178976325533240e+00
 1.366301868460640e+00	 1.366301868460640e+00	 9.004218664370374e+00
 1.336320817023063e+00	 1.395445736040656e+00	 8.820276698414187e+00
 1.305520673096032e+00	 1.423735734706447e+00	 8.627296533719260e+00
 1.273920882760727e+00	 1.451156631409415e+00	 8.425473190539631e+00
 1.241542189619975e+00	 1.477694684641513e+00	 8.215049413090014e+00
 1.208406572365371e+00	 1.503337677589890e+00	 7.996313970134383e+00
 1.115456224851666e+00	 1.387701299278052e+00	 7.729179294317658e+00
 1.084192058495050e+00	 1.410535778132863e+00	 7.486473534810949e+00
 1.052272950456312e+00	 1.432525783302652e+00	 7.234988351437364e+00
 1.019722236591529e+00	 1.453664361413024e+00	 6.975905988796716e+00
 9.865641215718933e-01	 1.473946027928509e+00	 6.710487380561766e+00
 9.528236030216204e-01	 1.493366767095692e+00	 6.440060680983478e+00
 9.185263933820192e-01	 1.511924025818336e+00	 6.166009325529849e+00
 8.836988399894211e-01	 1.529616701598891e+00	 5.889759807589517e+00
 8.483678438587410e-01	 1.546445124723613e+00	 5.612769355899868e+00
 8.125607776635847e-01	 1.562411034908617e+00	 5.336513691056765e+00
 7.763054033982313e-01	 1.577517552661069e+00	 5.062475029525714e+00
 1.124751241708993e+00	 1.399264914847900e+00	 7.757848812563314e+00
 1.093226553292651e+00	 1.422289671780187e+00	 7.516885477053918e+00
 1.061041465612035e+00	 1.444462918088727e+00	 7.267217023494898e+00
 1.028219508979247e+00	 1.465777642457148e+00	 7.009991298859815e+00
 9.947850897612730e-01	 1.486228314647728e+00	 6.746432939016115e+00
 9.607634138857468e-01	 1.505810885444059e+00	 6.477832223969370e+00
 9.261804080539133e-01	 1.524522780475130e+00	 6.205533473153455e+00
 8.910626391525756e-01	 1.542362888056346e+00	 5.930923162544646e+00
 8.554372323608835e-01	 1.559331541226210e+00	 5.655417943197296e+00
 8.193317884469768e-01	 1.575430494197757e+00	 5.380452734695572e+00
 7.827743007438484e-01	 1.590662893481111e+00	 5.107469057377956e+00
 1.134046259651052e+00	 1.410828531767526e+00	 7.786107094029687e+00
 1.102261049144592e+00	 1.434043566799519e+00	 7.546837375628479e+00
 1.069809981791084e+00	 1.456400054268210e+00	 7.298936546997174e+00
 1.036716782358669e+00	 1.477890924915242e+00	 7.043519009218911e+00
 1.003006058910155e+00	 1.498510602800635e+00	 6.781774018063254e+00
 9.687032256766124e-01	 1.518255005244984e+00	 6.514954856983531e+00
 9.338344236192458e-01	 1.537121536602498e+00	 6.244367561726974e+00
 8.984264391753546e-01	 1.555109076001540e+00	 5.971359373231801e+00
 8.625066216883469e-01	 1.572217959232856e+00	 5.697307093380629e+00
 8.261028000209207e-01	 1.588449955006404e+00	 5.423605512262498e+00
 7.892431988448086e-01	 1.603808235835264e+00	 5.151656066241184e+00
 1.143341279762238e+00	 1.422392151385875e+00	 7.813944848927941e+00
 1.111295547104868e+00	 1.445797464561987e+00	 7.576323397892109e+00
 1.078578500016408e+00	 1.468337193233596e+00	 7.330144552988950e+00
 1.045214057721085e+00	 1.490004210200339e+00	 7.076490203091086e+00
 1.011227029977573e+00	 1.510792893819975e+00	 6.816515123595854e+00
 9.766430393204278e-01	 1.530699127950088e+00	 6.551436461317117e+00
 9.414884409708635e-01	 1.549720295670103e+00	 6.282522783205877e+00
 9.057902409167238e-01	 1.567855266921338e+00	 6.011082860517535e+00
 8.695760126657278e-01	 1.585104380246782e+00	 5.738454358000274e+00
 8.328738131751842e-01	 1.601469418853318e+00	 5.465992591932588e+00
 7.957120984556170e-01	 1.616953581256991e+00	 5.195059511753490e+00
 1.152636303126949e+00	 1.433955775051891e+00	 7.841353086601496e+00
 1.120330048227473e+00	 1.457551366438722e+00	 7.605337898851339e+00
 1.087347021310957e+00	 1.480274336377378e+00	 7.360838748468089e+00
 1.053711336057784e+00	 1.502117499725479e+00	 7.108905928320366e+00
 1.019448003922562e+00	 1.523075189138495e+00	 6.850660615757072e+00
 9.845828557434048e-01	 1.543143255010995e+00	 6.587284663658405e+00
 9.491424610016117e-01	 1.562319059147609e+00	 6.320009968175445e+00
 9.131540452356479e-01	 1.580601462302605e+00	 6.050107579766021e+00
 8.766454061176228e-01	 1.597990805771218e+00	 5.778876722138408e+00
 8.396448286995335e-01	 1.614488887257262e+00	 5.507633878124201e+00
 8.021810003307788e-01	 1.630098931279753e+00	 5.237702092672345e+00
 1.161931330829579e+00	 1.445519404114519e+00	 7.868323103579615e+00
 1.129364553566401e+00	 1.469305273800852e+00	 7.633875413674318e+00
 1.096115546697683e+00	 1.492211485092054e+00	 7.391016913365942e+00
 1.062208618360055e+00	 1.514230794903695e+00	 7.140767198810911e+00
 1.027668981704154e+00	 1.535357490188941e+00	 6.884214714788257e+00
 9.925226758717538e-01	 1.555587387879325e+00	 6.622506846293885e+00
 9.567964846043366e-01	 1.574917828504675e+00	 6.356839600321708e+00
 9.205178529910941e-01	 1.593347663632206e+00	 6.088447039474193e+00
 8.837148028686287e-01	 1.610877237309397e+00	 5.818590627081818e+00
 8.464158473837365e-01	 1.627508361736999e+00	 5.548548638062046e+00
 8.086499052247982e-01	 1.643244287437012e+00	 5.279605781160924e+00
 1.171226363954523e+00	 1.457083039922703e+00	 7.894846472199890e+00
 1.138399064175645e+00	 1.481059188019506e+00	 7.661930650560411e+00
 1.104884077199535e+00	 1.504148640770118e+00	 7.420676897671665e+00
 1.070705905619187e+00	 1.526344097148023e+00	 7.172074995891844e+00
 1.035889964281384e+00	 1.547639798404058e+00	 6.917181506598094e+00
 1.000462500631686e+00	 1.568031528006702e+00	 6.657110156823622e+00
 9.644505126718846e-01	 1.587516605210966e+00	 6.393021830213307e+00
 9.278816650420263e-01	 1.606093872397006e+00	 6.126114319019676e+00
 8.907842037433419e-01	 1.623763676364548e+00	 5.857611991914885e+00
 8.531868700175602e-01	 1.640527843811290e+00	 5.588755527074985e+00
 8.151188138921801e-01	 1.656389651262230e+00	 5.320791851632219e+00
 1.180521403586179e+00	 1.468646683825388e+00	 7.920915029768519e+00
 1.147433581109200e+00	 1.492813110465814e+00	 7.689498483946524e+00
 1.113652613839465e+00	 1.516085804804064e+00	 7.449816618692367e+00
 1.079203198826468e+00	 1.538457407871499e+00	 7.202830269617658e+00
 1.044110952613288e+00	 1.559922115216593e+00	 6.949564948068668e+00
 1.008402330949413e+00	 1.580475676844747e+00	 6.691101517417398e+00
 9.721045460971011e-01	 1.600115390736142e+00	 6.428566488432125e+00
 9.352454822474106e-01	 1.618840090083870e+00	 6.163122085569881e+00
 8.978536095663595e-01	 1.636650124439903e+00	 5.895956234092095e+00
 8.599578973907713e-01	 1.653547334998898e+00	 5.628272612698567e+00
 8.215877270874299e-01	 1.669535024288868e+00	 5.361280908229971e+00
 1.189816450808942e+00	 1.480210337171518e+00	 7.946520868228919e+00
 1.156468105421060e+00	 1.504567042510904e+00	 7.716573948032136e+00
 1.122421157640422e+00	 1.528022978586387e+00	 7.478434058441785e+00
 1.087700498973187e+00	 1.550570728487159e+00	 7.233033940007790e+00
 1.052331947658898e+00	 1.572204442059292e+00	 6.981368872112810e+00
 1.016342167751146e+00	 1.592919835845083e+00	 6.724487633637160e+00
 9.797585857728321e-01	 1.612714186549867e+00	 6.463483098088182e+00
 9.426093054662122e-01	 1.631586318179662e+00	 6.199482610198366e+00
 9.049230211622777e-01	 1.649536583038693e+00	 5.933638289046235e+00
 8.667289302931375e-01	 1.666566836818584e+00	 5.667117397647485e+00
 8.280566455650521e-01	 1.682680408050388e+00	 5.401092911021289e+00
 1.199111506707207e+00	 1.491774001310037e+00	 7.971656324310814e+00
 1.165502638165218e+00	 1.516320985525906e+00	 7.743152230605607e+00
 1.131189709625356e+00	 1.539960163509583e+00	 7.506527261150667e+00
 1.096197807050634e+00	 1.562684060408039e+00	 7.262686898228466e+00
 1.060552950377248e+00	 1.584486780364901e+00	 7.012596992496151e+00
 1.024282011963095e+00	 1.605364006459333e+00	 6.757275002848928e+00
 9.874126325919247e-01	 1.625312994121803e+00	 6.497780886752668e+00
 9.499731355573968e-01	 1.644332558171248e+00	 6.235207783251709e+00
 9.119924393556934e-01	 1.662423053664148e+00	 5.970672628884372e+00
 8.734999695144252e-01	 1.679586350789110e+00	 5.705306841719333e+00
 8.345255700795510e-01	 1.695825804080252e+00	 5.440247200970835e+00
 1.208406572365371e+00	 1.503337677589890e+00	 7.996313970134383e+00
 1.174537180395669e+00	 1.528074940881948e+00	 7.769228667155470e+00
 1.139958270817220e+00	 1.551897360966147e+00	 7.534094330891858e+00
 1.104695124050098e+00	 1.574797405047172e+00	 7.291790007720147e+00
 1.068773961727374e+00	 1.596769131566166e+00	 7.043252908436763e+00
 1.032221864511472e+00	 1.617808190139118e+00	 6.789469922246468e+00
 9.950666874472238e-01	 1.637911814921611e+00	 6.531468797839844e+00
 9.573369733799303e-01	 1.657078811545492e+00	 6.270309129006659e+00
 9.190618649712032e-01	 1.675309537819501e+00	 6.007073280220794e+00
 8.802710158444024e-01	 1.692605878429240e+00	 5.742857382687368e+00
 8.409945013854322e-01	 1.708971213911920e+00	 5.478762523762091e+00
 7.763054033982313e-01	 1.577517552661069e+00	 5.062475029525714e+00
 7.396323698384324e-01	 1.591768179491655e+00	 4.790410106428699e+00
 7.025674351061071e-01	 1.605169786290770e+00	 4.520370706973606e+00
 6.651390233461130e-01	 1.617729423793473e+00	 4.254347249888084e+00
 6.273756249509856e-01	 1.629455361754438e+00	 3.994331186094080e+00
 5.893057194590278e-01	 1.640357038728711e+00	 3.742299414789973e+00
 5.509577006915954e-01	 1.650445008658129e+00	 3.500199684942566e+00
 5.123598044659060e-01	 1.659730884666089e+00	 3.269937111849408e+00
 4.735400391875621e-01	 1.668227280467808e+00	 3.053361910182637e+00
 4.345261195934739e-01	 1.675947749803660e+00	 2.852258417132110e+00
 3.953454038814352e-01	 1.682906724299760e+00	 2.668335452569858e+00
 7.827743007438484e-01	 1.590662893481111e+00	 5.107469057377956e+00
 7.457956734213037e-01	 1.605032269764788e+00	 4.836283051386449e+00
 7.084218792418324e-01	 1.618545551193824e+00	 4.567031810296237e+00
 6.706815792066391e-01	 1.631209847256555e+00	 4.301706023826888e+00
 6.326035011166404e-01	 1.643033496618929e+00	 4.042299947383768e+00
 5.942163618280748e-01	 1.654026016486803e+00	 3.790795579784294e+00
 5.555487917659618e-01	 1.664198048747260e+00	 3.549147817286094e+00
 5.166292620345450e-01	 1.673561303295024e+00	 3.319270717827312e+00
 4.774860144314489e-01	 1.682128498954505e+00	 3.103024980861935e+00
 4.381469946384860e-01	 1.689913302408431e+00	 2.902206720046158e+00
 3.986397888273381e-01	 1.696930265540623e+00	 2.718537578956678e+00
 7.892431988448086e-01	 1.603808235835264e+00	 5.151656066241184e+00
 7.519589777238975e-01	 1.618296361585791e+00	 4.881339686616011e+00
 7.142763240612719e-01	 1.631921317657671e+00	 4.612881250043905e+00
 6.762241357145049e-01	 1.644690272292521e+00	 4.348267759149225e+00
 6.378313778929237e-01	 1.656611633067583e+00	 4.089492137118203e+00
 5.991270047707274e-01	 1.667694995839532e+00	 3.838537211916276e+00
 5.601398833766249e-01	 1.677951090440714e+00	 3.597360666507816e+00
 5.208987201019113e-01	 1.687391723537195e+00	 3.367881092723858e+00
 4.814319901362585e-01	 1.696029719062592e+00	 3.151965257686991e+00
 4.417678701064070e-01	 1.703878856641999e+00	 2.951416663312669e+00
 4.019341741579514e-01	 1.710953808416969e+00	 2.767965452027788e+00
 7.957120984556170e-01	 1.616953581256991e+00	 5.195059511753491e+00
 7.581222834650545e-01	 1.631560456501998e+00	 4.925605686874033e+00
 7.201307702472227e-01	 1.645297087242690e+00	 4.657945791505622e+00
 6.817666935161193e-01	 1.658170700473988e+00	 4.394059289080432e+00
 6.430592558895327e-01	 1.670189772684440e+00	 4.135933742741404e+00
 6.040376488596789e-01	 1.681363978381566e+00	 3.885548650060001e+00
 5.647309760590077e-01	 1.691704135342993e+00	 3.644860232296559e+00
 5.251681791659194e-01	 1.701222147006158e+00	 3.415787319076734e+00
 4.853779667621870e-01	 1.709930942413911e+00	 3.200198440479746e+00
 4.453887464195303e-01	 1.717844414133743e+00	 2.999900209953830e+00
 4.052285602575090e-01	 1.724977354564966e+00	 2.816627053862057e+00
 8.021810003307788e-01	 1.630098931279753e+00	 5.237702092672345e+00
 7.642855913636152e-01	 1.644824556060741e+00	 4.969105898469182e+00
 7.259852184824847e-01	 1.658672861509265e+00	 4.702251336358488e+00
 6.873092532578907e-01	 1.671651133373571e+00	 4.439106581056959e+00
 6.482871357161660e-01	 1.683767917053543e+00	 4.181649913208036e+00
 6.089482946676221e-01	 1.695032965707572e+00	 3.931853447800186e+00
 5.693220703485324e-01	 1.705457185058600e+00	 3.691667804536280e+00
 5.294376397244840e-01	 1.715052575315472e+00	 3.463007863755885e+00
 4.893239447694297e-01	 1.723832170630307e+00	 3.247739722560821e+00
 4.490096240001493e-01	 1.731809976513040e+00	 3.047668937091813e+00
 4.085229475102454e-01	 1.739000905620783e+00	 2.864530109130707e+00
 8.086499052247982e-01	 1.643244287437012e+00	 5.279605781160924e+00
 7.704489021384195e-01	 1.658088661809354e+00	 5.011864372409537e+00
 7.318396694498567e-01	 1.672048642017778e+00	 4.745822957220179e+00
 6.928518155862287e-01	 1.685131572563887e+00	 4.483434771363997e+00
 6.535150179825203e-01	 1.697346067758932e+00	 4.226664992527494e+00
 6.138589427672496e-01	 1.708701959412215e+00	 3.977474404847059e+00
 5.739131667806222e-01	 1.719210241192035e+00	 3.737803991700367e+00
 5.337071022755197e-01	 1.728883010078692e+00	 3.509560602591716e+00
 4.932699246181828e-01	 1.737733405333628e+00	 3.294603811010584e+00
 4.526305032705575e-01	 1.745775545409268e+00	 3.094734051386643e+00
 4.118173363003946e-01	 1.753024463220587e+00	 2.911682095396688e+00
 8.151188138921801e-01	 1.656389651262230e+00	 5.320791851632217e+00
 7.766122165083079e-01	 1.671352775295169e+00	 5.053904395971333e+00
 7.376941238321383e-01	 1.685424430328613e+00	 4.788684930555439e+00
 6.983943811475419e-01	 1.698612019617553e+00	 4.527068198123461e+00
 6.587429032982937e-01	 1.710924226384649e+00	 4.271002551710287e+00
 6.187695937312543e-01	 1.722370961090161e+00	 4.022433596954754e+00
 5.785042658906995e-01	 1.732963305347800e+00	 3.783288747893526e+00
 5.379765673169407e-01	 1.742713452909376e+00	 3.555462843830079e+00
 4.972159067686416e-01	 1.751634648145715e+00	 3.340804945965754e+00
 4.562513846530479e-01	 1.759741122451803e+00	 3.141106403738517e+00
 4.151117270121904e-01	 1.767048029000546e+00	 2.958090252923260e+00
 8.215877270874299e-01	 1.669535024288868e+00	 5.361280908229971e+00
 7.827755351921207e-01	 1.684616898065521e+00	 5.095248522776052e+00
 7.435485823121284e-01	 1.698800228002152e+00	 4.830860768027858e+00
 7.039369505882389e-01	 1.712092476107183e+00	 4.570030432723128e+00
 6.639707922731833e-01	 1.724502394514735e+00	 4.314685419205107e+00
 6.236802481323296e-01	 1.736039972336078e+00	 4.066752404426023e+00
 5.830953682141872e-01	 1.746716379130398e+00	 3.828141398615768e+00
 5.422460353466614e-01	 1.756543905421082e+00	 3.600731350479225e+00
 5.011618916810020e-01	 1.765535900688415e+00	 3.386356919003631e+00
 4.598722685699141e-01	 1.773706709270024e+00	 3.186796503295654e+00
 4.184061200298669e-01	 1.781071604596829e+00	 3.003761594019272e+00
 8.280566455650521e-01	 1.682680408050388e+00	 5.401092911021289e+00
 7.889388589086984e-01	 1.697881031667741e+00	 5.135918601457345e+00
 7.494030455726264e-01	 1.712176036598776e+00	 4.872373246381823e+00
 7.094795245547295e-01	 1.725572943605394e+00	 4.612344309772339e+00
 6.691986855168869e-01	 1.738080573733230e+00	 4.357735709908537e+00
 6.285909065431682e-01	 1.749708994744632e+00	 4.110451539280632e+00
 5.876864742865079e-01	 1.760469464144329e+00	 3.872380665318583e+00
 5.465155068625969e-01	 1.770374369227367e+00	 3.645382361608686e+00
 5.051078798154598e-01	 1.779437164583574e+00	 3.431273090664777e+00
 4.634931554434493e-01	 1.787672307493307e+00	 3.231814530805166e+00
 4.217005157376584e-01	 1.795095191645604e+00	 3.048702911946141e+00
 8.345255700795510e-01	 1.695825804080252e+00	 5.440247200970835e+00
 7.951021883768820e-01	 1.711145177649163e+00	 5.175935802994273e+00
 7.552575142964307e-01	 1.725551857678868e+00	 4.913244435934031e+00
 7.150221036934218e-01	 1.739053423684801e+00	 4.654031955664014e+00
 6.744265836391021e-01	 1.751658765624176e+00	 4.400174852825446e+00
 6.335015695364629e-01	 1.763378029910489e+00	 4.153551071159732e+00
 5.922775846430843e-01	 1.774222561994095e+00	 3.916024688818776e+00
 5.507849823626615e-01	 1.784204845941787e+00	 3.689431612657613e+00
 5.090538716322107e-01	 1.793338441453034e+00	 3.475566407160344e+00
 4.671140456959468e-01	 1.801637918751031e+00	 3.276170351343013e+00
 4.249949145197989e-01	 1.809118791783039e+00	 3.092920789410571e+00
 8.409945013854322e-01	 1.708971213911920e+00	 5.478762523762093e+00
 8.012655243155109e-01	 1.724409337557121e+00	 5.215320646782934e+00
 7.611119891663416e-01	 1.738927692802811e+00	 4.953495727750063e+00
 7.205646886507253e-01	 1.752533917918023e+00	 4.695114815818359e+00
 6.796544872495266e-01	 1.765236971771615e+00	 4.442023617452360e+00
 6.384122376849063e-01	 1.777047079428316e+00	 4.196070452034496e+00
 5.968686998193392e-01	 1.787975674284199e+00	 3.959091051631356e+00
 5.550544623447694e-01	 1.798035337177901e+00	 3.732894354805460e+00
 5.129998675914502e-01	 1.807239732918643e+00	 3.519249416308189e+00
 4.707349397497000e-01	 1.815603544672573e+00	 3.319873526456179e+00
 4.282893167605222e-01	 1.823142406645302e+00	 3.136421606665339e+00
 3.953454038814352e-01	 1.682906724299760e+00	 2.668335452569858e+00
 3.560220848416451e-01	 1.689119859320706e+00	 2.501121842529793e+00
 3.165854117949879e-01	 1.694602641381182e+00	 2.349718751274015e+00
 2.770613785882645e-01	 1.699371756916888e+00	 2.215022772740166e+00
 2.374754056886408e-01	 1.703444513999047e+00	 2.097835298209600e+00
 1.978522965532911e-01	 1.706838777961158e+00	 1.998864574134108e+00
 1.582161980975129e-01	 1.709572907634753e+00	 1.918728390462987e+00
 1.185905652642063e-01	 1.711665692492552e+00	 1.857957312720512e+00
 7.899812966952448e-02	 1.713136290974417e+00	 1.816998372774480e+00
 3.946087227343351e-02	 1.714004170247544e+00	 1.796219136188064e+00
 0.000000000000000e+00	 1.714289047627778e+00	 1.795912068024155e+00
 3.986397888273381e-01	 1.696930265540623e+00	 2.718537578956677e+00
 3.589887913849910e-01	 1.703195174170719e+00	 2.551503227946731e+00
 3.192234953648744e-01	 1.708723643861422e+00	 2.400196884734872e+00
 2.793701112187151e-01	 1.713532500095309e+00	 2.265580864891093e+00
 2.394542712406707e-01	 1.717639195170523e+00	 2.148521103154416e+00
 1.995009855734057e-01	 1.721061743291110e+00	 2.049788797149144e+00
 1.595346023467897e-01	 1.723818656271432e+00	 1.970062732730700e+00
 1.195787719521360e-01	 1.725928880155542e+00	 1.909932203839554e+00
 7.965641542658011e-02	 1.727411733029215e+00	 1.869900440728926e+00
 3.978969689590328e-02	 1.728286844278154e+00	 1.850388462778070e+00
 0.000000000000000e+00	 1.728574095521189e+00	 1.851739275580967e+00
 4.019341741579514e-01	 1.710953808416969e+00	 2.767965452027788e+00
 3.619554982746881e-01	 1.717270490662191e+00	 2.601055327974507e+00
 3.218615792426328e-01	 1.722844647988404e+00	 2.449785582801700e+00
 2.816788441184740e-01	 1.727693244925074e+00	 2.315199358087062e+00
 2.414331370233987e-01	 1.731833877997279e+00	 2.198242290670598e+00
 2.011496747855978e-01	 1.735284710279628e+00	 2.099763609649846e+00
 1.608530067495474e-01	 1.738064406569329e+00	 2.020517978141166e+00
 1.205669787550088e-01	 1.740192069481785e+00	 1.961167992676712e+00
 8.031470126013159e-02	 1.741687176748694e+00	 1.922287253163498e+00
 4.011852155654447e-02	 1.742569519974292e+00	 1.904363917878948e+00
 0.000000000000000e+00	 1.742859145080407e+00	 1.907804660780327e+00
 4.052285602575090e-01	 1.724977354564966e+00	 2.816627053862057e+00
 3.649222058567783e-01	 1.731345810437356e+00	 2.649783539252698e+00
 3.244996637360026e-01	 1.736965655409712e+00	 2.498490332216849e+00
 2.839875775568942e-01	 1.741853993058424e+00	 2.363886075439170e+00
 2.434120032677271e-01	 1.746028564135532e+00	 2.247010842395847e+00
 2.027983643822757e-01	 1.749507680586244e+00	 2.148806557041926e+00
 1.621714114596788e-01	 1.752310160190644e+00	 2.070118233185865e+00
 1.215551857881991e-01	 1.754455262135521e+00	 2.011695946771185e+00
 8.097298724705299e-02	 1.755962623798535e+00	 1.974197453195982e+00
 4.044734629376683e-02	 1.756852199002485e+00	 1.958191362353434e+00
 0.000000000000000e+00	 1.757144197972236e+00	 1.964160786035869e+00
 4.085229475102454e-01	 1.739000905620783e+00	 2.864530109130709e+00
 3.678889144773020e-01	 1.745421135138444e+00	 2.697693084506829e+00
 3.271377491527241e-01	 1.751086667772930e+00	 2.546316443002874e+00
 2.862963118033286e-01	 1.756014746147594e+00	 2.411648588067505e+00
 2.453908702045579e-01	 1.760223255241496e+00	 2.294838353906383e+00
 2.044470545558480e-01	 1.763730655870484e+00	 2.196934619235376e+00
 1.634898166310764e-01	 1.766555918797576e+00	 2.118886827207505e+00
 1.225433931670815e-01	 1.768718459780995e+00	 2.061546325446303e+00
 8.163127346421838e-02	 1.770238075844416e+00	 2.025668437667114e+00
 4.077617114598011e-02	 1.771134883029259e+00	 2.011915177731300e+00
 0.000000000000000e+00	 1.771429255863481e+00	 2.020858517925893e+00
 4.118173363003946e-01	 1.753024463220587e+00	 2.911682095396687e+00
 3.708556244823005e-01	 1.759496466407687e+00	 2.744789019509533e+00
 3.297758358005368e-01	 1.765207686725638e+00	 2.593269055537798e+00
 2.886050471271304e-01	 1.770175505844825e+00	 2.458494225188313e+00
 2.473697380647935e-01	 1.774417952971386e+00	 2.341736050167849e+00
 2.060957454987230e-01	 1.777953637791879e+00	 2.244164233272306e+00
 1.648082224176328e-01	 1.780801684052323e+00	 2.166846343491755e+00
 1.235316010070308e-01	 1.782981664082448e+00	 2.110748420139461e+00
 8.228955998850176e-02	 1.784513534552017e+00	 2.076736406986389e+00
 4.110499615159411e-02	 1.785417573721143e+00	 2.065578325367913e+00
 0.000000000000000e+00	 1.785714320420949e+00	 2.077947094999411e+00
 4.151117270121904e-01	 1.767048029000546e+00	 2.958090252923260e+00
 3.738223362178146e-01	 1.773571805887316e+00	 2.791076239710268e+00
 3.324139239871811e-01	 1.779328713915424e+00	 2.639353147293264e+00
 2.909137837976528e-01	 1.784336273802357e+00	 2.504430083721238e+00
 2.493486070793357e-01	 1.788612658981417e+00	 2.387714800250347e+00
 2.077444374033094e-01	 1.792176628009957e+00	 2.290511314876666e+00
 1.661266289732406e-01	 1.795047457617085e+00	 2.214018648877905e+00
 1.245198094234214e-01	 1.797244876704125e+00	 2.159330592811358e+00
 8.294784689677716e-02	 1.798789001587017e+00	 2.127436412603608e+00
 4.143382134901862e-02	 1.799700272744663e+00	 2.119222402785250e+00
 0.000000000000000e+00	 1.799999393311444e+00	 2.135474192352542e+00
 4.184061200298669e-01	 1.781071604596829e+00	 3.003761594019272e+00
 3.767890500298854e-01	 1.787647155219566e+00	 2.836559486551635e+00
 3.350520140203967e-01	 1.793449750989868e+00	 2.684573539254564e+00
 2.932225220842488e-01	 1.798497051672427e+00	 2.549463037442369e+00
 2.513274774790871e-01	 1.802807374927803e+00	 2.432785131348099e+00
 2.093931304620154e-01	 1.806399628184248e+00	 2.335991278986061e+00
 1.674450364517922e-01	 1.809293241154060e+00	 2.260424921970413e+00
 1.255080185316279e-01	 1.811508099310267e+00	 2.207320312540147e+00
 8.360613426591867e-02	 1.813064478615097e+00	 2.177802402237581e+00
 4.176264677666337e-02	 1.813982981766347e+00	 2.172887697350356e+00
 0.000000000000000e+00	 1.814284476201773e+00	 2.193485983153658e+00
 4.217005157376584e-01	 1.795095191645604e+00	 3.048702911946140e+00
 3.797557662645539e-01	 1.801722516046665e+00	 2.881243353489849e+00
 3.376901062079234e-01	 1.807570799596554e+00	 2.728934902039265e+00
 2.955312622562715e-01	 1.812657841107276e+00	 2.593599745708079e+00
 2.533063494949497e-01	 1.817002102466761e+00	 2.476957242141857e+00
 2.110418248672496e-01	 1.820622639974282e+00	 2.380619059320817e+00
 1.687634450071802e-01	 1.823539036325449e+00	 2.306085680027595e+00
 1.264962284470250e-01	 1.825771333565119e+00	 2.254744190399784e+00
 8.426442217280029e-02	 1.827339967301935e+00	 2.227867262983816e+00
 4.209147247293815e-02	 1.828265702452721e+00	 2.226613237437379e+00
 0.000000000000000e+00	 1.828569570758740e+00	 2.252027197283609e+00
 4.249949145197989e-01	 1.809118791783039e+00	 3.092920789410571e+00
 3.827224852678611e-01	 1.815797890010847e+00	 2.925132291734765e+00
 3.403282008575016e-01	 1.821691861383066e+00	 2.772441761731760e+00
 2.978400045830739e-01	 1.826818643759138e+00	 2.636846661773355e+00
 2.552852233578258e-01	 1.831196843254504e+00	 2.520241015539610e+00
 2.126905208114204e-01	 1.834845665039586e+00	 2.424409127042437e+00
 1.700818547932973e-01	 1.837784844793450e+00	 2.351020804599886e+00
 1.274844392849872e-01	 1.840034581132922e+00	 2.301628012716041e+00
 8.492271069429605e-02	 1.841615469313210e+00	 2.277662862417321e+00
 4.242029847625274e-02	 1.842548436470314e+00	 2.280436841208996e+00
 0.000000000000000e+00	 1.842854678649152e+00	 2.311141177248197e+00
 4.282893167605222e-01	 1.823142406645302e+00	 3.136421606665339e+00
 3.856892073858478e-01	 1.829873278754343e+00	 2.968230615725099e+00
 3.429662982768709e-01	 1.835812937996986e+00	 2.815098505447789e+00
 3.001487493340093e-01	 1.840979461280257e+00	 2.679210040725668e+00
 2.572640992986176e-01	 1.845391598947249e+00	 2.562646030829169e+00
 2.143392184869364e-01	 1.849068705039692e+00	 2.467375508551058e+00
 1.714002659640361e-01	 1.852030668220261e+00	 2.395249565983744e+00
 1.284726511608891e-01	 1.854297843677920e+00	 2.347996772787100e+00
 8.558099990728006e-02	 1.855890986314603e+00	 2.327220087797375e+00
 4.274912482501691e-02	 1.856831185485652e+00	 2.334395163146470e+00
 0.000000000000000e+00	 1.857139801539814e+00	 2.370869931509269e+00
 1.857139801539814e+00	 0.000000000000000e+00	 1.125191862086524e+01
 1.856831185485652e+00	 4.274912482501749e-02	 1.124564201504775e+01
 1.855890986314602e+00	 8.558099990728060e-02	 1.123600932523326e+01
 1.854297843677920e+00	 1.284726511608895e-01	 1.122342519908900e+01
 1.852030668220261e+00	 1.714002659640365e-01	 1.120832762806205e+01
 1.849068705039691e+00	 2.143392184869368e-01	 1.119118841171760e+01
 1.845391598947249e+00	 2.572640992986178e-01	 1.117251332316700e+01
 1.840979461280257e+00	 3.001487493340095e-01	 1.115284194033447e+01
 1.835812937996986e+00	 3.429662982768709e-01	 1.113274710861646e+01
 1.829873278754343e+00	 3.856892073858478e-01	 1.111283400208974e+01
 1.823142406645302e+00	 4.282893167605222e-01	 1.109373875291070e+01
 1.871425938885499e+00	 0.000000000000000e+00	 1.125222244333532e+01
 1.871114948787420e+00	 4.307797452551081e-02	 1.124838609957464e+01
 1.870167517088809e+00	 8.623933586883083e-02	 1.124047877506465e+01
 1.868562119125425e+00	 1.294609332147644e-01	 1.122902621525752e+01
 1.866277503311067e+00	 1.727187707617287e-01	 1.121458888268136e+01
 1.863292755085735e+00	 2.159880332445210e-01	 1.119776139993792e+01
 1.859587362677221e+00	 2.592431157688597e-01	 1.117917158750712e+01
 1.855141284428371e+00	 3.024576580397680e-01	 1.115947906418487e+01
 1.849935017415582e+00	 3.456045830397631e-01	 1.113937338084324e+01
 1.843949667057868e+00	 3.886561401843552e-01	 1.111957166204415e+01
 1.837167017390747e+00	 4.315839529516940e-01	 1.110081573491896e+01
 1.885712081233184e+00	 0.000000000000000e+00	 1.125283904592947e+01
 1.885398717090345e+00	 4.340682434133453e-02	 1.125203964914596e+01
 1.884444052861604e+00	 8.689767206117580e-02	 1.124627477678002e+01
 1.882826399567176e+00	 1.304492156149813e-01	 1.123622671513684e+01
 1.880524343389939e+00	 1.740372760213404e-01	 1.122261073297358e+01
 1.877516810111782e+00	 2.176368485795780e-01	 1.120617280151094e+01
 1.873783131377193e+00	 2.612221329320474e-01	 1.118768677249168e+01
 1.869303112534495e+00	 3.047665675538066e-01	 1.116795099139315e+01
 1.864057101778160e+00	 3.482428687260726e-01	 1.114778432900040e+01
 1.858026060289259e+00	 3.916230740211588e-01	 1.112802162182473e+01
 1.851191633045813e+00	 4.348785902957209e-01	 1.110950852031065e+01
 1.899998216915481e+00	 0.000000000000000e+00	 1.125306935933281e+01
 1.899682478728979e+00	 4.373567400390595e-02	 1.125611727114575e+01
 1.898720581973453e+00	 8.755600794664044e-02	 1.125309986965537e+01
 1.897090673353649e+00	 1.314374975544066e-01	 1.124489009692438e+01
 1.894771176821610e+00	 1.753557806660619e-01	 1.123238906965428e+01
 1.891740858501185e+00	 2.192856631455580e-01	 1.121652138603624e+01
 1.887978893453634e+00	 2.632011491719851e-01	 1.119822972409985e+01
 1.883464934032833e+00	 3.070754759905426e-01	 1.117846872408361e+01
 1.878179179551402e+00	 3.508811531812545e-01	 1.115819815785208e+01
 1.872102446952540e+00	 3.945900064733498e-01	 1.113837540027462e+01
 1.865216242156835e+00	 4.381732261021032e-01	 1.111994723068032e+01
 1.914284334264999e+00	 0.000000000000000e+00	 1.125223517778980e+01
 1.913966222037872e+00	 4.406452324464238e-02	 1.126014805972092e+01
 1.912997092764816e+00	 8.821434298754971e-02	 1.126066547064722e+01
 1.911354928835323e+00	 1.324257782259066e-01	 1.125488383498328e+01
 1.909017991970809e+00	 1.766742836190831e-01	 1.124391990445848e+01
 1.905964888637292e+00	 2.209344755959106e-01	 1.122890297275874e+01
 1.902174637313011e+00	 2.651801628724775e-01	 1.121096618599254e+01
 1.897626737357590e+00	 3.093843814643931e-01	 1.119123696299764e+01
 1.892301239201991e+00	 3.535194342507644e-01	 1.117082655555023e+01
 1.886178815551731e+00	 3.975569351180192e-01	 1.115081879620045e+01
 1.879240833270147e+00	 4.414678576803407e-01	 1.113225810054552e+01
 1.928570421614352e+00	 0.000000000000000e+00	 1.124967838618075e+01
 1.928249935351575e+00	 4.439337179496115e-02	 1.126367505914901e+01
 1.927273573576156e+00	 8.887267664622857e-02	 1.126869154558401e+01
 1.925619154362675e+00	 1.334140568223477e-01	 1.126607932891998e+01
 1.923264777202266e+00	 1.779927838035942e-01	 1.125719936573674e+01
 1.920188888903455e+00	 2.225832845840858e-01	 1.124341053993504e+01
 1.916370351361791e+00	 2.671591724173291e-01	 1.122605698858593e+01
 1.911788510942970e+00	 3.116932820897748e-01	 1.120645434097453e+01
 1.906423269196610e+00	 3.561577097800575e-01	 1.118587493507950e+01
 1.900255154590854e+00	 4.005238575322578e-01	 1.116553210030382e+01
 1.893265394932085e+00	 4.447624823399337e-01	 1.114656362137690e+01
 1.942856467296148e+00	 0.000000000000000e+00	 1.124476022112149e+01
 1.942533607004642e+00	 4.472221938627953e-02	 1.126625475082788e+01
 1.941550012747933e+00	 8.953100838500189e-02	 1.127690629483104e+01
 1.939883338286183e+00	 1.344023325365960e-01	 1.127835175930542e+01
 1.937511520880712e+00	 1.793112801427852e-01	 1.127222369424492e+01
 1.934412847683026e+00	 2.242320887635338e-01	 1.126013432938565e+01
 1.930566024006441e+00	 2.691381761903444e-01	 1.124365822980213e+01
 1.925950243223175e+00	 3.140021759811051e-01	 1.122431364615460e+01
 1.920545258001943e+00	 3.587959776145891e-01	 1.120354266507408e+01
 1.914331452573932e+00	 4.034907712931571e-01	 1.118269029778383e+01
 1.907289915688981e+00	 4.480570973903820e-01	 1.116298267928810e+01
 1.957142459643000e+00	 0.000000000000000e+00	 1.123686056435152e+01
 1.956817225331620e+00	 4.505106575001486e-02	 1.126745656268288e+01
 1.955826398620612e+00	 9.018933766619465e-02	 1.128504585269139e+01
 1.954147468956323e+00	 1.353906045615179e-01	 1.129157994970073e+01
 1.951758211370878e+00	 1.806297715598461e-01	 1.128898923911798e+01
 1.948636753359356e+00	 2.258808867877044e-01	 1.127916194647838e+01
 1.944761643653427e+00	 2.711171725753280e-01	 1.126392144792143e+01
 1.940111922632410e+00	 3.163110612528009e-01	 1.124500203542881e+01
 1.934667194084671e+00	 3.614342355998145e-01	 1.122402329054810e+01
 1.928407698004987e+00	 4.064576739778080e-01	 1.120246326208606e+01
 1.921314384087171e+00	 4.513517001411860e-01	 1.118163068670892e+01
 1.971428386987518e+00	 0.000000000000000e+00	 1.122537726677641e+01
 1.971100778667064e+00	 4.537991061758444e-02	 1.126686239985704e+01
 1.970102719534652e+00	 9.084766395213176e-02	 1.129285399984739e+01
 1.968411534723574e+00	 1.363788720899798e-01	 1.130564623466869e+01
 1.966004837037493e+00	 1.819482569779670e-01	 1.130749245401843e+01
 1.962860594315794e+00	 2.275296773100474e-01	 1.130057845577412e+01
 1.958957198709218e+00	 2.730961599560843e-01	 1.128699378693564e+01
 1.954273537604879e+00	 3.186199360192795e-01	 1.126870123862835e+01
 1.948789065911478e+00	 3.640724815811890e-01	 1.124750474405032e+01
 1.942483879388040e+00	 4.094245631633016e-01	 1.122501594024639e+01
 1.935338788672990e+00	 4.546462879018455e-01	 1.120261970834613e+01
 1.985714237662315e+00	 0.000000000000000e+00	 1.120972550162431e+01
 1.985384255345523e+00	 4.570875372040557e-02	 1.126406619561483e+01
 1.984378963830518e+00	 9.150598670513820e-02	 1.130008188818747e+01
 1.982675523938412e+00	 1.373671343148479e-01	 1.132043633346986e+01
 1.980251386245289e+00	 1.832667353203382e-01	 1.132772989345060e+01
 1.977084358935692e+00	 2.291784589840129e-01	 1.132446647255330e+01
 1.973152677580279e+00	 2.750751367164180e-01	 1.131301815477962e+01
 1.968435076574785e+00	 3.209287983949576e-01	 1.129558775391960e+01
 1.962910861949046e+00	 3.667107134041679e-01	 1.127416954772412e+01
 1.956559985227112e+00	 4.123914364267289e-01	 1.125050853025176e+01
 1.949363117992771e+00	 4.579408579818608e-01	 1.122605858171901e+01
 2.000000000000000e+00	 0.000000000000000e+00	 1.118933714526385e+01
 1.999667643701550e+00	 4.603759478989555e-02	 1.125867348145084e+01
 1.998655119848670e+00	 9.216430538753885e-02	 1.130648777740049e+01
 1.996939424951317e+00	 1.383553904289885e-01	 1.133583922916016e+01
 1.994497847358994e+00	 1.845852055101493e-01	 1.134969820923254e+01
 1.991308035602400e+00	 2.308272304630508e-01	 1.135090625042799e+01
 1.987348068673079e+00	 2.770541012401335e-01	 1.134213337479611e+01
 1.982596527976333e+00	 3.232376464942529e-01	 1.132583303484317e+01
 1.977032570664059e+00	 3.693489289142068e-01	 1.130419500672653e+01
 1.970636004026227e+00	 4.153582913451809e-01	 1.127909665081629e+01
 1.963387360592848e+00	 4.612354076907317e-01	 1.125205303254028e+01
 1.823142406645302e+00	 4.282893167605222e-01	 1.109373875291070e+01
 1.815603544672573e+00	 4.707349397496997e-01	 1.107328695856964e+01
 1.807239732918643e+00	 5.129998675914498e-01	 1.104897731432397e+01
 1.798035337177901e+00	 5.550544623447690e-01	 1.102094354109078e+01
 1.787975674284199e+00	 5.968686998193390e-01	 1.098926374835435e+01
 1.777047079428317e+00	 6.384122376849063e-01	 1.095395457181512e+01
 1.765236971771615e+00	 6.796544872495263e-01	 1.091496557240168e+01
 1.752533917918022e+00	 7.205646886507250e-01	 1.087217400372448e+01
 1.738927692802811e+00	 7.611119891663414e-01	 1.082538005869251e+01
 1.724409337557121e+00	 8.012655243155106e-01	 1.077430270752186e+01
 1.708971213911921e+00	 8.409945013854322e-01	 1.071857623845126e+01
 1.837167017390747e+00	 4.315839529516940e-01	 1.110081573491896e+01
 1.829570162359090e+00	 4.743560909394626e-01	 1.108086574818971e+01
 1.821142011580398e+00	 5.169461437735805e-01	 1.105707415976595e+01
 1.811866810582170e+00	 5.593242455217806e-01	 1.102955314825585e+01
 1.801729763247288e+00	 6.014601410312405e-01	 1.099835897245045e+01
 1.790717099649317e+00	 6.433232545618968e-01	 1.096348627681741e+01
 1.778816142170903e+00	 6.848827621168463e-01	 1.092486267151532e+01
 1.766015369464010e+00	 7.261076672119187e-01	 1.088234369260538e+01
 1.752304477807102e+00	 7.669668797889304e-01	 1.083570825144451e+01
 1.737674439414772e+00	 8.074292979405400e-01	 1.078465468342220e+01
 1.722117557260229e+00	 8.474638920795502e-01	 1.072879750497063e+01
 1.851191633045813e+00	 4.348785902957209e-01	 1.110950852031065e+01
 1.843536784934809e+00	 4.779772433962460e-01	 1.108996634042939e+01
 1.835044295108718e+00	 5.208924213364344e-01	 1.106662398912962e+01
 1.825698288828111e+00	 5.635940301926754e-01	 1.103955951289512e+01
 1.815483857024859e+00	 6.060515838495604e-01	 1.100879674227667e+01
 1.804387124655278e+00	 6.482342731571334e-01	 1.097430004465438e+01
 1.792395317323264e+00	 6.901110388134489e-01	 1.093596935902283e+01
 1.779496825728795e+00	 7.316506477125575e-01	 1.089363561258150e+01
 1.765681267493491e+00	 7.728217724601689e-01	 1.084705662164298e+01
 1.750939545915385e+00	 8.135930737223795e-01	 1.079591358005640e+01
 1.735263905209901e+00	 8.539332850375116e-01	 1.073980823672767e+01
 1.865216242156835e+00	 4.381732261021032e-01	 1.111994723068032e+01
 1.857503400993457e+00	 4.815983941629300e-01	 1.110064470974115e+01
 1.848946572149907e+00	 5.248386970574064e-01	 1.107761860984635e+01
 1.839529760619886e+00	 5.678638128706813e-01	 1.105090067218577e+01
 1.829237944384306e+00	 6.106430245248657e-01	 1.102047210373822e+01
 1.818057143282288e+00	 6.531452894602179e-01	 1.098625905166519e+01
 1.805974486139023e+00	 6.953393130698571e-01	 1.094812836158339e+01
 1.792978275702542e+00	 7.371936256261624e-01	 1.090588370917925e+01
 1.779058050937662e+00	 7.786766623988440e-01	 1.085926219654236e+01
 1.764204646225886e+00	 8.197568466275468e-01	 1.080793150462950e+01
 1.748410247024885e+00	 8.604026749762184e-01	 1.075148769120681e+01
 1.879240833270147e+00	 4.414678576803407e-01	 1.113225810054552e+01
 1.871469999128758e+00	 4.852195402823947e-01	 1.111295515723004e+01
 1.862848831350267e+00	 5.287849677138905e-01	 1.109005007190294e+01
 1.853361214661657e+00	 5.721335900690259e-01	 1.106351651143237e+01
 1.842992014093027e+00	 6.152344593077239e-01	 1.103328323464251e+01
 1.831727144366439e+00	 6.580562994607521e-01	 1.099923055779295e+01
 1.819553637528504e+00	 7.005675806165934e-01	 1.096118710015562e+01
 1.806459708375416e+00	 7.427365964262533e-01	 1.091892688447268e+01
 1.792434817215295e+00	 7.845315448237445e-01	 1.087216686794289e+01
 1.777469729513201e+00	 8.259206116225587e-01	 1.082056497861383e+01
 1.761556571969129e+00	 8.668720566125698e-01	 1.076371872948431e+01
 1.893265394932085e+00	 4.447624823399337e-01	 1.114656362137690e+01
 1.885436567934439e+00	 4.888406787975204e-01	 1.112695037268109e+01
 1.876751061356101e+00	 5.327312300832813e-01	 1.110391065890242e+01
 1.867192639657584e+00	 5.764033583009371e-01	 1.107734869565790e+01
 1.856746054918420e+00	 6.198258844487023e-01	 1.104713132874002e+01
 1.845397116743821e+00	 6.629672991483387e-01	 1.101308575537413e+01
 1.833132760402026e+00	 7.057958371841795e-01	 1.097499751616387e+01
 1.819941112737581e+00	 7.482795555863506e-01	 1.093260881353038e+01
 1.805811555402071e+00	 7.903864149536577e-01	 1.088561721203648e+01
 1.790734784944258e+00	 8.320843636739326e-01	 1.083367477426214e+01
 1.774702869306581e+00	 8.733414246634675e-01	 1.077638768275658e+01
 1.907289915688981e+00	 4.480570973903820e-01	 1.116298267928810e+01
 1.899403096004228e+00	 4.924618067511872e-01	 1.114268149385642e+01
 1.890653250813712e+00	 5.366774809429736e-01	 1.111919287951839e+01
 1.881024024311834e+00	 5.806731140796429e-01	 1.109234060420615e+01
 1.870500055627877e+00	 6.244172961983684e-01	 1.106192048486958e+01
 1.859067049250523e+00	 6.678782845125785e-01	 1.102769962458403e+01
 1.846711843669914e+00	 7.110240785031383e-01	 1.098941590531658e+01
 1.833422477779206e+00	 7.538224985799745e-01	 1.094677776894214e+01
 1.819188254573673e+00	 7.962412680073720e-01	 1.089946431718271e+01
 1.803999801685983e+00	 8.382480977481868e-01	 1.084712575831719e+01
 1.787849128301191e+00	 8.798107738458119e-01	 1.078938422474382e+01
 1.921314384087171e+00	 4.513517001411860e-01	 1.118163068670892e+01
 1.913369571931849e+00	 4.960829211862750e-01	 1.116019816320098e+01
 1.904555388369401e+00	 5.406237170703617e-01	 1.113588945932271e+01
 1.894855357328564e+00	 5.849428539183713e-01	 1.110843726820174e+01
 1.884254004988798e+00	 6.290086908072895e-01	 1.107755760094776e+01
 1.872736930722637e+00	 6.727892515430747e-01	 1.104295079519899e+01
 1.860290876242493e+00	 7.162523003039925e-01	 1.100430275868635e+01
 1.846903792490453e+00	 7.593654208806461e-01	 1.096128645301344e+01
 1.832564903805781e+00	 8.020960992036745e-01	 1.091356361921078e+01
 1.817264768905303e+00	 8.444118088118374e-01	 1.086078674255100e+01
 1.800995338216907e+00	 8.862800988765028e-01	 1.080260124966935e+01
 1.935338788672990e+00	 4.546462879018455e-01	 1.120261970834613e+01
 1.927335984311028e+00	 4.997040191456642e-01	 1.117954858208847e+01
 1.918457462669473e+00	 5.445699352428400e-01	 1.115399333296780e+01
 1.908686627411940e+00	 5.892125743303499e-01	 1.112558531072337e+01
 1.898007891768577e+00	 6.336000645260323e-01	 1.109395227255724e+01
 1.886406749996252e+00	 6.777001962294286e-01	 1.105872141435580e+01
 1.873869847030084e+00	 7.214804983172646e-01	 1.101952261068443e+01
 1.860385045861490e+00	 7.649083179618846e-01	 1.097599183723982e+01
 1.845941492174076e+00	 8.079509037613540e-01	 1.092777474386645e+01
 1.830529675769143e+00	 8.505754918314030e-01	 1.087453034078797e+01
 1.814141488317677e+00	 8.927493944724415e-01	 1.081593475553255e+01
 1.949363117992771e+00	 4.579408579818608e-01	 1.122605858171901e+01
 1.941302321735491e+00	 5.033250976722348e-01	 1.120077956273053e+01
 1.932359462360228e+00	 5.485161322378032e-01	 1.117349763670546e+01
 1.922517823266122e+00	 5.934822718288065e-01	 1.114373288955373e+01
 1.911761704734611e+00	 6.381914136051650e-01	 1.111101669590307e+01
 1.900076495907460e+00	 6.826111145612423e-01	 1.107489702000660e+01
 1.887448744943010e+00	 7.267086682734761e-01	 1.103494389358303e+01
 1.873866226882480e+00	 7.704511852972111e-01	 1.099075500869513e+01
 1.859318008754241e+00	 8.138056768991979e-01	 1.094196135604480e+01
 1.843794511444432e+00	 8.567391417734002e-01	 1.088823283208621e+01
 1.827287567867451e+00	 8.992186553505289e-01	 1.082928373240918e+01
 1.963387360592848e+00	 4.612354076907317e-01	 1.125205303254028e+01
 1.955268572798965e+00	 5.069461538088669e-01	 1.122393657786628e+01
 1.946261376087971e+00	 5.524623048326455e-01	 1.119439570122578e+01
 1.936348933595271e+00	 5.977519429269690e-01	 1.116282964237771e+01
 1.925515432654296e+00	 6.427827342952540e-01	 1.112866557491885e+01
 1.913746157292350e+00	 6.875220025281178e-01	 1.109136641978552e+01
 1.901027558891593e+00	 7.319368059031507e-01	 1.105043879825876e+01
 1.887347324543591e+00	 7.759940183601458e-01	 1.100544102298886e+01
 1.872694442621957e+00	 8.196604138359943e-01	 1.095599101547053e+01
 1.857059265098094e+00	 8.629027536043464e-01	 1.090177402976974e+01
 1.840433566130177e+00	 9.056878762276653e-01	 1.084255005552861e+01
 1.708971213911921e+00	 8.409945013854322e-01	 1.071857623845126e+01
 1.692605878429240e+00	 8.802710158444028e-01	 1.065730741347267e+01
 1.675309537819501e+00	 9.190618649712039e-01	 1.058968725676830e+01
 1.657078811545492e+00	 9.573369733799312e-01	 1.051540327713994e+01
 1.637911814921611e+00	 9.950666874472247e-01	 1.043415090938416e+01
 1.617808190139119e+00	 1.032221864511473e+00	 1.034563641172184e+01
 1.596769131566166e+00	 1.068773961727374e+00	 1.024957979584935e+01
 1.574797405047172e+00	 1.104695124050099e+00	 1.014571775069057e+01
 1.551897360966147e+00	 1.139958270817221e+00	 1.003380651879093e+01
 1.528074940881947e+00	 1.174537180395669e+00	 9.913624682974323e+00
 1.503337677589890e+00	 1.208406572365371e+00	 9.784975820472036e+00
 1.722117557260229e+00	 8.474638920795502e-01	 1.072879750497063e+01
 1.705626330646489e+00	 8.870425430173238e-01	 1.066737791126046e+01
 1.688196937103913e+00	 9.261317926190925e-01	 1.059972561044010e+01
 1.669825970090350e+00	 9.647013341425724e-01	 1.052551662352370e+01
 1.650511530422169e+00	 1.002721285852451e+00	 1.044443661100085e+01
 1.630253257538177e+00	 1.040162280905763e+00	 1.035618394260962e+01
 1.609052354994264e+00	 1.076995556889963e+00	 1.026047278169825e+01
 1.586911609911249e+00	 1.113193044483923e+00	 1.015703614199983e+01
 1.563835406138682e+00	 1.148727454705887e+00	 1.004562887275756e+01
 1.539829730941159e+00	 1.183572364211581e+00	 9.926030527157337e+00
 1.514902175060389e+00	 1.217702298110054e+00	 9.798048069033463e+00
 1.735263905209901e+00	 8.539332850375116e-01	 1.073980823672767e+01
 1.718646787421024e+00	 8.938140725599182e-01	 1.067812225156298e+01
 1.701084340899041e+00	 9.332017227411900e-01	 1.061032719972561e+01
 1.682573133096854e+00	 9.720656974825775e-01	 1.053609233845719e+01
 1.663111250332794e+00	 1.010375886936732e+00	 1.045509723709987e+01
 1.642698329293209e+00	 1.048102700079252e+00	 1.036703493282759e+01
 1.621335582721734e+00	 1.085217154930274e+00	 1.027161509335192e+01
 1.599025819015587e+00	 1.121690967892286e+00	 1.016856714285694e+01
 1.575773455489876e+00	 1.157496641664130e+00	 1.005764330563775e+01
 1.551584525114940e+00	 1.192607551190254e+00	 9.938621521083615e+00
 1.526466676578907e+00	 1.226998027108758e+00	 9.811308183843076e+00
 1.748410247024885e+00	 8.604026749762184e-01	 1.075148769120681e+01
 1.731667238119636e+00	 9.005855989422995e-01	 1.068945098379170e+01
 1.713971738680369e+00	 9.402716495638588e-01	 1.062142997253538e+01
 1.695320290155044e+00	 9.794300573857910e-01	 1.054709175918936e+01
 1.675710964363958e+00	 1.018030484448819e+00	 1.046611341022918e+01
 1.655143395241000e+00	 1.056043115547207e+00	 1.037818511374298e+01
 1.633618804717539e+00	 1.093438749133876e+00	 1.028301334593329e+01
 1.611140022467182e+00	 1.130188887335035e+00	 1.018032400357484e+01
 1.587711499270573e+00	 1.166265824530218e+00	 1.006986545695388e+01
 1.563339313803775e+00	 1.201642733952688e+00	 9.951411476939859e+00
 1.538031172701298e+00	 1.236293751769691e+00	 9.824763989993277e+00
 1.761556571969129e+00	 8.668720566125698e-01	 1.076371872948431e+01
 1.744687672109121e+00	 9.073571166345787e-01	 1.070127732660928e+01
 1.726859119923383e+00	 9.473415673134628e-01	 1.063297372791969e+01
 1.708067430854960e+00	 9.867944078380598e-01	 1.055847737570347e+01
 1.688310662226134e+00	 1.025685072137461e+00	 1.047746632982133e+01
 1.667588445218332e+00	 1.063983520824892e+00	 1.038963034248792e+01
 1.645902010950641e+00	 1.101660332786341e+00	 1.029467395539716e+01
 1.623254210373027e+00	 1.138686795872015e+00	 1.019231957725384e+01
 1.599649527731620e+00	 1.175034996142415e+00	 1.008231049777676e+01
 1.575094087408144e+00	 1.210677905119885e+00	 9.964413793136814e+00
 1.549595653983415e+00	 1.245589464501062e+00	 9.838423077676998e+00
 1.774702869306581e+00	 8.733414246634675e-01	 1.077638768275658e+01
 1.757708078756272e+00	 9.141286201068685e-01	 1.071351706905329e+01
 1.739746474103564e+00	 9.544114702163639e-01	 1.064490004748239e+01
 1.720814544786643e+00	 9.941587428252298e-01	 1.057021278798783e+01
 1.700910333629795e+00	 1.033339643751411e+00	 1.048913775078287e+01
 1.680033469061990e+00	 1.071923909427571e+00	 1.040136659724925e+01
 1.658185191390005e+00	 1.109881899173237e+00	 1.030660314584840e+01
 1.635368372840116e+00	 1.147184686563073e+00	 1.020456633443039e+01
 1.611587531123863e+00	 1.183804149338989e+00	 1.009499314800976e+01
 1.586848836328530e+00	 1.219713057312842e+00	 9.977641469566400e+00
 1.561160110981111e+00	 1.254885157711081e+00	 9.852292810817943e+00
 1.787849128301191e+00	 8.798107738458119e-01	 1.078938422474382e+01
 1.770728447427880e+00	 9.209001038292814e-01	 1.072608847601243e+01
 1.752633790696398e+00	 9.614813524989267e-01	 1.065715222981382e+01
 1.733561621540131e+00	 1.001523056333147e+00	 1.058226266518740e+01
 1.713509968285415e+00	 1.040994193039420e+00	 1.050110996302618e+01
 1.692478456608756e+00	 1.079864274870510e+00	 1.041338997276566e+01
 1.670468336004593e+00	 1.118103441580136e+00	 1.031880695653818e+01
 1.647482499975440e+00	 1.155682552468055e+00	 1.021707637708105e+01
 1.623525499698146e+00	 1.192573276958207e+00	 1.010792769291237e+01
 1.598603550965414e+00	 1.228748183152560e+00	 9.991107122187387e+00
 1.572724534250239e+00	 1.264180823807955e+00	 9.866380335321233e+00
 1.800995338216907e+00	 8.862800988765028e-01	 1.080260124966935e+01
 1.783748767490742e+00	 9.276715622719288e-01	 1.073891219783324e+01
 1.765521059177368e+00	 9.685512083875137e-01	 1.066967522778899e+01
 1.746308650705469e+00	 1.008887342347659e+00	 1.059459270654038e+01
 1.726109555903467e+00	 1.048648713750238e+00	 1.051336577189576e+01
 1.704923397695415e+00	 1.087804610668973e+00	 1.042569667602165e+01
 1.682751434763369e+00	 1.126324953292607e+00	 1.033129124855440e+01
 1.659596581885995e+00	 1.164180386646806e+00	 1.022986145201464e+01
 1.635463423705317e+00	 1.201342371838334e+00	 1.012112799890157e+01
 1.610358221719277e+00	 1.237783275260038e+00	 1.000482299697361e+01
 1.584288914346650e+00	 1.273476455199893e+00	 9.880692586963317e+00
 1.814141488317677e+00	 8.927493944724415e-01	 1.081593475553255e+01
 1.796769028311650e+00	 9.344429899049237e-01	 1.075191118384829e+01
 1.778408269021958e+00	 9.756210321084881e-01	 1.068241558858583e+01
 1.759055621872693e+00	 1.016251594854609e+00	 1.060716960400953e+01
 1.738709086194424e+00	 1.056303199632616e+00	 1.052588847944370e+01
 1.717368282158750e+00	 1.095744910338224e+00	 1.043828302212827e+01
 1.695034477635295e+00	 1.134546427596219e+00	 1.034406171122183e+01
 1.671710608678773e+00	 1.172678182159173e+00	 1.024293296368327e+01
 1.647401293396220e+00	 1.210111426817637e+00	 1.013460752866778e+01
 1.622112838990602e+00	 1.246818326256276e+00	 1.001880098325720e+01
 1.595853241826199e+00	 1.282772044295103e+00	 9.895236298939761e+00
 1.827287567867451e+00	 8.992186553505289e-01	 1.082928373240918e+01
 1.809789219257397e+00	 9.412143811983774e-01	 1.076501059962873e+01
 1.791295409705652e+00	 9.826908178882128e-01	 1.069532139628692e+01
 1.771802524631845e+00	 1.023615807839846e+00	 1.061996100652291e+01
 1.751308548868758e+00	 1.063957644435306e+00	 1.053866186651158e+01
 1.729813099835545e+00	 1.103685167393529e+00	 1.045114543038131e+01
 1.707317454589336e+00	 1.142767857776545e+00	 1.035712386822677e+01
 1.683824570460768e+00	 1.181175932065001e+00	 1.025630198644177e+01
 1.659339099021701e+00	 1.218880434734381e+00	 1.014837935563980e+01
 1.633867393179869e+00	 1.255853328762274e+00	 1.003305262649712e+01
 1.607417507244739e+00	 1.292067583501795e+00	 9.910018009087951e+00
 1.840433566130177e+00	 9.056878762276653e-01	 1.084255005552861e+01
 1.822809329694776e+00	 9.479857306224022e-01	 1.077813774777556e+01
 1.804182470703934e+00	 9.897605599530511e-01	 1.070834221693584e+01
 1.784549348572964e+00	 1.030979975289214e+00	 1.063293548574391e+01
 1.763907933636944e+00	 1.071612041907058e+00	 1.055167017557872e+01
 1.742257840562584e+00	 1.111625375350152e+00	 1.046428042048801e+01
 1.719600355594455e+00	 1.150989237119153e+00	 1.037048308347967e+01
 1.695938457338973e+00	 1.189673629424137e+00	 1.026997927628267e+01
 1.671276830832606e+00	 1.227649388426834e+00	 1.016245617783117e+01
 1.645621874687561e+00	 1.264888275399031e+00	 1.004758914050158e+01
 1.618981701158121e+00	 1.301363065228178e+00	 9.925044066800989e+00
 1.503337677589890e+00	 1.208406572365371e+00	 9.784975820472036e+00
 1.477694684641512e+00	 1.241542189619976e+00	 9.647426268609195e+00
 1.451156631409414e+00	 1.273920882760728e+00	 9.500602313871569e+00
 1.423735734706447e+00	 1.305520673096032e+00	 9.344453151947665e+00
 1.395445736040656e+00	 1.336320817023064e+00	 9.178976325533240e+00
 1.366301868460640e+00	 1.366301868460640e+00	 9.004218664370374e+00
 1.336320817023063e+00	 1.395445736040656e+00	 8.820276698414187e+00
 1.305520673096032e+00	 1.423735734706447e+00	 8.627296533719260e+00
 1.273920882760727e+00	 1.451156631409415e+00	 8.425473190539631e+00
 1.241542189619975e+00	 1.477694684641513e+00	 8.215049413090014e+00
 1.208406572365371e+00	 1.503337677589890e+00	 7.996313970134383e+00
 1.514902175060389e+00	 1.217702298110054e+00	 9.798048069033463e+00
 1.489061922154348e+00	 1.251092812695976e+00	 9.661268422531560e+00
 1.462319723670283e+00	 1.283720580492737e+00	 9.515327925437651e+00
 1.434687890399449e+00	 1.315563453736617e+00	 9.360164547223160e+00
 1.406180269557087e+00	 1.346600529253643e+00	 9.195763810770631e+00
 1.376812211372734e+00	 1.376812211372734e+00	 9.022159811493697e+00
 1.346600529253642e+00	 1.406180269557087e+00	 8.839435718202319e+00
 1.315563453736616e+00	 1.434687890399449e+00	 8.647723744109388e+00
 1.283720580492737e+00	 1.462319723670283e+00	 8.447204586131196e+00
 1.251092812695975e+00	 1.489061922154348e+00	 8.238106340472314e+00
 1.217702298110054e+00	 1.514902175060389e+00	 8.020702912122710e+00
 1.526466676578907e+00	 1.226998027108758e+00	 9.811308183843076e+00
 1.500429163646209e+00	 1.260643439115263e+00	 9.675302418721818e+00
 1.473482819838770e+00	 1.293520281655245e+00	 9.530244652932403e+00
 1.445640049926278e+00	 1.325606237892797e+00	 9.376060420830651e+00
 1.416914806831205e+00	 1.356880245082748e+00	 9.212722216611814e+00
 1.387322557964068e+00	 1.387322557964069e+00	 9.040250603477066e+00
 1.356880245082748e+00	 1.416914806831205e+00	 8.858714810570843e+00
 1.325606237892796e+00	 1.445640049926279e+00	 8.668232804748772e+00
 1.293520281655244e+00	 1.473482819838770e+00	 8.468970833898787e+00
 1.260643439115263e+00	 1.500429163646209e+00	 8.261142448315811e+00
 1.226998027108757e+00	 1.526466676578907e+00	 8.045007016242350e+00
 1.538031172701298e+00	 1.236293751769691e+00	 9.824763989993277e+00
 1.511796399834000e+00	 1.270194061077886e+00	 9.689528358527461e+00
 1.484645910798441e+00	 1.303319978244912e+00	 9.545345522042338e+00
 1.456592204342702e+00	 1.335649017362756e+00	 9.392127387849417e+00
 1.427649339096438e+00	 1.367159956115121e+00	 9.229832425503442e+00
 1.397832899651095e+00	 1.397832899651095e+00	 9.058466876842019e+00
 1.367159956115120e+00	 1.427649339096439e+00	 8.878085457273517e+00
 1.335649017362756e+00	 1.456592204342703e+00	 8.688791533897193e+00
 1.303319978244911e+00	 1.484645910798441e+00	 8.490736775661070e+00
 1.270194061077885e+00	 1.511796399834000e+00	 8.284120280534697e+00
 1.236293751769691e+00	 1.538031172701298e+00	 8.069187194315036e+00
 1.549595653983415e+00	 1.245589464501062e+00	 9.838423077676998e+00
 1.523163621434620e+00	 1.279744670783892e+00	 9.703946339118737e+00
 1.495808987432858e+00	 1.313119662258399e+00	 9.560623765645778e+00
 1.467544344704487e+00	 1.345691783944678e+00	 9.408352462052552e+00
 1.438383857586212e+00	 1.377439653955503e+00	 9.247075889828910e+00
 1.408343227850264e+00	 1.408343227850265e+00	 9.076785188764681e+00
 1.377439653955501e+00	 1.438383857586212e+00	 8.897519990774111e+00
 1.345691783944678e+00	 1.467544344704487e+00	 8.709368709910652e+00
 1.313119662258398e+00	 1.495808987432858e+00	 8.512468302173748e+00
 1.279744670783891e+00	 1.523163621434620e+00	 8.307003498528498e+00
 1.245589464501063e+00	 1.549595653983416e+00	 8.093205524283549e+00
 1.561160110981111e+00	 1.254885157711081e+00	 9.852292810817943e+00
 1.534530819164973e+00	 1.289295260433329e+00	 9.718556453571653e+00
 1.506972040625587e+00	 1.322919325692369e+00	 9.576072816064860e+00
 1.478496462067399e+00	 1.355734529436747e+00	 9.424723041063155e+00
 1.449118353533953e+00	 1.387719330208632e+00	 9.264434610718158e+00
 1.418853533978028e+00	 1.418853533978028e+00	 9.095182790298203e+00
 1.387719330208631e+00	 1.449118353533954e+00	 8.916991562645713e+00
 1.355734529436746e+00	 1.478496462067399e+00	 8.729934035581850e+00
 1.322919325692368e+00	 1.506972040625587e+00	 8.534132314170726e+00
 1.289295260433328e+00	 1.534530819164974e+00	 8.329756839674511e+00
 1.254885157711081e+00	 1.561160110981111e+00	 8.117025206891476e+00
 1.572724534250239e+00	 1.264180823807955e+00	 9.866380335321233e+00
 1.545897983741961e+00	 1.298845822226245e+00	 9.733358790947467e+00
 1.518135061260190e+00	 1.332718960543483e+00	 9.591686297658740e+00
 1.489448547487204e+00	 1.365777245637144e+00	 9.441226892163927e+00
 1.459852818173088e+00	 1.397998976479250e+00	 9.281891117790165e+00
 1.429363809450838e+00	 1.429363809450839e+00	 9.113637600774007e+00
 1.397998976479250e+00	 1.459852818173088e+00	 8.936474113361074e+00
 1.365777245637144e+00	 1.489448547487205e+00	 8.750458104050299e+00
 1.332718960543482e+00	 1.518135061260191e+00	 8.555696685120408e+00
 1.298845822226245e+00	 1.545897983741961e+00	 8.352346077647219e+00
 1.264180823807955e+00	 1.572724534250238e+00	 8.140610524269796e+00
 1.584288914346650e+00	 1.273476455199893e+00	 9.880692586963317e+00
 1.557265105882484e+00	 1.308396348362689e+00	 9.748353436368681e+00
 1.529298040220234e+00	 1.342518558808402e+00	 9.607458019740408e+00
 1.500400592019669e+00	 1.375819924344055e+00	 9.457852138726969e+00
 1.470587242737042e+00	 1.408278584372098e+00	 9.299428449780871e+00
 1.439874045685145e+00	 1.439874045685146e+00	 9.132128183321697e+00
 1.408278584372098e+00	 1.470587242737043e+00	 8.955942343403196e+00
 1.375819924344054e+00	 1.500400592019670e+00	 8.770912366202323e+00
 1.342518558808402e+00	 1.529298040220234e+00	 8.577130225609460e+00
 1.308396348362688e+00	 1.557265105882484e+00	 8.374737984471903e+00
 1.273476455199893e+00	 1.584288914346650e+00	 8.163926800333394e+00
 1.595853241826199e+00	 1.282772044295103e+00	 9.895236298939761e+00
 1.568632176303445e+00	 1.317946831042709e+00	 9.763540471091742e+00
 1.540460968389281e+00	 1.352318112483789e+00	 9.623381969800894e+00
 1.511352586720562e+00	 1.385862557355662e+00	 9.474587247232279e+00
 1.481321618459244e+00	 1.418558145491916e+00	 9.317030136011365e+00
 1.450384234097401e+00	 1.450384234097401e+00	 9.150633721451053e+00
 1.418558145491915e+00	 1.481321618459244e+00	 8.975371685629232e+00
 1.385862557355662e+00	 1.511352586720562e+00	 8.791269099485223e+00
 1.352318112483789e+00	 1.540460968389282e+00	 8.598402649271648e+00
 1.317946831042709e+00	 1.568632176303445e+00	 8.396900294224363e+00
 1.282772044295103e+00	 1.595853241826199e+00	 8.186940362895486e+00
 1.607417507244739e+00	 1.292067583501795e+00	 9.910018009087951e+00
 1.579999185721744e+00	 1.327497262466353e+00	 9.778919972576730e+00
 1.551623836650896e+00	 1.362117613566305e+00	 9.639452307025348e+00
 1.522304522645647e+00	 1.395905136470149e+00	 9.491421014845479e+00
 1.492055936573117e+00	 1.428837651443444e+00	 9.334680178654486e+00
 1.460894366104057e+00	 1.460894366104057e+00	 9.169133996642611e+00
 1.428837651443443e+00	 1.492055936573118e+00	 8.994738278824705e+00
 1.395905136470148e+00	 1.522304522645648e+00	 8.811501378064801e+00
 1.362117613566304e+00	 1.551623836650896e+00	 8.619484540184398e+00
 1.327497262466353e+00	 1.579999185721745e+00	 8.418801668294343e+00
 1.292067583501795e+00	 1.607417507244739e+00	 8.209618507414181e+00
 1.618981701158121e+00	 1.301363065228178e+00	 9.925044066800989e+00
 1.591366124854286e+00	 1.337047634833670e+00	 9.794492014554081e+00
 1.562786635888641e+00	 1.371917054052611e+00	 9.655663356086382e+00
 1.533256390850693e+00	 1.405947653485699e+00	 9.508342557526733e+00
 1.502790188312090e+00	 1.439117093831422e+00	 9.352363035759717e+00
 1.471404433121564e+00	 1.471404433121565e+00	 9.187609366896814e+00
 1.439117093831422e+00	 1.502790188312090e+00	 9.014018942388825e+00
 1.405947653485699e+00	 1.533256390850694e+00	 8.831583044259064e+00
 1.371917054052610e+00	 1.562786635888642e+00	 8.640347321659540e+00
 1.337047634833670e+00	 1.591366124854286e+00	 8.440411662134320e+00
 1.301363065228178e+00	 1.618981701158121e+00	 8.231929462289107e+00
 1.208406572365371e+00	 1.503337677589890e+00	 7.996313970134383e+00
 1.174537180395669e+00	 1.528074940881948e+00	 7.769228667155470e+00
 1.139958270817220e+00	 1.551897360966147e+00	 7.534094330891858e+00
 1.104695124050098e+00	 1.574797405047172e+00	 7.291790007720147e+00
 1.068773961727374e+00	 1.596769131566166e+00	 7.043252908436761e+00
 1.032221864511472e+00	 1.617808190139118e+00	 6.789469922246470e+00
 9.950666874472238e-01	 1.637911814921611e+00	 6.531468797839844e+00
 9.573369733799303e-01	 1.657078811545492e+00	 6.270309129006657e+00
 9.190618649712032e-01	 1.675309537819501e+00	 6.007073280220796e+00
 8.802710158444024e-01	 1.692605878429240e+00	 5.742857382687367e+00
 8.409945013854322e-01	 1.708971213911920e+00	 5.478762523762091e+00
 1.217702298110054e+00	 1.514902175060389e+00	 8.020702912122710e+00
 1.183572364211580e+00	 1.539829730941159e+00	 7.794988162316367e+00
 1.148727454705886e+00	 1.563835406138682e+00	 7.561289905521615e+00
 1.113193044483922e+00	 1.586911609911249e+00	 7.320463075712210e+00
 1.076995556889963e+00	 1.609052354994264e+00	 7.073418885529196e+00
 1.040162280905762e+00	 1.630253257538177e+00	 6.821116582593971e+00
 1.002721285852451e+00	 1.650511530422170e+00	 6.564554886884590e+00
 9.647013341425719e-01	 1.669825970090350e+00	 6.304763242468740e+00
 9.261317926190918e-01	 1.688196937103913e+00	 6.042793014851804e+00
 8.870425430173231e-01	 1.705626330646489e+00	 5.779708760326452e+00
 8.474638920795503e-01	 1.722117557260229e+00	 5.516579686289450e+00
 1.226998027108757e+00	 1.526466676578907e+00	 8.045007016242350e+00
 1.192607551190254e+00	 1.551584525114940e+00	 7.820588301793974e+00
 1.157496641664129e+00	 1.575773455489876e+00	 7.588240789390172e+00
 1.121690967892286e+00	 1.599025819015588e+00	 7.348799073156858e+00
 1.085217154930273e+00	 1.621335582721735e+00	 7.103152801405200e+00
 1.048102700079251e+00	 1.642698329293210e+00	 6.852238617364540e+00
 1.010375886936732e+00	 1.663111250332794e+00	 6.597031789110090e+00
 9.720656974825767e-01	 1.682573133096854e+00	 6.338537658986450e+00
 9.332017227411892e-01	 1.701084340899041e+00	 6.077783040811083e+00
 8.938140725599177e-01	 1.718646787421024e+00	 5.815807688351954e+00
 8.539332850375116e-01	 1.735263905209901e+00	 5.553655951297058e+00
 1.236293751769691e+00	 1.538031172701298e+00	 8.069187194315036e+00
 1.201642733952688e+00	 1.563339313803775e+00	 7.845989877632072e+00
 1.166265824530217e+00	 1.587711499270573e+00	 7.614909967376742e+00
 1.130188887335034e+00	 1.611140022467182e+00	 7.376765394897038e+00
 1.093438749133876e+00	 1.633618804717538e+00	 7.132428569464143e+00
 1.056043115547206e+00	 1.655143395241000e+00	 6.882818446585627e+00
 1.018030484448818e+00	 1.675710964363958e+00	 6.628892287895829e+00
 9.794300573857903e-01	 1.695320290155044e+00	 6.371637241073905e+00
 9.402716495638580e-01	 1.713971738680371e+00	 6.112061866281758e+00
 9.005855989422986e-01	 1.731667238119637e+00	 5.851187730917404e+00
 8.604026749762183e-01	 1.748410247024885e+00	 5.590041187329552e+00
 1.245589464501063e+00	 1.549595653983416e+00	 8.093205524283549e+00
 1.210677905119885e+00	 1.575094087408144e+00	 7.871154851452769e+00
 1.175034996142414e+00	 1.599649527731621e+00	 7.641261528339744e+00
 1.138686795872015e+00	 1.623254210373027e+00	 7.404330407966149e+00
 1.101660332786340e+00	 1.645902010950641e+00	 7.161220880576355e+00
 1.063983520824891e+00	 1.667588445218332e+00	 6.912839013725126e+00
 1.025685072137460e+00	 1.688310662226134e+00	 6.660129380665428e+00
 9.867944078380592e-01	 1.708067430854960e+00	 6.404066704760857e+00
 9.473415673134616e-01	 1.726859119923383e+00	 6.145647445785499e+00
 9.073571166345781e-01	 1.744687672109121e+00	 5.885881449382557e+00
 8.668720566125701e-01	 1.761556571969129e+00	 5.625783773913527e+00
 1.254885157711081e+00	 1.561160110981111e+00	 8.117025206891476e+00
 1.219713057312841e+00	 1.586848836328531e+00	 7.896046310995626e+00
 1.183804149338989e+00	 1.611587531123863e+00	 7.667260624072568e+00
 1.147184686563072e+00	 1.635368372840115e+00	 7.431463415411692e+00
 1.109881899173236e+00	 1.658185191390005e+00	 7.189505174106229e+00
 1.071923909427571e+00	 1.680033469061990e+00	 6.942283766112052e+00
 1.033339643751411e+00	 1.700910333629796e+00	 6.690736270757933e+00
 9.941587428252290e-01	 1.720814544786643e+00	 6.435830624812015e+00
 9.544114702163635e-01	 1.739746474103565e+00	 6.178557200482111e+00
 9.141286201068681e-01	 1.757708078756272e+00	 5.919920439253012e+00
 8.733414246634674e-01	 1.774702869306581e+00	 5.660930656518001e+00
 1.264180823807955e+00	 1.572724534250238e+00	 8.140610524269796e+00
 1.228748183152559e+00	 1.598603550965414e+00	 7.920628428570154e+00
 1.192573276958206e+00	 1.623525499698147e+00	 7.692873430066097e+00
 1.155682552468054e+00	 1.647482499975440e+00	 7.458134621711409e+00
 1.118103441580135e+00	 1.670468336004593e+00	 7.217257610210760e+00
 1.079864274870509e+00	 1.692478456608757e+00	 6.971136636219055e+00
 1.040994193039419e+00	 1.713509968285416e+00	 6.720706359657012e+00
 1.001523056333147e+00	 1.733561621540132e+00	 6.466933439716598e+00
 9.614813524989264e-01	 1.752633790696398e+00	 6.210808037575553e+00
 9.209001038292806e-01	 1.770728447427881e+00	 5.953335365493793e+00
 8.798107738458119e-01	 1.787849128301191e+00	 5.695527399095343e+00
 1.273476455199893e+00	 1.584288914346650e+00	 8.163926800333394e+00
 1.237783275260037e+00	 1.610358221719277e+00	 7.944866421323764e+00
 1.201342371838334e+00	 1.635463423705318e+00	 7.718067107985833e+00
 1.164180386646805e+00	 1.659596581885995e+00	 7.484315099700648e+00
 1.126324953292606e+00	 1.682751434763369e+00	 7.244455043348725e+00
 1.087804610668972e+00	 1.704923397695415e+00	 6.999382023763006e+00
 1.048648713750237e+00	 1.726109555903467e+00	 6.750033239559777e+00
 1.008887342347658e+00	 1.746308650705469e+00	 6.497379456459951e+00
 9.685512083875132e-01	 1.765521059177368e+00	 6.242416368872272e+00
 9.276715622719285e-01	 1.783748767490743e+00	 5.986155996299875e+00
 8.862800988765027e-01	 1.800995338216907e+00	 5.729618234326412e+00
 1.282772044295103e+00	 1.595853241826199e+00	 8.186940362895486e+00
 1.246818326256276e+00	 1.622112838990602e+00	 7.968726513233406e+00
 1.210111426817636e+00	 1.647401293396220e+00	 7.742809769776891e+00
 1.172678182159172e+00	 1.671710608678773e+00	 7.509976758934682e+00
 1.134546427596219e+00	 1.695034477635296e+00	 7.271074996938935e+00
 1.095744910338224e+00	 1.717368282158750e+00	 7.027004778581890e+00
 1.056303199632615e+00	 1.738709086194423e+00	 6.778710686267857e+00
 1.016251594854609e+00	 1.759055621872693e+00	 6.527172855088137e+00
 9.756210321084874e-01	 1.778408269021958e+00	 6.273398128534021e+00
 9.344429899049229e-01	 1.796769028311650e+00	 6.018411235401651e+00
 8.927493944724416e-01	 1.814141488317677e+00	 5.763246111686027e+00
 1.292067583501795e+00	 1.607417507244739e+00	 8.209618507414181e+00
 1.255853328762274e+00	 1.633867393179869e+00	 7.992175898734596e+00
 1.218880434734381e+00	 1.659339099021702e+00	 7.767070443315252e+00
 1.181175932065001e+00	 1.683824570460768e+00	 7.535092315413540e+00
 1.142767857776545e+00	 1.707317454589337e+00	 7.297095639110369e+00
 1.103685167393528e+00	 1.729813099835545e+00	 7.053990184249527e+00
 1.063957644435305e+00	 1.751308548868758e+00	 6.806732652385085e+00
 1.023615807839845e+00	 1.771802524631845e+00	 6.556317693076259e+00
 9.826908178882120e-01	 1.791295409705652e+00	 6.303768790066549e+00
 9.412143811983766e-01	 1.809789219257397e+00	 6.050129152979052e+00
 8.992186553505291e-01	 1.827287567867451e+00	 5.796452743438088e+00
 1.301363065228178e+00	 1.618981701158121e+00	 8.231929462289107e+00
 1.264888275399030e+00	 1.645621874687561e+00	 8.015182707905359e+00
 1.227649388426834e+00	 1.671276830832607e+00	 7.790819039527598e+00
 1.189673629424137e+00	 1.695938457338974e+00	 7.559635262601826e+00
 1.150989237119153e+00	 1.719600355594456e+00	 7.322495759489028e+00
 1.111625375350151e+00	 1.742257840562584e+00	 7.080323942390884e+00
 1.071612041907057e+00	 1.763907933636944e+00	 6.834093260805583e+00
 1.030979975289214e+00	 1.784549348572964e+00	 6.584817909509344e+00
 9.897605599530503e-01	 1.804182470703934e+00	 6.333543382581485e+00
 9.479857306224013e-01	 1.822809329694776e+00	 6.081337015253640e+00
 9.056878762276651e-01	 1.840433566130176e+00	 5.829278648664049e+00
 8.409945013854322e-01	 1.708971213911920e+00	 5.478762523762091e+00
 8.012655243155109e-01	 1.724409337557121e+00	 5.215320646782936e+00
 7.611119891663416e-01	 1.738927692802811e+00	 4.953495727750063e+00
 7.205646886507253e-01	 1.752533917918023e+00	 4.695114815818359e+00
 6.796544872495266e-01	 1.765236971771615e+00	 4.442023617452362e+00
 6.384122376849063e-01	 1.777047079428316e+00	 4.196070452034494e+00
 5.968686998193392e-01	 1.787975674284199e+00	 3.959091051631356e+00
 5.550544623447694e-01	 1.798035337177901e+00	 3.732894354805461e+00
 5.129998675914502e-01	 1.807239732918643e+00	 3.519249416308191e+00
 4.707349397497000e-01	 1.815603544672573e+00	 3.319873526456179e+00
 4.282893167605222e-01	 1.823142406645302e+00	 3.136421606665339e+00
 8.474638920795503e-01	 1.722117557260229e+00	 5.516579686289450e+00
 8.074292979405404e-01	 1.737674439414771e+00	 5.254030665187178e+00
 7.669668797889307e-01	 1.752304477807102e+00	 4.993114964447545e+00
 7.261076672119189e-01	 1.766015369464010e+00	 4.735622006034858e+00
 6.848827621168465e-01	 1.778816142170903e+00	 4.483360028508724e+00
 6.433232545618970e-01	 1.790717099649317e+00	 4.238140293136611e+00
 6.014601410312407e-01	 1.801729763247288e+00	 4.001762116941798e+00
 5.593242455217809e-01	 1.811866810582170e+00	 3.775998880744066e+00
 5.169461437735808e-01	 1.821142011580397e+00	 3.562585132641903e+00
 4.743560909394629e-01	 1.829570162359090e+00	 3.363204879782856e+00
 4.315839529516940e-01	 1.837167017390746e+00	 3.179481134350449e+00
 8.539332850375116e-01	 1.735263905209901e+00	 5.553655951297058e+00
 8.135930737223799e-01	 1.750939545915384e+00	 5.292047863178594e+00
 7.728217724601693e-01	 1.765681267493491e+00	 5.032118762953107e+00
 7.316506477125579e-01	 1.779496825728795e+00	 4.775612152682536e+00
 6.901110388134490e-01	 1.792395317323264e+00	 4.524288957251112e+00
 6.482342731571338e-01	 1.804387124655278e+00	 4.279912166711179e+00
 6.060515838495607e-01	 1.815483857024858e+00	 4.044232292491360e+00
 5.635940301926756e-01	 1.825698288828111e+00	 3.818973780754850e+00
 5.208924213364347e-01	 1.835044295108718e+00	 3.605822499243385e+00
 4.779772433962463e-01	 1.843536784934809e+00	 3.406414387024982e+00
 4.348785902957209e-01	 1.851191633045813e+00	 3.222325330332553e+00
 8.604026749762183e-01	 1.748410247024885e+00	 5.590041187329550e+00
 8.197568466275470e-01	 1.764204646225886e+00	 5.329435736679955e+00
 7.786766623988444e-01	 1.779058050937662e+00	 5.070577938370567e+00
 7.371936256261629e-01	 1.792978275702541e+00	 4.815157375232943e+00
 6.953393130698574e-01	 1.805974486139023e+00	 4.564878131254373e+00
 6.531452894602180e-01	 1.818057143282288e+00	 4.321444052525021e+00
 6.106430245248660e-01	 1.829237944384306e+00	 4.086544813118145e+00
 5.678638128706814e-01	 1.839529760619885e+00	 3.861842921521483e+00
 5.248386970574066e-01	 1.848946572149907e+00	 3.648961777158505e+00
 4.815983941629303e-01	 1.857503400993456e+00	 3.449474860547288e+00
 4.381732261021031e-01	 1.865216242156835e+00	 3.264896115378788e+00
 8.668720566125701e-01	 1.761556571969129e+00	 5.625783773913527e+00
 8.259206116225591e-01	 1.777469729513201e+00	 5.366255886483791e+00
 7.845315448237447e-01	 1.792434817215295e+00	 5.108561193045825e+00
 7.427365964262537e-01	 1.806459708375415e+00	 4.854327642452271e+00
 7.005675806165935e-01	 1.819553637528503e+00	 4.605193259557604e+00
 6.580562994607525e-01	 1.831727144366439e+00	 4.362792203875676e+00
 6.152344593077244e-01	 1.842992014093028e+00	 4.128741628376259e+00
 5.721335900690260e-01	 1.853361214661656e+00	 3.904629463515293e+00
 5.287849677138907e-01	 1.862848831350267e+00	 3.692003226588117e+00
 4.852195402823951e-01	 1.871469999128757e+00	 3.492359931679705e+00
 4.414678576803406e-01	 1.879240833270148e+00	 3.307137151449329e+00
 8.733414246634674e-01	 1.774702869306581e+00	 5.660930656518000e+00
 8.320843636739330e-01	 1.790734784944258e+00	 5.402568088273082e+00
 7.903864149536578e-01	 1.805811555402070e+00	 5.146135194671913e+00
 7.482795555863507e-01	 1.819941112737581e+00	 4.893190851939925e+00
 7.057958371841797e-01	 1.833132760402026e+00	 4.645298107337870e+00
 6.629672991483389e-01	 1.845397116743820e+00	 4.404011211476911e+00
 6.198258844487028e-01	 1.856746054918419e+00	 4.170863450108395e+00
 5.764033583009375e-01	 1.867192639657585e+00	 3.947355887142796e+00
 5.327312300832817e-01	 1.876751061356101e+00	 3.734947106925685e+00
 4.888406787975209e-01	 1.885436567934440e+00	 3.535044020395487e+00
 4.447624823399336e-01	 1.893265394932085e+00	 3.348993777209911e+00
 8.798107738458119e-01	 1.787849128301191e+00	 5.695527399095343e+00
 8.382480977481868e-01	 1.803999801685982e+00	 5.438430359559906e+00
 7.962412680073720e-01	 1.819188254573673e+00	 5.183364650956811e+00
 7.538224985799749e-01	 1.833422477779206e+00	 4.931812906166625e+00
 7.110240785031388e-01	 1.846711843669915e+00	 4.685254567296604e+00
 6.678782845125789e-01	 1.859067049250523e+00	 4.445154064532501e+00
 6.244172961983688e-01	 1.870500055627877e+00	 4.212949797924356e+00
 5.806731140796434e-01	 1.881024024311833e+00	 3.990044017742375e+00
 5.366774809429741e-01	 1.890653250813712e+00	 3.777793676792364e+00
 4.924618067511876e-01	 1.899403096004228e+00	 3.577502306323933e+00
 4.480570973903820e-01	 1.907289915688981e+00	 3.390412946382932e+00
 8.862800988765027e-01	 1.800995338216907e+00	 5.729618234326412e+00
 8.444118088118379e-01	 1.817264768905302e+00	 5.473899023698774e+00
 8.020960992036750e-01	 1.832564903805781e+00	 5.220312381027631e+00
 7.593654208806463e-01	 1.846903792490453e+00	 4.970257785189255e+00
 7.162523003039928e-01	 1.860290876242493e+00	 4.725122727926831e+00
 6.727892515430750e-01	 1.872736930722637e+00	 4.486272209141386e+00
 6.290086908072897e-01	 1.884254004988797e+00	 4.255039042692570e+00
 5.849428539183718e-01	 1.894855357328564e+00	 4.032715049488584e+00
 5.406237170703621e-01	 1.904555388369402e+00	 3.820543194071982e+00
 4.960829211862753e-01	 1.913369571931849e+00	 3.619710701030079e+00
 4.513517001411860e-01	 1.921314384087171e+00	 3.431343168792885e+00
 8.927493944724416e-01	 1.814141488317677e+00	 5.763246111686027e+00
 8.505754918314032e-01	 1.830529675769143e+00	 5.509028771123368e+00
 8.079509037613544e-01	 1.845941492174077e+00	 5.257039383737858e+00
 7.649083179618851e-01	 1.860385045861490e+00	 5.008587616211512e+00
 7.214804983172648e-01	 1.873869847030084e+00	 4.764960938818809e+00
 6.777001962294289e-01	 1.886406749996252e+00	 4.527415604168748e+00
 6.336000645260328e-01	 1.898007891768577e+00	 4.297168448144660e+00
 5.892125743303502e-01	 1.908686627411939e+00	 4.075389568259798e+00
 5.445699352428404e-01	 1.918457462669473e+00	 3.863195915943096e+00
 4.997040191456646e-01	 1.927335984311028e+00	 3.661645821496976e+00
 4.546462879018455e-01	 1.935338788672990e+00	 3.471734453969186e+00
 8.992186553505291e-01	 1.827287567867451e+00	 5.796452743438088e+00
 8.567391417734005e-01	 1.843794511444431e+00	 5.543872717945289e+00
 8.138056768991981e-01	 1.859318008754242e+00	 5.293604903032080e+00
 7.704511852972115e-01	 1.873866226882480e+00	 5.046862740148681e+00
 7.267086682734767e-01	 1.887448744943010e+00	 4.804825873153019e+00
 6.826111145612430e-01	 1.900076495907461e+00	 4.568632774711172e+00
 6.381914136051653e-01	 1.911761704734611e+00	 4.339374210688454e+00
 5.934822718288069e-01	 1.922517823266122e+00	 4.118087573520866e+00
 5.485161322378036e-01	 1.932359462360229e+00	 3.905752098911380e+00
 5.033250976722351e-01	 1.941302321735491e+00	 3.703284964750519e+00
 4.579408579818608e-01	 1.949363117992770e+00	 3.511538257178492e+00
 9.056878762276651e-01	 1.840433566130176e+00	 5.829278648664049e+00
 8.629027536043467e-01	 1.857059265098094e+00	 5.578482462047349e+00
 8.196604138359946e-01	 1.872694442621957e+00	 5.330066490516142e+00
 7.759940183601461e-01	 1.887347324543590e+00	 5.085141775345717e+00
 7.319368059031509e-01	 1.901027558891593e+00	 4.844772587520739e+00
 6.875220025281183e-01	 1.913746157292350e+00	 4.609970863275324e+00
 6.427827342952547e-01	 1.925515432654296e+00	 4.381691497518188e+00
 5.977519429269694e-01	 1.936348933595271e+00	 4.160828499269817e+00
 5.524623048326459e-01	 1.946261376087971e+00	 3.948211998838995e+00
 5.069461538088672e-01	 1.955268572798964e+00	 3.744606083568697e+00
 4.612354076907317e-01	 1.963387360592848e+00	 3.550707427764507e+00
 4.282893167605222e-01	 1.823142406645302e+00	 3.136421606665339e+00
 3.856892073858478e-01	 1.829873278754343e+00	 2.968230615725099e+00
 3.429662982768709e-01	 1.835812937996986e+00	 2.815098505447789e+00
 3.001487493340093e-01	 1.840979461280257e+00	 2.679210040725668e+00
 2.572640992986176e-01	 1.845391598947249e+00	 2.562646030829167e+00
 2.143392184869364e-01	 1.849068705039692e+00	 2.467375508551058e+00
 1.714002659640361e-01	 1.852030668220261e+00	 2.395249565983744e+00
 1.284726511608891e-01	 1.854297843677920e+00	 2.347996772787100e+00
 8.558099990728006e-02	 1.855890986314603e+00	 2.327220087797373e+00
 4.274912482501691e-02	 1.856831185485652e+00	 2.334395163146472e+00
 0.000000000000000e+00	 1.857139801539814e+00	 2.370869931509269e+00
 4.315839529516940e-01	 1.837167017390746e+00	 3.179481134350449e+00
 3.886561401843551e-01	 1.843949667057867e+00	 3.010784118009584e+00
 3.456045830397630e-01	 1.849935017415582e+00	 2.857100209633509e+00
 3.024576580397679e-01	 1.855141284428371e+00	 2.720817782069297e+00
 2.592431157688595e-01	 1.859587362677220e+00	 2.604222026404269e+00
 2.159880332445207e-01	 1.863292755085735e+00	 2.509485316201880e+00
 1.727187707617282e-01	 1.866277503311066e+00	 2.438659393490378e+00
 1.294609332147639e-01	 1.868562119125425e+00	 2.393669307228036e+00
 8.623933586883026e-02	 1.870167517088808e+00	 2.376309016921218e+00
 4.307797452551022e-02	 1.871114948787420e+00	 2.388238559675524e+00
 0.000000000000000e+00	 1.871425938885499e+00	 2.430982668042098e+00
 4.348785902957209e-01	 1.851191633045813e+00	 3.222325330332553e+00
 3.916230740211588e-01	 1.858026060289259e+00	 3.052972988382959e+00
 3.482428687260724e-01	 1.864057101778160e+00	 2.898568733297747e+00
 3.047665675538065e-01	 1.869303112534495e+00	 2.761724783106161e+00
 2.612221329320471e-01	 1.873783131377193e+00	 2.644953416771553e+00
 2.176368485795777e-01	 1.877516810111782e+00	 2.550655095388150e+00
 1.740372760213400e-01	 1.880524343389939e+00	 2.481108586562788e+00
 1.304492156149808e-01	 1.882826399567176e+00	 2.438463031111632e+00
 8.689767206117521e-02	 1.884444052861604e+00	 2.424731869433328e+00
 4.340682434133394e-02	 1.885398717090345e+00	 2.441788527164912e+00
 0.000000000000000e+00	 1.885712081233184e+00	 2.491363745829730e+00
 4.381732261021031e-01	 1.865216242156835e+00	 3.264896115378788e+00
 3.945900064733499e-01	 1.872102446952540e+00	 3.094713933805396e+00
 3.508811531812543e-01	 1.878179179551401e+00	 2.939409591283697e+00
 3.070754759905426e-01	 1.883464934032833e+00	 2.801838593913578e+00
 2.632011491719848e-01	 1.887978893453635e+00	 2.684762192648000e+00
 2.192856631455576e-01	 1.891740858501185e+00	 2.590832840146955e+00
 1.753557806660615e-01	 1.894771176821610e+00	 2.522581848180651e+00
 1.314374975544061e-01	 1.897090673353649e+00	 2.482409196623004e+00
 8.755600794663987e-02	 1.898720581973453e+00	 2.472575418918213e+00
 4.373567400390536e-02	 1.899682478728979e+00	 2.495195467146505e+00
 0.000000000000000e+00	 1.899998216915481e+00	 2.552234442344433e+00
 4.414678576803406e-01	 1.879240833270148e+00	 3.307137151449328e+00
 3.975569351180192e-01	 1.886178815551730e+00	 3.135926154763351e+00
 3.535194342507643e-01	 1.892301239201991e+00	 2.979531125421969e+00
 3.093843814643928e-01	 1.897626737357590e+00	 2.841069530004544e+00
 2.651801628724773e-01	 1.902174637313011e+00	 2.723572678318051e+00
 2.209344755959103e-01	 1.905964888637292e+00	 2.629968101223550e+00
 1.766742836190827e-01	 1.909017991970809e+00	 2.563064341942023e+00
 1.324257782259062e-01	 1.911354928835323e+00	 2.525538127259757e+00
 8.821434298754918e-02	 1.912997092764816e+00	 2.519923853847826e+00
 4.406452324464179e-02	 1.913966222037871e+00	 2.548605298522682e+00
 0.000000000000000e+00	 1.914284334264999e+00	 2.613809439633490e+00
 4.447624823399336e-01	 1.893265394932085e+00	 3.348993777209911e+00
 4.005238575322579e-01	 1.900255154590855e+00	 3.176531252897196e+00
 3.561577097800574e-01	 1.906423269196610e+00	 3.018844399781053e+00
 3.116932820897747e-01	 1.911788510942969e+00	 2.879330569830033e+00
 2.671591724173288e-01	 1.916370351361791e+00	 2.761311445105731e+00
 2.225832845840856e-01	 1.920188888903456e+00	 2.668011928299169e+00
 1.779927838035937e-01	 1.923264777202266e+00	 2.602541674884210e+00
 1.334140568223472e-01	 1.925619154362675e+00	 2.567879252124072e+00
 8.887267664622797e-02	 1.927273573576155e+00	 2.566858873263597e+00
 4.439337179496055e-02	 1.928249935351575e+00	 2.602159623597252e+00
 0.000000000000000e+00	 1.928570421614352e+00	 2.676297068709670e+00
 4.480570973903820e-01	 1.907289915688981e+00	 3.390412946382933e+00
 4.034907712931571e-01	 1.914331452573932e+00	 3.216453142695049e+00
 3.587959776145891e-01	 1.920545258001943e+00	 3.057263100528946e+00
 3.140021759811049e-01	 1.925950243223175e+00	 2.916537256793124e+00
 2.691381761903441e-01	 1.930566024006441e+00	 2.797907228656305e+00
 2.242320887635335e-01	 1.934412847683027e+00	 2.704916814762584e+00
 1.793112801427847e-01	 1.937511520880713e+00	 2.640999881060683e+00
 1.344023325365955e-01	 1.939883338286182e+00	 2.609461138705784e+00
 8.953100838500133e-02	 1.941550012747933e+00	 2.613459778246369e+00
 4.472221938627893e-02	 1.942533607004641e+00	 2.655995886798520e+00
 0.000000000000000e+00	 1.942856467296148e+00	 2.739899543183485e+00
 4.513517001411860e-01	 1.921314384087171e+00	 3.431343168792884e+00
 4.064576739778081e-01	 1.928407698004986e+00	 3.255617967045334e+00
 3.614342355998144e-01	 1.934667194084671e+00	 3.094703440171122e+00
 3.163110612528008e-01	 1.940111922632410e+00	 2.952607605544998e+00
 2.711171725753277e-01	 1.944761643653427e+00	 2.833290849832052e+00
 2.258808867877040e-01	 1.948636753359356e+00	 2.740636644894731e+00
 1.806297715598457e-01	 1.951758211370878e+00	 2.678425405835864e+00
 1.353906045615175e-01	 1.954147468956323e+00	 2.650311524232228e+00
 9.018933766619409e-02	 1.955826398620612e+00	 2.659803559389447e+00
 4.505106575001425e-02	 1.956817225331620e+00	 2.710247526465968e+00
 0.000000000000000e+00	 1.957142459643000e+00	 2.804813182686527e+00
 4.546462879018455e-01	 1.935338788672990e+00	 3.471734453969186e+00
 4.094245631633016e-01	 1.942483879388039e+00	 3.293954016453343e+00
 3.640724815811889e-01	 1.948789065911478e+00	 3.131084065942263e+00
 3.186199360192792e-01	 1.954273537604879e+00	 2.987462012346080e+00
 2.730961599560841e-01	 1.958957198709218e+00	 2.867395139039992e+00
 2.275296773100471e-01	 1.962860594315794e+00	 2.775126643344199e+00
 1.819482569779667e-01	 1.966004837037493e+00	 2.714805090860834e+00
 1.363788720899793e-01	 1.968411534723574e+00	 2.690457345658949e+00
 9.084766395213119e-02	 1.970102719534653e+00	 2.705964980476628e+00
 4.537991061758383e-02	 1.971100778667064e+00	 2.765044120052796e+00
 0.000000000000000e+00	 1.971428386987518e+00	 2.871228626602317e+00
 4.579408579818608e-01	 1.949363117992770e+00	 3.511538257178492e+00
 4.123914364267289e-01	 1.956559985227112e+00	 3.331391651737244e+00
 3.667107134041679e-01	 1.962910861949047e+00	 3.166325972144429e+00
 3.209287983949575e-01	 1.968435076574785e+00	 3.021023169288252e+00
 2.750751367164178e-01	 1.973152677580279e+00	 2.900154863818991e+00
 2.291784589840126e-01	 1.977084358935692e+00	 2.808343326779871e+00
 1.832667353203377e-01	 1.980251386245289e+00	 2.750126159696847e+00
 1.373671343148474e-01	 1.982675523938413e+00	 2.729924768367772e+00
 9.150598670513761e-02	 1.984378963830518e+00	 2.752016658557102e+00
 4.570875372040495e-02	 1.985384255345523e+00	 2.820511523073708e+00
 0.000000000000000e+00	 1.985714237662315e+00	 2.939331038591749e+00
 4.612354076907317e-01	 1.963387360592848e+00	 3.550707427764507e+00
 4.153582913451808e-01	 1.970636004026227e+00	 3.367863230029261e+00
 3.693489289142067e-01	 1.977032570664059e+00	 3.200352416233628e+00
 3.232376464942527e-01	 1.982596527976333e+00	 3.053215982185016e+00
 2.770541012401332e-01	 1.987348068673079e+00	 2.931506659523312e+00
 2.308272304630504e-01	 1.991308035602400e+00	 2.840244457610310e+00
 1.845852055101490e-01	 1.994497847358994e+00	 2.784376204053136e+00
 1.383553904289880e-01	 1.996939424951316e+00	 2.768739213638637e+00
 9.216430538753825e-02	 1.998655119848669e+00	 2.798029140594682e+00
 4.603759478989493e-02	 1.999667643701550e+00	 2.876772002111648e+00
 0.000000000000000e+00	 2.000000000000000e+00	 3.009300302371960e+00
